x	y	stress_xx
 1.0000000000e+000	 0.0000000000e+000	 1.1797428120e-002
 9.9995537907e-001	 9.4463922618e-003	 1.0176862330e-002
 9.9982082766e-001	 1.8928670806e-002	 1.5644298368e-002
 9.9959532214e-001	 2.8445738363e-002	 2.7779855836e-002
 9.9927785191e-001	 3.7996469419e-002	 4.6154179077e-002
 9.9886742018e-001	 4.7579710273e-002	 7.0329331593e-002
 9.9836304482e-001	 5.7194279111e-002	 9.9859764383e-002
 9.9776375910e-001	 6.6838966101e-002	 1.3429335791e-001
 9.9706861257e-001	 7.6512533521e-002	 1.7317253695e-001
 9.9627667181e-001	 8.6213715910e-002	 2.1603545699e-001
 9.9538702132e-001	 9.5941220239e-002	 2.6241726052e-001
 1.0066667147e+000	 0.0000000000e+000	 1.8897076328e-001
 1.0066217963e+000	 9.5093686589e-003	 1.8703815686e-001
 1.0064863479e+000	 1.9054862846e-002	 1.9193871537e-001
 1.0062593390e+000	 2.8635377975e-002	 2.0323539888e-001
 1.0059397523e+000	 3.8249781031e-002	 2.2048186490e-001
 1.0055265843e+000	 4.7896910619e-002	 2.4322340827e-001
 1.0050188464e+000	 5.7575577046e-002	 2.7099797803e-001
 1.0044155654e+000	 6.7284562415e-002	 3.0333727119e-001
 1.0037157846e+000	 7.7022620753e-002	 3.3976790249e-001
 1.0029185642e+000	 8.6788478160e-002	 3.7981264882e-001
 1.0020229826e+000	 9.6580832988e-002	 4.2299176657e-001
 1.0133335178e+000	 0.0000000000e+000	 3.6076657523e-001
 1.0132883019e+000	 9.5723458919e-003	 3.5852289713e-001
 1.0131519564e+000	 1.9181056560e-002	 3.6287000531e-001
 1.0129234441e+000	 2.8825020104e-002	 3.7334743943e-001
 1.0126017409e+000	 3.8503096002e-002	 3.8949369221e-001
 1.0121858367e+000	 4.8214115171e-002	 4.1083909746e-001
 1.0116747362e+000	 5.7956880036e-002	 4.3690689312e-001
 1.0110674599e+000	 6.7730164636e-002	 4.6721436442e-001
 1.0103630446e+000	 7.7532714744e-002	 5.0127406618e-001
 1.0095605445e+000	 8.7363248025e-002	 5.3859512294e-001
 1.0086590318e+000	 9.7220454211e-002	 5.7868460517e-001
 1.0200003975e+000	 0.0000000000e+000	 5.2683653177e-001
 1.0199548841e+000	 9.6353238502e-003	 5.2430319996e-001
 1.0198176416e+000	 1.9307251728e-002	 5.2811389726e-001
 1.0195876259e+000	 2.9014664415e-002	 5.3779505704e-001
 1.0192638062e+000	 3.8756413888e-002	 5.5287179308e-001
 1.0188451656e+000	 4.8531323372e-002	 5.7286124867e-001
 1.0183307025e+000	 5.8338187413e-002	 5.9727370349e-001
 1.0177194309e+000	 6.8175771982e-002	 6.2561376370e-001
 1.0170103811e+000	 7.8042814602e-002	 6.5738163450e-001
 1.0162026012e+000	 8.7938024501e-002	 6.9207447379e-001
 1.0152951574e+000	 9.7860082789e-002	 7.2918782488e-001
 1.0266673422e+000	 0.0000000000e+000	 6.8686739055e-001
 1.0266215314e+000	 9.6983024235e-003	 6.8406080352e-001
 1.0264833918e+000	 1.9433448127e-002	 6.8735542639e-001
 1.0262518727e+000	 2.9204310577e-002	 6.9626634154e-001
 1.0259259364e+000	 3.9009734247e-002	 7.1030703437e-001
 1.0255045595e+000	 4.8848534668e-002	 7.2898319202e-001
 1.0249867338e+000	 5.8719498508e-002	 7.5179385153e-001
 1.0243714667e+000	 6.8621383674e-002	 7.7823263465e-001
 1.0236577825e+000	 7.8552919434e-002	 8.0778906835e-001
 1.0228447227e+000	 8.8512806581e-002	 8.3994998975e-001
 1.0219313476e+000	 9.8499717604e-002	 8.7420103331e-001
 1.0333343403e+000	 0.0000000000e+000	 8.4054701575e-001
 1.0332882320e+000	 9.7612815014e-003	 8.3748675001e-001
 1.0331491954e+000	 1.9559645537e-002	 8.4028862360e-001
 1.0329161728e+000	 2.9393958258e-002	 8.4845808926e-001
 1.0325881199e+000	 3.9263056633e-002	 8.6149872029e-001
 1.0321640067e+000	 4.9165748503e-002	 8.7890644663e-001
 1.0316428183e+000	 5.9100812656e-002	 9.0017074203e-001
 1.0310235558e+000	 6.9066998931e-002	 9.2477590128e-001
 1.0303052370e+000	 7.9063028347e-002	 9.5220240639e-001
 1.0294868974e+000	 8.9087593259e-002	 9.8192838061e-001
 1.0285675910e+000	 9.9139357535e-002	 1.0134311280e+000
 1.0400013800e+000	 0.0000000000e+000	 9.8757258999e-001
 1.0399549742e+000	 9.8242609736e-003	 9.8428108055e-001
 1.0398150405e+000	 1.9685843737e-002	 9.8661621704e-001
 1.0395805145e+000	 2.9583607125e-002	 9.9407551095e-001
 1.0392503450e+000	 3.9516380604e-002	 1.0061543062e+000
 1.0388234954e+000	 4.9482964321e-002	 1.0223404401e+000
 1.0382989444e+000	 5.9482129187e-002	 1.0421154670e+000
 1.0376756864e+000	 6.9512616973e-002	 1.0649559757e+000
 1.0369527330e+000	 7.9573140449e-002	 1.0903349991e+000
 1.0361291135e+000	 8.9662383529e-002	 1.1177235155e+000
 1.0352038758e+000	 9.9779001463e-002	 1.1465920378e+000
 1.0466684498e+000	 0.0000000000e+000	 1.1276503139e+000
 1.0466217464e+000	 9.8872407295e-003	 1.1241525415e+000
 1.0464809157e+000	 1.9812042505e-002	 1.1260493449e+000
 1.0462448862e+000	 2.9773256846e-002	 1.1328319507e+000
 1.0459126001e+000	 3.9769705715e-002	 1.1439891236e+000
 1.0454830142e+000	 4.9800181568e-002	 1.1590022390e+000
 1.0449551004e+000	 5.9863447434e-002	 1.1773465410e+000
 1.0443278469e+000	 6.9958237022e-002	 1.1984924980e+000
 1.0436002590e+000	 8.0083254846e-002	 1.2219072532e+000
 1.0427713596e+000	 9.0237176385e-002	 1.2470561708e+000
 1.0418401905e+000	 1.0041864827e-001	 1.2734044741e+000
 1.0533355378e+000	 0.0000000000e+000	 1.2604951174e+000
 1.0532885370e+000	 9.9502206589e-003	 1.2568183019e+000
 1.0531468092e+000	 1.9938241621e-002	 1.2583072789e+000
 1.0529092762e+000	 2.9962907090e-002	 1.2644486153e+000
 1.0525748736e+000	 4.0023031523e-002	 1.2747261148e+000
 1.0521425512e+000	 5.0117399687e-002	 1.2886162887e+000
 1.0516112747e+000	 6.0244766730e-002	 1.3055896466e+000
 1.0509800258e+000	 7.0403858295e-002	 1.3251120864e+000
 1.0502478032e+000	 8.0593370645e-002	 1.3466463853e+000
 1.0494136239e+000	 9.0811970822e-002	 1.3696537882e+000
 1.0484765234e+000	 1.0105829683e-001	 1.3935956918e+000
 1.0600026325e+000	 0.0000000000e+000	 1.3858303809e+000
 1.0599553342e+000	 1.0013200651e-002	 1.3820036814e+000
 1.0598127094e+000	 2.0064440863e-002	 1.3831171586e+000
 1.0595736729e+000	 3.0152557523e-002	 1.3886543142e+000
 1.0592371537e+000	 4.0276357585e-002	 1.3980955785e+000
 1.0588020949e+000	 5.0434618123e-002	 1.4109141645e+000
 1.0582674557e+000	 6.0626086407e-002	 1.4265773890e+000
 1.0576322113e+000	 7.0849480014e-002	 1.4445480963e+000
 1.0568953541e+000	 8.1103486954e-002	 1.4642861858e+000
 1.0560558948e+000	 9.1386765832e-002	 1.4852502412e+000
 1.0551128630e+000	 1.0169794604e-001	 1.5068992595e+000
 1.0666697223e+000	 0.0000000000e+000	 1.5033876681e+000
 1.0666221265e+000	 1.0076180596e-002	 1.4994418885e+000
 1.0664786046e+000	 2.0190640010e-002	 1.5002137347e+000
 1.0662380646e+000	 3.0342207813e-002	 1.5051852088e+000
 1.0658994288e+000	 4.0529683456e-002	 1.5138349242e+000
 1.0654616337e+000	 5.0751836321e-002	 1.5256343302e+000
 1.0649236317e+000	 6.1007405798e-002	 1.5400490607e+000
 1.0642843918e+000	 7.1295101398e-002	 1.5565403891e+000
 1.0635429000e+000	 8.1613602879e-002	 1.5745667906e+000
 1.0626981608e+000	 9.1961560411e-002	 1.5935856111e+000
 1.0617491975e+000	 1.0233759476e-001	 1.6130548378e+000
 9.9538702132e-001	 9.5941220239e-002	 2.6241726052e-001
 9.9439891999e-001	 1.0569226494e-001	 3.1382028637e-001
 9.9331136502e-001	 1.1546697758e-001	 3.7175386044e-001
 9.9212350004e-001	 1.2526400575e-001	 4.3574518632e-001
 9.9083448984e-001	 1.3508197105e-001	 5.0532907591e-001
 9.8944352116e-001	 1.4491946945e-001	 5.8004976021e-001
 9.8794980354e-001	 1.5477507159e-001	 6.5946274535e-001
 9.8635257014e-001	 1.6464732318e-001	 7.4313670778e-001
 9.8465107850e-001	 1.7453474535e-001	 8.3065542112e-001
 9.8284461142e-001	 1.8443583512e-001	 9.2161970737e-001
 9.8093247774e-001	 1.9434906582e-001	 1.0156494039e+000
 1.0020229826e+000	 9.6580832988e-002	 4.2299176657e-001
 1.0010282939e+000	 1.0639688513e-001	 4.7084827341e-001
 9.9993348851e-001	 1.1623676299e-001	 5.2494030529e-001
 9.9873770437e-001	 1.2609910514e-001	 5.8479435850e-001
 9.9744010071e-001	 1.3598252402e-001	 6.4994462697e-001
 9.9603985884e-001	 1.4588560621e-001	 7.1993485195e-001
 9.9453618303e-001	 1.5580691285e-001	 7.9432021950e-001
 9.9292830133e-001	 1.6574497992e-001	 8.7266929894e-001
 9.9121546633e-001	 1.7569831871e-001	 9.5456601514e-001
 9.8939695606e-001	 1.8566541622e-001	 1.0396116466e+000
 9.8747207472e-001	 1.9564473560e-001	 1.1274268411e+000
 1.0086590318e+000	 9.7220454211e-002	 5.7868460517e-001
 1.0076577557e+000	 1.0710151464e-001	 6.2312106629e-001
 1.0065556997e+000	 1.1700655859e-001	 6.7350520507e-001
 1.0053519963e+000	 1.2693421560e-001	 7.2936278131e-001
 1.0040457991e+000	 1.3688308892e-001	 7.9022734681e-001
 1.0026362839e+000	 1.4685175578e-001	 8.5564213568e-001
 1.0011226498e+000	 1.5683876777e-001	 9.2516200468e-001
 9.9950411965e-001	 1.6684265120e-001	 9.9835541688e-001
 9.9777994115e-001	 1.7686190749e-001	 1.0748064610e+000
 9.9594938751e-001	 1.8689501361e-001	 1.1541168986e+000
 9.9401175836e-001	 1.9694042255e-001	 1.2359082295e+000
 1.0152951574e+000	 9.7860082789e-002	 7.2918782488e-001
 1.0142872936e+000	 1.0780615227e-001	 7.7033111590e-001
 1.0131779871e+000	 1.1777636305e-001	 8.1714186641e-001
 1.0119663644e+000	 1.2776933567e-001	 8.6914506256e-001
 1.0106515735e+000	 1.3778366418e-001	 9.2587358099e-001
 1.0092327849e+000	 1.4781791646e-001	 9.8687012126e-001
 1.0077091923e+000	 1.5787063456e-001	 1.0516891909e+000
 1.0060800136e+000	 1.6794033510e-001	 1.1198991357e+000
 1.0043444915e+000	 1.7802550965e-001	 1.1910842086e+000
 1.0025018943e+000	 1.8812462514e-001	 1.2648466668e+000
 1.0005515172e+000	 1.9823612439e-001	 1.3408088906e+000
 1.0219313476e+000	 9.8499717604e-002	 8.7420103331e-001
 1.0209168963e+000	 1.0851079676e-001	 9.1217830995e-001
 1.0198003391e+000	 1.1854617501e-001	 9.5555090980e-001
 1.0185807969e+000	 1.2860446388e-001	 1.0038430000e+000
 1.0172574122e+000	 1.3868424822e-001	 1.0565867398e+000
 1.0158293501e+000	 1.4878408655e-001	 1.1133242569e+000
 1.0142957990e+000	 1.5890251141e-001	 1.1736096782e+000
 1.0126559717e+000	 1.6903802971e-001	 1.2370112099e+000
 1.0109091058e+000	 1.7918912315e-001	 1.3031132559e+000
 1.0090544650e+000	 1.8935424866e-001	 1.3715185688e+000
 1.0070913398e+000	 1.9953183888e-001	 1.4418504230e+000
 1.0285675910e+000	 9.9139357535e-002	 1.0134311280e+000
 1.0275465519e+000	 1.0921544688e-001	 1.0483697073e+000
 1.0264227440e+000	 1.1931599313e-001	 1.0884400075e+000
 1.0251952824e+000	 1.2943959876e-001	 1.1331653230e+000
 1.0238633039e+000	 1.3958483946e-001	 1.1820770444e+000
 1.0224259682e+000	 1.4975026438e-001	 1.2347166793e+000
 1.0208824585e+000	 1.5993439652e-001	 1.2906379323e+000
 1.0192319823e+000	 1.7013573310e-001	 1.3494088342e+000
 1.0174737726e+000	 1.8035274596e-001	 1.4106139146e+000
 1.0156070881e+000	 1.9058388202e-001	 1.4738564071e+000
 1.0136312147e+000	 2.0082756372e-001	 1.5387604787e+000
 1.0352038758e+000	 9.9779001463e-002	 1.1465920378e+000
 1.0341762490e+000	 1.0992010142e-001	 1.1786192823e+000
 1.0330451904e+000	 1.2008581605e-001	 1.2155236314e+000
 1.0318098092e+000	 1.3027473887e-001	 1.2568274447e+000
 1.0304692368e+000	 1.4048543633e-001	 1.3020612825e+000
 1.0290226274e+000	 1.5071644824e-001	 1.3507659745e+000
 1.0274691590e+000	 1.6096628807e-001	 1.4024947486e+000
 1.0258080341e+000	 1.7123344334e-001	 1.4568154133e+000
 1.0240384805e+000	 1.8151637604e-001	 1.5133125847e+000
 1.0221597522e+000	 1.9181352306e-001	 1.5715899487e+000
 1.0201711305e+000	 2.0212329667e-001	 1.6312725494e+000
 1.0418401905e+000	 1.0041864827e-001	 1.2734044741e+000
 1.0408059760e+000	 1.1062475912e-001	 1.3026476797e+000
 1.0396676665e+000	 1.2085564245e-001	 1.3365228114e+000
 1.0384243657e+000	 1.3110988273e-001	 1.3745512230e+000
 1.0370751994e+000	 1.4138603725e-001	 1.4162625741e+000
 1.0356193164e+000	 1.5168263645e-001	 1.4611969469e+000
 1.0340558893e+000	 1.6199818427e-001	 1.5089070272e+000
 1.0323841155e+000	 1.7233115853e-001	 1.5589603411e+000
 1.0306032179e+000	 1.8268001136e-001	 1.6109415385e+000
 1.0287124458e+000	 1.9304316963e-001	 1.6644547148e+000
 1.0267110758e+000	 2.0341903544e-001	 1.7191257599e+000
 1.0484765234e+000	 1.0105829683e-001	 1.3935956918e+000
 1.0474357212e+000	 1.1132941875e-001	 1.4201819781e+000
 1.0462901609e+000	 1.2162547095e-001	 1.4511649022e+000
 1.0450389405e+000	 1.3194502888e-001	 1.4860647323e+000
 1.0436811802e+000	 1.4228664065e-001	 1.5244101461e+000
 1.0422160235e+000	 1.5264882731e-001	 1.5657403985e+000
 1.0406426376e+000	 1.6303008330e-001	 1.6096075556e+000
 1.0389602149e+000	 1.7342887673e-001	 1.6555787879e+000
 1.0371679733e+000	 1.8384364988e-001	 1.7032387128e+000
 1.0352651573e+000	 1.9427281959e-001	 1.7521917776e+000
 1.0332510390e+000	 2.0471477778e-001	 1.8020646720e+000
 1.0551128630e+000	 1.0169794604e-001	 1.5068992595e+000
 1.0540654729e+000	 1.1203407910e-001	 1.5309554635e+000
 1.0529126618e+000	 1.2239530023e-001	 1.5591833599e+000
 1.0516535218e+000	 1.3278017588e-001	 1.5911020425e+000
 1.0502871676e+000	 1.4318724494e-001	 1.6262391160e+000
 1.0488127371e+000	 1.5361501914e-001	 1.6641329165e+000
 1.0472293925e+000	 1.6406198336e-001	 1.7043348005e+000
 1.0455363209e+000	 1.7452659603e-001	 1.7464114969e+000
 1.0437327353e+000	 1.8500728956e-001	 1.7899475101e+000
 1.0418178755e+000	 1.9550247077e-001	 1.8345475669e+000
 1.0397910087e+000	 2.0601052141e-001	 1.8798390943e+000
 1.0617491975e+000	 1.0233759476e-001	 1.6130548378e+000
 1.0606952198e+000	 1.1273873891e-001	 1.6347074105e+000
 1.0595351578e+000	 1.2316512893e-001	 1.6603175269e+000
 1.0582680982e+000	 1.3361532224e-001	 1.6894030078e+000
 1.0568931500e+000	 1.4408784856e-001	 1.7214902837e+000
 1.0554094459e+000	 1.5458121025e-001	 1.7561166687e+000
 1.0538161425e+000	 1.6509388265e-001	 1.7928327078e+000
 1.0521124220e+000	 1.7562431451e-001	 1.8312045883e+000
 1.0502974924e+000	 1.8617092836e-001	 1.8708166071e+000
 1.0483705887e+000	 1.9673212103e-001	 1.9112736827e+000
 1.0463309736e+000	 2.0730626407e-001	 1.9522039015e+000
 9.8093247774e-001	 1.9434906582e-001	 1.0156494039e+000
 9.7891370242e-001	 2.0427437664e-001	 1.1133574358e+000
 9.7678792810e-001	 2.1420870614e-001	 1.2153387898e+000
 9.7455454705e-001	 2.2415045650e-001	 1.3212611830e+000
 9.7221298076e-001	 2.3409800832e-001	 1.4308157421e+000
 9.6976268070e-001	 2.4404972108e-001	 1.5437189280e+000
 9.6720312906e-001	 2.5400393389e-001	 1.6597144217e+000
 9.6453383948e-001	 2.6395896607e-001	 1.7785749606e+000
 9.6175435779e-001	 2.7391311782e-001	 1.9001041127e+000
 9.5886426270e-001	 2.8386467101e-001	 2.0241379784e+000
 9.5586316651e-001	 2.9381188981e-001	 2.1505468057e+000
 9.8747207472e-001	 1.9564473560e-001	 1.1274268411e+000
 9.8543984081e-001	 2.0563621564e-001	 1.2186109546e+000
 9.8329989455e-001	 2.1563677447e-001	 1.3137595010e+000
 9.8105162419e-001	 2.2564480365e-001	 1.4125605351e+000
 9.7869444735e-001	 2.3565867295e-001	 1.5147268213e+000
 9.7622781184e-001	 2.4567673095e-001	 1.6199977942e+000
 9.7365119639e-001	 2.5569730566e-001	 1.7281414799e+000
 9.7096411142e-001	 2.6571870519e-001	 1.8389563641e+000
 9.6816609972e-001	 2.7573921843e-001	 1.9522731960e+000
 9.6525673719e-001	 2.8575711578e-001	 2.0679567151e+000
 9.6223563355e-001	 2.9577064985e-001	 2.1859072890e+000
 9.9401175836e-001	 1.9694042255e-001	 1.2359082295e+000
 9.9196606567e-001	 2.0699807268e-001	 1.3207704207e+000
 9.8981194730e-001	 2.1706486173e-001	 1.4093029939e+000
 9.8754878742e-001	 2.2713917060e-001	 1.5012133931e+000
 9.8517599981e-001	 2.3721935827e-001	 1.5962350149e+000
 9.8269302864e-001	 2.4730376237e-001	 1.6941292090e+000
 9.8009934917e-001	 2.5739069986e-001	 1.7946872356e+000
 9.7739446857e-001	 2.6747846763e-001	 1.8977321687e+000
 9.7457792661e-001	 2.7756534324e-001	 2.0031207307e+000
 9.7164929638e-001	 2.8764958564e-001	 2.1107450486e+000
 9.6860818502e-001	 2.9772943586e-001	 2.2205343153e+000
 1.0005515172e+000	 1.9823612439e-001	 1.3408088906e+000
 9.9849236558e-001	 2.0835994538e-001	 1.4195550510e+000
 9.9632407493e-001	 2.1849296541e-001	 1.5016915814e+000
 9.9404602537e-001	 2.2863355473e-001	 1.5869443665e+000
 9.9165762682e-001	 2.3878006153e-001	 1.6750664322e+000
 9.8915831979e-001	 2.4893081251e-001	 1.7658399864e+000
 9.8654757610e-001	 2.5908411353e-001	 1.8590784162e+000
 9.8382489966e-001	 2.6923825030e-001	 1.9546282271e+000
 9.8098982723e-001	 2.7939148905e-001	 2.0523709126e+000
 9.7804192909e-001	 2.8954207725e-001	 2.1522247405e+000
 9.7498080978e-001	 2.9968824439e-001	 2.2541464417e+000
 1.0070913398e+000	 1.9953183888e-001	 1.4418504230e+000
 1.0050187291e+000	 2.0972183136e-001	 1.5146902149e+000
 1.0028362661e+000	 2.1992108301e-001	 1.5906536298e+000
 1.0005433267e+000	 2.3012795344e-001	 1.6694840458e+000
 9.9813931702e-001	 2.4034078001e-001	 1.7509531155e+000
 9.9562367398e-001	 2.5055787851e-001	 1.8348628502e+000
 9.9299586589e-001	 2.6077754372e-001	 1.9210476583e+000
 9.9025539346e-001	 2.7099805014e-001	 2.0093763239e+000
 9.8740179037e-001	 2.8121765267e-001	 2.0997539128e+000
 9.8443462413e-001	 2.9143458732e-001	 2.1921235926e+000
 9.8135349668e-001	 3.0164707201e-001	 2.2864683512e+000
 1.0136312147e+000	 2.0082756372e-001	 1.5387604787e+000
 1.0115451449e+000	 2.1108372823e-001	 1.6059072158e+000
 1.0093485093e+000	 2.2134921204e-001	 1.6759233461e+000
 1.0070406799e+000	 2.3162236410e-001	 1.7485687934e+000
 1.0046210591e+000	 2.4190151098e-001	 1.8236328346e+000
 1.0020890799e+000	 2.5218495753e-001	 1.9009362304e+000
 9.9944420728e-001	 2.6247098745e-001	 1.9803333066e+000
 9.9668593869e-001	 2.7275786406e-001	 2.0617139751e+000
 9.9381380481e-001	 2.8304383089e-001	 2.1450056788e+000
 9.9082737030e-001	 2.9332711254e-001	 2.2301752481e+000
 9.8772623455e-001	 3.0360591531e-001	 2.3172306516e+000
 1.0201711305e+000	 2.0212329667e-001	 1.6312725494e+000
 1.0180716014e+000	 2.1244563362e-001	 1.6929430824e+000
 1.0158607932e+000	 2.2277735000e-001	 1.7572405737e+000
 1.0135380738e+000	 2.3311678410e-001	 1.8239405430e+000
 1.0111028416e+000	 2.4346225171e-001	 1.8928488895e+000
 1.0085545262e+000	 2.5381204671e-001	 1.9638040687e+000
 1.0058925890e+000	 2.6416444177e-001	 2.0366792210e+000
 1.0031165241e+000	 2.7451768897e-001	 2.1113842368e+000
 1.0002258593e+000	 2.8487002053e-001	 2.1878677433e+000
 9.9722015643e-001	 2.9521964958e-001	 2.2661189998e+000
 9.9409901225e-001	 3.0556477086e-001	 2.3461696844e+000
 1.0267110758e+000	 2.0341903544e-001	 1.7191257599e+000
 1.0245980873e+000	 2.1380754513e-001	 1.7755403683e+000
 1.0223731064e+000	 2.2420549438e-001	 1.8343505958e+000
 1.0200354969e+000	 2.3461121082e-001	 1.8953466078e+000
 1.0175846534e+000	 2.4502299945e-001	 1.9583499212e+000
 1.0150200016e+000	 2.5543914322e-001	 2.0232156319e+000
 1.0123409997e+000	 2.6585790371e-001	 2.0898345921e+000
 1.0095471385e+000	 2.7627752180e-001	 2.1581355220e+000
 1.0066379427e+000	 2.8669621839e-001	 2.2280870418e+000
 1.0036129713e+000	 2.9711219513e-001	 2.2996996086e+000
 1.0004718186e+000	 3.0752363522e-001	 2.3730273418e+000
 1.0332510390e+000	 2.0471477778e-001	 1.8020646720e+000
 1.0311245912e+000	 2.1516946039e-001	 1.8534469597e+000
 1.0288854375e+000	 2.2563364268e-001	 1.9070039484e+000
 1.0265329379e+000	 2.3610564165e-001	 1.9625394959e+000
 1.0240664829e+000	 2.4658375149e-001	 2.0198897311e+000
 1.0214854948e+000	 2.5706624421e-001	 2.0789253341e+000
 1.0187894281e+000	 2.6755137031e-001	 2.1395537650e+000
 1.0159777705e+000	 2.7803735948e-001	 2.2017214254e+000
 1.0130500437e+000	 2.8852242127e-001	 2.2654157382e+000
 1.0100058038e+000	 2.9900474589e-001	 2.3306671285e+000
 1.0068446425e+000	 3.0948250496e-001	 2.3975508916e+000
 1.0397910087e+000	 2.0601052141e-001	 1.8798390943e+000
 1.0376511016e+000	 2.1653137701e-001	 1.9264158911e+000
 1.0353977752e+000	 2.2706179242e-001	 1.9749562399e+000
 1.0330303854e+000	 2.3760007398e-001	 2.0252767347e+000
 1.0305483190e+000	 2.4814450509e-001	 2.0772271078e+000
 1.0279509944e+000	 2.5869334682e-001	 2.1306925653e+000
 1.0252378630e+000	 2.6924483860e-001	 2.1855960701e+000
 1.0224084090e+000	 2.7979719891e-001	 2.2419005559e+000
 1.0194621511e+000	 2.9034862597e-001	 2.2996110575e+000
 1.0163986427e+000	 3.0089729855e-001	 2.3587767399e+000
 1.0132174728e+000	 3.1144137666e-001	 2.4194928101e+000
 1.0463309736e+000	 2.0730626407e-001	 1.9522039015e+000
 1.0441776071e+000	 2.1789329261e-001	 1.9942051685e+000
 1.0419101079e+000	 2.2848994108e-001	 2.0379679784e+000
 1.0395278280e+000	 2.3909450519e-001	 2.0833207013e+000
 1.0370301501e+000	 2.4970525751e-001	 2.1301256608e+000
 1.0344164892e+000	 2.6032044820e-001	 2.1782815282e+000
 1.0316862930e+000	 2.7093830562e-001	 2.2277256616e+000
 1.0288390426e+000	 2.8155703702e-001	 2.2784363759e+000
 1.0258742537e+000	 2.9217482931e-001	 2.3304351267e+000
 1.0227914767e+000	 3.0278984978e-001	 2.3837885901e+000
 1.0195902983e+000	 3.1340024690e-001	 2.4386106225e+000
 9.5586316651e-001	 2.9381188981e-001	 2.1505468057e+000
 9.5275071551e-001	 3.0375302140e-001	 2.2784634965e+000
 9.4952658997e-001	 3.1368629624e-001	 2.4069634287e+000
 9.4619050544e-001	 3.2360992937e-001	 2.5358828169e+000
 9.4274221361e-001	 3.3352212132e-001	 2.6650931578e+000
 9.3918150291e-001	 3.4342105900e-001	 2.7945023527e+000
 9.3550819912e-001	 3.5330491665e-001	 2.9240556826e+000
 9.3172216582e-001	 3.6317185667e-001	 3.0537366264e+000
 9.2782330500e-001	 3.7302003062e-001	 3.1835675113e+000
 9.2381155749e-001	 3.8284758015e-001	 3.3136099865e+000
 9.1968690347e-001	 3.9265263800e-001	 3.4439653108e+000
 9.6223563355e-001	 2.9577064985e-001	 2.1859072890e+000
 9.5910243273e-001	 3.0577805613e-001	 2.3052523533e+000
 9.5585681287e-001	 3.1577755329e-001	 2.4250451767e+000
 9.5249848761e-001	 3.2576734445e-001	 2.5451285447e+000
 9.4902720699e-001	 3.3574561815e-001	 2.6653809421e+000
 9.4544275806e-001	 3.4571054923e-001	 2.7857177012e+000
 9.4174496540e-001	 3.5566029974e-001	 2.9060919995e+000
 9.3793369169e-001	 3.6559301983e-001	 3.0264956957e+000
 9.3400883828e-001	 3.7550684875e-001	 3.1469599933e+000
 9.2997034560e-001	 3.8539991574e-001	 3.2675559223e+000
 9.2581819368e-001	 3.9527034112e-001	 3.3883946287e+000
 9.6860818502e-001	 2.9772943586e-001	 2.2205343153e+000
 9.6545423411e-001	 3.0780311770e-001	 2.3316033990e+000
 9.6218711963e-001	 3.1786883805e-001	 2.4429786835e+000
 9.5880655335e-001	 3.2792478811e-001	 2.5545117664e+000
 9.5531228366e-001	 3.3796914444e-001	 2.6660904634e+000
 9.5170409617e-001	 3.4800006980e-001	 2.7776399820e+000
 9.4798181431e-001	 3.5801571404e-001	 2.8891239405e+000
 9.4414529987e-001	 3.6801421508e-001	 3.0005452202e+000
 9.4019445352e-001	 3.7799369983e-001	 3.1119466404e+000
 9.3612921531e-001	 3.8795228516e-001	 3.2234114457e+000
 9.3194956513e-001	 3.9788807893e-001	 3.3350635958e+000
 9.7498080978e-001	 2.9968824439e-001	 2.2541464417e+000
 9.7180610853e-001	 3.0982820256e-001	 2.3572320480e+000
 9.6851749920e-001	 3.1996014685e-001	 2.4604770715e+000
 9.6511469165e-001	 3.3008225659e-001	 2.5637441060e+000
 9.6159743260e-001	 3.4019269631e-001	 2.6669325842e+000
 9.5796550628e-001	 3.5028961669e-001	 2.7699799757e+000
 9.5421873495e-001	 3.6037115542e-001	 2.8728628257e+000
 9.5035697948e-001	 3.7043543817e-001	 2.9755976230e+000
 9.4638013989e-001	 3.8048057951e-001	 3.0782414839e+000
 9.4228815584e-001	 3.9050468393e-001	 3.1808926432e+000
 9.3808100710e-001	 4.0050584684e-001	 3.2836907415e+000
 9.8135349668e-001	 3.0164707201e-001	 2.2864683512e+000
 9.7815804489e-001	 3.1185330716e-001	 2.3818599231e+000
 9.7484794049e-001	 3.2205147605e-001	 2.4772597300e+000
 9.7142289144e-001	 3.3223974610e-001	 2.5725434910e+000
 9.6788264283e-001	 3.4241626986e-001	 2.6676244856e+000
 9.6422697745e-001	 3.5257918591e-001	 2.7624547753e+000
 9.6045571640e-001	 3.6272661978e-001	 2.8570262622e+000
 9.5656871966e-001	 3.7285668486e-001	 2.9513715698e+000
 9.5256588658e-001	 3.8296748344e-001	 3.0455647353e+000
 9.4844715643e-001	 3.9305710759e-001	 3.1397217020e+000
 9.4421250885e-001	 4.0312364028e-001	 3.2340006017e+000
 9.8772623455e-001	 3.0360591531e-001	 2.3172306516e+000
 9.8451003205e-001	 3.1387842797e-001	 2.4052146539e+000
 9.8117843242e-001	 3.2414282198e-001	 2.4930521148e+000
 9.7773114170e-001	 3.3439725287e-001	 2.5806339528e+000
 9.7416790333e-001	 3.4463986120e-001	 2.6678894684e+000
 9.7048849870e-001	 3.5486877345e-001	 2.7547875901e+000
 9.6669274775e-001	 3.6508210297e-001	 2.8413379499e+000
 9.6278050953e-001	 3.7527795093e-001	 2.9275917773e+000
 9.5875168275e-001	 3.8545440726e-001	 3.0136425980e+000
 9.5460620629e-001	 3.9560955167e-001	 3.0996267259e+000
 9.5034405964e-001	 4.0574145465e-001	 3.1857235381e+000
 9.9409901225e-001	 3.0556477086e-001	 2.3461696844e+000
 9.9086205892e-001	 3.1590356143e-001	 2.4270296852e+000
 9.8750896391e-001	 3.2623418098e-001	 2.5075855560e+000
 9.8403943139e-001	 3.3655477313e-001	 2.5877454348e+000
 9.8045320312e-001	 3.4686346643e-001	 2.6674567636e+000
 9.7675005909e-001	 3.5715837529e-001	 2.7467075568e+000
 9.7292981807e-001	 3.6743760089e-001	 2.8255274950e+000
 9.6899233822e-001	 3.7769923213e-001	 2.9039888299e+000
 9.6493751758e-001	 3.8794134663e-001	 2.9822070877e+000
 9.6076529464e-001	 3.9816201170e-001	 3.0603415593e+000
 9.5647564876e-001	 4.0835928539e-001	 3.1385955663e+000
 1.0004718186e+000	 3.0752363522e-001	 2.3730273418e+000
 9.9721411437e-001	 3.1792870400e-001	 2.4470440932e+000
 9.9383952389e-001	 3.2832554939e-001	 2.5205970746e+000
 9.9034774946e-001	 3.3871230310e-001	 2.5936136104e+000
 9.8673853119e-001	 3.4908708168e-001	 2.6660613503e+000
 9.8301164765e-001	 3.5944798744e-001	 2.7379495605e+000
 9.7916691646e-001	 3.6979310941e-001	 2.8093302340e+000
 9.7520419486e-001	 3.8012052422e-001	 2.8802990059e+000
 9.7112338025e-001	 3.9042829718e-001	 2.9509958610e+000
 9.6692441070e-001	 4.0071448321e-001	 3.0216056196e+000
 9.6260726547e-001	 4.1097712791e-001	 3.0923581922e+000
 1.0068446425e+000	 3.0948250496e-001	 2.3975508916e+000
 1.0035661873e+000	 3.1995385215e-001	 2.4650024099e+000
 1.0001701013e+000	 3.3041692356e-001	 2.5318292071e+000
 9.9665608488e-001	 3.4086983900e-001	 2.5979797081e+000
 9.9302387654e-001	 3.5131070303e-001	 2.6634437835e+000
 9.8927325343e-001	 3.6173760589e-001	 2.7282540634e+000
 9.8540403200e-001	 3.7214862440e-001	 2.7924870636e+000
 9.8141606858e-001	 3.8254182298e-001	 2.8562641111e+000
 9.7730925992e-001	 3.9291525458e-001	 2.9197520527e+000
 9.7308354370e-001	 4.0326696175e-001	 2.9831637374e+000
 9.6873889904e-001	 4.1359497763e-001	 3.0467582559e+000
 1.0132174728e+000	 3.1144137666e-001	 2.4194928101e+000
 1.0099182666e+000	 3.2197900232e-001	 2.4806544561e+000
 1.0065006850e+000	 3.3250829981e-001	 2.5410298385e+000
 1.0029644266e+000	 3.4302737705e-001	 2.6005903449e+000
 9.9930922818e-001	 3.5353432661e-001	 2.6593500279e+000
 9.9553486547e-001	 3.6402722662e-001	 2.7173669409e+000
 9.9164115378e-001	 3.7450414175e-001	 2.7747442805e+000
 9.8762794851e-001	 3.8496312415e-001	 2.8316313200e+000
 9.8349514578e-001	 3.9540221446e-001	 2.8882241203e+000
 9.7924268286e-001	 4.0581944283e-001	 2.9447660047e+000
 9.7487053874e-001	 4.1621282996e-001	 3.0015477837e+000
 1.0195902983e+000	 3.1340024690e-001	 2.4386106225e+000
 1.0162703411e+000	 3.2400415097e-001	 2.4937551807e+000
 1.0128312640e+000	 3.3459967450e-001	 2.5479520422e+000
 1.0092727636e+000	 3.4518491349e-001	 2.6011973677e+000
 1.0055945751e+000	 3.5575794852e-001	 2.6535313010e+000
 1.0017964728e+000	 3.6631684564e-001	 2.7050393265e+000
 9.9787827087e-001	 3.7685965733e-001	 2.7558534269e+000
 9.9383982379e-001	 3.8738442351e-001	 2.8061530253e+000
 9.8968102700e-001	 3.9788917248e-001	 2.8561656958e+000
 9.8540181740e-001	 4.0837192200e-001	 2.9061676303e+000
 9.8100217384e-001	 4.1883068033e-001	 2.9564838469e+000
 9.1968690347e-001	 3.9265263800e-001	 3.4439653108e+000
 9.1545000704e-001	 4.0243186398e-001	 3.5722433099e+000
 9.1110031866e-001	 4.1218484971e-001	 3.6961188004e+000
 9.0663793965e-001	 4.2190970867e-001	 3.8157866513e+000
 9.0206301214e-001	 4.3160454958e-001	 3.9314746186e+000
 8.9737571948e-001	 4.4126747746e-001	 4.0434424707e+000
 8.9257628643e-001	 4.5089659477e-001	 4.1519809056e+000
 8.8766497944e-001	 4.6049000248e-001	 4.2574102608e+000
 8.8264210687e-001	 4.7004580118e-001	 4.3600790142e+000
 8.7750801914e-001	 4.7956209226e-001	 4.4603620800e+000
 8.7226310887e-001	 4.8903697900e-001	 4.5586589027e+000
 9.2581819368e-001	 3.9527034112e-001	 3.3883946287e+000
 9.2155305107e-001	 4.0511476241e-001	 3.5070518101e+000
 9.1717436456e-001	 4.1493276851e-001	 3.6212045065e+000
 9.1268223614e-001	 4.2472246034e-001	 3.7311177660e+000
 9.0807680890e-001	 4.3448193398e-001	 3.8370908838e+000
 9.0335826739e-001	 4.4420928185e-001	 3.9394564033e+000
 8.9852683789e-001	 4.5390259373e-001	 4.0385788997e+000
 8.9358278862e-001	 4.6355995795e-001	 4.1348535452e+000
 8.8852642999e-001	 4.7317946244e-001	 4.2287044561e+000
 8.8335811476e-001	 4.8275919591e-001	 4.3205828253e+000
 8.7807823817e-001	 4.9229724903e-001	 4.4109648426e+000
 9.3194956513e-001	 3.9788807893e-001	 3.3350635958e+000
 9.2765617597e-001	 4.0779769639e-001	 3.4444500565e+000
 9.2324849095e-001	 4.1768072373e-001	 3.5492494120e+000
 9.1872661272e-001	 4.2753524927e-001	 3.6497905354e+000
 9.1409068534e-001	 4.3735935651e-001	 3.7464378057e+000
 9.0934089458e-001	 4.4715112521e-001	 3.8395899946e+000
 9.0447746820e-001	 4.5690863253e-001	 3.9296789253e+000
 8.9950067621e-001	 4.6662995410e-001	 4.0171679026e+000
 8.9441083108e-001	 4.7631316522e-001	 4.1025499160e+000
 8.8920828790e-001	 4.8595634193e-001	 4.1863456176e+000
 8.8389344453e-001	 4.9555756225e-001	 4.2691010787e+000
 9.3808100710e-001	 4.0050584684e-001	 3.2836907415e+000
 9.3375937106e-001	 4.1048066122e-001	 3.3841584180e+000
 9.2932268718e-001	 4.2042871055e-001	 3.4799742511e+000
 9.2477105881e-001	 4.3034807055e-001	 3.5715247087e+000
 9.2010463094e-001	 4.4023681213e-001	 3.6592329268e+000
 9.1532359056e-001	 4.5009300241e-001	 3.7435574892e+000
 9.1042816694e-001	 4.5991470589e-001	 3.8249909717e+000
 9.0541863186e-001	 4.6969998556e-001	 3.9040582463e+000
 9.0029529985e-001	 4.7944690403e-001	 3.9813145495e+000
 8.9505852832e-001	 4.8915352472e-001	 4.0573433151e+000
 8.8970871776e-001	 4.9881791296e-001	 4.1327537769e+000
 9.4421250885e-001	 4.0312364028e-001	 3.2340006017e+000
 9.3986262565e-001	 4.1316365222e-001	 3.3259031853e+000
 9.3539694265e-001	 4.2317672416e-001	 3.4131056262e+000
 9.3081556384e-001	 4.3316091926e-001	 3.4960458795e+000
 9.2611863518e-001	 4.4311429580e-001	 3.5751996344e+000
 9.2130634488e-001	 4.5303490829e-001	 3.6510789983e+000
 9.1637892370e-001	 4.6292080856e-001	 3.7242309342e+000
 9.1133664521e-001	 4.7277004695e-001	 3.7952354491e+000
 9.0617982598e-001	 4.8258067341e-001	 3.8647035358e+000
 9.0090882578e-001	 4.9235073868e-001	 3.9332748710e+000
 8.9552404770e-001	 5.0207829547e-001	 4.0016152720e+000
 9.5034405964e-001	 4.0574145465e-001	 3.1857235381e+000
 9.4596592907e-001	 4.1584666468e-001	 3.2694163931e+000
 9.4147124670e-001	 4.2592475975e-001	 3.3483758341e+000
 9.3686011722e-001	 4.3597379047e-001	 3.4230853121e+000
 9.3213268753e-001	 4.4599180250e-001	 3.4940669876e+000
 9.2728914706e-001	 4.5597683770e-001	 3.5618803263e+000
 9.2232972807e-001	 4.6592693529e-001	 3.6271204399e+000
 9.1725470591e-001	 4.7584013290e-001	 3.6904161669e+000
 9.1206439920e-001	 4.8571446785e-001	 3.7524278987e+000
 9.0675917004e-001	 4.9554797821e-001	 3.8138451501e+000
 9.0133942415e-001	 5.0533870406e-001	 3.8753838809e+000
 9.5647564876e-001	 4.0835928539e-001	 3.1385955663e+000
 9.5206927063e-001	 4.1852969390e-001	 3.2144356526e+000
 9.4754558872e-001	 4.2867281252e-001	 3.2855226993e+000
 9.4290470838e-001	 4.3878667926e-001	 3.3523797774e+000
 9.3814677747e-001	 4.4886932718e-001	 3.4155695530e+000
 9.3327198663e-001	 4.5891878551e-001	 3.4756928058e+000
 9.2828056964e-001	 4.6893308080e-001	 3.5333866804e+000
 9.2317280359e-001	 4.7891023804e-001	 3.5893226702e+000
 9.1794900919e-001	 4.8884828188e-001	 3.6442043351e+000
 9.1260955087e-001	 4.9874523773e-001	 3.6987647553e+000
 9.0715483696e-001	 5.0859913302e-001	 3.7537637253e+000
 9.6260726547e-001	 4.1097712791e-001	 3.0923581922e+000
 9.5817263965e-001	 4.2121273520e-001	 3.1607039909e+000
 9.5361995807e-001	 4.3142087766e-001	 3.2242894169e+000
 9.4894932674e-001	 4.4159958071e-001	 3.2836713956e+000
 9.4416089447e-001	 4.5174686481e-001	 3.3394472483e+000
 9.3925485313e-001	 4.6186074655e-001	 3.3922531406e+000
 9.3423143798e-001	 4.7193923983e-001	 3.4427622545e+000
 9.2909092791e-001	 4.8198035700e-001	 3.4916826839e+000
 9.2383364567e-001	 4.9198211001e-001	 3.5397550530e+000
 9.1845995803e-001	 5.0194251164e-001	 3.5877498620e+000
 9.1297027593e-001	 5.1185957666e-001	 3.6364645636e+000
 9.6873889904e-001	 4.1359497763e-001	 3.0467582559e+000
 9.6427602546e-001	 4.2389578388e-001	 3.1079696982e+000
 9.5969434412e-001	 4.3416895035e-001	 3.1644244012e+000
 9.5499396172e-001	 4.4441248989e-001	 3.2167074876e+000
 9.5017502801e-001	 4.5462441035e-001	 3.2654451936e+000
 9.4523773607e-001	 4.6480271568e-001	 3.3113032566e+000
 9.4018232268e-001	 4.7494540714e-001	 3.3549850175e+000
 9.3500906850e-001	 4.8505048440e-001	 3.3972292352e+000
 9.2971829832e-001	 4.9511594676e-001	 3.4388076163e+000
 9.2431038127e-001	 5.0513979434e-001	 3.4805220609e+000
 9.1878573089e-001	 5.1512002926e-001	 3.5232016297e+000
 9.7487053874e-001	 4.1621282996e-001	 3.0015477837e+000
 9.7037941737e-001	 4.2657883524e-001	 3.0559861832e+000
 9.6576873625e-001	 4.3691702579e-001	 3.1056811440e+000
 9.6103860275e-001	 4.4722540189e-001	 3.1512404333e+000
 9.5618916756e-001	 4.5750195877e-001	 3.1933135700e+000
 9.5122062500e-001	 4.6774468776e-001	 3.2325901603e+000
 9.4613321333e-001	 4.7795157745e-001	 3.2697979381e+000
 9.4092721500e-001	 4.8812061487e-001	 3.3057005092e+000
 9.3560295686e-001	 4.9824978664e-001	 3.3410947991e+000
 9.3016081035e-001	 5.0833708024e-001	 3.3768082089e+000
 9.2460119167e-001	 5.1838048513e-001	 3.4136954817e+000
 9.8100217384e-001	 4.1883068033e-001	 2.9564838469e+000
 9.7648280471e-001	 4.2926188459e-001	 3.0045118350e+000
 9.7184312382e-001	 4.3966509917e-001	 3.0478180778e+000
 9.6708323924e-001	 4.5003831177e-001	 3.0870275367e+000
 9.6220330259e-001	 4.6037950503e-001	 3.1228074856e+000
 9.5720350944e-001	 4.7068665762e-001	 3.1558658038e+000
 9.5208409952e-001	 4.8095774550e-001	 3.1869489634e+000
 9.4684535706e-001	 4.9119074303e-001	 3.2168397113e+000
 9.4148761098e-001	 5.0138362418e-001	 3.2463544451e+000
 9.3601123505e-001	 5.1153436373e-001	 3.2763402865e+000
 9.3041664808e-001	 5.2164093855e-001	 3.3076718564e+000
 8.7226310887e-001	 4.8903697900e-001	 4.5586589027e+000
 8.6690699948e-001	 4.9846997940e-001	 4.6523448305e+000
 8.6144094757e-001	 5.0785777912e-001	 4.7385811597e+000
 8.5586547377e-001	 5.1719849384e-001	 4.8175028643e+000
 8.5018114112e-001	 5.2649024586e-001	 4.8892369849e+000
 8.4438855498e-001	 5.3573116523e-001	 4.9538999517e+000
 8.3848836297e-001	 5.4491939094e-001	 5.0115948036e+000
 8.3248125485e-001	 5.5405307210e-001	 5.0624083169e+000
 8.2636796230e-001	 5.6313036914e-001	 5.1064080599e+000
 8.2014925879e-001	 5.7214945494e-001	 5.1436393909e+000
 8.1382595926e-001	 5.8110851606e-001	 5.1741224162e+000
 8.7807823817e-001	 4.9229724903e-001	 4.4109648426e+000
 8.7268642113e-001	 5.0179313655e-001	 4.4971096477e+000
 8.6718392861e-001	 5.1124352205e-001	 4.5760060847e+000
 8.6157128472e-001	 5.2064650865e-001	 4.6477771216e+000
 8.5584905625e-001	 5.3000020613e-001	 4.7125361597e+000
 8.5001785259e-001	 5.3930273208e-001	 4.7703842914e+000
 8.4407832568e-001	 5.4855221307e-001	 4.8214074496e+000
 8.3803116988e-001	 5.5774678588e-001	 4.8656734659e+000
 8.3187712176e-001	 5.6688459867e-001	 4.9032290520e+000
 8.2561695993e-001	 5.7596381215e-001	 4.9340967218e+000
 8.1925150476e-001	 5.8498260077e-001	 4.9582716747e+000
 8.8389344453e-001	 4.9555756225e-001	 4.2691010787e+000
 8.7846591936e-001	 5.0511633773e-001	 4.3479483823e+000
 8.7292698575e-001	 5.1462930984e-001	 4.4197044607e+000
 8.6727717128e-001	 5.2409456915e-001	 4.4844908015e+000
 8.6151704647e-001	 5.3351021291e-001	 4.5424179635e+000
 8.5564722478e-001	 5.4287434625e-001	 4.5935827497e+000
 8.4966836246e-001	 5.5218508333e-001	 4.6380652694e+000
 8.4358115846e-001	 5.6144054860e-001	 4.6759259045e+000
 8.3738635422e-001	 5.7063887794e-001	 4.7072021970e+000
 8.3108473352e-001	 5.7977821989e-001	 4.7319056746e+000
 8.2467712216e-001	 5.8885673681e-001	 4.7500186351e+000
 8.8970871776e-001	 4.9881791296e-001	 4.1327537769e+000
 8.8424548405e-001	 5.0843957712e-001	 4.2045418499e+000
 8.7867010894e-001	 5.1801513656e-001	 4.2693546134e+000
 8.7298312345e-001	 5.2754266930e-001	 4.3273224149e+000
 8.6718510189e-001	 5.3702026006e-001	 4.3785635795e+000
 8.6127666172e-001	 5.4644600149e-001	 4.4231814799e+000
 8.5525846353e-001	 5.5581799537e-001	 4.4612614920e+000
 8.4913121086e-001	 5.6513435379e-001	 4.4928678494e+000
 8.4289565004e-001	 5.7439320038e-001	 4.5180404159e+000
 8.3655256999e-001	 5.8359267149e-001	 4.5367913935e+000
 8.3010280195e-001	 5.9273091740e-001	 4.5491019862e+000
 8.9552404770e-001	 5.0207829547e-001	 4.0016152720e+000
 8.9002510510e-001	 5.1176284892e-001	 4.0665770666e+000
 8.8441328812e-001	 5.2140099630e-001	 4.1246410197e+000
 8.7868913126e-001	 5.3099080307e-001	 4.1759564990e+000
 8.7285321257e-001	 5.4053034142e-001	 4.2206600221e+000
 8.6690615355e-001	 5.5001769156e-001	 4.2588722063e+000
 8.6084861910e-001	 5.5945094283e-001	 4.2906945978e+000
 8.5468131737e-001	 5.6882819500e-001	 4.3162063951e+000
 8.4840499957e-001	 5.7814755943e-001	 4.3354610860e+000
 8.4202045976e-001	 5.8740716028e-001	 4.3484830162e+000
 8.3552853464e-001	 5.9660513576e-001	 4.3552639105e+000
 9.0133942415e-001	 5.0533870406e-001	 3.8753838809e+000
 8.9580477239e-001	 5.1508614730e-001	 3.9337470602e+000
 8.9015651325e-001	 5.2478688313e-001	 3.9852541194e+000
 8.8439518472e-001	 5.3443896442e-001	 4.0300834310e+000
 8.7852136859e-001	 5.4404045087e-001	 4.0683999546e+000
 8.7253569041e-001	 5.5358941019e-001	 4.1003520476e+000
 8.6643881940e-001	 5.6308391935e-001	 4.1260681496e+000
 8.6023146829e-001	 5.7252206575e-001	 4.1456533546e+000
 8.5391439317e-001	 5.8190194850e-001	 4.1591858925e+000
 8.4748839329e-001	 5.9122167959e-001	 4.1667135364e+000
 8.4095431073e-001	 6.0047938511e-001	 4.1682499600e+000
 9.0715483696e-001	 5.0859913302e-001	 3.7537637253e+000
 9.0158447580e-001	 5.1840946646e-001	 3.8057506908e+000
 8.9589977427e-001	 5.2817279112e-001	 3.8508901351e+000
 8.9010127384e-001	 5.3788714732e-001	 3.8893992504e+000
 8.8418956004e-001	 5.4755058225e-001	 3.9214815154e+000
 8.7816526246e-001	 5.5716115115e-001	 3.9473233492e+000
 8.7202905463e-001	 5.6671691857e-001	 3.9670906321e+000
 8.6578165389e-001	 5.7621595959e-001	 3.9809251075e+000
 8.5942382121e-001	 5.8565636104e-001	 3.9889406864e+000
 8.5295636098e-001	 5.9503622273e-001	 3.9912196735e+000
 8.4638012074e-001	 6.0435365867e-001	 3.9878089377e+000
 9.1297027593e-001	 5.1185957666e-001	 3.6364645636e+000
 9.0736420522e-001	 5.2173280057e-001	 3.6822924798e+000
 9.0164306114e-001	 5.3155871434e-001	 3.7212509016e+000
 8.9580738863e-001	 5.4133534574e-001	 3.7536054903e+000
 8.8985777699e-001	 5.5106072943e-001	 3.7796081531e+000
 8.8379485983e-001	 5.6073290818e-001	 3.7994935239e+000
 8.7761931501e-001	 5.7034993415e-001	 3.8134753004e+000
 8.7133186447e-001	 5.7990987005e-001	 3.8217424568e+000
 8.6493327404e-001	 5.8941079048e-001	 3.8244553513e+000
 8.5842435328e-001	 5.9885078304e-001	 3.8217417495e+000
 8.5180595516e-001	 6.0822794966e-001	 3.8136927865e+000
 9.1878573089e-001	 5.1512002926e-001	 3.5232016297e+000
 9.1314395053e-001	 5.2505614381e-001	 3.5630824473e+000
 9.0738636380e-001	 5.3494464687e-001	 3.5960437035e+000
 9.0151351912e-001	 5.4478355364e-001	 3.6224090165e+000
 8.9552600953e-001	 5.5457088626e-001	 3.6424884697e+000
 8.8942447269e-001	 5.6430467504e-001	 3.6565749001e+000
 8.8320959077e-001	 5.7398295971e-001	 3.6649400344e+000
 8.7688209030e-001	 5.8360379067e-001	 3.6678304919e+000
 8.7044274202e-001	 5.9316523023e-001	 3.6654636759e+000
 8.6389236061e-001	 6.0266535384e-001	 3.6580235723e+000
 8.5723180450e-001	 6.1210225131e-001	 3.6456564836e+000
 9.2460119167e-001	 5.1838048513e-001	 3.4136954817e+000
 9.1892370161e-001	 5.2837949038e-001	 3.4478359584e+000
 9.1312967220e-001	 5.3833058279e-001	 3.4749811207e+000
 9.0721965531e-001	 5.4823176499e-001	 3.4955218755e+000
 9.0119424773e-001	 5.5808104660e-001	 3.5098360718e+000
 8.9505409117e-001	 5.6787644546e-001	 3.5182845788e+000
 8.8879987212e-001	 5.7761598890e-001	 3.5212072023e+000
 8.8243232169e-001	 5.8729771499e-001	 3.5189184597e+000
 8.7595221550e-001	 5.9691967375e-001	 3.5117032334e+000
 8.6936037341e-001	 6.0647992845e-001	 3.4998123257e+000
 8.6265765926e-001	 6.1597655683e-001	 3.4834579409e+000
 9.3041664808e-001	 5.2164093855e-001	 3.3076718564e+000
 9.2470344836e-001	 5.3170283446e-001	 3.3362735759e+000
 9.1887297629e-001	 5.4171651617e-001	 3.3577808816e+000
 9.1292578721e-001	 5.5167997376e-001	 3.3726611492e+000
 9.0686248168e-001	 5.6159120431e-001	 3.3813694290e+000
 9.0068370543e-001	 5.7144821321e-001	 3.3843442961e+000
 8.9439014927e-001	 5.8124901537e-001	 3.3820035302e+000
 8.8798254891e-001	 5.9099163653e-001	 3.3747396417e+000
 8.8146168485e-001	 6.0067411444e-001	 3.3629152681e+000
 8.7482838211e-001	 6.1029450020e-001	 3.3468584644e+000
 8.6808350995e-001	 6.1985085944e-001	 3.3268579115e+000
 8.1382595926e-001	 5.8110851606e-001	 5.1741224162e+000
 8.0739891962e-001	 5.9000575367e-001	 5.1957153929e+000
 8.0086903579e-001	 5.9883938412e-001	 5.2066891876e+000
 7.9423724396e-001	 6.0760764065e-001	 5.2076505622e+000
 7.8750452048e-001	 6.1630877477e-001	 5.1991875180e+000
 7.8067188138e-001	 6.2494105736e-001	 5.1818650089e+000
 7.7374038194e-001	 6.3350277976e-001	 5.1562207043e+000
 7.6671111609e-001	 6.4199225496e-001	 5.1227608270e+000
 7.5958521594e-001	 6.5040781861e-001	 5.0819560932e+000
 7.5236385116e-001	 6.5874783014e-001	 5.0342377798e+000
 7.4504822833e-001	 6.6701067379e-001	 4.9799854605e+000
 8.1925150476e-001	 5.8498260077e-001	 4.9582716747e+000
 8.1278161789e-001	 5.9393915373e-001	 4.9737352092e+000
 8.0620820118e-001	 6.0283167547e-001	 4.9790019867e+000
 7.9953219709e-001	 6.1165838747e-001	 4.9748328930e+000
 7.9275458846e-001	 6.2041752957e-001	 4.9619690473e+000
 7.8587639811e-001	 6.2910736112e-001	 4.9411270971e+000
 7.7889868833e-001	 6.3772616209e-001	 4.9129945610e+000
 7.7182256037e-001	 6.4627223420e-001	 4.8782252465e+000
 7.6464915388e-001	 6.5474390201e-001	 4.8374347724e+000
 7.5737964632e-001	 6.6313951401e-001	 4.7911962209e+000
 7.5001525232e-001	 6.7145744368e-001	 4.7380715748e+000
 8.2467712216e-001	 5.8885673681e-001	 4.7500186351e+000
 8.1816438747e-001	 5.9787260590e-001	 4.7596617636e+000
 8.1154743732e-001	 6.0682401972e-001	 4.7595933763e+000
 8.0482722037e-001	 6.1570918796e-001	 4.7507156567e+000
 7.9800472600e-001	 6.2452633881e-001	 4.7339097577e+000
 7.9108098379e-001	 6.3327372008e-001	 4.7100306943e+000
 7.8405706307e-001	 6.4194960037e-001	 4.6799022834e+000
 7.7693407238e-001	 6.5055227014e-001	 4.6443121597e+000
 7.6971315892e-001	 6.5908004285e-001	 4.6040068973e+000
 7.6239550795e-001	 6.6753125607e-001	 4.5596272169e+000
 7.5498234213e-001	 6.7590427250e-001	 4.5046297983e+000
 8.3010280195e-001	 5.9273091740e-001	 4.5491019862e+000
 8.2354721896e-001	 6.0180610330e-001	 4.5532463660e+000
 8.1688673486e-001	 6.1081640987e-001	 4.5482244425e+000
 8.1012230455e-001	 6.1976003503e-001	 4.5350671562e+000
 8.0325492393e-001	 6.2863519529e-001	 4.5147828987e+000
 7.9628562933e-001	 6.3744012696e-001	 4.4883520191e+000
 7.8921549714e-001	 6.4617308722e-001	 4.4567213775e+000
 7.8204564318e-001	 6.5483235529e-001	 4.4207989760e+000
 7.7477722220e-001	 6.6341623356e-001	 4.3814486967e+000
 7.6741142725e-001	 6.7192304863e-001	 4.3371216411e+000
 7.5994948906e-001	 6.8035115244e-001	 4.2794017331e+000
 8.3552853464e-001	 5.9660513576e-001	 4.3552639105e+000
 8.2893010294e-001	 6.0573963905e-001	 4.3542433441e+000
 8.2222608445e-001	 6.1480883895e-001	 4.3446588861e+000
 8.1541744036e-001	 6.2381092158e-001	 4.3276579733e+000
 8.0850517304e-001	 6.3274409183e-001	 4.3043637236e+000
 8.0149032562e-001	 6.4160657445e-001	 4.2758690723e+000
 7.9437398150e-001	 6.5039661524e-001	 4.2432309565e+000
 7.8715726382e-001	 6.5911248218e-001	 4.2074645765e+000
 7.7984133485e-001	 6.6775246654e-001	 4.1694420943e+000
 7.7242739547e-001	 6.7631488401e-001	 4.1223419081e+000
 7.6491668442e-001	 6.8479807574e-001	 4.0621366520e+000
 8.4095431073e-001	 6.0047938511e-001	 4.1682499600e+000
 8.3431302997e-001	 6.0967320627e-001	 4.1624099299e+000
 8.2756547677e-001	 6.1880129996e-001	 4.1486629193e+000
 8.2071261853e-001	 6.2786184055e-001	 4.1282608727e+000
 8.1375546415e-001	 6.3685302124e-001	 4.1024293977e+000
 8.0669506354e-001	 6.4577305527e-001	 4.0723615481e+000
 7.9953250713e-001	 6.5462017704e-001	 4.0392116531e+000
 7.9226892534e-001	 6.6339264330e-001	 4.0040892270e+000
 7.8490548802e-001	 6.7208873421e-001	 3.9655519088e+000
 7.7744340380e-001	 6.8070675452e-001	 3.9150473757e+000
 7.6988391951e-001	 6.8924503461e-001	 3.8525913266e+000
 8.4638012074e-001	 6.0435365867e-001	 3.9878089377e+000
 8.3969599065e-001	 6.1360679807e-001	 3.9775061535e+000
 8.3290490245e-001	 6.2279378592e-001	 3.9600051677e+000
 8.2600782979e-001	 6.3191278482e-001	 3.9366507100e+000
 8.1900578808e-001	 6.4096197632e-001	 3.9087589119e+000
 8.1189983399e-001	 6.4993956212e-001	 3.8776107501e+000
 8.0469106500e-001	 6.5884376524e-001	 3.8444455372e+000
 7.9738061881e-001	 6.6767283117e-001	 3.8103734383e+000
 7.8996967283e-001	 6.7642502898e-001	 3.7686233095e+000
 7.8245944349e-001	 6.8509865247e-001	 3.7150046988e+000
 7.7485118565e-001	 6.9369202127e-001	 3.6505298587e+000
 8.5180595516e-001	 6.0822794966e-001	 3.8136927865e+000
 8.4507897555e-001	 6.1754040756e-001	 3.7992947424e+000
 8.3824435215e-001	 6.2678628985e-001	 3.7784565779e+000
 8.3130306488e-001	 6.3596374733e-001	 3.7526043466e+000
 8.2425613563e-001	 6.4507094990e-001	 3.7231330013e+000
 8.1710462786e-001	 6.5410608773e-001	 3.6913995131e+000
 8.0984964608e-001	 6.6306737245e-001	 3.6587160388e+000
 8.0249233529e-001	 6.7195303829e-001	 3.6239900755e+000
 7.9503388043e-001	 6.8076134325e-001	 3.5784318926e+000
 7.8747550575e-001	 6.8949057019e-001	 3.5219876666e+000
 7.7981847414e-001	 6.9813902794e-001	 3.4557235176e+000
 8.5723180450e-001	 6.1210225131e-001	 3.6456564836e+000
 8.5046197524e-001	 6.2147402787e-001	 3.6275410263e+000
 8.4358381654e-001	 6.3077880475e-001	 3.6037903313e+000
 8.3659831453e-001	 6.4001472097e-001	 3.5759005688e+000
 8.2950649762e-001	 6.4917993477e-001	 3.5453340687e+000
 8.2230943604e-001	 6.5827262478e-001	 3.5135121287e+000
 8.1500824134e-001	 6.6729099126e-001	 3.4817782373e+000
 8.0760406582e-001	 6.7623325719e-001	 3.4437931124e+000
 8.0009810196e-001	 6.8509766945e-001	 3.3947602148e+000
 7.9249158180e-001	 6.9388249998e-001	 3.3357770451e+000
 7.8478577629e-001	 7.0258604684e-001	 3.2679505819e+000
 8.6265765926e-001	 6.1597655683e-001	 3.4834579409e+000
 8.5584498032e-001	 6.2540765212e-001	 3.4620128478e+000
 8.4892328627e-001	 6.3477132365e-001	 3.4357817616e+000
 8.4189356947e-001	 6.4406569866e-001	 3.4063200116e+000
 8.3475686485e-001	 6.5328892374e-001	 3.3751461122e+000
 8.2751424943e-001	 6.6243916601e-001	 3.3437342759e+000
 8.2016684176e-001	 6.7151461430e-001	 3.3115578279e+000
 8.1271580146e-001	 6.8051348036e-001	 3.2695727649e+000
 8.0516232855e-001	 6.8943399999e-001	 3.2173976393e+000
 7.9750766287e-001	 6.9827443416e-001	 3.1561604225e+000
 7.8975308341e-001	 7.0703307018e-001	 3.0869961844e+000
 8.6808350995e-001	 6.1985085944e-001	 3.3268579115e+000
 8.6122798137e-001	 6.2934127341e-001	 3.3024804777e+000
 8.5426275199e-001	 6.3876383955e-001	 3.2742082784e+000
 8.4718882044e-001	 6.4811667332e-001	 3.2436450876e+000
 8.4000722815e-001	 6.5739790964e-001	 3.2123546587e+000
 8.3271905891e-001	 6.6660570411e-001	 3.1818529561e+000
 8.2532543831e-001	 6.7573823417e-001	 3.1467432203e+000
 8.1782753326e-001	 6.8479370032e-001	 3.1011259110e+000
 8.1022655134e-001	 6.9377032727e-001	 3.0461401865e+000
 8.0252374017e-001	 7.0266636505e-001	 2.9829320603e+000
 7.9472038680e-001	 7.1148009019e-001	 2.9126521623e+000
 7.4504822833e-001	 6.6701067379e-001	 4.9799854605e+000
 7.3764070856e-001	 6.7519353820e-001	 4.9165773533e+000
 7.3014148001e-001	 6.8329610677e-001	 4.8422046758e+000
 7.2255185597e-001	 6.9131684565e-001	 4.7571665473e+000
 7.1487318379e-001	 6.9925424984e-001	 4.6617589658e+000
 7.0710684408e-001	 7.0710684408e-001	 4.5562744680e+000
 6.9925424984e-001	 7.1487318379e-001	 4.4410018052e+000
 6.9131684565e-001	 7.2255185597e-001	 4.3162256351e+000
 6.8329610677e-001	 7.3014148001e-001	 4.1822262240e+000
 6.7519353820e-001	 7.3764070856e-001	 4.0392791577e+000
 6.6701067379e-001	 7.4504822833e-001	 3.8876550564e+000
 7.5001525232e-001	 6.7145744368e-001	 4.7380715748e+000
 7.4255834874e-001	 6.7969486092e-001	 4.6727756245e+000
 7.3500912496e-001	 6.8785144700e-001	 4.5975996940e+000
 7.2736890306e-001	 6.9592565786e-001	 4.5127246812e+000
 7.1963903937e-001	 7.0391597845e-001	 4.4183278025e+000
 7.1182092369e-001	 7.1182092369e-001	 4.3145824753e+000
 7.0391597845e-001	 7.1963903937e-001	 4.2016582179e+000
 6.9592565786e-001	 7.2736890306e-001	 4.0797205649e+000
 6.8785144700e-001	 7.3500912496e-001	 3.9489309929e+000
 6.7969486092e-001	 7.4255834874e-001	 3.8094468536e+000
 6.7145744368e-001	 7.5001525232e-001	 3.6614213092e+000
 7.5498234213e-001	 6.7590427250e-001	 4.5046297983e+000
 7.4747605407e-001	 6.8419624327e-001	 4.4376310192e+000
 7.3987683442e-001	 6.9240684758e-001	 4.3617906244e+000
 7.3218601399e-001	 7.0053453112e-001	 4.2771765743e+000
 7.2440495811e-001	 7.0857776883e-001	 4.1838526350e+000
 7.1653506577e-001	 7.1653506577e-001	 4.0818784759e+000
 7.0857776883e-001	 7.2440495811e-001	 3.9713097862e+000
 7.0053453112e-001	 7.3218601399e-001	 3.8521984066e+000
 6.9240684758e-001	 7.3987683442e-001	 3.7245924714e+000
 6.8419624327e-001	 7.4747605407e-001	 3.5885365560e+000
 6.7590427250e-001	 7.5498234213e-001	 3.4440718257e+000
 7.5994948906e-001	 6.8035115244e-001	 4.2794017331e+000
 7.5239381596e-001	 6.8869767739e-001	 4.2108825401e+000
 7.4474459985e-001	 6.9696230055e-001	 4.1345145050e+000
 7.3700318031e-001	 7.0514345739e-001	 4.0502578268e+000
 7.2917093164e-001	 7.1323961281e-001	 3.9580680439e+000
 7.2124926205e-001	 7.2124926205e-001	 3.8578963400e+000
 7.1323961281e-001	 7.2917093164e-001	 3.7496898702e+000
 7.0514345739e-001	 7.3700318031e-001	 3.6333921014e+000
 6.9696230055e-001	 7.4474459985e-001	 3.5089431635e+000
 6.8869767739e-001	 7.5239381596e-001	 3.3762802047e+000
 6.8035115244e-001	 7.5994948906e-001	 3.2353377460e+000
 7.6491668442e-001	 6.8479807574e-001	 4.0621366520e+000
 7.5731162579e-001	 6.9319915540e-001	 3.9922768924e+000
 7.4961241274e-001	 7.0151779793e-001	 3.9155160893e+000
 7.4182039360e-001	 7.0975242860e-001	 3.8317117511e+000
 7.3393695165e-001	 7.1790150225e-001	 3.7407163057e+000
 7.2596350430e-001	 7.2596350430e-001	 3.6423776073e+000
 7.1790150225e-001	 7.3393695165e-001	 3.5365394650e+000
 7.0975242860e-001	 7.4182039360e-001	 3.4230421859e+000
 7.0151779793e-001	 7.4961241274e-001	 3.3017231272e+000
 6.9319915540e-001	 7.5731162579e-001	 3.1724172526e+000
 6.8479807574e-001	 7.6491668442e-001	 3.0349576856e+000
 7.6988391951e-001	 6.8924503461e-001	 3.8525913266e+000
 7.6222947497e-001	 6.9770066941e-001	 3.7815683108e+000
 7.5448026457e-001	 7.0607333175e-001	 3.7045476731e+000
 7.4663764543e-001	 7.1436143667e-001	 3.6212891997e+000
 7.3870300978e-001	 7.2256342898e-001	 3.5315472217e+000
 7.3067778426e-001	 7.3067778426e-001	 3.4350713166e+000
 7.2256342898e-001	 7.3870300978e-001	 3.3316070326e+000
 7.1436143667e-001	 7.4663764543e-001	 3.2208966262e+000
 7.0607333175e-001	 7.5448026457e-001	 3.1026798102e+000
 6.9770066941e-001	 7.6222947497e-001	 2.9766945030e+000
 6.8924503461e-001	 7.6988391951e-001	 2.8426775740e+000
 7.7485118565e-001	 6.9369202127e-001	 3.6505298587e+000
 7.6714735488e-001	 7.0220221155e-001	 3.5785183907e+000
 7.5934814683e-001	 7.1062889404e-001	 3.5013689261e+000
 7.5145492736e-001	 7.1897047354e-001	 3.4187483970e+000
 7.4346909770e-001	 7.2722538485e-001	 3.3303179510e+000
 7.3539209369e-001	 7.3539209369e-001	 3.2357338410e+000
 7.2722538485e-001	 7.4346909770e-001	 3.1346483374e+000
 7.1897047354e-001	 7.5145492736e-001	 3.0267106551e+000
 7.1062889404e-001	 7.5934814683e-001	 2.9115678891e+000
 7.0220221155e-001	 7.6714735488e-001	 2.7888659507e+000
 6.9369202127e-001	 7.7485118565e-001	 2.6582504979e+000
 7.7981847414e-001	 6.9813902794e-001	 3.4557235176e+000
 7.7206525692e-001	 7.0670377395e-001	 3.3828959252e+000
 7.6421605099e-001	 7.1518447683e-001	 3.3057467286e+000
 7.5627223096e-001	 7.2357953116e-001	 3.2238547767e+000
 7.4823520707e-001	 7.3188736169e-001	 3.1367928490e+000
 7.4010642432e-001	 7.4010642432e-001	 3.0441287269e+000
 7.3188736169e-001	 7.4823520707e-001	 2.9454262880e+000
 7.2357953116e-001	 7.5627223096e-001	 2.8402466155e+000
 7.1518447683e-001	 7.6421605099e-001	 2.7281491145e+000
 7.0670377395e-001	 7.7206525692e-001	 2.6086926288e+000
 6.9813902794e-001	 7.7981847414e-001	 2.4814365496e+000
 7.8478577629e-001	 7.0258604684e-001	 3.2679505819e+000
 7.7698317248e-001	 7.1120534873e-001	 3.1944767455e+000
 7.6908396853e-001	 7.1974007214e-001	 3.1174550123e+000
 7.6108954782e-001	 7.2818860144e-001	 3.0363808234e+000
 7.5300132953e-001	 7.3654935135e-001	 2.9507433095e+000
 7.4482076792e-001	 7.4482076792e-001	 2.8600265380e+000
 7.3654935135e-001	 7.5300132953e-001	 2.7637107825e+000
 7.2818860144e-001	 7.6108954782e-001	 2.6612738073e+000
 7.1974007214e-001	 7.6908396853e-001	 2.5521921596e+000
 7.1120534873e-001	 7.7698317248e-001	 2.4359424592e+000
 7.0258604684e-001	 7.8478577629e-001	 2.3120026791e+000
 7.8975308341e-001	 7.0703307018e-001	 3.0869961844e+000
 7.8190109296e-001	 7.1570692800e-001	 3.0130435665e+000
 7.7395189095e-001	 7.2429567201e-001	 2.9362746060e+000
 7.6590686948e-001	 7.3279767634e-001	 2.8561059184e+000
 7.5776745677e-001	 7.4121134567e-001	 2.7719476122e+000
 7.4953511623e-001	 7.4953511623e-001	 2.6832047041e+000
 7.4121134567e-001	 7.5776745677e-001	 2.5892785581e+000
 7.3279767634e-001	 7.6590686948e-001	 2.4895683391e+000
 7.2429567201e-001	 7.7395189095e-001	 2.3834724739e+000
 7.1570692800e-001	 7.8190109296e-001	 2.2703901078e+000
 7.0703307018e-001	 7.8975308341e-001	 2.1497225510e+000
 7.9472038680e-001	 7.1148009019e-001	 2.9126521623e+000
 7.8681900975e-001	 7.2020850390e-001	 2.8383858363e+000
 7.7881980971e-001	 7.2885126846e-001	 2.7619930850e+000
 7.7072418754e-001	 7.3740674778e-001	 2.6828161903e+000
 7.6253358043e-001	 7.4587333649e-001	 2.6001907736e+000
 7.5424946100e-001	 7.5424946100e-001	 2.5134473729e+000
 7.4587333649e-001	 7.6253358043e-001	 2.4219130452e+000
 7.3740674778e-001	 7.7072418754e-001	 2.3249129836e+000
 7.2885126846e-001	 7.7881980971e-001	 2.2217721401e+000
 7.2020850390e-001	 7.8681900975e-001	 2.1118168435e+000
 7.1148009019e-001	 7.9472038680e-001	 1.9943764049e+000
 6.6701067379e-001	 7.4504822833e-001	 3.8876550564e+000
 6.5874783014e-001	 7.5236385116e-001	 3.7291686648e+000
 6.5040781861e-001	 7.5958521594e-001	 3.5649346186e+000
 6.4199225496e-001	 7.6671111609e-001	 3.3946758121e+000
 6.3350277976e-001	 7.7374038194e-001	 3.2181694500e+000
 6.2494105736e-001	 7.8067188138e-001	 3.0352427873e+000
 6.1630877477e-001	 7.8750452048e-001	 2.8457721805e+000
 6.0760764065e-001	 7.9423724396e-001	 2.6496819243e+000
 5.9883938412e-001	 8.0086903579e-001	 2.4469428866e+000
 5.9000575367e-001	 8.0739891962e-001	 2.2375709607e+000
 5.8110851606e-001	 8.1382595926e-001	 2.0216253480e+000
 6.7145744368e-001	 7.5001525232e-001	 3.6614213092e+000
 6.6313951401e-001	 7.5737964632e-001	 3.5084136507e+000
 6.5474390201e-001	 7.6464915388e-001	 3.3504790407e+000
 6.4627223420e-001	 7.7182256037e-001	 3.1865700240e+000
 6.3772616209e-001	 7.7889868833e-001	 3.0165167505e+000
 6.2910736112e-001	 7.8587639811e-001	 2.8401992058e+000
 6.2041752957e-001	 7.9275458846e-001	 2.6575460913e+000
 6.1165838747e-001	 7.9953219709e-001	 2.4685334839e+000
 6.0283167547e-001	 8.0620820118e-001	 2.2731832943e+000
 5.9393915373e-001	 8.1278161789e-001	 2.0715615394e+000
 5.8498260077e-001	 8.1925150476e-001	 1.8637764458e+000
 6.7590427250e-001	 7.5498234213e-001	 3.4440718257e+000
 6.6753125607e-001	 7.6239550795e-001	 3.2951404977e+000
 6.5908004285e-001	 7.6971315892e-001	 3.1434951267e+000
 6.5055227014e-001	 7.7693407238e-001	 2.9859091754e+000
 6.4194960037e-001	 7.8405706307e-001	 2.8222366071e+000
 6.3327372008e-001	 7.9108098379e-001	 2.6524068699e+000
 6.2452633881e-001	 7.9800472600e-001	 2.4763980199e+000
 6.1570918796e-001	 8.0482722037e-001	 2.2942352066e+000
 6.0682401972e-001	 8.1154743732e-001	 2.1059889528e+000
 5.9787260590e-001	 8.1816438747e-001	 1.9117732459e+000
 5.8885673681e-001	 8.2467712216e-001	 1.7117434614e+000
 6.8035115244e-001	 7.5994948906e-001	 3.2353377460e+000
 6.7192304863e-001	 7.6741142725e-001	 3.0899699516e+000
 6.6341623356e-001	 7.7477722220e-001	 2.9436719653e+000
 6.5483235529e-001	 7.8204564318e-001	 2.7923936126e+000
 6.4617308722e-001	 7.8921549714e-001	 2.6350435674e+000
 6.3744012696e-001	 7.9628562933e-001	 2.4715975422e+000
 6.2863519529e-001	 8.0325492393e-001	 2.3020800280e+000
 6.1976003503e-001	 8.1012230455e-001	 2.1265626046e+000
 6.1081640987e-001	 8.1688673486e-001	 1.9451620405e+000
 6.0180610330e-001	 8.2354721896e-001	 1.7580382042e+000
 5.9273091740e-001	 8.3010280195e-001	 1.5653918037e+000
 6.8479807574e-001	 7.6491668442e-001	 3.0349576856e+000
 6.7631488401e-001	 7.7242739547e-001	 2.8931009439e+000
 6.6775246654e-001	 7.7984133485e-001	 2.7507450992e+000
 6.5911248218e-001	 7.8715726382e-001	 2.6057281897e+000
 6.5039661524e-001	 7.9437398150e-001	 2.4546563464e+000
 6.4160657445e-001	 8.0149032562e-001	 2.2975067239e+000
 6.3274409183e-001	 8.0850517304e-001	 2.1343473967e+000
 6.2381092158e-001	 8.1541744036e-001	 1.9652937982e+000
 6.1480883895e-001	 8.2222608445e-001	 1.7905066419e+000
 6.0573963905e-001	 8.2893010294e-001	 1.6101896486e+000
 5.9660513576e-001	 8.3552853464e-001	 1.4245871026e+000
 6.8924503461e-001	 7.6988391951e-001	 2.8426775740e+000
 6.8070675452e-001	 7.7744340380e-001	 2.7042797388e+000
 6.7208873421e-001	 7.8490548802e-001	 2.5653899238e+000
 6.6339264330e-001	 7.9226892534e-001	 2.4256222910e+000
 6.5462017704e-001	 7.9953250713e-001	 2.2807978565e+000
 6.4577305527e-001	 8.0669506354e-001	 2.1298736938e+000
 6.3685302124e-001	 8.1375546415e-001	 1.9729586768e+000
 6.2786184055e-001	 8.2071261853e-001	 1.8102095821e+000
 6.1880129996e-001	 8.2756547677e-001	 1.6418288296e+000
 6.0967320627e-001	 8.3431302997e-001	 1.4680620262e+000
 6.0047938511e-001	 8.4095431073e-001	 1.2891953340e+000
 6.9369202127e-001	 7.7485118565e-001	 2.6582504979e+000
 6.8509865247e-001	 7.8245944349e-001	 2.5232596893e+000
 6.7642502898e-001	 7.8996967283e-001	 2.3877609580e+000
 6.6767283117e-001	 7.9738061881e-001	 2.2518260637e+000
 6.5884376524e-001	 8.0469106500e-001	 2.1131952415e+000
 6.4993956212e-001	 8.1189983399e-001	 1.9684415514e+000
 6.4096197632e-001	 8.1900578808e-001	 1.8176757437e+000
 6.3191278482e-001	 8.2600782979e-001	 1.6610934926e+000
 6.2279378592e-001	 8.3290490245e-001	 1.4989367494e+000
 6.1360679807e-001	 8.3969599065e-001	 1.3314911002e+000
 6.0435365867e-001	 8.4638012074e-001	 1.1590829456e+000
 6.9813902794e-001	 7.7981847414e-001	 2.4814365496e+000
 6.8949057019e-001	 7.8747550575e-001	 2.3498010881e+000
 6.8076134325e-001	 7.9503388043e-001	 2.2176213099e+000
 6.7195303829e-001	 8.0249233529e-001	 2.0850130492e+000
 6.6306737245e-001	 8.0984964608e-001	 1.9515799146e+000
 6.5410608773e-001	 8.1710462786e-001	 1.8129572625e+000
 6.4507094990e-001	 8.2425613563e-001	 1.6682638541e+000
 6.3596374733e-001	 8.3130306488e-001	 1.5177318786e+000
 6.2678628985e-001	 8.3824435215e-001	 1.3616407055e+000
 6.1754040756e-001	 8.4507897555e-001	 1.2003140540e+000
 6.0822794966e-001	 8.5180595516e-001	 1.0341169812e+000
 7.0258604684e-001	 7.8478577629e-001	 2.3120026791e+000
 6.9388249998e-001	 7.9249158180e-001	 2.1836710229e+000
 6.8509766945e-001	 8.0009810196e-001	 2.0547407501e+000
 6.7623325719e-001	 8.0760406582e-001	 1.9253686907e+000
 6.6729099126e-001	 8.1500824134e-001	 1.7957011933e+000
 6.5827262478e-001	 8.2230943604e-001	 1.6631717098e+000
 6.4917993477e-001	 8.2950649762e-001	 1.5244917057e+000
 6.4001472097e-001	 8.3659831453e-001	 1.3799139733e+000
 6.3077880475e-001	 8.4358381654e-001	 1.2297532484e+000
 6.2147402787e-001	 8.5046197524e-001	 1.0743695964e+000
 6.1210225131e-001	 8.5723180450e-001	 9.1416520604e-001
 7.0703307018e-001	 7.8975308341e-001	 2.1497225510e+000
 6.9827443416e-001	 7.9750766287e-001	 2.0246432354e+000
 6.8943399999e-001	 8.0516232855e-001	 1.8988955757e+000
 6.8051348036e-001	 8.1271580146e-001	 1.7726743784e+000
 6.7151461430e-001	 8.2016684176e-001	 1.6461639987e+000
 6.6243916601e-001	 8.2751424943e-001	 1.5188397449e+000
 6.5328892374e-001	 8.3475686485e-001	 1.3861314999e+000
 6.4406569866e-001	 8.4189356947e-001	 1.2474319693e+000
 6.3477132365e-001	 8.4892328627e-001	 1.1030892638e+000
 6.2540765212e-001	 8.5584498032e-001	 9.5349806666e-001
 6.1597655683e-001	 8.6265765926e-001	 7.9909623086e-001
 7.1148009019e-001	 7.9472038680e-001	 1.9943764049e+000
 7.0266636505e-001	 8.0252374017e-001	 1.8724979847e+000
 6.9377032727e-001	 8.1022655134e-001	 1.7498684784e+000
 6.8479370032e-001	 8.1782753326e-001	 1.6267177070e+000
 6.7573823417e-001	 8.2532543831e-001	 1.5032652835e+000
 6.6660570411e-001	 8.3271905891e-001	 1.3797202441e+000
 6.5739790964e-001	 8.4000722815e-001	 1.2529590069e+000
 6.4811667332e-001	 8.4718882044e-001	 1.1200810947e+000
 6.3876383955e-001	 8.5426275199e-001	 9.8146606209e-001
 6.2934127341e-001	 8.6122798137e-001	 8.3754154077e-001
 6.1985085944e-001	 8.6808350995e-001	 6.8877963635e-001
 5.8110851606e-001	 8.1382595926e-001	 2.0216253480e+000
 5.7214945494e-001	 8.2014925879e-001	 1.7994752861e+000
 5.6313036914e-001	 8.2636796230e-001	 1.5718282400e+000
 5.5405307210e-001	 8.3248125485e-001	 1.3393043665e+000
 5.4491939094e-001	 8.3848836297e-001	 1.1025512699e+000
 5.3573116523e-001	 8.4438855498e-001	 8.6224119515e-001
 5.2649024586e-001	 8.5018114112e-001	 6.1906817887e-001
 5.1719849384e-001	 8.5586547377e-001	 3.7374517556e-001
 5.0785777912e-001	 8.6144094757e-001	 1.2700117748e-001
 4.9846997940e-001	 8.6690699948e-001	-1.2042165467e-001
 4.8903697900e-001	 8.7226310887e-001	-3.6777083340e-001
 5.8498260077e-001	 8.1925150476e-001	 1.8637764458e+000
 5.7596381215e-001	 8.2561695993e-001	 1.6502080338e+000
 5.6688459867e-001	 8.3187712176e-001	 1.4315052334e+000
 5.5774678588e-001	 8.3803116988e-001	 1.2082345957e+000
 5.4855221307e-001	 8.4407832568e-001	 9.8099313042e-001
 5.3930273208e-001	 8.5001785259e-001	 7.5040546622e-001
 5.3000020613e-001	 8.5584905625e-001	 5.1712096213e-001
 5.2064650865e-001	 8.6157128472e-001	 2.8181079108e-001
 5.1124352205e-001	 8.6718392861e-001	 4.5165013168e-002
 5.0179313655e-001	 8.7268642113e-001	-1.9211034281e-001
 4.9229724903e-001	 8.7807823817e-001	-4.2929617249e-001
 5.8885673681e-001	 8.2467712216e-001	 1.7117434614e+000
 5.7977821989e-001	 8.3108473352e-001	 1.5063168520e+000
 5.7063887794e-001	 8.3738635422e-001	 1.2961144755e+000
 5.6144054860e-001	 8.4358115846e-001	 1.0816537899e+000
 5.5218508333e-001	 8.4966836246e-001	 8.6348553497e-001
 5.4287434625e-001	 8.5564722478e-001	 6.4219084867e-001
 5.3351021291e-001	 8.6151704647e-001	 4.1837833227e-001
 5.2409456915e-001	 8.6727717128e-001	 1.9268108274e-001
 5.1462930984e-001	 8.7292698575e-001	-3.4246287470e-002
 5.0511633773e-001	 8.7846591936e-001	-2.6173062488e-001
 4.9555756225e-001	 8.8389344453e-001	-4.8908318563e-001
 5.9273091740e-001	 8.3010280195e-001	 1.5653918037e+000
 5.8359267149e-001	 8.3655256999e-001	 1.3677007768e+000
 5.7439320038e-001	 8.4289565004e-001	 1.1655858962e+000
 5.6513435379e-001	 8.4913121086e-001	 9.5951998267e-001
 5.5581799537e-001	 8.5525846353e-001	 7.5001177502e-001
 5.4644600149e-001	 8.6127666172e-001	 5.3760299523e-001
 5.3702026006e-001	 8.6718510189e-001	 3.2286535789e-001
 5.2754266930e-001	 8.7298312345e-001	 1.0639754420e-001
 5.1801513656e-001	 8.7867010894e-001	-1.1117783927e-001
 5.0843957712e-001	 8.8424548405e-001	-3.2921729769e-001
 4.9881791296e-001	 8.8970871776e-001	-5.4705946234e-001
 5.9660513576e-001	 8.3552853464e-001	 1.4245871026e+000
 5.8740716028e-001	 8.4202045976e-001	 1.2342581611e+000
 5.7814755943e-001	 8.4840499957e-001	 1.0398479047e+000
 5.6882819500e-001	 8.5468131737e-001	 8.4178891716e-001
 5.5945094283e-001	 8.6084861910e-001	 6.4055215347e-001
 5.5001769156e-001	 8.6690615355e-001	 4.3664394487e-001
 5.4053034142e-001	 8.7285321257e-001	 2.3060294429e-001
 5.3099080307e-001	 8.7868913126e-001	 2.2997033903e-002
 5.2140099630e-001	 8.8441328812e-001	-1.8557978447e-001
 5.1176284892e-001	 8.9002510510e-001	-3.9451049599e-001
 5.0207829547e-001	 8.9552404770e-001	-6.0315815710e-001
 6.0047938511e-001	 8.4095431073e-001	 1.2891953340e+000
 5.9122167959e-001	 8.4748839329e-001	 1.1058868233e+000
 5.8190194850e-001	 8.5391439317e-001	 9.1882755854e-001
 5.7252206575e-001	 8.6023146829e-001	 7.2841423385e-001
 5.6308391935e-001	 8.6643881940e-001	 5.3508418800e-001
 5.5358941019e-001	 8.7253569041e-001	 3.3931233984e-001
 5.4404045087e-001	 8.7852136859e-001	 1.4160806155e-001
 5.3443896442e-001	 8.8439518472e-001	-5.7487988317e-002
 5.2478688313e-001	 8.9015651325e-001	-2.5740705018e-001
 5.1508614730e-001	 8.9580477239e-001	-4.5755544656e-001
 5.0533870406e-001	 9.0133942415e-001	-6.5731774274e-001
 6.0435365867e-001	 8.4638012074e-001	 1.1590829456e+000
 5.9503622273e-001	 8.5295636098e-001	 9.8248419420e-001
 5.8565636104e-001	 8.5942382121e-001	 8.0245073015e-001
 5.7621595959e-001	 8.6578165389e-001	 6.1934765496e-001
 5.6671691857e-001	 8.7202905463e-001	 4.3358281096e-001
 5.5716115115e-001	 8.7816526246e-001	 2.4560363839e-001
 5.4755058225e-001	 8.8418956004e-001	 5.5893967669e-002
 5.3788714732e-001	 8.9010127384e-001	-1.3502923001e-001
 5.2817279112e-001	 8.9589977427e-001	-3.2661911152e-001
 5.1840946646e-001	 9.0158447580e-001	-5.1830222834e-001
 5.0859913302e-001	 9.0715483696e-001	-7.0948177001e-001
 6.0822794966e-001	 8.5180595516e-001	 1.0341169812e+000
 5.9885078304e-001	 8.5842435328e-001	 8.6394746321e-001
 5.8941079048e-001	 8.6493327404e-001	 6.9064227226e-001
 5.7990987005e-001	 8.7133186447e-001	 5.1453916617e-001
 5.7034993415e-001	 8.7761931501e-001	 3.3602056553e-001
 5.6073290818e-001	 8.8379485983e-001	 1.5551032320e-001
 5.5106072943e-001	 8.8985777699e-001	-2.6529572913e-002
 5.4133534574e-001	 8.9580738863e-001	-2.0960234001e-001
 5.3155871434e-001	 9.0164306114e-001	-3.9317976031e-001
 5.2173280057e-001	 9.0736420522e-001	-5.7670553818e-001
 5.1185957666e-001	 9.1297027593e-001	-7.5959863294e-001
 6.1210225131e-001	 8.5723180450e-001	 9.1416520604e-001
 6.0266535384e-001	 8.6389236061e-001	 7.5017372316e-001
 5.9316523023e-001	 8.7044274202e-001	 5.8332618060e-001
 5.8360379067e-001	 8.7688209030e-001	 4.1393719559e-001
 5.7398295971e-001	 8.8320959077e-001	 2.4236779856e-001
 5.6430467504e-001	 8.8942447269e-001	 6.9022105929e-002
 5.5457088626e-001	 8.9552600953e-001	-1.0565607539e-001
 5.4478355364e-001	 9.0151351912e-001	-2.8118668724e-001
 5.3494464687e-001	 9.0738636380e-001	-4.5705687892e-001
 5.2505614381e-001	 9.1314395053e-001	-6.3272446216e-001
 5.1512002926e-001	 9.1878573089e-001	-8.0762133989e-001
 6.1597655683e-001	 8.6265765926e-001	 7.9909623086e-001
 6.0647992845e-001	 8.6936037341e-001	 6.4106011404e-001
 5.9691967375e-001	 8.7595221550e-001	 4.8042575509e-001
 5.8729771499e-001	 8.8243232169e-001	 3.1748879010e-001
 5.7761598890e-001	 8.8879987212e-001	 1.5259285012e-001
 5.6787644546e-001	 8.9505409117e-001	-1.3873872100e-002
 5.5808104660e-001	 9.0119424773e-001	-1.8148212488e-001
 5.4823176499e-001	 9.0721965531e-001	-3.4976514421e-001
 5.3833058279e-001	 9.1312967220e-001	-5.1822221919e-001
 5.2837949038e-001	 9.1892370161e-001	-6.8632225211e-001
 5.1838048513e-001	 9.2460119167e-001	-8.5350728998e-001
 6.1985085944e-001	 8.6808350995e-001	 6.8877963635e-001
 6.1029450020e-001	 8.7482838211e-001	 5.3650396576e-001
 6.0067411444e-001	 8.8146168485e-001	 3.8186375900e-001
 5.9099163653e-001	 8.8798254891e-001	 2.2513978917e-001
 5.8124901537e-001	 8.9439014927e-001	 6.6662239995e-002
 5.7144821321e-001	 9.0068370543e-001	-9.3192842894e-002
 5.6159120431e-001	 9.0686248168e-001	-2.5400717092e-001
 5.5167997376e-001	 9.1292578721e-001	-4.1532387509e-001
 5.4171651617e-001	 9.1887297629e-001	-5.7665118612e-001
 5.3170283446e-001	 9.2470344836e-001	-7.3746610711e-001
 5.2164093855e-001	 9.3041664808e-001	-8.9721805462e-001
 4.8903697900e-001	 8.7226310887e-001	-3.6777083340e-001
 4.7956209226e-001	 8.7750801914e-001	-6.1583366677e-001
 4.7004580118e-001	 8.8264210687e-001	-8.6566190209e-001
 4.6049000248e-001	 8.8766497944e-001	-1.1167782750e+000
 4.5089659477e-001	 8.9257628643e-001	-1.3687013512e+000
 4.4126747746e-001	 8.9737571948e-001	-1.6209472524e+000
 4.3160454958e-001	 9.0206301214e-001	-1.8730312954e+000
 4.2190970867e-001	 9.0663793965e-001	-2.1244695341e+000
 4.1218484971e-001	 9.1110031866e-001	-2.3747801991e+000
 4.0243186398e-001	 9.1545000704e-001	-2.6234850280e+000
 3.9265263800e-001	 9.1968690347e-001	-2.8701104833e+000
 4.9229724903e-001	 8.7807823817e-001	-4.2929617249e-001
 4.8275919591e-001	 8.8335811476e-001	-6.6721796028e-001
 4.7317946244e-001	 8.8852642999e-001	-9.0693229608e-001
 4.6355995795e-001	 8.9358278862e-001	-1.1479480843e+000
 4.5390259373e-001	 8.9852683789e-001	-1.3897704510e+000
 4.4420928185e-001	 9.0335826739e-001	-1.6319025487e+000
 4.3448193398e-001	 9.0807680890e-001	-1.8738472664e+000
 4.2472246034e-001	 9.1268223614e-001	-2.1151088374e+000
 4.1493276851e-001	 9.1717436456e-001	-2.3551943369e+000
 4.0511476241e-001	 9.2155305107e-001	-2.5936150635e+000
 3.9527034112e-001	 9.2581819368e-001	-2.8298878013e+000
 4.9555756225e-001	 8.8389344453e-001	-4.8908318563e-001
 4.8595634193e-001	 8.8920828790e-001	-7.1718274974e-001
 4.7631316522e-001	 8.9441083108e-001	-9.4710852429e-001
 4.6662995410e-001	 8.9950067621e-001	-1.1783565255e+000
 4.5690863253e-001	 9.0447746820e-001	-1.4104193126e+000
 4.4715112521e-001	 9.0934089458e-001	-1.6427878724e+000
 4.3735935651e-001	 9.1409068534e-001	-1.8749534032e+000
 4.2753524927e-001	 9.1872661272e-001	-2.1064089894e+000
 4.1768072373e-001	 9.2324849095e-001	-2.3366511585e+000
 4.0779769639e-001	 9.2765617597e-001	-2.5651813157e+000
 3.9788807893e-001	 9.3194956513e-001	-2.7915070508e+000
 4.9881791296e-001	 8.8970871776e-001	-5.4705946234e-001
 4.8915352472e-001	 8.9505852832e-001	-7.6564937324e-001
 4.7944690403e-001	 9.0029529985e-001	-9.8610442740e-001
 4.6969998556e-001	 9.0541863186e-001	-1.2079086648e+000
 4.5991470589e-001	 9.1042816694e-001	-1.4305429213e+000
 4.5009300241e-001	 9.1532359056e-001	-1.6534867955e+000
 4.4023681213e-001	 9.2010463094e-001	-1.8762205074e+000
 4.3034807055e-001	 9.2477105881e-001	-2.0982266418e+000
 4.2042871055e-001	 9.2932268718e-001	-2.3189917670e+000
 4.1048066122e-001	 9.3375937106e-001	-2.5380079229e+000
 4.0050584684e-001	 9.3808100710e-001	-2.7547739749e+000
 5.0207829547e-001	 8.9552404770e-001	-6.0315815710e-001
 4.9235073868e-001	 9.0090882578e-001	-8.1254493248e-001
 4.8258067341e-001	 9.0617982598e-001	-1.0238398363e+000
 4.7277004695e-001	 9.1133664521e-001	-1.2365158133e+000
 4.6292080856e-001	 9.1637892370e-001	-1.4500427907e+000
 4.5303490829e-001	 9.2130634488e-001	-1.6638897291e+000
 4.4311429580e-001	 9.2611863518e-001	-1.8775265586e+000
 4.3316091926e-001	 9.3081556384e-001	-2.0904259921e+000
 4.2317672416e-001	 9.3539694265e-001	-2.3020652071e+000
 4.1316365222e-001	 9.3986262565e-001	-2.5119273895e+000
 4.0312364028e-001	 9.4421250885e-001	-2.7195031353e+000
 5.0533870406e-001	 9.0133942415e-001	-6.5731774274e-001
 4.9554797821e-001	 9.0675917004e-001	-8.5780204628e-001
 4.8571446785e-001	 9.1206439920e-001	-1.0602403249e+000
 4.7584013290e-001	 9.1725470591e-001	-1.2640952778e+000
 4.6592693529e-001	 9.2232972807e-001	-1.4688267097e+000
 4.5597683770e-001	 9.2728914706e-001	-1.6738936670e+000
 4.4599180250e-001	 9.3213268753e-001	-1.8787564537e+000
 4.3597379047e-001	 9.3686011722e-001	-2.0828785163e+000
 4.2592475975e-001	 9.4147124670e-001	-2.2857281907e+000
 4.1584666468e-001	 9.4596592907e-001	-2.4867803030e+000
 4.0574145465e-001	 9.5034405964e-001	-2.6855176203e+000
 5.0859913302e-001	 9.0715483696e-001	-7.0948177001e-001
 4.9874523773e-001	 9.1260955087e-001	-9.0135861033e-001
 4.8884828188e-001	 9.1794900919e-001	-1.0952369689e+000
 4.7891023804e-001	 9.2317280359e-001	-1.2905701183e+000
 4.6893308080e-001	 9.2828056964e-001	-1.4868084977e+000
 4.5891878551e-001	 9.3327198663e-001	-1.6834019368e+000
 4.4886932718e-001	 9.3814677747e-001	-1.8798017526e+000
 4.3878667926e-001	 9.4290470838e-001	-2.0754627091e+000
 4.2867281252e-001	 9.4754558872e-001	-2.2698448302e+000
 4.1852969390e-001	 9.5206927063e-001	-2.4624150592e+000
 4.0835928539e-001	 9.5647564876e-001	-2.6526487603e+000
 5.1185957666e-001	 9.1297027593e-001	-7.5959863294e-001
 5.0194251164e-001	 9.1845995803e-001	-9.4315756306e-001
 4.9198211001e-001	 9.2383364567e-001	-1.1287661112e+000
 4.8198035700e-001	 9.2909092791e-001	-1.3158689117e+000
 4.7193923983e-001	 9.3423143798e-001	-1.5039077660e+000
 4.6186074655e-001	 9.3925485313e-001	-1.6923239575e+000
 4.5174686481e-001	 9.4416089447e-001	-1.8805604319e+000
 4.4159958071e-001	 9.4894932674e-001	-2.0680638322e+000
 4.3142087766e-001	 9.5361995807e-001	-2.2542863800e+000
 4.2121273520e-001	 9.5817263965e-001	-2.4386875962e+000
 4.1097712791e-001	 9.6260726547e-001	-2.6207358538e+000
 5.1512002926e-001	 9.1878573089e-001	-8.0762133989e-001
 5.0513979434e-001	 9.2431038127e-001	-9.8314665713e-001
 4.9511594676e-001	 9.2971829832e-001	-1.1607691334e+000
 4.8505048440e-001	 9.3500906850e-001	-1.3399255216e+000
 4.7494540714e-001	 9.4018232268e-001	-1.5200496849e+000
 4.6480271568e-001	 9.4523773607e-001	-1.7005750044e+000
 4.5462441035e-001	 9.5017502801e-001	-1.8809366451e+000
 4.4441248989e-001	 9.5499396172e-001	-2.0605736687e+000
 4.3416895035e-001	 9.5969434412e-001	-2.2389309856e+000
 4.2389578388e-001	 9.6427602546e-001	-2.4154611365e+000
 4.1359497763e-001	 9.6873889904e-001	-2.5896259002e+000
 5.1838048513e-001	 9.2460119167e-001	-8.5350728998e-001
 5.0833708024e-001	 9.3016081035e-001	-1.0212782364e+000
 4.9824978664e-001	 9.3560295686e-001	-1.1911922319e+000
 4.8812061487e-001	 9.4092721500e-001	-1.3626788738e+000
 4.7795157745e-001	 9.4613321333e-001	-1.5351647575e+000
 4.6774468776e-001	 9.5122062500e-001	-1.7080759791e+000
 4.5750195877e-001	 9.5618916756e-001	-1.8808404892e+000
 4.4722540189e-001	 9.6103860275e-001	-2.0528902860e+000
 4.3691702579e-001	 9.6576873625e-001	-2.2236634391e+000
 4.2657883524e-001	 9.7037941737e-001	-2.3926059355e+000
 4.1621282996e-001	 9.7487053874e-001	-2.5591733422e+000
 5.2164093855e-001	 9.3041664808e-001	-8.9721805462e-001
 5.1153436373e-001	 9.3601123505e-001	-1.0575090183e+000
 5.0138362418e-001	 9.4148761098e-001	-1.2199862005e+000
 4.9119074303e-001	 9.4684535706e-001	-1.3840727379e+000
 4.8095774550e-001	 9.5208409952e-001	-1.5491885994e+000
 4.7068665762e-001	 9.5720350944e-001	-1.7147531867e+000
 4.6037950503e-001	 9.6220330259e-001	-1.8801877779e+000
 4.5003831177e-001	 9.6708323924e-001	-2.0449178032e+000
 4.3966509917e-001	 9.7184312382e-001	-2.2083749430e+000
 4.2926188459e-001	 9.7648280471e-001	-2.3699990389e+000
 4.1883068033e-001	 9.8100217384e-001	-2.5292398139e+000
 3.9265263800e-001	 9.1968690347e-001	-2.8701104833e+000
 3.8284758015e-001	 9.2381155749e-001	-3.1147694935e+000
 3.7302003062e-001	 9.2782330500e-001	-3.3574651789e+000
 3.6317185667e-001	 9.3172216582e-001	-3.5976902180e+000
 3.5330491665e-001	 9.3550819912e-001	-3.8349592988e+000
 3.4342105900e-001	 9.3918150291e-001	-4.0688094193e+000
 3.3352212132e-001	 9.4274221361e-001	-4.2988000557e+000
 3.2360992937e-001	 9.4619050544e-001	-4.5245132015e+000
 3.1368629624e-001	 9.4952658997e-001	-4.7455532833e+000
 3.0375302140e-001	 9.5275071551e-001	-4.9615469591e+000
 2.9381188981e-001	 9.5586316651e-001	-5.1721428052e+000
 3.9527034112e-001	 9.2581819368e-001	-2.8298878013e+000
 3.8539991574e-001	 9.2997034560e-001	-3.0642193977e+000
 3.7550684875e-001	 9.3400883828e-001	-3.2967279544e+000
 3.6559301983e-001	 9.3793369169e-001	-3.5269232238e+000
 3.5566029974e-001	 9.4174496540e-001	-3.7543359546e+000
 3.4571054923e-001	 9.4544275806e-001	-3.9785181866e+000
 3.3574561815e-001	 9.4902720699e-001	-4.1990434102e+000
 3.2576734445e-001	 9.5249848761e-001	-4.4155065924e+000
 3.1577755329e-001	 9.5585681287e-001	-4.6275240778e+000
 3.0577805613e-001	 9.5910243273e-001	-4.8347333682e+000
 2.9577064985e-001	 9.6223563355e-001	-5.0367927882e+000
 3.9788807893e-001	 9.3194956513e-001	-2.7915070508e+000
 3.8795228516e-001	 9.3612921531e-001	-3.0159181350e+000
 3.7799369983e-001	 9.4019445352e-001	-3.2386352347e+000
 3.6801421508e-001	 9.4414529987e-001	-3.4591837636e+000
 3.5801571404e-001	 9.4798181431e-001	-3.6771092457e+000
 3.4800006980e-001	 9.5170409617e-001	-3.8919776050e+000
 3.3796914444e-001	 9.5531228366e-001	-4.1033753152e+000
 3.2792478811e-001	 9.5880655335e-001	-4.3109094133e+000
 3.1786883805e-001	 9.6218711963e-001	-4.5142073838e+000
 3.0780311770e-001	 9.6545423411e-001	-4.7129169180e+000
 2.9772943586e-001	 9.6860818502e-001	-4.9067055580e+000
 4.0050584684e-001	 9.3808100710e-001	-2.7547739749e+000
 3.9050468393e-001	 9.4228815584e-001	-2.9696529008e+000
 3.8048057951e-001	 9.4638013989e-001	-3.1829568234e+000
 3.7043543817e-001	 9.5035697948e-001	-3.3942254293e+000
 3.6037115542e-001	 9.5421873495e-001	-3.6030177566e+000
 3.5028961669e-001	 9.5796550628e-001	-3.8089124795e+000
 3.4019269631e-001	 9.6159743260e-001	-4.0115080485e+000
 3.3008225659e-001	 9.6511469165e-001	-4.2104226909e+000
 3.1996014685e-001	 9.6851749920e-001	-4.4052942762e+000
 3.0982820256e-001	 9.7180610853e-001	-4.5957800555e+000
 2.9968824439e-001	 9.7498080978e-001	-4.7815562799e+000
 4.0312364028e-001	 9.4421250885e-001	-2.7195031353e+000
 3.9305710759e-001	 9.4844715643e-001	-2.9252201568e+000
 3.8296748344e-001	 9.5256588658e-001	-3.1294721991e+000
 3.7285668486e-001	 9.5656871966e-001	-3.3318118565e+000
 3.6272661978e-001	 9.6045571640e-001	-3.5318104430e+000
 3.5257918591e-001	 9.6422697745e-001	-3.7290582729e+000
 3.4241626986e-001	 9.6788264283e-001	-3.9231647904e+000
 3.3223974610e-001	 9.7142289144e-001	-4.1137585561e+000
 3.2205147605e-001	 9.7484794049e-001	-4.3004870940e+000
 3.1185330716e-001	 9.7815804489e-001	-4.4830166077e+000
 3.0164707201e-001	 9.8135349668e-001	-4.6610315726e+000
 4.0574145465e-001	 9.5034405964e-001	-2.6855176203e+000
 3.9560955167e-001	 9.5460620629e-001	-2.8824253292e+000
 3.8545440726e-001	 9.5875168275e-001	-3.0779702045e+000
 3.7527795093e-001	 9.6278050953e-001	-3.2717164053e+000
 3.6508210297e-001	 9.6669274775e-001	-3.4632463067e+000
 3.5486877345e-001	 9.7048849870e-001	-3.6521607750e+000
 3.4463986120e-001	 9.7416790333e-001	-3.8380792880e+000
 3.3439725287e-001	 9.7773114170e-001	-4.0206399059e+000
 3.2414282198e-001	 9.8117843242e-001	-4.1994990991e+000
 3.1387842797e-001	 9.8451003205e-001	-4.3743314396e+000
 3.0360591531e-001	 9.8772623455e-001	-4.5448291651e+000
 4.0835928539e-001	 9.5647564876e-001	-2.6526487603e+000
 3.9816201170e-001	 9.6076529464e-001	-2.8410825154e+000
 3.8794134663e-001	 9.6493751758e-001	-3.0282487451e+000
 3.7769923213e-001	 9.6899233822e-001	-3.2137218526e+000
 3.6743760089e-001	 9.7292981807e-001	-3.3970940808e+000
 3.5715837529e-001	 9.7675005909e-001	-3.5779757826e+000
 3.4686346643e-001	 9.8045320312e-001	-3.7559955313e+000
 3.3655477313e-001	 9.8403943139e-001	-3.9308000756e+000
 3.2623418098e-001	 9.8750896391e-001	-4.1020541467e+000
 3.1590356143e-001	 9.9086205892e-001	-4.2694401233e+000
 3.0556477086e-001	 9.9409901225e-001	-4.4326575665e+000
 4.1097712791e-001	 9.6260726547e-001	-2.6207358538e+000
 4.0071448321e-001	 9.6692441070e-001	-2.8010142009e+000
 3.9042829718e-001	 9.7112338025e-001	-2.9801144983e+000
 3.8012052422e-001	 9.7520419486e-001	-3.1576200938e+000
 3.6979310941e-001	 9.7916691646e-001	-3.3331319260e+000
 3.5944798744e-001	 9.8301164765e-001	-3.5062687906e+000
 3.4908708168e-001	 9.8673853119e-001	-3.6766674402e+000
 3.3871230310e-001	 9.9034774946e-001	-3.8439825230e+000
 3.2832554939e-001	 9.9383952389e-001	-4.0078863670e+000
 3.1792870400e-001	 9.9721411437e-001	-4.1680686192e+000
 3.0752363522e-001	 1.0004718186e+000	-4.3242357464e+000
 4.1359497763e-001	 9.6873889904e-001	-2.5896259002e+000
 4.0326696175e-001	 9.7308354370e-001	-2.7620509840e+000
 3.9291525458e-001	 9.7730925992e-001	-2.9333826308e+000
 3.8254182298e-001	 9.8141606858e-001	-3.1032118537e+000
 3.7214862440e-001	 9.8540403200e-001	-3.2711471359e+000
 3.6173760589e-001	 9.8927325343e-001	-3.4368146930e+000
 3.5131070303e-001	 9.9302387654e-001	-3.5998585620e+000
 3.4086983900e-001	 9.9665608488e-001	-3.7599405226e+000
 3.3041692356e-001	 1.0001701013e+000	-3.9167398586e+000
 3.1995385215e-001	 1.0035661873e+000	-4.0699529674e+000
 3.0948250496e-001	 1.0068446425e+000	-4.2192928273e+000
 4.1621282996e-001	 9.7487053874e-001	-2.5591733422e+000
 4.0581944283e-001	 9.7924268286e-001	-2.7240313099e+000
 3.9540221446e-001	 9.8349514578e-001	-2.8878765256e+000
 3.8496312415e-001	 9.8762794851e-001	-3.0503064075e+000
 3.7450414175e-001	 9.9164115378e-001	-3.2109358525e+000
 3.6402722662e-001	 9.9553486547e-001	-3.3693974937e+000
 3.5353432661e-001	 9.9930922818e-001	-3.5253417782e+000
 3.4302737705e-001	 1.0029644266e+000	-3.6784368709e+000
 3.3250829981e-001	 1.0065006850e+000	-3.8283683908e+000
 3.2197900232e-001	 1.0099182666e+000	-3.9748389906e+000
 3.1144137666e-001	 1.0132174728e+000	-4.1175677869e+000
 4.1883068033e-001	 9.8100217384e-001	-2.5292398139e+000
 4.0837192200e-001	 9.8540181740e-001	-2.6868012125e+000
 3.9788917248e-001	 9.8968102700e-001	-2.8434275166e+000
 3.8738442351e-001	 9.9383982379e-001	-2.9987213097e+000
 3.7685965733e-001	 9.9787827087e-001	-3.1523027903e+000
 3.6631684564e-001	 1.0017964728e+000	-3.3038100265e+000
 3.5575794852e-001	 1.0055945751e+000	-3.4528990218e+000
 3.4518491349e-001	 1.0092727636e+000	-3.5992436001e+000
 3.3459967450e-001	 1.0128312640e+000	-3.7425351169e+000
 3.2400415097e-001	 1.0162703411e+000	-3.8824820058e+000
 3.1340024690e-001	 1.0195902983e+000	-4.0188091706e+000
 2.9381188981e-001	 9.5586316651e-001	-5.1721428052e+000
 2.8386467101e-001	 9.5886426270e-001	-5.3775599523e+000
 2.7391311782e-001	 9.6175435779e-001	-5.5780706181e+000
 2.6395896607e-001	 9.6453383948e-001	-5.7734297183e+000
 2.5400393389e-001	 9.6720312906e-001	-5.9634056116e+000
 2.4404972108e-001	 9.6976268070e-001	-6.1477793376e+000
 2.3409800832e-001	 9.7221298076e-001	-6.3263438065e+000
 2.2415045650e-001	 9.7455454705e-001	-6.4989029498e+000
 2.1420870614e-001	 9.7678792810e-001	-6.6652708405e+000
 2.0427437664e-001	 9.7891370242e-001	-6.8252707934e+000
 1.9434906582e-001	 9.8093247774e-001	-6.9787344541e+000
 2.9577064985e-001	 9.6223563355e-001	-5.0367927882e+000
 2.8575711578e-001	 9.6525673719e-001	-5.2338960463e+000
 2.7573921843e-001	 9.6816609972e-001	-5.4262841365e+000
 2.6571870519e-001	 9.7096411142e-001	-5.6137124786e+000
 2.5569730566e-001	 9.7365119639e-001	-5.7959502846e+000
 2.4567673095e-001	 9.7622781184e-001	-5.9727797442e+000
 2.3565867295e-001	 9.7869444735e-001	-6.1439951595e+000
 2.2564480365e-001	 9.8105162419e-001	-6.3094020378e+000
 2.1563677447e-001	 9.8329989455e-001	-6.4688161535e+000
 2.0563621564e-001	 9.8543984081e-001	-6.6220625880e+000
 1.9564473560e-001	 9.8747207472e-001	-6.7689747577e+000
 2.9772943586e-001	 9.6860818502e-001	-4.9067055580e+000
 2.8764958564e-001	 9.7164929638e-001	-5.0957521972e+000
 2.7756534324e-001	 9.7457792661e-001	-5.2802772764e+000
 2.6747846763e-001	 9.7739446857e-001	-5.4600363611e+000
 2.5739069986e-001	 9.8009934917e-001	-5.6347991426e+000
 2.4730376237e-001	 9.8269302864e-001	-5.8043485703e+000
 2.3721935827e-001	 9.8517599981e-001	-5.9684799310e+000
 2.2713917060e-001	 9.8754878742e-001	-6.1269998836e+000
 2.1706486173e-001	 9.8981194730e-001	-6.2797254613e+000
 2.0699807268e-001	 9.9196606567e-001	-6.4264830508e+000
 1.9694042255e-001	 9.9401175836e-001	-6.5671073583e+000
 2.9968824439e-001	 9.7498080978e-001	-4.7815562799e+000
 2.8954207725e-001	 9.7804192909e-001	-4.9627965840e+000
 2.7939148905e-001	 9.8098982723e-001	-5.1397104773e+000
 2.6923825030e-001	 9.8382489966e-001	-5.3120533422e+000
 2.5908411353e-001	 9.8654757610e-001	-5.4795950056e+000
 2.4893081251e-001	 9.8915831979e-001	-5.6421188190e+000
 2.3878006153e-001	 9.9165762682e-001	-5.7994206801e+000
 2.2863355473e-001	 9.9404602537e-001	-5.9513080095e+000
 2.1849296541e-001	 9.9632407493e-001	-6.0975986923e+000
 2.0835994538e-001	 9.9849236558e-001	-6.2381199956e+000
 1.9823612439e-001	 1.0005515172e+000	-6.3727074721e+000
 3.0164707201e-001	 9.8135349668e-001	-4.6610315726e+000
 2.9143458732e-001	 9.8443462413e-001	-4.8347088961e+000
 2.8121765267e-001	 9.8740179037e-001	-5.0042557583e+000
 2.7099805014e-001	 9.9025539346e-001	-5.1694270582e+000
 2.6077754372e-001	 9.9299586589e-001	-5.3299924464e+000
 2.5055787851e-001	 9.9562367398e-001	-5.4857353497e+000
 2.4034078001e-001	 9.9813931702e-001	-5.6364519367e+000
 2.3012795344e-001	 1.0005433267e+000	-5.7819500340e+000
 2.1992108301e-001	 1.0028362661e+000	-5.9220480073e+000
 2.0972183136e-001	 1.0050187291e+000	-6.0565736155e+000
 1.9953183888e-001	 1.0070913398e+000	-6.1853628514e+000
 3.0360591531e-001	 9.8772623455e-001	-4.5448291651e+000
 2.9332711254e-001	 9.9082737030e-001	-4.7111799909e+000
 2.8304383089e-001	 9.9381380481e-001	-4.8735963745e+000
 2.7275786406e-001	 9.9668593869e-001	-5.0318324614e+000
 2.6247098745e-001	 9.9944420728e-001	-5.1856574436e+000
 2.5218495753e-001	 1.0020890799e+000	-5.3348545289e+000
 2.4190151098e-001	 1.0046210591e+000	-5.4792198491e+000
 2.3162236410e-001	 1.0070406799e+000	-5.6185613159e+000
 2.2134921204e-001	 1.0093485093e+000	-5.7526974390e+000
 2.1108372823e-001	 1.0115451449e+000	-5.8814561171e+000
 2.0082756372e-001	 1.0136312147e+000	-6.0046734133e+000
 3.0556477086e-001	 9.9409901225e-001	-4.4326575665e+000
 2.9521964958e-001	 9.9722015643e-001	-4.5919115624e+000
 2.8487002053e-001	 1.0002258593e+000	-4.7474264863e+000
 2.7451768897e-001	 1.0031165241e+000	-4.8989554879e+000
 2.6416444177e-001	 1.0058925890e+000	-5.0462670482e+000
 2.5381204671e-001	 1.0085545262e+000	-5.1891438938e+000
 2.4346225171e-001	 1.0111028416e+000	-5.3273818450e+000
 2.3311678410e-001	 1.0135380738e+000	-5.4607886112e+000
 2.2277735000e-001	 1.0158607932e+000	-5.5891825451e+000
 2.1244563362e-001	 1.0180716014e+000	-5.7123913688e+000
 2.0212329667e-001	 1.0201711305e+000	-5.8302508834e+000
 3.0752363522e-001	 1.0004718186e+000	-4.3242357464e+000
 2.9711219513e-001	 1.0036129713e+000	-4.4766158236e+000
 2.8669621839e-001	 1.0066379427e+000	-4.6254508400e+000
 2.7627752180e-001	 1.0095471385e+000	-4.7704927366e+000
 2.6585790371e-001	 1.0123409997e+000	-4.9115090615e+000
 2.5543914322e-001	 1.0150200016e+000	-5.0482818282e+000
 2.4502299945e-001	 1.0175846534e+000	-5.1806063041e+000
 2.3461121082e-001	 1.0200354969e+000	-5.3082897427e+000
 2.2420549438e-001	 1.0223731064e+000	-5.4311500736e+000
 2.1380754513e-001	 1.0245980873e+000	-5.5490145620e+000
 2.0341903544e-001	 1.0267110758e+000	-5.6617184511e+000
 3.0948250496e-001	 1.0068446425e+000	-4.2192928273e+000
 2.9900474589e-001	 1.0100058038e+000	-4.3650151975e+000
 2.8852242127e-001	 1.0130500437e+000	-4.5073844598e+000
 2.7803735948e-001	 1.0159777705e+000	-4.6461511608e+000
 2.6755137031e-001	 1.0187894281e+000	-4.7810817240e+000
 2.5706624421e-001	 1.0214854948e+000	-4.9119572498e+000
 2.4658375149e-001	 1.0240664829e+000	-5.0385722429e+000
 2.3610564165e-001	 1.0265329379e+000	-5.1607332816e+000
 2.2563364268e-001	 1.0288854375e+000	-5.2782576409e+000
 2.1516946039e-001	 1.0311245912e+000	-5.3909718846e+000
 2.0471477778e-001	 1.0332510390e+000	-5.4987104389e+000
 3.1144137666e-001	 1.0132174728e+000	-4.1175677869e+000
 3.0089729855e-001	 1.0163986427e+000	-4.2568420207e+000
 2.9034862597e-001	 1.0194621511e+000	-4.3929523499e+000
 2.7979719891e-001	 1.0224084090e+000	-4.5256477699e+000
 2.6924483860e-001	 1.0252378630e+000	-4.6546934166e+000
 2.5869334682e-001	 1.0279509944e+000	-4.7798693083e+000
 2.4814450509e-001	 1.0305483190e+000	-4.9009690105e+000
 2.3760007398e-001	 1.0330303854e+000	-5.0177982400e+000
 2.2706179242e-001	 1.0353977752e+000	-5.1301734207e+000
 2.1653137701e-001	 1.0376511016e+000	-5.2379202060e+000
 2.0601052141e-001	 1.0397910087e+000	-5.3408719827e+000
 3.1340024690e-001	 1.0195902983e+000	-4.0188091706e+000
 3.0278984978e-001	 1.0227914767e+000	-4.1518382563e+000
 2.9217482931e-001	 1.0258742537e+000	-4.2818892080e+000
 2.8155703702e-001	 1.0288390426e+000	-4.4087093409e+000
 2.7093830562e-001	 1.0316862930e+000	-4.5320623706e+000
 2.6032044820e-001	 1.0344164892e+000	-4.6517270949e+000
 2.4970525751e-001	 1.0370301501e+000	-4.7674959955e+000
 2.3909450519e-001	 1.0395278280e+000	-4.8791737752e+000
 2.2848994108e-001	 1.0419101079e+000	-4.9865758446e+000
 2.1789329261e-001	 1.0441776071e+000	-5.0895267740e+000
 2.0730626407e-001	 1.0463309736e+000	-5.1878587246e+000
 1.9434906582e-001	 9.8093247774e-001	-6.9787344541e+000
 1.8443583512e-001	 9.8284461142e-001	-7.1253849807e+000
 1.7453474535e-001	 9.8465107850e-001	-7.2649972518e+000
 1.6464732318e-001	 9.8635257014e-001	-7.3974287206e+000
 1.5477507159e-001	 9.8794980354e-001	-7.5225494947e+000
 1.4491946945e-001	 9.8944352116e-001	-7.6402413611e+000
 1.3508197105e-001	 9.9083448984e-001	-7.7503968386e+000
 1.2526400575e-001	 9.9212350004e-001	-7.8529182673e+000
 1.1546697758e-001	 9.9331136502e-001	-7.9477169392e+000
 1.0569226494e-001	 9.9439891999e-001	-8.0347122786e+000
 9.5941220239e-002	 9.9538702132e-001	-8.1138310756e+000
 1.9564473560e-001	 9.8747207472e-001	-6.7689747577e+000
 1.8566541622e-001	 9.8939695606e-001	-6.9093390170e+000
 1.7569831871e-001	 9.9121546633e-001	-7.0429937803e+000
 1.6574497992e-001	 9.9292830133e-001	-7.1698008091e+000
 1.5580691285e-001	 9.9453618303e-001	-7.2896333650e+000
 1.4588560621e-001	 9.9603985884e-001	-7.4023751948e+000
 1.3598252402e-001	 9.9744010071e-001	-7.5079195468e+000
 1.2609910514e-001	 9.9873770437e-001	-7.6061682263e+000
 1.1623676299e-001	 9.9993348851e-001	-7.6970306965e+000
 1.0639688513e-001	 1.0010282939e+000	-7.7804232325e+000
 9.6580832988e-002	 1.0020229826e+000	-7.8562681328e+000
 1.9694042255e-001	 9.9401175836e-001	-6.5671073583e+000
 1.8689501361e-001	 9.9594938751e-001	-6.7014404503e+000
 1.7686190749e-001	 9.9777994115e-001	-6.8293772450e+000
 1.6684265120e-001	 9.9950411965e-001	-6.9507838947e+000
 1.5683876777e-001	 1.0011226498e+000	-7.0655369203e+000
 1.4685175578e-001	 1.0026362839e+000	-7.1735221533e+000
 1.3688308892e-001	 1.0040457991e+000	-7.2746337128e+000
 1.2693421560e-001	 1.0053519963e+000	-7.3687730244e+000
 1.1700655859e-001	 1.0065556997e+000	-7.4558478883e+000
 1.0710151464e-001	 1.0076577557e+000	-7.5357716046e+000
 9.7220454211e-002	 1.0086590318e+000	-7.6084621597e+000
 1.9823612439e-001	 1.0005515172e+000	-6.3727074721e+000
 1.8812462514e-001	 1.0025018943e+000	-6.5012519495e+000
 1.7802550965e-001	 1.0043444915e+000	-6.6236983388e+000
 1.6794033510e-001	 1.0060800136e+000	-6.7399172911e+000
 1.5787063456e-001	 1.0077091923e+000	-6.8497887161e+000
 1.4781791646e-001	 1.0092327849e+000	-6.9532006794e+000
 1.3778366418e-001	 1.0106515735e+000	-7.0500483358e+000
 1.2776933567e-001	 1.0119663644e+000	-7.1402329093e+000
 1.1777636305e-001	 1.0131779871e+000	-7.2236607260e+000
 1.0780615227e-001	 1.0142872936e+000	-7.3002423066e+000
 9.7860082789e-002	 1.0152951574e+000	-7.3698915260e+000
 1.9953183888e-001	 1.0070913398e+000	-6.1853628514e+000
 1.8935424866e-001	 1.0090544650e+000	-6.3083488736e+000
 1.7918912315e-001	 1.0109091058e+000	-6.4255205840e+000
 1.6903802971e-001	 1.0126559717e+000	-6.5367532651e+000
 1.5890251141e-001	 1.0142957990e+000	-6.6419303706e+000
 1.4878408655e-001	 1.0158293501e+000	-6.7409423730e+000
 1.3868424822e-001	 1.0172574122e+000	-6.8336856523e+000
 1.2860446388e-001	 1.0185807969e+000	-6.9200614329e+000
 1.1854617501e-001	 1.0198003391e+000	-6.9999747779e+000
 1.0851079676e-001	 1.0209168963e+000	-7.0733336468e+000
 9.8499717604e-002	 1.0219313476e+000	-7.1400480251e+000
 2.0082756372e-001	 1.0136312147e+000	-6.0046734133e+000
 1.9058388202e-001	 1.0156070881e+000	-6.1223188955e+000
 1.8035274596e-001	 1.0174737726e+000	-6.2344199504e+000
 1.7013573310e-001	 1.0192319823e+000	-6.3408566503e+000
 1.5993439652e-001	 1.0208824585e+000	-6.4415161724e+000
 1.4975026438e-001	 1.0224259682e+000	-6.5362915949e+000
 1.3958483946e-001	 1.0238633039e+000	-6.6250807363e+000
 1.2943959876e-001	 1.0251952824e+000	-6.7077850471e+000
 1.1931599313e-001	 1.0264227440e+000	-6.7843085620e+000
 1.0921544688e-001	 1.0275465519e+000	-6.8545569203e+000
 9.9139357535e-002	 1.0285675910e+000	-6.9184364616e+000
 2.0212329667e-001	 1.0201711305e+000	-5.8302508834e+000
 1.9181352306e-001	 1.0221597522e+000	-5.9427616397e+000
 1.8151637604e-001	 1.0240384805e+000	-6.0499844879e+000
 1.7123344334e-001	 1.0258080341e+000	-6.1518044741e+000
 1.6096628807e-001	 1.0274691590e+000	-6.2481127045e+000
 1.5071644824e-001	 1.0290226274e+000	-6.3388050861e+000
 1.4048543633e-001	 1.0304692368e+000	-6.4237811143e+000
 1.3027473887e-001	 1.0318098092e+000	-6.5029427156e+000
 1.2008581605e-001	 1.0330451904e+000	-6.5761931547e+000
 1.0992010142e-001	 1.0341762490e+000	-6.6434360142e+000
 9.9779001463e-002	 1.0352038758e+000	-6.7045742538e+000
 2.0341903544e-001	 1.0267110758e+000	-5.6617184511e+000
 1.9304316963e-001	 1.0287124458e+000	-5.7692883327e+000
 1.8268001136e-001	 1.0306032179e+000	-5.8718139725e+000
 1.7233115853e-001	 1.0323841155e+000	-5.9691855999e+000
 1.6199818427e-001	 1.0340558893e+000	-6.0612984810e+000
 1.5168263645e-001	 1.0356193164e+000	-6.1480516009e+000
 1.4138603725e-001	 1.0370751994e+000	-6.2293463950e+000
 1.3110988273e-001	 1.0384243657e+000	-6.3050855401e+000
 1.2085564245e-001	 1.0396676665e+000	-6.3751718133e+000
 1.1062475912e-001	 1.0408059760e+000	-6.4395070276e+000
 1.0041864827e-001	 1.0418401905e+000	-6.4979910514e+000
 2.0471477778e-001	 1.0332510390e+000	-5.4987104389e+000
 1.9427281959e-001	 1.0352651573e+000	-5.6015214677e+000
 1.8384364988e-001	 1.0371679733e+000	-5.6995195656e+000
 1.7342887673e-001	 1.0389602149e+000	-5.7926003815e+000
 1.6303008330e-001	 1.0406426376e+000	-5.8806635984e+000
 1.5264882731e-001	 1.0422160235e+000	-5.9636115539e+000
 1.4228664065e-001	 1.0436811802e+000	-6.0413479122e+000
 1.3194502888e-001	 1.0450389405e+000	-6.1137764001e+000
 1.2162547095e-001	 1.0462901609e+000	-6.1807996135e+000
 1.1132941875e-001	 1.0474357212e+000	-6.2423179066e+000
 1.0105829683e-001	 1.0484765234e+000	-6.2982283678e+000
 2.0601052141e-001	 1.0397910087e+000	-5.3408719827e+000
 1.9550247077e-001	 1.0418178755e+000	-5.4390944799e+000
 1.8500728956e-001	 1.0437327353e+000	-5.5327234856e+000
 1.7452659603e-001	 1.0455363209e+000	-5.6216603305e+000
 1.6406198336e-001	 1.0472293925e+000	-5.7058093984e+000
 1.5361501914e-001	 1.0488127371e+000	-5.7850766797e+000
 1.4318724494e-001	 1.0502871676e+000	-5.8593683822e+000
 1.3278017588e-001	 1.0516535218e+000	-5.9285896067e+000
 1.2239530023e-001	 1.0529126618e+000	-5.9926431000e+000
 1.1203407910e-001	 1.0540654729e+000	-6.0514280919e+000
 1.0169794604e-001	 1.0551128630e+000	-6.1048392261e+000
 2.0730626407e-001	 1.0463309736e+000	-5.1878587246e+000
 1.9673212103e-001	 1.0483705887e+000	-5.2816514346e+000
 1.8617092836e-001	 1.0502974924e+000	-5.3710586913e+000
 1.7562431451e-001	 1.0521124220e+000	-5.4559877965e+000
 1.6509388265e-001	 1.0538161425e+000	-5.5363481444e+000
 1.5458121025e-001	 1.0554094459e+000	-5.6120497058e+000
 1.4408784856e-001	 1.0568931500e+000	-5.6830015721e+000
 1.3361532224e-001	 1.0582680982e+000	-5.7491105689e+000
 1.2316512893e-001	 1.0595351578e+000	-5.8102799500e+000
 1.1273873891e-001	 1.0606952198e+000	-5.8664081803e+000
 1.0233759476e-001	 1.0617491975e+000	-5.9173878176e+000
 9.5941220239e-002	 9.9538702132e-001	-8.1138310756e+000
 8.6213715910e-002	 9.9627667181e-001	-8.1853839787e+000
 7.6512533521e-002	 9.9706861257e-001	-8.2496486176e+000
 6.6838966101e-002	 9.9776375910e-001	-8.3065435604e+000
 5.7194279111e-002	 9.9836304482e-001	-8.3559903443e+000
 4.7579710273e-002	 9.9886742018e-001	-8.3979132653e+000
 3.7996469419e-002	 9.9927785191e-001	-8.4322392356e+000
 2.8445738363e-002	 9.9959532214e-001	-8.4588977114e+000
 1.8928670806e-002	 9.9982082766e-001	-8.4778206909e+000
 9.4463922618e-003	 9.9995537907e-001	-8.4889427815e+000
 0.0000000000e+000	 1.0000000000e+000	-8.4922013360e+000
 9.6580832988e-002	 1.0020229826e+000	-7.8562681328e+000
 8.6788478160e-002	 1.0029185642e+000	-7.9248494031e+000
 7.7022620753e-002	 1.0037157846e+000	-7.9864260278e+000
 6.7284562415e-002	 1.0044155654e+000	-8.0409208591e+000
 5.7575577046e-002	 1.0050188464e+000	-8.0882586236e+000
 4.7896910619e-002	 1.0055265843e+000	-8.1283656859e+000
 3.8249781031e-002	 1.0059397523e+000	-8.1611698848e+000
 2.8635377975e-002	 1.0062593390e+000	-8.1866004453e+000
 1.9054862846e-002	 1.0064863479e+000	-8.2045879658e+000
 9.5093686589e-003	 1.0066217963e+000	-8.2150644791e+000
 0.0000000000e+000	 1.0066667147e+000	-8.2179635884e+000
 9.7220454211e-002	 1.0086590318e+000	-7.6084621597e+000
 8.7363248025e-002	 1.0095605445e+000	-7.6741813048e+000
 7.7532714744e-002	 1.0103630446e+000	-7.7331732986e+000
 6.7730164636e-002	 1.0110674599e+000	-7.7853647910e+000
 5.7956880036e-002	 1.0116747362e+000	-7.8306831911e+000
 4.8214115171e-002	 1.0121858367e+000	-7.8690564030e+000
 3.8503096002e-002	 1.0126017409e+000	-7.9004126411e+000
 2.8825020104e-002	 1.0129234441e+000	-7.9246803252e+000
 1.9181056560e-002	 1.0131519564e+000	-7.9417880558e+000
 9.5723458919e-003	 1.0132883019e+000	-7.9516646702e+000
 0.0000000000e+000	 1.0133335178e+000	-7.9542430540e+000
 9.7860082789e-002	 1.0152951574e+000	-7.3698915260e+000
 8.7938024501e-002	 1.0162026012e+000	-7.4328520302e+000
 7.8042814602e-002	 1.0170103811e+000	-7.4893570428e+000
 6.8175771982e-002	 1.0177194309e+000	-7.5393365575e+000
 5.8338187413e-002	 1.0183307025e+000	-7.5827201903e+000
 4.8531323372e-002	 1.0188451656e+000	-7.6194368870e+000
 3.8756413888e-002	 1.0192638062e+000	-7.6494147158e+000
 2.9014664415e-002	 1.0195876259e+000	-7.6725807455e+000
 1.9307251728e-002	 1.0198176416e+000	-7.6888610088e+000
 9.6353238502e-003	 1.0199548841e+000	-7.6981805522e+000
 0.0000000000e+000	 1.0200003975e+000	-7.7004670841e+000
 9.8499717604e-002	 1.0219313476e+000	-7.1400480251e+000
 8.8512806581e-002	 1.0228447227e+000	-7.2003473709e+000
 7.8552919434e-002	 1.0236577825e+000	-7.2544573408e+000
 6.8621383674e-002	 1.0243714667e+000	-7.3023108514e+000
 5.8719498508e-002	 1.0249867338e+000	-7.3438392816e+000
 4.8848534668e-002	 1.0255045595e+000	-7.3789721512e+000
 3.9009734247e-002	 1.0259259364e+000	-7.4076368905e+000
 2.9204310577e-002	 1.0262518727e+000	-7.4297587000e+000
 1.9433448127e-002	 1.0264833918e+000	-7.4452605023e+000
 9.6983024235e-003	 1.0266215314e+000	-7.4540629839e+000
 0.0000000000e+000	 1.0266673422e+000	-7.4560880840e+000
 9.9139357535e-002	 1.0285675910e+000	-6.9184364616e+000
 8.9087593259e-002	 1.0294868974e+000	-6.9761661482e+000
 7.9063028347e-002	 1.0303052370e+000	-7.0279673230e+000
 6.9066998931e-002	 1.0310235558e+000	-7.0737754366e+000
 5.9100812656e-002	 1.0316428183e+000	-7.1135232183e+000
 4.9165748503e-002	 1.0321640067e+000	-7.1471403255e+000
 3.9263056633e-002	 1.0325881199e+000	-7.1745530882e+000
 2.9393958258e-002	 1.0329161728e+000	-7.1956843505e+000
 1.9559645537e-002	 1.0331491954e+000	-7.2104534090e+000
 9.7612815014e-003	 1.0332882320e+000	-7.2187760482e+000
 0.0000000000e+000	 1.0333343403e+000	-7.2205678709e+000
 9.9779001463e-002	 1.0352038758e+000	-6.7045742538e+000
 8.9662383529e-002	 1.0361291135e+000	-6.7598198137e+000
 7.9573140449e-002	 1.0369527330e+000	-6.8093927671e+000
 6.9512616973e-002	 1.0376756864e+000	-6.8532307426e+000
 5.9482129187e-002	 1.0382989444e+000	-6.8912674394e+000
 4.9482964321e-002	 1.0388234954e+000	-6.9234322464e+000
 3.9516380604e-002	 1.0392503450e+000	-6.9496499608e+000
 2.9583607125e-002	 1.0395805145e+000	-6.9698406106e+000
 1.9685843737e-002	 1.0398150405e+000	-6.9839193790e+000
 9.8242609736e-003	 1.0399549742e+000	-6.9917966319e+000
 0.0000000000e+000	 1.0400013800e+000	-6.9933810938e+000
 1.0041864827e-001	 1.0418401905e+000	-6.4979910514e+000
 9.0237176385e-002	 1.0427713596e+000	-6.5508320643e+000
 8.0083254846e-002	 1.0436002590e+000	-6.5982517115e+000
 6.9958237022e-002	 1.0443278469e+000	-6.6401894757e+000
 5.9863447434e-002	 1.0449551004e+000	-6.6765796777e+000
 4.9800181568e-002	 1.0454830142e+000	-6.7073510625e+000
 3.9769705715e-002	 1.0459126001e+000	-6.7324264922e+000
 2.9773256846e-002	 1.0462448862e+000	-6.7517227474e+000
 1.9812042505e-002	 1.0464809157e+000	-6.7651504378e+000
 9.8872407295e-003	 1.0466217464e+000	-6.7726140212e+000
 0.0000000000e+000	 1.0466684498e+000	-6.7740148267e+000
 1.0105829683e-001	 1.0484765234e+000	-6.2982283678e+000
 9.0811970822e-002	 1.0494136239e+000	-6.3487384725e+000
 8.0593370645e-002	 1.0502478032e+000	-6.3940740825e+000
 7.0403858295e-002	 1.0509800258e+000	-6.4341762440e+000
 6.0244766730e-002	 1.0516112747e+000	-6.4689795825e+000
 5.0117399687e-002	 1.0521425512e+000	-6.4984118550e+000
 4.0023031523e-002	 1.0525748736e+000	-6.5223936157e+000
 2.9962907090e-002	 1.0529092762e+000	-6.5408379959e+000
 1.9938241621e-002	 1.0531468092e+000	-6.5536505994e+000
 9.9502206589e-003	 1.0532885370e+000	-6.5607295123e+000
 0.0000000000e+000	 1.0533355378e+000	-6.5619681767e+000
 1.0169794604e-001	 1.0551128630e+000	-6.1048392261e+000
 9.1386765832e-002	 1.0560558948e+000	-6.1530861297e+000
 8.1103486954e-002	 1.0568953541e+000	-6.1964013359e+000
 7.0849480014e-002	 1.0576322113e+000	-6.2347271964e+000
 6.0626086407e-002	 1.0582674557e+000	-6.2679983564e+000
 5.0434618123e-002	 1.0588020949e+000	-6.2961412720e+000
 4.0276357585e-002	 1.0592371537e+000	-6.3190738469e+000
 3.0152557523e-002	 1.0595736729e+000	-6.3367051899e+000
 2.0064440863e-002	 1.0598127094e+000	-6.3489354941e+000
 1.0013200651e-002	 1.0599553342e+000	-6.3556560371e+000
 0.0000000000e+000	 1.0600026325e+000	-6.3567519081e+000
 1.0233759476e-001	 1.0617491975e+000	-5.9173878176e+000
 9.1961560411e-002	 1.0626981608e+000	-5.9634333036e+000
 8.1613602879e-002	 1.0635429000e+000	-6.0047861121e+000
 7.1295101398e-002	 1.0642843918e+000	-6.0413896755e+000
 6.1007405798e-002	 1.0649236317e+000	-6.0731784062e+000
 5.0751836321e-002	 1.0654616337e+000	-6.1000771773e+000
 4.0529683456e-002	 1.0658994288e+000	-6.1220009296e+000
 3.0342207813e-002	 1.0662380646e+000	-6.1388544052e+000
 2.0190640010e-002	 1.0664786046e+000	-6.1505320099e+000
 1.0076180596e-002	 1.0666221265e+000	-6.1569178027e+000
 0.0000000000e+000	 1.0666697223e+000	-6.1578880787e+000
 1.0666697223e+000	 0.0000000000e+000	 1.5033876681e+000
 1.0666221265e+000	 1.0076180596e-002	 1.4994418885e+000
 1.0664786046e+000	 2.0190640010e-002	 1.5002137347e+000
 1.0662380646e+000	 3.0342207813e-002	 1.5051852088e+000
 1.0658994288e+000	 4.0529683456e-002	 1.5138349242e+000
 1.0654616337e+000	 5.0751836321e-002	 1.5256343302e+000
 1.0649236317e+000	 6.1007405798e-002	 1.5400490607e+000
 1.0642843918e+000	 7.1295101398e-002	 1.5565403891e+000
 1.0635429000e+000	 8.1613602879e-002	 1.5745667906e+000
 1.0626981608e+000	 9.1961560411e-002	 1.5935856111e+000
 1.0617491975e+000	 1.0233759476e-001	 1.6130548378e+000
 1.0733357975e+000	 0.0000000000e+000	 1.6152162035e+000
 1.0732879043e+000	 1.0139150958e-002	 1.6111607892e+000
 1.0731434855e+000	 2.0316819954e-002	 1.6116075102e+000
 1.0729014423e+000	 3.0531829246e-002	 1.6160374326e+000
 1.0725606901e+000	 4.0782970781e-002	 1.6239278915e+000
 1.0721201591e+000	 5.1069006250e-002	 1.6347490727e+000
 1.0715787949e+000	 6.1388667167e-002	 1.6479653871e+000
 1.0709355601e+000	 7.1740654976e-002	 1.6630369569e+000
 1.0701894344e+000	 8.2123641186e-002	 1.6794212120e+000
 1.0693394161e+000	 9.2536267529e-002	 1.6965745966e+000
 1.0683845223e+000	 1.0297714615e-001	 1.7139543826e+000
 1.0800018578e+000	 0.0000000000e+000	 1.7234302832e+000
 1.0799536671e+000	 1.0202121178e-002	 1.7192536435e+000
 1.0798083513e+000	 2.0442999614e-002	 1.7193746117e+000
 1.0795648050e+000	 3.0721450252e-002	 1.7232729062e+000
 1.0792219365e+000	 4.1036257536e-002	 1.7304241296e+000
 1.0787786695e+000	 5.1386175466e-002	 1.7402966952e+000
 1.0782339431e+000	 6.1769927677e-002	 1.7523532280e+000
 1.0775867135e+000	 7.2186207551e-002	 1.7660520819e+000
 1.0768359539e+000	 8.2633678344e-002	 1.7808489708e+000
 1.0759806564e+000	 9.3110973354e-002	 1.7961987148e+000
 1.0750198322e+000	 1.0361669611e-001	 1.8115570961e+000
 1.0866679047e+000	 0.0000000000e+000	 1.8278188973e+000
 1.0866194166e+000	 1.0265091272e-002	 1.8235111735e+000
 1.0864732039e+000	 2.0569179022e-002	 1.8233073782e+000
 1.0862281543e+000	 3.0911070878e-002	 1.8266854798e+000
 1.0858831696e+000	 4.1289543783e-002	 1.8331189030e+000
 1.0854371666e+000	 5.1703344046e-002	 1.8420737879e+000
 1.0848890781e+000	 6.2151187425e-002	 1.8530104180e+000
 1.0842378535e+000	 7.2631759235e-002	 1.8653847684e+000
 1.0834824601e+000	 8.3143714482e-002	 1.8786501732e+000
 1.0826218835e+000	 9.3685678029e-002	 1.8922591104e+000
 1.0816551288e+000	 1.0425624478e-001	 1.9056651032e+000
 1.0933339400e+000	 0.0000000000e+000	 1.9281774717e+000
 1.0932851544e+000	 1.0328061256e-002	 1.9237302402e+000
 1.0931380448e+000	 2.0695358208e-002	 1.9232040094e+000
 1.0928914920e+000	 3.1100691172e-002	 1.9260746036e+000
 1.0925443910e+000	 4.1542829587e-002	 1.9318128329e+000
 1.0920956520e+000	 5.2020512072e-002	 1.9398820715e+000
 1.0915442013e+000	 6.2532446505e-002	 1.9497397128e+000
 1.0908889819e+000	 7.3077310138e-002	 1.9608387494e+000
 1.0901289546e+000	 8.3653749727e-002	 1.9726294766e+000
 1.0892630989e+000	 9.4260381698e-002	 1.9845613180e+000
 1.0882904138e+000	 1.0489579234e-001	 1.9960847727e+000
 1.0999999653e+000	 0.0000000000e+000	 2.0243076726e+000
 1.0999508823e+000	 1.0391031145e-002	 2.0197136551e+000
 1.0998028757e+000	 2.0821537206e-002	 2.0188683819e+000
 1.0995548196e+000	 3.1290311182e-002	 2.0212451491e+000
 1.0992056024e+000	 4.1796115011e-002	 2.0263117236e+000
 1.0987541275e+000	 5.2337679621e-002	 2.0335282284e+000
 1.0981993146e+000	 6.2913705014e-002	 2.0423486251e+000
 1.0975401004e+000	 7.3522860374e-002	 2.0522223259e+000
 1.0967754392e+000	 8.4163784208e-002	 2.0625959340e+000
 1.0959043044e+000	 9.4835084506e-002	 2.0729151109e+000
 1.0949256889e+000	 1.0553533894e-001	 2.0826265698e+000
 1.1066659822e+000	 0.0000000000e+000	 2.1160172197e+000
 1.1066166018e+000	 1.0454000956e-002	 2.1112699973e+000
 1.1064676983e+000	 2.0947716045e-002	 2.1101098724e+000
 1.1062181390e+000	 3.1479930955e-002	 2.1120072372e+000
 1.1058668055e+000	 4.2049400119e-002	 2.1164263951e+000
 1.1054125947e+000	 5.2654846774e-002	 2.1228237399e+000
 1.1048544196e+000	 6.3294963045e-002	 2.1306492661e+000
 1.1041912105e+000	 7.3968410052e-002	 2.1393482133e+000
 1.1034219154e+000	 8.4673818051e-002	 2.1483628441e+000
 1.1025455016e+000	 9.5409786595e-002	 2.1571343542e+000
 1.1015609556e+000	 1.0617488473e-001	 2.1651049130e+000
 1.1133319925e+000	 0.0000000000e+000	 2.2031197049e+000
 1.1132823146e+000	 1.0516970703e-002	 2.1982134380e+000
 1.1131325142e+000	 2.1073894759e-002	 2.1967431868e+000
 1.1128814517e+000	 3.1669550538e-002	 2.1981760725e+000
 1.1125280019e+000	 4.2302684973e-002	 2.2019725221e+000
 1.1120710551e+000	 5.2972013611e-002	 2.2075847294e+000
 1.1115095179e+000	 6.3676220696e-002	 2.2144581928e+000
 1.1108423139e+000	 7.4413959286e-002	 2.2220333926e+000
 1.1100683851e+000	 8.5183851384e-002	 2.2297476068e+000
 1.1091866921e+000	 9.5984488109e-002	 2.2370368650e+000
 1.1081962157e+000	 1.0681442989e-001	 2.2433380379e+000
 1.1199979978e+000	 0.0000000000e+000	 2.2854344177e+000
 1.1199480224e+000	 1.0579940404e-002	 2.2803635712e+000
 1.1197973251e+000	 2.1200073378e-002	 2.2785881958e+000
 1.1195447594e+000	 3.1859169980e-002	 2.2795717828e+000
 1.1191891933e+000	 4.2555969638e-002	 2.2827704782e+000
 1.1187295106e+000	 5.3289180210e-002	 2.2876318115e+000
 1.1181646112e+000	 6.4057478062e-002	 2.2935962616e+000
 1.1174934124e+000	 7.4859508185e-002	 2.3000989677e+000
 1.1167148497e+000	 8.5693884335e-002	 2.3065715835e+000
 1.1158278776e+000	 9.6559189193e-002	 2.3124442762e+000
 1.1148314709e+000	 1.0745397457e-001	 2.3171478647e+000
 1.1266639997e+000	 0.0000000000e+000	 2.3627861777e+000
 1.1266137269e+000	 1.0642910073e-002	 2.3575452503e+000
 1.1264621327e+000	 2.1326251934e-002	 2.3554697757e+000
 1.1262080637e+000	 3.2048789327e-002	 2.3560192653e+000
 1.1258503814e+000	 4.2809254177e-002	 2.3586451861e+000
 1.1253879628e+000	 5.3606346650e-002	 2.3627899456e+000
 1.1248197012e+000	 6.4438735237e-002	 2.3678884858e+000
 1.1241445076e+000	 7.5305056863e-002	 2.3733700272e+000
 1.1233613110e+000	 8.6203917031e-002	 2.3786599638e+000
 1.1224690599e+000	 9.7133889991e-002	 2.3831819060e+000
 1.1214667227e+000	 1.0809351893e-001	 2.3863598709e+000
 1.1333300000e+000	 0.0000000000e+000	 2.4350051715e+000
 1.1332794297e+000	 1.0705879726e-002	 2.4295884303e+000
 1.1331269386e+000	 2.1452430459e-002	 2.4272176561e+000
 1.1328713664e+000	 3.2238408627e-002	 2.4273480379e+000
 1.1325115679e+000	 4.3062538653e-002	 2.4294259733e+000
 1.1320464133e+000	 5.3923513013e-002	 2.4328882962e+000
 1.1314747896e+000	 6.4819992318e-002	 2.4371638991e+000
 1.1307956011e+000	 7.5750605430e-002	 2.4416755117e+000
 1.1300077707e+000	 8.6713949601e-002	 2.4458416352e+000
 1.1291102404e+000	 9.7708590645e-002	 2.4490786323e+000
 1.1281019728e+000	 1.0873306313e-001	 2.4508029693e+000
 1.0617491975e+000	 1.0233759476e-001	 1.6130548378e+000
 1.0606952198e+000	 1.1273873891e-001	 1.6347074105e+000
 1.0595351578e+000	 1.2316512893e-001	 1.6603175269e+000
 1.0582680982e+000	 1.3361532224e-001	 1.6894030078e+000
 1.0568931500e+000	 1.4408784856e-001	 1.7214902837e+000
 1.0554094459e+000	 1.5458121025e-001	 1.7561166687e+000
 1.0538161425e+000	 1.6509388265e-001	 1.7928327078e+000
 1.0521124220e+000	 1.7562431451e-001	 1.8312045883e+000
 1.0502974924e+000	 1.8617092836e-001	 1.8708166071e+000
 1.0483705887e+000	 1.9673212103e-001	 1.9112736827e+000
 1.0463309736e+000	 2.0730626407e-001	 1.9522039015e+000
 1.0683845223e+000	 1.0297714615e-001	 1.7139543826e+000
 1.0673239578e+000	 1.1344329150e-001	 1.7333021879e+000
 1.0661566461e+000	 1.2393484049e-001	 1.7564000911e+000
 1.0648816681e+000	 1.3445034153e-001	 1.7827652026e+000
 1.0634981273e+000	 1.4498831515e-001	 1.8119233433e+000
 1.0620051509e+000	 1.5554725434e-001	 1.8434113728e+000
 1.0604018903e+000	 1.6612562493e-001	 1.8767795948e+000
 1.0586875225e+000	 1.7672186595e-001	 1.9115942309e+000
 1.0568612506e+000	 1.8733439011e-001	 1.9474399514e+000
 1.0549223048e+000	 1.9796158419e-001	 1.9839224549e+000
 1.0528699433e+000	 2.0860180957e-001	 2.0206710837e+000
 1.0750198322e+000	 1.0361669611e-001	 1.8115570961e+000
 1.0739526810e+000	 1.1414784251e-001	 1.8286718510e+000
 1.0727781196e+000	 1.2470455032e-001	 1.8493317425e+000
 1.0714952232e+000	 1.3528535894e-001	 1.8730543779e+000
 1.0701030898e+000	 1.4588877971e-001	 1.8993661812e+000
 1.0686008410e+000	 1.5651329626e-001	 1.9278047773e+000
 1.0669876232e+000	 1.6715736488e-001	 1.9579214554e+000
 1.0652626082e+000	 1.7781941493e-001	 1.9892837037e+000
 1.0634249940e+000	 1.8849784924e-001	 2.0214778057e+000
 1.0614740062e+000	 1.9919104459e-001	 2.0541114871e+000
 1.0594088983e+000	 2.0989735216e-001	 2.0868166000e+000
 1.0816551288e+000	 1.0425624478e-001	 1.9056651032e+000
 1.0805813908e+000	 1.1485239210e-001	 1.9206196706e+000
 1.0793995797e+000	 1.2547425861e-001	 1.9389172633e+000
 1.0781087650e+000	 1.3612037468e-001	 1.9600771570e+000
 1.0767080390e+000	 1.4678924246e-001	 1.9836275569e+000
 1.0751965180e+000	 1.5747933624e-001	 2.0091080354e+000
 1.0735733430e+000	 1.6818910277e-001	 2.0360720550e+000
 1.0718376807e+000	 1.7891696172e-001	 2.0640895643e+000
 1.0699887243e+000	 1.8966130605e-001	 2.0927496594e+000
 1.0680256945e+000	 2.0042050252e-001	 2.1216632978e+000
 1.0659478402e+000	 2.1119289215e-001	 2.1504660539e+000
 1.0882904138e+000	 1.0489579234e-001	 1.9960847727e+000
 1.0872100891e+000	 1.1555694047e-001	 2.0089530249e+000
 1.0860210283e+000	 1.2624396556e-001	 2.0249654098e+000
 1.0847222952e+000	 1.3695538896e-001	 2.0436440098e+000
 1.0833129766e+000	 1.4768970365e-001	 2.0645199525e+000
 1.0817921834e+000	 1.5844537453e-001	 2.0871359041e+000
 1.0801590512e+000	 1.6922083886e-001	 2.1110486503e+000
 1.0784127417e+000	 1.8001450658e-001	 2.1358317544e+000
 1.0765524432e+000	 1.9082476082e-001	 2.1610782842e+000
 1.0745773714e+000	 2.0164995830e-001	 2.1864035936e+000
 1.0724867707e+000	 2.1248842988e-001	 2.2114481486e+000
 1.0949256889e+000	 1.0553533894e-001	 2.0826265698e+000
 1.0938387774e+000	 1.1626148778e-001	 2.0934832553e+000
 1.0926424670e+000	 1.2701367135e-001	 2.1072887732e+000
 1.0913358156e+000	 1.3779040199e-001	 2.1235691163e+000
 1.0899179044e+000	 1.4859016348e-001	 2.1418594413e+000
 1.0883878389e+000	 1.5941141138e-001	 2.1617066176e+000
 1.0867447496e+000	 1.7025257340e-001	 2.1826718663e+000
 1.0849877929e+000	 1.8111204980e-001	 2.2043334812e+000
 1.0831161521e+000	 1.9198821384e-001	 2.2262896209e+000
 1.0811290384e+000	 2.0287941224e-001	 2.2481611591e+000
 1.0790256914e+000	 2.1378396566e-001	 2.2695945818e+000
 1.1015609556e+000	 1.0617488473e-001	 2.1651049130e+000
 1.1004674575e+000	 1.1696603420e-001	 2.1740255279e+000
 1.0992638974e+000	 1.2778337617e-001	 2.1857036443e+000
 1.0979493276e+000	 1.3862541397e-001	 2.1996702361e+000
 1.0965228239e+000	 1.4949062218e-001	 2.2154655610e+000
 1.0949834862e+000	 1.6037744702e-001	 2.2326417645e+000
 1.0933304397e+000	 1.7128430664e-001	 2.2507655780e+000
 1.0915628358e+000	 1.8220959164e-001	 2.2694211031e+000
 1.0896798529e+000	 1.9315166541e-001	 2.2882126689e+000
 1.0876806972e+000	 2.0410886464e-001	 2.3067677520e+000
 1.0855646039e+000	 2.1507949983e-001	 2.3247399448e+000
 1.1081962157e+000	 1.0681442989e-001	 2.2433380379e+000
 1.1070961309e+000	 1.1767057993e-001	 2.2503986998e+000
 1.1058853212e+000	 1.2855308023e-001	 2.2600298842e+000
 1.1045628331e+000	 1.3946042512e-001	 2.2717685830e+000
 1.1031277368e+000	 1.5039107999e-001	 2.2851611920e+000
 1.1015791268e+000	 1.6134348169e-001	 2.2997661701e+000
 1.0999161232e+000	 1.7231603886e-001	 2.3151567972e+000
 1.0981378722e+000	 1.8330713239e-001	 2.3309240212e+000
 1.0962435471e+000	 1.9431511582e-001	 2.3466793821e+000
 1.0942323495e+000	 2.0533831581e-001	 2.3620580019e+000
 1.0921035099e+000	 2.1637503270e-001	 2.3767216252e+000
 1.1148314709e+000	 1.0745397457e-001	 2.3171478647e+000
 1.1137247994e+000	 1.1837512512e-001	 2.3224251910e+000
 1.1125067400e+000	 1.2932278371e-001	 2.3300907993e+000
 1.1111763336e+000	 1.4029543564e-001	 2.3396887035e+000
 1.1097326447e+000	 1.5129153712e-001	 2.3507724403e+000
 1.1081747626e+000	 1.6230951564e-001	 2.3629077837e+000
 1.1065018018e+000	 1.7334777031e-001	 2.3756755630e+000
 1.1047129036e+000	 1.8440467232e-001	 2.3886745732e+000
 1.1028072364e+000	 1.9547856535e-001	 2.4015245668e+000
 1.1007839969e+000	 2.0656776606e-001	 2.4138693135e+000
 1.0986424110e+000	 2.1767056460e-001	 2.4253797147e+000
 1.1214667227e+000	 1.0809351893e-001	 2.3863598709e+000
 1.1203534645e+000	 1.1907966996e-001	 2.3899308605e+000
 1.1191281555e+000	 1.3009248681e-001	 2.3957130211e+000
 1.1177898307e+000	 1.4113044575e-001	 2.4032583604e+000
 1.1163375493e+000	 1.5219199380e-001	 2.4121285247e+000
 1.1147703950e+000	 1.6327554910e-001	 2.4218975693e+000
 1.1130874771e+000	 1.7437950123e-001	 2.4321548373e+000
 1.1112879318e+000	 1.8550221169e-001	 2.4425079337e+000
 1.1093709224e+000	 1.9664201430e-001	 2.4525857859e+000
 1.1073356410e+000	 2.0779721570e-001	 2.4620417741e+000
 1.1051813088e+000	 2.1896609585e-001	 2.4705569200e+000
 1.1281019728e+000	 1.0873306313e-001	 2.4508029693e+000
 1.1269821280e+000	 1.1978421463e-001	 2.4527448868e+000
 1.1257495693e+000	 1.3086218971e-001	 2.4567263907e+000
 1.1244033263e+000	 1.4196545564e-001	 2.4623084212e+000
 1.1229424523e+000	 1.5309245026e-001	 2.4690616688e+000
 1.1213660258e+000	 1.6424158232e-001	 2.4765694014e+000
 1.1196731508e+000	 1.7541123190e-001	 2.4844304037e+000
 1.1178629583e+000	 1.8659975079e-001	 2.4922620164e+000
 1.1159346068e+000	 1.9780546296e-001	 2.4997032652e+000
 1.1138872834e+000	 2.0902666503e-001	 2.5064180637e+000
 1.1117202050e+000	 2.2026162677e-001	 2.5120984772e+000
 1.0463309736e+000	 2.0730626407e-001	 1.9522039015e+000
 1.0441776071e+000	 2.1789329261e-001	 1.9942051685e+000
 1.0419101079e+000	 2.2848994108e-001	 2.0379679784e+000
 1.0395278280e+000	 2.3909450519e-001	 2.0833207013e+000
 1.0370301501e+000	 2.4970525751e-001	 2.1301256608e+000
 1.0344164892e+000	 2.6032044820e-001	 2.1782815282e+000
 1.0316862930e+000	 2.7093830562e-001	 2.2277256616e+000
 1.0288390426e+000	 2.8155703702e-001	 2.2784363759e+000
 1.0258742537e+000	 2.9217482931e-001	 2.3304351267e+000
 1.0227914767e+000	 3.0278984978e-001	 2.3837885901e+000
 1.0195902983e+000	 3.1340024690e-001	 2.4386106225e+000
 1.0528699433e+000	 2.0860180957e-001	 2.0206710837e+000
 1.0507031195e+000	 2.1925500098e-001	 2.0582878003e+000
 1.0484214498e+000	 2.2991787244e-001	 2.0974740169e+000
 1.0460242820e+000	 2.4058870900e-001	 2.1380686576e+000
 1.0435109950e+000	 2.5126577246e-001	 2.1799453656e+000
 1.0408810003e+000	 2.6194730201e-001	 2.2230149577e+000
 1.0381337419e+000	 2.7263151496e-001	 2.2672278242e+000
 1.0352686978e+000	 2.8331660736e-001	 2.3125762576e+000
 1.0322853806e+000	 2.9400075477e-001	 2.3590966938e+000
 1.0291833381e+000	 3.0468211304e-001	 2.4068718464e+000
 1.0259621541e+000	 3.1535881907e-001	 2.4560327188e+000
 1.0594088983e+000	 2.0989735216e-001	 2.0868166000e+000
 1.0572286172e+000	 2.2061670628e-001	 2.1201993396e+000
 1.0549327770e+000	 2.3134580059e-001	 2.1549703705e+000
 1.0525207213e+000	 2.4208290946e-001	 2.1909776975e+000
 1.0499918254e+000	 2.5282628389e-001	 2.2281047610e+000
 1.0473454967e+000	 2.6357415217e-001	 2.2662729558e+000
 1.0445811762e+000	 2.7432472049e-001	 2.3054440954e+000
 1.0416983385e+000	 2.8507617373e-001	 2.3456228045e+000
 1.0386964931e+000	 2.9582667612e-001	 2.3868588202e+000
 1.0355751850e+000	 3.0657437205e-001	 2.4292491867e+000
 1.0323339956e+000	 3.1731738684e-001	 2.4729403225e+000
 1.0659478402e+000	 2.1119289215e-001	 2.1504660539e+000
 1.0637541019e+000	 2.2197840887e-001	 2.1797682635e+000
 1.0614440912e+000	 2.3277372588e-001	 2.2102879433e+000
 1.0590171477e+000	 2.4357710692e-001	 2.2418807096e+000
 1.0564726427e+000	 2.5438679220e-001	 2.2744382820e+000
 1.0538099803e+000	 2.6520099906e-001	 2.3078910711e+000
 1.0510285977e+000	 2.7601792264e-001	 2.3422107109e+000
 1.0481279664e+000	 2.8683573659e-001	 2.3774125181e+000
 1.0451075928e+000	 2.9765259382e-001	 2.4135578597e+000
 1.0419670192e+000	 3.0846662727e-001	 2.4507564105e+000
 1.0387058243e+000	 3.1927595069e-001	 2.4891682813e+000
 1.0724867707e+000	 2.1248842988e-001	 2.2114481486e+000
 1.0702795752e+000	 2.2334010907e-001	 2.2368260738e+000
 1.0679553939e+000	 2.3420164867e-001	 2.2632606056e+000
 1.0655135626e+000	 2.4507130177e-001	 2.2906135065e+000
 1.0629534487e+000	 2.5594729778e-001	 2.3187832615e+000
 1.0602744525e+000	 2.6682784311e-001	 2.3477077387e+000
 1.0574760078e+000	 2.7771112182e-001	 2.3773667942e+000
 1.0545575829e+000	 2.8859529637e-001	 2.4077848026e+000
 1.0515186813e+000	 2.9947850833e-001	 2.4390330948e+000
 1.0483588422e+000	 3.1035887918e-001	 2.4712322834e+000
 1.0450776419e+000	 3.2123451111e-001	 2.5045544558e+000
 1.0790256914e+000	 2.1378396566e-001	 2.2695945818e+000
 1.0768050386e+000	 2.2470180722e-001	 2.2912071947e+000
 1.0744666870e+000	 2.3562956932e-001	 2.3137250959e+000
 1.0720099679e+000	 2.4656549438e-001	 2.3370147308e+000
 1.0694342450e+000	 2.5750780102e-001	 2.3609798388e+000
 1.0667389151e+000	 2.6845468472e-001	 2.3855641909e+000
 1.0639234083e+000	 2.7940431847e-001	 2.4107542708e+000
 1.0609871899e+000	 2.9035485351e-001	 2.4365818808e+000
 1.0579297601e+000	 3.0130442010e-001	 2.4631266549e+000
 1.0547506556e+000	 3.1225112825e-001	 2.4905184557e+000
 1.0514494499e+000	 3.2319306859e-001	 2.5189396385e+000
 1.0855646039e+000	 2.1507949983e-001	 2.3247399448e+000
 1.0833304940e+000	 2.2606350368e-001	 2.3427488766e+000
 1.0809779718e+000	 2.3705748818e-001	 2.3615209276e+000
 1.0785063650e+000	 2.4805968512e-001	 2.3809257646e+000
 1.0759150332e+000	 2.5906830231e-001	 2.4008708727e+000
 1.0732033695e+000	 2.7008152430e-001	 2.4213043734e+000
 1.0703708008e+000	 2.8109751299e-001	 2.4422177857e+000
 1.0674167888e+000	 2.9211440845e-001	 2.4636487136e+000
 1.0643408310e+000	 3.0313032958e-001	 2.4856834365e+000
 1.0611424611e+000	 3.1414337496e-001	 2.5084593848e+000
 1.0578212500e+000	 3.2515162363e-001	 2.5321674774e+000
 1.0921035099e+000	 2.1637503270e-001	 2.3767216252e+000
 1.0898559428e+000	 2.2742519877e-001	 2.3912911029e+000
 1.0874892502e+000	 2.3848540562e-001	 2.4064902998e+000
 1.0850027556e+000	 2.4955387437e-001	 2.4221906440e+000
 1.0823958150e+000	 2.6062880204e-001	 2.4383018585e+000
 1.0796678175e+000	 2.7170836224e-001	 2.4547748639e+000
 1.0768181868e+000	 2.8279070583e-001	 2.4716046252e+000
 1.0738463813e+000	 2.9387396163e-001	 2.4888329230e+000
 1.0707518954e+000	 3.0495623724e-001	 2.5065510287e+000
 1.0675342601e+000	 3.1603561977e-001	 2.5249022610e+000
 1.0641930437e+000	 3.2711017670e-001	 2.5440844035e+000
 1.0986424110e+000	 2.1767056460e-001	 2.4253797147e+000
 1.0963813867e+000	 2.2878689285e-001	 2.4366765010e+000
 1.0940005237e+000	 2.3991332198e-001	 2.4484780120e+000
 1.0914991414e+000	 2.5104806249e-001	 2.4606559766e+000
 1.0888765918e+000	 2.6218930060e-001	 2.4731208481e+000
 1.0861322607e+000	 2.7333519897e-001	 2.4858247958e+000
 1.0832655680e+000	 2.8448389739e-001	 2.4987646415e+000
 1.0802759690e+000	 2.9563351349e-001	 2.5119847199e+000
 1.0771629550e+000	 3.0678214353e-001	 2.5255796419e+000
 1.0739260543e+000	 3.1792786317e-001	 2.5396969383e+000
 1.0705648326e+000	 3.2906872831e-001	 2.5545395613e+000
 1.1051813088e+000	 2.1896609585e-001	 2.4705569200e+000
 1.1029068273e+000	 2.3014858624e-001	 2.4787502573e+000
 1.1005117939e+000	 2.4134123764e-001	 2.4873313820e+000
 1.0979955239e+000	 2.5254224987e-001	 2.4961708625e+000
 1.0953573654e+000	 2.6374979838e-001	 2.5051783742e+000
 1.0925967006e+000	 2.7496203489e-001	 2.5143057842e+000
 1.0897129459e+000	 2.8617708811e-001	 2.5235501820e+000
 1.0867055534e+000	 2.9739306447e-001	 2.5329568340e+000
 1.0835740115e+000	 3.0860804890e-001	 2.5426220397e+000
 1.0803178454e+000	 3.1982010562e-001	 2.5526958670e+000
 1.0769366183e+000	 3.3102727894e-001	 2.5633847436e+000
 1.1117202050e+000	 2.2026162677e-001	 2.5120984772e+000
 1.1094322663e+000	 2.3151027929e-001	 2.5173600355e+000
 1.1070230625e+000	 2.4276915293e-001	 2.5229001681e+000
 1.1044919048e+000	 2.5403643688e-001	 2.5285868198e+000
 1.1018381374e+000	 2.6531029577e-001	 2.5343273781e+000
 1.0990611389e+000	 2.7658887040e-001	 2.5400718561e+000
 1.0961603222e+000	 2.8787027840e-001	 2.5458160211e+000
 1.0931351363e+000	 2.9915261501e-001	 2.5516044482e+000
 1.0899850663e+000	 3.1043395382e-001	 2.5575334744e+000
 1.0867096348e+000	 3.2171234759e-001	 2.5637540311e+000
 1.0833084025e+000	 3.3298582908e-001	 2.5704743294e+000
 1.0195902983e+000	 3.1340024690e-001	 2.4386106225e+000
 1.0162703411e+000	 3.2400415097e-001	 2.4937551807e+000
 1.0128312640e+000	 3.3459967450e-001	 2.5479520422e+000
 1.0092727636e+000	 3.4518491349e-001	 2.6011973677e+000
 1.0055945751e+000	 3.5575794852e-001	 2.6535313010e+000
 1.0017964728e+000	 3.6631684564e-001	 2.7050393265e+000
 9.9787827087e-001	 3.7685965733e-001	 2.7558534269e+000
 9.9383982379e-001	 3.8738442351e-001	 2.8061530253e+000
 9.8968102700e-001	 3.9788917248e-001	 2.8561656958e+000
 9.8540181740e-001	 4.0837192200e-001	 2.9061676303e+000
 9.8100217384e-001	 4.1883068033e-001	 2.9564838469e+000
 1.0259621541e+000	 3.1535881907e-001	 2.4560327188e+000
 1.0226214490e+000	 3.2602899147e-001	 2.5053914036e+000
 1.0191608797e+000	 3.3669073096e-001	 2.5536406663e+000
 1.0155801407e+000	 3.4734212164e-001	 2.6008029876e+000
 1.0118789656e+000	 3.5798123209e-001	 2.6469462329e+000
 1.0080571274e+000	 3.6860611627e-001	 2.6921850323e+000
 1.0041144389e+000	 3.7921481450e-001	 2.7366819533e+000
 1.0000507539e+000	 3.8980535444e-001	 2.7806484507e+000
 9.9586596698e-001	 4.0037575208e-001	 2.8243455772e+000
 9.9156001478e-001	 4.1092401279e-001	 2.8680844406e+000
 9.8713287596e-001	 4.2144813238e-001	 2.9122263944e+000
 1.0323339956e+000	 3.1731738684e-001	 2.4729403225e+000
 1.0289725427e+000	 3.2805382742e-001	 2.5167020154e+000
 1.0254904811e+000	 3.3878178272e-001	 2.5591915714e+000
 1.0218875037e+000	 3.4949932493e-001	 2.6004590872e+000
 1.0181633421e+000	 3.6020451065e-001	 2.6406015156e+000
 1.0143177679e+000	 3.7089538175e-001	 2.6797640685e+000
 1.0103505930e+000	 3.8156996637e-001	 2.7181414050e+000
 1.0062616700e+000	 3.9222627993e-001	 2.7559785893e+000
 1.0020508931e+000	 4.0286232609e-001	 2.7935718003e+000
 9.9771819829e-001	 4.1347609784e-001	 2.8312687795e+000
 9.9326356429e-001	 4.2406557853e-001	 2.8694690017e+000
 1.0387058243e+000	 3.1927595069e-001	 2.4891682813e+000
 1.0353236237e+000	 3.3007865932e-001	 2.5275208842e+000
 1.0318200700e+000	 3.4087283029e-001	 2.5644379540e+000
 1.0281948540e+000	 3.5165652391e-001	 2.5999984566e+000
 1.0244477059e+000	 3.6242778477e-001	 2.6343297557e+000
 1.0205783959e+000	 3.7318464265e-001	 2.6676090389e+000
 1.0165867345e+000	 3.8392511353e-001	 2.7000645221e+000
 1.0124725737e+000	 3.9464720057e-001	 2.7319764149e+000
 1.0082358068e+000	 4.0534889512e-001	 2.7636776296e+000
 1.0038763695e+000	 4.1602817778e-001	 2.7955542185e+000
 9.9939424035e-001	 4.2668301945e-001	 2.8280455246e+000
 1.0450776419e+000	 3.2123451111e-001	 2.5045544558e+000
 1.0416746936e+000	 3.3210348768e-001	 2.5376849373e+000
 1.0381496477e+000	 3.4296387421e-001	 2.5692161067e+000
 1.0345021933e+000	 3.5381371912e-001	 2.5992570102e+000
 1.0307320588e+000	 3.6465105499e-001	 2.6279667034e+000
 1.0268390129e+000	 3.7547389954e-001	 2.6555557019e+000
 1.0228228652e+000	 3.8628025657e-001	 2.6822872020e+000
 1.0186834665e+000	 3.9706811698e-001	 2.7084780540e+000
 1.0144207096e+000	 4.0783545981e-001	 2.7344994699e+000
 1.0100345299e+000	 4.1858025325e-001	 2.7607774506e+000
 1.0055249057e+000	 4.2930045578e-001	 2.7877929154e+000
 1.0514494499e+000	 3.2319306859e-001	 2.5189396385e+000
 1.0480257539e+000	 3.3412831300e-001	 2.5470340813e+000
 1.0444792160e+000	 3.4505491499e-001	 2.5733653398e+000
 1.0408095231e+000	 3.5597091109e-001	 2.5980737093e+000
 1.0370164022e+000	 3.6687432189e-001	 2.6213511768e+000
 1.0330996205e+000	 3.7776315300e-001	 2.6434428967e+000
 1.0290589865e+000	 3.8863539608e-001	 2.6646484279e+000
 1.0248943500e+000	 3.9948902976e-001	 2.6853227158e+000
 1.0206056032e+000	 4.1032202076e-001	 2.7058767989e+000
 1.0161926811e+000	 4.2113232490e-001	 2.7267782247e+000
 1.0116555618e+000	 4.3191788820e-001	 2.7485511581e+000
 1.0578212500e+000	 3.2515162363e-001	 2.5321674774e+000
 1.0543768064e+000	 3.3615313578e-001	 2.5554111267e+000
 1.0508087763e+000	 3.4714595315e-001	 2.5767279067e+000
 1.0471168450e+000	 3.5812810036e-001	 2.5962904893e+000
 1.0433007378e+000	 3.6909758600e-001	 2.6143249908e+000
 1.0393602204e+000	 3.8005240360e-001	 2.6311124734e+000
 1.0352951000e+000	 3.9099053264e-001	 2.6469902004e+000
 1.0311052257e+000	 4.0190993951e-001	 2.6623526261e+000
 1.0267904891e+000	 4.1280857861e-001	 2.6776521024e+000
 1.0223508246e+000	 4.2368439336e-001	 2.6933992827e+000
 1.0177862103e+000	 4.3453531734e-001	 2.7101632085e+000
 1.0641930437e+000	 3.2711017670e-001	 2.5440844035e+000
 1.0607278524e+000	 3.3817795655e-001	 2.5626617156e+000
 1.0571383303e+000	 3.4923698923e-001	 2.5791489333e+000
 1.0534241607e+000	 3.6028528748e-001	 2.5937521904e+000
 1.0495850670e+000	 3.7132084789e-001	 2.6067328890e+000
 1.0456208139e+000	 3.8234165191e-001	 2.6184092272e+000
 1.0415312073e+000	 3.9334566684e-001	 2.6291574733e+000
 1.0373160953e+000	 4.0433084684e-001	 2.6394129650e+000
 1.0329753688e+000	 4.1529513396e-001	 2.6496708144e+000
 1.0285089619e+000	 4.2623645926e-001	 2.6604863016e+000
 1.0239168527e+000	 4.3715274386e-001	 2.6724749384e+000
 1.0705648326e+000	 3.2906872831e-001	 2.5545395613e+000
 1.0670788937e+000	 3.4020277579e-001	 2.5686342544e+000
 1.0634678796e+000	 3.5132802374e-001	 2.5804763513e+000
 1.0597314716e+000	 3.6244247297e-001	 2.5903064922e+000
 1.0558693916e+000	 3.7354410811e-001	 2.5984224799e+000
 1.0518814028e+000	 3.8463089850e-001	 2.6051808358e+000
 1.0477673099e+000	 3.9570079928e-001	 2.6109980936e+000
 1.0435269602e+000	 4.0675175235e-001	 2.6163518081e+000
 1.0391602438e+000	 4.1778168746e-001	 2.6217812602e+000
 1.0346670947e+000	 4.2878852325e-001	 2.6278878388e+000
 1.0300474904e+000	 4.3977016842e-001	 2.6353350817e+000
 1.0769366183e+000	 3.3102727894e-001	 2.5633847436e+000
 1.0734299318e+000	 3.4222759402e-001	 2.5731798485e+000
 1.0697974257e+000	 3.5341905720e-001	 2.5805608349e+000
 1.0660387793e+000	 3.6459965739e-001	 2.5858038517e+000
 1.0621537130e+000	 3.7576736722e-001	 2.5892441764e+000
 1.0581419885e+000	 3.8692014395e-001	 2.5912778007e+000
 1.0540034093e+000	 3.9805593054e-001	 2.5923627435e+000
 1.0497378219e+000	 4.0917265666e-001	 2.5930200714e+000
 1.0453451158e+000	 4.2026823971e-001	 2.5938346031e+000
 1.0408252243e+000	 4.3134058597e-001	 2.5954552804e+000
 1.0361781251e+000	 4.4238759166e-001	 2.5985951860e+000
 1.0833084025e+000	 3.3298582908e-001	 2.5704743294e+000
 1.0797809684e+000	 3.4425241174e-001	 2.5761522421e+000
 1.0761269702e+000	 3.5551009013e-001	 2.5792557405e+000
 1.0723460855e+000	 3.6675684127e-001	 2.5800974445e+000
 1.0684380329e+000	 3.7799062577e-001	 2.5790511393e+000
 1.0644025727e+000	 3.8920938882e-001	 2.5765533922e+000
 1.0602395073e+000	 4.0041106122e-001	 2.5731048880e+000
 1.0559486821e+000	 4.1159356035e-001	 2.5692714596e+000
 1.0515299862e+000	 4.2275479134e-001	 2.5656847944e+000
 1.0469833524e+000	 4.3389264804e-001	 2.5630427932e+000
 1.0423087583e+000	 4.4500501426e-001	 2.5621095657e+000
 9.8100217384e-001	 4.1883068033e-001	 2.9564838469e+000
 9.7648280471e-001	 4.2926188459e-001	 3.0045118350e+000
 9.7184312382e-001	 4.3966509917e-001	 3.0478180778e+000
 9.6708323924e-001	 4.5003831177e-001	 3.0870275367e+000
 9.6220330259e-001	 4.6037950503e-001	 3.1228074856e+000
 9.5720350944e-001	 4.7068665762e-001	 3.1558658038e+000
 9.5208409952e-001	 4.8095774550e-001	 3.1869489634e+000
 9.4684535706e-001	 4.9119074303e-001	 3.2168397113e+000
 9.4148761098e-001	 5.0138362418e-001	 3.2463544451e+000
 9.3601123505e-001	 5.1153436373e-001	 3.2763402865e+000
 9.3041664808e-001	 5.2164093855e-001	 3.3076718564e+000
 9.8713287596e-001	 4.2144813238e-001	 2.9122263944e+000
 9.8258526336e-001	 4.3194452569e-001	 2.9541470436e+000
 9.7791658712e-001	 4.4241275441e-001	 2.9913726476e+000
 9.7312695598e-001	 4.5285079365e-001	 3.0245412053e+000
 9.6821652253e-001	 4.6325661344e-001	 3.0543335519e+000
 9.6318548352e-001	 4.7362817984e-001	 3.0814716162e+000
 9.5803408023e-001	 4.8396345615e-001	 3.1067163618e+000
 9.5276259863e-001	 4.9426040405e-001	 3.1308654139e+000
 9.4737136970e-001	 5.0451698487e-001	 3.1547503700e+000
 9.4186076956e-001	 5.1473116074e-001	 3.1792337977e+000
 9.3623121962e-001	 5.2490089586e-001	 3.2052059245e+000
 9.9326356429e-001	 4.2406557853e-001	 2.8694690017e+000
 9.8868770828e-001	 4.3462716075e-001	 2.9055231413e+000
 9.8399003675e-001	 4.4516040346e-001	 2.9369111098e+000
 9.7917065913e-001	 4.5566326920e-001	 2.9642810538e+000
 9.7422972893e-001	 4.6613371538e-001	 2.9883244830e+000
 9.6916744415e-001	 4.7656969545e-001	 3.0097744957e+000
 9.6398404755e-001	 4.8696916002e-001	 3.0294036805e+000
 9.5867982688e-001	 4.9733005816e-001	 3.0480216917e+000
 9.5325511518e-001	 5.0765033851e-001	 3.0664725005e+000
 9.4771029090e-001	 5.1792795055e-001	 3.0856313212e+000
 9.4204577807e-001	 5.2816084584e-001	 3.1064012205e+000
 9.9939424035e-001	 4.2668301945e-001	 2.8280455246e+000
 9.9479014099e-001	 4.3730979045e-001	 2.8584740104e+000
 9.9006347424e-001	 4.4790804702e-001	 2.8842669382e+000
 9.8521435019e-001	 4.5847573912e-001	 2.9060797650e+000
 9.8024292331e-001	 4.6901081157e-001	 2.9246118409e+000
 9.7514939282e-001	 4.7951120516e-001	 2.9406046095e+000
 9.6993400297e-001	 4.8997485789e-001	 2.9548394745e+000
 9.6459704330e-001	 5.0039970614e-001	 2.9681353302e+000
 9.5913884889e-001	 5.1078368589e-001	 2.9813457557e+000
 9.5355980054e-001	 5.2112473397e-001	 2.9953558763e+000
 9.4786032490e-001	 5.3142078930e-001	 3.0110788951e+000
 1.0055249057e+000	 4.2930045578e-001	 2.7877929154e+000
 1.0008925630e+000	 4.3999241545e-001	 2.8128366024e+000
 9.9613690110e-001	 4.5065568577e-001	 2.8332766523e+000
 9.9125803068e-001	 4.6128820413e-001	 2.8497730440e+000
 9.8625610717e-001	 4.7188790273e-001	 2.8630301861e+000
 9.8113133102e-001	 4.8245270974e-001	 2.8737950970e+000
 9.7588394797e-001	 4.9298055050e-001	 2.8828552421e+000
 9.7051424936e-001	 5.0346934874e-001	 2.8910360230e+000
 9.6502257231e-001	 5.1391702778e-001	 2.8991979217e+000
 9.5940929995e-001	 5.2432151179e-001	 2.9082332996e+000
 9.5367486154e-001	 5.3468072705e-001	 2.9190628569e+000
 1.0116555618e+000	 4.3191788820e-001	 2.7485511581e+000
 1.0069949759e+000	 4.4267503643e-001	 2.7684508759e+000
 1.0022103189e+000	 4.5340332040e-001	 2.7837797557e+000
 9.9730170210e-001	 4.6410066491e-001	 2.7951995584e+000
 9.9226928201e-001	 4.7476498957e-001	 2.8034170193e+000
 9.8711326024e-001	 4.8539420990e-001	 2.8091820136e+000
 9.8183388406e-001	 4.9598623860e-001	 2.8132853683e+000
 9.7643144655e-001	 5.0653898674e-001	 2.8165563171e+000
 9.7090628690e-001	 5.1705036497e-001	 2.8198595971e+000
 9.6525879058e-001	 5.2751828483e-001	 2.8240921912e+000
 9.5948938947e-001	 5.3794065991e-001	 2.8301797193e+000
 1.0177862103e+000	 4.3453531734e-001	 2.7101632085e+000
 1.0130973812e+000	 4.4535765406e-001	 2.7251597385e+000
 1.0082837290e+000	 4.5615095159e-001	 2.7356186802e+000
 1.0033453660e+000	 4.6691312218e-001	 2.7422008837e+000
 9.9828244933e-001	 4.7764207281e-001	 2.7456127277e+000
 9.9309518199e-001	 4.8833570638e-001	 2.7466042768e+000
 9.8778381270e-001	 4.9899192294e-001	 2.7459670731e+000
 9.8234863634e-001	 5.0960862090e-001	 2.7445315609e+000
 9.7678999414e-001	 5.2018369825e-001	 2.7431641418e+000
 9.7110827390e-001	 5.3071505386e-001	 2.7427638643e+000
 9.6530391013e-001	 5.4120058871e-001	 2.7442587507e+000
 1.0239168527e+000	 4.3715274386e-001	 2.6724749384e+000
 1.0191997803e+000	 4.4804026900e-001	 2.6828089922e+000
 1.0143571331e+000	 4.5889858004e-001	 2.6886387326e+000
 1.0093890238e+000	 4.6972557664e-001	 2.6906214510e+000
 1.0042956106e+000	 4.8051915317e-001	 2.6894605341e+000
 9.9907709776e-001	 4.9127719992e-001	 2.6859036173e+000
 9.9373373540e-001	 5.0199760428e-001	 2.6807403625e+000
 9.8826582021e-001	 5.1267825199e-001	 2.6747998565e+000
 9.8267369549e-001	 5.2331702839e-001	 2.6689476302e+000
 9.7695775137e-001	 5.3391181970e-001	 2.6640822989e+000
 9.7111842498e-001	 5.4446051424e-001	 2.6611318295e+000
 1.0300474904e+000	 4.3977016842e-001	 2.6353350817e+000
 1.0253021749e+000	 4.5072288193e-001	 2.6412472821e+000
 1.0204305326e+000	 4.6164620642e-001	 2.6426880452e+000
 1.0154326771e+000	 4.7253802898e-001	 2.6403084996e+000
 1.0103087674e+000	 4.8339623138e-001	 2.6348064500e+000
 1.0050590090e+000	 4.9421869126e-001	 2.6269245325e+000
 9.9968365363e-001	 5.0500328336e-001	 2.6174479830e+000
 9.9418299965e-001	 5.1574788078e-001	 2.6072020152e+000
 9.8855739243e-001	 5.2645035619e-001	 2.5970488072e+000
 9.8280722446e-001	 5.3710858314e-001	 2.5878840985e+000
 9.7693293546e-001	 5.4772043732e-001	 2.5806334009e+000
 1.0361781251e+000	 4.4238759166e-001	 2.5985951860e+000
 1.0314045664e+000	 4.5340549352e-001	 2.6003260490e+000
 1.0265039291e+000	 4.6439383143e-001	 2.5976175294e+000
 1.0214763273e+000	 4.7535047992e-001	 2.5911120313e+000
 1.0163219212e+000	 4.8627330815e-001	 2.5814992320e+000
 1.0110409173e+000	 4.9716018112e-001	 2.5695142441e+000
 1.0056335689e+000	 5.0800896094e-001	 2.5559353804e+000
 1.0001001761e+000	 5.1881750803e-001	 2.5415815160e+000
 9.9444108643e-001	 5.2958368242e-001	 2.5273090477e+000
 9.8865669462e-001	 5.4030534498e-001	 2.5140084507e+000
 9.8274744304e-001	 5.5098035878e-001	 2.5026004379e+000
 1.0423087583e+000	 4.4500501426e-001	 2.5621095657e+000
 1.0375069564e+000	 4.5608810444e-001	 2.5598994851e+000
 1.0325773241e+000	 4.6714145575e-001	 2.5532808335e+000
 1.0275199761e+000	 4.7816293016e-001	 2.5428847698e+000
 1.0223350735e+000	 4.8915038420e-001	 2.5293903412e+000
 1.0170228241e+000	 5.0010167025e-001	 2.5135226581e+000
 1.0115834827e+000	 5.1101463777e-001	 2.4960506603e+000
 1.0060173511e+000	 5.2188713452e-001	 2.4777844683e+000
 1.0003247790e+000	 5.3271700786e-001	 2.4595723194e+000
 9.9450616332e-001	 5.4350210603e-001	 2.4422970900e+000
 9.8856194916e-001	 5.5424027942e-001	 2.4268724060e+000
 9.3041664808e-001	 5.2164093855e-001	 3.3076718564e+000
 9.2470344836e-001	 5.3170283446e-001	 3.3362735759e+000
 9.1887297629e-001	 5.4171651617e-001	 3.3577808816e+000
 9.1292578721e-001	 5.5167997376e-001	 3.3726611492e+000
 9.0686248168e-001	 5.6159120431e-001	 3.3813694290e+000
 9.0068370543e-001	 5.7144821321e-001	 3.3843442961e+000
 8.9439014927e-001	 5.8124901537e-001	 3.3820035302e+000
 8.8798254891e-001	 5.9099163653e-001	 3.3747396417e+000
 8.8146168485e-001	 6.0067411444e-001	 3.3629152681e+000
 8.7482838211e-001	 6.1029450020e-001	 3.3468584644e+000
 8.6808350995e-001	 6.1985085944e-001	 3.3268579115e+000
 9.3623121962e-001	 5.2490089586e-001	 3.2052059245e+000
 9.3048231567e-001	 5.3502567286e-001	 3.2284403776e+000
 9.2461540649e-001	 5.4510193436e-001	 3.2444685679e+000
 9.1863105088e-001	 5.5512765785e-001	 3.2538421424e+000
 9.1252985316e-001	 5.6510082791e-001	 3.2571013349e+000
 9.0631246310e-001	 5.7501943748e-001	 3.2547705743e+000
 8.9997957580e-001	 5.8488148905e-001	 3.2473539093e+000
 8.9353193161e-001	 5.9468499601e-001	 3.2353302696e+000
 8.8697031589e-001	 6.0442798387e-001	 3.2191485877e+000
 8.8029555880e-001	 6.1410849153e-001	 3.1992228052e+000
 8.7350853505e-001	 6.2372457255e-001	 3.1759267898e+000
 9.4204577807e-001	 5.2816084584e-001	 3.1064012205e+000
 9.3626116998e-001	 5.3834850379e-001	 3.1244105903e+000
 9.3035782376e-001	 5.4848734492e-001	 3.1350984216e+000
 9.2433630171e-001	 5.5857533418e-001	 3.1391071149e+000
 9.1819721189e-001	 5.6861044363e-001	 3.1370686767e+000
 9.1194120809e-001	 5.7859065371e-001	 3.1296000709e+000
 9.0556898977e-001	 5.8851395455e-001	 3.1172983735e+000
 8.9908130183e-001	 5.9837834718e-001	 3.1007357551e+000
 8.9247893453e-001	 6.0818184485e-001	 3.0804543106e+000
 8.8576272318e-001	 6.1792247428e-001	 3.0569607665e+000
 8.7893354794e-001	 6.2759827694e-001	 3.0307210889e+000
 9.4786032490e-001	 5.3142078930e-001	 3.0110788951e+000
 9.4204001273e-001	 5.4167132807e-001	 3.0240037728e+000
 9.3610022955e-001	 5.5187274872e-001	 3.0294888235e+000
 9.3004154113e-001	 5.6202300362e-001	 3.0282735870e+000
 9.2386455928e-001	 5.7212005232e-001	 3.0210883354e+000
 9.1756994183e-001	 5.8216186281e-001	 3.0086491529e+000
 9.1115839255e-001	 5.9214641279e-001	 2.9916528077e+000
 9.0463066095e-001	 6.0207169097e-001	 2.9707714378e+000
 8.9798754215e-001	 6.1193569832e-001	 2.9466470755e+000
 8.9122987664e-001	 6.2173644940e-001	 2.9198860377e+000
 8.8435854998e-001	 6.3147197358e-001	 2.8910532095e+000
 9.5367486154e-001	 5.3468072705e-001	 2.9190628569e+000
 9.4781884536e-001	 5.4499414654e-001	 2.9270421670e+000
 9.4184262529e-001	 5.5525814659e-001	 2.9274607438e+000
 9.3574677057e-001	 5.6547066702e-001	 2.9211615586e+000
 9.2953189675e-001	 5.7562965487e-001	 2.9089795486e+000
 9.2319866572e-001	 5.8573306566e-001	 2.8917364115e+000
 9.1674778555e-001	 5.9577886467e-001	 2.8702351795e+000
 9.1018001035e-001	 6.0576502829e-001	 2.8452545946e+000
 9.0349614013e-001	 6.1568954523e-001	 2.8175433105e+000
 8.9669702052e-001	 6.2555041785e-001	 2.7878139513e+000
 8.8978354253e-001	 6.3534566345e-001	 2.7567370527e+000
 9.5948938947e-001	 5.3794065991e-001	 2.8301797193e+000
 9.5359766933e-001	 5.4831696002e-001	 2.8333506452e+000
 9.4758501242e-001	 5.5864353938e-001	 2.8288376912e+000
 9.4145199144e-001	 5.6891832526e-001	 2.8175934603e+000
 9.3519922572e-001	 5.7913925216e-001	 2.8005638633e+000
 9.2882738117e-001	 5.8930426315e-001	 2.7786826151e+000
 9.2233717017e-001	 5.9941131111e-001	 2.7528654948e+000
 9.1572935144e-001	 6.0945836008e-001	 2.7240043961e+000
 9.0900472985e-001	 6.1944338651e-001	 2.6929611916e+000
 9.0216415621e-001	 6.2936438058e-001	 2.6605614422e+000
 8.9520852694e-001	 6.3921934751e-001	 2.6275879809e+000
 9.6530391013e-001	 5.4120058871e-001	 2.7442587507e+000
 9.5937648607e-001	 5.5163976936e-001	 2.7427566621e+000
 9.5332739237e-001	 5.6202892795e-001	 2.7334456653e+000
 9.4715720519e-001	 5.7236597918e-001	 2.7173941066e+000
 9.4086654761e-001	 5.8264884506e-001	 2.6956650914e+000
 9.3445608958e-001	 5.9287545617e-001	 2.6693106670e+000
 9.2792654780e-001	 6.0304375301e-001	 2.6393657566e+000
 9.2127868558e-001	 6.1315168724e-001	 2.6068418679e+000
 9.1451331269e-001	 6.2319722309e-001	 2.5727206045e+000
 9.0763128506e-001	 6.3317833855e-001	 2.5379470107e+000
 9.0063350457e-001	 6.4309302673e-001	 2.5034227805e+000
 9.7111842498e-001	 5.4446051424e-001	 2.6611318295e+000
 9.6515529704e-001	 5.5496257536e-001	 2.6550902099e+000
 9.5906976658e-001	 5.6541431312e-001	 2.6411131134e+000
 9.5286241323e-001	 5.7581362966e-001	 2.6203906547e+000
 9.4653386383e-001	 5.8615843446e-001	 2.5941092685e+000
 9.4008479236e-001	 5.9644664563e-001	 2.5634455661e+000
 9.3351591984e-001	 6.0667619127e-001	 2.5295599273e+000
 9.2682801418e-001	 6.1684501072e-001	 2.4935898532e+000
 9.2002189001e-001	 6.2695105592e-001	 2.4566431092e+000
 9.1309840844e-001	 6.3699229270e-001	 2.4197906881e+000
 9.0605847677e-001	 6.4696670207e-001	 2.3840596286e+000
 9.7693293546e-001	 5.4772043732e-001	 2.5806334009e+000
 9.7093410367e-001	 5.5828537888e-001	 2.5701837764e+000
 9.6481213648e-001	 5.6879969576e-001	 2.5516708895e+000
 9.5856761699e-001	 5.7926127756e-001	 2.5264125643e+000
 9.5220117580e-001	 5.8966802122e-001	 2.4957246167e+000
 9.4571349092e-001	 6.0001783241e-001	 2.4609143707e+000
 9.3910528769e-001	 6.1030862681e-001	 2.4232738940e+000
 9.3237733862e-001	 6.2053833143e-001	 2.3840729804e+000
 9.2553046321e-001	 6.3070488594e-001	 2.3445519078e+000
 9.1856552773e-001	 6.4080624399e-001	 2.3059140054e+000
 9.1148344491e-001	 6.5084037451e-001	 2.2693180626e+000
 9.8274744304e-001	 5.5098035878e-001	 2.5026004379e+000
 9.7671290741e-001	 5.6160818074e-001	 2.4878723068e+000
 9.7055450350e-001	 5.7218507671e-001	 2.4649522175e+000
 9.6427281790e-001	 5.8270892372e-001	 2.4352915626e+000
 9.5786848494e-001	 5.9317760622e-001	 2.4003415100e+000
 9.5134218667e-001	 6.0358901740e-001	 2.3615461652e+000
 9.4469465274e-001	 6.1394106053e-001	 2.3203354366e+000
 9.3792666028e-001	 6.2423165029e-001	 2.2781176317e+000
 9.3103903365e-001	 6.3445871408e-001	 2.2362718158e+000
 9.2403264428e-001	 6.4462019337e-001	 2.1961399651e+000
 9.1690841033e-001	 6.5471404501e-001	 2.1590189520e+000
 9.8856194916e-001	 5.5424027942e-001	 2.4268724060e+000
 9.8249170971e-001	 5.6493098176e-001	 2.4079931691e+000
 9.7629686910e-001	 5.7557045681e-001	 2.3807926572e+000
 9.6997801739e-001	 5.8615656903e-001	 2.3468616109e+000
 9.6353579266e-001	 5.9668719035e-001	 2.3077924425e+000
 9.5697088101e-001	 6.0716020150e-001	 2.2651720303e+000
 9.5028401640e-001	 6.1757349335e-001	 2.2205741992e+000
 9.4347598055e-001	 6.2792496822e-001	 2.1755519165e+000
 9.3654760272e-001	 6.3821254128e-001	 2.1316292345e+000
 9.2949975947e-001	 6.4843414180e-001	 2.0902930150e+000
 9.2233337440e-001	 6.5858771454e-001	 2.0529844732e+000
 8.6808350995e-001	 6.1985085944e-001	 3.3268579115e+000
 8.6122798137e-001	 6.2934127341e-001	 3.3024804777e+000
 8.5426275199e-001	 6.3876383955e-001	 3.2742082784e+000
 8.4718882044e-001	 6.4811667332e-001	 3.2436450876e+000
 8.4000722815e-001	 6.5739790964e-001	 3.2123546587e+000
 8.3271905891e-001	 6.6660570411e-001	 3.1818529561e+000
 8.2532543831e-001	 6.7573823417e-001	 3.1467432203e+000
 8.1782753326e-001	 6.8479370032e-001	 3.1011259110e+000
 8.1022655134e-001	 6.9377032727e-001	 3.0461401865e+000
 8.0252374017e-001	 7.0266636505e-001	 2.9829320603e+000
 7.9472038680e-001	 7.1148009019e-001	 2.9126521623e+000
 8.7350853505e-001	 6.2372457255e-001	 3.1759267898e+000
 8.6661016333e-001	 6.3327429618e-001	 3.1490183217e+000
 8.5960140526e-001	 6.4275574796e-001	 3.1191407603e+000
 8.5248326569e-001	 6.5216703158e-001	 3.0879354936e+000
 8.4525679256e-001	 6.6150627032e-001	 3.0570005166e+000
 8.3792307643e-001	 6.7077160823e-001	 3.0265133620e+000
 8.3048324994e-001	 6.7996121138e-001	 2.9873308054e+000
 8.2293848727e-001	 6.8907326901e-001	 2.9384097184e+000
 8.1529000356e-001	 6.9810599474e-001	 2.8808983199e+000
 8.0753905423e-001	 7.0705762766e-001	 2.8159484868e+000
 7.9968693436e-001	 7.1592643354e-001	 2.7447141895e+000
 8.7893354794e-001	 6.2759827694e-001	 3.0307210889e+000
 8.7199233319e-001	 6.3720731009e-001	 3.0016787275e+000
 8.6494004652e-001	 6.4674764738e-001	 2.9706212054e+000
 8.5777769902e-001	 6.5621738074e-001	 2.9392165913e+000
 8.5050634515e-001	 6.6561462176e-001	 2.9090860832e+000
 8.4312708224e-001	 6.7493750298e-001	 2.8762088739e+000
 8.3564104996e-001	 6.8418417909e-001	 2.8332780052e+000
 8.2804942978e-001	 6.9335282808e-001	 2.7813405633e+000
 8.2035344439e-001	 7.0244165246e-001	 2.7215412019e+000
 8.1255435701e-001	 7.1144888040e-001	 2.6550257281e+000
 8.0465347076e-001	 7.2037276690e-001	 2.5829395429e+000
 8.8435854998e-001	 6.3147197358e-001	 2.8910532095e+000
 8.7737449229e-001	 6.4114031614e-001	 2.8602721766e+000
 8.7027867710e-001	 6.5073953883e-001	 2.8284574721e+000
 8.6307212177e-001	 6.6026772179e-001	 2.7972931494e+000
 8.5575588725e-001	 6.6972296498e-001	 2.7676745464e+000
 8.4833107764e-001	 6.7910338941e-001	 2.7307606413e+000
 8.4079883966e-001	 6.8840713836e-001	 2.6844054624e+000
 8.3316036207e-001	 6.9763237858e-001	 2.6297381537e+000
 8.2541687509e-001	 7.0677730150e-001	 2.5678880880e+000
 8.1756964975e-001	 7.1584012436e-001	 2.4999832863e+000
 8.0961999722e-001	 7.2481909136e-001	 2.4271488865e+000
 8.8978354253e-001	 6.3534566345e-001	 2.7567370527e+000
 8.8275664196e-001	 6.4507331530e-001	 2.7246105206e+000
 8.7561729834e-001	 6.5473142329e-001	 2.6924586734e+000
 8.6836653525e-001	 6.6431805576e-001	 2.6619710850e+000
 8.6100542016e-001	 6.7383130101e-001	 2.6306933453e+000
 8.5353506394e-001	 6.8326926854e-001	 2.5899965108e+000
 8.4595662034e-001	 6.9263009023e-001	 2.5405398253e+000
 8.3827128541e-001	 7.0191192160e-001	 2.4834281966e+000
 8.3048029693e-001	 7.1111294297e-001	 2.4197642127e+000
 8.2258493372e-001	 7.2023136063e-001	 2.3506466048e+000
 8.1458651499e-001	 7.2926540804e-001	 2.2771687652e+000
 8.9520852694e-001	 6.3921934751e-001	 2.6275879809e+000
 8.8813878356e-001	 6.4900630857e-001	 2.5945069420e+000
 8.8095591157e-001	 6.5872330176e-001	 2.5624351366e+000
 8.7366094079e-001	 6.6836838365e-001	 2.5328381425e+000
 8.6625494520e-001	 6.7793963088e-001	 2.4978826283e+000
 8.5873904243e-001	 6.8743514143e-001	 2.4537502022e+000
 8.5111439328e-001	 6.9685303578e-001	 2.4015136152e+000
 8.4338220109e-001	 7.0619145820e-001	 2.3422422649e+000
 8.3554371118e-001	 7.1544857793e-001	 2.2770006581e+000
 8.2760021017e-001	 7.2462259032e-001	 2.2068469384e+000
 8.1955302531e-001	 7.3371171805e-001	 2.1328314764e+000
 9.0063350457e-001	 6.4309302673e-001	 2.5034227805e+000
 8.9352091844e-001	 6.5293929693e-001	 2.4697759172e+000
 8.8629451813e-001	 6.6271517524e-001	 2.4381983666e+000
 8.7895533971e-001	 6.7241870648e-001	 2.4078020114e+000
 8.7150446367e-001	 6.8204795562e-001	 2.3690830968e+000
 8.6394301442e-001	 6.9160100910e-001	 2.3218611779e+000
 8.5627215977e-001	 7.0107597604e-001	 2.2671650967e+000
 8.4849311038e-001	 7.1047098945e-001	 2.2060176689e+000
 8.4060711910e-001	 7.1978420747e-001	 2.1394342255e+000
 8.3261548035e-001	 7.2901381452e-001	 2.0684212266e+000
 8.2451952943e-001	 7.3815802250e-001	 1.9939749459e+000
 9.0605847677e-001	 6.4696670207e-001	 2.3840596286e+000
 8.9890304793e-001	 6.5687228135e-001	 2.3502331834e+000
 8.9163311935e-001	 6.6670704474e-001	 2.3195610044e+000
 8.8424973334e-001	 6.7646902526e-001	 2.2862636986e+000
 8.7675397689e-001	 6.8615627625e-001	 2.2441410671e+000
 8.6914698120e-001	 6.9576687262e-001	 2.1941745171e+000
 8.6142992111e-001	 7.0529891208e-001	 2.1373381518e+000
 8.5360401456e-001	 7.1475051642e-001	 2.0745973303e+000
 8.4567052195e-001	 7.2411983267e-001	 2.0069073104e+000
 8.3763074551e-001	 7.3340503432e-001	 1.9352119699e+000
 8.2948602857e-001	 7.4260432251e-001	 1.8604426060e+000
 9.1148344491e-001	 6.5084037451e-001	 2.2693180626e+000
 9.0428517339e-001	 6.6080526282e-001	 2.2356957081e+000
 8.9697171657e-001	 6.7069891123e-001	 2.2051251220e+000
 8.8954412300e-001	 6.8051934100e-001	 2.1680760913e+000
 8.8200348618e-001	 6.9026459380e-001	 2.1229083462e+000
 8.7435094408e-001	 6.9993273301e-001	 2.0705407921e+000
 8.6658767858e-001	 7.0952184496e-001	 2.0118821558e+000
 8.5871491490e-001	 7.1903004019e-001	 1.9478296587e+000
 8.5073392101e-001	 7.2845545463e-001	 1.8792677803e+000
 8.4264600692e-001	 7.3779625084e-001	 1.8070671088e+000
 8.3445252399e-001	 7.4705061918e-001	 1.7320832772e+000
 9.1690841033e-001	 6.5471404501e-001	 2.1590189520e+000
 9.0966729615e-001	 6.6473824232e-001	 2.1259816612e+000
 9.0231031112e-001	 6.7469077574e-001	 2.0935359389e+000
 8.9483851001e-001	 6.8456965472e-001	 2.0530974487e+000
 8.8725299285e-001	 6.9437290929e-001	 2.0052421115e+000
 8.7955490436e-001	 7.0409859131e-001	 1.9508159470e+000
 8.7174543347e-001	 7.1374477573e-001	 1.8906518570e+000
 8.6382581269e-001	 7.2330956181e-001	 1.8255684317e+000
 8.5579731754e-001	 7.3279107441e-001	 1.7563688551e+000
 8.4766126581e-001	 7.4218746516e-001	 1.6838399059e+000
 8.3941901693e-001	 7.5149691363e-001	 1.6087510517e+000
 9.2233337440e-001	 6.5858771454e-001	 2.0529844732e+000
 9.1504941758e-001	 6.6867122085e-001	 2.0206261919e+000
 9.0764890433e-001	 6.7868263924e-001	 1.9846577183e+000
 9.0013289570e-001	 6.8861996742e-001	 1.9411912827e+000
 8.9250249820e-001	 6.9848122376e-001	 1.8910047919e+000
 8.8475886334e-001	 7.0826444858e-001	 1.8348611800e+000
 8.7690318707e-001	 7.1796770543e-001	 1.7735072588e+000
 8.6893670921e-001	 7.2758908236e-001	 1.7076726773e+000
 8.6086071280e-001	 7.3712669311e-001	 1.6380689903e+000
 8.5267652345e-001	 7.4657867838e-001	 1.5653888303e+000
 8.4438550863e-001	 7.5594320697e-001	 1.4903051802e+000
 7.9472038680e-001	 7.1148009019e-001	 2.9126521623e+000
 7.8681900975e-001	 7.2020850390e-001	 2.8383858363e+000
 7.7881980971e-001	 7.2885126846e-001	 2.7619930850e+000
 7.7072418754e-001	 7.3740674778e-001	 2.6828161903e+000
 7.6253358043e-001	 7.4587333649e-001	 2.6001907736e+000
 7.5424946100e-001	 7.5424946100e-001	 2.5134473729e+000
 7.4587333649e-001	 7.6253358043e-001	 2.4219130452e+000
 7.3740674778e-001	 7.7072418754e-001	 2.3249129836e+000
 7.2885126846e-001	 7.7881980971e-001	 2.2217721401e+000
 7.2020850390e-001	 7.8681900975e-001	 2.1118168435e+000
 7.1148009019e-001	 7.9472038680e-001	 1.9943764049e+000
 7.9968693436e-001	 7.1592643354e-001	 2.7447141895e+000
 7.9173617823e-001	 7.2470939484e-001	 2.6702325203e+000
 7.8368698777e-001	 7.3340617174e-001	 2.5942691655e+000
 7.7554077260e-001	 7.4201511790e-001	 2.5160988239e+000
 7.6729897888e-001	 7.5053461795e-001	 2.4349894144e+000
 7.5896308845e-001	 7.5896308845e-001	 2.3502038065e+000
 7.5053461795e-001	 7.6729897888e-001	 2.2610015747e+000
 7.4201511790e-001	 7.7554077260e-001	 2.1666407691e+000
 7.3340617174e-001	 7.8368698777e-001	 2.0663796897e+000
 7.2470939484e-001	 7.9173617823e-001	 1.9594786557e+000
 7.1592643354e-001	 7.9968693436e-001	 1.8452017597e+000
 8.0465347076e-001	 7.2037276690e-001	 2.5829395429e+000
 7.9665333565e-001	 7.2921027566e-001	 2.5082770082e+000
 7.8855415488e-001	 7.3796106477e-001	 2.4327288902e+000
 7.8035734682e-001	 7.4662347766e-001	 2.3555112374e+000
 7.7206436660e-001	 7.5519588892e-001	 2.2758332268e+000
 7.6367670529e-001	 7.6367670529e-001	 2.1928990321e+000
 7.5519588892e-001	 7.7206436660e-001	 2.1059097173e+000
 7.4662347766e-001	 7.8035734682e-001	 2.0140651451e+000
 7.3796106477e-001	 7.8855415488e-001	 1.9165658900e+000
 7.2921027566e-001	 7.9665333565e-001	 1.8126151442e+000
 7.2037276690e-001	 8.0465347076e-001	 1.7014206065e+000
 8.0961999722e-001	 7.2481909136e-001	 2.4271488865e+000
 8.0157048324e-001	 7.3371114748e-001	 2.3523418706e+000
 7.9342131226e-001	 7.4251594869e-001	 2.2771970545e+000
 7.8517391140e-001	 7.5123182820e-001	 2.2008806034e+000
 7.7682974480e-001	 7.5985715058e-001	 2.1225517461e+000
 7.6839031270e-001	 7.6839031270e-001	 2.0413647667e+000
 7.5985715058e-001	 7.7682974480e-001	 1.9564710233e+000
 7.5123182820e-001	 7.8517391140e-001	 1.8670209814e+000
 7.4251594869e-001	 7.9342131226e-001	 1.7721662504e+000
 7.3371114748e-001	 8.0157048324e-001	 1.6710616129e+000
 7.2481909136e-001	 8.0961999722e-001	 1.5628670348e+000
 8.1458651499e-001	 7.2926540804e-001	 2.2771687652e+000
 8.0648762222e-001	 7.3821201142e-001	 2.2022554785e+000
 7.9828846112e-001	 7.4707082464e-001	 2.1275041652e+000
 7.8999046756e-001	 7.5584017068e-001	 2.0520397118e+000
 7.8159511466e-001	 7.6451840407e-001	 1.9749800294e+000
 7.7310391187e-001	 7.7310391187e-001	 1.8954381561e+000
 7.6451840407e-001	 7.8159511466e-001	 1.8125243865e+000
 7.5584017068e-001	 7.8999046756e-001	 1.7253484157e+000
 7.4707082464e-001	 7.9828846112e-001	 1.6330214869e+000
 7.3821201142e-001	 8.0648762222e-001	 1.5346585295e+000
 7.2926540804e-001	 8.1458651499e-001	 1.4293802771e+000
 8.1955302531e-001	 7.3371171805e-001	 2.1328314764e+000
 8.1140475383e-001	 7.4271286862e-001	 2.0578518783e+000
 8.0315560268e-001	 7.5162569376e-001	 1.9834863188e+000
 7.9480701650e-001	 7.6044850625e-001	 1.9088268514e+000
 7.8636047737e-001	 7.6917965057e-001	 1.8329585413e+000
 7.7781750396e-001	 7.7781750396e-001	 1.7549616648e+000
 7.6917965057e-001	 7.8636047737e-001	 1.6739139362e+000
 7.6044850625e-001	 7.9480701650e-001	 1.5888927491e+000
 7.5162569376e-001	 8.0315560268e-001	 1.4989774206e+000
 7.4271286862e-001	 8.1140475383e-001	 1.4032514259e+000
 7.3371171805e-001	 8.1955302531e-001	 1.3008046105e+000
 8.2451952943e-001	 7.3815802250e-001	 1.9939749459e+000
 8.1632187929e-001	 7.4721372018e-001	 1.9189706706e+000
 8.0802273815e-001	 7.5618055718e-001	 1.8449850833e+000
 7.9962355941e-001	 7.6505683605e-001	 1.7710856950e+000
 7.9112583413e-001	 7.7384089125e-001	 1.6963330419e+000
 7.8253109016e-001	 7.8253109016e-001	 1.6197829672e+000
 7.7384089125e-001	 7.9112583413e-001	 1.5404889327e+000
 7.6505683605e-001	 7.9962355941e-001	 1.4575043440e+000
 7.5618055718e-001	 8.0802273815e-001	 1.3698848780e+000
 7.4721372018e-001	 8.1632187929e-001	 1.2766908009e+000
 7.3815802250e-001	 8.2451952943e-001	 1.1769892609e+000
 8.2948602857e-001	 7.4260432251e-001	 1.8604426060e+000
 8.2123899983e-001	 7.5171456725e-001	 1.7854568910e+000
 8.1288986876e-001	 7.6073541605e-001	 1.7118473819e+000
 8.0444009751e-001	 7.6966516125e-001	 1.6386651871e+000
 7.9589118612e-001	 7.7850212727e-001	 1.5649544779e+000
 7.8724467166e-001	 7.8724467166e-001	 1.4897548419e+000
 7.7850212727e-001	 7.9589118612e-001	 1.4121036642e+000
 7.6966516125e-001	 8.0444009751e-001	 1.3310385242e+000
 7.6073541605e-001	 8.1288986876e-001	 1.2455995938e+000
 7.5171456725e-001	 8.2123899983e-001	 1.1548320243e+000
 7.4260432251e-001	 8.2948602857e-001	 1.0577883087e+000
 8.3445252399e-001	 7.4705061918e-001	 1.7320832772e+000
 8.2615611669e-001	 7.5621541094e-001	 1.6571608940e+000
 8.1775699572e-001	 7.6529027151e-001	 1.5839253806e+000
 8.0925663200e-001	 7.7427348300e-001	 1.5114194336e+000
 8.0065653454e-001	 7.8316335979e-001	 1.4386788762e+000
 7.9195824961e-001	 7.9195824961e-001	 1.3647350685e+000
 7.8316335979e-001	 8.0065653454e-001	 1.2886173467e+000
 7.7427348300e-001	 8.0925663200e-001	 1.2093554779e+000
 7.6529027151e-001	 8.1775699572e-001	 1.1259821157e+000
 7.5621541094e-001	 8.2615611669e-001	 1.0375352447e+000
 7.4705061918e-001	 8.3445252399e-001	 9.4306059767e-001
 8.3941901693e-001	 7.5149691363e-001	 1.6087510517e+000
 8.3107323109e-001	 7.6071625238e-001	 1.5339382400e+000
 8.2262412025e-001	 7.6984512469e-001	 1.4610763771e+000
 8.1407316407e-001	 7.7888180244e-001	 1.3892075946e+000
 8.0542188057e-001	 7.8782458998e-001	 1.3173672390e+000
 7.9667182521e-001	 7.9667182521e-001	 1.2445863262e+000
 7.8782458998e-001	 8.0542188057e-001	 1.1698940259e+000
 7.7888180244e-001	 8.1407316407e-001	 1.0923201618e+000
 7.6984512469e-001	 8.2262412025e-001	 1.0108977120e+000
 7.6071625238e-001	 8.3107323109e-001	 9.2466529793e-001
 7.5149691363e-001	 8.3941901693e-001	 8.3266964499e-001
 8.4438550863e-001	 7.5594320697e-001	 1.4903051802e+000
 8.3599034426e-001	 7.6521709270e-001	 1.4156495839e+000
 8.2749124356e-001	 7.7439997673e-001	 1.3431626929e+000
 8.1888969495e-001	 7.8349012072e-001	 1.2718937794e+000
 8.1018722541e-001	 7.9248581901e-001	 1.2008854424e+000
 8.0138539963e-001	 8.0138539963e-001	 1.1291760951e+000
 7.9248581901e-001	 8.1018722541e-001	 1.0558024812e+000
 7.8349012072e-001	 8.1888969495e-001	 9.7980220807e-001
 7.7439997673e-001	 8.2749124356e-001	 9.0021627990e-001
 7.6521709270e-001	 8.3599034426e-001	 8.1609161827e-001
 7.5594320697e-001	 8.4438550863e-001	 7.2648355371e-001
 7.1148009019e-001	 7.9472038680e-001	 1.9943764049e+000
 7.0266636505e-001	 8.0252374017e-001	 1.8724979847e+000
 6.9377032727e-001	 8.1022655134e-001	 1.7498684784e+000
 6.8479370032e-001	 8.1782753326e-001	 1.6267177070e+000
 6.7573823417e-001	 8.2532543831e-001	 1.5032652835e+000
 6.6660570411e-001	 8.3271905891e-001	 1.3797202441e+000
 6.5739790964e-001	 8.4000722815e-001	 1.2529590069e+000
 6.4811667332e-001	 8.4718882044e-001	 1.1200810947e+000
 6.3876383955e-001	 8.5426275199e-001	 9.8146606209e-001
 6.2934127341e-001	 8.6122798137e-001	 8.3754154077e-001
 6.1985085944e-001	 8.6808350995e-001	 6.8877963635e-001
 7.1592643354e-001	 7.9968693436e-001	 1.8452017597e+000
 7.0705762766e-001	 8.0753905423e-001	 1.7264709808e+000
 6.9810599474e-001	 8.1529000356e-001	 1.6069095832e+000
 6.8907326901e-001	 8.2293848727e-001	 1.4867769430e+000
 6.7996121138e-001	 8.3048324994e-001	 1.3663226306e+000
 6.7077160823e-001	 8.3792307643e-001	 1.2457863246e+000
 6.6150627032e-001	 8.4525679256e-001	 1.1243498897e+000
 6.5216703158e-001	 8.5248326569e-001	 9.9729775998e-001
 6.4275574796e-001	 8.5960140526e-001	 8.6438127791e-001
 6.3327429618e-001	 8.6661016333e-001	 7.2605663014e-001
 6.2372457255e-001	 8.7350853505e-001	 5.8282601733e-001
 7.2037276690e-001	 8.0465347076e-001	 1.7014206065e+000
 7.1144888040e-001	 8.1255435701e-001	 1.5857824414e+000
 7.0244165246e-001	 8.2035344439e-001	 1.4692525130e+000
 6.9335282808e-001	 8.2804942978e-001	 1.3521118639e+000
 6.8418417909e-001	 8.3564104996e-001	 1.2346322430e+000
 6.7493750298e-001	 8.4312708224e-001	 1.1170759888e+000
 6.6561462176e-001	 8.5050634515e-001	 9.9964976878e-001
 6.5621738074e-001	 8.5777769902e-001	 8.7848388994e-001
 6.4674764738e-001	 8.6494004652e-001	 7.5129293228e-001
 6.3720731009e-001	 8.7199233319e-001	 6.1855459474e-001
 6.2759827694e-001	 8.7893354794e-001	 4.8079434446e-001
 7.2481909136e-001	 8.0961999722e-001	 1.5628670348e+000
 7.1584012436e-001	 8.1756964975e-001	 1.4502650437e+000
 7.0677730150e-001	 8.2541687509e-001	 1.3367293505e+000
 6.9763237858e-001	 8.3316036207e-001	 1.2225549209e+000
 6.8840713836e-001	 8.4079883966e-001	 1.1080280459e+000
 6.7910338941e-001	 8.4833107764e-001	 9.9342620990e-001
 6.6972296498e-001	 8.5575588725e-001	 8.7901792178e-001
 6.6026772179e-001	 8.6307212177e-001	 7.6344390968e-001
 6.5073953883e-001	 8.7027867710e-001	 6.4201657612e-001
 6.4114031614e-001	 8.7737449229e-001	 5.1486381783e-001
 6.3147197358e-001	 8.8435854998e-001	 3.8252769185e-001
 7.2926540804e-001	 8.1458651499e-001	 1.4293802771e+000
 7.2023136063e-001	 8.2258493372e-001	 1.3197565887e+000
 7.1111294297e-001	 8.3048029693e-001	 1.2091772612e+000
 7.0191192160e-001	 8.3827128541e-001	 1.0979435793e+000
 6.9263009023e-001	 8.4595662034e-001	 9.8634887984e-001
 6.8326926854e-001	 8.5353506394e-001	 8.7467841760e-001
 6.7383130101e-001	 8.6100542016e-001	 7.6320919184e-001
 6.6431805576e-001	 8.6836653525e-001	 6.5198553584e-001
 6.5473142329e-001	 8.7561729834e-001	 5.3637071575e-001
 6.4507331530e-001	 8.8275664196e-001	 4.1481525086e-001
 6.3534566345e-001	 8.8978354253e-001	 2.8787126096e-001
 7.3371171805e-001	 8.1955302531e-001	 1.3008046105e+000
 7.2462259032e-001	 8.2760021017e-001	 1.1940999046e+000
 7.1544857793e-001	 8.3554371118e-001	 1.0864383976e+000
 7.0619145820e-001	 8.4338220109e-001	 9.7812022636e-001
 6.9685303578e-001	 8.5111439328e-001	 8.6943841253e-001
 6.8743514143e-001	 8.5873904243e-001	 7.6067874104e-001
 6.7793963088e-001	 8.6625494520e-001	 6.5211959549e-001
 6.6836838365e-001	 8.7366094079e-001	 5.4403174517e-001
 6.5872330176e-001	 8.8095591157e-001	 4.3417689795e-001
 6.4900630857e-001	 8.8813878356e-001	 3.1824250394e-001
 6.3921934751e-001	 8.9520852694e-001	 1.9667247784e-001
 7.3815802250e-001	 8.2451952943e-001	 1.1769892609e+000
 7.2901381452e-001	 8.3261548035e-001	 1.0731427523e+000
 7.1978420747e-001	 8.4060711910e-001	 9.6835980727e-001
 7.1047098945e-001	 8.4849311038e-001	 8.6293208118e-001
 7.0107597604e-001	 8.5627215977e-001	 7.5714505230e-001
 6.9160100910e-001	 8.6394301442e-001	 6.5127792693e-001
 6.8204795562e-001	 8.7150446367e-001	 5.4560349756e-001
 6.7241870648e-001	 8.7895533971e-001	 4.4038794821e-001
 6.6271517524e-001	 8.8629451813e-001	 3.3525979645e-001
 6.5293929693e-001	 8.9352091844e-001	 2.2498193732e-001
 6.4309302673e-001	 9.0063350457e-001	 1.0878109104e-001
 7.4260432251e-001	 8.2948602857e-001	 1.0577883087e+000
 7.3340503432e-001	 8.3763074551e-001	 9.5673773240e-001
 7.2411983267e-001	 8.4567052195e-001	 8.5479334170e-001
 7.1475051642e-001	 8.5360401456e-001	 7.5223110699e-001
 7.0529891208e-001	 8.6142992111e-001	 6.4932186395e-001
 6.9576687262e-001	 8.6914698120e-001	 5.4633125977e-001
 6.8615627625e-001	 8.7675397689e-001	 4.4351964782e-001
 6.7646902526e-001	 8.8424973334e-001	 3.4114192463e-001
 6.6670704474e-001	 8.9163311935e-001	 2.3944730356e-001
 6.5687228135e-001	 8.9890304793e-001	 1.3487275395e-001
 6.4696670207e-001	 9.0605847677e-001	 2.4049270186e-002
 7.4705061918e-001	 8.3445252399e-001	 9.4306059767e-001
 7.3779625084e-001	 8.4264600692e-001	 8.4474219519e-001
 7.2845545463e-001	 8.5073392101e-001	 7.4559556835e-001
 7.1903004019e-001	 8.5871491490e-001	 6.4587392543e-001
 7.0952184496e-001	 8.6658767858e-001	 5.4582648635e-001
 6.9993273301e-001	 8.7435094408e-001	 4.4569848382e-001
 6.9026459380e-001	 8.8200348618e-001	 3.4573110825e-001
 6.8051934100e-001	 8.8954412300e-001	 2.4616138971e-001
 6.7069891123e-001	 8.9697171657e-001	 1.4722201103e-001
 6.6080526282e-001	 9.0428517339e-001	 4.7757092973e-002
 6.5084037451e-001	 9.1148344491e-001	-5.7668294778e-002
 7.5149691363e-001	 8.3941901693e-001	 8.3266964499e-001
 7.4218746516e-001	 8.4766126581e-001	 7.3701815234e-001
 7.3279107441e-001	 8.5579731754e-001	 6.4062768403e-001
 7.2330956181e-001	 8.6382581269e-001	 5.4372173271e-001
 7.1374477573e-001	 8.7174543347e-001	 4.4652105204e-001
 7.0409859131e-001	 8.7955490436e-001	 3.4924372689e-001
 6.9437290929e-001	 8.8725299285e-001	 2.5210518198e-001
 6.8456965472e-001	 8.9483851001e-001	 1.5531812210e-001
 6.7469077574e-001	 9.0231031112e-001	 5.9092397585e-002
 6.6473824232e-001	 9.0966729615e-001	-3.6519875802e-002
 6.5471404501e-001	 9.1690841033e-001	-1.3651429372e-001
 7.5594320697e-001	 8.4438550863e-001	 7.2648355371e-001
 7.4657867838e-001	 8.5267652345e-001	 6.3343219052e-001
 7.3712669311e-001	 8.6086071280e-001	 5.3975543055e-001
 7.2758908236e-001	 8.6893670921e-001	 4.4564021768e-001
 7.1796770543e-001	 8.7690318707e-001	 3.5127210860e-001
 7.0826444858e-001	 8.8475886334e-001	 2.5683542582e-001
 6.9848122376e-001	 8.9250249820e-001	 1.6251334375e-001
 6.8861996742e-001	 9.0013289570e-001	 6.8487900371e-002
 6.7868263924e-001	 9.0764890433e-001	-2.5060072275e-002
 6.6867122085e-001	 9.1504941758e-001	-1.1795110463e-001
 6.5858771454e-001	 9.2233337440e-001	-2.1262869586e-001
 6.1985085944e-001	 8.6808350995e-001	 6.8877963635e-001
 6.1029450020e-001	 8.7482838211e-001	 5.3650396576e-001
 6.0067411444e-001	 8.8146168485e-001	 3.8186375900e-001
 5.9099163653e-001	 8.8798254891e-001	 2.2513978917e-001
 5.8124901537e-001	 8.9439014927e-001	 6.6662239995e-002
 5.7144821321e-001	 9.0068370543e-001	-9.3192842894e-002
 5.6159120431e-001	 9.0686248168e-001	-2.5400717092e-001
 5.5167997376e-001	 9.1292578721e-001	-4.1532387509e-001
 5.4171651617e-001	 9.1887297629e-001	-5.7665118612e-001
 5.3170283446e-001	 9.2470344836e-001	-7.3746610711e-001
 5.2164093855e-001	 9.3041664808e-001	-8.9721805462e-001
 6.2372457255e-001	 8.7350853505e-001	 5.8282601733e-001
 6.1410849153e-001	 8.8029555880e-001	 4.3616046897e-001
 6.0442798387e-001	 8.8697031589e-001	 2.8732883569e-001
 5.9468499601e-001	 8.9353193161e-001	 1.3660239398e-001
 5.8488148905e-001	 8.9997957580e-001	-1.5696854327e-002
 5.7501943748e-001	 9.0631246310e-001	-1.6919985885e-001
 5.6510082791e-001	 9.1252985316e-001	-3.2349426798e-001
 5.5512765785e-001	 9.1863105088e-001	-4.7812821913e-001
 5.4510193436e-001	 9.2461540649e-001	-6.3261414487e-001
 5.3502567286e-001	 9.3048231567e-001	-7.8643256899e-001
 5.2490089586e-001	 9.3623121962e-001	-9.3903586749e-001
 6.2759827694e-001	 8.7893354794e-001	 4.8079434446e-001
 6.1792247428e-001	 8.8576272318e-001	 3.3962733520e-001
 6.0818184485e-001	 8.9247893453e-001	 1.9644758960e-001
 5.9837834718e-001	 8.9908130183e-001	 5.1523464910e-002
 5.8851395455e-001	 9.0556898977e-001	-9.4824678127e-002
 5.7859065371e-001	 9.1194120809e-001	-2.4222829577e-001
 5.6861044363e-001	 9.1819721189e-001	-3.9027455240e-001
 5.5857533418e-001	 9.2433630171e-001	-5.3851025349e-001
 5.4848734492e-001	 9.3035782376e-001	-6.8644579244e-001
 5.3834850379e-001	 9.3626116998e-001	-8.3355908428e-001
 5.2816084584e-001	 9.4204577807e-001	-9.7929946022e-001
 6.3147197358e-001	 8.8435854998e-001	 3.8252769185e-001
 6.2173644940e-001	 8.9122987664e-001	 2.4676312348e-001
 6.1193569832e-001	 8.9798754215e-001	 1.0909363487e-001
 6.0207169097e-001	 9.0463066095e-001	-3.0208846120e-002
 5.9214641279e-001	 9.1115839255e-001	-1.7081914542e-001
 5.8216186281e-001	 9.1756994183e-001	-3.1236282270e-001
 5.7212005232e-001	 9.2386455928e-001	-4.5442022171e-001
 5.6202300362e-001	 9.3004154113e-001	-5.9653056114e-001
 5.5187274872e-001	 9.3610022955e-001	-7.3819603680e-001
 5.4167132807e-001	 9.4204001273e-001	-8.7888590726e-001
 5.3142078930e-001	 9.4786032490e-001	-1.0180405358e+000
 6.3534566345e-001	 8.8978354253e-001	 2.8787126096e-001
 6.2555041785e-001	 8.9669702052e-001	 1.5742805285e-001
 6.1568954523e-001	 9.0349614013e-001	 2.5141782736e-002
 6.0576502829e-001	 9.1018001035e-001	-1.0870564526e-001
 5.9577886467e-001	 9.1674778555e-001	-2.4377787245e-001
 5.8573306566e-001	 9.2319866572e-001	-3.7968824079e-001
 5.7562965487e-001	 9.2953189675e-001	-5.1600401798e-001
 5.6547066702e-001	 9.3574677057e-001	-6.5225066135e-001
 5.5525814659e-001	 9.4184262529e-001	-7.8791609023e-001
 5.4499414654e-001	 9.4781884536e-001	-9.2245493772e-001
 5.3468072705e-001	 9.5367486154e-001	-1.0552927540e+000
 6.3921934751e-001	 8.9520852694e-001	 1.9667247784e-001
 6.2936438058e-001	 9.0216415621e-001	 7.1484106930e-002
 6.1944338651e-001	 9.0900472985e-001	-5.5531846847e-002
 6.0945836008e-001	 9.1572935144e-001	-1.8407717842e-001
 5.9941131111e-001	 9.2233717017e-001	-3.1379805309e-001
 5.8930426315e-001	 9.2882738117e-001	-4.4428935297e-001
 5.7913925216e-001	 9.3519922572e-001	-5.7509909234e-001
 5.6891832526e-001	 9.4145199144e-001	-7.0573286980e-001
 5.5864353938e-001	 9.4758501242e-001	-8.3565832567e-001
 5.4831696002e-001	 9.5359766933e-001	-9.6430957434e-001
 5.3794065991e-001	 9.5948938947e-001	-1.0910915827e+000
 6.4309302673e-001	 9.0063350457e-001	 1.0878109104e-001
 6.3317833855e-001	 9.0763128506e-001	-1.1204861177e-002
 6.2319722309e-001	 9.1451331269e-001	-1.3304971358e-001
 6.1315168724e-001	 9.2127868558e-001	-2.5643271328e-001
 6.0304375301e-001	 9.2792654780e-001	-3.8097633504e-001
 5.9287545617e-001	 9.3445608958e-001	-5.0625083478e-001
 5.8264884506e-001	 9.4086654761e-001	-6.3177887097e-001
 5.7236597918e-001	 9.4715720519e-001	-7.5704016028e-001
 5.6202892795e-001	 9.5332739237e-001	-8.8147613496e-001
 5.5163976936e-001	 9.5937648607e-001	-1.0044945701e+000
 5.4120058871e-001	 9.6530391013e-001	-1.1254741514e+000
 6.4696670207e-001	 9.0605847677e-001	 2.4049270186e-002
 6.3699229270e-001	 9.1309840844e-001	-9.0773023681e-002
 6.2695105592e-001	 9.2002189001e-001	-2.0753274531e-001
 6.1684501072e-001	 9.2682801418e-001	-3.2588042185e-001
 6.0667619127e-001	 9.3351591984e-001	-4.4540869671e-001
 5.9644664563e-001	 9.4008479236e-001	-5.6565710616e-001
 5.8615843446e-001	 9.4653386383e-001	-6.8611692238e-001
 5.7581362966e-001	 9.5286241323e-001	-8.0623602814e-001
 5.6541431312e-001	 9.5906976658e-001	-9.2542378898e-001
 5.5496257536e-001	 9.6515529704e-001	-1.0430558902e+000
 5.4446051424e-001	 9.7111842498e-001	-1.1584791073e+000
 6.5084037451e-001	 9.1148344491e-001	-5.7668294778e-002
 6.4080624399e-001	 9.1856552773e-001	-1.6735247259e-001
 6.3070488594e-001	 9.2553046321e-001	-2.7910022649e-001
 6.2053833143e-001	 9.3237733862e-001	-3.9252726328e-001
 6.1030862681e-001	 9.3910528769e-001	-5.0719032492e-001
 6.0001783241e-001	 9.4571349092e-001	-6.2259220434e-001
 5.8966802122e-001	 9.5220117580e-001	-7.3818682604e-001
 5.7926127756e-001	 9.5856761699e-001	-8.5338435517e-001
 5.6879969576e-001	 9.6481213648e-001	-9.6755629961e-001
 5.5828537888e-001	 9.7093410367e-001	-1.0800405712e+000
 5.4772043732e-001	 9.7693293546e-001	-1.1901464732e+000
 6.5471404501e-001	 9.1690841033e-001	-1.3651429372e-001
 6.4462019337e-001	 9.2403264428e-001	-2.4107311395e-001
 6.3445871408e-001	 9.3103903365e-001	-3.4786968681e-001
 6.2423165029e-001	 9.3792666028e-001	-4.5647886713e-001
 6.1394106053e-001	 9.4469465274e-001	-5.6641549312e-001
 6.0358901740e-001	 9.5134218667e-001	-6.7713965765e-001
 5.9317760622e-001	 9.5786848494e-001	-7.8806204225e-001
 5.8270892372e-001	 9.6427281790e-001	-8.9854927612e-001
 5.7218507671e-001	 9.7055450350e-001	-1.0079292834e+000
 5.6160818074e-001	 9.7671290741e-001	-1.1154965830e+000
 5.5098035878e-001	 9.8274744304e-001	-1.2205175077e+000
 6.5858771454e-001	 9.2233337440e-001	-2.1262869586e-001
 6.4843414180e-001	 9.2949975947e-001	-3.1206256174e-001
 6.3821254128e-001	 9.3654760272e-001	-4.1395678974e-001
 6.2792496822e-001	 9.4347598055e-001	-5.1783941691e-001
 6.1757349335e-001	 9.5028401640e-001	-6.2317744038e-001
 6.0716020150e-001	 9.5697088101e-001	-7.2938236025e-001
 5.9668719035e-001	 9.6353579266e-001	-8.3581578308e-001
 5.8615656903e-001	 9.6997801739e-001	-9.4179504652e-001
 5.7557045681e-001	 9.7629686910e-001	-1.0465988268e+000
 5.6493098176e-001	 9.8249170971e-001	-1.1494726922e+000
 5.5424027942e-001	 9.8856194916e-001	-1.2496345678e+000
 5.2164093855e-001	 9.3041664808e-001	-8.9721805462e-001
 5.1153436373e-001	 9.3601123505e-001	-1.0575090183e+000
 5.0138362418e-001	 9.4148761098e-001	-1.2199862005e+000
 4.9119074303e-001	 9.4684535706e-001	-1.3840727379e+000
 4.8095774550e-001	 9.5208409952e-001	-1.5491885994e+000
 4.7068665762e-001	 9.5720350944e-001	-1.7147531867e+000
 4.6037950503e-001	 9.6220330259e-001	-1.8801877779e+000
 4.5003831177e-001	 9.6708323924e-001	-2.0449178032e+000
 4.3966509917e-001	 9.7184312382e-001	-2.2083749430e+000
 4.2926188459e-001	 9.7648280471e-001	-2.3699990389e+000
 4.1883068033e-001	 9.8100217384e-001	-2.5292398139e+000
 5.2490089586e-001	 9.3623121962e-001	-9.3903586749e-001
 5.1473116074e-001	 9.4186076956e-001	-1.0921235474e+000
 5.0451698487e-001	 9.4737136970e-001	-1.2474331371e+000
 4.9426040405e-001	 9.5276259863e-001	-1.4043826419e+000
 4.8396345615e-001	 9.5803408023e-001	-1.5623867131e+000
 4.7362817984e-001	 9.6318548352e-001	-1.7208593465e+000
 4.6325661344e-001	 9.6821652253e-001	-1.8792164170e+000
 4.5285079365e-001	 9.7312695598e-001	-2.0368780380e+000
 4.4241275441e-001	 9.7791658712e-001	-2.1932707330e+000
 4.3194452569e-001	 9.8258526336e-001	-2.3478294134e+000
 4.2144813238e-001	 9.8713287596e-001	-2.4999991542e+000
 5.2816084584e-001	 9.4204577807e-001	-9.7929946022e-001
 5.1792795055e-001	 9.4771029090e-001	-1.1254583205e+000
 5.0765033851e-001	 9.5325511518e-001	-1.2738632048e+000
 4.9733005816e-001	 9.5867982688e-001	-1.4239289311e+000
 4.8696916002e-001	 9.6398404755e-001	-1.5750667880e+000
 4.7656969545e-001	 9.6916744415e-001	-1.7266873308e+000
 4.6613371538e-001	 9.7422972893e-001	-1.8782030072e+000
 4.5566326920e-001	 9.7917065913e-001	-2.0290305977e+000
 4.4516040346e-001	 9.8399003675e-001	-2.1785934611e+000
 4.3462716075e-001	 9.8868770828e-001	-2.3263235761e+000
 4.2406557853e-001	 9.9326356429e-001	-2.4716633725e+000
 5.3142078930e-001	 9.4786032490e-001	-1.0180405358e+000
 5.2112473397e-001	 9.5355980054e-001	-1.1575370455e+000
 5.1078368589e-001	 9.5913884889e-001	-1.2992920306e+000
 5.0039970614e-001	 9.6459704330e-001	-1.4427190077e+000
 4.8997485789e-001	 9.6993400297e-001	-1.5872278005e+000
 4.7951120516e-001	 9.7514939282e-001	-1.7322274346e+000
 4.6901081157e-001	 9.8024292331e-001	-1.8771288521e+000
 4.5847573912e-001	 9.8521435019e-001	-2.0213474332e+000
 4.4790804702e-001	 9.9006347424e-001	-2.1643053142e+000
 4.3730979045e-001	 9.9479014099e-001	-2.3054334913e+000
 4.2668301945e-001	 9.9939424035e-001	-2.4441737060e+000
 5.3468072705e-001	 9.5367486154e-001	-1.0552927540e+000
 5.2432151179e-001	 9.5940929995e-001	-1.1883856806e+000
 5.1391702778e-001	 9.6502257231e-001	-1.3237377829e+000
 5.0346934874e-001	 9.7051424936e-001	-1.4607631036e+000
 4.9298055050e-001	 9.7588394797e-001	-1.5988718438e+000
 4.8245270974e-001	 9.8113133102e-001	-1.7374733547e+000
 4.7188790273e-001	 9.8625610717e-001	-1.8759789416e+000
 4.6128820413e-001	 9.9125803068e-001	-2.0138044662e+000
 4.5065568577e-001	 9.9613690110e-001	-2.1503727350e+000
 4.3999241545e-001	 1.0008925630e+000	-2.2851156650e+000
 4.2930045578e-001	 1.0055249057e+000	-2.4174762206e+000
 5.3794065991e-001	 9.5948938947e-001	-1.0910915827e+000
 5.2751828483e-001	 9.6525879058e-001	-1.2180322845e+000
 5.1705036497e-001	 9.7090628690e-001	-1.3472210194e+000
 5.0653898674e-001	 9.7643144655e-001	-1.4780741272e+000
 4.9598623860e-001	 9.8183388406e-001	-1.6100039720e+000
 4.8539420990e-001	 9.8711326024e-001	-1.7424220321e+000
 4.7476498957e-001	 9.9226928201e-001	-1.8747417927e+000
 4.6410066491e-001	 9.9730170210e-001	-2.0063814275e+000
 4.5340332040e-001	 1.0022103189e+000	-2.1367662576e+000
 4.4267503643e-001	 1.0069949759e+000	-2.2653309775e+000
 4.3191788820e-001	 1.0116555618e+000	-2.3915216418e+000
 5.4120058871e-001	 9.6530391013e-001	-1.1254741514e+000
 5.3071505386e-001	 9.7110827390e-001	-1.2465068679e+000
 5.2018369825e-001	 9.7678999414e-001	-1.3697645380e+000
 5.0960862090e-001	 9.8234863634e-001	-1.4946675120e+000
 4.9899192294e-001	 9.8778381270e-001	-1.6206320477e+000
 4.8833570638e-001	 9.9309518199e-001	-1.7470734981e+000
 4.7764207281e-001	 9.9828244933e-001	-1.8734092929e+000
 4.6691312218e-001	 1.0033453660e+000	-1.9990616985e+000
 4.5615095159e-001	 1.0082837290e+000	-2.1234603469e+000
 4.4535765406e-001	 1.0130973812e+000	-2.2460445204e+000
 4.3453531734e-001	 1.0177862103e+000	-2.3662651875e+000
 5.4446051424e-001	 9.7111842498e-001	-1.1584791073e+000
 5.3391181970e-001	 9.7695775137e-001	-1.2738412485e+000
 5.2331702839e-001	 9.8267369549e-001	-1.3913932298e+000
 5.1267825199e-001	 9.8826582021e-001	-1.5105610687e+000
 5.0199760428e-001	 9.9373373540e-001	-1.6307665924e+000
 4.9127719992e-001	 9.9907709776e-001	-1.7514307233e+000
 4.8051915317e-001	 1.0042956106e+000	-1.8719765479e+000
 4.6972557664e-001	 1.0093890238e+000	-1.9918321569e+000
 4.5889858004e-001	 1.0143571331e+000	-2.1104332417e+000
 4.4804026900e-001	 1.0191997803e+000	-2.2272254376e+000
 4.3715274386e-001	 1.0239168527e+000	-2.3416664072e+000
 5.4772043732e-001	 9.7693293546e-001	-1.1901464732e+000
 5.3710858314e-001	 9.8280722446e-001	-1.3000689080e+000
 5.2645035619e-001	 9.8855739243e-001	-1.4121339350e+000
 5.1574788078e-001	 9.9418299965e-001	-1.5257748399e+000
 5.0500328336e-001	 9.9968365363e-001	-1.6404206403e+000
 4.9421869126e-001	 1.0050590090e+000	-1.7554994690e+000
 4.8339623138e-001	 1.0103087674e+000	-1.8704417316e+000
 4.7253802898e-001	 1.0154326771e+000	-1.9846830251e+000
 4.6164620642e-001	 1.0204305326e+000	-2.0976668016e+000
 4.5072288193e-001	 1.0253021749e+000	-2.2088467697e+000
 4.3977016842e-001	 1.0300474904e+000	-2.3176890237e+000
 5.5098035878e-001	 9.8274744304e-001	-1.2205175077e+000
 5.4030534498e-001	 9.8865669462e-001	-1.3252248512e+000
 5.2958368242e-001	 9.9444108643e-001	-1.4320153014e+000
 5.1881750803e-001	 1.0001001761e+000	-1.5403309573e+000
 5.0800896094e-001	 1.0056335689e+000	-1.6496095938e+000
 4.9716018112e-001	 1.0110409173e+000	-1.7592881429e+000
 4.8627330815e-001	 1.0163219212e+000	-1.8688059404e+000
 4.7535047992e-001	 1.0214763273e+000	-1.9776077226e+000
 4.6439383143e-001	 1.0265039291e+000	-2.0851463575e+000
 4.5340549352e-001	 1.0314045664e+000	-2.1908853027e+000
 4.4238759166e-001	 1.0361781251e+000	-2.2943007791e+000
 5.5424027942e-001	 9.8856194916e-001	-1.2496345678e+000
 5.4350210603e-001	 9.9450616332e-001	-1.3493454673e+000
 5.3271700786e-001	 1.0003247790e+000	-1.4510676446e+000
 5.2188713452e-001	 1.0060173511e+000	-1.5542535017e+000
 5.1101463777e-001	 1.0115834827e+000	-1.6583510830e+000
 5.0010167025e-001	 1.0170228241e+000	-1.7628076564e+000
 4.8915038420e-001	 1.0223350735e+000	-1.8670730489e+000
 4.7816293016e-001	 1.0275199761e+000	-1.9706027209e+000
 4.6714145575e-001	 1.0325773241e+000	-2.0728605651e+000
 4.5608810444e-001	 1.0375069564e+000	-2.1733214193e+000
 4.4500501426e-001	 1.0423087583e+000	-2.2714732850e+000
 4.1883068033e-001	 9.8100217384e-001	-2.5292398139e+000
 4.0837192200e-001	 9.8540181740e-001	-2.6868012125e+000
 3.9788917248e-001	 9.8968102700e-001	-2.8434275166e+000
 3.8738442351e-001	 9.9383982379e-001	-2.9987213097e+000
 3.7685965733e-001	 9.9787827087e-001	-3.1523027903e+000
 3.6631684564e-001	 1.0017964728e+000	-3.3038100265e+000
 3.5575794852e-001	 1.0055945751e+000	-3.4528990218e+000
 3.4518491349e-001	 1.0092727636e+000	-3.5992436001e+000
 3.3459967450e-001	 1.0128312640e+000	-3.7425351169e+000
 3.2400415097e-001	 1.0162703411e+000	-3.8824820058e+000
 3.1340024690e-001	 1.0195902983e+000	-4.0188091706e+000
 4.2144813238e-001	 9.8713287596e-001	-2.4999991542e+000
 4.1092401279e-001	 9.9156001478e-001	-2.6505221183e+000
 4.0037575208e-001	 9.9586596698e-001	-2.8001881731e+000
 3.8980535444e-001	 1.0000507539e+000	-2.9486035382e+000
 3.7921481450e-001	 1.0041144389e+000	-3.0953922869e+000
 3.6860611627e-001	 1.0080571274e+000	-3.2401965975e+000
 3.5798123209e-001	 1.0118789656e+000	-3.3826768085e+000
 3.4734212164e-001	 1.0155801407e+000	-3.5225112854e+000
 3.3669073096e-001	 1.0191608797e+000	-3.6593961058e+000
 3.2602899147e-001	 1.0226214490e+000	-3.7930445729e+000
 3.1535881907e-001	 1.0259621541e+000	-3.9231865685e+000
 4.2406557853e-001	 9.9326356429e-001	-2.4716633725e+000
 4.1347609784e-001	 9.9771819829e-001	-2.6153941930e+000
 4.0286232609e-001	 1.0020508931e+000	-2.7583498013e+000
 3.9222627993e-001	 1.0062616700e+000	-2.9001382468e+000
 3.8156996637e-001	 1.0103505930e+000	-3.0403857451e+000
 3.7089538175e-001	 1.0143177679e+000	-3.1787369290e+000
 3.6020451065e-001	 1.0181633421e+000	-3.3148548952e+000
 3.4949932493e-001	 1.0218875037e+000	-3.4484210531e+000
 3.3878178272e-001	 1.0254904811e+000	-3.5791347857e+000
 3.2805382742e-001	 1.0289725427e+000	-3.7067129307e+000
 3.1731738684e-001	 1.0323339956e+000	-3.8308890935e+000
 4.2668301945e-001	 9.9939424035e-001	-2.4441737060e+000
 4.1602817778e-001	 1.0038763695e+000	-2.5813476573e+000
 4.0534889512e-001	 1.0082358068e+000	-2.7178315850e+000
 3.9464720057e-001	 1.0124725737e+000	-2.8532335922e+000
 3.8392511353e-001	 1.0165867345e+000	-2.9871803364e+000
 3.7318464265e-001	 1.0205783959e+000	-3.1193172825e+000
 3.6242778477e-001	 1.0244477059e+000	-3.2493087422e+000
 3.5165652391e-001	 1.0281948540e+000	-3.3768377073e+000
 3.4087283029e-001	 1.0318200700e+000	-3.5016054861e+000
 3.3007865932e-001	 1.0353236237e+000	-3.6233311527e+000
 3.1927595069e-001	 1.0387058243e+000	-3.7417508210e+000
 4.2930045578e-001	 1.0055249057e+000	-2.4174762206e+000
 4.1858025325e-001	 1.0100345299e+000	-2.5483178449e+000
 4.0783545981e-001	 1.0144207096e+000	-2.6785580941e+000
 3.9706811698e-001	 1.0186834665e+000	-2.8078033785e+000
 3.8628025657e-001	 1.0228228652e+000	-2.9356791282e+000
 3.7547389954e-001	 1.0268390129e+000	-3.0618300501e+000
 3.6465105499e-001	 1.0307320588e+000	-3.1859201616e+000
 3.5381371912e-001	 1.0345021933e+000	-3.3076326096e+000
 3.4296387421e-001	 1.0381496477e+000	-3.4266692835e+000
 3.3210348768e-001	 1.0416746936e+000	-3.5427502330e+000
 3.2123451111e-001	 1.0450776419e+000	-3.6556129031e+000
 4.3191788820e-001	 1.0116555618e+000	-2.3915216418e+000
 4.2113232490e-001	 1.0161926811e+000	-2.5162450290e+000
 4.1032202076e-001	 1.0206056032e+000	-2.6404591073e+000
 3.9948902976e-001	 1.0248943500e+000	-2.7637668768e+000
 3.8863539608e-001	 1.0290589865e+000	-2.8857909008e+000
 3.7776315300e-001	 1.0330996205e+000	-3.0061735691e+000
 3.6687432189e-001	 1.0370164022e+000	-3.1245771283e+000
 3.5597091109e-001	 1.0408095231e+000	-3.2406834874e+000
 3.4505491499e-001	 1.0444792160e+000	-3.3541938078e+000
 3.3412831300e-001	 1.0480257539e+000	-3.4648278903e+000
 3.2319306859e-001	 1.0514494499e+000	-3.5723233707e+000
 4.3453531734e-001	 1.0177862103e+000	-2.3662651875e+000
 4.2368439336e-001	 1.0223508246e+000	-2.4850742532e+000
 4.1280857861e-001	 1.0267904891e+000	-2.6034694411e+000
 4.0190993951e-001	 1.0311052257e+000	-2.7210486511e+000
 3.9099053264e-001	 1.0352951000e+000	-2.8374299696e+000
 3.8005240360e-001	 1.0393602204e+000	-2.9522519413e+000
 3.6909758600e-001	 1.0433007378e+000	-3.0651735975e+000
 3.5812810036e-001	 1.0471168450e+000	-3.1758742488e+000
 3.4714595315e-001	 1.0508087763e+000	-3.2840530544e+000
 3.3615313578e-001	 1.0543768064e+000	-3.3894283776e+000
 3.2515162363e-001	 1.0578212500e+000	-3.4917369414e+000
 4.3715274386e-001	 1.0239168527e+000	-2.3416664072e+000
 4.2623645926e-001	 1.0285089619e+000	-2.4547551670e+000
 4.1529513396e-001	 1.0329753688e+000	-2.5675287815e+000
 4.0433084684e-001	 1.0373160953e+000	-2.6795783874e+000
 3.9334566684e-001	 1.0415312073e+000	-2.7905160126e+000
 3.8234165191e-001	 1.0456208139e+000	-2.8999748582e+000
 3.7132084789e-001	 1.0495850670e+000	-3.0076093265e+000
 3.6028528748e-001	 1.0534241607e+000	-3.1130948027e+000
 3.4923698923e-001	 1.0571383303e+000	-3.2161272028e+000
 3.3817795655e-001	 1.0607278524e+000	-3.3164222987e+000
 3.2711017670e-001	 1.0641930437e+000	-3.4137148341e+000
 4.3977016842e-001	 1.0300474904e+000	-2.3176890237e+000
 4.2878852325e-001	 1.0346670947e+000	-2.4252418653e+000
 4.1778168746e-001	 1.0391602438e+000	-2.5325815217e+000
 4.0675175235e-001	 1.0435269602e+000	-2.6392907291e+000
 3.9570079928e-001	 1.0477673099e+000	-2.7449739027e+000
 3.8463089850e-001	 1.0518814028e+000	-2.8492574306e+000
 3.7354410811e-001	 1.0558693916e+000	-2.9517897029e+000
 3.6244247297e-001	 1.0597314716e+000	-3.0522408840e+000
 3.5132802374e-001	 1.0634678796e+000	-3.1503024392e+000
 3.4020277579e-001	 1.0670788937e+000	-3.2456864299e+000
 3.2906872831e-001	 1.0705648326e+000	-3.3381245888e+000
 4.4238759166e-001	 1.0361781251e+000	-2.2943007791e+000
 4.3134058597e-001	 1.0408252243e+000	-2.3964927324e+000
 4.2026823971e-001	 1.0453451158e+000	-2.4985766031e+000
 4.0917265666e-001	 1.0497378219e+000	-2.6001251154e+000
 3.9805593054e-001	 1.0540034093e+000	-2.7007335440e+000
 3.8692014395e-001	 1.0581419885e+000	-2.8000200229e+000
 3.7576736722e-001	 1.0621537130e+000	-2.8976255767e+000
 3.6459965739e-001	 1.0660387793e+000	-2.9932138844e+000
 3.5341905720e-001	 1.0697974257e+000	-3.0864707860e+000
 3.4222759402e-001	 1.0734299318e+000	-3.1771035466e+000
 3.3102727894e-001	 1.0769366183e+000	-3.2648398922e+000
 4.4500501426e-001	 1.0423087583e+000	-2.2714732850e+000
 4.3389264804e-001	 1.0469833524e+000	-2.3684702890e+000
 4.2275479134e-001	 1.0515299862e+000	-2.4654673609e+000
 4.1159356035e-001	 1.0559486821e+000	-2.5620256248e+000
 4.0041106122e-001	 1.0602395073e+000	-2.6577297135e+000
 3.8920938882e-001	 1.0644025727e+000	-2.7521880928e+000
 3.7799062577e-001	 1.0684380329e+000	-2.8450330978e+000
 3.6675684127e-001	 1.0723460855e+000	-2.9359206880e+000
 3.5551009013e-001	 1.0761269702e+000	-3.0245299350e+000
 3.4425241174e-001	 1.0797809684e+000	-3.1105622559e+000
 3.3298582908e-001	 1.0833084025e+000	-3.1937404085e+000
 3.1340024690e-001	 1.0195902983e+000	-4.0188091706e+000
 3.0278984978e-001	 1.0227914767e+000	-4.1518382563e+000
 2.9217482931e-001	 1.0258742537e+000	-4.2818892080e+000
 2.8155703702e-001	 1.0288390426e+000	-4.4087093409e+000
 2.7093830562e-001	 1.0316862930e+000	-4.5320623706e+000
 2.6032044820e-001	 1.0344164892e+000	-4.6517270949e+000
 2.4970525751e-001	 1.0370301501e+000	-4.7674959955e+000
 2.3909450519e-001	 1.0395278280e+000	-4.8791737752e+000
 2.2848994108e-001	 1.0419101079e+000	-4.9865758446e+000
 2.1789329261e-001	 1.0441776071e+000	-5.0895267740e+000
 2.0730626407e-001	 1.0463309736e+000	-5.1878587246e+000
 3.1535881907e-001	 1.0259621541e+000	-3.9231865685e+000
 3.0468211304e-001	 1.0291833381e+000	-4.0501799278e+000
 2.9400075477e-001	 1.0322853806e+000	-4.1743762458e+000
 2.8331660736e-001	 1.0352686978e+000	-4.2955212981e+000
 2.7263151496e-001	 1.0381337419e+000	-4.4133775311e+000
 2.6194730201e-001	 1.0408810003e+000	-4.5277226824e+000
 2.5126577246e-001	 1.0435109950e+000	-4.6383483164e+000
 2.4058870900e-001	 1.0460242820e+000	-4.7450582929e+000
 2.2991787244e-001	 1.0484214498e+000	-4.8476671821e+000
 2.1925500098e-001	 1.0507031195e+000	-4.9459986430e+000
 2.0860180957e-001	 1.0528699433e+000	-5.0398837805e+000
 3.1731738684e-001	 1.0323339956e+000	-3.8308890935e+000
 3.0657437205e-001	 1.0355751850e+000	-3.9520583810e+000
 2.9582667612e-001	 1.0386964931e+000	-4.0706061692e+000
 2.8507617373e-001	 1.0416983385e+000	-4.1862770956e+000
 2.7432472049e-001	 1.0445811762e+000	-4.2988327644e+000
 2.6357415217e-001	 1.0473454967e+000	-4.4080503024e+000
 2.5282628389e-001	 1.0499918254e+000	-4.5137208258e+000
 2.4208290946e-001	 1.0525207213e+000	-4.6156478368e+000
 2.3134580059e-001	 1.0549327770e+000	-4.7136455634e+000
 2.2061670628e-001	 1.0572286172e+000	-4.8075372619e+000
 2.0989735216e-001	 1.0594088983e+000	-4.8971534948e+000
 3.1927595069e-001	 1.0387058243e+000	-3.7417508210e+000
 3.0846662727e-001	 1.0419670192e+000	-3.8572977279e+000
 2.9765259382e-001	 1.0451075928e+000	-3.9703929221e+000
 2.8683573659e-001	 1.0481279664e+000	-4.0807803203e+000
 2.7601792264e-001	 1.0510285977e+000	-4.1882211289e+000
 2.6520099906e-001	 1.0538099803e+000	-4.2924923315e+000
 2.5438679220e-001	 1.0564726427e+000	-4.3933850849e+000
 2.4357710692e-001	 1.0590171477e+000	-4.4907030392e+000
 2.3277372588e-001	 1.0614440912e+000	-4.5842606007e+000
 2.2197840887e-001	 1.0637541019e+000	-4.6738811531e+000
 2.1119289215e-001	 1.0659478402e+000	-4.7593952544e+000
 3.2123451111e-001	 1.0450776419e+000	-3.6556129031e+000
 3.1035887918e-001	 1.0483588422e+000	-3.7657293021e+000
 2.9947850833e-001	 1.0515186813e+000	-3.8735578102e+000
 2.8859529637e-001	 1.0545575829e+000	-3.9788420565e+000
 2.7771112182e-001	 1.0574760078e+000	-4.0813433108e+000
 2.6682784311e-001	 1.0602744525e+000	-4.1808389004e+000
 2.5594729778e-001	 1.0629534487e+000	-4.2771205305e+000
 2.4507130177e-001	 1.0655135626e+000	-4.3699925263e+000
 2.3420164867e-001	 1.0679553939e+000	-4.4592700141e+000
 2.2334010907e-001	 1.0702795752e+000	-4.5447770582e+000
 2.1248842988e-001	 1.0724867707e+000	-4.6263447734e+000
 3.2319306859e-001	 1.0514494499e+000	-3.5723233707e+000
 3.1225112825e-001	 1.0547506556e+000	-3.6771914590e+000
 3.0130442010e-001	 1.0579297601e+000	-3.7799292987e+000
 2.9035485351e-001	 1.0609871899e+000	-3.8802806806e+000
 2.7940431847e-001	 1.0639234083e+000	-3.9780074168e+000
 2.6845468472e-001	 1.0667389151e+000	-4.0728876834e+000
 2.5750780102e-001	 1.0694342450e+000	-4.1647142625e+000
 2.4656549438e-001	 1.0720099679e+000	-4.2532927024e+000
 2.3562956932e-001	 1.0744666870e+000	-4.3384394129e+000
 2.2470180722e-001	 1.0768050386e+000	-4.4199797159e+000
 2.1378396566e-001	 1.0790256914e+000	-4.4977458675e+000
 3.2515162363e-001	 1.0578212500e+000	-3.4917369414e+000
 3.1414337496e-001	 1.0611424611e+000	-3.5915293819e+000
 3.0313032958e-001	 1.0643408310e+000	-3.6893428163e+000
 2.9211440845e-001	 1.0674167888e+000	-3.7849216633e+000
 2.8109751299e-001	 1.0703708008e+000	-3.8780287735e+000
 2.7008152430e-001	 1.0732033695e+000	-3.9684436960e+000
 2.5906830231e-001	 1.0759150332e+000	-4.0559608384e+000
 2.4805968512e-001	 1.0785063650e+000	-4.1403875413e+000
 2.3705748818e-001	 1.0809779718e+000	-4.2215420848e+000
 2.2606350368e-001	 1.0833304940e+000	-4.2992516476e+000
 2.1507949983e-001	 1.0855646039e+000	-4.3733502365e+000
 3.2711017670e-001	 1.0641930437e+000	-3.4137148341e+000
 3.1603561977e-001	 1.0675342601e+000	-3.5085948944e+000
 3.0495623724e-001	 1.0707518954e+000	-3.6016405664e+000
 2.9387396163e-001	 1.0738463813e+000	-3.6925973783e+000
 2.8279070583e-001	 1.0768181868e+000	-3.7812297338e+000
 2.7170836224e-001	 1.0796678175e+000	-3.8673190985e+000
 2.6062880204e-001	 1.0823958150e+000	-3.9506620745e+000
 2.4955387437e-001	 1.0850027556e+000	-4.0310683855e+000
 2.3848540562e-001	 1.0874892502e+000	-4.1083587911e+000
 2.2742519877e-001	 1.0898559428e+000	-4.1823629502e+000
 2.1637503270e-001	 1.0921035099e+000	-4.2529172540e+000
 3.2906872831e-001	 1.0705648326e+000	-3.3381245888e+000
 3.1792786317e-001	 1.0739260543e+000	-3.4282462791e+000
 3.0678214353e-001	 1.0771629550e+000	-3.5166713430e+000
 2.9563351349e-001	 1.0802759690e+000	-3.6031469168e+000
 2.8448389739e-001	 1.0832655680e+000	-3.6874394898e+000
 2.7333519897e-001	 1.0861322607e+000	-3.7693330067e+000
 2.6218930060e-001	 1.0888765918e+000	-3.8486268539e+000
 2.5104806249e-001	 1.0914991414e+000	-3.9251337513e+000
 2.3991332198e-001	 1.0940005237e+000	-3.9986775700e+000
 2.2878689285e-001	 1.0963813867e+000	-4.0690910964e+000
 2.1767056460e-001	 1.0986424110e+000	-4.1362137645e+000
 3.3102727894e-001	 1.0769366183e+000	-3.2648398922e+000
 3.1982010562e-001	 1.0803178454e+000	-3.3503481011e+000
 3.0860804890e-001	 1.0835740115e+000	-3.4342903533e+000
 2.9739306447e-001	 1.0867055534e+000	-3.5164159082e+000
 2.8617708811e-001	 1.0897129459e+000	-3.5964938910e+000
 2.7496203489e-001	 1.0925967006e+000	-3.6743113083e+000
 2.6374979838e-001	 1.0953573654e+000	-3.7496709413e+000
 2.5254224987e-001	 1.0979955239e+000	-3.8223891411e+000
 2.4134123764e-001	 1.1005117939e+000	-3.8922935458e+000
 2.3014858624e-001	 1.1029068273e+000	-3.9592207411e+000
 2.1896609585e-001	 1.1051813088e+000	-4.0230138876e+000
 3.3298582908e-001	 1.0833084025e+000	-3.1937404085e+000
 3.2171234759e-001	 1.0867096348e+000	-3.2747710383e+000
 3.1043395382e-001	 1.0899850663e+000	-3.3543590461e+000
 2.9915261501e-001	 1.0931351363e+000	-3.4322563463e+000
 2.8787027840e-001	 1.0961603222e+000	-3.5082352693e+000
 2.7658887040e-001	 1.0990611389e+000	-3.5820864853e+000
 2.6531029577e-001	 1.1018381374e+000	-3.6536168026e+000
 2.5403643688e-001	 1.1044919048e+000	-3.7226468612e+000
 2.4276915293e-001	 1.1070230625e+000	-3.7890087448e+000
 2.3151027929e-001	 1.1094322663e+000	-3.8525435351e+000
 2.2026162677e-001	 1.1117202050e+000	-3.9130988283e+000
 2.0730626407e-001	 1.0463309736e+000	-5.1878587246e+000
 1.9673212103e-001	 1.0483705887e+000	-5.2816514346e+000
 1.8617092836e-001	 1.0502974924e+000	-5.3710586913e+000
 1.7562431451e-001	 1.0521124220e+000	-5.4559877965e+000
 1.6509388265e-001	 1.0538161425e+000	-5.5363481444e+000
 1.5458121025e-001	 1.0554094459e+000	-5.6120497058e+000
 1.4408784856e-001	 1.0568931500e+000	-5.6830015721e+000
 1.3361532224e-001	 1.0582680982e+000	-5.7491105689e+000
 1.2316512893e-001	 1.0595351578e+000	-5.8102799500e+000
 1.1273873891e-001	 1.0606952198e+000	-5.8664081803e+000
 1.0233759476e-001	 1.0617491975e+000	-5.9173878176e+000
 2.0860180957e-001	 1.0528699433e+000	-5.0398837805e+000
 1.9796158419e-001	 1.0549223048e+000	-5.1294133969e+000
 1.8733439011e-001	 1.0568612506e+000	-5.2147560857e+000
 1.7672186595e-001	 1.0586875225e+000	-5.2958248688e+000
 1.6612562493e-001	 1.0604018903e+000	-5.3725339406e+000
 1.5554725434e-001	 1.0620051509e+000	-5.4447970800e+000
 1.4498831515e-001	 1.0634981273e+000	-5.5125261245e+000
 1.3445034153e-001	 1.0648816681e+000	-5.5756295179e+000
 1.2393484049e-001	 1.0661566461e+000	-5.6340109419e+000
 1.1344329150e-001	 1.0673239578e+000	-5.6875680425e+000
 1.0297714615e-001	 1.0683845223e+000	-5.7361912581e+000
 2.0989735216e-001	 1.0594088983e+000	-4.8971534948e+000
 1.9919104459e-001	 1.0614740062e+000	-4.9825937913e+000
 1.8849784924e-001	 1.0634249940e+000	-5.0640383728e+000
 1.7781941493e-001	 1.0652626082e+000	-5.1414052046e+000
 1.6715736488e-001	 1.0669876232e+000	-5.2146125659e+000
 1.5651329626e-001	 1.0686008410e+000	-5.2835773862e+000
 1.4588877971e-001	 1.0701030898e+000	-5.3482136462e+000
 1.3528535894e-001	 1.0714952232e+000	-5.4084308570e+000
 1.2470455032e-001	 1.0727781196e+000	-5.4641326261e+000
 1.1414784251e-001	 1.0739526810e+000	-5.5152153228e+000
 1.0361669611e-001	 1.0750198322e+000	-5.5615668520e+000
 2.1119289215e-001	 1.0659478402e+000	-4.7593952544e+000
 2.0042050252e-001	 1.0680256945e+000	-4.8409092487e+000
 1.8966130605e-001	 1.0699887243e+000	-4.9186122448e+000
 1.7891696172e-001	 1.0718376807e+000	-4.9924264217e+000
 1.6818910277e-001	 1.0735733430e+000	-5.0622734742e+000
 1.5747933624e-001	 1.0751965180e+000	-5.1280728703e+000
 1.4678924246e-001	 1.0767080390e+000	-5.1897401763e+000
 1.3612037468e-001	 1.0781087650e+000	-5.2471854631e+000
 1.2547425861e-001	 1.0793995797e+000	-5.3003118042e+000
 1.1485239210e-001	 1.0805813908e+000	-5.3490138776e+000
 1.0425624478e-001	 1.0816551288e+000	-5.3931766792e+000
 2.1248842988e-001	 1.0724867707e+000	-4.6263447734e+000
 2.0164995830e-001	 1.0745773714e+000	-4.7040848227e+000
 1.9082476082e-001	 1.0765524432e+000	-4.7781928900e+000
 1.8001450658e-001	 1.0784127417e+000	-4.8485946850e+000
 1.6922083886e-001	 1.0801590512e+000	-4.9152146951e+000
 1.5844537453e-001	 1.0817921834e+000	-4.9779743603e+000
 1.4768970365e-001	 1.0833129766e+000	-5.0367903191e+000
 1.3695538896e-001	 1.0847222952e+000	-5.0915727390e+000
 1.2624396556e-001	 1.0860210283e+000	-5.1422237429e+000
 1.1555694047e-001	 1.0872100891e+000	-5.1886359432e+000
 1.0489579234e-001	 1.0882904138e+000	-5.2306910935e+000
 2.1378396566e-001	 1.0790256914e+000	-4.4977458675e+000
 2.0287941224e-001	 1.0811290384e+000	-4.5718537609e+000
 1.9198821384e-001	 1.0831161521e+000	-4.6425037612e+000
 1.8111204980e-001	 1.0849877929e+000	-4.7096244728e+000
 1.7025257340e-001	 1.0867447496e+000	-4.7731425984e+000
 1.5941141138e-001	 1.0883878389e+000	-4.8329810289e+000
 1.4859016348e-001	 1.0899179044e+000	-4.8890570066e+000
 1.3779040199e-001	 1.0913358156e+000	-4.9412803762e+000
 1.2701367135e-001	 1.0926424670e+000	-4.9895519355e+000
 1.1626148778e-001	 1.0938387774e+000	-5.0337618998e+000
 1.0553533894e-001	 1.0949256889e+000	-5.0737884868e+000
 2.1507949983e-001	 1.0855646039e+000	-4.3733502365e+000
 2.0410886464e-001	 1.0876806972e+000	-4.4439572840e+000
 1.9315166541e-001	 1.0896798529e+000	-4.5112763527e+000
 1.8220959164e-001	 1.0915628358e+000	-4.5752383511e+000
 1.7128430664e-001	 1.0933304397e+000	-4.6357716666e+000
 1.6037744702e-001	 1.0949834862e+000	-4.6928001654e+000
 1.4949062218e-001	 1.0965228239e+000	-4.7462412695e+000
 1.3862541397e-001	 1.0979493276e+000	-4.7960041250e+000
 1.2778337617e-001	 1.0992638974e+000	-4.8419878738e+000
 1.1696603420e-001	 1.1004674575e+000	-4.8840800436e+000
 1.0617488473e-001	 1.1015609556e+000	-4.9221550635e+000
 2.1637503270e-001	 1.0921035099e+000	-4.2529172540e+000
 2.0533831581e-001	 1.0942323495e+000	-4.3201443731e+000
 1.9431511582e-001	 1.0962435471e+000	-4.3842499839e+000
 1.8330713239e-001	 1.0981378722e+000	-4.4451667559e+000
 1.7231603886e-001	 1.0999161232e+000	-4.5028242759e+000
 1.6134348169e-001	 1.1015791268e+000	-4.5571469549e+000
 1.5039107999e-001	 1.1031277368e+000	-4.6080520157e+000
 1.3946042512e-001	 1.1045628331e+000	-4.6554475736e+000
 1.2855308023e-001	 1.1058853212e+000	-4.6992308267e+000
 1.1767057993e-001	 1.1070961309e+000	-4.7392863665e+000
 1.0681442989e-001	 1.1081962157e+000	-4.7754846218e+000
 2.1767056460e-001	 1.0986424110e+000	-4.1362137645e+000
 2.0656776606e-001	 1.1007839969e+000	-4.2001715634e+000
 1.9547856535e-001	 1.1028072364e+000	-4.2611715919e+000
 1.8440467232e-001	 1.1047129036e+000	-4.3191477832e+000
 1.7334777031e-001	 1.1065018018e+000	-4.3740304841e+000
 1.6230951564e-001	 1.1081747626e+000	-4.4257442659e+000
 1.5129153712e-001	 1.1097326447e+000	-4.4742058171e+000
 1.4029543564e-001	 1.1111763336e+000	-4.5193219347e+000
 1.2932278371e-001	 1.1125067400e+000	-4.5609876274e+000
 1.1837512512e-001	 1.1137247994e+000	-4.5990843445e+000
 1.0745397457e-001	 1.1148314709e+000	-4.6334783431e+000
 2.1896609585e-001	 1.1051813088e+000	-4.0230138876e+000
 2.0779721570e-001	 1.1073356410e+000	-4.0838027460e+000
 1.9664201430e-001	 1.1093709224e+000	-4.1417955300e+000
 1.8550221169e-001	 1.1112879318e+000	-4.1969269857e+000
 1.7437950123e-001	 1.1130874771e+000	-4.2491278268e+000
 1.6327554910e-001	 1.1147703950e+000	-4.2983224446e+000
 1.5219199380e-001	 1.1163375493e+000	-4.3444267039e+000
 1.4113044575e-001	 1.1177898307e+000	-4.3873458393e+000
 1.3009248681e-001	 1.1191281555e+000	-4.4269724678e+000
 1.1907966996e-001	 1.1203534645e+000	-4.4631847327e+000
 1.0809351893e-001	 1.1214667227e+000	-4.4958445890e+000
 2.2026162677e-001	 1.1117202050e+000	-3.9130988283e+000
 2.0902666503e-001	 1.1138872834e+000	-3.9708089755e+000
 1.9780546296e-001	 1.1159346068e+000	-4.0258833741e+000
 1.8659975079e-001	 1.1178629583e+000	-4.0782571778e+000
 1.7541123190e-001	 1.1196731508e+000	-4.1278611196e+000
 1.6424158232e-001	 1.1213660258e+000	-4.1746191170e+000
 1.5309245026e-001	 1.1229424523e+000	-4.2184459658e+000
 1.4196545564e-001	 1.1244033263e+000	-4.2592451381e+000
 1.3086218971e-001	 1.1257495693e+000	-4.2969067006e+000
 1.1978421463e-001	 1.1269821280e+000	-4.3313053681e+000
 1.0873306313e-001	 1.1281019728e+000	-4.3622987049e+000
 1.0233759476e-001	 1.0617491975e+000	-5.9173878176e+000
 9.1961560411e-002	 1.0626981608e+000	-5.9634333036e+000
 8.1613602879e-002	 1.0635429000e+000	-6.0047861121e+000
 7.1295101398e-002	 1.0642843918e+000	-6.0413896755e+000
 6.1007405798e-002	 1.0649236317e+000	-6.0731784062e+000
 5.0751836321e-002	 1.0654616337e+000	-6.1000771773e+000
 4.0529683456e-002	 1.0658994288e+000	-6.1220009296e+000
 3.0342207813e-002	 1.0662380646e+000	-6.1388544052e+000
 2.0190640010e-002	 1.0664786046e+000	-6.1505320099e+000
 1.0076180596e-002	 1.0666221265e+000	-6.1569178027e+000
 0.0000000000e+000	 1.0666697223e+000	-6.1578880787e+000
 1.0297714615e-001	 1.0683845223e+000	-5.7361912581e+000
 9.2536267529e-002	 1.0693394161e+000	-5.7801019750e+000
 8.2123641186e-002	 1.0701894344e+000	-5.8195527521e+000
 7.1740654976e-002	 1.0709355601e+000	-5.8544881132e+000
 6.1388667167e-002	 1.0715787949e+000	-5.8848422160e+000
 5.1069006250e-002	 1.0721201591e+000	-5.9105382953e+000
 4.0782970781e-002	 1.0725606901e+000	-5.9314882374e+000
 3.0531829246e-002	 1.0729014423e+000	-5.9475922897e+000
 2.0316819954e-002	 1.0731434855e+000	-5.9587389042e+000
 1.0139150958e-002	 1.0732879043e+000	-5.9648047158e+000
 0.0000000000e+000	 1.0733357975e+000	-5.9656569839e+000
 1.0361669611e-001	 1.0750198322e+000	-5.5615668520e+000
 9.3110973354e-002	 1.0759806564e+000	-5.6034169647e+000
 8.2633678344e-002	 1.0768359539e+000	-5.6410311388e+000
 7.2186207551e-002	 1.0775867135e+000	-5.6743552330e+000
 6.1769927677e-002	 1.0782339431e+000	-5.7033233571e+000
 5.1386175466e-002	 1.0787786695e+000	-5.7278572739e+000
 4.1036257536e-002	 1.0792219365e+000	-5.7478659416e+000
 3.0721450252e-002	 1.0795648050e+000	-5.7632451960e+000
 2.0442999614e-002	 1.0798083513e+000	-5.7738775749e+000
 1.0202121178e-002	 1.0799536671e+000	-5.7796322840e+000
 0.0000000000e+000	 1.0800018578e+000	-5.7803674987e+000
 1.0425624478e-001	 1.0816551288e+000	-5.3931766792e+000
 9.3685678029e-002	 1.0826218835e+000	-5.4330392985e+000
 8.3143714482e-002	 1.0834824601e+000	-5.4688815116e+000
 7.2631759235e-002	 1.0842378535e+000	-5.5006507849e+000
 6.2151187425e-002	 1.0848890781e+000	-5.5282814138e+000
 5.1703344046e-002	 1.0854371666e+000	-5.5516938836e+000
 4.1289543783e-002	 1.0858831696e+000	-5.5707943762e+000
 3.0911070878e-002	 1.0862281543e+000	-5.5854744245e+000
 2.0569179022e-002	 1.0864732039e+000	-5.5956107157e+000
 1.0265091272e-002	 1.0866194166e+000	-5.6010650434e+000
 0.0000000000e+000	 1.0866679047e+000	-5.6016864733e+000
 1.0489579234e-001	 1.0882904138e+000	-5.2306910935e+000
 9.4260381698e-002	 1.0892630989e+000	-5.2686381583e+000
 8.3653749727e-002	 1.0901289546e+000	-5.3027721505e+000
 7.3077310138e-002	 1.0908889819e+000	-5.3330424448e+000
 6.2532446505e-002	 1.0915442013e+000	-5.3593837849e+000
 5.2020512072e-002	 1.0920956520e+000	-5.3817155999e+000
 4.1542829587e-002	 1.0925443910e+000	-5.3999414738e+000
 3.1100691172e-002	 1.0928914920e+000	-5.4139487703e+000
 2.0695358208e-002	 1.0931380448e+000	-5.4236084141e+000
 1.0328061256e-002	 1.0932851544e+000	-5.4287748274e+000
 0.0000000000e+000	 1.0933339400e+000	-5.4292879616e+000
 1.0553533894e-001	 1.0949256889e+000	-5.0737884868e+000
 9.4835084506e-002	 1.0959043044e+000	-5.1098906494e+000
 8.4163784208e-002	 1.0967754392e+000	-5.1423791443e+000
 7.3522860374e-002	 1.0975401004e+000	-5.1712055856e+000
 6.2913705014e-002	 1.0981993146e+000	-5.1963054558e+000
 5.2337679621e-002	 1.0987541275e+000	-5.2175973769e+000
 4.1796115011e-002	 1.0992056024e+000	-5.2349825401e+000
 3.1290311182e-002	 1.0995548196e+000	-5.2483442998e+000
 2.0821537206e-002	 1.0998028757e+000	-5.2575479301e+000
 1.0391031145e-002	 1.0999508823e+000	-5.2624405460e+000
 0.0000000000e+000	 1.0999999653e+000	-5.2628530029e+000
 1.0617488473e-001	 1.1015609556e+000	-4.9221550635e+000
 9.5409786595e-002	 1.1025455016e+000	-4.9564815752e+000
 8.4673818051e-002	 1.1034219154e+000	-4.9873861682e+000
 7.3968410052e-002	 1.1041912105e+000	-5.0148230557e+000
 6.3294963045e-002	 1.1048544196e+000	-5.0387287790e+000
 5.2654846774e-002	 1.1054125947e+000	-5.0590214295e+000
 4.2049400119e-002	 1.1058668055e+000	-5.0756000382e+000
 3.1479930955e-002	 1.1062181390e+000	-5.0883441354e+000
 2.0947716045e-002	 1.1064676983e+000	-5.0971134824e+000
 1.0454000956e-002	 1.1066166018e+000	-5.1017479743e+000
 0.0000000000e+000	 1.1066659822e+000	-5.1020694110e+000
 1.0681442989e-001	 1.1081962157e+000	-4.7754846218e+000
 9.5984488109e-002	 1.1091866921e+000	-4.8081032213e+000
 8.5183851384e-002	 1.1100683851e+000	-4.8374842686e+000
 7.4413959286e-002	 1.1108423139e+000	-4.8635849658e+000
 6.3676220696e-002	 1.1115095179e+000	-4.8863432619e+000
 5.2972013611e-002	 1.1120710551e+000	-4.9056770232e+000
 4.2302684973e-002	 1.1125280019e+000	-4.9214833795e+000
 3.1669550538e-002	 1.1128814517e+000	-4.9336382491e+000
 2.1073894759e-002	 1.1131325142e+000	-4.9419960427e+000
 1.0516970703e-002	 1.1132823146e+000	-4.9463895474e+000
 0.0000000000e+000	 1.1133319925e+000	-4.9466315710e+000
 1.0745397457e-001	 1.1148314709e+000	-4.6334783431e+000
 9.6559189193e-002	 1.1158278776e+000	-4.6644551462e+000
 8.5693884335e-002	 1.1167148497e+000	-4.6923716558e+000
 7.4859508185e-002	 1.1174934124e+000	-4.7171884834e+000
 6.4057478062e-002	 1.1181646112e+000	-4.7388453635e+000
 5.3289180210e-002	 1.1187295106e+000	-4.7572602711e+000
 4.2555969638e-002	 1.1191891933e+000	-4.7723287223e+000
 3.1859169980e-002	 1.1195447594e+000	-4.7839232617e+000
 2.1200073378e-002	 1.1197973251e+000	-4.7918931372e+000
 1.0579940404e-002	 1.1199480224e+000	-4.7960641640e+000
 0.0000000000e+000	 1.1199979978e+000	-4.7962402440e+000
 1.0809351893e-001	 1.1214667227e+000	-4.4958445890e+000
 9.7133889991e-002	 1.1224690599e+000	-4.5252439802e+000
 8.6203917031e-002	 1.1233613110e+000	-4.5517535047e+000
 7.5305056863e-002	 1.1241445076e+000	-4.5753376340e+000
 6.4438735237e-002	 1.1248197012e+000	-4.5959382966e+000
 5.3606346650e-002	 1.1253879628e+000	-4.6134739389e+000
 4.2809254177e-002	 1.1258503814e+000	-4.6278387781e+000
 3.2048789327e-002	 1.1262080637e+000	-4.6389022505e+000
 2.1326251934e-002	 1.1264621327e+000	-4.6465086552e+000
 1.0642910073e-002	 1.1266137269e+000	-4.6504769956e+000
 0.0000000000e+000	 1.1266639997e+000	-4.6506023777e+000
 1.0873306313e-001	 1.1281019728e+000	-4.3622987049e+000
 9.7708590645e-002	 1.1291102404e+000	-4.3901832305e+000
 8.6713949601e-002	 1.1300077707e+000	-4.4153417612e+000
 7.5750605430e-002	 1.1307956011e+000	-4.4377431104e+000
 6.4819992318e-002	 1.1314747896e+000	-4.4573318386e+000
 5.3923513013e-002	 1.1320464133e+000	-4.4740272558e+000
 4.3062538653e-002	 1.1325115679e+000	-4.4877226239e+000
 3.2238408627e-002	 1.1328713664e+000	-4.4982845633e+000
 2.1452430459e-002	 1.1331269386e+000	-4.5055526642e+000
 1.0705879726e-002	 1.1332794297e+000	-4.5093393034e+000
 0.0000000000e+000	 1.1333300000e+000	-4.5094309247e+000
 1.1333300000e+000	 0.0000000000e+000	 2.4350051715e+000
 1.1332794297e+000	 1.0705879726e-002	 2.4295884303e+000
 1.1331269386e+000	 2.1452430459e-002	 2.4272176561e+000
 1.1328713664e+000	 3.2238408627e-002	 2.4273480379e+000
 1.1325115679e+000	 4.3062538653e-002	 2.4294259733e+000
 1.1320464133e+000	 5.3923513013e-002	 2.4328882962e+000
 1.1314747896e+000	 6.4819992318e-002	 2.4371638991e+000
 1.1307956011e+000	 7.5750605430e-002	 2.4416755117e+000
 1.1300077707e+000	 8.6713949601e-002	 2.4458416352e+000
 1.1291102404e+000	 9.7708590645e-002	 2.4490786323e+000
 1.1281019728e+000	 1.0873306313e-001	 2.4508029693e+000
 1.1399970000e+000	 0.0000000000e+000	 2.5034823731e+000
 1.1399461323e+000	 1.0768858824e-002	 2.4978967754e+000
 1.1397927441e+000	 2.1578627908e-002	 2.4952430825e+000
 1.1395356684e+000	 3.2428056365e-002	 2.4949723150e+000
 1.1391737533e+000	 4.3315861116e-002	 2.4965259243e+000
 1.1387058624e+000	 5.4240726942e-002	 2.4993352501e+000
 1.1381308760e+000	 6.5201306578e-002	 2.5028231714e+000
 1.1374476921e+000	 7.6196220818e-002	 2.5064059190e+000
 1.1366552271e+000	 8.7224058663e-002	 2.5094950505e+000
 1.1357524170e+000	 9.8283377490e-002	 2.5114995866e+000
 1.1347382181e+000	 1.0937270325e-001	 2.5118283069e+000
 1.1466640000e+000	 0.0000000000e+000	 2.5696021310e+000
 1.1466128348e+000	 1.0831837922e-002	 2.5638677694e+000
 1.1464585495e+000	 2.1704825357e-002	 2.5609518492e+000
 1.1461999704e+000	 3.2617704104e-002	 2.5603018631e+000
 1.1458359388e+000	 4.3569183579e-002	 2.5613549429e+000
 1.1453653115e+000	 5.4557940872e-002	 2.5635375354e+000
 1.1447869624e+000	 6.5582620838e-002	 2.5662670798e+000
 1.1440997830e+000	 7.6641836207e-002	 2.5689538548e+000
 1.1433026835e+000	 8.7734167726e-002	 2.5710029940e+000
 1.1423945936e+000	 9.8858164336e-002	 2.5718166688e+000
 1.1413744634e+000	 1.1001234337e-001	 2.5707964373e+000
 1.1533310000e+000	 0.0000000000e+000	 2.6332233699e+000
 1.1532795373e+000	 1.0894817020e-002	 2.6273602896e+000
 1.1531243550e+000	 2.1831022807e-002	 2.6242031854e+000
 1.1528642725e+000	 3.2807351844e-002	 2.6231966539e+000
 1.1524981242e+000	 4.3822506043e-002	 2.6237741246e+000
 1.1520247606e+000	 5.4875154803e-002	 2.6253577403e+000
 1.1514430488e+000	 6.5963935099e-002	 2.6273600614e+000
 1.1507518740e+000	 7.7087451596e-002	 2.6291859470e+000
 1.1499501400e+000	 8.8244276789e-002	 2.6302346106e+000
 1.1490367701e+000	 9.9432951182e-002	 2.6299018495e+000
 1.1480107086e+000	 1.1065198348e-001	 2.6275824477e+000
 1.1599980000e+000	 0.0000000000e+000	 2.6942094726e+000
 1.1599462398e+000	 1.0957796118e-002	 2.6882374011e+000
 1.1597901604e+000	 2.1957220257e-002	 2.6848602459e+000
 1.1595285745e+000	 3.2996999584e-002	 2.6835203311e+000
 1.1591603096e+000	 4.4075828507e-002	 2.6836479913e+000
 1.1586842097e+000	 5.5192368734e-002	 2.6846616428e+000
 1.1580991352e+000	 6.6345249361e-002	 2.6859695157e+000
 1.1574039650e+000	 7.7533066986e-002	 2.6869715676e+000
 1.1565975964e+000	 8.8754385853e-002	 2.6870615799e+000
 1.1556789467e+000	 1.0000773803e-001	 2.6856294342e+000
 1.1546469539e+000	 1.1129162360e-001	 2.6820635690e+000
 1.1666650000e+000	 0.0000000000e+000	 2.7524281533e+000
 1.1666129423e+000	 1.1020775216e-002	 2.7463662340e+000
 1.1664559659e+000	 2.2083417706e-002	 2.7427899928e+000
 1.1661928765e+000	 3.3186647323e-002	 2.7411400969e+000
 1.1658224951e+000	 4.4329150971e-002	 2.7408443830e+000
 1.1653436587e+000	 5.5509582665e-002	 2.7413181079e+000
 1.1647552217e+000	 6.6726563623e-002	 2.7419657066e+000
 1.1640560560e+000	 7.7978682376e-002	 2.7421827394e+000
 1.1632450528e+000	 8.9264494917e-002	 2.7413580281e+000
 1.1623211233e+000	 1.0058252488e-001	 2.7388759796e+000
 1.1612831992e+000	 1.1193126372e-001	 2.7341190971e+000
 1.1733320000e+000	 0.0000000000e+000	 2.8077513338e+000
 1.1732796448e+000	 1.1083754314e-002	 2.8016178649e+000
 1.1731217714e+000	 2.2209615156e-002	 2.7978630815e+000
 1.1728571785e+000	 3.3376295063e-002	 2.7959266020e+000
 1.1724846805e+000	 4.4582473435e-002	 2.7952343529e+000
 1.1720031078e+000	 5.5826796596e-002	 2.7951989868e+000
 1.1714113081e+000	 6.7107877884e-002	 2.7952216668e+000
 1.1707081470e+000	 7.8424297766e-002	 2.7946940456e+000
 1.1698925093e+000	 8.9774603981e-002	 2.7930004423e+000
 1.1689632999e+000	 1.0115731172e-001	 2.7895202134e+000
 1.1679194445e+000	 1.1257090384e-001	 2.7836303181e+000
 1.1799990000e+000	 0.0000000000e+000	 2.8600550254e+000
 1.1799463473e+000	 1.1146733412e-002	 2.8538672021e+000
 1.1797875768e+000	 2.2335812606e-002	 2.8499537504e+000
 1.1795214805e+000	 3.3565942803e-002	 2.8477538401e+000
 1.1791468660e+000	 4.4835795899e-002	 2.8466920658e+000
 1.1786625569e+000	 5.6144010527e-002	 2.8461790206e+000
 1.1780673945e+000	 6.7489192146e-002	 2.8456131056e+000
 1.1773602379e+000	 7.8869913155e-002	 2.8443825423e+000
 1.1765399657e+000	 9.0284713045e-002	 2.8418675882e+000
 1.1756054764e+000	 1.0173209857e-001	 2.8374429564e+000
 1.1745556897e+000	 1.1321054396e-001	 2.8304804354e+000
 1.1866660000e+000	 0.0000000000e+000	 2.9092192134e+000
 1.1866130499e+000	 1.1209712510e-002	 2.9029928749e+000
 1.1864533823e+000	 2.2462010056e-002	 2.8989397143e+000
 1.1861857825e+000	 3.3755590542e-002	 2.8964990457e+000
 1.1858090514e+000	 4.5089118363e-002	 2.8950947007e+000
 1.1853220060e+000	 5.6461224458e-002	 2.8941357467e+000
 1.1847234809e+000	 6.7870506407e-002	 2.8930183208e+000
 1.1840123289e+000	 7.9315528545e-002	 2.8911276746e+000
 1.1831874222e+000	 9.0794822108e-002	 2.8878404306e+000
 1.1822476530e+000	 1.0230688541e-001	 2.8825270481e+000
 1.1811919350e+000	 1.1385018407e-001	 2.8745544997e+000
 1.1933330000e+000	 0.0000000000e+000	 2.9551277466e+000
 1.1932797524e+000	 1.1272691608e-002	 2.9488771264e+000
 1.1931191877e+000	 2.2588207505e-002	 2.9447020614e+000
 1.1928500845e+000	 3.3945238281e-002	 2.9420425952e+000
 1.1924712368e+000	 4.5342440826e-002	 2.9403223562e+000
 1.1919814551e+000	 5.6778438388e-002	 2.9389494088e+000
 1.1913795673e+000	 6.8251820668e-002	 2.9373181118e+000
 1.1906644199e+000	 7.9761143934e-002	 2.9348111953e+000
 1.1898348786e+000	 9.1304931171e-002	 2.9308020565e+000
 1.1888898296e+000	 1.0288167226e-001	 2.9246572744e+000
 1.1878281803e+000	 1.1448982419e-001	 2.9157393415e+000
 1.2000000000e+000	 0.0000000000e+000	 2.9976682294e+000
 1.1999464549e+000	 1.1335670705e-002	 2.9914057103e+000
 1.1997849932e+000	 2.2714404954e-002	 2.9871251538e+000
 1.1995143866e+000	 3.4134886020e-002	 2.9842679112e+000
 1.1991334223e+000	 4.5595763289e-002	 2.9822579586e+000
 1.1986409042e+000	 5.7095652318e-002	 2.9805028696e+000
 1.1980356538e+000	 6.8633134928e-002	 2.9783956979e+000
 1.1973165109e+000	 8.0206759322e-002	 2.9753170861e+000
 1.1964823350e+000	 9.1815040233e-002	 2.9706376011e+000
 1.1955320061e+000	 1.0345645911e-001	 2.9637202977e+000
 1.1944644255e+000	 1.1512946431e-001	 2.9539235058e+000
 1.1281019728e+000	 1.0873306313e-001	 2.4508029693e+000
 1.1269821280e+000	 1.1978421463e-001	 2.4527448868e+000
 1.1257495693e+000	 1.3086218971e-001	 2.4567263907e+000
 1.1244033263e+000	 1.4196545564e-001	 2.4623084212e+000
 1.1229424523e+000	 1.5309245026e-001	 2.4690616688e+000
 1.1213660258e+000	 1.6424158232e-001	 2.4765694014e+000
 1.1196731508e+000	 1.7541123190e-001	 2.4844304037e+000
 1.1178629583e+000	 1.8659975079e-001	 2.4922620164e+000
 1.1159346068e+000	 1.9780546296e-001	 2.4997032652e+000
 1.1138872834e+000	 2.0902666503e-001	 2.5064180637e+000
 1.1117202050e+000	 2.2026162677e-001	 2.5120984772e+000
 1.1347382181e+000	 1.0937270325e-001	 2.5118283069e+000
 1.1336117856e+000	 1.2048886496e-001	 2.5122043391e+000
 1.1323719762e+000	 1.3163200805e-001	 2.5144536086e+000
 1.1310178136e+000	 1.4280059077e-001	 2.5181463900e+000
 1.1295483459e+000	 1.5399304176e-001	 2.5228627933e+000
 1.1279626458e+000	 1.6520776043e-001	 2.5281956484e+000
 1.1262598122e+000	 1.7644311731e-001	 2.5337535058e+000
 1.1244389709e+000	 1.8769745450e-001	 2.5391637428e+000
 1.1224992755e+000	 1.9896908611e-001	 2.5440757618e+000
 1.1204399085e+000	 2.1025629874e-001	 2.5481642677e+000
 1.1182600818e+000	 2.2155735200e-001	 2.5511326075e+000
 1.1413744634e+000	 1.1001234337e-001	 2.5707964373e+000
 1.1402414432e+000	 1.2119351529e-001	 2.5696583041e+000
 1.1389943830e+000	 1.3240182639e-001	 2.5702317613e+000
 1.1376323010e+000	 1.4363572590e-001	 2.5720962921e+000
 1.1361542394e+000	 1.5489363326e-001	 2.5748412509e+000
 1.1345592657e+000	 1.6617393853e-001	 2.5780688064e+000
 1.1328464735e+000	 1.7747500271e-001	 2.5813970060e+000
 1.1310149834e+000	 1.8879515820e-001	 2.5844629495e+000
 1.1290639442e+000	 2.0013270926e-001	 2.5869260599e+000
 1.1269925335e+000	 2.1148593245e-001	 2.5884714360e+000
 1.1247999586e+000	 2.2285307722e-001	 2.5888132719e+000
 1.1480107086e+000	 1.1065198348e-001	 2.6275824477e+000
 1.1468711008e+000	 1.2189816563e-001	 2.6249851143e+000
 1.1456167899e+000	 1.3317164474e-001	 2.6239423989e+000
 1.1442467884e+000	 1.4447086103e-001	 2.6240428523e+000
 1.1427601330e+000	 1.5579422477e-001	 2.6248848824e+000
 1.1411558857e+000	 1.6714011664e-001	 2.6260797575e+000
 1.1394331348e+000	 1.7850688811e-001	 2.6272547353e+000
 1.1375909960e+000	 1.8989286191e-001	 2.6280563065e+000
 1.1356286130e+000	 2.0129633241e-001	 2.6281535395e+000
 1.1335451585e+000	 2.1271556617e-001	 2.6272415110e+000
 1.1313398354e+000	 2.2414880244e-001	 2.6250448070e+000
 1.1546469539e+000	 1.1129162360e-001	 2.6820635690e+000
 1.1535007584e+000	 1.2260281596e-001	 2.6780650670e+000
 1.1522391968e+000	 1.3394146308e-001	 2.6754688728e+000
 1.1508612758e+000	 1.4530599615e-001	 2.6738724486e+000
 1.1493660265e+000	 1.5669481627e-001	 2.6728830492e+000
 1.1477525056e+000	 1.6810629474e-001	 2.6721207863e+000
 1.1460197962e+000	 1.7953877352e-001	 2.6712218237e+000
 1.1441670086e+000	 1.9099056561e-001	 2.6698416932e+000
 1.1421932817e+000	 2.0245995555e-001	 2.6676587143e+000
 1.1400977835e+000	 2.1394519988e-001	 2.6643775060e+000
 1.1378797123e+000	 2.2544452766e-001	 2.6597325717e+000
 1.1612831992e+000	 1.1193126372e-001	 2.7341190971e+000
 1.1601304160e+000	 1.2330746629e-001	 2.7287803514e+000
 1.1588616036e+000	 1.3471128142e-001	 2.7246962680e+000
 1.1574757631e+000	 1.4614113128e-001	 2.7214730496e+000
 1.1559719200e+000	 1.5759540777e-001	 2.7187265750e+000
 1.1543491256e+000	 1.6907247284e-001	 2.7160855258e+000
 1.1526064575e+000	 1.8057065892e-001	 2.7131946505e+000
 1.1507430212e+000	 1.9208826932e-001	 2.7097181527e+000
 1.1487579505e+000	 2.0362357870e-001	 2.7053431900e+000
 1.1466504085e+000	 2.1517483360e-001	 2.6997834681e+000
 1.1444195891e+000	 2.2674025289e-001	 2.6927829123e+000
 1.1679194445e+000	 1.1257090384e-001	 2.7836303181e+000
 1.1667600736e+000	 1.2401211663e-001	 2.7770149780e+000
 1.1654840105e+000	 1.3548109976e-001	 2.7715113375e+000
 1.1640902505e+000	 1.4697626641e-001	 2.7667341534e+000
 1.1625778136e+000	 1.5849599928e-001	 2.7623076890e+000
 1.1609457455e+000	 1.7003865095e-001	 2.7578689056e+000
 1.1591931188e+000	 1.8160254433e-001	 2.7530707958e+000
 1.1573190338e+000	 1.9318597302e-001	 2.7475858476e+000
 1.1553226192e+000	 2.0478720185e-001	 2.7411096238e+000
 1.1532030336e+000	 2.1640446731e-001	 2.7333644408e+000
 1.1509594659e+000	 2.2803597811e-001	 2.7241031297e+000
 1.1745556897e+000	 1.1321054396e-001	 2.8304804354e+000
 1.1733897311e+000	 1.2471676696e-001	 2.8226547108e+000
 1.1721064174e+000	 1.3625091810e-001	 2.8158024391e+000
 1.1707047379e+000	 1.4781140154e-001	 2.8095467290e+000
 1.1691837071e+000	 1.5939659078e-001	 2.8035199723e+000
 1.1675423655e+000	 1.7100482905e-001	 2.7973671015e+000
 1.1657797802e+000	 1.8263442973e-001	 2.7907489951e+000
 1.1638950464e+000	 1.9428367673e-001	 2.7833460185e+000
 1.1618872879e+000	 2.0595082500e-001	 2.7748616864e+000
 1.1597556586e+000	 2.1763410102e-001	 2.7650264295e+000
 1.1574993428e+000	 2.2933170333e-001	 2.7536014476e+000
 1.1811919350e+000	 1.1385018407e-001	 2.8745544997e+000
 1.1800193887e+000	 1.2542141729e-001	 2.8655870022e+000
 1.1787288242e+000	 1.3702073644e-001	 2.8574594749e+000
 1.1773192253e+000	 1.4864653667e-001	 2.8498031600e+000
 1.1757896007e+000	 1.6029718228e-001	 2.8422583051e+000
 1.1741389854e+000	 1.7197100716e-001	 2.8344774880e+000
 1.1723664415e+000	 1.8366631513e-001	 2.8261290953e+000
 1.1704710589e+000	 1.9538138043e-001	 2.8169009433e+000
 1.1684519567e+000	 2.0711444815e-001	 2.8065040253e+000
 1.1663082836e+000	 2.1886373474e-001	 2.7946763686e+000
 1.1640392196e+000	 2.3062742856e-001	 2.7811869828e+000
 1.1878281803e+000	 1.1448982419e-001	 2.9157393415e+000
 1.1866490463e+000	 1.2612606762e-001	 2.9057009298e+000
 1.1853512311e+000	 1.3779055479e-001	 2.8963738324e+000
 1.1839337126e+000	 1.4948167180e-001	 2.8873971905e+000
 1.1823954942e+000	 1.6119777378e-001	 2.8784188175e+000
 1.1807356054e+000	 1.7293718526e-001	 2.8690985919e+000
 1.1789531029e+000	 1.8469820054e-001	 2.8591120123e+000
 1.1770470715e+000	 1.9647908414e-001	 2.8481538991e+000
 1.1750166254e+000	 2.0827807130e-001	 2.8359422300e+000
 1.1728609086e+000	 2.2009336845e-001	 2.8222220898e+000
 1.1705790964e+000	 2.3192315378e-001	 2.8067697167e+000
 1.1944644255e+000	 1.1512946431e-001	 2.9539235058e+000
 1.1932787039e+000	 1.2683071795e-001	 2.9428871360e+000
 1.1919736380e+000	 1.3856037313e-001	 2.9324383283e+000
 1.1905482000e+000	 1.5031680692e-001	 2.9222238727e+000
 1.1890013878e+000	 1.6209836528e-001	 2.9118988406e+000
 1.1873322253e+000	 1.7390336337e-001	 2.9011300486e+000
 1.1855397642e+000	 1.8573008594e-001	 2.8895996909e+000
 1.1836230841e+000	 1.9757678784e-001	 2.8770091254e+000
 1.1815812942e+000	 2.0944169444e-001	 2.8630827986e+000
 1.1794135337e+000	 2.2132300216e-001	 2.8475722919e+000
 1.1771189732e+000	 2.3321887900e-001	 2.8302604690e+000
 1.1117202050e+000	 2.2026162677e-001	 2.5120984772e+000
 1.1094322663e+000	 2.3151027929e-001	 2.5173600355e+000
 1.1070230625e+000	 2.4276915293e-001	 2.5229001681e+000
 1.1044919048e+000	 2.5403643688e-001	 2.5285868198e+000
 1.1018381374e+000	 2.6531029577e-001	 2.5343273781e+000
 1.0990611389e+000	 2.7658887040e-001	 2.5400718561e+000
 1.0961603222e+000	 2.8787027840e-001	 2.5458160211e+000
 1.0931351363e+000	 2.9915261501e-001	 2.5516044482e+000
 1.0899850663e+000	 3.1043395382e-001	 2.5575334744e+000
 1.0867096348e+000	 3.2171234759e-001	 2.5637540311e+000
 1.0833084025e+000	 3.3298582908e-001	 2.5704743294e+000
 1.1182600818e+000	 2.2155735200e-001	 2.5511326075e+000
 1.1159586840e+000	 2.3287217656e-001	 2.5535904943e+000
 1.1135353076e+000	 2.4419728238e-001	 2.5562206735e+000
 1.1109892599e+000	 2.5553084797e-001	 2.5588884243e+000
 1.1083198814e+000	 2.6687102719e-001	 2.5614987816e+000
 1.1055265467e+000	 2.7821594989e-001	 2.5639998193e+000
 1.1026086655e+000	 2.8956372263e-001	 2.5663858800e+000
 1.0995656834e+000	 3.0091242944e-001	 2.5687007301e+000
 1.0963970826e+000	 3.1226013258e-001	 2.5710406154e+000
 1.0931023828e+000	 3.2360487335e-001	 2.5735571921e+000
 1.0896811422e+000	 3.3494467295e-001	 2.5764603105e+000
 1.1247999586e+000	 2.2285307722e-001	 2.5888132719e+000
 1.1224851016e+000	 2.3423407383e-001	 2.5885528381e+000
 1.1200475527e+000	 2.4562541182e-001	 2.5883567502e+000
 1.1174866151e+000	 2.5702525906e-001	 2.5880889680e+000
 1.1148016253e+000	 2.6843175861e-001	 2.5876535207e+000
 1.1119919545e+000	 2.7984302938e-001	 2.5869978910e+000
 1.1090570087e+000	 2.9125716686e-001	 2.5861163474e+000
 1.1059962305e+000	 3.0267224387e-001	 2.5850532013e+000
 1.1028090989e+000	 3.1408631134e-001	 2.5839059642e+000
 1.0994951309e+000	 3.2549739911e-001	 2.5828283792e+000
 1.0960538819e+000	 3.3690351682e-001	 2.5820333026e+000
 1.1313398354e+000	 2.2414880244e-001	 2.6250448070e+000
 1.1290115193e+000	 2.3559597110e-001	 2.6221536918e+000
 1.1265597979e+000	 2.4705354126e-001	 2.6192172443e+000
 1.1239839703e+000	 2.5851967016e-001	 2.6160993982e+000
 1.1212833693e+000	 2.6999249003e-001	 2.6127044708e+000
 1.1184573623e+000	 2.8147010887e-001	 2.6089806484e+000
 1.1155053520e+000	 2.9295061108e-001	 2.6049234221e+000
 1.1124267776e+000	 3.0443205829e-001	 2.6005789478e+000
 1.1092211152e+000	 3.1591249009e-001	 2.5960473060e+000
 1.1058878789e+000	 3.2738992488e-001	 2.5914856349e+000
 1.1024266217e+000	 3.3886236069e-001	 2.5871111103e+000
 1.1378797123e+000	 2.2544452766e-001	 2.6597325717e+000
 1.1355379369e+000	 2.3695786837e-001	 2.6543006640e+000
 1.1330720430e+000	 2.4848167071e-001	 2.6487119559e+000
 1.1304813254e+000	 2.6001408125e-001	 2.6428315965e+000
 1.1277651132e+000	 2.7155322145e-001	 2.6365654312e+000
 1.1249227701e+000	 2.8309718836e-001	 2.6298635917e+000
 1.1219536953e+000	 2.9464405531e-001	 2.6227240347e+000
 1.1188573247e+000	 3.0619187272e-001	 2.6151960068e+000
 1.1156331315e+000	 3.1773866885e-001	 2.6073834074e+000
 1.1122806270e+000	 3.2928245064e-001	 2.5994480243e+000
 1.1087993614e+000	 3.4082120455e-001	 2.5916126134e+000
 1.1444195891e+000	 2.2674025289e-001	 2.6927829123e+000
 1.1420643546e+000	 2.3831976564e-001	 2.6849023158e+000
 1.1395842881e+000	 2.4990980015e-001	 2.6767516117e+000
 1.1369786806e+000	 2.6150849234e-001	 2.6681983530e+000
 1.1342468572e+000	 2.7311395288e-001	 2.6591511018e+000
 1.1313881778e+000	 2.8472426785e-001	 2.6495631235e+000
 1.1284020385e+000	 2.9633749954e-001	 2.6394360303e+000
 1.1252878718e+000	 3.0795168715e-001	 2.6288233519e+000
 1.1220451478e+000	 3.1956484760e-001	 2.6178340032e+000
 1.1186733750e+000	 3.3117497640e-001	 2.6066356231e+000
 1.1151721011e+000	 3.4278004842e-001	 2.5954577556e+000
 1.1509594659e+000	 2.2803597811e-001	 2.7241031297e+000
 1.1485907722e+000	 2.3968166291e-001	 2.7138681308e+000
 1.1460965332e+000	 2.5133792960e-001	 2.7032478374e+000
 1.1434760358e+000	 2.6300290344e-001	 2.6921133433e+000
 1.1407286011e+000	 2.7467468430e-001	 2.6803770631e+000
 1.1378535856e+000	 2.8635134734e-001	 2.6679965312e+000
 1.1348503818e+000	 2.9803094376e-001	 2.6549781524e+000
 1.1317184189e+000	 3.0971150157e-001	 2.6413808790e+000
 1.1284571641e+000	 3.2139102636e-001	 2.6273197846e+000
 1.1250661231e+000	 3.3306750216e-001	 2.6129695079e+000
 1.1215448409e+000	 3.4473889229e-001	 2.5985675358e+000
 1.1574993428e+000	 2.2933170333e-001	 2.7536014476e+000
 1.1551171899e+000	 2.4104356018e-001	 2.7411084868e+000
 1.1526087783e+000	 2.5276605904e-001	 2.7281131329e+000
 1.1499733909e+000	 2.6449731453e-001	 2.7144911057e+000
 1.1472103450e+000	 2.7623541572e-001	 2.7001597559e+000
 1.1443189934e+000	 2.8797842683e-001	 2.6850819698e+000
 1.1412987251e+000	 2.9972438799e-001	 2.6692700288e+000
 1.1381489660e+000	 3.1147131600e-001	 2.6527893942e+000
 1.1348691804e+000	 3.2321720512e-001	 2.6357623887e+000
 1.1314588711e+000	 3.3496002792e-001	 2.6183717467e+000
 1.1279175806e+000	 3.4669773616e-001	 2.6008640009e+000
 1.1640392196e+000	 2.3062742856e-001	 2.7811869828e+000
 1.1616436076e+000	 2.4240545745e-001	 2.7665346292e+000
 1.1591210234e+000	 2.5419418849e-001	 2.7512608486e+000
 1.1564707461e+000	 2.6599172563e-001	 2.7352470208e+000
 1.1536920890e+000	 2.7779614714e-001	 2.7184164637e+000
 1.1507844012e+000	 2.8960550632e-001	 2.7007384463e+000
 1.1477470683e+000	 3.0141783222e-001	 2.6822321579e+000
 1.1445795131e+000	 3.1323113042e-001	 2.6629706023e+000
 1.1412811967e+000	 3.2504338387e-001	 2.6430843892e+000
 1.1378516191e+000	 3.3685255368e-001	 2.6227653917e+000
 1.1342903203e+000	 3.4865658003e-001	 2.6022702386e+000
 1.1705790964e+000	 2.3192315378e-001	 2.8067697167e+000
 1.1681700252e+000	 2.4376735472e-001	 2.7900586456e+000
 1.1656332686e+000	 2.5562231793e-001	 2.7726051630e+000
 1.1629681013e+000	 2.6748613672e-001	 2.7542972917e+000
 1.1601738329e+000	 2.7935687856e-001	 2.7350652959e+000
 1.1572498090e+000	 2.9123258581e-001	 2.7148858059e+000
 1.1541954116e+000	 3.0311127645e-001	 2.6937858973e+000
 1.1510100602e+000	 3.1499094485e-001	 2.6718470977e+000
 1.1476932130e+000	 3.2686956263e-001	 2.6492092886e+000
 1.1442443672e+000	 3.3874507944e-001	 2.6260744726e+000
 1.1406630601e+000	 3.5061542390e-001	 2.6027103731e+000
 1.1771189732e+000	 2.3321887900e-001	 2.8302604690e+000
 1.1746964429e+000	 2.4512925199e-001	 2.8115934419e+000
 1.1721455137e+000	 2.5705044737e-001	 2.7920610620e+000
 1.1694654564e+000	 2.6898054781e-001	 2.7715589258e+000
 1.1666555769e+000	 2.8091760998e-001	 2.7500251721e+000
 1.1637152168e+000	 2.9285966530e-001	 2.7274447182e+000
 1.1606437548e+000	 3.0480472067e-001	 2.7038534527e+000
 1.1574406073e+000	 3.1675075928e-001	 2.6793423550e+000
 1.1541052293e+000	 3.2869574138e-001	 2.6540615110e+000
 1.1506371152e+000	 3.4063760520e-001	 2.6282239916e+000
 1.1470357998e+000	 3.5257426777e-001	 2.6021095607e+000
 1.0833084025e+000	 3.3298582908e-001	 2.5704743294e+000
 1.0797809684e+000	 3.4425241174e-001	 2.5761522421e+000
 1.0761269702e+000	 3.5551009013e-001	 2.5792557405e+000
 1.0723460855e+000	 3.6675684127e-001	 2.5800974445e+000
 1.0684380329e+000	 3.7799062577e-001	 2.5790511393e+000
 1.0644025727e+000	 3.8920938882e-001	 2.5765533922e+000
 1.0602395073e+000	 4.0041106122e-001	 2.5731048880e+000
 1.0559486821e+000	 4.1159356035e-001	 2.5692714596e+000
 1.0515299862e+000	 4.2275479134e-001	 2.5656847944e+000
 1.0469833524e+000	 4.3389264804e-001	 2.5630427932e+000
 1.0423087583e+000	 4.4500501426e-001	 2.5621095657e+000
 1.0896811422e+000	 3.3494467295e-001	 2.5764603105e+000
 1.0861329574e+000	 3.4627753314e-001	 2.5781780052e+000
 1.0824574640e+000	 3.5760143667e-001	 2.5771693344e+000
 1.0786543376e+000	 3.6891434867e-001	 2.5737822123e+000
 1.0747232952e+000	 3.8021421775e-001	 2.5684277844e+000
 1.0706640957e+000	 3.9149897702e-001	 2.5615820802e+000
 1.0664765404e+000	 4.0276654510e-001	 2.5537873740e+000
 1.0621604738e+000	 4.1401482712e-001	 2.5456532316e+000
 1.0577157842e+000	 4.2524171588e-001	 2.5378572212e+000
 1.0531424041e+000	 4.3644509286e-001	 2.5311452653e+000
 1.0484403108e+000	 4.4762282940e-001	 2.5263316163e+000
 1.0960538819e+000	 3.3690351682e-001	 2.5820333026e+000
 1.0924849464e+000	 3.4830265453e-001	 2.5799234310e+000
 1.0887879577e+000	 3.5969278321e-001	 2.5749503218e+000
 1.0849625897e+000	 3.7107185607e-001	 2.5674939060e+000
 1.0810085576e+000	 3.8243780973e-001	 2.5579993991e+000
 1.0769256188e+000	 3.9378856522e-001	 2.5469789966e+000
 1.0727135736e+000	 4.0512202897e-001	 2.5350132680e+000
 1.0683722655e+000	 4.1643609389e-001	 2.5227522269e+000
 1.0639015822e+000	 4.2772864042e-001	 2.5109160539e+000
 1.0593014557e+000	 4.3899753768e-001	 2.5002954491e+000
 1.0545718634e+000	 4.5024064453e-001	 2.4917515948e+000
 1.1024266217e+000	 3.3886236069e-001	 2.5871111103e+000
 1.0988369354e+000	 3.5032777592e-001	 2.5813056125e+000
 1.0951184515e+000	 3.6178412974e-001	 2.5725146840e+000
 1.0912708418e+000	 3.7322936346e-001	 2.5611470262e+000
 1.0872938199e+000	 3.8466140171e-001	 2.5476786659e+000
 1.0831871419e+000	 3.9607815342e-001	 2.5326547011e+000
 1.0789506068e+000	 4.0747751285e-001	 2.5166907366e+000
 1.0745840572e+000	 4.1885736066e-001	 2.5004739851e+000
 1.0700873801e+000	 4.3021556496e-001	 2.4847640089e+000
 1.0654605074e+000	 4.4154998249e-001	 2.4703930810e+000
 1.0607034160e+000	 4.5285845967e-001	 2.4582661420e+000
 1.1087993614e+000	 3.4082120455e-001	 2.5916126134e+000
 1.1051889245e+000	 3.5235289732e-001	 2.5822427786e+000
 1.1014489453e+000	 3.6387547628e-001	 2.5697796076e+000
 1.0975790939e+000	 3.7538687086e-001	 2.5546573533e+000
 1.0935790823e+000	 3.8688499370e-001	 2.5373796250e+000
 1.0894486650e+000	 3.9836774162e-001	 2.5185211914e+000
 1.0851876399e+000	 4.0983299673e-001	 2.4987294657e+000
 1.0807958489e+000	 4.2127862742e-001	 2.4787256450e+000
 1.0762731781e+000	 4.3270248951e-001	 2.4593054794e+000
 1.0716195590e+000	 4.4410242731e-001	 2.4413396476e+000
 1.0668349686e+000	 4.5547627480e-001	 2.4257737166e+000
 1.1151721011e+000	 3.4278004842e-001	 2.5954577556e+000
 1.1115409135e+000	 3.5437801871e-001	 2.5826542858e+000
 1.1077794391e+000	 3.6596682281e-001	 2.5666634759e+000
 1.1038873460e+000	 3.7754437826e-001	 2.5479419392e+000
 1.0998643446e+000	 3.8910858568e-001	 2.5270176667e+000
 1.0957101881e+000	 4.0065732982e-001	 2.5044918958e+000
 1.0914246731e+000	 4.1218848061e-001	 2.4810406527e+000
 1.0870076406e+000	 4.2369989419e-001	 2.4574159371e+000
 1.0824589761e+000	 4.3518941405e-001	 2.4344465271e+000
 1.0777786107e+000	 4.4665487212e-001	 2.4130383768e+000
 1.0729665212e+000	 4.5809408994e-001	 2.3941745857e+000
 1.1215448409e+000	 3.4473889229e-001	 2.5985675358e+000
 1.1178929025e+000	 3.5640314010e-001	 2.5824606093e+000
 1.1141099328e+000	 3.6805816935e-001	 2.5630858615e+000
 1.1101955981e+000	 3.7970188566e-001	 2.5409191004e+000
 1.1061496069e+000	 3.9133217766e-001	 2.5165095246e+000
 1.1019717111e+000	 4.0294691802e-001	 2.4904816668e+000
 1.0976617063e+000	 4.1454396448e-001	 2.4635369999e+000
 1.0932194322e+000	 4.2612116095e-001	 2.4364551765e+000
 1.0886447741e+000	 4.3767633859e-001	 2.4100948756e+000
 1.0839376623e+000	 4.4920731694e-001	 2.3853942312e+000
 1.0790980738e+000	 4.6071190508e-001	 2.3633708180e+000
 1.1279175806e+000	 3.4669773616e-001	 2.6008640009e+000
 1.1242448915e+000	 3.5842826149e-001	 2.5815833369e+000
 1.1204404266e+000	 3.7014951588e-001	 2.5589675206e+000
 1.1165038502e+000	 3.8185939305e-001	 2.5335084127e+000
 1.1124348693e+000	 3.9355576964e-001	 2.5057732709e+000
 1.1082332342e+000	 4.0523650622e-001	 2.4764067759e+000
 1.1038987394e+000	 4.1689944836e-001	 2.4461327099e+000
 1.0994312239e+000	 4.2854242772e-001	 2.4157552580e+000
 1.0948305720e+000	 4.4016326313e-001	 2.3861599051e+000
 1.0900967140e+000	 4.5175976175e-001	 2.3583139024e+000
 1.0852296264e+000	 4.6332972021e-001	 2.3332662776e+000
 1.1342903203e+000	 3.4865658003e-001	 2.6022702386e+000
 1.1305968806e+000	 3.6045338289e-001	 2.5799451631e+000
 1.1267709204e+000	 3.7224086242e-001	 2.5542303882e+000
 1.1228121023e+000	 3.8401690045e-001	 2.5256307072e+000
 1.1187201316e+000	 3.9577936162e-001	 2.4947283122e+000
 1.1144947573e+000	 4.0752609441e-001	 2.4621849104e+000
 1.1101357726e+000	 4.1925493224e-001	 2.4287434822e+000
 1.1056430156e+000	 4.3096369449e-001	 2.3952296531e+000
 1.1010163700e+000	 4.4265018767e-001	 2.3625526489e+000
 1.0962557657e+000	 4.5431220657e-001	 2.3317058075e+000
 1.0913611790e+000	 4.6594753535e-001	 2.3037666210e+000
 1.1406630601e+000	 3.5061542390e-001	 2.6027103731e+000
 1.1369488696e+000	 3.6247850428e-001	 2.5774698857e+000
 1.1331014142e+000	 3.7433220896e-001	 2.5487975746e+000
 1.1291203544e+000	 3.8617440785e-001	 2.5172080673e+000
 1.1250053940e+000	 3.9800295360e-001	 2.4832953878e+000
 1.1207562804e+000	 4.0981568261e-001	 2.4477351713e+000
 1.1163728057e+000	 4.2161041612e-001	 2.4112865110e+000
 1.1118548073e+000	 4.3338496125e-001	 2.3747934077e+000
 1.1072021680e+000	 4.4513711222e-001	 2.3391857916e+000
 1.1024148173e+000	 4.5686465138e-001	 2.3054800869e+000
 1.0974927315e+000	 4.6856535048e-001	 2.2747792938e+000
 1.1470357998e+000	 3.5257426777e-001	 2.6021095607e+000
 1.1433008586e+000	 3.6450362567e-001	 2.5740824022e+000
 1.1394319079e+000	 3.7642355549e-001	 2.5425933638e+000
 1.1354286065e+000	 3.8833191525e-001	 2.5081638276e+000
 1.1312906563e+000	 4.0022654558e-001	 2.4713965680e+000
 1.1270178035e+000	 4.1210527081e-001	 2.4329780723e+000
 1.1226098389e+000	 4.2396589999e-001	 2.3936804846e+000
 1.1180665990e+000	 4.3580622802e-001	 2.3543631416e+000
 1.1133879660e+000	 4.4762403676e-001	 2.3159736682e+000
 1.1085738690e+000	 4.5941709620e-001	 2.2795486038e+000
 1.1036242841e+000	 4.7118316562e-001	 2.2462135309e+000
 1.0423087583e+000	 4.4500501426e-001	 2.5621095657e+000
 1.0375069564e+000	 4.5608810444e-001	 2.5598994851e+000
 1.0325773241e+000	 4.6714145575e-001	 2.5532808335e+000
 1.0275199761e+000	 4.7816293016e-001	 2.5428847698e+000
 1.0223350735e+000	 4.8915038420e-001	 2.5293903412e+000
 1.0170228241e+000	 5.0010167025e-001	 2.5135226581e+000
 1.0115834827e+000	 5.1101463777e-001	 2.4960506603e+000
 1.0060173511e+000	 5.2188713452e-001	 2.4777844683e+000
 1.0003247790e+000	 5.3271700786e-001	 2.4595723194e+000
 9.9450616332e-001	 5.4350210603e-001	 2.4422970900e+000
 9.8856194916e-001	 5.5424027942e-001	 2.4268724060e+000
 1.0484403108e+000	 4.4762282940e-001	 2.5263316163e+000
 1.0436102616e+000	 4.5877111767e-001	 2.5203670439e+000
 1.0386516299e+000	 4.6988949215e-001	 2.5100135156e+000
 1.0335645312e+000	 4.8097580219e-001	 2.4958920575e+000
 1.0283491276e+000	 4.9202789173e-001	 2.4786722983e+000
 1.0230056280e+000	 5.0304360053e-001	 2.4590706570e+000
 1.0175342888e+000	 5.1402076537e-001	 2.4378481098e+000
 1.0119354135e+000	 5.2495722137e-001	 2.4158075298e+000
 1.0062093539e+000	 5.3585080322e-001	 2.3937905992e+000
 1.0003565093e+000	 5.4669934650e-001	 2.3726742932e+000
 9.9437732731e-001	 5.5750068896e-001	 2.3533669412e+000
 1.0545718634e+000	 4.5024064453e-001	 2.4917515948e+000
 1.0497135668e+000	 4.6145413091e-001	 2.4821644918e+000
 1.0447259358e+000	 4.7263752854e-001	 2.4681878137e+000
 1.0396090864e+000	 4.8378867421e-001	 2.4504371189e+000
 1.0343631817e+000	 4.9490539926e-001	 2.4295774615e+000
 1.0289884320e+000	 5.0598553080e-001	 2.4063215865e+000
 1.0234850949e+000	 5.1702689297e-001	 2.3814276910e+000
 1.0178534760e+000	 5.2802730822e-001	 2.3556967460e+000
 1.0120939288e+000	 5.3898459858e-001	 2.3299693767e+000
 1.0062068552e+000	 5.4989658697e-001	 2.3051223013e+000
 1.0001927055e+000	 5.6076109850e-001	 2.2820643319e+000
 1.0607034160e+000	 4.5285845967e-001	 2.4582661420e+000
 1.0558168720e+000	 4.6413714414e-001	 2.4451858304e+000
 1.0508002416e+000	 4.7538556493e-001	 2.4276960318e+000
 1.0456536415e+000	 4.8660154624e-001	 2.4064114174e+000
 1.0403772358e+000	 4.9778290680e-001	 2.3819972259e+000
 1.0349712359e+000	 5.0892746107e-001	 2.3551674610e+000
 1.0294359010e+000	 5.2003302057e-001	 2.3266826417e+000
 1.0237715384e+000	 5.3109739506e-001	 2.2973470988e+000
 1.0179785037e+000	 5.4211839393e-001	 2.2680058162e+000
 1.0120572012e+000	 5.5309382744e-001	 2.2395408163e+000
 1.0060080836e+000	 5.6402150804e-001	 2.2128670932e+000
 1.0668349686e+000	 4.5547627480e-001	 2.4257737166e+000
 1.0619201772e+000	 4.6682015738e-001	 2.4093269271e+000
 1.0568745474e+000	 4.7813360132e-001	 2.3884323566e+000
 1.0516981967e+000	 4.8941441827e-001	 2.3637082861e+000
 1.0463912899e+000	 5.0066041433e-001	 2.3358248152e+000
 1.0409540398e+000	 5.1186939134e-001	 2.3055020566e+000
 1.0353867071e+000	 5.2303914816e-001	 2.2735078693e+000
 1.0296896008e+000	 5.3416748191e-001	 2.2406551244e+000
 1.0238630787e+000	 5.4525218929e-001	 2.2077984993e+000
 1.0179075472e+000	 5.5629106791e-001	 2.1758308024e+000
 1.0118234618e+000	 5.6728191759e-001	 2.1456788290e+000
 1.0729665212e+000	 4.5809408994e-001	 2.3941745857e+000
 1.0680234824e+000	 4.6950317062e-001	 2.3744855057e+000
 1.0629488532e+000	 4.8088163772e-001	 2.3502928488e+000
 1.0577427518e+000	 4.9222729030e-001	 2.3222229210e+000
 1.0524053440e+000	 5.0353792186e-001	 2.2909552771e+000
 1.0469368437e+000	 5.1481132162e-001	 2.2572209079e+000
 1.0413375132e+000	 5.2604527576e-001	 2.2217999505e+000
 1.0356076632e+000	 5.3723756876e-001	 2.1855189165e+000
 1.0297476536e+000	 5.4838598465e-001	 2.1492474328e+000
 1.0237578931e+000	 5.5948830838e-001	 2.1138944968e+000
 1.0176388399e+000	 5.7054232713e-001	 2.0804042474e+000
 1.0790980738e+000	 4.6071190508e-001	 2.3633708180e+000
 1.0741267876e+000	 4.7218618385e-001	 2.3405611396e+000
 1.0690231591e+000	 4.8362967411e-001	 2.3131754369e+000
 1.0637873070e+000	 4.9504016232e-001	 2.2818523752e+000
 1.0584193981e+000	 5.0641542939e-001	 2.2472854793e+000
 1.0529196477e+000	 5.1775325189e-001	 2.2102213072e+000
 1.0472883193e+000	 5.2905140336e-001	 2.1714571332e+000
 1.0415257256e+000	 5.4030765560e-001	 2.1318381313e+000
 1.0356322285e+000	 5.5151978001e-001	 2.0922540562e+000
 1.0296082391e+000	 5.6268554885e-001	 2.0536354214e+000
 1.0234542181e+000	 5.7380273667e-001	 2.0169491760e+000
 1.0852296264e+000	 4.6332972021e-001	 2.3332662776e+000
 1.0802300928e+000	 4.7486919709e-001	 2.3074552460e+000
 1.0750974649e+000	 4.8637771050e-001	 2.2769799122e+000
 1.0698318621e+000	 4.9785303435e-001	 2.2424955563e+000
 1.0644334522e+000	 5.0929293692e-001	 2.2047141084e+000
 1.0589024516e+000	 5.2069518216e-001	 2.1644023053e+000
 1.0532391254e+000	 5.3205753096e-001	 2.1223793397e+000
 1.0474437881e+000	 5.4337774245e-001	 2.0795139936e+000
 1.0415168035e+000	 5.5465357536e-001	 2.0367212521e+000
 1.0354585851e+000	 5.6588278932e-001	 1.9949583964e+000
 1.0292695962e+000	 5.7706314621e-001	 1.9552205793e+000
 1.0913611790e+000	 4.6594753535e-001	 2.3037666210e+000
 1.0863333980e+000	 4.7755221032e-001	 2.2750710825e+000
 1.0811717707e+000	 4.8912574689e-001	 2.2416079260e+000
 1.0758764173e+000	 5.0066590637e-001	 2.2040532238e+000
 1.0704475063e+000	 5.1217044445e-001	 2.1631416696e+000
 1.0648852555e+000	 5.2363711243e-001	 2.1196647134e+000
 1.0591899315e+000	 5.3506365855e-001	 2.0744681717e+000
 1.0533618505e+000	 5.4644782930e-001	 2.0284493048e+000
 1.0474013784e+000	 5.5778737072e-001	 1.9825533565e+000
 1.0413089310e+000	 5.6908002979e-001	 1.9377695550e+000
 1.0350849743e+000	 5.8032355574e-001	 1.8951265775e+000
 1.0974927315e+000	 4.6856535048e-001	 2.2747792938e+000
 1.0924367032e+000	 4.8023522356e-001	 2.2433137446e+000
 1.0872460765e+000	 4.9187378328e-001	 2.2069629880e+000
 1.0819209724e+000	 5.0347877840e-001	 2.1664279894e+000
 1.0764615604e+000	 5.1504795198e-001	 2.1224704884e+000
 1.0708680594e+000	 5.2657904270e-001	 2.0759111071e+000
 1.0651407376e+000	 5.3806978615e-001	 2.0276269166e+000
 1.0592799129e+000	 5.4951791614e-001	 1.9785484523e+000
 1.0532859533e+000	 5.6092116608e-001	 1.9296561723e+000
 1.0471592770e+000	 5.7227727026e-001	 1.8819763589e+000
 1.0409003525e+000	 5.8358396528e-001	 1.8365764649e+000
 1.1036242841e+000	 4.7118316562e-001	 2.2462135309e+000
 1.0985400084e+000	 4.8291823679e-001	 2.2120901652e+000
 1.0933203824e+000	 4.9462181967e-001	 2.1729504665e+000
 1.0879655276e+000	 5.0629165043e-001	 2.1295243184e+000
 1.0824756146e+000	 5.1792545951e-001	 2.0826047135e+000
 1.0768508634e+000	 5.2952097297e-001	 2.0330458312e+000
 1.0710915437e+000	 5.4107591374e-001	 1.9817605549e+000
 1.0651979753e+000	 5.5258800299e-001	 1.9297174194e+000
 1.0591705282e+000	 5.6405496143e-001	 1.8779369816e+000
 1.0530096230e+000	 5.7547451073e-001	 1.8274876156e+000
 1.0467157306e+000	 5.8684437482e-001	 1.7794807312e+000
 9.8856194916e-001	 5.5424027942e-001	 2.4268724060e+000
 9.8249170971e-001	 5.6493098176e-001	 2.4079931691e+000
 9.7629686910e-001	 5.7557045681e-001	 2.3807926572e+000
 9.6997801739e-001	 5.8615656903e-001	 2.3468616109e+000
 9.6353579266e-001	 5.9668719035e-001	 2.3077924425e+000
 9.5697088101e-001	 6.0716020150e-001	 2.2651720303e+000
 9.5028401640e-001	 6.1757349335e-001	 2.2205741992e+000
 9.4347598055e-001	 6.2792496822e-001	 2.1755519165e+000
 9.3654760272e-001	 6.3821254128e-001	 2.1316292345e+000
 9.2949975947e-001	 6.4843414180e-001	 2.0902930150e+000
 9.2233337440e-001	 6.5858771454e-001	 2.0529844732e+000
 9.9437732731e-001	 5.5750068896e-001	 2.3533669412e+000
 9.8827137867e-001	 5.6825428112e-001	 2.3304809232e+000
 9.8204009590e-001	 5.7895634463e-001	 2.2991636996e+000
 9.7568407250e-001	 5.8960473139e-001	 2.2611460506e+000
 9.6920395033e-001	 6.0019730082e-001	 2.2181623036e+000
 9.6260041950e-001	 6.1073192118e-001	 2.1719427540e+000
 9.5587421832e-001	 6.2120647093e-001	 2.1242057549e+000
 9.4902613308e-001	 6.3161884006e-001	 2.0766495060e+000
 9.4205699792e-001	 6.4196693145e-001	 2.0309435741e+000
 9.3496769457e-001	 6.5224866222e-001	 1.9887201812e+000
 9.2775915207e-001	 6.6246196502e-001	 1.9515652997e+000
 1.0001927055e+000	 5.6076109850e-001	 2.2820643319e+000
 9.9405104764e-001	 5.7157758047e-001	 2.2553366301e+000
 9.8778332269e-001	 5.8234223244e-001	 2.2201053776e+000
 9.8139012761e-001	 5.9305289375e-001	 2.1782370734e+000
 9.7487210800e-001	 6.0370741130e-001	 2.1316034859e+000
 9.6822995800e-001	 6.1430364087e-001	 2.0820737033e+000
 9.6146442023e-001	 6.2483944851e-001	 2.0315058343e+000
 9.5457628560e-001	 6.3531271189e-001	 1.9817383927e+000
 9.4756639312e-001	 6.4572132163e-001	 1.9345813971e+000
 9.4043562968e-001	 6.5606318264e-001	 1.8918072256e+000
 9.3318492974e-001	 6.6633621550e-001	 1.8551412646e+000
 1.0060080836e+000	 5.6402150804e-001	 2.2128670932e+000
 9.9983071661e-001	 5.7490087983e-001	 2.1824644686e+000
 9.9352654949e-001	 5.8572812026e-001	 2.1435210759e+000
 9.8709618273e-001	 5.9650105611e-001	 2.0980349091e+000
 9.8054026567e-001	 6.0721752177e-001	 2.0480108061e+000
 9.7385949650e-001	 6.1787536055e-001	 1.9954521290e+000
 9.6705462215e-001	 6.2847242609e-001	 1.9423520797e+000
 9.6012643813e-001	 6.3900658373e-001	 1.8906846809e+000
 9.5307578833e-001	 6.4947571180e-001	 1.8423954584e+000
 9.4590356479e-001	 6.5987770305e-001	 1.7993918635e+000
 9.3861070742e-001	 6.7021046598e-001	 1.7626776193e+000
 1.0118234618e+000	 5.6728191759e-001	 2.1456788290e+000
 1.0056103856e+000	 5.7822417918e-001	 2.1117695489e+000
 9.9926977629e-001	 5.8911400807e-001	 2.0693149985e+000
 9.9280223784e-001	 5.9994921848e-001	 2.0204405394e+000
 9.8620842333e-001	 6.1072763224e-001	 1.9672798063e+000
 9.7948903500e-001	 6.2144708023e-001	 1.9119660211e+000
 9.7264482407e-001	 6.3210540367e-001	 1.8566229240e+000
 9.6567659066e-001	 6.4270045556e-001	 1.8033553535e+000
 9.5858518354e-001	 6.5323010197e-001	 1.7542395133e+000
 9.5137149990e-001	 6.6369222347e-001	 1.7113129639e+000
 9.4403648509e-001	 6.7408471646e-001	 1.6728153273e+000
 1.0176388399e+000	 5.7054232713e-001	 2.0804042474e+000
 1.0113900545e+000	 5.8154747854e-001	 2.0431579304e+000
 1.0050130031e+000	 5.9249989589e-001	 1.9973921887e+000
 9.9850829296e-001	 6.0339738084e-001	 1.9453557173e+000
 9.9187658100e-001	 6.1423774271e-001	 1.8893067730e+000
 9.8511857349e-001	 6.2501879991e-001	 1.8315041252e+000
 9.7823502598e-001	 6.3573838125e-001	 1.7741976033e+000
 9.7122674318e-001	 6.4639432739e-001	 1.7196182790e+000
 9.6409457874e-001	 6.5698449214e-001	 1.6699683175e+000
 9.5683943501e-001	 6.6750674389e-001	 1.6273672315e+000
 9.4946226276e-001	 6.7795896694e-001	 1.5854295871e+000
 1.0234542181e+000	 5.7380273667e-001	 2.0169491760e+000
 1.0171697235e+000	 5.8487077789e-001	 1.9765366416e+000
 1.0107562299e+000	 5.9588578370e-001	 1.9276585505e+000
 1.0042143481e+000	 6.0684554319e-001	 1.8726829885e+000
 9.9754473867e-001	 6.1774785318e-001	 1.8139887567e+000
 9.9074811199e-001	 6.2859051959e-001	 1.7539559592e+000
 9.8382522790e-001	 6.3937135883e-001	 1.6949561703e+000
 9.7677689571e-001	 6.5008819922e-001	 1.6393422193e+000
 9.6960397395e-001	 6.6073888231e-001	 1.5894376293e+000
 9.6230737012e-001	 6.7132126430e-001	 1.5461278757e+000
 9.5488804043e-001	 6.8183321741e-001	 1.5004094743e+000
 1.0292695962e+000	 5.7706314621e-001	 1.9552205793e+000
 1.0229493925e+000	 5.8819407724e-001	 1.9118136999e+000
 1.0164994567e+000	 5.9927167152e-001	 1.8600208699e+000
 1.0099204032e+000	 6.1029370555e-001	 1.8023257138e+000
 1.0032128963e+000	 6.2125796365e-001	 1.7412235931e+000
 9.9637765049e-001	 6.3216223926e-001	 1.6792118324e+000
 9.8941542982e-001	 6.4300433641e-001	 1.6187795089e+000
 9.8232704824e-001	 6.5378207106e-001	 1.5623968403e+000
 9.7511336915e-001	 6.6449327248e-001	 1.5125042130e+000
 9.6777530523e-001	 6.7513578472e-001	 1.4668975039e+000
 9.6031381810e-001	 6.8570746789e-001	 1.4176487166e+000
 1.0350849743e+000	 5.8032355574e-001	 1.8951265775e+000
 1.0287290614e+000	 5.9151737660e-001	 1.8488981329e+000
 1.0222426835e+000	 6.0265755933e-001	 1.7943868381e+000
 1.0156264583e+000	 6.1374186791e-001	 1.7341880920e+000
 1.0088810540e+000	 6.2476807412e-001	 1.6709099250e+000
 1.0020071890e+000	 6.3573395894e-001	 1.6071628650e+000
 9.9500563174e-001	 6.4663731399e-001	 1.5455493501e+000
 9.8787720077e-001	 6.5747594289e-001	 1.4886527220e+000
 9.8062276436e-001	 6.6824766265e-001	 1.4388770984e+000
 9.7324324034e-001	 6.7895030513e-001	 1.3895860914e+000
 9.6573959577e-001	 6.8958171836e-001	 1.3370455893e+000
 1.0409003525e+000	 5.8358396528e-001	 1.8365764649e+000
 1.0345087304e+000	 5.9484067595e-001	 1.7877000013e+000
 1.0279859103e+000	 6.0604344714e-001	 1.7306650754e+000
 1.0213325134e+000	 6.1719003027e-001	 1.6681751839e+000
 1.0145492117e+000	 6.2827818459e-001	 1.6029472252e+000
 1.0076367275e+000	 6.3930567862e-001	 1.5377010083e+000
 1.0005958337e+000	 6.5027029157e-001	 1.4751482891e+000
 9.9342735329e-001	 6.6116981472e-001	 1.4179813714e+000
 9.8613215956e-001	 6.7200205282e-001	 1.3671423167e+000
 9.7871117545e-001	 6.8276482555e-001	 1.3141078245e+000
 9.7116537344e-001	 6.9345596884e-001	 1.2585028130e+000
 1.0467157306e+000	 5.8684437482e-001	 1.7794807312e+000
 1.0402883994e+000	 5.9816397530e-001	 1.7281304211e+000
 1.0337291371e+000	 6.0942933496e-001	 1.6687651557e+000
 1.0270385685e+000	 6.2063819263e-001	 1.6041929372e+000
 1.0202173693e+000	 6.3178829505e-001	 1.5372358204e+000
 1.0132662660e+000	 6.4287739830e-001	 1.4707190663e+000
 1.0061860356e+000	 6.5390326915e-001	 1.4074598032e+000
 9.9897750582e-001	 6.6486368655e-001	 1.3502552359e+000
 9.9164155477e-001	 6.7575644299e-001	 1.2969237227e+000
 9.8417911056e-001	 6.8657934596e-001	 1.2403810065e+000
 9.7659115111e-001	 6.9733021931e-001	 1.1819274526e+000
 9.2233337440e-001	 6.5858771454e-001	 2.0529844732e+000
 9.1504941758e-001	 6.6867122085e-001	 2.0206261919e+000
 9.0764890433e-001	 6.7868263924e-001	 1.9846577183e+000
 9.0013289570e-001	 6.8861996742e-001	 1.9411912827e+000
 8.9250249820e-001	 6.9848122376e-001	 1.8910047919e+000
 8.8475886334e-001	 7.0826444858e-001	 1.8348611800e+000
 8.7690318707e-001	 7.1796770543e-001	 1.7735072588e+000
 8.6893670921e-001	 7.2758908236e-001	 1.7076726773e+000
 8.6086071280e-001	 7.3712669311e-001	 1.6380689903e+000
 8.5267652345e-001	 7.4657867838e-001	 1.5653888303e+000
 8.4438550863e-001	 7.5594320697e-001	 1.4903051802e+000
 9.2775915207e-001	 6.6246196502e-001	 1.9515652997e+000
 9.2043234617e-001	 6.7260478921e-001	 1.9182821363e+000
 9.1298829819e-001	 6.8267510142e-001	 1.8788184966e+000
 9.0542807540e-001	 6.9267088757e-001	 1.8326181092e+000
 8.9775279083e-001	 7.0259015436e-001	 1.7803735889e+000
 8.8996360277e-001	 7.1243093061e-001	 1.7227594797e+000
 8.8206171419e-001	 7.2219126847e-001	 1.6604312622e+000
 8.7404837222e-001	 7.3186924473e-001	 1.5940244785e+000
 8.6592486743e-001	 7.4146296204e-001	 1.5241539751e+000
 8.5769253325e-001	 7.5097055016e-001	 1.4514132582e+000
 8.4935274517e-001	 7.6039016714e-001	 1.3763739572e+000
 9.3318492974e-001	 6.6633621550e-001	 1.8551412646e+000
 9.2581527477e-001	 6.7653835757e-001	 1.8190668195e+000
 9.1832769205e-001	 6.8666756359e-001	 1.7763650604e+000
 9.1072325511e-001	 6.9672180771e-001	 1.7276535243e+000
 9.0300308347e-001	 7.0669908497e-001	 1.6735388503e+000
 8.9516834220e-001	 7.1659741264e-001	 1.6146066968e+000
 8.8722024132e-001	 7.2641483150e-001	 1.5514209068e+000
 8.7916003523e-001	 7.3614940709e-001	 1.4845228032e+000
 8.7098902207e-001	 7.4579923097e-001	 1.4144306091e+000
 8.6270854304e-001	 7.5536242195e-001	 1.3416389894e+000
 8.5431998171e-001	 7.6483712730e-001	 1.2666187084e+000
 9.3861070742e-001	 6.7021046598e-001	 1.7626776193e+000
 9.3119820337e-001	 6.8047192593e-001	 1.7228422245e+000
 9.2366708592e-001	 6.9066002577e-001	 1.6771494239e+000
 9.1601843482e-001	 7.0077272785e-001	 1.6261421080e+000
 9.0825337611e-001	 7.1080801557e-001	 1.5703402700e+000
 9.0037308164e-001	 7.2076389467e-001	 1.5102401947e+000
 8.9237876845e-001	 7.3063839454e-001	 1.4463137877e+000
 8.8427169824e-001	 7.4042956946e-001	 1.3790080436e+000
 8.7605317670e-001	 7.5013549990e-001	 1.3087446468e+000
 8.6772455284e-001	 7.5975429374e-001	 1.2359197032e+000
 8.5928721825e-001	 7.6928408747e-001	 1.1609035944e+000
 9.4403648509e-001	 6.7408471646e-001	 1.6728153273e+000
 9.3658113197e-001	 6.8440549429e-001	 1.6294755731e+000
 9.2900647978e-001	 6.9465248794e-001	 1.5810290435e+000
 9.2131361452e-001	 7.0482364799e-001	 1.5279340285e+000
 9.1350366875e-001	 7.1491694617e-001	 1.4706232163e+000
 9.0557782107e-001	 7.2493037670e-001	 1.4095030397e+000
 8.9753729558e-001	 7.3486195757e-001	 1.3449531730e+000
 8.8938336125e-001	 7.4470973182e-001	 1.2773261757e+000
 8.8111733134e-001	 7.5447176883e-001	 1.2069472784e+000
 8.7274056264e-001	 7.6414616552e-001	 1.1341143074e+000
 8.6425445479e-001	 7.7373104763e-001	 1.0590977382e+000
 9.4946226276e-001	 6.7795896694e-001	 1.5854295871e+000
 9.4196406056e-001	 6.8833906265e-001	 1.5388392079e+000
 9.3434587364e-001	 6.9864495012e-001	 1.4878666936e+000
 9.2660879423e-001	 7.0887456813e-001	 1.4328849127e+000
 9.1875396139e-001	 7.1902587677e-001	 1.3742386010e+000
 9.1078256050e-001	 7.2909685873e-001	 1.3122438695e+000
 9.0269582270e-001	 7.3908552061e-001	 1.2471878726e+000
 8.9449502426e-001	 7.4898989419e-001	 1.1793286310e+000
 8.8618148597e-001	 7.5880803776e-001	 1.1088950065e+000
 8.7775657243e-001	 7.6853803730e-001	 1.0360868216e+000
 8.6922169133e-001	 7.7817800779e-001	 9.6107511636e-001
 9.5488804043e-001	 6.8183321741e-001	 1.5004094743e+000
 9.4734698916e-001	 6.9227263101e-001	 1.4508104761e+000
 9.3968526750e-001	 7.0263741229e-001	 1.3975303449e+000
 9.3190397394e-001	 7.1292548827e-001	 1.3408557208e+000
 9.2400425403e-001	 7.2313480738e-001	 1.2810427513e+000
 9.1598729994e-001	 7.3326334076e-001	 1.2183167642e+000
 9.0785434983e-001	 7.4330908364e-001	 1.1528721107e+000
 8.9960668728e-001	 7.5327005655e-001	 1.0848721720e+000
 8.9124564061e-001	 7.6314430668e-001	 1.0144495254e+000
 8.8277258223e-001	 7.7292990909e-001	 9.4170626265e-001
 8.7418892787e-001	 7.8262496795e-001	 8.6671445344e-001
 9.6031381810e-001	 6.8570746789e-001	 1.4176487166e+000
 9.5272991776e-001	 6.9620619937e-001	 1.3652716156e+000
 9.4502466137e-001	 7.0662987446e-001	 1.3098930447e+000
 9.3719915364e-001	 7.1697640841e-001	 1.2517126229e+000
 9.2925454667e-001	 7.2724373798e-001	 1.1908972841e+000
 9.2119203937e-001	 7.3742982279e-001	 1.1275811200e+000
 9.1301287696e-001	 7.4753264667e-001	 1.0618654009e+000
 9.0471835029e-001	 7.5755021892e-001	 9.9381876983e-001
 8.9630979525e-001	 7.6748057561e-001	 9.2347760361e-001
 8.8778859203e-001	 7.7732178087e-001	 8.5084653352e-001
 8.7915616441e-001	 7.8707192812e-001	 7.7589911757e-001
 9.6573959577e-001	 6.8958171836e-001	 1.3370455893e+000
 9.5811284636e-001	 7.0013976773e-001	 1.2821096437e+000
 9.5036405523e-001	 7.1062233664e-001	 1.2248328006e+000
 9.4249433335e-001	 7.2102732855e-001	 1.1653268785e+000
 9.3450483931e-001	 7.3135266858e-001	 1.1036689837e+000
 9.2639677881e-001	 7.4159630482e-001	 1.0399015263e+000
 9.1817140408e-001	 7.5175620970e-001	 9.7403242367e-001
 9.0983001330e-001	 7.6183038128e-001	 9.0603548442e-001
 9.0137394988e-001	 7.7181684454e-001	 8.3585096850e-001
 8.9280460182e-001	 7.8171365266e-001	 7.6338631344e-001
 8.8412340094e-001	 7.9151888828e-001	 6.8851701862e-001
 9.7116537344e-001	 6.9345596884e-001	 1.2585028130e+000
 9.6349577496e-001	 7.0407333609e-001	 1.2012162481e+000
 9.5570344909e-001	 7.1461479881e-001	 1.1422324657e+000
 9.4778951305e-001	 7.2507824869e-001	 1.0815747182e+000
 9.3975513195e-001	 7.3546159918e-001	 1.0192296809e+000
 9.3160151824e-001	 7.4576278685e-001	 9.5514764496e-001
 9.2332993121e-001	 7.5597977273e-001	 8.8924290706e-001
 9.1494167631e-001	 7.6611054364e-001	 8.2139434776e-001
 9.0643810452e-001	 7.7615311346e-001	 7.5144619325e-001
 8.9782061162e-001	 7.8610552444e-001	 6.7920895079e-001
 8.8909063748e-001	 7.9596584844e-001	 6.0446050824e-001
 9.7659115111e-001	 6.9733021931e-001	 1.1819274526e+000
 9.6887870355e-001	 7.0800690445e-001	 1.1224876793e+000
 9.6104284295e-001	 7.1860726098e-001	 1.0619796266e+000
 9.5308469276e-001	 7.2912916883e-001	 1.0003372284e+000
 9.4500542458e-001	 7.3957052978e-001	 9.3745613583e-001
 9.3680625767e-001	 7.4992926888e-001	 8.7319409166e-001
 9.2848845834e-001	 7.6020333577e-001	 8.0737150919e-001
 9.2005333932e-001	 7.7039070600e-001	 7.3977224905e-001
 9.1150225915e-001	 7.8048938239e-001	 6.7014458624e-001
 9.0283662142e-001	 7.9049739622e-001	 5.9820235799e-001
 8.9405787402e-001	 8.0041280860e-001	 5.2362628170e-001
 8.4438550863e-001	 7.5594320697e-001	 1.4903051802e+000
 8.3599034426e-001	 7.6521709270e-001	 1.4156495839e+000
 8.2749124356e-001	 7.7439997673e-001	 1.3431626929e+000
 8.1888969495e-001	 7.8349012072e-001	 1.2718937794e+000
 8.1018722541e-001	 7.9248581901e-001	 1.2008854424e+000
 8.0138539963e-001	 8.0138539963e-001	 1.1291760951e+000
 7.9248581901e-001	 8.1018722541e-001	 1.0558024812e+000
 7.8349012072e-001	 8.1888969495e-001	 9.7980220807e-001
 7.7439997673e-001	 8.2749124356e-001	 9.0021627990e-001
 7.6521709270e-001	 8.3599034426e-001	 8.1609161827e-001
 7.5594320697e-001	 8.4438550863e-001	 7.2648355371e-001
 8.4935274517e-001	 7.6039016714e-001	 1.3763739572e+000
 8.4090819486e-001	 7.6971860802e-001	 1.3018711492e+000
 8.3235909681e-001	 7.7895551187e-001	 1.2297258288e+000
 8.2370694817e-001	 7.8809913013e-001	 1.1589995934e+000
 8.1495328493e-001	 7.9714774709e-001	 1.0887474451e+000
 8.0609968096e-001	 8.0609968096e-001	 1.0180203014e+000
 7.9714774709e-001	 8.1495328493e-001	 9.4586753681e-001
 7.8809913013e-001	 8.2370694817e-001	 8.7133954108e-001
 7.7895551187e-001	 8.3235909681e-001	 7.9349027756e-001
 7.6971860802e-001	 8.4090819486e-001	 7.1137982824e-001
 7.6039016714e-001	 8.4935274517e-001	 6.2407690917e-001
 8.5431998171e-001	 7.6483712730e-001	 1.2666187084e+000
 8.4582604547e-001	 7.7422012334e-001	 1.1922188430e+000
 8.3722695006e-001	 7.8351104702e-001	 1.1203526175e+000
 8.2852420140e-001	 7.9270813955e-001	 1.0500966783e+000
 8.1971934445e-001	 8.0180967518e-001	 9.8052106006e-001
 8.1081396229e-001	 8.1081396229e-001	 9.1069171811e-001
 8.0180967518e-001	 8.1971934445e-001	 8.3967309149e-001
 7.9270813955e-001	 8.2852420140e-001	 7.6653068354e-001
 7.8351104702e-001	 8.3722695006e-001	 6.9033364332e-001
 7.7422012334e-001	 8.4582604547e-001	 6.1015733281e-001
 7.6483712730e-001	 8.5431998171e-001	 5.2508586407e-001
 8.5928721825e-001	 7.6928408747e-001	 1.1609035944e+000
 8.5074389607e-001	 7.7872163866e-001	 1.0865680262e+000
 8.4209480330e-001	 7.8806658216e-001	 1.0149284797e+000
 8.3334145462e-001	 7.9731714896e-001	 9.4507932776e-001
 8.2448540397e-001	 8.0647160326e-001	 8.7610822321e-001
 8.1552824362e-001	 8.1552824362e-001	 8.0709864816e-001
 8.0647160326e-001	 8.2448540397e-001	 7.3713249690e-001
 7.9731714896e-001	 8.3334145462e-001	 6.6529267607e-001
 7.8806658216e-001	 8.4209480330e-001	 5.9066570652e-001
 7.7872163866e-001	 8.5074389607e-001	 5.1234431065e-001
 7.6928408747e-001	 8.5928721825e-001	 4.2942996931e-001
 8.6425445479e-001	 7.7373104763e-001	 1.0590977382e+000
 8.5566174668e-001	 7.8322315398e-001	 9.8479873881e-001
 8.4696265655e-001	 7.9262211731e-001	 9.1334325765e-001
 8.3815870785e-001	 8.0192615837e-001	 8.4384602698e-001
 8.2925146349e-001	 8.1113353135e-001	 7.7541485836e-001
 8.2024252495e-001	 8.2024252495e-001	 7.0715320705e-001
 8.1113353135e-001	 8.2925146349e-001	 6.3816277110e-001
 8.0192615837e-001	 8.3815870785e-001	 5.6754610907e-001
 7.9262211731e-001	 8.4696265655e-001	 4.9440925989e-001
 7.8322315398e-001	 8.5566174668e-001	 4.1786434839e-001
 7.7373104763e-001	 8.6425445479e-001	 3.3703216000e-001
 8.6922169133e-001	 7.7817800779e-001	 9.6107511636e-001
 8.6057959728e-001	 7.8772466930e-001	 8.8679560066e-001
 8.5183050980e-001	 7.9717765245e-001	 8.1549112451e-001
 8.4297596107e-001	 8.0653516778e-001	 7.4629936830e-001
 8.3401752300e-001	 8.1579545943e-001	 6.7835080003e-001
 8.2495680629e-001	 8.2495680629e-001	 6.1077125174e-001
 8.1579545943e-001	 8.3401752300e-001	 5.4268453246e-001
 8.0653516778e-001	 8.4297596107e-001	 4.7321506095e-001
 7.9717765245e-001	 8.5183050980e-001	 4.0149050140e-001
 7.8772466930e-001	 8.6057959728e-001	 3.2664438521e-001
 7.7817800779e-001	 8.6922169133e-001	 2.4781870177e-001
 8.7418892787e-001	 7.8262496795e-001	 8.6671445344e-001
 8.6549744789e-001	 7.9222618462e-001	 7.9244771362e-001
 8.5669836305e-001	 8.0173318760e-001	 7.2127049412e-001
 8.4779321430e-001	 8.1114417719e-001	 6.5234596887e-001
 8.3878358252e-001	 8.2045738752e-001	 5.8482971734e-001
 8.2967108762e-001	 8.2967108762e-001	 5.1787231041e-001
 8.2045738752e-001	 8.3878358252e-001	 4.5062193455e-001
 8.1114417719e-001	 8.4779321430e-001	 3.8222703730e-001
 8.0173318760e-001	 8.5669836305e-001	 3.1183897683e-001
 7.9222618462e-001	 8.6549744789e-001	 2.3861465803e-001
 7.8262496795e-001	 8.7418892787e-001	 1.6171913772e-001
 8.7915616441e-001	 7.8707192812e-001	 7.7589911757e-001
 8.7041529849e-001	 7.9672769994e-001	 7.0164856587e-001
 8.6156621630e-001	 8.0628872274e-001	 6.3058393308e-001
 8.5261046752e-001	 8.1575318660e-001	 5.6189638948e-001
 8.4354964204e-001	 8.2511931560e-001	 4.9476903931e-001
 8.3438536895e-001	 8.3438536895e-001	 4.2837951333e-001
 8.2511931560e-001	 8.4354964204e-001	 3.6190260183e-001
 8.1575318660e-001	 8.5261046752e-001	 2.9451291076e-001
 8.0628872274e-001	 8.6156621630e-001	 2.2538752306e-001
 7.9672769994e-001	 8.7041529849e-001	 1.5370864737e-001
 7.8707192812e-001	 8.7915616441e-001	 7.8666236092e-002
 8.8412340094e-001	 7.9151888828e-001	 6.8851701862e-001
 8.7533314910e-001	 8.0122921526e-001	 6.1429593794e-001
 8.6643406954e-001	 8.1084425789e-001	 5.4333807411e-001
 8.5742772075e-001	 8.2036219601e-001	 4.7486505480e-001
 8.4831570155e-001	 8.2978124369e-001	 4.0808988121e-001
 8.3909965028e-001	 8.3909965028e-001	 3.4221952467e-001
 8.2978124369e-001	 8.4831570155e-001	 2.7645756634e-001
 8.2036219601e-001	 8.5742772075e-001	 2.1000686173e-001
 8.1084425789e-001	 8.6643406954e-001	 1.4207221206e-001
 8.0122921526e-001	 8.7533314910e-001	 7.1863023858e-002
 7.9151888828e-001	 8.8412340094e-001	-1.4040615467e-003
 8.8909063748e-001	 7.9596584844e-001	 6.0446050824e-001
 8.8025099970e-001	 8.0573073058e-001	 5.3029181049e-001
 8.7130192279e-001	 8.1539979303e-001	 4.5944353104e-001
 8.6224497397e-001	 8.2497120542e-001	 3.9117017494e-001
 8.5308176107e-001	 8.3444317177e-001	 3.2471697204e-001
 8.4381393160e-001	 8.4381393160e-001	 2.5932247538e-001
 8.3444317177e-001	 8.5308176107e-001	 1.9422120515e-001
 8.2497120542e-001	 8.6224497397e-001	 1.2864631979e-001
 8.1539979303e-001	 8.7130192279e-001	 6.1832295540e-002
 8.0573073058e-001	 8.8025099970e-001	-6.9824046209e-003
 7.9596584844e-001	 8.8909063748e-001	-7.8552691433e-002
 8.9405787402e-001	 8.0041280860e-001	 5.2362628170e-001
 8.8516885031e-001	 8.1023224589e-001	 4.4954227371e-001
 8.7616977604e-001	 8.1995532817e-001	 3.7881481522e-001
 8.6706222719e-001	 8.2958021483e-001	 3.1073366821e-001
 8.5784782059e-001	 8.3910509985e-001	 2.4457858319e-001
 8.4852821293e-001	 8.4852821293e-001	 1.7962189692e-001
 8.3910509985e-001	 8.5784782059e-001	 1.1513117864e-001
 8.2958021483e-001	 8.6706222719e-001	 5.0371905833e-002
 8.1995532817e-001	 8.7616977604e-001	-1.5389849766e-002
 8.1023224589e-001	 8.8516885031e-001	-8.2884745241e-002
 8.0041280860e-001	 8.9405787402e-001	-1.5283751824e-001
 7.5594320697e-001	 8.4438550863e-001	 7.2648355371e-001
 7.4657867838e-001	 8.5267652345e-001	 6.3343219052e-001
 7.3712669311e-001	 8.6086071280e-001	 5.3975543055e-001
 7.2758908236e-001	 8.6893670921e-001	 4.4564021768e-001
 7.1796770543e-001	 8.7690318707e-001	 3.5127210860e-001
 7.0826444858e-001	 8.8475886334e-001	 2.5683542582e-001
 6.9848122376e-001	 8.9250249820e-001	 1.6251334375e-001
 6.8861996742e-001	 9.0013289570e-001	 6.8487900371e-002
 6.7868263924e-001	 9.0764890433e-001	-2.5060072275e-002
 6.6867122085e-001	 9.1504941758e-001	-1.1795110463e-001
 6.5858771454e-001	 9.2233337440e-001	-2.1262869586e-001
 7.6039016714e-001	 8.4935274517e-001	 6.2407690917e-001
 7.5097055016e-001	 8.5769253325e-001	 5.3356233366e-001
 7.4146296204e-001	 8.6592486743e-001	 4.4255652512e-001
 7.3186924473e-001	 8.7404837222e-001	 3.5120482724e-001
 7.2219126847e-001	 8.8206171419e-001	 2.5965261916e-001
 7.1243093061e-001	 8.8996360277e-001	 1.6804556231e-001
 7.0259015436e-001	 8.9775279083e-001	 7.6529774509e-002
 6.9267088757e-001	 9.0542807540e-001	-1.4748076494e-002
 6.8267510142e-001	 9.1298829819e-001	-1.0564076740e-001
 6.7260478921e-001	 9.2043234617e-001	-1.9600060789e-001
 6.6246196502e-001	 9.2775915207e-001	-2.8640221728e-001
 7.6483712730e-001	 8.5431998171e-001	 5.2508586407e-001
 7.5536242195e-001	 8.6270854304e-001	 4.3704749517e-001
 7.4579923097e-001	 8.7098902207e-001	 3.4866842680e-001
 7.3614940709e-001	 8.7916003523e-001	 2.6004910296e-001
 7.2641483150e-001	 8.8722024132e-001	 1.7129146525e-001
 7.1659741264e-001	 8.9516834220e-001	 8.2499301412e-002
 7.0669908497e-001	 9.0300308347e-001	-6.2214845936e-003
 6.9672180771e-001	 9.1072325511e-001	-9.4762689716e-002
 6.8666756359e-001	 9.1832769205e-001	-1.8301372365e-001
 6.7653835757e-001	 9.2581527477e-001	-2.7086162227e-001
 6.6633621550e-001	 9.3318492974e-001	-3.5819647373e-001
 7.6928408747e-001	 8.5928721825e-001	 4.2942996931e-001
 7.5975429374e-001	 8.6772455284e-001	 3.4380583289e-001
 7.5013549990e-001	 8.7605317670e-001	 2.5800790753e-001
 7.4042956946e-001	 8.8427169824e-001	 1.7208849249e-001
 7.3063839454e-001	 8.9237876845e-001	 8.6102886275e-002
 7.2076389467e-001	 9.0037308164e-001	 1.0984506026e-004
 7.1080801557e-001	 9.0825337611e-001	-8.5828043631e-002
 7.0077272785e-001	 9.1601843482e-001	-1.7164408098e-001
 6.9066002577e-001	 9.2366708592e-001	-2.5726727892e-001
 6.8047192593e-001	 9.3119820337e-001	-3.4262229129e-001
 6.7021046598e-001	 9.3861070742e-001	-4.2762946060e-001
 7.7373104763e-001	 8.6425445479e-001	 3.3703216000e-001
 7.6414616552e-001	 8.7274056264e-001	 2.5375887995e-001
 7.5447176883e-001	 8.8111733134e-001	 1.7049510271e-001
 7.4470973182e-001	 8.8938336125e-001	 8.7241790538e-002
 7.3486195757e-001	 8.9753729558e-001	 4.0044463885e-003
 7.2493037670e-001	 9.0557782107e-001	-7.9206309923e-002
 7.1491694617e-001	 9.1350366875e-001	-1.6237425651e-001
 7.0482364799e-001	 9.2131361452e-001	-2.4547718490e-001
 6.9465248794e-001	 9.2900647978e-001	-3.2848662483e-001
 6.8440549429e-001	 9.3658113197e-001	-4.1136768621e-001
 6.7408471646e-001	 9.4403648509e-001	-4.9407902491e-001
 7.7817800779e-001	 8.6922169133e-001	 2.4781870177e-001
 7.6853803730e-001	 8.7775657243e-001	 1.6683149258e-001
 7.5880803776e-001	 8.8618148597e-001	 8.6053460370e-002
 7.4898989419e-001	 8.9449502426e-001	 5.4310896491e-003
 7.3908552061e-001	 9.0269582270e-001	-7.5083013113e-002
 7.2909685873e-001	 9.1078256050e-001	-1.5552941747e-001
 7.1902587677e-001	 9.1875396139e-001	-2.3594126452e-001
 7.0887456813e-001	 9.2660879423e-001	-3.1634377013e-001
 6.9864495012e-001	 9.3434587364e-001	-3.9675384527e-001
 6.8833906265e-001	 9.4196406056e-001	-4.7717984156e-001
 6.7795896694e-001	 9.4946226276e-001	-5.5762142943e-001
 7.8262496795e-001	 8.7418892787e-001	 1.6171913772e-001
 7.7292990909e-001	 8.8277258223e-001	 8.2951798366e-002
 7.6314430668e-001	 8.9124564061e-001	 4.6096909636e-003
 7.5327005655e-001	 8.9960668728e-001	-7.3418268483e-002
 7.4330908364e-001	 9.0785434983e-001	-1.5123542072e-001
 7.3326334076e-001	 9.1598729994e-001	-2.2893652736e-001
 7.2313480738e-001	 9.2400425403e-001	-3.0660703928e-001
 7.1292548827e-001	 9.3190397394e-001	-3.8432248007e-001
 7.0263741229e-001	 9.3968526750e-001	-4.6214795442e-001
 6.9227263101e-001	 9.4734698916e-001	-5.4013779032e-001
 6.8183321741e-001	 9.5488804043e-001	-6.1833532267e-001
 7.8707192812e-001	 8.7915616441e-001	 7.8666236092e-002
 7.7732178087e-001	 8.8778859203e-001	 2.0511452568e-003
 7.6748057561e-001	 8.9630979525e-001	-7.3906282237e-002
 7.5755021892e-001	 9.0471835029e-001	-1.4937774104e-001
 7.4753264667e-001	 9.1301287696e-001	-2.2452552105e-001
 7.3742982279e-001	 9.2119203937e-001	-2.9950152967e-001
 7.2724373798e-001	 9.2925454667e-001	-3.7444642522e-001
 7.1697640841e-001	 9.3719915364e-001	-4.4948887299e-001
 7.0662987446e-001	 9.4502466137e-001	-5.2474493439e-001
 6.9620619937e-001	 9.5272991776e-001	-6.0031759864e-001
 6.8570746789e-001	 9.6031381810e-001	-6.7629646517e-001
 7.9151888828e-001	 8.8412340094e-001	-1.4040615467e-003
 7.8171365266e-001	 8.9280460182e-001	-7.5935948834e-002
 7.7181684454e-001	 9.0137394988e-001	-1.4956137212e-001
 7.6183038128e-001	 9.0983001330e-001	-2.2251563156e-001
 7.5175620970e-001	 9.1817140408e-001	-2.9502292069e-001
 7.4159630482e-001	 9.2639677881e-001	-3.6729519879e-001
 7.3135266858e-001	 9.3450483931e-001	-4.3953118148e-001
 7.2102732855e-001	 9.4249433335e-001	-5.1191546172e-001
 7.1062233664e-001	 9.5036405523e-001	-5.8461777237e-001
 7.0013976773e-001	 9.5811284636e-001	-6.5779240030e-001
 6.8958171836e-001	 9.6573959577e-001	-7.3157776076e-001
 7.9596584844e-001	 8.8909063748e-001	-7.8552691433e-002
 7.8610552444e-001	 8.9782061162e-001	-1.5107184588e-001
 7.7615311346e-001	 9.0643810452e-001	-2.2241937616e-001
 7.6611054364e-001	 9.1494167631e-001	-2.9289713682e-001
 7.5597977273e-001	 9.2332993121e-001	-3.6279413341e-001
 7.4576278685e-001	 9.3160151824e-001	-4.3238523686e-001
 7.3546159918e-001	 9.3975513195e-001	-5.0193002339e-001
 7.2507824869e-001	 9.4778951305e-001	-5.7167175288e-001
 7.1461479881e-001	 9.5570344909e-001	-6.4183649739e-001
 7.0407333609e-001	 9.6349577496e-001	-7.1263243065e-001
 6.9345596884e-001	 9.7116537344e-001	-7.8424928760e-001
 8.0041280860e-001	 8.9405787402e-001	-1.5283751824e-001
 7.9049739622e-001	 9.0283662142e-001	-2.2341583703e-001
 7.8048938239e-001	 9.1150225915e-001	-2.9254102428e-001
 7.7039070600e-001	 9.2005333932e-001	-3.6058439321e-001
 7.6020333577e-001	 9.2848845834e-001	-4.2790262492e-001
 7.4992926888e-001	 9.3680625767e-001	-4.9483631670e-001
 7.3957052978e-001	 9.4500542458e-001	-5.6170866345e-001
 7.2912916883e-001	 9.5308469276e-001	-6.2882428569e-001
 7.1860726098e-001	 9.6104284295e-001	-6.9646821674e-001
 7.0800690445e-001	 9.6887870355e-001	-7.6490506038e-001
 6.9733021931e-001	 9.7659115111e-001	-8.3437832888e-001
 6.5858771454e-001	 9.2233337440e-001	-2.1262869586e-001
 6.4843414180e-001	 9.2949975947e-001	-3.1206256174e-001
 6.3821254128e-001	 9.3654760272e-001	-4.1395678974e-001
 6.2792496822e-001	 9.4347598055e-001	-5.1783941691e-001
 6.1757349335e-001	 9.5028401640e-001	-6.2317744038e-001
 6.0716020150e-001	 9.5697088101e-001	-7.2938236025e-001
 5.9668719035e-001	 9.6353579266e-001	-8.3581578308e-001
 5.8615656903e-001	 9.6997801739e-001	-9.4179504652e-001
 5.7557045681e-001	 9.7629686910e-001	-1.0465988268e+000
 5.6493098176e-001	 9.8249170971e-001	-1.1494726922e+000
 5.5424027942e-001	 9.8856194916e-001	-1.2496345678e+000
 6.6246196502e-001	 9.2775915207e-001	-2.8640221728e-001
 6.5224866222e-001	 9.3496769457e-001	-3.8066801336e-001
 6.4196693145e-001	 9.4205699792e-001	-4.7765830709e-001
 6.3161884006e-001	 9.4902613308e-001	-5.7685055468e-001
 6.2120647093e-001	 9.5587421832e-001	-6.7766014595e-001
 6.1073192118e-001	 9.6260041950e-001	-7.7944623200e-001
 6.0019730082e-001	 9.6920395033e-001	-8.8151761081e-001
 5.8960473139e-001	 9.7568407250e-001	-9.8313863004e-001
 5.7895634463e-001	 9.8204009590e-001	-1.0835350670e+000
 5.6825428112e-001	 9.8827137867e-001	-1.1818999477e+000
 5.5750068896e-001	 9.9437732731e-001	-1.2773992683e+000
 6.6633621550e-001	 9.3318492974e-001	-3.5819647373e-001
 6.5606318264e-001	 9.4043562968e-001	-4.4721472320e-001
 6.4572132163e-001	 9.4756639312e-001	-5.3925583853e-001
 6.3531271189e-001	 9.5457628560e-001	-6.3374510033e-001
 6.2483944851e-001	 9.6146442023e-001	-7.3004466256e-001
 6.1430364087e-001	 9.6822995800e-001	-8.2745967460e-001
 6.0370741130e-001	 9.7487210800e-001	-9.2524445867e-001
 5.9305289375e-001	 9.8139012761e-001	-1.0226087000e+000
 5.8234223244e-001	 9.8778332269e-001	-1.1187236086e+000
 5.7157758047e-001	 9.9405104764e-001	-1.2127280123e+000
 5.6076109850e-001	 1.0001927055e+000	-1.3037343445e+000
 6.7021046598e-001	 9.3861070742e-001	-4.2762946060e-001
 6.5987770305e-001	 9.4590356479e-001	-5.1182493957e-001
 6.4947571180e-001	 9.5307578833e-001	-5.9886813859e-001
 6.3900658373e-001	 9.6012643813e-001	-6.8863824436e-001
 6.2847242609e-001	 9.6705462215e-001	-7.8044253514e-001
 6.1787536055e-001	 9.7385949650e-001	-8.7353049472e-001
 6.0721752177e-001	 9.8054026567e-001	-9.6710029124e-001
 5.9650105611e-001	 9.8709618273e-001	-1.0603052645e+000
 5.8572812026e-001	 9.9352654949e-001	-1.1522603784e+000
 5.7490087983e-001	 9.9983071661e-001	-1.2420485981e+000
 5.6402150804e-001	 1.0060080836e+000	-1.3287271509e+000
 6.7408471646e-001	 9.4403648509e-001	-4.9407902491e-001
 6.6369222347e-001	 9.5137149990e-001	-5.7461813107e-001
 6.5323010197e-001	 9.5858518354e-001	-6.5661142413e-001
 6.4270045556e-001	 9.6567659066e-001	-7.4164288936e-001
 6.3210540367e-001	 9.7264482407e-001	-8.2896327705e-001
 6.2144708023e-001	 9.7948903500e-001	-9.1776472909e-001
 6.1072763224e-001	 9.8620842333e-001	-1.0071875692e+000
 5.9994921848e-001	 9.9280223784e-001	-1.0963270968e+000
 5.8911400807e-001	 9.9926977629e-001	-1.1842403402e+000
 5.7822417918e-001	 1.0056103856e+000	-1.2699527260e+000
 5.6728191759e-001	 1.0118234618e+000	-1.3524646235e+000
 6.7795896694e-001	 9.4946226276e-001	-5.5762142943e-001
 6.6750674389e-001	 9.5683943501e-001	-6.3568401820e-001
 6.5698449214e-001	 9.6409457874e-001	-7.1259926886e-001
 6.4639432739e-001	 9.7122674318e-001	-7.9286954521e-001
 6.3573838125e-001	 9.7823502598e-001	-8.7571426584e-001
 6.2501879991e-001	 9.8511857349e-001	-9.6026654100e-001
 6.1423774271e-001	 9.9187658100e-001	-1.0456071463e+000
 6.0339738084e-001	 9.9850829296e-001	-1.1307716331e+000
 5.9249989589e-001	 1.0050130031e+000	-1.2147573922e+000
 5.8154747854e-001	 1.0113900545e+000	-1.2965306245e+000
 5.7054232713e-001	 1.0176388399e+000	-1.3750331784e+000
 6.8183321741e-001	 9.5488804043e-001	-6.1833532267e-001
 6.7132126430e-001	 9.6230737012e-001	-6.9433164961e-001
 6.6073888231e-001	 9.6960397395e-001	-7.6694249766e-001
 6.5008819922e-001	 9.7677689571e-001	-8.4242622423e-001
 6.3937135883e-001	 9.8382522790e-001	-9.2080063923e-001
 6.2859051959e-001	 9.9074811199e-001	-1.0011381169e+000
 6.1774785318e-001	 9.9754473867e-001	-1.0824581666e+000
 6.0684554319e-001	 1.0042143481e+000	-1.1637348703e+000
 5.9588578370e-001	 1.0107562299e+000	-1.2439042655e+000
 5.8487077789e-001	 1.0171697235e+000	-1.3218716281e+000
 5.7380273667e-001	 1.0234542181e+000	-1.3965186107e+000
 6.8570746789e-001	 9.6031381810e-001	-6.7629646517e-001
 6.7513578472e-001	 9.6777530523e-001	-7.5026975301e-001
 6.6449327248e-001	 9.7511336915e-001	-8.1974908068e-001
 6.5378207106e-001	 9.8232704824e-001	-8.9041833621e-001
 6.4300433641e-001	 9.8941542982e-001	-9.6432519092e-001
 6.3216223926e-001	 9.9637765049e-001	-1.0404795629e+000
 6.2125796365e-001	 1.0032128963e+000	-1.1178379620e+000
 6.1029370555e-001	 1.0099204032e+000	-1.1953112638e+000
 5.9927167152e-001	 1.0164994567e+000	-1.2717724230e+000
 5.8819407724e-001	 1.0229493925e+000	-1.3460640768e+000
 5.7706314621e-001	 1.0292695962e+000	-1.4170059948e+000
 6.8958171836e-001	 9.6573959577e-001	-7.3157776076e-001
 6.7895030513e-001	 9.7324324034e-001	-8.0357075085e-001
 6.6824766265e-001	 9.8062276436e-001	-8.7102512202e-001
 6.5747594289e-001	 9.8787720077e-001	-9.3694858341e-001
 6.4663731399e-001	 9.9500563174e-001	-1.0063882666e+000
 6.3573395894e-001	 1.0020071890e+000	-1.0783888019e+000
 6.2476807412e-001	 1.0088810540e+000	-1.1518419496e+000
 6.1374186791e-001	 1.0156264583e+000	-1.2255936263e+000
 6.0265755933e-001	 1.0222426835e+000	-1.2984519580e+000
 5.9151737660e-001	 1.0287290614e+000	-1.3691952158e+000
 5.8032355574e-001	 1.0350849743e+000	-1.4365795847e+000
 6.9345596884e-001	 9.7116537344e-001	-7.8424928760e-001
 6.8276482555e-001	 9.7871117545e-001	-8.5430432282e-001
 6.7200205282e-001	 9.8613215956e-001	-9.2000062346e-001
 6.6116981472e-001	 9.9342735329e-001	-9.8211685545e-001
 6.5027029157e-001	 1.0005958337e+000	-1.0470876596e+000
 6.3930567862e-001	 1.0076367275e+000	-1.1149614702e+000
 6.2827818459e-001	 1.0145492117e+000	-1.1845635298e+000
 6.1719003027e-001	 1.0213325134e+000	-1.2546730259e+000
 6.0604344714e-001	 1.0279859103e+000	-1.3240314944e+000
 5.9484067595e-001	 1.0345087304e+000	-1.3913510957e+000
 5.8358396528e-001	 1.0409003525e+000	-1.4553227146e+000
 6.9733021931e-001	 9.7659115111e-001	-8.3437832888e-001
 6.8657934596e-001	 9.8417911056e-001	-9.0253743339e-001
 6.7575644299e-001	 9.9164155477e-001	-9.6654418380e-001
 6.6486368655e-001	 9.9897750582e-001	-1.0260201242e+000
 6.5390326915e-001	 1.0061860356e+000	-1.0865185074e+000
 6.4287739830e-001	 1.0132662660e+000	-1.1502908145e+000
 6.3178829505e-001	 1.0202173693e+000	-1.2160939839e+000
 6.2063819263e-001	 1.0270385685e+000	-1.2826386857e+000
 6.0942933496e-001	 1.0337291371e+000	-1.3485980858e+000
 5.9816397530e-001	 1.0402883994e+000	-1.4126164735e+000
 5.8684437482e-001	 1.0467157306e+000	-1.4733177011e+000
 5.5424027942e-001	 9.8856194916e-001	-1.2496345678e+000
 5.4350210603e-001	 9.9450616332e-001	-1.3493454673e+000
 5.3271700786e-001	 1.0003247790e+000	-1.4510676446e+000
 5.2188713452e-001	 1.0060173511e+000	-1.5542535017e+000
 5.1101463777e-001	 1.0115834827e+000	-1.6583510830e+000
 5.0010167025e-001	 1.0170228241e+000	-1.7628076564e+000
 4.8915038420e-001	 1.0223350735e+000	-1.8670730489e+000
 4.7816293016e-001	 1.0275199761e+000	-1.9706027209e+000
 4.6714145575e-001	 1.0325773241e+000	-2.0728605651e+000
 4.5608810444e-001	 1.0375069564e+000	-2.1733214193e+000
 4.4500501426e-001	 1.0423087583e+000	-2.2714732850e+000
 5.5750068896e-001	 9.9437732731e-001	-1.2773992683e+000
 5.4669934650e-001	 1.0003565093e+000	-1.3723134517e+000
 5.3585080322e-001	 1.0062093539e+000	-1.4691638759e+000
 5.2495722137e-001	 1.0119354135e+000	-1.5674132523e+000
 5.1402076537e-001	 1.0175342888e+000	-1.6665199112e+000
 5.0304360053e-001	 1.0230056280e+000	-1.7659414855e+000
 4.9202789173e-001	 1.0283491276e+000	-1.8651383384e+000
 4.8097580219e-001	 1.0335645312e+000	-1.9635767182e+000
 4.6988949215e-001	 1.0386516299e+000	-2.0607316275e+000
 4.5877111767e-001	 1.0436102616e+000	-2.1560893929e+000
 4.4762282940e-001	 1.0484403108e+000	-2.2491499295e+000
 5.6076109850e-001	 1.0001927055e+000	-1.3037343445e+000
 5.4989658697e-001	 1.0062068552e+000	-1.3940345839e+000
 5.3898459858e-001	 1.0120939288e+000	-1.4862015497e+000
 5.2802730822e-001	 1.0178534760e+000	-1.5797068166e+000
 5.1702689297e-001	 1.0234850949e+000	-1.6740175507e+000
 5.0598553080e-001	 1.0289884320e+000	-1.7686003018e+000
 4.9490539926e-001	 1.0343631817e+000	-1.8629245291e+000
 4.8378867421e-001	 1.0396090864e+000	-1.9564658427e+000
 4.7263752854e-001	 1.0447259358e+000	-2.0487089470e+000
 4.6145413091e-001	 1.0497135668e+000	-2.1391502733e+000
 4.5024064453e-001	 1.0545718634e+000	-2.2273002930e+000
 5.6402150804e-001	 1.0060080836e+000	-1.3287271509e+000
 5.5309382744e-001	 1.0120572012e+000	-1.4145914195e+000
 5.4211839393e-001	 1.0179785037e+000	-1.5022576811e+000
 5.3109739506e-001	 1.0237715384e+000	-1.5912049217e+000
 5.2003302057e-001	 1.0294359010e+000	-1.6809076890e+000
 5.0892746107e-001	 1.0349712359e+000	-1.7708399996e+000
 4.9778290680e-001	 1.0403772358e+000	-1.8604789690e+000
 4.8660154624e-001	 1.0456536415e+000	-1.9493081448e+000
 4.7538556493e-001	 1.0508002416e+000	-2.0368205301e+000
 4.6413714414e-001	 1.0558168720e+000	-2.1225212827e+000
 4.5285845967e-001	 1.0607034160e+000	-2.2059300828e+000
 5.6728191759e-001	 1.0118234618e+000	-1.3524646235e+000
 5.5629106791e-001	 1.0179075472e+000	-1.4340663736e+000
 5.4525218929e-001	 1.0238630787e+000	-1.5174094339e+000
 5.3416748191e-001	 1.0296896008e+000	-1.6019787431e+000
 5.2303914816e-001	 1.0353867071e+000	-1.6872547713e+000
 5.1186939134e-001	 1.0409540398e+000	-1.7727175492e+000
 5.0066041433e-001	 1.0463912899e+000	-1.8578504074e+000
 4.8941441827e-001	 1.0516981967e+000	-1.9421434086e+000
 4.7813360132e-001	 1.0568745474e+000	-2.0250964547e+000
 4.6682015738e-001	 1.0619201772e+000	-2.1062220584e+000
 4.5547627480e-001	 1.0668349686e+000	-2.1850477692e+000
 5.7054232713e-001	 1.0176388399e+000	-1.3750331784e+000
 5.5948830838e-001	 1.0237578931e+000	-1.4525416192e+000
 5.4838598465e-001	 1.0297476536e+000	-1.5317340189e+000
 5.3723756876e-001	 1.0356076632e+000	-1.6120998025e+000
 5.2604527576e-001	 1.0413375132e+000	-1.6931238973e+000
 5.1481132162e-001	 1.0469368437e+000	-1.7742908911e+000
 5.0353792186e-001	 1.0524053440e+000	-1.8550888877e+000
 4.9222729030e-001	 1.0577427518e+000	-1.9350130421e+000
 4.8088163772e-001	 1.0629488532e+000	-2.0135687583e+000
 4.6950317062e-001	 1.0680234824e+000	-2.0902745374e+000
 4.5809408994e-001	 1.0729665212e+000	-2.1646644660e+000
 5.7380273667e-001	 1.0234542181e+000	-1.3965186107e+000
 5.6268554885e-001	 1.0296082391e+000	-1.4700989869e+000
 5.5151978001e-001	 1.0356322285e+000	-1.5453085936e+000
 5.4030765560e-001	 1.0415257256e+000	-1.6216398664e+000
 5.2905140336e-001	 1.0472883193e+000	-1.6985807184e+000
 5.1775325189e-001	 1.0529196477e+000	-1.7756188328e+000
 5.0641542939e-001	 1.0584193981e+000	-1.8522456414e+000
 4.9504016232e-001	 1.0637873070e+000	-1.9279599692e+000
 4.8362967411e-001	 1.0690231591e+000	-2.0022713273e+000
 4.7218618385e-001	 1.0741267876e+000	-2.0747028429e+000
 4.6071190508e-001	 1.0790980738e+000	-2.1447938144e+000
 5.7706314621e-001	 1.0292695962e+000	-1.4170059948e+000
 5.6588278932e-001	 1.0354585851e+000	-1.4868198650e+000
 5.5465357536e-001	 1.0415168035e+000	-1.5582101616e+000
 5.4337774245e-001	 1.0474437881e+000	-1.6306708458e+000
 5.3205753096e-001	 1.0532391254e+000	-1.7036913367e+000
 5.2069518216e-001	 1.0589024516e+000	-1.7767609459e+000
 5.0929293692e-001	 1.0644334522e+000	-1.8493729847e+000
 4.9785303435e-001	 1.0698318621e+000	-1.9210285241e+000
 4.8637771050e-001	 1.0750974649e+000	-1.9912397888e+000
 4.7486919709e-001	 1.0802300928e+000	-2.0595331730e+000
 4.6332972021e-001	 1.0852296264e+000	-2.1254518679e+000
 5.8032355574e-001	 1.0350849743e+000	-1.4365795847e+000
 5.6908002979e-001	 1.0413089310e+000	-1.5027851004e+000
 5.5778737072e-001	 1.0474013784e+000	-1.5705154740e+000
 5.4644782930e-001	 1.0533618505e+000	-1.6392646965e+000
 5.3506365855e-001	 1.0591899315e+000	-1.7085222048e+000
 5.2363711243e-001	 1.0648852555e+000	-1.7777774649e+000
 5.1217044445e-001	 1.0704475063e+000	-1.8465242150e+000
 5.0066590637e-001	 1.0758764173e+000	-1.9142643462e+000
 4.8912574689e-001	 1.0811717707e+000	-1.9805114031e+000
 4.7755221032e-001	 1.0863333980e+000	-2.0447936914e+000
 4.6594753535e-001	 1.0913611790e+000	-2.1066569804e+000
 5.8358396528e-001	 1.0409003525e+000	-1.4553227146e+000
 5.7227727026e-001	 1.0471592770e+000	-1.5180748999e+000
 5.6092116608e-001	 1.0532859533e+000	-1.5823009309e+000
 5.4951791614e-001	 1.0592799129e+000	-1.6474933208e+000
 5.3806978615e-001	 1.0651407376e+000	-1.7131400264e+000
 5.2657904270e-001	 1.0708680594e+000	-1.7787291872e+000
 5.1504795198e-001	 1.0764615604e+000	-1.8437535100e+000
 5.0347877840e-001	 1.0819209724e+000	-1.9077142771e+000
 4.9187378328e-001	 1.0872460765e+000	-1.9701249594e+000
 4.8023522356e-001	 1.0924367032e+000	-2.0305144196e+000
 4.6856535048e-001	 1.0974927315e+000	-2.0884296960e+000
 5.8684437482e-001	 1.0467157306e+000	-1.4733177011e+000
 5.7547451073e-001	 1.0530096230e+000	-1.5327687327e+000
 5.6405496143e-001	 1.0591705282e+000	-1.5936424837e+000
 5.5258800299e-001	 1.0651979753e+000	-1.6554284696e+000
 5.4107591374e-001	 1.0710915437e+000	-1.7176116586e+000
 5.2952097297e-001	 1.0768508634e+000	-1.7796773740e+000
 5.1792545951e-001	 1.0824756146e+000	-1.8411158271e+000
 5.0629165043e-001	 1.0879655276e+000	-1.9014262591e+000
 4.9462181967e-001	 1.0933203824e+000	-1.9601206715e+000
 4.8291823679e-001	 1.0985400084e+000	-2.0167271316e+000
 4.7118316562e-001	 1.1036242841e+000	-2.0707926403e+000
 4.4500501426e-001	 1.0423087583e+000	-2.2714732850e+000
 4.3389264804e-001	 1.0469833524e+000	-2.3684702890e+000
 4.2275479134e-001	 1.0515299862e+000	-2.4654673609e+000
 4.1159356035e-001	 1.0559486821e+000	-2.5620256248e+000
 4.0041106122e-001	 1.0602395073e+000	-2.6577297135e+000
 3.8920938882e-001	 1.0644025727e+000	-2.7521880928e+000
 3.7799062577e-001	 1.0684380329e+000	-2.8450330978e+000
 3.6675684127e-001	 1.0723460855e+000	-2.9359206880e+000
 3.5551009013e-001	 1.0761269702e+000	-3.0245299350e+000
 3.4425241174e-001	 1.0797809684e+000	-3.1105622559e+000
 3.3298582908e-001	 1.0833084025e+000	-3.1937404085e+000
 4.4762282940e-001	 1.0484403108e+000	-2.2491499295e+000
 4.3644509286e-001	 1.0531424041e+000	-2.3411232638e+000
 4.2524171588e-001	 1.0577157842e+000	-2.4332047806e+000
 4.1401482712e-001	 1.0621604738e+000	-2.5249431974e+000
 4.0276654510e-001	 1.0664765404e+000	-2.6159118191e+000
 3.9149897702e-001	 1.0706640957e+000	-2.7057088805e+000
 3.8021421775e-001	 1.0747232952e+000	-2.7939575850e+000
 3.6891434867e-001	 1.0786543376e+000	-2.8803058515e+000
 3.5760143667e-001	 1.0824574640e+000	-2.9644257810e+000
 3.4627753314e-001	 1.0861329574e+000	-3.0460128573e+000
 3.3494467295e-001	 1.0896811422e+000	-3.1247848985e+000
 4.5024064453e-001	 1.0545718634e+000	-2.2273002930e+000
 4.3899753768e-001	 1.0593014557e+000	-2.3144262658e+000
 4.2772864042e-001	 1.0639015822e+000	-2.4017660928e+000
 4.1643609389e-001	 1.0683722655e+000	-2.4888560406e+000
 4.0512202897e-001	 1.0727135736e+000	-2.5752582003e+000
 3.9378856522e-001	 1.0769256188e+000	-2.6605608441e+000
 3.8243780973e-001	 1.0810085576e+000	-2.7443784660e+000
 3.7107185607e-001	 1.0849625897e+000	-2.8263515160e+000
 3.5969278321e-001	 1.0887879577e+000	-2.9061458425e+000
 3.4830265453e-001	 1.0924849464e+000	-2.9834518562e+000
 3.3690351682e-001	 1.0960538819e+000	-3.0579834338e+000
 4.5285845967e-001	 1.0607034160e+000	-2.2059300828e+000
 4.4154998249e-001	 1.0654605074e+000	-2.2883735931e+000
 4.3021556496e-001	 1.0700873801e+000	-2.3711351195e+000
 4.1885736066e-001	 1.0745840572e+000	-2.4537384265e+000
 4.0747751285e-001	 1.0789506068e+000	-2.5357344985e+000
 3.9607815342e-001	 1.0831871419e+000	-2.6167019092e+000
 3.8466140171e-001	 1.0872938199e+000	-2.6962468605e+000
 3.7322936346e-001	 1.0912708418e+000	-2.7740029027e+000
 3.6178412974e-001	 1.0951184515e+000	-2.8496303473e+000
 3.5032777592e-001	 1.0988369354e+000	-2.9228153915e+000
 3.3886236069e-001	 1.1024266217e+000	-2.9932689684e+000
 4.5547627480e-001	 1.0668349686e+000	-2.1850477692e+000
 4.4410242731e-001	 1.0716195590e+000	-2.2629626392e+000
 4.3270248951e-001	 1.0762731781e+000	-2.3412990756e+000
 4.2127862742e-001	 1.0807958489e+000	-2.4195682825e+000
 4.0983299673e-001	 1.0851876399e+000	-2.4973102383e+000
 3.9836774162e-001	 1.0894486650e+000	-2.5740940768e+000
 3.8688499370e-001	 1.0935790823e+000	-2.6495181217e+000
 3.7538687086e-001	 1.0975790939e+000	-2.7232095887e+000
 3.6387547628e-001	 1.1014489453e+000	-2.7948239674e+000
 3.5235289732e-001	 1.1051889245e+000	-2.8640440999e+000
 3.4082120455e-001	 1.1087993614e+000	-2.9305789740e+000
 4.5809408994e-001	 1.0729665212e+000	-2.1646644660e+000
 4.4665487212e-001	 1.0777786107e+000	-2.2381937701e+000
 4.3518941405e-001	 1.0824589761e+000	-2.3122484438e+000
 4.2369989419e-001	 1.0870076406e+000	-2.3863270644e+000
 4.1218848061e-001	 1.0914246731e+000	-2.4599586991e+000
 4.0065732982e-001	 1.0957101881e+000	-2.5327032948e+000
 3.8910858568e-001	 1.0998643446e+000	-2.6041517068e+000
 3.7754437826e-001	 1.1038873460e+000	-2.6739253794e+000
 3.6596682281e-001	 1.1077794391e+000	-2.7416756926e+000
 3.5437801871e-001	 1.1115409135e+000	-2.8070829914e+000
 3.4278004842e-001	 1.1151721011e+000	-2.8698553174e+000
 4.6071190508e-001	 1.0790980738e+000	-2.1447938144e+000
 4.4920731694e-001	 1.0839376623e+000	-2.2140702048e+000
 4.3767633859e-001	 1.0886447741e+000	-2.2839768518e+000
 4.2612116095e-001	 1.0932194322e+000	-2.3539996320e+000
 4.1454396448e-001	 1.0976617063e+000	-2.4236567892e+000
 4.0294691802e-001	 1.1019717111e+000	-2.4924993317e+000
 3.9133217766e-001	 1.1061496069e+000	-2.5601110519e+000
 3.7970188566e-001	 1.1101955981e+000	-2.6261081829e+000
 3.6805816935e-001	 1.1141099328e+000	-2.6901387062e+000
 3.5640314010e-001	 1.1178929025e+000	-2.7518813277e+000
 3.4473889229e-001	 1.1215448409e+000	-2.8110441427e+000
 4.6332972021e-001	 1.0852296264e+000	-2.1254518679e+000
 4.5175976175e-001	 1.0900967140e+000	-2.1905978978e+000
 4.4016326313e-001	 1.0948305720e+000	-2.2564809530e+000
 4.2854242772e-001	 1.0994312239e+000	-2.3225741277e+000
 4.1689944836e-001	 1.1038987394e+000	-2.3883849240e+000
 4.0523650622e-001	 1.1082332342e+000	-2.4534556539e+000
 3.9355576964e-001	 1.1124348693e+000	-2.5173634487e+000
 3.8185939305e-001	 1.1165038502e+000	-2.5797198882e+000
 3.7014951588e-001	 1.1204404266e+000	-2.6401702651e+000
 3.5842826149e-001	 1.1242448915e+000	-2.6983925039e+000
 3.4669773616e-001	 1.1279175806e+000	-2.7540957545e+000
 4.6594753535e-001	 1.0913611790e+000	-2.1066569804e+000
 4.5431220657e-001	 1.0962557657e+000	-2.1677854236e+000
 4.4265018767e-001	 1.1010163700e+000	-2.2297603088e+000
 4.3096369449e-001	 1.1056430156e+000	-2.2920418579e+000
 4.1925493224e-001	 1.1101357726e+000	-2.3541269056e+000
 4.0752609441e-001	 1.1144947573e+000	-2.4155493056e+000
 3.9577936162e-001	 1.1187201316e+000	-2.4758799257e+000
 3.8401690045e-001	 1.1228121023e+000	-2.5347262471e+000
 3.7224086242e-001	 1.1267709204e+000	-2.5917315826e+000
 3.6045338289e-001	 1.1305968806e+000	-2.6465739334e+000
 3.4865658003e-001	 1.1342903203e+000	-2.6989645063e+000
 4.6856535048e-001	 1.0974927315e+000	-2.0884296960e+000
 4.5686465138e-001	 1.1024148173e+000	-2.1456438645e+000
 4.4513711222e-001	 1.1072021680e+000	-2.2038172742e+000
 4.3338496125e-001	 1.1118548073e+000	-2.2623971765e+000
 4.2161041612e-001	 1.1163728057e+000	-2.3208698066e+000
 4.0981568261e-001	 1.1207562804e+000	-2.3787607917e+000
 3.9800295360e-001	 1.1250053940e+000	-2.4356351303e+000
 3.8617440785e-001	 1.1291203544e+000	-2.4910967576e+000
 3.7433220896e-001	 1.1331014142e+000	-2.5447877140e+000
 3.6247850428e-001	 1.1369488696e+000	-2.5963869356e+000
 3.5061542390e-001	 1.1406630601e+000	-2.6456086905e+000
 4.7118316562e-001	 1.1036242841e+000	-2.0707926403e+000
 4.5941709620e-001	 1.1085738690e+000	-2.1241866995e+000
 4.4762403676e-001	 1.1133879660e+000	-2.1786568852e+000
 4.3580622802e-001	 1.1180665990e+000	-2.2336373715e+000
 4.2396589999e-001	 1.1226098389e+000	-2.2886038552e+000
 4.1210527081e-001	 1.1270178035e+000	-2.3430739636e+000
 4.0022654558e-001	 1.1312906563e+000	-2.3966072159e+000
 3.8833191525e-001	 1.1354286065e+000	-2.4488045514e+000
 3.7642355549e-001	 1.1394319079e+000	-2.4993074449e+000
 3.6450362567e-001	 1.1433008586e+000	-2.5477966265e+000
 3.5257426777e-001	 1.1470357998e+000	-2.5939904315e+000
 3.3298582908e-001	 1.0833084025e+000	-3.1937404085e+000
 3.2171234759e-001	 1.0867096348e+000	-3.2747710383e+000
 3.1043395382e-001	 1.0899850663e+000	-3.3543590461e+000
 2.9915261501e-001	 1.0931351363e+000	-3.4322563463e+000
 2.8787027840e-001	 1.0961603222e+000	-3.5082352693e+000
 2.7658887040e-001	 1.0990611389e+000	-3.5820864853e+000
 2.6531029577e-001	 1.1018381374e+000	-3.6536168026e+000
 2.5403643688e-001	 1.1044919048e+000	-3.7226468612e+000
 2.4276915293e-001	 1.1070230625e+000	-3.7890087448e+000
 2.3151027929e-001	 1.1094322663e+000	-3.8525435351e+000
 2.2026162677e-001	 1.1117202050e+000	-3.9130988283e+000
 3.3494467295e-001	 1.0896811422e+000	-3.1247848985e+000
 3.2360487335e-001	 1.0931023828e+000	-3.2014867584e+000
 3.1226013258e-001	 1.0963970826e+000	-3.2768656593e+000
 3.0091242944e-001	 1.0995656834e+000	-3.3506759439e+000
 2.8956372263e-001	 1.1026086655e+000	-3.4226929447e+000
 2.7821594989e-001	 1.1055265467e+000	-3.4927108153e+000
 2.6687102719e-001	 1.1083198814e+000	-3.5605402299e+000
 2.5553084797e-001	 1.1109892599e+000	-3.6260059734e+000
 2.4419728238e-001	 1.1135353076e+000	-3.6889444471e+000
 2.3287217656e-001	 1.1159586840e+000	-3.7492011114e+000
 2.2155735200e-001	 1.1182600818e+000	-3.8066278905e+000
 3.3690351682e-001	 1.0960538819e+000	-3.0579834338e+000
 3.2549739911e-001	 1.0994951309e+000	-3.1305233589e+000
 3.1408631134e-001	 1.1028090989e+000	-3.2018595154e+000
 3.0267224387e-001	 1.1059962305e+000	-3.2717477078e+000
 2.9125716686e-001	 1.1090570087e+000	-3.3399653159e+000
 2.7984302938e-001	 1.1119919545e+000	-3.4063090321e+000
 2.6843175861e-001	 1.1148016253e+000	-3.4705924625e+000
 2.5702525906e-001	 1.1174866151e+000	-3.5326436124e+000
 2.4562541182e-001	 1.1200475527e+000	-3.5923022833e+000
 2.3423407383e-001	 1.1224851016e+000	-3.6494174041e+000
 2.2285307722e-001	 1.1247999586e+000	-3.7038443225e+000
 3.3886236069e-001	 1.1024266217e+000	-2.9932689684e+000
 3.2738992488e-001	 1.1058878789e+000	-3.0618106043e+000
 3.1591249009e-001	 1.1092211152e+000	-3.1292663052e+000
 3.0443205829e-001	 1.1124267776e+000	-3.1953924185e+000
 2.9295061108e-001	 1.1155053520e+000	-3.2599674649e+000
 2.8147010887e-001	 1.1184573623e+000	-3.3227897826e+000
 2.6999249003e-001	 1.1212833693e+000	-3.3836750276e+000
 2.5851967016e-001	 1.1239839703e+000	-3.4424535545e+000
 2.4705354126e-001	 1.1265597979e+000	-3.4989677034e+000
 2.3559597110e-001	 1.1290115193e+000	-3.5530690182e+000
 2.2414880244e-001	 1.1313398354e+000	-3.6046154223e+000
 3.4082120455e-001	 1.1087993614e+000	-2.9305789740e+000
 3.2928245064e-001	 1.1122806270e+000	-2.9952827834e+000
 3.1773866885e-001	 1.1156331315e+000	-3.0590162587e+000
 3.0619187272e-001	 1.1188573247e+000	-3.1215354174e+000
 2.9464405531e-001	 1.1219536953e+000	-3.1826190638e+000
 2.8309718836e-001	 1.1249227701e+000	-3.2420663386e+000
 2.7155322145e-001	 1.1277651132e+000	-3.2996941180e+000
 2.6001408125e-001	 1.1304813254e+000	-3.3553342883e+000
 2.4848167071e-001	 1.1330720430e+000	-3.4088309214e+000
 2.3695786837e-001	 1.1355379369e+000	-3.4600373785e+000
 2.2544452766e-001	 1.1378797123e+000	-3.5088133684e+000
 3.4278004842e-001	 1.1151721011e+000	-2.8698553174e+000
 3.3117497640e-001	 1.1186733750e+000	-2.9308785899e+000
 3.1956484760e-001	 1.1220451478e+000	-2.9910440274e+000
 3.0795168715e-001	 1.1252878718e+000	-3.0501064914e+000
 2.9633749954e-001	 1.1284020385e+000	-3.1078442599e+000
 2.8472426785e-001	 1.1313881778e+000	-3.1640564829e+000
 2.7311395288e-001	 1.1342468572e+000	-3.2185604788e+000
 2.6150849234e-001	 1.1369786806e+000	-3.2711889009e+000
 2.4990980015e-001	 1.1395842881e+000	-3.3217868005e+000
 2.3831976564e-001	 1.1420643546e+000	-3.3702086143e+000
 2.2674025289e-001	 1.1444195891e+000	-3.4163151028e+000
 3.4473889229e-001	 1.1215448409e+000	-2.8110441427e+000
 3.3306750216e-001	 1.1250661231e+000	-2.8685410065e+000
 3.2139102636e-001	 1.1284571641e+000	-2.9252885711e+000
 3.0971150157e-001	 1.1317184189e+000	-2.9810397604e+000
 2.9803094376e-001	 1.1348503818e+000	-3.0355715648e+000
 2.8635134734e-001	 1.1378535856e+000	-3.0886823993e+000
 2.7467468430e-001	 1.1407286011e+000	-3.1401892973e+000
 2.6300290344e-001	 1.1434760358e+000	-3.1899249675e+000
 2.5133792960e-001	 1.1460965332e+000	-3.2377347423e+000
 2.3968166291e-001	 1.1485907722e+000	-3.2834734471e+000
 2.2803597811e-001	 1.1509594659e+000	-3.3270022173e+000
 3.4669773616e-001	 1.1279175806e+000	-2.7540957545e+000
 3.3496002792e-001	 1.1314588711e+000	-2.8082171920e+000
 3.2321720512e-001	 1.1348691804e+000	-2.8616930465e+000
 3.1147131600e-001	 1.1381489660e+000	-2.9142735688e+000
 2.9972438799e-001	 1.1412987251e+000	-2.9657337465e+000
 2.8797842683e-001	 1.1443189934e+000	-3.0158705650e+000
 2.7623541572e-001	 1.1472103450e+000	-3.0645000962e+000
 2.6449731453e-001	 1.1499733909e+000	-3.1114544446e+000
 2.5276605904e-001	 1.1526087783e+000	-3.1565785793e+000
 2.4104356018e-001	 1.1551171899e+000	-3.1997270828e+000
 2.2933170333e-001	 1.1574993428e+000	-3.2407608445e+000
 3.4865658003e-001	 1.1342903203e+000	-2.6989645063e+000
 3.3685255368e-001	 1.1378516191e+000	-2.7498583712e+000
 3.2504338387e-001	 1.1412811967e+000	-2.8002046999e+000
 3.1323113042e-001	 1.1445795131e+000	-2.8497503788e+000
 3.0141783222e-001	 1.1477470683e+000	-2.8982677247e+000
 2.8960550632e-001	 1.1507844012e+000	-2.9455516469e+000
 2.7779614714e-001	 1.1536920890e+000	-2.9914166298e+000
 2.6599172563e-001	 1.1564707461e+000	-3.0356935661e+000
 2.5419418849e-001	 1.1591210234e+000	-3.0782264706e+000
 2.4240545745e-001	 1.1616436076e+000	-3.1188691061e+000
 2.3062742856e-001	 1.1640392196e+000	-3.1574815509e+000
 3.5061542390e-001	 1.1406630601e+000	-2.6456086905e+000
 3.3874507944e-001	 1.1442443672e+000	-2.6934197281e+000
 3.2686956263e-001	 1.1476932130e+000	-2.7407747623e+000
 3.1499094485e-001	 1.1510100602e+000	-2.7874166680e+000
 3.0311127645e-001	 1.1541954116e+000	-2.8331144690e+000
 2.9123258581e-001	 1.1572498090e+000	-2.8776604004e+000
 2.7935687856e-001	 1.1601738329e+000	-2.9208667833e+000
 2.6748613672e-001	 1.1629681013e+000	-2.9625627425e+000
 2.5562231793e-001	 1.1656332686e+000	-3.0025908007e+000
 2.4376735472e-001	 1.1681700252e+000	-3.0408033786e+000
 2.3192315378e-001	 1.1705790964e+000	-3.0770592343e+000
 3.5257426777e-001	 1.1470357998e+000	-2.5939904315e+000
 3.4063760520e-001	 1.1506371152e+000	-2.6388603018e+000
 3.2869574138e-001	 1.1541052293e+000	-2.6833583475e+000
 3.1675075928e-001	 1.1574406073e+000	-2.7272228284e+000
 3.0480472067e-001	 1.1606437548e+000	-2.7702188995e+000
 2.9285966530e-001	 1.1637152168e+000	-2.8121355714e+000
 2.8091760998e-001	 1.1666555769e+000	-2.8527824750e+000
 2.6898054781e-001	 1.1694654564e+000	-2.8919864633e+000
 2.5705044737e-001	 1.1721455137e+000	-2.9295880816e+000
 2.4512925199e-001	 1.1746964429e+000	-2.9654379403e+000
 2.3321887900e-001	 1.1771189732e+000	-2.9993930236e+000
 2.2026162677e-001	 1.1117202050e+000	-3.9130988283e+000
 2.0902666503e-001	 1.1138872834e+000	-3.9708089755e+000
 1.9780546296e-001	 1.1159346068e+000	-4.0258833741e+000
 1.8659975079e-001	 1.1178629583e+000	-4.0782571778e+000
 1.7541123190e-001	 1.1196731508e+000	-4.1278611196e+000
 1.6424158232e-001	 1.1213660258e+000	-4.1746191170e+000
 1.5309245026e-001	 1.1229424523e+000	-4.2184459658e+000
 1.4196545564e-001	 1.1244033263e+000	-4.2592451381e+000
 1.3086218971e-001	 1.1257495693e+000	-4.2969067006e+000
 1.1978421463e-001	 1.1269821280e+000	-4.3313053681e+000
 1.0873306313e-001	 1.1281019728e+000	-4.3622987049e+000
 2.2155735200e-001	 1.1182600818e+000	-3.8066278905e+000
 2.1025629874e-001	 1.1204399085e+000	-3.8613642368e+000
 1.9896908611e-001	 1.1224992755e+000	-3.9136212611e+000
 1.8769745450e-001	 1.1244389709e+000	-3.9633344349e+000
 1.7644311731e-001	 1.1262598122e+000	-4.0104344583e+000
 1.6520776043e-001	 1.1279626458e+000	-4.0548447570e+000
 1.5399304176e-001	 1.1295483459e+000	-4.0964790703e+000
 1.4280059077e-001	 1.1310178136e+000	-4.1352391463e+000
 1.3163200805e-001	 1.1323719762e+000	-4.1710125614e+000
 1.2048886496e-001	 1.1336117856e+000	-4.2036706803e+000
 1.0937270325e-001	 1.1347382181e+000	-4.2330667687e+000
 2.2285307722e-001	 1.1247999586e+000	-3.7038443225e+000
 2.1148593245e-001	 1.1269925335e+000	-3.7557277768e+000
 2.0013270926e-001	 1.1290639442e+000	-3.8052815497e+000
 1.8879515820e-001	 1.1310149834e+000	-3.8524416488e+000
 1.7747500271e-001	 1.1328464735e+000	-3.8971389801e+000
 1.6617393853e-001	 1.1345592657e+000	-3.9392967324e+000
 1.5489363326e-001	 1.1361542394e+000	-3.9788278545e+000
 1.4363572590e-001	 1.1376323010e+000	-4.0156326438e+000
 1.3240182639e-001	 1.1389943830e+000	-4.0495964636e+000
 1.2119351529e-001	 1.1402414432e+000	-4.0805876047e+000
 1.1001234337e-001	 1.1413744634e+000	-4.1084553057e+000
 2.2414880244e-001	 1.1313398354e+000	-3.6046154223e+000
 2.1271556617e-001	 1.1335451585e+000	-3.6537574559e+000
 2.0129633241e-001	 1.1356286130e+000	-3.7007128456e+000
 1.8989286191e-001	 1.1375909960e+000	-3.7454183928e+000
 1.7850688811e-001	 1.1394331348e+000	-3.7878054873e+000
 1.6714011664e-001	 1.1411558857e+000	-3.8277973743e+000
 1.5579422477e-001	 1.1427601330e+000	-3.8653065172e+000
 1.4447086103e-001	 1.1442467884e+000	-3.9002320754e+000
 1.3317164474e-001	 1.1456167899e+000	-3.9324575141e+000
 1.2189816563e-001	 1.1468711008e+000	-3.9618483642e+000
 1.1065198348e-001	 1.1480107086e+000	-3.9882501463e+000
 2.2544452766e-001	 1.1378797123e+000	-3.5088133684e+000
 2.1394519988e-001	 1.1400977835e+000	-3.5553160728e+000
 2.0245995555e-001	 1.1421932817e+000	-3.5997687427e+000
 1.9099056561e-001	 1.1441670086e+000	-3.6421092701e+000
 1.7953877352e-001	 1.1460197962e+000	-3.6822698452e+000
 1.6810629474e-001	 1.1477525056e+000	-3.7201741026e+000
 1.5669481627e-001	 1.1493660265e+000	-3.7557343647e+000
 1.4530599615e-001	 1.1508612758e+000	-3.7888490036e+000
 1.3394146308e-001	 1.1522391968e+000	-3.8193999408e+000
 1.2260281596e-001	 1.1535007584e+000	-3.8472502998e+000
 1.1129162360e-001	 1.1546469539e+000	-3.8722422300e+000
 2.2674025289e-001	 1.1444195891e+000	-3.4163151028e+000
 2.1517483360e-001	 1.1466504085e+000	-3.4602712462e+000
 2.0362357870e-001	 1.1487579505e+000	-3.5023077033e+000
 1.9208826932e-001	 1.1507430212e+000	-3.5423637920e+000
 1.8057065892e-001	 1.1526064575e+000	-3.5803728594e+000
 1.6907247284e-001	 1.1543491256e+000	-3.6162593015e+000
 1.5759540777e-001	 1.1559719200e+000	-3.6499356834e+000
 1.4614113128e-001	 1.1574757631e+000	-3.6812999810e+000
 1.3471128142e-001	 1.1588616036e+000	-3.7102329644e+000
 1.2330746629e-001	 1.1601304160e+000	-3.7365957412e+000
 1.1193126372e-001	 1.1612831992e+000	-3.7602274738e+000
 2.2803597811e-001	 1.1509594659e+000	-3.3270022173e+000
 2.1640446731e-001	 1.1532030336e+000	-3.3684953000e+000
 2.0478720185e-001	 1.1553226192e+000	-3.4081929414e+000
 1.9318597302e-001	 1.1573190338e+000	-3.4460362600e+000
 1.8160254433e-001	 1.1591931188e+000	-3.4819601558e+000
 1.7003865095e-001	 1.1609457455e+000	-3.5158901985e+000
 1.5849599928e-001	 1.1625778136e+000	-3.5477396189e+000
 1.4697626641e-001	 1.1640902505e+000	-3.5774064267e+000
 1.3548109976e-001	 1.1654840105e+000	-3.6047706735e+000
 1.2401211663e-001	 1.1667600736e+000	-3.6296918801e+000
 1.1257090384e-001	 1.1679194445e+000	-3.6520066454e+000
 2.2933170333e-001	 1.1574993428e+000	-3.2407608445e+000
 2.1763410102e-001	 1.1597556586e+000	-3.2798651524e+000
 2.0595082500e-001	 1.1618872879e+000	-3.3172923102e+000
 1.9428367673e-001	 1.1638950464e+000	-3.3529856520e+000
 1.8263442973e-001	 1.1657797802e+000	-3.3868820661e+000
 1.7100482905e-001	 1.1675423655e+000	-3.4189087477e+000
 1.5939659078e-001	 1.1691837071e+000	-3.4489800570e+000
 1.4781140154e-001	 1.1707047379e+000	-3.4769945076e+000
 1.3625091810e-001	 1.1721064174e+000	-3.5028319040e+000
 1.2471676696e-001	 1.1733897311e+000	-3.5263506495e+000
 1.1321054396e-001	 1.1745556897e+000	-3.5473852411e+000
 2.3062742856e-001	 1.1640392196e+000	-3.1574815509e+000
 2.1886373474e-001	 1.1663082836e+000	-3.1942622075e+000
 2.0711444815e-001	 1.1684519567e+000	-3.2294781933e+000
 1.9538138043e-001	 1.1704710589e+000	-3.2630755117e+000
 1.8366631513e-001	 1.1723664415e+000	-3.2949935154e+000
 1.7197100716e-001	 1.1741389854e+000	-3.3251615170e+000
 1.6029718228e-001	 1.1757896007e+000	-3.3534955101e+000
 1.4864653667e-001	 1.1773192253e+000	-3.3798950222e+000
 1.3702073644e-001	 1.1787288242e+000	-3.4042401226e+000
 1.2542141729e-001	 1.1800193887e+000	-3.4263886055e+000
 1.1385018407e-001	 1.1811919350e+000	-3.4461733667e+000
 2.3192315378e-001	 1.1705790964e+000	-3.0770592343e+000
 2.2009336845e-001	 1.1728609086e+000	-3.1115722522e+000
 2.0827807130e-001	 1.1750166254e+000	-3.1446273990e+000
 1.9647908414e-001	 1.1770470715e+000	-3.1761738421e+000
 1.8469820054e-001	 1.1789531029e+000	-3.2061539143e+000
 1.7293718526e-001	 1.1807356054e+000	-3.2344995789e+000
 1.6119777378e-001	 1.1823954942e+000	-3.2611290068e+000
 1.4948167180e-001	 1.1839337126e+000	-3.2859432900e+000
 1.3779055479e-001	 1.1853512311e+000	-3.3088233145e+000
 1.2612606762e-001	 1.1866490463e+000	-3.3296268141e+000
 1.1448982419e-001	 1.1878281803e+000	-3.3481856231e+000
 2.3321887900e-001	 1.1771189732e+000	-2.9993930236e+000
 2.2132300216e-001	 1.1794135337e+000	-3.0316853539e+000
 2.0944169444e-001	 1.1815812942e+000	-3.0626210581e+000
 1.9757678784e-001	 1.1836230841e+000	-3.0921530018e+000
 1.8573008594e-001	 1.1855397642e+000	-3.1202270548e+000
 1.7390336337e-001	 1.1873322253e+000	-3.1467784045e+000
 1.6209836528e-001	 1.1890013878e+000	-3.1717279844e+000
 1.5031680692e-001	 1.1905482000e+000	-3.1949790425e+000
 1.3856037313e-001	 1.1919736380e+000	-3.2164138742e+000
 1.2683071795e-001	 1.1932787039e+000	-3.2358907410e+000
 1.1512946431e-001	 1.1944644255e+000	-3.2532409957e+000
 1.0873306313e-001	 1.1281019728e+000	-4.3622987049e+000
 9.7708590645e-002	 1.1291102404e+000	-4.3901832305e+000
 8.6713949601e-002	 1.1300077707e+000	-4.4153417612e+000
 7.5750605430e-002	 1.1307956011e+000	-4.4377431104e+000
 6.4819992318e-002	 1.1314747896e+000	-4.4573318386e+000
 5.3923513013e-002	 1.1320464133e+000	-4.4740272558e+000
 4.3062538653e-002	 1.1325115679e+000	-4.4877226239e+000
 3.2238408627e-002	 1.1328713664e+000	-4.4982845633e+000
 2.1452430459e-002	 1.1331269386e+000	-4.5055526642e+000
 1.0705879726e-002	 1.1332794297e+000	-4.5093393034e+000
 0.0000000000e+000	 1.1333300000e+000	-4.5094309247e+000
 1.0937270325e-001	 1.1347382181e+000	-4.2330667687e+000
 9.8283377490e-002	 1.1357524170e+000	-4.2594998657e+000
 8.7224058663e-002	 1.1366552271e+000	-4.2833631093e+000
 7.6196220818e-002	 1.1374476921e+000	-4.3046300050e+000
 6.5201306578e-002	 1.1381308760e+000	-4.3232480672e+000
 5.4240726942e-002	 1.1387058624e+000	-4.3391377590e+000
 4.3315861116e-002	 1.1391737533e+000	-4.3521916427e+000
 3.2428056365e-002	 1.1395356684e+000	-4.3622737414e+000
 2.1578627908e-002	 1.1397927441e+000	-4.3692191154e+000
 1.0768858824e-002	 1.1399461323e+000	-4.3728336533e+000
 0.0000000000e+000	 1.1399970000e+000	-4.3728952353e+000
 1.1001234337e-001	 1.1413744634e+000	-4.1084553057e+000
 9.8858164336e-002	 1.1423945936e+000	-4.1334991619e+000
 8.7734167726e-002	 1.1433026835e+000	-4.1561206242e+000
 7.6641836207e-002	 1.1440997830e+000	-4.1762981099e+000
 6.5582620838e-002	 1.1447869624e+000	-4.1939822933e+000
 5.4557940872e-002	 1.1453653115e+000	-4.2090949806e+000
 4.3569183579e-002	 1.1458359388e+000	-4.2215282038e+000
 3.2617704104e-002	 1.1461999704e+000	-4.2311435356e+000
 2.1704825357e-002	 1.1464585495e+000	-4.2377716277e+000
 1.0831837922e-002	 1.1466128348e+000	-4.2412119742e+000
 0.0000000000e+000	 1.1466640000e+000	-4.2412339593e+000
 1.1065198348e-001	 1.1480107086e+000	-3.9882501463e+000
 9.9432951182e-002	 1.1490367701e+000	-4.0119611420e+000
 8.8244276789e-002	 1.1499501400e+000	-4.0333891998e+000
 7.7087451596e-002	 1.1507518740e+000	-4.0525179042e+000
 6.5963935099e-002	 1.1514430488e+000	-4.0693013296e+000
 5.4875154803e-002	 1.1520247606e+000	-4.0836628475e+000
 4.3822506043e-002	 1.1524981242e+000	-4.0954941605e+000
 3.2807351844e-002	 1.1528642725e+000	-4.1046545676e+000
 2.1831022807e-002	 1.1531243550e+000	-4.1109704623e+000
 1.0894817020e-002	 1.1532795373e+000	-4.1142350641e+000
 0.0000000000e+000	 1.1533310000e+000	-4.1142093549e+000
 1.1129162360e-001	 1.1546469539e+000	-3.8722422300e+000
 1.0000773803e-001	 1.1556789467e+000	-3.8946709205e+000
 8.8754385853e-002	 1.1565975964e+000	-3.9149487968e+000
 7.7533066986e-002	 1.1574039650e+000	-3.9330649005e+000
 6.6345249361e-002	 1.1580991352e+000	-3.9489769808e+000
 5.5192368734e-002	 1.1586842097e+000	-3.9626102296e+000
 4.4075828507e-002	 1.1591603096e+000	-3.9738562531e+000
 3.2996999584e-002	 1.1595285745e+000	-3.9825722838e+000
 2.1957220257e-002	 1.1597901604e+000	-3.9885806355e+000
 1.0957796118e-002	 1.1599462398e+000	-3.9916684012e+000
 0.0000000000e+000	 1.1599980000e+000	-3.9915882789e+000
 1.1193126372e-001	 1.1612831992e+000	-3.7602274738e+000
 1.0058252488e-001	 1.1623211233e+000	-3.7814185721e+000
 8.9264494917e-002	 1.1632450528e+000	-3.8005843095e+000
 7.7978682376e-002	 1.1640560560e+000	-3.8177195109e+000
 6.6726563623e-002	 1.1647552217e+000	-3.8327859094e+000
 5.5509582665e-002	 1.1653436587e+000	-3.8457108061e+000
 4.4329150971e-002	 1.1658224951e+000	-3.8563859756e+000
 3.3186647323e-002	 1.1661928765e+000	-3.8646668215e+000
 2.2083417706e-002	 1.1664559659e+000	-3.8703717860e+000
 1.1020775216e-002	 1.1666129423e+000	-3.8732820111e+000
 0.0000000000e+000	 1.1666650000e+000	-3.8731420555e+000
 1.1257090384e-001	 1.1679194445e+000	-3.6520066454e+000
 1.0115731172e-001	 1.1689632999e+000	-3.6719990033e+000
 8.9774603981e-002	 1.1698925093e+000	-3.6900854373e+000
 7.8424297766e-002	 1.1707081470e+000	-3.7062669179e+000
 6.7107877884e-002	 1.1714113081e+000	-3.7205095065e+000
 5.5826796596e-002	 1.1720031078e+000	-3.7327429356e+000
 4.4582473435e-002	 1.1724846805e+000	-3.7428594452e+000
 3.3376295063e-002	 1.1728571785e+000	-3.7507128795e+000
 2.2209615156e-002	 1.1731217714e+000	-3.7561180460e+000
 1.1083754314e-002	 1.1732796448e+000	-3.7588503390e+000
 0.0000000000e+000	 1.1733320000e+000	-3.7586463494e+000
 1.1321054396e-001	 1.1745556897e+000	-3.5473852411e+000
 1.0173209857e-001	 1.1756054764e+000	-3.5662118291e+000
 9.0284713045e-002	 1.1765399657e+000	-3.5832465606e+000
 7.8869913155e-002	 1.1773602379e+000	-3.5984969502e+000
 6.7489192146e-002	 1.1780673945e+000	-3.6119337666e+000
 5.6144010527e-002	 1.1786625569e+000	-3.6234895307e+000
 4.4835795899e-002	 1.1791468660e+000	-3.6330572781e+000
 3.3565942803e-002	 1.1795214805e+000	-3.6404895932e+000
 2.2335812606e-002	 1.1797875768e+000	-3.6455979165e+000
 1.1146733412e-002	 1.1799463473e+000	-3.6481521262e+000
 0.0000000000e+000	 1.1799990000e+000	-3.6478810430e+000
 1.1385018407e-001	 1.1811919350e+000	-3.4461733667e+000
 1.0230688541e-001	 1.1822476530e+000	-3.4638612538e+000
 9.0794822108e-002	 1.1831874222e+000	-3.4798666208e+000
 7.9315528545e-002	 1.1840123289e+000	-3.4942039612e+000
 6.7870506407e-002	 1.1847234809e+000	-3.5068491669e+000
 5.6461224458e-002	 1.1853220060e+000	-3.5177379377e+000
 4.5089118363e-002	 1.1858090514e+000	-3.5267644679e+000
 3.3755590542e-002	 1.1861857825e+000	-3.5337804142e+000
 2.2462010056e-002	 1.1864533823e+000	-3.5385941477e+000
 1.1209712510e-002	 1.1866130499e+000	-3.5409702906e+000
 0.0000000000e+000	 1.1866660000e+000	-3.5406301182e+000
 1.1448982419e-001	 1.1878281803e+000	-3.3481856231e+000
 1.0288167226e-001	 1.1888898296e+000	-3.3647559556e+000
 9.1304931171e-002	 1.1898348786e+000	-3.3797490039e+000
 7.9761143934e-002	 1.1906644199e+000	-3.3931867135e+000
 6.8251820668e-002	 1.1913795673e+000	-3.4050505502e+000
 5.6778438388e-002	 1.1919814551e+000	-3.4152798186e+000
 4.5342440826e-002	 1.1924712368e+000	-3.4237702687e+000
 3.3945238281e-002	 1.1928500845e+000	-3.4303729935e+000
 2.2588207505e-002	 1.1931191877e+000	-3.4348936223e+000
 1.1272691608e-002	 1.1932797524e+000	-3.4370918110e+000
 0.0000000000e+000	 1.1933330000e+000	-3.4366815414e+000
 1.1512946431e-001	 1.1944644255e+000	-3.2532409957e+000
 1.0345645911e-001	 1.1955320061e+000	-3.2687089745e+000
 9.1815040233e-002	 1.1964823350e+000	-3.2827014286e+000
 8.0206759322e-002	 1.1973165109e+000	-3.2952482654e+000
 6.8633134928e-002	 1.1980356538e+000	-3.3063370120e+000
 5.7095652318e-002	 1.1986409042e+000	-3.3159110391e+000
 4.5595763289e-002	 1.1991334223e+000	-3.3238680828e+000
 3.4134886020e-002	 1.1995143866e+000	-3.3300590687e+000
 2.2714404954e-002	 1.1997849932e+000	-3.3342872439e+000
 1.1335670705e-002	 1.1999464549e+000	-3.3363076160e+000
 0.0000000000e+000	 1.2000000000e+000	-3.3358271535e+000
 1.2000000000e+000	 0.0000000000e+000	 2.9976682294e+000
 1.1999464549e+000	 1.1335670705e-002	 2.9914057103e+000
 1.1997849932e+000	 2.2714404954e-002	 2.9871251538e+000
 1.1995143866e+000	 3.4134886020e-002	 2.9842679112e+000
 1.1991334223e+000	 4.5595763289e-002	 2.9822579586e+000
 1.1986409042e+000	 5.7095652318e-002	 2.9805028696e+000
 1.1980356538e+000	 6.8633134928e-002	 2.9783956979e+000
 1.1973165109e+000	 8.0206759322e-002	 2.9753170861e+000
 1.1964823350e+000	 9.1815040233e-002	 2.9706376011e+000
 1.1955320061e+000	 1.0345645911e-001	 2.9637202977e+000
 1.1944644255e+000	 1.1512946431e-001	 2.9539235058e+000
 1.2066670000e+000	 0.0000000000e+000	 3.0377498394e+000
 1.2066131574e+000	 1.1398649803e-002	 3.0314855412e+000
 1.2064507987e+000	 2.2840602403e-002	 3.0271076574e+000
 1.2061786886e+000	 3.4324533758e-002	 3.0240601165e+000
 1.2057956077e+000	 4.5849085750e-002	 3.0217684861e+000
 1.2053003533e+000	 5.7412866246e-002	 3.0196410566e+000
 1.2046917402e+000	 6.9014449187e-002	 3.0170707464e+000
 1.2039686019e+000	 8.0652374709e-002	 3.0134372407e+000
 1.2031297915e+000	 9.2325149294e-002	 3.0081093665e+000
 1.2021741827e+000	 1.0403124595e-001	 3.0004477026e+000
 1.2011006708e+000	 1.1576910442e-001	 2.9898074233e+000
 1.2133340000e+000	 0.0000000000e+000	 3.0762911039e+000
 1.2132798599e+000	 1.1461628900e-002	 3.0700350749e+000
 1.2131166041e+000	 2.2966799851e-002	 3.0655618520e+000
 1.2128429906e+000	 3.4514181495e-002	 3.0623198848e+000
 1.2124577932e+000	 4.6102408212e-002	 3.0597382545e+000
 1.2119598024e+000	 5.7730080174e-002	 3.0572278556e+000
 1.2113478266e+000	 6.9395763445e-002	 3.0541833209e+000
 1.2106206929e+000	 8.1097990095e-002	 3.0499851890e+000
 1.2097772479e+000	 9.2835258354e-002	 3.0440023159e+000
 1.2088163593e+000	 1.0460603279e-001	 3.0355945298e+000
 1.2077369161e+000	 1.1640874454e-001	 3.0241155296e+000
 1.2200010000e+000	 0.0000000000e+000	 3.1131988404e+000
 1.2199465624e+000	 1.1524607997e-002	 3.1069621486e+000
 1.2197824096e+000	 2.3092997298e-002	 3.1023968911e+000
 1.2195072926e+000	 3.4703829232e-002	 3.0989579537e+000
 1.2191199786e+000	 4.6355730672e-002	 3.0960798203e+000
 1.2186192515e+000	 5.8047294102e-002	 3.0931778431e+000
 1.2180039130e+000	 6.9777077703e-002	 3.0896501839e+000
 1.2172727838e+000	 8.1543605481e-002	 3.0848800078e+000
 1.2164247044e+000	 9.3345367414e-002	 3.0782379295e+000
 1.2154585359e+000	 1.0518081964e-001	 3.0690847116e+000
 1.2143731614e+000	 1.1704838465e-001	 3.0567742148e+000
 1.2266680000e+000	 0.0000000000e+000	 3.1483830414e+000
 1.2266132649e+000	 1.1587587093e-002	 3.1421774650e+000
 1.2264482150e+000	 2.3219194746e-002	 3.1375244984e+000
 1.2261715946e+000	 3.4893476969e-002	 3.1338873486e+000
 1.2257821640e+000	 4.6609053133e-002	 3.1307077610e+000
 1.2252787006e+000	 5.8364508028e-002	 3.1274073651e+000
 1.2246599994e+000	 7.0158391960e-002	 3.1233896311e+000
 1.2239248748e+000	 8.1989220866e-002	 3.1180420872e+000
 1.2230721608e+000	 9.3855476473e-002	 3.1107387981e+000
 1.2221007124e+000	 1.0575560648e-001	 3.1008431050e+000
 1.2210094066e+000	 1.1768802476e-001	 3.0877106262e+000
 1.2333350000e+000	 0.0000000000e+000	 3.1817567888e+000
 1.2332799675e+000	 1.1650566190e-002	 3.1755945119e+000
 1.2331140205e+000	 2.3345392193e-002	 3.1708588919e+000
 1.2328358966e+000	 3.5083124705e-002	 3.1670233133e+000
 1.2324443495e+000	 4.6862375592e-002	 3.1635386104e+000
 1.2319381497e+000	 5.8681721955e-002	 3.1598344771e+000
 1.2313160859e+000	 7.0539706217e-002	 3.1553214371e+000
 1.2305769658e+000	 8.2434836251e-002	 3.1493930816e+000
 1.2297196173e+000	 9.4365585532e-002	 3.1414285786e+000
 1.2287428890e+000	 1.0633039332e-001	 3.1307954524e+000
 1.2276456519e+000	 1.1832766488e-001	 3.1168526334e+000
 1.2400020000e+000	 0.0000000000e+000	 3.2132361700e+000
 1.2399466700e+000	 1.1713545286e-002	 3.2071294849e+000
 1.2397798260e+000	 2.3471589640e-002	 3.2023167120e+000
 1.2395001987e+000	 3.5272772441e-002	 3.1982832426e+000
 1.2391065349e+000	 4.7115698052e-002	 3.1944907964e+000
 1.2385975988e+000	 5.8998935881e-002	 3.1903788873e+000
 1.2379721723e+000	 7.0921020473e-002	 3.1853668029e+000
 1.2372290568e+000	 8.2880451636e-002	 3.1788558619e+000
 1.2363670737e+000	 9.4875694591e-002	 3.1702319512e+000
 1.2353850656e+000	 1.0690518016e-001	 3.1588683434e+000
 1.2342818972e+000	 1.1896730499e-001	 3.1441287940e+000
 1.2466690000e+000	 0.0000000000e+000	 3.2427401987e+000
 1.2466133725e+000	 1.1776524383e-002	 3.2367012110e+000
 1.2464456314e+000	 2.3597787086e-002	 3.2318169507e+000
 1.2461645007e+000	 3.5462420176e-002	 3.2275866163e+000
 1.2457687204e+000	 4.7369020511e-002	 3.2234845805e+000
 1.2452570478e+000	 5.9316149807e-002	 3.2189619006e+000
 1.2446282587e+000	 7.1302334730e-002	 3.2134483055e+000
 1.2438811478e+000	 8.3326067021e-002	 3.2063544699e+000
 1.2430145301e+000	 9.5385803650e-002	 3.1970745781e+000
 1.2420272421e+000	 1.0747996700e-001	 3.1849891776e+000
 1.2409181425e+000	 1.1960694511e-001	 3.1694683215e+000
 1.2533360000e+000	 0.0000000000e+000	 3.2701907360e+000
 1.2532800750e+000	 1.1839503479e-002	 3.2642310768e+000
 1.2531114369e+000	 2.3723984533e-002	 3.2592808835e+000
 1.2528288027e+000	 3.5652067912e-002	 3.2548549367e+000
 1.2524309058e+000	 4.7622342970e-002	 3.2504419998e+000
 1.2519164969e+000	 5.9633363733e-002	 3.2455063655e+000
 1.2512843451e+000	 7.1683648986e-002	 3.2394898484e+000
 1.2505332388e+000	 8.3771682405e-002	 3.2318140734e+000
 1.2496619866e+000	 9.5895912709e-002	 3.2218830638e+000
 1.2486694187e+000	 1.0805475385e-001	 3.2090861295e+000
 1.2475543877e+000	 1.2024658522e-001	 3.1928010538e+000
 1.2600030000e+000	 0.0000000000e+000	 3.2955124159e+000
 1.2599467775e+000	 1.1902482575e-002	 3.2896429569e+000
 1.2597772423e+000	 2.3850181979e-002	 3.2846320038e+000
 1.2594931047e+000	 3.5841715647e-002	 3.2800116669e+000
 1.2590930912e+000	 4.7875665429e-002	 3.2752868096e+000
 1.2585759460e+000	 5.9950577658e-002	 3.2699366217e+000
 1.2579404316e+000	 7.2064963242e-002	 3.2634166149e+000
 1.2571853297e+000	 8.4217297790e-002	 3.2551609237e+000
 1.2563094430e+000	 9.6406021767e-002	 3.2445849161e+000
 1.2553115953e+000	 1.0862954069e-001	 3.2310881140e+000
 1.2541906330e+000	 1.2088622533e-001	 3.2140574229e+000
 1.2666700000e+000	 0.0000000000e+000	 3.3186325718e+000
 1.2666134800e+000	 1.1965461671e-002	 3.3128631463e+000
 1.2664430478e+000	 2.3976379426e-002	 3.3077959590e+000
 1.2661574067e+000	 3.6031363383e-002	 3.3029821720e+000
 1.2657552767e+000	 4.8128987889e-002	 3.2979444296e+000
 1.2652353951e+000	 6.0267791584e-002	 3.2921784500e+000
 1.2645965180e+000	 7.2446277499e-002	 3.2851550216e+000
 1.2638374207e+000	 8.4662913175e-002	 3.2763223140e+000
 1.2629568995e+000	 9.6916130827e-002	 3.2651085092e+000
 1.2619537719e+000	 1.0920432753e-001	 3.2509247528e+000
 1.2608268783e+000	 1.2152586545e-001	 3.2331684258e+000
 1.1944644255e+000	 1.1512946431e-001	 2.9539235058e+000
 1.1932787039e+000	 1.2683071795e-001	 2.9428871360e+000
 1.1919736380e+000	 1.3856037313e-001	 2.9324383283e+000
 1.1905482000e+000	 1.5031680692e-001	 2.9222238727e+000
 1.1890013878e+000	 1.6209836528e-001	 2.9118988406e+000
 1.1873322253e+000	 1.7390336337e-001	 2.9011300486e+000
 1.1855397642e+000	 1.8573008594e-001	 2.8895996909e+000
 1.1836230841e+000	 1.9757678784e-001	 2.8770091254e+000
 1.1815812942e+000	 2.0944169444e-001	 2.8630827986e+000
 1.1794135337e+000	 2.2132300216e-001	 2.8475722919e+000
 1.1771189732e+000	 2.3321887900e-001	 2.8302604690e+000
 1.2011006708e+000	 1.1576910442e-001	 2.9898074233e+000
 1.1999083615e+000	 1.2753536828e-001	 2.9778149835e+000
 1.1985960448e+000	 1.3933019147e-001	 2.9662915969e+000
 1.1971626874e+000	 1.5115194205e-001	 2.9548917427e+000
 1.1956072813e+000	 1.6299895679e-001	 2.9432777287e+000
 1.1939288453e+000	 1.7486954147e-001	 2.9311232268e+000
 1.1921264255e+000	 1.8676197134e-001	 2.9181169837e+000
 1.1901990967e+000	 1.9867449155e-001	 2.9039666937e+000
 1.1881459629e+000	 2.1060531759e-001	 2.8884030153e+000
 1.1859661587e+000	 2.2255263588e-001	 2.8711837154e+000
 1.1836588501e+000	 2.3451460422e-001	 2.8520979204e+000
 1.2077369161e+000	 1.1640874454e-001	 3.0241155296e+000
 1.2065380191e+000	 1.2824001861e-001	 3.0111781926e+000
 1.2052184517e+000	 1.4010000980e-001	 2.9985968417e+000
 1.2037771748e+000	 1.5198707717e-001	 2.9860339705e+000
 1.2022131748e+000	 1.6389954829e-001	 2.9731593800e+000
 1.2005254653e+000	 1.7583571957e-001	 2.9596537870e+000
 1.1987130869e+000	 1.8779385674e-001	 2.9452126141e+000
 1.1967751093e+000	 1.9977219525e-001	 2.9295499497e+000
 1.1947106316e+000	 2.1176894074e-001	 2.9124026579e+000
 1.1925187837e+000	 2.2378226959e-001	 2.8935346232e+000
 1.1901987269e+000	 2.3581032944e-001	 2.8727411065e+000
 1.2143731614e+000	 1.1704838465e-001	 3.0567742148e+000
 1.2131676768e+000	 1.2894466894e-001	 3.0429055548e+000
 1.2118408586e+000	 1.4086982814e-001	 3.0292851479e+000
 1.2103916621e+000	 1.5282221230e-001	 3.0155837997e+000
 1.2088190684e+000	 1.6480013979e-001	 3.0014790332e+000
 1.2071220852e+000	 1.7680189767e-001	 2.9866587698e+000
 1.2052997482e+000	 1.8882574215e-001	 2.9708252006e+000
 1.2033511219e+000	 2.0086989895e-001	 2.9536988345e+000
 1.2012753004e+000	 2.1293256389e-001	 2.9350227032e+000
 1.1990714087e+000	 2.2501190330e-001	 2.9145667076e+000
 1.1967386037e+000	 2.3710605467e-001	 2.8921320814e+000
 1.2210094066e+000	 1.1768802476e-001	 3.0877106262e+000
 1.2197973344e+000	 1.2964931927e-001	 3.0729264695e+000
 1.2184632655e+000	 1.4163964648e-001	 3.0582880785e+000
 1.2170061495e+000	 1.5365734743e-001	 3.0434748413e+000
 1.2154249619e+000	 1.6570073129e-001	 3.0281722023e+000
 1.2137187052e+000	 1.7776807578e-001	 3.0120754180e+000
 1.2118864096e+000	 1.8985762755e-001	 2.9948935100e+000
 1.2099271345e+000	 2.0196760266e-001	 2.9763534024e+000
 1.2078399691e+000	 2.1409618703e-001	 2.9562042240e+000
 1.2056240338e+000	 2.2624153701e-001	 2.9342217580e+000
 1.2032784806e+000	 2.3840177989e-001	 2.9102130158e+000
 1.2276456519e+000	 1.1832766488e-001	 3.1168526334e+000
 1.2264269920e+000	 1.3035396960e-001	 3.1011709135e+000
 1.2250856723e+000	 1.4240946482e-001	 3.0855376483e+000
 1.2236206369e+000	 1.5449248255e-001	 3.0696410505e+000
 1.2220308555e+000	 1.6660132279e-001	 3.0531746574e+000
 1.2203153251e+000	 1.7873425388e-001	 3.0358411611e+000
 1.2184730709e+000	 1.9088951295e-001	 3.0173564447e+000
 1.2165031471e+000	 2.0306530636e-001	 2.9974538105e+000
 1.2144046379e+000	 2.1525981018e-001	 2.9758883815e+000
 1.2121766588e+000	 2.2747117073e-001	 2.9524416558e+000
 1.2098183574e+000	 2.3969750511e-001	 2.9269261934e+000
 1.2342818972e+000	 1.1896730499e-001	 3.1441287940e+000
 1.2330566496e+000	 1.3105861993e-001	 3.1275694113e+000
 1.2317080792e+000	 1.4317928316e-001	 3.1109662976e+000
 1.2302351243e+000	 1.5532761768e-001	 3.0940167052e+000
 1.2286367490e+000	 1.6750191429e-001	 3.0764224068e+000
 1.2269119451e+000	 1.7970043198e-001	 3.0578936003e+000
 1.2250597323e+000	 1.9192139835e-001	 3.0381530305e+000
 1.2230791596e+000	 2.0416301006e-001	 3.0169403096e+000
 1.2209693066e+000	 2.1642343333e-001	 2.9940164184e+000
 1.2187292838e+000	 2.2870080444e-001	 2.9691683695e+000
 1.2163582342e+000	 2.4099323033e-001	 2.9422140080e+000
 1.2409181425e+000	 1.1960694511e-001	 3.1694683215e+000
 1.2396863072e+000	 1.3176327026e-001	 3.1520530068e+000
 1.2383304861e+000	 1.4394910150e-001	 3.1345068682e+000
 1.2368496116e+000	 1.5616275280e-001	 3.1165363852e+000
 1.2352426426e+000	 1.6840250579e-001	 3.0978516789e+000
 1.2335085650e+000	 1.8066661008e-001	 3.0781704940e+000
 1.2316463936e+000	 1.9295328375e-001	 3.0572224059e+000
 1.2296551722e+000	 2.0526071377e-001	 3.0347532355e+000
 1.2275339754e+000	 2.1758705647e-001	 3.0105296531e+000
 1.2252819089e+000	 2.2993043815e-001	 2.9843439510e+000
 1.2228981111e+000	 2.4228895555e-001	 2.9560189620e+000
 1.2475543877e+000	 1.2024658522e-001	 3.1928010538e+000
 1.2463159648e+000	 1.3246792059e-001	 3.1745532357e+000
 1.2449528930e+000	 1.4471891983e-001	 3.1560925797e+000
 1.2434640990e+000	 1.5699788793e-001	 3.1371349520e+000
 1.2418485361e+000	 1.6930309729e-001	 3.1173989064e+000
 1.2401051850e+000	 1.8163278818e-001	 3.0966097448e+000
 1.2382330549e+000	 1.9398516915e-001	 3.0745038111e+000
 1.2362311848e+000	 2.0635841747e-001	 3.0508330016e+000
 1.2340986441e+000	 2.1875067962e-001	 3.0253694740e+000
 1.2318345339e+000	 2.3116007186e-001	 2.9979105322e+000
 1.2294379879e+000	 2.4358468078e-001	 2.9682836640e+000
 1.2541906330e+000	 1.2088622533e-001	 3.2140574229e+000
 1.2529456224e+000	 1.3317257092e-001	 3.1950020993e+000
 1.2515752998e+000	 1.4548873817e-001	 3.1756570067e+000
 1.2500785864e+000	 1.5783302305e-001	 3.1557475296e+000
 1.2484544297e+000	 1.7020368879e-001	 3.1350007099e+000
 1.2467018050e+000	 1.8259896629e-001	 3.1131493865e+000
 1.2448197163e+000	 1.9501705456e-001	 3.0899365781e+000
 1.2428071974e+000	 2.0745612117e-001	 3.0651200909e+000
 1.2406633128e+000	 2.1991430277e-001	 3.0384773346e+000
 1.2383871589e+000	 2.3238970558e-001	 3.0098103218e+000
 1.2359778647e+000	 2.4488040600e-001	 2.9789508285e+000
 1.2608268783e+000	 1.2152586545e-001	 3.2331684258e+000
 1.2595752800e+000	 1.3387722125e-001	 3.2133320393e+000
 1.2581977067e+000	 1.4625855651e-001	 3.1931340575e+000
 1.2566930738e+000	 1.5866815818e-001	 3.1723094867e+000
 1.2550603232e+000	 1.7110428029e-001	 3.1505938831e+000
 1.2532984249e+000	 1.8356514439e-001	 3.1277275722e+000
 1.2514063776e+000	 1.9604893996e-001	 3.1034601218e+000
 1.2493832100e+000	 2.0855382488e-001	 3.0775550499e+000
 1.2472279816e+000	 2.2107792592e-001	 3.0497947491e+000
 1.2449397839e+000	 2.3361933929e-001	 3.0199856036e+000
 1.2425177416e+000	 2.4617613122e-001	 2.9879632749e+000
 1.1771189732e+000	 2.3321887900e-001	 2.8302604690e+000
 1.1746964429e+000	 2.4512925199e-001	 2.8115934419e+000
 1.1721455137e+000	 2.5705044737e-001	 2.7920610620e+000
 1.1694654564e+000	 2.6898054781e-001	 2.7715589258e+000
 1.1666555769e+000	 2.8091760998e-001	 2.7500251721e+000
 1.1637152168e+000	 2.9285966530e-001	 2.7274447182e+000
 1.1606437548e+000	 3.0480472067e-001	 2.7038534527e+000
 1.1574406073e+000	 3.1675075928e-001	 2.6793423550e+000
 1.1541052293e+000	 3.2869574138e-001	 2.6540615110e+000
 1.1506371152e+000	 3.4063760520e-001	 2.6282239916e+000
 1.1470357998e+000	 3.5257426777e-001	 2.6021095607e+000
 1.1836588501e+000	 2.3451460422e-001	 2.8520979204e+000
 1.1812228605e+000	 2.4649114926e-001	 2.8315623701e+000
 1.1786577588e+000	 2.5847857682e-001	 2.8100390970e+000
 1.1759628116e+000	 2.7047495891e-001	 2.7874317629e+000
 1.1731373208e+000	 2.8247834141e-001	 2.7636868782e+000
 1.1701806246e+000	 2.9448674479e-001	 2.7387981524e+000
 1.1670920981e+000	 3.0649816490e-001	 2.7128108030e+000
 1.1638711545e+000	 3.1851057370e-001	 2.6858257918e+000
 1.1605172456e+000	 3.3052192014e-001	 2.6580039564e+000
 1.1570298633e+000	 3.4253013096e-001	 2.6295700026e+000
 1.1534085395e+000	 3.5453311163e-001	 2.6008163250e+000
 1.1901987269e+000	 2.3581032944e-001	 2.8727411065e+000
 1.1877492782e+000	 2.4785304653e-001	 2.8504079912e+000
 1.1851700039e+000	 2.5990670626e-001	 2.8269681360e+000
 1.1824601668e+000	 2.7196937000e-001	 2.8023333293e+000
 1.1796190648e+000	 2.8403907283e-001	 2.7764585281e+000
 1.1766460324e+000	 2.9611382428e-001	 2.7493463272e+000
 1.1735404414e+000	 3.0819160913e-001	 2.7210513882e+000
 1.1703017016e+000	 3.2027038813e-001	 2.6916847960e+000
 1.1669292619e+000	 3.3234809890e-001	 2.6614183101e+000
 1.1634226113e+000	 3.4442265673e-001	 2.6304884758e+000
 1.1597812792e+000	 3.5649195550e-001	 2.5992005601e+000
 1.1967386037e+000	 2.3710605467e-001	 2.8921320814e+000
 1.1942756958e+000	 2.4921494379e-001	 2.8680727349e+000
 1.1916822490e+000	 2.6133483571e-001	 2.8427913635e+000
 1.1889575219e+000	 2.7346378109e-001	 2.8162079054e+000
 1.1861008087e+000	 2.8559980425e-001	 2.7882858016e+000
 1.1831114402e+000	 2.9774090377e-001	 2.7590365869e+000
 1.1799887846e+000	 3.0988505336e-001	 2.7285244425e+000
 1.1767322487e+000	 3.2203020256e-001	 2.6968706775e+000
 1.1733412782e+000	 3.3417427765e-001	 2.6642581042e+000
 1.1698153593e+000	 3.4631518249e-001	 2.6309352713e+000
 1.1661540190e+000	 3.5845079937e-001	 2.5972205202e+000
 1.2032784806e+000	 2.3840177989e-001	 2.9102130158e+000
 1.2008021135e+000	 2.5057684106e-001	 2.8844991760e+000
 1.1981944942e+000	 2.6276296515e-001	 2.8574521367e+000
 1.1954548771e+000	 2.7495819219e-001	 2.8289999730e+000
 1.1925825527e+000	 2.8716053567e-001	 2.7991146083e+000
 1.1895768480e+000	 2.9936798326e-001	 2.7678165326e+000
 1.1864371279e+000	 3.1157849758e-001	 2.7351794833e+000
 1.1831627958e+000	 3.2379001698e-001	 2.7013350549e+000
 1.1797532945e+000	 3.3600045641e-001	 2.6664772028e+000
 1.1762081074e+000	 3.4820770825e-001	 2.6308666035e+000
 1.1725267587e+000	 3.6040964324e-001	 2.5948348341e+000
 1.2098183574e+000	 2.3969750511e-001	 2.9269261934e+000
 1.2073285311e+000	 2.5193873833e-001	 2.8996300320e+000
 1.2047067393e+000	 2.6419109459e-001	 2.8708939870e+000
 1.2019522323e+000	 2.7645260328e-001	 2.8406542181e+000
 1.1990642966e+000	 2.8872126709e-001	 2.8088910916e+000
 1.1960422558e+000	 3.0099506275e-001	 2.7756340290e+000
 1.1928854711e+000	 3.1327194181e-001	 2.7409663201e+000
 1.1895933429e+000	 3.2554983141e-001	 2.7050298663e+000
 1.1861653108e+000	 3.3782663517e-001	 2.6680298163e+000
 1.1826008554e+000	 3.5010023401e-001	 2.6302390576e+000
 1.1788994984e+000	 3.6236848711e-001	 2.5920025249e+000
 1.2163582342e+000	 2.4099323033e-001	 2.9422140080e+000
 1.2138549488e+000	 2.5330063560e-001	 2.9134081630e+000
 1.2112189844e+000	 2.6561922404e-001	 2.8830606198e+000
 1.2084495874e+000	 2.7794701438e-001	 2.8511155332e+000
 1.2055460405e+000	 2.9028199851e-001	 2.8175616339e+000
 1.2025076636e+000	 3.0262214224e-001	 2.7824372112e+000
 1.1993338144e+000	 3.1496538604e-001	 2.7458350643e+000
 1.1960238900e+000	 3.2730964584e-001	 2.7079073818e+000
 1.1925773271e+000	 3.3965281392e-001	 2.6688705154e+000
 1.1889936034e+000	 3.5199275977e-001	 2.6290096068e+000
 1.1852722382e+000	 3.6432733098e-001	 2.5886830285e+000
 1.2228981111e+000	 2.4228895555e-001	 2.9560189620e+000
 1.2203813665e+000	 2.5466253287e-001	 2.9257765709e+000
 1.2177312295e+000	 2.6704735348e-001	 2.8938959167e+000
 1.2149469426e+000	 2.7944142547e-001	 2.8603290216e+000
 1.2120277845e+000	 2.9184272993e-001	 2.8250728622e+000
 1.2089730714e+000	 3.0424922174e-001	 2.7881744933e+000
 1.2057821577e+000	 3.1665883026e-001	 2.7497361391e+000
 1.2024544371e+000	 3.2906946026e-001	 2.7099202157e+000
 1.1989893434e+000	 3.4147899268e-001	 2.6689542465e+000
 1.1953863515e+000	 3.5388528553e-001	 2.6271356290e+000
 1.1916449779e+000	 3.6628617485e-001	 2.5848362140e+000
 1.2294379879e+000	 2.4358468078e-001	 2.9682836640e+000
 1.2269077841e+000	 2.5602443014e-001	 2.9366783995e+000
 1.2242434746e+000	 2.6847548292e-001	 2.9033439376e+000
 1.2214442978e+000	 2.8093583656e-001	 2.8682400006e+000
 1.2185095284e+000	 2.9340346136e-001	 2.8313716545e+000
 1.2154384792e+000	 3.0587630123e-001	 2.7927945760e+000
 1.2122305009e+000	 3.1835227449e-001	 2.7526202899e+000
 1.2088849842e+000	 3.3082927469e-001	 2.7110213392e+000
 1.2054013597e+000	 3.4330517144e-001	 2.6682363461e+000
 1.2017790995e+000	 3.5577781129e-001	 2.6245749250e+000
 1.1980177176e+000	 3.6824501872e-001	 2.5804224031e+000
 1.2359778647e+000	 2.4488040600e-001	 2.9789508285e+000
 1.2334342018e+000	 2.5738632741e-001	 2.9460569356e+000
 1.2307557197e+000	 2.6990361237e-001	 2.9113489225e+000
 1.2279416529e+000	 2.8243024766e-001	 2.8747940066e+000
 1.2249912724e+000	 2.9496419278e-001	 2.8364051459e+000
 1.2219038869e+000	 3.0750338072e-001	 2.7962464554e+000
 1.2186788442e+000	 3.2004571872e-001	 2.7544385956e+000
 1.2153155313e+000	 3.3258908912e-001	 2.7111640938e+000
 1.2118133760e+000	 3.4513135019e-001	 2.6666725572e+000
 1.2081718476e+000	 3.5767033706e-001	 2.6212857360e+000
 1.2043904573e+000	 3.7020386259e-001	 2.5754023911e+000
 1.2425177416e+000	 2.4617613122e-001	 2.9879632749e+000
 1.2399606194e+000	 2.5874822468e-001	 2.9538556096e+000
 1.2372679649e+000	 2.7133174181e-001	 2.9178552954e+000
 1.2344390081e+000	 2.8392465875e-001	 2.8799367998e+000
 1.2314730163e+000	 2.9652492420e-001	 2.8401207359e+000
 1.2283692947e+000	 3.0913046021e-001	 2.7984794328e+000
 1.2251271875e+000	 3.2173916295e-001	 2.7551424798e+000
 1.2217460784e+000	 3.3434890354e-001	 2.7103022049e+000
 1.2182253923e+000	 3.4695752895e-001	 2.6642190447e+000
 1.2145645956e+000	 3.5956286282e-001	 2.6172267621e+000
 1.2107631971e+000	 3.7216270646e-001	 2.5697374672e+000
 1.1470357998e+000	 3.5257426777e-001	 2.6021095607e+000
 1.1433008586e+000	 3.6450362567e-001	 2.5740824022e+000
 1.1394319079e+000	 3.7642355549e-001	 2.5425933638e+000
 1.1354286065e+000	 3.8833191525e-001	 2.5081638276e+000
 1.1312906563e+000	 4.0022654558e-001	 2.4713965680e+000
 1.1270178035e+000	 4.1210527081e-001	 2.4329780723e+000
 1.1226098389e+000	 4.2396589999e-001	 2.3936804846e+000
 1.1180665990e+000	 4.3580622802e-001	 2.3543631416e+000
 1.1133879660e+000	 4.4762403676e-001	 2.3159736682e+000
 1.1085738690e+000	 4.5941709620e-001	 2.2795486038e+000
 1.1036242841e+000	 4.7118316562e-001	 2.2462135309e+000
 1.1534085395e+000	 3.5453311163e-001	 2.6008163250e+000
 1.1496528476e+000	 3.6652874706e-001	 2.5701227088e+000
 1.1457624017e+000	 3.7851490203e-001	 2.5359481220e+000
 1.1417368586e+000	 3.9048942265e-001	 2.4988175797e+000
 1.1375759186e+000	 4.0245013757e-001	 2.4593394678e+000
 1.1332793265e+000	 4.1439485901e-001	 2.4182079782e+000
 1.1288468721e+000	 4.2632138387e-001	 2.3762051580e+000
 1.1242783906e+000	 4.3822749479e-001	 2.3342025393e+000
 1.1195737639e+000	 4.5011096130e-001	 2.2931623175e+000
 1.1147329206e+000	 4.6196954101e-001	 2.2541380458e+000
 1.1097558367e+000	 4.7380098076e-001	 2.2182748198e+000
 1.1597812792e+000	 3.5649195550e-001	 2.5992005601e+000
 1.1560048366e+000	 3.6855386846e-001	 2.5659536643e+000
 1.1520928955e+000	 3.8060624857e-001	 2.5292163198e+000
 1.1480451107e+000	 3.9264693005e-001	 2.4895140099e+000
 1.1438611810e+000	 4.0467372955e-001	 2.4474575359e+000
 1.1395408496e+000	 4.1668444721e-001	 2.4037455757e+000
 1.1350839052e+000	 4.2867686775e-001	 2.3591668459e+000
 1.1304901823e+000	 4.4064876156e-001	 2.3146018340e+000
 1.1257595619e+000	 4.5259788585e-001	 2.2710240669e+000
 1.1208919723e+000	 4.6452198583e-001	 2.2295008827e+000
 1.1158873893e+000	 4.7641879589e-001	 2.1911936780e+000
 1.1661540190e+000	 3.5845079937e-001	 2.5972205202e+000
 1.1623568256e+000	 3.7057898985e-001	 2.5615355730e+000
 1.1584233893e+000	 3.8269759510e-001	 2.5223595939e+000
 1.1543533628e+000	 3.9480443744e-001	 2.4802153866e+000
 1.1501464433e+000	 4.0689732153e-001	 2.4357129910e+000
 1.1458023727e+000	 4.1897403541e-001	 2.3895523728e+000
 1.1413209384e+000	 4.3103235163e-001	 2.3425257069e+000
 1.1367019740e+000	 4.4307002833e-001	 2.2955192206e+000
 1.1319453599e+000	 4.5508481039e-001	 2.2495145602e+000
 1.1270510239e+000	 4.6707443065e-001	 2.2055896485e+000
 1.1220189419e+000	 4.7903661103e-001	 2.1649190019e+000
 1.1725267587e+000	 3.6040964324e-001	 2.5948348341e+000
 1.1687088147e+000	 3.7260411125e-001	 2.5568291402e+000
 1.1647538830e+000	 3.8478894164e-001	 2.5153400215e+000
 1.1606616149e+000	 3.9696194484e-001	 2.4708844703e+000
 1.1564317056e+000	 4.0912091351e-001	 2.4240686052e+000
 1.1520638958e+000	 4.2126362361e-001	 2.3755905006e+000
 1.1475579716e+000	 4.3338783551e-001	 2.3262426000e+000
 1.1429137657e+000	 4.4549129509e-001	 2.2769136778e+000
 1.1381311579e+000	 4.5757173494e-001	 2.2285903129e+000
 1.1332100756e+000	 4.6962687546e-001	 2.1823578393e+000
 1.1281504945e+000	 4.8165442617e-001	 2.1394007423e+000
 1.1788994984e+000	 3.6236848711e-001	 2.5920025249e+000
 1.1750608037e+000	 3.7462923264e-001	 2.5517954940e+000
 1.1710843768e+000	 3.8688028818e-001	 2.5081201440e+000
 1.1669698670e+000	 3.9911945224e-001	 2.4614845378e+000
 1.1627169680e+000	 4.1134450550e-001	 2.4124877293e+000
 1.1583254189e+000	 4.2355321181e-001	 2.3618227401e+000
 1.1537950047e+000	 4.3574331939e-001	 2.3102791118e+000
 1.1491255574e+000	 4.4791256186e-001	 2.2587449952e+000
 1.1443169558e+000	 4.6005865948e-001	 2.2082087385e+000
 1.1393691272e+000	 4.7217932028e-001	 2.1597599402e+000
 1.1342820471e+000	 4.8427224131e-001	 2.1145899310e+000
 1.1852722382e+000	 3.6432733098e-001	 2.5886830285e+000
 1.1814127927e+000	 3.7665435403e-001	 2.5463962065e+000
 1.1774148706e+000	 3.8897163471e-001	 2.5006629900e+000
 1.1732781191e+000	 4.0127695964e-001	 2.4519794077e+000
 1.1690022303e+000	 4.1356809748e-001	 2.4009343193e+000
 1.1645869419e+000	 4.2584280002e-001	 2.3482125488e+000
 1.1600320379e+000	 4.3809880327e-001	 2.2945975840e+000
 1.1553373490e+000	 4.5033382863e-001	 2.2409738011e+000
 1.1505027538e+000	 4.6254558403e-001	 2.1883281771e+000
 1.1455281789e+000	 4.7473176510e-001	 2.1377514522e+000
 1.1404135996e+000	 4.8689005644e-001	 2.0904387068e+000
 1.1916449779e+000	 3.6628617485e-001	 2.5848362140e+000
 1.1877647817e+000	 3.7867947543e-001	 2.5405933163e+000
 1.1837453644e+000	 3.9106298125e-001	 2.4929320997e+000
 1.1795863712e+000	 4.0343446704e-001	 2.4423334653e+000
 1.1752874927e+000	 4.1579168946e-001	 2.3893729628e+000
 1.1708484650e+000	 4.2813238822e-001	 2.3347240886e+000
 1.1662690711e+000	 4.4045428715e-001	 2.2791611411e+000
 1.1615491407e+000	 4.5275509540e-001	 2.2235615906e+000
 1.1566885518e+000	 4.6503250857e-001	 2.1689079230e+000
 1.1516872305e+000	 4.7728420991e-001	 2.1162889208e+000
 1.1465451522e+000	 4.8950787158e-001	 2.0669003432e+000
 1.1980177176e+000	 3.6824501872e-001	 2.5804224031e+000
 1.1941167707e+000	 3.8070459682e-001	 2.5343493502e+000
 1.1900758581e+000	 3.9315432779e-001	 2.4848915486e+000
 1.1858946233e+000	 4.0559197444e-001	 2.4325116889e+000
 1.1815727550e+000	 4.1801528145e-001	 2.3777689062e+000
 1.1771099881e+000	 4.3042197642e-001	 2.3213222531e+000
 1.1725061042e+000	 4.4280977103e-001	 2.2639337192e+000
 1.1677609324e+000	 4.5517636217e-001	 2.2064707542e+000
 1.1628743498e+000	 4.6751943311e-001	 2.1499082531e+000
 1.1578462822e+000	 4.7983665473e-001	 2.0953299632e+000
 1.1526767048e+000	 4.9212568672e-001	 2.0439292761e+000
 1.2043904573e+000	 3.7020386259e-001	 2.5754023911e+000
 1.2004687598e+000	 3.8272971821e-001	 2.5276273462e+000
 1.1964063519e+000	 3.9524567433e-001	 2.4765059722e+000
 1.1922028754e+000	 4.0774948184e-001	 2.4224796750e+000
 1.1878580173e+000	 4.2023887343e-001	 2.3660880813e+000
 1.1833715112e+000	 4.3271156462e-001	 2.3079726958e+000
 1.1787431374e+000	 4.4516525491e-001	 2.2488800938e+000
 1.1739727241e+000	 4.5759762894e-001	 2.1896646066e+000
 1.1690601477e+000	 4.7000635766e-001	 2.1312904562e+000
 1.1640053338e+000	 4.8238909955e-001	 2.0748332979e+000
 1.1588082574e+000	 4.9474350186e-001	 2.0214811322e+000
 1.2107631971e+000	 3.7216270646e-001	 2.5697374672e+000
 1.2068207488e+000	 3.8475483961e-001	 2.5203908761e+000
 1.2027368457e+000	 3.9733702086e-001	 2.4677405908e+000
 1.1985111275e+000	 4.0990698924e-001	 2.4122036650e+000
 1.1941432797e+000	 4.2246246541e-001	 2.3542971331e+000
 1.1896330343e+000	 4.3500115282e-001	 2.2946418585e+000
 1.1849801705e+000	 4.4752073879e-001	 2.2339659095e+000
 1.1801845157e+000	 4.6001889571e-001	 2.1731074159e+000
 1.1752459457e+000	 4.7249328220e-001	 2.1130168619e+000
 1.1701643855e+000	 4.8494154436e-001	 2.0547587733e+000
 1.1649398100e+000	 4.9736131699e-001	 1.9995127573e+000
 1.1036242841e+000	 4.7118316562e-001	 2.2462135309e+000
 1.0985400084e+000	 4.8291823679e-001	 2.2120901652e+000
 1.0933203824e+000	 4.9462181967e-001	 2.1729504665e+000
 1.0879655276e+000	 5.0629165043e-001	 2.1295243184e+000
 1.0824756146e+000	 5.1792545951e-001	 2.0826047135e+000
 1.0768508634e+000	 5.2952097297e-001	 2.0330458312e+000
 1.0710915437e+000	 5.4107591374e-001	 1.9817605549e+000
 1.0651979753e+000	 5.5258800299e-001	 1.9297174194e+000
 1.0591705282e+000	 5.6405496143e-001	 1.8779369816e+000
 1.0530096230e+000	 5.7547451073e-001	 1.8274876156e+000
 1.0467157306e+000	 5.8684437482e-001	 1.7794807312e+000
 1.1097558367e+000	 4.7380098076e-001	 2.2182748198e+000
 1.1046433136e+000	 4.8560125003e-001	 2.1815832867e+000
 1.0993946882e+000	 4.9736985607e-001	 2.1397306937e+000
 1.0940100827e+000	 5.0910452245e-001	 2.0934808844e+000
 1.0884896687e+000	 5.2080296704e-001	 2.0436633194e+000
 1.0828336673e+000	 5.3246290324e-001	 1.9911711182e+000
 1.0770423498e+000	 5.4408204134e-001	 1.9369585198e+000
 1.0711160377e+000	 5.5565808983e-001	 1.8820377540e+000
 1.0650551032e+000	 5.6718875679e-001	 1.8274753169e+000
 1.0588599689e+000	 5.7867175119e-001	 1.7743876485e+000
 1.0525311088e+000	 5.9010478436e-001	 1.7239362152e+000
 1.1158873893e+000	 4.7641879589e-001	 2.1911936780e+000
 1.1107466188e+000	 4.8828426327e-001	 2.1520000771e+000
 1.1054689940e+000	 5.0011789246e-001	 2.1074867492e+000
 1.1000546378e+000	 5.1191739448e-001	 2.0584575307e+000
 1.0945037228e+000	 5.2368047458e-001	 2.0057845499e+000
 1.0888164712e+000	 5.3540483352e-001	 1.9504062230e+000
 1.0829931559e+000	 5.4708816894e-001	 1.8933246500e+000
 1.0770341001e+000	 5.5872817668e-001	 1.8356024001e+000
 1.0709396781e+000	 5.7032255214e-001	 1.7783586808e+000
 1.0647103149e+000	 5.8186899166e-001	 1.7227648873e+000
 1.0583464869e+000	 5.9336519390e-001	 1.6700395360e+000
 1.1220189419e+000	 4.7903661103e-001	 2.1649190019e+000
 1.1168499240e+000	 4.9096727650e-001	 2.1232857250e+000
 1.1115432998e+000	 5.0286592885e-001	 2.0761604048e+000
 1.1060991930e+000	 5.1473026651e-001	 2.0243927944e+000
 1.1005177769e+000	 5.2655798211e-001	 1.9689037809e+000
 1.0947992751e+000	 5.3834676379e-001	 1.9106833269e+000
 1.0889439620e+000	 5.5009429653e-001	 1.8507877930e+000
 1.0829521626e+000	 5.6179826352e-001	 1.7903366279e+000
 1.0768242530e+000	 5.7345634750e-001	 1.7305084195e+000
 1.0705606608e+000	 5.8506623213e-001	 1.6725363064e+000
 1.0641618651e+000	 5.9662560343e-001	 1.6177027488e+000
 1.1281504945e+000	 4.8165442617e-001	 2.1394007423e+000
 1.1229532292e+000	 4.9365028974e-001	 2.0953865572e+000
 1.1176176057e+000	 5.0561396524e-001	 2.0456946361e+000
 1.1121437481e+000	 5.1754313854e-001	 1.9912264666e+000
 1.1065318310e+000	 5.2943548964e-001	 1.9329576788e+000
 1.1007820790e+000	 5.4128869406e-001	 1.8719359265e+000
 1.0948947681e+000	 5.5310042413e-001	 1.8092781268e+000
 1.0888702250e+000	 5.6486835037e-001	 1.7461670447e+000
 1.0827088279e+000	 5.7659014285e-001	 1.6838472177e+000
 1.0764110068e+000	 5.8826347259e-001	 1.6236202162e+000
 1.0699772432e+000	 5.9988601297e-001	 1.5668392415e+000
 1.1342820471e+000	 4.8427224131e-001	 2.1145899310e+000
 1.1290565344e+000	 4.9633330298e-001	 2.0682500633e+000
 1.1236919115e+000	 5.0836200164e-001	 2.0160336477e+000
 1.1181883033e+000	 5.2035601056e-001	 1.9588996173e+000
 1.1125458851e+000	 5.3231299717e-001	 1.8978842255e+000
 1.1067648830e+000	 5.4423062433e-001	 1.8340988587e+000
 1.1008455742e+000	 5.5610655173e-001	 1.7687271840e+000
 1.0947882874e+000	 5.6793843721e-001	 1.7030216200e+000
 1.0885934029e+000	 5.7972393820e-001	 1.6382991234e+000
 1.0822613528e+000	 5.9146071306e-001	 1.5759362881e+000
 1.0757926214e+000	 6.0314642251e-001	 1.5173637584e+000
 1.1404135996e+000	 4.8689005644e-001	 2.0904387068e+000
 1.1351598396e+000	 4.9901631622e-001	 2.0418249229e+000
 1.1297662173e+000	 5.1111003803e-001	 1.9871228991e+000
 1.1242328584e+000	 5.2316888259e-001	 1.9273546214e+000
 1.1185599392e+000	 5.3519050470e-001	 1.8636227442e+000
 1.1127476869e+000	 5.4717255460e-001	 1.7971083261e+000
 1.1067963803e+000	 5.5911267932e-001	 1.7290678781e+000
 1.1007063498e+000	 5.7100852406e-001	 1.6608297109e+000
 1.0944779778e+000	 5.8285773356e-001	 1.5937895732e+000
 1.0881116987e+000	 5.9465795353e-001	 1.5294055794e+000
 1.0816079995e+000	 6.0640683204e-001	 1.4691924249e+000
 1.1465451522e+000	 4.8950787158e-001	 2.0669003432e+000
 1.1412631448e+000	 5.0169932945e-001	 2.0160610318e+000
 1.1358405231e+000	 5.1385807442e-001	 1.9589091309e+000
 1.1302774136e+000	 5.2598175462e-001	 1.8965351848e+000
 1.1245739933e+000	 5.3806801223e-001	 1.8301139254e+000
 1.1187304908e+000	 5.5011448487e-001	 1.7609019237e+000
 1.1127471864e+000	 5.6211880692e-001	 1.6902345301e+000
 1.1066244122e+000	 5.7407861090e-001	 1.6195220888e+000
 1.1003625527e+000	 5.8599152891e-001	 1.5502454190e+000
 1.0939620447e+000	 5.9785519400e-001	 1.4839505589e+000
 1.0874233777e+000	 6.0966724158e-001	 1.4222427731e+000
 1.1526767048e+000	 4.9212568672e-001	 2.0439292761e+000
 1.1473664500e+000	 5.0438234269e-001	 1.9909095294e+000
 1.1419148290e+000	 5.1660611082e-001	 1.9313403920e+000
 1.1363219687e+000	 5.2879462665e-001	 1.8663863716e+000
 1.1305880474e+000	 5.4094551976e-001	 1.7972998545e+000
 1.1247132947e+000	 5.5305641514e-001	 1.7254186661e+000
 1.1186979925e+000	 5.6512493451e-001	 1.6521628952e+000
 1.1125424746e+000	 5.7714869775e-001	 1.5790309666e+000
 1.1062471276e+000	 5.8912532427e-001	 1.5075949547e+000
 1.0998123907e+000	 6.0105243446e-001	 1.4394951343e+000
 1.0932387558e+000	 6.1292765112e-001	 1.3764337674e+000
 1.1588082574e+000	 4.9474350186e-001	 2.0214811322e+000
 1.1534697552e+000	 5.0706535593e-001	 1.9663228266e+000
 1.1479891348e+000	 5.1935414721e-001	 1.9043660675e+000
 1.1423665238e+000	 5.3160749867e-001	 1.8368546315e+000
 1.1366021015e+000	 5.4382302729e-001	 1.7651240388e+000
 1.1306960986e+000	 5.5599834541e-001	 1.6905990149e+000
 1.1246487986e+000	 5.6813106211e-001	 1.6147901910e+000
 1.1184605371e+000	 5.8021878459e-001	 1.5392900262e+000
 1.1121317026e+000	 5.9225911962e-001	 1.4657679442e+000
 1.1056627366e+000	 6.0424967493e-001	 1.3959646791e+000
 1.0990541339e+000	 6.1618806065e-001	 1.3316858320e+000
 1.1649398100e+000	 4.9736131699e-001	 1.9995127573e+000
 1.1595730604e+000	 5.0974836916e-001	 1.9422546342e+000
 1.1540634406e+000	 5.2210218360e-001	 1.8779369066e+000
 1.1484110790e+000	 5.3442037070e-001	 1.8078878284e+000
 1.1426161556e+000	 5.4670053483e-001	 1.7335314364e+000
 1.1366789026e+000	 5.5894027569e-001	 1.6563849074e+000
 1.1305996047e+000	 5.7113718971e-001	 1.5780551258e+000
 1.1243785995e+000	 5.8328887144e-001	 1.5002344475e+000
 1.1180162775e+000	 5.9539291498e-001	 1.4246956495e+000
 1.1115130826e+000	 6.0744691540e-001	 1.3532860612e+000
 1.1048695121e+000	 6.1944847019e-001	 1.2879208781e+000
 1.0467157306e+000	 5.8684437482e-001	 1.7794807312e+000
 1.0402883994e+000	 5.9816397530e-001	 1.7281304211e+000
 1.0337291371e+000	 6.0942933496e-001	 1.6687651557e+000
 1.0270385685e+000	 6.2063819263e-001	 1.6041929372e+000
 1.0202173693e+000	 6.3178829505e-001	 1.5372358204e+000
 1.0132662660e+000	 6.4287739830e-001	 1.4707190663e+000
 1.0061860356e+000	 6.5390326915e-001	 1.4074598032e+000
 9.9897750582e-001	 6.6486368655e-001	 1.3502552359e+000
 9.9164155477e-001	 6.7575644299e-001	 1.2969237227e+000
 9.8417911056e-001	 6.8657934596e-001	 1.2403810065e+000
 9.7659115111e-001	 6.9733021931e-001	 1.1819274526e+000
 1.0525311088e+000	 5.9010478436e-001	 1.7239362152e+000
 1.0460680683e+000	 6.0148727465e-001	 1.6703057798e+000
 1.0394723639e+000	 6.1281522277e-001	 1.6088270497e+000
 1.0327446236e+000	 6.2408635498e-001	 1.5424064082e+000
 1.0258855270e+000	 6.3529840552e-001	 1.4739648553e+000
 1.0188958045e+000	 6.4644911797e-001	 1.4064268115e+000
 1.0117762375e+000	 6.5753624673e-001	 1.3427084104e+000
 1.0045276583e+000	 6.6855755838e-001	 1.2855067696e+000
 9.9715094997e-001	 6.7951083316e-001	 1.2285194004e+000
 9.8964704566e-001	 6.9039386638e-001	 1.1686911026e+000
 9.8201692878e-001	 7.0120446979e-001	 1.1075773322e+000
 1.0583464869e+000	 5.9336519390e-001	 1.6700395360e+000
 1.0518477373e+000	 6.0481057400e-001	 1.6143379835e+000
 1.0452155907e+000	 6.1620111058e-001	 1.5509826284e+000
 1.0384506788e+000	 6.2753451734e-001	 1.4829696331e+000
 1.0315536847e+000	 6.3880851599e-001	 1.4133102861e+000
 1.0245253430e+000	 6.5002083765e-001	 1.3450194661e+000
 1.0173664394e+000	 6.6116922430e-001	 1.2811035780e+000
 1.0100778109e+000	 6.7225143021e-001	 1.2228048281e+000
 1.0026603452e+000	 6.8326522333e-001	 1.1622168801e+000
 9.9511498077e-001	 6.9420838679e-001	 1.0993155083e+000
 9.8744270645e-001	 7.0507872026e-001	 1.0357057675e+000
 1.0641618651e+000	 5.9662560343e-001	 1.6177027488e+000
 1.0576274063e+000	 6.0813387335e-001	 1.5601332233e+000
 1.0509588175e+000	 6.1958699839e-001	 1.4951310501e+000
 1.0441567339e+000	 6.3098267970e-001	 1.4257737334e+000
 1.0372218423e+000	 6.4231862646e-001	 1.3551543606e+000
 1.0301548815e+000	 6.5359255733e-001	 1.2863697390e+000
 1.0229566413e+000	 6.6480220188e-001	 1.2225079838e+000
 1.0156279634e+000	 6.7594530204e-001	 1.1618780733e+000
 1.0081697404e+000	 6.8701961350e-001	 1.0979344965e+000
 1.0005829159e+000	 6.9802290721e-001	 1.0321666202e+000
 9.9286848412e-001	 7.0895297074e-001	 9.6621949830e-001
 1.0699772432e+000	 5.9988601297e-001	 1.5668392415e+000
 1.0634070752e+000	 6.1145717270e-001	 1.5075990266e+000
 1.0567020443e+000	 6.2297288620e-001	 1.4411728261e+000
 1.0498627890e+000	 6.3443084205e-001	 1.3707112089e+000
 1.0428900000e+000	 6.4582873692e-001	 1.2993807366e+000
 1.0357844200e+000	 6.5716427700e-001	 1.2303517823e+000
 1.0285468432e+000	 6.6843517946e-001	 1.1666268593e+000
 1.0211781159e+000	 6.7963917386e-001	 1.1026548372e+000
 1.0136791356e+000	 6.9077400367e-001	 1.0355946268e+000
 1.0060508510e+000	 7.0183742762e-001	 9.6716097698e-001
 9.9829426179e-001	 7.1282722121e-001	 8.9902950125e-001
 1.0757926214e+000	 6.0314642251e-001	 1.5173637584e+000
 1.0691867442e+000	 6.1478047205e-001	 1.4566442800e+000
 1.0624452711e+000	 6.2635877401e-001	 1.3890098412e+000
 1.0555688441e+000	 6.3787900441e-001	 1.3176759562e+000
 1.0485581577e+000	 6.4933884739e-001	 1.2458744969e+000
 1.0414139584e+000	 6.6073599668e-001	 1.1768412049e+000
 1.0341370451e+000	 6.7206815703e-001	 1.1123115994e+000
 1.0267282684e+000	 6.8333304569e-001	 1.0450673022e+000
 1.0191885308e+000	 6.9452839384e-001	 9.7512359704e-001
 1.0115187861e+000	 7.0565194803e-001	 9.0421916278e-001
 1.0037200395e+000	 7.1670147168e-001	 8.3405089002e-001
 1.0816079995e+000	 6.0640683204e-001	 1.4691924249e+000
 1.0749664132e+000	 6.1810377140e-001	 1.4071792530e+000
 1.0681884979e+000	 6.2974466182e-001	 1.3385453758e+000
 1.0612748992e+000	 6.4132716676e-001	 1.2665632884e+000
 1.0542263153e+000	 6.5284895786e-001	 1.1945221670e+000
 1.0470434969e+000	 6.6430771635e-001	 1.1257150856e+000
 1.0397272470e+000	 6.7570113461e-001	 1.0593116404e+000
 1.0322784210e+000	 6.8702691752e-001	 9.8905141270e-001
 1.0246979260e+000	 6.9828278401e-001	 9.1645158973e-001
 1.0169867212e+000	 7.0946646845e-001	 8.4326571158e-001
 1.0091458171e+000	 7.2057572216e-001	 7.7120281714e-001
 1.0874233777e+000	 6.0966724158e-001	 1.4222427731e+000
 1.0807460821e+000	 6.2142707075e-001	 1.3591156219e+000
 1.0739317246e+000	 6.3313054963e-001	 1.2896841285e+000
 1.0669809543e+000	 6.4477532912e-001	 1.2172699553e+000
 1.0598944730e+000	 6.5635906832e-001	 1.1452117325e+000
 1.0526730354e+000	 6.6787943603e-001	 1.0767853811e+000
 1.0453174490e+000	 6.7933411219e-001	 1.0075722323e+000
 1.0378285735e+000	 6.9072078935e-001	 9.3454678735e-001
 1.0302073212e+000	 7.0203717417e-001	 8.5951255322e-001
 1.0224546563e+000	 7.1328098886e-001	 7.8422901367e-001
 1.0145715948e+000	 7.2444997263e-001	 7.1040837761e-001
 1.0932387558e+000	 6.1292765112e-001	 1.3764337674e+000
 1.0865257511e+000	 6.2475037010e-001	 1.3123664952e+000
 1.0796749514e+000	 6.3651643744e-001	 1.2423322396e+000
 1.0726870094e+000	 6.4822349148e-001	 1.1696941653e+000
 1.0655626307e+000	 6.5986917879e-001	 1.0978326581e+000
 1.0583025739e+000	 6.7145115571e-001	 1.0290771088e+000
 1.0509076509e+000	 6.8296708976e-001	 9.5704212672e-001
 1.0433787260e+000	 6.9441466118e-001	 8.8149663276e-001
 1.0357167164e+000	 7.0579156434e-001	 8.0424411240e-001
 1.0279225914e+000	 7.1709550927e-001	 7.2704122339e-001
 1.0199973725e+000	 7.2832422311e-001	 6.5159451394e-001
 1.0990541339e+000	 6.1618806065e-001	 1.3316858320e+000
 1.0923054200e+000	 6.2807366945e-001	 1.2668464396e+000
 1.0854181782e+000	 6.3990232526e-001	 1.1963973155e+000
 1.0783930645e+000	 6.5167165383e-001	 1.1237356074e+000
 1.0712307883e+000	 6.6337928926e-001	 1.0522759077e+000
 1.0639321124e+000	 6.7502287538e-001	 9.8227007305e-001
 1.0564978528e+000	 6.8660006734e-001	 9.0767349471e-001
 1.0489288785e+000	 6.9810853301e-001	 8.2984765850e-001
 1.0412261116e+000	 7.0954595451e-001	 7.5058748068e-001
 1.0333905265e+000	 7.2091002969e-001	 6.7163816836e-001
 1.0254231501e+000	 7.3219847358e-001	 5.9469192285e-001
 1.1048695121e+000	 6.1944847019e-001	 1.2879208781e+000
 1.0980850890e+000	 6.3139696880e-001	 1.2224715066e+000
 1.0911614050e+000	 6.4328821307e-001	 1.1517884541e+000
 1.0840991196e+000	 6.5511981619e-001	 1.0792954748e+000
 1.0768989460e+000	 6.6688939972e-001	 1.0084323939e+000
 1.0695616509e+000	 6.7859459506e-001	 9.3632498947e-001
 1.0620880547e+000	 6.9023304492e-001	 8.5942184599e-001
 1.0544790311e+000	 7.0180240484e-001	 7.7954999339e-001
 1.0467355068e+000	 7.1330034468e-001	 6.9848737338e-001
 1.0388584616e+000	 7.2472455010e-001	 6.1795926009e-001
 1.0308489278e+000	 7.3607272405e-001	 5.3963496342e-001
 9.7659115111e-001	 6.9733021931e-001	 1.1819274526e+000
 9.6887870355e-001	 7.0800690445e-001	 1.1224876793e+000
 9.6104284295e-001	 7.1860726098e-001	 1.0619796266e+000
 9.5308469276e-001	 7.2912916883e-001	 1.0003372284e+000
 9.4500542458e-001	 7.3957052978e-001	 9.3745613583e-001
 9.3680625767e-001	 7.4992926888e-001	 8.7319409166e-001
 9.2848845834e-001	 7.6020333577e-001	 8.0737150919e-001
 9.2005333932e-001	 7.7039070600e-001	 7.3977224905e-001
 9.1150225915e-001	 7.8048938239e-001	 6.7014458624e-001
 9.0283662142e-001	 7.9049739622e-001	 5.9820235799e-001
 8.9405787402e-001	 8.0041280860e-001	 5.2362628170e-001
 9.8201692878e-001	 7.0120446979e-001	 1.1075773322e+000
 9.7426163215e-001	 7.1194047280e-001	 1.0461392933e+000
 9.6638223681e-001	 7.2259972315e-001	 9.8423611917e-001
 9.5837987246e-001	 7.3318008897e-001	 9.2171484423e-001
 9.5025571722e-001	 7.4367946038e-001	 8.5838264943e-001
 9.4201099711e-001	 7.5409575090e-001	 7.9400741584e-001
 9.3364698546e-001	 7.6442689880e-001	 7.2831849125e-001
 9.2516500233e-001	 7.7467086837e-001	 6.6100766293e-001
 9.1656641379e-001	 7.8482565131e-001	 5.9173032799e-001
 9.0785263121e-001	 7.9488926800e-001	 5.2010685139e-001
 8.9902511056e-001	 8.0485976876e-001	 4.4572410002e-001
 9.8744270645e-001	 7.0507872026e-001	 1.0357057675e+000
 9.7964456075e-001	 7.1587404116e-001	 9.7238583813e-001
 9.7172163067e-001	 7.2659218533e-001	 9.0916659215e-001
 9.6367505217e-001	 7.3723100910e-001	 8.4581368683e-001
 9.5550600986e-001	 7.4778839098e-001	 7.8205146581e-001
 9.4721573654e-001	 7.5826223293e-001	 7.1756368417e-001
 9.3880551259e-001	 7.6865046183e-001	 6.5199445513e-001
 9.3027666534e-001	 7.7895103073e-001	 5.8494941103e-001
 9.2163056842e-001	 7.8916192023e-001	 5.1599706927e-001
 9.1286864101e-001	 7.9928113978e-001	 4.4467039271e-001
 9.0399234710e-001	 8.0930672892e-001	 3.7046853210e-001
 9.9286848412e-001	 7.0895297074e-001	 9.6621949830e-001
 9.8502748934e-001	 7.1980760952e-001	 9.0112930796e-001
 9.7706102453e-001	 7.3058464750e-001	 8.3666966845e-001
 9.6897023187e-001	 7.4128192924e-001	 7.7253029414e-001
 9.6075630249e-001	 7.5189732157e-001	 7.0835823388e-001
 9.5242047597e-001	 7.6242871496e-001	 6.4375876003e-001
 9.4396403971e-001	 7.7287402486e-001	 5.7829648780e-001
 9.3538832835e-001	 7.8323119309e-001	 5.1149671675e-001
 9.2669472305e-001	 7.9349818916e-001	 4.4284698477e-001
 9.1788465080e-001	 8.0367301156e-001	 3.7179882320e-001
 9.0895958363e-001	 8.1375368908e-001	 2.9776970002e-001
 9.9829426179e-001	 7.1282722121e-001	 8.9902950125e-001
 9.9041041794e-001	 7.2374117788e-001	 8.3227600982e-001
 9.8240041839e-001	 7.3457710967e-001	 7.6664833130e-001
 9.7426541158e-001	 7.4533284938e-001	 7.0176558522e-001
 9.6600659513e-001	 7.5600625217e-001	 6.3720297979e-001
 9.5762521540e-001	 7.6659519698e-001	 5.7249285753e-001
 9.4912256684e-001	 7.7709758788e-001	 5.0712597973e-001
 9.4049999136e-001	 7.8751135545e-001	 4.4055304108e-001
 9.3175887769e-001	 7.9783445808e-001	 3.7218640419e-001
 9.2290066060e-001	 8.0806488334e-001	 3.0140204189e-001
 9.1392682017e-001	 8.1820064924e-001	 2.2754167369e-001
 1.0037200395e+000	 7.1670147168e-001	 8.3405089002e-001
 9.9579334653e-001	 7.2767474623e-001	 7.6573646153e-001
 9.8773981225e-001	 7.3856957184e-001	 6.9900982077e-001
 9.7956059128e-001	 7.4938376951e-001	 6.3342475621e-001
 9.7125688777e-001	 7.6011518277e-001	 5.6849000314e-001
 9.6282995483e-001	 7.7076167901e-001	 5.0367043862e-001
 9.5428109396e-001	 7.8132115091e-001	 4.3838852364e-001
 9.4561165437e-001	 7.9179151781e-001	 3.7202598363e-001
 9.3682303232e-001	 8.0217072700e-001	 3.0392571607e-001
 9.2791667039e-001	 8.1245675512e-001	 2.3339391269e-001
 9.1889405671e-001	 8.2264760940e-001	 1.5970238183e-001
 1.0091458171e+000	 7.2057572216e-001	 7.7120281714e-001
 1.0011762751e+000	 7.3160831459e-001	 7.0142529131e-001
 9.9307920611e-001	 7.4256203401e-001	 6.3366553200e-001
 9.8485577098e-001	 7.5343468965e-001	 5.6741717803e-001
 9.7650718040e-001	 7.6422411337e-001	 5.0212777496e-001
 9.6803469427e-001	 7.7492816104e-001	 4.3720011204e-001
 9.5943962109e-001	 7.8554471394e-001	 3.7199381508e-001
 9.5072331738e-001	 7.9607168017e-001	 3.0582718537e-001
 9.4188718696e-001	 8.0650699593e-001	 2.3797927330e-001
 9.3293268019e-001	 8.1684862690e-001	 1.6769217323e-001
 9.2386129325e-001	 8.2709456956e-001	 9.4173524373e-002
 1.0145715948e+000	 7.2444997263e-001	 7.1040837761e-001
 1.0065592037e+000	 7.3554188295e-001	 6.3926113918e-001
 9.9841859997e-001	 7.4655449618e-001	 5.7053091533e-001
 9.9015095069e-001	 7.5748560979e-001	 5.0365629603e-001
 9.8175747304e-001	 7.6833304397e-001	 4.3802883748e-001
 9.7323943370e-001	 7.7909464306e-001	 3.7299453408e-001
 9.6459814821e-001	 7.8976827697e-001	 3.0785555469e-001
 9.5583498039e-001	 8.0035184253e-001	 2.4187223306e-001
 9.4695134159e-001	 8.1084326485e-001	 1.7426530026e-001
 9.3794868998e-001	 8.2124049868e-001	 1.0421834502e-001
 9.2882852978e-001	 8.3154152972e-001	 3.0880486305e-002
 1.0199973725e+000	 7.2832422311e-001	 6.5159451394e-001
 1.0119421323e+000	 7.3947545130e-001	 5.7916656001e-001
 1.0037579938e+000	 7.5054695835e-001	 5.0952537807e-001
 9.9544613039e-001	 7.6153652993e-001	 4.4205953121e-001
 9.8700776568e-001	 7.7244197457e-001	 3.7610970571e-001
 9.7844417313e-001	 7.8326112509e-001	 3.1097031095e-001
 9.6975667534e-001	 7.9399184000e-001	 2.4589135219e-001
 9.6094664340e-001	 8.0463200489e-001	 1.8008056537e-001
 9.5201549622e-001	 8.1517953377e-001	 1.1270580145e-001
 9.4296469978e-001	 8.2563237046e-001	 4.2897645310e-002
 9.3379576632e-001	 8.3598848987e-001	-3.0247747105e-002
 1.0254231501e+000	 7.3219847358e-001	 5.9469192285e-001
 1.0173250609e+000	 7.4340901966e-001	 5.2106792814e-001
 1.0090973877e+000	 7.5453942052e-001	 4.5057218792e-001
 1.0007413101e+000	 7.6558745006e-001	 3.8254818325e-001
 9.9225805831e-001	 7.7655090516e-001	 3.1629077063e-001
 9.8364891256e-001	 7.8742760711e-001	 2.5104790297e-001
 9.7491520247e-001	 7.9821540303e-001	 1.8602263197e-001
 9.6605830641e-001	 8.0891216725e-001	 1.2037538046e-001
 9.5707965086e-001	 8.1951580270e-001	 5.3226471738e-002
 9.4798070957e-001	 8.3002424224e-001	-1.6341099820e-002
 9.3876300286e-001	 8.4043545003e-001	-8.9278673759e-002
 1.0308489278e+000	 7.3607272405e-001	 5.3963496342e-001
 1.0227079895e+000	 7.4734258802e-001	 4.6489534361e-001
 1.0144367816e+000	 7.5853188269e-001	 3.9359837803e-001
 1.0060364898e+000	 7.6963837020e-001	 3.2504733507e-001
 9.9750835095e-001	 7.8065983576e-001	 2.5849620400e-001
 9.8885365199e-001	 7.9159408914e-001	 1.9315153018e-001
 9.8007372959e-001	 8.0243896606e-001	 1.2817454021e-001
 9.7116996942e-001	 8.1319232961e-001	 6.2683545129e-002
 9.6214380549e-001	 8.2385207162e-001	-4.2433921159e-003
 9.5299671937e-001	 8.3441611403e-001	-7.3565540910e-002
 9.4373023940e-001	 8.4488241019e-001	-1.4627635691e-001
 8.9405787402e-001	 8.0041280860e-001	 5.2362628170e-001
 8.8516885031e-001	 8.1023224589e-001	 4.4954227371e-001
 8.7616977604e-001	 8.1995532817e-001	 3.7881481522e-001
 8.6706222719e-001	 8.2958021483e-001	 3.1073366821e-001
 8.5784782059e-001	 8.3910509985e-001	 2.4457858319e-001
 8.4852821293e-001	 8.4852821293e-001	 1.7962189692e-001
 8.3910509985e-001	 8.5784782059e-001	 1.1513117864e-001
 8.2958021483e-001	 8.6706222719e-001	 5.0371905833e-002
 8.1995532817e-001	 8.7616977604e-001	-1.5389849766e-002
 8.1023224589e-001	 8.8516885031e-001	-8.2884745241e-002
 8.0041280860e-001	 8.9405787402e-001	-1.5283751824e-001
 8.9902511056e-001	 8.0485976876e-001	 4.4572410002e-001
 8.9008670091e-001	 8.1473376121e-001	 3.7174045882e-001
 8.8103762929e-001	 8.2451086331e-001	 3.0113936311e-001
 8.7187948042e-001	 8.3418922424e-001	 2.3324567493e-001
 8.6261388010e-001	 8.4376702793e-001	 1.6737346818e-001
 8.5324249426e-001	 8.5324249426e-001	 1.0282862798e-001
 8.4376702793e-001	 8.6261388010e-001	 3.8911501563e-002
 8.3418922424e-001	 8.7187948042e-001	-2.5080418803e-002
 8.2451086331e-001	 8.8103762929e-001	-8.9849800592e-002
 8.1473376121e-001	 8.9008670091e-001	-1.5609678348e-001
 8.0485976876e-001	 8.9902511056e-001	-2.2451631953e-001
 9.0399234710e-001	 8.0930672892e-001	 3.7046853210e-001
 8.9500455151e-001	 8.1923527653e-001	 2.9658127714e-001
 8.8590548253e-001	 8.2906639846e-001	 2.2610407370e-001
 8.7669673364e-001	 8.3879823365e-001	 1.5839424521e-001
 8.6737993962e-001	 8.4842895602e-001	 9.2797556316e-002
 8.5795677559e-001	 8.5795677559e-001	 2.8650820802e-002
 8.4842895602e-001	 8.6737993962e-001	-3.4715436050e-002
 8.3879823365e-001	 8.7669673364e-001	-9.7974280424e-002
 8.2906639846e-001	 8.8590548253e-001	-1.6179965868e-001
 8.1923527653e-001	 8.9500455151e-001	-2.2686369228e-001
 8.0930672892e-001	 9.0399234710e-001	-2.9383399961e-001
 9.0895958363e-001	 8.1375368908e-001	 2.9776970002e-001
 8.9992240212e-001	 8.2373679185e-001	 2.2397944320e-001
 8.9077333578e-001	 8.3362193360e-001	 1.5362836014e-001
 8.8151398686e-001	 8.4340724305e-001	 8.6103638141e-002
 8.7214599913e-001	 8.5309088410e-001	 2.0780140671e-002
 8.6267105692e-001	 8.6267105692e-001	-4.2976969426e-002
 8.5309088410e-001	 8.7214599913e-001	-1.0580954909e-001
 8.4340724305e-001	 8.8151398686e-001	-1.6836375703e-001
 8.3362193360e-001	 8.9077333578e-001	-2.3128731938e-001
 8.2373679185e-001	 8.9992240212e-001	-2.9522680025e-001
 8.1375368908e-001	 9.0895958363e-001	-3.6082489828e-001
 9.1392682017e-001	 8.1820064924e-001	 2.2754167369e-001
 9.0484025272e-001	 8.2823830716e-001	 1.5385350320e-001
 8.9564118902e-001	 8.3817746874e-001	 8.3635349075e-002
 8.8633124008e-001	 8.4801625246e-001	 1.6301704998e-002
 8.7691205865e-001	 8.5775281218e-001	-4.8746019201e-002
 8.6738533824e-001	 8.6738533824e-001	-1.1211685220e-001
 8.5775281218e-001	 8.7691205865e-001	-1.7442755496e-001
 8.4801625246e-001	 8.8633124008e-001	-2.3629987472e-001
 8.3817746874e-001	 8.9564118902e-001	-2.9835778070e-001
 8.2823830716e-001	 9.0484025272e-001	-3.6122470330e-001
 8.1820064924e-001	 9.1392682017e-001	-4.2552079855e-001
 9.1889405671e-001	 8.2264760940e-001	 1.5970238183e-001
 9.0975810332e-001	 8.3273982248e-001	 8.6125750035e-002
 9.0050904227e-001	 8.4273300388e-001	 1.6051799810e-002
 8.9114849331e-001	 8.5262526187e-001	-5.1080187318e-002
 8.8167811816e-001	 8.6241474026e-001	-1.1584476926e-001
 8.7209961957e-001	 8.7209961957e-001	-1.7882766894e-001
 8.6241474026e-001	 8.8167811816e-001	-2.4062303577e-001
 8.5262526187e-001	 8.9114849331e-001	-3.0183066466e-001
 8.4273300388e-001	 9.0050904227e-001	-3.6305319476e-001
 8.3273982248e-001	 9.0975810332e-001	-4.2489331030e-001
 8.2264760940e-001	 9.1889405671e-001	-4.8795096611e-001
 9.2386129325e-001	 8.2709456956e-001	 9.4173524373e-002
 9.1467595392e-001	 8.3724133779e-001	 2.0722139600e-002
 9.0537689552e-001	 8.4728853902e-001	-4.9191975280e-002
 8.9596574653e-001	 8.5723427128e-001	-1.1610723163e-001
 8.8644417767e-001	 8.6707666834e-001	-1.8057663192e-001
 8.7681390090e-001	 8.7681390090e-001	-2.4316505932e-001
 8.6707666834e-001	 8.8644417767e-001	-3.0444649988e-001
 8.5723427128e-001	 8.9596574653e-001	-3.6500121951e-001
 8.4728853902e-001	 9.0537689552e-001	-4.2541291878e-001
 8.3724133779e-001	 9.1467595392e-001	-4.8626588838e-001
 8.2709456956e-001	 9.2386129325e-001	-5.4814218872e-001
 9.2882852978e-001	 8.3154152972e-001	 3.0880486305e-002
 9.1959380453e-001	 8.4174285311e-001	-4.2427791529e-002
 9.1024474876e-001	 8.5184407416e-001	-1.1216218914e-001
 9.0078299975e-001	 8.6184328068e-001	-1.7884125475e-001
 8.9121023719e-001	 8.7173859642e-001	-2.4299887603e-001
 8.8152818223e-001	 8.8152818223e-001	-3.0518152674e-001
 8.7173859642e-001	 8.9121023719e-001	-3.6594544258e-001
 8.6184328068e-001	 9.0078299975e-001	-4.2585374915e-001
 8.5184407416e-001	 9.1024474876e-001	-4.8547356563e-001
 8.4174285311e-001	 9.1959380453e-001	-5.4537310793e-001
 8.3154152972e-001	 9.2882852978e-001	-6.0611881530e-001
 9.3379576632e-001	 8.3598848987e-001	-3.0247747105e-002
 9.2451165513e-001	 8.4624436843e-001	-1.0339100716e-001
 9.1511260201e-001	 8.5639960930e-001	-1.7292165721e-001
 9.0560025297e-001	 8.6645229009e-001	-2.3934079065e-001
 8.9597629670e-001	 8.7640052450e-001	-3.0316558586e-001
 8.8624246355e-001	 8.8624246355e-001	-3.6492650293e-001
 8.7640052450e-001	 8.9597629670e-001	-4.2516440616e-001
 8.6645229009e-001	 9.0560025297e-001	-4.8442763587e-001
 8.5639960930e-001	 9.1511260201e-001	-5.4326905389e-001
 8.4624436843e-001	 9.2451165513e-001	-6.0224308729e-001
 8.3598848987e-001	 9.3379576632e-001	-6.6190279497e-001
 9.3876300286e-001	 8.4043545003e-001	-8.9278673759e-002
 9.2942950573e-001	 8.5074588374e-001	-1.6223105130e-001
 9.1998045525e-001	 8.6095514444e-001	-2.3152987354e-001
 9.1041750620e-001	 8.7106129950e-001	-2.9766115268e-001
 9.0074235622e-001	 8.8106245259e-001	-3.6112772920e-001
 8.9095674488e-001	 8.9095674488e-001	-4.2244641176e-001
 8.8106245259e-001	 9.0074235622e-001	-4.8214503917e-001
 8.7106129950e-001	 9.1041750620e-001	-5.4075948894e-001
 8.6095514444e-001	 9.1998045525e-001	-5.9883065746e-001
 8.5074588374e-001	 9.2942950573e-001	-6.5690143712e-001
 8.4043545003e-001	 9.3876300286e-001	-7.1551371591e-001
 9.4373023940e-001	 8.4488241019e-001	-1.4627635691e-001
 9.3434735634e-001	 8.5524739906e-001	-2.1900812683e-001
 9.2484830850e-001	 8.6551067959e-001	-2.8804308575e-001
 9.1523475942e-001	 8.7567030891e-001	-3.5385450466e-001
 9.0550841573e-001	 8.8572438067e-001	-4.1693322453e-001
 8.9567102621e-001	 8.9567102621e-001	-4.7778473228e-001
 8.8572438067e-001	 9.0550841573e-001	-5.3692615513e-001
 8.7567030891e-001	 9.1523475942e-001	-5.9488319871e-001
 8.6551067959e-001	 9.2484830850e-001	-6.5218705477e-001
 8.5524739906e-001	 9.3434735634e-001	-7.0937130452e-001
 8.4488241019e-001	 9.4373023940e-001	-7.6696884401e-001
 8.0041280860e-001	 8.9405787402e-001	-1.5283751824e-001
 7.9049739622e-001	 9.0283662142e-001	-2.2341583703e-001
 7.8048938239e-001	 9.1150225915e-001	-2.9254102428e-001
 7.7039070600e-001	 9.2005333932e-001	-3.6058439321e-001
 7.6020333577e-001	 9.2848845834e-001	-4.2790262492e-001
 7.4992926888e-001	 9.3680625767e-001	-4.9483631670e-001
 7.3957052978e-001	 9.4500542458e-001	-5.6170866345e-001
 7.2912916883e-001	 9.5308469276e-001	-6.2882428569e-001
 7.1860726098e-001	 9.6104284295e-001	-6.9646821674e-001
 7.0800690445e-001	 9.6887870355e-001	-7.6490506038e-001
 6.9733021931e-001	 9.7659115111e-001	-8.3437832888e-001
 8.0485976876e-001	 8.9902511056e-001	-2.2451631953e-001
 7.9488926800e-001	 9.0785263121e-001	-2.9323936153e-001
 7.8482565131e-001	 9.1656641379e-001	-3.6021773937e-001
 7.7467086837e-001	 9.2516500233e-001	-4.2589238895e-001
 7.6442689880e-001	 9.3364698546e-001	-4.9068786195e-001
 7.5409575090e-001	 9.4201099711e-001	-5.5501070445e-001
 7.4367946038e-001	 9.5025571722e-001	-6.1924797617e-001
 7.3318008897e-001	 9.5837987246e-001	-6.8376592461e-001
 7.2259972315e-001	 9.6638223681e-001	-7.4890882741e-001
 7.1194047280e-001	 9.7426163215e-001	-8.1499801490e-001
 7.0120446979e-001	 9.8201692878e-001	-8.8233108330e-001
 8.0930672892e-001	 9.0399234710e-001	-2.9383399961e-001
 7.9928113978e-001	 9.1286864101e-001	-3.6079560844e-001
 7.8916192023e-001	 9.2163056842e-001	-4.2571828007e-001
 7.7895103073e-001	 9.3027666534e-001	-4.8911005448e-001
 7.6865046183e-001	 9.3880551259e-001	-5.5146093693e-001
 7.5826223293e-001	 9.4721573654e-001	-6.1324110767e-001
 7.4778839098e-001	 9.5550600986e-001	-6.7489927958e-001
 7.3723100910e-001	 9.6367505217e-001	-7.3686121898e-001
 7.2659218533e-001	 9.7172163067e-001	-7.9952844354e-001
 7.1587404116e-001	 9.7964456075e-001	-8.6327711008e-001
 7.0507872026e-001	 9.8744270645e-001	-9.2845710328e-001
 8.1375368908e-001	 9.0895958363e-001	-3.6082489828e-001
 8.0367301156e-001	 9.1788465080e-001	-4.2611240791e-001
 7.9349818916e-001	 9.2669472305e-001	-4.8906540368e-001
 7.8323119309e-001	 9.3538832835e-001	-5.5025655313e-001
 7.7287402486e-001	 9.4396403971e-001	-6.1023893849e-001
 7.6242871496e-001	 9.5242047597e-001	-6.6954409804e-001
 7.5189732157e-001	 9.6075630249e-001	-7.2868022266e-001
 7.4128192924e-001	 9.6897023187e-001	-7.8813052362e-001
 7.3058464750e-001	 9.7706102453e-001	-8.4835178654e-001
 7.1980760952e-001	 9.8502748934e-001	-9.0977312460e-001
 7.0895297074e-001	 9.9286848412e-001	-9.7279494297e-001
 8.1820064924e-001	 9.1392682017e-001	-4.2552079855e-001
 8.0806488334e-001	 9.2290066060e-001	-4.8921520122e-001
 7.9783445808e-001	 9.3175887769e-001	-5.5027961797e-001
 7.8751135545e-001	 9.4049999136e-001	-6.0934890892e-001
 7.7709758788e-001	 9.4912256684e-001	-6.6703689651e-001
 7.6659519698e-001	 9.5762521540e-001	-7.2393423879e-001
 7.5600625217e-001	 9.6600659513e-001	-7.8060646537e-001
 7.4533284938e-001	 9.7426541158e-001	-8.3759219256e-001
 7.3457710967e-001	 9.8240041839e-001	-8.9540153350e-001
 7.2374117788e-001	 9.9041041794e-001	-9.5451471703e-001
 7.1282722121e-001	 9.9829426179e-001	-1.0153809280e+000
 8.2264760940e-001	 9.1889405671e-001	-4.8795096611e-001
 8.1245675512e-001	 9.2791667039e-001	-5.5012707430e-001
 8.0217072700e-001	 9.3682303232e-001	-6.0937920952e-001
 7.9179151781e-001	 9.4561165437e-001	-6.6640203060e-001
 7.8132115091e-001	 9.5428109396e-001	-7.2186780254e-001
 7.7076167901e-001	 9.6282995483e-001	-7.7642410233e-001
 7.6011518277e-001	 9.7125688777e-001	-8.3069169450e-001
 7.4938376951e-001	 9.7956059128e-001	-8.8526259387e-001
 7.3856957184e-001	 9.8773981225e-001	-9.4069833190e-001
 7.2767474623e-001	 9.9579334653e-001	-9.9752844146e-001
 7.1670147168e-001	 1.0037200395e+000	-1.0562491730e+000
 8.2709456956e-001	 9.2386129325e-001	-5.4814218872e-001
 8.1684862690e-001	 9.3293268019e-001	-6.0886879124e-001
 8.0650699593e-001	 9.4188718696e-001	-6.6638027225e-001
 7.9607168017e-001	 9.5072331738e-001	-7.2142873576e-001
 7.8554471394e-001	 9.5943962109e-001	-7.7474263044e-001
 7.7492816104e-001	 9.6803469427e-001	-8.2702428826e-001
 7.6422411337e-001	 9.7650718040e-001	-8.7894763982e-001
 7.5343468965e-001	 9.8485577098e-001	-9.3115612480e-001
 7.4256203401e-001	 9.9307920611e-001	-9.8426081469e-001
 7.3160831459e-001	 1.0011762751e+000	-1.0388387634e+000
 7.2057572216e-001	 1.0091458171e+000	-1.0954315991e+000
 8.3154152972e-001	 9.2882852978e-001	-6.0611881530e-001
 8.2124049868e-001	 9.3794868998e-001	-6.6545882783e-001
 8.1084326485e-001	 9.4695134159e-001	-7.2129673598e-001
 8.0035184253e-001	 9.5583498039e-001	-7.7443977529e-001
 7.8976827697e-001	 9.6459814821e-001	-8.2567035740e-001
 7.7909464306e-001	 9.7323943370e-001	-8.7574344172e-001
 7.6833304397e-001	 9.8175747304e-001	-9.2538409056e-001
 7.5748560979e-001	 9.9015095069e-001	-9.7528522735e-001
 7.4655449618e-001	 9.9841859997e-001	-1.0261056157e+000
 7.3554188295e-001	 1.0065592037e+000	-1.0784680756e+000
 7.2444997263e-001	 1.0145715948e+000	-1.1329579516e+000
 8.3598848987e-001	 9.3379576632e-001	-6.6190279497e-001
 8.2563237046e-001	 9.4296469978e-001	-7.1991340506e-001
 8.1517953377e-001	 9.5201549622e-001	-7.7414039511e-001
 8.0463200489e-001	 9.6094664340e-001	-8.2544385792e-001
 7.9399184000e-001	 9.6975667534e-001	-8.7465798518e-001
 7.8326112509e-001	 9.7844417313e-001	-9.2258827206e-001
 7.7244197457e-001	 9.8700776568e-001	-9.7000891232e-001
 7.6153652993e-001	 9.9544613039e-001	-1.0176604041e+000
 7.5054695835e-001	 1.0037579938e+000	-1.0662473853e+000
 7.3947545130e-001	 1.0119421323e+000	-1.1164367151e+000
 7.2832422311e-001	 1.0199973725e+000	-1.1688558180e+000
 8.4043545003e-001	 9.3876300286e-001	-7.1551371591e-001
 8.3002424224e-001	 9.4798070957e-001	-7.7224652258e-001
 8.1951580270e-001	 9.5707965086e-001	-8.2492093742e-001
 8.0891216725e-001	 9.6605830641e-001	-8.7444767512e-001
 7.9821540303e-001	 9.7491520247e-001	-9.2171056163e-001
 7.8742760711e-001	 9.8364891256e-001	-9.6756357181e-001
 7.7655090516e-001	 9.9225805831e-001	-1.0128280642e+000
 7.6558745006e-001	 1.0007413101e+000	-1.0582902344e+000
 7.5453942052e-001	 1.0090973877e+000	-1.1046988063e+000
 7.4340901966e-001	 1.0173250609e+000	-1.1527629789e+000
 7.3219847358e-001	 1.0254231501e+000	-1.2031506459e+000
 8.4488241019e-001	 9.4373023940e-001	-7.6696884401e-001
 8.3441611403e-001	 9.5299671937e-001	-8.2246999223e-001
 8.2385207162e-001	 9.6214380549e-001	-8.7364597302e-001
 8.1319232961e-001	 9.7116996942e-001	-9.2145592598e-001
 8.0243896606e-001	 9.8007372959e-001	-9.6683120247e-001
 7.9159408914e-001	 9.8885365199e-001	-1.0106722360e+000
 7.8065983576e-001	 9.9750835095e-001	-1.0538456165e+000
 7.6963837020e-001	 1.0060364898e+000	-1.0971813910e+000
 7.5853188269e-001	 1.0144367816e+000	-1.1414706104e+000
 7.4734258802e-001	 1.0227079895e+000	-1.1874631415e+000
 7.3607272405e-001	 1.0308489278e+000	-1.2358657612e+000
 6.9733021931e-001	 9.7659115111e-001	-8.3437832888e-001
 6.8657934596e-001	 9.8417911056e-001	-9.0253743339e-001
 6.7575644299e-001	 9.9164155477e-001	-9.6654418380e-001
 6.6486368655e-001	 9.9897750582e-001	-1.0260201242e+000
 6.5390326915e-001	 1.0061860356e+000	-1.0865185074e+000
 6.4287739830e-001	 1.0132662660e+000	-1.1502908145e+000
 6.3178829505e-001	 1.0202173693e+000	-1.2160939839e+000
 6.2063819263e-001	 1.0270385685e+000	-1.2826386857e+000
 6.0942933496e-001	 1.0337291371e+000	-1.3485980858e+000
 5.9816397530e-001	 1.0402883994e+000	-1.4126164735e+000
 5.8684437482e-001	 1.0467157306e+000	-1.4733177011e+000
 7.0120446979e-001	 9.8201692878e-001	-8.8233108330e-001
 6.9039386638e-001	 9.8964704566e-001	-9.4860010704e-001
 6.7951083316e-001	 9.9715094997e-001	-1.0109372241e+000
 6.6855755838e-001	 1.0045276583e+000	-1.0687697985e+000
 6.5753624673e-001	 1.0117762375e+000	-1.1248694386e+000
 6.4644911797e-001	 1.0188958045e+000	-1.1844970150e+000
 6.3529840552e-001	 1.0258855270e+000	-1.2464847617e+000
 6.2408635498e-001	 1.0327446236e+000	-1.3094758842e+000
 6.1281522277e-001	 1.0394723639e+000	-1.3720761607e+000
 6.0148727465e-001	 1.0460680683e+000	-1.4328629272e+000
 5.9010478436e-001	 1.0525311088e+000	-1.4903938632e+000
 7.0507872026e-001	 9.8744270645e-001	-9.2845710328e-001
 6.9420838679e-001	 9.9511498077e-001	-9.9281137632e-001
 6.8326522333e-001	 1.0026603452e+000	-1.0534551446e+000
 6.7225143021e-001	 1.0100778109e+000	-1.1097637286e+000
 6.6116922430e-001	 1.0173664394e+000	-1.1623302320e+000
 6.5002083765e-001	 1.0245253430e+000	-1.2177041079e+000
 6.3880851599e-001	 1.0315536847e+000	-1.2757929351e+000
 6.2753451734e-001	 1.0384506788e+000	-1.3351762870e+000
 6.1620111058e-001	 1.0452155907e+000	-1.3943962378e+000
 6.0481057400e-001	 1.0518477373e+000	-1.4519667077e+000
 5.9336519390e-001	 1.0583464869e+000	-1.5063825964e+000
 7.0895297074e-001	 9.9286848412e-001	-9.7279494297e-001
 6.9802290721e-001	 1.0005829159e+000	-1.0352179315e+000
 6.8701961350e-001	 1.0081697404e+000	-1.0941517003e+000
 6.7594530204e-001	 1.0156279634e+000	-1.1489244041e+000
 6.6480220188e-001	 1.0229566413e+000	-1.1989933552e+000
 6.5359255733e-001	 1.0301548815e+000	-1.2500070720e+000
 6.4231862646e-001	 1.0372218423e+000	-1.3041145396e+000
 6.3098267970e-001	 1.0441567339e+000	-1.3598354204e+000
 6.1958699839e-001	 1.0509588175e+000	-1.4156516597e+000
 6.0813387335e-001	 1.0576274063e+000	-1.4700171933e+000
 5.9662560343e-001	 1.0641618651e+000	-1.5213674310e+000
 7.1282722121e-001	 9.9829426179e-001	-1.0153809280e+000
 7.0183742762e-001	 1.0060508510e+000	-1.0758641228e+000
 6.9077400367e-001	 1.0136791356e+000	-1.1330782234e+000
 6.7963917386e-001	 1.0211781159e+000	-1.1863090127e+000
 6.6843517946e-001	 1.0285468432e+000	-1.2348240692e+000
 6.5716427700e-001	 1.0357844200e+000	-1.2814978787e+000
 6.4582873692e-001	 1.0428900000e+000	-1.3315428306e+000
 6.3443084205e-001	 1.0498627890e+000	-1.3835462928e+000
 6.2297288620e-001	 1.0567020443e+000	-1.4359335493e+000
 6.1145717270e-001	 1.0634070752e+000	-1.4871018773e+000
 5.9988601297e-001	 1.0699772432e+000	-1.5354303848e+000
 7.1670147168e-001	 1.0037200395e+000	-1.0562491730e+000
 7.0565194803e-001	 1.0115187861e+000	-1.1147919804e+000
 6.9452839384e-001	 1.0191885308e+000	-1.1702836438e+000
 6.8333304569e-001	 1.0267282684e+000	-1.2219722876e+000
 6.7206815703e-001	 1.0341370451e+000	-1.2690865278e+000
 6.6073599668e-001	 1.0414139584e+000	-1.3122653945e+000
 6.4933884739e-001	 1.0485581577e+000	-1.3581681889e+000
 6.3787900441e-001	 1.0555688441e+000	-1.4063993028e+000
 6.2635877401e-001	 1.0624452711e+000	-1.4553307185e+000
 6.1478047205e-001	 1.0691867442e+000	-1.5033062767e+000
 6.0314642251e-001	 1.0757926214e+000	-1.5486518700e+000
 7.2057572216e-001	 1.0091458171e+000	-1.0954315991e+000
 7.0946646845e-001	 1.0169867212e+000	-1.1520412331e+000
 6.9828278401e-001	 1.0246979260e+000	-1.2058145099e+000
 6.8702691752e-001	 1.0322784210e+000	-1.2559665286e+000
 6.7570113461e-001	 1.0397272470e+000	-1.3016914102e+000
 6.6430771635e-001	 1.0470434969e+000	-1.3423952842e+000
 6.5284895786e-001	 1.0542263153e+000	-1.3840780266e+000
 6.4132716676e-001	 1.0612748992e+000	-1.4284821457e+000
 6.2974466182e-001	 1.0681884979e+000	-1.4739295761e+000
 6.1810377140e-001	 1.0749664132e+000	-1.5187138400e+000
 6.0640683204e-001	 1.0816079995e+000	-1.5611106003e+000
 7.2444997263e-001	 1.0145715948e+000	-1.1329579516e+000
 7.1328098886e-001	 1.0224546563e+000	-1.1876493283e+000
 7.0203717417e-001	 1.0302073212e+000	-1.2397150090e+000
 6.9072078935e-001	 1.0378285735e+000	-1.2883416231e+000
 6.7933411219e-001	 1.0453174490e+000	-1.3326931868e+000
 6.6787943603e-001	 1.0526730354e+000	-1.3719128747e+000
 6.5635906832e-001	 1.0598944730e+000	-1.4093566924e+000
 6.4477532912e-001	 1.0669809543e+000	-1.4498797215e+000
 6.3313054963e-001	 1.0739317246e+000	-1.4918140364e+000
 6.2142707075e-001	 1.0807460821e+000	-1.5334058557e+000
 6.0966724158e-001	 1.0874233777e+000	-1.5728834980e+000
 7.2832422311e-001	 1.0199973725e+000	-1.1688558180e+000
 7.1709550927e-001	 1.0279225914e+000	-1.2216514516e+000
 7.0579156434e-001	 1.0357167164e+000	-1.2720269882e+000
 6.9441466118e-001	 1.0433787260e+000	-1.3191450673e+000
 6.8296708976e-001	 1.0509076509e+000	-1.3621439146e+000
 6.7145115571e-001	 1.0583025739e+000	-1.4001391649e+000
 6.5986917879e-001	 1.0655626307e+000	-1.4340853770e+000
 6.4822349148e-001	 1.0726870094e+000	-1.4706740423e+000
 6.3651643744e-001	 1.0796749514e+000	-1.5090654275e+000
 6.2475037010e-001	 1.0865257511e+000	-1.5474613608e+000
 6.1292765112e-001	 1.0932387558e+000	-1.5840456021e+000
 7.3219847358e-001	 1.0254231501e+000	-1.2031506459e+000
 7.2091002969e-001	 1.0333905265e+000	-1.2540805459e+000
 7.0954595451e-001	 1.0412261116e+000	-1.3027899747e+000
 6.9810853301e-001	 1.0489288785e+000	-1.3484219870e+000
 6.8660006734e-001	 1.0564978528e+000	-1.3900932585e+000
 6.7502287538e-001	 1.0639321124e+000	-1.4268959522e+000
 6.6337928926e-001	 1.0712307883e+000	-1.4583420185e+000
 6.5167165383e-001	 1.0783930645e+000	-1.4909441390e+000
 6.3990232526e-001	 1.0854181782e+000	-1.5257624000e+000
 6.2807366945e-001	 1.0923054200e+000	-1.5609570495e+000
 6.1618806065e-001	 1.0990541339e+000	-1.5946699760e+000
 7.3607272405e-001	 1.0308489278e+000	-1.2358657612e+000
 7.2472455010e-001	 1.0388584616e+000	-1.2849673317e+000
 7.1330034468e-001	 1.0467355068e+000	-1.3320411964e+000
 7.0180240484e-001	 1.0544790311e+000	-1.3762151583e+000
 6.9023304492e-001	 1.0620880547e+000	-1.4165885112e+000
 6.7859459506e-001	 1.0695616509e+000	-1.4522339418e+000
 6.6688939972e-001	 1.0768989460e+000	-1.4821997143e+000
 6.5511981619e-001	 1.0840991196e+000	-1.5107659695e+000
 6.4328821307e-001	 1.0911614050e+000	-1.5419808350e+000
 6.3139696880e-001	 1.0980850890e+000	-1.5739671820e+000
 6.1944847019e-001	 1.1048695121e+000	-1.6048276162e+000
 5.8684437482e-001	 1.0467157306e+000	-1.4733177011e+000
 5.7547451073e-001	 1.0530096230e+000	-1.5327687327e+000
 5.6405496143e-001	 1.0591705282e+000	-1.5936424837e+000
 5.5258800299e-001	 1.0651979753e+000	-1.6554284696e+000
 5.4107591374e-001	 1.0710915437e+000	-1.7176116586e+000
 5.2952097297e-001	 1.0768508634e+000	-1.7796773740e+000
 5.1792545951e-001	 1.0824756146e+000	-1.8411158271e+000
 5.0629165043e-001	 1.0879655276e+000	-1.9014262591e+000
 4.9462181967e-001	 1.0933203824e+000	-1.9601206715e+000
 4.8291823679e-001	 1.0985400084e+000	-2.0167271316e+000
 4.7118316562e-001	 1.1036242841e+000	-2.0707926403e+000
 5.9010478436e-001	 1.0525311088e+000	-1.4903938632e+000
 5.7867175119e-001	 1.0588599689e+000	-1.5466660161e+000
 5.6718875679e-001	 1.0650551032e+000	-1.6043206673e+000
 5.5565808983e-001	 1.0711160377e+000	-1.6628407540e+000
 5.4408204134e-001	 1.0770423498e+000	-1.7217047637e+000
 5.3246290324e-001	 1.0828336673e+000	-1.7803918088e+000
 5.2080296704e-001	 1.0884896687e+000	-1.8383863177e+000
 5.0910452245e-001	 1.0940100827e+000	-1.8951823182e+000
 4.9736985607e-001	 1.0993946882e+000	-1.9502872937e+000
 4.8560125003e-001	 1.1046433136e+000	-2.0032255971e+000
 4.7380098076e-001	 1.1097558367e+000	-2.0535414099e+000
 5.9336519390e-001	 1.0583464869e+000	-1.5063825964e+000
 5.8186899166e-001	 1.0647103149e+000	-1.5595654981e+000
 5.7032255214e-001	 1.0709396781e+000	-1.6141135462e+000
 5.5872817668e-001	 1.0770341001e+000	-1.6694975000e+000
 5.4708816894e-001	 1.0829931559e+000	-1.7251839295e+000
 5.3540483352e-001	 1.0888164712e+000	-1.7806404754e+000
 5.2368047458e-001	 1.0945037228e+000	-1.8353407095e+000
 5.1191739448e-001	 1.1000546378e+000	-1.8887685707e+000
 5.0011789246e-001	 1.1054689940e+000	-1.9404223568e+000
 4.8828426327e-001	 1.1107466188e+000	-1.9898182551e+000
 4.7641879589e-001	 1.1158873893e+000	-2.0364934015e+000
 5.9662560343e-001	 1.0641618651e+000	-1.5213674310e+000
 5.8506623213e-001	 1.0705606608e+000	-1.5715442399e+000
 5.7345634750e-001	 1.0768242530e+000	-1.6230924493e+000
 5.6179826352e-001	 1.0829521626e+000	-1.6754650872e+000
 5.5009429653e-001	 1.0889439620e+000	-1.7281114159e+000
 5.3834676379e-001	 1.0947992751e+000	-1.7804823908e+000
 5.2655798211e-001	 1.1005177769e+000	-1.8320357012e+000
 5.1473026651e-001	 1.1060991930e+000	-1.8822403698e+000
 5.0286592885e-001	 1.1115432998e+000	-1.9305808898e+000
 4.9096727650e-001	 1.1168499240e+000	-1.9765608818e+000
 4.7903661103e-001	 1.1220189419e+000	-2.0197062599e+000
 5.9988601297e-001	 1.0699772432e+000	-1.5354303848e+000
 5.8826347259e-001	 1.0764110068e+000	-1.5826781710e+000
 5.7659014285e-001	 1.0827088279e+000	-1.6313279323e+000
 5.6486835037e-001	 1.0888702250e+000	-1.6808094554e+000
 5.5310042413e-001	 1.0948947681e+000	-1.7305493501e+000
 5.4128869406e-001	 1.1007820790e+000	-1.7799767172e+000
 5.2943548964e-001	 1.1065318310e+000	-1.8285283832e+000
 5.1754313854e-001	 1.1121437481e+000	-1.8756536738e+000
 5.0561396524e-001	 1.1176176057e+000	-1.9208187054e+000
 4.9365028974e-001	 1.1229532292e+000	-1.9635101785e+000
 4.8165442617e-001	 1.1281504945e+000	-2.0032386580e+000
 6.0314642251e-001	 1.0757926214e+000	-1.5486518700e+000
 5.9146071306e-001	 1.0822613528e+000	-1.5930419942e+000
 5.7972393820e-001	 1.0885934029e+000	-1.6388896811e+000
 5.6793843721e-001	 1.0947882874e+000	-1.6855960085e+000
 5.5610655173e-001	 1.1008455742e+000	-1.7325596298e+000
 5.4423062433e-001	 1.1067648830e+000	-1.7791826657e+000
 5.3231299717e-001	 1.1125458851e+000	-1.8248761431e+000
 5.2035601056e-001	 1.1181883033e+000	-1.8690649536e+000
 5.0836200164e-001	 1.1236919115e+000	-1.9111923105e+000
 4.9633330298e-001	 1.1290565344e+000	-1.9507236858e+000
 4.8427224131e-001	 1.1342820471e+000	-1.9871502149e+000
 6.0640683204e-001	 1.0816079995e+000	-1.5611106003e+000
 5.9465795353e-001	 1.0881116987e+000	-1.6027090916e+000
 5.8285773356e-001	 1.0944779778e+000	-1.6458464175e+000
 5.7100852406e-001	 1.1007063498e+000	-1.6898895182e+000
 5.5911267932e-001	 1.1067963803e+000	-1.7342038280e+000
 5.4717255460e-001	 1.1127476869e+000	-1.7781594022e+000
 5.3519050470e-001	 1.1185599392e+000	-1.8211365725e+000
 5.2316888259e-001	 1.1242328584e+000	-1.8625311020e+000
 5.1111003803e-001	 1.1297662173e+000	-1.9017588172e+000
 4.9901631622e-001	 1.1351598396e+000	-1.9382596983e+000
 4.8689005644e-001	 1.1404135996e+000	-1.9715014151e+000
 6.0966724158e-001	 1.0874233777e+000	-1.5728834980e+000
 5.9785519400e-001	 1.0939620447e+000	-1.6117514304e+000
 5.8599152891e-001	 1.1003625527e+000	-1.6522658037e+000
 5.7407861090e-001	 1.1066244122e+000	-1.6937540299e+000
 5.6211880692e-001	 1.1127471864e+000	-1.7355430986e+000
 5.5011448487e-001	 1.1187304908e+000	-1.7769659530e+000
 5.3806801223e-001	 1.1245739933e+000	-1.8173673742e+000
 5.2598175462e-001	 1.1302774136e+000	-1.8561093427e+000
 5.1385807442e-001	 1.1358405231e+000	-1.8925758557e+000
 5.0169932945e-001	 1.1412631448e+000	-1.9261771802e+000
 4.8950787158e-001	 1.1465451522e+000	-1.9563535279e+000
 6.1292765112e-001	 1.0932387558e+000	-1.5840456021e+000
 6.0105243446e-001	 1.0998123907e+000	-1.6202394696e+000
 5.8912532427e-001	 1.1062471276e+000	-1.6582143491e+000
 5.7714869775e-001	 1.1125424746e+000	-1.6972527679e+000
 5.6512493451e-001	 1.1186979925e+000	-1.7366380818e+000
 5.5305641514e-001	 1.1247132947e+000	-1.7756611125e+000
 5.4094551976e-001	 1.1305880474e+000	-1.8136262716e+000
 5.2879462665e-001	 1.1363219687e+000	-1.8498571415e+000
 5.1660611082e-001	 1.1419148290e+000	-1.8837014875e+000
 5.0438234269e-001	 1.1473664500e+000	-1.9145356823e+000
 4.9212568672e-001	 1.1526767048e+000	-1.9417685293e+000
 6.1618806065e-001	 1.0990541339e+000	-1.5946699760e+000
 6.0424967493e-001	 1.1056627366e+000	-1.6282420675e+000
 5.9225911962e-001	 1.1121317026e+000	-1.6637573161e+000
 5.8021878459e-001	 1.1184605371e+000	-1.7004480422e+000
 5.6813106211e-001	 1.1246487986e+000	-1.7375488120e+000
 5.5599834541e-001	 1.1306960986e+000	-1.7743033504e+000
 5.4382302729e-001	 1.1366021015e+000	-1.8099709173e+000
 5.3160749867e-001	 1.1423665238e+000	-1.8438321176e+000
 5.1935414721e-001	 1.1479891348e+000	-1.8751941196e+000
 5.0706535593e-001	 1.1534697552e+000	-1.9033952600e+000
 4.9474350186e-001	 1.1588082574e+000	-1.9278090230e+000
 6.1944847019e-001	 1.1048695121e+000	-1.6048276162e+000
 6.0744691540e-001	 1.1115130826e+000	-1.6358263884e+000
 5.9539291498e-001	 1.1180162775e+000	-1.6689586277e+000
 5.8328887144e-001	 1.1243785995e+000	-1.7034011554e+000
 5.7113718971e-001	 1.1305996047e+000	-1.7383346249e+000
 5.5894027569e-001	 1.1366789026e+000	-1.7729507213e+000
 5.4670053483e-001	 1.1426161556e+000	-1.8064588039e+000
 5.3442037070e-001	 1.1484110790e+000	-1.8380919562e+000
 5.2210218360e-001	 1.1540634406e+000	-1.8671124202e+000
 5.0974836916e-001	 1.1595730604e+000	-1.8928163917e+000
 4.9736131699e-001	 1.1649398100e+000	-1.9145381634e+000
 4.7118316562e-001	 1.1036242841e+000	-2.0707926403e+000
 4.5941709620e-001	 1.1085738690e+000	-2.1241866995e+000
 4.4762403676e-001	 1.1133879660e+000	-2.1786568852e+000
 4.3580622802e-001	 1.1180665990e+000	-2.2336373715e+000
 4.2396589999e-001	 1.1226098389e+000	-2.2886038552e+000
 4.1210527081e-001	 1.1270178035e+000	-2.3430739636e+000
 4.0022654558e-001	 1.1312906563e+000	-2.3966072159e+000
 3.8833191525e-001	 1.1354286065e+000	-2.4488045514e+000
 3.7642355549e-001	 1.1394319079e+000	-2.4993074449e+000
 3.6450362567e-001	 1.1433008586e+000	-2.5477966265e+000
 3.5257426777e-001	 1.1470357998e+000	-2.5939904315e+000
 4.7380098076e-001	 1.1097558367e+000	-2.0535414099e+000
 4.6196954101e-001	 1.1147329206e+000	-2.1032075114e+000
 4.5011096130e-001	 1.1195737639e+000	-2.1540677644e+000
 4.3822749479e-001	 1.1242783906e+000	-2.2055440004e+000
 4.2632138387e-001	 1.1288468721e+000	-2.2571021862e+000
 4.1439485901e-001	 1.1332793265e+000	-2.3082528315e+000
 4.0245013757e-001	 1.1375759186e+000	-2.3585509289e+000
 3.9048942265e-001	 1.1417368586e+000	-2.4075954445e+000
 3.7851490203e-001	 1.1457624017e+000	-2.4550283747e+000
 3.6652874706e-001	 1.1496528476e+000	-2.5005333937e+000
 3.5453311163e-001	 1.1534085395e+000	-2.5438341135e+000
 4.7641879589e-001	 1.1158873893e+000	-2.0364934015e+000
 4.6452198583e-001	 1.1208919723e+000	-2.0825287299e+000
 4.5259788585e-001	 1.1257595619e+000	-2.1298729896e+000
 4.4064876156e-001	 1.1304901823e+000	-2.1779372312e+000
 4.2867686775e-001	 1.1350839052e+000	-2.2261792372e+000
 4.1668444721e-001	 1.1395408496e+000	-2.2741039266e+000
 4.0467372955e-001	 1.1438611810e+000	-2.3212632737e+000
 3.9264693005e-001	 1.1480451107e+000	-2.3672557572e+000
 3.8060624857e-001	 1.1520928955e+000	-2.4117253591e+000
 3.6855386846e-001	 1.1560048366e+000	-2.4543601347e+000
 3.5649195550e-001	 1.1597812792e+000	-2.4948903807e+000
 4.7903661103e-001	 1.1220189419e+000	-2.0197062599e+000
 4.6707443065e-001	 1.1270510239e+000	-2.0622097241e+000
 4.5508481039e-001	 1.1319453599e+000	-2.1061321887e+000
 4.4307002833e-001	 1.1367019740e+000	-2.1508754579e+000
 4.3103235163e-001	 1.1413209384e+000	-2.1958906509e+000
 4.1897403541e-001	 1.1458023727e+000	-2.2406786031e+000
 4.0689732153e-001	 1.1501464433e+000	-2.2847897618e+000
 3.9480443744e-001	 1.1543533628e+000	-2.3278235922e+000
 3.8269759510e-001	 1.1584233893e+000	-2.3694275156e+000
 3.7057898985e-001	 1.1623568256e+000	-2.4092954003e+000
 3.5845079937e-001	 1.1661540190e+000	-2.4471656342e+000
 4.8165442617e-001	 1.1281504945e+000	-2.0032386580e+000
 4.6962687546e-001	 1.1332100756e+000	-2.0423109823e+000
 4.5757173494e-001	 1.1381311579e+000	-2.0829062165e+000
 4.4549129509e-001	 1.1429137657e+000	-2.1244184252e+000
 4.3338783551e-001	 1.1475579716e+000	-2.1662935618e+000
 4.2126362361e-001	 1.1520638958e+000	-2.2080298650e+000
 4.0912091351e-001	 1.1564317056e+000	-2.2491777300e+000
 3.9696194484e-001	 1.1606616149e+000	-2.2893390700e+000
 3.8478894164e-001	 1.1647538830e+000	-2.3281661905e+000
 3.7260411125e-001	 1.1687088147e+000	-2.3653601993e+000
 3.6040964324e-001	 1.1725267587e+000	-2.4006689803e+000
 4.8427224131e-001	 1.1342820471e+000	-1.9871502149e+000
 4.7217932028e-001	 1.1393691272e+000	-2.0228940343e+000
 4.6005865948e-001	 1.1443169558e+000	-2.0602570802e+000
 4.4791256186e-001	 1.1491255574e+000	-2.0986271572e+000
 4.3574331939e-001	 1.1537950047e+000	-2.1374465266e+000
 4.2355321181e-001	 1.1583254189e+000	-2.1762122977e+000
 4.1134450550e-001	 1.1627169680e+000	-2.2144762725e+000
 3.9911945224e-001	 1.1669698670e+000	-2.2518442609e+000
 3.8688028818e-001	 1.1710843768e+000	-2.2879748894e+000
 3.7462923264e-001	 1.1750608037e+000	-2.3225779269e+000
 3.6236848711e-001	 1.1788994984e+000	-2.3554121566e+000
 4.8689005644e-001	 1.1404135996e+000	-1.9715014151e+000
 4.7473176510e-001	 1.1455281789e+000	-2.0040213746e+000
 4.6254558403e-001	 1.1505027538e+000	-2.0382478663e+000
 4.5033382863e-001	 1.1553373490e+000	-2.0735638869e+000
 4.3809880327e-001	 1.1600320379e+000	-2.1094094560e+000
 4.2584280002e-001	 1.1645869419e+000	-2.1452820009e+000
 4.1356809748e-001	 1.1690022303e+000	-2.1807361736e+000
 4.0127695964e-001	 1.1732781191e+000	-2.2153831178e+000
 3.8897163471e-001	 1.1774148706e+000	-2.2488892090e+000
 3.7665435403e-001	 1.1814127927e+000	-2.2809742943e+000
 3.6432733098e-001	 1.1852722382e+000	-2.3114094587e+000
 4.8950787158e-001	 1.1465451522e+000	-1.9563535279e+000
 4.7728420991e-001	 1.1516872305e+000	-1.9857563868e+000
 4.6503250857e-001	 1.1566885518e+000	-2.0169426684e+000
 4.5275509540e-001	 1.1615491407e+000	-2.0492919868e+000
 4.4045428715e-001	 1.1662690711e+000	-2.0822435469e+000
 4.2813238822e-001	 1.1708484650e+000	-2.1152965224e+000
 4.1579168946e-001	 1.1752874927e+000	-2.1480098427e+000
 4.0343446704e-001	 1.1795863712e+000	-2.1800014104e+000
 3.9106298125e-001	 1.1837453644e+000	-2.2109467704e+000
 3.7867947543e-001	 1.1877647817e+000	-2.2405772602e+000
 3.6628617485e-001	 1.1916449779e+000	-2.2686776689e+000
 4.9212568672e-001	 1.1526767048e+000	-1.9417685293e+000
 4.7983665473e-001	 1.1578462822e+000	-1.9681632684e+000
 4.6751943311e-001	 1.1628743498e+000	-1.9964065155e+000
 4.5517636217e-001	 1.1677609324e+000	-2.0258758999e+000
 4.4280977103e-001	 1.1725061042e+000	-2.0560112160e+000
 4.3042197642e-001	 1.1771099881e+000	-2.0863147927e+000
 4.1801528145e-001	 1.1815727550e+000	-2.1163512492e+000
 4.0559197444e-001	 1.1858946233e+000	-2.1457466602e+000
 3.9315432779e-001	 1.1900758581e+000	-2.1741871529e+000
 3.8070459682e-001	 1.1941167707e+000	-2.2014169636e+000
 3.6824501872e-001	 1.1980177176e+000	-2.2272359866e+000
 4.9474350186e-001	 1.1588082574e+000	-1.9278090230e+000
 4.8238909955e-001	 1.1640053338e+000	-1.9513069572e+000
 4.7000635766e-001	 1.1690601477e+000	-1.9767053015e+000
 4.5759762894e-001	 1.1739727241e+000	-2.0033810720e+000
 4.4516525491e-001	 1.1787431374e+000	-2.0307760338e+000
 4.3271156462e-001	 1.1833715112e+000	-2.0583970606e+000
 4.2023887343e-001	 1.1878580173e+000	-2.0858158586e+000
 4.0774948184e-001	 1.1922028754e+000	-2.1126680771e+000
 3.9524567433e-001	 1.1964063519e+000	-2.1386518298e+000
 3.8272971821e-001	 1.2004687598e+000	-2.1635256572e+000
 3.7020386259e-001	 1.2043904573e+000	-2.1871059598e+000
 4.9736131699e-001	 1.1649398100e+000	-1.9145381634e+000
 4.8494154436e-001	 1.1701643855e+000	-1.9352530574e+000
 4.7249328220e-001	 1.1752459457e+000	-1.9579057153e+000
 4.6001889571e-001	 1.1801845157e+000	-1.9818738847e+000
 4.4752073879e-001	 1.1849801705e+000	-2.0066026598e+000
 4.3500115282e-001	 1.1896330343e+000	-2.0316048300e+000
 4.2246246541e-001	 1.1941432797e+000	-2.0564605705e+000
 4.0990698924e-001	 1.1985111275e+000	-2.0808164960e+000
 3.9733702086e-001	 1.2027368457e+000	-2.1043841051e+000
 3.8475483961e-001	 1.2068207488e+000	-2.1269376429e+000
 3.7216270646e-001	 1.2107631971e+000	-2.1483114179e+000
 3.5257426777e-001	 1.1470357998e+000	-2.5939904315e+000
 3.4063760520e-001	 1.1506371152e+000	-2.6388603018e+000
 3.2869574138e-001	 1.1541052293e+000	-2.6833583475e+000
 3.1675075928e-001	 1.1574406073e+000	-2.7272228284e+000
 3.0480472067e-001	 1.1606437548e+000	-2.7702188995e+000
 2.9285966530e-001	 1.1637152168e+000	-2.8121355714e+000
 2.8091760998e-001	 1.1666555769e+000	-2.8527824750e+000
 2.6898054781e-001	 1.1694654564e+000	-2.8919864633e+000
 2.5705044737e-001	 1.1721455137e+000	-2.9295880816e+000
 2.4512925199e-001	 1.1746964429e+000	-2.9654379403e+000
 2.3321887900e-001	 1.1771189732e+000	-2.9993930236e+000
 3.5453311163e-001	 1.1534085395e+000	-2.5438341135e+000
 3.4253013096e-001	 1.1570298633e+000	-2.5858993497e+000
 3.3052192014e-001	 1.1605172456e+000	-2.6276701648e+000
 3.1851057370e-001	 1.1638711545e+000	-2.6688798268e+000
 3.0649816490e-001	 1.1670920981e+000	-2.7092893237e+000
 2.9448674479e-001	 1.1701806246e+000	-2.7486842192e+000
 2.8247834141e-001	 1.1731373208e+000	-2.7868713044e+000
 2.7047495891e-001	 1.1759628116e+000	-2.8236750782e+000
 2.5847857682e-001	 1.1786577588e+000	-2.8589340911e+000
 2.4649114926e-001	 1.1812228605e+000	-2.8924971859e+000
 2.3451460422e-001	 1.1836588501e+000	-2.9242196700e+000
 3.5649195550e-001	 1.1597812792e+000	-2.4948903807e+000
 3.4442265673e-001	 1.1634226113e+000	-2.5342758374e+000
 3.3234809890e-001	 1.1669292619e+000	-2.5734389734e+000
 3.2027038813e-001	 1.1703017016e+000	-2.6121079046e+000
 3.0819160913e-001	 1.1735404414e+000	-2.6500394216e+000
 2.9611382428e-001	 1.1766460324e+000	-2.6870157359e+000
 2.8403907283e-001	 1.1796190648e+000	-2.7228410133e+000
 2.7196937000e-001	 1.1824601668e+000	-2.7573377275e+000
 2.5990670626e-001	 1.1851700039e+000	-2.7903428715e+000
 2.4785304653e-001	 1.1877492782e+000	-2.8217040597e+000
 2.3581032944e-001	 1.1901987269e+000	-2.8512755582e+000
 3.5845079937e-001	 1.1661540190e+000	-2.4471656342e+000
 3.4631518249e-001	 1.1698153593e+000	-2.4839834572e+000
 3.3417427765e-001	 1.1733412782e+000	-2.5206462403e+000
 3.2203020256e-001	 1.1767322487e+000	-2.5568768158e+000
 3.0988505336e-001	 1.1799887846e+000	-2.5924277764e+000
 2.9774090377e-001	 1.1831114402e+000	-2.6270781075e+000
 2.8559980425e-001	 1.1861008087e+000	-2.6606295960e+000
 2.7346378109e-001	 1.1889575219e+000	-2.6929030523e+000
 2.6133483571e-001	 1.1916822490e+000	-2.7237343827e+000
 2.4921494379e-001	 1.1942756958e+000	-2.7529705471e+000
 2.3710605467e-001	 1.1967386037e+000	-2.7804654395e+000
 3.6040964324e-001	 1.1725267587e+000	-2.4006689803e+000
 3.4820770825e-001	 1.1762081074e+000	-2.4350188507e+000
 3.3600045641e-001	 1.1797532945e+000	-2.4692766005e+000
 3.2379001698e-001	 1.1831627958e+000	-2.5031596756e+000
 3.1157849758e-001	 1.1864371279e+000	-2.5364165005e+000
 2.9936798326e-001	 1.1895768480e+000	-2.5688229912e+000
 2.8716053567e-001	 1.1925825527e+000	-2.6001788345e+000
 2.7495819219e-001	 1.1954548771e+000	-2.6303035726e+000
 2.6276296515e-001	 1.1981944942e+000	-2.6590325297e+000
 2.5057684106e-001	 1.2008021135e+000	-2.6862126190e+000
 2.3840177989e-001	 1.2032784806e+000	-2.7116980677e+000
 3.6236848711e-001	 1.1788994984e+000	-2.3554121566e+000
 3.5010023401e-001	 1.1826008554e+000	-2.3873815320e+000
 3.3782663517e-001	 1.1861653108e+000	-2.4193177774e+000
 3.2554983141e-001	 1.1895933429e+000	-2.4509328781e+000
 3.1327194181e-001	 1.1928854711e+000	-2.4819711503e+000
 3.0099506275e-001	 1.1960422558e+000	-2.5122056284e+000
 2.8872126709e-001	 1.1990642966e+000	-2.5414342104e+000
 2.7645260328e-001	 1.2019522323e+000	-2.5694755980e+000
 2.6419109459e-001	 1.2047067393e+000	-2.5961650723e+000
 2.5193873833e-001	 1.2073285311e+000	-2.6213501425e+000
 2.3969750511e-001	 1.2098183574e+000	-2.6448861090e+000
 3.6432733098e-001	 1.1852722382e+000	-2.3114094587e+000
 3.5199275977e-001	 1.1889936034e+000	-2.3410738112e+000
 3.3965281392e-001	 1.1925773271e+000	-2.3707605036e+000
 3.2730964584e-001	 1.1960238900e+000	-2.4001760154e+000
 3.1496538604e-001	 1.1993338144e+000	-2.4290606435e+000
 3.0262214224e-001	 1.2025076636e+000	-2.4571847605e+000
 2.9028199851e-001	 1.2055460405e+000	-2.4843448188e+000
 2.7794701438e-001	 1.2084495874e+000	-2.5103591411e+000
 2.6561922404e-001	 1.2112189844e+000	-2.5350635381e+000
 2.5330063560e-001	 1.2138549488e+000	-2.5583067932e+000
 2.4099323033e-001	 1.2163582342e+000	-2.5799460553e+000
 3.6628617485e-001	 1.1916449779e+000	-2.2686776689e+000
 3.5388528553e-001	 1.1953863515e+000	-2.2961007204e+000
 3.4147899268e-001	 1.1989893434e+000	-2.3235984447e+000
 3.2906946026e-001	 1.2024544371e+000	-2.3508717982e+000
 3.1665883026e-001	 1.2057821577e+000	-2.3776571785e+000
 3.0424922174e-001	 1.2089730714e+000	-2.4037225466e+000
 2.9184272993e-001	 1.2120277845e+000	-2.4288632853e+000
 2.7944142547e-001	 1.2149469426e+000	-2.4528978333e+000
 2.6704735348e-001	 1.2177312295e+000	-2.4756631383e+000
 2.5466253287e-001	 1.2203813665e+000	-2.4970099707e+000
 2.4228895555e-001	 1.2228981111e+000	-2.5167981395e+000
 3.6824501872e-001	 1.1980177176e+000	-2.2272359866e+000
 3.5577781129e-001	 1.2017790995e+000	-2.2524699415e+000
 3.4330517144e-001	 1.2054013597e+000	-2.2778281241e+000
 3.3082927469e-001	 1.2088849842e+000	-2.3030059797e+000
 3.1835227449e-001	 1.2122305009e+000	-2.3277361555e+000
 3.0587630123e-001	 1.2154384792e+000	-2.3517844834e+000
 2.9340346136e-001	 1.2185095284e+000	-2.3749456847e+000
 2.8093583656e-001	 1.2214442978e+000	-2.3970388428e+000
 2.6847548292e-001	 1.2242434746e+000	-2.4179026847e+000
 2.5602443014e-001	 1.2269077841e+000	-2.4373907161e+000
 2.4358468078e-001	 1.2294379879e+000	-2.4553662537e+000
 3.7020386259e-001	 1.2043904573e+000	-2.1871059598e+000
 3.5767033706e-001	 1.2081718476e+000	-2.2101917349e+000
 3.4513135019e-001	 1.2118133760e+000	-2.2334488501e+000
 3.3258908912e-001	 1.2153155313e+000	-2.2565672795e+000
 3.2004571872e-001	 1.2186788442e+000	-2.2792761000e+000
 3.0750338072e-001	 1.2219038869e+000	-2.3013393269e+000
 2.9496419278e-001	 1.2249912724e+000	-2.3225514619e+000
 2.8243024766e-001	 1.2279416529e+000	-2.3427327954e+000
 2.6990361237e-001	 1.2307557197e+000	-2.3617245102e+000
 2.5738632741e-001	 1.2334342018e+000	-2.3793836319e+000
 2.4488040600e-001	 1.2359778647e+000	-2.3955778689e+000
 3.7216270646e-001	 1.2107631971e+000	-2.1483114179e+000
 3.5956286282e-001	 1.2145645956e+000	-2.1692788701e+000
 3.4695752895e-001	 1.2182253923e+000	-2.1904626441e+000
 3.3434890354e-001	 1.2217460784e+000	-2.2115473114e+000
 3.2173916295e-001	 1.2251271875e+000	-2.2322585876e+000
 3.0913046021e-001	 1.2283692947e+000	-2.2523590171e+000
 2.9652492420e-001	 1.2314730163e+000	-2.2716433552e+000
 2.8392465875e-001	 1.2344390081e+000	-2.2899336960e+000
 2.7133174181e-001	 1.2372679649e+000	-2.3070743905e+000
 2.5874822468e-001	 1.2399606194e+000	-2.3229268042e+000
 2.4617613122e-001	 1.2425177416e+000	-2.3373639579e+000
 2.3321887900e-001	 1.1771189732e+000	-2.9993930236e+000
 2.2132300216e-001	 1.1794135337e+000	-3.0316853539e+000
 2.0944169444e-001	 1.1815812942e+000	-3.0626210581e+000
 1.9757678784e-001	 1.1836230841e+000	-3.0921530018e+000
 1.8573008594e-001	 1.1855397642e+000	-3.1202270548e+000
 1.7390336337e-001	 1.1873322253e+000	-3.1467784045e+000
 1.6209836528e-001	 1.1890013878e+000	-3.1717279844e+000
 1.5031680692e-001	 1.1905482000e+000	-3.1949790425e+000
 1.3856037313e-001	 1.1919736380e+000	-3.2164138742e+000
 1.2683071795e-001	 1.1932787039e+000	-3.2358907410e+000
 1.1512946431e-001	 1.1944644255e+000	-3.2532409957e+000
 2.3451460422e-001	 1.1836588501e+000	-2.9242196700e+000
 2.2255263588e-001	 1.1859661587e+000	-2.9543548760e+000
 2.1060531759e-001	 1.1881459629e+000	-2.9832330651e+000
 1.9867449155e-001	 1.1901990967e+000	-3.0108106458e+000
 1.8676197134e-001	 1.1921264255e+000	-3.0370369117e+000
 1.7486954147e-001	 1.1939288453e+000	-3.0618501981e+000
 1.6299895679e-001	 1.1956072813e+000	-3.0851741574e+000
 1.5115194205e-001	 1.1971626874e+000	-3.1069141777e+000
 1.3933019147e-001	 1.1985960448e+000	-3.1269539704e+000
 1.2753536828e-001	 1.1999083615e+000	-3.1451523498e+000
 1.1576910442e-001	 1.2011006708e+000	-3.1613402257e+000
 2.3581032944e-001	 1.1901987269e+000	-2.8512755582e+000
 2.2378226959e-001	 1.1925187837e+000	-2.8793353735e+000
 2.1176894074e-001	 1.1947106316e+000	-2.9062402354e+000
 1.9977219525e-001	 1.1967751093e+000	-2.9319492664e+000
 1.8779385674e-001	 1.1987130869e+000	-2.9564144161e+000
 1.7583571957e-001	 1.2005254653e+000	-2.9795764576e+000
 1.6389954829e-001	 1.2022131748e+000	-3.0013611047e+000
 1.5198707717e-001	 1.2037771748e+000	-3.0216752766e+000
 1.4010000980e-001	 1.2052184517e+000	-3.0404035363e+000
 1.2824001861e-001	 1.2065380191e+000	-3.0574047264e+000
 1.1640874454e-001	 1.2077369161e+000	-3.0725088245e+000
 2.3710605467e-001	 1.1967386037e+000	-2.7804654395e+000
 2.2501190330e-001	 1.1990714087e+000	-2.8065249076e+000
 2.1293256389e-001	 1.2012753004e+000	-2.8315343044e+000
 2.0086989895e-001	 1.2033511219e+000	-2.8554547016e+000
 1.8882574215e-001	 1.2052997482e+000	-2.8782400014e+000
 1.7680189767e-001	 1.2071220852e+000	-2.8998327682e+000
 1.6480013979e-001	 1.2088190684e+000	-2.9201601835e+000
 1.5282221230e-001	 1.2103916621e+000	-2.9391301519e+000
 1.4086982814e-001	 1.2118408586e+000	-2.9566275856e+000
 1.2894466894e-001	 1.2131676768e+000	-2.9725108925e+000
 1.1704838465e-001	 1.2143731614e+000	-2.9866086893e+000
 2.3840177989e-001	 1.2032784806e+000	-2.7116980677e+000
 2.2624153701e-001	 1.2056240338e+000	-2.7358255394e+000
 2.1409618703e-001	 1.2078399691e+000	-2.7590109903e+000
 2.0196760266e-001	 1.2099271345e+000	-2.7812167408e+000
 1.8985762755e-001	 1.2118864096e+000	-2.8023980061e+000
 1.7776807578e-001	 1.2137187052e+000	-2.8224985597e+000
 1.6570073129e-001	 1.2154249619e+000	-2.8414465201e+000
 1.5365734743e-001	 1.2170061495e+000	-2.8591502945e+000
 1.4163964648e-001	 1.2184632655e+000	-2.8754947046e+000
 1.2964931927e-001	 1.2197973344e+000	-2.8903373214e+000
 1.1768802476e-001	 1.2210094066e+000	-2.9035050329e+000
 2.3969750511e-001	 1.2098183574e+000	-2.6448861090e+000
 2.2747117073e-001	 1.2121766588e+000	-2.6671432399e+000
 2.1525981018e-001	 1.2144046379e+000	-2.6885699052e+000
 2.0306530636e-001	 1.2165031471e+000	-2.7091290366e+000
 1.9088951295e-001	 1.2184730709e+000	-2.7287765873e+000
 1.7873425388e-001	 1.2203153251e+000	-2.7474570205e+000
 1.6660132279e-001	 1.2220308555e+000	-2.7650989250e+000
 1.5449248255e-001	 1.2236206369e+000	-2.7816107907e+000
 1.4240946482e-001	 1.2250856723e+000	-2.7968769707e+000
 1.3035396960e-001	 1.2264269920e+000	-2.8107538591e+000
 1.1832766488e-001	 1.2276456519e+000	-2.8230663068e+000
 2.4099323033e-001	 1.2163582342e+000	-2.5799460553e+000
 2.2870080444e-001	 1.2187292838e+000	-2.6003878044e+000
 2.1642343333e-001	 1.2209693066e+000	-2.6201144693e+000
 2.0416301006e-001	 1.2230791596e+000	-2.6390890201e+000
 1.9192139835e-001	 1.2250597323e+000	-2.6572676361e+000
 1.7970043198e-001	 1.2269119451e+000	-2.6745950149e+000
 1.6750191429e-001	 1.2286367490e+000	-2.6909998119e+000
 1.5532761768e-001	 1.2302351243e+000	-2.7063902422e+000
 1.4317928316e-001	 1.2317080792e+000	-2.7206498751e+000
 1.3105861993e-001	 1.2330566496e+000	-2.7336336481e+000
 1.1896730499e-001	 1.2342818972e+000	-2.7451641283e+000
 2.4228895555e-001	 1.2228981111e+000	-2.5167981395e+000
 2.2993043815e-001	 1.2252819089e+000	-2.5354727676e+000
 2.1758705647e-001	 1.2275339754e+000	-2.5535518276e+000
 2.0526071377e-001	 1.2296551722e+000	-2.5709978182e+000
 1.9295328375e-001	 1.2316463936e+000	-2.5877666963e+000
 1.8066661008e-001	 1.2335085650e+000	-2.6038030024e+000
 1.6840250579e-001	 1.2352426426e+000	-2.6190351177e+000
 1.5616275280e-001	 1.2368496116e+000	-2.6333706884e+000
 1.4394910150e-001	 1.2383304861e+000	-2.6466922459e+000
 1.3176327026e-001	 1.2396863072e+000	-2.6588530540e+000
 1.1960694511e-001	 1.2409181425e+000	-2.6696732084e+000
 2.4358468078e-001	 1.2294379879e+000	-2.4553662537e+000
 2.3116007186e-001	 1.2318345339e+000	-2.4723153227e+000
 2.1875067962e-001	 1.2340986441e+000	-2.4887927688e+000
 2.0635841747e-001	 1.2362311848e+000	-2.5047601729e+000
 1.9398516915e-001	 1.2382330549e+000	-2.5201728849e+000
 1.8163278818e-001	 1.2401051850e+000	-2.5349749594e+000
 1.6930309729e-001	 1.2418485361e+000	-2.5490942264e+000
 1.5699788793e-001	 1.2434640990e+000	-2.5624375309e+000
 1.4471891983e-001	 1.2449528930e+000	-2.5748861754e+000
 1.3246792059e-001	 1.2463159648e+000	-2.5862915934e+000
 1.2024658522e-001	 1.2475543877e+000	-2.5964712829e+000
 2.4488040600e-001	 1.2359778647e+000	-2.3955778689e+000
 2.3238970558e-001	 1.2383871589e+000	-2.4108362416e+000
 2.1991430277e-001	 1.2406633128e+000	-2.4257516467e+000
 2.0745612117e-001	 1.2428071974e+000	-2.4402843642e+000
 1.9501705456e-001	 1.2448197163e+000	-2.4543888153e+000
 1.8259896629e-001	 1.2467018050e+000	-2.4680083038e+000
 1.7020368879e-001	 1.2484544297e+000	-2.4810698938e+000
 1.5783302305e-001	 1.2500785864e+000	-2.4934794607e+000
 1.4548873817e-001	 1.2515752998e+000	-2.5051169484e+000
 1.3317257092e-001	 1.2529456224e+000	-2.5158318652e+000
 1.2088622533e-001	 1.2541906330e+000	-2.5254390453e+000
 2.4617613122e-001	 1.2425177416e+000	-2.3373639579e+000
 2.3361933929e-001	 1.2449397839e+000	-2.3509597983e+000
 2.2107792592e-001	 1.2472279816e+000	-2.3643463041e+000
 2.0855382488e-001	 1.2493832100e+000	-2.3774821340e+000
 1.9604893996e-001	 1.2514063776e+000	-2.3903205226e+000
 1.8356514439e-001	 1.2532984249e+000	-2.4028038211e+000
 1.7110428029e-001	 1.2550603232e+000	-2.4148581763e+000
 1.5866815818e-001	 1.2566930738e+000	-2.4263883874e+000
 1.4625855651e-001	 1.2581977067e+000	-2.4372729732e+000
 1.3387722125e-001	 1.2595752800e+000	-2.4473594830e+000
 1.2152586545e-001	 1.2608268783e+000	-2.4564600817e+000
 1.1512946431e-001	 1.1944644255e+000	-3.2532409957e+000
 1.0345645911e-001	 1.1955320061e+000	-3.2687089745e+000
 9.1815040233e-002	 1.1964823350e+000	-3.2827014286e+000
 8.0206759322e-002	 1.1973165109e+000	-3.2952482654e+000
 6.8633134928e-002	 1.1980356538e+000	-3.3063370120e+000
 5.7095652318e-002	 1.1986409042e+000	-3.3159110391e+000
 4.5595763289e-002	 1.1991334223e+000	-3.3238680828e+000
 3.4134886020e-002	 1.1995143866e+000	-3.3300590687e+000
 2.2714404954e-002	 1.1997849932e+000	-3.3342872439e+000
 1.1335670705e-002	 1.1999464549e+000	-3.3363076160e+000
 0.0000000000e+000	 1.2000000000e+000	-3.3358271535e+000
 1.1576910442e-001	 1.2011006708e+000	-3.1613402257e+000
 1.0403124595e-001	 1.2021741827e+000	-3.1757482627e+000
 9.2325149294e-002	 1.2031297915e+000	-3.1887768698e+000
 8.0652374709e-002	 1.2039686019e+000	-3.2004638075e+000
 6.9014449187e-002	 1.2046917402e+000	-3.2108025334e+000
 5.7412866246e-002	 1.2053003533e+000	-3.2197403278e+000
 4.5849085750e-002	 1.2057956077e+000	-3.2271767275e+000
 3.4324533758e-002	 1.2061786886e+000	-3.2329622750e+000
 2.2840602403e-002	 1.2064507987e+000	-3.2368975851e+000
 1.1398649803e-002	 1.2066131574e+000	-3.2387327320e+000
 0.0000000000e+000	 1.2066670000e+000	-3.2381673519e+000
 1.1640874454e-001	 1.2077369161e+000	-3.0725088245e+000
 1.0460603279e-001	 1.2088163593e+000	-3.0859302414e+000
 9.2835258354e-002	 1.2097772479e+000	-3.0980602852e+000
 8.1097990095e-002	 1.2106206929e+000	-3.1089438592e+000
 6.9395763445e-002	 1.2113478266e+000	-3.1185796190e+000
 5.7730080174e-002	 1.2119598024e+000	-3.1269179971e+000
 4.6102408212e-002	 1.2124577932e+000	-3.1338595479e+000
 3.4514181495e-002	 1.2128429906e+000	-3.1392536188e+000
 2.2966799851e-002	 1.2131166041e+000	-3.1428973508e+000
 1.1461628900e-002	 1.2132798599e+000	-3.1445350119e+000
 0.0000000000e+000	 1.2133340000e+000	-3.1438580049e+000
 1.1704838465e-001	 1.2143731614e+000	-2.9866086893e+000
 1.0518081964e-001	 1.2154585359e+000	-2.9991162849e+000
 9.3345367414e-002	 1.2164247044e+000	-3.0104128651e+000
 8.1543605481e-002	 1.2172727838e+000	-3.0205498294e+000
 6.9777077703e-002	 1.2180039130e+000	-3.0295303611e+000
 5.8047294102e-002	 1.2186192515e+000	-3.0373073491e+000
 4.6355730672e-002	 1.2191199786e+000	-3.0437816416e+000
 3.4703829232e-002	 1.2195072926e+000	-3.0488006369e+000
 2.3092997298e-002	 1.2197824096e+000	-3.0521572171e+000
 1.1524607997e-002	 1.2199465624e+000	-3.0535890257e+000
 0.0000000000e+000	 1.2200010000e+000	-3.0527783843e+000
 1.1768802476e-001	 1.2210094066e+000	-2.9035050329e+000
 1.0575560648e-001	 1.2221007124e+000	-2.9151709387e+000
 9.3855476473e-002	 1.2230721608e+000	-2.9256988255e+000
 8.1989220866e-002	 1.2239248748e+000	-2.9351460059e+000
 7.0158391960e-002	 1.2246599994e+000	-2.9435195828e+000
 5.8364508028e-002	 1.2252787006e+000	-2.9507742669e+000
 4.6609053133e-002	 1.2257821640e+000	-2.9568105355e+000
 3.4893476969e-002	 1.2261715946e+000	-2.9614731423e+000
 2.3219194746e-002	 1.2264482150e+000	-2.9645499814e+000
 1.1587587093e-002	 1.2266132649e+000	-2.9657713080e+000
 0.0000000000e+000	 1.2266680000e+000	-2.9648095668e+000
 1.1832766488e-001	 1.2276456519e+000	-2.8230663068e+000
 1.0633039332e-001	 1.2287428890e+000	-2.8339618454e+000
 9.4365585532e-002	 1.2297196173e+000	-2.8437853369e+000
 8.2434836251e-002	 1.2305769658e+000	-2.8525994866e+000
 7.0539706217e-002	 1.2313160859e+000	-2.8604147721e+000
 5.8681721955e-002	 1.2319381497e+000	-2.8671871513e+000
 4.6862375592e-002	 1.2324443495e+000	-2.8728161258e+000
 3.5083124705e-002	 1.2328358966e+000	-2.8771431669e+000
 2.3345392193e-002	 1.2331140205e+000	-2.8799505076e+000
 1.1650566190e-002	 1.2332799675e+000	-2.8809603054e+000
 0.0000000000e+000	 1.2333350000e+000	-2.8798343850e+000
 1.1896730499e-001	 1.2342818972e+000	-2.7451641283e+000
 1.0690518016e-001	 1.2353850656e+000	-2.7553596743e+000
 9.4875694591e-002	 1.2363670737e+000	-2.7645424556e+000
 8.2880451636e-002	 1.2372290568e+000	-2.7727801141e+000
 7.0921020473e-002	 1.2379721723e+000	-2.7800860182e+000
 5.8998935881e-002	 1.2385975988e+000	-2.7864168597e+000
 4.7115698052e-002	 1.2391065349e+000	-2.7916706192e+000
 3.5272772441e-002	 1.2395001987e+000	-2.7956849051e+000
 2.3471589640e-002	 1.2397798260e+000	-2.7982356729e+000
 1.1713545286e-002	 1.2399466700e+000	-2.7990363269e+000
 0.0000000000e+000	 1.2400020000e+000	-2.7977373808e+000
 1.1960694511e-001	 1.2409181425e+000	-2.6696732084e+000
 1.0747996700e-001	 1.2420272421e+000	-2.6792380515e+000
 9.5385803650e-002	 1.2430145301e+000	-2.6878430573e+000
 8.3326067021e-002	 1.2438811478e+000	-2.6955604109e+000
 7.1302334730e-002	 1.2446282587e+000	-2.7024059496e+000
 5.9316149807e-002	 1.2452570478e+000	-2.7083366471e+000
 4.7369020511e-002	 1.2457687204e+000	-2.7132484763e+000
 3.5462420176e-002	 1.2461645007e+000	-2.7169746603e+000
 2.3597787086e-002	 1.2464456314e+000	-2.7192843163e+000
 1.1776524383e-002	 1.2466133725e+000	-2.7198814947e+000
 0.0000000000e+000	 1.2466690000e+000	-2.7184047591e+000
 1.2024658522e-001	 1.2475543877e+000	-2.5964712829e+000
 1.0805475385e-001	 1.2486694187e+000	-2.6054734941e+000
 9.5895912709e-002	 1.2496619866e+000	-2.6135627729e+000
 8.3771682405e-002	 1.2505332388e+000	-2.6208155175e+000
 7.1683648986e-002	 1.2512843451e+000	-2.6272496749e+000
 5.9633363733e-002	 1.2519164969e+000	-2.6328221085e+000
 4.7622342970e-002	 1.2524309058e+000	-2.6374263564e+000
 3.5652067912e-002	 1.2528288027e+000	-2.6408907921e+000
 2.3723984533e-002	 1.2531114369e+000	-2.6429771892e+000
 1.1839503479e-002	 1.2532800750e+000	-2.6433796974e+000
 0.0000000000e+000	 1.2533360000e+000	-2.6417243437e+000
 1.2088622533e-001	 1.2541906330e+000	-2.5254390453e+000
 1.0862954069e-001	 1.2553115953e+000	-2.5339453446e+000
 9.6406021767e-002	 1.2563094430e+000	-2.5415799257e+000
 8.4217297790e-002	 1.2571853297e+000	-2.5484231326e+000
 7.2064963242e-002	 1.2579404316e+000	-2.5544947246e+000
 5.9950577658e-002	 1.2585759460e+000	-2.5597511235e+000
 4.7875665429e-002	 1.2590930912e+000	-2.5640830652e+000
 3.5841715647e-002	 1.2594931047e+000	-2.5673136657e+000
 2.3850181979e-002	 1.2597772423e+000	-2.5691969069e+000
 1.1902482575e-002	 1.2599467775e+000	-2.5694165447e+000
 0.0000000000e+000	 1.2600030000e+000	-2.5675855347e+000
 1.2152586545e-001	 1.2608268783e+000	-2.4564600817e+000
 1.0920432753e-001	 1.2619537719e+000	-2.4645357087e+000
 9.6916130827e-002	 1.2629568995e+000	-2.4717754710e+000
 8.4662913175e-002	 1.2638374207e+000	-2.4782634545e+000
 7.2446277499e-002	 1.2645965180e+000	-2.4840209953e+000
 6.0267791584e-002	 1.2652353951e+000	-2.4890038029e+000
 4.8128987889e-002	 1.2657552767e+000	-2.4930995023e+000
 3.6031363383e-002	 1.2661574067e+000	-2.4961256032e+000
 2.3976379426e-002	 1.2664430478e+000	-2.4978279020e+000
 1.1965461671e-002	 1.2666134800e+000	-2.4978793227e+000
 0.0000000000e+000	 1.2666700000e+000	-2.4958792668e+000
 1.2666700000e+000	 0.0000000000e+000	 3.3186325718e+000
 1.2666134800e+000	 1.1965461671e-002	 3.3128631463e+000
 1.2664430478e+000	 2.3976379426e-002	 3.3077959590e+000
 1.2661574067e+000	 3.6031363383e-002	 3.3029821720e+000
 1.2657552767e+000	 4.8128987889e-002	 3.2979444296e+000
 1.2652353951e+000	 6.0267791584e-002	 3.2921784500e+000
 1.2645965180e+000	 7.2446277499e-002	 3.2851550216e+000
 1.2638374207e+000	 8.4662913175e-002	 3.2763223140e+000
 1.2629568995e+000	 9.6916130827e-002	 3.2651085092e+000
 1.2619537719e+000	 1.0920432753e-001	 3.2509247528e+000
 1.2608268783e+000	 1.2152586545e-001	 3.2331684258e+000
 1.2733360000e+000	 0.0000000000e+000	 3.3401059016e+000
 1.2732791826e+000	 1.2028431321e-002	 3.3344599356e+000
 1.2731078534e+000	 2.4102557944e-002	 3.3293575665e+000
 1.2728207091e+000	 3.6220982672e-002	 3.3243702464e+000
 1.2724164628e+000	 4.8382272352e-002	 3.3190396049e+000
 1.2718938453e+000	 6.0584957931e-002	 3.3128790543e+000
 1.2712516060e+000	 7.2827534561e-002	 3.3053757836e+000
 1.2704885139e+000	 8.5108461721e-002	 3.2959930796e+000
 1.2696033588e+000	 9.7426163374e-002	 3.2841729772e+000
 1.2685949522e+000	 1.0977902816e-001	 3.2693392417e+000
 1.2674621282e+000	 1.2216540962e-001	 3.2509006808e+000
 1.2800020000e+000	 0.0000000000e+000	 3.3604966918e+000
 1.2799448851e+000	 1.2091400971e-002	 3.3550100848e+000
 1.2797726591e+000	 2.4228736462e-002	 3.3499092902e+000
 1.2794840115e+000	 3.6410601962e-002	 3.3447868206e+000
 1.2790776490e+000	 4.8635556815e-002	 3.3392040371e+000
 1.2785522956e+000	 6.0902124278e-002	 3.3326927608e+000
 1.2779066941e+000	 7.3208791624e-002	 3.3247572659e+000
 1.2771396072e+000	 8.5554010268e-002	 3.3148766099e+000
 1.2762498182e+000	 9.7936195922e-002	 3.3025073043e+000
 1.2752361324e+000	 1.1035372879e-001	 3.2870863269e+000
 1.2740973780e+000	 1.2280495379e-001	 3.2680344766e+000
 1.2866680000e+000	 0.0000000000e+000	 3.3797405922e+000
 1.2866105877e+000	 1.2154370621e-002	 3.3744460941e+000
 1.2864374647e+000	 2.4354914980e-002	 3.3693813992e+000
 1.2861473140e+000	 3.6600221253e-002	 3.3641608433e+000
 1.2857388352e+000	 4.8888841278e-002	 3.3583662533e+000
 1.2852107458e+000	 6.1219290625e-002	 3.3515485610e+000
 1.2845617821e+000	 7.3590048688e-002	 3.3432297947e+000
 1.2837907004e+000	 8.5999558815e-002	 3.3329054189e+000
 1.2828962776e+000	 9.8446228470e-002	 3.3200470243e+000
 1.2818773127e+000	 1.1092842942e-001	 3.3041053726e+000
 1.2807326279e+000	 1.2344449797e-001	 3.2845137938e+000
 1.2933340000e+000	 0.0000000000e+000	 3.3977756690e+000
 1.2932762902e+000	 1.2217340271e-002	 3.3927026440e+000
 1.2931022703e+000	 2.4481093498e-002	 3.3877061107e+000
 1.2928106164e+000	 3.6789840543e-002	 3.3824229823e+000
 1.2924000213e+000	 4.9142125742e-002	 3.3764562747e+000
 1.2918691960e+000	 6.1536456972e-002	 3.3693767191e+000
 1.2912168702e+000	 7.3971305751e-002	 3.3607247516e+000
 1.2904417936e+000	 8.6445107362e-002	 3.3500128613e+000
 1.2895427369e+000	 9.8956261018e-002	 3.3367283019e+000
 1.2885184930e+000	 1.1150313005e-001	 3.3203361680e+000
 1.2873678778e+000	 1.2408404214e-001	 3.3002828358e+000
 1.3000000000e+000	 0.0000000000e+000	 3.4145423419e+000
 1.2999419928e+000	 1.2280309921e-002	 3.4097165366e+000
 1.2997670760e+000	 2.4607272017e-002	 3.4048175348e+000
 1.2994739188e+000	 3.6979459834e-002	 3.3995055729e+000
 1.2990612075e+000	 4.9395410206e-002	 3.3934055690e+000
 1.2985276462e+000	 6.1853623320e-002	 3.3861087289e+000
 1.2978719582e+000	 7.4352562815e-002	 3.3771745341e+000
 1.2970928868e+000	 8.6890655910e-002	 3.3661330993e+000
 1.2961891963e+000	 9.9466293567e-002	 3.3524879045e+000
 1.2951596733e+000	 1.1207783068e-001	 3.3357189035e+000
 1.2940031277e+000	 1.2472358632e-001	 3.3152860104e+000
 1.3066660000e+000	 0.0000000000e+000	 3.4299833250e+000
 1.3066076953e+000	 1.2343279571e-002	 3.4254266384e+000
 1.3064318816e+000	 2.4733450535e-002	 3.4206516202e+000
 1.3061372212e+000	 3.7169079125e-002	 3.4153425685e+000
 1.3057223936e+000	 4.9648694670e-002	 3.4091470045e+000
 1.3051860964e+000	 6.2170789668e-002	 3.4016772714e+000
 1.3045270463e+000	 7.4733819879e-002	 3.3925125188e+000
 1.3037439800e+000	 8.7336204458e-002	 3.3812010697e+000
 1.3028356557e+000	 9.9976326115e-002	 3.3672631735e+000
 1.3018008536e+000	 1.1265253131e-001	 3.3501941483e+000
 1.3006383776e+000	 1.2536313049e-001	 3.3294679122e+000
 1.3133320000e+000	 0.0000000000e+000	 3.4440435678e+000
 1.3132733979e+000	 1.2406249222e-002	 3.4397738253e+000
 1.3130966872e+000	 2.4859629054e-002	 3.4351461034e+000
 1.3128005236e+000	 3.7358698416e-002	 3.4298694915e+000
 1.3123835798e+000	 4.9901979134e-002	 3.4236148056e+000
 1.3118445467e+000	 6.2487956016e-002	 3.4160161751e+000
 1.3111821343e+000	 7.5115076943e-002	 3.4066730250e+000
 1.3103950732e+000	 8.7781753006e-002	 3.3951524517e+000
 1.3094821150e+000	 1.0048635866e-001	 3.3809919978e+000
 1.3084420339e+000	 1.1322723194e-001	 3.3637028276e+000
 1.3072736274e+000	 1.2600267467e-001	 3.3427733060e+000
 1.3199980000e+000	 0.0000000000e+000	 3.4566701991e+000
 1.3199391005e+000	 1.2469218872e-002	 3.4527009291e+000
 1.3197614929e+000	 2.4985807574e-002	 3.4482404574e+000
 1.3194638260e+000	 3.7548317707e-002	 3.4430233872e+000
 1.3190447659e+000	 5.0155263599e-002	 3.4367445094e+000
 1.3185029969e+000	 6.2805122364e-002	 3.4290603760e+000
 1.3178372224e+000	 7.5496334008e-002	 3.4195912793e+000
 1.3170461664e+000	 8.8227301555e-002	 3.4079236369e+000
 1.3161285744e+000	 1.0099639121e-001	 3.3936127876e+000
 1.3150832142e+000	 1.1380193258e-001	 3.3761862024e+000
 1.3139088773e+000	 1.2664221885e-001	 3.3551471103e+000
 1.3266640000e+000	 0.0000000000e+000	 3.4678124723e+000
 1.3266048030e+000	 1.2532188523e-002	 3.4641526856e+000
 1.3264262985e+000	 2.5111986093e-002	 3.4598758436e+000
 1.3261271284e+000	 3.7737936999e-002	 3.4547427779e+000
 1.3257059521e+000	 5.0408548064e-002	 3.4484729240e+000
 1.3251614471e+000	 6.3122288713e-002	 3.4407458799e+000
 1.3244923105e+000	 7.5877591073e-002	 3.4312033821e+000
 1.3236972597e+000	 8.8672850103e-002	 3.4194516989e+000
 1.3227750338e+000	 1.0150642376e-001	 3.4050644491e+000
 1.3217243945e+000	 1.1437663321e-001	 3.3875858481e+000
 1.3205441272e+000	 1.2728176302e-001	 3.3665343819e+000
 1.3333300000e+000	 0.0000000000e+000	 3.4774217764e+000
 1.3332705056e+000	 1.2595158174e-002	 3.4740756840e+000
 1.3330911041e+000	 2.5238164613e-002	 3.4699950640e+000
 1.3327904308e+000	 3.7927556291e-002	 3.4649676187e+000
 1.3323671383e+000	 5.0661832530e-002	 3.4587380878e+000
 1.3318198973e+000	 6.3439455063e-002	 3.4510097258e+000
 1.3311473985e+000	 7.6258848138e-002	 3.4414462745e+000
 1.3303483529e+000	 8.9118398652e-002	 3.4296743653e+000
 1.3294214931e+000	 1.0201645631e-001	 3.4152863604e+000
 1.3283655748e+000	 1.1495133384e-001	 3.3978436350e+000
 1.3271793771e+000	 1.2792130720e-001	 3.3768803009e+000
 1.2608268783e+000	 1.2152586545e-001	 3.2331684258e+000
 1.2595752800e+000	 1.3387722125e-001	 3.2133320393e+000
 1.2581977067e+000	 1.4625855651e-001	 3.1931340575e+000
 1.2566930738e+000	 1.5866815818e-001	 3.1723094867e+000
 1.2550603232e+000	 1.7110428029e-001	 3.1505938831e+000
 1.2532984249e+000	 1.8356514439e-001	 3.1277275722e+000
 1.2514063776e+000	 1.9604893996e-001	 3.1034601218e+000
 1.2493832100e+000	 2.0855382488e-001	 3.0775550499e+000
 1.2472279816e+000	 2.2107792592e-001	 3.0497947491e+000
 1.2449397839e+000	 2.3361933929e-001	 3.0199856036e+000
 1.2425177416e+000	 2.4617613122e-001	 2.9879632749e+000
 1.2674621282e+000	 1.2216540962e-001	 3.2509006808e+000
 1.2662039432e+000	 1.3458176588e-001	 3.2303319117e+000
 1.2648191203e+000	 1.4702825938e-001	 3.2093327991e+000
 1.2633065690e+000	 1.5950316804e-001	 3.1876472204e+000
 1.2616652259e+000	 1.7200473671e-001	 3.1650184008e+000
 1.2598940554e+000	 1.8453117757e-001	 3.1411932156e+000
 1.2579920510e+000	 1.9708067059e-001	 3.1159267557e+000
 1.2559582362e+000	 2.0965136393e-001	 3.0889871384e+000
 1.2537916657e+000	 2.2224137453e-001	 3.0601605444e+000
 1.2514914261e+000	 2.3484878857e-001	 3.0292564559e+000
 1.2490566375e+000	 2.4747166209e-001	 2.9961130721e+000
 1.2740973780e+000	 1.2280495379e-001	 3.2680344766e+000
 1.2728326064e+000	 1.3528631052e-001	 3.2468065175e+000
 1.2714405338e+000	 1.4779796226e-001	 3.2250804155e+000
 1.2699200643e+000	 1.6033817790e-001	 3.2026073345e+000
 1.2682701286e+000	 1.7290519313e-001	 3.1791364732e+000
 1.2664896859e+000	 1.8549721076e-001	 3.1544194532e+000
 1.2645777244e+000	 1.9811240122e-001	 3.1282149817e+000
 1.2625332625e+000	 2.1074890299e-001	 3.1002937693e+000
 1.2603553498e+000	 2.2340482314e-001	 3.0704436841e+000
 1.2580430683e+000	 2.3607823785e-001	 3.0384751165e+000
 1.2555955334e+000	 2.4876719297e-001	 3.0042265302e+000
 1.2807326279e+000	 1.2344449797e-001	 3.2845137938e+000
 1.2794612696e+000	 1.3599085516e-001	 3.2627048019e+000
 1.2780619474e+000	 1.4856766513e-001	 3.2403307447e+000
 1.2765335595e+000	 1.6117318777e-001	 3.2171484857e+000
 1.2748750313e+000	 1.7380564955e-001	 3.1929114979e+000
 1.2730853165e+000	 1.8646324394e-001	 3.1673743420e+000
 1.2711633978e+000	 1.9914413184e-001	 3.1402974294e+000
 1.2691082887e+000	 2.1184644205e-001	 3.1114520523e+000
 1.2669190339e+000	 2.2456827176e-001	 3.0806256590e+000
 1.2645947105e+000	 2.3730768712e-001	 3.0476273513e+000
 1.2621344292e+000	 2.5006272384e-001	 3.0122935762e+000
 1.2873678778e+000	 1.2408404214e-001	 3.3002828358e+000
 1.2860899328e+000	 1.3669539980e-001	 3.2779757430e+000
 1.2846833609e+000	 1.4933736801e-001	 3.2550374876e+000
 1.2831470548e+000	 1.6200819763e-001	 3.2312290429e+000
 1.2814799340e+000	 1.7470610597e-001	 3.2063064533e+000
 1.2796809470e+000	 1.8742927713e-001	 3.1800254063e+000
 1.2777490712e+000	 2.0017586247e-001	 3.1521461000e+000
 1.2756833149e+000	 2.1294398111e-001	 3.1224383893e+000
 1.2734827179e+000	 2.2573172037e-001	 3.0906871884e+000
 1.2711463527e+000	 2.3853713640e-001	 3.0566981053e+000
 1.2686733251e+000	 2.5135825471e-001	 3.0203032810e+000
 1.2940031277e+000	 1.2472358632e-001	 3.3152860104e+000
 1.2927185960e+000	 1.3739994444e-001	 3.2925683383e+000
 1.2913047745e+000	 1.5010707088e-001	 3.2691542000e+000
 1.2897605500e+000	 1.6284320749e-001	 3.2448070847e+000
 1.2880848368e+000	 1.7560656239e-001	 3.2192839011e+000
 1.2862765775e+000	 1.8839531031e-001	 3.1923396452e+000
 1.2843347446e+000	 2.0120759310e-001	 3.1637323774e+000
 1.2822583412e+000	 2.1404152016e-001	 3.1332284894e+000
 1.2800464020e+000	 2.2689516898e-001	 3.1006082387e+000
 1.2776979948e+000	 2.3976658568e-001	 3.0656715256e+000
 1.2752122210e+000	 2.5265378559e-001	 3.0282438858e+000
 1.3006383776e+000	 1.2536313049e-001	 3.3294679122e+000
 1.2993472592e+000	 1.3810448908e-001	 3.3064315932e+000
 1.2979261880e+000	 1.5087677375e-001	 3.2826342858e+000
 1.2963740453e+000	 1.6367821736e-001	 3.2578403976e+000
 1.2946897395e+000	 1.7650701881e-001	 3.2318059885e+000
 1.2928722080e+000	 1.8936134350e-001	 3.2042835387e+000
 1.2909204180e+000	 2.0223932373e-001	 3.1750270393e+000
 1.2888333674e+000	 2.1513905922e-001	 3.1437973845e+000
 1.2866100861e+000	 2.2805861760e-001	 3.1103680429e+000
 1.2842496370e+000	 2.4099603496e-001	 3.0745309840e+000
 1.2817511169e+000	 2.5394931646e-001	 3.0361028284e+000
 1.3072736274e+000	 1.2600267467e-001	 3.3427733060e+000
 1.3059759223e+000	 1.3880903372e-001	 3.3195145087e+000
 1.3045476016e+000	 1.5164647663e-001	 3.2954309899e+000
 1.3029875405e+000	 1.6451322722e-001	 3.2702864733e+000
 1.3012946422e+000	 1.7740747523e-001	 3.2438344505e+000
 1.2994678385e+000	 1.9032737668e-001	 3.2158230549e+000
 1.2975060914e+000	 2.0327105436e-001	 3.1860002683e+000
 1.2954083936e+000	 2.1623659828e-001	 3.1541194437e+000
 1.2931737702e+000	 2.2922206621e-001	 3.1199451195e+000
 1.2908012792e+000	 2.4222548423e-001	 3.0832590996e+000
 1.2882900128e+000	 2.5524484733e-001	 3.0438667692e+000
 1.3139088773e+000	 1.2664221885e-001	 3.3551471103e+000
 1.3126045855e+000	 1.3951357836e-001	 3.3317660704e+000
 1.3111690152e+000	 1.5241617950e-001	 3.3074973924e+000
 1.3096010358e+000	 1.6534823709e-001	 3.2821025072e+000
 1.3078995449e+000	 1.7830793165e-001	 3.2553306133e+000
 1.3060634690e+000	 1.9129340987e-001	 3.2269236571e+000
 1.3040917647e+000	 2.0430278499e-001	 3.1966216627e+000
 1.3019834198e+000	 2.1733413734e-001	 3.1641683886e+000
 1.2997374543e+000	 2.3038551482e-001	 3.1293172905e+000
 1.2973529214e+000	 2.4345493351e-001	 3.0918377610e+000
 1.2948289087e+000	 2.5654037821e-001	 3.0515216167e+000
 1.3205441272e+000	 1.2728176302e-001	 3.3665343819e+000
 1.3192332487e+000	 1.4021812300e-001	 3.3431352382e+000
 1.3177904287e+000	 1.5318588237e-001	 3.3187864018e+000
 1.3162145310e+000	 1.6618324695e-001	 3.2932453973e+000
 1.3145044476e+000	 1.7920838807e-001	 3.2662553962e+000
 1.3126590995e+000	 1.9225944305e-001	 3.2375503106e+000
 1.3106774381e+000	 2.0533451562e-001	 3.2068602478e+000
 1.3085584461e+000	 2.1843167639e-001	 3.1739173083e+000
 1.3063011384e+000	 2.3154896344e-001	 3.1384617007e+000
 1.3039045635e+000	 2.4468438279e-001	 3.1002481482e+000
 1.3013678046e+000	 2.5783590908e-001	 3.0590525529e+000
 1.3271793771e+000	 1.2792130720e-001	 3.3768803009e+000
 1.3258619119e+000	 1.4092266764e-001	 3.3535709352e+000
 1.3244118423e+000	 1.5395558525e-001	 3.3292507503e+000
 1.3228280263e+000	 1.6701825681e-001	 3.3036717425e+000
 1.3211093503e+000	 1.8010884449e-001	 3.2765693157e+000
 1.3192547300e+000	 1.9322547623e-001	 3.2476674898e+000
 1.3172631115e+000	 2.0636624624e-001	 3.2166844869e+000
 1.3151334723e+000	 2.1952921545e-001	 3.1833386737e+000
 1.3128648225e+000	 2.3271241205e-001	 3.1473548356e+000
 1.3104562057e+000	 2.4591383207e-001	 3.1084707545e+000
 1.3079067005e+000	 2.5913143995e-001	 3.0664440584e+000
 1.2425177416e+000	 2.4617613122e-001	 2.9879632749e+000
 1.2399606194e+000	 2.5874822468e-001	 2.9538556096e+000
 1.2372679649e+000	 2.7133174181e-001	 2.9178552954e+000
 1.2344390081e+000	 2.8392465875e-001	 2.8799367998e+000
 1.2314730163e+000	 2.9652492420e-001	 2.8401207359e+000
 1.2283692947e+000	 3.0913046021e-001	 2.7984794328e+000
 1.2251271875e+000	 3.2173916295e-001	 2.7551424798e+000
 1.2217460784e+000	 3.3434890354e-001	 2.7103022049e+000
 1.2182253923e+000	 3.4695752895e-001	 2.6642190447e+000
 1.2145645956e+000	 3.5956286282e-001	 2.6172267621e+000
 1.2107631971e+000	 3.7216270646e-001	 2.5697374672e+000
 1.2490566375e+000	 2.4747166209e-001	 2.9961130721e+000
 1.2464860582e+000	 2.6010991767e-001	 2.9608289448e+000
 1.2437792332e+000	 2.7275965705e-001	 2.9235719308e+000
 1.2409353887e+000	 2.8541884569e-001	 2.8843250841e+000
 1.2379537880e+000	 2.9808542152e-001	 2.8431179965e+000
 1.2348337328e+000	 3.1075729565e-001	 2.8000325234e+000
 1.2315745635e+000	 3.2343235317e-001	 2.7552084855e+000
 1.2281756610e+000	 3.3610845401e-001	 2.7088493064e+000
 1.2246364469e+000	 3.4878343379e-001	 2.6612275413e+000
 1.2209563848e+000	 3.6145510471e-001	 2.6126902517e+000
 1.2171349809e+000	 3.7412125651e-001	 2.5636641810e+000
 1.2555955334e+000	 2.4876719297e-001	 3.0042265302e+000
 1.2530114969e+000	 2.6147161067e-001	 2.9677675052e+000
 1.2502905015e+000	 2.7418757228e-001	 2.9292448823e+000
 1.2474317693e+000	 2.8691303264e-001	 2.8886531868e+000
 1.2444345598e+000	 2.9964591885e-001	 2.8460338396e+000
 1.2412981708e+000	 3.1238413109e-001	 2.8014810375e+000
 1.2380219396e+000	 3.2512554339e-001	 2.7551476121e+000
 1.2346052436e+000	 3.3786800448e-001	 2.7072508244e+000
 1.2310475014e+000	 3.5060933863e-001	 2.6580780514e+000
 1.2273481739e+000	 3.6334734661e-001	 2.6079923169e+000
 1.2235067648e+000	 3.7607980657e-001	 2.5574376203e+000
 1.2621344292e+000	 2.5006272384e-001	 3.0122935762e+000
 1.2595369357e+000	 2.6283330366e-001	 2.9746650716e+000
 1.2568017699e+000	 2.7561548752e-001	 2.9348712263e+000
 1.2539281499e+000	 2.8840721958e-001	 2.8929208282e+000
 1.2509153315e+000	 3.0120641617e-001	 2.8488698846e+000
 1.2477626088e+000	 3.1401096653e-001	 2.8028276558e+000
 1.2444693156e+000	 3.2681873362e-001	 2.7549626692e+000
 1.2410348261e+000	 3.3962755495e-001	 2.7055086717e+000
 1.2374585560e+000	 3.5243524348e-001	 2.6547704721e+000
 1.2337399631e+000	 3.6523958851e-001	 2.6031296276e+000
 1.2298785487e+000	 3.7803835663e-001	 2.5510499247e+000
 1.2686733251e+000	 2.5135825471e-001	 3.0203032810e+000
 1.2660623744e+000	 2.6419499666e-001	 2.9815145500e+000
 1.2633130382e+000	 2.7704340275e-001	 2.9404471663e+000
 1.2604245305e+000	 2.8990140652e-001	 2.8971268796e+000
 1.2573961032e+000	 3.0276691349e-001	 2.8516269481e+000
 1.2542270469e+000	 3.1563780197e-001	 2.8040743243e+000
 1.2509166917e+000	 3.2851192384e-001	 2.7546558243e+000
 1.2474644087e+000	 3.4138710541e-001	 2.7036242357e+000
 1.2438696105e+000	 3.5426114832e-001	 2.6513043168e+000
 1.2401317523e+000	 3.6713183040e-001	 2.5980986372e+000
 1.2362503325e+000	 3.7999690668e-001	 2.5444932105e+000
 1.2752122210e+000	 2.5265378559e-001	 3.0282438858e+000
 1.2725878131e+000	 2.6555668965e-001	 2.9883080017e+000
 1.2698243065e+000	 2.7847131799e-001	 2.9459680660e+000
 1.2669209111e+000	 2.9139559347e-001	 2.9012693984e+000
 1.2638768750e+000	 3.0432741082e-001	 2.8543050806e+000
 1.2606914849e+000	 3.1726463741e-001	 2.8052222937e+000
 1.2573640678e+000	 3.3020511406e-001	 2.7542286424e+000
 1.2538939913e+000	 3.4314665588e-001	 2.7015984184e+000
 1.2502806651e+000	 3.5608705316e-001	 2.6476787548e+000
 1.2465235415e+000	 3.6902407230e-001	 2.5928956215e+000
 1.2426221164e+000	 3.8195545674e-001	 2.5377596083e+000
 1.2817511169e+000	 2.5394931646e-001	 3.0361028284e+000
 1.2791132519e+000	 2.6691838265e-001	 2.9950366724e+000
 1.2763355748e+000	 2.7989923323e-001	 2.9514284818e+000
 1.2734172918e+000	 2.9288978041e-001	 2.9053456634e+000
 1.2703576467e+000	 3.0588790814e-001	 2.8569036037e+000
 1.2671559229e+000	 3.1889147285e-001	 2.8062721573e+000
 1.2638114438e+000	 3.3189830428e-001	 2.7536821258e+000
 1.2603235739e+000	 3.4490620635e-001	 2.6994316763e+000
 1.2566917196e+000	 3.5791295801e-001	 2.6438926513e+000
 1.2529153306e+000	 3.7091631419e-001	 2.5875167175e+000
 1.2489939003e+000	 3.8391400680e-001	 2.5308413003e+000
 1.2882900128e+000	 2.5524484733e-001	 3.0438667692e+000
 1.2856386906e+000	 2.6828007565e-001	 3.0016910216e+000
 1.2828468432e+000	 2.8132714846e-001	 2.9568221945e+000
 1.2799136724e+000	 2.9438396735e-001	 2.9093522089e+000
 1.2768384184e+000	 3.0744840546e-001	 2.8594211463e+000
 1.2736203609e+000	 3.2051830829e-001	 2.8072238890e+000
 1.2702588199e+000	 3.3359149451e-001	 2.7530167527e+000
 1.2667531564e+000	 3.4666575682e-001	 2.6971240600e+000
 1.2631027742e+000	 3.5973886285e-001	 2.6399446062e+000
 1.2593071198e+000	 3.7280855609e-001	 2.5819579618e+000
 1.2553656842e+000	 3.8587255685e-001	 2.5237305574e+000
 1.2948289087e+000	 2.5654037821e-001	 3.0515216167e+000
 1.2921641294e+000	 2.6964176864e-001	 3.0082607513e+000
 1.2893581115e+000	 2.8275506370e-001	 2.9621422412e+000
 1.2864100530e+000	 2.9587815430e-001	 2.9132848587e+000
 1.2833191902e+000	 3.0900890279e-001	 2.8618556809e+000
 1.2800847990e+000	 3.2214514373e-001	 2.8080768812e+000
 1.2767061959e+000	 3.3528468473e-001	 2.7522325157e+000
 1.2731827390e+000	 3.4842530728e-001	 2.6946752527e+000
 1.2695138287e+000	 3.6156476769e-001	 2.6358329936e+000
 1.2656989090e+000	 3.7470079799e-001	 2.5762153292e+000
 1.2617374680e+000	 3.8783110691e-001	 2.5164197764e+000
 1.3013678046e+000	 2.5783590908e-001	 3.0590525529e+000
 1.2986895681e+000	 2.7100346164e-001	 3.0147348347e+000
 1.2958693798e+000	 2.8418297893e-001	 2.9673809462e+000
 1.2929064336e+000	 2.9737234124e-001	 2.9171387598e+000
 1.2897999619e+000	 3.1056940011e-001	 2.8642045588e+000
 1.2865492370e+000	 3.2377197917e-001	 2.8088299813e+000
 1.2831535720e+000	 3.3697787495e-001	 2.7513289603e+000
 1.2796123216e+000	 3.5018485775e-001	 2.6920846094e+000
 1.2759248833e+000	 3.6339067253e-001	 2.6315559996e+000
 1.2720906982e+000	 3.7659303988e-001	 2.5702847700e+000
 1.2681092519e+000	 3.8978965697e-001	 2.5089015161e+000
 1.3079067005e+000	 2.5913143995e-001	 3.0664440584e+000
 1.3052150068e+000	 2.7236515463e-001	 3.0211015436e+000
 1.3023806482e+000	 2.8561089417e-001	 2.9725299519e+000
 1.2994028142e+000	 2.9886652818e-001	 2.9209084152e+000
 1.2962807336e+000	 3.1212989743e-001	 2.8664645452e+000
 1.2930136750e+000	 3.2539881461e-001	 2.8094815285e+000
 1.2896009480e+000	 3.3867106518e-001	 2.7503052219e+000
 1.2860419042e+000	 3.5194440822e-001	 2.6893511945e+000
 1.2823359378e+000	 3.6521657738e-001	 2.6271116612e+000
 1.2784824874e+000	 3.7848528178e-001	 2.5641622484e+000
 1.2744810358e+000	 3.9174820702e-001	 2.5011685345e+000
 1.2107631971e+000	 3.7216270646e-001	 2.5697374672e+000
 1.2068207488e+000	 3.8475483961e-001	 2.5203908761e+000
 1.2027368457e+000	 3.9733702086e-001	 2.4677405908e+000
 1.1985111275e+000	 4.0990698924e-001	 2.4122036650e+000
 1.1941432797e+000	 4.2246246541e-001	 2.3542971331e+000
 1.1896330343e+000	 4.3500115282e-001	 2.2946418585e+000
 1.1849801705e+000	 4.4752073879e-001	 2.2339659095e+000
 1.1801845157e+000	 4.6001889571e-001	 2.1731074159e+000
 1.1752459457e+000	 4.7249328220e-001	 2.1130168619e+000
 1.1701643855e+000	 4.8494154436e-001	 2.0547587733e+000
 1.1649398100e+000	 4.9736131699e-001	 1.9995127573e+000
 1.2171349809e+000	 3.7412125651e-001	 2.5636641810e+000
 1.2131717850e+000	 3.8677965725e-001	 2.5128256169e+000
 1.2090663899e+000	 3.9942805371e-001	 2.4587353126e+000
 1.2048184334e+000	 4.1206417303e-001	 2.4017831374e+000
 1.2004275993e+000	 4.2468572387e-001	 2.3424607384e+000
 1.1958936182e+000	 4.3729039759e-001	 2.2813655914e+000
 1.1912162682e+000	 4.4987586936e-001	 2.2192045684e+000
 1.1863953757e+000	 4.6243979930e-001	 2.1567969749e+000
 1.1814308159e+000	 4.7497983372e-001	 2.0950770111e+000
 1.1763225133e+000	 4.8749360633e-001	 2.0350956115e+000
 1.1710704429e+000	 4.9997873948e-001	 1.9780216218e+000
 1.2235067648e+000	 3.7607980657e-001	 2.5574376203e+000
 1.2195228213e+000	 3.8880447489e-001	 2.5051304284e+000
 1.2153959342e+000	 4.0151908656e-001	 2.4496387407e+000
 1.2111257393e+000	 4.1422135681e-001	 2.3913226308e+000
 1.2067119189e+000	 4.2690898233e-001	 2.3306458414e+000
 1.2021542020e+000	 4.3957964237e-001	 2.2681800467e+000
 1.1974523658e+000	 4.5223099993e-001	 2.2046086227e+000
 1.1926062356e+000	 4.6486070290e-001	 2.1407298754e+000
 1.1876156860e+000	 4.7746638525e-001	 2.0774596784e+000
 1.1824806412e+000	 4.9004566830e-001	 2.0158334754e+000
 1.1772010758e+000	 5.0259616196e-001	 1.9570076026e+000
 1.2298785487e+000	 3.7803835663e-001	 2.5510499247e+000
 1.2258738576e+000	 3.9082929253e-001	 2.4972925589e+000
 1.2217254784e+000	 4.0361011941e-001	 2.4404338739e+000
 1.2174330452e+000	 4.1637854060e-001	 2.3808015345e+000
 1.2129962384e+000	 4.2913224079e-001	 2.3188288592e+000
 1.2084147859e+000	 4.4186888715e-001	 2.2550593061e+000
 1.2036884635e+000	 4.5458613051e-001	 2.1901504556e+000
 1.1988170956e+000	 4.6728160649e-001	 2.1248774387e+000
 1.1938005561e+000	 4.7995293677e-001	 2.0601357619e+000
 1.1886387690e+000	 4.9259773027e-001	 1.9969434813e+000
 1.1833317087e+000	 5.0521358444e-001	 1.9364426790e+000
 1.2362503325e+000	 3.7999690668e-001	 2.5444932105e+000
 1.2322248939e+000	 3.9285411016e-001	 2.4892994328e+000
 1.2280550227e+000	 4.0570115226e-001	 2.4311040702e+000
 1.2237403511e+000	 4.1853572439e-001	 2.3701997616e+000
 1.2192805580e+000	 4.3135549925e-001	 2.3069868799e+000
 1.2146753698e+000	 4.4415813193e-001	 2.2419782500e+000
 1.2099245611e+000	 4.5694126108e-001	 2.1758033555e+000
 1.2050279556e+000	 4.6970251009e-001	 2.1092119767e+000
 1.1999854263e+000	 4.8243948829e-001	 2.0430772130e+000
 1.1947968968e+000	 4.9514979223e-001	 1.9783978370e+000
 1.1894623416e+000	 5.0783100693e-001	 1.9162999355e+000
 1.2426221164e+000	 3.8195545674e-001	 2.5377596083e+000
 1.2385759301e+000	 3.9487892780e-001	 2.4811386861e+000
 1.2343845669e+000	 4.0779218511e-001	 2.4216330802e+000
 1.2300476570e+000	 4.2069290818e-001	 2.3594977832e+000
 1.2255648776e+000	 4.3357875771e-001	 2.2950976957e+000
 1.2209359537e+000	 4.4644737671e-001	 2.2289125900e+000
 1.2161606588e+000	 4.5929639165e-001	 2.1615415488e+000
 1.2112388155e+000	 4.7212341368e-001	 2.0937068248e+000
 1.2061702964e+000	 4.8492603981e-001	 2.0262570693e+000
 1.2009550247e+000	 4.9770185420e-001	 1.9601698769e+000
 1.1955929745e+000	 5.1044842941e-001	 1.8965535991e+000
 1.2489939003e+000	 3.8391400680e-001	 2.5308413003e+000
 1.2449269664e+000	 3.9690374544e-001	 2.4727982021e+000
 1.2407141112e+000	 4.0988321796e-001	 2.4120050825e+000
 1.2363549629e+000	 4.2285009197e-001	 2.3486766608e+000
 1.2318491972e+000	 4.3580201617e-001	 2.2831398353e+000
 1.2271965376e+000	 4.4873662148e-001	 2.2158389009e+000
 1.2223967565e+000	 4.6165152222e-001	 2.1473402322e+000
 1.2174496755e+000	 4.7454431727e-001	 2.0783363746e+000
 1.2123551666e+000	 4.8741259133e-001	 2.0096494891e+000
 1.2071131525e+000	 5.0025391617e-001	 1.9422340972e+000
 1.2017236074e+000	 5.1306585189e-001	 1.8771790763e+000
 1.2553656842e+000	 3.8587255685e-001	 2.5237305574e+000
 1.2512780027e+000	 3.9892856308e-001	 2.4642661470e+000
 1.2470436554e+000	 4.1197425081e-001	 2.4022047170e+000
 1.2426622688e+000	 4.2500727575e-001	 2.3377180808e+000
 1.2381335168e+000	 4.3802527462e-001	 2.2710925969e+000
 1.2334571215e+000	 4.5102586626e-001	 2.2027346535e+000
 1.2286328541e+000	 4.6400665280e-001	 2.1331756055e+000
 1.2236605354e+000	 4.7696522087e-001	 2.0630761076e+000
 1.2185400367e+000	 4.8989914286e-001	 1.9932297856e+000
 1.2132712804e+000	 5.0280597814e-001	 1.9245661916e+000
 1.2078542403e+000	 5.1568327437e-001	 1.8581529899e+000
 1.2617374680e+000	 3.8783110691e-001	 2.5164197764e+000
 1.2576290389e+000	 4.0095338072e-001	 2.4555310052e+000
 1.2533731997e+000	 4.1406528366e-001	 2.3922171198e+000
 1.2489695747e+000	 4.2716445954e-001	 2.3266043867e+000
 1.2444178364e+000	 4.4024853308e-001	 2.2589360810e+000
 1.2397177054e+000	 4.5331511104e-001	 2.1895782478e+000
 1.2348689518e+000	 4.6636178337e-001	 2.1190249049e+000
 1.2298713954e+000	 4.7938612446e-001	 2.0479026285e+000
 1.2247249069e+000	 4.9238569438e-001	 1.9769744612e+000
 1.2194294082e+000	 5.0535804010e-001	 1.9071430867e+000
 1.2139848731e+000	 5.1830069686e-001	 1.8394532170e+000
 1.2681092519e+000	 3.8978965697e-001	 2.5089015161e+000
 1.2639800752e+000	 4.0297819836e-001	 2.4465816147e+000
 1.2597027439e+000	 4.1615631651e-001	 2.3820279571e+000
 1.2552768807e+000	 4.2932164333e-001	 2.3153186136e+000
 1.2507021560e+000	 4.4247179154e-001	 2.2466512234e+000
 1.2459782893e+000	 4.5560435582e-001	 2.1763490451e+000
 1.2411050494e+000	 4.6871691394e-001	 2.1048664356e+000
 1.2360822553e+000	 4.8180702806e-001	 2.0327936990e+000
 1.2309097770e+000	 4.9487224590e-001	 1.9608612421e+000
 1.2255875360e+000	 5.0791010207e-001	 1.8899429785e+000
 1.2201155060e+000	 5.2091811934e-001	 1.8210589263e+000
 1.2744810358e+000	 3.9174820702e-001	 2.5011685345e+000
 1.2703311115e+000	 4.0500301600e-001	 2.4374072022e+000
 1.2660322882e+000	 4.1824734936e-001	 2.3716234596e+000
 1.2615841866e+000	 4.3147882712e-001	 2.3038445209e+000
 1.2569864756e+000	 4.4469505000e-001	 2.2342198284e+000
 1.2522388732e+000	 4.5789360059e-001	 2.1630274017e+000
 1.2473411471e+000	 4.7107204451e-001	 2.0906796055e+000
 1.2422931153e+000	 4.8422793165e-001	 2.0177282718e+000
 1.2370946472e+000	 4.9735879742e-001	 1.9448691133e+000
 1.2317456639e+000	 5.1046216404e-001	 1.8729453681e+000
 1.2262461389e+000	 5.2353554182e-001	 1.8029506159e+000
 1.1649398100e+000	 4.9736131699e-001	 1.9995127573e+000
 1.1595730604e+000	 5.0974836916e-001	 1.9422546342e+000
 1.1540634406e+000	 5.2210218360e-001	 1.8779369066e+000
 1.1484110790e+000	 5.3442037070e-001	 1.8078878284e+000
 1.1426161556e+000	 5.4670053483e-001	 1.7335314364e+000
 1.1366789026e+000	 5.5894027569e-001	 1.6563849074e+000
 1.1305996047e+000	 5.7113718971e-001	 1.5780551258e+000
 1.1243785995e+000	 5.8328887144e-001	 1.5002344475e+000
 1.1180162775e+000	 5.9539291498e-001	 1.4246956495e+000
 1.1115130826e+000	 6.0744691540e-001	 1.3532860612e+000
 1.1048695121e+000	 6.1944847019e-001	 1.2879208781e+000
 1.1710704429e+000	 4.9997873948e-001	 1.9780216218e+000
 1.1656754501e+000	 5.1243097997e-001	 1.9187196505e+000
 1.1601368353e+000	 5.2484980781e-001	 1.8520925364e+000
 1.1544547275e+000	 5.3723282082e-001	 1.7795562861e+000
 1.1486293076e+000	 5.4957761075e-001	 1.7026268185e+000
 1.1426608091e+000	 5.6188176469e-001	 1.6229172115e+000
 1.1365495182e+000	 5.7414286641e-001	 1.5421341328e+000
 1.1302957742e+000	 5.8635849779e-001	 1.4620734383e+000
 1.1238999698e+000	 5.9852624029e-001	 1.3846149290e+000
 1.1173625510e+000	 6.1064367630e-001	 1.3117162600e+000
 1.1106840180e+000	 6.2270839069e-001	 1.2454060032e+000
 1.1772010758e+000	 5.0259616196e-001	 1.9570076026e+000
 1.1717778399e+000	 5.1511359077e-001	 1.8957366981e+000
 1.1662102301e+000	 5.2759743201e-001	 1.8268772202e+000
 1.1604983760e+000	 5.4004527093e-001	 1.7519343363e+000
 1.1546424596e+000	 5.5245468668e-001	 1.6725172612e+000
 1.1486427157e+000	 5.6482325369e-001	 1.5903363928e+000
 1.1424994317e+000	 5.7714854311e-001	 1.5071996020e+000
 1.1362129490e+000	 5.8942812415e-001	 1.4250076636e+000
 1.1297836620e+000	 6.0165956560e-001	 1.3457488155e+000
 1.1232120195e+000	 6.1384043721e-001	 1.2714924415e+000
 1.1164985239e+000	 6.2596831119e-001	 1.2043818786e+000
 1.1833317087e+000	 5.0521358444e-001	 1.9364426790e+000
 1.1778802296e+000	 5.1779620157e-001	 1.8732782004e+000
 1.1722836248e+000	 5.3034505622e-001	 1.8022623146e+000
 1.1665420245e+000	 5.4285772105e-001	 1.7249907176e+000
 1.1606556117e+000	 5.5533176260e-001	 1.6431672988e+000
 1.1546246222e+000	 5.6776474270e-001	 1.5586011620e+000
 1.1484493453e+000	 5.8015421981e-001	 1.4732027728e+000
 1.1421301237e+000	 5.9249775051e-001	 1.3889792180e+000
 1.1356673543e+000	 6.0479289091e-001	 1.3080285638e+000
 1.1290614879e+000	 6.1703719812e-001	 1.2325333081e+000
 1.1223130297e+000	 6.2922823170e-001	 1.1647529268e+000
 1.1894623416e+000	 5.0783100693e-001	 1.9162999355e+000
 1.1839826194e+000	 5.2047881238e-001	 1.8513176973e+000
 1.1783570195e+000	 5.3309268043e-001	 1.7782203211e+000
 1.1725856730e+000	 5.4567017117e-001	 1.6986953611e+000
 1.1666687637e+000	 5.5820883853e-001	 1.6145427241e+000
 1.1606065287e+000	 5.7070623170e-001	 1.5276715737e+000
 1.1543992588e+000	 5.8315989651e-001	 1.4400963327e+000
 1.1480472985e+000	 5.9556737686e-001	 1.3539317680e+000
 1.1415510466e+000	 6.0792621622e-001	 1.2713871439e+000
 1.1349109564e+000	 6.2023395902e-001	 1.1947594397e+000
 1.1281275356e+000	 6.3248815220e-001	 1.1264256308e+000
 1.1955929745e+000	 5.1044842941e-001	 1.8965535991e+000
 1.1900850091e+000	 5.2316142318e-001	 1.8298298831e+000
 1.1844304142e+000	 5.3584030463e-001	 1.7547249254e+000
 1.1786293215e+000	 5.4848262128e-001	 1.6730194298e+000
 1.1726819157e+000	 5.6108591446e-001	 1.5866106276e+000
 1.1665884353e+000	 5.7364772070e-001	 1.4975090638e+000
 1.1603491723e+000	 5.8616557321e-001	 1.4078344527e+000
 1.1539644732e+000	 5.9863700322e-001	 1.3198105839e+000
 1.1474347389e+000	 6.1105954153e-001	 1.2357592688e+000
 1.1407604249e+000	 6.2343071993e-001	 1.1580933183e+000
 1.1339420415e+000	 6.3574807270e-001	 1.0893085536e+000
 1.2017236074e+000	 5.1306585189e-001	 1.8771790763e+000
 1.1961873988e+000	 5.2584403398e-001	 1.8087906450e+000
 1.1905038089e+000	 5.3858792884e-001	 1.7317510375e+000
 1.1846729700e+000	 5.5129507140e-001	 1.6479353587e+000
 1.1786950678e+000	 5.6396299038e-001	 1.5593394366e+000
 1.1725703418e+000	 5.7658920971e-001	 1.4680764877e+000
 1.1662990858e+000	 5.8917124991e-001	 1.3763728229e+000
 1.1598816480e+000	 6.0170662957e-001	 1.2865625735e+000
 1.1533184312e+000	 6.1419286684e-001	 1.2010814252e+000
 1.1466098933e+000	 6.2662748084e-001	 1.1224593531e+000
 1.1397565474e+000	 6.3900799320e-001	 1.0533123578e+000
 1.2078542403e+000	 5.1568327437e-001	 1.8581529899e+000
 1.2022897886e+000	 5.2852664479e-001	 1.7881771026e+000
 1.1965772037e+000	 5.4133555305e-001	 1.7092748306e+000
 1.1907166185e+000	 5.5410752152e-001	 1.6234168942e+000
 1.1847082198e+000	 5.6684006631e-001	 1.5326989546e+000
 1.1785522484e+000	 5.7953069871e-001	 1.4393381581e+000
 1.1722489994e+000	 5.9217692661e-001	 1.3456686896e+000
 1.1657988227e+000	 6.0477625593e-001	 1.2541363156e+000
 1.1592021235e+000	 6.1732619215e-001	 1.1672919029e+000
 1.1524593618e+000	 6.2982424174e-001	 1.0877839069e+000
 1.1455710533e+000	 6.4226791370e-001	 1.0183498276e+000
 1.2139848731e+000	 5.1830069686e-001	 1.8394532170e+000
 1.2083921783e+000	 5.3120925559e-001	 1.7679676460e+000
 1.2026505984e+000	 5.4408317725e-001	 1.6872737817e+000
 1.1967602670e+000	 5.5691997163e-001	 1.5994391347e+000
 1.1907213719e+000	 5.6971714224e-001	 1.5066604013e+000
 1.1845341549e+000	 5.8247218772e-001	 1.4112598841e+000
 1.1781989129e+000	 5.9518260331e-001	 1.3156808913e+000
 1.1717159975e+000	 6.0784588229e-001	 1.2224820939e+000
 1.1650858158e+000	 6.2045951746e-001	 1.1343308262e+000
 1.1583088302e+000	 6.3302100265e-001	 1.0539953227e+000
 1.1513855592e+000	 6.4552783421e-001	 9.8433589000e-001
 1.2201155060e+000	 5.2091811934e-001	 1.8210589263e+000
 1.2144945681e+000	 5.3389186639e-001	 1.7481419758e+000
 1.2087239931e+000	 5.4683080146e-001	 1.6657267111e+000
 1.2028039155e+000	 5.5973242175e-001	 1.5759785706e+000
 1.1967345239e+000	 5.7259421816e-001	 1.4811964521e+000
 1.1905160615e+000	 5.8541367672e-001	 1.3838090096e+000
 1.1841488264e+000	 5.9818828001e-001	 1.2863698961e+000
 1.1776331723e+000	 6.1091550864e-001	 1.1915519321e+000
 1.1709695080e+000	 6.2359284277e-001	 1.1021401852e+000
 1.1641582987e+000	 6.3621776356e-001	 1.0210239511e+000
 1.1572000651e+000	 6.4878775471e-001	 9.5118763787e-001
 1.2262461389e+000	 5.2353554182e-001	 1.8029506159e+000
 1.2205969578e+000	 5.3657447720e-001	 1.7286811418e+000
 1.2147973878e+000	 5.4957842567e-001	 1.6446138231e+000
 1.2088475640e+000	 5.6254487187e-001	 1.5530131249e+000
 1.2027476759e+000	 5.7547129409e-001	 1.4562812785e+000
 1.1964979680e+000	 5.8835516572e-001	 1.3569544528e+000
 1.1900987399e+000	 6.0119395671e-001	 1.2576978390e+000
 1.1835503470e+000	 6.1398513500e-001	 1.1612996286e+000
 1.1768532003e+000	 6.2672616808e-001	 1.0706638673e+000
 1.1700077671e+000	 6.3941452446e-001	 9.8880217857e-001
 1.1630145709e+000	 6.5204767521e-001	 9.1882435377e-001
 1.1048695121e+000	 6.1944847019e-001	 1.2879208781e+000
 1.0980850890e+000	 6.3139696880e-001	 1.2224715066e+000
 1.0911614050e+000	 6.4328821307e-001	 1.1517884541e+000
 1.0840991196e+000	 6.5511981619e-001	 1.0792954748e+000
 1.0768989460e+000	 6.6688939972e-001	 1.0084323939e+000
 1.0695616509e+000	 6.7859459506e-001	 9.3632498947e-001
 1.0620880547e+000	 6.9023304492e-001	 8.5942184599e-001
 1.0544790311e+000	 7.0180240484e-001	 7.7954999339e-001
 1.0467355068e+000	 7.1330034468e-001	 6.9848737338e-001
 1.0388584616e+000	 7.2472455010e-001	 6.1795926009e-001
 1.0308489278e+000	 7.3607272405e-001	 5.3963496342e-001
 1.1106840180e+000	 6.2270839069e-001	 1.2454060032e+000
 1.1038638911e+000	 6.3471976969e-001	 1.1795070097e+000
 1.0969037704e+000	 6.4667359302e-001	 1.1087578867e+000
 1.0898043189e+000	 6.5856746135e-001	 1.0366029337e+000
 1.0825662535e+000	 6.7039898370e-001	 9.6593538199e-001
 1.0751903450e+000	 6.8216577901e-001	 8.9148065725e-001
 1.0676774181e+000	 6.9386547758e-001	 8.1248721089e-001
 1.0600283511e+000	 7.0549572262e-001	 7.3076146239e-001
 1.0522440756e+000	 7.1705417172e-001	 6.4805780428e-001
 1.0443255766e+000	 7.2853849837e-001	 5.6607502220e-001
 1.0362738916e+000	 7.3994639342e-001	 4.8645301063e-001
 1.1164985239e+000	 6.2596831119e-001	 1.2043818786e+000
 1.1096426931e+000	 6.3804257057e-001	 1.1381857313e+000
 1.1026461357e+000	 6.5005897298e-001	 1.0675207833e+000
 1.0955095181e+000	 6.6201510651e-001	 9.9584711075e-001
 1.0882335610e+000	 6.7390856768e-001	 9.2453765513e-001
 1.0808190391e+000	 6.8573696295e-001	 8.4793486164e-001
 1.0732667816e+000	 6.9749791024e-001	 7.6702906383e-001
 1.0655776711e+000	 7.0918904040e-001	 6.8360118205e-001
 1.0577526445e+000	 7.2080799876e-001	 5.9937727426e-001
 1.0497926915e+000	 7.3235244663e-001	 5.1602496516e-001
 1.0416988555e+000	 7.4382006279e-001	 4.3515018434e-001
 1.1223130297e+000	 6.2922823170e-001	 1.1647529268e+000
 1.1154214952e+000	 6.4136537145e-001	 1.0983974483e+000
 1.1083885011e+000	 6.5344435293e-001	 1.0279533468e+000
 1.1012147174e+000	 6.6546275167e-001	 9.5689180467e-001
 1.0939008685e+000	 6.7741815166e-001	 8.8416941048e-001
 1.0864477332e+000	 6.8930814690e-001	 8.0561265878e-001
 1.0788561450e+000	 7.0113034290e-001	 7.2296900417e-001
 1.0711269912e+000	 7.1288235817e-001	 6.3798906837e-001
 1.0632612133e+000	 7.2456182580e-001	 5.5236587603e-001
 1.0552598065e+000	 7.3616639490e-001	 4.6773130272e-001
 1.0471238193e+000	 7.4769373215e-001	 3.8565284535e-001
 1.1281275356e+000	 6.3248815220e-001	 1.1264256308e+000
 1.1212002972e+000	 6.4468817233e-001	 1.0600341733e+000
 1.1141308665e+000	 6.5682973289e-001	 9.8993415390e-001
 1.1069199166e+000	 6.6891039683e-001	 9.1942557719e-001
 1.0995681759e+000	 6.8092773564e-001	 8.4476466654e-001
 1.0920764273e+000	 6.9287933085e-001	 7.6444299226e-001
 1.0844455084e+000	 7.0476277556e-001	 6.8023255158e-001
 1.0766763112e+000	 7.1657567595e-001	 5.9384895558e-001
 1.0687697821e+000	 7.2831565284e-001	 5.0694758206e-001
 1.0607269215e+000	 7.3998034316e-001	 4.2112005201e-001
 1.0525487832e+000	 7.5156740152e-001	 3.3789104194e-001
 1.1339420415e+000	 6.3574807270e-001	 1.0893085536e+000
 1.1269790993e+000	 6.4801097322e-001	 1.0229901683e+000
 1.1198732318e+000	 6.6021511284e-001	 9.5334416397e-001
 1.1126251159e+000	 6.7235804199e-001	 8.8272184021e-001
 1.1052354834e+000	 6.8443731961e-001	 8.0626116886e-001
 1.0977051215e+000	 6.9645051479e-001	 7.2435859616e-001
 1.0900348718e+000	 7.0839520821e-001	 6.3874904729e-001
 1.0822256313e+000	 7.2026899373e-001	 5.5110849675e-001
 1.0742783510e+000	 7.3206947988e-001	 4.6305014560e-001
 1.0661940364e+000	 7.4379429143e-001	 3.7612093596e-001
 1.0579737470e+000	 7.5544107089e-001	 2.9179841499e-001
 1.1397565474e+000	 6.3900799320e-001	 1.0533123578e+000
 1.1327579014e+000	 6.5133377410e-001	 9.8716196009e-001
 1.1256155972e+000	 6.6360049280e-001	 9.1806672930e-001
 1.1183303151e+000	 6.7580568715e-001	 8.4667152288e-001
 1.1109027909e+000	 6.8794690359e-001	 7.6860029737e-001
 1.1033338156e+000	 7.0002169874e-001	 6.8529589971e-001
 1.0956242353e+000	 7.1202764087e-001	 5.9845155712e-001
 1.0877749513e+000	 7.2396231151e-001	 5.0969906607e-001
 1.0797869198e+000	 7.3582330692e-001	 4.2060500323e-001
 1.0716611514e+000	 7.4760823969e-001	 3.3266728738e-001
 1.0633987109e+000	 7.5931474026e-001	 2.4731210447e-001
 1.1455710533e+000	 6.4226791370e-001	 1.0183498276e+000
 1.1385367034e+000	 6.5465657498e-001	 9.5244835593e-001
 1.1313579625e+000	 6.6698587276e-001	 8.8398502356e-001
 1.1240355144e+000	 6.7925333231e-001	 8.1122591213e-001
 1.1165700984e+000	 6.9145648757e-001	 7.3172697507e-001
 1.1089625097e+000	 7.0359288269e-001	 6.4719493343e-001
 1.1012135987e+000	 7.1566007353e-001	 5.5927677589e-001
 1.0933242714e+000	 7.2765562928e-001	 4.6955566262e-001
 1.0852954887e+000	 7.3957713396e-001	 3.7954717904e-001
 1.0771282663e+000	 7.5142218796e-001	 2.9069595440e-001
 1.0688236747e+000	 7.6318840962e-001	 2.0437265749e-001
 1.1513855592e+000	 6.4552783421e-001	 9.8433589000e-001
 1.1443155055e+000	 6.5797937586e-001	 9.1875046069e-001
 1.1371003279e+000	 6.7037125271e-001	 8.5059111333e-001
 1.1297407136e+000	 6.8270097747e-001	 7.7633966421e-001
 1.1222374059e+000	 6.9496607155e-001	 6.9558957817e-001
 1.1145912038e+000	 7.0716406663e-001	 6.0999923674e-001
 1.1068029621e+000	 7.1929250619e-001	 5.2116493348e-001
 1.0988735914e+000	 7.3134894706e-001	 4.3061681574e-001
 1.0908040575e+000	 7.4333096100e-001	 3.3981519022e-001
 1.0825953813e+000	 7.5523613623e-001	 2.5014720748e-001
 1.0742486386e+000	 7.6706207899e-001	 1.6292393757e-001
 1.1572000651e+000	 6.4878775471e-001	 9.5118763787e-001
 1.1500943075e+000	 6.6130217675e-001	 8.8597169500e-001
 1.1428426933e+000	 6.7375663267e-001	 8.1754278382e-001
 1.1354459129e+000	 6.8614862262e-001	 7.4197071943e-001
 1.1279047134e+000	 6.9847565553e-001	 6.6013984749e-001
 1.1202198979e+000	 7.1073525058e-001	 5.7365576692e-001
 1.1123923256e+000	 7.2292493885e-001	 4.8405970222e-001
 1.1044229115e+000	 7.3504226484e-001	 3.9282449178e-001
 1.0963126263e+000	 7.4708478804e-001	 3.0135095420e-001
 1.0880624963e+000	 7.5905008449e-001	 2.1096464777e-001
 1.0796736024e+000	 7.7093574836e-001	 1.2291303541e-001
 1.1630145709e+000	 6.5204767521e-001	 9.1882435377e-001
 1.1558731096e+000	 6.6462497763e-001	 8.5401781421e-001
 1.1485850586e+000	 6.7714201262e-001	 7.8480860344e-001
 1.1411511121e+000	 6.8959626778e-001	 7.0808021810e-001
 1.1335720209e+000	 7.0198523951e-001	 6.2533280125e-001
 1.1258485920e+000	 7.1430643453e-001	 5.3811480955e-001
 1.1179816890e+000	 7.2655737151e-001	 4.4790810577e-001
 1.1099722315e+000	 7.3873558262e-001	 3.5612400232e-001
 1.1018211952e+000	 7.5083861508e-001	 2.6409969708e-001
 1.0935296112e+000	 7.6286403276e-001	 1.7309511684e-001
 1.0850985663e+000	 7.7480941773e-001	 8.4290180795e-002
 1.0308489278e+000	 7.3607272405e-001	 5.3963496342e-001
 1.0227079895e+000	 7.4734258802e-001	 4.6489534361e-001
 1.0144367816e+000	 7.5853188269e-001	 3.9359837803e-001
 1.0060364898e+000	 7.6963837020e-001	 3.2504733507e-001
 9.9750835095e-001	 7.8065983576e-001	 2.5849620400e-001
 9.8885365199e-001	 7.9159408914e-001	 1.9315153018e-001
 9.8007372959e-001	 8.0243896606e-001	 1.2817454021e-001
 9.7116996942e-001	 8.1319232961e-001	 6.2683545129e-002
 9.6214380549e-001	 8.2385207162e-001	-4.2433921159e-003
 9.5299671937e-001	 8.3441611403e-001	-7.3565540910e-002
 9.4373023940e-001	 8.4488241019e-001	-1.4627635691e-001
 1.0362738916e+000	 7.3994639342e-001	 4.8645301063e-001
 1.0280901107e+000	 7.5127556637e-001	 4.1064125276e-001
 1.0197753745e+000	 7.6252374603e-001	 3.3856407405e-001
 1.0113308753e+000	 7.7368868273e-001	 2.6948920390e-001
 1.0027578561e+000	 7.8476815005e-001	 2.0263446591e-001
 9.9405761076e-001	 7.9575994623e-001	 1.3716972088e-001
 9.8523148298e-001	 8.0666189559e-001	 7.2219108201e-002
 9.7628086572e-001	 8.1747184998e-001	 6.8635736184e-003
 9.6720720054e-001	 8.2818769014e-001	-5.9856331260e-002
 9.5801197680e-001	 8.3880732706e-001	-1.2893739416e-001
 9.4869673089e-001	 8.4932870334e-001	-2.0141045078e-001
 1.0416988555e+000	 7.4382006279e-001	 4.3515018434e-001
 1.0334722319e+000	 7.5520854472e-001	 3.5827880384e-001
 1.0251139675e+000	 7.6651560936e-001	 2.8541522834e-001
 1.0166252607e+000	 7.7773899526e-001	 2.1579612144e-001
 1.0080073612e+000	 7.8887646435e-001	 1.4860757778e-001
 9.9926156952e-001	 7.9992580331e-001	 8.2987167271e-002
 9.9038923636e-001	 8.1088482512e-001	 1.8026286884e-002
 9.8139176202e-001	 8.2175137035e-001	-4.7227192999e-002
 9.7227059559e-001	 8.3252330866e-001	-1.1376600246e-001
 9.6302723423e-001	 8.4319854009e-001	-1.8262028350e-001
 9.5366322238e-001	 8.5377499649e-001	-2.5485415832e-001
 1.0471238193e+000	 7.4769373215e-001	 3.8565284535e-001
 1.0388543531e+000	 7.5914152308e-001	 3.0773946310e-001
 1.0304525605e+000	 7.7050747269e-001	 2.3408820866e-001
 1.0219196462e+000	 7.8178930780e-001	 1.6390908979e-001
 1.0132568664e+000	 7.9298477864e-001	 9.6360844638e-002
 1.0044655283e+000	 8.0409166040e-001	 3.0553081126e-002
 9.9554698975e-001	 8.1510775465e-001	-3.4451267014e-002
 9.8650265832e-001	 8.2603089072e-001	-9.9633180863e-002
 9.7733399064e-001	 8.3685892718e-001	-1.6601450908e-001
 9.6804249166e-001	 8.4758975313e-001	-2.3465465071e-001
 9.5862971387e-001	 8.5822128965e-001	-3.0664698803e-001
 1.0525487832e+000	 7.5156740152e-001	 3.3789104194e-001
 1.0442364743e+000	 7.6307450143e-001	 2.5895825110e-001
 1.0357911535e+000	 7.7449933603e-001	 1.8452281059e-001
 1.0272140317e+000	 7.8583962033e-001	 1.1377242036e-001
 1.0185063715e+000	 7.9709309293e-001	 4.5842771742e-002
 1.0096694870e+000	 8.0825751749e-001	-2.0180224040e-002
 1.0007047431e+000	 8.1933068418e-001	-8.5257881534e-002
 9.9161355462e-001	 8.3031041109e-001	-1.5039587425e-001
 9.8239738569e-001	 8.4119454569e-001	-2.1664107162e-001
 9.7305774910e-001	 8.5198096617e-001	-2.8507809816e-001
 9.6359620536e-001	 8.6266758280e-001	-3.5682563566e-001
 1.0579737470e+000	 7.5544107089e-001	 2.9179841499e-001
 1.0496185955e+000	 7.6700747978e-001	 2.1187365096e-001
 1.0411297465e+000	 7.7849119936e-001	 1.3666216896e-001
 1.0325084171e+000	 7.8988993286e-001	 6.5333648408e-002
 1.0237558766e+000	 8.0120140722e-001	-2.9950179013e-003
 1.0148734458e+000	 8.1242337458e-001	-6.9257412541e-002
 1.0058624965e+000	 8.2355361371e-001	-1.3443494641e-001
 9.9672445093e-001	 8.3458993147e-001	-1.9955389003e-001
 9.8746078074e-001	 8.4553016421e-001	-2.6568209992e-001
 9.7807300653e-001	 8.5637217920e-001	-3.3392545904e-001
 9.6856269685e-001	 8.6711387595e-001	-4.0542405289e-001
 1.0633987109e+000	 7.5931474026e-001	 2.4731210447e-001
 1.0550007167e+000	 7.7094045813e-001	 1.6642751806e-001
 1.0464683395e+000	 7.8248306269e-001	 9.0452670520e-002
 1.0378028026e+000	 7.9394024539e-001	 1.8543448833e-002
 1.0290053818e+000	 8.0530972151e-001	-5.0197864872e-002
 1.0200774046e+000	 8.1658923167e-001	-1.1672020510e-001
 1.0110202499e+000	 8.2777654324e-001	-1.8202098899e-001
 1.0018353472e+000	 8.3886945184e-001	-2.4714305116e-001
 9.9252417579e-001	 8.4986578273e-001	-3.1317126452e-001
 9.8308826396e-001	 8.6076339224e-001	-3.8122886682e-001
 9.7352918834e-001	 8.7156016910e-001	-4.5247351512e-001
 1.0688236747e+000	 7.6318840962e-001	 2.0437265749e-001
 1.0603828379e+000	 7.7487343649e-001	 1.2256499093e-001
 1.0518069325e+000	 7.8647492603e-001	 4.5843867973e-002
 1.0430971881e+000	 7.9799055792e-001	-2.6644446982e-002
 1.0342548869e+000	 8.0941803581e-001	-9.5808153601e-002
 1.0252813633e+000	 8.2075508875e-001	-1.6260745638e-001
 1.0161780033e+000	 8.3199947277e-001	-2.2805174929e-001
 1.0069462435e+000	 8.4314897221e-001	-2.9319645942e-001
 9.9758757084e-001	 8.5420140125e-001	-3.5913956722e-001
 9.8810352139e-001	 8.6515460527e-001	-4.2701782389e-001
 9.7849567983e-001	 8.7600646225e-001	-4.9800268860e-001
 1.0742486386e+000	 7.6706207899e-001	 1.6292393757e-001
 1.0657649591e+000	 7.7880641484e-001	 8.0234403630e-002
 1.0571455255e+000	 7.9046678936e-001	 2.7883951322e-003
 1.0483915736e+000	 8.0204087046e-001	-7.0273333117e-002
 1.0395043920e+000	 8.1352635010e-001	-1.3986539160e-001
 1.0304853221e+000	 8.2492094584e-001	-2.0695523160e-001
 1.0213357567e+000	 8.3622240230e-001	-2.7256025406e-001
 1.0120571398e+000	 8.4742849258e-001	-3.3774456711e-001
 1.0026509659e+000	 8.5853701977e-001	-4.0361541074e-001
 9.9311877882e-001	 8.6954581831e-001	-4.7131926951e-001
 9.8346217132e-001	 8.8045275541e-001	-5.4203769679e-001
 1.0796736024e+000	 7.7093574836e-001	 1.2291303541e-001
 1.0711470803e+000	 7.8273939319e-001	 3.9387199218e-002
 1.0624841185e+000	 7.9445865270e-001	-3.8758116741e-002
 1.0536859590e+000	 8.0609118299e-001	-1.1238361002e-001
 1.0447538972e+000	 8.1763466439e-001	-1.8240628766e-001
 1.0356892809e+000	 8.2908680293e-001	-2.4979688219e-001
 1.0264935101e+000	 8.4044533183e-001	-3.1557689003e-001
 1.0171680361e+000	 8.5170801295e-001	-3.8081524814e-001
 1.0077143609e+000	 8.6287263829e-001	-4.4662466776e-001
 9.9813403625e-001	 8.7393703135e-001	-5.1415764694e-001
 9.8842866281e-001	 8.8489904856e-001	-5.8460218597e-001
 1.0850985663e+000	 7.7480941773e-001	 8.4290180795e-002
 1.0765292015e+000	 7.8667237155e-001	-2.2155508147e-005
 1.0678227115e+000	 7.9845051603e-001	-7.8837121472e-002
 1.0589803445e+000	 8.1014149552e-001	-1.5301286436e-001
 1.0500034023e+000	 8.2174297868e-001	-2.2346482912e-001
 1.0408932396e+000	 8.3325266002e-001	-2.9116312050e-001
 1.0316512635e+000	 8.4466826136e-001	-3.5712947632e-001
 1.0222789324e+000	 8.5598753333e-001	-4.2243386820e-001
 1.0127777560e+000	 8.6720825681e-001	-4.8819074908e-001
 1.0031492937e+000	 8.7832824438e-001	-5.5555496990e-001
 9.9339515430e-001	 8.8934534171e-001	-6.2571739027e-001
 9.4373023940e-001	 8.4488241019e-001	-1.4627635691e-001
 9.3434735634e-001	 8.5524739906e-001	-2.1900812683e-001
 9.2484830850e-001	 8.6551067959e-001	-2.8804308575e-001
 9.1523475942e-001	 8.7567030891e-001	-3.5385450466e-001
 9.0550841573e-001	 8.8572438067e-001	-4.1693322453e-001
 8.9567102621e-001	 8.9567102621e-001	-4.7778473228e-001
 8.8572438067e-001	 9.0550841573e-001	-5.3692615513e-001
 8.7567030891e-001	 9.1523475942e-001	-5.9488319871e-001
 8.6551067959e-001	 9.2484830850e-001	-6.5218705477e-001
 8.5524739906e-001	 9.3434735634e-001	-7.0937130452e-001
 8.4488241019e-001	 9.4373023940e-001	-7.6696884401e-001
 9.4869673089e-001	 8.4932870334e-001	-2.0141045078e-001
 9.3926446930e-001	 8.5974823918e-001	-2.7389925758e-001
 9.2971543161e-001	 8.7006553143e-001	-3.4264540782e-001
 9.2005129009e-001	 8.8027862700e-001	-4.0811187995e-001
 9.1027376038e-001	 8.9038560950e-001	-4.7077995212e-001
 9.0038460043e-001	 9.0038460043e-001	-5.3114620688e-001
 8.9038560950e-001	 9.1027376038e-001	-5.8971945063e-001
 8.8027862700e-001	 9.2005129009e-001	-6.4701757396e-001
 8.7006553143e-001	 9.2971543161e-001	-7.0356437940e-001
 8.5974823918e-001	 9.3926446930e-001	-7.5988640376e-001
 8.4932870334e-001	 9.4869673089e-001	-8.1650976209e-001
 9.5366322238e-001	 8.5377499649e-001	-2.5485415832e-001
 9.4418158226e-001	 8.6424907931e-001	-3.2708699887e-001
 9.3458255471e-001	 8.7462038328e-001	-3.9552830092e-001
 9.2486782076e-001	 8.8488694509e-001	-4.6063330331e-001
 9.1503910502e-001	 8.9504683833e-001	-5.2287625223e-001
 9.0509817466e-001	 9.0509817466e-001	-5.8274732720e-001
 8.9504683833e-001	 9.1503910502e-001	-6.4074947807e-001
 8.8488694509e-001	 9.2486782076e-001	-6.9739519991e-001
 8.7462038328e-001	 9.3458255471e-001	-7.5320327340e-001
 8.6424907931e-001	 9.4418158226e-001	-8.0869549856e-001
 8.5377499649e-001	 9.5366322238e-001	-8.6439344987e-001
 9.5862971387e-001	 8.5822128965e-001	-3.0664698803e-001
 9.4909869523e-001	 8.6874991943e-001	-3.7861016374e-001
 9.3944967782e-001	 8.7917523513e-001	-4.4672956227e-001
 9.2968435143e-001	 8.8949526319e-001	-5.1145520210e-001
 9.1980444966e-001	 8.9970806716e-001	-5.7325679554e-001
 9.0981174888e-001	 9.0981174888e-001	-6.3262058842e-001
 8.9970806716e-001	 9.1980444966e-001	-6.9004610697e-001
 8.8949526319e-001	 9.2968435143e-001	-7.4604283978e-001
 8.7917523513e-001	 9.3944967782e-001	-8.0112688311e-001
 8.6874991943e-001	 9.4909869523e-001	-8.5581757851e-001
 8.5822128965e-001	 9.5862971387e-001	-9.1063417167e-001
 9.6359620536e-001	 8.6266758280e-001	-3.5682563566e-001
 9.5401580819e-001	 8.7325075956e-001	-4.2850477282e-001
 9.4431680093e-001	 8.8373008698e-001	-4.9628422247e-001
 9.3450088211e-001	 8.9410358128e-001	-5.6061126931e-001
 9.2456979431e-001	 9.0436929599e-001	-6.2195355802e-001
 9.1452532310e-001	 9.1452532310e-001	-6.8079583904e-001
 9.0436929599e-001	 9.2456979431e-001	-7.3763661772e-001
 8.9410358128e-001	 9.3450088211e-001	-7.9298473560e-001
 8.8373008698e-001	 9.4431680093e-001	-8.4735591309e-001
 8.7325075956e-001	 9.5401580819e-001	-9.0126928330e-001
 8.6266758280e-001	 9.6359620536e-001	-9.5524394714e-001
 9.6856269685e-001	 8.6711387595e-001	-4.0542405289e-001
 9.5893292116e-001	 8.7775159969e-001	-4.7680412146e-001
 9.4918392403e-001	 8.8828493882e-001	-5.4422461075e-001
 9.3931741278e-001	 8.9871189937e-001	-6.0813252666e-001
 9.2933513895e-001	 9.0903052481e-001	-6.6899588165e-001
 9.1923889732e-001	 9.1923889732e-001	-7.2730033902e-001
 9.0903052481e-001	 9.2933513895e-001	-7.8354575672e-001
 8.9871189937e-001	 9.3931741278e-001	-8.3824266012e-001
 8.8828493882e-001	 9.4918392403e-001	-8.9190867442e-001
 8.7775159969e-001	 9.5893292116e-001	-9.4506494704e-001
 8.6711387595e-001	 9.6856269685e-001	-9.9823259134e-001
 9.7352918834e-001	 8.7156016910e-001	-4.5247351512e-001
 9.6385003412e-001	 8.8225243981e-001	-5.2353884592e-001
 9.5405104714e-001	 8.9283979067e-001	-5.9058041950e-001
 9.4413394345e-001	 9.0332021747e-001	-6.5404738714e-001
 9.3410048359e-001	 9.1369175364e-001	-7.1441053464e-001
 9.2395247155e-001	 9.2395247155e-001	-7.7215881742e-001
 9.1369175364e-001	 9.3410048359e-001	-8.2779579113e-001
 9.0332021747e-001	 9.4413394345e-001	-8.8183596833e-001
 8.9283979067e-001	 9.5405104714e-001	-9.3480113267e-001
 8.8225243981e-001	 9.6385003412e-001	-9.8721664230e-001
 8.7156016910e-001	 9.7352918834e-001	-1.0396077545e+000
 9.7849567983e-001	 8.7600646225e-001	-4.9800268860e-001
 9.6876714708e-001	 8.8675327994e-001	-5.6873698905e-001
 9.5891817024e-001	 8.9739464252e-001	-6.3537876806e-001
 9.4895047412e-001	 9.0792853556e-001	-6.9838171678e-001
 9.3886582824e-001	 9.1835298247e-001	-7.5822177100e-001
 9.2866604577e-001	 9.2866604577e-001	-8.1539352938e-001
 9.1835298247e-001	 9.3886582824e-001	-8.7040656308e-001
 9.0792853556e-001	 9.4895047412e-001	-9.2378164850e-001
 8.9739464252e-001	 9.5891817024e-001	-9.7604695552e-001
 8.8675327994e-001	 9.6876714708e-001	-1.0277342240e+000
 8.7600646225e-001	 9.7849567983e-001	-1.0793749616e+000
 9.8346217132e-001	 8.8045275541e-001	-5.4203769679e-001
 9.7368426004e-001	 8.9125412007e-001	-6.1242406506e-001
 9.6378529335e-001	 9.0194949437e-001	-6.7864426588e-001
 9.5376700479e-001	 9.1253685365e-001	-7.4115889587e-001
 9.4363117288e-001	 9.2301421130e-001	-8.0045138949e-001
 9.3337961999e-001	 9.3337961999e-001	-8.5702431261e-001
 9.2301421130e-001	 9.4363117288e-001	-9.1139554331e-001
 9.1253685365e-001	 9.5376700479e-001	-9.6409437284e-001
 9.0194949437e-001	 9.6378529335e-001	-1.0156575599e+000
 8.9125412007e-001	 9.7368426004e-001	-1.0666253727e+000
 8.8045275541e-001	 9.8346217132e-001	-1.1175376520e+000
 9.8842866281e-001	 8.8489904856e-001	-5.8460218597e-001
 9.7860137301e-001	 8.9575496019e-001	-6.5462312374e-001
 9.6865241645e-001	 9.0650434622e-001	-7.2039907499e-001
 9.5858353546e-001	 9.1714517175e-001	-7.8239987949e-001
 9.4839651752e-001	 9.2767544013e-001	-8.4111879203e-001
 9.3809319422e-001	 9.3809319422e-001	-8.9706864337e-001
 9.2767544013e-001	 9.4839651752e-001	-9.5077788451e-001
 9.1714517175e-001	 9.5858353546e-001	-1.0027865477e+000
 9.0650434622e-001	 9.6865241645e-001	-1.0536421592e+000
 8.9575496019e-001	 9.7860137301e-001	-1.1038956382e+000
 8.8489904856e-001	 9.8842866281e-001	-1.1540972186e+000
 9.9339515430e-001	 8.8934534171e-001	-6.2571739027e-001
 9.8351848597e-001	 9.0025580032e-001	-6.9535481398e-001
 9.7351953956e-001	 9.1105919807e-001	-7.6066297187e-001
 9.6340006614e-001	 9.2175348984e-001	-8.2212325753e-001
 9.5316186217e-001	 9.3233666896e-001	-8.8024104151e-001
 9.4280676844e-001	 9.4280676844e-001	-9.3554169192e-001
 9.3233666896e-001	 9.5316186217e-001	-9.8856647401e-001
 9.2175348984e-001	 9.6340006614e-001	-1.0398683635e+000
 9.1105919807e-001	 9.7351953956e-001	-1.0900078093e+000
 9.0025580032e-001	 9.8351848597e-001	-1.1395484825e+000
 8.8934534171e-001	 9.9339515430e-001	-1.1890530470e+000
 8.4488241019e-001	 9.4373023940e-001	-7.6696884401e-001
 8.3441611403e-001	 9.5299671937e-001	-8.2246999223e-001
 8.2385207162e-001	 9.6214380549e-001	-8.7364597302e-001
 8.1319232961e-001	 9.7116996942e-001	-9.2145592598e-001
 8.0243896606e-001	 9.8007372959e-001	-9.6683120247e-001
 7.9159408914e-001	 9.8885365199e-001	-1.0106722360e+000
 7.8065983576e-001	 9.9750835095e-001	-1.0538456165e+000
 7.6963837020e-001	 1.0060364898e+000	-1.0971813910e+000
 7.5853188269e-001	 1.0144367816e+000	-1.1414706104e+000
 7.4734258802e-001	 1.0227079895e+000	-1.1874631415e+000
 7.3607272405e-001	 1.0308489278e+000	-1.2358657612e+000
 8.4932870334e-001	 9.4869673089e-001	-8.1650976209e-001
 8.3880732706e-001	 9.5801197680e-001	-8.7083421995e-001
 8.2818769014e-001	 9.6720720054e-001	-9.2057589711e-001
 8.1747184998e-001	 9.7628086572e-001	-9.6673948023e-001
 8.0666189559e-001	 9.8523148298e-001	-1.0103010241e+000
 7.9575994623e-001	 9.9405761076e-001	-1.0522046563e+000
 7.8476815005e-001	 1.0027578561e+000	-1.0933594918e+000
 7.7368868273e-001	 1.0113308753e+000	-1.1346367823e+000
 7.6252374603e-001	 1.0197753745e+000	-1.1768673197e+000
 7.5127556637e-001	 1.0280901107e+000	-1.2208391145e+000
 7.3994639342e-001	 1.0362738916e+000	-1.2672953659e+000
 8.5377499649e-001	 9.5366322238e-001	-8.6439344987e-001
 8.4319854009e-001	 9.6302723423e-001	-9.1760496369e-001
 8.3252330866e-001	 9.7227059559e-001	-9.6598584078e-001
 8.2175137035e-001	 9.8139176202e-001	-1.0105827846e+000
 8.1088482512e-001	 9.9038923636e-001	-1.0524130473e+000
 7.9992580331e-001	 9.9926156952e-001	-1.0924609709e+000
 7.8887646435e-001	 1.0080073612e+000	-1.1316747454e+000
 7.7773899526e-001	 1.0166252607e+000	-1.1709634085e+000
 7.6651560936e-001	 1.0251139675e+000	-1.2111941090e+000
 7.5520854472e-001	 1.0334722319e+000	-1.2531896538e+000
 7.4382006279e-001	 1.0416988555e+000	-1.2977263571e+000
 8.5822128965e-001	 9.5862971387e-001	-9.1063417167e-001
 8.4758975313e-001	 9.6804249166e-001	-9.6279169300e-001
 8.3685892718e-001	 9.7733399064e-001	-1.0098809687e+000
 8.2603089072e-001	 9.8650265832e-001	-1.0529872478e+000
 8.1510775465e-001	 9.9554698975e-001	-1.0931655318e+000
 8.0409166040e-001	 1.0044655283e+000	-1.1314369548e+000
 7.9298477864e-001	 1.0132568664e+000	-1.1687853873e+000
 7.8178930780e-001	 1.0219196462e+000	-1.2061542892e+000
 7.7050747269e-001	 1.0304525605e+000	-1.2444438349e+000
 7.5914152308e-001	 1.0388543531e+000	-1.2845083320e+000
 7.4769373215e-001	 1.0471238193e+000	-1.3271539523e+000
 8.6266758280e-001	 9.6359620536e-001	-9.5524394714e-001
 8.5198096617e-001	 9.7305774910e-001	-1.0064017417e+000
 8.4119454569e-001	 9.8239738569e-001	-1.0522644111e+000
 8.3031041109e-001	 9.9161355462e-001	-1.0939523368e+000
 8.1933068418e-001	 1.0007047431e+000	-1.1325548792e+000
 8.0825751749e-001	 1.0096694870e+000	-1.1691265982e+000
 7.9709309293e-001	 1.0185063715e+000	-1.2046837055e+000
 7.8583962033e-001	 1.0272140317e+000	-1.2402007727e+000
 7.7449933603e-001	 1.0357911535e+000	-1.2766077212e+000
 7.6307450143e-001	 1.0442364743e+000	-1.3147871146e+000
 7.5156740152e-001	 1.0525487832e+000	-1.3555717734e+000
 8.6711387595e-001	 9.6856269685e-001	-9.9823259134e-001
 8.5637217920e-001	 9.7807300653e-001	-1.0484403432e+000
 8.4553016421e-001	 9.8746078074e-001	-1.0931372947e+000
 8.3458993147e-001	 9.9672445093e-001	-1.1334756042e+000
 8.2355361371e-001	 1.0058624965e+000	-1.1705756564e+000
 8.1242337458e-001	 1.0148734458e+000	-1.2055221266e+000
 8.0120140722e-001	 1.0237558766e+000	-1.2393602823e+000
 7.8988993286e-001	 1.0325084171e+000	-1.2730925500e+000
 7.7849119936e-001	 1.0411297465e+000	-1.3076753706e+000
 7.6700747978e-001	 1.0496185955e+000	-1.3440163686e+000
 7.5544107089e-001	 1.0579737470e+000	-1.3829718532e+000
 8.7156016910e-001	 9.7352918834e-001	-1.0396077545e+000
 8.6076339224e-001	 9.8308826396e-001	-1.0889106664e+000
 8.4986578273e-001	 9.9252417579e-001	-1.1324987746e+000
 8.3886945184e-001	 1.0018353472e+000	-1.1715527152e+000
 8.2777654324e-001	 1.0110202499e+000	-1.2072206190e+000
 8.1658923167e-001	 1.0200774046e+000	-1.2406140206e+000
 8.0530972151e-001	 1.0290053818e+000	-1.2728040119e+000
 7.9394024539e-001	 1.0378028026e+000	-1.3048176689e+000
 7.8248306269e-001	 1.0464683395e+000	-1.3376347757e+000
 7.7094045813e-001	 1.0550007167e+000	-1.3721848721e+000
 7.5931474026e-001	 1.0633987109e+000	-1.4093446437e+000
 8.7600646225e-001	 9.7849567983e-001	-1.0793749616e+000
 8.6515460527e-001	 9.8810352139e-001	-1.1278138505e+000
 8.5420140125e-001	 9.9758757084e-001	-1.1703460647e+000
 8.4314897221e-001	 1.0069462435e+000	-1.2081774752e+000
 8.3199947277e-001	 1.0161780033e+000	-1.2424807351e+000
 8.2075508875e-001	 1.0252813633e+000	-1.2743910364e+000
 8.0941803581e-001	 1.0342548869e+000	-1.3050021168e+000
 7.9799055792e-001	 1.0430971881e+000	-1.3353625481e+000
 7.8647492603e-001	 1.0518069325e+000	-1.3664723313e+000
 7.7487343649e-001	 1.0603828379e+000	-1.3992798245e+000
 7.6318840962e-001	 1.0688236747e+000	-1.4346790238e+000
 8.8045275541e-001	 9.8346217132e-001	-1.1175376520e+000
 8.6954581831e-001	 9.9311877882e-001	-1.1651490406e+000
 8.5853701977e-001	 1.0026509659e+000	-1.2066744697e+000
 8.4742849258e-001	 1.0120571398e+000	-1.2433418571e+000
 8.3622240230e-001	 1.0213357567e+000	-1.2763452092e+000
 8.2492094584e-001	 1.0304853221e+000	-1.3068402265e+000
 8.1352635010e-001	 1.0395043920e+000	-1.3359401657e+000
 8.0204087046e-001	 1.0483915736e+000	-1.3647119920e+000
 7.9046678936e-001	 1.0571455255e+000	-1.3941728466e+000
 7.7880641484e-001	 1.0657649591e+000	-1.4252868561e+000
 7.6706207899e-001	 1.0742486386e+000	-1.4589623082e+000
 8.8489904856e-001	 9.8842866281e-001	-1.1540972186e+000
 8.7393703135e-001	 9.9813403625e-001	-1.2009134230e+000
 8.6287263829e-001	 1.0077143609e+000	-1.2414774162e+000
 8.5170801295e-001	 1.0171680361e+000	-1.2770360291e+000
 8.4044533183e-001	 1.0264935101e+000	-1.3088015062e+000
 8.2908680293e-001	 1.0356892809e+000	-1.3379469600e+000
 8.1763466439e-001	 1.0447538972e+000	-1.3656020914e+000
 8.0609118299e-001	 1.0536859590e+000	-1.3928492063e+000
 7.9445865270e-001	 1.0624841185e+000	-1.4207195577e+000
 7.8273939319e-001	 1.0711470803e+000	-1.4501900394e+000
 7.7093574836e-001	 1.0796736024e+000	-1.4821802562e+000
 8.8934534171e-001	 9.9339515430e-001	-1.1890530470e+000
 8.7832824438e-001	 1.0031492937e+000	-1.2351022602e+000
 8.6720825681e-001	 1.0127777560e+000	-1.2747464838e+000
 8.5598753333e-001	 1.0222789324e+000	-1.3092483824e+000
 8.4466826136e-001	 1.0316512635e+000	-1.3398353756e+000
 8.3325266002e-001	 1.0408932396e+000	-1.3676949441e+000
 8.2174297868e-001	 1.0500034023e+000	-1.3939702085e+000
 8.1014149552e-001	 1.0589803445e+000	-1.4197558126e+000
 7.9845051603e-001	 1.0678227115e+000	-1.4460941411e+000
 7.8667237155e-001	 1.0765292015e+000	-1.4739718997e+000
 7.7480941773e-001	 1.0850985663e+000	-1.5043170816e+000
 7.3607272405e-001	 1.0308489278e+000	-1.2358657612e+000
 7.2472455010e-001	 1.0388584616e+000	-1.2849673317e+000
 7.1330034468e-001	 1.0467355068e+000	-1.3320411964e+000
 7.0180240484e-001	 1.0544790311e+000	-1.3762151583e+000
 6.9023304492e-001	 1.0620880547e+000	-1.4165885112e+000
 6.7859459506e-001	 1.0695616509e+000	-1.4522339418e+000
 6.6688939972e-001	 1.0768989460e+000	-1.4821997143e+000
 6.5511981619e-001	 1.0840991196e+000	-1.5107659695e+000
 6.4328821307e-001	 1.0911614050e+000	-1.5419808350e+000
 6.3139696880e-001	 1.0980850890e+000	-1.5739671820e+000
 6.1944847019e-001	 1.1048695121e+000	-1.6048276162e+000
 7.3994639342e-001	 1.0362738916e+000	-1.2672953659e+000
 7.2853849837e-001	 1.0443255766e+000	-1.3145915746e+000
 7.1705417172e-001	 1.0522440756e+000	-1.3600386691e+000
 7.0549572262e-001	 1.0600283511e+000	-1.4027542517e+000
 6.9386547758e-001	 1.0676774181e+000	-1.4418251845e+000
 6.8216577901e-001	 1.0751903450e+000	-1.4763095175e+000
 6.7039898370e-001	 1.0825662535e+000	-1.5052387122e+000
 6.5856746135e-001	 1.0898043189e+000	-1.5302278508e+000
 6.4667359302e-001	 1.0969037704e+000	-1.5577615460e+000
 6.3471976969e-001	 1.1038638911e+000	-1.5864838306e+000
 6.2270839069e-001	 1.1106840180e+000	-1.6144617063e+000
 7.4382006279e-001	 1.0416988555e+000	-1.2977263571e+000
 7.3235244663e-001	 1.0497926915e+000	-1.3432219541e+000
 7.2080799876e-001	 1.0577526445e+000	-1.3870265865e+000
 7.0918904040e-001	 1.0655776711e+000	-1.4282534054e+000
 6.9749791024e-001	 1.0732667816e+000	-1.4659825508e+000
 6.8573696295e-001	 1.0808190391e+000	-1.4992630957e+000
 6.7390856768e-001	 1.0882335610e+000	-1.5271152966e+000
 6.6201510651e-001	 1.0955095181e+000	-1.5494035479e+000
 6.5005897298e-001	 1.1026461357e+000	-1.5731332229e+000
 6.3804257057e-001	 1.1096426931e+000	-1.5984903456e+000
 6.2596831119e-001	 1.1164985239e+000	-1.6235110485e+000
 7.4769373215e-001	 1.0471238193e+000	-1.3271539523e+000
 7.3616639490e-001	 1.0552598065e+000	-1.3708561496e+000
 7.2456182580e-001	 1.0632612133e+000	-1.4130056989e+000
 7.1288235817e-001	 1.0711269912e+000	-1.4527169548e+000
 7.0113034290e-001	 1.0788561450e+000	-1.4890689500e+000
 6.8930814690e-001	 1.0864477332e+000	-1.5211073427e+000
 6.7741815166e-001	 1.0939008685e+000	-1.5478466843e+000
 6.6546275167e-001	 1.1012147174e+000	-1.5683338737e+000
 6.5344435293e-001	 1.1083885011e+000	-1.5881422590e+000
 6.4136537145e-001	 1.1154214952e+000	-1.6100384579e+000
 6.2922823170e-001	 1.1223130297e+000	-1.6320323361e+000
 7.5156740152e-001	 1.0525487832e+000	-1.3555717734e+000
 7.3998034316e-001	 1.0607269215e+000	-1.3974902440e+000
 7.2831565284e-001	 1.0687697821e+000	-1.4379751529e+000
 7.1657567595e-001	 1.0766763112e+000	-1.4761476199e+000
 7.0476277556e-001	 1.0844455084e+000	-1.5110910911e+000
 6.9287933085e-001	 1.0920764273e+000	-1.5418532782e+000
 6.8092773564e-001	 1.0995681759e+000	-1.5674484311e+000
 6.6891039683e-001	 1.1069199166e+000	-1.5868599411e+000
 6.5682973289e-001	 1.1141308665e+000	-1.6028323400e+000
 6.4468817233e-001	 1.1212002972e+000	-1.6211774050e+000
 6.3248815220e-001	 1.1281275356e+000	-1.6400799879e+000
 7.5544107089e-001	 1.0579737470e+000	-1.3829718532e+000
 7.4379429143e-001	 1.0661940364e+000	-1.4231187301e+000
 7.3206947988e-001	 1.0742783510e+000	-1.4619324963e+000
 7.2026899373e-001	 1.0822256313e+000	-1.4985465086e+000
 7.0839520821e-001	 1.0900348718e+000	-1.5320540555e+000
 6.9645051479e-001	 1.0977051215e+000	-1.5615102774e+000
 6.8443731961e-001	 1.1052354834e+000	-1.5859344335e+000
 6.7235804199e-001	 1.1126251159e+000	-1.6043125136e+000
 6.6021511284e-001	 1.1198732318e+000	-1.6172443410e+000
 6.4801097322e-001	 1.1269790993e+000	-1.6319538333e+000
 6.3574807270e-001	 1.1339420415e+000	-1.6477060537e+000
 7.5931474026e-001	 1.0633987109e+000	-1.4093446437e+000
 7.4760823969e-001	 1.0716611514e+000	-1.4477345166e+000
 7.3582330692e-001	 1.0797869198e+000	-1.4848736835e+000
 7.2396231151e-001	 1.0877749513e+000	-1.5199131213e+000
 7.1202764087e-001	 1.0956242353e+000	-1.5519613006e+000
 7.0002169874e-001	 1.1033338156e+000	-1.5800860750e+000
 6.8794690359e-001	 1.1109027909e+000	-1.6033169313e+000
 6.7580568715e-001	 1.1183303151e+000	-1.6206476004e+000
 6.6360049280e-001	 1.1256155972e+000	-1.6314162258e+000
 6.5133377410e-001	 1.1327579014e+000	-1.6424116998e+000
 6.3900799320e-001	 1.1397565474e+000	-1.6549601203e+000
 7.6318840962e-001	 1.0688236747e+000	-1.4346790238e+000
 7.5142218796e-001	 1.0771282663e+000	-1.4713289349e+000
 7.3957713396e-001	 1.0852954887e+000	-1.5067930809e+000
 7.2765562928e-001	 1.0933242714e+000	-1.5402453558e+000
 7.1566007353e-001	 1.1012135987e+000	-1.5708146640e+000
 7.0359288269e-001	 1.1089625097e+000	-1.5975867677e+000
 6.9145648757e-001	 1.1165700984e+000	-1.6196065107e+000
 6.7925333231e-001	 1.1240355144e+000	-1.6358804160e+000
 6.6698587276e-001	 1.1313579625e+000	-1.6453796515e+000
 6.5465657498e-001	 1.1385367034e+000	-1.6525921752e+000
 6.4226791370e-001	 1.1455710533e+000	-1.6618892180e+000
 7.6706207899e-001	 1.0742486386e+000	-1.4589623082e+000
 7.5523613623e-001	 1.0825953813e+000	-1.4938917465e+000
 7.4333096100e-001	 1.0908040575e+000	-1.5276834737e+000
 7.3134894706e-001	 1.0988735914e+000	-1.5595395126e+000
 7.1929250619e-001	 1.1068029621e+000	-1.5886143677e+000
 7.0716406663e-001	 1.1145912038e+000	-1.6140168190e+000
 6.9496607155e-001	 1.1222374059e+000	-1.6348121076e+000
 6.8270097747e-001	 1.1297407136e+000	-1.6500245109e+000
 6.7037125271e-001	 1.1371003279e+000	-1.6586403024e+000
 6.5797937586e-001	 1.1443155055e+000	-1.6625335465e+000
 6.4552783421e-001	 1.1513855592e+000	-1.6685377275e+000
 7.7093574836e-001	 1.0796736024e+000	-1.4821802562e+000
 7.5905008449e-001	 1.0880624963e+000	-1.5154111508e+000
 7.4708478804e-001	 1.0963126263e+000	-1.5475360718e+000
 7.3504226484e-001	 1.1044229115e+000	-1.5777903004e+000
 7.2292493885e-001	 1.1123923256e+000	-1.6053590236e+000
 7.1073525058e-001	 1.1202198979e+000	-1.6293790627e+000
 6.9847565553e-001	 1.1279047134e+000	-1.6489410109e+000
 6.8614862262e-001	 1.1354459129e+000	-1.6630917753e+000
 6.7375663267e-001	 1.1428426933e+000	-1.6708375203e+000
 6.6130217675e-001	 1.1500943075e+000	-1.6722711203e+000
 6.4878775471e-001	 1.1572000651e+000	-1.6749472863e+000
 7.7480941773e-001	 1.0850985663e+000	-1.5043170816e+000
 7.6286403276e-001	 1.0935296112e+000	-1.5358737930e+000
 7.5083861508e-001	 1.1018211952e+000	-1.5663405171e+000
 7.3873558262e-001	 1.1099722315e+000	-1.5949908424e+000
 7.2655737151e-001	 1.1179816890e+000	-1.6210456382e+000
 7.1430643453e-001	 1.1258485920e+000	-1.6436747080e+000
 7.0198523951e-001	 1.1335720209e+000	-1.6619988671e+000
 6.8959626778e-001	 1.1411511121e+000	-1.6750924420e+000
 6.7714201262e-001	 1.1485850586e+000	-1.6819861875e+000
 6.6462497763e-001	 1.1558731096e+000	-1.6818371265e+000
 6.5204767521e-001	 1.1630145709e+000	-1.6811566966e+000
 6.1944847019e-001	 1.1048695121e+000	-1.6048276162e+000
 6.0744691540e-001	 1.1115130826e+000	-1.6358263884e+000
 5.9539291498e-001	 1.1180162775e+000	-1.6689586277e+000
 5.8328887144e-001	 1.1243785995e+000	-1.7034011554e+000
 5.7113718971e-001	 1.1305996047e+000	-1.7383346249e+000
 5.5894027569e-001	 1.1366789026e+000	-1.7729507213e+000
 5.4670053483e-001	 1.1426161556e+000	-1.8064588039e+000
 5.3442037070e-001	 1.1484110790e+000	-1.8380919562e+000
 5.2210218360e-001	 1.1540634406e+000	-1.8671124202e+000
 5.0974836916e-001	 1.1595730604e+000	-1.8928163917e+000
 4.9736131699e-001	 1.1649398100e+000	-1.9145381634e+000
 6.2270839069e-001	 1.1106840180e+000	-1.6144617063e+000
 6.1064367630e-001	 1.1173625510e+000	-1.6428885195e+000
 5.9852624029e-001	 1.1238999698e+000	-1.6736705479e+000
 5.8635849779e-001	 1.1302957742e+000	-1.7059242333e+000
 5.7414286641e-001	 1.1365495182e+000	-1.7387715323e+000
 5.6188176469e-001	 1.1426608091e+000	-1.7713474182e+000
 5.4957761075e-001	 1.1486293076e+000	-1.8028068004e+000
 5.3723282082e-001	 1.1544547275e+000	-1.8323308280e+000
 5.2484980781e-001	 1.1601368353e+000	-1.8591325502e+000
 5.1243097997e-001	 1.1656754501e+000	-1.8824619124e+000
 4.9997873948e-001	 1.1710704429e+000	-1.9016100726e+000
 6.2596831119e-001	 1.1164985239e+000	-1.6235110485e+000
 6.1384043721e-001	 1.1232120195e+000	-1.6493244855e+000
 6.0165956560e-001	 1.1297836620e+000	-1.6777486253e+000
 5.8942812415e-001	 1.1362129490e+000	-1.7078350370e+000
 5.7714854311e-001	 1.1424994317e+000	-1.7386425150e+000
 5.6482325369e-001	 1.1486427157e+000	-1.7692448974e+000
 5.5245468668e-001	 1.1546424596e+000	-1.7987382762e+000
 5.4004527093e-001	 1.1604983760e+000	-1.8262475667e+000
 5.2759743201e-001	 1.1662102301e+000	-1.8509324064e+000
 5.1511359077e-001	 1.1717778399e+000	-1.8719923626e+000
 5.0259616196e-001	 1.1772010758e+000	-1.8886714325e+000
 6.2922823170e-001	 1.1223130297e+000	-1.6320323361e+000
 6.1703719812e-001	 1.1290614879e+000	-1.6551952227e+000
 6.0479289091e-001	 1.1356673543e+000	-1.6812570749e+000
 5.9249775051e-001	 1.1421301237e+000	-1.7092001141e+000
 5.8015421981e-001	 1.1484493453e+000	-1.7380155286e+000
 5.6776474270e-001	 1.1546246222e+000	-1.7667116215e+000
 5.5533176260e-001	 1.1606556117e+000	-1.7943213260e+000
 5.4285772105e-001	 1.1665420245e+000	-1.8199090530e+000
 5.3034505622e-001	 1.1722836248e+000	-1.8425768408e+000
 5.1779620157e-001	 1.1778802296e+000	-1.8614697859e+000
 5.0521358444e-001	 1.1833317087e+000	-1.8757807356e+000
 6.3248815220e-001	 1.1281275356e+000	-1.6400799879e+000
 6.2023395902e-001	 1.1349109564e+000	-1.6605596207e+000
 6.0792621622e-001	 1.1415510466e+000	-1.6842583056e+000
 5.9556737686e-001	 1.1480472985e+000	-1.7100844586e+000
 5.8315989651e-001	 1.1543992588e+000	-1.7369572363e+000
 5.7070623170e-001	 1.1606065287e+000	-1.7638150291e+000
 5.5820883853e-001	 1.1666687637e+000	-1.7896232945e+000
 5.4567017117e-001	 1.1725856730e+000	-1.8133816956e+000
 5.3309268043e-001	 1.1783570195e+000	-1.8341305145e+000
 5.2047881238e-001	 1.1839826194e+000	-1.8509563159e+000
 5.0783100693e-001	 1.1894623416e+000	-1.8629968443e+000
 6.3574807270e-001	 1.1339420415e+000	-1.6477060537e+000
 6.2343071993e-001	 1.1407604249e+000	-1.6654744319e+000
 6.1105954153e-001	 1.1474347389e+000	-1.6868128331e+000
 5.9863700322e-001	 1.1539644732e+000	-1.7105514250e+000
 5.8616557321e-001	 1.1603491723e+000	-1.7355329252e+000
 5.7364772070e-001	 1.1665884353e+000	-1.7606214534e+000
 5.6108591446e-001	 1.1726819157e+000	-1.7847106968e+000
 5.4848262128e-001	 1.1786293215e+000	-1.8067313535e+000
 5.3584030463e-001	 1.1844304142e+000	-1.8256578197e+000
 5.2316142318e-001	 1.1900850091e+000	-1.8405140991e+000
 5.1044842941e-001	 1.1955929745e+000	-1.8503789149e+000
 6.3900799320e-001	 1.1397565474e+000	-1.6549601203e+000
 6.2662748084e-001	 1.1466098933e+000	-1.6699941804e+000
 6.1419286684e-001	 1.1533184312e+000	-1.6889791919e+000
 6.0170662957e-001	 1.1598816480e+000	-1.7106626443e+000
 5.8917124991e-001	 1.1662990858e+000	-1.7338064245e+000
 5.7658920971e-001	 1.1725703418e+000	-1.7571960417e+000
 5.6396299038e-001	 1.1786950678e+000	-1.7796491400e+000
 5.5129507140e-001	 1.1846729700e+000	-1.8000232578e+000
 5.3858792884e-001	 1.1905038089e+000	-1.8172228032e+000
 5.2584403398e-001	 1.1961873988e+000	-1.8302052196e+000
 5.1306585189e-001	 1.2017236074e+000	-1.8379863217e+000
 6.4226791370e-001	 1.1455710533e+000	-1.6618892180e+000
 6.2982424174e-001	 1.1524593618e+000	-1.6741710724e+000
 6.1732619215e-001	 1.1592021235e+000	-1.6908138483e+000
 6.0477625593e-001	 1.1657988227e+000	-1.7104779393e+000
 5.9217692661e-001	 1.1722489994e+000	-1.7318400231e+000
 5.7953069871e-001	 1.1785522484e+000	-1.7536026757e+000
 5.6684006631e-001	 1.1847082198e+000	-1.7745032438e+000
 5.5410752152e-001	 1.1907166185e+000	-1.7933219346e+000
 5.4133555305e-001	 1.1965772037e+000	-1.8088890906e+000
 5.2852664479e-001	 1.2022897886e+000	-1.8200916229e+000
 5.1568327437e-001	 1.2078542403e+000	-1.8258785827e+000
 6.4552783421e-001	 1.1513855592e+000	-1.6685377275e+000
 6.3302100265e-001	 1.1583088302e+000	-1.6780549058e+000
 6.2045951746e-001	 1.1650858158e+000	-1.6923711138e+000
 6.0784588229e-001	 1.1717159975e+000	-1.7100552402e+000
 5.9518260331e-001	 1.1781989129e+000	-1.7296943878e+000
 5.8247218772e-001	 1.1845341549e+000	-1.7499038913e+000
 5.6971714224e-001	 1.1907213719e+000	-1.7693365634e+000
 5.5691997163e-001	 1.1967602670e+000	-1.7866911288e+000
 5.4408317725e-001	 1.2026505984e+000	-1.8007198105e+000
 5.3120925559e-001	 1.2083921783e+000	-1.8102350421e+000
 5.1830069686e-001	 1.2139848731e+000	-1.8141152852e+000
 6.4878775471e-001	 1.1572000651e+000	-1.6749472863e+000
 6.3621776356e-001	 1.1641582987e+000	-1.6816929814e+000
 6.2359284277e-001	 1.1709695080e+000	-1.6937030588e+000
 6.1091550864e-001	 1.1776331723e+000	-1.7094505016e+000
 5.9818828001e-001	 1.1841488264e+000	-1.7274284825e+000
 5.8541367672e-001	 1.1905160615e+000	-1.7461607995e+000
 5.7259421816e-001	 1.1967345239e+000	-1.7642115113e+000
 5.5973242175e-001	 1.2028039155e+000	-1.7801937276e+000
 5.4683080146e-001	 1.2087239931e+000	-1.7927775196e+000
 5.3389186639e-001	 1.2144945681e+000	-1.8006969233e+000
 5.2091811934e-001	 1.2201155060e+000	-1.8027560128e+000
 6.5204767521e-001	 1.1630145709e+000	-1.6811566966e+000
 6.3941452446e-001	 1.1700077671e+000	-1.6851300130e+000
 6.2672616808e-001	 1.1768532003e+000	-1.6948594261e+000
 6.1398513500e-001	 1.1835503470e+000	-1.7087176187e+000
 6.0119395671e-001	 1.1900987399e+000	-1.7250994865e+000
 5.8835516572e-001	 1.1964979680e+000	-1.7424330078e+000
 5.7547129409e-001	 1.2027476759e+000	-1.7591892809e+000
 5.6254487187e-001	 1.2088475640e+000	-1.7738916852e+000
 5.4957842567e-001	 1.2147973878e+000	-1.7851241287e+000
 5.3657447720e-001	 1.2205969578e+000	-1.7915383527e+000
 5.2353554182e-001	 1.2262461389e+000	-1.7918602728e+000
 4.9736131699e-001	 1.1649398100e+000	-1.9145381634e+000
 4.8494154436e-001	 1.1701643855e+000	-1.9352530574e+000
 4.7249328220e-001	 1.1752459457e+000	-1.9579057153e+000
 4.6001889571e-001	 1.1801845157e+000	-1.9818738847e+000
 4.4752073879e-001	 1.1849801705e+000	-2.0066026598e+000
 4.3500115282e-001	 1.1896330343e+000	-2.0316048300e+000
 4.2246246541e-001	 1.1941432797e+000	-2.0564605705e+000
 4.0990698924e-001	 1.1985111275e+000	-2.0808164960e+000
 3.9733702086e-001	 1.2027368457e+000	-2.1043841051e+000
 3.8475483961e-001	 1.2068207488e+000	-2.1269376429e+000
 3.7216270646e-001	 1.2107631971e+000	-2.1483114179e+000
 4.9997873948e-001	 1.1710704429e+000	-1.9016100726e+000
 4.8749360633e-001	 1.1763225133e+000	-1.9196506937e+000
 4.7497983372e-001	 1.1814308159e+000	-1.9396549475e+000
 4.6243979930e-001	 1.1863953757e+000	-1.9610029640e+000
 4.4987586936e-001	 1.1912162682e+000	-1.9831449138e+000
 4.3729039759e-001	 1.1958936182e+000	-2.0056013420e+000
 4.2468572387e-001	 1.2004275993e+000	-2.0279628217e+000
 4.1206417303e-001	 1.2048184334e+000	-2.0498889472e+000
 3.9942805371e-001	 1.2090663899e+000	-2.0711066950e+000
 3.8677965725e-001	 1.2131717850e+000	-2.0914081837e+000
 3.7412125651e-001	 1.2171349809e+000	-2.1106478662e+000
 5.0259616196e-001	 1.1772010758e+000	-1.8886714325e+000
 4.9004566830e-001	 1.1824806412e+000	-1.9041364982e+000
 4.7746638525e-001	 1.1876156860e+000	-1.9215839447e+000
 4.6486070290e-001	 1.1926062356e+000	-1.9403982315e+000
 4.5223099993e-001	 1.1974523658e+000	-1.9600367298e+000
 4.3957964237e-001	 1.2021542020e+000	-1.9800300379e+000
 4.2690898233e-001	 1.2067119189e+000	-1.9999815909e+000
 4.1422135681e-001	 1.2111257393e+000	-2.0195665871e+000
 4.0151908656e-001	 1.2153959342e+000	-2.0385302589e+000
 3.8880447489e-001	 1.2195228213e+000	-2.0566855210e+000
 3.7607980657e-001	 1.2235067648e+000	-2.0739100301e+000
 5.0521358444e-001	 1.1833317087e+000	-1.8757807356e+000
 4.9259773027e-001	 1.1886387690e+000	-1.8887653482e+000
 4.7995293677e-001	 1.1938005561e+000	-1.9037445299e+000
 4.6728160649e-001	 1.1988170956e+000	-1.9201089724e+000
 4.5458613051e-001	 1.2036884635e+000	-1.9373253307e+000
 4.4186888715e-001	 1.2084147859e+000	-1.9549365149e+000
 4.2913224079e-001	 1.2129962384e+000	-1.9725612505e+000
 4.1637854060e-001	 1.2174330452e+000	-1.9898929304e+000
 4.0361011941e-001	 1.2217254784e+000	-2.0066977893e+000
 3.9082929253e-001	 1.2258738576e+000	-2.0228124314e+000
 3.7803835663e-001	 1.2298785487e+000	-2.0381407505e+000
 5.0783100693e-001	 1.1894623416e+000	-1.8629968443e+000
 4.9514979223e-001	 1.1947968968e+000	-1.8735927562e+000
 4.8243948829e-001	 1.1999854263e+000	-1.8861893962e+000
 4.6970251009e-001	 1.2050279556e+000	-1.9001855483e+000
 4.5694126108e-001	 1.2099245611e+000	-1.9150591944e+000
 4.4415813193e-001	 1.2146753698e+000	-1.9303677766e+000
 4.3135549925e-001	 1.2192805580e+000	-1.9457477029e+000
 4.1853572439e-001	 1.2237403511e+000	-1.9609131186e+000
 4.0570115226e-001	 1.2280550227e+000	-1.9756539761e+000
 3.9285411016e-001	 1.2322248939e+000	-1.9898334355e+000
 3.7999690668e-001	 1.2362503325e+000	-2.0033846346e+000
 5.1044842941e-001	 1.1955929745e+000	-1.8503789149e+000
 4.9770185420e-001	 1.2009550247e+000	-1.8586747929e+000
 4.8492603981e-001	 1.2061702964e+000	-1.8689720317e+000
 4.7212341368e-001	 1.2112388155e+000	-1.8806793247e+000
 4.5929639165e-001	 1.2161606588e+000	-1.8932879826e+000
 4.4644737671e-001	 1.2209359537e+000	-1.9063721627e+000
 4.3357875771e-001	 1.2255648776e+000	-1.9195883126e+000
 4.2069290818e-001	 1.2300476570e+000	-1.9326738551e+000
 4.0779218511e-001	 1.2343845669e+000	-1.9454451463e+000
 3.9487892780e-001	 1.2385759301e+000	-1.9577947402e+000
 3.8195545674e-001	 1.2426221164e+000	-1.9696880014e+000
 5.1306585189e-001	 1.2017236074e+000	-1.8379863217e+000
 5.0025391617e-001	 1.2071131525e+000	-1.8440680133e+000
 4.8741259133e-001	 1.2123551666e+000	-1.8521466460e+000
 4.7454431727e-001	 1.2174496755e+000	-1.8616425972e+000
 4.6165152222e-001	 1.2223967565e+000	-1.8720624696e+000
 4.4873662148e-001	 1.2271965376e+000	-1.8829992808e+000
 4.3580201617e-001	 1.2318491972e+000	-1.8941318405e+000
 4.2285009197e-001	 1.2363549629e+000	-1.9052233427e+000
 4.0988321796e-001	 1.2407141112e+000	-1.9161192032e+000
 3.9690374544e-001	 1.2449269664e+000	-1.9267441820e+000
 3.8391400680e-001	 1.2489939003e+000	-1.9370988288e+000
 5.1568327437e-001	 1.2078542403e+000	-1.8258785827e+000
 5.0280597814e-001	 1.2132712804e+000	-1.8298293820e+000
 4.8989914286e-001	 1.2185400367e+000	-1.8357680967e+000
 4.7696522087e-001	 1.2236605354e+000	-1.8431285211e+000
 4.6400665280e-001	 1.2286328541e+000	-1.8514344727e+000
 4.5102586626e-001	 1.2334571215e+000	-1.8602999383e+000
 4.3802527462e-001	 1.2381335168e+000	-1.8694283788e+000
 4.2500727575e-001	 1.2426622688e+000	-1.8786112204e+000
 4.1197425081e-001	 1.2470436554e+000	-1.8877255672e+000
 3.9892856308e-001	 1.2512780027e+000	-1.8967311707e+000
 3.8587255685e-001	 1.2553656842e+000	-1.9056667012e+000
 5.1830069686e-001	 1.2139848731e+000	-1.8141152852e+000
 5.0535804010e-001	 1.2194294082e+000	-1.8160162001e+000
 4.9238569438e-001	 1.2247249069e+000	-1.8198918175e+000
 4.7938612446e-001	 1.2298713954e+000	-1.8251910397e+000
 4.6636178337e-001	 1.2348689518e+000	-1.8314567832e+000
 4.5331511104e-001	 1.2397177054e+000	-1.8383260766e+000
 4.4024853308e-001	 1.2444178364e+000	-1.8455292864e+000
 4.2716445954e-001	 1.2489695747e+000	-1.8528885029e+000
 4.1406528366e-001	 1.2533731997e+000	-1.8603151178e+000
 4.0095338072e-001	 1.2576290389e+000	-1.8678066350e+000
 3.8783110691e-001	 1.2617374680e+000	-1.8754427576e+000
 5.2091811934e-001	 1.2201155060e+000	-1.8027560128e+000
 5.0791010207e-001	 1.2255875360e+000	-1.8026860326e+000
 4.9487224590e-001	 1.2309097770e+000	-1.8045737470e+000
 4.8180702806e-001	 1.2360822553e+000	-1.8078848153e+000
 4.6871691394e-001	 1.2411050494e+000	-1.8121830989e+000
 4.5560435582e-001	 1.2459782893e+000	-1.8171307043e+000
 4.4247179154e-001	 1.2507021560e+000	-1.8224871263e+000
 4.2932164333e-001	 1.2552768807e+000	-1.8281075194e+000
 4.1615631651e-001	 1.2597027439e+000	-1.8339401358e+000
 4.0297819836e-001	 1.2639800752e+000	-1.8400229676e+000
 3.8978965697e-001	 1.2681092519e+000	-1.8464796418e+000
 5.2353554182e-001	 1.2262461389e+000	-1.7918602728e+000
 5.1046216404e-001	 1.2317456639e+000	-1.7898966369e+000
 4.9735879742e-001	 1.2370946472e+000	-1.7898702576e+000
 4.8422793165e-001	 1.2422931153e+000	-1.7912651599e+000
 4.7107204451e-001	 1.2473411471e+000	-1.7936679564e+000
 4.5789360059e-001	 1.2522388732e+000	-1.7967678334e+000
 4.4469505000e-001	 1.2569864756e+000	-1.8003556025e+000
 4.3147882712e-001	 1.2615841866e+000	-1.8043218544e+000
 4.1824734936e-001	 1.2660322882e+000	-1.8086542469e+000
 4.0500301600e-001	 1.2703311115e+000	-1.8134339726e+000
 3.9174820702e-001	 1.2744810358e+000	-1.8188314516e+000
 3.7216270646e-001	 1.2107631971e+000	-2.1483114179e+000
 3.5956286282e-001	 1.2145645956e+000	-2.1692788701e+000
 3.4695752895e-001	 1.2182253923e+000	-2.1904626441e+000
 3.3434890354e-001	 1.2217460784e+000	-2.2115473114e+000
 3.2173916295e-001	 1.2251271875e+000	-2.2322585876e+000
 3.0913046021e-001	 1.2283692947e+000	-2.2523590171e+000
 2.9652492420e-001	 1.2314730163e+000	-2.2716433552e+000
 2.8392465875e-001	 1.2344390081e+000	-2.2899336960e+000
 2.7133174181e-001	 1.2372679649e+000	-2.3070743905e+000
 2.5874822468e-001	 1.2399606194e+000	-2.3229268042e+000
 2.4617613122e-001	 1.2425177416e+000	-2.3373639579e+000
 3.7412125651e-001	 1.2171349809e+000	-2.1106478662e+000
 3.6145510471e-001	 1.2209563848e+000	-2.1295757910e+000
 3.4878343379e-001	 1.2246364469e+000	-2.1487706426e+000
 3.3610845401e-001	 1.2281756610e+000	-2.1679096005e+000
 3.2343235317e-001	 1.2315745635e+000	-2.1867131387e+000
 3.1075729565e-001	 1.2348337328e+000	-2.2049405555e+000
 2.9808542152e-001	 1.2379537880e+000	-2.2223851900e+000
 2.8541884569e-001	 1.2409353887e+000	-2.2388693714e+000
 2.7275965705e-001	 1.2437792332e+000	-2.2542391498e+000
 2.6010991767e-001	 1.2464860582e+000	-2.2683588567e+000
 2.4747166209e-001	 1.2490566375e+000	-2.2811055442e+000
 3.7607980657e-001	 1.2235067648e+000	-2.0739100301e+000
 3.6334734661e-001	 1.2273481739e+000	-2.0909325048e+000
 3.5060933863e-001	 1.2310475014e+000	-2.1082849240e+000
 3.3786800448e-001	 1.2346052436e+000	-2.1256330759e+000
 3.2512554339e-001	 1.2380219396e+000	-2.1426882681e+000
 3.1238413109e-001	 1.2412981708e+000	-2.1592027073e+000
 2.9964591885e-001	 1.2444345598e+000	-2.1749645509e+000
 2.8691303264e-001	 1.2474317693e+000	-2.1897926800e+000
 2.7418757228e-001	 1.2502905015e+000	-2.2035312431e+000
 2.6147161067e-001	 1.2530114969e+000	-2.2160440217e+000
 2.4876719297e-001	 1.2555955334e+000	-2.2272086667e+000
 3.7803835663e-001	 1.2298785487e+000	-2.0381407505e+000
 3.6523958851e-001	 1.2337399631e+000	-2.0533914332e+000
 3.5243524348e-001	 1.2374585560e+000	-2.0690463242e+000
 3.3962755495e-001	 1.2410348261e+000	-2.0847559200e+000
 3.2681873362e-001	 1.2444693156e+000	-2.1002185390e+000
 3.1401096653e-001	 1.2477626088e+000	-2.1151755539e+000
 3.0120641617e-001	 1.2509153315e+000	-2.1294062801e+000
 2.8840721958e-001	 1.2539281499e+000	-2.1427225741e+000
 2.7561548752e-001	 1.2568017699e+000	-2.1549631912e+000
 2.6283330366e-001	 1.2595369357e+000	-2.1659879562e+000
 2.5006272384e-001	 1.2621344292e+000	-2.1756717965e+000
 3.7999690668e-001	 1.2362503325e+000	-2.0033846346e+000
 3.6713183040e-001	 1.2401317523e+000	-2.0169967779e+000
 3.5426114832e-001	 1.2438696105e+000	-2.0310974795e+000
 3.4138710541e-001	 1.2474644087e+000	-2.0453181410e+000
 3.2851192384e-001	 1.2509166917e+000	-2.0593403692e+000
 3.1563780197e-001	 1.2542270469e+000	-2.0728910619e+000
 3.0276691349e-001	 1.2573961032e+000	-2.0857371367e+000
 2.8990140652e-001	 1.2604245305e+000	-2.0976799546e+000
 2.7704340275e-001	 1.2633130382e+000	-2.1085494932e+000
 2.6419499666e-001	 1.2660623744e+000	-2.1181983214e+000
 2.5135825471e-001	 1.2686733251e+000	-2.1264954312e+000
 3.8195545674e-001	 1.2426221164e+000	-1.9696880014e+000
 3.6902407230e-001	 1.2465235415e+000	-1.9817944699e+000
 3.5608705316e-001	 1.2502806651e+000	-1.9944827787e+000
 3.4314665588e-001	 1.2538939913e+000	-2.0073615278e+000
 3.3020511406e-001	 1.2573640678e+000	-2.0200919877e+000
 3.1726463741e-001	 1.2606914849e+000	-2.0323830423e+000
 3.0432741082e-001	 1.2638768750e+000	-2.0439857574e+000
 2.9139559347e-001	 1.2669209111e+000	-2.0546876323e+000
 2.7847131799e-001	 1.2698243065e+000	-2.0643065877e+000
 2.6555668965e-001	 1.2725878131e+000	-2.0726847459e+000
 2.5265378559e-001	 1.2752122210e+000	-2.0796820588e+000
 3.8391400680e-001	 1.2489939003e+000	-1.9370988288e+000
 3.7091631419e-001	 1.2529153306e+000	-1.9478321199e+000
 3.5791295801e-001	 1.2566917196e+000	-1.9592483167e+000
 3.4490620635e-001	 1.2603235739e+000	-1.9709296052e+000
 3.3189830428e-001	 1.2638114438e+000	-1.9825133932e+000
 3.1889147285e-001	 1.2671559229e+000	-1.9936871096e+000
 3.0588790814e-001	 1.2703576467e+000	-2.0041826168e+000
 2.9288978041e-001	 1.2734172918e+000	-2.0137702892e+000
 2.7989923323e-001	 1.2763355748e+000	-2.0222528164e+000
 2.6691838265e-001	 1.2791132519e+000	-2.0294587887e+000
 2.5394931646e-001	 1.2817511169e+000	-2.0352361208e+000
 3.8587255685e-001	 1.2553656842e+000	-1.9056667012e+000
 3.7280855609e-001	 1.2593071198e+000	-1.9151589696e+000
 3.5973886285e-001	 1.2631027742e+000	-1.9254418483e+000
 3.4666575682e-001	 1.2667531564e+000	-1.9360675914e+000
 3.3359149451e-001	 1.2702588199e+000	-1.9466463119e+000
 3.2051830829e-001	 1.2736203609e+000	-1.9568406426e+000
 3.0744840546e-001	 1.2768384184e+000	-1.9663599899e+000
 2.9438396735e-001	 1.2799136724e+000	-1.9749544420e+000
 2.8132714846e-001	 1.2828468432e+000	-1.9824083873e+000
 2.6828007565e-001	 1.2856386906e+000	-1.9885339035e+000
 2.5524484733e-001	 1.2882900128e+000	-1.9931639771e+000
 3.8783110691e-001	 1.2617374680e+000	-1.8754427576e+000
 3.7470079799e-001	 1.2656989090e+000	-1.8838258431e+000
 3.6156476769e-001	 1.2695138287e+000	-1.8931127435e+000
 3.4842530728e-001	 1.2731827390e+000	-1.9028223544e+000
 3.3528468473e-001	 1.2767061959e+000	-1.9125341580e+000
 3.2214514373e-001	 1.2800847990e+000	-1.9218827451e+000
 3.0900890279e-001	 1.2833191902e+000	-1.9305519138e+000
 2.9587815430e-001	 1.2864100530e+000	-1.9382684055e+000
 2.8275506370e-001	 1.2893581115e+000	-1.9447953393e+000
 2.6964176864e-001	 1.2921641294e+000	-1.9499254040e+000
 2.5654037821e-001	 1.2948289087e+000	-1.9534738719e+000
 3.8978965697e-001	 1.2681092519e+000	-1.8464796418e+000
 3.7659303988e-001	 1.2720906982e+000	-1.8538851001e+000
 3.6339067253e-001	 1.2759248833e+000	-1.8623119425e+000
 3.5018485775e-001	 1.2796123216e+000	-1.8712423706e+000
 3.3697787495e-001	 1.2831535720e+000	-1.8802219926e+000
 3.2377197917e-001	 1.2865492370e+000	-1.8888542080e+000
 3.1056940011e-001	 1.2897999619e+000	-1.8967941513e+000
 2.9737234124e-001	 1.2929064336e+000	-1.9037422567e+000
 2.8418297893e-001	 1.2958693798e+000	-1.9094375071e+000
 2.7100346164e-001	 1.2986895681e+000	-1.9136504292e+000
 2.5783590908e-001	 1.3013678046e+000	-1.9161758991e+000
 3.9174820702e-001	 1.2744810358e+000	-1.8188314516e+000
 3.7848528178e-001	 1.2784824874e+000	-1.8253905890e+000
 3.6521657738e-001	 1.2823359378e+000	-1.8330919125e+000
 3.5194440822e-001	 1.2860419042e+000	-1.8413776835e+000
 3.3867106518e-001	 1.2896009480e+000	-1.8497564855e+000
 3.2539881461e-001	 1.2930136750e+000	-1.8577974717e+000
 3.1212989743e-001	 1.2962807336e+000	-1.8651241548e+000
 2.9886652818e-001	 1.2994028142e+000	-1.8714077999e+000
 2.8561089417e-001	 1.3023806482e+000	-1.8763604874e+000
 2.7236515463e-001	 1.3052150068e+000	-1.8797279105e+000
 2.5913143995e-001	 1.3079067005e+000	-1.8812819702e+000
 2.4617613122e-001	 1.2425177416e+000	-2.3373639579e+000
 2.3361933929e-001	 1.2449397839e+000	-2.3509597983e+000
 2.2107792592e-001	 1.2472279816e+000	-2.3643463041e+000
 2.0855382488e-001	 1.2493832100e+000	-2.3774821340e+000
 1.9604893996e-001	 1.2514063776e+000	-2.3903205226e+000
 1.8356514439e-001	 1.2532984249e+000	-2.4028038211e+000
 1.7110428029e-001	 1.2550603232e+000	-2.4148581763e+000
 1.5866815818e-001	 1.2566930738e+000	-2.4263883874e+000
 1.4625855651e-001	 1.2581977067e+000	-2.4372729732e+000
 1.3387722125e-001	 1.2595752800e+000	-2.4473594830e+000
 1.2152586545e-001	 1.2608268783e+000	-2.4564600817e+000
 2.4747166209e-001	 1.2490566375e+000	-2.2811055442e+000
 2.3484878857e-001	 1.2514914261e+000	-2.2930981754e+000
 2.2224137453e-001	 1.2537916657e+000	-2.3050092147e+000
 2.0965136393e-001	 1.2559582362e+000	-2.3167964525e+000
 1.9708067059e-001	 1.2579920510e+000	-2.3284127191e+000
 1.8453117757e-001	 1.2598940554e+000	-2.3398002175e+000
 1.7200473671e-001	 1.2616652259e+000	-2.3508849984e+000
 1.5950316804e-001	 1.2633065690e+000	-2.3615716154e+000
 1.4702825938e-001	 1.2648191203e+000	-2.3717379954e+000
 1.3458176588e-001	 1.2662039432e+000	-2.3812305598e+000
 1.2216540962e-001	 1.2674621282e+000	-2.3898596255e+000
 2.4876719297e-001	 1.2555955334e+000	-2.2272086667e+000
 2.3607823785e-001	 1.2580430683e+000	-2.2376875552e+000
 2.2340482314e-001	 1.2603553498e+000	-2.2481955125e+000
 2.1074890299e-001	 1.2625332625e+000	-2.2586912673e+000
 1.9811240122e-001	 1.2645777244e+000	-2.2691290483e+000
 1.8549721076e-001	 1.2664896859e+000	-2.2794527034e+000
 1.7290519313e-001	 1.2682701286e+000	-2.2895899624e+000
 1.6033817790e-001	 1.2699200643e+000	-2.2994468830e+000
 1.4779796226e-001	 1.2714405338e+000	-2.3089025181e+000
 1.3528631052e-001	 1.2728326064e+000	-2.3178038391e+000
 1.2280495379e-001	 1.2740973780e+000	-2.3259609473e+000
 2.5006272384e-001	 1.2621344292e+000	-2.1756717965e+000
 2.3730768712e-001	 1.2645947105e+000	-2.1847189429e+000
 2.2456827176e-001	 1.2669190339e+000	-2.1938884465e+000
 2.1184644205e-001	 1.2691082887e+000	-2.2031418140e+000
 1.9914413184e-001	 1.2711633978e+000	-2.2124365116e+000
 1.8646324394e-001	 1.2730853165e+000	-2.2217198613e+000
 1.7380564955e-001	 1.2748750313e+000	-2.2309230838e+000
 1.6117318777e-001	 1.2765335595e+000	-2.2399555286e+000
 1.4856766513e-001	 1.2780619474e+000	-2.2486991301e+000
 1.3599085516e-001	 1.2794612696e+000	-2.2570031261e+000
 1.2344449797e-001	 1.2807326279e+000	-2.2646790727e+000
 2.5135825471e-001	 1.2686733251e+000	-2.1264954312e+000
 2.3853713640e-001	 1.2711463527e+000	-2.1341853897e+000
 2.2573172037e-001	 1.2734827179e+000	-2.1420733275e+000
 2.1294398111e-001	 1.2756833149e+000	-2.1501254049e+000
 2.0017586247e-001	 1.2777490712e+000	-2.1583042001e+000
 1.8742927713e-001	 1.2796809470e+000	-2.1665623754e+000
 1.7470610597e-001	 1.2814799340e+000	-2.1748364924e+000
 1.6200819763e-001	 1.2831470548e+000	-2.1830410178e+000
 1.4933736801e-001	 1.2846833609e+000	-2.1910625614e+000
 1.3669539980e-001	 1.2860899328e+000	-2.1987543827e+000
 1.2408404214e-001	 1.2873678778e+000	-2.2059312017e+000
 2.5265378559e-001	 1.2752122210e+000	-2.0796820588e+000
 2.3976658568e-001	 1.2776979948e+000	-2.0860819554e+000
 2.2689516898e-001	 1.2800464020e+000	-2.0927374912e+000
 2.1404152016e-001	 1.2822583412e+000	-2.0996213912e+000
 2.0120759310e-001	 1.2843347446e+000	-2.1067032568e+000
 1.8839531031e-001	 1.2862765775e+000	-2.1139429941e+000
 1.7560656239e-001	 1.2880848368e+000	-2.1212843934e+000
 1.6284320749e-001	 1.2897605500e+000	-2.1286489033e+000
 1.5010707088e-001	 1.2913047745e+000	-2.1359296421e+000
 1.3739994444e-001	 1.2927185960e+000	-2.1429856855e+000
 1.2472358632e-001	 1.2940031277e+000	-2.1496366655e+000
 2.5394931646e-001	 1.2817511169e+000	-2.0352361208e+000
 2.4099603496e-001	 1.2842496370e+000	-2.0404056726e+000
 2.2805861760e-001	 1.2866100861e+000	-2.0458702627e+000
 2.1513905922e-001	 1.2888333674e+000	-2.0516111276e+000
 2.0223932373e-001	 1.2909204180e+000	-2.0576068403e+000
 1.8936134350e-001	 1.2928722080e+000	-2.0638264926e+000
 1.7650701881e-001	 1.2946897395e+000	-2.0702230301e+000
 1.6367821736e-001	 1.2963740453e+000	-2.0767267869e+000
 1.5087677375e-001	 1.2979261880e+000	-2.0832392630e+000
 1.3810448908e-001	 1.2993472592e+000	-2.0896271846e+000
 1.2536313049e-001	 1.3006383776e+000	-2.0957168841e+000
 2.5524484733e-001	 1.2882900128e+000	-1.9931639771e+000
 2.4222548423e-001	 1.2908012792e+000	-1.9971555117e+000
 2.2922206621e-001	 1.2931737702e+000	-2.0014629213e+000
 2.1623659828e-001	 1.2954083936e+000	-2.0060779369e+000
 2.0327105436e-001	 1.2975060914e+000	-2.0109900897e+000
 1.9032737668e-001	 1.2994678385e+000	-2.0161796373e+000
 1.7740747523e-001	 1.3012946422e+000	-2.0216106469e+000
 1.6451322722e-001	 1.3029875405e+000	-2.0272242820e+000
 1.5164647663e-001	 1.3045476016e+000	-2.0329323374e+000
 1.3880903372e-001	 1.3059759223e+000	-2.0386110645e+000
 1.2600267467e-001	 1.3072736274e+000	-2.0440953256e+000
 2.5654037821e-001	 1.2948289087e+000	-1.9534738719e+000
 2.4345493351e-001	 1.2973529214e+000	-1.9563323469e+000
 2.3038551482e-001	 1.2997374543e+000	-1.9595086660e+000
 2.1733413734e-001	 1.3019834198e+000	-1.9630070759e+000
 2.0430278499e-001	 1.3040917647e+000	-1.9668300898e+000
 1.9129340987e-001	 1.3060634690e+000	-1.9709711509e+000
 1.7830793165e-001	 1.3078995449e+000	-1.9754074543e+000
 1.6534823709e-001	 1.3096010358e+000	-1.9800929772e+000
 1.5241617950e-001	 1.3111690152e+000	-1.9849517633e+000
 1.3951357836e-001	 1.3126045855e+000	-1.9898715056e+000
 1.2664221885e-001	 1.3139088773e+000	-1.9946974663e+000
 2.5783590908e-001	 1.3013678046e+000	-1.9161758991e+000
 2.4468438279e-001	 1.3039045635e+000	-1.9179389222e+000
 2.3154896344e-001	 1.3063011384e+000	-1.9200025830e+000
 2.1843167639e-001	 1.3085584461e+000	-1.9223857019e+000
 2.0533451562e-001	 1.3106774381e+000	-1.9251058377e+000
 1.9225944305e-001	 1.3126590995e+000	-1.9281716785e+000
 1.7920838807e-001	 1.3145044476e+000	-1.9315755941e+000
 1.6618324695e-001	 1.3162145310e+000	-1.9352864009e+000
 1.5318588237e-001	 1.3177904287e+000	-1.9392423877e+000
 1.4021812300e-001	 1.3192332487e+000	-1.9433446467e+000
 1.2728176302e-001	 1.3205441272e+000	-1.9474507519e+000
 2.5913143995e-001	 1.3079067005e+000	-1.8812819702e+000
 2.4591383207e-001	 1.3104562057e+000	-1.8819798194e+000
 2.3271241205e-001	 1.3128648225e+000	-1.8829416126e+000
 2.1952921545e-001	 1.3151334723e+000	-1.8842028404e+000
 2.0636624624e-001	 1.3172631115e+000	-1.8857982099e+000
 1.9322547623e-001	 1.3192547300e+000	-1.8877537543e+000
 1.8010884449e-001	 1.3211093503e+000	-1.8900791058e+000
 1.6701825681e-001	 1.3228280263e+000	-1.8927599875e+000
 1.5395558525e-001	 1.3244118423e+000	-1.8957509711e+000
 1.4092266764e-001	 1.3258619119e+000	-1.8989685487e+000
 1.2792130720e-001	 1.3271793771e+000	-1.9022845607e+000
 1.2152586545e-001	 1.2608268783e+000	-2.4564600817e+000
 1.0920432753e-001	 1.2619537719e+000	-2.4645357087e+000
 9.6916130827e-002	 1.2629568995e+000	-2.4717754710e+000
 8.4662913175e-002	 1.2638374207e+000	-2.4782634545e+000
 7.2446277499e-002	 1.2645965180e+000	-2.4840209953e+000
 6.0267791584e-002	 1.2652353951e+000	-2.4890038029e+000
 4.8128987889e-002	 1.2657552767e+000	-2.4930995023e+000
 3.6031363383e-002	 1.2661574067e+000	-2.4961256032e+000
 2.3976379426e-002	 1.2664430478e+000	-2.4978279020e+000
 1.1965461671e-002	 1.2666134800e+000	-2.4978793227e+000
 0.0000000000e+000	 1.2666700000e+000	-2.4958792668e+000
 1.2216540962e-001	 1.2674621282e+000	-2.3898596255e+000
 1.0977902816e-001	 1.2685949522e+000	-2.3975363960e+000
 9.7426163374e-002	 1.2696033588e+000	-2.4044062139e+000
 8.5108461721e-002	 1.2704885139e+000	-2.4105578825e+000
 7.2827534561e-002	 1.2712516060e+000	-2.4160152621e+000
 6.0584957931e-002	 1.2718938453e+000	-2.4207342645e+000
 4.8382272352e-002	 1.2724164628e+000	-2.4246002794e+000
 3.6220982672e-002	 1.2728207091e+000	-2.4274260419e+000
 2.4102557944e-002	 1.2731078534e+000	-2.4289499483e+000
 1.2028431321e-002	 1.2732791826e+000	-2.4288348229e+000
 0.0000000000e+000	 1.2733360000e+000	-2.4266671935e+000
 1.2280495379e-001	 1.2740973780e+000	-2.3259609473e+000
 1.1035372879e-001	 1.2752361324e+000	-2.3332326313e+000
 9.7936195922e-002	 1.2762498182e+000	-2.3397181572e+000
 8.5554010268e-002	 1.2771396072e+000	-2.3455131758e+000
 7.3208791624e-002	 1.2779066941e+000	-2.3506461764e+000
 6.0902124278e-002	 1.2785522956e+000	-2.3550753458e+000
 4.8635556815e-002	 1.2790776490e+000	-2.3586858711e+000
 3.6410601962e-002	 1.2794840115e+000	-2.3612877000e+000
 2.4228736462e-002	 1.2797726591e+000	-2.3626137617e+000
 1.2091400971e-002	 1.2799448851e+000	-2.3623186562e+000
 0.0000000000e+000	 1.2800020000e+000	-2.3599778515e+000
 1.2344449797e-001	 1.2807326279e+000	-2.2646790727e+000
 1.1092842942e-001	 1.2818773127e+000	-2.2715311205e+000
 9.8446228470e-002	 1.2828962776e+000	-2.2776105977e+000
 8.5999558815e-002	 1.2837907004e+000	-2.2830221567e+000
 7.3590048688e-002	 1.2845617821e+000	-2.2878010449e+000
 6.1219290625e-002	 1.2852107458e+000	-2.2919098186e+000
 4.8888841278e-002	 1.2857388352e+000	-2.2952355167e+000
 3.6600221253e-002	 1.2861473140e+000	-2.2975873049e+000
 2.4354914980e-002	 1.2864374647e+000	-2.2986945976e+000
 1.2154370621e-002	 1.2866105877e+000	-2.2982056616e+000
 0.0000000000e+000	 1.2866680000e+000	-2.2956867332e+000
 1.2408404214e-001	 1.2873678778e+000	-2.2059312017e+000
 1.1150313005e-001	 1.2885184930e+000	-2.2123407562e+000
 9.8956261018e-002	 1.2895427369e+000	-2.2179850172e+000
 8.6445107362e-002	 1.2904417936e+000	-2.2229798191e+000
 7.3971305751e-002	 1.2912168702e+000	-2.2273693200e+000
 6.1536456972e-002	 1.2918691960e+000	-2.2311225639e+000
 4.9142125742e-002	 1.2924000213e+000	-2.2341305170e+000
 3.6789840543e-002	 1.2928106164e+000	-2.2362035899e+000
 2.4481093498e-002	 1.2931022703e+000	-2.2370696525e+000
 1.2217340271e-002	 1.2932762902e+000	-2.2363725467e+000
 0.0000000000e+000	 1.2933340000e+000	-2.2336711209e+000
 1.2472358632e-001	 1.2940031277e+000	-2.1496366655e+000
 1.1207783068e-001	 1.2951596733e+000	-2.1555725730e+000
 9.9466293567e-002	 1.2961891963e+000	-2.1607450375e+000
 8.6890655910e-002	 1.2970928868e+000	-2.1652832815e+000
 7.4352562815e-002	 1.2978719582e+000	-2.1692425521e+000
 6.1853623320e-002	 1.2985276462e+000	-2.1726005231e+000
 4.9395410206e-002	 1.2990612075e+000	-2.1752541867e+000
 3.6979459834e-002	 1.2994739188e+000	-2.1770172459e+000
 2.4607272017e-002	 1.2997670760e+000	-2.1776180161e+000
 1.2280309921e-002	 1.2999419928e+000	-2.1766978414e+000
 0.0000000000e+000	 1.3000000000e+000	-2.1738100409e+000
 1.2536313049e-001	 1.3006383776e+000	-2.0957168841e+000
 1.1265253131e-001	 1.3018008536e+000	-2.1011397038e+000
 9.9976326115e-002	 1.3028356557e+000	-2.1057963747e+000
 8.7336204458e-002	 1.3037439800e+000	-2.1098317411e+000
 7.4733819879e-002	 1.3045270463e+000	-2.1133143435e+000
 6.2170789668e-002	 1.3051860964e+000	-2.1162326524e+000
 4.9648694670e-002	 1.3057223936e+000	-2.1184918079e+000
 3.7169079125e-002	 1.3061372212e+000	-2.1199108751e+000
 2.4733450535e-002	 1.3064318816e+000	-2.1202206261e+000
 1.2343279571e-002	 1.3066076953e+000	-2.1190618519e+000
 0.0000000000e+000	 1.3066660000e+000	-2.1159842192e+000
 1.2600267467e-001	 1.3072736274e+000	-2.0440953256e+000
 1.1322723194e-001	 1.3084420339e+000	-2.0489573377e+000
 1.0048635866e-001	 1.3094821150e+000	-2.0530467968e+000
 8.7781753006e-002	 1.3103950732e+000	-2.0565264305e+000
 7.5115076943e-002	 1.3111821343e+000	-2.0594803039e+000
 6.2487956016e-002	 1.3118445467e+000	-2.0619098771e+000
 4.9901979134e-002	 1.3123835798e+000	-2.0637305845e+000
 3.7358698416e-002	 1.3128005236e+000	-2.0647689462e+000
 2.4859629054e-002	 1.3130966872e+000	-2.0647602226e+000
 1.2406249222e-002	 1.3132733979e+000	-2.0633466173e+000
 0.0000000000e+000	 1.3133320000e+000	-2.0600760378e+000
 1.2664221885e-001	 1.3139088773e+000	-1.9946974663e+000
 1.1380193258e-001	 1.3150832142e+000	-1.9989426788e+000
 1.0099639121e-001	 1.3161285744e+000	-2.0024060810e+000
 8.8227301555e-002	 1.3170461664e+000	-2.0052705740e+000
 7.5496334008e-002	 1.3178372224e+000	-2.0076380067e+000
 6.2805122364e-002	 1.3185029969e+000	-2.0095250484e+000
 5.0155263599e-002	 1.3190447659e+000	-2.0108595990e+000
 3.7548317707e-002	 1.3194638260e+000	-2.0114777504e+000
 2.4985807574e-002	 1.3197614929e+000	-2.0111213059e+000
 1.2469218872e-002	 1.3199391005e+000	-2.0094358667e+000
 0.0000000000e+000	 1.3199980000e+000	-2.0059694936e+000
 1.2728176302e-001	 1.3205441272e+000	-1.9474507519e+000
 1.1437663321e-001	 1.3217243945e+000	-1.9510149068e+000
 1.0150642376e-001	 1.3227750338e+000	-1.9537859733e+000
 8.8672850103e-002	 1.3236972597e+000	-1.9559693468e+000
 7.5877591073e-002	 1.3244923105e+000	-1.9576869475e+000
 6.3122288713e-002	 1.3251614471e+000	-1.9589729005e+000
 5.0408548064e-002	 1.3257059521e+000	-1.9597697699e+000
 3.7737936999e-002	 1.3261271284e+000	-1.9599253597e+000
 2.5111986093e-002	 1.3264262985e+000	-1.9591900936e+000
 1.2532188523e-002	 1.3266048030e+000	-1.9572149778e+000
 0.0000000000e+000	 1.3266640000e+000	-1.9535501574e+000
 1.2792130720e-001	 1.3271793771e+000	-1.9022845607e+000
 1.1495133384e-001	 1.3283655748e+000	-1.9050951379e+000
 1.0201645631e-001	 1.3294214931e+000	-1.9071001488e+000
 8.9118398652e-002	 1.3303483529e+000	-1.9085298339e+000
 7.6258848138e-002	 1.3311473985e+000	-1.9095285024e+000
 6.3439455063e-002	 1.3318198973e+000	-1.9101500103e+000
 5.0661832530e-002	 1.3323671383e+000	-1.9103538100e+000
 3.7927556291e-002	 1.3327904308e+000	-1.9100015851e+000
 2.5238164613e-002	 1.3330911041e+000	-1.9088544807e+000
 1.2595158174e-002	 1.3332705056e+000	-1.9065709369e+000
 0.0000000000e+000	 1.3333300000e+000	-1.9027052032e+000
 1.3333300000e+000	 0.0000000000e+000	 3.4774217764e+000
 1.3332705056e+000	 1.2595158174e-002	 3.4740756840e+000
 1.3330911041e+000	 2.5238164613e-002	 3.4699950640e+000
 1.3327904308e+000	 3.7927556291e-002	 3.4649676187e+000
 1.3323671383e+000	 5.0661832530e-002	 3.4587380878e+000
 1.3318198973e+000	 6.3439455063e-002	 3.4510097258e+000
 1.3311473985e+000	 7.6258848138e-002	 3.4414462745e+000
 1.3303483529e+000	 8.9118398652e-002	 3.4296743653e+000
 1.3294214931e+000	 1.0201645631e-001	 3.4152863604e+000
 1.3283655748e+000	 1.1495133384e-001	 3.3978436350e+000
 1.3271793771e+000	 1.2792130720e-001	 3.3768803009e+000
 1.3399970000e+000	 0.0000000000e+000	 3.4860254654e+000
 1.3399372081e+000	 1.2658137271e-002	 3.4829249694e+000
 1.3397569096e+000	 2.5364362062e-002	 3.4788682533e+000
 1.3394547329e+000	 3.8117204030e-002	 3.4736739592e+000
 1.3390293237e+000	 5.0915154992e-002	 3.4671254293e+000
 1.3384793464e+000	 6.3756668992e-002	 3.4589725647e+000
 1.3378034849e+000	 7.6640162398e-002	 3.4489338501e+000
 1.3370004439e+000	 8.9564014040e-002	 3.4366985402e+000
 1.3360689496e+000	 1.0252656537e-001	 3.4219290164e+000
 1.3350077513e+000	 1.1552612068e-001	 3.4042633189e+000
 1.3338156224e+000	 1.2856094731e-001	 3.3833178628e+000
 1.3466640000e+000	 0.0000000000e+000	 3.4940939848e+000
 1.3466039106e+000	 1.2721116369e-002	 3.4912184220e+000
 1.3464227150e+000	 2.5490559511e-002	 3.4871796190e+000
 1.3461190349e+000	 3.8306851769e-002	 3.4818171381e+000
 1.3456915091e+000	 5.1168477455e-002	 3.4749355248e+000
 1.3451387955e+000	 6.4073882921e-002	 3.4663061582e+000
 1.3444595713e+000	 7.7021476658e-002	 3.4556692637e+000
 1.3436525348e+000	 9.0009629427e-002	 3.4427360849e+000
 1.3427164060e+000	 1.0303667443e-001	 3.4271912246e+000
 1.3416499279e+000	 1.1610090753e-001	 3.4086951584e+000
 1.3404518676e+000	 1.2920058743e-001	 3.3868869304e+000
 1.3533310000e+000	 0.0000000000e+000	 3.5015839920e+000
 1.3532706131e+000	 1.2784095467e-002	 3.4989166950e+000
 1.3530885205e+000	 2.5616756960e-002	 3.4948958102e+000
 1.3527833369e+000	 3.8496499508e-002	 3.4893818528e+000
 1.3523536946e+000	 5.1421799918e-002	 3.4822005521e+000
 1.3517982446e+000	 6.4391096851e-002	 3.4731446899e+000
 1.3511156578e+000	 7.7402790918e-002	 3.4619760987e+000
 1.3503046258e+000	 9.0455244815e-002	 3.4484278171e+000
 1.3493638625e+000	 1.0354678350e-001	 3.4322064113e+000
 1.3482921045e+000	 1.1667569437e-001	 3.4129944678e+000
 1.3470881129e+000	 1.2984022754e-001	 3.3904532659e+000
 1.3599980000e+000	 0.0000000000e+000	 3.5084520824e+000
 1.3599373156e+000	 1.2847074565e-002	 3.5059803373e+000
 1.3597543260e+000	 2.5742954410e-002	 3.5019802288e+000
 1.3594476389e+000	 3.8686147247e-002	 3.4963332553e+000
 1.3590158800e+000	 5.1675122381e-002	 3.4888863078e+000
 1.3584576937e+000	 6.4708310781e-002	 3.4794534954e+000
 1.3577717442e+000	 7.7784105178e-002	 3.4678181251e+000
 1.3569567168e+000	 9.0900860203e-002	 3.4537348386e+000
 1.3560113189e+000	 1.0405689256e-001	 3.4369319111e+000
 1.3549342811e+000	 1.1725048121e-001	 3.4171137203e+000
 1.3537243582e+000	 1.3047986766e-001	 3.3939633926e+000
 1.3666650000e+000	 0.0000000000e+000	 3.5146547907e+000
 1.3666040181e+000	 1.2910053663e-002	 3.5123698589e+000
 1.3664201314e+000	 2.5869151860e-002	 3.5083962737e+000
 1.3661119409e+000	 3.8875794986e-002	 3.5026365431e+000
 1.3656780655e+000	 5.1928444845e-002	 3.4949586971e+000
 1.3651171428e+000	 6.5025524711e-002	 3.4851980955e+000
 1.3644278306e+000	 7.8165419438e-002	 3.4731593888e+000
 1.3636088078e+000	 9.1346475591e-002	 3.4586186320e+000
 1.3626587754e+000	 1.0456700162e-001	 3.4413255589e+000
 1.3615764576e+000	 1.1782526806e-001	 3.4210060234e+000
 1.3603606034e+000	 1.3111950777e-001	 3.3973646177e+000
 1.3733320000e+000	 0.0000000000e+000	 3.5201485926e+000
 1.3732707206e+000	 1.2973032761e-002	 3.5180457344e+000
 1.3730859369e+000	 2.5995349309e-002	 3.5141073441e+000
 1.3727762429e+000	 3.9065442726e-002	 3.5082569634e+000
 1.3723402509e+000	 5.2181767308e-002	 3.5003837365e+000
 1.3717765919e+000	 6.5342738641e-002	 3.4903441982e+000
 1.3710839170e+000	 7.8546733698e-002	 3.4779642121e+000
 1.3702608988e+000	 9.1792090979e-002	 3.4630410598e+000
 1.3693062318e+000	 1.0507711068e-001	 3.4453456866e+000
 1.3682186342e+000	 1.1840005490e-001	 3.4246251139e+000
 1.3669968487e+000	 1.3175914789e-001	 3.4006050240e+000
 1.3799990000e+000	 0.0000000000e+000	 3.5248899062e+000
 1.3799374232e+000	 1.3036011859e-002	 3.5229684049e+000
 1.3797517423e+000	 2.6121546759e-002	 3.5190768424e+000
 1.3794405449e+000	 3.9255090465e-002	 3.5131598158e+000
 1.3790024363e+000	 5.2435089771e-002	 3.5051275574e+000
 1.3784360410e+000	 6.5659952571e-002	 3.4948577010e+000
 1.3777400035e+000	 7.8928047958e-002	 3.4821971951e+000
 1.3769129898e+000	 9.2237706366e-002	 3.4669643635e+000
 1.3759536882e+000	 1.0558721974e-001	 3.4489511210e+000
 1.3748608108e+000	 1.1897484175e-001	 3.4279253520e+000
 1.3736330940e+000	 1.3239878800e-001	 3.4036334606e+000
 1.3866660000e+000	 0.0000000000e+000	 3.5288350933e+000
 1.3866041257e+000	 1.3098990957e-002	 3.5270982808e+000
 1.3864175478e+000	 2.6247744208e-002	 3.5232681779e+000
 1.3861048470e+000	 3.9444738204e-002	 3.5173104560e+000
 1.3856646218e+000	 5.2688412234e-002	 3.5091564087e+000
 1.3850954901e+000	 6.5977166500e-002	 3.4987046935e+000
 1.3843960899e+000	 7.9309362218e-002	 3.4858232167e+000
 1.3835650807e+000	 9.2683321754e-002	 3.4703511635e+000
 1.3826011447e+000	 1.0609732880e-001	 3.4521011801e+000
 1.3815029874e+000	 1.1954962859e-001	 3.4308617157e+000
 1.3802693393e+000	 1.3303842812e-001	 3.4063995349e+000
 1.3933330000e+000	 0.0000000000e+000	 3.5319404608e+000
 1.3932708282e+000	 1.3161970055e-002	 3.5303957442e+000
 1.3930833533e+000	 2.6373941657e-002	 3.5266447691e+000
 1.3927691490e+000	 3.9634385943e-002	 3.5206742986e+000
 1.3923268072e+000	 5.2941734697e-002	 3.5124366597e+000
 1.3917549391e+000	 6.6294380430e-002	 3.5018514587e+000
 1.3910521763e+000	 7.9690676477e-002	 3.4888074351e+000
 1.3902171717e+000	 9.3128937142e-002	 3.4731644578e+000
 1.3892486011e+000	 1.0660743786e-001	 3.4547556706e+000
 1.3881451639e+000	 1.2012441543e-001	 3.4333897959e+000
 1.3869055845e+000	 1.3367806823e-001	 3.4088536039e+000
 1.4000000000e+000	 0.0000000000e+000	 3.5341622620e+000
 1.3999375307e+000	 1.3224949153e-002	 3.5328211510e+000
 1.3997491587e+000	 2.6500139106e-002	 3.5291700473e+000
 1.3994334510e+000	 3.9824033681e-002	 3.5232168204e+000
 1.3989889927e+000	 5.3195057159e-002	 3.5149348031e+000
 1.3984143882e+000	 6.6611594359e-002	 3.5042644760e+000
 1.3977082627e+000	 8.0071990737e-002	 3.4911152892e+000
 1.3968692627e+000	 9.3574552529e-002	 3.4753676213e+000
 1.3958960576e+000	 1.0711754693e-001	 3.4568748854e+000
 1.3947873405e+000	 1.2069920228e-001	 3.4354657905e+000
 1.3935418298e+000	 1.3431770835e-001	 3.4109467663e+000
 1.3271793771e+000	 1.2792130720e-001	 3.3768803009e+000
 1.3258619119e+000	 1.4092266764e-001	 3.3535709352e+000
 1.3244118423e+000	 1.5395558525e-001	 3.3292507503e+000
 1.3228280263e+000	 1.6701825681e-001	 3.3036717425e+000
 1.3211093503e+000	 1.8010884449e-001	 3.2765693157e+000
 1.3192547300e+000	 1.9322547623e-001	 3.2476674898e+000
 1.3172631115e+000	 2.0636624624e-001	 3.2166844869e+000
 1.3151334723e+000	 2.1952921545e-001	 3.1833386737e+000
 1.3128648225e+000	 2.3271241205e-001	 3.1473548356e+000
 1.3104562057e+000	 2.4591383207e-001	 3.1084707545e+000
 1.3079067005e+000	 2.5913143995e-001	 3.0664440584e+000
 1.3338156224e+000	 1.2856094731e-001	 3.3833178628e+000
 1.3324915695e+000	 1.4162731797e-001	 3.3602329767e+000
 1.3310342491e+000	 1.5472540359e-001	 3.3361092333e+000
 1.3294425136e+000	 1.6785339194e-001	 3.3106713689e+000
 1.3277152438e+000	 1.8100943599e-001	 3.2836459264e+000
 1.3258513500e+000	 1.9419165434e-001	 3.2547458816e+000
 1.3238497729e+000	 2.0739813165e-001	 3.2236763650e+000
 1.3217094849e+000	 2.2062691915e-001	 3.1901407544e+000
 1.3194294912e+000	 2.3387603520e-001	 3.1538471133e+000
 1.3170088308e+000	 2.4714346578e-001	 3.1145149470e+000
 1.3144465773e+000	 2.6042716518e-001	 3.0718822430e+000
 1.3404518676e+000	 1.2920058743e-001	 3.3868869304e+000
 1.3391212271e+000	 1.4233196830e-001	 3.3629056635e+000
 1.3376566560e+000	 1.5549522193e-001	 3.3380321852e+000
 1.3360570010e+000	 1.6868852707e-001	 3.3120982798e+000
 1.3343211374e+000	 1.8191002749e-001	 3.2849166316e+000
 1.3324479699e+000	 1.9515783244e-001	 3.2562301580e+000
 1.3304364342e+000	 2.0843001705e-001	 3.2253872407e+000
 1.3282854975e+000	 2.2172462286e-001	 3.1919974608e+000
 1.3259941599e+000	 2.3503965835e-001	 3.1557517281e+000
 1.3235614558e+000	 2.4837309949e-001	 3.1163508598e+000
 1.3209864542e+000	 2.6172289040e-001	 3.0735128182e+000
 1.3470881129e+000	 1.2984022754e-001	 3.3904532659e+000
 1.3457508847e+000	 1.4303661863e-001	 3.3656659730e+000
 1.3442790629e+000	 1.5626504027e-001	 3.3398472519e+000
 1.3426714884e+000	 1.6952366219e-001	 3.3128357214e+000
 1.3409270309e+000	 1.8281061899e-001	 3.2844502202e+000
 1.3390445899e+000	 1.9612401054e-001	 3.2544928757e+000
 1.3370230955e+000	 2.0946190245e-001	 3.2227524054e+000
 1.3348615101e+000	 2.2282232656e-001	 3.1890076601e+000
 1.3325588287e+000	 2.3620328149e-001	 3.1529930892e+000
 1.3301140808e+000	 2.4960273321e-001	 3.1139036269e+000
 1.3275263310e+000	 2.6301861562e-001	 3.0712628135e+000
 1.3537243582e+000	 1.3047986766e-001	 3.3939633926e+000
 1.3523805423e+000	 1.4374126896e-001	 3.3685049287e+000
 1.3509014698e+000	 1.5703485861e-001	 3.3418841109e+000
 1.3492859758e+000	 1.7035879732e-001	 3.3139466883e+000
 1.3475329245e+000	 1.8371121049e-001	 3.2845180202e+000
 1.3456412098e+000	 1.9709018864e-001	 3.2534061211e+000
 1.3436097569e+000	 2.1049378785e-001	 3.2204049395e+000
 1.3414375226e+000	 2.2392003026e-001	 3.1852978809e+000
 1.3391234974e+000	 2.3736690464e-001	 3.1478615870e+000
 1.3366667058e+000	 2.5083236692e-001	 3.1078699810e+000
 1.3340662078e+000	 2.6431434084e-001	 3.0650985917e+000
 1.3603606034e+000	 1.3111950777e-001	 3.3973646177e+000
 1.3590101999e+000	 1.4444591929e-001	 3.3713638557e+000
 1.3575238766e+000	 1.5780467694e-001	 3.3440788096e+000
 1.3559004631e+000	 1.7119393244e-001	 3.3153626587e+000
 1.3541388180e+000	 1.8461180199e-001	 3.2850476524e+000
 1.3522378298e+000	 1.9805636675e-001	 3.2529481309e+000
 1.3501964182e+000	 2.1152567325e-001	 3.2188637804e+000
 1.3480135352e+000	 2.2501773397e-001	 3.1825831352e+000
 1.3456881662e+000	 2.3853052779e-001	 3.1438873372e+000
 1.3432193308e+000	 2.5206200063e-001	 3.1025541655e+000
 1.3406060847e+000	 2.6561006606e-001	 3.0583623482e+000
 1.3669968487e+000	 1.3175914789e-001	 3.4006050240e+000
 1.3656398575e+000	 1.4515056962e-001	 3.3741849979e+000
 1.3641462835e+000	 1.5857449528e-001	 3.3463684392e+000
 1.3625149505e+000	 1.7202906757e-001	 3.3170162605e+000
 1.3607447116e+000	 1.8551239349e-001	 3.2859679744e+000
 1.3588344498e+000	 1.9902254485e-001	 3.2530446887e+000
 1.3567830796e+000	 2.1255755865e-001	 3.2180523370e+000
 1.3545895478e+000	 2.2611543767e-001	 3.1807851580e+000
 1.3522528349e+000	 2.3969415093e-001	 3.1410294349e+000
 1.3497719559e+000	 2.5329163434e-001	 3.0985675074e+000
 1.3471459615e+000	 2.6690579128e-001	 3.0531820693e+000
 1.3736330940e+000	 1.3239878800e-001	 3.4036334606e+000
 1.3722695151e+000	 1.4585521995e-001	 3.3769115069e+000
 1.3707686904e+000	 1.5934431362e-001	 3.3486911200e+000
 1.3691294379e+000	 1.7286420269e-001	 3.3188412540e+000
 1.3673506051e+000	 1.8641298499e-001	 3.2872090616e+000
 1.3654310697e+000	 1.9998872295e-001	 3.2536228635e+000
 1.3633697409e+000	 2.1358944405e-001	 3.2178953534e+000
 1.3611655604e+000	 2.2721314137e-001	 3.1798270529e+000
 1.3588175036e+000	 2.4085777408e-001	 3.1392100292e+000
 1.3563245809e+000	 2.5452126805e-001	 3.0958318885e+000
 1.3536858383e+000	 2.6820151650e-001	 3.0494800571e+000
 1.3802693393e+000	 1.3303842812e-001	 3.4063995349e+000
 1.3788991727e+000	 1.4655987028e-001	 3.3794874297e+000
 1.3773910972e+000	 1.6011413196e-001	 3.3509859873e+000
 1.3757439253e+000	 1.7369933782e-001	 3.3207725154e+000
 1.3739564986e+000	 1.8731357649e-001	 3.2887021884e+000
 1.3720276897e+000	 2.0095490105e-001	 3.2546109892e+000
 1.3699564022e+000	 2.1462132946e-001	 3.2183188876e+000
 1.3677415730e+000	 2.2831084507e-001	 3.1796332695e+000
 1.3653821724e+000	 2.4202139722e-001	 3.1383526316e+000
 1.3628772059e+000	 2.5575090176e-001	 3.0942705535e+000
 1.3602257151e+000	 2.6949724172e-001	 3.0471799618e+000
 1.3869055845e+000	 1.3367806823e-001	 3.4088536039e+000
 1.3855288304e+000	 1.4726452061e-001	 3.3818576977e+000
 1.3840135041e+000	 1.6088395030e-001	 3.3531931771e+000
 1.3823584126e+000	 1.7453447294e-001	 3.3227460204e+000
 1.3805623922e+000	 1.8821416799e-001	 3.2903798100e+000
 1.3786243096e+000	 2.0192107915e-001	 3.2559386447e+000
 1.3765430636e+000	 2.1565321486e-001	 3.2192502901e+000
 1.3743175856e+000	 2.2940854877e-001	 3.1801295815e+000
 1.3719468411e+000	 2.4318502037e-001	 3.1383820929e+000
 1.3694298309e+000	 2.5698053547e-001	 3.0938080867e+000
 1.3667655920e+000	 2.7079296694e-001	 3.0462067588e+000
 1.3935418298e+000	 1.3431770835e-001	 3.4109467663e+000
 1.3921584880e+000	 1.4796917094e-001	 3.3839681158e+000
 1.3906359110e+000	 1.6165376864e-001	 3.3552538125e+000
 1.3889729000e+000	 1.7536960807e-001	 3.3246988283e+000
 1.3871682857e+000	 1.8911475949e-001	 3.2921755447e+000
 1.3852209296e+000	 2.0288725725e-001	 3.2575366345e+000
 1.3831297249e+000	 2.1668510026e-001	 3.2206181837e+000
 1.3808935982e+000	 2.3050625248e-001	 3.1812430653e+000
 1.3785115099e+000	 2.4434864351e-001	 3.1392245818e+000
 1.3759824560e+000	 2.5821016918e-001	 3.0943703905e+000
 1.3733054688e+000	 2.7208869216e-001	 3.0464867274e+000
 1.3079067005e+000	 2.5913143995e-001	 3.0664440584e+000
 1.3052150068e+000	 2.7236515463e-001	 3.0211015436e+000
 1.3023806482e+000	 2.8561089417e-001	 2.9725299519e+000
 1.2994028142e+000	 2.9886652818e-001	 2.9209084152e+000
 1.2962807336e+000	 3.1212989743e-001	 2.8664645452e+000
 1.2930136750e+000	 3.2539881461e-001	 2.8094815285e+000
 1.2896009480e+000	 3.3867106518e-001	 2.7503052219e+000
 1.2860419042e+000	 3.5194440822e-001	 2.6893511945e+000
 1.2823359378e+000	 3.6521657738e-001	 2.6271116612e+000
 1.2784824874e+000	 3.7848528178e-001	 2.5641622484e+000
 1.2744810358e+000	 3.9174820702e-001	 2.5011685345e+000
 1.3144465773e+000	 2.6042716518e-001	 3.0718822430e+000
 1.3117414245e+000	 2.7372705190e-001	 3.0257413053e+000
 1.3088928933e+000	 2.8703902361e-001	 2.9761769247e+000
 1.3059001694e+000	 3.0036093928e-001	 2.9233960957e+000
 1.3027624776e+000	 3.1369062886e-001	 2.8676542912e+000
 1.2994790828e+000	 3.2702589410e-001	 2.8092627197e+000
 1.2960492913e+000	 3.4036450940e-001	 2.7485955846e+000
 1.2924724513e+000	 3.5370422265e-001	 2.6860972934e+000
 1.2887479541e+000	 3.6704275613e-001	 2.6222895572e+000
 1.2848752354e+000	 3.8037780754e-001	 2.5577783233e+000
 1.2808537755e+000	 3.9370705089e-001	 2.4932604776e+000
 1.3209864542e+000	 2.6172289040e-001	 3.0735128182e+000
 1.3182678421e+000	 2.7508894917e-001	 3.0269936361e+000
 1.3154051384e+000	 2.8846715306e-001	 2.9768686456e+000
 1.3123975245e+000	 3.0185535037e-001	 2.9233638499e+000
 1.3092442215e+000	 3.1525136028e-001	 2.8667536297e+000
 1.3059444906e+000	 3.2865297359e-001	 2.8073681794e+000
 1.3024976346e+000	 3.4205795363e-001	 2.7456009502e+000
 1.2989029984e+000	 3.5546403707e-001	 2.6819160451e+000
 1.2951599705e+000	 3.6886893489e-001	 2.6168555054e+000
 1.2912679834e+000	 3.8227033330e-001	 2.5510464286e+000
 1.2872265152e+000	 3.9566589476e-001	 2.4852078554e+000
 1.3275263310e+000	 2.6301861562e-001	 3.0712628135e+000
 1.3247942598e+000	 2.7645084644e-001	 3.0247881625e+000
 1.3219173835e+000	 2.8989528250e-001	 2.9745376502e+000
 1.3188948797e+000	 3.0334976146e-001	 2.9207475105e+000
 1.3157259654e+000	 3.1681209170e-001	 2.8637021536e+000
 1.3124098984e+000	 3.3028005308e-001	 2.8037418005e+000
 1.3089459778e+000	 3.4375139786e-001	 2.7412701282e+000
 1.3053335455e+000	 3.5722385150e-001	 2.6767618695e+000
 1.3015719868e+000	 3.7069511365e-001	 2.6107703069e+000
 1.2976607315e+000	 3.8416285906e-001	 2.5439345967e+000
 1.2935992550e+000	 3.9762473863e-001	 2.4769868598e+000
 1.3340662078e+000	 2.6431434084e-001	 3.0650985917e+000
 1.3313206774e+000	 2.7781274371e-001	 3.0190550308e+000
 1.3284296286e+000	 2.9132341194e-001	 2.9691170342e+000
 1.3253922349e+000	 3.0484417256e-001	 2.9154835110e+000
 1.3222077094e+000	 3.1837282312e-001	 2.8584400966e+000
 1.3188753062e+000	 3.3190713258e-001	 2.7983281523e+000
 1.3153943211e+000	 3.4544484209e-001	 2.7355526322e+000
 1.3117640926e+000	 3.5898366593e-001	 2.6705899080e+000
 1.3079840031e+000	 3.7252129240e-001	 2.6039954893e+000
 1.3040534795e+000	 3.8605538483e-001	 2.5364115745e+000
 1.2999719947e+000	 3.9958358250e-001	 2.4685743671e+000
 1.3406060847e+000	 2.6561006606e-001	 3.0583623482e+000
 1.3378470951e+000	 2.7917464098e-001	 3.0110512105e+000
 1.3349418737e+000	 2.9275154139e-001	 2.9607076535e+000
 1.3318895900e+000	 3.0633858365e-001	 2.9075088904e+000
 1.3286894533e+000	 3.1993355454e-001	 2.8509083398e+000
 1.3253407140e+000	 3.3353421207e-001	 2.7910724891e+000
 1.3218426644e+000	 3.4713828631e-001	 2.7283986920e+000
 1.3181946397e+000	 3.6074348035e-001	 2.6633560392e+000
 1.3143960194e+000	 3.7434747116e-001	 2.5964933251e+000
 1.3104462276e+000	 3.8794791059e-001	 2.5284468466e+000
 1.3063447344e+000	 4.0154242637e-001	 2.4599479648e+000
 1.3471459615e+000	 2.6690579128e-001	 3.0531820693e+000
 1.3443735128e+000	 2.8053653824e-001	 3.0045904231e+000
 1.3414541189e+000	 2.9417967083e-001	 2.9528630654e+000
 1.3383869452e+000	 3.0783299474e-001	 2.8983068805e+000
 1.3351711973e+000	 3.2149428596e-001	 2.8412492866e+000
 1.3318061218e+000	 3.3516129155e-001	 2.7819207603e+000
 1.3282910076e+000	 3.4883173054e-001	 2.7197592661e+000
 1.3246251868e+000	 3.6250329478e-001	 2.6550168944e+000
 1.3208080357e+000	 3.7617364992e-001	 2.5882268514e+000
 1.3168389756e+000	 3.8984043635e-001	 2.5200106582e+000
 1.3127174742e+000	 4.0350127024e-001	 2.4510859794e+000
 1.3536858383e+000	 2.6820151650e-001	 3.0494800571e+000
 1.3508999304e+000	 2.8189843551e-001	 2.9998471415e+000
 1.3479663640e+000	 2.9560780027e-001	 2.9469792932e+000
 1.3448843003e+000	 3.0932740584e-001	 2.8911870871e+000
 1.3416529412e+000	 3.2305501738e-001	 2.8328006698e+000
 1.3382715296e+000	 3.3678837104e-001	 2.7721748183e+000
 1.3347393509e+000	 3.5052517477e-001	 2.7096943361e+000
 1.3310557339e+000	 3.6426310920e-001	 2.6455298739e+000
 1.3272200520e+000	 3.7799982867e-001	 2.5791598893e+000
 1.3232317236e+000	 3.9173296211e-001	 2.5110740388e+000
 1.3190902139e+000	 4.0546011411e-001	 2.4419675041e+000
 1.3602257151e+000	 2.6949724172e-001	 3.0471799618e+000
 1.3574263481e+000	 2.8326033278e-001	 2.9967457083e+000
 1.3544786091e+000	 2.9703592971e-001	 2.9429813468e+000
 1.3513816555e+000	 3.1082181693e-001	 2.8861941944e+000
 1.3481346852e+000	 3.2461574880e-001	 2.8267100862e+000
 1.3447369374e+000	 3.3841545053e-001	 2.7648784380e+000
 1.3411876941e+000	 3.5221861899e-001	 2.7010776564e+000
 1.3374862810e+000	 3.6602292363e-001	 2.6357209030e+000
 1.3336320683e+000	 3.7982600743e-001	 2.5692622220e+000
 1.3296244717e+000	 3.9362548787e-001	 2.5016088256e+000
 1.3254629536e+000	 4.0741895798e-001	 2.4325724260e+000
 1.3667655920e+000	 2.7079296694e-001	 3.0462067588e+000
 1.3639527657e+000	 2.8462223005e-001	 2.9952117705e+000
 1.3609908542e+000	 2.9846405916e-001	 2.9407955179e+000
 1.3578790107e+000	 3.1231622802e-001	 2.8832552211e+000
 1.3546164291e+000	 3.2617648022e-001	 2.8229054719e+000
 1.3512023452e+000	 3.4004253002e-001	 2.7600833095e+000
 1.3476360374e+000	 3.5391206322e-001	 2.6951536528e+000
 1.3439168281e+000	 3.6778273806e-001	 2.6285150955e+000
 1.3400440846e+000	 3.8165218618e-001	 2.5606060773e+000
 1.3360172197e+000	 3.9551801363e-001	 2.4919114337e+000
 1.3318356934e+000	 4.0937780185e-001	 2.4228814543e+000
 1.3733054688e+000	 2.7208869216e-001	 3.0464867274e+000
 1.3704791834e+000	 2.8598412731e-001	 2.9951722571e+000
 1.3675030993e+000	 2.9989218860e-001	 2.9403493589e+000
 1.3643763658e+000	 3.1381063911e-001	 2.8822984228e+000
 1.3610981730e+000	 3.2773721164e-001	 2.8213159725e+000
 1.3576677530e+000	 3.4166960951e-001	 2.7577197628e+000
 1.3540843807e+000	 3.5560550744e-001	 2.6918542407e+000
 1.3503473752e+000	 3.6954255248e-001	 2.6240963825e+000
 1.3464561009e+000	 3.8347836494e-001	 2.5548619154e+000
 1.3424099678e+000	 3.9741053939e-001	 2.4846119316e+000
 1.3382084331e+000	 4.1133664571e-001	 2.4138599015e+000
 1.2744810358e+000	 3.9174820702e-001	 2.5011685345e+000
 1.2703311115e+000	 4.0500301600e-001	 2.4374072022e+000
 1.2660322882e+000	 4.1824734936e-001	 2.3716234596e+000
 1.2615841866e+000	 4.3147882712e-001	 2.3038445209e+000
 1.2569864756e+000	 4.4469505000e-001	 2.2342198284e+000
 1.2522388732e+000	 4.5789360059e-001	 2.1630274017e+000
 1.2473411471e+000	 4.7107204451e-001	 2.0906796055e+000
 1.2422931153e+000	 4.8422793165e-001	 2.0177282718e+000
 1.2370946472e+000	 4.9735879742e-001	 1.9448691133e+000
 1.2317456639e+000	 5.1046216404e-001	 1.8729453681e+000
 1.2262461389e+000	 5.2353554182e-001	 1.8029506159e+000
 1.2808537755e+000	 3.9370705089e-001	 2.4932604776e+000
 1.2766831005e+000	 4.0702813740e-001	 2.4281214633e+000
 1.2723627819e+000	 4.2033869590e-001	 2.3611605255e+000
 1.2678924387e+000	 4.3363633452e-001	 2.2923568022e+000
 1.2632717380e+000	 4.4691864199e-001	 2.2218143962e+000
 1.2585003963e+000	 4.6018318879e-001	 2.1497690252e+000
 1.2535781802e+000	 4.7342752839e-001	 2.0765940787e+000
 1.2485049070e+000	 4.8664919842e-001	 2.0028060152e+000
 1.2432804452e+000	 4.9984572197e-001	 1.9290690340e+000
 1.2379047155e+000	 5.1301460885e-001	 1.8561989596e+000
 1.2323776915e+000	 5.2615335696e-001	 1.7851662773e+000
 1.2872265152e+000	 3.9566589476e-001	 2.4852078554e+000
 1.2830350895e+000	 4.0905325879e-001	 2.4188371054e+000
 1.2786932757e+000	 4.2243004243e-001	 2.3508020461e+000
 1.2742006908e+000	 4.3579384191e-001	 2.2810418635e+000
 1.2695570003e+000	 4.4914223397e-001	 2.2096235009e+000
 1.2647619194e+000	 4.6247277699e-001	 2.1367486026e+000
 1.2598152134e+000	 4.7578301227e-001	 2.0627598518e+000
 1.2547166987e+000	 4.8907046519e-001	 1.9881466329e+000
 1.2494662431e+000	 5.0233264651e-001	 1.9135499525e+000
 1.2440637672e+000	 5.1556705367e-001	 1.8397665531e+000
 1.2385092441e+000	 5.2877117210e-001	 1.7677521572e+000
 1.2935992550e+000	 3.9762473863e-001	 2.4769868598e+000
 1.2893870785e+000	 4.1107838018e-001	 2.4095384740e+000
 1.2850237695e+000	 4.2452138897e-001	 2.3405394095e+000
 1.2805089429e+000	 4.3795134931e-001	 2.2698968475e+000
 1.2758422626e+000	 4.5136582595e-001	 2.1976485772e+000
 1.2710234425e+000	 4.6476236519e-001	 2.1239702245e+000
 1.2660522466e+000	 4.7813849615e-001	 2.0491818624e+000
 1.2609284903e+000	 4.9149173196e-001	 1.9737539306e+000
 1.2556520411e+000	 5.0481957106e-001	 1.8983123956e+000
 1.2502228189e+000	 5.1811949849e-001	 1.8236430842e+000
 1.2446407967e+000	 5.3138898724e-001	 1.7506951252e+000
 1.2999719947e+000	 3.9958358250e-001	 2.4685743671e+000
 1.2957390676e+000	 4.1310350158e-001	 2.4002105666e+000
 1.2913542633e+000	 4.2661273551e-001	 2.3303646410e+000
 1.2868171950e+000	 4.4010885671e-001	 2.2589195406e+000
 1.2821275250e+000	 4.5358941793e-001	 2.1858917323e+000
 1.2772849655e+000	 4.6705195340e-001	 2.1114387070e+000
 1.2722892797e+000	 4.8049398003e-001	 2.0358658540e+000
 1.2671402820e+000	 4.9391299873e-001	 1.9596326295e+000
 1.2618378391e+000	 5.0730649560e-001	 1.8833579466e+000
 1.2563818705e+000	 5.2067194331e-001	 1.8078247192e+000
 1.2507723493e+000	 5.3400680237e-001	 1.7339834916e+000
 1.3063447344e+000	 4.0154242637e-001	 2.4599479648e+000
 1.3020910566e+000	 4.1512862297e-001	 2.3908390637e+000
 1.2976847571e+000	 4.2870408204e-001	 2.3202704389e+000
 1.2931254471e+000	 4.4226636411e-001	 2.2481084114e+000
 1.2884127873e+000	 4.5581300992e-001	 2.1743557872e+000
 1.2835464886e+000	 4.6934154160e-001	 2.0991596358e+000
 1.2785263129e+000	 4.8284946391e-001	 2.0228184213e+000
 1.2733520737e+000	 4.9633426550e-001	 1.9457884114e+000
 1.2680236371e+000	 5.0979342015e-001	 1.8686892892e+000
 1.2625409222e+000	 5.2322438812e-001	 1.7923088976e+000
 1.2569039019e+000	 5.3662461751e-001	 1.7176070470e+000
 1.3127174742e+000	 4.0350127024e-001	 2.4510859794e+000
 1.3084430456e+000	 4.1715374436e-001	 2.3814103611e+000
 1.3040152508e+000	 4.3079542858e-001	 2.3102502100e+000
 1.2994336992e+000	 4.4442387151e-001	 2.2374626499e+000
 1.2946980496e+000	 4.5803660190e-001	 2.1630443181e+000
 1.2898080117e+000	 4.7163112980e-001	 2.0871394089e+000
 1.2847633461e+000	 4.8520494779e-001	 2.0100470538e+000
 1.2795638654e+000	 4.9875553227e-001	 1.9322279633e+000
 1.2742094350e+000	 5.1228034469e-001	 1.8543102520e+000
 1.2686999738e+000	 5.2577683294e-001	 1.7770943746e+000
 1.2630354545e+000	 5.3924243265e-001	 1.7015571019e+000
 1.3190902139e+000	 4.0546011411e-001	 2.4419675041e+000
 1.3147950346e+000	 4.1917886576e-001	 2.3719116014e+000
 1.3103457446e+000	 4.3288677512e-001	 2.3002981054e+000
 1.3057419513e+000	 4.4658137891e-001	 2.2269822061e+000
 1.3009833120e+000	 4.6026019388e-001	 2.1519616979e+000
 1.2960695348e+000	 4.7392071800e-001	 2.0753852802e+000
 1.2910003792e+000	 4.8756043167e-001	 1.9975601808e+000
 1.2857756571e+000	 5.0117679904e-001	 1.9189590222e+000
 1.2803952330e+000	 5.1476726924e-001	 1.8402258522e+000
 1.2748590255e+000	 5.2832927776e-001	 1.7621812632e+000
 1.2691670070e+000	 5.4186024779e-001	 1.6858265269e+000
 1.3254629536e+000	 4.0741895798e-001	 2.4325724260e+000
 1.3211470236e+000	 4.2120398715e-001	 2.3623307059e+000
 1.3166762384e+000	 4.3497812166e-001	 2.2904090553e+000
 1.3120502034e+000	 4.4873888631e-001	 2.2166678286e+000
 1.3072685743e+000	 4.6248378587e-001	 2.1411131371e+000
 1.3023310579e+000	 4.7621030620e-001	 2.0639054024e+000
 1.2972374124e+000	 4.8991591555e-001	 1.9853672151e+000
 1.2919874487e+000	 5.0359806581e-001	 1.9059904189e+000
 1.2865810310e+000	 5.1725419378e-001	 1.8264423393e+000
 1.2810180771e+000	 5.3088172258e-001	 1.7475710770e+000
 1.2752985596e+000	 5.4447806293e-001	 1.6704097926e+000
 1.3318356934e+000	 4.0937780185e-001	 2.4228814543e+000
 1.3274990127e+000	 4.2322910855e-001	 2.3526564063e+000
 1.3230067322e+000	 4.3706946819e-001	 2.2805788054e+000
 1.3183584555e+000	 4.5089639371e-001	 2.2065211030e+000
 1.3135538367e+000	 4.6470737785e-001	 2.1305047251e+000
 1.3085925810e+000	 4.7849989440e-001	 2.0527088698e+000
 1.3034744456e+000	 4.9227139943e-001	 1.9734785971e+000
 1.2981992404e+000	 5.0601933258e-001	 1.8933321233e+000
 1.2927668290e+000	 5.1974111833e-001	 1.8129672395e+000
 1.2871771288e+000	 5.3343416740e-001	 1.7332667723e+000
 1.2814301122e+000	 5.4709587807e-001	 1.6553030092e+000
 1.3382084331e+000	 4.1133664571e-001	 2.4138599015e+000
 1.3338510017e+000	 4.2525422994e-001	 2.3428897864e+000
 1.3293372259e+000	 4.3916081473e-001	 2.2708039512e+000
 1.3246667076e+000	 4.5305390111e-001	 2.1965444906e+000
 1.3198390990e+000	 4.6693096984e-001	 2.1201434705e+000
 1.3148541040e+000	 4.8078948260e-001	 2.0418057609e+000
 1.3097114787e+000	 4.9462688332e-001	 1.9619058388e+000
 1.3044110321e+000	 5.0844059935e-001	 1.8809952878e+000
 1.2989526269e+000	 5.2222804288e-001	 1.7998093990e+000
 1.2933361804e+000	 5.3598661222e-001	 1.7192727909e+000
 1.2875616648e+000	 5.4971369321e-001	 1.6405039671e+000
 1.2262461389e+000	 5.2353554182e-001	 1.8029506159e+000
 1.2205969578e+000	 5.3657447720e-001	 1.7286811418e+000
 1.2147973878e+000	 5.4957842567e-001	 1.6446138231e+000
 1.2088475640e+000	 5.6254487187e-001	 1.5530131249e+000
 1.2027476759e+000	 5.7547129409e-001	 1.4562812785e+000
 1.1964979680e+000	 5.8835516572e-001	 1.3569544528e+000
 1.1900987399e+000	 6.0119395671e-001	 1.2576978390e+000
 1.1835503470e+000	 6.1398513500e-001	 1.1612996286e+000
 1.1768532003e+000	 6.2672616808e-001	 1.0706638673e+000
 1.1700077671e+000	 6.3941452446e-001	 9.8880217857e-001
 1.1630145709e+000	 6.5204767521e-001	 9.1882435377e-001
 1.2323776915e+000	 5.2615335696e-001	 1.7851662773e+000
 1.2267002630e+000	 5.3925749043e-001	 1.7096270036e+000
 1.2208716937e+000	 5.5232646206e-001	 1.6239928896e+000
 1.2148921192e+000	 5.6535774389e-001	 1.5306252042e+000
 1.2087617300e+000	 5.7834880162e-001	 1.4320273550e+000
 1.2024807719e+000	 5.9129709599e-001	 1.3308409390e+000
 1.1960495460e+000	 6.0420008430e-001	 1.2298406734e+000
 1.1894684094e+000	 6.1705522184e-001	 1.1319281865e+000
 1.1827377753e+000	 6.2985996344e-001	 1.0401246506e+000
 1.1758581131e+000	 6.4261176493e-001	 9.5756224851e-001
 1.1688299491e+000	 6.5530808475e-001	 8.8747447277e-001
 1.2385092441e+000	 5.2877117210e-001	 1.7677521572e+000
 1.2328035682e+000	 5.4194050367e-001	 1.6910232384e+000
 1.2269459995e+000	 5.5507449845e-001	 1.6039179014e+000
 1.2209366743e+000	 5.6817061592e-001	 1.5088887096e+000
 1.2147757841e+000	 5.8122630915e-001	 1.4085348338e+000
 1.2084635759e+000	 5.9423902627e-001	 1.3055979922e+000
 1.2020003522e+000	 6.0720621190e-001	 1.2029572400e+000
 1.1953864718e+000	 6.2012530869e-001	 1.1036225816e+000
 1.1886223502e+000	 6.3299375879e-001	 1.0107273922e+000
 1.1817084591e+000	 6.4580900540e-001	 9.2751963677e-001
 1.1746453272e+000	 6.5856849428e-001	 8.5735188524e-001
 1.2446407967e+000	 5.3138898724e-001	 1.7506951252e+000
 1.2389068734e+000	 5.4462351691e-001	 1.6728472061e+000
 1.2330203053e+000	 5.5782253484e-001	 1.5843564372e+000
 1.2269812295e+000	 5.7098348795e-001	 1.4877612244e+000
 1.2207898382e+000	 5.8410381668e-001	 1.3857511476e+000
 1.2144463798e+000	 5.9718095654e-001	 1.2811628035e+000
 1.2079511583e+000	 6.1021233949e-001	 1.1769744617e+000
 1.2013045343e+000	 6.2319539553e-001	 1.0762995114e+000
 1.1945069251e+000	 6.3612755415e-001	 9.8237867898e-001
 1.1875588050e+000	 6.4900624587e-001	 8.9857100855e-001
 1.1804607054e+000	 6.6182890382e-001	 8.2834360150e-001
 1.2507723493e+000	 5.3400680237e-001	 1.7339834916e+000
 1.2450101786e+000	 5.4730653015e-001	 1.6550779318e+000
 1.2390946111e+000	 5.6057057124e-001	 1.5652779565e+000
 1.2330257846e+000	 5.7379635997e-001	 1.4672024166e+000
 1.2268038923e+000	 5.8698132421e-001	 1.3636260059e+000
 1.2204291837e+000	 6.0012288681e-001	 1.2574750166e+000
 1.2139019644e+000	 6.1321846709e-001	 1.1518218748e+000
 1.2072225967e+000	 6.2626548238e-001	 1.0498784292e+000
 1.2003915000e+000	 6.3926134950e-001	 9.5498797581e-001
 1.1934091510e+000	 6.5220348633e-001	 8.7061600817e-001
 1.1862760835e+000	 6.6508931336e-001	 8.0033968903e-001
 1.2569039019e+000	 5.3662461751e-001	 1.7176070470e+000
 1.2511134838e+000	 5.4998954338e-001	 1.6376961424e+000
 1.2451689170e+000	 5.6331860763e-001	 1.5466538322e+000
 1.2390703397e+000	 5.7660923200e-001	 1.4471740687e+000
 1.2328179465e+000	 5.8985883175e-001	 1.3421114203e+000
 1.2264119876e+000	 6.0306481708e-001	 1.2344767518e+000
 1.2198527705e+000	 6.1622459469e-001	 1.1274316490e+000
 1.2131406591e+000	 6.2933556922e-001	 1.0242815607e+000
 1.2062760750e+000	 6.4239514486e-001	 9.2846763963e-001
 1.1992594970e+000	 6.5540072680e-001	 8.4355727029e-001
 1.1920914617e+000	 6.6834972289e-001	 7.7318304982e-001
 1.2630354545e+000	 5.3924243265e-001	 1.7015571019e+000
 1.2572167890e+000	 5.5267255662e-001	 1.6206843024e+000
 1.2512432228e+000	 5.6606664402e-001	 1.5284573839e+000
 1.2451148949e+000	 5.7942210403e-001	 1.4276401077e+000
 1.2388320006e+000	 5.9273633928e-001	 1.3211617319e+000
 1.2323947916e+000	 6.0600674735e-001	 1.2121126285e+000
 1.2258035766e+000	 6.1923072228e-001	 1.1037386073e+000
 1.2190587215e+000	 6.3240565607e-001	 9.9943392157e-001
 1.2121606499e+000	 6.4552894021e-001	 9.0273293411e-001
 1.2051098429e+000	 6.5859796727e-001	 8.1730043209e-001
 1.1979068398e+000	 6.7161013243e-001	 7.4650293341e-001
 1.2691670070e+000	 5.4186024779e-001	 1.6858265269e+000
 1.2633200942e+000	 5.5535556986e-001	 1.6040266513e+000
 1.2573175286e+000	 5.6881468042e-001	 1.5106639115e+000
 1.2511594500e+000	 5.8223497606e-001	 1.4085666349e+000
 1.2448460547e+000	 5.9561384681e-001	 1.3007336381e+000
 1.2383775955e+000	 6.0894867762e-001	 1.1903297901e+000
 1.2317543827e+000	 6.2223684988e-001	 1.0806802480e+000
 1.2249767839e+000	 6.3547574291e-001	 9.7526333585e-001
 1.2180452248e+000	 6.4866273557e-001	 8.7770204551e-001
 1.2109601889e+000	 6.6179520774e-001	 7.9175414668e-001
 1.2037222180e+000	 6.7487054197e-001	 7.2021781007e-001
 1.2752985596e+000	 5.4447806293e-001	 1.6704097926e+000
 1.2694233994e+000	 5.5803858310e-001	 1.5877092401e+000
 1.2633918344e+000	 5.7156271681e-001	 1.4932507287e+000
 1.2572040052e+000	 5.8504784809e-001	 1.3899219576e+000
 1.2508601088e+000	 5.9849135434e-001	 1.2807862206e+000
 1.2443603994e+000	 6.1189060790e-001	 1.1690779284e+000
 1.2377051888e+000	 6.2524297748e-001	 1.0581967661e+000
 1.2308948464e+000	 6.3854582976e-001	 9.5170045536e-001
 1.2239297998e+000	 6.5179653092e-001	 8.5329609943e-001
 1.2168105349e+000	 6.6499244820e-001	 7.6683009750e-001
 1.2095375961e+000	 6.7813095151e-001	 6.9429950998e-001
 1.2814301122e+000	 5.4709587807e-001	 1.6553030092e+000
 1.2755267046e+000	 5.6072159634e-001	 1.5717199687e+000
 1.2694661403e+000	 5.7431075321e-001	 1.4761971979e+000
 1.2632485603e+000	 5.8786072012e-001	 1.3716766198e+000
 1.2568741629e+000	 6.0136886188e-001	 1.2612809740e+000
 1.2503432033e+000	 6.1483253817e-001	 1.1483093099e+000
 1.2436559949e+000	 6.2824910508e-001	 1.0362310769e+000
 1.2368129088e+000	 6.4161591661e-001	 9.2867877991e-001
 1.2298143747e+000	 6.5493032628e-001	 8.2943917861e-001
 1.2226608808e+000	 6.6818968867e-001	 7.4241555509e-001
 1.2153529743e+000	 6.8139136105e-001	 6.6872276511e-001
 1.2875616648e+000	 5.4971369321e-001	 1.6405039671e+000
 1.2816300098e+000	 5.6340460958e-001	 1.5560486230e+000
 1.2755404461e+000	 5.7705878960e-001	 1.4594847644e+000
 1.2692931155e+000	 5.9067359215e-001	 1.3538034342e+000
 1.2628882170e+000	 6.0424636941e-001	 1.2421818345e+000
 1.2563260072e+000	 6.1777446844e-001	 1.1279788013e+000
 1.2496068010e+000	 6.3125523267e-001	 1.0147288386e+000
 1.2427309712e+000	 6.4468600345e-001	 9.0613467831e-001
 1.2356989496e+000	 6.5806412163e-001	 8.0605834151e-001
 1.2285112268e+000	 6.7138692914e-001	 7.1826302675e-001
 1.2211683524e+000	 6.8465177058e-001	 6.4346512994e-001
 1.1630145709e+000	 6.5204767521e-001	 9.1882435377e-001
 1.1558731096e+000	 6.6462497763e-001	 8.5401781421e-001
 1.1485850586e+000	 6.7714201262e-001	 7.8480860344e-001
 1.1411511121e+000	 6.8959626778e-001	 7.0808021810e-001
 1.1335720209e+000	 7.0198523951e-001	 6.2533280125e-001
 1.1258485920e+000	 7.1430643453e-001	 5.3811480955e-001
 1.1179816890e+000	 7.2655737151e-001	 4.4790810577e-001
 1.1099722315e+000	 7.3873558262e-001	 3.5612400232e-001
 1.1018211952e+000	 7.5083861508e-001	 2.6409969708e-001
 1.0935296112e+000	 7.6286403276e-001	 1.7309511684e-001
 1.0850985663e+000	 7.7480941773e-001	 8.4290180795e-002
 1.1688299491e+000	 6.5530808475e-001	 8.8747447277e-001
 1.1616527786e+000	 6.6794827698e-001	 8.2306052740e-001
 1.1543282854e+000	 6.8052790043e-001	 7.5264459639e-001
 1.1468571673e+000	 6.9304443014e-001	 6.7488874845e-001
 1.1392401786e+000	 7.0549534997e-001	 5.9134678113e-001
 1.1314781305e+000	 7.1787815420e-001	 5.0350803419e-001
 1.1235718909e+000	 7.3019034909e-001	 4.1279310421e-001
 1.1155223841e+000	 7.4242945445e-001	 3.2054994767e-001
 1.1073305904e+000	 7.5459300525e-001	 2.2805039087e-001
 1.0989975463e+000	 7.6667855317e-001	 1.3648706214e-001
 1.0905243439e+000	 7.7868366820e-001	 4.6970758768e-002
 1.1746453272e+000	 6.5856849428e-001	 8.5735188524e-001
 1.1674324475e+000	 6.7127157633e-001	 7.9292111669e-001
 1.1600715122e+000	 6.8391378824e-001	 7.2129859910e-001
 1.1525632224e+000	 6.9649259250e-001	 6.4261186690e-001
 1.1449083362e+000	 7.0900546044e-001	 5.5835810390e-001
 1.1371076690e+000	 7.2144987388e-001	 4.6996791533e-001
 1.1291620928e+000	 7.3382332667e-001	 3.7880108776e-001
 1.1210725366e+000	 7.4612332628e-001	 2.8614275198e-001
 1.1128399856e+000	 7.5834739542e-001	 1.9319996742e-001
 1.1044654815e+000	 7.7049307359e-001	 1.0109874362e-001
 1.0959501216e+000	 7.8255791868e-001	 1.0881511318e-002
 1.1804607054e+000	 6.6182890382e-001	 8.2834360150e-001
 1.1732121165e+000	 6.7459487568e-001	 7.6343973942e-001
 1.1658147390e+000	 6.8729967605e-001	 6.9071710887e-001
 1.1582692775e+000	 6.9994075485e-001	 6.1119297396e-001
 1.1505764939e+000	 7.1251557091e-001	 5.2630822935e-001
 1.1427372075e+000	 7.2502159356e-001	 4.3743514189e-001
 1.1347522948e+000	 7.3745630424e-001	 3.4587315591e-001
 1.1266226891e+000	 7.4981719811e-001	 2.5284511604e-001
 1.1183493808e+000	 7.6210178559e-001	 1.5949392651e-001
 1.1099334166e+000	 7.7430759400e-001	 6.6879662373e-002
 1.1013758993e+000	 7.8643216915e-001	-2.4022854508e-002
 1.1862760835e+000	 6.6508931336e-001	 8.0033968903e-001
 1.1789917855e+000	 6.7791817503e-001	 7.3457049500e-001
 1.1715579658e+000	 6.9068556387e-001	 6.6085001752e-001
 1.1639753326e+000	 7.0338891721e-001	 5.8057887303e-001
 1.1562446516e+000	 7.1602568138e-001	 4.9514200774e-001
 1.1483667460e+000	 7.2859331323e-001	 4.0585376023e-001
 1.1403424967e+000	 7.4108928182e-001	 3.1395371202e-001
 1.1321728416e+000	 7.5351106994e-001	 2.2060297059e-001
 1.1238587760e+000	 7.6585617576e-001	 1.2688090367e-001
 1.1154013517e+000	 7.7812211442e-001	 3.3782340925e-002
 1.1068016769e+000	 7.9030641963e-001	-5.7784744626e-002
 1.1920914617e+000	 6.6834972289e-001	 7.7318304982e-001
 1.1847714544e+000	 6.8124147438e-001	 7.0627076038e-001
 1.1773011926e+000	 6.9407145168e-001	 6.3165052146e-001
 1.1696813877e+000	 7.0683707957e-001	 5.5071967889e-001
 1.1619128092e+000	 7.1953579184e-001	 4.6480758742e-001
 1.1539962845e+000	 7.3216503291e-001	 3.7517108148e-001
 1.1459326986e+000	 7.4472225940e-001	 2.8299037108e-001
 1.1377229942e+000	 7.5720494177e-001	 1.8936538500e-001
 1.1293681712e+000	 7.6961056592e-001	 9.5312580514e-002
 1.1208692868e+000	 7.8193663483e-001	 1.7622358310e-003
 1.1122274546e+000	 7.9418067010e-001	-9.0443762330e-002
 1.1979068398e+000	 6.7161013243e-001	 7.4650293341e-001
 1.1905511234e+000	 6.8456477373e-001	 6.7850110345e-001
 1.1830444194e+000	 6.9745733949e-001	 6.0307503298e-001
 1.1753874428e+000	 7.1028524192e-001	 5.2156872757e-001
 1.1675809669e+000	 7.2304590231e-001	 4.3525632376e-001
 1.1596258230e+000	 7.3573675259e-001	 3.4533759022e-001
 1.1515229005e+000	 7.4835523698e-001	 2.5293386866e-001
 1.1432731467e+000	 7.6089881360e-001	 1.5908447734e-001
 1.1348775664e+000	 7.7336495609e-001	 6.4743596399e-002
 1.1263372219e+000	 7.8575115525e-001	-2.9222348453e-002
 1.1176532323e+000	 7.9805492058e-001	-1.2203679160e-001
 1.2037222180e+000	 6.7487054197e-001	 7.2021781007e-001
 1.1963307924e+000	 6.8788807308e-001	 6.5122519780e-001
 1.1887876462e+000	 7.0084322730e-001	 5.7508309295e-001
 1.1810934980e+000	 7.1373340428e-001	 4.9308248743e-001
 1.1732491246e+000	 7.2655601278e-001	 4.0644268941e-001
 1.1652553615e+000	 7.3930847226e-001	 3.1630685444e-001
 1.1571131024e+000	 7.5198821455e-001	 2.2373797127e-001
 1.1488232992e+000	 7.6459268543e-001	 1.2971532558e-001
 1.1403869616e+000	 7.7711934627e-001	 3.5131461204e-002
 1.1318051570e+000	 7.8956567566e-001	-5.9210344593e-002
 1.1230790100e+000	 8.0192917106e-001	-1.5259807932e-001
 1.2095375961e+000	 6.7813095151e-001	 6.9429950998e-001
 1.2021104613e+000	 6.9121137244e-001	 6.2440973864e-001
 1.1945308730e+000	 7.0422911511e-001	 5.4763728465e-001
 1.1867995531e+000	 7.1718156664e-001	 4.6522047162e-001
 1.1789172823e+000	 7.3006612325e-001	 3.7832418583e-001
 1.1708849000e+000	 7.4288019194e-001	 2.8803543684e-001
 1.1627033043e+000	 7.5562119213e-001	 1.9535938795e-001
 1.1543734518e+000	 7.6828655726e-001	 1.0121588014e-001
 1.1458963568e+000	 7.8087373644e-001	 6.4364693490e-003
 1.1372730921e+000	 7.9338019608e-001	-8.8238006272e-002
 1.1285047876e+000	 8.0580342153e-001	-1.8215931655e-001
 1.2153529743e+000	 6.8139136105e-001	 6.6872276511e-001
 1.2078901303e+000	 6.9453467179e-001	 5.9802435981e-001
 1.2002740998e+000	 7.0761500292e-001	 5.2070314880e-001
 1.1925056082e+000	 7.2062972899e-001	 4.3794515168e-001
 1.1845854399e+000	 7.3357623371e-001	 3.5086125609e-001
 1.1765144385e+000	 7.4645191162e-001	 2.6048280730e-001
 1.1682935063e+000	 7.5925416971e-001	 1.6775768303e-001
 1.1599236043e+000	 7.7198042909e-001	 7.3546877517e-002
 1.1514057520e+000	 7.8462812661e-001	-2.1378385067e-002
 1.1427410272e+000	 7.9719471650e-001	-1.1633899102e-001
 1.1339305653e+000	 8.0967767201e-001	-2.1074971865e-001
 1.2211683524e+000	 6.8465177058e-001	 6.4346512994e-001
 1.2136697993e+000	 6.9785797114e-001	 5.7204155199e-001
 1.2060173266e+000	 7.1100089074e-001	 4.9424909983e-001
 1.1982116633e+000	 7.2407789135e-001	 4.1122187238e-001
 1.1902535976e+000	 7.3708634418e-001	 3.2401719882e-001
 1.1821439770e+000	 7.5002363130e-001	 2.3361125658e-001
 1.1738837082e+000	 7.6288714729e-001	 1.4089519016e-001
 1.1654737568e+000	 7.7567430092e-001	 4.6671755163e-002
 1.1569151472e+000	 7.8838251678e-001	-4.8347492034e-002
 1.1482089623e+000	 8.0100923691e-001	-1.4354444200e-001
 1.1393563430e+000	 8.1355192249e-001	-2.3839610463e-001
 1.0850985663e+000	 7.7480941773e-001	 8.4290180795e-002
 1.0765292015e+000	 7.8667237155e-001	-2.2155508147e-005
 1.0678227115e+000	 7.9845051603e-001	-7.8837121472e-002
 1.0589803445e+000	 8.1014149552e-001	-1.5301286436e-001
 1.0500034023e+000	 8.2174297868e-001	-2.2346482912e-001
 1.0408932396e+000	 8.3325266002e-001	-2.9116312050e-001
 1.0316512635e+000	 8.4466826136e-001	-3.5712947632e-001
 1.0222789324e+000	 8.5598753333e-001	-4.2243386820e-001
 1.0127777560e+000	 8.6720825681e-001	-4.8819074908e-001
 1.0031492937e+000	 8.7832824438e-001	-5.5555496990e-001
 9.9339515430e-001	 8.8934534171e-001	-6.2571739027e-001
 1.0905243439e+000	 7.7868366820e-001	 4.6970758768e-002
 1.0819121301e+000	 7.9060593991e-001	-3.8103021458e-002
 1.0731621054e+000	 8.0244297820e-001	-1.1757586434e-001
 1.0642755242e+000	 8.1419241566e-001	-1.9230049855e-001
 1.0552536949e+000	 8.2585190928e-001	-2.6318800269e-001
 1.0460979790e+000	 8.3741914205e-001	-3.3120511712e-001
 1.0368097906e+000	 8.4889182439e-001	-3.9737115534e-001
 1.0273905954e+000	 8.6026769569e-001	-4.6275453160e-001
 1.0178419106e+000	 8.7154452574e-001	-5.2846892478e-001
 1.0081653035e+000	 8.8272011617e-001	-5.9566910129e-001
 9.9836239083e-001	 8.9379230187e-001	-6.6554642274e-001
 1.0959501216e+000	 7.8255791868e-001	 1.0881511318e-002
 1.0872950587e+000	 7.9453950827e-001	-7.4952151653e-002
 1.0785014992e+000	 8.0643544038e-001	-1.5508797999e-001
 1.0695707039e+000	 8.1824333580e-001	-2.3037152813e-001
 1.0605039876e+000	 8.2996083989e-001	-3.0170783624e-001
 1.0513027185e+000	 8.4158562408e-001	-3.7005869340e-001
 1.0419683177e+000	 8.5311538742e-001	-4.3643948824e-001
 1.0325022584e+000	 8.6454785806e-001	-5.0191566428e-001
 1.0229060653e+000	 8.7588079467e-001	-5.6759880046e-001
 1.0131813133e+000	 8.8711198795e-001	-6.3464234029e-001
 1.0033296274e+000	 8.9823926204e-001	-7.0423699608e-001
 1.1013758993e+000	 7.8643216915e-001	-2.4022854508e-002
 1.0926779873e+000	 7.9847307662e-001	-1.1060925814e-001
 1.0838408931e+000	 8.1042790255e-001	-1.9140806677e-001
 1.0748658836e+000	 8.2229425594e-001	-2.6725592373e-001
 1.0657542802e+000	 8.3406977049e-001	-3.3905017828e-001
 1.0565074579e+000	 8.4575210611e-001	-4.0774610156e-001
 1.0471268448e+000	 8.5733895046e-001	-4.7435367772e-001
 1.0376139215e+000	 8.6882802042e-001	-5.3993398765e-001
 1.0279702199e+000	 8.8021706359e-001	-6.0559520641e-001
 1.0181973231e+000	 8.9150385974e-001	-6.7248823860e-001
 1.0082968639e+000	 9.0268622220e-001	-7.4180201868e-001
 1.1068016769e+000	 7.9030641963e-001	-5.7784744626e-002
 1.0980609159e+000	 8.0240664498e-001	-1.4511130393e-001
 1.0891802869e+000	 8.1442036472e-001	-2.2656809898e-001
 1.0801610633e+000	 8.2634517608e-001	-3.0298114366e-001
 1.0710045728e+000	 8.3817870109e-001	-3.7523846295e-001
 1.0617121973e+000	 8.4991858814e-001	-4.4428726341e-001
 1.0522853720e+000	 8.6156251349e-001	-5.1113066567e-001
 1.0427255845e+000	 8.7310818278e-001	-5.7682401724e-001
 1.0330343745e+000	 8.8455333252e-001	-6.4247080713e-001
 1.0232133329e+000	 8.9589573152e-001	-7.0921820722e-001
 1.0132641004e+000	 9.0713318236e-001	-7.7825226802e-001
 1.1122274546e+000	 7.9418067010e-001	-9.0443762330e-002
 1.1034438445e+000	 8.0634021334e-001	-1.7849258422e-001
 1.0945196808e+000	 8.1841282690e-001	-2.6059750518e-001
 1.0854562430e+000	 8.3039609622e-001	-3.3757220927e-001
 1.0762548655e+000	 8.4228763169e-001	-4.1029378281e-001
 1.0669169368e+000	 8.5408507017e-001	-4.7969984064e-001
 1.0574438991e+000	 8.6578607652e-001	-5.4678520115e-001
 1.0478372475e+000	 8.7738834515e-001	-6.1259812868e-001
 1.0380985291e+000	 8.8888960145e-001	-6.7823616554e-001
 1.0282293426e+000	 9.0028760331e-001	-7.4484157900e-001
 1.0182313370e+000	 9.1158014252e-001	-8.1359645196e-001
 1.1176532323e+000	 7.9805492058e-001	-1.2203679160e-001
 1.1088267731e+000	 8.1027378170e-001	-2.1078480662e-001
 1.0998590747e+000	 8.2240528907e-001	-2.9352324543e-001
 1.0907514227e+000	 8.3444701636e-001	-3.7105177955e-001
 1.0815051581e+000	 8.4639656229e-001	-4.4423496072e-001
 1.0721216762e+000	 8.5825155220e-001	-5.1399930429e-001
 1.0626024262e+000	 8.7000963956e-001	-5.8132990771e-001
 1.0529489105e+000	 8.8166850751e-001	-6.4726662307e-001
 1.0431626838e+000	 8.9322587038e-001	-7.1289980654e-001
 1.0332453524e+000	 9.0467947509e-001	-7.7936567072e-001
 1.0231985735e+000	 9.1602710269e-001	-8.4784126945e-001
 1.1230790100e+000	 8.0192917106e-001	-1.5259807932e-001
 1.1142097017e+000	 8.1420735006e-001	-2.4201717041e-001
 1.1051984685e+000	 8.2639775125e-001	-3.2536988765e-001
 1.0960466024e+000	 8.3849793650e-001	-4.0344022473e-001
 1.0867554508e+000	 8.5050549290e-001	-4.7707862104e-001
 1.0773264156e+000	 8.6241803423e-001	-5.4719900365e-001
 1.0677609533e+000	 8.7423320259e-001	-6.1477535013e-001
 1.0580605735e+000	 8.8594866988e-001	-6.8083779168e-001
 1.0482268384e+000	 8.9756213930e-001	-7.4646827999e-001
 1.0382613622e+000	 9.0907134687e-001	-8.1279584455e-001
 1.0281658100e+000	 9.2047406285e-001	-8.8099147074e-001
 1.1285047876e+000	 8.0580342153e-001	-1.8215931655e-001
 1.1195926303e+000	 8.1814091842e-001	-2.7221644480e-001
 1.1105378624e+000	 8.3039021342e-001	-3.5615968322e-001
 1.1013417821e+000	 8.4254885664e-001	-4.3475569927e-001
 1.0920057434e+000	 8.5461442350e-001	-5.0883926009e-001
 1.0825311551e+000	 8.6658451626e-001	-5.7931023442e-001
 1.0729194805e+000	 8.7845676563e-001	-6.4713010048e-001
 1.0631722365e+000	 8.9022883224e-001	-7.1331798017e-001
 1.0532909930e+000	 9.0189840823e-001	-7.7894622324e-001
 1.0432773720e+000	 9.1346321866e-001	-8.4513556907e-001
 1.0331330466e+000	 9.2492102301e-001	-9.1304991709e-001
 1.1339305653e+000	 8.0967767201e-001	-2.1074971865e-001
 1.1249755589e+000	 8.2207448678e-001	-3.0140704632e-001
 1.1158772562e+000	 8.3438267560e-001	-3.8591264161e-001
 1.1066369618e+000	 8.4659977679e-001	-4.6501421393e-001
 1.0972560360e+000	 8.5872335410e-001	-5.3952931589e-001
 1.0877358945e+000	 8.7075099829e-001	-6.1034230620e-001
 1.0780780076e+000	 8.8268032866e-001	-6.7840080357e-001
 1.0682838995e+000	 8.9450899461e-001	-7.4471165217e-001
 1.0583551477e+000	 9.0623467716e-001	-8.1033642303e-001
 1.0482933818e+000	 9.1785509044e-001	-8.7638647971e-001
 1.0381002831e+000	 9.2936798318e-001	-9.4401764004e-001
 1.1393563430e+000	 8.1355192249e-001	-2.3839610463e-001
 1.1303584875e+000	 8.2600805515e-001	-3.2961111535e-001
 1.1212166501e+000	 8.3837513777e-001	-4.1464660424e-001
 1.1119321415e+000	 8.5065069693e-001	-4.9422970722e-001
 1.1025063287e+000	 8.6283228470e-001	-5.6915923723e-001
 1.0929406339e+000	 8.7491748032e-001	-6.4030260943e-001
 1.0832365347e+000	 8.8690389170e-001	-7.0859224188e-001
 1.0733955625e+000	 8.9878915698e-001	-7.7502145237e-001
 1.0634193023e+000	 9.1057094609e-001	-8.4063987696e-001
 1.0533093916e+000	 9.2224696223e-001	-9.0654843879e-001
 1.0430675196e+000	 9.3381494334e-001	-9.7389390012e-001
 9.9339515430e-001	 8.8934534171e-001	-6.2571739027e-001
 9.8351848597e-001	 9.0025580032e-001	-6.9535481398e-001
 9.7351953956e-001	 9.1105919807e-001	-7.6066297187e-001
 9.6340006614e-001	 9.2175348984e-001	-8.2212325753e-001
 9.5316186217e-001	 9.3233666896e-001	-8.8024104151e-001
 9.4280676844e-001	 9.4280676844e-001	-9.3554169192e-001
 9.3233666896e-001	 9.5316186217e-001	-9.8856647401e-001
 9.2175348984e-001	 9.6340006614e-001	-1.0398683635e+000
 9.1105919807e-001	 9.7351953956e-001	-1.0900078093e+000
 9.0025580032e-001	 9.8351848597e-001	-1.1395484825e+000
 8.8934534171e-001	 9.9339515430e-001	-1.1890530470e+000
 9.9836239083e-001	 8.9379230187e-001	-6.6554642274e-001
 9.8843633657e-001	 9.0475731564e-001	-7.3479060823e-001
 9.7838739280e-001	 9.1561473321e-001	-7.9961812275e-001
 9.6821731936e-001	 9.2636249925e-001	-8.6052360991e-001
 9.5792792168e-001	 9.3699859705e-001	-9.1802623007e-001
 9.4752104977e-001	 9.4752104977e-001	-9.7266553370e-001
 9.3699859705e-001	 9.5792792168e-001	-1.0249972093e+000
 9.2636249925e-001	 9.6821731936e-001	-1.0755887422e+000
 9.1561473321e-001	 9.7838739280e-001	-1.1250150201e+000
 9.0475731564e-001	 9.8843633657e-001	-1.1738539251e+000
 8.9379230187e-001	 9.9836239083e-001	-1.2226819468e+000
 1.0033296274e+000	 8.9823926204e-001	-7.0423699608e-001
 9.9335418717e-001	 9.0925883096e-001	-7.7308672204e-001
 9.8325524605e-001	 9.2017026835e-001	-8.3743150047e-001
 9.7303457258e-001	 9.3097150866e-001	-8.9778031543e-001
 9.6269398120e-001	 9.4166052513e-001	-9.5466717828e-001
 9.5223533109e-001	 9.5223533109e-001	-1.0086468480e+000
 9.4166052513e-001	 9.6269398120e-001	-1.0602904216e+000
 9.3097150866e-001	 9.7303457258e-001	-1.1101808321e+000
 9.2017026835e-001	 9.8325524605e-001	-1.1589082920e+000
 9.0925883096e-001	 9.9335418717e-001	-1.2070657210e+000
 8.9823926204e-001	 1.0033296274e+000	-1.2552441970e+000
 1.0082968639e+000	 9.0268622220e-001	-7.4180201868e-001
 9.9827203777e-001	 9.1376034628e-001	-8.1025552932e-001
 9.8812309929e-001	 9.2472580350e-001	-8.7411450616e-001
 9.7785182580e-001	 9.3558051807e-001	-9.3390335677e-001
 9.6746004071e-001	 9.4632245321e-001	-9.9017199847e-001
 9.5694961242e-001	 9.5694961242e-001	-1.0434914196e+000
 9.4632245321e-001	 9.6746004071e-001	-1.0944491065e+000
 9.3558051807e-001	 9.7785182580e-001	-1.1436443749e+000
 9.2472580350e-001	 9.8812309929e-001	-1.1916836443e+000
 9.1376034628e-001	 9.9827203777e-001	-1.2391756968e+000
 9.0268622220e-001	 1.0082968639e+000	-1.2867269593e+000
 1.0132641004e+000	 9.0713318236e-001	-7.7825226802e-001
 1.0031898884e+000	 9.1826186160e-001	-8.4630727830e-001
 9.9299095254e-001	 9.2928133864e-001	-9.0967642689e-001
 9.8266907902e-001	 9.4018952748e-001	-9.6890062118e-001
 9.7222610022e-001	 9.5098438129e-001	-1.0245467336e+000
 9.6166389375e-001	 9.6166389375e-001	-1.0772029981e+000
 9.5098438129e-001	 9.7222610022e-001	-1.1274742672e+000
 9.4018952748e-001	 9.8266907902e-001	-1.1759771708e+000
 9.2928133864e-001	 9.9299095254e-001	-1.2233352160e+000
 9.1826186160e-001	 1.0031898884e+000	-1.2701738701e+000
 9.0713318236e-001	 1.0132641004e+000	-1.3171156685e+000
 1.0182313370e+000	 9.1158014252e-001	-8.1359645196e-001
 1.0081077390e+000	 9.2276337692e-001	-8.8125015147e-001
 9.9785880578e-001	 9.3383687378e-001	-9.4412449405e-001
 9.8748633224e-001	 9.4479853689e-001	-1.0027779569e+000
 9.7699215974e-001	 9.5564630938e-001	-1.0577954118e+000
 9.6637817508e-001	 9.6637817508e-001	-1.1097833497e+000
 9.5564630938e-001	 9.7699215974e-001	-1.1593649631e+000
 9.4479853689e-001	 9.8748633224e-001	-1.2071751253e+000
 9.3383687378e-001	 9.9785880578e-001	-1.2538553093e+000
 9.2276337692e-001	 1.0081077390e+000	-1.3000484893e+000
 9.1158014252e-001	 1.0182313370e+000	-1.3463940677e+000
 1.0231985735e+000	 9.1602710269e-001	-8.4784126945e-001
 1.0130255896e+000	 9.2726489223e-001	-9.1509032495e-001
 1.0027266590e+000	 9.3839240893e-001	-9.7746394114e-001
 9.9230358546e-001	 9.4940754630e-001	-1.0355392294e+000
 9.8175821925e-001	 9.6030823746e-001	-1.0899200997e+000
 9.7109245640e-001	 9.7109245640e-001	-1.1412323086e+000
 9.6030823746e-001	 9.8175821925e-001	-1.1901183591e+000
 9.4940754630e-001	 9.9230358546e-001	-1.2372322949e+000
 9.3839240893e-001	 1.0027266590e+000	-1.2832344318e+000
 9.2726489223e-001	 1.0130255896e+000	-1.3287860721e+000
 9.1602710269e-001	 1.0231985735e+000	-1.3745442437e+000
 1.0281658100e+000	 9.2047406285e-001	-8.8099147074e-001
 1.0179434402e+000	 9.3176640755e-001	-9.4783202742e-001
 1.0075945123e+000	 9.4294794407e-001	-1.0096980612e+000
 9.9712083868e-001	 9.5401655571e-001	-1.0671863765e+000
 9.8652427877e-001	 9.6497016554e-001	-1.1209209567e+000
 9.7580673773e-001	 9.7580673773e-001	-1.1715478285e+000
 9.6497016554e-001	 9.8652427877e-001	-1.2197297740e+000
 9.5401655571e-001	 9.9712083868e-001	-1.2661409325e+000
 9.4294794407e-001	 1.0075945123e+000	-1.3114613394e+000
 9.3176640755e-001	 1.0179434402e+000	-1.3563714451e+000
 9.2047406285e-001	 1.0281658100e+000	-1.4015466622e+000
 1.0331330466e+000	 9.2492102301e-001	-9.1304991709e-001
 1.0228612908e+000	 9.3626792287e-001	-9.7947759859e-001
 1.0124623655e+000	 9.4750347921e-001	-1.0408282636e+000
 1.0019380919e+000	 9.5862556512e-001	-1.0977194639e+000
 9.9129033828e-001	 9.6963209362e-001	-1.1507962873e+000
 9.8052101906e-001	 9.8052101906e-001	-1.2007260331e+000
 9.6963209362e-001	 9.9129033828e-001	-1.2481927285e+000
 9.5862556512e-001	 1.0019380919e+000	-1.2938915334e+000
 9.4750347921e-001	 1.0124623655e+000	-1.3385230781e+000
 9.3626792287e-001	 1.0228612908e+000	-1.3827877827e+000
 9.2492102301e-001	 1.0331330466e+000	-1.4273802035e+000
 1.0381002831e+000	 9.2936798318e-001	-9.4401764004e-001
 1.0277791414e+000	 9.4076943819e-001	-1.0100275472e+000
 1.0173302188e+000	 9.5205901436e-001	-1.0708541308e+000
 1.0067553451e+000	 9.6323457452e-001	-1.1271367397e+000
 9.9605639779e-001	 9.7429402171e-001	-1.1795425944e+000
 9.8523530039e-001	 9.8523530039e-001	-1.2287612664e+000
 9.7429402171e-001	 9.9605639779e-001	-1.2754989935e+000
 9.6323457452e-001	 1.0067553451e+000	-1.3204728798e+000
 9.5205901436e-001	 1.0173302188e+000	-1.3644050268e+000
 9.4076943819e-001	 1.0277791414e+000	-1.4080166456e+000
 9.2936798318e-001	 1.0381002831e+000	-1.4520221974e+000
 1.0430675196e+000	 9.3381494334e-001	-9.7389390012e-001
 1.0326969920e+000	 9.4527095351e-001	-1.0394806083e+000
 1.0221980720e+000	 9.5661454950e-001	-1.0997734740e+000
 1.0115725983e+000	 9.6784358393e-001	-1.1554346888e+000
 1.0008224573e+000	 9.7895594979e-001	-1.2071546315e+000
 9.8994958172e-001	 9.8994958172e-001	-1.2556461436e+000
 9.7895594979e-001	 1.0008224573e+000	-1.3016386378e+000
 9.6784358393e-001	 1.0115725983e+000	-1.3458720862e+000
 9.5661454950e-001	 1.0221980720e+000	-1.3890909386e+000
 9.4527095351e-001	 1.0326969920e+000	-1.4320380198e+000
 9.3381494334e-001	 1.0430675196e+000	-1.4754484586e+000
 8.8934534171e-001	 9.9339515430e-001	-1.1890530470e+000
 8.7832824438e-001	 1.0031492937e+000	-1.2351022602e+000
 8.6720825681e-001	 1.0127777560e+000	-1.2747464838e+000
 8.5598753333e-001	 1.0222789324e+000	-1.3092483824e+000
 8.4466826136e-001	 1.0316512635e+000	-1.3398353756e+000
 8.3325266002e-001	 1.0408932396e+000	-1.3676949441e+000
 8.2174297868e-001	 1.0500034023e+000	-1.3939702085e+000
 8.1014149552e-001	 1.0589803445e+000	-1.4197558126e+000
 7.9845051603e-001	 1.0678227115e+000	-1.4460941411e+000
 7.8667237155e-001	 1.0765292015e+000	-1.4739718997e+000
 7.7480941773e-001	 1.0850985663e+000	-1.5043170816e+000
 8.9379230187e-001	 9.9836239083e-001	-1.2226819468e+000
 8.8272011617e-001	 1.0081653035e+000	-1.2679964044e+000
 8.7154452574e-001	 1.0178419106e+000	-1.3067645160e+000
 8.6026769569e-001	 1.0273905954e+000	-1.3402621490e+000
 8.4889182439e-001	 1.0368097906e+000	-1.3697292886e+000
 8.3741914205e-001	 1.0460979790e+000	-1.3963651958e+000
 8.2585190928e-001	 1.0552536949e+000	-1.4213238455e+000
 8.1419241566e-001	 1.0642755242e+000	-1.4457096766e+000
 8.0244297820e-001	 1.0731621054e+000	-1.4705736866e+000
 7.9060593991e-001	 1.0819121301e+000	-1.4969098984e+000
 7.7868366820e-001	 1.0905243439e+000	-1.5256522242e+000
 8.9823926204e-001	 1.0033296274e+000	-1.2552441970e+000
 8.8711198795e-001	 1.0131813133e+000	-1.2998599741e+000
 8.7588079467e-001	 1.0229060653e+000	-1.3377975410e+000
 8.6454785806e-001	 1.0325022584e+000	-1.3703437725e+000
 8.5311538742e-001	 1.0419683177e+000	-1.3987490503e+000
 8.4158562408e-001	 1.0513027185e+000	-1.4242222719e+000
 8.2996083989e-001	 1.0605039876e+000	-1.4479261472e+000
 8.1824333580e-001	 1.0695707039e+000	-1.4709728162e+000
 8.0643544038e-001	 1.0785014992e+000	-1.4944198194e+000
 7.9453950827e-001	 1.0872950587e+000	-1.5192664512e+000
 7.8255791868e-001	 1.0959501216e+000	-1.5464505223e+000
 9.0268622220e-001	 1.0082968639e+000	-1.2867269593e+000
 8.9150385974e-001	 1.0181973231e+000	-1.3306754885e+000
 8.8021706359e-001	 1.0279702199e+000	-1.3678239808e+000
 8.6882802042e-001	 1.0376139215e+000	-1.3994681640e+000
 8.5733895046e-001	 1.0471268448e+000	-1.4268666861e+000
 8.4575210611e-001	 1.0565074579e+000	-1.4512359751e+000
 8.3406977049e-001	 1.0657542802e+000	-1.4737453942e+000
 8.2229425594e-001	 1.0748658836e+000	-1.4955127255e+000
 8.1042790255e-001	 1.0838408931e+000	-1.5176000171e+000
 7.9847307662e-001	 1.0926779873e+000	-1.5410098222e+000
 7.8643216915e-001	 1.1013758993e+000	-1.5666818602e+000
 9.0713318236e-001	 1.0132641004e+000	-1.3171156685e+000
 8.9589573152e-001	 1.0232133329e+000	-1.3604238226e+000
 8.8455333252e-001	 1.0330343745e+000	-1.3968206883e+000
 8.7310818278e-001	 1.0427255845e+000	-1.4276087313e+000
 8.6156251349e-001	 1.0522853720e+000	-1.4540527744e+000
 8.4991858814e-001	 1.0617121973e+000	-1.4773747086e+000
 8.3817870109e-001	 1.0710045728e+000	-1.4987485047e+000
 8.2634517608e-001	 1.0801610633e+000	-1.5192955640e+000
 8.1442036472e-001	 1.0891802869e+000	-1.5400804402e+000
 8.0240664498e-001	 1.0980609159e+000	-1.5621069655e+000
 7.9030641963e-001	 1.1068016769e+000	-1.5863148086e+000
 9.1158014252e-001	 1.0182313370e+000	-1.3463940677e+000
 9.0028760331e-001	 1.0282293426e+000	-1.3890842391e+000
 8.8888960145e-001	 1.0380985291e+000	-1.4247629747e+000
 8.7738834515e-001	 1.0478372475e+000	-1.4547374025e+000
 8.6578607652e-001	 1.0574438991e+000	-1.4802764678e+000
 8.5408507017e-001	 1.0669169368e+000	-1.5026054938e+000
 8.4228763169e-001	 1.0762548655e+000	-1.5229010503e+000
 8.3039609622e-001	 1.0854562430e+000	-1.5422861693e+000
 8.1841282690e-001	 1.0945196808e+000	-1.5618259426e+000
 8.0634021334e-001	 1.1034438445e+000	-1.5825235331e+000
 7.9418067010e-001	 1.1122274546e+000	-1.6053166303e+000
 9.1602710269e-001	 1.0231985735e+000	-1.3745442437e+000
 9.0467947509e-001	 1.0332453524e+000	-1.4166344195e+000
 8.9322587038e-001	 1.0431626838e+000	-1.4516246373e+000
 8.8166850751e-001	 1.0529489105e+000	-1.4808246509e+000
 8.7000963956e-001	 1.0626024262e+000	-1.5055055138e+000
 8.5825155220e-001	 1.0721216762e+000	-1.5268939885e+000
 8.4639656229e-001	 1.0815051581e+000	-1.5461672708e+000
 8.3444701636e-001	 1.0907514227e+000	-1.5644480704e+000
 8.2240528907e-001	 1.0998590747e+000	-1.5828000823e+000
 8.1027378170e-001	 1.1088267731e+000	-1.6022238839e+000
 7.9805492058e-001	 1.1176532323e+000	-1.6236532875e+000
 9.2047406285e-001	 1.0281658100e+000	-1.4015466622e+000
 9.0907134687e-001	 1.0382613622e+000	-1.4430504960e+000
 8.9756213930e-001	 1.0482268384e+000	-1.4773779875e+000
 8.8594866988e-001	 1.0580605735e+000	-1.5058395191e+000
 8.7423320259e-001	 1.0677609533e+000	-1.5297062765e+000
 8.6241803423e-001	 1.0773264156e+000	-1.5502045052e+000
 8.5050549290e-001	 1.0867554508e+000	-1.5685100902e+000
 8.3849793650e-001	 1.0960466024e+000	-1.5857435000e+000
 8.2639775125e-001	 1.1051984685e+000	-1.6029651316e+000
 8.1420735006e-001	 1.1142097017e+000	-1.6211710926e+000
 8.0192917106e-001	 1.1230790100e+000	-1.6412894497e+000
 9.2492102301e-001	 1.0331330466e+000	-1.4273802035e+000
 9.1346321866e-001	 1.0432773720e+000	-1.4683070828e+000
 9.0189840823e-001	 1.0532909930e+000	-1.5019938790e+000
 8.9022883224e-001	 1.0631722365e+000	-1.5297496442e+000
 8.7845676563e-001	 1.0729194805e+000	-1.5528437580e+000
 8.6658451626e-001	 1.0825311551e+000	-1.5725000297e+000
 8.5461442350e-001	 1.0920057434e+000	-1.5898911323e+000
 8.4254885664e-001	 1.1013417821e+000	-1.6061334087e+000
 8.3039021342e-001	 1.1105378624e+000	-1.6222820897e+000
 8.1814091842e-001	 1.1195926303e+000	-1.6393269596e+000
 8.0580342153e-001	 1.1285047876e+000	-1.6581885011e+000
 9.2936798318e-001	 1.0381002831e+000	-1.4520221974e+000
 9.1785509044e-001	 1.0482933818e+000	-1.4923773080e+000
 9.0623467716e-001	 1.0583551477e+000	-1.5254417356e+000
 8.9450899461e-001	 1.0682838995e+000	-1.5525212822e+000
 8.8268032866e-001	 1.0780780076e+000	-1.5748816202e+000
 8.7075099829e-001	 1.0877358945e+000	-1.5937422403e+000
 8.5872335410e-001	 1.0972560360e+000	-1.6102707375e+000
 8.4659977679e-001	 1.1066369618e+000	-1.6255774788e+000
 8.3438267560e-001	 1.1158772562e+000	-1.6407106933e+000
 8.2207448678e-001	 1.1249755589e+000	-1.6566520202e+000
 8.0967767201e-001	 1.1339305653e+000	-1.6743125495e+000
 9.3381494334e-001	 1.0430675196e+000	-1.4754484586e+000
 9.2224696223e-001	 1.0533093916e+000	-1.5152328451e+000
 9.1057094609e-001	 1.0634193023e+000	-1.5476895801e+000
 8.9878915698e-001	 1.0733955625e+000	-1.5741193334e+000
 8.8690389170e-001	 1.0832365347e+000	-1.5957822071e+000
 8.7491748032e-001	 1.0929406339e+000	-1.6138915268e+000
 8.6283228470e-001	 1.1025063287e+000	-1.6296079789e+000
 8.5065069693e-001	 1.1119321415e+000	-1.6440341385e+000
 8.3837513777e-001	 1.1212166501e+000	-1.6582094297e+000
 8.2600805515e-001	 1.1303584875e+000	-1.6731055558e+000
 8.1355192249e-001	 1.1393563430e+000	-1.6896224346e+000
 7.7480941773e-001	 1.0850985663e+000	-1.5043170816e+000
 7.6286403276e-001	 1.0935296112e+000	-1.5358737930e+000
 7.5083861508e-001	 1.1018211952e+000	-1.5663405171e+000
 7.3873558262e-001	 1.1099722315e+000	-1.5949908424e+000
 7.2655737151e-001	 1.1179816890e+000	-1.6210456382e+000
 7.1430643453e-001	 1.1258485920e+000	-1.6436747080e+000
 7.0198523951e-001	 1.1335720209e+000	-1.6619988671e+000
 6.8959626778e-001	 1.1411511121e+000	-1.6750924420e+000
 6.7714201262e-001	 1.1485850586e+000	-1.6819861875e+000
 6.6462497763e-001	 1.1558731096e+000	-1.6818371265e+000
 6.5204767521e-001	 1.1630145709e+000	-1.6811566966e+000
 7.7868366820e-001	 1.0905243439e+000	-1.5256522242e+000
 7.6667855317e-001	 1.0989975463e+000	-1.5555627270e+000
 7.5459300525e-001	 1.1073305904e+000	-1.5843840796e+000
 7.4242945445e-001	 1.1155223841e+000	-1.6114320731e+000
 7.3019034909e-001	 1.1235718909e+000	-1.6359670848e+000
 7.1787815420e-001	 1.1314781305e+000	-1.6571956461e+000
 7.0549534997e-001	 1.1392401786e+000	-1.6742724522e+000
 6.9304443014e-001	 1.1468571673e+000	-1.6863028110e+000
 6.8052790043e-001	 1.1543282854e+000	-1.6923455258e+000
 6.6794827698e-001	 1.1616527786e+000	-1.6914162032e+000
 6.5530808475e-001	 1.1688299491e+000	-1.6873792995e+000
 7.8255791868e-001	 1.0959501216e+000	-1.5464505223e+000
 7.7049307359e-001	 1.1044654815e+000	-1.5747466678e+000
 7.5834739542e-001	 1.1128399856e+000	-1.6019395799e+000
 7.4612332628e-001	 1.1210725366e+000	-1.6273900060e+000
 7.3382332667e-001	 1.1291620928e+000	-1.6504004937e+000
 7.2144987388e-001	 1.1371076690e+000	-1.6702168665e+000
 7.0900546044e-001	 1.1449083362e+000	-1.6860301592e+000
 6.9649259250e-001	 1.1525632224e+000	-1.6969790098e+000
 6.8391378824e-001	 1.1600715122e+000	-1.7021525033e+000
 6.7127157633e-001	 1.1674324475e+000	-1.7005934585e+000
 6.5856849428e-001	 1.1746453272e+000	-1.6938009231e+000
 7.8643216915e-001	 1.1013758993e+000	-1.5666818602e+000
 7.7430759400e-001	 1.1099334166e+000	-1.5933975670e+000
 7.6210178559e-001	 1.1183493808e+000	-1.6189810463e+000
 7.4981719811e-001	 1.1266226891e+000	-1.6428407124e+000
 7.3745630424e-001	 1.1347522948e+000	-1.6643239006e+000
 7.2502159356e-001	 1.1427372075e+000	-1.6827182451e+000
 7.1251557091e-001	 1.1505764939e+000	-1.6972535333e+000
 6.9994075485e-001	 1.1582692775e+000	-1.7071040350e+000
 6.8729967605e-001	 1.1658147390e+000	-1.7113913016e+000
 6.7459487568e-001	 1.1732121165e+000	-1.7091874274e+000
 6.6182890382e-001	 1.1804607054e+000	-1.7004178262e+000
 7.9030641963e-001	 1.1068016769e+000	-1.5863148086e+000
 7.7812211442e-001	 1.1154013517e+000	-1.6114860545e+000
 7.6585617576e-001	 1.1238587760e+000	-1.6354811847e+000
 7.5351106994e-001	 1.1321728416e+000	-1.6577589469e+000
 7.4108928182e-001	 1.1403424967e+000	-1.6777140382e+000
 7.2859331323e-001	 1.1483667460e+000	-1.6946783776e+000
 7.1602568138e-001	 1.1562446516e+000	-1.7079228724e+000
 7.0338891721e-001	 1.1639753326e+000	-1.7166596794e+000
 6.9068556387e-001	 1.1715579658e+000	-1.7200449538e+000
 6.7791817503e-001	 1.1789917855e+000	-1.7171820807e+000
 6.6508931336e-001	 1.1862760835e+000	-1.7072237188e+000
 7.9418067010e-001	 1.1122274546e+000	-1.6053166303e+000
 7.8193663483e-001	 1.1208692868e+000	-1.6289814447e+000
 7.6961056592e-001	 1.1293681712e+000	-1.6514113822e+000
 7.5720494177e-001	 1.1377229942e+000	-1.6721181494e+000
 7.4472225940e-001	 1.1459326986e+000	-1.6905463366e+000
 7.3216503291e-001	 1.1539962845e+000	-1.7060745777e+000
 7.1953579184e-001	 1.1619128092e+000	-1.7180172231e+000
 7.0683707957e-001	 1.1696813877e+000	-1.7256265260e+000
 6.9407145168e-001	 1.1773011926e+000	-1.7280953368e+000
 6.8124147438e-001	 1.1847714544e+000	-1.7245602989e+000
 6.6834972289e-001	 1.1920914617e+000	-1.7141055323e+000
 7.9805492058e-001	 1.1176532323e+000	-1.6236532875e+000
 7.8575115525e-001	 1.1263372219e+000	-1.6458517412e+000
 7.7336495609e-001	 1.1348775664e+000	-1.6667417111e+000
 7.6089881360e-001	 1.1432731467e+000	-1.6858904475e+000
 7.4835523698e-001	 1.1515229005e+000	-1.7027949237e+000
 7.3573675259e-001	 1.1596258230e+000	-1.7168828763e+000
 7.2304590231e-001	 1.1675809669e+000	-1.7275143779e+000
 7.1028524192e-001	 1.1753874428e+000	-1.7339839434e+000
 6.9745733949e-001	 1.1830444194e+000	-1.7355231639e+000
 6.8456477373e-001	 1.1905511234e+000	-1.7313038624e+000
 6.7161013243e-001	 1.1979068398e+000	-1.7204417580e+000
 8.0192917106e-001	 1.1230790100e+000	-1.6412894497e+000
 7.8956567566e-001	 1.1318051570e+000	-1.6620636431e+000
 7.7711934627e-001	 1.1403869616e+000	-1.6814409334e+000
 7.6459268543e-001	 1.1488232992e+000	-1.6990466596e+000
 7.5198821455e-001	 1.1571131024e+000	-1.7144326269e+000
 7.3930847226e-001	 1.1652553615e+000	-1.7270780208e+000
 7.2655601278e-001	 1.1732491246e+000	-1.7363908728e+000
 7.1373340428e-001	 1.1810934980e+000	-1.7417100809e+000
 7.0084322730e-001	 1.1887876462e+000	-1.7423079779e+000
 6.8788807308e-001	 1.1963307924e+000	-1.7373934423e+000
 6.7487054197e-001	 1.2037222180e+000	-1.7261155385e+000
 8.0580342153e-001	 1.1285047876e+000	-1.6581885011e+000
 7.9338019608e-001	 1.1372730921e+000	-1.6775825518e+000
 7.8087373644e-001	 1.1458963568e+000	-1.6954765062e+000
 7.6828655726e-001	 1.1543734518e+000	-1.7115562984e+000
 7.5562119213e-001	 1.1627033043e+000	-1.7254309748e+000
 7.4288019194e-001	 1.1708849000e+000	-1.7366334752e+000
 7.3006612325e-001	 1.1789172823e+000	-1.7446219854e+000
 7.1718156664e-001	 1.1867995531e+000	-1.7487818649e+000
 7.0422911511e-001	 1.1945308730e+000	-1.7484281455e+000
 6.9121137244e-001	 1.2021104613e+000	-1.7428085920e+000
 6.7813095151e-001	 1.2095375961e+000	-1.7311073151e+000
 8.0967767201e-001	 1.1339305653e+000	-1.6743125495e+000
 7.9719471650e-001	 1.1427410272e+000	-1.6923725776e+000
 7.8462812661e-001	 1.1514057520e+000	-1.7088145867e+000
 7.7198042909e-001	 1.1599236043e+000	-1.7233875743e+000
 7.5925416971e-001	 1.1682935063e+000	-1.7357601992e+000
 7.4645191162e-001	 1.1765144385e+000	-1.7455214208e+000
 7.3357623371e-001	 1.1845854399e+000	-1.7521817333e+000
 7.2062972899e-001	 1.1925056082e+000	-1.7551749951e+000
 7.0761500292e-001	 1.2002740998e+000	-1.7538608509e+000
 6.9453467179e-001	 1.2078901303e+000	-1.7475277394e+000
 6.8139136105e-001	 1.2153529743e+000	-1.7353964727e+000
 8.1355192249e-001	 1.1393563430e+000	-1.6896224346e+000
 8.0100923691e-001	 1.1482089623e+000	-1.7063965473e+000
 7.8838251678e-001	 1.1569151472e+000	-1.7214200383e+000
 7.7567430092e-001	 1.1654737568e+000	-1.7345074005e+000
 7.6288714729e-001	 1.1738837082e+000	-1.7453892378e+000
 7.5002363130e-001	 1.1821439770e+000	-1.7537127565e+000
 7.3708634418e-001	 1.1902535976e+000	-1.7590428735e+000
 7.2407789135e-001	 1.1982116633e+000	-1.7608639418e+000
 7.1100089074e-001	 1.2060173266e+000	-1.7585820918e+000
 6.9785797114e-001	 1.2136697993e+000	-1.7515281791e+000
 6.8465177058e-001	 1.2211683524e+000	-1.7389613296e+000
 6.5204767521e-001	 1.1630145709e+000	-1.6811566966e+000
 6.3941452446e-001	 1.1700077671e+000	-1.6851300130e+000
 6.2672616808e-001	 1.1768532003e+000	-1.6948594261e+000
 6.1398513500e-001	 1.1835503470e+000	-1.7087176187e+000
 6.0119395671e-001	 1.1900987399e+000	-1.7250994865e+000
 5.8835516572e-001	 1.1964979680e+000	-1.7424330078e+000
 5.7547129409e-001	 1.2027476759e+000	-1.7591892809e+000
 5.6254487187e-001	 1.2088475640e+000	-1.7738916852e+000
 5.4957842567e-001	 1.2147973878e+000	-1.7851241287e+000
 5.3657447720e-001	 1.2205969578e+000	-1.7915383527e+000
 5.2353554182e-001	 1.2262461389e+000	-1.7918602728e+000
 6.5530808475e-001	 1.1688299491e+000	-1.6873792995e+000
 6.4261176493e-001	 1.1758581131e+000	-1.6885371127e+000
 6.2985996344e-001	 1.1827377753e+000	-1.6959606855e+000
 6.1705522184e-001	 1.1894684094e+000	-1.7079202624e+000
 6.0420008430e-001	 1.1960495460e+000	-1.7227104631e+000
 5.9129709599e-001	 1.2024807719e+000	-1.7386615964e+000
 5.7834880162e-001	 1.2087617300e+000	-1.7541501092e+000
 5.6535774389e-001	 1.2148921192e+000	-1.7676081269e+000
 5.5232646206e-001	 1.2208716937e+000	-1.7775320438e+000
 5.3925749043e-001	 1.2267002630e+000	-1.7824901369e+000
 5.2615335696e-001	 1.2323776915e+000	-1.7811291791e+000
 6.5856849428e-001	 1.1746453272e+000	-1.6938009231e+000
 6.4580900540e-001	 1.1817084591e+000	-1.6920569217e+000
 6.3299375879e-001	 1.1886223502e+000	-1.6970992300e+000
 6.2012530869e-001	 1.1953864718e+000	-1.7070957542e+000
 6.0720621190e-001	 1.2020003522e+000	-1.7202411670e+000
 5.9423902627e-001	 1.2084635759e+000	-1.7347686707e+000
 5.8122630915e-001	 1.2147757841e+000	-1.7489608621e+000
 5.6817061592e-001	 1.2209366743e+000	-1.7611596540e+000
 5.5507449845e-001	 1.2269459995e+000	-1.7697752121e+000
 5.4194050367e-001	 1.2328035682e+000	-1.7732938779e+000
 5.2877117210e-001	 1.2385092441e+000	-1.7702850533e+000
 6.6182890382e-001	 1.1804607054e+000	-1.7004178262e+000
 6.4900624587e-001	 1.1875588050e+000	-1.6956893563e+000
 6.3612755415e-001	 1.1945069251e+000	-1.6982799863e+000
 6.2319539553e-001	 1.2013045343e+000	-1.7062553158e+000
 6.1021233949e-001	 1.2079511583e+000	-1.7177103324e+000
 5.9718095654e-001	 1.2144463798e+000	-1.7307816288e+000
 5.8410381668e-001	 1.2207898382e+000	-1.7436586880e+000
 5.7098348795e-001	 1.2269812295e+000	-1.7545941898e+000
 5.5782253484e-001	 1.2330203053e+000	-1.7619132953e+000
 5.4462351691e-001	 1.2389068734e+000	-1.7640218802e+000
 5.3138898724e-001	 1.2446407967e+000	-1.7594136913e+000
 6.6508931336e-001	 1.1862760835e+000	-1.7072237188e+000
 6.5220348633e-001	 1.1934091510e+000	-1.6994321063e+000
 6.3926134950e-001	 1.2003915000e+000	-1.6995059428e+000
 6.2626548238e-001	 1.2072225967e+000	-1.7054084843e+000
 6.1321846709e-001	 1.2139019644e+000	-1.7151352275e+000
 6.0012288681e-001	 1.2204291837e+000	-1.7267265863e+000
 5.8698132421e-001	 1.2268038923e+000	-1.7382796021e+000
 5.7379635997e-001	 1.2330257846e+000	-1.7479586379e+000
 5.6057057124e-001	 1.2390946111e+000	-1.7540050139e+000
 5.4730653015e-001	 1.2450101786e+000	-1.7547455511e+000
 5.3400680237e-001	 1.2507723493e+000	-1.7486000005e+000
 6.6834972289e-001	 1.1920914617e+000	-1.7141055323e+000
 6.5540072680e-001	 1.1992594970e+000	-1.7032805300e+000
 6.4239514486e-001	 1.2062760750e+000	-1.7007780469e+000
 6.2933556922e-001	 1.2131406591e+000	-1.7045630127e+000
 6.1622459469e-001	 1.2198527705e+000	-1.7125315595e+000
 6.0306481708e-001	 1.2264119876e+000	-1.7226282867e+000
 5.8985883175e-001	 1.2328179465e+000	-1.7328584016e+000
 5.7660923200e-001	 1.2390703397e+000	-1.7412988041e+000
 5.6331860763e-001	 1.2451689170e+000	-1.7461080759e+000
 5.4998954338e-001	 1.2511134838e+000	-1.7455353363e+000
 5.3662461751e-001	 1.2569039019e+000	-1.7379279433e+000
 6.7161013243e-001	 1.1979068398e+000	-1.7204417580e+000
 6.5859796727e-001	 1.2051098429e+000	-1.7072275489e+000
 6.4552894021e-001	 1.2121606499e+000	-1.7020951035e+000
 6.3240565607e-001	 1.2190587215e+000	-1.7037247720e+000
 6.1923072228e-001	 1.2258035766e+000	-1.7099133804e+000
 6.0600674735e-001	 1.2323947916e+000	-1.7185100119e+000
 5.9273633928e-001	 1.2388320006e+000	-1.7274285817e+000
 5.7942210403e-001	 1.2451148949e+000	-1.7346593179e+000
 5.6606664402e-001	 1.2512432228e+000	-1.7382791052e+000
 5.5267255662e-001	 1.2572167890e+000	-1.7364606554e+000
 5.3924243265e-001	 1.2630354545e+000	-1.7274804808e+000
 6.7487054197e-001	 1.2037222180e+000	-1.7261155385e+000
 6.6179520774e-001	 1.2109601889e+000	-1.7112635448e+000
 6.4866273557e-001	 1.2180452248e+000	-1.7034536732e+000
 6.3547574291e-001	 1.2249767839e+000	-1.7028976530e+000
 6.2223684988e-001	 1.2317543827e+000	-1.7072929935e+000
 6.0894867762e-001	 1.2383775955e+000	-1.7143934931e+000
 5.9561384681e-001	 1.2448460547e+000	-1.7220222525e+000
 5.8223497606e-001	 1.2511594500e+000	-1.7280835554e+000
 5.6881468042e-001	 1.2573175286e+000	-1.7305735706e+000
 5.5535556986e-001	 1.2633200942e+000	-1.7275898384e+000
 5.4186024779e-001	 1.2691670070e+000	-1.7173395165e+000
 6.7813095151e-001	 1.2095375961e+000	-1.7311073151e+000
 6.6499244820e-001	 1.2168105349e+000	-1.7153762555e+000
 6.5179653092e-001	 1.2239297998e+000	-1.7048479726e+000
 6.3854582976e-001	 1.2308948464e+000	-1.7020834696e+000
 6.2524297748e-001	 1.2377051888e+000	-1.7046808608e+000
 6.1189060790e-001	 1.2443603994e+000	-1.7102988233e+000
 5.9849135434e-001	 1.2508601088e+000	-1.7166700557e+000
 5.8504784809e-001	 1.2572040052e+000	-1.7216135622e+000
 5.7156271681e-001	 1.2633918344e+000	-1.7230457157e+000
 5.5803858310e-001	 1.2694233994e+000	-1.7189900623e+000
 5.4447806293e-001	 1.2752985596e+000	-1.7075858400e+000
 6.8139136105e-001	 1.2153529743e+000	-1.7353964727e+000
 6.6818968867e-001	 1.2226608808e+000	-1.7194678831e+000
 6.5493032628e-001	 1.2298143747e+000	-1.7062697744e+000
 6.4161591661e-001	 1.2368129088e+000	-1.7012818630e+000
 6.2824910508e-001	 1.2436559949e+000	-1.7020855103e+000
 6.1483253817e-001	 1.2503432033e+000	-1.7062443691e+000
 6.0136886188e-001	 1.2568741629e+000	-1.7114010827e+000
 5.8786072012e-001	 1.2632485603e+000	-1.7152899771e+000
 5.7431075321e-001	 1.2694661403e+000	-1.7157484884e+000
 5.6072159634e-001	 1.2755267046e+000	-1.7107272871e+000
 5.4709587807e-001	 1.2814301122e+000	-1.6982990715e+000
 6.8465177058e-001	 1.2211683524e+000	-1.7389613296e+000
 6.7138692914e-001	 1.2285112268e+000	-1.7229510593e+000
 6.5806412163e-001	 1.2356989496e+000	-1.7077083081e+000
 6.4468600345e-001	 1.2427309712e+000	-1.7004902054e+000
 6.3125523267e-001	 1.2496068010e+000	-1.6995134451e+000
 6.1777446844e-001	 1.2563260072e+000	-1.7022466845e+000
 6.0424636941e-001	 1.2628882170e+000	-1.7062427929e+000
 5.9067359215e-001	 1.2692931155e+000	-1.7091519559e+000
 5.7705878960e-001	 1.2755404461e+000	-1.7087334711e+000
 5.6340460958e-001	 1.2816300098e+000	-1.7028661937e+000
 5.4971369321e-001	 1.2875616648e+000	-1.6895576056e+000
 5.2353554182e-001	 1.2262461389e+000	-1.7918602728e+000
 5.1046216404e-001	 1.2317456639e+000	-1.7898966369e+000
 4.9735879742e-001	 1.2370946472e+000	-1.7898702576e+000
 4.8422793165e-001	 1.2422931153e+000	-1.7912651599e+000
 4.7107204451e-001	 1.2473411471e+000	-1.7936679564e+000
 4.5789360059e-001	 1.2522388732e+000	-1.7967678334e+000
 4.4469505000e-001	 1.2569864756e+000	-1.8003556025e+000
 4.3147882712e-001	 1.2615841866e+000	-1.8043218544e+000
 4.1824734936e-001	 1.2660322882e+000	-1.8086542469e+000
 4.0500301600e-001	 1.2703311115e+000	-1.8134339726e+000
 3.9174820702e-001	 1.2744810358e+000	-1.8188314516e+000
 5.2615335696e-001	 1.2323776915e+000	-1.7811291791e+000
 5.1301460885e-001	 1.2379047155e+000	-1.7773330987e+000
 4.9984572197e-001	 1.2432804452e+000	-1.7754611070e+000
 4.8664919842e-001	 1.2485049070e+000	-1.7750128304e+000
 4.7342752839e-001	 1.2535781802e+000	-1.7755949318e+000
 4.6018318879e-001	 1.2585003963e+000	-1.7769210423e+000
 4.4691864199e-001	 1.2632717380e+000	-1.7788107294e+000
 4.3363633452e-001	 1.2678924387e+000	-1.7811875331e+000
 4.2033869590e-001	 1.2723627819e+000	-1.7840761098e+000
 4.0702813740e-001	 1.2766831005e+000	-1.7875985258e+000
 3.9370705089e-001	 1.2808537755e+000	-1.7919697506e+000
 5.2877117210e-001	 1.2385092441e+000	-1.7702850533e+000
 5.1556705367e-001	 1.2440637672e+000	-1.7647113103e+000
 5.0233264651e-001	 1.2494662431e+000	-1.7610637502e+000
 4.8907046519e-001	 1.2547166987e+000	-1.7588505537e+000
 4.7578301227e-001	 1.2598152134e+000	-1.7576913120e+000
 4.6247277699e-001	 1.2647619194e+000	-1.7573169214e+000
 4.4914223397e-001	 1.2695570003e+000	-1.7575684807e+000
 4.3579384191e-001	 1.2742006908e+000	-1.7583952258e+000
 4.2243004243e-001	 1.2786932757e+000	-1.7598515407e+000
 4.0905325879e-001	 1.2830350895e+000	-1.7620930900e+000
 3.9566589476e-001	 1.2872265152e+000	-1.7653721232e+000
 5.3138898724e-001	 1.2446407967e+000	-1.7594136913e+000
 5.1811949849e-001	 1.2502228189e+000	-1.7521290922e+000
 5.0481957106e-001	 1.2556520411e+000	-1.7467843470e+000
 4.9149173196e-001	 1.2609284903e+000	-1.7428892413e+000
 4.7813849615e-001	 1.2660522466e+000	-1.7400692769e+000
 4.6476236519e-001	 1.2710234425e+000	-1.7380655443e+000
 4.5136582595e-001	 1.2758422626e+000	-1.7367335643e+000
 4.3795134931e-001	 1.2805089429e+000	-1.7360411340e+000
 4.2452138897e-001	 1.2850237695e+000	-1.7360652184e+000
 4.1107838018e-001	 1.2893870785e+000	-1.7369879336e+000
 3.9762473863e-001	 1.2935992550e+000	-1.7390916735e+000
 5.3400680237e-001	 1.2507723493e+000	-1.7486000005e+000
 5.2067194331e-001	 1.2563818705e+000	-1.7396833956e+000
 5.0730649560e-001	 1.2618378391e+000	-1.7327282588e+000
 4.9391299873e-001	 1.2671402820e+000	-1.7272391273e+000
 4.8049398003e-001	 1.2722892797e+000	-1.7228404975e+000
 4.6705195340e-001	 1.2772849655e+000	-1.7192766898e+000
 4.5358941793e-001	 1.2821275250e+000	-1.7164106491e+000
 4.4010885671e-001	 1.2868171950e+000	-1.7142217163e+000
 4.2661273551e-001	 1.2913542633e+000	-1.7128024127e+000
 4.1310350158e-001	 1.2957390676e+000	-1.7123542856e+000
 3.9958358250e-001	 1.2999719947e+000	-1.7131828684e+000
 5.3662461751e-001	 1.2569039019e+000	-1.7379279433e+000
 5.2322438812e-001	 1.2625409222e+000	-1.7274702522e+000
 5.0979342015e-001	 1.2680236371e+000	-1.7190000045e+000
 4.9633426550e-001	 1.2733520737e+000	-1.7120097292e+000
 4.8284946391e-001	 1.2785263129e+000	-1.7061160995e+000
 4.6934154160e-001	 1.2835464886e+000	-1.7010598060e+000
 4.5581300992e-001	 1.2884127873e+000	-1.6967043297e+000
 4.4226636411e-001	 1.2931254471e+000	-1.6930336522e+000
 4.2870408204e-001	 1.2976847571e+000	-1.6901489455e+000
 4.1512862297e-001	 1.3020910566e+000	-1.6882642920e+000
 4.0154242637e-001	 1.3063447344e+000	-1.6877014887e+000
 5.3924243265e-001	 1.2630354545e+000	-1.7274804808e+000
 5.2577683294e-001	 1.2686999738e+000	-1.7155847260e+000
 5.1228034469e-001	 1.2742094350e+000	-1.7057032177e+000
 4.9875553227e-001	 1.2795638654e+000	-1.6973098082e+000
 4.8520494779e-001	 1.2847633461e+000	-1.6900066266e+000
 4.7163112980e-001	 1.2898080117e+000	-1.6835239754e+000
 4.5803660190e-001	 1.2946980496e+000	-1.6777190909e+000
 4.4442387151e-001	 1.2994336992e+000	-1.6725738044e+000
 4.3079542858e-001	 1.3040152508e+000	-1.6681911506e+000
 4.1715374436e-001	 1.3084430456e+000	-1.6647909727e+000
 4.0350127024e-001	 1.3127174742e+000	-1.6627045812e+000
 5.4186024779e-001	 1.2691670070e+000	-1.7173395165e+000
 5.2832927776e-001	 1.2748590255e+000	-1.7041208632e+000
 5.1476726924e-001	 1.2803952330e+000	-1.6929406027e+000
 5.0117679904e-001	 1.2857756571e+000	-1.6832473300e+000
 4.8756043167e-001	 1.2910003792e+000	-1.6746220034e+000
 4.7392071800e-001	 1.2960695348e+000	-1.6667778792e+000
 4.6026019388e-001	 1.3009833120e+000	-1.6595592723e+000
 4.4658137891e-001	 1.3057419513e+000	-1.6529391832e+000
 4.3288677512e-001	 1.3103457446e+000	-1.6470158355e+000
 4.1917886576e-001	 1.3147950346e+000	-1.6420081786e+000
 4.0546011411e-001	 1.3190902139e+000	-1.6382504113e+000
 5.4447806293e-001	 1.2752985596e+000	-1.7075858400e+000
 5.3088172258e-001	 1.2810180771e+000	-1.6931716439e+000
 5.1725419378e-001	 1.2865810310e+000	-1.6808138910e+000
 5.0359806581e-001	 1.2919874487e+000	-1.6699294252e+000
 4.8991591555e-001	 1.2972374124e+000	-1.6600714994e+000
 4.7621030620e-001	 1.3023310579e+000	-1.6509297619e+000
 4.6248378587e-001	 1.3072685743e+000	-1.6423290331e+000
 4.4873888631e-001	 1.3120502034e+000	-1.6342269090e+000
 4.3497812166e-001	 1.3166762384e+000	-1.6267102418e+000
 4.2120398715e-001	 1.3211470236e+000	-1.6199905497e+000
 4.0741895798e-001	 1.3254629536e+000	-1.6143984158e+000
 5.4709587807e-001	 1.2814301122e+000	-1.6982990715e+000
 5.3343416740e-001	 1.2871771288e+000	-1.6828289323e+000
 5.1974111833e-001	 1.2927668290e+000	-1.6694237974e+000
 5.0601933258e-001	 1.2981992404e+000	-1.6574623498e+000
 4.9227139943e-001	 1.3034744456e+000	-1.6464636911e+000
 4.7849989440e-001	 1.3085925810e+000	-1.6360873960e+000
 4.6470737785e-001	 1.3135538367e+000	-1.6261323165e+000
 4.5089639371e-001	 1.3183584555e+000	-1.6165341769e+000
 4.3706946819e-001	 1.3230067322e+000	-1.6073620074e+000
 4.2322910854e-001	 1.3274990127e+000	-1.5988134729e+000
 4.0937780185e-001	 1.3318356934e+000	-1.5912091575e+000
 5.4971369321e-001	 1.2875616648e+000	-1.6895576056e+000
 5.3598661222e-001	 1.2933361804e+000	-1.6731834283e+000
 5.2222804288e-001	 1.2989526269e+000	-1.6588699769e+000
 5.0844059935e-001	 1.3044110321e+000	-1.6459514454e+000
 4.9462688332e-001	 1.3097114787e+000	-1.6339064261e+000
 4.8078948260e-001	 1.3148541040e+000	-1.6223580465e+000
 4.6693096984e-001	 1.3198390990e+000	-1.6110728151e+000
 4.5305390111e-001	 1.3246667076e+000	-1.5999582200e+000
 4.3916081473e-001	 1.3293372259e+000	-1.5890591277e+000
 4.2525422994e-001	 1.3338510017e+000	-1.5785631038e+000
 4.1133664571e-001	 1.3382084331e+000	-1.5696417206e+000
 3.9174820702e-001	 1.2744810358e+000	-1.8188314516e+000
 3.7848528178e-001	 1.2784824874e+000	-1.8253905890e+000
 3.6521657738e-001	 1.2823359378e+000	-1.8330919125e+000
 3.5194440822e-001	 1.2860419042e+000	-1.8413776835e+000
 3.3867106518e-001	 1.2896009480e+000	-1.8497564855e+000
 3.2539881461e-001	 1.2930136750e+000	-1.8577974717e+000
 3.1212989743e-001	 1.2962807336e+000	-1.8651241548e+000
 2.9886652818e-001	 1.2994028142e+000	-1.8714077999e+000
 2.8561089417e-001	 1.3023806482e+000	-1.8763604874e+000
 2.7236515463e-001	 1.3052150068e+000	-1.8797279105e+000
 2.5913143995e-001	 1.3079067005e+000	-1.8812819702e+000
 3.9370705089e-001	 1.2808537755e+000	-1.7919697506e+000
 3.8037780754e-001	 1.2848752354e+000	-1.7976952459e+000
 3.6704275613e-001	 1.2887479541e+000	-1.8046580055e+000
 3.5370422265e-001	 1.2924724513e+000	-1.8122612356e+000
 3.4036450940e-001	 1.2960492913e+000	-1.8199775741e+000
 3.2702589410e-001	 1.2994790828e+000	-1.8273431950e+000
 3.1369062886e-001	 1.3027624776e+000	-1.8339514335e+000
 3.0036093928e-001	 1.3059001694e+000	-1.8394459990e+000
 2.8703902361e-001	 1.3088928933e+000	-1.8435138429e+000
 2.7372705190e-001	 1.3117414245e+000	-1.8458777458e+000
 2.6042716518e-001	 1.3144465773e+000	-1.8462886944e+000
 3.9566589476e-001	 1.2872265152e+000	-1.7653721232e+000
 3.8227033330e-001	 1.2912679834e+000	-1.7701466019e+000
 3.6886893489e-001	 1.2951599705e+000	-1.7762009060e+000
 3.5546403707e-001	 1.2989029984e+000	-1.7829041253e+000
 3.4205795363e-001	 1.3024976346e+000	-1.7896981847e+000
 3.2865297359e-001	 1.3059444906e+000	-1.7960917862e+000
 3.1525136028e-001	 1.3092442215e+000	-1.8016538540e+000
 3.0185535037e-001	 1.3123975245e+000	-1.8060065483e+000
 2.8846715306e-001	 1.3154051384e+000	-1.8088179182e+000
 2.7508894917e-001	 1.3182678421e+000	-1.8097942621e+000
 2.6172289040e-001	 1.3209864542e+000	-1.8086722652e+000
 3.9762473863e-001	 1.2935992550e+000	-1.7390916735e+000
 3.8416285906e-001	 1.2976607315e+000	-1.7427803414e+000
 3.7069511365e-001	 1.3015719868e+000	-1.7477410023e+000
 3.5722385150e-001	 1.3053335455e+000	-1.7533135248e+000
 3.4375139786e-001	 1.3089459778e+000	-1.7589143099e+000
 3.3028005308e-001	 1.3124098984e+000	-1.7640300551e+000
 3.1681209170e-001	 1.3157259654e+000	-1.7682109995e+000
 3.0334976146e-001	 1.3188948797e+000	-1.7710637211e+000
 2.8989528250e-001	 1.3219173835e+000	-1.7722435566e+000
 2.7645084644e-001	 1.3247942598e+000	-1.7714467151e+000
 2.6301861562e-001	 1.3275263310e+000	-1.7684021570e+000
 3.9958358250e-001	 1.2999719947e+000	-1.7131828684e+000
 3.8605538483e-001	 1.3040534795e+000	-1.7156338985e+000
 3.7252129240e-001	 1.3079840031e+000	-1.7193007568e+000
 3.5898366593e-001	 1.3117640926e+000	-1.7234989438e+000
 3.4544484209e-001	 1.3153943211e+000	-1.7276244856e+000
 3.3190713258e-001	 1.3188753062e+000	-1.7311475021e+000
 3.1837282312e-001	 1.3222077094e+000	-1.7336052355e+000
 3.0484417256e-001	 1.3253922349e+000	-1.7345946117e+000
 2.9132341194e-001	 1.3284296286e+000	-1.7337644083e+000
 2.7781274371e-001	 1.3313206774e+000	-1.7308071026e+000
 2.6431434084e-001	 1.3340662078e+000	-1.7254948019e+000
 4.0154242637e-001	 1.3063447344e+000	-1.6877014887e+000
 3.8794791059e-001	 1.3104462276e+000	-1.6887464022e+000
 3.7434747116e-001	 1.3143960194e+000	-1.6909046477e+000
 3.6074348035e-001	 1.3181946397e+000	-1.6934721693e+000
 3.4713828631e-001	 1.3218426644e+000	-1.6958297280e+000
 3.3353421207e-001	 1.3253407140e+000	-1.6974362554e+000
 3.1993355454e-001	 1.3286894533e+000	-1.6978216477e+000
 3.0633858365e-001	 1.3318895900e+000	-1.6965790734e+000
 2.9275154139e-001	 1.3349418737e+000	-1.6935438141e+000
 2.7917464098e-001	 1.3378470951e+000	-1.6893464703e+000
 2.6561006606e-001	 1.3406060847e+000	-1.6838072486e+000
 4.0350127024e-001	 1.3127174742e+000	-1.6627045812e+000
 3.8984043635e-001	 1.3168389756e+000	-1.6621586242e+000
 3.7617364992e-001	 1.3208080357e+000	-1.6625791120e+000
 3.6250329478e-001	 1.3246251868e+000	-1.6632472058e+000
 3.4883173054e-001	 1.3282910076e+000	-1.6635334725e+000
 3.3516129155e-001	 1.3318061218e+000	-1.6628910083e+000
 3.2149428596e-001	 1.3351711973e+000	-1.6610664305e+000
 3.0783299474e-001	 1.3383869452e+000	-1.6587012461e+000
 2.9417967083e-001	 1.3414541189e+000	-1.6555864282e+000
 2.8053653824e-001	 1.3443735128e+000	-1.6513871844e+000
 2.6690579128e-001	 1.3471459615e+000	-1.6457695206e+000
 4.0546011411e-001	 1.3190902139e+000	-1.6382504113e+000
 3.9173296211e-001	 1.3232317236e+000	-1.6359129260e+000
 3.7799982867e-001	 1.3272200520e+000	-1.6343524904e+000
 3.6426310920e-001	 1.3310557339e+000	-1.6328402170e+000
 3.5052517477e-001	 1.3347393509e+000	-1.6308549418e+000
 3.3678837104e-001	 1.3382715296e+000	-1.6289524311e+000
 3.2305501738e-001	 1.3416529412e+000	-1.6269961076e+000
 3.0932740584e-001	 1.3448843003e+000	-1.6246105584e+000
 2.9560780027e-001	 1.3479663640e+000	-1.6214331487e+000
 2.8189843551e-001	 1.3508999304e+000	-1.6171089581e+000
 2.6820151650e-001	 1.3536858383e+000	-1.6112859004e+000
 4.0741895798e-001	 1.3254629536e+000	-1.6143984158e+000
 3.9362548787e-001	 1.3296244717e+000	-1.6100532082e+000
 3.7982600743e-001	 1.3336320683e+000	-1.6062601051e+000
 3.6602292363e-001	 1.3374862810e+000	-1.6031532165e+000
 3.5221861899e-001	 1.3411876941e+000	-1.6008351565e+000
 3.3841545053e-001	 1.3447369374e+000	-1.5988643083e+000
 3.2461574880e-001	 1.3481346852e+000	-1.5968247734e+000
 3.1082181693e-001	 1.3513816555e+000	-1.5943209119e+000
 2.9703592971e-001	 1.3544786091e+000	-1.5909720681e+000
 2.8326033278e-001	 1.3574263481e+000	-1.5864074819e+000
 2.6949724172e-001	 1.3602257151e+000	-1.5802613856e+000
 4.0937780185e-001	 1.3318356934e+000	-1.5912091575e+000
 3.9551801363e-001	 1.3360172197e+000	-1.5849346863e+000
 3.8165218618e-001	 1.3400440846e+000	-1.5804081871e+000
 3.6778273806e-001	 1.3439168281e+000	-1.5771747886e+000
 3.5391206322e-001	 1.3476360374e+000	-1.5747379810e+000
 3.4004253002e-001	 1.3512023452e+000	-1.5726350739e+000
 3.2617648022e-001	 1.3546164291e+000	-1.5704315107e+000
 3.1231622802e-001	 1.3578790107e+000	-1.5677153713e+000
 2.9846405916e-001	 1.3609908542e+000	-1.5640920622e+000
 2.8462223005e-001	 1.3639527657e+000	-1.5591791963e+000
 2.7079296694e-001	 1.3667655920e+000	-1.5526016583e+000
 4.1133664571e-001	 1.3382084331e+000	-1.5696417206e+000
 3.9741053939e-001	 1.3424099678e+000	-1.5631036760e+000
 3.8347836494e-001	 1.3464561009e+000	-1.5584231086e+000
 3.6954255248e-001	 1.3503473752e+000	-1.5550410433e+000
 3.5560550744e-001	 1.3540843807e+000	-1.5524408622e+000
 3.4166960951e-001	 1.3576677530e+000	-1.5501423819e+000
 3.2773721164e-001	 1.3610981730e+000	-1.5476961204e+000
 3.1381063911e-001	 1.3643763658e+000	-1.5446777525e+000
 2.9989218860e-001	 1.3675030993e+000	-1.5406827580e+000
 2.8598412731e-001	 1.3704791834e+000	-1.5353212603e+000
 2.7208869216e-001	 1.3733054688e+000	-1.5282130544e+000
 2.5913143995e-001	 1.3079067005e+000	-1.8812819702e+000
 2.4591383207e-001	 1.3104562057e+000	-1.8819798194e+000
 2.3271241205e-001	 1.3128648225e+000	-1.8829416126e+000
 2.1952921545e-001	 1.3151334723e+000	-1.8842028404e+000
 2.0636624624e-001	 1.3172631115e+000	-1.8857982099e+000
 1.9322547623e-001	 1.3192547300e+000	-1.8877537543e+000
 1.8010884449e-001	 1.3211093503e+000	-1.8900791058e+000
 1.6701825681e-001	 1.3228280263e+000	-1.8927599875e+000
 1.5395558525e-001	 1.3244118423e+000	-1.8957509711e+000
 1.4092266764e-001	 1.3258619119e+000	-1.8989685487e+000
 1.2792130720e-001	 1.3271793771e+000	-1.9022845607e+000
 2.6042716518e-001	 1.3144465773e+000	-1.8462886944e+000
 2.4714346578e-001	 1.3170088308e+000	-1.8457386654e+000
 2.3387603520e-001	 1.3194294912e+000	-1.8454085572e+000
 2.2062691915e-001	 1.3217094849e+000	-1.8453542370e+000
 2.0739813165e-001	 1.3238497729e+000	-1.8456312213e+000
 1.9419165434e-001	 1.3258513500e+000	-1.8462864928e+000
 1.8100943599e-001	 1.3277152438e+000	-1.8473504853e+000
 1.6785339194e-001	 1.3294425136e+000	-1.8488292907e+000
 1.5472540359e-001	 1.3310342491e+000	-1.8506971403e+000
 1.4162731797e-001	 1.3324915695e+000	-1.8528892069e+000
 1.2856094731e-001	 1.3338156224e+000	-1.8553190077e+000
 2.6172289040e-001	 1.3209864542e+000	-1.8086722652e+000
 2.4837309949e-001	 1.3235614558e+000	-1.8064843290e+000
 2.3503965835e-001	 1.3259941599e+000	-1.8044766527e+000
 2.2172462286e-001	 1.3282854975e+000	-1.8027307633e+000
 2.0843001705e-001	 1.3304364342e+000	-1.8013281732e+000
 1.9515783244e-001	 1.3324479699e+000	-1.8003418932e+000
 1.8191002749e-001	 1.3343211374e+000	-1.7999200336e+000
 1.6868852707e-001	 1.3360570010e+000	-1.8004971565e+000
 1.5549522193e-001	 1.3376566560e+000	-1.8020234370e+000
 1.4233196830e-001	 1.3391212271e+000	-1.8043433042e+000
 1.2920058743e-001	 1.3404518676e+000	-1.8072547250e+000
 2.6301861562e-001	 1.3275263310e+000	-1.7684021570e+000
 2.4960273321e-001	 1.3301140808e+000	-1.7641868817e+000
 2.3620328149e-001	 1.3325588287e+000	-1.7601155401e+000
 2.2282232656e-001	 1.3348615101e+000	-1.7565028480e+000
 2.0946190245e-001	 1.3370230955e+000	-1.7540316214e+000
 1.9612401054e-001	 1.3390445899e+000	-1.7527407285e+000
 1.8281061899e-001	 1.3409270309e+000	-1.7525944244e+000
 1.6952366219e-001	 1.3426714884e+000	-1.7535225323e+000
 1.5626504027e-001	 1.3442790629e+000	-1.7554164290e+000
 1.4303661863e-001	 1.3457508847e+000	-1.7581251978e+000
 1.2984022754e-001	 1.3470881129e+000	-1.7614519458e+000
 2.6431434084e-001	 1.3340662078e+000	-1.7254948019e+000
 2.5083236692e-001	 1.3366667058e+000	-1.7197045308e+000
 2.3736690464e-001	 1.3391234974e+000	-1.7150293968e+000
 2.2392003026e-001	 1.3414375226e+000	-1.7115158900e+000
 2.1049378785e-001	 1.3436097569e+000	-1.7091896381e+000
 1.9709018864e-001	 1.3456412098e+000	-1.7080508500e+000
 1.8371121049e-001	 1.3475329245e+000	-1.7080699377e+000
 1.7035879732e-001	 1.3492859758e+000	-1.7091833145e+000
 1.5703485861e-001	 1.3509014698e+000	-1.7112893644e+000
 1.4374126896e-001	 1.3523805423e+000	-1.7142445786e+000
 1.3047986766e-001	 1.3537243582e+000	-1.7178598571e+000
 2.6561006606e-001	 1.3406060847e+000	-1.6838072486e+000
 2.5206200063e-001	 1.3432193308e+000	-1.6780192030e+000
 2.3853052779e-001	 1.3456881662e+000	-1.6733282694e+000
 2.2501773397e-001	 1.3480135352e+000	-1.6697890156e+000
 2.1152567325e-001	 1.3501964182e+000	-1.6674355287e+000
 1.9805636675e-001	 1.3522378298e+000	-1.6662768402e+000
 1.8461180199e-001	 1.3541388180e+000	-1.6662925318e+000
 1.7119393244e-001	 1.3559004631e+000	-1.6674285173e+000
 1.5780467694e-001	 1.3575238766e+000	-1.6695929965e+000
 1.4444591929e-001	 1.3590101999e+000	-1.6726525767e+000
 1.3111950777e-001	 1.3603606034e+000	-1.6764285569e+000
 2.6690579128e-001	 1.3471459615e+000	-1.6457695206e+000
 2.5329163434e-001	 1.3497719559e+000	-1.6398397934e+000
 2.3969415093e-001	 1.3522528349e+000	-1.6349787181e+000
 2.2611543767e-001	 1.3545895478e+000	-1.6312522044e+000
 2.1255755865e-001	 1.3567830796e+000	-1.6287059625e+000
 1.9902254485e-001	 1.3588344498e+000	-1.6273609098e+000
 1.8551239349e-001	 1.3607447116e+000	-1.6272087598e+000
 1.7202906757e-001	 1.3625149505e+000	-1.6282077887e+000
 1.5857449528e-001	 1.3641462835e+000	-1.6302787734e+000
 1.4515056962e-001	 1.3656398575e+000	-1.6333010982e+000
 1.3175914789e-001	 1.3669968487e+000	-1.6371090236e+000
 2.6820151650e-001	 1.3536858383e+000	-1.6112859004e+000
 2.5452126805e-001	 1.3563245809e+000	-1.6050803324e+000
 2.4085777408e-001	 1.3588175036e+000	-1.5999035472e+000
 2.2721314137e-001	 1.3611655604e+000	-1.5958360079e+000
 2.1358944405e-001	 1.3633697409e+000	-1.5929381598e+000
 1.9998872295e-001	 1.3654310697e+000	-1.5912458188e+000
 1.8641298499e-001	 1.3673506051e+000	-1.5907657431e+000
 1.7286420269e-001	 1.3691294379e+000	-1.5914713842e+000
 1.5934431362e-001	 1.3707686904e+000	-1.5932988100e+000
 1.4585521995e-001	 1.3722695151e+000	-1.5961427972e+000
 1.3239878800e-001	 1.3736330940e+000	-1.5998530850e+000
 2.6949724172e-001	 1.3602257151e+000	-1.5802613856e+000
 2.5575090176e-001	 1.3628772059e+000	-1.5736554910e+000
 2.4202139722e-001	 1.3653821724e+000	-1.5680261443e+000
 2.2831084507e-001	 1.3677415730e+000	-1.5634715219e+000
 2.1462132946e-001	 1.3699564022e+000	-1.5600698653e+000
 2.0095490105e-001	 1.3720276897e+000	-1.5578748510e+000
 1.8731357649e-001	 1.3739564986e+000	-1.5569111455e+000
 1.7369933782e-001	 1.3757439253e+000	-1.5571701402e+000
 1.6011413196e-001	 1.3773910972e+000	-1.5586058614e+000
 1.4655987028e-001	 1.3788991727e+000	-1.5611310476e+000
 1.3303842812e-001	 1.3802693393e+000	-1.5646133897e+000
 2.7079296694e-001	 1.3667655920e+000	-1.5526016583e+000
 2.5698053547e-001	 1.3694298309e+000	-1.5454805510e+000
 2.4318502037e-001	 1.3719468411e+000	-1.5392704524e+000
 2.2940854877e-001	 1.3743175856e+000	-1.5340903602e+000
 2.1565321486e-001	 1.3765430636e+000	-1.5300393224e+000
 2.0192107915e-001	 1.3786243096e+000	-1.5271917887e+000
 1.8821416799e-001	 1.3805623922e+000	-1.5255931480e+000
 1.7453447294e-001	 1.3823584126e+000	-1.5252554492e+000
 1.6088395030e-001	 1.3840135041e+000	-1.5261532971e+000
 1.4726452061e-001	 1.3855288304e+000	-1.5282199160e+000
 1.3367806823e-001	 1.3869055845e+000	-1.5313433781e+000
 2.7208869216e-001	 1.3733054688e+000	-1.5282130544e+000
 2.5821016918e-001	 1.3759824560e+000	-1.5204713771e+000
 2.4434864351e-001	 1.3785115099e+000	-1.5135609433e+000
 2.3050625248e-001	 1.3808935982e+000	-1.5076246289e+000
 2.1668510026e-001	 1.3831297249e+000	-1.5027852488e+000
 2.0288725725e-001	 1.3852209296e+000	-1.4991408883e+000
 1.8911475949e-001	 1.3871682857e+000	-1.4967604252e+000
 1.7536960807e-001	 1.3889729000e+000	-1.4956792354e+000
 1.6165376864e-001	 1.3906359110e+000	-1.4958950758e+000
 1.4796917094e-001	 1.3921584880e+000	-1.4973641363e+000
 1.3431770835e-001	 1.3935418298e+000	-1.4999972549e+000
 1.2792130720e-001	 1.3271793771e+000	-1.9022845607e+000
 1.1495133384e-001	 1.3283655748e+000	-1.9050951379e+000
 1.0201645631e-001	 1.3294214931e+000	-1.9071001488e+000
 8.9118398652e-002	 1.3303483529e+000	-1.9085298339e+000
 7.6258848138e-002	 1.3311473985e+000	-1.9095285024e+000
 6.3439455063e-002	 1.3318198973e+000	-1.9101500103e+000
 5.0661832530e-002	 1.3323671383e+000	-1.9103538100e+000
 3.7927556291e-002	 1.3327904308e+000	-1.9100015851e+000
 2.5238164613e-002	 1.3330911041e+000	-1.9088544807e+000
 1.2595158174e-002	 1.3332705056e+000	-1.9065709369e+000
 0.0000000000e+000	 1.3333300000e+000	-1.9027052032e+000
 1.2856094731e-001	 1.3338156224e+000	-1.8553190077e+000
 1.1552612068e-001	 1.3350077513e+000	-1.8575196920e+000
 1.0252656537e-001	 1.3360689496e+000	-1.8591141338e+000
 8.9564014040e-002	 1.3370004439e+000	-1.8602771025e+000
 7.6640162398e-002	 1.3378034849e+000	-1.8611037750e+000
 6.3756668992e-002	 1.3384793464e+000	-1.8616066228e+000
 5.0915154992e-002	 1.3390293237e+000	-1.8617124904e+000
 3.8117204030e-002	 1.3394547329e+000	-1.8612598605e+000
 2.5364362062e-002	 1.3397569096e+000	-1.8599963043e+000
 1.2658137271e-002	 1.3399372081e+000	-1.8575761147e+000
 0.0000000000e+000	 1.3399970000e+000	-1.8535581278e+000
 1.2920058743e-001	 1.3404518676e+000	-1.8072547250e+000
 1.1610090753e-001	 1.3416499279e+000	-1.8099362525e+000
 1.0303667443e-001	 1.3427164060e+000	-1.8118875351e+000
 9.0009629427e-002	 1.3436525348e+000	-1.8132952851e+000
 7.7021476658e-002	 1.3444595713e+000	-1.8142671094e+000
 6.4073882921e-002	 1.3451387955e+000	-1.8148283546e+000
 5.1168477455e-002	 1.3456915091e+000	-1.8149191388e+000
 3.8306851769e-002	 1.3461190349e+000	-1.8143915702e+000
 2.5490559511e-002	 1.3464227150e+000	-1.8130071475e+000
 1.2721116369e-002	 1.3466039106e+000	-1.8104343415e+000
 0.0000000000e+000	 1.3466640000e+000	-1.8062463625e+000
 1.2984022754e-001	 1.3470881129e+000	-1.7614519458e+000
 1.1667569437e-001	 1.3482921045e+000	-1.7645089812e+000
 1.0354678350e-001	 1.3493638625e+000	-1.7667317177e+000
 9.0455244815e-002	 1.3503046258e+000	-1.7683160841e+000
 7.7402790918e-002	 1.3511156578e+000	-1.7693795565e+000
 6.4391096851e-002	 1.3517982446e+000	-1.7699579604e+000
 5.1421799918e-002	 1.3523536946e+000	-1.7700024598e+000
 3.8496499508e-002	 1.3527833369e+000	-1.7693767285e+000
 2.5616756960e-002	 1.3530885205e+000	-1.7678543021e+000
 1.2784095467e-002	 1.3532706131e+000	-1.7651161079e+000
 0.0000000000e+000	 1.3533310000e+000	-1.7607481779e+000
 1.3047986766e-001	 1.3537243582e+000	-1.7178598571e+000
 1.1725048121e-001	 1.3549342811e+000	-1.7211856422e+000
 1.0405689256e-001	 1.3560113189e+000	-1.7235939311e+000
 9.0900860203e-002	 1.3569567168e+000	-1.7252871717e+000
 7.7784105178e-002	 1.3577717442e+000	-1.7263901740e+000
 6.4708310781e-002	 1.3584576937e+000	-1.7269468736e+000
 5.1675122381e-002	 1.3590158800e+000	-1.7269172776e+000
 3.8686147247e-002	 1.3594476389e+000	-1.7261745906e+000
 2.5742954410e-002	 1.3597543260e+000	-1.7245025184e+000
 1.2847074565e-002	 1.3599373156e+000	-1.7215927470e+000
 0.0000000000e+000	 1.3599980000e+000	-1.7170426008e+000
 1.3111950777e-001	 1.3603606034e+000	-1.6764285569e+000
 1.1782526806e-001	 1.3615764576e+000	-1.6799150155e+000
 1.0456700162e-001	 1.3626587754e+000	-1.6824225217e+000
 9.1346475591e-002	 1.3636088078e+000	-1.6841573709e+000
 7.8165419438e-002	 1.3644278306e+000	-1.6852491992e+000
 6.5025524711e-002	 1.3651171428e+000	-1.6857477079e+000
 5.1928444845e-002	 1.3656780655e+000	-1.6856195691e+000
 3.8875794986e-002	 1.3661119409e+000	-1.6847455070e+000
 2.5869151860e-002	 1.3664201314e+000	-1.6829175545e+000
 1.2910053663e-002	 1.3666040181e+000	-1.6798364806e+000
 0.0000000000e+000	 1.3666650000e+000	-1.6751093949e+000
 1.3175914789e-001	 1.3669968487e+000	-1.6371090236e+000
 1.1840005490e-001	 1.3682186342e+000	-1.6406468647e+000
 1.0507711068e-001	 1.3693062318e+000	-1.6431668984e+000
 9.1792090979e-002	 1.3702608988e+000	-1.6448766225e+000
 7.8546733698e-002	 1.3710839170e+000	-1.6459080154e+000
 6.5342738641e-002	 1.3717765919e+000	-1.6463142247e+000
 5.2181767308e-002	 1.3723402509e+000	-1.6460664326e+000
 3.9065442726e-002	 1.3727762429e+000	-1.6450508947e+000
 2.5995349309e-002	 1.3730859369e+000	-1.6430661498e+000
 1.2973032761e-002	 1.3732707206e+000	-1.6398203965e+000
 0.0000000000e+000	 1.3733320000e+000	-1.6349290433e+000
 1.3239878800e-001	 1.3736330940e+000	-1.5998530850e+000
 1.1897484175e-001	 1.3748608108e+000	-1.6033319046e+000
 1.0558721974e-001	 1.3759536882e+000	-1.6057774999e+000
 9.2237706366e-002	 1.3769129898e+000	-1.6073959510e+000
 7.8928047958e-002	 1.3777400035e+000	-1.6083191191e+000
 6.5659952571e-002	 1.3784360410e+000	-1.6086013010e+000
 5.2435089771e-002	 1.3790024363e+000	-1.6082160573e+000
 3.9255090465e-002	 1.3794405449e+000	-1.6070532089e+000
 2.6121546759e-002	 1.3797517423e+000	-1.6049160002e+000
 1.3036011859e-002	 1.3799374232e+000	-1.6015184271e+000
 0.0000000000e+000	 1.3799990000e+000	-1.5964827311e+000
 1.3303842812e-001	 1.3802693393e+000	-1.5646133897e+000
 1.1954962859e-001	 1.3815029874e+000	-1.5679217706e+000
 1.0609732880e-001	 1.3826011447e+000	-1.5702057632e+000
 9.2683321754e-002	 1.3835650807e+000	-1.5716674331e+000
 7.9309362218e-002	 1.3843960899e+000	-1.5724360875e+000
 6.5977166500e-002	 1.3850954901e+000	-1.5725648985e+000
 5.2688412234e-002	 1.3856646218e+000	-1.5720276943e+000
 3.9444738204e-002	 1.3861048470e+000	-1.5707159155e+000
 2.6247744208e-002	 1.3864175478e+000	-1.5684357336e+000
 1.3098990957e-002	 1.3866041257e+000	-1.5649053282e+000
 0.0000000000e+000	 1.3866660000e+000	-1.5597523284e+000
 1.3367806823e-001	 1.3869055845e+000	-1.5313433781e+000
 1.2012441543e-001	 1.3881451639e+000	-1.5343689888e+000
 1.0660743786e-001	 1.3892486011e+000	-1.5364040925e+000
 9.3128937142e-002	 1.3902171717e+000	-1.5376441659e+000
 7.9690676477e-002	 1.3910521763e+000	-1.5382135481e+000
 6.6294380430e-002	 1.3917549391e+000	-1.5381620332e+000
 5.2941734697e-002	 1.3923268072e+000	-1.5374616271e+000
 3.9634385943e-002	 1.3927691490e+000	-1.5360034651e+000
 2.6373941657e-002	 1.3930833533e+000	-1.5335948856e+000
 1.3161970055e-002	 1.3932708282e+000	-1.5299566589e+000
 0.0000000000e+000	 1.3933330000e+000	-1.5247203740e+000
 1.3431770835e-001	 1.3935418298e+000	-1.4999972549e+000
 1.2069920228e-001	 1.3947873405e+000	-1.5026269468e+000
 1.0711754693e-001	 1.3958960576e+000	-1.5043258289e+000
 9.3574552529e-002	 1.3968692627e+000	-1.5052802373e+000
 8.0071990737e-002	 1.3977082627e+000	-1.5056071487e+000
 6.6611594359e-002	 1.3984143882e+000	-1.5053507465e+000
 5.3195057159e-002	 1.3989889927e+000	-1.5044791446e+000
 3.9824033681e-002	 1.3994334510e+000	-1.5028812665e+000
 2.6500139106e-002	 1.3997491587e+000	-1.5003638768e+000
 1.3224949153e-002	 1.3999375307e+000	-1.4966487613e+000
 0.0000000000e+000	 1.4000000000e+000	-1.4913700596e+000
 1.4000000000e+000	 0.0000000000e+000	 3.5341622620e+000
 1.3999375307e+000	 1.3224949153e-002	 3.5328211510e+000
 1.3997491587e+000	 2.6500139106e-002	 3.5291700473e+000
 1.3994334510e+000	 3.9824033681e-002	 3.5232168204e+000
 1.3989889927e+000	 5.3195057159e-002	 3.5149348031e+000
 1.3984143882e+000	 6.6611594359e-002	 3.5042644760e+000
 1.3977082627e+000	 8.0071990737e-002	 3.4911152892e+000
 1.3968692627e+000	 9.3574552529e-002	 3.4753676213e+000
 1.3958960576e+000	 1.0711754693e-001	 3.4568748854e+000
 1.3947873405e+000	 1.2069920228e-001	 3.4354657905e+000
 1.3935418298e+000	 1.3431770835e-001	 3.4109467663e+000
 1.4066670000e+000	 0.0000000000e+000	 3.5355934610e+000
 1.4066042332e+000	 1.3287928250e-002	 3.5344465683e+000
 1.4064149642e+000	 2.6626336555e-002	 3.5308976042e+000
 1.4060977530e+000	 4.0013681419e-002	 3.5249740237e+000
 1.4056511781e+000	 5.3448379621e-002	 3.5166686146e+000
 1.4050738373e+000	 6.6928808288e-002	 3.5059411522e+000
 1.4043643491e+000	 8.0453304996e-002	 3.4927201877e+000
 1.4035213537e+000	 9.4020167917e-002	 3.4769049708e+000
 1.4025435140e+000	 1.0762765599e-001	 3.4583675161e+000
 1.4014295171e+000	 1.2127398912e-001	 3.4369548214e+000
 1.4001780751e+000	 1.3495734846e-001	 3.4124912487e+000
 1.4133340000e+000	 0.0000000000e+000	 3.5363375998e+000
 1.4132709357e+000	 1.3350907347e-002	 3.5353521575e+000
 1.4130807696e+000	 2.6752534003e-002	 3.5318872493e+000
 1.4127620550e+000	 4.0203329157e-002	 3.5259868902e+000
 1.4123133635e+000	 5.3701702083e-002	 3.5176602806e+000
 1.4117332864e+000	 6.7246022216e-002	 3.5068834359e+000
 1.4110204356e+000	 8.0834619255e-002	 3.4936009432e+000
 1.4101734447e+000	 9.4465783304e-002	 3.4777278506e+000
 1.4091909705e+000	 1.0813776505e-001	 3.4591516971e+000
 1.4080716936e+000	 1.2184877597e-001	 3.4377346913e+000
 1.4068143204e+000	 1.3559698858e-001	 3.4133160495e+000
 1.4200010000e+000	 0.0000000000e+000	 3.5363664978e+000
 1.4199376382e+000	 1.3413886444e-002	 3.5355102124e+000
 1.4197465751e+000	 2.6878731451e-002	 3.5321116368e+000
 1.4194263570e+000	 4.0392976894e-002	 3.5262283641e+000
 1.4189755490e+000	 5.3955024544e-002	 3.5178830118e+000
 1.4183927355e+000	 6.7563236144e-002	 3.5070648265e+000
 1.4176765220e+000	 8.1215933514e-002	 3.4937314145e+000
 1.4168255357e+000	 9.4911398691e-002	 3.4778105992e+000
 1.4158384269e+000	 1.0864787411e-001	 3.4592024175e+000
 1.4147138702e+000	 1.2242356281e-001	 3.4377812608e+000
 1.4134505656e+000	 1.3623662869e-001	 3.4133981749e+000
 1.4266680000e+000	 0.0000000000e+000	 3.5356516318e+000
 1.4266043408e+000	 1.3476865541e-002	 3.5348927849e+000
 1.4264123806e+000	 2.7004928898e-002	 3.5315432725e+000
 1.4260906591e+000	 4.0582624631e-002	 3.5256713277e+000
 1.4256377344e+000	 5.4208347005e-002	 3.5173100335e+000
 1.4250521846e+000	 6.7880450072e-002	 3.5064589066e+000
 1.4243326084e+000	 8.1597247772e-002	 3.4930856025e+000
 1.4234776267e+000	 9.5357014077e-002	 3.4771277456e+000
 1.4224858833e+000	 1.0915798317e-001	 3.4584948933e+000
 1.4213560468e+000	 1.2299834965e-001	 3.4370706438e+000
 1.4200868109e+000	 1.3687626881e-001	 3.4127148983e+000
 1.4333350000e+000	 0.0000000000e+000	 3.5341641437e+000
 1.4332710433e+000	 1.3539844637e-002	 3.5334716926e+000
 1.4330781860e+000	 2.7131126346e-002	 3.5301545206e+000
 1.4327549611e+000	 4.0772272367e-002	 3.5242886063e+000
 1.4322999199e+000	 5.4461669466e-002	 3.5159145915e+000
 1.4317116337e+000	 6.8197663999e-002	 3.5050393467e+000
 1.4309886948e+000	 8.1978562030e-002	 3.4916376540e+000
 1.4301297176e+000	 9.5802629464e-002	 3.4756540122e+000
 1.4291333398e+000	 1.0966809223e-001	 3.4570045715e+000
 1.4279982234e+000	 1.2357313650e-001	 3.4355792105e+000
 1.4267230562e+000	 1.3751590892e-001	 3.4112437633e+000
 1.4400020000e+000	 0.0000000000e+000	 3.5318748489e+000
 1.4399377458e+000	 1.3602823734e-002	 3.5312185254e+000
 1.4397439915e+000	 2.7257323793e-002	 3.5279176102e+000
 1.4394192631e+000	 4.0961920104e-002	 3.5220529748e+000
 1.4389621053e+000	 5.4714991926e-002	 3.5136699567e+000
 1.4383710828e+000	 6.8514877927e-002	 3.5027799093e+000
 1.4376447813e+000	 8.2359876288e-002	 3.4893618652e+000
 1.4367818086e+000	 9.6248244850e-002	 3.4733643184e+000
 1.4357807962e+000	 1.1017820129e-001	 3.4547071329e+000
 1.4346403999e+000	 1.2414792334e-001	 3.4332835904e+000
 1.4333593015e+000	 1.3815554904e-001	 3.4089625864e+000
 1.4466690000e+000	 0.0000000000e+000	 3.5287542434e+000
 1.4466044483e+000	 1.3665802830e-002	 3.5281046529e+000
 1.4464097970e+000	 2.7383521240e-002	 3.5248046411e+000
 1.4460835651e+000	 4.1151567840e-002	 3.5189371622e+000
 1.4456242907e+000	 5.4968314386e-002	 3.5105494297e+000
 1.4450305319e+000	 6.8832091854e-002	 3.4996544533e+000
 1.4443008677e+000	 8.2741190546e-002	 3.4862326857e+000
 1.4434338996e+000	 9.6693860236e-002	 3.4702337838e+000
 1.4424282527e+000	 1.1068831035e-001	 3.4515784945e+000
 1.4412825765e+000	 1.2472271018e-001	 3.4301606751e+000
 1.4399955467e+000	 1.3879518915e-001	 3.4058494602e+000
 1.4533360000e+000	 0.0000000000e+000	 3.5247725111e+000
 1.4532711508e+000	 1.3728781927e-002	 3.5241012303e+000
 1.4530756024e+000	 2.7509718687e-002	 3.5207875900e+000
 1.4527478671e+000	 4.1341215576e-002	 3.5149138578e+000
 1.4522864762e+000	 5.5221636846e-002	 3.5065263459e+000
 1.4516899810e+000	 6.9149305780e-002	 3.4956369381e+000
 1.4509569541e+000	 8.3122504803e-002	 3.4822247217e+000
 1.4500859906e+000	 9.7139475622e-002	 3.4662377314e+000
 1.4490757091e+000	 1.1119841941e-001	 3.4475948131e+000
 1.4479247531e+000	 1.2529749703e-001	 3.4261876208e+000
 1.4466317920e+000	 1.3943482927e-001	 3.4018827557e+000
 1.4600030000e+000	 0.0000000000e+000	 3.5198995311e+000
 1.4599378533e+000	 1.3791761023e-002	 3.5191792057e+000
 1.4597414079e+000	 2.7635916133e-002	 3.5158383163e+000
 1.4594121691e+000	 4.1530863311e-002	 3.5099557155e+000
 1.4589486616e+000	 5.5474959305e-002	 3.5015740796e+000
 1.4583494301e+000	 6.9466519707e-002	 3.4907014272e+000
 1.4576130405e+000	 8.3503819060e-002	 3.4773127401e+000
 1.4567380816e+000	 9.7585091007e-002	 3.4613516906e+000
 1.4557231655e+000	 1.1170852847e-001	 3.4427324877e+000
 1.4545669297e+000	 1.2587228387e-001	 3.4213418507e+000
 1.4532680373e+000	 1.4007446938e-001	 3.3970411244e+000
 1.4666700000e+000	 0.0000000000e+000	 3.5141048846e+000
 1.4666045558e+000	 1.3854740119e-002	 3.5133093259e+000
 1.4664072133e+000	 2.7762113580e-002	 3.5099285677e+000
 1.4660764711e+000	 4.1720511047e-002	 3.5040353596e+000
 1.4656108471e+000	 5.5728281765e-002	 3.4956660487e+000
 1.4650088792e+000	 6.9783733633e-002	 3.4848220926e+000
 1.4642691269e+000	 8.3885133317e-002	 3.4714716710e+000
 1.4633901726e+000	 9.8030706392e-002	 3.4555514001e+000
 1.4623706220e+000	 1.1221863753e-001	 3.4369681617e+000
 1.4612091062e+000	 1.2644707071e-001	 3.4156010576e+000
 1.4599042825e+000	 1.4071410950e-001	 3.3913035015e+000
 1.3935418298e+000	 1.3431770835e-001	 3.4109467663e+000
 1.3921584880e+000	 1.4796917094e-001	 3.3839681158e+000
 1.3906359110e+000	 1.6165376864e-001	 3.3552538125e+000
 1.3889729000e+000	 1.7536960807e-001	 3.3246988283e+000
 1.3871682857e+000	 1.8911475949e-001	 3.2921755447e+000
 1.3852209296e+000	 2.0288725725e-001	 3.2575366345e+000
 1.3831297249e+000	 2.1668510026e-001	 3.2206181837e+000
 1.3808935982e+000	 2.3050625248e-001	 3.1812430653e+000
 1.3785115099e+000	 2.4434864351e-001	 3.1392245818e+000
 1.3759824560e+000	 2.5821016918e-001	 3.0943703905e+000
 1.3733054688e+000	 2.7208869216e-001	 3.0464867274e+000
 1.4001780751e+000	 1.3495734846e-001	 3.4124912487e+000
 1.3987881456e+000	 1.4867382127e-001	 3.3855683541e+000
 1.3972583179e+000	 1.6242358698e-001	 3.3568467689e+000
 1.3955873874e+000	 1.7620474319e-001	 3.3262320609e+000
 1.3937741793e+000	 1.9001535099e-001	 3.2936070377e+000
 1.3918175495e+000	 2.0385343535e-001	 3.2588345951e+000
 1.3897163863e+000	 2.1771698566e-001	 3.2217608038e+000
 1.3874696107e+000	 2.3160395618e-001	 3.1822182505e+000
 1.3850761786e+000	 2.4551226666e-001	 3.1400296490e+000
 1.3825350810e+000	 2.5943980289e-001	 3.0950117353e+000
 1.3798453456e+000	 2.7338441738e-001	 3.0469794656e+000
 1.4068143204e+000	 1.3559698858e-001	 3.4133160495e+000
 1.4054178032e+000	 1.4937847160e-001	 3.3864288984e+000
 1.4038807247e+000	 1.6319340531e-001	 3.3576747987e+000
 1.4022018748e+000	 1.7703987832e-001	 3.3269727692e+000
 1.4003800728e+000	 1.9091594249e-001	 3.2942188822e+000
 1.3984141695e+000	 2.0481961345e-001	 3.2592890689e+000
 1.3963030476e+000	 2.1874887106e-001	 3.2220421651e+000
 1.3940456233e+000	 2.3270165988e-001	 3.1823232109e+000
 1.3916408473e+000	 2.4667588980e-001	 3.1399670213e+000
 1.3890877060e+000	 2.6066943660e-001	 3.0948020445e+000
 1.3863852225e+000	 2.7468014260e-001	 3.0466545242e+000
 1.4134505656e+000	 1.3623662869e-001	 3.4133981749e+000
 1.4120474608e+000	 1.5008312193e-001	 3.3865276329e+000
 1.4105031316e+000	 1.6396322365e-001	 3.3577157977e+000
 1.4088163621e+000	 1.7787501344e-001	 3.3268979614e+000
 1.4069859664e+000	 1.9181653399e-001	 3.2939862658e+000
 1.4050107895e+000	 2.0578579155e-001	 3.2588724588e+000
 1.4028897089e+000	 2.1978075646e-001	 3.2214308896e+000
 1.4006216359e+000	 2.3379936358e-001	 3.1815217598e+000
 1.3982055161e+000	 2.4783951295e-001	 3.1389946453e+000
 1.3956403310e+000	 2.6189907031e-001	 3.0936923091e+000
 1.3929250993e+000	 2.7597586782e-001	 3.0454548197e+000
 1.4200868109e+000	 1.3687626881e-001	 3.4127148983e+000
 1.4186771184e+000	 1.5078777226e-001	 3.3858427213e+000
 1.4171255385e+000	 1.6473304199e-001	 3.3569479638e+000
 1.4154308495e+000	 1.7871014857e-001	 3.3259849810e+000
 1.4135918599e+000	 1.9271712549e-001	 3.2928847581e+000
 1.4116074094e+000	 2.0675196966e-001	 3.2575576090e+000
 1.4094763703e+000	 2.2081264186e-001	 3.2198961148e+000
 1.4071976485e+000	 2.3489706728e-001	 3.1797783159e+000
 1.4047701848e+000	 2.4900313609e-001	 3.1370711795e+000
 1.4021929561e+000	 2.6312870402e-001	 3.0916343561e+000
 1.3994649761e+000	 2.7727159303e-001	 3.0433242476e+000
 1.4267230562e+000	 1.3751590892e-001	 3.4112437633e+000
 1.4253067760e+000	 1.5149242259e-001	 3.3843526099e+000
 1.4237479454e+000	 1.6550286033e-001	 3.3553497996e+000
 1.4220453369e+000	 1.7954528369e-001	 3.3242115094e+000
 1.4201977535e+000	 1.9361771699e-001	 3.2908903111e+000
 1.4182040294e+000	 2.0771814776e-001	 3.2553178046e+000
 1.4160630316e+000	 2.2184452726e-001	 3.2174074906e+000
 1.4137736611e+000	 2.3599477098e-001	 3.1770578982e+000
 1.4113348536e+000	 2.5016675923e-001	 3.1341559860e+000
 1.4087455811e+000	 2.6435833773e-001	 3.0885808377e+000
 1.4060048529e+000	 2.7856731825e-001	 3.0402076683e+000
 1.4333593015e+000	 1.3815554904e-001	 3.4089625864e+000
 1.4319364336e+000	 1.5219707292e-001	 3.3820360302e+000
 1.4303703522e+000	 1.6627267867e-001	 3.3529001145e+000
 1.4286598243e+000	 1.8038041882e-001	 3.3215555671e+000
 1.4268036470e+000	 1.9451830849e-001	 3.2879792599e+000
 1.4248006493e+000	 2.0868432586e-001	 3.2521267699e+000
 1.4226496930e+000	 2.2287641265e-001	 3.2139351774e+000
 1.4203496737e+000	 2.3709247468e-001	 3.1733261206e+000
 1.4178995223e+000	 2.5133038238e-001	 3.1302091236e+000
 1.4152982061e+000	 2.6558797144e-001	 3.0844852207e+000
 1.4125447298e+000	 2.7986304347e-001	 3.0360508935e+000
 1.4399955467e+000	 1.3879518915e-001	 3.4058494602e+000
 1.4385660912e+000	 1.5290172325e-001	 3.3788720016e+000
 1.4369927591e+000	 1.6704249701e-001	 3.3495780271e+000
 1.4352743117e+000	 1.8121555394e-001	 3.3179955153e+000
 1.4334095405e+000	 1.9541889999e-001	 3.2841283235e+000
 1.4313972693e+000	 2.0965050396e-001	 3.2479586683e+000
 1.4292363543e+000	 2.2390829805e-001	 3.2094498426e+000
 1.4269256863e+000	 2.3819017838e-001	 3.1685491877e+000
 1.4244641910e+000	 2.5249400552e-001	 3.1251913402e+000
 1.4218508311e+000	 2.6681760515e-001	 3.0793017761e+000
 1.4190846066e+000	 2.8115876869e-001	 3.0308006713e+000
 1.4466317920e+000	 1.3943482927e-001	 3.4018827557e+000
 1.4451957488e+000	 1.5360637358e-001	 3.3748398340e+000
 1.4436151660e+000	 1.6781231535e-001	 3.3453629676e+000
 1.4418887990e+000	 1.8205068907e-001	 3.3135100574e+000
 1.4400154341e+000	 1.9631949149e-001	 3.2793146042e+000
 1.4379938892e+000	 2.1061668206e-001	 3.2427881006e+000
 1.4358230156e+000	 2.2494018345e-001	 3.2039226583e+000
 1.4335016988e+000	 2.3928788208e-001	 3.1626938894e+000
 1.4310288598e+000	 2.5365762866e-001	 3.1190640647e+000
 1.4284034562e+000	 2.6804723886e-001	 3.0729855687e+000
 1.4256244834e+000	 2.8245449391e-001	 3.0244046736e+000
 1.4532680373e+000	 1.4007446938e-001	 3.3970411244e+000
 1.4518254064e+000	 1.5431102390e-001	 3.3699191300e+000
 1.4502375728e+000	 1.6858213369e-001	 3.3402346791e+000
 1.4485032864e+000	 1.8288582419e-001	 3.3080782401e+000
 1.4466213276e+000	 1.9722008299e-001	 3.2735155889e+000
 1.4445905092e+000	 2.1158286016e-001	 3.2365901044e+000
 1.4424096770e+000	 2.2597206885e-001	 3.1973252979e+000
 1.4400777114e+000	 2.4038558578e-001	 3.1557275960e+000
 1.4375935285e+000	 2.5482125181e-001	 3.1117894006e+000
 1.4349560812e+000	 2.6927687257e-001	 3.0654924468e+000
 1.4321643603e+000	 2.8375021912e-001	 3.0168114819e+000
 1.4599042825e+000	 1.4071410950e-001	 3.3913035015e+000
 1.4584550640e+000	 1.5501567423e-001	 3.3640897873e+000
 1.4568599797e+000	 1.6935195202e-001	 3.3341732200e+000
 1.4551177738e+000	 1.8372095932e-001	 3.3016794547e+000
 1.4532272212e+000	 1.9812067448e-001	 3.2667091485e+000
 1.4511871291e+000	 2.1254903826e-001	 3.2293401523e+000
 1.4489963383e+000	 2.2700395425e-001	 3.1896299337e+000
 1.4466537240e+000	 2.4148328948e-001	 3.1476182534e+000
 1.4441581973e+000	 2.5598487495e-001	 3.1033301179e+000
 1.4415087062e+000	 2.7050650628e-001	 3.0567790320e+000
 1.4387042371e+000	 2.8504594434e-001	 3.0079705743e+000
 1.3733054688e+000	 2.7208869216e-001	 3.0464867274e+000
 1.3704791834e+000	 2.8598412731e-001	 2.9951722571e+000
 1.3675030993e+000	 2.9989218860e-001	 2.9403493589e+000
 1.3643763658e+000	 3.1381063911e-001	 2.8822984228e+000
 1.3610981730e+000	 3.2773721164e-001	 2.8213159725e+000
 1.3576677530e+000	 3.4166960951e-001	 2.7577197628e+000
 1.3540843807e+000	 3.5560550744e-001	 2.6918542407e+000
 1.3503473752e+000	 3.6954255248e-001	 2.6240963825e+000
 1.3464561009e+000	 3.8347836494e-001	 2.5548619154e+000
 1.3424099678e+000	 3.9741053939e-001	 2.4846119316e+000
 1.3382084331e+000	 4.1133664571e-001	 2.4138599015e+000
 1.3798453456e+000	 2.7338441738e-001	 3.0469794656e+000
 1.3770056010e+000	 2.8734602458e-001	 2.9954937174e+000
 1.3740153444e+000	 3.0132031804e-001	 2.9404202528e+000
 1.3708737210e+000	 3.1530505020e-001	 2.8820186449e+000
 1.3675799170e+000	 3.2929794306e-001	 2.8205633531e+000
 1.3641331607e+000	 3.4329668900e-001	 2.7563488461e+000
 1.3605327239e+000	 3.5729895167e-001	 2.6896950983e+000
 1.3567779224e+000	 3.7130236691e-001	 2.6209534723e+000
 1.3528681172e+000	 3.8530454369e-001	 2.5505129980e+000
 1.3488027158e+000	 3.9930306515e-001	 2.4788070563e+000
 1.3445811728e+000	 4.1329548958e-001	 2.4063204745e+000
 1.3863852225e+000	 2.7468014260e-001	 3.0466545242e+000
 1.3835320187e+000	 2.8870792184e-001	 2.9950467810e+000
 1.3805275895e+000	 3.0274844748e-001	 2.9397846058e+000
 1.3773710762e+000	 3.1679946129e-001	 2.8811054641e+000
 1.3740616609e+000	 3.3085867448e-001	 2.8192605313e+000
 1.3705985685e+000	 3.4492376849e-001	 2.7545198427e+000
 1.3669810672e+000	 3.5899239589e-001	 2.6871778271e+000
 1.3632084695e+000	 3.7306218133e-001	 2.6175592366e+000
 1.3592801335e+000	 3.8713072245e-001	 2.5460254856e+000
 1.3551954638e+000	 4.0119559091e-001	 2.4729814054e+000
 1.3509539125e+000	 4.1525433345e-001	 2.3988824246e+000
 1.3929250993e+000	 2.7597586782e-001	 3.0454548197e+000
 1.3900584363e+000	 2.9006981911e-001	 2.9937662980e+000
 1.3870398347e+000	 3.0417657692e-001	 2.9383703808e+000
 1.3838684313e+000	 3.1829387238e-001	 2.8794811647e+000
 1.3805434049e+000	 3.3241940590e-001	 2.8173253494e+000
 1.3770639763e+000	 3.4655084797e-001	 2.7521474162e+000
 1.3734294104e+000	 3.6068584012e-001	 2.6842152004e+000
 1.3696390166e+000	 3.7482199575e-001	 2.6138258710e+000
 1.3656921498e+000	 3.8895690120e-001	 2.5413123296e+000
 1.3615882119e+000	 4.0308811667e-001	 2.4670500396e+000
 1.3573266523e+000	 4.1721317732e-001	 2.3914642933e+000
 1.3994649761e+000	 2.7727159303e-001	 3.0433242476e+000
 1.3965848540e+000	 2.9143171637e-001	 2.9915882395e+000
 1.3935520798e+000	 3.0560470636e-001	 2.9361067805e+000
 1.3903657865e+000	 3.1978828347e-001	 2.8770693664e+000
 1.3870251488e+000	 3.3398013731e-001	 2.8146770576e+000
 1.3835293841e+000	 3.4817792746e-001	 2.7491476879e+000
 1.3798777537e+000	 3.6237928434e-001	 2.6807214765e+000
 1.3760695637e+000	 3.7658181018e-001	 2.6096670591e+000
 1.3721041661e+000	 3.9078307996e-001	 2.5362879499e+000
 1.3679809599e+000	 4.0498064243e-001	 2.4609294461e+000
 1.3636993920e+000	 4.1917202119e-001	 2.3839859832e+000
 1.4060048529e+000	 2.7856731825e-001	 3.0402076683e+000
 1.4031112716e+000	 2.9279361364e-001	 2.9884496798e+000
 1.4000643249e+000	 3.0703283580e-001	 2.9329242264e+000
 1.3968631417e+000	 3.2128269456e-001	 2.8737950012e+000
 1.3935068927e+000	 3.3554086873e-001	 2.8112362898e+000
 1.3899947919e+000	 3.4980500695e-001	 2.7454382111e+000
 1.3863260970e+000	 3.6407272857e-001	 2.6766123710e+000
 1.3825001108e+000	 3.7834162460e-001	 2.6049979460e+000
 1.3785161824e+000	 3.9260925871e-001	 2.5308682094e+000
 1.3743737079e+000	 4.0687316819e-001	 2.4545375134e+000
 1.3700721317e+000	 4.2113086506e-001	 2.3763687346e+000
 1.4125447298e+000	 2.7986304347e-001	 3.0360508935e+000
 1.4096376893e+000	 2.9415551090e-001	 2.9842887787e+000
 1.4065765700e+000	 3.0846096524e-001	 2.9287543388e+000
 1.4033604968e+000	 3.2277710565e-001	 2.8695842907e+000
 1.3999886367e+000	 3.3710160015e-001	 2.8069250381e+000
 1.3964601997e+000	 3.5143208643e-001	 2.7409379448e+000
 1.3927744402e+000	 3.6576617279e-001	 2.6718050311e+000
 1.3889306579e+000	 3.8010143903e-001	 2.5997351115e+000
 1.3849281987e+000	 3.9443543747e-001	 2.5249703872e+000
 1.3807664560e+000	 4.0876569395e-001	 2.4477935063e+000
 1.3764448715e+000	 4.2308970893e-001	 2.3685351023e+000
 1.4190846066e+000	 2.8115876869e-001	 3.0308006713e+000
 1.4161641069e+000	 2.9551740817e-001	 2.9790447646e+000
 1.4130888151e+000	 3.0988909468e-001	 2.9235299161e+000
 1.4098578520e+000	 3.2427151674e-001	 2.8643647235e+000
 1.4064703806e+000	 3.3866233157e-001	 2.8016666294e+000
 1.4029256075e+000	 3.5305916592e-001	 2.7355672286e+000
 1.3992227835e+000	 3.6745961701e-001	 2.6662180089e+000
 1.3953612050e+000	 3.8186125345e-001	 2.5937965441e+000
 1.3913402150e+000	 3.9626161622e-001	 2.5185131532e+000
 1.3871592040e+000	 4.1065821971e-001	 2.4406180414e+000
 1.3828176112e+000	 4.2504855279e-001	 2.3604089326e+000
 1.4256244834e+000	 2.8245449391e-001	 3.0244046736e+000
 1.4226905246e+000	 2.9687930543e-001	 2.9726579170e+000
 1.4196010602e+000	 3.1131722412e-001	 2.9171849156e+000
 1.4163552071e+000	 3.2576592783e-001	 2.8580650335e+000
 1.4129521246e+000	 3.4022306298e-001	 2.7953857010e+000
 1.4093910153e+000	 3.5468624541e-001	 2.7292477575e+000
 1.4056711267e+000	 3.6915306124e-001	 2.6597712365e+000
 1.4017917521e+000	 3.8362106788e-001	 2.5871016153e+000
 1.3977522313e+000	 3.9808779497e-001	 2.5114165430e+000
 1.3935519520e+000	 4.1255074547e-001	 2.4329330630e+000
 1.3891903509e+000	 4.2700739666e-001	 2.3519153410e+000
 1.4321643603e+000	 2.8375021912e-001	 3.0168114819e+000
 1.4292169422e+000	 2.9824120270e-001	 2.9650695504e+000
 1.4261133053e+000	 3.1274535356e-001	 2.9096544338e+000
 1.4228525623e+000	 3.2726033892e-001	 2.8506151778e+000
 1.4194338685e+000	 3.4178379440e-001	 2.7880081781e+000
 1.4158564231e+000	 3.5631332490e-001	 2.7219025579e+000
 1.4121194700e+000	 3.7084650546e-001	 2.6523860003e+000
 1.4082222992e+000	 3.8538088230e-001	 2.5795710544e+000
 1.4041642476e+000	 3.9991397373e-001	 2.5036019335e+000
 1.3999447001e+000	 4.1444327123e-001	 2.4246618197e+000
 1.3955630906e+000	 4.2896624053e-001	 2.3429806904e+000
 1.4387042371e+000	 2.8504594434e-001	 3.0079705743e+000
 1.4357433599e+000	 2.9960309996e-001	 2.9562219976e+000
 1.4326255505e+000	 3.1417348300e-001	 2.9008746875e+000
 1.4293499175e+000	 3.2875475001e-001	 2.8419463163e+000
 1.4259156124e+000	 3.4334452582e-001	 2.7794612501e+000
 1.4223218309e+000	 3.5794040438e-001	 2.7134559632e+000
 1.4185678132e+000	 3.7253994969e-001	 2.6439849170e+000
 1.4146528463e+000	 3.8714069672e-001	 2.5711269242e+000
 1.4105762639e+000	 4.0174015248e-001	 2.4949920181e+000
 1.4063374481e+000	 4.1633579699e-001	 2.4157288411e+000
 1.4019358304e+000	 4.3092508440e-001	 2.3335325692e+000
 1.3382084331e+000	 4.1133664571e-001	 2.4138599015e+000
 1.3338510017e+000	 4.2525422994e-001	 2.3428897864e+000
 1.3293372259e+000	 4.3916081473e-001	 2.2708039512e+000
 1.3246667076e+000	 4.5305390111e-001	 2.1965444906e+000
 1.3198390990e+000	 4.6693096984e-001	 2.1201434705e+000
 1.3148541040e+000	 4.8078948260e-001	 2.0418057609e+000
 1.3097114787e+000	 4.9462688332e-001	 1.9619058388e+000
 1.3044110321e+000	 5.0844059935e-001	 1.8809952878e+000
 1.2989526269e+000	 5.2222804288e-001	 1.7998093990e+000
 1.2933361804e+000	 5.3598661222e-001	 1.7192727909e+000
 1.2875616648e+000	 5.4971369321e-001	 1.6405039671e+000
 1.3445811728e+000	 4.1329548958e-001	 2.4063204745e+000
 1.3402029907e+000	 4.2727935133e-001	 2.3334615759e+000
 1.3356677197e+000	 4.4125216127e-001	 2.2600506462e+000
 1.3309749597e+000	 4.5521140851e-001	 2.1856328562e+000
 1.3261243613e+000	 4.6915456182e-001	 2.1090620586e+000
 1.3211156271e+000	 4.8307907081e-001	 2.0303755924e+000
 1.3159485119e+000	 4.9698236720e-001	 1.9499790955e+000
 1.3106228238e+000	 5.1086186612e-001	 1.8684592801e+000
 1.3051384249e+000	 5.2471496742e-001	 1.7865907180e+000
 1.2994952321e+000	 5.3853905704e-001	 1.7053416202e+000
 1.2936932174e+000	 5.5233150835e-001	 1.6258785292e+000
 1.3509539125e+000	 4.1525433345e-001	 2.3988824246e+000
 1.3465549797e+000	 4.2930447273e-001	 2.3242603914e+000
 1.3419982135e+000	 4.4334350781e-001	 2.2491029063e+000
 1.3372832118e+000	 4.5736891591e-001	 2.1731626289e+000
 1.3324096237e+000	 4.7137815380e-001	 2.0962733137e+000
 1.3273771502e+000	 4.8536865901e-001	 2.0175777975e+000
 1.3221855450e+000	 4.9933785108e-001	 1.9370084748e+000
 1.3168346155e+000	 5.1328313289e-001	 1.8551838123e+000
 1.3113242229e+000	 5.2720189197e-001	 1.7729142876e+000
 1.3056542837e+000	 5.4109150186e-001	 1.6912083393e+000
 1.2998247700e+000	 5.5494932349e-001	 1.6112772018e+000
 1.3573266523e+000	 4.1721317732e-001	 2.3914642933e+000
 1.3529069687e+000	 4.3132959412e-001	 2.3152084224e+000
 1.3483287073e+000	 4.4543485434e-001	 2.2384344969e+000
 1.3435914639e+000	 4.5952642331e-001	 2.1609288555e+000
 1.3386948860e+000	 4.7360174579e-001	 2.0825814286e+000
 1.3336386733e+000	 4.8765824721e-001	 2.0033972844e+000
 1.3284225782e+000	 5.0169333496e-001	 1.9229776026e+000
 1.3230464071e+000	 5.1570439966e-001	 1.8411529015e+000
 1.3175100209e+000	 5.2968881652e-001	 1.7587632791e+000
 1.3118133354e+000	 5.4364394668e-001	 1.6768540330e+000
 1.3059563226e+000	 5.5756713863e-001	 1.5966777440e+000
 1.3636993920e+000	 4.1917202119e-001	 2.3839859832e+000
 1.3592589578e+000	 4.3335471551e-001	 2.3062291539e+000
 1.3546592010e+000	 4.4752620088e-001	 2.2279714763e+000
 1.3498997160e+000	 4.6168393071e-001	 2.1490309985e+000
 1.3449801484e+000	 4.7582533777e-001	 2.0693290601e+000
 1.3399001964e+000	 4.8994783541e-001	 1.9889019029e+000
 1.3346596114e+000	 5.0404881884e-001	 1.9079127276e+000
 1.3292581988e+000	 5.1812566643e-001	 1.8263525017e+000
 1.3236958188e+000	 5.3217574106e-001	 1.7441229168e+000
 1.3179723871e+000	 5.4619639149e-001	 1.6622619660e+000
 1.3120878751e+000	 5.6018495377e-001	 1.5820602294e+000
 1.3700721317e+000	 4.2113086506e-001	 2.3763687346e+000
 1.3656109468e+000	 4.3537983690e-001	 2.2972473451e+000
 1.3609896948e+000	 4.4961754742e-001	 2.2176411353e+000
 1.3562079681e+000	 4.6384143811e-001	 2.1373979178e+000
 1.3512654107e+000	 4.7804892975e-001	 2.0564683465e+000
 1.3461617194e+000	 4.9223742361e-001	 1.9749175940e+000
 1.3408966445e+000	 5.0640430272e-001	 1.8929374894e+000
 1.3354699905e+000	 5.2054693320e-001	 1.8108590993e+000
 1.3298816168e+000	 5.3466266561e-001	 1.7289805090e+000
 1.3241314387e+000	 5.4874883631e-001	 1.6474176125e+000
 1.3182194277e+000	 5.6280276891e-001	 1.5674070761e+000
 1.3764448715e+000	 4.2308970893e-001	 2.3685351023e+000
 1.3719629358e+000	 4.3740495830e-001	 2.2881890073e+000
 1.3673201886e+000	 4.5170889395e-001	 2.2073719771e+000
 1.3625162202e+000	 4.6599894551e-001	 2.1259596668e+000
 1.3575506730e+000	 4.8027252174e-001	 2.0439299740e+000
 1.3524232425e+000	 4.9452701181e-001	 1.9613747826e+000
 1.3471336777e+000	 5.0875978660e-001	 1.8785121833e+000
 1.3416817822e+000	 5.2296819997e-001	 1.7956991544e+000
 1.3360674148e+000	 5.3714959015e-001	 1.7134446804e+000
 1.3302904904e+000	 5.5130128113e-001	 1.6323086874e+000
 1.3243509803e+000	 5.6542058405e-001	 1.5527030764e+000
 1.3828176112e+000	 4.2504855279e-001	 2.3604089326e+000
 1.3783149248e+000	 4.3943007969e-001	 2.2789813837e+000
 1.3736506823e+000	 4.5380024049e-001	 2.1970936977e+000
 1.3688244723e+000	 4.6815645291e-001	 2.1146474741e+000
 1.3638359354e+000	 4.8249611372e-001	 2.0316458072e+000
 1.3586847656e+000	 4.9681660001e-001	 1.9482050957e+000
 1.3533707109e+000	 5.1111527048e-001	 1.8645673478e+000
 1.3478935739e+000	 5.2538946674e-001	 1.7811129633e+000
 1.3422532128e+000	 5.3963651470e-001	 1.6983739719e+000
 1.3364495420e+000	 5.5385372595e-001	 1.6170477019e+000
 1.3304825329e+000	 5.6803839919e-001	 1.5379354275e+000
 1.3891903509e+000	 4.2700739666e-001	 2.3519153410e+000
 1.3846669138e+000	 4.4145520108e-001	 2.2695529283e+000
 1.3799811761e+000	 4.5589158703e-001	 2.1867371664e+000
 1.3751327244e+000	 4.7031396031e-001	 2.1033937252e+000
 1.3701211977e+000	 4.8471970570e-001	 2.0195488713e+000
 1.3649462887e+000	 4.9910618822e-001	 1.9353413451e+000
 1.3596077440e+000	 5.1347075436e-001	 1.8510347502e+000
 1.3541053655e+000	 5.2781073351e-001	 1.7670304395e+000
 1.3484390107e+000	 5.4212343924e-001	 1.6838808756e+000
 1.3426085937e+000	 5.5640617077e-001	 1.6023034408e+000
 1.3366140855e+000	 5.7065621433e-001	 1.5231946646e+000
 1.3955630906e+000	 4.2896624053e-001	 2.3429806904e+000
 1.3910189029e+000	 4.4348032248e-001	 2.2598332858e+000
 1.3863116699e+000	 4.5798293356e-001	 2.1762344073e+000
 1.3814409765e+000	 4.7247146771e-001	 2.0921319445e+000
 1.3764064600e+000	 4.8694329769e-001	 2.0075733352e+000
 1.3712078117e+000	 5.0139577642e-001	 1.9227175104e+000
 1.3658447772e+000	 5.1582623824e-001	 1.8378473696e+000
 1.3603171572e+000	 5.3023200028e-001	 1.7533827719e+000
 1.3546248087e+000	 5.4461036379e-001	 1.6698940211e+000
 1.3487676453e+000	 5.5895861559e-001	 1.5881158203e+000
 1.3427456381e+000	 5.7327402947e-001	 1.5089616639e+000
 1.4019358304e+000	 4.3092508440e-001	 2.3335325692e+000
 1.3973708919e+000	 4.4550544387e-001	 2.2497532716e+000
 1.3926421637e+000	 4.6007428010e-001	 2.1655185805e+000
 1.3877492286e+000	 4.7462897510e-001	 2.0807967776e+000
 1.3826917224e+000	 4.8916688967e-001	 1.9956544940e+000
 1.3774693348e+000	 5.0368536462e-001	 1.9102687224e+000
 1.3720818103e+000	 5.1818172212e-001	 1.8249393805e+000
 1.3665289489e+000	 5.3265326705e-001	 1.7401024076e+000
 1.3608106067e+000	 5.4709728833e-001	 1.6563433778e+000
 1.3549266970e+000	 5.6151106040e-001	 1.5744116015e+000
 1.3488771907e+000	 5.7589184460e-001	 1.4952346861e+000
 1.2875616648e+000	 5.4971369321e-001	 1.6405039671e+000
 1.2816300098e+000	 5.6340460958e-001	 1.5560486230e+000
 1.2755404461e+000	 5.7705878960e-001	 1.4594847644e+000
 1.2692931155e+000	 5.9067359215e-001	 1.3538034342e+000
 1.2628882170e+000	 6.0424636941e-001	 1.2421818345e+000
 1.2563260072e+000	 6.1777446844e-001	 1.1279788013e+000
 1.2496068010e+000	 6.3125523267e-001	 1.0147288386e+000
 1.2427309712e+000	 6.4468600345e-001	 9.0613467831e-001
 1.2356989496e+000	 6.5806412163e-001	 8.0605834151e-001
 1.2285112268e+000	 6.7138692914e-001	 7.1826302675e-001
 1.2211683524e+000	 6.8465177058e-001	 6.4346512994e-001
 1.2936932174e+000	 5.5233150835e-001	 1.6258785292e+000
 1.2877333150e+000	 5.6608762282e-001	 1.5406539664e+000
 1.2816147519e+000	 5.7980682600e-001	 1.4431459834e+000
 1.2753376706e+000	 5.9348646418e-001	 1.3363912692e+000
 1.2689022711e+000	 6.0712387694e-001	 1.2236181281e+000
 1.2623088112e+000	 6.2071639872e-001	 1.1082419454e+000
 1.2555576071e+000	 6.3426136027e-001	 9.9385917292e-001
 1.2486490336e+000	 6.4775609030e-001	 8.8423980000e-001
 1.2415835245e+000	 6.6119791699e-001	 7.8331828447e-001
 1.2343615728e+000	 6.7458416961e-001	 6.9454860863e-001
 1.2269837306e+000	 6.8791218012e-001	 6.1872364341e-001
 1.2998247700e+000	 5.5494932349e-001	 1.6112772018e+000
 1.2938366202e+000	 5.6877063606e-001	 1.5254816754e+000
 1.2876890577e+000	 5.8255486239e-001	 1.4272022870e+000
 1.2813822258e+000	 5.9629933621e-001	 1.3195194950e+000
 1.2749163252e+000	 6.1000138448e-001	 1.2057109369e+000
 1.2682916151e+000	 6.2365832899e-001	 1.0892468922e+000
 1.2615084132e+000	 6.3726748787e-001	 9.7378422395e-001
 1.2545670960e+000	 6.5082617715e-001	 8.6315876594e-001
 1.2474680995e+000	 6.6433171235e-001	 7.6137612588e-001
 1.2402119187e+000	 6.7778141008e-001	 6.7147820192e-001
 1.2327991087e+000	 6.9117258966e-001	 5.9468455710e-001
 1.3059563226e+000	 5.5756713863e-001	 1.5966777440e+000
 1.2999399254e+000	 5.7145364930e-001	 1.5105051659e+000
 1.2937633636e+000	 5.8530289879e-001	 1.4116219454e+000
 1.2874267809e+000	 5.9911220824e-001	 1.3031504271e+000
 1.2809303793e+000	 6.1287889201e-001	 1.1884158101e+000
 1.2742744190e+000	 6.2660025927e-001	 1.0709416135e+000
 1.2674592193e+000	 6.4027361547e-001	 9.5444358020e-001
 1.2604851585e+000	 6.5389626400e-001	 8.4282198318e-001
 1.2533526744e+000	 6.6746550771e-001	 7.4014843111e-001
 1.2460622647e+000	 6.8097865055e-001	 6.4902568984e-001
 1.2386144869e+000	 6.9443299921e-001	 5.7131353006e-001
 1.3120878751e+000	 5.6018495377e-001	 1.5820602294e+000
 1.3060432306e+000	 5.7413666254e-001	 1.4957003076e+000
 1.2998376694e+000	 5.8805093519e-001	 1.3963758201e+000
 1.2934713360e+000	 6.0192508027e-001	 1.2872491077e+000
 1.2869444334e+000	 6.1575639955e-001	 1.1716911563e+000
 1.2802572229e+000	 6.2954218954e-001	 1.0532770704e+000
 1.2734100254e+000	 6.4327974307e-001	 9.3577994482e-001
 1.2664032209e+000	 6.5696635085e-001	 8.2316309447e-001
 1.2592372493e+000	 6.7059930307e-001	 7.1948625765e-001
 1.2519126106e+000	 6.8417589103e-001	 6.2716775866e-001
 1.2444298650e+000	 6.9769340875e-001	 5.4857910832e-001
 1.3182194277e+000	 5.6280276891e-001	 1.5674070761e+000
 1.3121465358e+000	 5.7681967578e-001	 1.4810454523e+000
 1.3059119752e+000	 5.9079897158e-001	 1.3814373910e+000
 1.2995158912e+000	 6.0473795230e-001	 1.2717833318e+000
 1.2929584875e+000	 6.1863390708e-001	 1.1554982681e+000
 1.2862400269e+000	 6.3248411982e-001	 1.0362072357e+000
 1.2793608315e+000	 6.4628587067e-001	 9.1773915627e-001
 1.2723212833e+000	 6.6003643770e-001	 8.0411899668e-001
 1.2651218242e+000	 6.7373309843e-001	 6.9933429731e-001
 1.2577629566e+000	 6.8737313150e-001	 6.0588381824e-001
 1.2502452432e+000	 7.0095381829e-001	 5.2645264171e-001
 1.3243509803e+000	 5.6542058405e-001	 1.5527030764e+000
 1.3182498410e+000	 5.7950268902e-001	 1.4665214630e+000
 1.3119862810e+000	 5.9354700798e-001	 1.3667827844e+000
 1.3055604463e+000	 6.0755082433e-001	 1.2567236735e+000
 1.2989725416e+000	 6.2151141462e-001	 1.1398013473e+000
 1.2922228308e+000	 6.3542605009e-001	 1.0196891170e+000
 1.2853116376e+000	 6.4929199827e-001	 9.0027020962e-001
 1.2782393457e+000	 6.6310652455e-001	 7.8562985999e-001
 1.2710063992e+000	 6.7686689379e-001	 6.7968230622e-001
 1.2636133026e+000	 6.9057037197e-001	 5.8515592364e-001
 1.2560606213e+000	 7.0421422783e-001	 5.0490820178e-001
 1.3304825329e+000	 5.6803839919e-001	 1.5379354275e+000
 1.3243531462e+000	 5.8218570225e-001	 1.4521117437e+000
 1.3180605869e+000	 5.9629504437e-001	 1.3523908020e+000
 1.3116050015e+000	 6.1036369636e-001	 1.2420435137e+000
 1.3049865957e+000	 6.2438892215e-001	 1.1245675303e+000
 1.2982056347e+000	 6.3836798037e-001	 1.0036827813e+000
 1.2912624437e+000	 6.5229812587e-001	 8.8332527878e-001
 1.2841574081e+000	 6.6617661140e-001	 7.6763914796e-001
 1.2768909741e+000	 6.8000068915e-001	 6.6052254177e-001
 1.2694636485e+000	 6.9376761244e-001	 5.6496869762e-001
 1.2618759994e+000	 7.0747463737e-001	 4.8392250073e-001
 1.3366140855e+000	 5.7065621433e-001	 1.5231946646e+000
 1.3304564514e+000	 5.8486871549e-001	 1.4378022688e+000
 1.3241348927e+000	 5.9904308077e-001	 1.3382429488e+000
 1.3176495566e+000	 6.1317656839e-001	 1.2277190672e+000
 1.3110006498e+000	 6.2726642969e-001	 1.1097669148e+000
 1.3041884386e+000	 6.4130991064e-001	 9.8815137913e-001
 1.2972132498e+000	 6.5530425347e-001	 8.6685973931e-001
 1.2900754705e+000	 6.6924669825e-001	 7.5009196871e-001
 1.2827755490e+000	 6.8313448451e-001	 6.4184968967e-001
 1.2753139945e+000	 6.9696485291e-001	 5.4530925417e-001
 1.2676913776e+000	 7.1073504692e-001	 4.6347481146e-001
 1.3427456381e+000	 5.7327402947e-001	 1.5089616639e+000
 1.3365597566e+000	 5.8755172873e-001	 1.4236463107e+000
 1.3302091985e+000	 6.0179111716e-001	 1.3243234636e+000
 1.3236941118e+000	 6.1598944042e-001	 1.2137294116e+000
 1.3170147039e+000	 6.3014393722e-001	 1.0953725860e+000
 1.3101712425e+000	 6.4425184092e-001	 9.7306117012e-001
 1.3031640559e+000	 6.5831038107e-001	 8.5083219199e-001
 1.2959935330e+000	 6.7231678510e-001	 7.3296536401e-001
 1.2886601239e+000	 6.8626827987e-001	 6.2366079169e-001
 1.2811643405e+000	 7.0016209339e-001	 5.2616712295e-001
 1.2735067557e+000	 7.1399545646e-001	 4.4354688854e-001
 1.3488771907e+000	 5.7589184460e-001	 1.4952346861e+000
 1.3426630618e+000	 5.9023474197e-001	 1.4099460146e+000
 1.3362835043e+000	 6.0453915355e-001	 1.3106467148e+000
 1.3297386669e+000	 6.1880231245e-001	 1.2000565153e+000
 1.3230287580e+000	 6.3302144475e-001	 1.0813606449e+000
 1.3161540465e+000	 6.4719377119e-001	 9.5838154892e-001
 1.3091148620e+000	 6.6131650867e-001	 8.3520448707e-001
 1.3019115954e+000	 6.7538687194e-001	 7.1626549243e-001
 1.2945446989e+000	 6.8940207522e-001	 6.0595517436e-001
 1.2870146864e+000	 7.0335933386e-001	 5.0753417462e-001
 1.2793221339e+000	 7.1725586600e-001	 4.2412289021e-001
 1.2211683524e+000	 6.8465177058e-001	 6.4346512994e-001
 1.2136697993e+000	 6.9785797114e-001	 5.7204155199e-001
 1.2060173266e+000	 7.1100089074e-001	 4.9424909983e-001
 1.1982116633e+000	 7.2407789135e-001	 4.1122187238e-001
 1.1902535976e+000	 7.3708634418e-001	 3.2401719882e-001
 1.1821439770e+000	 7.5002363130e-001	 2.3361125658e-001
 1.1738837082e+000	 7.6288714729e-001	 1.4089519016e-001
 1.1654737568e+000	 7.7567430092e-001	 4.6671755163e-002
 1.1569151472e+000	 7.8838251678e-001	-4.8347492034e-002
 1.1482089623e+000	 8.0100923691e-001	-1.4354444200e-001
 1.1393563430e+000	 8.1355192249e-001	-2.3839610463e-001
 1.2269837306e+000	 6.8791218012e-001	 6.1872364341e-001
 1.2194494682e+000	 7.0118127049e-001	 5.4663606792e-001
 1.2117605534e+000	 7.1438677855e-001	 4.6842445628e-001
 1.2039177184e+000	 7.2752605371e-001	 3.8517209375e-001
 1.1959217553e+000	 7.4059645465e-001	 2.9788395804e-001
 1.1877735155e+000	 7.5359535098e-001	 2.0748236408e-001
 1.1794739101e+000	 7.6652012487e-001	 1.1480312546e-001
 1.1710239093e+000	 7.7936817276e-001	 2.0592257116e-002
 1.1624245424e+000	 7.9213690695e-001	-7.4496759905e-002
 1.1536768974e+000	 8.0482375733e-001	-1.6990513443e-001
 1.1447821206e+000	 8.1742617297e-001	-2.6517032916e-001
 1.2327991087e+000	 6.9117258966e-001	 5.9468455710e-001
 1.2252291372e+000	 7.0450456985e-001	 5.2197020504e-001
 1.2175037802e+000	 7.1777266637e-001	 4.4336495160e-001
 1.2096237735e+000	 7.3097421607e-001	 3.5990308605e-001
 1.2015899129e+000	 7.4410656513e-001	 2.7253919471e-001
 1.1934030540e+000	 7.5716707066e-001	 1.8214383008e-001
 1.1850641120e+000	 7.7015310246e-001	 8.9499712312e-002
 1.1765740619e+000	 7.8306204459e-001	-4.7015118474e-003
 1.1679339376e+000	 7.9589129713e-001	-9.9861931524e-002
 1.1591448325e+000	 8.0863827775e-001	-1.9547943829e-001
 1.1502078983e+000	 8.2130042345e-001	-2.9114918397e-001
 1.2386144869e+000	 6.9443299921e-001	 5.7131353006e-001
 1.2310088062e+000	 7.0782786920e-001	 4.9800213671e-001
 1.2232470070e+000	 7.2115855418e-001	 4.1902303200e-001
 1.2153298286e+000	 7.3442237843e-001	 3.3536332671e-001
 1.2072580706e+000	 7.4761667560e-001	 2.4792917287e-001
 1.1990325925e+000	 7.6073879034e-001	 1.5754145449e-001
 1.1906543139e+000	 7.7378608004e-001	 6.4932026638e-002
 1.1821242144e+000	 7.8675591643e-001	-2.9259471921e-002
 1.1734433328e+000	 7.9964568730e-001	-1.2448821075e-001
 1.1646127676e+000	 8.1245279817e-001	-2.2030614718e-001
 1.1556336760e+000	 8.2517467393e-001	-3.1636338009e-001
 1.2444298650e+000	 6.9769340875e-001	 5.4857910832e-001
 1.2367884751e+000	 7.1115116856e-001	 4.7469299504e-001
 1.2289902338e+000	 7.2454444200e-001	 3.9535414340e-001
 1.2210358837e+000	 7.3787054080e-001	 3.1150430372e-001
 1.2129262282e+000	 7.5112678607e-001	 2.2400314827e-001
 1.2046621310e+000	 7.6431051002e-001	 1.3362398101e-001
 1.1962445158e+000	 7.7741905762e-001	 4.1050011616e-002
 1.1876743669e+000	 7.9044978826e-001	-5.3128780583e-002
 1.1789527281e+000	 8.0340007748e-001	-1.4841817067e-001
 1.1700807027e+000	 8.1626731859e-001	-2.4442158273e-001
 1.1610594536e+000	 8.2904892441e-001	-3.4084134174e-001
 1.2502452432e+000	 7.0095381829e-001	 5.2645264171e-001
 1.2425681441e+000	 7.1447446791e-001	 4.5200678430e-001
 1.2347334606e+000	 7.2793032982e-001	 3.7231664241e-001
 1.2267419389e+000	 7.4131870316e-001	 2.8828042491e-001
 1.2185943859e+000	 7.5463689654e-001	 2.0071327682e-001
 1.2102916695e+000	 7.6788222971e-001	 1.1034300552e-001
 1.2018347177e+000	 7.8105203521e-001	 1.7806386924e-002
 1.1932245194e+000	 7.9414366010e-001	-7.6353921709e-002
 1.1844621233e+000	 8.0715446765e-001	-1.7169184034e-001
 1.1755486379e+000	 8.2008183901e-001	-2.6785967816e-001
 1.1664852313e+000	 8.3292317489e-001	-3.6460928581e-001
 1.2560606213e+000	 7.0421422783e-001	 5.0490820178e-001
 1.2483478131e+000	 7.1779776727e-001	 4.2991029558e-001
 1.2404766874e+000	 7.3131621763e-001	 3.4987170853e-001
 1.2324479940e+000	 7.4476686552e-001	 2.6564892849e-001
 1.2242625436e+000	 7.5814700702e-001	 1.7801452437e-001
 1.2159212079e+000	 7.7145394939e-001	 8.7652885844e-002
 1.2074249197e+000	 7.8468501279e-001	-4.8434407487e-003
 1.1987746719e+000	 7.9783753194e-001	-9.8976793495e-002
 1.1899715185e+000	 8.1090885783e-001	-1.9434679031e-001
 1.1810165730e+000	 8.2389635943e-001	-2.9065206071e-001
 1.1719110090e+000	 8.3679742537e-001	-3.8769130050e-001
 1.2618759994e+000	 7.0747463737e-001	 4.8392250073e-001
 1.2541274820e+000	 7.2112106663e-001	 4.0837302255e-001
 1.2462199142e+000	 7.3470210545e-001	 3.2798325749e-001
 1.2381540491e+000	 7.4821502788e-001	 2.4356979487e-001
 1.2299307012e+000	 7.6165711749e-001	 1.5586457761e-001
 1.2215507464e+000	 7.7502566907e-001	 6.5510652703e-002
 1.2130151216e+000	 7.8831799037e-001	-2.6941465992e-002
 1.2043248245e+000	 8.0153140377e-001	-1.2103679523e-001
 1.1954809137e+000	 8.1466324800e-001	-2.1641821714e-001
 1.1864845081e+000	 8.2771087985e-001	-3.1282813308e-001
 1.1773367866e+000	 8.4067167585e-001	-4.1010942299e-001
 1.2676913776e+000	 7.1073504692e-001	 4.6347481146e-001
 1.2599071510e+000	 7.2444436598e-001	 3.8736707835e-001
 1.2519631410e+000	 7.3808799327e-001	 3.0661785583e-001
 1.2438601042e+000	 7.5166319024e-001	 2.2200565961e-001
 1.2355988589e+000	 7.6516722796e-001	 1.3422375633e-001
 1.2271802849e+000	 7.7859738876e-001	 4.3875921843e-002
 1.2186053235e+000	 7.9195096796e-001	-4.8527171811e-002
 1.2098749770e+000	 8.0522527561e-001	-1.4257091294e-001
 1.2009903089e+000	 8.1841763818e-001	-2.3793902685e-001
 1.1919524432e+000	 8.3152540027e-001	-3.3441515399e-001
 1.1827625643e+000	 8.4454592633e-001	-4.3188371629e-001
 1.2735067557e+000	 7.1399545646e-001	 4.4354688854e-001
 1.2656868199e+000	 7.2776766534e-001	 3.6686711355e-001
 1.2577063678e+000	 7.4147388108e-001	 2.8574463653e-001
 1.2495661593e+000	 7.5511135261e-001	 2.0092172754e-001
 1.2412670166e+000	 7.6867733844e-001	 1.1305492669e-001
 1.2328098234e+000	 7.8216910844e-001	 2.2710807342e-002
 1.2241955254e+000	 7.9558394554e-001	-6.9637615624e-002
 1.2154251295e+000	 8.0891914744e-001	-1.6361380401e-001
 1.2064997041e+000	 8.2217202835e-001	-2.5893991732e-001
 1.1974203783e+000	 8.3533992069e-001	-3.5543831772e-001
 1.1881883420e+000	 8.4842017681e-001	-4.5303234528e-001
 1.2793221339e+000	 7.1725586600e-001	 4.2412289021e-001
 1.2714664889e+000	 7.3109096470e-001	 3.4685023513e-001
 1.2634495946e+000	 7.4485976890e-001	 2.6533521576e-001
 1.2552722144e+000	 7.5855951497e-001	 1.8028568800e-001
 1.2469351742e+000	 7.7218744891e-001	 9.2323415735e-002
 1.2384393619e+000	 7.8574082812e-001	 1.9798360179e-003
 1.2297857273e+000	 7.9921692312e-001	-9.0307514188e-002
 1.2209752820e+000	 8.1261301928e-001	-1.8419788066e-001
 1.2120090993e+000	 8.2592641853e-001	-2.7944945981e-001
 1.2028883134e+000	 8.3915444111e-001	-3.7592083279e-001
 1.1936141197e+000	 8.5229442729e-001	-4.7357165189e-001
 1.1393563430e+000	 8.1355192249e-001	-2.3839610463e-001
 1.1303584875e+000	 8.2600805515e-001	-3.2961111535e-001
 1.1212166501e+000	 8.3837513777e-001	-4.1464660424e-001
 1.1119321415e+000	 8.5065069693e-001	-4.9422970722e-001
 1.1025063287e+000	 8.6283228470e-001	-5.6915923723e-001
 1.0929406339e+000	 8.7491748032e-001	-6.4030260943e-001
 1.0832365347e+000	 8.8690389170e-001	-7.0859224188e-001
 1.0733955625e+000	 8.9878915698e-001	-7.7502145237e-001
 1.0634193023e+000	 9.1057094609e-001	-8.4063987696e-001
 1.0533093916e+000	 9.2224696223e-001	-9.0654843879e-001
 1.0430675196e+000	 9.3381494334e-001	-9.7389390012e-001
 1.1447821206e+000	 8.1742617297e-001	-2.6517032916e-001
 1.1357414161e+000	 8.2994162351e-001	-3.5691780026e-001
 1.1265560440e+000	 8.4236759995e-001	-4.4246514991e-001
 1.1172273212e+000	 8.5470161707e-001	-5.2251770003e-001
 1.1077566213e+000	 8.6694121531e-001	-5.9785440211e-001
 1.0981453734e+000	 8.7908396236e-001	-6.6932472532e-001
 1.0883950618e+000	 8.9112745473e-001	-7.3784500366e-001
 1.0785072255e+000	 9.0306931934e-001	-8.0439426394e-001
 1.0684834569e+000	 9.1490721502e-001	-8.7000956015e-001
 1.0583254014e+000	 9.2663883401e-001	-9.3578084395e-001
 1.0480347562e+000	 9.3826190350e-001	-1.0028454049e+000
 1.1502078983e+000	 8.2130042345e-001	-2.9114918397e-001
 1.1411243447e+000	 8.3387519187e-001	-3.8341849439e-001
 1.1318954378e+000	 8.4636006213e-001	-4.6947174277e-001
 1.1225225009e+000	 8.5875253721e-001	-5.4999156324e-001
 1.1130069139e+000	 8.7105014591e-001	-6.2573631885e-001
 1.1033501128e+000	 8.8325044439e-001	-6.9753695226e-001
 1.0935535889e+000	 8.9535101777e-001	-7.6629327884e-001
 1.0836188885e+000	 9.0734948171e-001	-8.3296974422e-001
 1.0735476116e+000	 9.1924348395e-001	-8.9859067267e-001
 1.0633414112e+000	 9.3103070580e-001	-9.6423503676e-001
 1.0530019927e+000	 9.4270886367e-001	-1.0310307828e+000
 1.1556336760e+000	 8.2517467393e-001	-3.1636338009e-001
 1.1465072733e+000	 8.3780876023e-001	-4.0913542380e-001
 1.1372348317e+000	 8.5035252430e-001	-4.9568097737e-001
 1.1278176807e+000	 8.6280345736e-001	-5.7665911689e-001
 1.1182572066e+000	 8.7515907652e-001	-6.5280689401e-001
 1.1085548522e+000	 8.8741692642e-001	-7.2493614905e-001
 1.0987121161e+000	 8.9957458080e-001	-7.9392974914e-001
 1.0887305515e+000	 9.1162964408e-001	-8.6073727404e-001
 1.0786117662e+000	 9.2357975288e-001	-9.2637017651e-001
 1.0683574210e+000	 9.3542257759e-001	-9.9189644855e-001
 1.0579692293e+000	 9.4715582383e-001	-1.0584348289e+000
 1.1610594536e+000	 8.2904892441e-001	-3.4084134174e-001
 1.1518902019e+000	 8.4174232860e-001	-4.3408871526e-001
 1.1425742255e+000	 8.5434498648e-001	-5.2110551541e-001
 1.1331128604e+000	 8.6685437750e-001	-6.0252639341e-001
 1.1235074992e+000	 8.7926800712e-001	-6.7906637058e-001
 1.1137595917e+000	 8.9158340845e-001	-7.5151761363e-001
 1.1038706432e+000	 9.0379814384e-001	-8.2074561702e-001
 1.0938422145e+000	 9.1590980644e-001	-8.8768481547e-001
 1.0836759208e+000	 9.2791602181e-001	-9.5333365438e-001
 1.0733734308e+000	 9.3981444937e-001	-1.0187491500e+000
 1.0629364658e+000	 9.5160278400e-001	-1.0850409758e+000
 1.1664852313e+000	 8.3292317489e-001	-3.6460928581e-001
 1.1572731305e+000	 8.4567589696e-001	-4.5829647160e-001
 1.1479136194e+000	 8.5833744866e-001	-5.4575615721e-001
 1.1384080401e+000	 8.7090529765e-001	-6.2759770552e-001
 1.1287577918e+000	 8.8337693773e-001	-7.0451339262e-001
 1.1189643311e+000	 8.9574989049e-001	-7.7727514494e-001
 1.1090291703e+000	 9.0802170687e-001	-8.4673066494e-001
 1.0989538776e+000	 9.2018996881e-001	-9.1379896886e-001
 1.0887400755e+000	 9.3225229074e-001	-9.7946536494e-001
 1.0783894406e+000	 9.4420632116e-001	-1.0447759049e+000
 1.0679037023e+000	 9.5604974416e-001	-1.1108313459e+000
 1.1719110090e+000	 8.3679742537e-001	-3.8769130050e-001
 1.1626560590e+000	 8.4960946533e-001	-4.8177484618e-001
 1.1532530133e+000	 8.6232991084e-001	-5.6964191239e-001
 1.1437032198e+000	 8.7495621779e-001	-6.5187571352e-001
 1.1340080845e+000	 8.8748586833e-001	-7.2914506943e-001
 1.1241690705e+000	 8.9991637252e-001	-8.0220110425e-001
 1.1141876974e+000	 9.1224526991e-001	-8.7187331431e-001
 1.1040655406e+000	 9.2447013118e-001	-9.3906502961e-001
 1.0938042301e+000	 9.3658855966e-001	-1.0047482977e+000
 1.0834054504e+000	 9.4859819294e-001	-1.0699582236e+000
 1.0728709389e+000	 9.6049670432e-001	-1.1357868040e+000
 1.1773367866e+000	 8.4067167585e-001	-4.1010942299e-001
 1.1680389876e+000	 8.5354303369e-001	-5.0453811661e-001
 1.1585924071e+000	 8.6632237302e-001	-5.9277006999e-001
 1.1489983995e+000	 8.7900713793e-001	-6.7536149198e-001
 1.1392583771e+000	 8.9159479894e-001	-7.5295703922e-001
 1.1293738099e+000	 9.0408285455e-001	-8.2628647609e-001
 1.1193462246e+000	 9.1646883294e-001	-8.9616068392e-001
 1.1091772036e+000	 9.2875029354e-001	-9.6346704456e-001
 1.0988683847e+000	 9.4092482859e-001	-1.0291642276e+000
 1.0884214602e+000	 9.5299006473e-001	-1.0942764159e+000
 1.0778381754e+000	 9.6494366449e-001	-1.1598870091e+000
 1.1827625643e+000	 8.4454592633e-001	-4.3188371629e-001
 1.1734219162e+000	 8.5747660205e-001	-5.2659875781e-001
 1.1639318010e+000	 8.7031483519e-001	-6.1514626784e-001
 1.1542935792e+000	 8.8305805808e-001	-6.9805459589e-001
 1.1445086698e+000	 8.9570372954e-001	-7.7594353226e-001
 1.1345785494e+000	 9.0824933658e-001	-8.4952092874e-001
 1.1245047517e+000	 9.2069239598e-001	-9.1957864812e-001
 1.1142888666e+000	 9.3303045591e-001	-9.8698786807e-001
 1.1039325394e+000	 9.4526109752e-001	-1.0526937694e+000
 1.0934374700e+000	 9.5738193651e-001	-1.1177096446e+000
 1.0828054119e+000	 9.6939062465e-001	-1.1831104661e+000
 1.1881883420e+000	 8.4842017681e-001	-4.5303234528e-001
 1.1788048448e+000	 8.6141017042e-001	-5.4796751416e-001
 1.1692711948e+000	 8.7430729737e-001	-6.3677456136e-001
 1.1595887589e+000	 8.8710897822e-001	-7.1995312626e-001
 1.1497589624e+000	 8.9981266015e-001	-7.9809743358e-001
 1.1397832888e+000	 9.1241581861e-001	-8.7189287434e-001
 1.1296632788e+000	 9.2491595901e-001	-9.4211189460e-001
 1.1194005296e+000	 9.3731061827e-001	-1.0096092178e+000
 1.1089966940e+000	 9.4959736645e-001	-1.0753164319e+000
 1.0984534798e+000	 9.6177380830e-001	-1.1402359774e+000
 1.0877726485e+000	 9.7383758481e-001	-1.2054345777e+000
 1.1936141197e+000	 8.5229442729e-001	-4.7357165189e-001
 1.1841877734e+000	 8.6534373878e-001	-5.6865347113e-001
 1.1746105887e+000	 8.7829975955e-001	-6.5765749172e-001
 1.1648839386e+000	 8.9115989836e-001	-7.4105379517e-001
 1.1550092550e+000	 9.0392159075e-001	-8.1941034521e-001
 1.1449880282e+000	 9.1658230064e-001	-8.9338952858e-001
 1.1348218059e+000	 9.2913952205e-001	-9.6374398179e-001
 1.1245121926e+000	 9.4159078064e-001	-1.0313117302e+000
 1.1140608486e+000	 9.5393363537e-001	-1.0970106713e+000
 1.1034694896e+000	 9.6616568008e-001	-1.1618324398e+000
 1.0927398850e+000	 9.7828454497e-001	-1.2268356954e+000
 1.0430675196e+000	 9.3381494334e-001	-9.7389390012e-001
 1.0326969920e+000	 9.4527095351e-001	-1.0394806083e+000
 1.0221980720e+000	 9.5661454950e-001	-1.0997734740e+000
 1.0115725983e+000	 9.6784358393e-001	-1.1554346888e+000
 1.0008224573e+000	 9.7895594979e-001	-1.2071546315e+000
 9.8994958172e-001	 9.8994958172e-001	-1.2556461436e+000
 9.7895594979e-001	 1.0008224573e+000	-1.3016386378e+000
 9.6784358393e-001	 1.0115725983e+000	-1.3458720862e+000
 9.5661454950e-001	 1.0221980720e+000	-1.3890909386e+000
 9.4527095351e-001	 1.0326969920e+000	-1.4320380198e+000
 9.3381494334e-001	 1.0430675196e+000	-1.4754484586e+000
 1.0480347562e+000	 9.3826190350e-001	-1.0028454049e+000
 1.0376148426e+000	 9.4977246883e-001	-1.0680116534e+000
 1.0270659252e+000	 9.6117008465e-001	-1.1277696376e+000
 1.0163898516e+000	 9.7245259335e-001	-1.1828052518e+000
 1.0055885168e+000	 9.8361787787e-001	-1.2338328860e+000
 9.9466386305e-001	 9.9466386305e-001	-1.2815894924e+000
 9.8361787787e-001	 1.0055885168e+000	-1.3268284795e+000
 9.7245259335e-001	 1.0163898516e+000	-1.3703134827e+000
 9.6117008465e-001	 1.0270659252e+000	-1.4128120627e+000
 9.4977246883e-001	 1.0376148426e+000	-1.4550893829e+000
 9.3826190350e-001	 1.0480347562e+000	-1.4979019183e+000
 1.0530019927e+000	 9.4270886367e-001	-1.0310307828e+000
 1.0425326932e+000	 9.5427398416e-001	-1.0957876604e+000
 1.0319337785e+000	 9.6572561979e-001	-1.1550184277e+000
 1.0212071048e+000	 9.7706160276e-001	-1.2094333600e+000
 1.0103545763e+000	 9.8827980596e-001	-1.2597715431e+000
 9.9937814437e-001	 9.9937814437e-001	-1.3067947263e+000
 9.8827980596e-001	 1.0103545763e+000	-1.3512809951e+000
 9.7706160276e-001	 1.0212071048e+000	-1.3940183187e+000
 9.6572561979e-001	 1.0319337785e+000	-1.4357980213e+000
 9.5427398416e-001	 1.0425326932e+000	-1.4774082333e+000
 9.4270886367e-001	 1.0530019927e+000	-1.5196273746e+000
 1.0579692293e+000	 9.4715582383e-001	-1.0584348289e+000
 1.0474505438e+000	 9.5877549948e-001	-1.1227931663e+000
 1.0368016317e+000	 9.7028115494e-001	-1.1815039824e+000
 1.0260243580e+000	 9.8167061217e-001	-1.2353026138e+000
 1.0151206359e+000	 9.9294173404e-001	-1.2849535316e+000
 1.0040924257e+000	 1.0040924257e+000	-1.3312439727e+000
 9.9294173404e-001	 1.0151206359e+000	-1.3749773867e+000
 9.8167061217e-001	 1.0260243580e+000	-1.4169667520e+000
 9.7028115494e-001	 1.0368016317e+000	-1.4580278156e+000
 9.5877549948e-001	 1.0474505438e+000	-1.4989723102e+000
 9.4715582383e-001	 1.0579692293e+000	-1.5406012057e+000
 1.0629364658e+000	 9.5160278400e-001	-1.0850409758e+000
 1.0523683944e+000	 9.6327701480e-001	-1.1490113330e+000
 1.0416694850e+000	 9.7483669008e-001	-1.2072090510e+000
 1.0308416112e+000	 9.8627962158e-001	-1.2603952121e+000
 1.0198866954e+000	 9.9760366213e-001	-1.3093603657e+000
 1.0088067070e+000	 1.0088067070e+000	-1.3549179322e+000
 9.9760366213e-001	 1.0198866954e+000	-1.3978974174e+000
 9.8627962158e-001	 1.0308416112e+000	-1.4391374916e+000
 9.7483669008e-001	 1.0416694850e+000	-1.4794789899e+000
 9.6327701480e-001	 1.0523683944e+000	-1.5197578898e+000
 9.5160278400e-001	 1.0629364658e+000	-1.5607983238e+000
 1.0679037023e+000	 9.5604974416e-001	-1.1108313459e+000
 1.0572862450e+000	 9.6777853012e-001	-1.1744239986e+000
 1.0465373382e+000	 9.7939222523e-001	-1.2321150452e+000
 1.0356588645e+000	 9.9088863099e-001	-1.2846920014e+000
 1.0246527549e+000	 1.0022655902e+000	-1.3329721926e+000
 1.0135209884e+000	 1.0135209884e+000	-1.3777959243e+000
 1.0022655902e+000	 1.0246527549e+000	-1.4200194567e+000
 9.9088863099e-001	 1.0356588645e+000	-1.4605078410e+000
 9.7939222523e-001	 1.0465373382e+000	-1.5001276731e+000
 9.6777853012e-001	 1.0572862450e+000	-1.5397398250e+000
 9.5604974416e-001	 1.0679037023e+000	-1.5801922121e+000
 1.0728709389e+000	 9.6049670432e-001	-1.1357868040e+000
 1.0622040956e+000	 9.7228004544e-001	-1.1990117289e+000
 1.0514051915e+000	 9.8394776037e-001	-1.2562020886e+000
 1.0404761177e+000	 9.9549764040e-001	-1.3081725243e+000
 1.0294188144e+000	 1.0069275183e+000	-1.3557678402e+000
 1.0182352697e+000	 1.0182352697e+000	-1.3998559337e+000
 1.0069275183e+000	 1.0294188144e+000	-1.4413205246e+000
 9.9549764040e-001	 1.0404761177e+000	-1.4810537407e+000
 9.8394776037e-001	 1.0514051915e+000	-1.5199486191e+000
 9.7228004544e-001	 1.0622040956e+000	-1.5588915842e+000
 9.6049670432e-001	 1.0728709389e+000	-1.5987549624e+000
 1.0778381754e+000	 9.6494366449e-001	-1.1598870091e+000
 1.0671219462e+000	 9.7678156076e-001	-1.2227538681e+000
 1.0562730447e+000	 9.8850329552e-001	-1.2794490670e+000
 1.0452933709e+000	 1.0001066498e+000	-1.3308150687e+000
 1.0341848739e+000	 1.0115894464e+000	-1.3777248642e+000
 1.0229495510e+000	 1.0229495510e+000	-1.4210746562e+000
 1.0115894464e+000	 1.0341848739e+000	-1.4617763359e+000
 1.0001066498e+000	 1.0452933709e+000	-1.5007498111e+000
 9.8850329552e-001	 1.0562730447e+000	-1.5389152484e+000
 9.7678156076e-001	 1.0671219462e+000	-1.5771852905e+000
 9.6494366449e-001	 1.0778381754e+000	-1.6164573117e+000
 1.0828054119e+000	 9.6939062465e-001	-1.1831104661e+000
 1.0720397968e+000	 9.8128307608e-001	-1.2456285899e+000
 1.0611408980e+000	 9.9305883066e-001	-1.3018336777e+000
 1.0501106241e+000	 1.0047156592e+000	-1.3525967156e+000
 1.0389509334e+000	 1.0162513745e+000	-1.3988195951e+000
 1.0276638324e+000	 1.0276638324e+000	-1.4414275443e+000
 1.0162513745e+000	 1.0389509334e+000	-1.4813613444e+000
 1.0047156592e+000	 1.0501106241e+000	-1.5195693949e+000
 9.9305883066e-001	 1.0611408980e+000	-1.5569996883e+000
 9.8128307608e-001	 1.0720397968e+000	-1.5945917606e+000
 9.6939062465e-001	 1.0828054119e+000	-1.6332686795e+000
 1.0877726485e+000	 9.7383758481e-001	-1.2054345777e+000
 1.0769576474e+000	 9.8578459140e-001	-1.2676129477e+000
 1.0660087512e+000	 9.9761436581e-001	-1.3233324792e+000
 1.0549278774e+000	 1.0093246686e+000	-1.3734933879e+000
 1.0437169930e+000	 1.0209133025e+000	-1.4190271857e+000
 1.0323781137e+000	 1.0323781137e+000	-1.4608888526e+000
 1.0209133025e+000	 1.0437169930e+000	-1.5000487870e+000
 1.0093246686e+000	 1.0549278774e+000	-1.5374845994e+000
 9.9761436581e-001	 1.0660087512e+000	-1.5741728140e+000
 9.8578459140e-001	 1.0769576474e+000	-1.6110805434e+000
 9.7383758481e-001	 1.0877726485e+000	-1.6491572045e+000
 1.0927398850e+000	 9.7828454497e-001	-1.2268356954e+000
 1.0818754980e+000	 9.9028610672e-001	-1.2886829252e+000
 1.0708766045e+000	 1.0021699009e+000	-1.3439209405e+000
 1.0597451306e+000	 1.0139336780e+000	-1.3934798980e+000
 1.0484830525e+000	 1.0255752306e+000	-1.4383216569e+000
 1.0370923950e+000	 1.0370923950e+000	-1.4794316832e+000
 1.0255752306e+000	 1.0484830525e+000	-1.5178107271e+000
 1.0139336780e+000	 1.0597451306e+000	-1.5544663389e+000
 1.0021699009e+000	 1.0708766045e+000	-1.5904042885e+000
 9.9028610672e-001	 1.0818754980e+000	-1.6266199591e+000
 9.7828454497e-001	 1.0927398850e+000	-1.6640897815e+000
 9.3381494334e-001	 1.0430675196e+000	-1.4754484586e+000
 9.2224696223e-001	 1.0533093916e+000	-1.5152328451e+000
 9.1057094609e-001	 1.0634193023e+000	-1.5476895801e+000
 8.9878915698e-001	 1.0733955625e+000	-1.5741193334e+000
 8.8690389170e-001	 1.0832365347e+000	-1.5957822071e+000
 8.7491748032e-001	 1.0929406339e+000	-1.6138915268e+000
 8.6283228470e-001	 1.1025063287e+000	-1.6296079789e+000
 8.5065069693e-001	 1.1119321415e+000	-1.6440341385e+000
 8.3837513777e-001	 1.1212166501e+000	-1.6582094297e+000
 8.2600805515e-001	 1.1303584875e+000	-1.6731055558e+000
 8.1355192249e-001	 1.1393563430e+000	-1.6896224346e+000
 9.3826190350e-001	 1.0480347562e+000	-1.4979019183e+000
 9.2663883401e-001	 1.0583254014e+000	-1.5371215741e+000
 9.1490721502e-001	 1.0684834569e+000	-1.5689900742e+000
 9.0306931934e-001	 1.0785072255e+000	-1.5948010706e+000
 8.9112745473e-001	 1.0883950618e+000	-1.6158071813e+000
 8.7908396236e-001	 1.0981453734e+000	-1.6332136235e+000
 8.6694121531e-001	 1.1077566213e+000	-1.6481722006e+000
 8.5470161707e-001	 1.1172273212e+000	-1.6617756897e+000
 8.4236759995e-001	 1.1265560440e+000	-1.6750526716e+000
 8.2994162351e-001	 1.1357414161e+000	-1.6889628425e+000
 8.1742617297e-001	 1.1447821206e+000	-1.7043928432e+000
 9.4270886367e-001	 1.0530019927e+000	-1.5196273746e+000
 9.3103070580e-001	 1.0633414112e+000	-1.5582948854e+000
 9.1924348395e-001	 1.0735476116e+000	-1.5896004281e+000
 9.0734948171e-001	 1.0836188885e+000	-1.6148287494e+000
 8.9535101777e-001	 1.0935535889e+000	-1.6352230208e+000
 8.8325044439e-001	 1.1033501128e+000	-1.6519783130e+000
 8.7105014591e-001	 1.1130069139e+000	-1.6662354317e+000
 8.5875253721e-001	 1.1225225009e+000	-1.6790751639e+000
 8.4636006213e-001	 1.1318954378e+000	-1.6915129776e+000
 8.3387519187e-001	 1.1411243447e+000	-1.7044942145e+000
 8.2130042345e-001	 1.1502078983e+000	-1.7188898145e+000
 9.4715582383e-001	 1.0579692293e+000	-1.5406012057e+000
 9.3542257759e-001	 1.0683574210e+000	-1.5787275280e+000
 9.2357975288e-001	 1.0786117662e+000	-1.6094933460e+000
 9.1162964408e-001	 1.0887305515e+000	-1.6341726536e+000
 8.9957458080e-001	 1.0987121161e+000	-1.6539972538e+000
 8.8741692642e-001	 1.1085548522e+000	-1.6701500721e+000
 8.7515907652e-001	 1.1182572066e+000	-1.6837588414e+000
 8.6280345736e-001	 1.1278176807e+000	-1.6958902059e+000
 8.5035252430e-001	 1.1372348317e+000	-1.7075442894e+000
 8.3780876023e-001	 1.1465072733e+000	-1.7196497702e+000
 8.2517467393e-001	 1.1556336760e+000	-1.7330594999e+000
 9.5160278400e-001	 1.0629364658e+000	-1.5607983238e+000
 9.3981444937e-001	 1.0733734308e+000	-1.5983927877e+000
 9.2791602181e-001	 1.0836759208e+000	-1.6286400819e+000
 9.1590980644e-001	 1.0938422145e+000	-1.6528016395e+000
 9.0379814384e-001	 1.1038706432e+000	-1.6720960122e+000
 8.9158340845e-001	 1.1137595917e+000	-1.6876920221e+000
 8.7926800712e-001	 1.1235074992e+000	-1.7007022933e+000
 8.6685437750e-001	 1.1331128604e+000	-1.7121772128e+000
 8.5434498648e-001	 1.1425742255e+000	-1.7230993677e+000
 8.4174232860e-001	 1.1518902019e+000	-1.7343785012e+000
 8.2904892441e-001	 1.1610594536e+000	-1.7468470265e+000
 9.5604974416e-001	 1.0679037023e+000	-1.5801922121e+000
 9.4420632116e-001	 1.0783894406e+000	-1.6172625228e+000
 9.3225229074e-001	 1.0887400755e+000	-1.6470104725e+000
 9.2018996881e-001	 1.0989538776e+000	-1.6706831654e+000
 9.0802170687e-001	 1.1090291703e+000	-1.6894840591e+000
 8.9574989049e-001	 1.1189643311e+000	-1.7045659529e+000
 8.8337693773e-001	 1.1287577918e+000	-1.7170243652e+000
 8.7090529765e-001	 1.1384080401e+000	-1.7278913508e+000
 8.5833744866e-001	 1.1479136194e+000	-1.7381298053e+000
 8.4567589696e-001	 1.1572731305e+000	-1.7486283023e+000
 8.3292317489e-001	 1.1664852313e+000	-1.7601965025e+000
 9.6049670432e-001	 1.0728709389e+000	-1.5987549624e+000
 9.4859819294e-001	 1.0834054504e+000	-1.6353071984e+000
 9.3658855966e-001	 1.0938042301e+000	-1.6645729693e+000
 9.2447013118e-001	 1.1040655406e+000	-1.6877833217e+000
 9.1224526991e-001	 1.1141876974e+000	-1.7061248153e+000
 8.9991637252e-001	 1.1241690705e+000	-1.7207323467e+000
 8.8748586833e-001	 1.1340080845e+000	-1.7326823709e+000
 8.7495621779e-001	 1.1437032198e+000	-1.7429865732e+000
 8.6232991084e-001	 1.1532530133e+000	-1.7525860410e+000
 8.4960946533e-001	 1.1626560590e+000	-1.7623459811e+000
 8.3679742537e-001	 1.1719110090e+000	-1.7730510241e+000
 9.6494366449e-001	 1.0778381754e+000	-1.6164573117e+000
 9.5299006473e-001	 1.0884214602e+000	-1.6524959219e+000
 9.4092482859e-001	 1.0988683847e+000	-1.6812946718e+000
 9.2875029354e-001	 1.1091772036e+000	-1.7040668608e+000
 9.1646883294e-001	 1.1193462246e+000	-1.7219803867e+000
 9.0408285455e-001	 1.1293738099e+000	-1.7361504024e+000
 8.9159479894e-001	 1.1392583771e+000	-1.7476323802e+000
 8.7900713793e-001	 1.1489983995e+000	-1.7574156373e+000
 8.6632237302e-001	 1.1585924071e+000	-1.7664173737e+000
 8.5354303369e-001	 1.1680389876e+000	-1.7754772691e+000
 8.4067167585e-001	 1.1773367866e+000	-1.7853526819e+000
 9.6939062465e-001	 1.0828054119e+000	-1.6332686795e+000
 9.5738193651e-001	 1.0934374700e+000	-1.6687964772e+000
 9.4526109752e-001	 1.1039325394e+000	-1.6971413592e+000
 9.3303045591e-001	 1.1142888666e+000	-1.7194972271e+000
 9.2069239598e-001	 1.1245047517e+000	-1.7370115915e+000
 9.0824933658e-001	 1.1345785494e+000	-1.7507780597e+000
 8.9570372954e-001	 1.1445086698e+000	-1.7618292407e+000
 8.8305805808e-001	 1.1542935792e+000	-1.7711301229e+000
 8.7031483519e-001	 1.1639318010e+000	-1.7795719770e+000
 8.5747660205e-001	 1.1734219162e+000	-1.7879668319e+000
 8.4454592633e-001	 1.1827625643e+000	-1.7970425680e+000
 9.7383758481e-001	 1.0877726485e+000	-1.6491572045e+000
 9.6177380830e-001	 1.0984534798e+000	-1.6841753602e+000
 9.4959736645e-001	 1.1089966940e+000	-1.7120775234e+000
 9.3731061827e-001	 1.1194005296e+000	-1.7340365868e+000
 9.2491595901e-001	 1.1296632788e+000	-1.7511779874e+000
 9.1241581861e-001	 1.1397832888e+000	-1.7645720235e+000
 8.9981266015e-001	 1.1497589624e+000	-1.7752265986e+000
 8.8710897822e-001	 1.1595887589e+000	-1.7840804498e+000
 8.7430729737e-001	 1.1692711948e+000	-1.7919969138e+000
 8.6141017042e-001	 1.1788048448e+000	-1.7997582813e+000
 8.4842017681e-001	 1.1881883420e+000	-1.8080607841e+000
 9.7828454497e-001	 1.0927398850e+000	-1.6640897815e+000
 9.6616568008e-001	 1.1034694896e+000	-1.6985978132e+000
 9.5393363537e-001	 1.1140608486e+000	-1.7260664017e+000
 9.4159078064e-001	 1.1245121926e+000	-1.7476458582e+000
 9.2913952205e-001	 1.1348218059e+000	-1.7644378989e+000
 9.1658230064e-001	 1.1449880282e+000	-1.7774877883e+000
 9.0392159075e-001	 1.1550092550e+000	-1.7877769206e+000
 8.9115989836e-001	 1.1648839386e+000	-1.7962158963e+000
 8.7829975955e-001	 1.1746105887e+000	-1.8036381509e+000
 8.6534373878e-001	 1.1841877734e+000	-1.8107941858e+000
 8.5229442729e-001	 1.1936141197e+000	-1.8183464490e+000
 8.1355192249e-001	 1.1393563430e+000	-1.6896224346e+000
 8.0100923691e-001	 1.1482089623e+000	-1.7063965473e+000
 7.8838251678e-001	 1.1569151472e+000	-1.7214200383e+000
 7.7567430092e-001	 1.1654737568e+000	-1.7345074005e+000
 7.6288714729e-001	 1.1738837082e+000	-1.7453892378e+000
 7.5002363130e-001	 1.1821439770e+000	-1.7537127565e+000
 7.3708634418e-001	 1.1902535976e+000	-1.7590428735e+000
 7.2407789135e-001	 1.1982116633e+000	-1.7608639418e+000
 7.1100089074e-001	 1.2060173266e+000	-1.7585820918e+000
 6.9785797114e-001	 1.2136697993e+000	-1.7515281791e+000
 6.8465177058e-001	 1.2211683524e+000	-1.7389613296e+000
 8.1742617297e-001	 1.1447821206e+000	-1.7043928432e+000
 8.0482375733e-001	 1.1536768974e+000	-1.7199265337e+000
 7.9213690695e-001	 1.1624245424e+000	-1.7335597506e+000
 7.7936817276e-001	 1.1710239093e+000	-1.7451745908e+000
 7.6652012487e-001	 1.1794739101e+000	-1.7545656824e+000
 7.5359535098e-001	 1.1877735155e+000	-1.7614405216e+000
 7.4059645465e-001	 1.1959217553e+000	-1.7654204480e+000
 7.2752605371e-001	 1.2039177184e+000	-1.7660422602e+000
 7.1438677855e-001	 1.2117605534e+000	-1.7627604691e+000
 7.0118127049e-001	 1.2194494682e+000	-1.7549501828e+000
 6.8791218012e-001	 1.2269837306e+000	-1.7419106098e+000
 8.2130042345e-001	 1.1502078983e+000	-1.7188898145e+000
 8.0863827775e-001	 1.1591448325e+000	-1.7332224242e+000
 7.9589129713e-001	 1.1679339376e+000	-1.7454858040e+000
 7.8306204459e-001	 1.1765740619e+000	-1.7556314431e+000
 7.7015310246e-001	 1.1850641120e+000	-1.7635198228e+000
 7.5716707066e-001	 1.1934030540e+000	-1.7689205910e+000
 7.4410656513e-001	 1.2015899129e+000	-1.7715133971e+000
 7.3097421607e-001	 1.2096237735e+000	-1.7708893910e+000
 7.1777266637e-001	 1.2175037802e+000	-1.7665533828e+000
 7.0450456985e-001	 1.2252291372e+000	-1.7579266573e+000
 6.9117258966e-001	 1.2327991087e+000	-1.7443504307e+000
 8.2517467393e-001	 1.1556336760e+000	-1.7330594999e+000
 8.1245279817e-001	 1.1646127676e+000	-1.7462270972e+000
 7.9964568730e-001	 1.1734433328e+000	-1.7571392123e+000
 7.8675591643e-001	 1.1821242144e+000	-1.7658184866e+000
 7.7378608004e-001	 1.1906543139e+000	-1.7721930519e+000
 7.6073879034e-001	 1.1990325925e+000	-1.7760965353e+000
 7.4761667560e-001	 1.2072580706e+000	-1.7772687471e+000
 7.3442237843e-001	 1.2153298286e+000	-1.7753570555e+000
 7.2115855418e-001	 1.2232470070e+000	-1.7699184468e+000
 7.0782786920e-001	 1.2310088062e+000	-1.7604222632e+000
 6.9443299921e-001	 1.2386144869e+000	-1.7462536081e+000
 8.2904892441e-001	 1.1610594536e+000	-1.7468470265e+000
 8.1626731859e-001	 1.1700807027e+000	-1.7588824823e+000
 8.0340007748e-001	 1.1789527281e+000	-1.7684600970e+000
 7.9044978826e-001	 1.1876743669e+000	-1.7756753951e+000
 7.7741905762e-001	 1.1962445158e+000	-1.7805259260e+000
 7.6431051002e-001	 1.2046621310e+000	-1.7829110903e+000
 7.5112678607e-001	 1.2129262282e+000	-1.7826326746e+000
 7.3787054080e-001	 1.2210358837e+000	-1.7793960947e+000
 7.2454444200e-001	 1.2289902338e+000	-1.7728123494e+000
 7.1115116856e-001	 1.2367884751e+000	-1.7624006765e+000
 6.9769340875e-001	 1.2444298650e+000	-1.7475919003e+000
 8.3292317489e-001	 1.1664852313e+000	-1.7601965025e+000
 8.2008183901e-001	 1.1755486379e+000	-1.7711295629e+000
 8.0715446765e-001	 1.1844621233e+000	-1.7793876861e+000
 7.9414366010e-001	 1.1932245194e+000	-1.7851409838e+000
 7.8105203521e-001	 1.2018347177e+000	-1.7884581593e+000
 7.6788222971e-001	 1.2102916695e+000	-1.7893061499e+000
 7.5463689654e-001	 1.2185943859e+000	-1.7875504984e+000
 7.4131870316e-001	 1.2267419389e+000	-1.7829564605e+000
 7.2793032982e-001	 1.2347334606e+000	-1.7751908444e+000
 7.1447446791e-001	 1.2425681441e+000	-1.7638245794e+000
 7.0095381829e-001	 1.2502452432e+000	-1.7483359999e+000
 8.3679742537e-001	 1.1719110090e+000	-1.7730510241e+000
 8.2389635943e-001	 1.1810165730e+000	-1.7829083787e+000
 8.1090885783e-001	 1.1899715185e+000	-1.7898603138e+000
 7.9783753194e-001	 1.1987746719e+000	-1.7941532056e+000
 7.8468501279e-001	 1.2074249197e+000	-1.7959286193e+000
 7.7145394939e-001	 1.2159212079e+000	-1.7952227593e+000
 7.5814700702e-001	 1.2242625436e+000	-1.7919666718e+000
 7.4476686552e-001	 1.2324479940e+000	-1.7859872076e+000
 7.3131621763e-001	 1.2404766874e+000	-1.7770087427e+000
 7.1779776727e-001	 1.2483478131e+000	-1.7646556524e+000
 7.0421422783e-001	 1.2560606213e+000	-1.7484555268e+000
 8.4067167585e-001	 1.1773367866e+000	-1.7853526819e+000
 8.2771087985e-001	 1.1864845081e+000	-1.7941580290e+000
 8.1466324800e-001	 1.1954809137e+000	-1.7998154210e+000
 8.0153140377e-001	 1.2043248245e+000	-1.8026491496e+000
 7.8831799037e-001	 1.2130151216e+000	-1.8028753219e+000
 7.7502566907e-001	 1.2215507464e+000	-1.8006011095e+000
 7.6165711749e-001	 1.2299307012e+000	-1.7958247755e+000
 7.4821502788e-001	 1.2381540491e+000	-1.7884364860e+000
 7.3470210545e-001	 1.2462199142e+000	-1.7782199045e+000
 7.2112106663e-001	 1.2541274820e+000	-1.7648545667e+000
 7.0747463737e-001	 1.2618759994e+000	-1.7479190208e+000
 8.4454592633e-001	 1.1827625643e+000	-1.7970425680e+000
 8.3152540027e-001	 1.1919524432e+000	-1.8048166765e+000
 8.1841763818e-001	 1.2009903089e+000	-1.8091895555e+000
 8.0522527561e-001	 1.2098749770e+000	-1.8105650391e+000
 7.9195096796e-001	 1.2186053235e+000	-1.8092354281e+000
 7.7859738876e-001	 1.2271802849e+000	-1.8053805319e+000
 7.6516722796e-001	 1.2355988589e+000	-1.7990675116e+000
 7.5166319024e-001	 1.2438601042e+000	-1.7902515336e+000
 7.3808799327e-001	 1.2519631410e+000	-1.7787772322e+000
 7.2444436598e-001	 1.2599071510e+000	-1.7643809771e+000
 7.1073504692e-001	 1.2676913776e+000	-1.7466939358e+000
 8.4842017681e-001	 1.1881883420e+000	-1.8080607841e+000
 8.3533992069e-001	 1.1974203783e+000	-1.8148215512e+000
 8.2217202835e-001	 1.2064997041e+000	-1.8179183740e+000
 8.0891914744e-001	 1.2154251295e+000	-1.8178362304e+000
 7.9558394554e-001	 1.2241955254e+000	-1.8149452409e+000
 7.8216910844e-001	 1.2328098234e+000	-1.8094994936e+000
 7.6867733844e-001	 1.2412670166e+000	-1.8016366975e+000
 7.5511135261e-001	 1.2495661593e+000	-1.7913786704e+000
 7.4147388108e-001	 1.2577063678e+000	-1.7786326633e+000
 7.2776766534e-001	 1.2656868199e+000	-1.7631935160e+000
 7.1399545646e-001	 1.2735067557e+000	-1.7447466333e+000
 8.5229442729e-001	 1.1936141197e+000	-1.8183464490e+000
 8.3915444111e-001	 1.2028883134e+000	-1.8241089558e+000
 8.2592641853e-001	 1.2120090993e+000	-1.8259366433e+000
 8.1261301928e-001	 1.2209752820e+000	-1.8243972123e+000
 7.9921692312e-001	 1.2297857273e+000	-1.8199402023e+000
 7.8574082812e-001	 1.2384393619e+000	-1.8128955933e+000
 7.7218744891e-001	 1.2469351742e+000	-1.8034732608e+000
 7.5855951497e-001	 1.2552722144e+000	-1.7917632920e+000
 7.4485976890e-001	 1.2634495946e+000	-1.7777371651e+000
 7.3109096470e-001	 1.2714664889e+000	-1.7612497866e+000
 7.1725586600e-001	 1.2793221339e+000	-1.7420423775e+000
 6.8465177058e-001	 1.2211683524e+000	-1.7389613296e+000
 6.7138692914e-001	 1.2285112268e+000	-1.7229510593e+000
 6.5806412163e-001	 1.2356989496e+000	-1.7077083081e+000
 6.4468600345e-001	 1.2427309712e+000	-1.7004902054e+000
 6.3125523267e-001	 1.2496068010e+000	-1.6995134451e+000
 6.1777446844e-001	 1.2563260072e+000	-1.7022466845e+000
 6.0424636941e-001	 1.2628882170e+000	-1.7062427929e+000
 5.9067359215e-001	 1.2692931155e+000	-1.7091519559e+000
 5.7705878960e-001	 1.2755404461e+000	-1.7087334711e+000
 5.6340460958e-001	 1.2816300098e+000	-1.7028661937e+000
 5.4971369321e-001	 1.2875616648e+000	-1.6895576056e+000
 6.8791218012e-001	 1.2269837306e+000	-1.7419106098e+000
 6.7458416961e-001	 1.2343615728e+000	-1.7257926039e+000
 6.6119791699e-001	 1.2415835245e+000	-1.7092069480e+000
 6.4775609030e-001	 1.2486490336e+000	-1.6997178383e+000
 6.3426136027e-001	 1.2555576071e+000	-1.6969372614e+000
 6.2071639872e-001	 1.2623088112e+000	-1.6982384963e+000
 6.0712387694e-001	 1.2689022711e+000	-1.7010843956e+000
 5.9348646418e-001	 1.2753376706e+000	-1.7030409101e+000
 5.7980682600e-001	 1.2816147519e+000	-1.7017892576e+000
 5.6608762282e-001	 1.2877333150e+000	-1.6951366961e+000
 5.5233150835e-001	 1.2936932174e+000	-1.6810258712e+000
 6.9117258966e-001	 1.2327991087e+000	-1.7443504307e+000
 6.7778141008e-001	 1.2402119187e+000	-1.7280690507e+000
 6.6433171235e-001	 1.2474680995e+000	-1.7108118939e+000
 6.5082617715e-001	 1.2545670960e+000	-1.6989783528e+000
 6.3726748787e-001	 1.2615084132e+000	-1.6943336101e+000
 6.2365832899e-001	 1.2682916151e+000	-1.6941547796e+000
 6.1000138448e-001	 1.2749163252e+000	-1.6958139418e+000
 5.9629933621e-001	 1.2813822258e+000	-1.6967920970e+000
 5.8255486239e-001	 1.2876890577e+000	-1.6946917169e+000
 5.6877063606e-001	 1.2938366202e+000	-1.6872478524e+000
 5.5494932349e-001	 1.2998247700e+000	-1.6723377661e+000
 6.9443299921e-001	 1.2386144869e+000	-1.7462536081e+000
 6.8097865055e-001	 1.2460622647e+000	-1.7297614504e+000
 6.6746550771e-001	 1.2533526744e+000	-1.7124911075e+000
 6.5389626400e-001	 1.2604851585e+000	-1.6982716690e+000
 6.4027361547e-001	 1.2674592193e+000	-1.6917116352e+000
 6.2660025927e-001	 1.2742744190e+000	-1.6900123948e+000
 6.1287889201e-001	 1.2809303793e+000	-1.6904544494e+000
 5.9911220824e-001	 1.2874267809e+000	-1.6904330875e+000
 5.8530289879e-001	 1.2937633636e+000	-1.6874713269e+000
 5.7145364930e-001	 1.2999399254e+000	-1.6792313643e+000
 5.5756713863e-001	 1.3059563226e+000	-1.6635245006e+000
 6.9769340875e-001	 1.2444298650e+000	-1.7475919003e+000
 6.8417589103e-001	 1.2519126106e+000	-1.7308497296e+000
 6.7059930307e-001	 1.2592372493e+000	-1.7137462203e+000
 6.5696635085e-001	 1.2664032209e+000	-1.6975948769e+000
 6.4327974307e-001	 1.2734100254e+000	-1.6890779229e+000
 6.2954218954e-001	 1.2802572229e+000	-1.6858259305e+000
 6.1575639955e-001	 1.2869444334e+000	-1.6850269653e+000
 6.0192508027e-001	 1.2934713360e+000	-1.6839897956e+000
 5.8805093519e-001	 1.2998376694e+000	-1.6801572350e+000
 5.7413666254e-001	 1.3060432306e+000	-1.6711179421e+000
 5.6018495377e-001	 1.3120878751e+000	-1.6546166452e+000
 7.0095381829e-001	 1.2502452432e+000	-1.7483359999e+000
 6.8737313150e-001	 1.2577629566e+000	-1.7313126834e+000
 6.7373309843e-001	 1.2651218242e+000	-1.7143613869e+000
 6.6003643770e-001	 1.2723212833e+000	-1.6969421483e+000
 6.4628587067e-001	 1.2793608315e+000	-1.6864364167e+000
 6.3248411982e-001	 1.2862400269e+000	-1.6816076228e+000
 6.1863390708e-001	 1.2929584875e+000	-1.6795504868e+000
 6.0473795230e-001	 1.2995158912e+000	-1.6774864015e+000
 5.9079897158e-001	 1.3059119752e+000	-1.6727771835e+000
 5.7681967578e-001	 1.3121465358e+000	-1.6629372314e+000
 5.6280276891e-001	 1.3182194277e+000	-1.6456440570e+000
 7.0421422783e-001	 1.2560606213e+000	-1.7484555268e+000
 6.9057037197e-001	 1.2636133026e+000	-1.7311279685e+000
 6.7686689379e-001	 1.2710063992e+000	-1.7143214440e+000
 6.6310652455e-001	 1.2782393457e+000	-1.6963046495e+000
 6.4929199827e-001	 1.2853116376e+000	-1.6837883333e+000
 6.3542605009e-001	 1.2922228308e+000	-1.6773672735e+000
 6.2151141462e-001	 1.2989725416e+000	-1.6740418830e+000
 6.0755082433e-001	 1.3055604463e+000	-1.6709452754e+000
 5.9354700798e-001	 1.3119862810e+000	-1.6653574346e+000
 5.7950268902e-001	 1.3182498410e+000	-1.6547177390e+000
 5.6542058405e-001	 1.3243509803e+000	-1.6366358065e+000
 7.0747463737e-001	 1.2618759994e+000	-1.7479190208e+000
 6.9376761244e-001	 1.2694636485e+000	-1.7302720972e+000
 6.8000068915e-001	 1.2768909741e+000	-1.7136100422e+000
 6.6617661140e-001	 1.2841574081e+000	-1.6956704537e+000
 6.5229812587e-001	 1.2912624437e+000	-1.6811320797e+000
 6.3836798037e-001	 1.2982056347e+000	-1.6731121705e+000
 6.2438892215e-001	 1.3049865957e+000	-1.6685158172e+000
 6.1036369636e-001	 1.3116050015e+000	-1.6643869021e+000
 5.9629504437e-001	 1.3180605869e+000	-1.6579226965e+000
 5.8218570225e-001	 1.3243531462e+000	-1.6464867599e+000
 5.6803839919e-001	 1.3304825329e+000	-1.6276201051e+000
 7.1073504692e-001	 1.2676913776e+000	-1.7466939358e+000
 6.9696485291e-001	 1.2753139945e+000	-1.7287204314e+000
 6.8313448451e-001	 1.2827755490e+000	-1.7122096410e+000
 6.6924669825e-001	 1.2900754705e+000	-1.6947988441e+000
 6.5530425347e-001	 1.2972132498e+000	-1.6784631688e+000
 6.4130991064e-001	 1.3041884386e+000	-1.6688470073e+000
 6.2726642969e-001	 1.3110006498e+000	-1.6629846693e+000
 6.1317656839e-001	 1.3176495566e+000	-1.6578298052e+000
 5.9904308077e-001	 1.3241348927e+000	-1.6504960498e+000
 5.8486871549e-001	 1.3304564514e+000	-1.6382703050e+000
 5.7065621433e-001	 1.3366140855e+000	-1.6185151474e+000
 7.1399545646e-001	 1.2735067557e+000	-1.7447466333e+000
 7.0016209339e-001	 1.2811643405e+000	-1.7264471774e+000
 6.8626827987e-001	 1.2886601239e+000	-1.7101015030e+000
 6.7231678510e-001	 1.2959935330e+000	-1.6932558235e+000
 6.5831038107e-001	 1.3031640559e+000	-1.6757741375e+000
 6.4425184092e-001	 1.3101712425e+000	-1.6645738028e+000
 6.3014393722e-001	 1.3170147039e+000	-1.6574584589e+000
 6.1598944042e-001	 1.3236941118e+000	-1.6512904730e+000
 6.0179111716e-001	 1.3302091985e+000	-1.6430988745e+000
 5.8755172873e-001	 1.3365597566e+000	-1.6299396386e+000
 5.7327402947e-001	 1.3427456381e+000	-1.6087128828e+000
 7.1725586600e-001	 1.2793221339e+000	-1.7420423775e+000
 7.0335933386e-001	 1.2870146864e+000	-1.7234253811e+000
 6.8940207522e-001	 1.2945446989e+000	-1.7072656895e+000
 6.7538687194e-001	 1.3019115954e+000	-1.6910182452e+000
 6.6131650867e-001	 1.3091148620e+000	-1.6730544635e+000
 6.4719377119e-001	 1.3161540465e+000	-1.6602918230e+000
 6.3302144475e-001	 1.3230287580e+000	-1.6519447687e+000
 6.1880231245e-001	 1.3297386669e+000	-1.6447832833e+000
 6.0453915355e-001	 1.3362835043e+000	-1.6355837665e+000
 5.9023474197e-001	 1.3426630618e+000	-1.6206393704e+000
 5.7589184460e-001	 1.3488771907e+000	-1.5979764477e+000
 5.4971369321e-001	 1.2875616648e+000	-1.6895576056e+000
 5.3598661222e-001	 1.2933361804e+000	-1.6731834283e+000
 5.2222804288e-001	 1.2989526269e+000	-1.6588699769e+000
 5.0844059935e-001	 1.3044110321e+000	-1.6459514454e+000
 4.9462688332e-001	 1.3097114787e+000	-1.6339064261e+000
 4.8078948260e-001	 1.3148541040e+000	-1.6223580465e+000
 4.6693096984e-001	 1.3198390990e+000	-1.6110728151e+000
 4.5305390111e-001	 1.3246667076e+000	-1.5999582200e+000
 4.3916081473e-001	 1.3293372259e+000	-1.5890591277e+000
 4.2525422994e-001	 1.3338510017e+000	-1.5785631038e+000
 4.1133664571e-001	 1.3382084331e+000	-1.5696417206e+000
 5.5233150835e-001	 1.2936932174e+000	-1.6810258712e+000
 5.3853905704e-001	 1.2994952321e+000	-1.6638251441e+000
 5.2471496742e-001	 1.3051384249e+000	-1.6486584292e+000
 5.1086186612e-001	 1.3106228238e+000	-1.6348103874e+000
 4.9698236720e-001	 1.3159485119e+000	-1.6217142081e+000
 4.8307907081e-001	 1.3211156271e+000	-1.6089518380e+000
 4.6915456182e-001	 1.3261243613e+000	-1.5962528763e+000
 4.5521140851e-001	 1.3309749597e+000	-1.5834921834e+000
 4.4125216127e-001	 1.3356677197e+000	-1.5708447693e+000
 4.2727935133e-001	 1.3402029907e+000	-1.5595338388e+000
 4.1329548958e-001	 1.3445811728e+000	-1.5503366647e+000
 5.5494932349e-001	 1.2998247700e+000	-1.6723377661e+000
 5.4109150186e-001	 1.3056542837e+000	-1.6543044553e+000
 5.2720189197e-001	 1.3113242229e+000	-1.6382490675e+000
 5.1328313289e-001	 1.3168346155e+000	-1.6234029368e+000
 4.9933785108e-001	 1.3221855450e+000	-1.6091503860e+000
 4.8536865901e-001	 1.3273771502e+000	-1.5950290495e+000
 4.7137815380e-001	 1.3324096237e+000	-1.5807288217e+000
 4.5736891591e-001	 1.3372832118e+000	-1.5664598928e+000
 4.4334350781e-001	 1.3419982135e+000	-1.5531802005e+000
 4.2930447273e-001	 1.3465549797e+000	-1.5414514875e+000
 4.1525433345e-001	 1.3509539125e+000	-1.5318810719e+000
 5.5756713863e-001	 1.3059563226e+000	-1.6635245006e+000
 5.4364394668e-001	 1.3118133354e+000	-1.6446515243e+000
 5.2968881652e-001	 1.3175100209e+000	-1.6276716453e+000
 5.1570439966e-001	 1.3230464071e+000	-1.6117591069e+000
 5.0169333496e-001	 1.3284225782e+000	-1.5962459333e+000
 4.8765824721e-001	 1.3336386733e+000	-1.5806239802e+000
 4.7360174579e-001	 1.3386948860e+000	-1.5650707168e+000
 4.5952642331e-001	 1.3435914639e+000	-1.5501797812e+000
 4.4543485434e-001	 1.3483287073e+000	-1.5363848092e+000
 4.3132959412e-001	 1.3529069687e+000	-1.5241899358e+000
 4.1721317732e-001	 1.3573266523e+000	-1.5141605110e+000
 5.6018495377e-001	 1.3120878751e+000	-1.6546166452e+000
 5.4619639149e-001	 1.3179723871e+000	-1.6348962144e+000
 5.3217574106e-001	 1.3236958188e+000	-1.6169559237e+000
 5.1812566643e-001	 1.3292581988e+000	-1.5999091903e+000
 5.0404881884e-001	 1.3346596114e+000	-1.5830494550e+000
 4.8994783541e-001	 1.3399001964e+000	-1.5663488166e+000
 4.7582533777e-001	 1.3449801484e+000	-1.5501090333e+000
 4.6168393071e-001	 1.3498997160e+000	-1.5346375677e+000
 4.4752620088e-001	 1.3546592010e+000	-1.5203225351e+000
 4.3335471551e-001	 1.3592589578e+000	-1.5076231707e+000
 4.1917202119e-001	 1.3636993920e+000	-1.4970605172e+000
 5.6280276891e-001	 1.3182194277e+000	-1.6456440570e+000
 5.4874883631e-001	 1.3241314387e+000	-1.6250680162e+000
 5.3466266561e-001	 1.3298816168e+000	-1.6061315987e+000
 5.2054693320e-001	 1.3354699905e+000	-1.5879041335e+000
 5.0640430272e-001	 1.3408966445e+000	-1.5700280746e+000
 4.9223742361e-001	 1.3461617194e+000	-1.5525734452e+000
 4.7804892975e-001	 1.3512654107e+000	-1.5357075452e+000
 4.6384143811e-001	 1.3562079681e+000	-1.5196889085e+000
 4.4961754742e-001	 1.3609896948e+000	-1.5048575268e+000
 4.3537983690e-001	 1.3656109468e+000	-1.4916252792e+000
 4.2113086506e-001	 1.3700721317e+000	-1.4804665921e+000
 5.6542058405e-001	 1.3243509803e+000	-1.6366358065e+000
 5.5130128113e-001	 1.3302904904e+000	-1.6151959750e+000
 5.3714959015e-001	 1.3360674148e+000	-1.5952242911e+000
 5.2296819997e-001	 1.3416817822e+000	-1.5759592370e+000
 5.0875978660e-001	 1.3471336777e+000	-1.5572607090e+000
 4.9452701181e-001	 1.3524232425e+000	-1.5391411358e+000
 4.8027252174e-001	 1.3575506730e+000	-1.5217151854e+000
 4.6599894551e-001	 1.3625162202e+000	-1.5051897533e+000
 4.5170889395e-001	 1.3673201886e+000	-1.4898541402e+000
 4.3740495830e-001	 1.3719629358e+000	-1.4760704459e+000
 4.2308970893e-001	 1.3764448715e+000	-1.4642642022e+000
 5.6803839919e-001	 1.3304825329e+000	-1.6276201051e+000
 5.5385372595e-001	 1.3364495420e+000	-1.6052562255e+000
 5.3963651470e-001	 1.3422532128e+000	-1.5841660071e+000
 5.2538946674e-001	 1.3478935739e+000	-1.5639954546e+000
 5.1111527048e-001	 1.3533707109e+000	-1.5445867060e+000
 4.9681660001e-001	 1.3586847656e+000	-1.5258955609e+000
 4.8249611372e-001	 1.3638359354e+000	-1.5079812451e+000
 4.6815645291e-001	 1.3688244723e+000	-1.4909963444e+000
 4.5380024049e-001	 1.3736506823e+000	-1.4751769371e+000
 4.3943007969e-001	 1.3783149248e+000	-1.4608329526e+000
 4.2504855279e-001	 1.3828176112e+000	-1.4483387798e+000
 5.7065621433e-001	 1.3366140855e+000	-1.6185151474e+000
 5.5640617077e-001	 1.3426085937e+000	-1.5949026243e+000
 5.4212343924e-001	 1.3484390107e+000	-1.5727954999e+000
 5.2781073351e-001	 1.3541053655e+000	-1.5518495011e+000
 5.1347075436e-001	 1.3596077440e+000	-1.5318458454e+000
 4.9910618822e-001	 1.3649462887e+000	-1.5126807986e+000
 4.8471970570e-001	 1.3701211977e+000	-1.4943553751e+000
 4.7031396031e-001	 1.3751327244e+000	-1.4769652176e+000
 4.5589158703e-001	 1.3799811761e+000	-1.4606906850e+000
 4.4145520108e-001	 1.3846669138e+000	-1.4457871781e+000
 4.2700739666e-001	 1.3891903509e+000	-1.4325757236e+000
 5.7327402947e-001	 1.3427456381e+000	-1.6087128828e+000
 5.5895861559e-001	 1.3487676453e+000	-1.5839295719e+000
 5.4461036379e-001	 1.3546248087e+000	-1.5609480506e+000
 5.3023200028e-001	 1.3603171572e+000	-1.5393585405e+000
 5.1582623824e-001	 1.3658447772e+000	-1.5188783458e+000
 5.0139577642e-001	 1.3712078117e+000	-1.4993413371e+000
 4.8694329769e-001	 1.3764064600e+000	-1.4806875884e+000
 4.7247146771e-001	 1.3814409765e+000	-1.4629532028e+000
 4.5798293356e-001	 1.3863116699e+000	-1.4462603580e+000
 4.4348032248e-001	 1.3910189029e+000	-1.4308075989e+000
 4.2896624053e-001	 1.3955630906e+000	-1.4168603995e+000
 5.7589184460e-001	 1.3488771907e+000	-1.5979764477e+000
 5.6151106040e-001	 1.3549266970e+000	-1.5721720259e+000
 5.4709728833e-001	 1.3608106067e+000	-1.5484593951e+000
 5.3265326705e-001	 1.3665289489e+000	-1.5263601960e+000
 5.1818172212e-001	 1.3720818103e+000	-1.5055248720e+000
 5.0368536462e-001	 1.3774693348e+000	-1.4857220796e+000
 4.8916688967e-001	 1.3826917224e+000	-1.4668282628e+000
 4.7462897510e-001	 1.3877492286e+000	-1.4488174260e+000
 4.6007428010e-001	 1.3926421637e+000	-1.4317511373e+000
 4.4550544387e-001	 1.3973708919e+000	-1.4157687902e+000
 4.3092508440e-001	 1.4019358304e+000	-1.4010781435e+000
 4.1133664571e-001	 1.3382084331e+000	-1.5696417206e+000
 3.9741053939e-001	 1.3424099678e+000	-1.5631036760e+000
 3.8347836494e-001	 1.3464561009e+000	-1.5584231086e+000
 3.6954255248e-001	 1.3503473752e+000	-1.5550410433e+000
 3.5560550744e-001	 1.3540843807e+000	-1.5524408622e+000
 3.4166960951e-001	 1.3576677530e+000	-1.5501423819e+000
 3.2773721164e-001	 1.3610981730e+000	-1.5476961204e+000
 3.1381063911e-001	 1.3643763658e+000	-1.5446777525e+000
 2.9989218860e-001	 1.3675030993e+000	-1.5406827580e+000
 2.8598412731e-001	 1.3704791834e+000	-1.5353212603e+000
 2.7208869216e-001	 1.3733054688e+000	-1.5282130544e+000
 4.1329548958e-001	 1.3445811728e+000	-1.5503366647e+000
 3.9930306515e-001	 1.3488027158e+000	-1.5435649686e+000
 3.8530454369e-001	 1.3528681172e+000	-1.5386629334e+000
 3.7130236691e-001	 1.3567779224e+000	-1.5350535569e+000
 3.5729895167e-001	 1.3605327239e+000	-1.5322048663e+000
 3.4329668900e-001	 1.3641331607e+000	-1.5296239360e+000
 3.2929794306e-001	 1.3675799170e+000	-1.5268510964e+000
 3.1530505020e-001	 1.3708737210e+000	-1.5234543389e+000
 3.0132031804e-001	 1.3740153444e+000	-1.5190239137e+000
 2.8734602458e-001	 1.3770056010e+000	-1.5131671231e+000
 2.7338441738e-001	 1.3798453456e+000	-1.5055033056e+000
 4.1525433345e-001	 1.3509539125e+000	-1.5318810719e+000
 4.0119559091e-001	 1.3551954638e+000	-1.5247534506e+000
 3.8713072245e-001	 1.3592801335e+000	-1.5195026961e+000
 3.7306218133e-001	 1.3632084695e+000	-1.5155400094e+000
 3.5899239589e-001	 1.3669810672e+000	-1.5123241335e+000
 3.4492376849e-001	 1.3705985685e+000	-1.5093553040e+000
 3.3085867448e-001	 1.3740616609e+000	-1.5061693971e+000
 3.1679946129e-001	 1.3773710762e+000	-1.5023322764e+000
 3.0274844748e-001	 1.3805275895e+000	-1.4974343385e+000
 2.8870792184e-001	 1.3835320187e+000	-1.4910852561e+000
 2.7468014260e-001	 1.3863852225e+000	-1.4829089157e+000
 4.1721317732e-001	 1.3573266523e+000	-1.5141605110e+000
 4.0308811667e-001	 1.3615882119e+000	-1.5065666731e+000
 3.8895690120e-001	 1.3656921498e+000	-1.5008509257e+000
 3.7482199575e-001	 1.3696390166e+000	-1.4964188158e+000
 3.6068584012e-001	 1.3734294104e+000	-1.4927257847e+000
 3.4655084797e-001	 1.3770639763e+000	-1.4892710472e+000
 3.3241940590e-001	 1.3805434049e+000	-1.4855916716e+000
 3.1829387238e-001	 1.3838684313e+000	-1.4812568653e+000
 3.0417657692e-001	 1.3870398347e+000	-1.4758624628e+000
 2.9006981911e-001	 1.3900584363e+000	-1.4690256157e+000
 2.7597586782e-001	 1.3929250993e+000	-1.4603796817e+000
 4.1917202119e-001	 1.3636993920e+000	-1.4970605172e+000
 4.0498064243e-001	 1.3679809599e+000	-1.4889020174e+000
 3.9078307996e-001	 1.3721041661e+000	-1.4826158674e+000
 3.7658181018e-001	 1.3760695637e+000	-1.4776080159e+000
 3.6237928434e-001	 1.3798777537e+000	-1.4733365004e+000
 3.4817792746e-001	 1.3835293841e+000	-1.4693052469e+000
 3.3398013731e-001	 1.3870251488e+000	-1.4650580782e+000
 3.1978828347e-001	 1.3903657865e+000	-1.4601729328e+000
 3.0560470636e-001	 1.3935520798e+000	-1.4542562918e+000
 2.9143171637e-001	 1.3965848540e+000	-1.4469378129e+000
 2.7727159303e-001	 1.3994649761e+000	-1.4378651663e+000
 4.2113086506e-001	 1.3700721317e+000	-1.4804665921e+000
 4.0687316819e-001	 1.3743737079e+000	-1.4716566955e+000
 3.9260925871e-001	 1.3785161824e+000	-1.4647054830e+000
 3.7834162460e-001	 1.3825001108e+000	-1.4590252767e+000
 3.6407272857e-001	 1.3863260970e+000	-1.4540825228e+000
 3.4980500695e-001	 1.3899947919e+000	-1.4493915069e+000
 3.3554086873e-001	 1.3935068927e+000	-1.4445082855e+000
 3.2128269456e-001	 1.3968631417e+000	-1.4390248330e+000
 3.0703283580e-001	 1.4000643249e+000	-1.4325634041e+000
 2.9279361364e-001	 1.4031112716e+000	-1.4247711083e+000
 2.7856731825e-001	 1.4060048529e+000	-1.4153146912e+000
 4.2308970893e-001	 1.3764448715e+000	-1.4642642022e+000
 4.0876569395e-001	 1.3807664560e+000	-1.4547277504e+000
 3.9443543747e-001	 1.3849281987e+000	-1.4470274533e+000
 3.8010143903e-001	 1.3889306579e+000	-1.4405878941e+000
 3.6576617279e-001	 1.3927744402e+000	-1.4348896577e+000
 3.5143208643e-001	 1.3964601997e+000	-1.4294629554e+000
 3.3710160015e-001	 1.3999886367e+000	-1.4238814738e+000
 3.2277710565e-001	 1.4033604968e+000	-1.4177564469e+000
 3.0846096524e-001	 1.4065765700e+000	-1.4107309497e+000
 2.9415551090e-001	 1.4096376893e+000	-1.4024744097e+000
 2.7986304347e-001	 1.4125447298e+000	-1.3926773312e+000
 4.2504855279e-001	 1.3828176112e+000	-1.4483387798e+000
 4.1065821971e-001	 1.3871592040e+000	-1.4380120580e+000
 3.9626161622e-001	 1.3913402150e+000	-1.4294891799e+000
 3.8186125345e-001	 1.3953612050e+000	-1.4222127961e+000
 3.6745961701e-001	 1.3992227835e+000	-1.4156832782e+000
 3.5305916592e-001	 1.4029256075e+000	-1.4094522475e+000
 3.3866233157e-001	 1.4064703806e+000	-1.4031163372e+000
 3.2427151674e-001	 1.4098578520e+000	-1.3963111839e+000
 3.0988909468e-001	 1.4130888151e+000	-1.3887056497e+000
 2.9551740817e-001	 1.4161641069e+000	-1.3799962680e+000
 2.8115876869e-001	 1.4190846066e+000	-1.3699019076e+000
 4.2700739666e-001	 1.3891903509e+000	-1.4325757236e+000
 4.1255074547e-001	 1.3935519520e+000	-1.4214063283e+000
 3.9808779497e-001	 1.3977522313e+000	-1.4119977879e+000
 3.8362106788e-001	 1.4017917521e+000	-1.4038165456e+000
 3.6915306124e-001	 1.4056711267e+000	-1.3963883270e+000
 3.5468624541e-001	 1.4093910153e+000	-1.3892915684e+000
 3.4022306298e-001	 1.4129521246e+000	-1.3821510854e+000
 3.2576592783e-001	 1.4163552071e+000	-1.3746319818e+000
 3.1131722412e-001	 1.4196010602e+000	-1.3664337953e+000
 2.9687930543e-001	 1.4226905246e+000	-1.3572848748e+000
 2.8245449391e-001	 1.4256244834e+000	-1.3469369829e+000
 4.2896624053e-001	 1.3955630906e+000	-1.4168603995e+000
 4.1444327123e-001	 1.3999447001e+000	-1.4048071083e+000
 3.9991397373e-001	 1.4041642476e+000	-1.3944601290e+000
 3.8538088230e-001	 1.4082222992e+000	-1.3853153436e+000
 3.7084650546e-001	 1.4121194700e+000	-1.3769293206e+000
 3.5631332490e-001	 1.4158564231e+000	-1.3689126362e+000
 3.4178379440e-001	 1.4194338685e+000	-1.3609234466e+000
 3.2726033892e-001	 1.4228525623e+000	-1.3526613089e+000
 3.1274535356e-001	 1.4261133053e+000	-1.3438612474e+000
 2.9824120270e-001	 1.4292169422e+000	-1.3342880597e+000
 2.8375021912e-001	 1.4321643603e+000	-1.3237308555e+000
 4.3092508440e-001	 1.4019358304e+000	-1.4010781435e+000
 4.1633579699e-001	 1.4063374481e+000	-1.3881107843e+000
 4.0174015248e-001	 1.4105762639e+000	-1.3767827849e+000
 3.8714069672e-001	 1.4146528463e+000	-1.3666250338e+000
 3.7253994969e-001	 1.4185678132e+000	-1.3572303525e+000
 3.5794040438e-001	 1.4223218309e+000	-1.3482467055e+000
 3.4334452582e-001	 1.4259156124e+000	-1.3393706698e+000
 3.2875475001e-001	 1.4293499175e+000	-1.3303411648e+000
 3.1417348300e-001	 1.4326255505e+000	-1.3209334362e+000
 2.9960309996e-001	 1.4357433599e+000	-1.3109532880e+000
 2.8504594434e-001	 1.4387042371e+000	-1.3002315550e+000
 2.7208869216e-001	 1.3733054688e+000	-1.5282130544e+000
 2.5821016918e-001	 1.3759824560e+000	-1.5204713771e+000
 2.4434864351e-001	 1.3785115099e+000	-1.5135609433e+000
 2.3050625248e-001	 1.3808935982e+000	-1.5076246289e+000
 2.1668510026e-001	 1.3831297249e+000	-1.5027852488e+000
 2.0288725725e-001	 1.3852209296e+000	-1.4991408883e+000
 1.8911475949e-001	 1.3871682857e+000	-1.4967604252e+000
 1.7536960807e-001	 1.3889729000e+000	-1.4956792354e+000
 1.6165376864e-001	 1.3906359110e+000	-1.4958950758e+000
 1.4796917094e-001	 1.3921584880e+000	-1.4973641363e+000
 1.3431770835e-001	 1.3935418298e+000	-1.4999972549e+000
 2.7338441738e-001	 1.3798453456e+000	-1.5055033056e+000
 2.5943980289e-001	 1.3825350810e+000	-1.4971291949e+000
 2.4551226666e-001	 1.3850761786e+000	-1.4895071313e+000
 2.3160395618e-001	 1.3874696107e+000	-1.4828026687e+000
 2.1771698566e-001	 1.3897163863e+000	-1.4771611930e+000
 2.0385343535e-001	 1.3918175495e+000	-1.4727032383e+000
 1.9001535099e-001	 1.3937741793e+000	-1.4695199975e+000
 1.7620474319e-001	 1.3955873874e+000	-1.4676690174e+000
 1.6242358698e-001	 1.3972583179e+000	-1.4671700720e+000
 1.4867382127e-001	 1.3987881456e+000	-1.4680012071e+000
 1.3495734846e-001	 1.4001780751e+000	-1.4700949464e+000
 2.7468014260e-001	 1.3863852225e+000	-1.4829089157e+000
 2.6066943660e-001	 1.3890877060e+000	-1.4739769728e+000
 2.4667588980e-001	 1.3916408473e+000	-1.4657339558e+000
 2.3270165988e-001	 1.3940456233e+000	-1.4583627119e+000
 2.1874887106e-001	 1.3963030476e+000	-1.4520259177e+000
 2.0481961345e-001	 1.3984141695e+000	-1.4468613901e+000
 1.9091594249e-001	 1.4003800728e+000	-1.4429775920e+000
 1.7703987832e-001	 1.4022018748e+000	-1.4404493253e+000
 1.6319340531e-001	 1.4038807247e+000	-1.4393136031e+000
 1.4937847160e-001	 1.4054178032e+000	-1.4395656922e+000
 1.3559698858e-001	 1.4068143204e+000	-1.4411553187e+000
 2.7597586782e-001	 1.3929250993e+000	-1.4603796817e+000
 2.6189907031e-001	 1.3956403310e+000	-1.4509635366e+000
 2.4783951295e-001	 1.3982055161e+000	-1.4421894281e+000
 2.3379936358e-001	 1.4006216359e+000	-1.4342521688e+000
 2.1978075646e-001	 1.4028897089e+000	-1.4273265023e+000
 2.0578579155e-001	 1.4050107895e+000	-1.4215624162e+000
 1.9181653399e-001	 1.4069859664e+000	-1.4170806517e+000
 1.7787501344e-001	 1.4088163621e+000	-1.4139684023e+000
 1.6396322365e-001	 1.4105031316e+000	-1.4122751923e+000
 1.5008312193e-001	 1.4120474608e+000	-1.4120089244e+000
 1.3623662869e-001	 1.4134505656e+000	-1.4131320915e+000
 2.7727159303e-001	 1.3994649761e+000	-1.4378651663e+000
 2.6312870402e-001	 1.4021929561e+000	-1.4280376057e+000
 2.4900313609e-001	 1.4047701848e+000	-1.4188215770e+000
 2.3489706728e-001	 1.4071976485e+000	-1.4104185871e+000
 2.2081264186e-001	 1.4094763703e+000	-1.4030102769e+000
 2.0675196966e-001	 1.4116074094e+000	-1.3967537453e+000
 1.9271712549e-001	 1.4135918599e+000	-1.3917770721e+000
 1.7871014857e-001	 1.4154308495e+000	-1.3881750292e+000
 1.6473304199e-001	 1.4171255385e+000	-1.3860049728e+000
 1.5078777226e-001	 1.4186771184e+000	-1.3852829047e+000
 1.3687626881e-001	 1.4200868109e+000	-1.3859796958e+000
 2.7856731825e-001	 1.4060048529e+000	-1.4153146912e+000
 2.6435833773e-001	 1.4087455811e+000	-1.4051477825e+000
 2.5016675923e-001	 1.4113348536e+000	-1.3955784365e+000
 2.3599477098e-001	 1.4137736611e+000	-1.3868096365e+000
 2.2184452726e-001	 1.4160630316e+000	-1.3790248043e+000
 2.0771814776e-001	 1.4182040294e+000	-1.3723831428e+000
 1.9361771699e-001	 1.4201977535e+000	-1.3670151799e+000
 1.7954528369e-001	 1.4220453369e+000	-1.3630185013e+000
 1.6550286033e-001	 1.4237479454e+000	-1.3604536639e+000
 1.5149242259e-001	 1.4253067760e+000	-1.3593402778e+000
 1.3751590892e-001	 1.4267230562e+000	-1.3596532484e+000
 2.7986304347e-001	 1.4125447298e+000	-1.3926773312e+000
 2.6558797144e-001	 1.4152982061e+000	-1.3822425438e+000
 2.5133038238e-001	 1.4178995223e+000	-1.3724080328e+000
 2.3709247468e-001	 1.4203496737e+000	-1.3633730939e+000
 2.2287641265e-001	 1.4226496930e+000	-1.3553178636e+000
 2.0868432586e-001	 1.4248006493e+000	-1.3483986912e+000
 1.9451830849e-001	 1.4268036470e+000	-1.3427437113e+000
 1.8038041882e-001	 1.4286598243e+000	-1.3384486060e+000
 1.6627267867e-001	 1.4303703522e+000	-1.3355725475e+000
 1.5219707292e-001	 1.4319364336e+000	-1.3341343081e+000
 1.3815554904e-001	 1.4333593015e+000	-1.3341085278e+000
 2.8115876869e-001	 1.4190846066e+000	-1.3699019076e+000
 2.6681760515e-001	 1.4218508311e+000	-1.3592702311e+000
 2.5249400552e-001	 1.4244641910e+000	-1.3492583734e+000
 2.3819017838e-001	 1.4269256863e+000	-1.3400568287e+000
 2.2390829805e-001	 1.4292363543e+000	-1.3318374329e+000
 2.0965050396e-001	 1.4313972693e+000	-1.3247487720e+000
 1.9541889999e-001	 1.4334095405e+000	-1.3189117925e+000
 1.8121555394e-001	 1.4352743117e+000	-1.3144156015e+000
 1.6704249701e-001	 1.4369927591e+000	-1.3113134456e+000
 1.5290172325e-001	 1.4385660912e+000	-1.3096188563e+000
 1.3879518915e-001	 1.4399955467e+000	-1.3093019512e+000
 2.8245449391e-001	 1.4256244834e+000	-1.3469369829e+000
 2.6804723886e-001	 1.4284034562e+000	-1.3361790427e+000
 2.5365762866e-001	 1.4310288598e+000	-1.3260774352e+000
 2.3928788208e-001	 1.4335016988e+000	-1.3168087897e+000
 2.2494018345e-001	 1.4358230156e+000	-1.3085316737e+000
 2.1061668206e-001	 1.4379938892e+000	-1.3013820474e+000
 1.9631949149e-001	 1.4400154341e+000	-1.2954689199e+000
 1.8205068907e-001	 1.4418887990e+000	-1.2908701958e+000
 1.6781231535e-001	 1.4436151660e+000	-1.2876286982e+000
 1.5360637358e-001	 1.4451957488e+000	-1.2857483573e+000
 1.3943482927e-001	 1.4466317920e+000	-1.2851905512e+000
 2.8375021912e-001	 1.4321643603e+000	-1.3237308555e+000
 2.6927687257e-001	 1.4349560812e+000	-1.3129170249e+000
 2.5482125181e-001	 1.4375935285e+000	-1.3028131541e+000
 2.4038558578e-001	 1.4400777114e+000	-1.2935769915e+000
 2.2597206885e-001	 1.4424096770e+000	-1.2853489155e+000
 2.1158286016e-001	 1.4445905092e+000	-1.2782474430e+000
 1.9722008299e-001	 1.4466213276e+000	-1.2723649409e+000
 1.8288582419e-001	 1.4485032864e+000	-1.2677635263e+000
 1.6858213369e-001	 1.4502375728e+000	-1.2644711424e+000
 1.5431102390e-001	 1.4518254064e+000	-1.2624777978e+000
 1.4007446938e-001	 1.4532680373e+000	-1.2617319539e+000
 2.8504594434e-001	 1.4387042371e+000	-1.3002315550e+000
 2.7050650628e-001	 1.4415087062e+000	-1.2894320652e+000
 2.5598487495e-001	 1.4441581973e+000	-1.2794134146e+000
 2.4148328948e-001	 1.4466537240e+000	-1.2703095020e+000
 2.2700395425e-001	 1.4489963383e+000	-1.2622376409e+000
 2.1254903826e-001	 1.4511871291e+000	-1.2552941316e+000
 1.9812067448e-001	 1.4532272212e+000	-1.2495500358e+000
 1.8372095932e-001	 1.4551177738e+000	-1.2450471400e+000
 1.6935195202e-001	 1.4568599797e+000	-1.2417940915e+000
 1.5501567423e-001	 1.4584550640e+000	-1.2397626954e+000
 1.4071410950e-001	 1.4599042825e+000	-1.2388843578e+000
 1.3431770835e-001	 1.3935418298e+000	-1.4999972549e+000
 1.2069920228e-001	 1.3947873405e+000	-1.5026269468e+000
 1.0711754693e-001	 1.3958960576e+000	-1.5043258289e+000
 9.3574552529e-002	 1.3968692627e+000	-1.5052802373e+000
 8.0071990737e-002	 1.3977082627e+000	-1.5056071487e+000
 6.6611594359e-002	 1.3984143882e+000	-1.5053507465e+000
 5.3195057159e-002	 1.3989889927e+000	-1.5044791446e+000
 3.9824033681e-002	 1.3994334510e+000	-1.5028812665e+000
 2.6500139106e-002	 1.3997491587e+000	-1.5003638768e+000
 1.3224949153e-002	 1.3999375307e+000	-1.4966487613e+000
 0.0000000000e+000	 1.4000000000e+000	-1.4913700596e+000
 1.3495734846e-001	 1.4001780751e+000	-1.4700949464e+000
 1.2127398912e-001	 1.4014295171e+000	-1.4722802615e+000
 1.0762765599e-001	 1.4025435140e+000	-1.4736052992e+000
 9.4020167917e-002	 1.4035213537e+000	-1.4742477229e+000
 8.0453304996e-002	 1.4043643491e+000	-1.4743176599e+000
 6.6928808288e-002	 1.4050738373e+000	-1.4738542402e+000
 5.3448379621e-002	 1.4056511781e+000	-1.4728222885e+000
 4.0013681419e-002	 1.4060977530e+000	-1.4711091661e+000
 2.6626336555e-002	 1.4064149642e+000	-1.4685217593e+000
 1.3287928250e-002	 1.4066042332e+000	-1.4647836111e+000
 0.0000000000e+000	 1.4066670000e+000	-1.4595322004e+000
 1.3559698858e-001	 1.4068143204e+000	-1.4411553187e+000
 1.2184877597e-001	 1.4080716936e+000	-1.4429144358e+000
 1.0813776505e-001	 1.4091909705e+000	-1.4438784765e+000
 9.4465783304e-002	 1.4101734447e+000	-1.4442198685e+000
 8.0834619255e-002	 1.4110204356e+000	-1.4440452585e+000
 6.7246022216e-002	 1.4117332864e+000	-1.4433920223e+000
 5.3701702083e-002	 1.4123133635e+000	-1.4422249250e+000
 4.0203329157e-002	 1.4127620550e+000	-1.4404329250e+000
 2.6752534003e-002	 1.4130807696e+000	-1.4378261185e+000
 1.3350907347e-002	 1.4132709357e+000	-1.4341328234e+000
 0.0000000000e+000	 1.4133340000e+000	-1.4289968031e+000
 1.3623662869e-001	 1.4134505656e+000	-1.4131320915e+000
 1.2242356281e-001	 1.4147138702e+000	-1.4144853942e+000
 1.0864787411e-001	 1.4158384269e+000	-1.4151024761e+000
 9.4911398691e-002	 1.4168255357e+000	-1.4151539109e+000
 8.1215933514e-002	 1.4176765220e+000	-1.4147461783e+000
 6.7563236144e-002	 1.4183927355e+000	-1.4139181469e+000
 5.3955024544e-002	 1.4189755490e+000	-1.4126377008e+000
 4.0392976894e-002	 1.4194263570e+000	-1.4107985052e+000
 2.6878731451e-002	 1.4197465751e+000	-1.4082169083e+000
 1.3413886444e-002	 1.4199376382e+000	-1.4046289746e+000
 0.0000000000e+000	 1.4200010000e+000	-1.3996876552e+000
 1.3687626881e-001	 1.4200868109e+000	-1.3859796958e+000
 1.2299834965e-001	 1.4213560468e+000	-1.3869498126e+000
 1.0915798317e-001	 1.4224858833e+000	-1.3872352181e+000
 9.5357014077e-002	 1.4234776267e+000	-1.3870079577e+000
 8.1597247772e-002	 1.4243326084e+000	-1.3863776044e+000
 6.7880450072e-002	 1.4250521846e+000	-1.3853877134e+000
 5.4208347005e-002	 1.4256377344e+000	-1.3840124159e+000
 4.0582624631e-002	 1.4260906591e+000	-1.3821531460e+000
 2.7004928898e-002	 1.4264123806e+000	-1.3796354979e+000
 1.3476865541e-002	 1.4266043408e+000	-1.3762062107e+000
 0.0000000000e+000	 1.4266680000e+000	-1.3715302829e+000
 1.3751590892e-001	 1.4267230562e+000	-1.3596532484e+000
 1.2357313650e-001	 1.4279982234e+000	-1.3602650930e+000
 1.0966809223e-001	 1.4291333398e+000	-1.3602354018e+000
 9.5802629464e-002	 1.4301297176e+000	-1.3597409619e+000
 8.1978562030e-002	 1.4309886948e+000	-1.3588976458e+000
 6.8197663999e-002	 1.4317116337e+000	-1.3577568381e+000
 5.4461669466e-002	 1.4322999199e+000	-1.3563019947e+000
 4.0772272367e-002	 1.4327549611e+000	-1.3544453315e+000
 2.7131126346e-002	 1.4330781860e+000	-1.3520246375e+000
 1.3539844637e-002	 1.4332710433e+000	-1.3488002093e+000
 0.0000000000e+000	 1.4333350000e+000	-1.3444519109e+000
 1.3815554904e-001	 1.4333593015e+000	-1.3341085278e+000
 1.2414792334e-001	 1.4346403999e+000	-1.3343893398e+000
 1.1017820129e-001	 1.4357807962e+000	-1.3340624811e+000
 9.6248244850e-002	 1.4367818086e+000	-1.3333126959e+000
 8.2359876288e-002	 1.4376447813e+000	-1.3322653096e+000
 6.8514877927e-002	 1.4383710828e+000	-1.3309826267e+000
 5.4714991926e-002	 1.4389621053e+000	-1.3294604558e+000
 4.0961920104e-002	 1.4394192631e+000	-1.3276247600e+000
 2.7257323793e-002	 1.4397439915e+000	-1.3253284249e+000
 1.3602823734e-002	 1.4399377458e+000	-1.3223481441e+000
 0.0000000000e+000	 1.4400020000e+000	-1.3183814227e+000
 1.3879518915e-001	 1.4399955467e+000	-1.3093019512e+000
 1.2472271018e-001	 1.4412825765e+000	-1.3092813356e+000
 1.1068831035e-001	 1.4424282527e+000	-1.3086766402e+000
 9.6693860236e-002	 1.4434338996e+000	-1.3076837273e+000
 8.2741190546e-002	 1.4443008677e+000	-1.3064404752e+000
 6.8832091854e-002	 1.4450305319e+000	-1.3050231475e+000
 5.4968314386e-002	 1.4456242907e+000	-1.3034428843e+000
 4.1151567840e-002	 1.4460835651e+000	-1.3016423131e+000
 2.7383521240e-002	 1.4464097970e+000	-1.2994922730e+000
 1.3665802830e-002	 1.4466044483e+000	-1.2967886495e+000
 0.0000000000e+000	 1.4466690000e+000	-1.2932493227e+000
 1.3943482927e-001	 1.4466317920e+000	-1.2851905512e+000
 1.2529749703e-001	 1.4479247531e+000	-1.2849005188e+000
 1.1119841941e-001	 1.4490757091e+000	-1.2840387711e+000
 9.7139475622e-002	 1.4500859906e+000	-1.2828153949e+000
 8.3122504803e-002	 1.4509569541e+000	-1.2813838695e+000
 6.9149305780e-002	 1.4516899810e+000	-1.2798374056e+000
 5.5221636846e-002	 1.4522864762e+000	-1.2782054042e+000
 4.1341215576e-002	 1.4527478671e+000	-1.2764500273e+000
 2.7509718687e-002	 1.4530756024e+000	-1.2744628781e+000
 1.3728781927e-002	 1.4532711508e+000	-1.2720617861e+000
 0.0000000000e+000	 1.4533360000e+000	-1.2689876990e+000
 1.4007446938e-001	 1.4532680373e+000	-1.2617319539e+000
 1.2587228387e-001	 1.4545669297e+000	-1.2612069611e+000
 1.1170852847e-001	 1.4557231655e+000	-1.2601104502e+000
 9.7585091007e-002	 1.4567380816e+000	-1.2586697857e+000
 8.3503819060e-002	 1.4576130405e+000	-1.2570570428e+000
 6.9466519707e-002	 1.4583494301e+000	-1.2553853174e+000
 5.5474959305e-002	 1.4589486616e+000	-1.2537051513e+000
 4.1530863311e-002	 1.4594121691e+000	-1.2520010642e+000
 2.7635916133e-002	 1.4597414079e+000	-1.2501881892e+000
 1.3791761023e-002	 1.4599378533e+000	-1.2481090080e+000
 0.0000000000e+000	 1.4600030000e+000	-1.2455301871e+000
 1.4071410950e-001	 1.4599042825e+000	-1.2388843578e+000
 1.2644707071e-001	 1.4612091062e+000	-1.2381613459e+000
 1.1221863753e-001	 1.4623706220e+000	-1.2368539168e+000
 9.8030706392e-002	 1.4633901726e+000	-1.2352097119e+000
 8.3885133317e-002	 1.4642691269e+000	-1.2334223454e+000
 6.9783733633e-002	 1.4650088792e+000	-1.2316276859e+000
 5.5728281765e-002	 1.4656108471e+000	-1.2299002477e+000
 4.1720511047e-002	 1.4660764711e+000	-1.2282496839e+000
 2.7762113580e-002	 1.4664072133e+000	-1.2266173782e+000
 1.3854740119e-002	 1.4666045558e+000	-1.2248731299e+000
 0.0000000000e+000	 1.4666700000e+000	-1.2228119347e+000
 1.4666700000e+000	 0.0000000000e+000	 3.5141048846e+000
 1.4666045558e+000	 1.3854740119e-002	 3.5133093259e+000
 1.4664072133e+000	 2.7762113580e-002	 3.5099285677e+000
 1.4660764711e+000	 4.1720511047e-002	 3.5040353596e+000
 1.4656108471e+000	 5.5728281765e-002	 3.4956660487e+000
 1.4650088792e+000	 6.9783733633e-002	 3.4848220926e+000
 1.4642691269e+000	 8.3885133317e-002	 3.4714716710e+000
 1.4633901726e+000	 9.8030706392e-002	 3.4555514001e+000
 1.4623706220e+000	 1.1221863753e-001	 3.4369681617e+000
 1.4612091062e+000	 1.2644707071e-001	 3.4156010576e+000
 1.4599042825e+000	 1.4071410950e-001	 3.3913035015e+000
 1.4733360000e+000	 0.0000000000e+000	 3.5080155219e+000
 1.4732702584e+000	 1.3917709769e-002	 3.5071403495e+000
 1.4730720190e+000	 2.7888292098e-002	 3.5037154532e+000
 1.4727397736e+000	 4.1910130337e-002	 3.4978077458e+000
 1.4722720332e+000	 5.5981566227e-002	 3.4894475424e+000
 1.4716673294e+000	 7.0100899979e-002	 3.4786300673e+000
 1.4709242150e+000	 8.4266390379e-002	 3.4653170542e+000
 1.4700412658e+000	 9.8476254938e-002	 3.4494384457e+000
 1.4690170814e+000	 1.1272867008e-001	 3.4308942038e+000
 1.4678502865e+000	 1.2702177134e-001	 3.4095562420e+000
 1.4665395324e+000	 1.4135365367e-001	 3.3852704918e+000
 1.4800020000e+000	 0.0000000000e+000	 3.5022612478e+000
 1.4799359609e+000	 1.3980679419e-002	 3.5013244609e+000
 1.4797368246e+000	 2.8014470616e-002	 3.4978599517e+000
 1.4794030760e+000	 4.2099749626e-002	 3.4919319594e+000
 1.4789332194e+000	 5.6234850690e-002	 3.4835679979e+000
 1.4783257796e+000	 7.0418066325e-002	 3.4727603513e+000
 1.4775793030e+000	 8.4647647441e-002	 3.4594676564e+000
 1.4766923590e+000	 9.8921803484e-002	 3.4436165827e+000
 1.4756635407e+000	 1.1323870262e-001	 3.4251036166e+000
 1.4744914668e+000	 1.2759647197e-001	 3.4037969654e+000
 1.4731747823e+000	 1.4199319784e-001	 3.3795385911e+000
 1.4866680000e+000	 0.0000000000e+000	 3.4968182159e+000
 1.4866016635e+000	 1.4043649068e-002	 3.4958400087e+000
 1.4864016302e+000	 2.8140649134e-002	 3.4923422245e+000
 1.4860663784e+000	 4.2289368916e-002	 3.4863895505e+000
 1.4855944055e+000	 5.6488135153e-002	 3.4780098896e+000
 1.4849842298e+000	 7.0735232671e-002	 3.4671958375e+000
 1.4842343911e+000	 8.5028904502e-002	 3.4539062445e+000
 1.4833434522e+000	 9.9367352029e-002	 3.4380678676e+000
 1.4823100001e+000	 1.1374873517e-001	 3.4195771241e+000
 1.4811326471e+000	 1.2817117260e-001	 3.3983019588e+000
 1.4798100322e+000	 1.4263274201e-001	 3.3740838391e+000
 1.4933340000e+000	 0.0000000000e+000	 3.4916621757e+000
 1.4932673661e+000	 1.4106618718e-002	 3.4906650184e+000
 1.4930664359e+000	 2.8266827652e-002	 3.4871421868e+000
 1.4927296808e+000	 4.2478988206e-002	 3.4811618979e+000
 1.4922555917e+000	 5.6741419615e-002	 3.4727555926e+000
 1.4916426800e+000	 7.1052399017e-002	 3.4619193918e+000
 1.4908894792e+000	 8.5410161564e-002	 3.4486156303e+000
 1.4899945454e+000	 9.9812900574e-002	 3.4327744758e+000
 1.4889564595e+000	 1.1425876771e-001	 3.4142956447e+000
 1.4877738274e+000	 1.2874587322e-001	 3.3930502272e+000
 1.4864452821e+000	 1.4327228618e-001	 3.3688826347e+000
 1.5000000000e+000	 0.0000000000e+000	 3.4867684815e+000
 1.4999330686e+000	 1.4169588368e-002	 3.4857772008e+000
 1.4997312415e+000	 2.8393006170e-002	 3.4822395166e+000
 1.4993929832e+000	 4.2668607496e-002	 3.4762302165e+000
 1.4989167779e+000	 5.6994704078e-002	 3.4677873904e+000
 1.4983011303e+000	 7.1369565363e-002	 3.4569138595e+000
 1.4975445672e+000	 8.5791418626e-002	 3.4435786764e+000
 1.4966456386e+000	 1.0025844912e-001	 3.4277187057e+000
 1.4956029188e+000	 1.1476880026e-001	 3.4092402953e+000
 1.4944150077e+000	 1.2932057385e-001	 3.3880210519e+000
 1.4930805319e+000	 1.4391183035e-001	 3.3639117351e+000
 1.5066660000e+000	 0.0000000000e+000	 3.4821121010e+000
 1.5065987712e+000	 1.4232558018e-002	 3.4811539609e+000
 1.5063960471e+000	 2.8519184688e-002	 3.4776136619e+000
 1.5060562856e+000	 4.2858226786e-002	 3.4715755651e+000
 1.5055779640e+000	 5.7247988541e-002	 3.4630874822e+000
 1.5049595805e+000	 7.1686731709e-002	 3.4521620720e+000
 1.5041996553e+000	 8.6172675688e-002	 3.4387783019e+000
 1.5032967318e+000	 1.0070399766e-001	 3.4228829836e+000
 1.5022493782e+000	 1.1527883281e-001	 3.4043923936e+000
 1.5010561880e+000	 1.2989527448e-001	 3.3831939923e+000
 1.4997157818e+000	 1.4455137453e-001	 3.3591482570e+000
 1.5133320000e+000	 0.0000000000e+000	 3.4776676240e+000
 1.5132644737e+000	 1.4295527669e-002	 3.4767724058e+000
 1.5130608528e+000	 2.8645363207e-002	 3.4732438494e+000
 1.5127195880e+000	 4.3047846077e-002	 3.4671788542e+000
 1.5122391502e+000	 5.7501273004e-002	 3.4586379893e+000
 1.5116180307e+000	 7.2003898056e-002	 3.4476468526e+000
 1.5108547433e+000	 8.6553932750e-002	 3.4341974875e+000
 1.5099478251e+000	 1.0114954621e-001	 3.4182498681e+000
 1.5088958376e+000	 1.1578886535e-001	 3.3997334622e+000
 1.5076973683e+000	 1.3046997511e-001	 3.3785488876e+000
 1.5063510317e+000	 1.4519091870e-001	 3.3545696763e+000
 1.5199980000e+000	 0.0000000000e+000	 3.4734092703e+000
 1.5199301763e+000	 1.4358497319e-002	 3.4726093530e+000
 1.5197256584e+000	 2.8771541725e-002	 3.4691090918e+000
 1.5193828904e+000	 4.3237465367e-002	 3.4630208530e+000
 1.5189003363e+000	 5.7754557468e-002	 3.4544209624e+000
 1.5182764809e+000	 7.2321064403e-002	 3.4433510228e+000
 1.5175098314e+000	 8.6935189812e-002	 3.4298192807e+000
 1.5165989183e+000	 1.0159509476e-001	 3.4138020537e+000
 1.5155422969e+000	 1.1629889790e-001	 3.3952452309e+000
 1.5143385486e+000	 1.3104467573e-001	 3.3740658586e+000
 1.5129862816e+000	 1.4583046287e-001	 3.3501538284e+000
 1.5266640000e+000	 0.0000000000e+000	 3.4693108985e+000
 1.5265958788e+000	 1.4421466970e-002	 3.4686413378e+000
 1.5263904640e+000	 2.8897720245e-002	 3.4651881956e+000
 1.5260461929e+000	 4.3427084659e-002	 3.4590821964e+000
 1.5255615225e+000	 5.8007841932e-002	 3.4504183876e+000
 1.5249349311e+000	 7.2638230750e-002	 3.4392574084e+000
 1.5241649194e+000	 8.7316446875e-002	 3.4256268010e+000
 1.5232500115e+000	 1.0204064330e-001	 3.4095223758e+000
 1.5221887563e+000	 1.1680893044e-001	 3.3909096404e+000
 1.5209797289e+000	 1.3161937636e-001	 3.3697253093e+000
 1.5196215315e+000	 1.4647000704e-001	 3.3458789080e+000
 1.5333300000e+000	 0.0000000000e+000	 3.4653460131e+000
 1.5332615814e+000	 1.4484436621e-002	 3.4648446216e+000
 1.5330552697e+000	 2.9023898764e-002	 3.4614597679e+000
 1.5327094953e+000	 4.3616703950e-002	 3.4553433921e+000
 1.5322227086e+000	 5.8261126397e-002	 3.4466121931e+000
 1.5315933814e+000	 7.2955397098e-002	 3.4353488444e+000
 1.5308200075e+000	 8.7697703938e-002	 3.4216032449e+000
 1.5299011047e+000	 1.0248619185e-001	 3.4053938138e+000
 1.5288352157e+000	 1.1731896299e-001	 3.3867088443e+000
 1.5276209091e+000	 1.3219407699e-001	 3.3655079281e+000
 1.5262567814e+000	 1.4710955121e-001	 3.3417234697e+000
 1.4599042825e+000	 1.4071410950e-001	 3.3913035015e+000
 1.4584550640e+000	 1.5501567423e-001	 3.3640897873e+000
 1.4568599797e+000	 1.6935195202e-001	 3.3341732200e+000
 1.4551177738e+000	 1.8372095932e-001	 3.3016794547e+000
 1.4532272212e+000	 1.9812067448e-001	 3.2667091485e+000
 1.4511871291e+000	 2.1254903826e-001	 3.2293401523e+000
 1.4489963383e+000	 2.2700395425e-001	 3.1896299337e+000
 1.4466537240e+000	 2.4148328948e-001	 3.1476182534e+000
 1.4441581973e+000	 2.5598487495e-001	 3.1033301179e+000
 1.4415087062e+000	 2.7050650628e-001	 3.0567790320e+000
 1.4387042371e+000	 2.8504594434e-001	 3.0079705743e+000
 1.4665395324e+000	 1.4135365367e-001	 3.3852704918e+000
 1.4650837272e+000	 1.5572021887e-001	 3.3579747569e+000
 1.4634813933e+000	 1.7012165489e-001	 3.3278343622e+000
 1.4617312690e+000	 1.8455596918e-001	 3.2950098327e+000
 1.4598321239e+000	 1.9902113090e-001	 3.2596363751e+000
 1.4577827597e+000	 2.1351507144e-001	 3.2218259622e+000
 1.4555820117e+000	 2.2803568488e-001	 3.1816696460e+000
 1.4532287502e+000	 2.4258082854e-001	 3.1392401242e+000
 1.4507218814e+000	 2.5714832356e-001	 3.0945945826e+000
 1.4480603484e+000	 2.7173595555e-001	 3.0477778381e+000
 1.4452431330e+000	 2.8634147521e-001	 2.9988258072e+000
 1.4731747823e+000	 1.4199319784e-001	 3.3795385911e+000
 1.4717123904e+000	 1.5642476351e-001	 3.3521901184e+000
 1.4701028068e+000	 1.7089135777e-001	 3.3218647426e+000
 1.4683447643e+000	 1.8539097904e-001	 3.2887546725e+000
 1.4664370266e+000	 1.9992158732e-001	 3.2530264607e+000
 1.4643783902e+000	 2.1448110462e-001	 3.2148229819e+000
 1.4621676851e+000	 2.2906741550e-001	 3.1742656384e+000
 1.4598037765e+000	 2.4367836759e-001	 3.1314568174e+000
 1.4572855654e+000	 2.5831177217e-001	 3.0864826248e+000
 1.4546119906e+000	 2.7296540483e-001	 3.0394159205e+000
 1.4517820289e+000	 2.8763700608e-001	 2.9903196817e+000
 1.4798100322e+000	 1.4263274201e-001	 3.3740838391e+000
 1.4783410536e+000	 1.5712930814e-001	 3.3467088478e+000
 1.4767242204e+000	 1.7166106064e-001	 3.3162342866e+000
 1.4749582595e+000	 1.8622598890e-001	 3.2828809190e+000
 1.4730419293e+000	 2.0082204374e-001	 3.2468434981e+000
 1.4709740207e+000	 2.1544713780e-001	 3.2082926398e+000
 1.4687533585e+000	 2.3009914613e-001	 3.1673769213e+000
 1.4663788027e+000	 2.4477590665e-001	 3.1242252318e+000
 1.4638492495e+000	 2.5947522078e-001	 3.0789493983e+000
 1.4611636327e+000	 2.7419485410e-001	 3.0316471150e+000
 1.4583209248e+000	 2.8893253695e-001	 2.9824052023e+000
 1.4864452821e+000	 1.4327228618e-001	 3.3688826347e+000
 1.4849697168e+000	 1.5783385278e-001	 3.3415043635e+000
 1.4833456339e+000	 1.7243076351e-001	 3.3109134386e+000
 1.4815717548e+000	 1.8706099876e-001	 3.2773561058e+000
 1.4796468320e+000	 2.0172250015e-001	 3.2410522307e+000
 1.4775696512e+000	 2.1641317099e-001	 3.2021970676e+000
 1.4753390319e+000	 2.3113087676e-001	 3.1609632530e+000
 1.4729538289e+000	 2.4587344570e-001	 3.1175030494e+000
 1.4704129336e+000	 2.6063866939e-001	 3.0719508657e+000
 1.4677152749e+000	 2.7542430338e-001	 3.0244260814e+000
 1.4648598207e+000	 2.9022806782e-001	 2.9750362028e+000
 1.4930805319e+000	 1.4391183035e-001	 3.3639117351e+000
 1.4915983800e+000	 1.5853839741e-001	 3.3365505251e+000
 1.4899670475e+000	 1.7320046638e-001	 3.3058731593e+000
 1.4881852500e+000	 1.8789600862e-001	 3.2721483505e+000
 1.4862517347e+000	 2.0262295657e-001	 3.2356180459e+000
 1.4841652817e+000	 2.1737920417e-001	 3.1964990934e+000
 1.4819247053e+000	 2.3216260738e-001	 3.1549851311e+000
 1.4795288552e+000	 2.4697098476e-001	 3.1112487257e+000
 1.4769766177e+000	 2.6180211801e-001	 3.0654437878e+000
 1.4742669171e+000	 2.7665375265e-001	 3.0177082924e+000
 1.4713987166e+000	 2.9152359870e-001	 2.9681673339e+000
 1.4997157818e+000	 1.4455137453e-001	 3.3591482570e+000
 1.4982270431e+000	 1.5924294205e-001	 3.3318216312e+000
 1.4965884610e+000	 1.7397016925e-001	 3.3010849222e+000
 1.4947987453e+000	 1.8873101848e-001	 3.2672263498e+000
 1.4928566374e+000	 2.0352341299e-001	 3.2305069686e+000
 1.4907609122e+000	 2.1834523735e-001	 3.1911622332e+000
 1.4885103787e+000	 2.3319433801e-001	 3.1494037835e+000
 1.4861038814e+000	 2.4806852381e-001	 3.1054214796e+000
 1.4835403018e+000	 2.6296556662e-001	 3.0593857123e+000
 1.4808185593e+000	 2.7788320193e-001	 3.0114500218e+000
 1.4779376125e+000	 2.9281912957e-001	 2.9617540514e+000
 1.5063510317e+000	 1.4519091870e-001	 3.3545696763e+000
 1.5048557063e+000	 1.5994748668e-001	 3.3272924187e+000
 1.5032098746e+000	 1.7473987212e-001	 3.2965207108e+000
 1.5014122405e+000	 1.8956602834e-001	 3.2625593750e+000
 1.4994615401e+000	 2.0442386940e-001	 3.2256856560e+000
 1.4973565427e+000	 2.1931127053e-001	 3.1861506842e+000
 1.4950960520e+000	 2.3422606863e-001	 3.1441811600e+000
 1.4926789076e+000	 2.4916606286e-001	 3.0999812837e+000
 1.4901039859e+000	 2.6412901523e-001	 3.0537349640e+000
 1.4873702014e+000	 2.7911265120e-001	 3.0056083335e+000
 1.4844765083e+000	 2.9411466044e-001	 2.9557526046e+000
 1.5129862816e+000	 1.4583046287e-001	 3.3501538284e+000
 1.5114843695e+000	 1.6065203132e-001	 3.3229380606e+000
 1.5098312882e+000	 1.7550957499e-001	 3.2921530151e+000
 1.5080257358e+000	 1.9040103820e-001	 3.2581172675e+000
 1.5060664428e+000	 2.0532432582e-001	 3.2211213903e+000
 1.5039521732e+000	 2.2027730371e-001	 3.1814293171e+000
 1.5016817254e+000	 2.3525779926e-001	 3.1392799235e+000
 1.4992539339e+000	 2.5026360192e-001	 3.0948888552e+000
 1.4966676700e+000	 2.6529246384e-001	 3.0484506335e+000
 1.4939218436e+000	 2.8034210048e-001	 3.0001410704e+000
 1.4910154042e+000	 2.9541019131e-001	 2.9501200247e+000
 1.5196215315e+000	 1.4647000704e-001	 3.3458789080e+000
 1.5181130327e+000	 1.6135657595e-001	 3.3187341652e+000
 1.5164527017e+000	 1.7627927786e-001	 3.2879548290e+000
 1.5146392310e+000	 1.9123604806e-001	 3.2538704337e+000
 1.5126713455e+000	 2.0622478224e-001	 3.2167820740e+000
 1.5105478037e+000	 2.2124333689e-001	 3.1769636688e+000
 1.5082673988e+000	 2.3628952988e-001	 3.1346634415e+000
 1.5058289601e+000	 2.5136114097e-001	 3.0901056455e+000
 1.5032313541e+000	 2.6645591245e-001	 3.0434925679e+000
 1.5004734858e+000	 2.8157154976e-001	 2.9950068434e+000
 1.4975543001e+000	 2.9670572218e-001	 2.9448141138e+000
 1.5262567814e+000	 1.4710955121e-001	 3.3417234697e+000
 1.5247416959e+000	 1.6206112059e-001	 3.3146567738e+000
 1.5230741153e+000	 1.7704898073e-001	 3.2838996466e+000
 1.5212527263e+000	 1.9207105792e-001	 3.2497898411e+000
 1.5192762483e+000	 2.0712523865e-001	 3.2126362228e+000
 1.5171434342e+000	 2.2220937007e-001	 3.1727199351e+000
 1.5148530722e+000	 2.3732126051e-001	 3.1302957780e+000
 1.5124039863e+000	 2.5245868003e-001	 3.0855938319e+000
 1.5097950381e+000	 2.6761936106e-001	 3.0388213597e+000
 1.5070251280e+000	 2.8280099903e-001	 2.9901650208e+000
 1.5040931960e+000	 2.9800125306e-001	 2.9397934328e+000
 1.4387042371e+000	 2.8504594434e-001	 3.0079705743e+000
 1.4357433599e+000	 2.9960309996e-001	 2.9562219976e+000
 1.4326255505e+000	 3.1417348300e-001	 2.9008746875e+000
 1.4293499175e+000	 3.2875475001e-001	 2.8419463163e+000
 1.4259156124e+000	 3.4334452582e-001	 2.7794612501e+000
 1.4223218309e+000	 3.5794040438e-001	 2.7134559632e+000
 1.4185678132e+000	 3.7253994969e-001	 2.6439849170e+000
 1.4146528463e+000	 3.8714069672e-001	 2.5711269242e+000
 1.4105762639e+000	 4.0174015248e-001	 2.4949920181e+000
 1.4063374481e+000	 4.1633579699e-001	 2.4157288411e+000
 1.4019358304e+000	 4.3092508440e-001	 2.3335325692e+000
 1.4452431330e+000	 2.8634147521e-001	 2.9988258072e+000
 1.4422687986e+000	 3.0096479296e-001	 2.9470563159e+000
 1.4391368188e+000	 3.1560139823e-001	 2.8917714666e+000
 1.4358462981e+000	 3.3024893695e-001	 2.8329581537e+000
 1.4323963842e+000	 3.4490502314e-001	 2.7706093125e+000
 1.4287862689e+000	 3.5956723982e-001	 2.7047293657e+000
 1.4250151893e+000	 3.7423313991e-001	 2.6353401458e+000
 1.4210824289e+000	 3.8890024719e-001	 2.5624873152e+000
 1.4169873184e+000	 4.0356605733e-001	 2.4862473022e+000
 1.4127292373e+000	 4.1822803889e-001	 2.4067347714e+000
 1.4083076142e+000	 4.3288363445e-001	 2.3241106433e+000
 1.4517820289e+000	 2.8763700608e-001	 2.9903196817e+000
 1.4487942374e+000	 3.0232648595e-001	 2.9385163148e+000
 1.4456480871e+000	 3.1702931346e-001	 2.8832763332e+000
 1.4423426787e+000	 3.3174312389e-001	 2.8245580591e+000
 1.4388771559e+000	 3.4646552046e-001	 2.7623251465e+000
 1.4352507069e+000	 3.6119407526e-001	 2.6965520538e+000
 1.4314625654e+000	 3.7592633013e-001	 2.6272300024e+000
 1.4275120114e+000	 3.9065979766e-001	 2.5543734440e+000
 1.4233983730e+000	 4.0539196217e-001	 2.4780270577e+000
 1.4191210265e+000	 4.2012028078e-001	 2.3982732946e+000
 1.4146793981e+000	 4.3484218451e-001	 2.3152404871e+000
 1.4583209248e+000	 2.8893253695e-001	 2.9824052023e+000
 1.4553196761e+000	 3.0368817894e-001	 2.9305541146e+000
 1.4521593554e+000	 3.1845722870e-001	 2.8753398773e+000
 1.4488390593e+000	 3.3323731083e-001	 2.8166944278e+000
 1.4453579276e+000	 3.4802601779e-001	 2.7545542706e+000
 1.4417151449e+000	 3.6282091070e-001	 2.6888659685e+000
 1.4379099414e+000	 3.7761952035e-001	 2.6195921298e+000
 1.4339415940e+000	 3.9241934812e-001	 2.5467179162e+000
 1.4298094275e+000	 4.0721786701e-001	 2.4702580933e+000
 1.4255128156e+000	 4.2201252268e-001	 2.3902646427e+000
 1.4210511820e+000	 4.3680073457e-001	 2.3068349538e+000
 1.4648598207e+000	 2.9022806782e-001	 2.9750362028e+000
 1.4618451148e+000	 3.0504987194e-001	 2.9231226689e+000
 1.4586706238e+000	 3.1988514393e-001	 2.8679135375e+000
 1.4553354399e+000	 3.3473149777e-001	 2.8093165308e+000
 1.4518386994e+000	 3.4958651511e-001	 2.7472431185e+000
 1.4481795830e+000	 3.6444774614e-001	 2.6816140189e+000
 1.4443573175e+000	 3.7931271058e-001	 2.6123652070e+000
 1.4403711766e+000	 3.9417889859e-001	 2.5394544566e+000
 1.4362204821e+000	 4.0904377185e-001	 2.4628684361e+000
 1.4319046048e+000	 4.2390476457e-001	 2.3826303818e+000
 1.4274229658e+000	 4.3875928462e-001	 2.2988083653e+000
 1.4713987166e+000	 2.9152359870e-001	 2.9681673339e+000
 1.4683705536e+000	 3.0641156493e-001	 2.9161757523e+000
 1.4651818921e+000	 3.2131305916e-001	 2.8609495876e+000
 1.4618318205e+000	 3.3622568471e-001	 2.8023745008e+000
 1.4583194711e+000	 3.5114701243e-001	 2.7403390244e+000
 1.4546440210e+000	 3.6607458158e-001	 2.6747400662e+000
 1.4508046935e+000	 3.8100590080e-001	 2.6054889313e+000
 1.4468007592e+000	 3.9593844906e-001	 2.5325178893e+000
 1.4426315366e+000	 4.1086967669e-001	 2.4557873095e+000
 1.4382963940e+000	 4.2579700647e-001	 2.3752933882e+000
 1.4337947497e+000	 4.4071783468e-001	 2.2910764846e+000
 1.4779376125e+000	 2.9281912957e-001	 2.9617540514e+000
 1.4748959923e+000	 3.0777325792e-001	 2.9096679483e+000
 1.4716931604e+000	 3.2274097440e-001	 2.8544011245e+000
 1.4683282011e+000	 3.3771987166e-001	 2.7958193183e+000
 1.4648002428e+000	 3.5270750975e-001	 2.7337902076e+000
 1.4611084590e+000	 3.6770141702e-001	 2.6681889078e+000
 1.4572520696e+000	 3.8269909102e-001	 2.5989040004e+000
 1.4532303417e+000	 3.9769799952e-001	 2.5258441179e+000
 1.4490425912e+000	 4.1269558154e-001	 2.4489451116e+000
 1.4446881832e+000	 4.2768924837e-001	 2.3681778242e+000
 1.4401665336e+000	 4.4267638473e-001	 2.2835564892e+000
 1.4844765083e+000	 2.9411466044e-001	 2.9557526046e+000
 1.4814214311e+000	 3.0913495092e-001	 2.9035546367e+000
 1.4782044288e+000	 3.2416888963e-001	 2.8482220546e+000
 1.4748245817e+000	 3.3921405860e-001	 2.7896027983e+000
 1.4712810145e+000	 3.5426800708e-001	 2.7275457583e+000
 1.4675728971e+000	 3.6932825246e-001	 2.6619062608e+000
 1.4636994457e+000	 3.8439228124e-001	 2.5925520946e+000
 1.4596599243e+000	 3.9945754999e-001	 2.5193701065e+000
 1.4554536457e+000	 4.1452148638e-001	 2.4422733934e+000
 1.4510799724e+000	 4.2958149026e-001	 2.3612091142e+000
 1.4465383175e+000	 4.4463493479e-001	 2.2761669448e+000
 1.4910154042e+000	 2.9541019131e-001	 2.9501200247e+000
 1.4879468698e+000	 3.1049664391e-001	 2.8977919822e+000
 1.4847156971e+000	 3.2559680487e-001	 2.8423670820e+000
 1.4813209624e+000	 3.4070824554e-001	 2.7836775765e+000
 1.4777617863e+000	 3.5582850440e-001	 2.7215556226e+000
 1.4740373351e+000	 3.7095508790e-001	 2.6558387464e+000
 1.4701468217e+000	 3.8608547147e-001	 2.5863758600e+000
 1.4660895069e+000	 4.0121710046e-001	 2.5130338605e+000
 1.4618647003e+000	 4.1634739122e-001	 2.4357048382e+000
 1.4574717615e+000	 4.3147373216e-001	 2.3543139212e+000
 1.4529101013e+000	 4.4659348485e-001	 2.2688277790e+000
 1.4975543001e+000	 2.9670572218e-001	 2.9448141138e+000
 1.4944723085e+000	 3.1185833691e-001	 2.8923369221e+000
 1.4912269654e+000	 3.2702472010e-001	 2.8367916954e+000
 1.4878173430e+000	 3.4220243249e-001	 2.7779970964e+000
 1.4842425580e+000	 3.5738900172e-001	 2.7157705889e+000
 1.4805017731e+000	 3.7258192334e-001	 2.6499338745e+000
 1.4765941978e+000	 3.8777866169e-001	 2.5803188912e+000
 1.4725190895e+000	 4.0297665093e-001	 2.5067744075e+000
 1.4682757548e+000	 4.1817329607e-001	 2.4291732405e+000
 1.4638635507e+000	 4.3336597406e-001	 2.3474201244e+000
 1.4592818852e+000	 4.4855203490e-001	 2.2614602564e+000
 1.5040931960e+000	 2.9800125306e-001	 2.9397934328e+000
 1.5009977473e+000	 3.1322002990e-001	 2.8871471550e+000
 1.4977382337e+000	 3.2845263534e-001	 2.8314521563e+000
 1.4943137236e+000	 3.4369661943e-001	 2.7725155957e+000
 1.4907233297e+000	 3.5894949905e-001	 2.7101422730e+000
 1.4869662112e+000	 3.7420875878e-001	 2.6441400281e+000
 1.4830415738e+000	 3.8947185191e-001	 2.5743257142e+000
 1.4789486721e+000	 4.0473620139e-001	 2.5005317793e+000
 1.4746868094e+000	 4.1999920091e-001	 2.4226134857e+000
 1.4702553399e+000	 4.3525821595e-001	 2.3404567960e+000
 1.4656536691e+000	 4.5051058496e-001	 2.2539869533e+000
 1.4019358304e+000	 4.3092508440e-001	 2.3335325692e+000
 1.3973708919e+000	 4.4550544387e-001	 2.2497532716e+000
 1.3926421637e+000	 4.6007428010e-001	 2.1655185805e+000
 1.3877492286e+000	 4.7462897510e-001	 2.0807967776e+000
 1.3826917224e+000	 4.8916688967e-001	 1.9956544940e+000
 1.3774693348e+000	 5.0368536462e-001	 1.9102687224e+000
 1.3720818103e+000	 5.1818172212e-001	 1.8249393805e+000
 1.3665289489e+000	 5.3265326705e-001	 1.7401024076e+000
 1.3608106067e+000	 5.4709728833e-001	 1.6563433778e+000
 1.3549266970e+000	 5.6151106040e-001	 1.5744116015e+000
 1.3488771907e+000	 5.7589184460e-001	 1.4952346861e+000
 1.4083076142e+000	 4.3288363445e-001	 2.3241106433e+000
 1.4037219281e+000	 4.4753026151e-001	 2.2397907379e+000
 1.3989717079e+000	 4.6216531295e-001	 2.1550047737e+000
 1.3940565345e+000	 4.7678615889e-001	 2.0697401829e+000
 1.3889760420e+000	 4.9139014813e-001	 1.9840815176e+000
 1.3837299187e+000	 5.0597460939e-001	 1.8982225312e+000
 1.3783179080e+000	 5.2053685269e-001	 1.8124788298e+000
 1.3727398088e+000	 5.3507417064e-001	 1.7273010783e+000
 1.3669954768e+000	 5.4958383986e-001	 1.6432887424e+000
 1.3610848248e+000	 5.6406312237e-001	 1.5612043419e+000
 1.3550078236e+000	 5.7850926709e-001	 1.4819881826e+000
 1.4146793981e+000	 4.3484218451e-001	 2.3152404871e+000
 1.4100729644e+000	 4.4955507915e-001	 2.2304023978e+000
 1.4053012522e+000	 4.6425634580e-001	 2.1450814818e+000
 1.4003638404e+000	 4.7894334268e-001	 2.0592836637e+000
 1.3952603616e+000	 4.9361340659e-001	 1.9731108458e+000
 1.3899905026e+000	 5.0826385417e-001	 1.8867730610e+000
 1.3845540057e+000	 5.2289198327e-001	 1.8006012143e+000
 1.3789506688e+000	 5.3749507424e-001	 1.7150604013e+000
 1.3731803470e+000	 5.5207039138e-001	 1.6307637824e+000
 1.3672429527e+000	 5.6661518434e-001	 1.5484869891e+000
 1.3611384565e+000	 5.8112668957e-001	 1.4691830334e+000
 1.4210511820e+000	 4.3680073457e-001	 2.3068349538e+000
 1.4164240007e+000	 4.5157989679e-001	 2.2214940691e+000
 1.4116307964e+000	 4.6634737865e-001	 2.1356489974e+000
 1.4066711463e+000	 4.8110052647e-001	 2.0493235073e+000
 1.4015446812e+000	 4.9583666505e-001	 1.9626362879e+000
 1.3962510865e+000	 5.1055309895e-001	 1.8758131745e+000
 1.3907901033e+000	 5.2524711384e-001	 1.7891999840e+000
 1.3851615288e+000	 5.3991597783e-001	 1.7032759461e+000
 1.3793652171e+000	 5.5455694290e-001	 1.6186677137e+000
 1.3734010805e+000	 5.6916724631e-001	 1.5361639266e+000
 1.3672690894e+000	 5.8374411205e-001	 1.4567302991e+000
 1.4274229658e+000	 4.3875928462e-001	 2.2988083653e+000
 1.4227750370e+000	 4.5360471443e-001	 2.2129731699e+000
 1.4179603407e+000	 4.6843841150e-001	 2.1266093221e+000
 1.4129784522e+000	 4.8325771026e-001	 2.0397577961e+000
 1.4078290008e+000	 4.9805992351e-001	 1.9525535119e+000
 1.4025116704e+000	 5.1284234373e-001	 1.8652376352e+000
 1.3970262010e+000	 5.2760224441e-001	 1.7781705082e+000
 1.3913723887e+000	 5.4233688143e-001	 1.6918451979e+000
 1.3855500873e+000	 5.5704349442e-001	 1.6069016434e+000
 1.3795592084e+000	 5.7171930827e-001	 1.5241413809e+000
 1.3733997223e+000	 5.8636153454e-001	 1.4445428140e+000
 1.4337947497e+000	 4.4071783468e-001	 2.2910764846e+000
 1.4291260732e+000	 4.5562953206e-001	 2.2047486887e+000
 1.4242898849e+000	 4.7052944435e-001	 2.1178661348e+000
 1.4192857581e+000	 4.8541489404e-001	 2.0304863750e+000
 1.4141133204e+000	 5.0028318196e-001	 1.9427600114e+000
 1.4087722543e+000	 5.1513158850e-001	 1.8549430727e+000
 1.4032622986e+000	 5.2995737498e-001	 1.7674100424e+000
 1.3975832487e+000	 5.4475778502e-001	 1.6806675258e+000
 1.3917349575e+000	 5.5953004595e-001	 1.5953685385e+000
 1.3857173362e+000	 5.7427137024e-001	 1.5123273943e+000
 1.3795303552e+000	 5.8897895702e-001	 1.4325351619e+000
 1.4401665336e+000	 4.4267638473e-001	 2.2835564892e+000
 1.4354771095e+000	 4.5765434970e-001	 2.1967311549e+000
 1.4306194292e+000	 4.7262047719e-001	 2.1093247606e+000
 1.4255930640e+000	 4.8757207783e-001	 2.0214108187e+000
 1.4203976400e+000	 5.0250644042e-001	 1.9331550721e+000
 1.4150328382e+000	 5.1742083328e-001	 1.8448279501e+000
 1.4094983963e+000	 5.3231250556e-001	 1.7568176953e+000
 1.4037941086e+000	 5.4717868861e-001	 1.6696441518e+000
 1.3979198276e+000	 5.6201659747e-001	 1.5839731972e+000
 1.3918754640e+000	 5.7682343221e-001	 1.5006317973e+000
 1.3856609881e+000	 5.9159637950e-001	 1.4206236518e+000
 1.4465383175e+000	 4.4463493479e-001	 2.2761669448e+000
 1.4418281458e+000	 4.5967916734e-001	 2.1888326102e+000
 1.4369489734e+000	 4.7471151004e-001	 2.1008921401e+000
 1.4319003699e+000	 4.8972926162e-001	 2.0124343995e+000
 1.4266819596e+000	 5.0472969888e-001	 1.9236397392e+000
 1.4212934221e+000	 5.1971007806e-001	 1.8347925313e+000
 1.4157344939e+000	 5.3466763613e-001	 1.7462943972e+000
 1.4100049686e+000	 5.4959959221e-001	 1.6586781194e+000
 1.4041046978e+000	 5.6450314899e-001	 1.5726222195e+000
 1.3980335919e+000	 5.7937549418e-001	 1.4889661822e+000
 1.3917916210e+000	 5.9421380199e-001	 1.4087262943e+000
 1.4529101013e+000	 4.4659348485e-001	 2.2688277790e+000
 1.4481791820e+000	 4.6170398498e-001	 2.1809665803e+000
 1.4432785177e+000	 4.7680254289e-001	 2.0924767991e+000
 1.4382076758e+000	 4.9188644541e-001	 2.0034620564e+000
 1.4329662792e+000	 5.0695295734e-001	 1.9141167855e+000
 1.4275540060e+000	 5.2199932284e-001	 1.8247388487e+000
 1.4219705916e+000	 5.3702276670e-001	 1.7357428683e+000
 1.4162158286e+000	 5.5202049580e-001	 1.6476742638e+000
 1.4102895679e+000	 5.6698970051e-001	 1.5612239788e+000
 1.4041917197e+000	 5.8192755614e-001	 1.4772438773e+000
 1.3979222539e+000	 5.9683122447e-001	 1.3967627787e+000
 1.4592818852e+000	 4.4855203490e-001	 2.2614602564e+000
 1.4545302183e+000	 4.6372880262e-001	 2.1730480472e+000
 1.4496080619e+000	 4.7889357574e-001	 2.0839888195e+000
 1.4445149818e+000	 4.9404362919e-001	 1.9944003643e+000
 1.4392505988e+000	 5.0917621580e-001	 1.9044906803e+000
 1.4338145899e+000	 5.2428856761e-001	 1.8145706723e+000
 1.4282066893e+000	 5.3937789727e-001	 1.7250675880e+000
 1.4224266885e+000	 5.5444139940e-001	 1.6365391818e+000
 1.4164744381e+000	 5.6947625203e-001	 1.5496885939e+000
 1.4103498476e+000	 5.8447961811e-001	 1.4653799206e+000
 1.4040528868e+000	 5.9944864695e-001	 1.3846544502e+000
 1.4656536691e+000	 4.5051058496e-001	 2.2539869533e+000
 1.4608812546e+000	 4.6575362026e-001	 2.1649934216e+000
 1.4559376062e+000	 4.8098460859e-001	 2.0753398097e+000
 1.4508222877e+000	 4.9620081298e-001	 1.9851575038e+000
 1.4455349184e+000	 5.1139947426e-001	 1.8946675583e+000
 1.4400751738e+000	 5.2657781239e-001	 1.8041934788e+000
 1.4344427869e+000	 5.4173302785e-001	 1.7141747647e+000
 1.4286375485e+000	 5.5686230299e-001	 1.6251812032e+000
 1.4226593082e+000	 5.7196280356e-001	 1.5379279014e+000
 1.4165079754e+000	 5.8703168008e-001	 1.4532910351e+000
 1.4101835197e+000	 6.0206606944e-001	 1.3723242871e+000
 1.3488771907e+000	 5.7589184460e-001	 1.4952346861e+000
 1.3426630618e+000	 5.9023474197e-001	 1.4099460146e+000
 1.3362835043e+000	 6.0453915355e-001	 1.3106467148e+000
 1.3297386669e+000	 6.1880231245e-001	 1.2000565153e+000
 1.3230287580e+000	 6.3302144475e-001	 1.0813606449e+000
 1.3161540465e+000	 6.4719377119e-001	 9.5838154892e-001
 1.3091148620e+000	 6.6131650867e-001	 8.3520448707e-001
 1.3019115954e+000	 6.7538687194e-001	 7.1626549243e-001
 1.2945446989e+000	 6.8940207522e-001	 6.0595517436e-001
 1.2870146864e+000	 7.0335933386e-001	 5.0753417462e-001
 1.2793221339e+000	 7.1725586600e-001	 4.2412289021e-001
 1.3550078236e+000	 5.7850926709e-001	 1.4819881826e+000
 1.3487654515e+000	 5.9291735277e-001	 1.3966967741e+000
 1.3423568991e+000	 6.0728677776e-001	 1.2973496691e+000
 1.3357823154e+000	 6.2161476256e-001	 1.1866793724e+000
 1.3290419100e+000	 6.3589852068e-001	 1.0676977311e+000
 1.3221359530e+000	 6.5013526020e-001	 9.4407200698e-001
 1.3150647755e+000	 6.6432218537e-001	 8.1993201198e-001
 1.3078287701e+000	 6.7845649830e-001	 6.9999721544e-001
 1.3004283911e+000	 6.9253540054e-001	 5.8873784952e-001
 1.2928641549e+000	 7.0655609477e-001	 4.8941523796e-001
 1.2851366398e+000	 7.2051578651e-001	 4.0520571806e-001
 1.3611384565e+000	 5.8112668957e-001	 1.4691830334e+000
 1.3548678413e+000	 5.9559996358e-001	 1.3838358513e+000
 1.3484302938e+000	 6.1003440197e-001	 1.2843852294e+000
 1.3418259639e+000	 6.2442721268e-001	 1.1735662056e+000
 1.3350550621e+000	 6.3877559661e-001	 1.0543532485e+000
 1.3281178596e+000	 6.5307674920e-001	 9.3010623250e-001
 1.3210146890e+000	 6.6732786208e-001	 8.0498851116e-001
 1.3137459449e+000	 6.8152612466e-001	 6.8418214428e-001
 1.3063120834e+000	 6.9566872585e-001	 5.7203118896e-001
 1.2987136233e+000	 7.0975285568e-001	 4.7183232404e-001
 1.2909511456e+000	 7.2377570701e-001	 3.8681453234e-001
 1.3672690894e+000	 5.8374411205e-001	 1.4567302991e+000
 1.3609702310e+000	 5.9828257438e-001	 1.3712808775e+000
 1.3545036885e+000	 6.1278202618e-001	 1.2716759036e+000
 1.3478696124e+000	 6.2723966280e-001	 1.1606491770e+000
 1.3410682141e+000	 6.4165267254e-001	 1.0411749796e+000
 1.3340997661e+000	 6.5601823821e-001	 9.1648254006e-001
 1.3269646026e+000	 6.7033353878e-001	 7.9043745111e-001
 1.3196631196e+000	 6.8459575102e-001	 6.6886206519e-001
 1.3121957757e+000	 6.9880205116e-001	 5.5587122101e-001
 1.3045630918e+000	 7.1294961659e-001	 4.5481422523e-001
 1.2967656515e+000	 7.2703562752e-001	 3.6896948524e-001
 1.3733997223e+000	 5.8636153454e-001	 1.4445428140e+000
 1.3670726208e+000	 6.0096518519e-001	 1.3589511951e+000
 1.3605770832e+000	 6.1552965038e-001	 1.2591458831e+000
 1.3539132609e+000	 6.3005211292e-001	 1.1478556945e+000
 1.3470813661e+000	 6.4452974846e-001	 1.0280507540e+000
 1.3400816726e+000	 6.5895972721e-001	 9.0295726943e-001
 1.3329145161e+000	 6.7333921548e-001	 7.7634656082e-001
 1.3255802944e+000	 6.8766537738e-001	 6.5408021509e-001
 1.3180794680e+000	 7.0193537647e-001	 5.4029543936e-001
 1.3104125602e+000	 7.1614637750e-001	 4.3839124164e-001
 1.3025801574e+000	 7.3029554802e-001	 3.5169230630e-001
 1.3795303552e+000	 5.8897895702e-001	 1.4325351619e+000
 1.3731750105e+000	 6.0364779599e-001	 1.3467678363e+000
 1.3666504780e+000	 6.1827727459e-001	 1.2467210239e+000
 1.3599569094e+000	 6.3286456303e-001	 1.1351148389e+000
 1.3530945182e+000	 6.4740682439e-001	 1.0149113041e+000
 1.3460635792e+000	 6.6190121622e-001	 8.8932944433e-001
 1.3388644296e+000	 6.7634489218e-001	 7.6251426729e-001
 1.3314974691e+000	 6.9073500373e-001	 6.3988122851e-001
 1.3239631603e+000	 7.0506870179e-001	 5.2534274743e-001
 1.3162620287e+000	 7.1934313840e-001	 4.2259512263e-001
 1.3083946633e+000	 7.3355546852e-001	 3.3500624041e-001
 1.3856609881e+000	 5.9159637950e-001	 1.4206236518e+000
 1.3792774003e+000	 6.0633040679e-001	 1.3346535024e+000
 1.3727238727e+000	 6.2102489880e-001	 1.2343288282e+000
 1.3660005579e+000	 6.3567701315e-001	 1.1223573472e+000
 1.3591076702e+000	 6.5028390032e-001	 1.0016890607e+000
 1.3520454857e+000	 6.6484270522e-001	 8.7553167356e-001
 1.3448143431e+000	 6.7935056888e-001	 7.4862234260e-001
 1.3374146439e+000	 6.9380463009e-001	 6.2613537095e-001
 1.3298468526e+000	 7.0820202710e-001	 5.1105340319e-001
 1.3221114972e+000	 7.2253989931e-001	 4.0745900865e-001
 1.3142091692e+000	 7.3681538903e-001	 3.1893598639e-001
 1.3917916210e+000	 5.9421380199e-001	 1.4087262943e+000
 1.3853797900e+000	 6.0901301760e-001	 1.3225325428e+000
 1.3787972674e+000	 6.2377252300e-001	 1.2218984263e+000
 1.3720442065e+000	 6.3848946327e-001	 1.1095155968e+000
 1.3651208223e+000	 6.5316097624e-001	 9.8831813893e-001
 1.3580273923e+000	 6.6778419422e-001	 8.6150929998e-001
 1.3507642567e+000	 6.8235624558e-001	 7.3464451196e-001
 1.3433318187e+000	 6.9687425645e-001	 6.1233678848e-001
 1.3357305449e+000	 7.1133535241e-001	 4.9739520167e-001
 1.3279609656e+000	 7.2573666022e-001	 3.9301737356e-001
 1.3200236751e+000	 7.4007530953e-001	 3.0350763597e-001
 1.3979222539e+000	 5.9683122447e-001	 1.3967627787e+000
 1.3914821798e+000	 6.1169562840e-001	 1.3103309353e+000
 1.3848706621e+000	 6.2652014721e-001	 1.2093605589e+000
 1.3780878550e+000	 6.4130191338e-001	 1.0965235893e+000
 1.3711339743e+000	 6.5603805217e-001	 9.7473432289e-001
 1.3640092988e+000	 6.7072568323e-001	 8.4732840169e-001
 1.3567141702e+000	 6.8536192228e-001	 7.2055596287e-001
 1.3492489934e+000	 6.9994388280e-001	 5.9842621054e-001
 1.3416142371e+000	 7.1446867772e-001	 4.8374479176e-001
 1.3338104341e+000	 7.2893342113e-001	 3.7930221232e-001
 1.3258381810e+000	 7.4333523003e-001	 2.8874861324e-001
 1.4040528868e+000	 5.9944864695e-001	 1.3846544502e+000
 1.3975845695e+000	 6.1437823920e-001	 1.2979762660e+000
 1.3909440569e+000	 6.2926777142e-001	 1.1966475594e+000
 1.3841315035e+000	 6.4411436350e-001	 1.0833169352e+000
 1.3771471263e+000	 6.5891512810e-001	 9.6087505176e-001
 1.3699912054e+000	 6.7366717223e-001	 8.3299434039e-001
 1.3626640837e+000	 6.8836759898e-001	 7.0633218855e-001
 1.3551661682e+000	 7.0301350916e-001	 5.8437730687e-001
 1.3474979294e+000	 7.1760200303e-001	 4.6992806034e-001
 1.3396599025e+000	 7.3213018203e-001	 3.6576480665e-001
 1.3316526868e+000	 7.4659515053e-001	 2.7468761456e-001
 1.4101835197e+000	 6.0206606944e-001	 1.3723242871e+000
 1.4036869593e+000	 6.1706085001e-001	 1.2853977099e+000
 1.3970174516e+000	 6.3201539562e-001	 1.1836933372e+000
 1.3901751520e+000	 6.4692681362e-001	 1.0698328380e+000
 1.3831602784e+000	 6.6179220402e-001	 9.4667940560e-001
 1.3759731119e+000	 6.7660866123e-001	 8.1848341002e-001
 1.3686139973e+000	 6.9137327568e-001	 6.9194898069e-001
 1.3610833429e+000	 7.0608313551e-001	 5.7016410603e-001
 1.3533816217e+000	 7.2073532834e-001	 4.5591605039e-001
 1.3455093710e+000	 7.3532694294e-001	 3.5197103665e-001
 1.3374671927e+000	 7.4985507103e-001	 2.6106806569e-001
 1.2793221339e+000	 7.1725586600e-001	 4.2412289021e-001
 1.2714664889e+000	 7.3109096470e-001	 3.4685023513e-001
 1.2634495946e+000	 7.4485976890e-001	 2.6533521576e-001
 1.2552722144e+000	 7.5855951497e-001	 1.8028568800e-001
 1.2469351742e+000	 7.7218744891e-001	 9.2323415735e-002
 1.2384393619e+000	 7.8574082812e-001	 1.9798360179e-003
 1.2297857273e+000	 7.9921692312e-001	-9.0307514188e-002
 1.2209752820e+000	 8.1261301928e-001	-1.8419788066e-001
 1.2120090993e+000	 8.2592641853e-001	-2.7944945981e-001
 1.2028883134e+000	 8.3915444111e-001	-3.7592083279e-001
 1.1936141197e+000	 8.5229442729e-001	-4.7357165189e-001
 1.2851366398e+000	 7.2051578651e-001	 4.0520571806e-001
 1.2772452910e+000	 7.3441376558e-001	 3.2731541862e-001
 1.2691919599e+000	 7.4824514886e-001	 2.4538355153e-001
 1.2609774137e+000	 7.6200716013e-001	 1.6008564877e-001
 1.2526024817e+000	 7.7569703289e-001	 7.2010882218e-002
 1.2440680560e+000	 7.8931201207e-001	-1.8342173039e-002
 1.2353750907e+000	 8.0284935579e-001	-1.1056909708e-001
 1.2265246021e+000	 8.1630633706e-001	-2.0436247563e-001
 1.2175176681e+000	 8.2968024557e-001	-2.9951401799e-001
 1.2083554283e+000	 8.4296838938e-001	-3.9591592327e-001
 1.1990390835e+000	 8.5616809666e-001	-4.9356148063e-001
 1.2909511456e+000	 7.2377570701e-001	 3.8681453234e-001
 1.2830240930e+000	 7.3773656647e-001	 3.0827649221e-001
 1.2749343253e+000	 7.5163052882e-001	 2.2589679144e-001
 1.2666826129e+000	 7.6545480529e-001	 1.4032097185e-001
 1.2582697892e+000	 7.7920661687e-001	 5.2108016150e-002
 1.2496967501e+000	 7.9288319602e-001	-3.8273895136e-002
 1.2409644542e+000	 8.0648178845e-001	-1.3045093145e-001
 1.2320739221e+000	 8.1999965484e-001	-2.2414643455e-001
 1.2230262369e+000	 8.3343407261e-001	-3.1918299035e-001
 1.2138225433e+000	 8.4678233765e-001	-4.1548373067e-001
 1.2044640473e+000	 8.6004176603e-001	-5.1307285068e-001
 1.2967656515e+000	 7.2703562752e-001	 3.6896948524e-001
 1.2888028951e+000	 7.4105936735e-001	 2.8974481642e-001
 1.2806766906e+000	 7.5501590878e-001	 2.0687855779e-001
 1.2723878122e+000	 7.6890245046e-001	 1.2098859102e-001
 1.2639370967e+000	 7.8271620085e-001	 3.2606106227e-002
 1.2553254442e+000	 7.9645437997e-001	-5.7828652010e-002
 1.2465538176e+000	 8.1011422111e-001	-1.4996992626e-001
 1.2376232422e+000	 8.2369297262e-001	-2.4356924450e-001
 1.2285348058e+000	 8.3718789965e-001	-3.3847744969e-001
 1.2192896583e+000	 8.5059628592e-001	-4.3464594060e-001
 1.2098890112e+000	 8.6391543540e-001	-5.3212710954e-001
 1.3025801574e+000	 7.3029554802e-001	 3.5169230630e-001
 1.2945816972e+000	 7.4438216824e-001	 2.7173340418e-001
 1.2864190560e+000	 7.5840128873e-001	 1.8833418490e-001
 1.2780930114e+000	 7.7235009562e-001	 1.0208719687e-001
 1.2696044042e+000	 7.8622578483e-001	 1.3498228632e-002
 1.2609541384e+000	 8.0002556392e-001	-7.7017960810e-002
 1.2521431810e+000	 8.1374665377e-001	-1.6914118172e-001
 1.2431725622e+000	 8.2738629040e-001	-2.6264859198e-001
 1.2340433746e+000	 8.4094172670e-001	-3.5741668819e-001
 1.2247567732e+000	 8.5441023418e-001	-4.5342248905e-001
 1.2153139750e+000	 8.6778910477e-001	-5.5074389674e-001
 1.3083946633e+000	 7.3355546852e-001	 3.3500624041e-001
 1.3003604992e+000	 7.4770496912e-001	 2.5425685543e-001
 1.2921614213e+000	 7.6178666869e-001	 1.7027065076e-001
 1.2837982107e+000	 7.7579774078e-001	 8.3617166047e-002
 1.2752717117e+000	 7.8973536881e-001	-5.2208257613e-003
 1.2665828325e+000	 8.0359674787e-001	-9.5851608441e-002
 1.2577325445e+000	 8.1737908643e-001	-1.8797806475e-001
 1.2487218823e+000	 8.3107960818e-001	-2.8140043902e-001
 1.2395519435e+000	 8.4469555374e-001	-3.7601829364e-001
 1.2302238882e+000	 8.5822418245e-001	-4.7183163856e-001
 1.2207389389e+000	 8.7166277413e-001	-5.6894121942e-001
 1.3142091692e+000	 7.3681538903e-001	 3.1893598639e-001
 1.3061393013e+000	 7.5102777000e-001	 2.3733129228e-001
 1.2979037867e+000	 7.6517204865e-001	 1.5269650933e-001
 1.2895034099e+000	 7.7924538594e-001	 6.5580491110e-002
 1.2809390192e+000	 7.9324495279e-001	-2.3554623477e-002
 1.2722115266e+000	 8.0716793182e-001	-1.1433772515e-001
 1.2633219079e+000	 8.2101151909e-001	-2.0649228358e-001
 1.2542712023e+000	 8.3477292596e-001	-2.9983909843e-001
 1.2450605123e+000	 8.4844938078e-001	-3.9429822499e-001
 1.2356910031e+000	 8.6203813071e-001	-4.8989005347e-001
 1.2261639027e+000	 8.7553644350e-001	-5.8673552696e-001
 1.3200236751e+000	 7.4007530953e-001	 3.0350763597e-001
 1.3119181033e+000	 7.5435057089e-001	 2.2097429472e-001
 1.3036461521e+000	 7.6855742860e-001	 1.3562182348e-001
 1.2952086092e+000	 7.8269303110e-001	 4.7980711065e-002
 1.2866063267e+000	 7.9675453677e-001	-4.1505159806e-002
 1.2778402207e+000	 8.1073911576e-001	-1.3248285737e-001
 1.2689112713e+000	 8.2464395175e-001	-2.2469396170e-001
 1.2598205224e+000	 8.3846624374e-001	-3.1797730834e-001
 1.2505690811e+000	 8.5220320782e-001	-4.1227088708e-001
 1.2411581181e+000	 8.6585207898e-001	-5.0761287449e-001
 1.2315888666e+000	 8.7941011287e-001	-6.0414178499e-001
 1.3258381810e+000	 7.4333523003e-001	 2.8874861324e-001
 1.3176969054e+000	 7.5767337177e-001	 2.0520483694e-001
 1.3093885174e+000	 7.7194280856e-001	 1.1905809842e-001
 1.3009138084e+000	 7.8614067626e-001	 3.0822842559e-002
 1.2922736341e+000	 8.0026412075e-001	-5.9072929501e-002
 1.2834689148e+000	 8.1431029971e-001	-1.5029203988e-001
 1.2745006347e+000	 8.2827638441e-001	-2.4259171099e-001
 1.2653698424e+000	 8.4215956151e-001	-3.3582630598e-001
 1.2560776500e+000	 8.5595703486e-001	-4.2994920461e-001
 1.2466252331e+000	 8.6966602725e-001	-5.2501379252e-001
 1.2370138304e+000	 8.8328378223e-001	-6.2117354864e-001
 1.3316526868e+000	 7.4659515053e-001	 2.7468761456e-001
 1.3234757075e+000	 7.6099617265e-001	 1.9004322401e-001
 1.3151308828e+000	 7.7532818851e-001	 1.0301821582e-001
 1.3066190077e+000	 7.8958832142e-001	 1.4113311686e-002
 1.2979409416e+000	 8.0377370473e-001	-7.6256996803e-002
 1.2890976089e+000	 8.1788148366e-001	-1.6776886725e-001
 1.2800899982e+000	 8.3190881707e-001	-2.6019270419e-001
 1.2709191625e+000	 8.4585287929e-001	-3.5339590077e-001
 1.2615862188e+000	 8.5971086190e-001	-4.4734469545e-001
 1.2520923480e+000	 8.7347997551e-001	-5.4210512173e-001
 1.2424387943e+000	 8.8715745160e-001	-6.3784303505e-001
 1.3374671927e+000	 7.4985507103e-001	 2.6106806569e-001
 1.3292545095e+000	 7.6431897353e-001	 1.7551102924e-001
 1.3208732481e+000	 7.7871356847e-001	 8.7516368448e-002
 1.3123242069e+000	 7.9303596658e-001	-2.1401136020e-003
 1.3036082491e+000	 8.0728328871e-001	-9.3055064836e-002
 1.2947263030e+000	 8.2145266760e-001	-1.8491556458e-001
 1.2856793616e+000	 8.3554124973e-001	-2.7750274668e-001
 1.2764684825e+000	 8.4954619707e-001	-3.7069454661e-001
 1.2670947876e+000	 8.6346468893e-001	-4.6446754314e-001
 1.2575594630e+000	 8.7729392378e-001	-5.5889787195e-001
 1.2478637581e+000	 8.9103112097e-001	-6.5416119526e-001
 1.1936141197e+000	 8.5229442729e-001	-4.7357165189e-001
 1.1841877734e+000	 8.6534373878e-001	-5.6865347113e-001
 1.1746105887e+000	 8.7829975955e-001	-6.5765749172e-001
 1.1648839386e+000	 8.9115989836e-001	-7.4105379517e-001
 1.1550092550e+000	 9.0392159075e-001	-8.1941034521e-001
 1.1449880282e+000	 9.1658230064e-001	-8.9338952858e-001
 1.1348218059e+000	 9.2913952205e-001	-9.6374398179e-001
 1.1245121926e+000	 9.4159078064e-001	-1.0313117302e+000
 1.1140608486e+000	 9.5393363537e-001	-1.0970106713e+000
 1.1034694896e+000	 9.6616568008e-001	-1.1618324398e+000
 1.0927398850e+000	 9.7828454497e-001	-1.2268356954e+000
 1.1990390835e+000	 8.5616809666e-001	-4.9356148063e-001
 1.1895698946e+000	 8.6927671713e-001	-5.8872376348e-001
 1.1799491817e+000	 8.8229162288e-001	-6.7787122579e-001
 1.1701783240e+000	 8.9521021090e-001	-7.6144367973e-001
 1.1602587602e+000	 9.0802990504e-001	-8.3998218890e-001
 1.1501919870e+000	 9.2074815773e-001	-9.1412556791e-001
 1.1399795593e+000	 9.3336245158e-001	-9.8460614558e-001
 1.1296230889e+000	 9.4587030101e-001	-1.0522448187e+000
 1.1191242437e+000	 9.5826925389e-001	-1.1179454292e+000
 1.1084847470e+000	 9.7055689311e-001	-1.1826885024e+000
 1.0977063765e+000	 9.8273083812e-001	-1.2475243901e+000
 1.2044640473e+000	 8.6004176603e-001	-5.1307285068e-001
 1.1949520158e+000	 8.7320969549e-001	-6.0826065356e-001
 1.1852877747e+000	 8.8628348622e-001	-6.9751001050e-001
 1.1754727095e+000	 8.9926052343e-001	-7.8122987850e-001
 1.1655082653e+000	 9.1213821933e-001	-8.5993382942e-001
 1.1553959458e+000	 9.2491401482e-001	-9.3423650684e-001
 1.1451373127e+000	 9.3758538110e-001	-1.0048493237e+000
 1.1347339852e+000	 9.5014982138e-001	-1.0725754287e+000
 1.1241876387e+000	 9.6260487241e-001	-1.1383039739e+000
 1.1135000044e+000	 9.7494810615e-001	-1.2030037244e+000
 1.1026728680e+000	 9.8717713127e-001	-1.2677160522e+000
 1.2098890112e+000	 8.6391543540e-001	-5.3212710954e-001
 1.2003341370e+000	 8.7714267384e-001	-6.2728427293e-001
 1.1906263677e+000	 8.9027534955e-001	-7.1659193981e-001
 1.1807670950e+000	 9.0331083596e-001	-8.0042762653e-001
 1.1707577704e+000	 9.1624653363e-001	-8.7927682439e-001
 1.1605999045e+000	 9.2907987191e-001	-9.5372941218e-001
 1.1502950661e+000	 9.4180831063e-001	-1.0244752863e+000
 1.1398448815e+000	 9.5442934175e-001	-1.0922992371e+000
 1.1292510338e+000	 9.6694049093e-001	-1.1580751051e+000
 1.1185152619e+000	 9.7933931918e-001	-1.2227592576e+000
 1.1076393595e+000	 9.9162342442e-001	-1.2873834310e+000
 1.2153139750e+000	 8.6778910477e-001	-5.5074389674e-001
 1.2057162582e+000	 8.8107565220e-001	-6.4581309607e-001
 1.1959649607e+000	 8.9426721288e-001	-7.3513350949e-001
 1.1860614805e+000	 9.0736114849e-001	-8.1905062767e-001
 1.1760072756e+000	 9.2035484792e-001	-8.9802127533e-001
 1.1658038633e+000	 9.3324572899e-001	-9.7260997785e-001
 1.1554528195e+000	 9.4603124016e-001	-1.0434845219e+000
 1.1449557778e+000	 9.5870886212e-001	-1.1114107391e+000
 1.1343144288e+000	 9.7127610944e-001	-1.1772465481e+000
 1.1235305193e+000	 9.8373053221e-001	-1.2419352954e+000
 1.1126058510e+000	 9.9606971757e-001	-1.3064984418e+000
 1.2207389389e+000	 8.7166277413e-001	-5.6894121942e-001
 1.2110983794e+000	 8.8500863055e-001	-6.6386401481e-001
 1.2013035537e+000	 8.9825907622e-001	-7.5314969026e-001
 1.1913558659e+000	 9.1141146102e-001	-8.3711112605e-001
 1.1812567807e+000	 9.2446316221e-001	-9.1617589708e-001
 1.1710078221e+000	 9.3741158608e-001	-9.9088259186e-001
 1.1606105729e+000	 9.5025416969e-001	-1.0618763015e+000
 1.1500666741e+000	 9.6298838248e-001	-1.1299033086e+000
 1.1393778239e+000	 9.7561172796e-001	-1.1958050115e+000
 1.1285457767e+000	 9.8812174525e-001	-1.2605111269e+000
 1.1175723425e+000	 1.0005160107e+000	-1.3250322161e+000
 1.2261639027e+000	 8.7553644350e-001	-5.8673552696e-001
 1.2164805006e+000	 8.8894160890e-001	-6.8145241216e-001
 1.2066421467e+000	 9.0225093955e-001	-7.7065400026e-001
 1.1966502514e+000	 9.1546177355e-001	-8.5461997683e-001
 1.1865062858e+000	 9.2857147650e-001	-9.3374808655e-001
 1.1762117808e+000	 9.4157744316e-001	-1.0085504028e+000
 1.1657683263e+000	 9.5447709921e-001	-1.0796487429e+000
 1.1551775704e+000	 9.6726790285e-001	-1.1477692595e+000
 1.1444412189e+000	 9.7994734647e-001	-1.2137362450e+000
 1.1335610341e+000	 9.9251295828e-001	-1.2784651906e+000
 1.1225388340e+000	 1.0049623039e+000	-1.3429551512e+000
 1.2315888666e+000	 8.7941011287e-001	-6.0414178499e-001
 1.2218626218e+000	 8.9287458725e-001	-6.9859223525e-001
 1.2119807397e+000	 9.0624280288e-001	-7.8765857673e-001
 1.2019446369e+000	 9.1951208608e-001	-8.7158671636e-001
 1.1917557910e+000	 9.3267979079e-001	-9.5074399090e-001
 1.1814157396e+000	 9.4574330025e-001	-1.0256153855e+000
 1.1709260797e+000	 9.5870002874e-001	-1.0967988733e+000
 1.1602884667e+000	 9.7154742322e-001	-1.1649999062e+000
 1.1495046140e+000	 9.8428296499e-001	-1.2310250960e+000
 1.1385762916e+000	 9.9690417131e-001	-1.2957751282e+000
 1.1275053255e+000	 1.0094085970e+000	-1.3602369599e+000
 1.2370138304e+000	 8.8328378223e-001	-6.2117354864e-001
 1.2272447430e+000	 8.9680756561e-001	-7.1529606774e-001
 1.2173193327e+000	 9.1023466622e-001	-8.0417424718e-001
 1.2072390223e+000	 9.2356239861e-001	-8.8801963162e-001
 1.1970052961e+000	 9.3678810508e-001	-9.6716857515e-001
 1.1866196983e+000	 9.4990915734e-001	-1.0420784070e+000
 1.1760838330e+000	 9.6292295827e-001	-1.1133226926e+000
 1.1653993630e+000	 9.7582694359e-001	-1.1815856227e+000
 1.1545680090e+000	 9.8861858350e-001	-1.2476555664e+000
 1.1435915490e+000	 1.0012953843e+000	-1.3124178373e+000
 1.1324718169e+000	 1.0138548902e+000	-1.3768477183e+000
 1.2424387943e+000	 8.8715745160e-001	-6.3784303505e-001
 1.2326268642e+000	 9.0074054396e-001	-7.3157520139e-001
 1.2226579256e+000	 9.1422652955e-001	-8.2021059971e-001
 1.2125334078e+000	 9.2761271114e-001	-9.0392582917e-001
 1.2022548012e+000	 9.4089641937e-001	-9.8302568915e-001
 1.1918236571e+000	 9.5407501442e-001	-1.0579392904e+000
 1.1812415864e+000	 9.6714588780e-001	-1.1292152356e+000
 1.1705102593e+000	 9.8010646396e-001	-1.1975159028e+000
 1.1596314041e+000	 9.9295420202e-001	-1.2636108695e+000
 1.1486068064e+000	 1.0056865974e+000	-1.3283695246e+000
 1.1374383084e+000	 1.0183011833e+000	-1.3927538391e+000
 1.2478637581e+000	 8.9103112097e-001	-6.5416119526e-001
 1.2380089854e+000	 9.0467352231e-001	-7.4743970712e-001
 1.2279965186e+000	 9.1821839288e-001	-8.3577605290e-001
 1.2178277933e+000	 9.3166302367e-001	-9.1931130338e-001
 1.2075043064e+000	 9.4500473366e-001	-9.9831813410e-001
 1.1970276159e+000	 9.5824087151e-001	-1.0731968800e+000
 1.1863993398e+000	 9.7136881732e-001	-1.1444706336e+000
 1.1756211556e+000	 9.8438598433e-001	-1.2127794193e+000
 1.1646947991e+000	 9.9728982054e-001	-1.2788734852e+000
 1.1536220639e+000	 1.0100778104e+000	-1.3436057587e+000
 1.1424047999e+000	 1.0227474765e+000	-1.4079243623e+000
 1.0927398850e+000	 9.7828454497e-001	-1.2268356954e+000
 1.0818754980e+000	 9.9028610672e-001	-1.2886829252e+000
 1.0708766045e+000	 1.0021699009e+000	-1.3439209405e+000
 1.0597451306e+000	 1.0139336780e+000	-1.3934798980e+000
 1.0484830525e+000	 1.0255752306e+000	-1.4383216569e+000
 1.0370923950e+000	 1.0370923950e+000	-1.4794316832e+000
 1.0255752306e+000	 1.0484830525e+000	-1.5178107271e+000
 1.0139336780e+000	 1.0597451306e+000	-1.5544663389e+000
 1.0021699009e+000	 1.0708766045e+000	-1.5904042885e+000
 9.9028610672e-001	 1.0818754980e+000	-1.6266199591e+000
 9.7828454497e-001	 1.0927398850e+000	-1.6640897815e+000
 1.0977063765e+000	 9.8273083812e-001	-1.2475243901e+000
 1.0867926110e+000	 9.9478694684e-001	-1.3090700433e+000
 1.0757437276e+000	 1.0067247528e+000	-1.3638505334e+000
 1.0645616613e+000	 1.0185419961e+000	-1.4128260477e+000
 1.0532483971e+000	 1.0302364595e+000	-1.4569889884e+000
 1.0418059692e+000	 1.0418059692e+000	-1.4973556044e+000
 1.0302364595e+000	 1.0532483971e+000	-1.5349573896e+000
 1.0185419961e+000	 1.0645616613e+000	-1.5708323127e+000
 1.0067247528e+000	 1.0757437276e+000	-1.6060159504e+000
 9.9478694684e-001	 1.0867926110e+000	-1.6415325904e+000
 9.8273083812e-001	 1.0977063765e+000	-1.6783863785e+000
 1.1026728680e+000	 9.8717713127e-001	-1.2677160522e+000
 1.0917097239e+000	 9.9928778696e-001	-1.3290053883e+000
 1.0806108507e+000	 1.0112796046e+000	-1.3833681105e+000
 1.0693781919e+000	 1.0231503142e+000	-1.4317939219e+000
 1.0580137418e+000	 1.0348976883e+000	-1.4753054510e+000
 1.0465195435e+000	 1.0465195435e+000	-1.5149478437e+000
 1.0348976883e+000	 1.0580137418e+000	-1.5517886877e+000
 1.0231503142e+000	 1.0693781919e+000	-1.5868913283e+000
 1.0112796046e+000	 1.0806108507e+000	-1.6213233302e+000
 9.9928778696e-001	 1.0917097239e+000	-1.6561384725e+000
 9.8717713127e-001	 1.1026728680e+000	-1.6923693625e+000
 1.1076393595e+000	 9.9162342442e-001	-1.2873834310e+000
 1.0966268369e+000	 1.0037886271e+000	-1.3484536805e+000
 1.0854779738e+000	 1.0158344565e+000	-1.4024318637e+000
 1.0741947226e+000	 1.0277586323e+000	-1.4503363073e+000
 1.0627790864e+000	 1.0395589171e+000	-1.4932197022e+000
 1.0512331177e+000	 1.0512331177e+000	-1.5321597566e+000
 1.0395589171e+000	 1.0627790864e+000	-1.5682496567e+000
 1.0277586323e+000	 1.0741947226e+000	-1.6025889574e+000
 1.0158344565e+000	 1.0854779738e+000	-1.6362780461e+000
 1.0037886271e+000	 1.0966268369e+000	-1.6703937230e+000
 9.9162342442e-001	 1.1076393595e+000	-1.7060009889e+000
 1.1126058510e+000	 9.9606971757e-001	-1.3064984418e+000
 1.1015439499e+000	 1.0082894672e+000	-1.3673789191e+000
 1.0903450969e+000	 1.0203893083e+000	-1.4209993458e+000
 1.0790112533e+000	 1.0323669504e+000	-1.4684065662e+000
 1.0675444310e+000	 1.0442201459e+000	-1.5106830103e+000
 1.0559466919e+000	 1.0559466919e+000	-1.5489367969e+000
 1.0442201459e+000	 1.0675444310e+000	-1.5842921005e+000
 1.0323669504e+000	 1.0790112533e+000	-1.6178796801e+000
 1.0203893083e+000	 1.0903450969e+000	-1.6508309278e+000
 1.0082894672e+000	 1.1015439499e+000	-1.6842535418e+000
 9.9606971757e-001	 1.1126058510e+000	-1.7192424369e+000
 1.1175723425e+000	 1.0005160107e+000	-1.3250322161e+000
 1.1064610628e+000	 1.0127903073e+000	-1.3857444288e+000
 1.0952122200e+000	 1.0249441602e+000	-1.4390276525e+000
 1.0838277839e+000	 1.0369752685e+000	-1.4859563851e+000
 1.0723097757e+000	 1.0488813748e+000	-1.5276429423e+000
 1.0606602661e+000	 1.0606602661e+000	-1.5652256548e+000
 1.0488813748e+000	 1.0723097757e+000	-1.5998598036e+000
 1.0369752685e+000	 1.0838277839e+000	-1.6327076487e+000
 1.0249441602e+000	 1.0952122200e+000	-1.6649283415e+000
 1.0127903073e+000	 1.1064610628e+000	-1.6976722455e+000
 1.0005160107e+000	 1.1175723425e+000	-1.7320538454e+000
 1.1225388340e+000	 1.0049623039e+000	-1.3429551512e+000
 1.1113781758e+000	 1.0172911475e+000	-1.4035135468e+000
 1.1000793431e+000	 1.0294990120e+000	-1.4564728640e+000
 1.0886443146e+000	 1.0415835866e+000	-1.5029373041e+000
 1.0770751203e+000	 1.0535426036e+000	-1.5440476257e+000
 1.0653738403e+000	 1.0653738403e+000	-1.5809725146e+000
 1.0535426036e+000	 1.0770751203e+000	-1.6148984956e+000
 1.0415835866e+000	 1.0886443146e+000	-1.6470196438e+000
 1.0294990120e+000	 1.1000793431e+000	-1.6785271753e+000
 1.0172911475e+000	 1.1113781758e+000	-1.7105989968e+000
 1.0049623039e+000	 1.1225388340e+000	-1.7443943491e+000
 1.1275053255e+000	 1.0094085970e+000	-1.3602369599e+000
 1.1162952888e+000	 1.0217919876e+000	-1.4206470355e+000
 1.1049464662e+000	 1.0340538639e+000	-1.4732910621e+000
 1.0934608453e+000	 1.0461919047e+000	-1.5193003950e+000
 1.0818404650e+000	 1.0582038324e+000	-1.5598447333e+000
 1.0700874146e+000	 1.0700874146e+000	-1.5961230908e+000
 1.0582038324e+000	 1.0818404650e+000	-1.6293533920e+000
 1.0461919047e+000	 1.0934608453e+000	-1.6607618604e+000
 1.0340538639e+000	 1.1049464662e+000	-1.6915722784e+000
 1.0217919876e+000	 1.1162952888e+000	-1.7229952037e+000
 1.0094085970e+000	 1.1275053255e+000	-1.7562221145e+000
 1.1324718169e+000	 1.0138548902e+000	-1.3768477183e+000
 1.1212124017e+000	 1.0262928277e+000	-1.4371071840e+000
 1.1098135893e+000	 1.0386087157e+000	-1.4894376697e+000
 1.0982773759e+000	 1.0508002228e+000	-1.5349963010e+000
 1.0866058096e+000	 1.0628650612e+000	-1.5749815209e+000
 1.0748009888e+000	 1.0748009888e+000	-1.6106226638e+000
 1.0628650612e+000	 1.0866058096e+000	-1.6431692301e+000
 1.0508002228e+000	 1.0982773759e+000	-1.6738799421e+000
 1.0386087157e+000	 1.1098135893e+000	-1.7040116682e+000
 1.0262928277e+000	 1.1212124017e+000	-1.7348082975e+000
 1.0138548902e+000	 1.1324718169e+000	-1.7674896541e+000
 1.1374383084e+000	 1.0183011833e+000	-1.3927538391e+000
 1.1261295147e+000	 1.0307936678e+000	-1.4528550748e+000
 1.1146807124e+000	 1.0431635676e+000	-1.5048676836e+000
 1.1030939066e+000	 1.0554085409e+000	-1.5499752764e+000
 1.0913711542e+000	 1.0675262901e+000	-1.5894048647e+000
 1.0795145630e+000	 1.0795145630e+000	-1.6244161167e+000
 1.0675262901e+000	 1.0913711542e+000	-1.6562903029e+000
 1.0554085409e+000	 1.1030939066e+000	-1.6863190153e+000
 1.0431635676e+000	 1.1146807124e+000	-1.7157927454e+000
 1.0307936678e+000	 1.1261295147e+000	-1.7459894103e+000
 1.0183011833e+000	 1.1374383084e+000	-1.7781629153e+000
 1.1424047999e+000	 1.0227474765e+000	-1.4079243623e+000
 1.1310466276e+000	 1.0352945079e+000	-1.4678513442e+000
 1.1195478355e+000	 1.0477184194e+000	-1.5195357165e+000
 1.1079104373e+000	 1.0600168589e+000	-1.5641872268e+000
 1.0961364989e+000	 1.0721875189e+000	-1.6030612996e+000
 1.0842281372e+000	 1.0842281372e+000	-1.6374479704e+000
 1.0721875189e+000	 1.0961364989e+000	-1.6686604951e+000
 1.0600168589e+000	 1.1079104373e+000	-1.6980237241e+000
 1.0477184194e+000	 1.1195478355e+000	-1.7268623278e+000
 1.0352945079e+000	 1.1310466276e+000	-1.7564889651e+000
 1.0227474765e+000	 1.1424047999e+000	-1.7881924865e+000
 9.7828454497e-001	 1.0927398850e+000	-1.6640897815e+000
 9.6616568008e-001	 1.1034694896e+000	-1.6985978132e+000
 9.5393363537e-001	 1.1140608486e+000	-1.7260664017e+000
 9.4159078064e-001	 1.1245121926e+000	-1.7476458582e+000
 9.2913952205e-001	 1.1348218059e+000	-1.7644378989e+000
 9.1658230064e-001	 1.1449880282e+000	-1.7774877883e+000
 9.0392159075e-001	 1.1550092550e+000	-1.7877769206e+000
 8.9115989836e-001	 1.1648839386e+000	-1.7962158963e+000
 8.7829975955e-001	 1.1746105887e+000	-1.8036381509e+000
 8.6534373878e-001	 1.1841877734e+000	-1.8107941858e+000
 8.5229442729e-001	 1.1936141197e+000	-1.8183464490e+000
 9.8273083812e-001	 1.0977063765e+000	-1.6783863785e+000
 9.7055689311e-001	 1.1084847470e+000	-1.7123777157e+000
 9.5826925389e-001	 1.1191242437e+000	-1.7394131373e+000
 9.4587030101e-001	 1.1296230889e+000	-1.7606202311e+000
 9.3336245158e-001	 1.1399795593e+000	-1.7770766605e+000
 9.2074815773e-001	 1.1501919870e+000	-1.7898021306e+000
 9.0802990504e-001	 1.1602587602e+000	-1.7997508024e+000
 8.9521021090e-001	 1.1701783240e+000	-1.8078042151e+000
 8.8229162288e-001	 1.1799491817e+000	-1.8147647740e+000
 8.6927671713e-001	 1.1895698946e+000	-1.8213498566e+000
 8.5616809666e-001	 1.1990390835e+000	-1.8281865847e+000
 9.8717713127e-001	 1.1026728680e+000	-1.6923693625e+000
 9.7494810615e-001	 1.1135000044e+000	-1.7258362333e+000
 9.6260487241e-001	 1.1241876387e+000	-1.7524337126e+000
 9.5014982138e-001	 1.1347339852e+000	-1.7732679233e+000
 9.3758538110e-001	 1.1451373127e+000	-1.7893934317e+000
 9.2491401482e-001	 1.1553959458e+000	-1.8018050292e+000
 9.1213821933e-001	 1.1655082653e+000	-1.8114299735e+000
 8.9926052343e-001	 1.1754727095e+000	-1.8191207521e+000
 8.8628348622e-001	 1.1852877747e+000	-1.8256484253e+000
 8.7320969549e-001	 1.1949520158e+000	-1.8316966044e+000
 8.6004176603e-001	 1.2044640473e+000	-1.8378561123e+000
 9.9162342442e-001	 1.1076393595e+000	-1.7060009889e+000
 9.7933931918e-001	 1.1185152619e+000	-1.7389414066e+000
 9.6694049093e-001	 1.1292510338e+000	-1.7650996019e+000
 9.5442934175e-001	 1.1398448815e+000	-1.7855614980e+000
 9.4180831063e-001	 1.1502950661e+000	-1.8013595266e+000
 9.2907987191e-001	 1.1605999045e+000	-1.8134642201e+000
 9.1624653363e-001	 1.1707577704e+000	-1.8227762741e+000
 9.0331083596e-001	 1.1807670950e+000	-1.8301191463e+000
 8.9027534955e-001	 1.1906263677e+000	-1.8362322517e+000
 8.7714267384e-001	 1.2003341370e+000	-1.8417648078e+000
 8.6391543540e-001	 1.2098890112e+000	-1.8472703830e+000
 9.9606971757e-001	 1.1126058510e+000	-1.7192424369e+000
 9.8373053221e-001	 1.1235305193e+000	-1.7516600486e+000
 9.7127610944e-001	 1.1343144288e+000	-1.7773809451e+000
 9.5870886212e-001	 1.1449557778e+000	-1.7974721200e+000
 9.4603124016e-001	 1.1554528195e+000	-1.8129448418e+000
 9.3324572899e-001	 1.1658038633e+000	-1.8247460480e+000
 9.2035484792e-001	 1.1760072756e+000	-1.8337502245e+000
 9.0736114849e-001	 1.1860614805e+000	-1.8407518347e+000
 8.9426721288e-001	 1.1959649607e+000	-1.8464583613e+000
 8.8107565220e-001	 1.2057162582e+000	-1.8514840166e+000
 8.6778910477e-001	 1.2153139750e+000	-1.8563441749e+000
 1.0005160107e+000	 1.1175723425e+000	-1.7320538454e+000
 9.8812174525e-001	 1.1285457767e+000	-1.7639577820e+000
 9.7561172796e-001	 1.1393778239e+000	-1.7892465839e+000
 9.6298838248e-001	 1.1500666741e+000	-1.8089695921e+000
 9.5025416969e-001	 1.1606105729e+000	-1.8241178909e+000
 9.3741158608e-001	 1.1710078221e+000	-1.8356154978e+000
 9.2446316221e-001	 1.1812567807e+000	-1.8443110531e+000
 9.1141146102e-001	 1.1913558659e+000	-1.8509700743e+000
 8.9825907622e-001	 1.2013035537e+000	-1.8562678397e+000
 8.8500863055e-001	 1.2110983794e+000	-1.8607829606e+000
 8.7166277413e-001	 1.2207389389e+000	-1.8649916950e+000
 1.0049623039e+000	 1.1225388340e+000	-1.7443943491e+000
 9.9251295828e-001	 1.1335610341e+000	-1.7757990764e+000
 9.7994734647e-001	 1.1444412189e+000	-1.8006640993e+000
 9.6726790285e-001	 1.1551775704e+000	-1.8200223906e+000
 9.5447709921e-001	 1.1657683263e+000	-1.8348458382e+000
 9.4157744316e-001	 1.1762117808e+000	-1.8460362254e+000
 9.2857147650e-001	 1.1865062858e+000	-1.8544167230e+000
 9.1546177355e-001	 1.1966502514e+000	-1.8607239644e+000
 9.0225093955e-001	 1.2066421467e+000	-1.8656007667e+000
 8.8894160890e-001	 1.2164805006e+000	-1.8695895602e+000
 8.7553644350e-001	 1.2261639027e+000	-1.8731265808e+000
 1.0094085970e+000	 1.1275053255e+000	-1.7562221145e+000
 9.9690417131e-001	 1.1385762916e+000	-1.7871472846e+000
 9.8428296499e-001	 1.1495046140e+000	-1.8115998482e+000
 9.7154742322e-001	 1.1602884667e+000	-1.8305977013e+000
 9.5870002874e-001	 1.1709260797e+000	-1.8450945333e+000
 9.4574330025e-001	 1.1814157396e+000	-1.8559705892e+000
 9.3267979079e-001	 1.1917557910e+000	-1.8640239597e+000
 9.1951208608e-001	 1.2019446369e+000	-1.8699624696e+000
 9.0624280288e-001	 1.2119807397e+000	-1.8743962330e+000
 8.9287458725e-001	 1.2218626218e+000	-1.8778309359e+000
 8.7941011287e-001	 1.2315888666e+000	-1.8806619034e+000
 1.0138548902e+000	 1.1324718169e+000	-1.7674896541e+000
 1.0012953843e+000	 1.1435915490e+000	-1.7979646799e+000
 9.8861858350e-001	 1.1545680090e+000	-1.8220190000e+000
 9.7582694359e-001	 1.1653993630e+000	-1.8406614553e+000
 9.6292295827e-001	 1.1760838330e+000	-1.8548285441e+000
 9.4990915734e-001	 1.1866196983e+000	-1.8653796809e+000
 9.3678810508e-001	 1.1970052961e+000	-1.8730882779e+000
 9.2356239861e-001	 1.2072390223e+000	-1.8786334420e+000
 9.1023466622e-001	 1.2173193327e+000	-1.8825923576e+000
 8.9680756561e-001	 1.2272447430e+000	-1.8854334191e+000
 8.8328378223e-001	 1.2370138304e+000	-1.8875101705e+000
 1.0183011833e+000	 1.1374383084e+000	-1.7781629153e+000
 1.0056865974e+000	 1.1486068064e+000	-1.8082124921e+000
 9.9295420202e-001	 1.1596314041e+000	-1.8318855735e+000
 9.8010646396e-001	 1.1705102593e+000	-1.8501783648e+000
 9.6714588780e-001	 1.1812415864e+000	-1.8640111909e+000
 9.5407501442e-001	 1.1918236571e+000	-1.8742233561e+000
 9.4089641937e-001	 1.2022548012e+000	-1.8815640093e+000
 9.2761271114e-001	 1.2125334078e+000	-1.8866836440e+000
 9.1422652955e-001	 1.2226579256e+000	-1.8901263046e+000
 9.0074054396e-001	 1.2326268642e+000	-1.8923225635e+000
 8.8715745160e-001	 1.2424387943e+000	-1.8935833302e+000
 1.0227474765e+000	 1.1424047999e+000	-1.7881924865e+000
 1.0100778104e+000	 1.1536220639e+000	-1.8178509447e+000
 9.9728982054e-001	 1.1646947991e+000	-1.8411624729e+000
 9.8438598433e-001	 1.1756211556e+000	-1.8591119579e+000
 9.7136881732e-001	 1.1863993398e+000	-1.8726045802e+000
 9.5824087151e-001	 1.1970276159e+000	-1.8824602658e+000
 9.4500473366e-001	 1.2075043064e+000	-1.8894043294e+000
 9.3166302367e-001	 1.2178277933e+000	-1.8940587711e+000
 9.1821839288e-001	 1.2279965186e+000	-1.8969343007e+000
 9.0467352231e-001	 1.2380089854e+000	-1.8984231555e+000
 8.9103112097e-001	 1.2478637581e+000	-1.8987927750e+000
 8.5229442729e-001	 1.1936141197e+000	-1.8183464490e+000
 8.3915444111e-001	 1.2028883134e+000	-1.8241089558e+000
 8.2592641853e-001	 1.2120090993e+000	-1.8259366433e+000
 8.1261301928e-001	 1.2209752820e+000	-1.8243972123e+000
 7.9921692312e-001	 1.2297857273e+000	-1.8199402023e+000
 7.8574082812e-001	 1.2384393619e+000	-1.8128955933e+000
 7.7218744891e-001	 1.2469351742e+000	-1.8034732608e+000
 7.5855951497e-001	 1.2552722144e+000	-1.7917632920e+000
 7.4485976890e-001	 1.2634495946e+000	-1.7777371651e+000
 7.3109096470e-001	 1.2714664889e+000	-1.7612497866e+000
 7.1725586600e-001	 1.2793221339e+000	-1.7420423775e+000
 8.5616809666e-001	 1.1990390835e+000	-1.8281865847e+000
 8.4296838938e-001	 1.2083554283e+000	-1.8329844106e+000
 8.2968024557e-001	 1.2175176681e+000	-1.8335754863e+000
 8.1630633706e-001	 1.2265246021e+000	-1.8306109411e+000
 8.0284935579e-001	 1.2353750907e+000	-1.8246206013e+000
 7.8931201207e-001	 1.2440680560e+000	-1.8160113607e+000
 7.7569703289e-001	 1.2526024817e+000	-1.8050664303e+000
 7.6200716013e-001	 1.2609774137e+000	-1.7919454749e+000
 7.4824514886e-001	 1.2691919599e+000	-1.7766856400e+000
 7.3441376558e-001	 1.2772452910e+000	-1.7592034647e+000
 7.2051578651e-001	 1.2851366398e+000	-1.7392976695e+000
 8.6004176603e-001	 1.2044640473e+000	-1.8378561123e+000
 8.4678233765e-001	 1.2138225433e+000	-1.8417332653e+000
 8.3343407261e-001	 1.2230262369e+000	-1.8411394298e+000
 8.1999965484e-001	 1.2320739221e+000	-1.8368090316e+000
 8.0648178845e-001	 1.2409644542e+000	-1.8293523522e+000
 7.9288319602e-001	 1.2496967501e+000	-1.8192536610e+000
 7.7920661687e-001	 1.2582697892e+000	-1.8068702507e+000
 7.6545480529e-001	 1.2666826129e+000	-1.7924323867e+000
 7.5163052882e-001	 1.2749343253e+000	-1.7760441735e+000
 7.3773656647e-001	 1.2830240930e+000	-1.7576853345e+000
 7.2377570701e-001	 1.2909511456e+000	-1.7372138948e+000
 8.6391543540e-001	 1.2098890112e+000	-1.8472703830e+000
 8.5059628592e-001	 1.2192896583e+000	-1.8502566265e+000
 8.3718789965e-001	 1.2285348058e+000	-1.8485191478e+000
 8.2369297262e-001	 1.2376232422e+000	-1.8428755301e+000
 8.1011422111e-001	 1.2465538176e+000	-1.8340166677e+000
 7.9645437997e-001	 1.2553254442e+000	-1.8225046502e+000
 7.8271620085e-001	 1.2639370967e+000	-1.8087715763e+000
 7.6890245046e-001	 1.2723878122e+000	-1.7931193083e+000
 7.5501590878e-001	 1.2806766906e+000	-1.7757201694e+000
 7.4105936735e-001	 1.2888028951e+000	-1.7566185829e+000
 7.2703562752e-001	 1.2967656515e+000	-1.7357336412e+000
 8.6778910477e-001	 1.2153139750e+000	-1.8563441749e+000
 8.5441023418e-001	 1.2247567732e+000	-1.8584552766e+000
 8.4094172670e-001	 1.2340433746e+000	-1.8556051776e+000
 8.2738629040e-001	 1.2431725622e+000	-1.8486944739e+000
 8.1374665377e-001	 1.2521431810e+000	-1.8384948182e+000
 8.0002556392e-001	 1.2609541384e+000	-1.8256465491e+000
 7.8622578483e-001	 1.2696044042e+000	-1.8106572748e+000
 7.7235009562e-001	 1.2780930114e+000	-1.7939014243e+000
 7.5840128873e-001	 1.2864190560e+000	-1.7756207684e+000
 7.4438216824e-001	 1.2945816972e+000	-1.7559259090e+000
 7.3029554802e-001	 1.3025801574e+000	-1.7347987280e+000
 8.7166277413e-001	 1.2207389389e+000	-1.8649916950e+000
 8.5822418245e-001	 1.2302238882e+000	-1.8662296678e+000
 8.4469555374e-001	 1.2395519435e+000	-1.8622879079e+000
 8.3107960818e-001	 1.2487218823e+000	-1.8541498736e+000
 8.1737908643e-001	 1.2577325445e+000	-1.8426681113e+000
 8.0359674787e-001	 1.2665828325e+000	-1.8285616214e+000
 7.8973536881e-001	 1.2752717117e+000	-1.8124142046e+000
 7.7579774078e-001	 1.2837982107e+000	-1.7946738012e+000
 7.6178666869e-001	 1.2921614213e+000	-1.7756528275e+000
 7.4770496912e-001	 1.3003604992e+000	-1.7555295081e+000
 7.3355546852e-001	 1.3083946633e+000	-1.7343501953e+000
 8.7553644350e-001	 1.2261639027e+000	-1.8731265808e+000
 8.6203813071e-001	 1.2356910031e+000	-1.8734799165e+000
 8.4844938078e-001	 1.2450605123e+000	-1.8684575671e+000
 8.3477292596e-001	 1.2542712023e+000	-1.8591256973e+000
 8.2101151909e-001	 1.2633219079e+000	-1.8464178720e+000
 8.0716793182e-001	 1.2722115266e+000	-1.8311321519e+000
 7.9324495279e-001	 1.2809390192e+000	-1.8139291930e+000
 7.7924538594e-001	 1.2895034099e+000	-1.7953313663e+000
 7.6517204865e-001	 1.2979037867e+000	-1.7757229019e+000
 7.5102777000e-001	 1.3061393013e+000	-1.7553510562e+000
 7.3681538903e-001	 1.3142091692e+000	-1.7343282936e+000
 8.7941011287e-001	 1.2315888666e+000	-1.8806619034e+000
 8.6585207898e-001	 1.2411581181e+000	-1.8801057990e+000
 8.5220320782e-001	 1.2505690811e+000	-1.8740042129e+000
 8.3846624374e-001	 1.2598205224e+000	-1.8635058550e+000
 8.2464395175e-001	 1.2689112713e+000	-1.8496254250e+000
 8.1073911576e-001	 1.2778402207e+000	-1.8332404267e+000
 7.9675453677e-001	 1.2866063267e+000	-1.8150890151e+000
 7.8269303110e-001	 1.2952086092e+000	-1.7957688875e+000
 7.6855742860e-001	 1.3036461521e+000	-1.7757372267e+000
 7.5435057089e-001	 1.3119181033e+000	-1.7553116956e+000
 7.4007530953e-001	 1.3200236751e+000	-1.7346724737e+000
 8.8328378223e-001	 1.2370138304e+000	-1.8875101705e+000
 8.6966602725e-001	 1.2466252331e+000	-1.8860067476e+000
 8.5595703486e-001	 1.2560776500e+000	-1.8788177222e+000
 8.4215956151e-001	 1.2653698424e+000	-1.8671741851e+000
 8.2827638441e-001	 1.2745006347e+000	-1.8521720763e+000
 8.1431029971e-001	 1.2834689148e+000	-1.8347687132e+000
 8.0026412075e-001	 1.2922736341e+000	-1.8157803741e+000
 7.8614067626e-001	 1.3009138084e+000	-1.7958809542e+000
 7.7194280856e-001	 1.3093885174e+000	-1.7756016997e+000
 7.5767337177e-001	 1.3176969054e+000	-1.7553320213e+000
 7.4333523003e-001	 1.3258381810e+000	-1.7353213779e+000
 8.8715745160e-001	 1.2424387943e+000	-1.8935833302e+000
 8.7347997551e-001	 1.2520923480e+000	-1.8910818467e+000
 8.5971086190e-001	 1.2615862188e+000	-1.8827877825e+000
 8.4585287929e-001	 1.2709191625e+000	-1.8700144399e+000
 8.3190881707e-001	 1.2800899982e+000	-1.8539390975e+000
 8.1788148366e-001	 1.2890976089e+000	-1.8355992421e+000
 8.0377370473e-001	 1.2979409416e+000	-1.8158898821e+000
 7.8958832142e-001	 1.3066190077e+000	-1.7955619590e+000
 7.7532818851e-001	 1.3151308828e+000	-1.7752218651e+000
 7.6099617265e-001	 1.3234757075e+000	-1.7553320675e+000
 7.4659515053e-001	 1.3316526868e+000	-1.7362128312e+000
 8.9103112097e-001	 1.2478637581e+000	-1.8987927750e+000
 8.7729392378e-001	 1.2575594630e+000	-1.8952298308e+000
 8.6346468893e-001	 1.2670947876e+000	-1.8858038833e+000
 8.4954619707e-001	 1.2764684825e+000	-1.8719102740e+000
 8.3554124973e-001	 1.2856793616e+000	-1.8548077097e+000
 8.2145266760e-001	 1.2947263030e+000	-1.8356141900e+000
 8.0728328871e-001	 1.3036082491e+000	-1.8153040422e+000
 7.9303596658e-001	 1.3123242069e+000	-1.7947060804e+000
 7.7871356847e-001	 1.3208732481e+000	-1.7745028979e+000
 7.6431897353e-001	 1.3292545095e+000	-1.7552312949e+000
 7.4985507103e-001	 1.3374671927e+000	-1.7365058777e+000
 7.1725586600e-001	 1.2793221339e+000	-1.7420423775e+000
 7.0335933386e-001	 1.2870146864e+000	-1.7234253811e+000
 6.8940207522e-001	 1.2945446989e+000	-1.7072656895e+000
 6.7538687194e-001	 1.3019115954e+000	-1.6910182452e+000
 6.6131650867e-001	 1.3091148620e+000	-1.6730544635e+000
 6.4719377119e-001	 1.3161540465e+000	-1.6602918230e+000
 6.3302144475e-001	 1.3230287580e+000	-1.6519447687e+000
 6.1880231245e-001	 1.3297386669e+000	-1.6447832833e+000
 6.0453915355e-001	 1.3362835043e+000	-1.6355837665e+000
 5.9023474197e-001	 1.3426630618e+000	-1.6206393704e+000
 5.7589184460e-001	 1.3488771907e+000	-1.5979764477e+000
 7.2051578651e-001	 1.2851366398e+000	-1.7392976695e+000
 7.0655609477e-001	 1.2928641549e+000	-1.7204370554e+000
 6.9253540054e-001	 1.3004283911e+000	-1.7045498415e+000
 6.7845649830e-001	 1.3078287701e+000	-1.6889977892e+000
 6.6432218537e-001	 1.3150647755e+000	-1.6712723999e+000
 6.5013526020e-001	 1.3221359530e+000	-1.6570305763e+000
 6.3589852068e-001	 1.3290419100e+000	-1.6475264274e+000
 6.2161476256e-001	 1.3357823154e+000	-1.6392933471e+000
 6.0728677776e-001	 1.3423568991e+000	-1.6280026487e+000
 5.9291735277e-001	 1.3487654515e+000	-1.6112479935e+000
 5.7850926709e-001	 1.3550078236e+000	-1.5872915712e+000
 7.2377570701e-001	 1.2909511456e+000	-1.7372138948e+000
 7.0975285568e-001	 1.2987136233e+000	-1.7182571586e+000
 6.9566872585e-001	 1.3063120834e+000	-1.7028013258e+000
 6.8152612466e-001	 1.3137459449e+000	-1.6881113698e+000
 6.6732786208e-001	 1.3210146890e+000	-1.6713901147e+000
 6.5307674920e-001	 1.3281178596e+000	-1.6558291958e+000
 6.3877559661e-001	 1.3350550621e+000	-1.6452147174e+000
 6.2442721268e-001	 1.3418259639e+000	-1.6346594273e+000
 6.1003440197e-001	 1.3484302938e+000	-1.6211710842e+000
 5.9559996358e-001	 1.3548678413e+000	-1.6027631051e+000
 5.8112668957e-001	 1.3611384565e+000	-1.5776492940e+000
 7.2703562752e-001	 1.2967656515e+000	-1.7357336412e+000
 7.1294961659e-001	 1.3045630918e+000	-1.7168480320e+000
 6.9880205116e-001	 1.3121957757e+000	-1.7019993830e+000
 6.8459575102e-001	 1.3196631196e+000	-1.6883523036e+000
 6.7033353878e-001	 1.3269646026e+000	-1.6730057186e+000
 6.5601823821e-001	 1.3340997661e+000	-1.6566792394e+000
 6.4165267254e-001	 1.3410682141e+000	-1.6436177304e+000
 6.2723966280e-001	 1.3478696124e+000	-1.6304581664e+000
 6.1278202618e-001	 1.3545036885e+000	-1.6149458447e+000
 5.9828257438e-001	 1.3609702310e+000	-1.5950388184e+000
 5.8374411205e-001	 1.3672690894e+000	-1.5688983887e+000
 7.3029554802e-001	 1.3025801574e+000	-1.7347987280e+000
 7.1614637750e-001	 1.3104125602e+000	-1.7161709705e+000
 7.0193537647e-001	 1.3180794680e+000	-1.7021219877e+000
 6.8766537738e-001	 1.3255802944e+000	-1.6897124800e+000
 6.7333921548e-001	 1.3329145161e+000	-1.6759335441e+000
 6.5895972721e-001	 1.3400816726e+000	-1.6582158509e+000
 6.4452974846e-001	 1.3470813661e+000	-1.6421181271e+000
 6.3005211292e-001	 1.3539132609e+000	-1.6265463392e+000
 6.1552965038e-001	 1.3605770832e+000	-1.6091838102e+000
 6.0096518519e-001	 1.3670726208e+000	-1.5879294140e+000
 5.8636153454e-001	 1.3733997223e+000	-1.5608879041e+000
 7.3355546852e-001	 1.3083946633e+000	-1.7343501953e+000
 7.1934313840e-001	 1.3162620287e+000	-1.7161862162e+000
 7.0506870179e-001	 1.3239631603e+000	-1.7031458466e+000
 6.9073500373e-001	 1.3314974691e+000	-1.6921823628e+000
 6.7634489218e-001	 1.3388644296e+000	-1.6791107556e+000
 6.6190121622e-001	 1.3460635792e+000	-1.6594915546e+000
 6.4740682439e-001	 1.3530945182e+000	-1.6405699953e+000
 6.3286456303e-001	 1.3599569094e+000	-1.6227808684e+000
 6.1827727459e-001	 1.3666504780e+000	-1.6037420120e+000
 6.0364779599e-001	 1.3731750105e+000	-1.5812893768e+000
 5.8897895702e-001	 1.3795303552e+000	-1.5534671961e+000
 7.3681538903e-001	 1.3142091692e+000	-1.7343282936e+000
 7.2253989931e-001	 1.3221114972e+000	-1.7168529531e+000
 7.0820202710e-001	 1.3298468526e+000	-1.7050463970e+000
 6.9380463009e-001	 1.3374146439e+000	-1.6951190876e+000
 6.7935056888e-001	 1.3448143431e+000	-1.6810832152e+000
 6.6484270522e-001	 1.3520454857e+000	-1.6603551530e+000
 6.5028390032e-001	 1.3591076702e+000	-1.6388276684e+000
 6.3567701315e-001	 1.3660005579e+000	-1.6190188720e+000
 6.2102489880e-001	 1.3727238727e+000	-1.5984776758e+000
 6.0633040679e-001	 1.3792774003e+000	-1.5749734339e+000
 5.9159637950e-001	 1.3856609881e+000	-1.5464859583e+000
 7.4007530953e-001	 1.3200236751e+000	-1.7346724737e+000
 7.2573666022e-001	 1.3279609656e+000	-1.7181293025e+000
 7.1133535241e-001	 1.3357305449e+000	-1.7075617537e+000
 6.9687425645e-001	 1.3433318187e+000	-1.6965863517e+000
 6.8235624558e-001	 1.3507642567e+000	-1.6817036079e+000
 6.6778419422e-001	 1.3580273923e+000	-1.6606185240e+000
 6.5316097624e-001	 1.3651208223e+000	-1.6367457772e+000
 6.3848946327e-001	 1.3720442065e+000	-1.6151177111e+000
 6.2377252300e-001	 1.3787972674e+000	-1.5932482646e+000
 6.0901301760e-001	 1.3853797900e+000	-1.5688365919e+000
 5.9421380199e-001	 1.3917916210e+000	-1.5397942538e+000
 7.4333523003e-001	 1.3258381810e+000	-1.7353213779e+000
 7.2893342113e-001	 1.3338104341e+000	-1.7199613012e+000
 7.1446867772e-001	 1.3416142371e+000	-1.7085705000e+000
 6.9994388280e-001	 1.3492489934e+000	-1.6963211590e+000
 6.8536192228e-001	 1.3567141702e+000	-1.6808321865e+000
 6.7072568323e-001	 1.3640092988e+000	-1.6597347388e+000
 6.5603805217e-001	 1.3711339743e+000	-1.6341793004e+000
 6.4130191338e-001	 1.3780878550e+000	-1.6109350376e+000
 6.2652014721e-001	 1.3848706621e+000	-1.5879115222e+000
 6.1169562840e-001	 1.3914821798e+000	-1.5627341753e+000
 5.9683122447e-001	 1.3979222539e+000	-1.5332425464e+000
 7.4659515053e-001	 1.3316526868e+000	-1.7362128312e+000
 7.3213018203e-001	 1.3396599025e+000	-1.7206059801e+000
 7.1760200303e-001	 1.3474979294e+000	-1.7074555695e+000
 7.0301350916e-001	 1.3551661682e+000	-1.6941823854e+000
 6.8836759898e-001	 1.3626640837e+000	-1.6783317444e+000
 6.7366717223e-001	 1.3699912054e+000	-1.6574584683e+000
 6.5891512810e-001	 1.3771471263e+000	-1.6309836166e+000
 6.4411436350e-001	 1.3841315035e+000	-1.6063288423e+000
 6.2926777142e-001	 1.3909440569e+000	-1.5823255169e+000
 6.1437823920e-001	 1.3975845695e+000	-1.5565218643e+000
 5.9944864695e-001	 1.4040528868e+000	-1.5266817329e+000
 7.4985507103e-001	 1.3374671927e+000	-1.7365058777e+000
 7.3532694294e-001	 1.3455093710e+000	-1.7187197212e+000
 7.2073532834e-001	 1.3533816217e+000	-1.7040721272e+000
 7.0608313551e-001	 1.3610833429e+000	-1.6900315659e+000
 6.9137327568e-001	 1.3686139973e+000	-1.6740675937e+000
 6.7660866123e-001	 1.3759731119e+000	-1.6536562587e+000
 6.6179220402e-001	 1.3831602784e+000	-1.6270145554e+000
 6.4692681362e-001	 1.3901751520e+000	-1.6011575022e+000
 6.3201539562e-001	 1.3970174516e+000	-1.5763486845e+000
 6.1706085001e-001	 1.4036869593e+000	-1.5500557333e+000
 6.0206606944e-001	 1.4101835197e+000	-1.5199631752e+000
 5.7589184460e-001	 1.3488771907e+000	-1.5979764477e+000
 5.6151106040e-001	 1.3549266970e+000	-1.5721720259e+000
 5.4709728833e-001	 1.3608106067e+000	-1.5484593951e+000
 5.3265326705e-001	 1.3665289489e+000	-1.5263601960e+000
 5.1818172212e-001	 1.3720818103e+000	-1.5055248720e+000
 5.0368536462e-001	 1.3774693348e+000	-1.4857220796e+000
 4.8916688967e-001	 1.3826917224e+000	-1.4668282628e+000
 4.7462897510e-001	 1.3877492286e+000	-1.4488174260e+000
 4.6007428010e-001	 1.3926421637e+000	-1.4317511373e+000
 4.4550544387e-001	 1.3973708919e+000	-1.4157687902e+000
 4.3092508440e-001	 1.4019358304e+000	-1.4010781435e+000
 5.7850926709e-001	 1.3550078236e+000	-1.5872915712e+000
 5.6406312237e-001	 1.3610848248e+000	-1.5605966877e+000
 5.4958383986e-001	 1.3669954768e+000	-1.5362648108e+000
 5.3507417064e-001	 1.3727398088e+000	-1.5137496121e+000
 5.2053685269e-001	 1.3783179080e+000	-1.4926354440e+000
 5.0597460939e-001	 1.3837299187e+000	-1.4726266702e+000
 4.9139014813e-001	 1.3889760420e+000	-1.4535371705e+000
 4.7678615889e-001	 1.3940565345e+000	-1.4352800554e+000
 4.6216531295e-001	 1.3989717079e+000	-1.4178576221e+000
 4.4753026151e-001	 1.4037219281e+000	-1.4013515784e+000
 4.3288363445e-001	 1.4083076142e+000	-1.3859135571e+000
 5.8112668957e-001	 1.3611384565e+000	-1.5776492940e+000
 5.6661518434e-001	 1.3672429527e+000	-1.5501717537e+000
 5.5207039138e-001	 1.3731803470e+000	-1.5252982261e+000
 5.3749507424e-001	 1.3789506688e+000	-1.5024186246e+000
 5.2289198327e-001	 1.3845540057e+000	-1.4810556088e+000
 5.0826385417e-001	 1.3899905026e+000	-1.4608538216e+000
 4.9361340659e-001	 1.3952603616e+000	-1.4415693120e+000
 4.7894334268e-001	 1.4003638404e+000	-1.4230591780e+000
 4.6425634580e-001	 1.4053012522e+000	-1.4052714630e+000
 4.4955507915e-001	 1.4100729644e+000	-1.3882353309e+000
 4.3484218451e-001	 1.4146793981e+000	-1.3720515428e+000
 5.8374411205e-001	 1.3672690894e+000	-1.5688983887e+000
 5.6916724631e-001	 1.3734010805e+000	-1.5407405303e+000
 5.5455694290e-001	 1.3793652171e+000	-1.5153998310e+000
 5.3991597783e-001	 1.3851615288e+000	-1.4922066031e+000
 5.2524711384e-001	 1.3907901033e+000	-1.4706261549e+000
 5.1055309895e-001	 1.3962510865e+000	-1.4502479211e+000
 4.9583666505e-001	 1.4015446812e+000	-1.4307747901e+000
 4.8110052647e-001	 1.4066711463e+000	-1.4120126635e+000
 4.6634737865e-001	 1.4116307964e+000	-1.3938602800e+000
 4.5157989679e-001	 1.4164240007e+000	-1.3762993298e+000
 4.3680073457e-001	 1.4210511820e+000	-1.3593848822e+000
 5.8636153454e-001	 1.3733997223e+000	-1.5608879041e+000
 5.7171930827e-001	 1.3795592084e+000	-1.5321467144e+000
 5.5704349442e-001	 1.3855500873e+000	-1.5064102813e+000
 5.4233688143e-001	 1.3913723887e+000	-1.4829534212e+000
 5.2760224441e-001	 1.3970262010e+000	-1.4611883773e+000
 5.1284234373e-001	 1.4025116704e+000	-1.4406538303e+000
 4.9805992351e-001	 1.4078290008e+000	-1.4210041176e+000
 4.8325771026e-001	 1.4129784522e+000	-1.4019986957e+000
 4.6843841150e-001	 1.4179603407e+000	-1.3834918804e+000
 4.5360471443e-001	 1.4227750370e+000	-1.3654228888e+000
 4.3875928462e-001	 1.4274229658e+000	-1.3478062062e+000
 5.8897895702e-001	 1.3795303552e+000	-1.5534671961e+000
 5.7427137024e-001	 1.3857173362e+000	-1.5242344172e+000
 5.5953004595e-001	 1.3917349575e+000	-1.4981707172e+000
 5.4475778502e-001	 1.3975832487e+000	-1.4744994705e+000
 5.2995737498e-001	 1.4032622986e+000	-1.4525840879e+000
 5.1513158850e-001	 1.4087722543e+000	-1.4319168937e+000
 5.0028318196e-001	 1.4141133204e+000	-1.4121082232e+000
 4.8541489404e-001	 1.4192857581e+000	-1.3928757769e+000
 4.7052944435e-001	 1.4242898849e+000	-1.3740342637e+000
 4.5562953206e-001	 1.4291260732e+000	-1.3554853593e+000
 4.4071783468e-001	 1.4337947497e+000	-1.3372080018e+000
 5.9159637950e-001	 1.3856609881e+000	-1.5464859583e+000
 5.7682343221e-001	 1.3918754640e+000	-1.5168481890e+000
 5.6201659747e-001	 1.3979198276e+000	-1.4905227820e+000
 5.4717868861e-001	 1.4037941086e+000	-1.4666856752e+000
 5.3231250556e-001	 1.4094983963e+000	-1.4446556268e+000
 5.1742083328e-001	 1.4150328382e+000	-1.4238829464e+000
 5.0250644042e-001	 1.4203976400e+000	-1.4039384582e+000
 4.8757207783e-001	 1.4255930640e+000	-1.3845027337e+000
 4.7262047719e-001	 1.4306194292e+000	-1.3653556270e+000
 4.5765434970e-001	 1.4354771095e+000	-1.3463661368e+000
 4.4267638473e-001	 1.4401665336e+000	-1.3274826204e+000
 5.9421380199e-001	 1.3917916210e+000	-1.5397942538e+000
 5.7937549418e-001	 1.3980335919e+000	-1.5098330439e+000
 5.6450314899e-001	 1.4041046978e+000	-1.4833086423e+000
 5.4959959221e-001	 1.4100049686e+000	-1.4593535072e+000
 5.3466763613e-001	 1.4157344939e+000	-1.4372458733e+000
 5.1971007806e-001	 1.4212934221e+000	-1.4163983232e+000
 5.0472969888e-001	 1.4266819596e+000	-1.3963466032e+000
 4.8972926162e-001	 1.4319003699e+000	-1.3767387234e+000
 4.7471151004e-001	 1.4369489734e+000	-1.3573243711e+000
 4.5967916734e-001	 1.4418281458e+000	-1.3379446673e+000
 4.4463493479e-001	 1.4465383175e+000	-1.3185222856e+000
 5.9683122447e-001	 1.3979222539e+000	-1.5332425464e+000
 5.8192755614e-001	 1.4041917197e+000	-1.5030344852e+000
 5.6698970051e-001	 1.4102895679e+000	-1.4763710074e+000
 5.5202049580e-001	 1.4162158286e+000	-1.4523450017e+000
 5.3702276670e-001	 1.4219705916e+000	-1.4301982584e+000
 5.2199932284e-001	 1.4275540060e+000	-1.4093098678e+000
 5.0695295734e-001	 1.4329662792e+000	-1.3891848764e+000
 4.9188644541e-001	 1.4382076758e+000	-1.3694432404e+000
 4.7680254289e-001	 1.4432785177e+000	-1.3498091074e+000
 4.6170398498e-001	 1.4481791820e+000	-1.3301004544e+000
 4.4659348485e-001	 1.4529101013e+000	-1.3102191021e+000
 5.9944864695e-001	 1.4040528868e+000	-1.5266817329e+000
 5.8447961811e-001	 1.4103498476e+000	-1.4962985317e+000
 5.6947625203e-001	 1.4164744381e+000	-1.4695531505e+000
 5.5444139940e-001	 1.4224266885e+000	-1.4455027735e+000
 5.3937789727e-001	 1.4282066893e+000	-1.4233567774e+000
 5.2428856761e-001	 1.4338145899e+000	-1.4024649434e+000
 5.0917621580e-001	 1.4392505988e+000	-1.3823059411e+000
 4.9404362919e-001	 1.4445149818e+000	-1.3624761234e+000
 4.7889357574e-001	 1.4496080619e+000	-1.3426786644e+000
 4.6372880262e-001	 1.4545302183e+000	-1.3227130674e+000
 4.4855203490e-001	 1.4592818852e+000	-1.3024650644e+000
 6.0206606944e-001	 1.4101835197e+000	-1.5199631752e+000
 5.8703168008e-001	 1.4165079754e+000	-1.4894717433e+000
 5.7196280356e-001	 1.4226593082e+000	-1.4626989294e+000
 5.5686230299e-001	 1.4286375485e+000	-1.4386700339e+000
 5.4173302785e-001	 1.4344427869e+000	-1.4165660035e+000
 5.2657781239e-001	 1.4400751738e+000	-1.3957114431e+000
 5.1139947426e-001	 1.4455349184e+000	-1.3755629153e+000
 4.9620081298e-001	 1.4508222877e+000	-1.3556975636e+000
 4.8098460859e-001	 1.4559376062e+000	-1.3358020955e+000
 4.6575362026e-001	 1.4608812546e+000	-1.3156621489e+000
 4.5051058496e-001	 1.4656536691e+000	-1.2951520658e+000
 4.3092508440e-001	 1.4019358304e+000	-1.4010781435e+000
 4.1633579699e-001	 1.4063374481e+000	-1.3881107843e+000
 4.0174015248e-001	 1.4105762639e+000	-1.3767827849e+000
 3.8714069672e-001	 1.4146528463e+000	-1.3666250338e+000
 3.7253994969e-001	 1.4185678132e+000	-1.3572303525e+000
 3.5794040438e-001	 1.4223218309e+000	-1.3482467055e+000
 3.4334452582e-001	 1.4259156124e+000	-1.3393706698e+000
 3.2875475001e-001	 1.4293499175e+000	-1.3303411648e+000
 3.1417348300e-001	 1.4326255505e+000	-1.3209334362e+000
 2.9960309996e-001	 1.4357433599e+000	-1.3109532880e+000
 2.8504594434e-001	 1.4387042371e+000	-1.3002315550e+000
 4.3288363445e-001	 1.4083076142e+000	-1.3859135571e+000
 4.1822803889e-001	 1.4127292373e+000	-1.3720244586e+000
 4.0356605733e-001	 1.4169873184e+000	-1.3597098530e+000
 3.8890024719e-001	 1.4210824289e+000	-1.3485368291e+000
 3.7423313991e-001	 1.4250151893e+000	-1.3381355006e+000
 3.5956723982e-001	 1.4287862689e+000	-1.3281921055e+000
 3.4490502314e-001	 1.4323963842e+000	-1.3184423768e+000
 3.3024893695e-001	 1.4358462981e+000	-1.3086651839e+000
 3.1560139823e-001	 1.4391368188e+000	-1.2986764373e+000
 3.0096479296e-001	 1.4422687986e+000	-1.2883232507e+000
 2.8634147521e-001	 1.4452431330e+000	-1.2774783518e+000
 4.3484218451e-001	 1.4146793981e+000	-1.3720515428e+000
 4.2012028078e-001	 1.4191210265e+000	-1.3572570343e+000
 4.0539196217e-001	 1.4233983730e+000	-1.3439880613e+000
 3.9065979766e-001	 1.4275120114e+000	-1.3318448237e+000
 3.7592633013e-001	 1.4314625654e+000	-1.3204914854e+000
 3.6119407526e-001	 1.4352507069e+000	-1.3096491722e+000
 3.4646552046e-001	 1.4388771559e+000	-1.2990892543e+000
 3.3174312389e-001	 1.4423426787e+000	-1.2886269075e+000
 3.1702931346e-001	 1.4456480871e+000	-1.2781149497e+000
 3.0232648595e-001	 1.4487942374e+000	-1.2674379438e+000
 2.8763700608e-001	 1.4517820289e+000	-1.2565065567e+000
 4.3680073457e-001	 1.4210511820e+000	-1.3593848822e+000
 4.2201252268e-001	 1.4255128156e+000	-1.3437147800e+000
 4.0721786701e-001	 1.4298094275e+000	-1.3295353802e+000
 3.9241934812e-001	 1.4339415940e+000	-1.3164769464e+000
 3.7761952035e-001	 1.4379099414e+000	-1.3042344919e+000
 3.6282091070e-001	 1.4417151449e+000	-1.2925606865e+000
 3.4802601779e-001	 1.4453579276e+000	-1.2812590583e+000
 3.3323731083e-001	 1.4488390593e+000	-1.2701774864e+000
 3.1845722870e-001	 1.4521593554e+000	-1.2592019792e+000
 3.0368817894e-001	 1.4553196761e+000	-1.2482507274e+000
 2.8893253695e-001	 1.4583209248e+000	-1.2372684232e+000
 4.3875928462e-001	 1.4274229658e+000	-1.3478062062e+000
 4.2390476457e-001	 1.4319046048e+000	-1.3313036359e+000
 4.0904377185e-001	 1.4362204821e+000	-1.3162693113e+000
 3.9417889859e-001	 1.4403711766e+000	-1.3023605531e+000
 3.7931271058e-001	 1.4443573175e+000	-1.2893000638e+000
 3.6444774614e-001	 1.4481795830e+000	-1.2768687527e+000
 3.4958651511e-001	 1.4518386994e+000	-1.2648988667e+000
 3.3473149777e-001	 1.4553354399e+000	-1.2532674245e+000
 3.1988514393e-001	 1.4586706238e+000	-1.2418899460e+000
 3.0504987194e-001	 1.4618451148e+000	-1.2307144674e+000
 2.9022806782e-001	 1.4648598207e+000	-1.2197158300e+000
 4.4071783468e-001	 1.4337947497e+000	-1.3372080018e+000
 4.2579700647e-001	 1.4382963940e+000	-1.3199292229e+000
 4.1086967669e-001	 1.4426315366e+000	-1.3041068980e+000
 3.9593844906e-001	 1.4468007592e+000	-1.2894224377e+000
 3.8100590080e-001	 1.4508046935e+000	-1.2756231137e+000
 3.6607458158e-001	 1.4546440210e+000	-1.2625148090e+000
 3.5114701243e-001	 1.4583194711e+000	-1.2499550886e+000
 3.3622568471e-001	 1.4618318205e+000	-1.2378465850e+000
 3.2131305916e-001	 1.4651818921e+000	-1.2261306890e+000
 3.0641156493e-001	 1.4683705536e+000	-1.2147815368e+000
 2.9152359870e-001	 1.4713987166e+000	-1.2038002796e+000
 4.4267638473e-001	 1.4401665336e+000	-1.3274826204e+000
 4.2768924837e-001	 1.4446881832e+000	-1.3094968523e+000
 4.1269558154e-001	 1.4490425912e+000	-1.2929647355e+000
 3.9769799952e-001	 1.4532303417e+000	-1.2775888433e+000
 3.8269909102e-001	 1.4572520696e+000	-1.2631379339e+000
 3.6770141702e-001	 1.4611084590e+000	-1.2494396369e+000
 3.5270750975e-001	 1.4648002428e+000	-1.2363734725e+000
 3.3771987166e-001	 1.4683282011e+000	-1.2238641981e+000
 3.2274097440e-001	 1.4716931604e+000	-1.2118754710e+000
 3.0777325792e-001	 1.4748959923e+000	-1.2004038182e+000
 2.9281912957e-001	 1.4779376125e+000	-1.1894728977e+000
 4.4463493479e-001	 1.4465383175e+000	-1.3185222856e+000
 4.2958149026e-001	 1.4510799724e+000	-1.2999115351e+000
 4.1452148638e-001	 1.4554536457e+000	-1.2827589818e+000
 3.9945754999e-001	 1.4596599243e+000	-1.2667854723e+000
 3.8439228124e-001	 1.4636994457e+000	-1.2517782071e+000
 3.6932825246e-001	 1.4675728971e+000	-1.2375833719e+000
 3.5426800708e-001	 1.4712810145e+000	-1.2240991157e+000
 3.3921405860e-001	 1.4748245817e+000	-1.2112688677e+000
 3.2416888963e-001	 1.4782044288e+000	-1.1990749832e+000
 3.0913495092e-001	 1.4814214311e+000	-1.1875327060e+000
 2.9411466044e-001	 1.4844765083e+000	-1.1766844319e+000
 4.4659348485e-001	 1.4529101013e+000	-1.3102191021e+000
 4.3147373216e-001	 1.4574717615e+000	-1.2910779923e+000
 4.1634739122e-001	 1.4618647003e+000	-1.2734053684e+000
 4.0121710046e-001	 1.4660895069e+000	-1.2569374984e+000
 3.8608547147e-001	 1.4701468217e+000	-1.2414770173e+000
 3.7095508790e-001	 1.4740373351e+000	-1.2268855132e+000
 3.5582850440e-001	 1.4777617863e+000	-1.2130764725e+000
 3.4070824554e-001	 1.4813209624e+000	-1.2000085789e+000
 3.2559680487e-001	 1.4847156971e+000	-1.1876793509e+000
 3.1049664391e-001	 1.4879468698e+000	-1.1761191090e+000
 2.9541019131e-001	 1.4910154042e+000	-1.1653852516e+000
 4.4855203490e-001	 1.4592818852e+000	-1.3024650644e+000
 4.3336597406e-001	 1.4638635507e+000	-1.2829006648e+000
 4.1817329607e-001	 1.4682757548e+000	-1.2648192112e+000
 4.0297665093e-001	 1.4725190895e+000	-1.2479695774e+000
 3.8777866169e-001	 1.4765941978e+000	-1.2321668614e+000
 3.7258192334e-001	 1.4805017731e+000	-1.2172849344e+000
 3.5738900172e-001	 1.4842425580e+000	-1.2032493644e+000
 3.4220243249e-001	 1.4878173430e+000	-1.1900307052e+000
 3.2702472010e-001	 1.4912269654e+000	-1.1776381382e+000
 3.1185833691e-001	 1.4944723085e+000	-1.1661134529e+000
 2.9670572218e-001	 1.4975543001e+000	-1.1555253475e+000
 4.5051058496e-001	 1.4656536691e+000	-1.2951520658e+000
 4.3525821595e-001	 1.4702553399e+000	-1.2752837244e+000
 4.1999920091e-001	 1.4746868094e+000	-1.2569154219e+000
 4.0473620139e-001	 1.4789486721e+000	-1.2398058588e+000
 3.8947185191e-001	 1.4830415738e+000	-1.2237796593e+000
 3.7420875878e-001	 1.4869662112e+000	-1.2087198935e+000
 3.5894949905e-001	 1.4907233297e+000	-1.1945609880e+000
 3.4369661943e-001	 1.4943137236e+000	-1.1812820162e+000
 3.2845263534e-001	 1.4977382337e+000	-1.1689003536e+000
 3.1322002990e-001	 1.5009977473e+000	-1.1574656832e+000
 2.9800125306e-001	 1.5040931960e+000	-1.1470543317e+000
 2.8504594434e-001	 1.4387042371e+000	-1.3002315550e+000
 2.7050650628e-001	 1.4415087062e+000	-1.2894320652e+000
 2.5598487495e-001	 1.4441581973e+000	-1.2794134146e+000
 2.4148328948e-001	 1.4466537240e+000	-1.2703095020e+000
 2.2700395425e-001	 1.4489963383e+000	-1.2622376409e+000
 2.1254903826e-001	 1.4511871291e+000	-1.2552941316e+000
 1.9812067448e-001	 1.4532272212e+000	-1.2495500358e+000
 1.8372095932e-001	 1.4551177738e+000	-1.2450471400e+000
 1.6935195202e-001	 1.4568599797e+000	-1.2417940915e+000
 1.5501567423e-001	 1.4584550640e+000	-1.2397626954e+000
 1.4071410950e-001	 1.4599042825e+000	-1.2388843578e+000
 2.8634147521e-001	 1.4452431330e+000	-1.2774783518e+000
 2.7173595555e-001	 1.4480603484e+000	-1.2667380956e+000
 2.5714832356e-001	 1.4507218814e+000	-1.2568484918e+000
 2.4258082854e-001	 1.4532287502e+000	-1.2479186706e+000
 2.2803568488e-001	 1.4555820117e+000	-1.2400420465e+000
 2.1351507144e-001	 1.4577827597e+000	-1.2332919565e+000
 1.9902113090e-001	 1.4598321239e+000	-1.2277175007e+000
 1.8455596918e-001	 1.4617312690e+000	-1.2233395704e+000
 1.7012165489e-001	 1.4634813933e+000	-1.2201470479e+000
 1.5572021887e-001	 1.4650837272e+000	-1.2180931628e+000
 1.4135365367e-001	 1.4665395324e+000	-1.2170919923e+000
 2.8763700608e-001	 1.4517820289e+000	-1.2565065567e+000
 2.7296540483e-001	 1.4546119906e+000	-1.2458442665e+000
 2.5831177217e-001	 1.4572855654e+000	-1.2360837713e+000
 2.4367836759e-001	 1.4598037765e+000	-1.2273124827e+000
 2.2906741550e-001	 1.4621676851e+000	-1.2196030421e+000
 2.1448110462e-001	 1.4643783902e+000	-1.2130090225e+000
 1.9992158732e-001	 1.4664370266e+000	-1.2075608316e+000
 1.8539097904e-001	 1.4683447643e+000	-1.2032618019e+000
 1.7089135777e-001	 1.4701028068e+000	-1.2000844493e+000
 1.5642476351e-001	 1.4717123904e+000	-1.1979668875e+000
 1.4199319784e-001	 1.4731747823e+000	-1.1968093813e+000
 2.8893253695e-001	 1.4583209248e+000	-1.2372684232e+000
 2.7419485410e-001	 1.4611636327e+000	-1.2267016083e+000
 2.5947522078e-001	 1.4638492495e+000	-1.2170702208e+000
 2.4477590665e-001	 1.4663788027e+000	-1.2084429378e+000
 2.3009914613e-001	 1.4687533585e+000	-1.2008746880e+000
 2.1544713780e-001	 1.4709740207e+000	-1.1944024130e+000
 2.0082204374e-001	 1.4730419293e+000	-1.1890410300e+000
 1.8622598890e-001	 1.4749582595e+000	-1.1847795799e+000
 1.7166106064e-001	 1.4767242204e+000	-1.1815775435e+000
 1.5712930814e-001	 1.4783410536e+000	-1.1793613094e+000
 1.4263274201e-001	 1.4798100322e+000	-1.1780207774e+000
 2.9022806782e-001	 1.4648598207e+000	-1.2197158300e+000
 2.7542430338e-001	 1.4677152749e+000	-1.2092609007e+000
 2.6063866939e-001	 1.4704129336e+000	-1.1997586612e+000
 2.4587344570e-001	 1.4729538289e+000	-1.1912619744e+000
 2.3113087676e-001	 1.4753390319e+000	-1.1838110510e+000
 2.1641317099e-001	 1.4775696512e+000	-1.1774292673e+000
 2.0172250015e-001	 1.4796468320e+000	-1.1721191849e+000
 1.8706099876e-001	 1.4815717548e+000	-1.1678587535e+000
 1.7243076351e-001	 1.4833456339e+000	-1.1645976817e+000
 1.5783385278e-001	 1.4849697168e+000	-1.1622539554e+000
 1.4327228618e-001	 1.4864452821e+000	-1.1607104892e+000
 2.9152359870e-001	 1.4713987166e+000	-1.2038002796e+000
 2.7665375265e-001	 1.4742669171e+000	-1.1934726677e+000
 2.6180211801e-001	 1.4769766177e+000	-1.1840997599e+000
 2.4697098476e-001	 1.4795288552e+000	-1.1757214609e+000
 2.3216260738e-001	 1.4819247053e+000	-1.1683661934e+000
 2.1737920417e-001	 1.4841652817e+000	-1.1620467692e+000
 2.0262295657e-001	 1.4862517347e+000	-1.1567564620e+000
 1.8789600862e-001	 1.4881852500e+000	-1.1524652641e+000
 1.7320046638e-001	 1.4899670475e+000	-1.1491163070e+000
 1.5853839741e-001	 1.4915983800e+000	-1.1466224292e+000
 1.4391183035e-001	 1.4930805319e+000	-1.1448628718e+000
 2.9281912957e-001	 1.4779376125e+000	-1.1894728977e+000
 2.7788320193e-001	 1.4808185593e+000	-1.1792871741e+000
 2.6296556662e-001	 1.4835403018e+000	-1.1700440241e+000
 2.4806852381e-001	 1.4861038814e+000	-1.1617731873e+000
 2.3319433801e-001	 1.4885103787e+000	-1.1544941638e+000
 2.1834523735e-001	 1.4907609122e+000	-1.1482121360e+000
 2.0352341299e-001	 1.4928566374e+000	-1.1429140922e+000
 1.8873101848e-001	 1.4947987453e+000	-1.1385651337e+000
 1.7397016925e-001	 1.4965884610e+000	-1.1351049439e+000
 1.5924294205e-001	 1.4982270431e+000	-1.1324444013e+000
 1.4455137453e-001	 1.4997157818e+000	-1.1304623184e+000
 2.9411466044e-001	 1.4844765083e+000	-1.1766844319e+000
 2.7911265120e-001	 1.4873702014e+000	-1.1666544212e+000
 2.6412901523e-001	 1.4901039859e+000	-1.1575417947e+000
 2.4916606286e-001	 1.4926789076e+000	-1.1493688568e+000
 2.3422606863e-001	 1.4950960520e+000	-1.1421489869e+000
 2.1931127053e-001	 1.4973565427e+000	-1.1358826081e+000
 2.0442386940e-001	 1.4994615401e+000	-1.1305533604e+000
 1.8956602834e-001	 1.5014122405e+000	-1.1261244545e+000
 1.7473987212e-001	 1.5032098746e+000	-1.1225351876e+000
 1.5994748668e-001	 1.5048557063e+000	-1.1196975997e+000
 1.4519091870e-001	 1.5063510317e+000	-1.1174932522e+000
 2.9541019131e-001	 1.4910154042e+000	-1.1653852516e+000
 2.8034210048e-001	 1.4939218436e+000	-1.1555241436e+000
 2.6529246384e-001	 1.4966676700e+000	-1.1465432401e+000
 2.5026360192e-001	 1.4992539339e+000	-1.1384600784e+000
 2.3525779926e-001	 1.5016817254e+000	-1.1312846547e+000
 2.2027730371e-001	 1.5039521732e+000	-1.1250154394e+000
 2.0532432582e-001	 1.5060664428e+000	-1.1196355954e+000
 1.9040103820e-001	 1.5080257358e+000	-1.1151093781e+000
 1.7550957499e-001	 1.5098312882e+000	-1.1113786942e+000
 1.6065203132e-001	 1.5114843695e+000	-1.1083598004e+000
 1.4583046287e-001	 1.5129862816e+000	-1.1059401184e+000
 2.9670572218e-001	 1.4975543001e+000	-1.1555253475e+000
 2.8157154976e-001	 1.5004734858e+000	-1.1458458059e+000
 2.6645591245e-001	 1.5032313541e+000	-1.1369983512e+000
 2.5136114097e-001	 1.5058289601e+000	-1.1289983589e+000
 2.3628952988e-001	 1.5082673988e+000	-1.1218551175e+000
 2.2124333689e-001	 1.5105478037e+000	-1.1155678867e+000
 2.0622478224e-001	 1.5126713455e+000	-1.1101221595e+000
 1.9123604806e-001	 1.5146392310e+000	-1.1054861052e+000
 1.7627927786e-001	 1.5164527017e+000	-1.1016071711e+000
 1.6135657595e-001	 1.5181130327e+000	-1.0984088187e+000
 1.4647000704e-001	 1.5196215315e+000	-1.0957873761e+000
 2.9800125306e-001	 1.5040931960e+000	-1.1470543317e+000
 2.8280099903e-001	 1.5070251280e+000	-1.1375686000e+000
 2.6761936106e-001	 1.5097950381e+000	-1.1288569354e+000
 2.5245868003e-001	 1.5124039863e+000	-1.1209350963e+000
 2.3732126051e-001	 1.5148530722e+000	-1.1138142758e+000
 2.2220937007e-001	 1.5171434342e+000	-1.1074972014e+000
 2.0712523865e-001	 1.5192762483e+000	-1.1019744388e+000
 1.9207105792e-001	 1.5212527263e+000	-1.0972208765e+000
 1.7704898073e-001	 1.5230741153e+000	-1.0931923669e+000
 1.6206112059e-001	 1.5247416959e+000	-1.0898225004e+000
 1.4710955121e-001	 1.5262567814e+000	-1.0870194910e+000
 1.4071410950e-001	 1.4599042825e+000	-1.2388843578e+000
 1.2644707071e-001	 1.4612091062e+000	-1.2381613459e+000
 1.1221863753e-001	 1.4623706220e+000	-1.2368539168e+000
 9.8030706392e-002	 1.4633901726e+000	-1.2352097119e+000
 8.3885133317e-002	 1.4642691269e+000	-1.2334223454e+000
 6.9783733633e-002	 1.4650088792e+000	-1.2316276859e+000
 5.5728281765e-002	 1.4656108471e+000	-1.2299002477e+000
 4.1720511047e-002	 1.4660764711e+000	-1.2282496839e+000
 2.7762113580e-002	 1.4664072133e+000	-1.2266173782e+000
 1.3854740119e-002	 1.4666045558e+000	-1.2248731299e+000
 0.0000000000e+000	 1.4666700000e+000	-1.2228119347e+000
 1.4135365367e-001	 1.4665395324e+000	-1.2170919923e+000
 1.2702177134e-001	 1.4678502865e+000	-1.2161775730e+000
 1.1272867008e-001	 1.4690170814e+000	-1.2146664499e+000
 9.8476254938e-002	 1.4700412658e+000	-1.2128275008e+000
 8.4266390379e-002	 1.4709242150e+000	-1.2108767603e+000
 7.0100899979e-002	 1.4716673294e+000	-1.2089736772e+000
 5.5981566227e-002	 1.4722720332e+000	-1.2072174762e+000
 4.1910130337e-002	 1.4727397736e+000	-1.2056436162e+000
 2.7888292098e-002	 1.4730720190e+000	-1.2042203411e+000
 1.3917709769e-002	 1.4732702584e+000	-1.2028453190e+000
 0.0000000000e+000	 1.4733360000e+000	-1.2013423710e+000
 1.4199319784e-001	 1.4731747823e+000	-1.1968093813e+000
 1.2759647197e-001	 1.4744914668e+000	-1.1956821445e+000
 1.1323870262e-001	 1.4756635407e+000	-1.1939594171e+000
 9.8921803484e-002	 1.4766923590e+000	-1.1919302767e+000
 8.4647647441e-002	 1.4775793030e+000	-1.1898320429e+000
 7.0418066325e-002	 1.4783257796e+000	-1.1878465186e+000
 5.6234850690e-002	 1.4789332194e+000	-1.1860963291e+000
 4.2099749626e-002	 1.4794030760e+000	-1.1846413531e+000
 2.8014470616e-002	 1.4797368246e+000	-1.1834752406e+000
 1.3980679419e-002	 1.4799359609e+000	-1.1825220126e+000
 0.0000000000e+000	 1.4800020000e+000	-1.1816327442e+000
 1.4263274201e-001	 1.4798100322e+000	-1.1780207774e+000
 1.2817117260e-001	 1.4811326471e+000	-1.1766653536e+000
 1.1374873517e-001	 1.4823100001e+000	-1.1747270311e+000
 9.9367352029e-002	 1.4833434522e+000	-1.1725140539e+000
 8.5028904502e-002	 1.4842343911e+000	-1.1702838967e+000
 7.0735232671e-002	 1.4849842298e+000	-1.1682394966e+000
 5.6488135153e-002	 1.4855944055e+000	-1.1665255780e+000
 4.2289368916e-002	 1.4860663784e+000	-1.1652250642e+000
 2.8140649134e-002	 1.4864016302e+000	-1.1643555688e+000
 1.4043649068e-002	 1.4866016635e+000	-1.1638659631e+000
 0.0000000000e+000	 1.4866680000e+000	-1.1636330215e+000
 1.4327228618e-001	 1.4864452821e+000	-1.1607104892e+000
 1.2874587322e-001	 1.4877738274e+000	-1.1591175267e+000
 1.1425876771e-001	 1.4889564595e+000	-1.1569635475e+000
 9.9812900574e-002	 1.4899945454e+000	-1.1545749316e+000
 8.5410161564e-002	 1.4908894792e+000	-1.1522281824e+000
 7.1052399017e-002	 1.4916426800e+000	-1.1501461574e+000
 5.6741419615e-002	 1.4922555917e+000	-1.1484943864e+000
 4.2478988206e-002	 1.4927296808e+000	-1.1473774709e+000
 2.8266827652e-002	 1.4930664359e+000	-1.1468355566e+000
 1.4106618718e-002	 1.4932673661e+000	-1.1468408764e+000
 0.0000000000e+000	 1.4933340000e+000	-1.1472943630e+000
 1.4391183035e-001	 1.4930805319e+000	-1.1448628718e+000
 1.2932057385e-001	 1.4944150077e+000	-1.1430290157e+000
 1.1476880026e-001	 1.4956029188e+000	-1.1406632582e+000
 1.0025844912e-001	 1.4966456386e+000	-1.1381090867e+000
 8.5791418626e-002	 1.4975445672e+000	-1.1356609102e+000
 7.1369565363e-002	 1.4983011303e+000	-1.1335602976e+000
 5.6994704078e-002	 1.4989167779e+000	-1.1319922973e+000
 4.2668607496e-002	 1.4993929832e+000	-1.1310818311e+000
 2.8393006170e-002	 1.4997312415e+000	-1.1308901562e+000
 1.4169588368e-002	 1.4999330686e+000	-1.1314113897e+000
 0.0000000000e+000	 1.5000000000e+000	-1.1325690961e+000
 1.4455137453e-001	 1.4997157818e+000	-1.1304623184e+000
 1.2989527448e-001	 1.5010561880e+000	-1.1283901907e+000
 1.1527883281e-001	 1.5022493782e+000	-1.1258204846e+000
 1.0070399766e-001	 1.5032967318e+000	-1.1231127665e+000
 8.6172675688e-002	 1.5041996553e+000	-1.1205782313e+000
 7.1686731709e-002	 1.5049595805e+000	-1.1184759547e+000
 5.7247988541e-002	 1.5055779640e+000	-1.1170092222e+000
 4.2858226786e-002	 1.5060562856e+000	-1.1163219262e+000
 2.8519184688e-002	 1.5063960471e+000	-1.1164950237e+000
 1.4232558018e-002	 1.5065987712e+000	-1.1175430501e+000
 0.0000000000e+000	 1.5066660000e+000	-1.1194106890e+000
 1.4519091870e-001	 1.5063510317e+000	-1.1174932522e+000
 1.3046997511e-001	 1.5076973683e+000	-1.1151914330e+000
 1.1578886535e-001	 1.5088958376e+000	-1.1124295702e+000
 1.0114954621e-001	 1.5099478251e+000	-1.1095822822e+000
 8.6553932750e-002	 1.5108547433e+000	-1.1069764309e+000
 7.2003898056e-002	 1.5116180307e+000	-1.1048873979e+000
 5.7501273004e-002	 1.5122391502e+000	-1.1035354300e+000
 4.3047846077e-002	 1.5127195880e+000	-1.1030820466e+000
 2.8645363207e-002	 1.5130608528e+000	-1.1036265019e+000
 1.4295527669e-002	 1.5132644737e+000	-1.1052022944e+000
 0.0000000000e+000	 1.5133320000e+000	-1.1077737256e+000
 1.4583046287e-001	 1.5129862816e+000	-1.1059401184e+000
 1.3104467573e-001	 1.5143385486e+000	-1.1034231278e+000
 1.1629889790e-001	 1.5155422969e+000	-1.1004848749e+000
 1.0159509476e-001	 1.5165989183e+000	-1.0975140020e+000
 8.6935189812e-002	 1.5175098314e+000	-1.0948519208e+000
 7.2321064403e-002	 1.5182764809e+000	-1.0927891201e+000
 5.7754557468e-002	 1.5189003363e+000	-1.0915615362e+000
 4.3237465367e-002	 1.5193828904e+000	-1.0913469789e+000
 2.8771541725e-002	 1.5197256584e+000	-1.0922616043e+000
 1.4358497319e-002	 1.5199301763e+000	-1.0943564284e+000
 0.0000000000e+000	 1.5199980000e+000	-1.0976138813e+000
 1.4647000704e-001	 1.5196215315e+000	-1.0957873761e+000
 1.3161937636e-001	 1.5209797289e+000	-1.0930756576e+000
 1.1680893044e-001	 1.5221887563e+000	-1.0899807683e+000
 1.0204064330e-001	 1.5232500115e+000	-1.0869043448e+000
 8.7316446875e-002	 1.5241649194e+000	-1.0842012318e+000
 7.2638230750e-002	 1.5249349311e+000	-1.0821758285e+000
 5.8007841932e-002	 1.5255615225e+000	-1.0810784927e+000
 4.3427084659e-002	 1.5260461929e+000	-1.0811019928e+000
 2.8897720245e-002	 1.5263904640e+000	-1.0823779989e+000
 1.4421466970e-002	 1.5265958788e+000	-1.0849736077e+000
 0.0000000000e+000	 1.5266640000e+000	-1.0888878992e+000
 1.4710955121e-001	 1.5262567814e+000	-1.0870194910e+000
 1.3219407699e-001	 1.5276209091e+000	-1.0841393960e+000
 1.1731896299e-001	 1.5288352157e+000	-1.0809116237e+000
 1.0248619185e-001	 1.5299011047e+000	-1.0777497740e+000
 8.7697703938e-002	 1.5308200075e+000	-1.0750210069e+000
 7.2955397098e-002	 1.5315933814e+000	-1.0730424367e+000
 5.8261126397e-002	 1.5322227086e+000	-1.0720775774e+000
 4.3616703950e-002	 1.5327094953e+000	-1.0723328285e+000
 2.9023898764e-002	 1.5330552697e+000	-1.0739539926e+000
 1.4484436621e-002	 1.5332615814e+000	-1.0770228182e+000
 0.0000000000e+000	 1.5333300000e+000	-1.0815535667e+000
 1.5333300000e+000	 0.0000000000e+000	 3.4653460131e+000
 1.5332615814e+000	 1.4484436621e-002	 3.4648446216e+000
 1.5330552697e+000	 2.9023898764e-002	 3.4614597679e+000
 1.5327094953e+000	 4.3616703950e-002	 3.4553433921e+000
 1.5322227086e+000	 5.8261126397e-002	 3.4466121931e+000
 1.5315933814e+000	 7.2955397098e-002	 3.4353488444e+000
 1.5308200075e+000	 8.7697703938e-002	 3.4216032449e+000
 1.5299011047e+000	 1.0248619185e-001	 3.4053938138e+000
 1.5288352157e+000	 1.1731896299e-001	 3.3867088443e+000
 1.5276209091e+000	 1.3219407699e-001	 3.3655079281e+000
 1.5262567814e+000	 1.4710955121e-001	 3.3417234697e+000
 1.5399970000e+000	 0.0000000000e+000	 3.4606596812e+000
 1.5399282839e+000	 1.4547415718e-002	 3.4603444756e+000
 1.5397210751e+000	 2.9150096213e-002	 3.4570435495e+000
 1.5393737973e+000	 4.3806351688e-002	 3.4509305682e+000
 1.5388848941e+000	 5.8514448858e-002	 3.4421444288e+000
 1.5382528304e+000	 7.3272611026e-002	 3.4307904215e+000
 1.5374760939e+000	 8.8079018197e-002	 3.4169414154e+000
 1.5365531957e+000	 1.0293180723e-001	 3.4006390822e+000
 1.5354826721e+000	 1.1782907205e-001	 3.3818951690e+000
 1.5342630857e+000	 1.3276886383e-001	 3.3606928357e+000
 1.5328930266e+000	 1.4774919132e-001	 3.3369880741e+000
 1.5466640000e+000	 0.0000000000e+000	 3.4544108231e+000
 1.5465949864e+000	 1.4610394816e-002	 3.4542783970e+000
 1.5463868806e+000	 2.9276293662e-002	 3.4510698812e+000
 1.5460380993e+000	 4.3995999427e-002	 3.4449788632e+000
 1.5455470795e+000	 5.8767771321e-002	 3.4361646381e+000
 1.5449122795e+000	 7.3589824954e-002	 3.4247533135e+000
 1.5441321803e+000	 8.8460332455e-002	 3.4108389325e+000
 1.5432052867e+000	 1.0337742262e-001	 3.3944846248e+000
 1.5421301285e+000	 1.1833918111e-001	 3.3757237990e+000
 1.5409052623e+000	 1.3334365067e-001	 3.3545613923e+000
 1.5395292719e+000	 1.4838883144e-001	 3.3309751939e+000
 1.5533310000e+000	 0.0000000000e+000	 3.4465912053e+000
 1.5532616889e+000	 1.4673373914e-002	 3.4466387027e+000
 1.5530526860e+000	 2.9402491111e-002	 3.4435311672e+000
 1.5527024013e+000	 4.4185647165e-002	 3.4374803342e+000
 1.5522092650e+000	 5.9021093783e-002	 3.4286641247e+000
 1.5515717286e+000	 7.3907038883e-002	 3.4172276964e+000
 1.5507882667e+000	 8.8841646714e-002	 3.4032845024e+000
 1.5498573777e+000	 1.0382303801e-001	 3.3869173700e+000
 1.5487775850e+000	 1.1884929017e-001	 3.3681796127e+000
 1.5475474389e+000	 1.3391843752e-001	 3.3470961907e+000
 1.5461655172e+000	 1.4902847155e-001	 3.3236649383e+000
 1.5599980000e+000	 0.0000000000e+000	 3.4371919399e+000
 1.5599283914e+000	 1.4736353012e-002	 3.4374171756e+000
 1.5597184915e+000	 2.9528688561e-002	 3.4344193946e+000
 1.5593667033e+000	 4.4375294904e-002	 3.4284267327e+000
 1.5588714504e+000	 5.9274416246e-002	 3.4196339950e+000
 1.5582311777e+000	 7.4224252813e-002	 3.4082036524e+000
 1.5574443532e+000	 8.9222960974e-002	 3.3942668364e+000
 1.5565094686e+000	 1.0426865339e-001	 3.3779243458e+000
 1.5554250414e+000	 1.1935939923e-001	 3.3592476770e+000
 1.5541896154e+000	 1.3449322436e-001	 3.3382800957e+000
 1.5528017624e+000	 1.4966811167e-001	 3.3150377675e+000
 1.5666650000e+000	 0.0000000000e+000	 3.4262034986e+000
 1.5665950939e+000	 1.4799332110e-002	 3.4266050778e+000
 1.5663842970e+000	 2.9654886010e-002	 3.4237261447e+000
 1.5660310053e+000	 4.4564942644e-002	 3.4178095159e+000
 1.5655336358e+000	 5.9527738709e-002	 3.4090651676e+000
 1.5648906268e+000	 7.4541466742e-002	 3.3976711778e+000
 1.5641004396e+000	 8.9604275233e-002	 3.3837746573e+000
 1.5631615596e+000	 1.0471426878e-001	 3.3674926836e+000
 1.5620724979e+000	 1.1986950829e-001	 3.3489132498e+000
 1.5608317920e+000	 1.3506801120e-001	 3.3280962460e+000
 1.5594380077e+000	 1.5030775178e-001	 3.3050744925e+000
 1.5733320000e+000	 0.0000000000e+000	 3.4136157265e+000
 1.5732617965e+000	 1.4862311208e-002	 3.4141931627e+000
 1.5730501024e+000	 2.9781083460e-002	 3.4114426043e+000
 1.5726953074e+000	 4.4754590383e-002	 3.4056198563e+000
 1.5721958213e+000	 5.9781061172e-002	 3.3969483818e+000
 1.5715500759e+000	 7.4858680672e-002	 3.3856201903e+000
 1.5707565260e+000	 8.9985589493e-002	 3.3717967050e+000
 1.5698136506e+000	 1.0515988417e-001	 3.3556096231e+000
 1.5687199543e+000	 1.2037961735e-001	 3.3371617831e+000
 1.5674739686e+000	 1.3564279805e-001	 3.3165280551e+000
 1.5660742530e+000	 1.5094739189e-001	 3.2937562753e+000
 1.5799990000e+000	 0.0000000000e+000	 3.3994178549e+000
 1.5799284990e+000	 1.4925290306e-002	 3.4001716876e+000
 1.5797159079e+000	 2.9907280909e-002	 3.3975595772e+000
 1.5793596094e+000	 4.4944238122e-002	 3.3918486516e+000
 1.5788580067e+000	 6.0034383635e-002	 3.3832742058e+000
 1.5782095250e+000	 7.5175894602e-002	 3.3720405359e+000
 1.5774126124e+000	 9.0366903753e-002	 3.3583217422e+000
 1.5764657416e+000	 1.0560549956e-001	 3.3422625165e+000
 1.5753674108e+000	 1.2088972641e-001	 3.3239789261e+000
 1.5741161452e+000	 1.3621758489e-001	 3.3035592131e+000
 1.5727104983e+000	 1.5158703201e-001	 3.2810646286e+000
 1.5866660000e+000	 0.0000000000e+000	 3.3835985145e+000
 1.5865952015e+000	 1.4988269404e-002	 3.3845304252e+000
 1.5863817133e+000	 3.0033478359e-002	 3.3820674944e+000
 1.5860239114e+000	 4.5133885861e-002	 3.3764865344e+000
 1.5855201922e+000	 6.0287706098e-002	 3.3680330458e+000
 1.5848689741e+000	 7.5493108531e-002	 3.3569219962e+000
 1.5840686988e+000	 9.0748218013e-002	 3.3433385603e+000
 1.5831178326e+000	 1.0605111494e-001	 3.3274388325e+000
 1.5820148672e+000	 1.2139983547e-001	 3.3093505277e+000
 1.5807583217e+000	 1.3679237173e-001	 3.2891736879e+000
 1.5793467435e+000	 1.5222667212e-001	 3.2669814157e+000
 1.5933330000e+000	 0.0000000000e+000	 3.3661457480e+000
 1.5932619040e+000	 1.5051248502e-002	 3.3672586754e+000
 1.5930475188e+000	 3.0159675808e-002	 3.3649564247e+000
 1.5926882134e+000	 4.5323533600e-002	 3.3595238814e+000
 1.5921823776e+000	 6.0541028561e-002	 3.3512151531e+000
 1.5915284232e+000	 7.5810322461e-002	 3.3402542951e+000
 1.5907247853e+000	 9.1129532272e-002	 3.3268359849e+000
 1.5897699236e+000	 1.0649673033e-001	 3.3111261610e+000
 1.5886623236e+000	 1.2190994454e-001	 3.2932626392e+000
 1.5874004983e+000	 1.3736715858e-001	 3.2733557262e+000
 1.5859829888e+000	 1.5286631224e-001	 3.2514888501e+000
 1.6000000000e+000	 0.0000000000e+000	 3.3470470222e+000
 1.5999286065e+000	 1.5114227599e-002	 3.3483452766e+000
 1.5997133243e+000	 3.0285873257e-002	 3.3462160854e+000
 1.5993525154e+000	 4.5513181338e-002	 3.3409508224e+000
 1.5988445630e+000	 6.0794351023e-002	 3.3328106330e+000
 1.5981878723e+000	 7.6127536390e-002	 3.3220271054e+000
 1.5973808717e+000	 9.1510846532e-002	 3.3088028806e+000
 1.5964220145e+000	 1.0694234572e-001	 3.2933122161e+000
 1.5953097801e+000	 1.2242005360e-001	 3.2757015169e+000
 1.5940426749e+000	 1.3794194542e-001	 3.2560898548e+000
 1.5926192341e+000	 1.5350595236e-001	 3.2345694954e+000
 1.5262567814e+000	 1.4710955121e-001	 3.3417234697e+000
 1.5247416959e+000	 1.6206112059e-001	 3.3146567738e+000
 1.5230741153e+000	 1.7704898073e-001	 3.2838996466e+000
 1.5212527263e+000	 1.9207105792e-001	 3.2497898411e+000
 1.5192762483e+000	 2.0712523865e-001	 3.2126362228e+000
 1.5171434342e+000	 2.2220937007e-001	 3.1727199351e+000
 1.5148530722e+000	 2.3732126051e-001	 3.1302957780e+000
 1.5124039863e+000	 2.5245868003e-001	 3.0855938319e+000
 1.5097950381e+000	 2.6761936106e-001	 3.0388213597e+000
 1.5070251280e+000	 2.8280099903e-001	 2.9901650208e+000
 1.5040931960e+000	 2.9800125306e-001	 2.9397934328e+000
 1.5328930266e+000	 1.4774919132e-001	 3.3369880741e+000
 1.5313713535e+000	 1.6276577092e-001	 3.3100209579e+000
 1.5296965221e+000	 1.7781879906e-001	 3.2793115183e+000
 1.5278672136e+000	 1.9290619304e-001	 3.2452049055e+000
 1.5258821418e+000	 2.0802583015e-001	 3.2080169420e+000
 1.5237400542e+000	 2.2317554817e-001	 3.1680351862e+000
 1.5214397336e+000	 2.3835314591e-001	 3.1255202073e+000
 1.5189799989e+000	 2.5355638373e-001	 3.0807071049e+000
 1.5163597069e+000	 2.6878298421e-001	 3.0338073067e+000
 1.5135777530e+000	 2.8403063274e-001	 2.9850106795e+000
 1.5106330729e+000	 2.9929697828e-001	 2.9344879907e+000
 1.5395292719e+000	 1.4838883144e-001	 3.3309751939e+000
 1.5380010111e+000	 1.6347042125e-001	 3.3041434972e+000
 1.5363189290e+000	 1.7858861740e-001	 3.2735159069e+000
 1.5344817010e+000	 1.9374132817e-001	 3.2394460330e+000
 1.5324880353e+000	 2.0892642165e-001	 3.2022577418e+000
 1.5303366742e+000	 2.2414172628e-001	 3.1622461131e+000
 1.5280263949e+000	 2.3938503131e-001	 3.1196786064e+000
 1.5255560115e+000	 2.5465408743e-001	 3.0747964698e+000
 1.5229243756e+000	 2.6994660735e-001	 3.0278164276e+000
 1.5201303780e+000	 2.8526026646e-001	 2.9789326828e+000
 1.5171729497e+000	 3.0059270350e-001	 2.9283192713e+000
 1.5461655172e+000	 1.4902847155e-001	 3.3236649383e+000
 1.5446306687e+000	 1.6417507157e-001	 3.2970018291e+000
 1.5429413359e+000	 1.7935843574e-001	 3.2664873762e+000
 1.5410961884e+000	 1.9457646329e-001	 3.2324847153e+000
 1.5390939289e+000	 2.0982701315e-001	 3.1953268486e+000
 1.5369332941e+000	 2.2510790438e-001	 3.1553174893e+000
 1.5346130562e+000	 2.4041691671e-001	 3.1127321133e+000
 1.5321320241e+000	 2.5575179114e-001	 3.0678192522e+000
 1.5294890444e+000	 2.7111023050e-001	 3.0208020649e+000
 1.5266830031e+000	 2.8648990017e-001	 2.9718802244e+000
 1.5237128265e+000	 3.0188842872e-001	 2.9212321606e+000
 1.5528017624e+000	 1.4966811167e-001	 3.3150377675e+000
 1.5512603263e+000	 1.6487972190e-001	 3.2885738165e+000
 1.5495637428e+000	 1.8012825408e-001	 3.2582009852e+000
 1.5477106758e+000	 1.9541159842e-001	 3.2242930066e+000
 1.5456998224e+000	 2.1072760465e-001	 3.1871931158e+000
 1.5435299141e+000	 2.2607408248e-001	 3.1472147771e+000
 1.5411997176e+000	 2.4144880211e-001	 3.1046426152e+000
 1.5387080367e+000	 2.5684949484e-001	 3.0597335866e+000
 1.5360537131e+000	 2.7227385365e-001	 3.0127184287e+000
 1.5332356281e+000	 2.8771953388e-001	 2.9638034257e+000
 1.5302527034e+000	 3.0318415394e-001	 2.9131725317e+000
 1.5594380077e+000	 1.5030775178e-001	 3.3050744925e+000
 1.5578899840e+000	 1.6558437223e-001	 3.2788377455e+000
 1.5561861496e+000	 1.8089807241e-001	 3.2486322851e+000
 1.5543251632e+000	 1.9624673354e-001	 3.2148435185e+000
 1.5523057160e+000	 2.1162819615e-001	 3.1778260168e+000
 1.5501265340e+000	 2.2704026058e-001	 3.1379041194e+000
 1.5477863789e+000	 2.4248068751e-001	 3.0953727388e+000
 1.5452840493e+000	 2.5794719854e-001	 3.0504984047e+000
 1.5426183819e+000	 2.7343747679e-001	 3.0035205841e+000
 1.5397882531e+000	 2.8894916759e-001	 2.9546533199e+000
 1.5367925802e+000	 3.0447987916e-001	 2.9040872288e+000
 1.5660742530e+000	 1.5094739189e-001	 3.2937562753e+000
 1.5645196416e+000	 1.6628902256e-001	 3.2677723242e+000
 1.5628085565e+000	 1.8166789075e-001	 3.2377573162e+000
 1.5609396505e+000	 1.9708186867e-001	 3.2041094155e+000
 1.5589116095e+000	 2.1252878765e-001	 3.1671956388e+000
 1.5567231540e+000	 2.2800643868e-001	 3.1273523316e+000
 1.5543730403e+000	 2.4351257291e-001	 3.0848858406e+000
 1.5518600618e+000	 2.5904490225e-001	 3.0400734242e+000
 1.5491830506e+000	 2.7460109994e-001	 2.9931644379e+000
 1.5463408782e+000	 2.9017880130e-001	 2.9443818387e+000
 1.5433324570e+000	 3.0577560439e-001	 2.8939240509e+000
 1.5727104983e+000	 1.5158703201e-001	 3.2810646286e+000
 1.5711492992e+000	 1.6699367289e-001	 3.2553566810e+000
 1.5694309634e+000	 1.8243770909e-001	 3.2255526048e+000
 1.5675541379e+000	 1.9791700379e-001	 3.1920644103e+000
 1.5655175031e+000	 2.1342937915e-001	 3.1552726768e+000
 1.5633197740e+000	 2.2897261678e-001	 3.1155268941e+000
 1.5609597016e+000	 2.4454445832e-001	 3.0731459976e+000
 1.5584360744e+000	 2.6014260595e-001	 3.0284191380e+000
 1.5557477194e+000	 2.7576472309e-001	 2.9816067264e+000
 1.5528935032e+000	 2.9140843502e-001	 2.9329417972e+000
 1.5498723339e+000	 3.0707132961e-001	 2.8826317359e+000
 1.5793467435e+000	 1.5222667212e-001	 3.2669814157e+000
 1.5777789568e+000	 1.6769832322e-001	 3.2415703630e+000
 1.5760533703e+000	 1.8320752743e-001	 3.2119951597e+000
 1.5741686253e+000	 1.9875213892e-001	 3.1786827590e+000
 1.5721233966e+000	 2.1432997065e-001	 3.1420284270e+000
 1.5699163939e+000	 2.2993879489e-001	 3.1023959445e+000
 1.5675463630e+000	 2.4557634372e-001	 3.0601179981e+000
 1.5650120870e+000	 2.6124030965e-001	 3.0154968035e+000
 1.5623123881e+000	 2.7692834623e-001	 2.9688050029e+000
 1.5594461282e+000	 2.9263806873e-001	 2.9202868806e+000
 1.5564122107e+000	 3.0836705483e-001	 2.8701599453e+000
 1.5859829888e+000	 1.5286631224e-001	 3.2514888501e+000
 1.5844086144e+000	 1.6840297355e-001	 3.2263933339e+000
 1.5826757771e+000	 1.8397734577e-001	 3.1970624694e+000
 1.5807831127e+000	 1.9958727404e-001	 3.1639392565e+000
 1.5787292902e+000	 2.1523056215e-001	 3.1274347810e+000
 1.5765130139e+000	 2.3090497299e-001	 3.0879282698e+000
 1.5741330243e+000	 2.4660822912e-001	 3.0457673325e+000
 1.5715880996e+000	 2.6233801336e-001	 3.0012684315e+000
 1.5688770568e+000	 2.7809196938e-001	 2.9547176252e+000
 1.5659987532e+000	 2.9386770244e-001	 2.9063716298e+000
 1.5629520875e+000	 3.0966278005e-001	 2.8564592483e+000
 1.5926192341e+000	 1.5350595236e-001	 3.2345694954e+000
 1.5910382720e+000	 1.6910762388e-001	 3.2098059727e+000
 1.5892981840e+000	 1.8474716411e-001	 3.1807324987e+000
 1.5873976000e+000	 2.0042240917e-001	 3.1478092320e+000
 1.5853351837e+000	 2.1613115365e-001	 3.1114642196e+000
 1.5831096338e+000	 2.3187115109e-001	 3.0720932991e+000
 1.5807196856e+000	 2.4764011452e-001	 3.0300601843e+000
 1.5781641122e+000	 2.6343571706e-001	 2.9856967760e+000
 1.5754417256e+000	 2.7925559253e-001	 2.9393037441e+000
 1.5725513783e+000	 2.9509733616e-001	 2.8911514281e+000
 1.5694919644e+000	 3.1095850527e-001	 2.8414811070e+000
 1.5040931960e+000	 2.9800125306e-001	 2.9397934328e+000
 1.5009977473e+000	 3.1322002990e-001	 2.8871471550e+000
 1.4977382337e+000	 3.2845263534e-001	 2.8314521563e+000
 1.4943137236e+000	 3.4369661943e-001	 2.7725155957e+000
 1.4907233297e+000	 3.5894949905e-001	 2.7101422730e+000
 1.4869662112e+000	 3.7420875878e-001	 2.6441400281e+000
 1.4830415738e+000	 3.8947185191e-001	 2.5743257142e+000
 1.4789486721e+000	 4.0473620139e-001	 2.5005317793e+000
 1.4746868094e+000	 4.1999920091e-001	 2.4226134857e+000
 1.4702553399e+000	 4.3525821595e-001	 2.3404567960e+000
 1.4656536691e+000	 4.5051058496e-001	 2.2539869533e+000
 1.5106330729e+000	 2.9929697828e-001	 2.9344879907e+000
 1.5075241649e+000	 3.1458192717e-001	 2.8816986842e+000
 1.5042504789e+000	 3.2988076478e-001	 2.8258797471e+000
 1.5008110787e+000	 3.4519103052e-001	 2.7668268887e+000
 1.4972050737e+000	 3.6051023047e-001	 2.7043322492e+000
 1.4934316190e+000	 3.7583583827e-001	 2.6381897572e+000
 1.4894899171e+000	 3.9116529614e-001	 2.5682010731e+000
 1.4853792192e+000	 4.0649601582e-001	 2.4941821535e+000
 1.4810988257e+000	 4.2182537966e-001	 2.4159704679e+000
 1.4766480879e+000	 4.3715074171e-001	 2.3334328997e+000
 1.4720264088e+000	 4.5246942883e-001	 2.2464743560e+000
 1.5171729497e+000	 3.0059270350e-001	 2.9283192713e+000
 1.5140505826e+000	 3.1594382444e-001	 2.8754566819e+000
 1.5107627240e+000	 3.3130889422e-001	 2.8195930490e+000
 1.5073084339e+000	 3.4668544162e-001	 2.7605106940e+000
 1.5036868176e+000	 3.6207096189e-001	 2.6979871182e+000
 1.4998970267e+000	 3.7746291776e-001	 2.6318003171e+000
 1.4959382604e+000	 3.9285874037e-001	 2.5617346932e+000
 1.4918097663e+000	 4.0825583025e-001	 2.4875876026e+000
 1.4875108420e+000	 4.2365155842e-001	 2.4091765697e+000
 1.4830408360e+000	 4.3904326747e-001	 2.3263472009e+000
 1.4783991485e+000	 4.5442827270e-001	 2.2389818273e+000
 1.5237128265e+000	 3.0188842872e-001	 2.9212321606e+000
 1.5205770003e+000	 3.1730572171e-001	 2.8683616783e+000
 1.5172749691e+000	 3.3273702367e-001	 2.8125283281e+000
 1.5138057891e+000	 3.4817985271e-001	 2.7534991494e+000
 1.5101685616e+000	 3.6363169331e-001	 2.6910350685e+000
 1.5063624345e+000	 3.7908999725e-001	 2.6248961687e+000
 1.5023866036e+000	 3.9455218459e-001	 2.5548475719e+000
 1.4982403134e+000	 4.1001564467e-001	 2.4806659661e+000
 1.4939228583e+000	 4.2547773718e-001	 2.4021468175e+000
 1.4894335840e+000	 4.4093579324e-001	 2.3191122984e+000
 1.4847718883e+000	 4.5638711657e-001	 2.2314199606e+000
 1.5302527034e+000	 3.0318415394e-001	 2.9131725317e+000
 1.5271034179e+000	 3.1866761898e-001	 2.8603552508e+000
 1.5237872142e+000	 3.3416515311e-001	 2.8046229559e+000
 1.5203031443e+000	 3.4967426380e-001	 2.7457255537e+000
 1.5166503055e+000	 3.6519242473e-001	 2.6834055028e+000
 1.5128278423e+000	 3.8071707674e-001	 2.6174030388e+000
 1.5088349469e+000	 3.9624562882e-001	 2.5474620214e+000
 1.5046708605e+000	 4.1177545910e-001	 2.4733364446e+000
 1.5003348746e+000	 4.2730391593e-001	 2.3947976440e+000
 1.4958263321e+000	 4.4282831900e-001	 2.3116422381e+000
 1.4911446280e+000	 4.5834596044e-001	 2.2237008349e+000
 1.5367925802e+000	 3.0447987916e-001	 2.9040872288e+000
 1.5336298356e+000	 3.2002951624e-001	 2.8513800060e+000
 1.5302994594e+000	 3.3559328256e-001	 2.7958153890e+000
 1.5268004994e+000	 3.5116867490e-001	 2.7371243451e+000
 1.5231320495e+000	 3.6675315615e-001	 2.6750290161e+000
 1.5192932501e+000	 3.8234415623e-001	 2.6092478959e+000
 1.5152832902e+000	 3.9793907305e-001	 2.5395016439e+000
 1.5111014076e+000	 4.1353527353e-001	 2.4655195744e+000
 1.5067468909e+000	 4.2913009469e-001	 2.3870468598e+000
 1.5022190801e+000	 4.4472084476e-001	 2.3038524849e+000
 1.4975173677e+000	 4.6030480431e-001	 2.2157379859e+000
 1.5433324570e+000	 3.0577560439e-001	 2.8939240509e+000
 1.5401562532e+000	 3.2139141351e-001	 2.8413795620e+000
 1.5368117045e+000	 3.3702141200e-001	 2.7860451503e+000
 1.5332978546e+000	 3.5266308599e-001	 2.7276310809e+000
 1.5296137934e+000	 3.6831388757e-001	 2.6658373725e+000
 1.5257586579e+000	 3.8397123572e-001	 2.6003589269e+000
 1.5217316334e+000	 3.9963251728e-001	 2.5308913063e+000
 1.5175319547e+000	 4.1529508795e-001	 2.4571372007e+000
 1.5131589072e+000	 4.3095627345e-001	 2.3788136269e+000
 1.5086118281e+000	 4.4661337052e-001	 2.2956598946e+000
 1.5038901075e+000	 4.6226364818e-001	 2.2074463778e+000
 1.5498723339e+000	 3.0707132961e-001	 2.8826317359e+000
 1.5466826709e+000	 3.2275331078e-001	 2.8302985306e+000
 1.5433239496e+000	 3.3844954144e-001	 2.7752528095e+000
 1.5397952098e+000	 3.5415749708e-001	 2.7171824163e+000
 1.5360955374e+000	 3.6987461900e-001	 2.6557634839e+000
 1.5322240657e+000	 3.8559831521e-001	 2.5906655138e+000
 1.5281799767e+000	 4.0132596150e-001	 2.5215571158e+000
 1.5239625018e+000	 4.1705490238e-001	 2.4481124527e+000
 1.5195709235e+000	 4.3278245220e-001	 2.3700184325e+000
 1.5150045762e+000	 4.4850589628e-001	 2.2869826873e+000
 1.5102628472e+000	 4.6422249205e-001	 2.1987423756e+000
 1.5564122107e+000	 3.0836705483e-001	 2.8701599453e+000
 1.5532090886e+000	 3.2411520805e-001	 2.8180825005e+000
 1.5498361947e+000	 3.3987767089e-001	 2.7633799648e+000
 1.5462925649e+000	 3.5565190818e-001	 2.7057160846e+000
 1.5425772813e+000	 3.7143535042e-001	 2.6447413879e+000
 1.5386894735e+000	 3.8722539471e-001	 2.5800982103e+000
 1.5346283200e+000	 4.0301940573e-001	 2.5114263961e+000
 1.5303930489e+000	 4.1881471681e-001	 2.4383697181e+000
 1.5259829398e+000	 4.3460863096e-001	 2.3605830628e+000
 1.5213973242e+000	 4.5039842204e-001	 2.2777404202e+000
 1.5166355869e+000	 4.6618133592e-001	 2.1895437176e+000
 1.5629520875e+000	 3.0966278005e-001	 2.8564592483e+000
 1.5597355062e+000	 3.2547710532e-001	 2.8046780200e+000
 1.5563484398e+000	 3.4130580033e-001	 2.7503692239e+000
 1.5527899201e+000	 3.5714631927e-001	 2.6931708774e+000
 1.5490590253e+000	 3.7299608184e-001	 2.6327062270e+000
 1.5451548813e+000	 3.8885247420e-001	 2.5685887201e+000
 1.5410766632e+000	 4.0471284996e-001	 2.5004276635e+000
 1.5368235960e+000	 4.2057453123e-001	 2.4278346187e+000
 1.5323949561e+000	 4.3643480972e-001	 2.3504305774e+000
 1.5277900723e+000	 4.5229094781e-001	 2.2678539616e+000
 1.5230083267e+000	 4.6814017979e-001	 2.1797694884e+000
 1.5694919644e+000	 3.1095850527e-001	 2.8414811070e+000
 1.5662619239e+000	 3.2683900259e-001	 2.7900325804e+000
 1.5628606849e+000	 3.4273392977e-001	 2.7361641861e+000
 1.5592872753e+000	 3.5864073036e-001	 2.6794866244e+000
 1.5555407692e+000	 3.7455681326e-001	 2.6195942276e+000
 1.5516202891e+000	 3.9047955369e-001	 2.5560698739e+000
 1.5475250065e+000	 4.0640629419e-001	 2.4884906038e+000
 1.5432541432e+000	 4.2233434566e-001	 2.4164339861e+000
 1.5388069724e+000	 4.3826098847e-001	 2.3394852842e+000
 1.5341828203e+000	 4.5418347357e-001	 2.2572454650e+000
 1.5293810664e+000	 4.7009902366e-001	 2.1693400931e+000
 1.4656536691e+000	 4.5051058496e-001	 2.2539869533e+000
 1.4608812546e+000	 4.6575362026e-001	 2.1649934216e+000
 1.4559376062e+000	 4.8098460859e-001	 2.0753398097e+000
 1.4508222877e+000	 4.9620081298e-001	 1.9851575038e+000
 1.4455349184e+000	 5.1139947426e-001	 1.8946675583e+000
 1.4400751738e+000	 5.2657781239e-001	 1.8041934788e+000
 1.4344427869e+000	 5.4173302785e-001	 1.7141747647e+000
 1.4286375485e+000	 5.5686230299e-001	 1.6251812032e+000
 1.4226593082e+000	 5.7196280356e-001	 1.5379279014e+000
 1.4165079754e+000	 5.8703168008e-001	 1.4532910351e+000
 1.4101835197e+000	 6.0206606944e-001	 1.3723242871e+000
 1.4720264088e+000	 4.5246942883e-001	 2.2464743560e+000
 1.4672332436e+000	 4.6777874166e-001	 2.1569195504e+000
 1.4622680999e+000	 4.8307595513e-001	 2.0666911514e+000
 1.4571305398e+000	 4.9835832038e-001	 1.9759345494e+000
 1.4518201807e+000	 5.1362306624e-001	 1.8848842388e+000
 1.4463366969e+000	 5.2886740059e-001	 1.7938766828e+000
 1.4406798201e+000	 5.4408851173e-001	 1.7033639609e+000
 1.4348493402e+000	 5.5928356976e-001	 1.6139281913e+000
 1.4288451062e+000	 5.7444972810e-001	 1.5262967158e+000
 1.4226670271e+000	 5.8958412489e-001	 1.4413580274e+000
 1.4163150723e+000	 6.0468388457e-001	 1.3601784114e+000
 1.4783991485e+000	 4.5442827270e-001	 2.2389818273e+000
 1.4735852326e+000	 4.6980386305e-001	 2.1489389926e+000
 1.4685985937e+000	 4.8516730167e-001	 2.0582014892e+000
 1.4634387919e+000	 5.0051582778e-001	 1.9669300816e+000
 1.4581054430e+000	 5.1584665823e-001	 1.8753739588e+000
 1.4525982200e+000	 5.3115698879e-001	 1.7838836763e+000
 1.4469168533e+000	 5.4644399560e-001	 1.6929249028e+000
 1.4410611318e+000	 5.6170483653e-001	 1.6030929673e+000
 1.4350309042e+000	 5.7693665264e-001	 1.5151281939e+000
 1.4288260787e+000	 5.9213656971e-001	 1.4299320038e+000
 1.4224466248e+000	 6.0730169971e-001	 1.3485837584e+000
 1.4847718883e+000	 4.5638711657e-001	 2.2314199606e+000
 1.4799372217e+000	 4.7182898444e-001	 2.1409602801e+000
 1.4749290875e+000	 4.8725864820e-001	 2.0497767229e+000
 1.4697470440e+000	 5.0267333518e-001	 1.9580467790e+000
 1.4643907054e+000	 5.1807025021e-001	 1.8660355678e+000
 1.4588597431e+000	 5.3344657699e-001	 1.7741088501e+000
 1.4531538864e+000	 5.4879947948e-001	 1.6827468711e+000
 1.4472729235e+000	 5.6412610330e-001	 1.5925590273e+000
 1.4412167021e+000	 5.7942357719e-001	 1.5042993468e+000
 1.4349851304e+000	 5.9468901453e-001	 1.4188827642e+000
 1.4285781774e+000	 6.0991951485e-001	 1.3374021626e+000
 1.4911446280e+000	 4.5834596044e-001	 2.2237008349e+000
 1.4862892107e+000	 4.7385410584e-001	 2.1328934747e+000
 1.4812595813e+000	 4.8934999474e-001	 2.0413243413e+000
 1.4760552961e+000	 5.0483084258e-001	 1.9491889846e+000
 1.4706759677e+000	 5.2029384219e-001	 1.8567696703e+000
 1.4651212662e+000	 5.3573616519e-001	 1.7644484584e+000
 1.4593909196e+000	 5.5115496336e-001	 1.6727211358e+000
 1.4534847152e+000	 5.6654737007e-001	 1.5822119996e+000
 1.4474025001e+000	 5.8191050173e-001	 1.4936894798e+000
 1.4411441820e+000	 5.9724145935e-001	 1.4080825832e+000
 1.4347097300e+000	 6.1253732999e-001	 1.3264981331e+000
 1.4975173677e+000	 4.6030480431e-001	 2.2157379859e+000
 1.4926411997e+000	 4.7587922723e-001	 2.1246501384e+000
 1.4875900751e+000	 4.9144134128e-001	 2.0327533923e+000
 1.4823635482e+000	 5.0698834998e-001	 1.9402626740e+000
 1.4769612301e+000	 5.2251743417e-001	 1.8474785939e+000
 1.4713827892e+000	 5.3802575340e-001	 1.7548005847e+000
 1.4656279527e+000	 5.5351044724e-001	 1.6627409197e+000
 1.4596965069e+000	 5.6896863684e-001	 1.5719396074e+000
 1.4535882981e+000	 5.8439742628e-001	 1.4831801530e+000
 1.4473032337e+000	 5.9979390416e-001	 1.3974061689e+000
 1.4408412826e+000	 6.1515514513e-001	 1.3157388097e+000
 1.5038901075e+000	 4.6226364818e-001	 2.2074463778e+000
 1.4989931887e+000	 4.7790434862e-001	 2.1161433052e+000
 1.4939205688e+000	 4.9353268782e-001	 2.0239744528e+000
 1.4886718003e+000	 5.0914585738e-001	 1.9311754248e+000
 1.4832464924e+000	 5.2474102616e-001	 1.8380663566e+000
 1.4776443123e+000	 5.4031534160e-001	 1.7450651086e+000
 1.4718649859e+000	 5.5586593112e-001	 1.6527013642e+000
 1.4659082986e+000	 5.7138990361e-001	 1.5616316319e+000
 1.4597740961e+000	 5.8688435082e-001	 1.4726551421e+000
 1.4534622853e+000	 6.0234634898e-001	 1.3867306211e+000
 1.4469728352e+000	 6.1777296026e-001	 1.3049939192e+000
 1.5102628472e+000	 4.6422249205e-001	 2.1987423756e+000
 1.5053451777e+000	 4.7992947002e-001	 2.1072874518e+000
 1.5002510626e+000	 4.9562403435e-001	 2.0148995998e+000
 1.4949800524e+000	 5.1130336478e-001	 1.9218363866e+000
 1.4895317547e+000	 5.2696461814e-001	 1.8284386365e+000
 1.4839058354e+000	 5.4260492980e-001	 1.7351436734e+000
 1.4781020191e+000	 5.5822141501e-001	 1.6424994948e+000
 1.4721200902e+000	 5.7381117038e-001	 1.5511798764e+000
 1.4659598940e+000	 5.8937127537e-001	 1.4620004007e+000
 1.4596213370e+000	 6.0489879380e-001	 1.3759353915e+000
 1.4531043878e+000	 6.2039077540e-001	 1.2941357326e+000
 1.5166355869e+000	 4.6618133592e-001	 2.1895437176e+000
 1.5116971668e+000	 4.8195459141e-001	 2.0979984702e+000
 1.5065815564e+000	 4.9771538089e-001	 2.0054423815e+000
 1.5012883045e+000	 5.1346087218e-001	 1.9121562514e+000
 1.4958170171e+000	 5.2918821013e-001	 1.8185027401e+000
 1.4901673585e+000	 5.4489451800e-001	 1.7249396534e+000
 1.4843390522e+000	 5.6057689889e-001	 1.6320341873e+000
 1.4783318819e+000	 5.7623243715e-001	 1.5404781311e+000
 1.4721456920e+000	 5.9185819992e-001	 1.4511040232e+000
 1.4657803887e+000	 6.0745123862e-001	 1.3649022442e+000
 1.4592359404e+000	 6.2300859054e-001	 1.2830390237e+000
 1.5230083267e+000	 4.6814017979e-001	 2.1797694884e+000
 1.5180491558e+000	 4.8397971281e-001	 2.0881936404e+000
 1.5129120502e+000	 4.9980672743e-001	 1.9955177895e+000
 1.5075965566e+000	 5.1561837958e-001	 1.9020472244e+000
 1.5021022794e+000	 5.3141180211e-001	 1.8081675726e+000
 1.4964288816e+000	 5.4718410620e-001	 1.7143581230e+000
 1.4905760854e+000	 5.6293238277e-001	 1.6212061354e+000
 1.4845436736e+000	 5.7865370392e-001	 1.5294221382e+000
 1.4783314900e+000	 5.9434512446e-001	 1.4398562078e+000
 1.4719394403e+000	 6.1000368344e-001	 1.3535152170e+000
 1.4653674929e+000	 6.2562640568e-001	 1.2715810278e+000
 1.5293810664e+000	 4.7009902366e-001	 2.1693400931e+000
 1.5244011448e+000	 4.8600483420e-001	 2.0777916030e+000
 1.5192425439e+000	 5.0189807397e-001	 1.9850422305e+000
 1.5139048087e+000	 5.1777588698e-001	 1.8914229953e+000
 1.5083875417e+000	 5.3363539409e-001	 1.7973436082e+000
 1.5026904046e+000	 5.4947369440e-001	 1.7033058253e+000
 1.4968131186e+000	 5.6528786665e-001	 1.6099178177e+000
 1.4907554653e+000	 5.8107497069e-001	 1.5179095580e+000
 1.4845172880e+000	 5.9683204901e-001	 1.4281492213e+000
 1.4780984920e+000	 6.1255612826e-001	 1.3416605839e+000
 1.4714990455e+000	 6.2824422082e-001	 1.2596414019e+000
 1.4101835197e+000	 6.0206606944e-001	 1.3723242871e+000
 1.4036869593e+000	 6.1706085001e-001	 1.2853977099e+000
 1.3970174516e+000	 6.3201539562e-001	 1.1836933372e+000
 1.3901751520e+000	 6.4692681362e-001	 1.0698328380e+000
 1.3831602784e+000	 6.6179220402e-001	 9.4667940560e-001
 1.3759731119e+000	 6.7660866123e-001	 8.1848341002e-001
 1.3686139973e+000	 6.9137327568e-001	 6.9194898069e-001
 1.3610833429e+000	 7.0608313551e-001	 5.7016410603e-001
 1.3533816217e+000	 7.2073532834e-001	 4.5591605039e-001
 1.3455093710e+000	 7.3532694294e-001	 3.5197103665e-001
 1.3374671927e+000	 7.4985507103e-001	 2.6106806569e-001
 1.4163150723e+000	 6.0468388457e-001	 1.3601784114e+000
 1.4097902645e+000	 6.1974386324e-001	 1.2730249849e+000
 1.4030917574e+000	 6.3476343202e-001	 1.1709471375e+000
 1.3962197071e+000	 6.4973968564e-001	 1.0565343863e+000
 1.3891743325e+000	 6.6466971155e-001	 9.3261723298e-001
 1.3819559159e+000	 6.7955059151e-001	 8.0429939906e-001
 1.3745648034e+000	 6.9437940328e-001	 6.7789996662e-001
 1.3670014053e+000	 7.0915322236e-001	 5.5626028600e-001
 1.3592661966e+000	 7.2386912369e-001	 4.4215224289e-001
 1.3513597169e+000	 7.3852418341e-001	 3.3832372212e-001
 1.3432825709e+000	 7.5311548057e-001	 2.4749238375e-001
 1.4224466248e+000	 6.0730169971e-001	 1.3485837584e+000
 1.4158935697e+000	 6.2242687648e-001	 1.2612398529e+000
 1.4091660632e+000	 6.3751146841e-001	 1.1588043887e+000
 1.4022642623e+000	 6.5255255767e-001	 1.0438279379e+000
 1.3951883866e+000	 6.6754721909e-001	 9.1911124706e-001
 1.3879387198e+000	 6.8249252178e-001	 7.9089086703e-001
 1.3805156095e+000	 6.9738553087e-001	 6.6462920433e-001
 1.3729194677e+000	 7.1222330920e-001	 5.4309859263e-001
 1.3651507716e+000	 7.2700291905e-001	 4.2905082237e-001
 1.3572100629e+000	 7.4172142387e-001	 3.2521103967e-001
 1.3490979490e+000	 7.5637589011e-001	 2.3427149086e-001
 1.4285781774e+000	 6.0991951485e-001	 1.3374021626e+000
 1.4219968749e+000	 6.2510988972e-001	 1.2498971897e+000
 1.4152403691e+000	 6.4025950480e-001	 1.1471158396e+000
 1.4083088174e+000	 6.5536542970e-001	 1.0315630112e+000
 1.4012024407e+000	 6.7042472662e-001	 9.0617609715e-001
 1.3939215237e+000	 6.8543445205e-001	 7.7814621955e-001
 1.3864664156e+000	 7.0039165847e-001	 6.5203309301e-001
 1.3788375302e+000	 7.1529339605e-001	 5.3058661340e-001
 1.3710353465e+000	 7.3013671440e-001	 4.1653382174e-001
 1.3630604089e+000	 7.4491866434e-001	 3.1257278484e-001
 1.3549133272e+000	 7.5963629964e-001	 2.2136632029e-001
 1.4347097300e+000	 6.1253732999e-001	 1.3264981331e+000
 1.4281001801e+000	 6.2779290296e-001	 1.2388547353e+000
 1.4213146749e+000	 6.4300754120e-001	 1.1357352498e+000
 1.4143533726e+000	 6.5817830173e-001	 1.0195922382e+000
 1.4072164948e+000	 6.7330223415e-001	 8.9374866744e-001
 1.3999043276e+000	 6.8837638232e-001	 7.6595561434e-001
 1.3924172217e+000	 7.0339778606e-001	 6.4000967556e-001
 1.3847555926e+000	 7.1836348289e-001	 5.1863341687e-001
 1.3769199214e+000	 7.3327050976e-001	 4.0452453686e-001
 1.3689107548e+000	 7.4811590481e-001	 3.0034974146e-001
 1.3607287053e+000	 7.6289670918e-001	 2.0873846130e-001
 1.4408412826e+000	 6.1515514513e-001	 1.3157388097e+000
 1.4342034853e+000	 6.3047591619e-001	 1.2279730471e+000
 1.4273889807e+000	 6.4575557759e-001	 1.1245193419e+000
 1.4203979277e+000	 6.6099117375e-001	 1.0077713168e+000
 1.4132305489e+000	 6.7617974168e-001	 8.8171607608e-001
 1.4058871315e+000	 6.9131831259e-001	 7.5421092350e-001
 1.3983680278e+000	 7.0640391366e-001	 6.2845860330e-001
 1.3906736550e+000	 7.2143356974e-001	 5.0714952095e-001
 1.3828044963e+000	 7.3640430511e-001	 3.9294749948e-001
 1.3747611008e+000	 7.5131314527e-001	 2.8848366044e-001
 1.3665440835e+000	 7.6615711872e-001	 1.9635014499e-001
 1.4469728352e+000	 6.1777296026e-001	 1.3049939192e+000
 1.4403067904e+000	 6.3315892943e-001	 1.2171154544e+000
 1.4334632865e+000	 6.4850361398e-001	 1.1133277548e+000
 1.4264424828e+000	 6.6380404578e-001	 9.9595896418e-001
 1.4192446030e+000	 6.7905724921e-001	 8.6996717162e-001
 1.4118699355e+000	 6.9426024286e-001	 7.4280569683e-001
 1.4043188339e+000	 7.0941004126e-001	 6.1728110170e-001
 1.3965917174e+000	 7.2450365658e-001	 4.9604686195e-001
 1.3886890713e+000	 7.3953810047e-001	 3.8172845098e-001
 1.3806114468e+000	 7.5451038574e-001	 2.7691723916e-001
 1.3723594616e+000	 7.6941752826e-001	 1.8416423051e-001
 1.4531043878e+000	 6.2039077540e-001	 1.2941357326e+000
 1.4464100956e+000	 6.3584194267e-001	 1.2061480133e+000
 1.4395375924e+000	 6.5125165038e-001	 1.1020229980e+000
 1.4324870380e+000	 6.6661691781e-001	 9.8401687090e-001
 1.4252586571e+000	 6.8193475674e-001	 8.5839249602e-001
 1.4178527394e+000	 6.9720217314e-001	 7.3163512613e-001
 1.4102696400e+000	 7.1241616886e-001	 6.0637993690e-001
 1.4025097798e+000	 7.2757374343e-001	 4.8523876462e-001
 1.3945736462e+000	 7.4267189582e-001	 3.7079431666e-001
 1.3864617927e+000	 7.5770762621e-001	 2.6559410137e-001
 1.3781748397e+000	 7.7267793779e-001	 1.7214419173e-001
 1.4592359404e+000	 6.2300859054e-001	 1.2830390237e+000
 1.4525134008e+000	 6.3852495591e-001	 1.1949394634e+000
 1.4456118982e+000	 6.5399968677e-001	 1.0904704067e+000
 1.4385315931e+000	 6.6942978984e-001	 9.7193443600e-001
 1.4312727112e+000	 6.8481226428e-001	 8.4688424875e-001
 1.4238355433e+000	 7.0014410341e-001	 7.2059601048e-001
 1.4162204461e+000	 7.1542229645e-001	 5.9565938327e-001
 1.4084278422e+000	 7.3064383028e-001	 4.7463991283e-001
 1.4004582211e+000	 7.4580569118e-001	 3.6007318092e-001
 1.3923121387e+000	 7.6090486668e-001	 2.5445877775e-001
 1.3839902179e+000	 7.7593834733e-001	 1.6025410413e-001
 1.4653674929e+000	 6.2562640568e-001	 1.2715810278e+000
 1.4586167060e+000	 6.4120796915e-001	 1.1833611846e+000
 1.4516862040e+000	 6.5674772317e-001	 1.0785380979e+000
 1.4445761483e+000	 6.7224266187e-001	 9.5973439778e-001
 1.4372867653e+000	 6.8768977181e-001	 8.3533625176e-001
 1.4298183472e+000	 7.0308603368e-001	 7.0958672244e-001
 1.4221712522e+000	 7.1842842405e-001	 5.8502519175e-001
 1.4143459047e+000	 7.3371391712e-001	 4.6416632116e-001
 1.4063427960e+000	 7.4893948653e-001	 3.4949426292e-001
 1.3981624846e+000	 7.6410210715e-001	 2.4345668679e-001
 1.3898055960e+000	 7.7919875687e-001	 1.4845863221e-001
 1.4714990455e+000	 6.2824422082e-001	 1.2596414019e+000
 1.4647200112e+000	 6.4389098239e-001	 1.1712871554e+000
 1.4577605098e+000	 6.5949575956e-001	 1.0660969282e+000
 1.4506207034e+000	 6.7505553390e-001	 9.4731049110e-001
 1.4433008194e+000	 6.9056727934e-001	 8.2364391547e-001
 1.4358011511e+000	 7.0602796396e-001	 6.9850717513e-001
 1.4281220583e+000	 7.2143455165e-001	 5.7438455902e-001
 1.4202639671e+000	 7.3678400397e-001	 4.5373530716e-001
 1.4122273710e+000	 7.5207328189e-001	 3.3898789299e-001
 1.4040128306e+000	 7.6729934761e-001	 2.3253411641e-001
 1.3956209742e+000	 7.8245916641e-001	 1.3672301710e-001
 1.3374671927e+000	 7.4985507103e-001	 2.6106806569e-001
 1.3292545095e+000	 7.6431897353e-001	 1.7551102924e-001
 1.3208732481e+000	 7.7871356847e-001	 8.7516368448e-002
 1.3123242069e+000	 7.9303596658e-001	-2.1401136020e-003
 1.3036082491e+000	 8.0728328871e-001	-9.3055064836e-002
 1.2947263030e+000	 8.2145266760e-001	-1.8491556458e-001
 1.2856793616e+000	 8.3554124973e-001	-2.7750274668e-001
 1.2764684825e+000	 8.4954619707e-001	-3.7069454661e-001
 1.2670947876e+000	 8.6346468893e-001	-4.6446754314e-001
 1.2575594630e+000	 8.7729392378e-001	-5.5889787195e-001
 1.2478637581e+000	 8.9103112097e-001	-6.5416119526e-001
 1.3432825709e+000	 7.5311548057e-001	 2.4749238375e-001
 1.3350341785e+000	 7.6764227288e-001	 1.6191111366e-001
 1.3266164749e+000	 7.8209945628e-001	 7.2839849327e-002
 1.3180302620e+000	 7.9648412894e-001	-1.7722992612e-002
 1.3092764068e+000	 8.1079339917e-001	-1.0932554958e-001
 1.3003558415e+000	 8.2502438728e-001	-2.0166065692e-001
 1.2912695635e+000	 8.3917422731e-001	-2.9451520386e-001
 1.2820186350e+000	 8.5324006890e-001	-3.8777289684e-001
 1.2726041829e+000	 8.6721907910e-001	-4.8141609618e-001
 1.2630273981e+000	 8.8110844419e-001	-5.7552670295e-001
 1.2532895358e+000	 8.9490537144e-001	-6.7028607972e-001
 1.3490979490e+000	 7.5637589011e-001	 2.3427149086e-001
 1.3408138474e+000	 7.7096557224e-001	 1.4874685109e-001
 1.3323597017e+000	 7.8548534409e-001	 5.9312753596e-002
 1.3237363171e+000	 7.9993229129e-001	-3.2371646756e-002
 1.3149445645e+000	 8.1430350964e-001	-1.2486813795e-001
 1.3059853800e+000	 8.2859610696e-001	-2.1786743625e-001
 1.2968597654e+000	 8.4280720488e-001	-3.1115473127e-001
 1.2875687876e+000	 8.5693394073e-001	-4.0461248279e-001
 1.2781135781e+000	 8.7097346927e-001	-4.9822226850e-001
 1.2684953332e+000	 8.8492296460e-001	-5.9206565908e-001
 1.2587153135e+000	 8.9877962192e-001	-6.8632410385e-001
 1.3549133272e+000	 7.5963629964e-001	 2.2136632029e-001
 1.3465935164e+000	 7.7428887159e-001	 1.3571036284e-001
 1.3381029285e+000	 7.8887123190e-001	 4.6542950480e-002
 1.3294423723e+000	 8.0338045365e-001	-4.6010683125e-002
 1.3206127221e+000	 8.1781362011e-001	-1.3959908902e-001
 1.3116149185e+000	 8.3216782663e-001	-2.3344721267e-001
 1.3024499674e+000	 8.4644018246e-001	-3.2733115909e-001
 1.2931189401e+000	 8.6062781256e-001	-4.2112519260e-001
 1.2836229733e+000	 8.7472785944e-001	-5.1480361173e-001
 1.2739632683e+000	 8.8873748502e-001	-6.0844162732e-001
 1.2641410911e+000	 9.0265387239e-001	-7.0221522689e-001
 1.3607287053e+000	 7.6289670918e-001	 2.0873846130e-001
 1.3523731854e+000	 7.7761217094e-001	 1.2278420124e-001
 1.3438461553e+000	 7.9225711971e-001	 3.3728359875e-002
 1.3351484274e+000	 8.0682861600e-001	-5.8636333413e-002
 1.3262808798e+000	 8.2132373057e-001	-1.5343490110e-001
 1.3172444570e+000	 8.3573954631e-001	-2.4831169412e-001
 1.3080401693e+000	 8.5007316004e-001	-3.4295480788e-001
 1.2986690926e+000	 8.6432168439e-001	-4.3722342976e-001
 1.2891323685e+000	 8.7848224961e-001	-5.3107814872e-001
 1.2794312034e+000	 8.9255200543e-001	-6.2458185138e-001
 1.2695668688e+000	 9.0652812287e-001	-7.1789957849e-001
 1.3665440835e+000	 7.6615711872e-001	 1.9635014499e-001
 1.3581528543e+000	 7.8093547029e-001	 1.0995123252e-001
 1.3495893821e+000	 7.9564300752e-001	 2.0852237778e-002
 1.3408544825e+000	 8.1027677836e-001	-7.1172232723e-002
 1.3319490375e+000	 8.2483384104e-001	-1.6629234990e-001
 1.3228739955e+000	 8.3931126598e-001	-2.6237302243e-001
 1.3136303712e+000	 8.5370613761e-001	-3.5793652373e-001
 1.3042192451e+000	 8.6801555622e-001	-4.5282014853e-001
 1.2946417637e+000	 8.8223663978e-001	-5.4696441063e-001
 1.2848991385e+000	 8.9636652585e-001	-6.4041397155e-001
 1.2749926465e+000	 9.1040237334e-001	-7.3331750283e-001
 1.3723594616e+000	 7.6941752826e-001	 1.8416423051e-001
 1.3639325233e+000	 7.8425876964e-001	 9.7194629909e-002
 1.3553326089e+000	 7.9902889534e-001	 7.9150658004e-003
 1.3465605376e+000	 8.1372494072e-001	-8.3910971662e-002
 1.3376171951e+000	 8.2834395151e-001	-1.7850380971e-001
 1.3285035340e+000	 8.4288298566e-001	-2.7554380957e-001
 1.3192205731e+000	 8.5733911519e-001	-3.7218771357e-001
 1.3097693977e+000	 8.7170942805e-001	-4.6782888967e-001
 1.3001511589e+000	 8.8599102995e-001	-5.6238147414e-001
 1.2903670737e+000	 9.0018104626e-001	-6.5586606491e-001
 1.2804184241e+000	 9.1427662382e-001	-7.4840960296e-001
 1.3781748397e+000	 7.7267793779e-001	 1.7214419173e-001
 1.3697121923e+000	 7.8758206899e-001	 8.4497866960e-002
 1.3610758357e+000	 8.0241478315e-001	-5.0826378902e-003
 1.3522665927e+000	 8.1717310307e-001	-9.6838032566e-002
 1.3432853528e+000	 8.3185406197e-001	-1.9099204773e-001
 1.3341330725e+000	 8.4645470534e-001	-2.8775322402e-001
 1.3248107750e+000	 8.6097209277e-001	-3.8562038090e-001
 1.3153195502e+000	 8.7540329987e-001	-4.8216381635e-001
 1.3056605541e+000	 8.8974542012e-001	-5.7724899898e-001
 1.2958350088e+000	 9.0399556667e-001	-6.7086668552e-001
 1.2858442018e+000	 9.1815087429e-001	-7.6311678510e-001
 1.3839902179e+000	 7.7593834733e-001	 1.6025410413e-001
 1.3754918612e+000	 7.9090536834e-001	 7.1844711023e-002
 1.3668190625e+000	 8.0580067096e-001	-1.8140319656e-002
 1.3579726478e+000	 8.2062126543e-001	-1.0993906962e-001
 1.3489535105e+000	 8.3536417244e-001	-2.0377212991e-001
 1.3397626110e+000	 8.5002642501e-001	-2.9984443229e-001
 1.3304009769e+000	 8.6460507035e-001	-3.9814716163e-001
 1.3208697027e+000	 8.7909717170e-001	-4.9573975044e-001
 1.3111699493e+000	 8.9349981029e-001	-5.9148726563e-001
 1.3013029439e+000	 9.0781008709e-001	-6.8534490493e-001
 1.2912699795e+000	 9.2202512477e-001	-7.7738030304e-001
 1.3898055960e+000	 7.7919875687e-001	 1.4845863221e-001
 1.3812715302e+000	 7.9422866769e-001	 5.9219216930e-002
 1.3725622893e+000	 8.0918655877e-001	-3.1257391438e-002
 1.3636787029e+000	 8.2406942778e-001	-1.2319990575e-001
 1.3546216681e+000	 8.3887428291e-001	-2.1681931853e-001
 1.3453921495e+000	 8.5359814469e-001	-3.1231079095e-001
 1.3359911788e+000	 8.6823804792e-001	-4.0985571741e-001
 1.3264198552e+000	 8.8279104353e-001	-5.0847220889e-001
 1.3166793445e+000	 8.9725420046e-001	-6.0501721326e-001
 1.3067708790e+000	 9.1162460750e-001	-6.9923035273e-001
 1.2966957572e+000	 9.2589937524e-001	-7.9114180257e-001
 1.3956209742e+000	 7.8245916641e-001	 1.3672301710e-001
 1.3870511992e+000	 7.9755196704e-001	 4.6605720841e-002
 1.3783055161e+000	 8.1257244658e-001	-4.4433231772e-002
 1.3693847580e+000	 8.2751759014e-001	-1.3660652955e-001
 1.3602898258e+000	 8.4238439338e-001	-2.3010919035e-001
 1.3510216880e+000	 8.5716986437e-001	-3.2512052291e-001
 1.3415813808e+000	 8.7187102550e-001	-4.2180627051e-001
 1.3319700078e+000	 8.8648491536e-001	-5.2027744057e-001
 1.3221887397e+000	 9.0100859063e-001	-6.1776047792e-001
 1.3122388141e+000	 9.1543912792e-001	-7.1245325727e-001
 1.3021215348e+000	 9.2977362572e-001	-8.0434336596e-001
 1.2478637581e+000	 8.9103112097e-001	-6.5416119526e-001
 1.2380089854e+000	 9.0467352231e-001	-7.4743970712e-001
 1.2279965186e+000	 9.1821839288e-001	-8.3577605290e-001
 1.2178277933e+000	 9.3166302367e-001	-9.1931130338e-001
 1.2075043064e+000	 9.4500473366e-001	-9.9831813410e-001
 1.1970276159e+000	 9.5824087151e-001	-1.0731968800e+000
 1.1863993398e+000	 9.7136881732e-001	-1.1444706336e+000
 1.1756211556e+000	 9.8438598433e-001	-1.2127794193e+000
 1.1646947991e+000	 9.9728982054e-001	-1.2788734852e+000
 1.1536220639e+000	 1.0100778104e+000	-1.3436057587e+000
 1.1424047999e+000	 1.0227474765e+000	-1.4079243623e+000
 1.2532895358e+000	 8.9490537144e-001	-6.7028607972e-001
 1.2433919140e+000	 9.0860709067e-001	-7.6305710282e-001
 1.2333359125e+000	 9.2221085505e-001	-8.5103547662e-001
 1.2231229730e+000	 9.3571394381e-001	-9.3432900759e-001
 1.2127545990e+000	 9.4911366426e-001	-1.0131804869e+000
 1.2022323553e+000	 9.6240735354e-001	-1.0879636817e+000
 1.1915578669e+000	 9.7559238035e-001	-1.1591783430e+000
 1.1807328186e+000	 9.8866614669e-001	-1.2274442638e+000
 1.1697589538e+000	 1.0016260895e+000	-1.2934944300e+000
 1.1586380737e+000	 1.0144696822e+000	-1.3581684870e+000
 1.1473720365e+000	 1.0271944366e+000	-1.4223991170e+000
 1.2587153135e+000	 8.9877962192e-001	-6.8632410385e-001
 1.2487748426e+000	 9.1254065903e-001	-7.7855354579e-001
 1.2386753064e+000	 9.2620331722e-001	-8.6612204081e-001
 1.2284181527e+000	 9.3976486395e-001	-9.4910920828e-001
 1.2180048917e+000	 9.5322259486e-001	-1.0277329687e+000
 1.2074370947e+000	 9.6657383556e-001	-1.1023454593e+000
 1.1967163941e+000	 9.7981594339e-001	-1.1734279397e+000
 1.1858444816e+000	 9.9294630905e-001	-1.2415847212e+000
 1.1748231084e+000	 1.0059623584e+000	-1.3075361632e+000
 1.1636540835e+000	 1.0188615540e+000	-1.3721118733e+000
 1.1523392730e+000	 1.0316413968e+000	-1.4362372601e+000
 1.2641410911e+000	 9.0265387239e-001	-7.0221522689e-001
 1.2541577712e+000	 9.1647422738e-001	-7.9388317884e-001
 1.2440147002e+000	 9.3019577940e-001	-8.8100246940e-001
 1.2337133324e+000	 9.4381578409e-001	-9.6362954214e-001
 1.2232551843e+000	 9.5733152546e-001	-1.0419623979e+000
 1.2126418342e+000	 9.7074031759e-001	-1.1163364229e+000
 1.2018749212e+000	 9.8403950642e-001	-1.1872191797e+000
 1.1909561447e+000	 9.9722647142e-001	-1.2552041946e+000
 1.1798872631e+000	 1.0102986273e+000	-1.3210037872e+000
 1.1686700933e+000	 1.0232534258e+000	-1.3854419951e+000
 1.1573065095e+000	 1.0360883569e+000	-1.4494412677e+000
 1.2695668688e+000	 9.0652812287e-001	-7.1789957849e-001
 1.2595406998e+000	 9.2040779574e-001	-8.0900010185e-001
 1.2493540941e+000	 9.3418824157e-001	-8.9564324936e-001
 1.2390085121e+000	 9.4786670423e-001	-9.7786723544e-001
 1.2285054769e+000	 9.6144045606e-001	-1.0558550308e+000
 1.2178465736e+000	 9.7490679962e-001	-1.1299300916e+000
 1.2070334483e+000	 9.8826306945e-001	-1.2005510225e+000
 1.1960678077e+000	 1.0015066338e+000	-1.2683052104e+000
 1.1849514177e+000	 1.0146348962e+000	-1.3339027344e+000
 1.1736861031e+000	 1.0276452975e+000	-1.3981627025e+000
 1.1622737461e+000	 1.0405353171e+000	-1.4620126606e+000
 1.2749926465e+000	 9.1040237334e-001	-7.3331750283e-001
 1.2649236284e+000	 9.2434136410e-001	-8.2385842057e-001
 1.2546934880e+000	 9.3818070374e-001	-9.1001068368e-001
 1.2443036918e+000	 9.5191762437e-001	-9.9179916039e-001
 1.2337557696e+000	 9.6554938666e-001	-1.0693966207e+000
 1.2230513130e+000	 9.7907328165e-001	-1.1431193541e+000
 1.2121919755e+000	 9.9248663248e-001	-1.2134216935e+000
 1.2011794707e+000	 1.0057867961e+000	-1.2808894816e+000
 1.1900155723e+000	 1.0189711652e+000	-1.3462336933e+000
 1.1787021129e+000	 1.0320371693e+000	-1.4102769508e+000
 1.1672409826e+000	 1.0449822773e+000	-1.4739520653e+000
 1.2804184241e+000	 9.1427662382e-001	-7.4840960296e-001
 1.2703065570e+000	 9.2827493246e-001	-8.3841229551e-001
 1.2600328818e+000	 9.4217316591e-001	-9.2407094411e-001
 1.2495988715e+000	 9.5596854451e-001	-1.0054018913e+000
 1.2390060622e+000	 9.6965831726e-001	-1.0825724763e+000
 1.2282560525e+000	 9.8323976368e-001	-1.1558965301e+000
 1.2173505026e+000	 9.9671019551e-001	-1.2258287469e+000
 1.2062911337e+000	 1.0100669585e+000	-1.2929579711e+000
 1.1950797270e+000	 1.0233074341e+000	-1.3580005244e+000
 1.1837181227e+000	 1.0364290411e+000	-1.4217868637e+000
 1.1722082192e+000	 1.0494292374e+000	-1.4852592755e+000
 1.2858442018e+000	 9.1815087429e-001	-7.6311678510e-001
 1.2756894856e+000	 9.3220850082e-001	-8.5261599065e-001
 1.2653722757e+000	 9.4616562809e-001	-9.3779012379e-001
 1.2548940512e+000	 9.6001946465e-001	-1.0186517603e+000
 1.2442563549e+000	 9.7376724786e-001	-1.0953675207e+000
 1.2334607919e+000	 9.8740624571e-001	-1.1682534305e+000
 1.2225090297e+000	 1.0009337585e+000	-1.2377691270e+000
 1.2114027967e+000	 1.0143471209e+000	-1.3045122253e+000
 1.2001438816e+000	 1.0276437030e+000	-1.3692049863e+000
 1.1887341325e+000	 1.0408209129e+000	-1.4326937945e+000
 1.1771754557e+000	 1.0538761976e+000	-1.4959333122e+000
 1.2912699795e+000	 9.2202512477e-001	-7.7738030304e-001
 1.2810724142e+000	 9.3614206918e-001	-8.6642392214e-001
 1.2707116696e+000	 9.5015809026e-001	-9.5113428967e-001
 1.2601892309e+000	 9.6407038479e-001	-1.0315249132e+000
 1.2495066475e+000	 9.7787617846e-001	-1.1077663496e+000
 1.2386655314e+000	 9.9157272774e-001	-1.1801814179e+000
 1.2276675568e+000	 1.0051573216e+000	-1.2492392302e+000
 1.2165144597e+000	 1.0186272832e+000	-1.3155492546e+000
 1.2052080362e+000	 1.0319799719e+000	-1.3798481583e+000
 1.1937501423e+000	 1.0452127847e+000	-1.4429983877e+000
 1.1821426922e+000	 1.0583231578e+000	-1.5059724839e+000
 1.2966957572e+000	 9.2589937524e-001	-7.9114180257e-001
 1.2864553428e+000	 9.4007563753e-001	-8.7979070694e-001
 1.2760510634e+000	 9.5415055243e-001	-9.6406953480e-001
 1.2654844106e+000	 9.6812130493e-001	-1.0439973648e+000
 1.2547569401e+000	 9.8198510906e-001	-1.1197532888e+000
 1.2438702708e+000	 9.9573920977e-001	-1.1916714661e+000
 1.2328260840e+000	 1.0093808846e+000	-1.2602349656e+000
 1.2216261227e+000	 1.0229074456e+000	-1.3260695188e+000
 1.2102721909e+000	 1.0363162409e+000	-1.3899305020e+000
 1.1987661521e+000	 1.0496046565e+000	-1.4527006402e+000
 1.1871099288e+000	 1.0627701179e+000	-1.5153744461e+000
 1.3021215348e+000	 9.2977362572e-001	-8.0434336596e-001
 1.2918382714e+000	 9.4400920589e-001	-8.9267121140e-001
 1.2813904573e+000	 9.5814301461e-001	-9.7656203052e-001
 1.2707795903e+000	 9.7217222507e-001	-1.0560450539e+000
 1.2600072328e+000	 9.8609403966e-001	-1.1313124520e+000
 1.2490750102e+000	 9.9990569180e-001	-1.2027142196e+000
 1.2379846111e+000	 1.0136044476e+000	-1.2707530410e+000
 1.2267377857e+000	 1.0271876080e+000	-1.3360716013e+000
 1.2153363455e+000	 1.0406525098e+000	-1.3994519225e+000
 1.2037821618e+000	 1.0539965282e+000	-1.4617999618e+000
 1.1920771653e+000	 1.0672170781e+000	-1.5241362605e+000
 1.1424047999e+000	 1.0227474765e+000	-1.4079243623e+000
 1.1310466276e+000	 1.0352945079e+000	-1.4678513442e+000
 1.1195478355e+000	 1.0477184194e+000	-1.5195357165e+000
 1.1079104373e+000	 1.0600168589e+000	-1.5641872268e+000
 1.0961364989e+000	 1.0721875189e+000	-1.6030612996e+000
 1.0842281372e+000	 1.0842281372e+000	-1.6374479704e+000
 1.0721875189e+000	 1.0961364989e+000	-1.6686604951e+000
 1.0600168589e+000	 1.1079104373e+000	-1.6980237241e+000
 1.0477184194e+000	 1.1195478355e+000	-1.7268623278e+000
 1.0352945079e+000	 1.1310466276e+000	-1.7564889651e+000
 1.0227474765e+000	 1.1424047999e+000	-1.7881924865e+000
 1.1473720365e+000	 1.0271944366e+000	-1.4223991170e+000
 1.1359644782e+000	 1.0397960233e+000	-1.4821466477e+000
 1.1244156888e+000	 1.0522739545e+000	-1.5335142327e+000
 1.1127276905e+000	 1.0646258684e+000	-1.5777348365e+000
 1.1009025584e+000	 1.0768494470e+000	-1.6160894308e+000
 1.0889424186e+000	 1.0889424186e+000	-1.6498956031e+000
 1.0768494470e+000	 1.1009025584e+000	-1.6804958290e+000
 1.0646258684e+000	 1.1127276905e+000	-1.7092454987e+000
 1.0522739545e+000	 1.1244156888e+000	-1.7375007879e+000
 1.0397960233e+000	 1.1359644782e+000	-1.7666064660e+000
 1.0271944366e+000	 1.1473720365e+000	-1.7978837363e+000
 1.1523392730e+000	 1.0316413968e+000	-1.4362372601e+000
 1.1408823289e+000	 1.0442975386e+000	-1.4958131620e+000
 1.1292835420e+000	 1.0568294897e+000	-1.5468977517e+000
 1.1175449437e+000	 1.0692348778e+000	-1.5907417586e+000
 1.1056686179e+000	 1.0815113751e+000	-1.6286461613e+000
 1.0936566999e+000	 1.0936566999e+000	-1.6619504748e+000
 1.0815113751e+000	 1.1056686179e+000	-1.6920206879e+000
 1.0692348778e+000	 1.1175449437e+000	-1.7202369459e+000
 1.0568294897e+000	 1.1292835420e+000	-1.7479810686e+000
 1.0442975386e+000	 1.1408823289e+000	-1.7766240021e+000
 1.0316413968e+000	 1.1523392730e+000	-1.8075132990e+000
 1.1573065095e+000	 1.0360883569e+000	-1.4494412677e+000
 1.1458001795e+000	 1.0487990539e+000	-1.5088493378e+000
 1.1341513953e+000	 1.0613850248e+000	-1.5596794295e+000
 1.1223621970e+000	 1.0738438872e+000	-1.6031946727e+000
 1.1104346774e+000	 1.0861733032e+000	-1.6407106031e+000
 1.0983709812e+000	 1.0983709812e+000	-1.6735831300e+000
 1.0861733032e+000	 1.1104346774e+000	-1.7031961430e+000
 1.0738438872e+000	 1.1223621970e+000	-1.7309488520e+000
 1.0613850248e+000	 1.1341513953e+000	-1.7582429568e+000
 1.0487990539e+000	 1.1458001795e+000	-1.7864697437e+000
 1.0360883569e+000	 1.1573065095e+000	-1.8169972100e+000
 1.1622737461e+000	 1.0405353171e+000	-1.4620126606e+000
 1.1507180301e+000	 1.0533005692e+000	-1.5212526950e+000
 1.1390192485e+000	 1.0659405600e+000	-1.5718515328e+000
 1.1271794502e+000	 1.0784528966e+000	-1.6150794263e+000
 1.1152007370e+000	 1.0908352312e+000	-1.6522611070e+000
 1.1030852625e+000	 1.1030852625e+000	-1.6847634367e+000
 1.0908352312e+000	 1.1152007370e+000	-1.7139826855e+000
 1.0784528966e+000	 1.1271794502e+000	-1.7413315324e+000
 1.0659405600e+000	 1.1390192485e+000	-1.7682258878e+000
 1.0533005692e+000	 1.1507180301e+000	-1.7960716390e+000
 1.0405353171e+000	 1.1622737461e+000	-1.8262514195e+000
 1.1672409826e+000	 1.0449822773e+000	-1.4739520653e+000
 1.1556358807e+000	 1.0578020845e+000	-1.5330198828e+000
 1.1438871018e+000	 1.0704960951e+000	-1.5834054961e+000
 1.1319967034e+000	 1.0830619060e+000	-1.6263810880e+000
 1.1199667965e+000	 1.0954971593e+000	-1.6632753128e+000
 1.1077995439e+000	 1.1077995439e+000	-1.6954606327e+000
 1.0954971593e+000	 1.1199667965e+000	-1.7243402697e+000
 1.0830619060e+000	 1.1319967034e+000	-1.7513348693e+000
 1.0704960951e+000	 1.1438871018e+000	-1.7778689782e+000
 1.0578020845e+000	 1.1556358807e+000	-1.8053574405e+000
 1.0449822773e+000	 1.1672409826e+000	-1.8351918147e+000
 1.1722082192e+000	 1.0494292374e+000	-1.4852592755e+000
 1.1605537313e+000	 1.0623035999e+000	-1.5441467380e+000
 1.1487549550e+000	 1.0750516303e+000	-1.5943319778e+000
 1.1368139566e+000	 1.0876709154e+000	-1.6370840014e+000
 1.1247328560e+000	 1.1001590874e+000	-1.6737301993e+000
 1.1125138252e+000	 1.1125138252e+000	-1.7056433715e+000
 1.1001590874e+000	 1.1247328560e+000	-1.7342283543e+000
 1.0876709154e+000	 1.1368139566e+000	-1.7609083492e+000
 1.0750516303e+000	 1.1487549550e+000	-1.7871110585e+000
 1.0623035999e+000	 1.1605537313e+000	-1.8142547335e+000
 1.0494292374e+000	 1.1722082192e+000	-1.8437342422e+000
 1.1771754557e+000	 1.0538761976e+000	-1.4959333122e+000
 1.1654715819e+000	 1.0668051152e+000	-1.5546283435e+000
 1.1536228083e+000	 1.0796071654e+000	-1.6046209162e+000
 1.1416312099e+000	 1.0922799248e+000	-1.6471718375e+000
 1.1294989155e+000	 1.1048210155e+000	-1.6836021340e+000
 1.1172281065e+000	 1.1172281065e+000	-1.7152797688e+000
 1.1048210155e+000	 1.1294989155e+000	-1.7436059445e+000
 1.0922799248e+000	 1.1416312099e+000	-1.7700011002e+000
 1.0796071654e+000	 1.1536228083e+000	-1.7958907056e+000
 1.0668051152e+000	 1.1654715819e+000	-1.8226909638e+000
 1.0538761976e+000	 1.1771754557e+000	-1.8517945305e+000
 1.1821426922e+000	 1.0583231578e+000	-1.5059724839e+000
 1.1703894325e+000	 1.0713066305e+000	-1.5644590866e+000
 1.1584906615e+000	 1.0841627006e+000	-1.6142615854e+000
 1.1464484631e+000	 1.0968889342e+000	-1.6566276477e+000
 1.1342649750e+000	 1.1094829436e+000	-1.6928669224e+000
 1.1219423879e+000	 1.1219423879e+000	-1.7243374476e+000
 1.1094829436e+000	 1.1342649750e+000	-1.7524316340e+000
 1.0968889342e+000	 1.1464484631e+000	-1.7785619299e+000
 1.0841627006e+000	 1.1584906615e+000	-1.8041462764e+000
 1.0713066305e+000	 1.1703894325e+000	-1.8305934654e+000
 1.0583231578e+000	 1.1821426922e+000	-1.8592885135e+000
 1.1871099288e+000	 1.0627701179e+000	-1.5153744461e+000
 1.1753072831e+000	 1.0758081458e+000	-1.5736327165e+000
 1.1633585148e+000	 1.0887182357e+000	-1.6232426498e+000
 1.1512657163e+000	 1.1014979436e+000	-1.6654339166e+000
 1.1390310345e+000	 1.1141448717e+000	-1.7014998573e+000
 1.1266566692e+000	 1.1266566692e+000	-1.7327835844e+000
 1.1141448717e+000	 1.1390310345e+000	-1.7606636466e+000
 1.1014979436e+000	 1.1512657163e+000	-1.7865393627e+000
 1.0887182357e+000	 1.1633585148e+000	-1.8118159400e+000
 1.0758081458e+000	 1.1753072831e+000	-1.8378894894e+000
 1.0627701179e+000	 1.1871099288e+000	-1.8661320534e+000
 1.1920771653e+000	 1.0672170781e+000	-1.5241362605e+000
 1.1802251337e+000	 1.0803096611e+000	-1.5821424014e+000
 1.1682263680e+000	 1.0932737708e+000	-1.6315522200e+000
 1.1560829695e+000	 1.1061069531e+000	-1.6735726133e+000
 1.1437970941e+000	 1.1188067997e+000	-1.7094757676e+000
 1.1313709505e+000	 1.1313709505e+000	-1.7405849545e+000
 1.1188067997e+000	 1.1437970941e+000	-1.7682598775e+000
 1.1061069531e+000	 1.1560829695e+000	-1.7938816769e+000
 1.0932737708e+000	 1.1682263680e+000	-1.8188377116e+000
 1.0803096611e+000	 1.1802251337e+000	-1.8445062320e+000
 1.0672170781e+000	 1.1920771653e+000	-1.8722410644e+000
 1.0227474765e+000	 1.1424047999e+000	-1.7881924865e+000
 1.0100778104e+000	 1.1536220639e+000	-1.8178509447e+000
 9.9728982054e-001	 1.1646947991e+000	-1.8411624729e+000
 9.8438598433e-001	 1.1756211556e+000	-1.8591119579e+000
 9.7136881732e-001	 1.1863993398e+000	-1.8726045802e+000
 9.5824087151e-001	 1.1970276159e+000	-1.8824602658e+000
 9.4500473366e-001	 1.2075043064e+000	-1.8894043294e+000
 9.3166302367e-001	 1.2178277933e+000	-1.8940587711e+000
 9.1821839288e-001	 1.2279965186e+000	-1.8969343007e+000
 9.0467352231e-001	 1.2380089854e+000	-1.8984231555e+000
 8.9103112097e-001	 1.2478637581e+000	-1.8987927750e+000
 1.0271944366e+000	 1.1473720365e+000	-1.7978837363e+000
 1.0144696822e+000	 1.1586380737e+000	-1.8271697384e+000
 1.0016260895e+000	 1.1697589538e+000	-1.8501187142e+000
 9.8866614669e-001	 1.1807328186e+000	-1.8676954016e+000
 9.7559238035e-001	 1.1915578669e+000	-1.8808005925e+000
 9.6240735354e-001	 1.2022323553e+000	-1.8902407025e+000
 9.4911366426e-001	 1.2127545990e+000	-1.8967230648e+000
 9.3571394381e-001	 1.2231229730e+000	-1.9008470075e+000
 9.2221085505e-001	 1.2333359125e+000	-1.9030956786e+000
 9.0860709067e-001	 1.2433919140e+000	-1.9038286885e+000
 8.9490537144e-001	 1.2532895358e+000	-1.9032756343e+000
 1.0316413968e+000	 1.1523392730e+000	-1.8075132990e+000
 1.0188615540e+000	 1.1636540835e+000	-1.8364346705e+000
 1.0059623584e+000	 1.1748231084e+000	-1.8589783407e+000
 9.9294630905e-001	 1.1858444816e+000	-1.8761144332e+000
 9.7981594339e-001	 1.1967163941e+000	-1.8887448902e+000
 9.6657383556e-001	 1.2074370947e+000	-1.8976735361e+000
 9.5322259486e-001	 1.2180048917e+000	-1.9036009144e+000
 9.3976486395e-001	 1.2284181527e+000	-1.9071151168e+000
 9.2620331722e-001	 1.2386753064e+000	-1.9086833811e+000
 9.1254065903e-001	 1.2487748426e+000	-1.9086445302e+000
 8.9877962192e-001	 1.2587153135e+000	-1.9072023182e+000
 1.0360883569e+000	 1.1573065095e+000	-1.8169972100e+000
 1.0232534258e+000	 1.1686700933e+000	-1.8455462009e+000
 1.0102986273e+000	 1.1798872631e+000	-1.8676400665e+000
 9.9722647142e-001	 1.1909561447e+000	-1.8842644943e+000
 9.8403950642e-001	 1.2018749212e+000	-1.8963330822e+000
 9.7074031759e-001	 1.2126418342e+000	-1.9046578638e+000
 9.5733152546e-001	 1.2232551843e+000	-1.9099436625e+000
 9.4381578409e-001	 1.2337133324e+000	-1.9127786435e+000
 9.3019577940e-001	 1.2440147002e+000	-1.9136256566e+000
 9.1647422738e-001	 1.2541577712e+000	-1.9128144438e+000
 9.0265387239e-001	 1.2641410911e+000	-1.9105347783e+000
 1.0405353171e+000	 1.1622737461e+000	-1.8262514195e+000
 1.0276452975e+000	 1.1736861031e+000	-1.8544098956e+000
 1.0146348962e+000	 1.1849514177e+000	-1.8759976953e+000
 1.0015066338e+000	 1.1960678077e+000	-1.8920410895e+000
 9.8826306945e-001	 1.2070334483e+000	-1.9034607735e+000
 9.7490679962e-001	 1.2178465736e+000	-1.9110926590e+000
 9.6144045606e-001	 1.2285054769e+000	-1.9156567992e+000
 9.4786670423e-001	 1.2390085121e+000	-1.9177526194e+000
 9.3418824157e-001	 1.2493540941e+000	-1.9178499772e+000
 9.2040779574e-001	 1.2595406998e+000	-1.9162811097e+000
 9.0652812287e-001	 1.2695668688e+000	-1.9132335388e+000
 1.0449822773e+000	 1.1672409826e+000	-1.8351918147e+000
 1.0320371693e+000	 1.1787021129e+000	-1.8629313629e+000
 1.0189711652e+000	 1.1900155723e+000	-1.8839602747e+000
 1.0057867961e+000	 1.2011794707e+000	-1.8993397974e+000
 9.9248663248e-001	 1.2121919755e+000	-1.9100235756e+000
 9.7907328165e-001	 1.2230513130e+000	-1.9168767817e+000
 9.6554938666e-001	 1.2337557696e+000	-1.9206455313e+000
 9.5191762437e-001	 1.2443036918e+000	-1.9219515766e+000
 9.3818070374e-001	 1.2546934880e+000	-1.9212830547e+000
 9.2434136410e-001	 1.2649236284e+000	-1.9189861471e+000
 9.1040237334e-001	 1.2749926465e+000	-1.9152577219e+000
 1.0494292374e+000	 1.1722082192e+000	-1.8437342422e+000
 1.0364290411e+000	 1.1837181227e+000	-1.8710162706e+000
 1.0233074341e+000	 1.1950797270e+000	-1.8914215883e+000
 1.0100669585e+000	 1.2062911337e+000	-1.9060562827e+000
 9.9671019551e-001	 1.2173505026e+000	-1.9159171175e+000
 9.8323976368e-001	 1.2282560525e+000	-1.9219089890e+000
 9.6965831726e-001	 1.2390060622e+000	-1.9248147943e+000
 9.5596854451e-001	 1.2495988715e+000	-1.9252895615e+000
 9.4217316591e-001	 1.2600328818e+000	-1.9238508578e+000
 9.2827493246e-001	 1.2703065570e+000	-1.9208701335e+000
 9.1427662382e-001	 1.2804184241e+000	-1.9165650735e+000
 1.0538761976e+000	 1.1771754557e+000	-1.8517945305e+000
 1.0408209129e+000	 1.1887341325e+000	-1.8785703646e+000
 1.0276437030e+000	 1.2001438816e+000	-1.8982807271e+000
 1.0143471209e+000	 1.2114027967e+000	-1.9120812851e+000
 1.0009337585e+000	 1.2225090297e+000	-1.9210370564e+000
 9.8740624571e-001	 1.2334607919e+000	-1.9260879462e+000
 9.7376724786e-001	 1.2442563549e+000	-1.9280692643e+000
 9.6001946465e-001	 1.2548940512e+000	-1.9276801485e+000
 9.4616562809e-001	 1.2653722757e+000	-1.9254786287e+000
 9.3220850082e-001	 1.2756894856e+000	-1.9218726264e+000
 9.1815087429e-001	 1.2858442018e+000	-1.9171119883e+000
 1.0583231578e+000	 1.1821426922e+000	-1.8592885135e+000
 1.0452127847e+000	 1.1937501423e+000	-1.8854994868e+000
 1.0319799719e+000	 1.2052080362e+000	-1.9044369126e+000
 1.0186272832e+000	 1.2165144597e+000	-1.9173209427e+000
 1.0051573216e+000	 1.2276675568e+000	-1.9252790895e+000
 9.9157272774e-001	 1.2386655314e+000	-1.9293122385e+000
 9.7787617846e-001	 1.2495066475e+000	-1.9303133705e+000
 9.6407038479e-001	 1.2601892309e+000	-1.9290364546e+000
 9.5015809026e-001	 1.2707116696e+000	-1.9260909000e+000
 9.3614206918e-001	 1.2810724142e+000	-1.9219321834e+000
 9.2202512477e-001	 1.2912699795e+000	-1.9168535349e+000
 1.0627701179e+000	 1.1871099288e+000	-1.8661320534e+000
 1.0496046565e+000	 1.1987661521e+000	-1.8917095941e+000
 1.0363162409e+000	 1.2102721909e+000	-1.9097895128e+000
 1.0229074456e+000	 1.2216261227e+000	-1.9216660103e+000
 1.0093808846e+000	 1.2328260840e+000	-1.9285389661e+000
 9.9573920977e-001	 1.2438702708e+000	-1.9314803827e+000
 9.8198510906e-001	 1.2547569401e+000	-1.9314513078e+000
 9.6812130493e-001	 1.2654844106e+000	-1.9292711537e+000
 9.5415055243e-001	 1.2760510634e+000	-1.9256115127e+000
 9.4007563753e-001	 1.2864553428e+000	-1.9209863829e+000
 9.2589937524e-001	 1.2966957572e+000	-1.9157434812e+000
 1.0672170781e+000	 1.1920771653e+000	-1.8722410644e+000
 1.0539965282e+000	 1.2037821618e+000	-1.8971067779e+000
 1.0406525098e+000	 1.2153363455e+000	-1.9142380578e+000
 1.0271876080e+000	 1.2267377857e+000	-1.9250126248e+000
 1.0136044476e+000	 1.2379846111e+000	-1.9307074690e+000
 9.9990569180e-001	 1.2490750102e+000	-1.9324908401e+000
 9.8609403966e-001	 1.2600072328e+000	-1.9313870504e+000
 9.7217222507e-001	 1.2707795903e+000	-1.9282964919e+000
 9.5814301461e-001	 1.2813904573e+000	-1.9239636327e+000
 9.4400920589e-001	 1.2918382714e+000	-1.9189718458e+000
 9.2977362572e-001	 1.3021215348e+000	-1.9137343194e+000
 8.9103112097e-001	 1.2478637581e+000	-1.8987927750e+000
 8.7729392378e-001	 1.2575594630e+000	-1.8952298308e+000
 8.6346468893e-001	 1.2670947876e+000	-1.8858038833e+000
 8.4954619707e-001	 1.2764684825e+000	-1.8719102740e+000
 8.3554124973e-001	 1.2856793616e+000	-1.8548077097e+000
 8.2145266760e-001	 1.2947263030e+000	-1.8356141900e+000
 8.0728328871e-001	 1.3036082491e+000	-1.8153040422e+000
 7.9303596658e-001	 1.3123242069e+000	-1.7947060804e+000
 7.7871356847e-001	 1.3208732481e+000	-1.7745028979e+000
 7.6431897353e-001	 1.3292545095e+000	-1.7552312949e+000
 7.4985507103e-001	 1.3374671927e+000	-1.7365058777e+000
 8.9490537144e-001	 1.2532895358e+000	-1.9032756343e+000
 8.8110844419e-001	 1.2630273981e+000	-1.8986669293e+000
 8.6721907910e-001	 1.2726041829e+000	-1.8881936876e+000
 8.5324006890e-001	 1.2820186350e+000	-1.8733257554e+000
 8.3917422731e-001	 1.2912695635e+000	-1.8553955820e+000
 8.2502438728e-001	 1.3003558415e+000	-1.8355938528e+000
 8.1079339917e-001	 1.3092764068e+000	-1.8149662550e+000
 7.9648412894e-001	 1.3180302620e+000	-1.7944113948e+000
 7.8209945628e-001	 1.3266164749e+000	-1.7746798759e+000
 7.6764227288e-001	 1.3350341785e+000	-1.7562347403e+000
 7.5311548057e-001	 1.3432825709e+000	-1.7354400371e+000
 8.9877962192e-001	 1.2587153135e+000	-1.9072023182e+000
 8.8492296460e-001	 1.2684953332e+000	-1.9016628689e+000
 8.7097346927e-001	 1.2781135781e+000	-1.8903531853e+000
 8.5693394073e-001	 1.2875687876e+000	-1.8748028361e+000
 8.4280720488e-001	 1.2968597654e+000	-1.8564026722e+000
 8.2859610696e-001	 1.3059853800e+000	-1.8364001912e+000
 8.1430350964e-001	 1.3149445645e+000	-1.8158960622e+000
 7.9993229129e-001	 1.3237363171e+000	-1.7958418295e+000
 7.8548534409e-001	 1.3323597017e+000	-1.7770388071e+000
 7.7096557224e-001	 1.3408138474e+000	-1.7574894866e+000
 7.5637589011e-001	 1.3490979490e+000	-1.7342258753e+000
 9.0265387239e-001	 1.2641410911e+000	-1.9105347783e+000
 8.8873748502e-001	 1.2739632683e+000	-1.9041966812e+000
 8.7472785944e-001	 1.2836229733e+000	-1.8922738255e+000
 8.6062781256e-001	 1.2931189401e+000	-1.8763409238e+000
 8.4644018246e-001	 1.3024499674e+000	-1.8578320932e+000
 8.3216782663e-001	 1.3116149185e+000	-1.8380359779e+000
 8.1781362011e-001	 1.3206127221e+000	-1.8180920597e+000
 8.0338045365e-001	 1.3294423723e+000	-1.7989881770e+000
 7.8887123190e-001	 1.3381029285e+000	-1.7804457919e+000
 7.7428887159e-001	 1.3465935164e+000	-1.7581228687e+000
 7.5963629964e-001	 1.3549133272e+000	-1.7327208882e+000
 9.0652812287e-001	 1.2695668688e+000	-1.9132335388e+000
 8.9255200543e-001	 1.2794312034e+000	-1.9062456518e+000
 8.7848224961e-001	 1.2891323685e+000	-1.8939450791e+000
 8.6432168439e-001	 1.2986690926e+000	-1.8779372998e+000
 8.5007316004e-001	 1.3080401693e+000	-1.8596847647e+000
 8.3573954631e-001	 1.3172444570e+000	-1.8405018030e+000
 8.2132373057e-001	 1.3262808798e+000	-1.8215507457e+000
 8.0682861600e-001	 1.3351484274e+000	-1.8036706768e+000
 7.9225711971e-001	 1.3438461553e+000	-1.7828095364e+000
 7.7761217094e-001	 1.3523731854e+000	-1.7580184683e+000
 7.6289670918e-001	 1.3607287053e+000	-1.7307855413e+000
 9.1040237334e-001	 1.2749926465e+000	-1.9152577219e+000
 8.9636652585e-001	 1.2848991385e+000	-1.9077853495e+000
 8.8223663978e-001	 1.2946417637e+000	-1.8953544710e+000
 8.6801555622e-001	 1.3042192451e+000	-1.8795871524e+000
 8.5370613761e-001	 1.3136303712e+000	-1.8619594456e+000
 8.3931126598e-001	 1.3228739955e+000	-1.8437961044e+000
 8.2483384104e-001	 1.3319490375e+000	-1.8262665481e+000
 8.1027677836e-001	 1.3408544825e+000	-1.8075474595e+000
 7.9564300752e-001	 1.3495893821e+000	-1.7839935258e+000
 7.8093547029e-001	 1.3581528543e+000	-1.7570624747e+000
 7.6615711872e-001	 1.3665440835e+000	-1.7282832365e+000
 9.1427662382e-001	 1.2804184241e+000	-1.9165650735e+000
 9.0018104626e-001	 1.2903670737e+000	-1.9087896560e+000
 8.8599102995e-001	 1.3001511589e+000	-1.8964876123e+000
 8.7170942805e-001	 1.3097693977e+000	-1.8812836103e+000
 8.5733911519e-001	 1.3192205731e+000	-1.8646527670e+000
 8.4288298566e-001	 1.3285035340e+000	-1.8479151986e+000
 8.2834395151e-001	 1.3376171951e+000	-1.8312918032e+000
 8.1372494072e-001	 1.3465605376e+000	-1.8098132518e+000
 7.9902889534e-001	 1.3553326089e+000	-1.7839058991e+000
 7.8425876964e-001	 1.3639325233e+000	-1.7551436592e+000
 7.6941752826e-001	 1.3723594616e+000	-1.7250802795e+000
 9.1815087429e-001	 1.2858442018e+000	-1.9171119883e+000
 9.0399556667e-001	 1.2958350088e+000	-1.9092307960e+000
 8.8974542012e-001	 1.3056605541e+000	-1.8973282326e+000
 8.7540329987e-001	 1.3153195502e+000	-1.8830177753e+000
 8.6097209277e-001	 1.3248107750e+000	-1.8677592638e+000
 8.4645470534e-001	 1.3341330725e+000	-1.8528179497e+000
 8.3185406197e-001	 1.3432853528e+000	-1.8343821296e+000
 8.1717310307e-001	 1.3522665927e+000	-1.8103943348e+000
 8.0241478315e-001	 1.3610758357e+000	-1.7824570872e+000
 7.8758206899e-001	 1.3697121923e+000	-1.7521533492e+000
 7.7267793779e-001	 1.3781748397e+000	-1.7210458476e+000
 9.2202512477e-001	 1.2912699795e+000	-1.9168535349e+000
 9.0781008709e-001	 1.3013029439e+000	-1.9090793657e+000
 8.9349981029e-001	 1.3111699493e+000	-1.8978582112e+000
 8.7909717170e-001	 1.3208697027e+000	-1.8847787547e+000
 8.6460507035e-001	 1.3304009769e+000	-1.8712714071e+000
 8.5002642501e-001	 1.3397626110e+000	-1.8564657761e+000
 8.3536417244e-001	 1.3489535105e+000	-1.8353865599e+000
 8.2062126543e-001	 1.3579726478e+000	-1.8092190547e+000
 8.0580067096e-001	 1.3668190625e+000	-1.7795597918e+000
 7.9090536834e-001	 1.3754918612e+000	-1.7479854025e+000
 7.7593834733e-001	 1.3839902179e+000	-1.7160519577e+000
 9.2589937524e-001	 1.2966957572e+000	-1.9157434812e+000
 9.1162460750e-001	 1.3067708790e+000	-1.9083043625e+000
 8.9725420046e-001	 1.3166793445e+000	-1.8980576090e+000
 8.8279104353e-001	 1.3264198552e+000	-1.8865536935e+000
 8.6823804792e-001	 1.3359911788e+000	-1.8748074744e+000
 8.5359814469e-001	 1.3453921495e+000	-1.8576426656e+000
 8.3887428291e-001	 1.3546216681e+000	-1.8342475864e+000
 8.2406942778e-001	 1.3636787029e+000	-1.8062178060e+000
 8.0918655877e-001	 1.3725622893e+000	-1.7751289655e+000
 7.9422866769e-001	 1.3812715302e+000	-1.7425361817e+000
 7.7919875687e-001	 1.3898055960e+000	-1.7099734345e+000
 9.2977362572e-001	 1.3021215348e+000	-1.9137343194e+000
 9.1543912792e-001	 1.3122388141e+000	-1.9068732133e+000
 9.0100859063e-001	 1.3221887397e+000	-1.8979046990e+000
 8.8648491536e-001	 1.3319700078e+000	-1.8883278062e+000
 8.7187102550e-001	 1.3415813808e+000	-1.8759377045e+000
 8.5716986437e-001	 1.3510216880e+000	-1.8563014715e+000
 8.4238439338e-001	 1.3602898258e+000	-1.8309095895e+000
 8.2751759014e-001	 1.3693847580e+000	-1.8013230153e+000
 8.1257244658e-001	 1.3783055161e+000	-1.7690817908e+000
 7.9755196704e-001	 1.3870511992e+000	-1.7357045288e+000
 7.8245916641e-001	 1.3956209742e+000	-1.7026878790e+000
 7.4985507103e-001	 1.3374671927e+000	-1.7365058777e+000
 7.3532694294e-001	 1.3455093710e+000	-1.7187197212e+000
 7.2073532834e-001	 1.3533816217e+000	-1.7040721272e+000
 7.0608313551e-001	 1.3610833429e+000	-1.6900315659e+000
 6.9137327568e-001	 1.3686139973e+000	-1.6740675937e+000
 6.7660866123e-001	 1.3759731119e+000	-1.6536562587e+000
 6.6179220402e-001	 1.3831602784e+000	-1.6270145554e+000
 6.4692681362e-001	 1.3901751520e+000	-1.6011575022e+000
 6.3201539562e-001	 1.3970174516e+000	-1.5763486845e+000
 6.1706085001e-001	 1.4036869593e+000	-1.5500557333e+000
 6.0206606944e-001	 1.4101835197e+000	-1.5199631752e+000
 7.5311548057e-001	 1.3432825709e+000	-1.7354400371e+000
 7.3852418341e-001	 1.3513597169e+000	-1.7156403312e+000
 7.2386912369e-001	 1.3592661966e+000	-1.6997323934e+000
 7.0915322236e-001	 1.3670014053e+000	-1.6851162764e+000
 6.9437940328e-001	 1.3745648034e+000	-1.6691899945e+000
 6.7955059151e-001	 1.3819559159e+000	-1.6493551058e+000
 6.6466971155e-001	 1.3891743325e+000	-1.6231455836e+000
 6.4973968564e-001	 1.3962197071e+000	-1.5961465660e+000
 6.3476343202e-001	 1.4030917574e+000	-1.5705546447e+000
 6.1974386324e-001	 1.4097902645e+000	-1.5437613830e+000
 6.0468388457e-001	 1.4163150723e+000	-1.5133765373e+000
 7.5637589011e-001	 1.3490979490e+000	-1.7342258753e+000
 7.4172142387e-001	 1.3572100629e+000	-1.7126958620e+000
 7.2700291905e-001	 1.3651507716e+000	-1.6957212332e+000
 7.1222330920e-001	 1.3729194677e+000	-1.6806437034e+000
 6.9738553087e-001	 1.3805156095e+000	-1.6648002479e+000
 6.8249252178e-001	 1.3879387198e+000	-1.6455288403e+000
 6.6754721909e-001	 1.3951883866e+000	-1.6201740569e+000
 6.5255255767e-001	 1.4022642623e+000	-1.5919718583e+000
 6.3751146841e-001	 1.4091660632e+000	-1.5654762318e+000
 6.2242687648e-001	 1.4158935697e+000	-1.5380364779e+000
 6.0730169971e-001	 1.4224466248e+000	-1.5072001903e+000
 7.5963629964e-001	 1.3549133272e+000	-1.7327208882e+000
 7.4491866434e-001	 1.3630604089e+000	-1.7097211733e+000
 7.3013671440e-001	 1.3710353465e+000	-1.6918555141e+000
 7.1529339605e-001	 1.3788375302e+000	-1.6764172320e+000
 7.0039165847e-001	 1.3864664156e+000	-1.6606926304e+000
 6.8543445205e-001	 1.3939215237e+000	-1.6419668641e+000
 6.7042472662e-001	 1.4012024407e+000	-1.6175296722e+000
 6.5536542970e-001	 1.4083088174e+000	-1.5884164203e+000
 6.4025950480e-001	 1.4152403691e+000	-1.5609094201e+000
 6.2510988972e-001	 1.4219968749e+000	-1.5326934940e+000
 6.0991951485e-001	 1.4285781774e+000	-1.5012665389e+000
 7.6289670918e-001	 1.3607287053e+000	-1.7307855413e+000
 7.4811590481e-001	 1.3689107548e+000	-1.7065544144e+000
 7.3327050976e-001	 1.3769199214e+000	-1.6879556326e+000
 7.1836348289e-001	 1.3847555926e+000	-1.6722439380e+000
 7.0339778606e-001	 1.3924172217e+000	-1.6566651944e+000
 6.8837638232e-001	 1.3999043276e+000	-1.6384623662e+000
 6.7330223415e-001	 1.4072164948e+000	-1.6148813575e+000
 6.5817830173e-001	 1.4143533726e+000	-1.5852651844e+000
 6.4300754120e-001	 1.4213146749e+000	-1.5566518180e+000
 6.2779290296e-001	 1.4281001801e+000	-1.5275462257e+000
 6.1253732999e-001	 1.4347097300e+000	-1.4954089353e+000
 7.6615711872e-001	 1.3665440835e+000	-1.7282832365e+000
 7.5131314527e-001	 1.3747611008e+000	-1.7030369849e+000
 7.3640430511e-001	 1.3828044963e+000	-1.6838454704e+000
 7.2143356974e-001	 1.3906736550e+000	-1.6679345400e+000
 7.0640391366e-001	 1.3983680278e+000	-1.6525197185e+000
 6.9131831259e-001	 1.4058871315e+000	-1.6348122736e+000
 6.7617974168e-001	 1.4132305489e+000	-1.6120251392e+000
 6.6099117375e-001	 1.4203979277e+000	-1.5823049948e+000
 6.4575557759e-001	 1.4273889807e+000	-1.5525026890e+000
 6.3047591619e-001	 1.4342034853e+000	-1.5224098089e+000
 6.1515514513e-001	 1.4408412826e+000	-1.4894617062e+000
 7.6941752826e-001	 1.3723594616e+000	-1.7250802795e+000
 7.5451038574e-001	 1.3806114468e+000	-1.6990134955e+000
 7.3953810047e-001	 1.3886890713e+000	-1.6793523501e+000
 7.2450365658e-001	 1.3965917174e+000	-1.6633033526e+000
 7.0941004126e-001	 1.4043188339e+000	-1.6480616591e+000
 6.9426024286e-001	 1.4118699355e+000	-1.6308172025e+000
 6.7905724921e-001	 1.4192446030e+000	-1.6087606761e+000
 6.6380404578e-001	 1.4264424828e+000	-1.5793246289e+000
 6.4850361398e-001	 1.4334632865e+000	-1.5482629738e+000
 6.3315892943e-001	 1.4403067904e+000	-1.5171007446e+000
 6.1777296026e-001	 1.4469728352e+000	-1.4832601788e+000
 7.7267793779e-001	 1.3781748397e+000	-1.7210458476e+000
 7.5770762621e-001	 1.3864617927e+000	-1.6943317296e+000
 7.4267189582e-001	 1.3945736462e+000	-1.6743069924e+000
 7.2757374343e-001	 1.4025097798e+000	-1.6581682399e+000
 7.1241616886e-001	 1.4102696400e+000	-1.6431001026e+000
 6.9720217314e-001	 1.4178527394e+000	-1.6262814098e+000
 6.8193475674e-001	 1.4252586571e+000	-1.6048912120e+000
 6.6661691781e-001	 1.4324870380e+000	-1.5761148193e+000
 6.5125165038e-001	 1.4395375924e+000	-1.5437353122e+000
 6.3584194267e-001	 1.4464100956e+000	-1.5114369233e+000
 6.2039077540e-001	 1.4531043878e+000	-1.4766407081e+000
 7.7593834733e-001	 1.3839902179e+000	-1.7160519577e+000
 7.6090486668e-001	 1.3923121387e+000	-1.6888426051e+000
 7.4580569118e-001	 1.4004582211e+000	-1.6685434732e+000
 7.3064383028e-001	 1.4084278422e+000	-1.6523505700e+000
 7.1542229645e-001	 1.4162204461e+000	-1.6374477178e+000
 7.0014410341e-001	 1.4238355433e+000	-1.6210127464e+000
 6.8481226428e-001	 1.4312727112e+000	-1.6002235305e+000
 6.6942978984e-001	 1.4385315931e+000	-1.5722638603e+000
 6.5399968677e-001	 1.4456118982e+000	-1.5387240667e+000
 6.3852495591e-001	 1.4525134008e+000	-1.5052376494e+000
 6.2300859054e-001	 1.4592359404e+000	-1.4694407048e+000
 7.7919875687e-001	 1.3898055960e+000	-1.7099734345e+000
 7.6410210715e-001	 1.3981624846e+000	-1.6824001369e+000
 7.4893948653e-001	 1.4063427960e+000	-1.6618991818e+000
 7.3371391712e-001	 1.4143459047e+000	-1.6456751702e+000
 7.1842842405e-001	 1.4221712522e+000	-1.6309207103e+000
 7.0308603368e-001	 1.4298183472e+000	-1.6148226104e+000
 6.8768977181e-001	 1.4372867653e+000	-1.5945679091e+000
 6.7224266187e-001	 1.4445761483e+000	-1.5673497339e+000
 6.5674772317e-001	 1.4516862040e+000	-1.5330353463e+000
 6.4120796915e-001	 1.4586167060e+000	-1.4983236668e+000
 6.2562640568e-001	 1.4653674929e+000	-1.4614986628e+000
 7.8245916641e-001	 1.3956209742e+000	-1.7026878790e+000
 7.6729934761e-001	 1.4040128306e+000	-1.6748613999e+000
 7.5207328189e-001	 1.4122273710e+000	-1.6542147798e+000
 7.3678400397e-001	 1.4202639671e+000	-1.6379702828e+000
 7.2143455165e-001	 1.4281220583e+000	-1.6233387764e+000
 7.0602796396e-001	 1.4358011511e+000	-1.6075259015e+000
 6.9056727934e-001	 1.4433008194e+000	-1.5877380748e+000
 6.7505553390e-001	 1.4506207034e+000	-1.5611883120e+000
 6.5949575956e-001	 1.4577605098e+000	-1.5264770307e+000
 6.4389098239e-001	 1.4647200112e+000	-1.4905171846e+000
 6.2824422082e-001	 1.4714990455e+000	-1.4526541879e+000
 6.0206606944e-001	 1.4101835197e+000	-1.5199631752e+000
 5.8703168008e-001	 1.4165079754e+000	-1.4894717433e+000
 5.7196280356e-001	 1.4226593082e+000	-1.4626989294e+000
 5.5686230299e-001	 1.4286375485e+000	-1.4386700339e+000
 5.4173302785e-001	 1.4344427869e+000	-1.4165660035e+000
 5.2657781239e-001	 1.4400751738e+000	-1.3957114431e+000
 5.1139947426e-001	 1.4455349184e+000	-1.3755629153e+000
 4.9620081298e-001	 1.4508222877e+000	-1.3556975636e+000
 4.8098460859e-001	 1.4559376062e+000	-1.3358020955e+000
 4.6575362026e-001	 1.4608812546e+000	-1.3156621489e+000
 4.5051058496e-001	 1.4656536691e+000	-1.2951520658e+000
 6.0468388457e-001	 1.4163150723e+000	-1.5133765373e+000
 5.8958412489e-001	 1.4226670271e+000	-1.4827278012e+000
 5.7444972810e-001	 1.4288451062e+000	-1.4558868381e+000
 5.5928356976e-001	 1.4348493402e+000	-1.4318484402e+000
 5.4408851173e-001	 1.4406798201e+000	-1.4097664074e+000
 5.2886740059e-001	 1.4463366969e+000	-1.3889413560e+000
 5.1362306624e-001	 1.4518201807e+000	-1.3688088289e+000
 4.9835832038e-001	 1.4571305398e+000	-1.3489277465e+000
 4.8307595513e-001	 1.4622680999e+000	-1.3289692307e+000
 4.6777874166e-001	 1.4672332436e+000	-1.3087058301e+000
 4.5246942883e-001	 1.4720264088e+000	-1.2880011662e+000
 6.0730169971e-001	 1.4224466248e+000	-1.5072001903e+000
 5.9213656971e-001	 1.4288260787e+000	-1.4762457952e+000
 5.7693665264e-001	 1.4350309042e+000	-1.4492139217e+000
 5.6170483653e-001	 1.4410611318e+000	-1.4250678482e+000
 5.4644399560e-001	 1.4469168533e+000	-1.4029328778e+000
 5.3115698879e-001	 1.4525982200e+000	-1.3820839480e+000
 5.1584665823e-001	 1.4581054430e+000	-1.3619335583e+000
 5.0051582778e-001	 1.4634387919e+000	-1.3420200541e+000
 4.8516730167e-001	 1.4685985937e+000	-1.3219963007e+000
 4.6980386305e-001	 1.4735852326e+000	-1.3016187745e+000
 4.5442827270e-001	 1.4783991485e+000	-1.2807370926e+000
 6.0991951485e-001	 1.4285781774e+000	-1.5012665389e+000
 5.9468901453e-001	 1.4349851304e+000	-1.4698781216e+000
 5.7942357719e-001	 1.4412167021e+000	-1.4425493836e+000
 5.6412610330e-001	 1.4472729235e+000	-1.4182111242e+000
 5.4879947948e-001	 1.4531538864e+000	-1.3959588409e+000
 5.3344657699e-001	 1.4588597431e+000	-1.3750401452e+000
 5.1807025021e-001	 1.4643907054e+000	-1.3548425117e+000
 5.0267333518e-001	 1.4697470440e+000	-1.3348814024e+000
 4.8725864820e-001	 1.4749290875e+000	-1.3147887985e+000
 4.7182898444e-001	 1.4799372217e+000	-1.2943021659e+000
 4.5638711657e-001	 1.4847718883e+000	-1.2732538769e+000
 6.1253732999e-001	 1.4347097300e+000	-1.4954089353e+000
 5.9724145935e-001	 1.4411441820e+000	-1.4634777572e+000
 5.8191050173e-001	 1.4474025001e+000	-1.4357626988e+000
 5.6654737007e-001	 1.4534847152e+000	-1.4111611562e+000
 5.5115496336e-001	 1.4593909196e+000	-1.3887375545e+000
 5.3573616519e-001	 1.4651212662e+000	-1.3677105727e+000
 5.2029384219e-001	 1.4706759677e+000	-1.3474407219e+000
 5.0483084258e-001	 1.4760552961e+000	-1.3274183153e+000
 4.8934999474e-001	 1.4812595813e+000	-1.3072518655e+000
 4.7385410584e-001	 1.4862892107e+000	-1.2866569329e+000
 4.5834596044e-001	 1.4911446280e+000	-1.2654454487e+000
 6.1515514513e-001	 1.4408412826e+000	-1.4894617062e+000
 5.9979390416e-001	 1.4473032337e+000	-1.4568982882e+000
 5.8439742628e-001	 1.4535882981e+000	-1.4287236455e+000
 5.6896863684e-001	 1.4596965069e+000	-1.4038008875e+000
 5.5351044724e-001	 1.4656279527e+000	-1.3811621403e+000
 5.3802575340e-001	 1.4713827892e+000	-1.3599955863e+000
 5.2251743417e-001	 1.4769612301e+000	-1.3396328761e+000
 5.0698834998e-001	 1.4823635482e+000	-1.3195369515e+000
 4.9144134128e-001	 1.4875900751e+000	-1.2992903142e+000
 4.7587922723e-001	 1.4926411997e+000	-1.2785837670e+000
 4.6030480431e-001	 1.4975173677e+000	-1.2572056465e+000
 6.1777296026e-001	 1.4469728352e+000	-1.4832601788e+000
 6.0234634898e-001	 1.4534622853e+000	-1.4499939402e+000
 5.8688435082e-001	 1.4597740961e+000	-1.4213023373e+000
 5.7138990361e-001	 1.4659082986e+000	-1.3960133490e+000
 5.5586593112e-001	 1.4718649859e+000	-1.3731256171e+000
 5.4031534160e-001	 1.4776443123e+000	-1.3517953046e+000
 5.2474102616e-001	 1.4832464924e+000	-1.3313233464e+000
 5.0914585738e-001	 1.4886718003e+000	-1.3111431313e+000
 4.9353268782e-001	 1.4939205688e+000	-1.2908086510e+000
 4.7790434862e-001	 1.4989931887e+000	-1.2699831401e+000
 4.6226364818e-001	 1.5038901075e+000	-1.2484282298e+000
 6.2039077540e-001	 1.4531043878e+000	-1.4766407081e+000
 6.0489879380e-001	 1.4596213370e+000	-1.4426196088e+000
 5.8937127537e-001	 1.4659598940e+000	-1.4133692554e+000
 5.7381117038e-001	 1.4721200902e+000	-1.3876816930e+000
 5.5822141501e-001	 1.4781020191e+000	-1.3645209343e+000
 5.4260492980e-001	 1.4839058354e+000	-1.3430096412e+000
 5.2696461814e-001	 1.4895317547e+000	-1.3224162188e+000
 5.1130336478e-001	 1.4949800524e+000	-1.3021423637e+000
 4.9562403435e-001	 1.5002510626e+000	-1.2817110990e+000
 4.7992947002e-001	 1.5053451777e+000	-1.2607553231e+000
 4.6422249205e-001	 1.5102628472e+000	-1.2390068916e+000
 6.2300859054e-001	 1.4592359404e+000	-1.4694407048e+000
 6.0745123862e-001	 1.4657803887e+000	-1.4346308897e+000
 5.9185819992e-001	 1.4721456920e+000	-1.4047952805e+000
 5.7623243715e-001	 1.4783318819e+000	-1.3786892255e+000
 5.6057689889e-001	 1.4843390522e+000	-1.3552410044e+000
 5.4489451800e-001	 1.4901673585e+000	-1.3335383363e+000
 5.2918821013e-001	 1.4958170171e+000	-1.3128153241e+000
 5.1346087218e-001	 1.5012883045e+000	-1.2924398732e+000
 4.9771538089e-001	 1.5065815564e+000	-1.2719016213e+000
 4.8195459141e-001	 1.5116971668e+000	-1.2508004032e+000
 4.6618133592e-001	 1.5166355869e+000	-1.2288352703e+000
 6.2562640568e-001	 1.4653674929e+000	-1.4614986628e+000
 6.1000368344e-001	 1.4719394403e+000	-1.4258841092e+000
 5.9434512446e-001	 1.4783314900e+000	-1.3954517258e+000
 5.7865370392e-001	 1.4845436736e+000	-1.3689194406e+000
 5.6293238277e-001	 1.4905760854e+000	-1.3451787363e+000
 5.4718410620e-001	 1.4964288816e+000	-1.3232809891e+000
 5.3141180211e-001	 1.5021022794e+000	-1.3024242670e+000
 5.1561837958e-001	 1.5075965566e+000	-1.2819406268e+000
 4.9980672743e-001	 1.5129120502e+000	-1.2612839440e+000
 4.8397971281e-001	 1.5180491558e+000	-1.2400183028e+000
 4.6814017979e-001	 1.5230083267e+000	-1.2178069626e+000
 6.2824422082e-001	 1.4714990455e+000	-1.4526541879e+000
 6.1255612826e-001	 1.4780984920e+000	-1.4162363558e+000
 5.9683204901e-001	 1.4845172880e+000	-1.3852103693e+000
 5.8107497069e-001	 1.4907554653e+000	-1.3582560529e+000
 5.6528786665e-001	 1.4968131186e+000	-1.3342270685e+000
 5.4947369440e-001	 1.5026904046e+000	-1.3121370894e+000
 5.3363539409e-001	 1.5083875417e+000	-1.2911464567e+000
 5.1777588698e-001	 1.5139048087e+000	-1.2705493607e+000
 5.0189807397e-001	 1.5192425439e+000	-1.2497615790e+000
 4.8600483420e-001	 1.5244011448e+000	-1.2283087981e+000
 4.7009902366e-001	 1.5293810664e+000	-1.2058155365e+000
 4.5051058496e-001	 1.4656536691e+000	-1.2951520658e+000
 4.3525821595e-001	 1.4702553399e+000	-1.2752837244e+000
 4.1999920091e-001	 1.4746868094e+000	-1.2569154219e+000
 4.0473620139e-001	 1.4789486721e+000	-1.2398058588e+000
 3.8947185191e-001	 1.4830415738e+000	-1.2237796593e+000
 3.7420875878e-001	 1.4869662112e+000	-1.2087198935e+000
 3.5894949905e-001	 1.4907233297e+000	-1.1945609880e+000
 3.4369661943e-001	 1.4943137236e+000	-1.1812820162e+000
 3.2845263534e-001	 1.4977382337e+000	-1.1689003536e+000
 3.1322002990e-001	 1.5009977473e+000	-1.1574656832e+000
 2.9800125306e-001	 1.5040931960e+000	-1.1470543317e+000
 4.5246942883e-001	 1.4720264088e+000	-1.2880011662e+000
 4.3715074171e-001	 1.4766480879e+000	-1.2679017334e+000
 4.2182537966e-001	 1.4810988257e+000	-1.2493126426e+000
 4.0649601582e-001	 1.4853792192e+000	-1.2320016781e+000
 3.9116529614e-001	 1.4894899171e+000	-1.2158022497e+000
 3.7583583827e-001	 1.4934316190e+000	-1.2006058893e+000
 3.6051023047e-001	 1.4972050737e+000	-1.1863551518e+000
 3.4519103052e-001	 1.5008110787e+000	-1.1730369093e+000
 3.2988076478e-001	 1.5042504789e+000	-1.1606760228e+000
 3.1458192717e-001	 1.5075241649e+000	-1.1493293762e+000
 2.9929697828e-001	 1.5106330729e+000	-1.1390802513e+000
 4.5442827270e-001	 1.4783991485e+000	-1.2807370926e+000
 4.3904326747e-001	 1.4830408360e+000	-1.2604198434e+000
 4.2365155842e-001	 1.4875108420e+000	-1.2416095149e+000
 4.0825583025e-001	 1.4918097663e+000	-1.2240842208e+000
 3.9285874037e-001	 1.4959382604e+000	-1.2076875610e+000
 3.7746291776e-001	 1.4998970267e+000	-1.1923210884e+000
 3.6207096189e-001	 1.5036868176e+000	-1.1779371949e+000
 3.4668544162e-001	 1.5073084339e+000	-1.1645324050e+000
 3.3130889422e-001	 1.5107627240e+000	-1.1521410610e+000
 3.1594382444e-001	 1.5140505826e+000	-1.1408293805e+000
 3.0059270350e-001	 1.5171729497e+000	-1.1306898668e+000
 4.5638711657e-001	 1.4847718883e+000	-1.2732538769e+000
 4.4093579324e-001	 1.4894335840e+000	-1.2527246409e+000
 4.2547773718e-001	 1.4939228583e+000	-1.2336873840e+000
 4.1001564467e-001	 1.4982403134e+000	-1.2159317614e+000
 3.9455218459e-001	 1.5023866036e+000	-1.1993129308e+000
 3.7908999725e-001	 1.5063624345e+000	-1.1837439845e+000
 3.6363169331e-001	 1.5101685616e+000	-1.1691888168e+000
 3.4817985271e-001	 1.5138057891e+000	-1.1556554128e+000
 3.3273702367e-001	 1.5172749691e+000	-1.1431895419e+000
 3.1730572171e-001	 1.5205770003e+000	-1.1318688366e+000
 3.0188842872e-001	 1.5237128265e+000	-1.1217972343e+000
 4.5834596044e-001	 1.4911446280e+000	-1.2654454487e+000
 4.4282831900e-001	 1.4958263321e+000	-1.2447027743e+000
 4.2730391593e-001	 1.5003348746e+000	-1.2254277911e+000
 4.1177545910e-001	 1.5046708605e+000	-1.2074228740e+000
 3.9624562882e-001	 1.5088349469e+000	-1.1905560697e+000
 3.8071707674e-001	 1.5128278423e+000	-1.1747534887e+000
 3.6519242473e-001	 1.5166503055e+000	-1.1599921502e+000
 3.4967426380e-001	 1.5203031443e+000	-1.1462932613e+000
 3.3416515311e-001	 1.5237872142e+000	-1.1337159164e+000
 3.1866761898e-001	 1.5271034179e+000	-1.1223511928e+000
 3.0318415394e-001	 1.5302527034e+000	-1.1123166202e+000
 4.6030480431e-001	 1.4975173677e+000	-1.2572056465e+000
 4.4472084476e-001	 1.5022190801e+000	-1.2362409598e+000
 4.2913009469e-001	 1.5067468909e+000	-1.2167124734e+000
 4.1353527353e-001	 1.5111014076e+000	-1.1984364281e+000
 3.9793907305e-001	 1.5152832902e+000	-1.1812950538e+000
 3.8234415623e-001	 1.5192932501e+000	-1.1652289193e+000
 3.6675315615e-001	 1.5231320495e+000	-1.1502297477e+000
 3.5116867490e-001	 1.5268004994e+000	-1.1363336851e+000
 3.3559328256e-001	 1.5302994594e+000	-1.1236149998e+000
 3.2002951624e-001	 1.5336298356e+000	-1.1121801924e+000
 3.0447987916e-001	 1.5367925802e+000	-1.1021624901e+000
 4.6226364818e-001	 1.5038901075e+000	-1.2484282298e+000
 4.4661337052e-001	 1.5086118281e+000	-1.2272259869e+000
 4.3095627345e-001	 1.5131589072e+000	-1.2074233653e+000
 4.1529508795e-001	 1.5175319547e+000	-1.1888515848e+000
 3.9963251728e-001	 1.5217316334e+000	-1.1714083181e+000
 3.8397123572e-001	 1.5257586579e+000	-1.1550499918e+000
 3.6831388757e-001	 1.5296137934e+000	-1.1397845714e+000
 3.5266308599e-001	 1.5332978546e+000	-1.1256648123e+000
 3.3702141200e-001	 1.5368117045e+000	-1.1127819583e+000
 3.2139141351e-001	 1.5401562532e+000	-1.1012598612e+000
 3.0577560439e-001	 1.5433324570e+000	-1.0912494974e+000
 4.6422249205e-001	 1.5102628472e+000	-1.2390068916e+000
 4.4850589628e-001	 1.5150045762e+000	-1.2175447250e+000
 4.3278245220e-001	 1.5195709235e+000	-1.1974425991e+000
 4.1705490238e-001	 1.5239625018e+000	-1.1785477943e+000
 4.0132596150e-001	 1.5281799767e+000	-1.1607746494e+000
 3.8559831521e-001	 1.5322240657e+000	-1.1440968106e+000
 3.6987461900e-001	 1.5360955374e+000	-1.1285399811e+000
 3.5415749708e-001	 1.5397952098e+000	-1.1141751524e+000
 3.3844954144e-001	 1.5433239496e+000	-1.1011122970e+000
 3.2275331078e-001	 1.5466826709e+000	-1.0894944956e+000
 3.0707132961e-001	 1.5498723339e+000	-1.0794924730e+000
 4.6618133592e-001	 1.5166355869e+000	-1.2288352703e+000
 4.5039842204e-001	 1.5213973242e+000	-1.2070841298e+000
 4.3460863096e-001	 1.5259829398e+000	-1.1866525073e+000
 4.1881471681e-001	 1.5303930489e+000	-1.1674047932e+000
 4.0301940573e-001	 1.5346283200e+000	-1.1492731810e+000
 3.8722539471e-001	 1.5386894735e+000	-1.1322498598e+000
 3.7143535042e-001	 1.5425772813e+000	-1.1163797247e+000
 3.5565190818e-001	 1.5462925649e+000	-1.1017535850e+000
 3.3987767089e-001	 1.5498361947e+000	-1.0885018482e+000
 3.2411520805e-001	 1.5532090886e+000	-1.0767886517e+000
 3.0836705483e-001	 1.5564122107e+000	-1.0668064145e+000
 4.6814017979e-001	 1.5230083267e+000	-1.2178069626e+000
 4.5229094781e-001	 1.5277900723e+000	-1.1957312506e+000
 4.3643480972e-001	 1.5323949561e+000	-1.1749356242e+000
 4.2057453123e-001	 1.5368235960e+000	-1.1553026024e+000
 4.0471284996e-001	 1.5410766632e+000	-1.1367833872e+000
 3.8885247420e-001	 1.5451548813e+000	-1.1193899957e+000
 3.7299608184e-001	 1.5490590253e+000	-1.1031879281e+000
 3.5714631927e-001	 1.5527899201e+000	-1.0882893492e+000
 3.4130580033e-001	 1.5563484398e+000	-1.0748467604e+000
 3.2547710532e-001	 1.5597355062e+000	-1.0630471338e+000
 3.0966278005e-001	 1.5629520875e+000	-1.0531064772e+000
 4.7009902366e-001	 1.5293810664e+000	-1.2058155365e+000
 4.5418347357e-001	 1.5341828203e+000	-1.1833732372e+000
 4.3826098847e-001	 1.5388069724e+000	-1.1621746887e+000
 4.2233434566e-001	 1.5432541432e+000	-1.1421215258e+000
 4.0640629419e-001	 1.5475250065e+000	-1.1231850784e+000
 3.9047955369e-001	 1.5516202891e+000	-1.1053984394e+000
 3.7455681326e-001	 1.5555407692e+000	-1.0888490862e+000
 3.5864073036e-001	 1.5592872753e+000	-1.0736720328e+000
 3.4273392977e-001	 1.5628606849e+000	-1.0600434873e+000
 3.2683900259e-001	 1.5662619239e+000	-1.0481749849e+000
 3.1095850527e-001	 1.5694919644e+000	-1.0383079643e+000
 2.9800125306e-001	 1.5040931960e+000	-1.1470543317e+000
 2.8280099903e-001	 1.5070251280e+000	-1.1375686000e+000
 2.6761936106e-001	 1.5097950381e+000	-1.1288569354e+000
 2.5245868003e-001	 1.5124039863e+000	-1.1209350963e+000
 2.3732126051e-001	 1.5148530722e+000	-1.1138142758e+000
 2.2220937007e-001	 1.5171434342e+000	-1.1074972014e+000
 2.0712523865e-001	 1.5192762483e+000	-1.1019744388e+000
 1.9207105792e-001	 1.5212527263e+000	-1.0972208765e+000
 1.7704898073e-001	 1.5230741153e+000	-1.0931923669e+000
 1.6206112059e-001	 1.5247416959e+000	-1.0898225004e+000
 1.4710955121e-001	 1.5262567814e+000	-1.0870194910e+000
 2.9929697828e-001	 1.5106330729e+000	-1.1390802513e+000
 2.8403063274e-001	 1.5135777530e+000	-1.1297688953e+000
 2.6878298421e-001	 1.5163597069e+000	-1.1211771977e+000
 2.5355638373e-001	 1.5189799989e+000	-1.1133219527e+000
 2.3835314591e-001	 1.5214397336e+000	-1.1062168696e+000
 2.2317554817e-001	 1.5237400542e+000	-1.0998687174e+000
 2.0802583015e-001	 1.5258821418e+000	-1.0942736748e+000
 1.9290619304e-001	 1.5278672136e+000	-1.0894138601e+000
 1.7781879906e-001	 1.5296965221e+000	-1.0852540158e+000
 1.6276577092e-001	 1.5313713535e+000	-1.0817383250e+000
 1.4774919132e-001	 1.5328930266e+000	-1.0787873339e+000
 3.0059270350e-001	 1.5171729497e+000	-1.1306898668e+000
 2.8526026646e-001	 1.5201303780e+000	-1.1215092646e+000
 2.6994660735e-001	 1.5229243756e+000	-1.1130091439e+000
 2.5465408743e-001	 1.5255560115e+000	-1.1052061348e+000
 2.3938503131e-001	 1.5280263949e+000	-1.0981151128e+000
 2.2414172628e-001	 1.5303366742e+000	-1.0917453978e+000
 2.0892642165e-001	 1.5324880353e+000	-1.0860971596e+000
 1.9374132817e-001	 1.5344817010e+000	-1.0811580036e+000
 1.7858861740e-001	 1.5363189290e+000	-1.0768997090e+000
 1.6347042125e-001	 1.5380010111e+000	-1.0732750967e+000
 1.4838883144e-001	 1.5395292719e+000	-1.0702150002e+000
 3.0188842872e-001	 1.5237128265e+000	-1.1217972343e+000
 2.8648990017e-001	 1.5266830031e+000	-1.1127146755e+000
 2.7111023050e-001	 1.5294890444e+000	-1.1042868356e+000
 2.5575179114e-001	 1.5321320241e+000	-1.0965289789e+000
 2.4041691671e-001	 1.5346130562e+000	-1.0894557947e+000
 2.2510790438e-001	 1.5369332941e+000	-1.0830776614e+000
 2.0982701315e-001	 1.5390939289e+000	-1.0773971176e+000
 1.9457646329e-001	 1.5410961884e+000	-1.0724055127e+000
 1.7935843574e-001	 1.5429413359e+000	-1.0680798102e+000
 1.6417507157e-001	 1.5446306687e+000	-1.0643795161e+000
 1.4902847155e-001	 1.5461655172e+000	-1.0612437079e+000
 3.0318415394e-001	 1.5302527034e+000	-1.1123166202e+000
 2.8771953388e-001	 1.5332356281e+000	-1.1033102122e+000
 2.7227385365e-001	 1.5360537131e+000	-1.0949443919e+000
 2.5684949484e-001	 1.5387080367e+000	-1.0872318521e+000
 2.4144880211e-001	 1.5411997176e+000	-1.0801857415e+000
 2.2607408248e-001	 1.5435299141e+000	-1.0738160022e+000
 2.1072760465e-001	 1.5456998224e+000	-1.0681259174e+000
 1.9541159842e-001	 1.5477106758e+000	-1.0631088374e+000
 1.8012825408e-001	 1.5495637428e+000	-1.0587450568e+000
 1.6487972190e-001	 1.5512603263e+000	-1.0549988148e+000
 1.4966811167e-001	 1.5528017624e+000	-1.0518153926e+000
 3.0447987916e-001	 1.5367925802e+000	-1.1021624901e+000
 2.8894916759e-001	 1.5397882531e+000	-1.0932210661e+000
 2.7343747679e-001	 1.5426183819e+000	-1.0849159796e+000
 2.5794719854e-001	 1.5452840493e+000	-1.0772561434e+000
 2.4248068751e-001	 1.5477863789e+000	-1.0702518069e+000
 2.2704026058e-001	 1.5501265340e+000	-1.0639109789e+000
 2.1162819615e-001	 1.5523057160e+000	-1.0582360606e+000
 1.9624673354e-001	 1.5543251632e+000	-1.0532206581e+000
 1.8089807241e-001	 1.5561861496e+000	-1.0488465435e+000
 1.6558437223e-001	 1.5578899840e+000	-1.0450807375e+000
 1.5030775178e-001	 1.5594380077e+000	-1.0418726850e+000
 3.0577560439e-001	 1.5433324570e+000	-1.0912494974e+000
 2.9017880130e-001	 1.5463408782e+000	-1.0823725252e+000
 2.7460109994e-001	 1.5491830506e+000	-1.0741358047e+000
 2.5904490225e-001	 1.5518600618e+000	-1.0665432548e+000
 2.4351257291e-001	 1.5543730403e+000	-1.0596008636e+000
 2.2800643868e-001	 1.5567231540e+000	-1.0533132056e+000
 2.1252878765e-001	 1.5589116095e+000	-1.0476801708e+000
 1.9708186867e-001	 1.5609396505e+000	-1.0426938732e+000
 1.8166789075e-001	 1.5628085565e+000	-1.0383357074e+000
 1.6628902256e-001	 1.5645196416e+000	-1.0345735231e+000
 1.5094739189e-001	 1.5660742530e+000	-1.0313588896e+000
 3.0707132961e-001	 1.5498723339e+000	-1.0794924730e+000
 2.9140843502e-001	 1.5528935032e+000	-1.0706899654e+000
 2.7576472309e-001	 1.5557477194e+000	-1.0625381031e+000
 2.6014260595e-001	 1.5584360744e+000	-1.0550345929e+000
 2.4454445832e-001	 1.5609597016e+000	-1.0481797943e+000
 2.2897261678e-001	 1.5633197740e+000	-1.0419733422e+000
 2.1342937915e-001	 1.5655175031e+000	-1.0364109822e+000
 1.9791700379e-001	 1.5675541379e+000	-1.0314815860e+000
 1.8243770909e-001	 1.5694309634e+000	-1.0271643129e+000
 1.6699367289e-001	 1.5711492992e+000	-1.0234258877e+000
 1.5158703201e-001	 1.5727104983e+000	-1.0202179634e+000
 3.0836705483e-001	 1.5564122107e+000	-1.0668064145e+000
 2.9263806873e-001	 1.5594461282e+000	-1.0580988413e+000
 2.7692834623e-001	 1.5623123881e+000	-1.0500571332e+000
 2.6124030965e-001	 1.5650120870e+000	-1.0426715608e+000
 2.4557634372e-001	 1.5675463630e+000	-1.0359354830e+000
 2.2993879489e-001	 1.5699163939e+000	-1.0298420848e+000
 2.1432997065e-001	 1.5721233966e+000	-1.0243813299e+000
 1.9875213892e-001	 1.5741686253e+000	-1.0195370929e+000
 1.8320752743e-001	 1.5760533703e+000	-1.0152844373e+000
 1.6769832322e-001	 1.5777789568e+000	-1.0115870065e+000
 1.5222667212e-001	 1.5793467435e+000	-1.0083944961e+000
 3.0966278005e-001	 1.5629520875e+000	-1.0531064772e+000
 2.9386770244e-001	 1.5659987532e+000	-1.0445246773e+000
 2.7809196938e-001	 1.5688770568e+000	-1.0366271672e+000
 2.6233801336e-001	 1.5715880996e+000	-1.0293955506e+000
 2.4660822912e-001	 1.5741330243e+000	-1.0228148076e+000
 2.3090497299e-001	 1.5765130139e+000	-1.0168701575e+000
 2.1523056215e-001	 1.5787292902e+000	-1.0115441391e+000
 1.9958727404e-001	 1.5807831127e+000	-1.0068138712e+000
 1.8397734577e-001	 1.5826757771e+000	-1.0026484567e+000
 1.6840297355e-001	 1.5844086144e+000	-9.9900649804e-001
 1.5286631224e-001	 1.5859829888e+000	-9.9583368938e-001
 3.1095850527e-001	 1.5694919644e+000	-1.0383079643e+000
 2.9509733616e-001	 1.5725513783e+000	-1.0298930600e+000
 2.7925559253e-001	 1.5754417256e+000	-1.0221824839e+000
 2.6343571706e-001	 1.5781641122e+000	-1.0151479358e+000
 2.4764011452e-001	 1.5807196856e+000	-1.0087646318e+000
 2.3187115109e-001	 1.5831096338e+000	-1.0030083033e+000
 2.1613115365e-001	 1.5853351837e+000	-9.9785241598e-001
 2.0042240917e-001	 1.5873976000e+000	-9.9326556794e-001
 1.8474716411e-001	 1.5892981840e+000	-9.8920903236e-001
 1.6910762388e-001	 1.5910382720e+000	-9.8563440713e-001
 1.5350595236e-001	 1.5926192341e+000	-9.8248133821e-001
 1.4710955121e-001	 1.5262567814e+000	-1.0870194910e+000
 1.3219407699e-001	 1.5276209091e+000	-1.0841393960e+000
 1.1731896299e-001	 1.5288352157e+000	-1.0809116237e+000
 1.0248619185e-001	 1.5299011047e+000	-1.0777497740e+000
 8.7697703938e-002	 1.5308200075e+000	-1.0750210069e+000
 7.2955397098e-002	 1.5315933814e+000	-1.0730424367e+000
 5.8261126397e-002	 1.5322227086e+000	-1.0720775774e+000
 4.3616703950e-002	 1.5327094953e+000	-1.0723328285e+000
 2.9023898764e-002	 1.5330552697e+000	-1.0739539926e+000
 1.4484436621e-002	 1.5332615814e+000	-1.0770228182e+000
 0.0000000000e+000	 1.5333300000e+000	-1.0815535667e+000
 1.4774919132e-001	 1.5328930266e+000	-1.0787873339e+000
 1.3276886383e-001	 1.5342630857e+000	-1.0757714450e+000
 1.1782907205e-001	 1.5354826721e+000	-1.0724320820e+000
 1.0293180723e-001	 1.5365531957e+000	-1.0691932940e+000
 8.8079018197e-002	 1.5374760939e+000	-1.0664332021e+000
 7.3272611026e-002	 1.5382528304e+000	-1.0644804440e+000
 5.8514448858e-002	 1.5388848941e+000	-1.0636106621e+000
 4.3806351688e-002	 1.5393737973e+000	-1.0640430247e+000
 2.9150096213e-002	 1.5397210751e+000	-1.0659367711e+000
 1.4547415718e-002	 1.5399282839e+000	-1.0693877734e+000
 0.0000000000e+000	 1.5399970000e+000	-1.0744251130e+000
 1.4838883144e-001	 1.5395292719e+000	-1.0702150002e+000
 1.3334365067e-001	 1.5409052623e+000	-1.0670950833e+000
 1.1833918111e-001	 1.5421301285e+000	-1.0636595546e+000
 1.0337742262e-001	 1.5432052867e+000	-1.0603409060e+000
 8.8460332455e-002	 1.5441321803e+000	-1.0575266170e+000
 7.3589824954e-002	 1.5449122795e+000	-1.0555556452e+000
 5.8767771321e-002	 1.5455470795e+000	-1.0547149535e+000
 4.3995999427e-002	 1.5460380993e+000	-1.0552360616e+000
 2.9276293662e-002	 1.5463868806e+000	-1.0572916130e+000
 1.4610394816e-002	 1.5465949864e+000	-1.0609919497e+000
 0.0000000000e+000	 1.5466640000e+000	-1.0663816918e+000
 1.4902847155e-001	 1.5461655172e+000	-1.0612437079e+000
 1.3391843752e-001	 1.5475474389e+000	-1.0580469115e+000
 1.1884929017e-001	 1.5487775850e+000	-1.0545295663e+000
 1.0382303801e-001	 1.5498573777e+000	-1.0511305886e+000
 8.8841646714e-002	 1.5507882667e+000	-1.0482451986e+000
 7.3907038883e-002	 1.5515717286e+000	-1.0462214537e+000
 5.9021093783e-002	 1.5522092650e+000	-1.0453568103e+000
 4.4185647165e-002	 1.5527024013e+000	-1.0458947013e+000
 2.9402491111e-002	 1.5530526860e+000	-1.0480211190e+000
 1.4673373914e-002	 1.5532616889e+000	-1.0518611971e+000
 0.0000000000e+000	 1.5533310000e+000	-1.0574757872e+000
 1.4966811167e-001	 1.5528017624e+000	-1.0518153926e+000
 1.3449322436e-001	 1.5541896154e+000	-1.0485644151e+000
 1.1935939923e-001	 1.5554250414e+000	-1.0449786286e+000
 1.0426865339e-001	 1.5565094686e+000	-1.0415013428e+000
 8.9222960974e-002	 1.5574443532e+000	-1.0385338858e+000
 7.4224252813e-002	 1.5582311777e+000	-1.0364321774e+000
 5.9274416246e-002	 1.5588714504e+000	-1.0355033213e+000
 4.4375294904e-002	 1.5593667033e+000	-1.0360022034e+000
 2.9528688561e-002	 1.5597184915e+000	-1.0381280865e+000
 1.4736353012e-002	 1.5599283914e+000	-1.0420211934e+000
 0.0000000000e+000	 1.5599980000e+000	-1.0477592737e+000
 1.5030775178e-001	 1.5594380077e+000	-1.0418726850e+000
 1.3506801120e-001	 1.5608317920e+000	-1.0385859390e+000
 1.1986950829e-001	 1.5620724979e+000	-1.0349442129e+000
 1.0471426878e-001	 1.5631615596e+000	-1.0313931653e+000
 8.9604275233e-002	 1.5641004396e+000	-1.0283385842e+000
 7.4541466742e-002	 1.5648906268e+000	-1.0261429965e+000
 5.9527738709e-002	 1.5655336358e+000	-1.0251222865e+000
 4.4564942644e-002	 1.5660310053e+000	-1.0255423119e+000
 2.9654886010e-002	 1.5663842970e+000	-1.0276155041e+000
 1.4799332110e-002	 1.5665950939e+000	-1.0314974471e+000
 0.0000000000e+000	 1.5666650000e+000	-1.0372834286e+000
 1.5094739189e-001	 1.5660742530e+000	-1.0313588896e+000
 1.3564279805e-001	 1.5674739686e+000	-1.0280506632e+000
 1.2037961735e-001	 1.5687199543e+000	-1.0243647245e+000
 1.0515988417e-001	 1.5698136506e+000	-1.0207470228e+000
 8.9985589493e-002	 1.5707565260e+000	-1.0176061416e+000
 7.4858680672e-002	 1.5715500759e+000	-1.0153099410e+000
 5.9781061172e-002	 1.5721958213e+000	-1.0141821998e+000
 4.4754590383e-002	 1.5726953074e+000	-1.0144992434e+000
 2.9781083460e-002	 1.5730501024e+000	-1.0164865463e+000
 1.4862311208e-002	 1.5732617965e+000	-1.0203153004e+000
 0.0000000000e+000	 1.5733320000e+000	-1.0260989450e+000
 1.5158703201e-001	 1.5727104983e+000	-1.0202179634e+000
 1.3621758489e-001	 1.5741161452e+000	-1.0168985787e+000
 1.2088972641e-001	 1.5753674108e+000	-1.0131794771e+000
 1.0560549956e-001	 1.5764657416e+000	-1.0095048262e+000
 9.0366903753e-002	 1.5774126124e+000	-1.0062843235e+000
 7.5175894602e-002	 1.5782095250e+000	-1.0038898700e+000
 6.0034383635e-002	 1.5788580067e+000	-1.0026522314e+000
 4.4944238122e-002	 1.5793596094e+000	-1.0028576748e+000
 2.9907280909e-002	 1.5797159079e+000	-1.0047445679e+000
 1.4925290306e-002	 1.5799284990e+000	-1.0084999319e+000
 0.0000000000e+000	 1.5799990000e+000	-1.0142559441e+000
 1.5222667212e-001	 1.5793467435e+000	-1.0083944961e+000
 1.3679237173e-001	 1.5807583217e+000	-1.0050704647e+000
 1.2139983547e-001	 1.5820148672e+000	-1.0013286688e+000
 1.0605111494e-001	 1.5831178326e+000	-9.9760940601e-001
 9.0748218013e-002	 1.5840686988e+000	-9.9432178982e-001
 7.5493108531e-002	 1.5848689741e+000	-9.9184044996e-001
 6.0287706098e-002	 1.5855201922e+000	-9.9050221071e-001
 4.5133885861e-002	 1.5860239114e+000	-9.9060273164e-001
 3.0033478359e-002	 1.5863817133e+000	-9.9239309919e-001
 1.4988269404e-002	 1.5865952015e+000	-9.9607635949e-001
 0.0000000000e+000	 1.5866660000e+000	-1.0018039872e+000
 1.5286631224e-001	 1.5859829888e+000	-9.9583368938e-001
 1.3736715858e-001	 1.5874004983e+000	-9.9250786595e-001
 1.2190994454e-001	 1.5886623236e+000	-9.8875335747e-001
 1.0649673033e-001	 1.5897699236e+000	-9.8500448858e-001
 9.1129532272e-002	 1.5907247853e+000	-9.8166807216e-001
 7.5810322461e-002	 1.5915284232e+000	-9.7912013520e-001
 6.0541028561e-002	 1.5921823776e+000	-9.7770261022e-001
 4.5323533600e-002	 1.5926882134e+000	-9.7771997681e-001
 3.0159675808e-002	 1.5930475188e+000	-9.7943584110e-001
 1.5051248502e-002	 1.5932619040e+000	-9.8306944323e-001
 0.0000000000e+000	 1.5933330000e+000	-9.8879208740e-001
 1.5350595236e-001	 1.5926192341e+000	-9.8248133821e-001
 1.3794194542e-001	 1.5940426749e+000	-9.7915307049e-001
 1.2242005360e-001	 1.5953097801e+000	-9.7539543785e-001
 1.0694234572e-001	 1.5964220145e+000	-9.7163467227e-001
 9.1510846532e-002	 1.5973808717e+000	-9.6827355143e-001
 7.6127536390e-002	 1.5981878723e+000	-9.6568814757e-001
 6.0794351023e-002	 1.5988445630e+000	-9.6422452910e-001
 4.5513181338e-002	 1.5993525154e+000	-9.6419539943e-001
 3.0285873257e-002	 1.5997133243e+000	-9.6587666004e-001
 1.5114227599e-002	 1.5999286065e+000	-9.6950388782e-001
 0.0000000000e+000	 1.6000000000e+000	-9.7526872085e-001
 1.6000000000e+000	 0.0000000000e+000	 3.3470470222e+000
 1.5999286065e+000	 1.5114227599e-002	 3.3483452766e+000
 1.5997133243e+000	 3.0285873257e-002	 3.3462160854e+000
 1.5993525154e+000	 4.5513181338e-002	 3.3409508224e+000
 1.5988445630e+000	 6.0794351023e-002	 3.3328106330e+000
 1.5981878723e+000	 7.6127536390e-002	 3.3220271054e+000
 1.5973808717e+000	 9.1510846532e-002	 3.3088028806e+000
 1.5964220145e+000	 1.0694234572e-001	 3.2933122161e+000
 1.5953097801e+000	 1.2242005360e-001	 3.2757015169e+000
 1.5940426749e+000	 1.3794194542e-001	 3.2560898548e+000
 1.5926192341e+000	 1.5350595236e-001	 3.2345694954e+000
 1.6066670000e+000	 0.0000000000e+000	 3.3287112666e+000
 1.6065953090e+000	 1.5177206697e-002	 3.3301640032e+000
 1.6063791297e+000	 3.0412070705e-002	 3.3281825809e+000
 1.6060168174e+000	 4.5702829076e-002	 3.3230640064e+000
 1.6055067485e+000	 6.1047673486e-002	 3.3150756319e+000
 1.6048473214e+000	 7.6444750319e-002	 3.3044557715e+000
 1.6040369581e+000	 9.1892160791e-002	 3.2914142449e+000
 1.6030741055e+000	 1.0738796111e-001	 3.2761328642e+000
 1.6019572365e+000	 1.2293016266e-001	 3.2587658786e+000
 1.6006848514e+000	 1.3851673227e-001	 3.2394403964e+000
 1.5992554794e+000	 1.5414559247e-001	 3.2182568059e+000
 1.6133340000e+000	 0.0000000000e+000	 3.3135308613e+000
 1.6132620115e+000	 1.5240185794e-002	 3.3150740091e+000
 1.6130449352e+000	 3.0538268154e-002	 3.3131792740e+000
 1.6126811195e+000	 4.5892476814e-002	 3.3081491583e+000
 1.6121689339e+000	 6.1300995947e-002	 3.3002571175e+000
 1.6115067705e+000	 7.6761964248e-002	 3.2897481200e+000
 1.6106930445e+000	 9.2273475051e-002	 3.2768391225e+000
 1.6097261965e+000	 1.0783357649e-001	 3.2617194774e+000
 1.6086046930e+000	 1.2344027172e-001	 3.2445512872e+000
 1.6073270280e+000	 1.3909151911e-001	 3.2254697272e+000
 1.6058917246e+000	 1.5478523259e-001	 3.2045833563e+000
 1.6200010000e+000	 0.0000000000e+000	 3.3014679158e+000
 1.6199287141e+000	 1.5303164891e-002	 3.3030418036e+000
 1.6197107406e+000	 3.0664465602e-002	 3.3011765002e+000
 1.6193454215e+000	 4.6082124551e-002	 3.2961798756e+000
 1.6188311194e+000	 6.1554318409e-002	 3.2883313967e+000
 1.6181662196e+000	 7.7079178176e-002	 3.2778826277e+000
 1.6173491310e+000	 9.2654789310e-002	 3.2650576351e+000
 1.6163782875e+000	 1.0827919188e-001	 3.2500533126e+000
 1.6152521494e+000	 1.2395038078e-001	 3.2330396437e+000
 1.6139692046e+000	 1.3966630596e-001	 3.2141599195e+000
 1.6125279699e+000	 1.5542487270e-001	 3.1935309372e+000
 1.6266680000e+000	 0.0000000000e+000	 3.2924843986e+000
 1.6265954166e+000	 1.5366143988e-002	 3.2940338216e+000
 1.6263765461e+000	 3.0790663050e-002	 3.2921445831e+000
 1.6260097235e+000	 4.6271772289e-002	 3.2871298031e+000
 1.6254933048e+000	 6.1807640870e-002	 3.2792748794e+000
 1.6248256686e+000	 7.7396392104e-002	 3.2688379266e+000
 1.6240052174e+000	 9.3036103569e-002	 3.2560501086e+000
 1.6230303785e+000	 1.0872480727e-001	 3.2411158785e+000
 1.6218996058e+000	 1.2446048984e-001	 3.2242131449e+000
 1.6206113812e+000	 1.4024109280e-001	 3.2054933834e+000
 1.6191642152e+000	 1.5606451282e-001	 3.1850817175e+000
 1.6333350000e+000	 0.0000000000e+000	 3.2865421397e+000
 1.6332621191e+000	 1.5429123085e-002	 3.2880164261e+000
 1.6330423516e+000	 3.0916860497e-002	 3.2860538371e+000
 1.6326740255e+000	 4.6461420026e-002	 3.2809726352e+000
 1.6321554902e+000	 6.2060963331e-002	 3.2730640804e+000
 1.6314851177e+000	 7.7713606033e-002	 3.2625928061e+000
 1.6306613038e+000	 9.3417417828e-002	 3.2497970758e+000
 1.6296824695e+000	 1.0917042266e-001	 3.2348889363e+000
 1.6285470623e+000	 1.2497059891e-001	 3.2180542840e+000
 1.6272535577e+000	 1.4081587965e-001	 3.1994528669e+000
 1.6258004604e+000	 1.5670415294e-001	 3.1792182434e+000
 1.6400020000e+000	 0.0000000000e+000	 3.2836028335e+000
 1.6399288216e+000	 1.5492102181e-002	 3.2849559108e+000
 1.6397081570e+000	 3.1043057945e-002	 3.2828745701e+000
 1.6393383275e+000	 4.6651067763e-002	 3.2776821189e+000
 1.6388176757e+000	 6.2314285793e-002	 3.2696756225e+000
 1.6381445668e+000	 7.8030819961e-002	 3.2591262149e+000
 1.6373173902e+000	 9.3798732087e-002	 3.2462792773e+000
 1.6363345604e+000	 1.0961603804e-001	 3.2313545008e+000
 1.6351945187e+000	 1.2548070797e-001	 3.2145458511e+000
 1.6338957343e+000	 1.4139066649e-001	 3.1960214554e+000
 1.6324367057e+000	 1.5734379305e-001	 3.1759234372e+000
 1.6466690000e+000	 0.0000000000e+000	 3.2836280416e+000
 1.6465955241e+000	 1.5555081278e-002	 3.2848185037e+000
 1.6463739625e+000	 3.1169255393e-002	 3.2825770864e+000
 1.6460026295e+000	 4.6840715500e-002	 3.2772320558e+000
 1.6454798611e+000	 6.2567608254e-002	 3.2690862380e+000
 1.6448040159e+000	 7.8348033889e-002	 3.2584172629e+000
 1.6439734766e+000	 9.4180046346e-002	 3.2454776628e+000
 1.6429866514e+000	 1.1006165343e-001	 3.2304948414e+000
 1.6418419752e+000	 1.2599081703e-001	 3.2136709330e+000
 1.6405379109e+000	 1.4196545334e-001	 3.1951825714e+000
 1.6390729510e+000	 1.5798343317e-001	 3.1751805962e+000
 1.6533360000e+000	 0.0000000000e+000	 3.2865791955e+000
 1.6532622266e+000	 1.5618060375e-002	 3.2875703689e+000
 1.6530397679e+000	 3.1295452841e-002	 3.2851316894e+000
 1.6526669315e+000	 4.7030363238e-002	 3.2795963053e+000
 1.6521420466e+000	 6.2820930715e-002	 3.2712727713e+000
 1.6514634650e+000	 7.8665247818e-002	 3.2604452233e+000
 1.6506295631e+000	 9.4561360605e-002	 3.2473733934e+000
 1.6496387424e+000	 1.1050726882e-001	 3.2322924833e+000
 1.6484894316e+000	 1.2650092609e-001	 3.2154129141e+000
 1.6471800874e+000	 1.4254024018e-001	 3.1969199741e+000
 1.6457091962e+000	 1.5862307329e-001	 3.1769733915e+000
 1.6600030000e+000	 0.0000000000e+000	 3.2924175991e+000
 1.6599289291e+000	 1.5681039473e-002	 3.2931776099e+000
 1.6597055734e+000	 3.1421650289e-002	 3.2905086840e+000
 1.6593312336e+000	 4.7220010975e-002	 3.2847487865e+000
 1.6588042320e+000	 6.3074253177e-002	 3.2762121813e+000
 1.6581229141e+000	 7.8982461746e-002	 3.2651895341e+000
 1.6572856495e+000	 9.4942674864e-002	 3.2519478420e+000
 1.6562908334e+000	 1.1095288421e-001	 3.2367302077e+000
 1.6551368880e+000	 1.2701103515e-001	 3.2197554763e+000
 1.6538222640e+000	 1.4311502703e-001	 3.2012177590e+000
 1.6523454415e+000	 1.5926271340e-001	 3.1812858670e+000
 1.6666700000e+000	 0.0000000000e+000	 3.3011044315e+000
 1.6665956317e+000	 1.5744018570e-002	 3.3016062719e+000
 1.6663713789e+000	 3.1547847738e-002	 3.2986783790e+000
 1.6659955356e+000	 4.7409658713e-002	 3.2926634806e+000
 1.6654664174e+000	 6.3327575639e-002	 3.2838815429e+000
 1.6647823632e+000	 7.9299675675e-002	 3.2726298001e+000
 1.6639417359e+000	 9.5323989124e-002	 3.2591825954e+000
 1.6629429244e+000	 1.1139849959e-001	 3.2437910531e+000
 1.6617843445e+000	 1.2752114421e-001	 3.2266825996e+000
 1.6604644406e+000	 1.4368981387e-001	 3.2080603573e+000
 1.6589816868e+000	 1.5990235352e-001	 3.1881024379e+000
 1.5926192341e+000	 1.5350595236e-001	 3.2345694954e+000
 1.5910382720e+000	 1.6910762388e-001	 3.2098059727e+000
 1.5892981840e+000	 1.8474716411e-001	 3.1807324987e+000
 1.5873976000e+000	 2.0042240917e-001	 3.1478092320e+000
 1.5853351837e+000	 2.1613115365e-001	 3.1114642196e+000
 1.5831096338e+000	 2.3187115109e-001	 3.0720932991e+000
 1.5807196856e+000	 2.4764011452e-001	 3.0300601843e+000
 1.5781641122e+000	 2.6343571706e-001	 2.9856967760e+000
 1.5754417256e+000	 2.7925559253e-001	 2.9393037441e+000
 1.5725513783e+000	 2.9509733616e-001	 2.8911514281e+000
 1.5694919644e+000	 3.1095850527e-001	 2.8414811070e+000
 1.5992554794e+000	 1.5414559247e-001	 3.2182568059e+000
 1.5976679296e+000	 1.6981227421e-001	 3.1938148005e+000
 1.5959205909e+000	 1.8551698245e-001	 3.1649877249e+000
 1.5940120874e+000	 2.0125754430e-001	 3.1322526023e+000
 1.5919410773e+000	 2.1703174515e-001	 3.0960541526e+000
 1.5897062538e+000	 2.3283732920e-001	 3.0568045396e+000
 1.5873063470e+000	 2.4867199993e-001	 3.0148832952e+000
 1.5847401248e+000	 2.6453342076e-001	 2.9706374662e+000
 1.5820063943e+000	 2.8041921568e-001	 2.9243820306e+000
 1.5791040033e+000	 2.9632696987e-001	 2.8764006325e+000
 1.5760318412e+000	 3.1225423050e-001	 2.8269466867e+000
 1.6058917246e+000	 1.5478523259e-001	 3.2045833563e+000
 1.6042975872e+000	 1.7051692454e-001	 3.1804264075e+000
 1.6025429977e+000	 1.8628680079e-001	 3.1518115768e+000
 1.6006265748e+000	 2.0209267942e-001	 3.1192310736e+000
 1.5985469708e+000	 2.1793233666e-001	 3.0831445994e+000
 1.5963028737e+000	 2.3380350730e-001	 3.0439789351e+000
 1.5938930083e+000	 2.4970388533e-001	 3.0021277021e+000
 1.5913161374e+000	 2.6563112447e-001	 2.9579513427e+000
 1.5885710631e+000	 2.8158283883e-001	 2.9117773669e+000
 1.5856566283e+000	 2.9755660358e-001	 2.8639009194e+000
 1.5825717180e+000	 3.1354995572e-001	 2.8145857161e+000
 1.6125279699e+000	 1.5542487270e-001	 3.1935309372e+000
 1.6109272448e+000	 1.7122157488e-001	 3.1696219009e+000
 1.6091654046e+000	 1.8705661913e-001	 3.1411841421e+000
 1.6072410622e+000	 2.0292781455e-001	 3.1087234241e+000
 1.6051528643e+000	 2.1883292816e-001	 3.0727127840e+000
 1.6028994937e+000	 2.3476968540e-001	 3.0335919582e+000
 1.6004796697e+000	 2.5073577073e-001	 2.9917669774e+000
 1.5978921500e+000	 2.6672882817e-001	 2.9476099769e+000
 1.5951357318e+000	 2.8274646197e-001	 2.9014592724e+000
 1.5922092533e+000	 2.9878623730e-001	 2.8536197545e+000
 1.5891115949e+000	 3.1484568094e-001	 2.8043636550e+000
 1.6191642152e+000	 1.5606451282e-001	 3.1850817175e+000
 1.6175569024e+000	 1.7192622521e-001	 3.1613828044e+000
 1.6157878115e+000	 1.8782643747e-001	 3.1330859609e+000
 1.6138555495e+000	 2.0376294968e-001	 3.1007089172e+000
 1.6117587579e+000	 2.1973351966e-001	 3.0647364464e+000
 1.6094961136e+000	 2.3573586351e-001	 3.0256196260e+000
 1.6070663310e+000	 2.5176765614e-001	 2.9837752635e+000
 1.6044681625e+000	 2.6782653188e-001	 2.9395855338e+000
 1.6017004005e+000	 2.8391008512e-001	 2.8933978807e+000
 1.5987618784e+000	 3.0001587101e-001	 2.8455252355e+000
 1.5956514717e+000	 3.1614140616e-001	 2.7962466107e+000
 1.6258004604e+000	 1.5670415294e-001	 3.1792182434e+000
 1.6241865600e+000	 1.7263087554e-001	 3.1556910562e+000
 1.6224102184e+000	 1.8859625581e-001	 3.1274980229e+000
 1.6204700369e+000	 2.0459808481e-001	 3.0951672983e+000
 1.6183646514e+000	 2.2063411116e-001	 3.0591938384e+000
 1.6160927336e+000	 2.3670204161e-001	 3.0200384945e+000
 1.6136529923e+000	 2.5279954154e-001	 2.9781272665e+000
 1.6110441751e+000	 2.6892423558e-001	 2.9338507641e+000
 1.6082650693e+000	 2.8507370827e-001	 2.8875639305e+000
 1.6053145034e+000	 3.0124550472e-001	 2.8395860827e+000
 1.6021913485e+000	 3.1743713139e-001	 2.7902013276e+000
 1.6324367057e+000	 1.5734379305e-001	 3.1759234372e+000
 1.6308162175e+000	 1.7333552587e-001	 3.1525290071e+000
 1.6290326252e+000	 1.8936607415e-001	 3.1244017641e+000
 1.6270845243e+000	 2.0543321994e-001	 3.0920787906e+000
 1.6249705450e+000	 2.2153470267e-001	 3.0560637184e+000
 1.6226893536e+000	 2.3766821972e-001	 3.0168256527e+000
 1.6202396537e+000	 2.5383142694e-001	 2.9747982492e+000
 1.6176201877e+000	 2.7002193929e-001	 2.9303789965e+000
 1.6148297380e+000	 2.8623733142e-001	 2.8839287577e+000
 1.6118671284e+000	 3.0247513844e-001	 2.8357716294e+000
 1.6087312253e+000	 3.1873285661e-001	 2.7861951768e+000
 1.6390729510e+000	 1.5798343317e-001	 3.1751805962e+000
 1.6374458751e+000	 1.7404017620e-001	 3.1518794187e+000
 1.6356550321e+000	 1.9013589250e-001	 3.1237790643e+000
 1.6336990117e+000	 2.0626835506e-001	 3.0914240914e+000
 1.6315764385e+000	 2.2243529417e-001	 3.0553253470e+000
 1.6292859735e+000	 2.3863439782e-001	 3.0159587171e+000
 1.6268263150e+000	 2.5486331235e-001	 2.9737640249e+000
 1.6241962003e+000	 2.7111964299e-001	 2.9291441302e+000
 1.6213944068e+000	 2.8740095457e-001	 2.8824642863e+000
 1.6184197534e+000	 3.0370477215e-001	 2.8340518127e+000
 1.6152711022e+000	 3.2002858183e-001	 2.7841961466e+000
 1.6457091962e+000	 1.5862307329e-001	 3.1769733915e+000
 1.6440755327e+000	 1.7474482654e-001	 3.1537254611e+000
 1.6422774390e+000	 1.9090571084e-001	 3.1256122443e+000
 1.6403134990e+000	 2.0710349019e-001	 3.0931843687e+000
 1.6381823321e+000	 2.2333588567e-001	 3.0569584822e+000
 1.6358825935e+000	 2.3960057592e-001	 3.0174158259e+000
 1.6334129764e+000	 2.5589519775e-001	 2.9750009504e+000
 1.6307722129e+000	 2.7221734670e-001	 2.9301206279e+000
 1.6279590755e+000	 2.8856457772e-001	 2.8831430207e+000
 1.6249723785e+000	 3.0493440586e-001	 2.8343971646e+000
 1.6218109790e+000	 3.2132430705e-001	 2.7841728319e+000
 1.6523454415e+000	 1.5926271340e-001	 3.1812858670e+000
 1.6507051903e+000	 1.7544947687e-001	 3.1580507113e+000
 1.6488998458e+000	 1.9167552918e-001	 3.1298840627e+000
 1.6469279864e+000	 2.0793862532e-001	 3.0973412570e+000
 1.6447882256e+000	 2.2423647717e-001	 3.0609433747e+000
 1.6424792134e+000	 2.4056675403e-001	 3.0211756339e+000
 1.6399996377e+000	 2.5692708315e-001	 2.9784859200e+000
 1.6373482255e+000	 2.7331505040e-001	 2.9332835078e+000
 1.6345237442e+000	 2.8972820086e-001	 2.8859380372e+000
 1.6315250035e+000	 3.0616403958e-001	 2.8367788026e+000
 1.6283508558e+000	 3.2262003228e-001	 2.7860944248e+000
 1.6589816868e+000	 1.5990235352e-001	 3.1881024379e+000
 1.6573348479e+000	 1.7615412720e-001	 3.1648391507e+000
 1.6555222527e+000	 1.9244534752e-001	 3.1365777136e+000
 1.6535424738e+000	 2.0877376045e-001	 3.1038768540e+000
 1.6513941191e+000	 2.2513706867e-001	 3.0672607636e+000
 1.6490758334e+000	 2.4153293213e-001	 3.0272173065e+000
 1.6465862990e+000	 2.5795896856e-001	 2.9841963587e+000
 1.6439242380e+000	 2.7441275411e-001	 2.9386083368e+000
 1.6410884130e+000	 2.9089182401e-001	 2.8908229755e+000
 1.6380776285e+000	 3.0739367329e-001	 2.8411684209e+000
 1.6348907326e+000	 3.2391575750e-001	 2.7899307046e+000
 1.5694919644e+000	 3.1095850527e-001	 2.8414811070e+000
 1.5662619239e+000	 3.2683900259e-001	 2.7900325804e+000
 1.5628606849e+000	 3.4273392977e-001	 2.7361641861e+000
 1.5592872753e+000	 3.5864073036e-001	 2.6794866244e+000
 1.5555407692e+000	 3.7455681326e-001	 2.6195942276e+000
 1.5516202891e+000	 3.9047955369e-001	 2.5560698739e+000
 1.5475250065e+000	 4.0640629419e-001	 2.4884906038e+000
 1.5432541432e+000	 4.2233434566e-001	 2.4164339861e+000
 1.5388069724e+000	 4.3826098847e-001	 2.3394852842e+000
 1.5341828203e+000	 4.5418347357e-001	 2.2572454650e+000
 1.5293810664e+000	 4.7009902366e-001	 2.1693400931e+000
 1.5760318412e+000	 3.1225423050e-001	 2.8269466867e+000
 1.5727883415e+000	 3.2820089986e-001	 2.7758043694e+000
 1.5693729301e+000	 3.4416205922e-001	 2.7223516656e+000
 1.5657846304e+000	 3.6013514146e-001	 2.6661722765e+000
 1.5620225131e+000	 3.7611754468e-001	 2.6068319072e+000
 1.5580856969e+000	 3.9210663318e-001	 2.5438831189e+000
 1.5539733497e+000	 4.0809973841e-001	 2.4768708958e+000
 1.5496846903e+000	 4.2409416009e-001	 2.4053389792e+000
 1.5452189887e+000	 4.4008716723e-001	 2.3288370176e+000
 1.5405755683e+000	 4.5607599933e-001	 2.2469285810e+000
 1.5357538061e+000	 4.7205786752e-001	 2.1592000810e+000
 1.5825717180e+000	 3.1354995572e-001	 2.8145857161e+000
 1.5793147592e+000	 3.2956279713e-001	 2.7636614289e+000
 1.5758851752e+000	 3.4559018866e-001	 2.7105295410e+000
 1.5722819856e+000	 3.6162955255e-001	 2.6547489469e+000
 1.5685042571e+000	 3.7767827610e-001	 2.5958589016e+000
 1.5645511047e+000	 3.9373371267e-001	 2.5333838013e+000
 1.5604216930e+000	 4.0979318264e-001	 2.4668386934e+000
 1.5561152374e+000	 4.2585397451e-001	 2.3957355699e+000
 1.5516310051e+000	 4.4191334599e-001	 2.3195904940e+000
 1.5469683164e+000	 4.5796852509e-001	 2.2379316112e+000
 1.5421265459e+000	 4.7401671139e-001	 2.1503080879e+000
 1.5891115949e+000	 3.1484568094e-001	 2.8043636550e+000
 1.5858411768e+000	 3.3092469440e-001	 2.7535672320e+000
 1.5823974203e+000	 3.4701831811e-001	 2.7006592553e+000
 1.5787793408e+000	 3.6312396365e-001	 2.6451760036e+000
 1.5749860010e+000	 3.7923900752e-001	 2.5866324554e+000
 1.5710165125e+000	 3.9536079216e-001	 2.5245269904e+000
 1.5668700363e+000	 4.1148662687e-001	 2.4583468339e+000
 1.5625457845e+000	 4.2761378894e-001	 2.3875743007e+000
 1.5580430214e+000	 4.4373952474e-001	 2.3116938909e+000
 1.5533610644e+000	 4.5986105085e-001	 2.2302002890e+000
 1.5484992856e+000	 4.7597555526e-001	 2.1426073140e+000
 1.5956514717e+000	 3.1614140616e-001	 2.7962466107e+000
 1.5923675945e+000	 3.3228659167e-001	 2.7454859134e+000
 1.5889096654e+000	 3.4844644755e-001	 2.6927029279e+000
 1.5852766959e+000	 3.6461837474e-001	 2.6374135065e+000
 1.5814677450e+000	 3.8079973895e-001	 2.5791105232e+000
 1.5774819203e+000	 3.9698787165e-001	 2.5172684865e+000
 1.5733183795e+000	 4.1318007109e-001	 2.4513489103e+000
 1.5689763316e+000	 4.2937360337e-001	 2.3808064993e+000
 1.5644550377e+000	 4.4556570350e-001	 2.3050962054e+000
 1.5597538125e+000	 4.6175357661e-001	 2.2236812082e+000
 1.5548720253e+000	 4.7793439913e-001	 2.1360418669e+000
 1.6021913485e+000	 3.1743713139e-001	 2.7902013276e+000
 1.5988940121e+000	 3.3364848894e-001	 2.7393822581e+000
 1.5954219105e+000	 3.4987457700e-001	 2.6866233422e+000
 1.5917740511e+000	 3.6611278583e-001	 2.6314221949e+000
 1.5879494889e+000	 3.8236047037e-001	 2.5732517564e+000
 1.5839473281e+000	 3.9861495114e-001	 2.5115648073e+000
 1.5797667228e+000	 4.1487351532e-001	 2.4457992569e+000
 1.5754068787e+000	 4.3113341780e-001	 2.3753842626e+000
 1.5708670540e+000	 4.4739188226e-001	 2.2997472378e+000
 1.5661465605e+000	 4.6364610238e-001	 2.2183218051e+000
 1.5612447650e+000	 4.7989324300e-001	 2.1305567437e+000
 1.6087312253e+000	 3.1873285661e-001	 2.7861951768e+000
 1.6054204298e+000	 3.3501038621e-001	 2.7352216905e+000
 1.6019341556e+000	 3.5130270644e-001	 2.6823839343e+000
 1.5982714062e+000	 3.6760719693e-001	 2.6271634755e+000
 1.5944312329e+000	 3.8392120179e-001	 2.5690154903e+000
 1.5904127359e+000	 4.0024203063e-001	 2.5073731733e+000
 1.5862150660e+000	 4.1656695955e-001	 2.4416529341e+000
 1.5818374258e+000	 4.3289323222e-001	 2.3712604416e+000
 1.5772790703e+000	 4.4921806101e-001	 2.2955975753e+000
 1.5725393085e+000	 4.6553862814e-001	 2.2140703423e+000
 1.5676175048e+000	 4.8185208687e-001	 2.1260978129e+000
 1.6152711022e+000	 3.2002858183e-001	 2.7841961466e+000
 1.6119468474e+000	 3.3637228348e-001	 2.7329702639e+000
 1.6084464008e+000	 3.5273083588e-001	 2.6799487814e+000
 1.6047687614e+000	 3.6910160802e-001	 2.6245994092e+000
 1.6009129768e+000	 3.8548193321e-001	 2.5663617302e+000
 1.5968781436e+000	 4.0186911012e-001	 2.5046514942e+000
 1.5926634093e+000	 4.1826040378e-001	 2.4388657142e+000
 1.5882679729e+000	 4.3465304665e-001	 2.3683886263e+000
 1.5836910866e+000	 4.5104423977e-001	 2.2925985760e+000
 1.5789320566e+000	 4.6743115390e-001	 2.2108758915e+000
 1.5739902445e+000	 4.8381093074e-001	 2.1226117972e+000
 1.6218109790e+000	 3.2132430705e-001	 2.7841728319e+000
 1.6184732651e+000	 3.3773418075e-001	 2.7325946493e+000
 1.6149586459e+000	 3.5415896533e-001	 2.6792825900e+000
 1.6112661166e+000	 3.7059601911e-001	 2.6236926998e+000
 1.6073947207e+000	 3.8704266463e-001	 2.5652511395e+000
 1.6033435514e+000	 4.0349618961e-001	 2.5033583557e+000
 1.5991117526e+000	 4.1995384800e-001	 2.4373940668e+000
 1.5946985200e+000	 4.3641286108e-001	 2.3667231299e+000
 1.5901031029e+000	 4.5287041853e-001	 2.2907023533e+000
 1.5853248046e+000	 4.6932367966e-001	 2.2086883166e+000
 1.5803629842e+000	 4.8576977461e-001	 2.1200462557e+000
 1.6283508558e+000	 3.2262003228e-001	 2.7860944248e+000
 1.6249996827e+000	 3.3909607802e-001	 2.7340621252e+000
 1.6214708910e+000	 3.5558709477e-001	 2.6803506850e+000
 1.6177634717e+000	 3.7209043021e-001	 2.6244066811e+000
 1.6138764647e+000	 3.8860339605e-001	 2.5656450259e+000
 1.6098089592e+000	 4.0512326910e-001	 2.5034530053e+000
 1.6055600958e+000	 4.2164729223e-001	 2.4371951447e+000
 1.6011290671e+000	 4.3817267550e-001	 2.3662189746e+000
 1.5965151192e+000	 4.5469659728e-001	 2.2898617599e+000
 1.5917175526e+000	 4.7121620542e-001	 2.2074582581e+000
 1.5867357239e+000	 4.8772861848e-001	 2.1183495674e+000
 1.6348907326e+000	 3.2391575750e-001	 2.7899307046e+000
 1.6315261004e+000	 3.4045797529e-001	 2.7373405665e+000
 1.6279831361e+000	 3.5701522422e-001	 2.6831189980e+000
 1.6242608269e+000	 3.7358484130e-001	 2.6267053056e+000
 1.6203582086e+000	 3.9016412748e-001	 2.5675053297e+000
 1.6162743670e+000	 4.0675034859e-001	 2.5048953393e+000
 1.6120084391e+000	 4.2334073646e-001	 2.4382267697e+000
 1.6075596142e+000	 4.3993248993e-001	 2.3668318765e+000
 1.6029271355e+000	 4.5652277604e-001	 2.2900303723e+000
 1.5981103007e+000	 4.7310873118e-001	 2.2071371160e+000
 1.5931084637e+000	 4.8968746235e-001	 2.1174709136e+000
 1.5293810664e+000	 4.7009902366e-001	 2.1693400931e+000
 1.5244011448e+000	 4.8600483420e-001	 2.0777916030e+000
 1.5192425439e+000	 5.0189807397e-001	 1.9850422305e+000
 1.5139048087e+000	 5.1777588698e-001	 1.8914229953e+000
 1.5083875417e+000	 5.3363539409e-001	 1.7973436082e+000
 1.5026904046e+000	 5.4947369440e-001	 1.7033058253e+000
 1.4968131186e+000	 5.6528786665e-001	 1.6099178177e+000
 1.4907554653e+000	 5.8107497069e-001	 1.5179095580e+000
 1.4845172880e+000	 5.9683204901e-001	 1.4281492213e+000
 1.4780984920e+000	 6.1255612826e-001	 1.3416605839e+000
 1.4714990455e+000	 6.2824422082e-001	 1.2596414019e+000
 1.5357538061e+000	 4.7205786752e-001	 2.1592000810e+000
 1.5307531338e+000	 4.8802995560e-001	 2.0676758999e+000
 1.5255730377e+000	 5.0398942050e-001	 1.9748452346e+000
 1.5202130608e+000	 5.1993339438e-001	 1.8810648390e+000
 1.5146728041e+000	 5.3585898608e-001	 1.7867683724e+000
 1.5089519277e+000	 5.5176328261e-001	 1.6924797820e+000
 1.5030501517e+000	 5.6764335053e-001	 1.5988277289e+000
 1.4969672570e+000	 5.8349623746e-001	 1.5065610623e+000
 1.4907030859e+000	 5.9931897356e-001	 1.4165653381e+000
 1.4842575436e+000	 6.1510857308e-001	 1.3298803701e+000
 1.4776305981e+000	 6.3086203596e-001	 1.2477187915e+000
 1.5421265459e+000	 4.7401671139e-001	 2.1503080879e+000
 1.5371051228e+000	 4.9005507699e-001	 2.0587434265e+000
 1.5319035315e+000	 5.0608076704e-001	 1.9657689834e+000
 1.5265213129e+000	 5.2209090178e-001	 1.8717660318e+000
 1.5209580664e+000	 5.3808257806e-001	 1.7771908156e+000
 1.5152134508e+000	 5.5405287081e-001	 1.6825879579e+000
 1.5092871849e+000	 5.6999883441e-001	 1.5886049421e+000
 1.5031790486e+000	 5.8591750423e-001	 1.4960076731e+000
 1.4968888839e+000	 6.0180589810e-001	 1.4056971152e+000
 1.4904165953e+000	 6.1766101790e-001	 1.3187269951e+000
 1.4837621507e+000	 6.3347985110e-001	 1.2363225503e+000
 1.5484992856e+000	 4.7597555526e-001	 2.1426073140e+000
 1.5434571119e+000	 4.9208019838e-001	 2.0509345929e+000
 1.5382340253e+000	 5.0817211358e-001	 1.9577506941e+000
 1.5328295650e+000	 5.2424840918e-001	 1.8634602137e+000
 1.5272433287e+000	 5.4030617005e-001	 1.7685406336e+000
 1.5214749739e+000	 5.5634245901e-001	 1.6735557527e+000
 1.5155242180e+000	 5.7235431829e-001	 1.5791702234e+000
 1.5093908403e+000	 5.8833877100e-001	 1.4861651983e+000
 1.5030746819e+000	 6.0429282265e-001	 1.3954550876e+000
 1.4965756469e+000	 6.2021346272e-001	 1.3081054158e+000
 1.4898937033e+000	 6.3609766624e-001	 1.2253517592e+000
 1.5548720253e+000	 4.7793439913e-001	 2.1360418669e+000
 1.5498091009e+000	 4.9410531978e-001	 2.0441907744e+000
 1.5445645190e+000	 5.1026346012e-001	 1.9507286192e+000
 1.5391378171e+000	 5.2640591658e-001	 1.8560821431e+000
 1.5335285911e+000	 5.4252976203e-001	 1.7607487361e+000
 1.5277364969e+000	 5.5863204721e-001	 1.6653098896e+000
 1.5217612512e+000	 5.7470980217e-001	 1.5704457852e+000
 1.5156026320e+000	 5.9076003777e-001	 1.4769510275e+000
 1.5092604799e+000	 6.0677974719e-001	 1.3857515209e+000
 1.5027346986e+000	 6.2276590753e-001	 1.2979224815e+000
 1.4960252558e+000	 6.3871548138e-001	 1.2147075651e+000
 1.5612447650e+000	 4.7989324300e-001	 2.1305567437e+000
 1.5561610899e+000	 4.9613044117e-001	 2.0384542916e+000
 1.5508950128e+000	 5.1235480666e-001	 1.9446420258e+000
 1.5454460692e+000	 5.2856342398e-001	 1.8495676750e+000
 1.5398138534e+000	 5.4475335401e-001	 1.7537472251e+000
 1.5339980200e+000	 5.6092163541e-001	 1.6577783919e+000
 1.5279982844e+000	 5.7706528605e-001	 1.5623552610e+000
 1.5218144237e+000	 5.9318130454e-001	 1.4682841055e+000
 1.5154462778e+000	 6.0926667174e-001	 1.3765003829e+000
 1.5088937502e+000	 6.2531835235e-001	 1.2880869030e+000
 1.5021568084e+000	 6.4133329652e-001	 1.2042931488e+000
 1.5676175048e+000	 4.8185208687e-001	 2.1260978129e+000
 1.5625130789e+000	 4.9815556257e-001	 2.0336683926e+000
 1.5572255066e+000	 5.1444615319e-001	 1.9394311767e+000
 1.5517543213e+000	 5.3072093138e-001	 1.8438537410e+000
 1.5460991157e+000	 5.4697694600e-001	 1.7474693728e+000
 1.5402595431e+000	 5.6321122361e-001	 1.6508905599e+000
 1.5342353175e+000	 5.7942076993e-001	 1.5548236807e+000
 1.5280262153e+000	 5.9560257131e-001	 1.4600849059e+000
 1.5216320758e+000	 6.1175359629e-001	 1.3676173153e+000
 1.5150528019e+000	 6.2787079717e-001	 1.2785092232e+000
 1.5082883610e+000	 6.4395111166e-001	 1.1940136939e+000
 1.5739902445e+000	 4.8381093074e-001	 2.1226117972e+000
 1.5688650679e+000	 5.0018068396e-001	 2.0297772341e+000
 1.5635560003e+000	 5.1653749973e-001	 1.9350373103e+000
 1.5580625734e+000	 5.3287843878e-001	 1.8388783283e+000
 1.5523843781e+000	 5.4920053798e-001	 1.7418495995e+000
 1.5465210662e+000	 5.6550081182e-001	 1.6445769476e+000
 1.5404723507e+000	 5.8177625381e-001	 1.5477774464e+000
 1.5342380070e+000	 5.9802383808e-001	 1.4522754054e+000
 1.5278178738e+000	 6.1424052083e-001	 1.3590196066e+000
 1.5212118535e+000	 6.3042324199e-001	 1.2691017878e+000
 1.5144199136e+000	 6.4656892680e-001	 1.1837763555e+000
 1.5803629842e+000	 4.8576977461e-001	 2.1200462557e+000
 1.5752170569e+000	 5.0220580535e-001	 2.0267258632e+000
 1.5698864941e+000	 5.1862884627e-001	 1.9314026220e+000
 1.5643708254e+000	 5.3503594618e-001	 1.8345804599e+000
 1.5586696404e+000	 5.5142412996e-001	 1.7368234528e+000
 1.5527825892e+000	 5.6779040002e-001	 1.6387693398e+000
 1.5467093838e+000	 5.8413173769e-001	 1.5411443076e+000
 1.5404497987e+000	 6.0044510485e-001	 1.4447790580e+000
 1.5340036717e+000	 6.1672744538e-001	 1.3506261649e+000
 1.5273709052e+000	 6.3297568681e-001	 1.2597787171e+000
 1.5205514662e+000	 6.4918674194e-001	 1.1734902299e+000
 1.5867357239e+000	 4.8772861848e-001	 2.1183495674e+000
 1.5815690460e+000	 5.0423092675e-001	 2.0244601998e+000
 1.5762169879e+000	 5.2072019280e-001	 1.9284702450e+000
 1.5706790775e+000	 5.3719345357e-001	 1.8309001742e+000
 1.5649549028e+000	 5.5364772195e-001	 1.7323275859e+000
 1.5590441123e+000	 5.7007998822e-001	 1.6334007306e+000
 1.5529464170e+000	 5.8648722157e-001	 1.5348533387e+000
 1.5466615904e+000	 6.0286637162e-001	 1.4375207700e+000
 1.5401894697e+000	 6.1921436992e-001	 1.3423574911e+000
 1.5335299568e+000	 6.3552813162e-001	 1.2504558771e+000
 1.5266830188e+000	 6.5180455708e-001	 1.1630663253e+000
 1.5931084637e+000	 4.8968746235e-001	 2.1174709136e+000
 1.5879210350e+000	 5.0625604814e-001	 2.0229270184e+000
 1.5825474817e+000	 5.2281153934e-001	 1.9261842317e+000
 1.5769873296e+000	 5.3935096097e-001	 1.8277785056e+000
 1.5712401651e+000	 5.5587131393e-001	 1.7282997374e+000
 1.5653056354e+000	 5.7236957642e-001	 1.6284053005e+000
 1.5591834502e+000	 5.8884270545e-001	 1.5288349146e+000
 1.5528733820e+000	 6.0528763838e-001	 1.4304268757e+000
 1.5463752677e+000	 6.2170129446e-001	 1.3341356532e+000
 1.5396890085e+000	 6.3808057644e-001	 1.2410508526e+000
 1.5328145713e+000	 6.5442237221e-001	 1.1524175319e+000
 1.4714990455e+000	 6.2824422082e-001	 1.2596414019e+000
 1.4647200112e+000	 6.4389098239e-001	 1.1712871554e+000
 1.4577605098e+000	 6.5949575956e-001	 1.0660969282e+000
 1.4506207034e+000	 6.7505553390e-001	 9.4731049110e-001
 1.4433008194e+000	 6.9056727934e-001	 8.2364391547e-001
 1.4358011511e+000	 7.0602796396e-001	 6.9850717513e-001
 1.4281220583e+000	 7.2143455165e-001	 5.7438455902e-001
 1.4202639671e+000	 7.3678400397e-001	 4.5373530716e-001
 1.4122273710e+000	 7.5207328189e-001	 3.3898789299e-001
 1.4040128306e+000	 7.6729934761e-001	 2.3253411641e-001
 1.3956209742e+000	 7.8245916641e-001	 1.3672301710e-001
 1.4776305981e+000	 6.3086203596e-001	 1.2477187915e+000
 1.4708233164e+000	 6.4657399563e-001	 1.1591701108e+000
 1.4638348157e+000	 6.6224379596e-001	 1.0535534200e+000
 1.4566652585e+000	 6.7786840593e-001	 9.3504592439e-001
 1.4493148735e+000	 6.9344478688e-001	 8.1214662378e-001
 1.4417839551e+000	 7.0896989423e-001	 6.8765597257e-001
 1.4340728644e+000	 7.2444067925e-001	 5.6399938675e-001
 1.4261820295e+000	 7.3985409082e-001	 4.4357713125e-001
 1.4181119459e+000	 7.5520707725e-001	 3.2875868322e-001
 1.4098631766e+000	 7.7049658808e-001	 2.2187690086e-001
 1.4014363523e+000	 7.8571957594e-001	 1.2522200684e-001
 1.4837621507e+000	 6.3347985110e-001	 1.2363225503e+000
 1.4769266216e+000	 6.4925700887e-001	 1.1474736214e+000
 1.4699091215e+000	 6.6499183235e-001	 1.0413244573e+000
 1.4627098137e+000	 6.8068127796e-001	 9.2333193580e-001
 1.4553289276e+000	 6.9632229441e-001	 8.0118998134e-001
 1.4477667590e+000	 7.1191182450e-001	 6.7733546099e-001
 1.4400236705e+000	 7.2744680685e-001	 5.5413215130e-001
 1.4321000919e+000	 7.4292417767e-001	 4.3391875309e-001
 1.4239965208e+000	 7.5834087261e-001	 3.1900334320e-001
 1.4157135225e+000	 7.7369382855e-001	 2.1165762612e-001
 1.4072517305e+000	 7.8897998548e-001	 1.1411099413e-001
 1.4898937033e+000	 6.3609766624e-001	 1.2253517592e+000
 1.4830299268e+000	 6.5194002211e-001	 1.1360915424e+000
 1.4759834273e+000	 6.6773986875e-001	 1.0293206795e+000
 1.4687543688e+000	 6.8349414999e-001	 9.1207636799e-001
 1.4613429817e+000	 6.9919980195e-001	 7.9068092814e-001
 1.4537495629e+000	 7.1485375478e-001	 6.6745334178e-001
 1.4459744766e+000	 7.3045293445e-001	 5.4469300711e-001
 1.4380181543e+000	 7.4599426451e-001	 4.2467449868e-001
 1.4298810957e+000	 7.6147466796e-001	 3.0964211494e-001
 1.4215638685e+000	 7.7689106902e-001	 2.0180421969e-001
 1.4130671086e+000	 7.9224039502e-001	 1.0332738562e-001
 1.4960252558e+000	 6.3871548138e-001	 1.2147075651e+000
 1.4891332320e+000	 6.5462303535e-001	 1.1249199664e+000
 1.4820577331e+000	 6.7048790514e-001	 1.0176489563e+000
 1.4747989240e+000	 6.8630702202e-001	 9.0118836809e-001
 1.4673570358e+000	 7.0207730948e-001	 7.8052775119e-001
 1.4597323668e+000	 7.1779568505e-001	 6.5791867876e-001
 1.4519252827e+000	 7.3345906204e-001	 5.3559345888e-001
 1.4439362167e+000	 7.4906435136e-001	 4.1576000385e-001
 1.4357656707e+000	 7.6460846332e-001	 3.0059648108e-001
 1.4274142145e+000	 7.8008830949e-001	 1.9224575129e-001
 1.4188824868e+000	 7.9550080456e-001	 9.2809601985e-002
 1.5021568084e+000	 6.4133329652e-001	 1.2042931488e+000
 1.4952365372e+000	 6.5730604859e-001	 1.1138571893e+000
 1.4881320389e+000	 6.7323594154e-001	 1.0062754708e+000
 1.4808434791e+000	 6.8911989405e-001	 8.9057836103e-001
 1.4733710899e+000	 7.0495481702e-001	 7.7064005707e-001
 1.4657151707e+000	 7.2073761533e-001	 6.4864187062e-001
 1.4578760888e+000	 7.3646518964e-001	 5.2674633424e-001
 1.4498542792e+000	 7.5213443821e-001	 4.0709218775e-001
 1.4416502456e+000	 7.6774225868e-001	 2.9178913980e-001
 1.4332645604e+000	 7.8328554996e-001	 1.8291240970e-001
 1.4246978649e+000	 7.9876121410e-001	 8.2497057389e-002
 1.5082883610e+000	 6.4395111166e-001	 1.1940136939e+000
 1.5013398424e+000	 6.5998906182e-001	 1.1028036776e+000
 1.4942063448e+000	 6.7598397793e-001	 9.9511423460e-001
 1.4868880343e+000	 6.9193276608e-001	 8.8015802353e-001
 1.4793851440e+000	 7.0783232455e-001	 7.6092874530e-001
 1.4716979747e+000	 7.2367954560e-001	 6.3953462397e-001
 1.4638268949e+000	 7.3947131724e-001	 5.1806575713e-001
 1.4557723416e+000	 7.5520452506e-001	 3.9858922710e-001
 1.4475348205e+000	 7.7087605404e-001	 2.8314398039e-001
 1.4391149064e+000	 7.8648279043e-001	 1.7373548020e-001
 1.4305132431e+000	 8.0202162364e-001	 7.2330139320e-002
 1.5144199136e+000	 6.4656892680e-001	 1.1837763555e+000
 1.5074431476e+000	 6.6267207506e-001	 1.0916620359e+000
 1.5002806506e+000	 6.7873201433e-001	 9.8408042056e-001
 1.4929325894e+000	 6.9474563811e-001	 8.6984025888e-001
 1.4853991981e+000	 7.1070983208e-001	 7.5130598228e-001
 1.4776807786e+000	 7.2662147587e-001	 6.3050992711e-001
 1.4697777010e+000	 7.4247744484e-001	 5.0946712190e-001
 1.4616904040e+000	 7.5827461191e-001	 3.9017053101e-001
 1.4534193955e+000	 7.7400984939e-001	 2.7458605941e-001
 1.4449652523e+000	 7.8968003090e-001	 1.6464732261e-001
 1.4363286212e+000	 8.0528203318e-001	 6.2250189020e-002
 1.5205514662e+000	 6.4918674194e-001	 1.1734902299e+000
 1.5135464528e+000	 6.6535508830e-001	 1.0803369752e+000
 1.5063549564e+000	 6.8148005072e-001	 9.7309033930e-001
 1.4989771445e+000	 6.9755851014e-001	 8.5953917230e-001
 1.4914132522e+000	 7.1358733962e-001	 7.4168517606e-001
 1.4836635825e+000	 7.2956340615e-001	 6.2148202459e-001
 1.4757285071e+000	 7.4548357244e-001	 5.0086706804e-001
 1.4676084664e+000	 7.6134469875e-001	 3.8175671655e-001
 1.4593039704e+000	 7.7714364475e-001	 2.6604157750e-001
 1.4508155983e+000	 7.9287727137e-001	 1.5558134989e-001
 1.4421439994e+000	 8.0854244272e-001	 5.2199482389e-002
 1.5266830188e+000	 6.5180455708e-001	 1.1630663253e+000
 1.5196497580e+000	 6.6803810154e-001	 1.0687718359e+000
 1.5124292622e+000	 6.8422808712e-001	 9.6206141638e-001
 1.5050216997e+000	 7.0037138216e-001	 8.4917004701e-001
 1.4974273063e+000	 7.1646484715e-001	 7.3198095169e-001
 1.4896463864e+000	 7.3250533642e-001	 6.1236639232e-001
 1.4816793132e+000	 7.4848970004e-001	 4.9218345563e-001
 1.4735265288e+000	 7.6441478560e-001	 3.7326958488e-001
 1.4651885453e+000	 7.8027744011e-001	 2.5743785681e-001
 1.4566659443e+000	 7.9607451184e-001	 1.4647200727e-001
 1.4479593775e+000	 8.1180285226e-001	 4.2121211383e-002
 1.5328145713e+000	 6.5442237221e-001	 1.1524175319e+000
 1.5257530632e+000	 6.7072111478e-001	 1.0570997380e+000
 1.5185035681e+000	 6.8697612351e-001	 9.5091217008e-001
 1.5110662548e+000	 7.0318425419e-001	 8.3864932094e-001
 1.5034413604e+000	 7.1934235468e-001	 7.2210912726e-001
 1.4956291903e+000	 7.3544726669e-001	 6.0307971339e-001
 1.4876301193e+000	 7.5149582763e-001	 4.8333534138e-001
 1.4794445913e+000	 7.6748487245e-001	 3.6463209804e-001
 1.4710731202e+000	 7.8341123546e-001	 2.4870331893e-001
 1.4625162902e+000	 7.9927175231e-001	 1.3725475191e-001
 1.4537747557e+000	 8.1506326180e-001	 3.1959465869e-002
 1.3956209742e+000	 7.8245916641e-001	 1.3672301710e-001
 1.3870511992e+000	 7.9755196704e-001	 4.6605720841e-002
 1.3783055161e+000	 8.1257244658e-001	-4.4433231772e-002
 1.3693847580e+000	 8.2751759014e-001	-1.3660652955e-001
 1.3602898258e+000	 8.4238439338e-001	-2.3010919035e-001
 1.3510216880e+000	 8.5716986437e-001	-3.2512052291e-001
 1.3415813808e+000	 8.7187102550e-001	-4.2180627051e-001
 1.3319700078e+000	 8.8648491536e-001	-5.2027744057e-001
 1.3221887397e+000	 9.0100859063e-001	-6.1776047792e-001
 1.3122388141e+000	 9.1543912792e-001	-7.1245325727e-001
 1.3021215348e+000	 9.2977362572e-001	-8.0434336596e-001
 1.4014363523e+000	 7.8571957594e-001	 1.2522200684e-001
 1.3928308681e+000	 8.0087526639e-001	 3.4173335682e-002
 1.3840487429e+000	 8.1595833439e-001	-5.7502860026e-002
 1.3750908132e+000	 8.3096575250e-001	-1.4999829541e-001
 1.3659579835e+000	 8.4589450385e-001	-2.4348723055e-001
 1.3566512265e+000	 8.6074158404e-001	-3.3812851640e-001
 1.3471715827e+000	 8.7550400308e-001	-4.3406782896e-001
 1.3375201603e+000	 8.9017878719e-001	-5.3144007688e-001
 1.3276981349e+000	 9.0476298080e-001	-6.2958947106e-001
 1.3177067492e+000	 9.1925364833e-001	-7.2492383784e-001
 1.3075473125e+000	 9.3364787619e-001	-8.1694165294e-001
 1.4072517305e+000	 7.8897998548e-001	 1.1411099413e-001
 1.3986105371e+000	 8.0419856575e-001	 2.2066015532e-002
 1.3897919697e+000	 8.1934422221e-001	-7.0330857292e-002
 1.3807968683e+000	 8.3441391486e-001	-1.6324709364e-001
 1.3716261411e+000	 8.4940461431e-001	-2.5683297883e-001
 1.3622807650e+000	 8.6431330372e-001	-3.5122375177e-001
 1.3527617846e+000	 8.7913698066e-001	-4.4654193721e-001
 1.3430703128e+000	 8.9387265903e-001	-5.4289985758e-001
 1.3332075301e+000	 9.0851737097e-001	-6.4040209148e-001
 1.3231746843e+000	 9.2306816875e-001	-7.3657170841e-001
 1.3129730902e+000	 9.3752212667e-001	-8.2890502996e-001
 1.4130671086e+000	 7.9224039502e-001	 1.0332738562e-001
 1.4043902060e+000	 8.0752186510e-001	 1.0231233666e-002
 1.3955351965e+000	 8.2273011002e-001	-8.2960349402e-002
 1.3865029234e+000	 8.3786207722e-001	-1.7638735691e-001
 1.3772942988e+000	 8.5291472478e-001	-2.7017292341e-001
 1.3679103035e+000	 8.6788502340e-001	-3.6442556137e-001
 1.3583519865e+000	 8.8276995824e-001	-4.5924159919e-001
 1.3486204653e+000	 8.9756653086e-001	-5.5470780499e-001
 1.3387169253e+000	 9.1227176114e-001	-6.5090417787e-001
 1.3286426194e+000	 9.2688268916e-001	-7.4735686393e-001
 1.3183988678e+000	 9.4139637714e-001	-8.4019372088e-001
 1.4188824868e+000	 7.9550080456e-001	 9.2809601985e-002
 1.4101698750e+000	 8.1084516445e-001	-1.3826606653e-003
 1.4012784233e+000	 8.2611599784e-001	-9.5433713760e-002
 1.3922089785e+000	 8.4131023957e-001	-1.8945288579e-001
 1.3829624565e+000	 8.5642483525e-001	-2.8353302481e-001
 1.3735398420e+000	 8.7145674308e-001	-3.7775284169e-001
 1.3639421884e+000	 8.8640293582e-001	-4.7217946155e-001
 1.3541706179e+000	 9.0126040269e-001	-5.6687116716e-001
 1.3442263205e+000	 9.1602615131e-001	-6.6188031566e-001
 1.3341105545e+000	 9.3069720958e-001	-7.5725640726e-001
 1.3238246455e+000	 9.4527062762e-001	-8.5076829294e-001
 1.4246978649e+000	 7.9876121410e-001	 8.2497057389e-002
 1.4159495440e+000	 8.1416846381e-001	-1.2826460182e-002
 1.4070216501e+000	 8.2950188565e-001	-1.0779259487e-001
 1.3979150336e+000	 8.4475840193e-001	-2.0247686210e-001
 1.3886306141e+000	 8.5993494572e-001	-2.9693872732e-001
 1.3791693804e+000	 8.7502846276e-001	-3.9122406322e-001
 1.3695323903e+000	 8.9003591339e-001	-4.8536782219e-001
 1.3597207704e+000	 9.0495427452e-001	-5.7939690704e-001
 1.3497357157e+000	 9.1978054148e-001	-6.7333322097e-001
 1.3395784896e+000	 9.3451172999e-001	-7.6719687472e-001
 1.3292504232e+000	 9.4914487810e-001	-8.6058970704e-001
 1.4305132431e+000	 8.0202162364e-001	 7.2330139320e-002
 1.4217292129e+000	 8.1749176316e-001	-2.4150117071e-002
 1.4127648769e+000	 8.3288777346e-001	-1.2007791945e-001
 1.4036210887e+000	 8.4820656429e-001	-2.1549186196e-001
 1.3942987718e+000	 8.6344505619e-001	-3.1041497024e-001
 1.3847989189e+000	 8.7860018244e-001	-4.0485728016e-001
 1.3751225923e+000	 8.9366889097e-001	-4.9881863872e-001
 1.3652709229e+000	 9.0864814635e-001	-5.9229170996e-001
 1.3552451109e+000	 9.2353493165e-001	-6.8526516583e-001
 1.3450464247e+000	 9.3832625041e-001	-7.7772703971e-001
 1.3346762008e+000	 9.5301912857e-001	-8.6966821756e-001
 1.4363286212e+000	 8.0528203318e-001	 6.2250189020e-002
 1.4275088819e+000	 8.2081506251e-001	-3.5402760044e-002
 1.4185081037e+000	 8.3627366128e-001	-1.3232991123e-001
 1.4093271438e+000	 8.5165472665e-001	-2.2852986849e-001
 1.3999669295e+000	 8.6695516666e-001	-3.2398619881e-001
 1.3904284574e+000	 8.8217190211e-001	-4.1867013978e-001
 1.3807127942e+000	 8.9730186855e-001	-5.1254353667e-001
 1.3708210754e+000	 9.1234201818e-001	-6.0556199095e-001
 1.3607545061e+000	 9.2728932182e-001	-6.9767820005e-001
 1.3505143598e+000	 9.4214077083e-001	-7.8884546509e-001
 1.3401019785e+000	 9.5689337905e-001	-8.7902134074e-001
 1.4421439994e+000	 8.0854244272e-001	 5.2199482389e-002
 1.4332885509e+000	 8.2413836187e-001	-4.6632710958e-002
 1.4242513305e+000	 8.3965954909e-001	-1.4458810531e-001
 1.4150331989e+000	 8.5510288901e-001	-2.4162228424e-001
 1.4056350871e+000	 8.7046527713e-001	-3.3767637486e-001
 1.3960579959e+000	 8.8574362179e-001	-4.3267989177e-001
 1.3863029961e+000	 9.0093484613e-001	-5.2655381756e-001
 1.3763712280e+000	 9.1603589001e-001	-6.1921390192e-001
 1.3662639013e+000	 9.3104371199e-001	-7.1057415790e-001
 1.3559822949e+000	 9.4595529124e-001	-8.0055053168e-001
 1.3455277562e+000	 9.6076762952e-001	-8.8906471918e-001
 1.4479593775e+000	 8.1180285226e-001	 4.2121211383e-002
 1.4390682198e+000	 8.2746166122e-001	-5.7887501026e-002
 1.4299945573e+000	 8.4304543690e-001	-1.5689136222e-001
 1.4207392541e+000	 8.5855105137e-001	-2.5479994327e-001
 1.4113032448e+000	 8.7397538760e-001	-3.5150898732e-001
 1.4016875344e+000	 8.8931534147e-001	-4.4690339715e-001
 1.3918931980e+000	 9.0456782371e-001	-5.4086046680e-001
 1.3819213805e+000	 9.1972976184e-001	-6.3325333875e-001
 1.3717732965e+000	 9.3479810216e-001	-7.2395466455e-001
 1.3614502301e+000	 9.4976981166e-001	-8.1284044449e-001
 1.3509535338e+000	 9.6464188000e-001	-8.9979401892e-001
 1.4537747557e+000	 8.1506326180e-001	 3.1959465869e-002
 1.4448478888e+000	 8.3078496057e-001	-6.9213886616e-002
 1.4357377841e+000	 8.4643132472e-001	-1.6927788160e-001
 1.4264453092e+000	 8.6199921372e-001	-2.6809312301e-001
 1.4169714025e+000	 8.7748549806e-001	-3.6550706235e-001
 1.4073170729e+000	 8.9288706115e-001	-4.6135713718e-001
 1.3974833999e+000	 9.0820080129e-001	-5.5547416141e-001
 1.3874715330e+000	 9.2342363367e-001	-6.4768594814e-001
 1.3772826917e+000	 9.3855249233e-001	-7.3782114247e-001
 1.3669181652e+000	 9.5358433207e-001	-8.2571323894e-001
 1.3563793115e+000	 9.6851613048e-001	-9.1120475544e-001
 1.3021215348e+000	 9.2977362572e-001	-8.0434336596e-001
 1.2918382714e+000	 9.4400920589e-001	-8.9267121140e-001
 1.2813904573e+000	 9.5814301461e-001	-9.7656203052e-001
 1.2707795903e+000	 9.7217222507e-001	-1.0560450539e+000
 1.2600072328e+000	 9.8609403966e-001	-1.1313124520e+000
 1.2490750102e+000	 9.9990569180e-001	-1.2027142196e+000
 1.2379846111e+000	 1.0136044476e+000	-1.2707530410e+000
 1.2267377857e+000	 1.0271876080e+000	-1.3360716013e+000
 1.2153363455e+000	 1.0406525098e+000	-1.3994519225e+000
 1.2037821618e+000	 1.0539965282e+000	-1.4617999618e+000
 1.1920771653e+000	 1.0672170781e+000	-1.5241362605e+000
 1.3075473125e+000	 9.3364787619e-001	-8.1694165294e-001
 1.2972212000e+000	 9.4794277425e-001	-9.0507534971e-001
 1.2867298511e+000	 9.6213547678e-001	-9.8867785333e-001
 1.2760747700e+000	 9.7622314521e-001	-1.0677907922e+000
 1.2652575254e+000	 9.9020297027e-001	-1.1426217080e+000
 1.2542797497e+000	 1.0040721738e+000	-1.2135387625e+000
 1.2431431382e+000	 1.0178280107e+000	-1.2810652954e+000
 1.2318494487e+000	 1.0314677703e+000	-1.3458673032e+000
 1.2204005001e+000	 1.0449887787e+000	-1.4087518725e+000
 1.2087981716e+000	 1.0583884000e+000	-1.4706519205e+000
 1.1970444019e+000	 1.0716640383e+000	-1.5326164105e+000
 1.3129730902e+000	 9.3752212667e-001	-8.2890502996e-001
 1.3026041286e+000	 9.5187634261e-001	-9.1701672980e-001
 1.2920692450e+000	 9.6612793895e-001	-1.0004797414e+000
 1.2813699498e+000	 9.8027406535e-001	-1.0793480375e+000
 1.2705078180e+000	 9.9431190087e-001	-1.1538446075e+000
 1.2594844891e+000	 1.0082386559e+000	-1.2243559819e+000
 1.2483016653e+000	 1.0220515737e+000	-1.2914264855e+000
 1.2369611118e+000	 1.0357479327e+000	-1.3557458564e+000
 1.2254646548e+000	 1.0493250477e+000	-1.4181468044e+000
 1.2138141814e+000	 1.0627802718e+000	-1.4795898650e+000
 1.2020116384e+000	 1.0761109984e+000	-1.5411531791e+000
 1.3183988678e+000	 9.4139637714e-001	-8.4019372088e-001
 1.3079870572e+000	 9.5580991097e-001	-9.2845621623e-001
 1.2974086389e+000	 9.7012040113e-001	-1.0119291969e+000
 1.2866651295e+000	 9.8432498549e-001	-1.0906789224e+000
 1.2757581107e+000	 9.9842083147e-001	-1.1649439035e+000
 1.2646892285e+000	 1.0124051379e+000	-1.2351303840e+000
 1.2534601925e+000	 1.0262751367e+000	-1.3018005794e+000
 1.2420727748e+000	 1.0400280951e+000	-1.3656718291e+000
 1.2305288094e+000	 1.0536613166e+000	-1.4276018885e+000
 1.2188301912e+000	 1.0671721436e+000	-1.4885795769e+000
 1.2069788749e+000	 1.0805579586e+000	-1.5497129779e+000
 1.3238246455e+000	 9.4527062762e-001	-8.5076829294e-001
 1.3133699858e+000	 9.5974347933e-001	-9.3935503545e-001
 1.3027480327e+000	 9.7411286330e-001	-1.0229880927e+000
 1.2919603092e+000	 9.8837590563e-001	-1.1017459496e+000
 1.2810084033e+000	 1.0025297621e+000	-1.1758827101e+000
 1.2698939679e+000	 1.0165716199e+000	-1.2458232955e+000
 1.2586187196e+000	 1.0304986998e+000	-1.3121518595e+000
 1.2471844378e+000	 1.0443082574e+000	-1.3756100672e+000
 1.2355929640e+000	 1.0579975855e+000	-1.4370825277e+000
 1.2238462010e+000	 1.0715640154e+000	-1.4975870173e+000
 1.2119461115e+000	 1.0850049187e+000	-1.5582623366e+000
 1.3292504232e+000	 9.4914487810e-001	-8.6058970704e-001
 1.3187529144e+000	 9.6367704769e-001	-9.4967482583e-001
 1.3080874266e+000	 9.7810532547e-001	-1.0336187227e+000
 1.2972554889e+000	 9.9242682577e-001	-1.1125120419e+000
 1.2862586960e+000	 1.0066386927e+000	-1.1866245513e+000
 1.2750987074e+000	 1.0207381019e+000	-1.2564000571e+000
 1.2637772467e+000	 1.0347222628e+000	-1.3224449707e+000
 1.2522961008e+000	 1.0485884198e+000	-1.3855257423e+000
 1.2406571187e+000	 1.0623338544e+000	-1.4465544054e+000
 1.2288622108e+000	 1.0759558872e+000	-1.5065783742e+000
 1.2169133480e+000	 1.0894518789e+000	-1.5667679506e+000
 1.3346762008e+000	 9.5301912857e-001	-8.6966821756e-001
 1.3241358430e+000	 9.6761061605e-001	-9.5937768756e-001
 1.3134268204e+000	 9.8209778765e-001	-1.0437838506e+000
 1.3025506686e+000	 9.9647774591e-001	-1.1229405915e+000
 1.2915089886e+000	 1.0107476233e+000	-1.1971344489e+000
 1.2803034468e+000	 1.0249045840e+000	-1.2668252056e+000
 1.2689357738e+000	 1.0389458258e+000	-1.3326449693e+000
 1.2574077638e+000	 1.0528685822e+000	-1.3953844003e+000
 1.2457212733e+000	 1.0666701234e+000	-1.4559835337e+000
 1.2338782206e+000	 1.0803477590e+000	-1.5155201105e+000
 1.2218805845e+000	 1.0938988391e+000	-1.5751967283e+000
 1.3401019785e+000	 9.5689337905e-001	-8.7902134074e-001
 1.3295187716e+000	 9.7154418441e-001	-9.6842623248e-001
 1.3187662143e+000	 9.8609024982e-001	-1.0534467604e+000
 1.3078458483e+000	 1.0005286660e+000	-1.1329955091e+000
 1.2967592812e+000	 1.0148565539e+000	-1.2073747234e+000
 1.2855081862e+000	 1.0290710660e+000	-1.2770637661e+000
 1.2740943010e+000	 1.0431693889e+000	-1.3427173714e+000
 1.2625194268e+000	 1.0571487445e+000	-1.4051520096e+000
 1.2507854279e+000	 1.0710063923e+000	-1.4653363010e+000
 1.2388942304e+000	 1.0847396307e+000	-1.5243790115e+000
 1.2268478211e+000	 1.0983457992e+000	-1.5835158386e+000
 1.3455277562e+000	 9.6076762952e-001	-8.8906471918e-001
 1.3349017002e+000	 9.7547775277e-001	-9.7684993048e-001
 1.3241056082e+000	 9.9008271199e-001	-1.0625713052e+000
 1.3131410280e+000	 1.0045795862e+000	-1.1426412732e+000
 1.3020095739e+000	 1.0189654845e+000	-1.2173115600e+000
 1.2907129257e+000	 1.0332375480e+000	-1.2870813008e+000
 1.2792528281e+000	 1.0473929519e+000	-1.3526282011e+000
 1.2676310898e+000	 1.0614289069e+000	-1.4147950088e+000
 1.2558495826e+000	 1.0753426612e+000	-1.4745795200e+000
 1.2439102402e+000	 1.0891315025e+000	-1.5331222324e+000
 1.2318150576e+000	 1.1027927594e+000	-1.5916927580e+000
 1.3509535338e+000	 9.6464188000e-001	-8.9979401892e-001
 1.3402846288e+000	 9.7941132112e-001	-9.8568263770e-001
 1.3294450020e+000	 9.9407517417e-001	-1.0711219567e+000
 1.3184362077e+000	 1.0086305063e+000	-1.1518429794e+000
 1.3072598665e+000	 1.0230744151e+000	-1.2269106124e+000
 1.2959176651e+000	 1.0374040301e+000	-1.2968439575e+000
 1.2844113552e+000	 1.0516165149e+000	-1.3623440389e+000
 1.2727427528e+000	 1.0657090692e+000	-1.4242803550e+000
 1.2609137372e+000	 1.0796789302e+000	-1.4836804755e+000
 1.2489262500e+000	 1.0935233743e+000	-1.5417173454e+000
 1.2367822942e+000	 1.1072397196e+000	-1.5996953174e+000
 1.3563793115e+000	 9.6851613048e-001	-9.1120475544e-001
 1.3456675574e+000	 9.8334488948e-001	-9.9528490340e-001
 1.3347843959e+000	 9.9806763634e-001	-1.0791205379e+000
 1.3237313874e+000	 1.0126814265e+000	-1.1605672330e+000
 1.3125101591e+000	 1.0271833457e+000	-1.2361381889e+000
 1.3011224045e+000	 1.0415705121e+000	-1.3063185182e+000
 1.2895698824e+000	 1.0558400780e+000	-1.3718320700e+000
 1.2778544158e+000	 1.0699892316e+000	-1.4335755717e+000
 1.2659778918e+000	 1.0840151991e+000	-1.4926069717e+000
 1.2539422598e+000	 1.0979152461e+000	-1.5501323875e+000
 1.2417495307e+000	 1.1116866797e+000	-1.6074917499e+000
 1.1920771653e+000	 1.0672170781e+000	-1.5241362605e+000
 1.1802251337e+000	 1.0803096611e+000	-1.5821424014e+000
 1.1682263680e+000	 1.0932737708e+000	-1.6315522200e+000
 1.1560829695e+000	 1.1061069531e+000	-1.6735726133e+000
 1.1437970941e+000	 1.1188067997e+000	-1.7094757676e+000
 1.1313709505e+000	 1.1313709505e+000	-1.7405849545e+000
 1.1188067997e+000	 1.1437970941e+000	-1.7682598775e+000
 1.1061069531e+000	 1.1560829695e+000	-1.7938816769e+000
 1.0932737708e+000	 1.1682263680e+000	-1.8188377116e+000
 1.0803096611e+000	 1.1802251337e+000	-1.8445062320e+000
 1.0672170781e+000	 1.1920771653e+000	-1.8722410644e+000
 1.1970444019e+000	 1.0716640383e+000	-1.5326164105e+000
 1.1851429843e+000	 1.0848111765e+000	-1.5903358724e+000
 1.1730942212e+000	 1.0978293060e+000	-1.6395167394e+000
 1.1609002228e+000	 1.1107159625e+000	-1.6813422042e+000
 1.1485631536e+000	 1.1234687278e+000	-1.7170623260e+000
 1.1360852319e+000	 1.1360852319e+000	-1.7479795175e+000
 1.1234687278e+000	 1.1485631536e+000	-1.7754335664e+000
 1.1107159625e+000	 1.1609002228e+000	-1.8007863059e+000
 1.0978293060e+000	 1.1730942212e+000	-1.8254060537e+000
 1.0848111765e+000	 1.1851429843e+000	-1.8506519372e+000
 1.0716640383e+000	 1.1970444019e+000	-1.8778582277e+000
 1.2020116384e+000	 1.0761109984e+000	-1.5411531791e+000
 1.1900608349e+000	 1.0893126918e+000	-1.5985434995e+000
 1.1779620745e+000	 1.1023848411e+000	-1.6474484722e+000
 1.1657174760e+000	 1.1153249719e+000	-1.6890304373e+000
 1.1533292131e+000	 1.1281306559e+000	-1.7245201682e+000
 1.1407995132e+000	 1.1407995132e+000	-1.7552020348e+000
 1.1281306559e+000	 1.1533292131e+000	-1.7823986889e+000
 1.1153249719e+000	 1.1657174760e+000	-1.8074553871e+000
 1.1023848411e+000	 1.1779620745e+000	-1.8317240734e+000
 1.0893126918e+000	 1.1900608349e+000	-1.8565473438e+000
 1.0761109984e+000	 1.2020116384e+000	-1.8832424178e+000
 1.2069788749e+000	 1.0805579586e+000	-1.5497129779e+000
 1.1949786855e+000	 1.0938142071e+000	-1.6067320208e+000
 1.1828299277e+000	 1.1069403763e+000	-1.6553138445e+000
 1.1705347292e+000	 1.1199339813e+000	-1.6966027782e+000
 1.1580952726e+000	 1.1327925840e+000	-1.7318131414e+000
 1.1455137945e+000	 1.1455137945e+000	-1.7622140713e+000
 1.1327925840e+000	 1.1580952726e+000	-1.7891138585e+000
 1.1199339813e+000	 1.1705347292e+000	-1.8138439094e+000
 1.1069403763e+000	 1.1828299277e+000	-1.8377424592e+000
 1.0938142071e+000	 1.1949786855e+000	-1.8621381631e+000
 1.0805579586e+000	 1.2069788749e+000	-1.8883336910e+000
 1.2119461115e+000	 1.0850049187e+000	-1.5582623366e+000
 1.1998965361e+000	 1.0983157224e+000	-1.6148682299e+000
 1.1876977810e+000	 1.1114959114e+000	-1.6630792785e+000
 1.1753519824e+000	 1.1245429907e+000	-1.7040246335e+000
 1.1628613321e+000	 1.1374545121e+000	-1.7389049848e+000
 1.1502280758e+000	 1.1502280758e+000	-1.7689770411e+000
 1.1374545121e+000	 1.1628613321e+000	-1.7955375021e+000
 1.1245429907e+000	 1.1753519824e+000	-1.8199066473e+000
 1.1114959114e+000	 1.1876977810e+000	-1.8434116665e+000
 1.0983157224e+000	 1.1998965361e+000	-1.8673698635e+000
 1.0850049187e+000	 1.2119461115e+000	-1.8930718614e+000
 1.2169133480e+000	 1.0894518789e+000	-1.5667679506e+000
 1.2048143867e+000	 1.1028172377e+000	-1.6229190218e+000
 1.1925656342e+000	 1.1160514466e+000	-1.6707112383e+000
 1.1801692357e+000	 1.1291520001e+000	-1.7112613962e+000
 1.1676273916e+000	 1.1421164402e+000	-1.7457593742e+000
 1.1549423572e+000	 1.1549423572e+000	-1.7754522509e+000
 1.1421164402e+000	 1.1676273916e+000	-1.8016279021e+000
 1.1291520001e+000	 1.1801692357e+000	-1.8255982012e+000
 1.1160514466e+000	 1.1925656342e+000	-1.8486819552e+000
 1.1028172377e+000	 1.2048143867e+000	-1.8721877062e+000
 1.0894518789e+000	 1.2169133480e+000	-1.8973965340e+000
 1.2218805845e+000	 1.0938988391e+000	-1.5751967283e+000
 1.2097322373e+000	 1.1073187531e+000	-1.6308514411e+000
 1.1974334875e+000	 1.1206069817e+000	-1.6781762765e+000
 1.1849864889e+000	 1.1337610095e+000	-1.7182784921e+000
 1.1723934512e+000	 1.1467783683e+000	-1.7523399666e+000
 1.1596566385e+000	 1.1596566385e+000	-1.7816009432e+000
 1.1467783683e+000	 1.1723934512e+000	-1.8073432374e+000
 1.1337610095e+000	 1.1849864889e+000	-1.8308730369e+000
 1.1206069817e+000	 1.1974334875e+000	-1.8535034275e+000
 1.1073187531e+000	 1.2097322373e+000	-1.8765367801e+000
 1.0938988391e+000	 1.2218805845e+000	-1.9012471373e+000
 1.2268478211e+000	 1.0983457992e+000	-1.5835158386e+000
 1.2146500879e+000	 1.1118202684e+000	-1.6386327280e+000
 1.2023013407e+000	 1.1251625169e+000	-1.6854410808e+000
 1.1898037421e+000	 1.1383700189e+000	-1.7250414245e+000
 1.1771595107e+000	 1.1514402963e+000	-1.7586104443e+000
 1.1643709198e+000	 1.1643709198e+000	-1.7873843391e+000
 1.1514402963e+000	 1.1771595107e+000	-1.8126416258e+000
 1.1383700189e+000	 1.1898037421e+000	-1.8356855255e+000
 1.1251625169e+000	 1.2023013407e+000	-1.8578260653e+000
 1.1118202684e+000	 1.2146500879e+000	-1.8803620379e+000
 1.0983457992e+000	 1.2268478211e+000	-1.9045629562e+000
 1.2318150576e+000	 1.1027927594e+000	-1.5916927580e+000
 1.2195679385e+000	 1.1163217837e+000	-1.6462303657e+000
 1.2071691940e+000	 1.1297180520e+000	-1.6924725196e+000
 1.1946209953e+000	 1.1429790283e+000	-1.7315158198e+000
 1.1819255702e+000	 1.1561022244e+000	-1.7645345597e+000
 1.1690852012e+000	 1.1690852012e+000	-1.7927636816e+000
 1.1561022244e+000	 1.1819255702e+000	-1.8174811649e+000
 1.1429790283e+000	 1.1946209953e+000	-1.8399899829e+000
 1.1297180520e+000	 1.2071691940e+000	-1.8615997687e+000
 1.1163217837e+000	 1.2195679385e+000	-1.8836083310e+000
 1.1027927594e+000	 1.2318150576e+000	-1.9072831651e+000
 1.2367822942e+000	 1.1072397196e+000	-1.5996953174e+000
 1.2244857891e+000	 1.1208232990e+000	-1.6536121267e+000
 1.2120370472e+000	 1.1342735872e+000	-1.6992376888e+000
 1.1994382486e+000	 1.1475880378e+000	-1.7376674728e+000
 1.1866916297e+000	 1.1607641525e+000	-1.7700761788e+000
 1.1737994825e+000	 1.1737994825e+000	-1.7977002784e+000
 1.1607641525e+000	 1.1866916297e+000	-1.8218199734e+000
 1.1475880378e+000	 1.1994382486e+000	-1.8437407098e+000
 1.1342735872e+000	 1.2120370472e+000	-1.8647743927e+000
 1.1208232990e+000	 1.2244857891e+000	-1.8862204451e+000
 1.1072397196e+000	 1.2367822942e+000	-1.9093468605e+000
 1.2417495307e+000	 1.1116866797e+000	-1.6074917499e+000
 1.2294036397e+000	 1.1253248144e+000	-1.6607461198e+000
 1.2169049005e+000	 1.1388291223e+000	-1.7057039571e+000
 1.2042555018e+000	 1.1521970472e+000	-1.7434623919e+000
 1.1914576892e+000	 1.1654260806e+000	-1.7751993259e+000
 1.1785137638e+000	 1.1785137638e+000	-1.8021555448e+000
 1.1654260806e+000	 1.1914576892e+000	-1.8256162329e+000
 1.1521970472e+000	 1.2042555018e+000	-1.8468920311e+000
 1.1388291223e+000	 1.2169049005e+000	-1.8672997855e+000
 1.1253248144e+000	 1.2294036397e+000	-1.8881431357e+000
 1.1116866797e+000	 1.2417495307e+000	-1.9106930941e+000
 1.0672170781e+000	 1.1920771653e+000	-1.8722410644e+000
 1.0539965282e+000	 1.2037821618e+000	-1.8971067779e+000
 1.0406525098e+000	 1.2153363455e+000	-1.9142380578e+000
 1.0271876080e+000	 1.2267377857e+000	-1.9250126248e+000
 1.0136044476e+000	 1.2379846111e+000	-1.9307074690e+000
 9.9990569180e-001	 1.2490750102e+000	-1.9324908401e+000
 9.8609403966e-001	 1.2600072328e+000	-1.9313870504e+000
 9.7217222507e-001	 1.2707795903e+000	-1.9282964919e+000
 9.5814301461e-001	 1.2813904573e+000	-1.9239636327e+000
 9.4400920589e-001	 1.2918382714e+000	-1.9189718458e+000
 9.2977362572e-001	 1.3021215348e+000	-1.9137343194e+000
 1.0716640383e+000	 1.1970444019e+000	-1.8778582277e+000
 1.0583884000e+000	 1.2087981716e+000	-1.9019930014e+000
 1.0449887787e+000	 1.2204005001e+000	-1.9181675454e+000
 1.0314677703e+000	 1.2318494487e+000	-1.9278484252e+000
 1.0178280107e+000	 1.2431431382e+000	-1.9324004530e+000
 1.0040721738e+000	 1.2542797497e+000	-1.9330779095e+000
 9.9020297027e-001	 1.2652575254e+000	-1.9309897896e+000
 9.7622314521e-001	 1.2760747700e+000	-1.9271179247e+000
 9.6213547678e-001	 1.2867298511e+000	-1.9222854227e+000
 9.4794277425e-001	 1.2972212000e+000	-1.9171508257e+000
 9.3364787619e-001	 1.3075473125e+000	-1.9121985988e+000
 1.0761109984e+000	 1.2020116384e+000	-1.8832424178e+000
 1.0627802718e+000	 1.2138141814e+000	-1.9066889506e+000
 1.0493250477e+000	 1.2254646548e+000	-1.9219821264e+000
 1.0357479327e+000	 1.2369611118e+000	-1.9306786034e+000
 1.0220515737e+000	 1.2483016653e+000	-1.9342322205e+000
 1.0082386559e+000	 1.2594844891e+000	-1.9339844415e+000
 9.9431190087e-001	 1.2705078180e+000	-1.9311300155e+000
 9.8027406535e-001	 1.2813699498e+000	-1.9267332203e+000
 9.6612793895e-001	 1.2920692450e+000	-1.9216967175e+000
 9.5187634261e-001	 1.3026041286e+000	-1.9167550329e+000
 9.3752212667e-001	 1.3129730902e+000	-1.9124646148e+000
 1.0805579586e+000	 1.2069788749e+000	-1.8883336910e+000
 1.0671721436e+000	 1.2188301912e+000	-1.9111287187e+000
 1.0536613166e+000	 1.2305288094e+000	-1.9256100022e+000
 1.0400280951e+000	 1.2420727748e+000	-1.9334255541e+000
 1.0262751367e+000	 1.2534601925e+000	-1.9361194563e+000
 1.0124051379e+000	 1.2646892285e+000	-1.9351164966e+000
 9.9842083147e-001	 1.2757581107e+000	-1.9317133326e+000
 9.8432498549e-001	 1.2866651295e+000	-1.9270426333e+000
 9.7012040113e-001	 1.2974086389e+000	-1.9220925608e+000
 9.5580991097e-001	 1.3079870572e+000	-1.9176744473e+000
 9.4139637714e-001	 1.3183988678e+000	-1.9144174378e+000
 1.0850049187e+000	 1.2119461115e+000	-1.8930718614e+000
 1.0715640154e+000	 1.2238462010e+000	-1.9152461623e+000
 1.0579975855e+000	 1.2355929640e+000	-1.9289791435e+000
 1.0443082574e+000	 1.2471844378e+000	-1.9360114470e+000
 1.0304986998e+000	 1.2586187196e+000	-1.9379786271e+000
 1.0165716199e+000	 1.2698939679e+000	-1.9363952261e+000
 1.0025297621e+000	 1.2810084033e+000	-1.9326451442e+000
 9.8837590563e-001	 1.2919603092e+000	-1.9279462292e+000
 9.7411286330e-001	 1.3027480327e+000	-1.9233678229e+000
 9.5974347933e-001	 1.3133699858e+000	-1.9197988952e+000
 9.4527062762e-001	 1.3238246455e+000	-1.9179420071e+000
 1.0894518789e+000	 1.2169133480e+000	-1.8973965340e+000
 1.0759558872e+000	 1.2288622108e+000	-1.9189749321e+000
 1.0623338544e+000	 1.2406571187e+000	-1.9320173175e+000
 1.0485884198e+000	 1.2522961008e+000	-1.9383582507e+000
 1.0347222628e+000	 1.2637772467e+000	-1.9397260020e+000
 1.0207381019e+000	 1.2750987074e+000	-1.9377260534e+000
 1.0066386927e+000	 1.2862586960e+000	-1.9338306684e+000
 9.9242682577e-001	 1.2972554889e+000	-1.9293438977e+000
 9.7810532547e-001	 1.3080874266e+000	-1.9254172108e+000
 9.6367704769e-001	 1.3187529144e+000	-1.9230180548e+000
 9.4914487810e-001	 1.3292504232e+000	-1.9229231348e+000
 1.0938988391e+000	 1.2218805845e+000	-1.9012471373e+000
 1.0803477590e+000	 1.2338782206e+000	-1.9222485023e+000
 1.0666701234e+000	 1.2457212733e+000	-1.9346521149e+000
 1.0528685822e+000	 1.2574077638e+000	-1.9403877578e+000
 1.0389458258e+000	 1.2689357738e+000	-1.9412776746e+000
 1.0249045840e+000	 1.2803034468e+000	-1.9390194862e+000
 1.0107476233e+000	 1.2915089886e+000	-1.9351699419e+000
 9.9647774591e-001	 1.3025506686e+000	-1.9311353654e+000
 9.8209778765e-001	 1.3134268204e+000	-1.9281352776e+000
 9.6761061605e-001	 1.3241358430e+000	-1.9272214641e+000
 9.5301912857e-001	 1.3346762008e+000	-1.9291508412e+000
 1.0983457992e+000	 1.2268478211e+000	-1.9045629562e+000
 1.0847396307e+000	 1.2388942304e+000	-1.9250002014e+000
 1.0710063923e+000	 1.2507854279e+000	-1.9368109776e+000
 1.0571487445e+000	 1.2625194268e+000	-1.9420216090e+000
 1.0431693889e+000	 1.2740943010e+000	-1.9425495848e+000
 1.0290710660e+000	 1.2855081862e+000	-1.9401858781e+000
 1.0148565539e+000	 1.2967592812e+000	-1.9365781154e+000
 1.0005286660e+000	 1.3078458483e+000	-1.9332202088e+000
 9.8609024982e-001	 1.3187662143e+000	-1.9314164331e+000
 9.7154418441e-001	 1.3295187716e+000	-1.9322985276e+000
 9.5689337905e-001	 1.3401019785e+000	-1.9344836609e+000
 1.1027927594e+000	 1.2318150576e+000	-1.9072831651e+000
 1.0891315025e+000	 1.2439102402e+000	-1.9271632419e+000
 1.0753426612e+000	 1.2558495826e+000	-1.9384212262e+000
 1.0614289069e+000	 1.2676310898e+000	-1.9431813183e+000
 1.0473929519e+000	 1.2792528281e+000	-1.9434575409e+000
 1.0332375480e+000	 1.2907129257e+000	-1.9411354472e+000
 1.0189654845e+000	 1.3020095739e+000	-1.9379546970e+000
 1.0045795862e+000	 1.3131410280e+000	-1.9354978681e+000
 9.9008271199e-001	 1.3241056082e+000	-1.9351549544e+000
 9.7547775277e-001	 1.3349017002e+000	-1.9380129304e+000
 9.6076762952e-001	 1.3455277562e+000	-1.9379967399e+000
 1.1072397196e+000	 1.2367822942e+000	-1.9093468605e+000
 1.0935233743e+000	 1.2489262500e+000	-1.9286707511e+000
 1.0796789302e+000	 1.2609137372e+000	-1.9394100875e+000
 1.0657090692e+000	 1.2727427528e+000	-1.9437882976e+000
 1.0516165149e+000	 1.2844113552e+000	-1.9439172414e+000
 1.0374040301e+000	 1.2959176651e+000	-1.9417782959e+000
 1.0230744151e+000	 1.3072598665e+000	-1.9392043243e+000
 1.0086305063e+000	 1.3184362077e+000	-1.9378676613e+000
 9.9407517417e-001	 1.3294450020e+000	-1.9392449972e+000
 9.7941132112e-001	 1.3402846288e+000	-1.9422475148e+000
 9.6464188000e-001	 1.3509535338e+000	-1.9395887594e+000
 1.1116866797e+000	 1.2417495307e+000	-1.9106930941e+000
 1.0979152461e+000	 1.2539422598e+000	-1.9294558009e+000
 1.0840151991e+000	 1.2659778918e+000	-1.9397047221e+000
 1.0699892316e+000	 1.2778544158e+000	-1.9437638819e+000
 1.0558400780e+000	 1.2895698824e+000	-1.9438442981e+000
 1.0415705121e+000	 1.3011224045e+000	-1.9420244303e+000
 1.0271833457e+000	 1.3125101591e+000	-1.9402315313e+000
 1.0126814265e+000	 1.3237313874e+000	-1.9402240374e+000
 9.9806763634e-001	 1.3347843959e+000	-1.9434755535e+000
 9.8334488948e-001	 1.3456675574e+000	-1.9442097859e+000
 9.6851613048e-001	 1.3563793115e+000	-1.9391614047e+000
 9.2977362572e-001	 1.3021215348e+000	-1.9137343194e+000
 9.1543912792e-001	 1.3122388141e+000	-1.9068732133e+000
 9.0100859063e-001	 1.3221887397e+000	-1.8979046990e+000
 8.8648491536e-001	 1.3319700078e+000	-1.8883278062e+000
 8.7187102550e-001	 1.3415813808e+000	-1.8759377045e+000
 8.5716986437e-001	 1.3510216880e+000	-1.8563014715e+000
 8.4238439338e-001	 1.3602898258e+000	-1.8309095895e+000
 8.2751759014e-001	 1.3693847580e+000	-1.8013230153e+000
 8.1257244658e-001	 1.3783055161e+000	-1.7690817908e+000
 7.9755196704e-001	 1.3870511992e+000	-1.7357045288e+000
 7.8245916641e-001	 1.3956209742e+000	-1.7026878790e+000
 9.3364787619e-001	 1.3075473125e+000	-1.9121985988e+000
 9.1925364833e-001	 1.3177067492e+000	-1.9062481487e+000
 9.0476298080e-001	 1.3276981349e+000	-1.8989284645e+000
 8.9017878719e-001	 1.3375201603e+000	-1.8907586485e+000
 8.7550400308e-001	 1.3471715827e+000	-1.8758053404e+000
 8.6074158404e-001	 1.3566512265e+000	-1.8540207164e+000
 8.4589450385e-001	 1.3659579835e+000	-1.8269410462e+000
 8.3096575250e-001	 1.3750908132e+000	-1.7960810350e+000
 8.1595833439e-001	 1.3840487429e+000	-1.7629334263e+000
 8.0087526639e-001	 1.3928308681e+000	-1.7289685923e+000
 7.8571957594e-001	 1.4014363523e+000	-1.6956341017e+000
 9.3752212667e-001	 1.3129730902e+000	-1.9124646148e+000
 9.2306816875e-001	 1.3231746843e+000	-1.9078343674e+000
 9.0851737097e-001	 1.3332075301e+000	-1.9025913591e+000
 8.9387265903e-001	 1.3430703128e+000	-1.8931747558e+000
 8.7913698066e-001	 1.3527617846e+000	-1.8759119760e+000
 8.6431330372e-001	 1.3622807650e+000	-1.8523069375e+000
 8.4940461431e-001	 1.3716261411e+000	-1.8238417151e+000
 8.3441391486e-001	 1.3807968683e+000	-1.7919758352e+000
 8.1934422221e-001	 1.3897919697e+000	-1.7581460027e+000
 8.0419856575e-001	 1.3986105371e+000	-1.7237658134e+000
 7.8897998548e-001	 1.4072517305e+000	-1.6902254372e+000
 9.4139637714e-001	 1.3183988678e+000	-1.9144174378e+000
 9.2688268916e-001	 1.3286426194e+000	-1.9115125070e+000
 9.1227176114e-001	 1.3387169253e+000	-1.9072661936e+000
 8.9756653086e-001	 1.3486204653e+000	-1.8953441533e+000
 8.8276995824e-001	 1.3583519865e+000	-1.8761110562e+000
 8.6788502340e-001	 1.3679103035e+000	-1.8510090377e+000
 8.5291472478e-001	 1.3772942988e+000	-1.8214569936e+000
 8.3786207722e-001	 1.3865029234e+000	-1.7888504568e+000
 8.2273011002e-001	 1.3955351965e+000	-1.7545614662e+000
 8.0752186510e-001	 1.4043902060e+000	-1.7199384150e+000
 7.9224039502e-001	 1.4130671086e+000	-1.6863058668e+000
 9.4527062762e-001	 1.3238246455e+000	-1.9179420071e+000
 9.3069720958e-001	 1.3341105545e+000	-1.9171297582e+000
 9.1602615131e-001	 1.3442263205e+000	-1.9112176253e+000
 9.0126040269e-001	 1.3541706179e+000	-1.8971292289e+000
 8.8640293582e-001	 1.3639421884e+000	-1.8762595433e+000
 8.7145674308e-001	 1.3735398420e+000	-1.8499794598e+000
 8.5642483525e-001	 1.3829624565e+000	-1.8196358227e+000
 8.4131023957e-001	 1.3922089785e+000	-1.7865514683e+000
 8.2611599784e-001	 1.4012784233e+000	-1.7520252515e+000
 8.1084516445e-001	 1.4101698750e+000	-1.7173320466e+000
 7.9550080456e-001	 1.4188824868e+000	-1.6837227099e+000
 9.4914487810e-001	 1.3292504232e+000	-1.9229231348e+000
 9.3451172999e-001	 1.3395784896e+000	-1.9226664094e+000
 9.1978054148e-001	 1.3497357157e+000	-1.9143171986e+000
 9.0495427452e-001	 1.3597207704e+000	-1.8983957990e+000
 8.9003591339e-001	 1.3695323903e+000	-1.8762178665e+000
 8.7502846276e-001	 1.3791693804e+000	-1.8490741353e+000
 8.5993494572e-001	 1.3886306141e+000	-1.8182306363e+000
 8.4475840193e-001	 1.3979150336e+000	-1.7849289155e+000
 8.2950188565e-001	 1.4070216501e+000	-1.7503862340e+000
 8.1416846381e-001	 1.4159495440e+000	-1.7157957372e+000
 7.9876121410e-001	 1.4246978649e+000	-1.6823265798e+000
 9.5301912857e-001	 1.3346762008e+000	-1.9291508412e+000
 9.3832625041e-001	 1.3450464247e+000	-1.9269039630e+000
 9.2353493165e-001	 1.3552451109e+000	-1.9164402232e+000
 9.0864814635e-001	 1.3652709229e+000	-1.8990130589e+000
 8.9366889097e-001	 1.3751225923e+000	-1.8758498715e+000
 8.7860018244e-001	 1.3847989189e+000	-1.8481524344e+000
 8.6344505619e-001	 1.3942987718e+000	-1.8170973121e+000
 8.4820656429e-001	 1.4036210887e+000	-1.7838362733e+000
 8.3288777346e-001	 1.4127648769e+000	-1.7494966819e+000
 8.1749176316e-001	 1.4217292129e+000	-1.7151818500e+000
 8.0202162364e-001	 1.4305132431e+000	-1.6819713400e+000
 9.5689337905e-001	 1.3401019785e+000	-1.9344836609e+000
 9.4214077083e-001	 1.3505143598e+000	-1.9297277130e+000
 9.2728932182e-001	 1.3607545061e+000	-1.9174652868e+000
 9.1234201818e-001	 1.3708210754e+000	-1.8988535330e+000
 8.9730186855e-001	 1.3807127942e+000	-1.8750227708e+000
 8.8217190211e-001	 1.3904284574e+000	-1.8470771169e+000
 8.6695516666e-001	 1.3999669295e+000	-1.8160951221e+000
 8.5165472665e-001	 1.4093271438e+000	-1.7831303971e+000
 8.3627366128e-001	 1.4185081037e+000	-1.7492122097e+000
 8.2081506251e-001	 1.4275088819e+000	-1.7153460374e+000
 8.0528203318e-001	 1.4363286212e+000	-1.6825140614e+000
 9.6076762952e-001	 1.3455277562e+000	-1.9379967399e+000
 9.4595529124e-001	 1.3559822949e+000	-1.9310261214e+000
 9.3104371199e-001	 1.3662639013e+000	-1.9172742068e+000
 9.1603589001e-001	 1.3763712280e+000	-1.8977930262e+000
 9.0093484613e-001	 1.3863029961e+000	-1.8736070950e+000
 8.8574362179e-001	 1.3960579959e+000	-1.8457142828e+000
 8.7046527713e-001	 1.4056350871e+000	-1.8150866846e+000
 8.5510288901e-001	 1.4150331989e+000	-1.7826714758e+000
 8.3965954909e-001	 1.4242513305e+000	-1.7493917317e+000
 8.2413836187e-001	 1.4332885509e+000	-1.7161471957e+000
 8.0854244272e-001	 1.4421439994e+000	-1.6838149798e+000
 9.6464188000e-001	 1.3509535338e+000	-1.9395887594e+000
 9.4976981166e-001	 1.3614502301e+000	-1.9306907708e+000
 9.3479810216e-001	 1.3717732965e+000	-1.9157519828e+000
 9.1972976184e-001	 1.3819213805e+000	-1.8957105754e+000
 9.0456782371e-001	 1.3918931980e+000	-1.8714766441e+000
 8.8931534147e-001	 1.4016875344e+000	-1.8439333244e+000
 8.7397538760e-001	 1.4113032448e+000	-1.8139379164e+000
 8.5855105137e-001	 1.4207392541e+000	-1.7823229845e+000
 8.4304543690e-001	 1.4299945573e+000	-1.7498974164e+000
 8.2746166122e-001	 1.4390682198e+000	-1.7174474216e+000
 8.1180285226e-001	 1.4479593775e+000	-1.6857374537e+000
 9.6851613048e-001	 1.3563793115e+000	-1.9391614047e+000
 9.5358433207e-001	 1.3669181652e+000	-1.9286163177e+000
 9.3855249233e-001	 1.3772826917e+000	-1.9127867485e+000
 9.2342363367e-001	 1.3874715330e+000	-1.8924884022e+000
 9.0820080129e-001	 1.3974833999e+000	-1.8685084397e+000
 8.9288706115e-001	 1.4073170729e+000	-1.8416068786e+000
 8.7748549806e-001	 1.4169714025e+000	-1.8125179853e+000
 8.6199921372e-001	 1.4264453092e+000	-1.7819516382e+000
 8.4643132472e-001	 1.4357377841e+000	-1.7505946414e+000
 8.3078496057e-001	 1.4448478888e+000	-1.7191119688e+000
 8.1506326180e-001	 1.4537747557e+000	-1.6881479235e+000
 7.8245916641e-001	 1.3956209742e+000	-1.7026878790e+000
 7.6729934761e-001	 1.4040128306e+000	-1.6748613999e+000
 7.5207328189e-001	 1.4122273710e+000	-1.6542147798e+000
 7.3678400397e-001	 1.4202639671e+000	-1.6379702828e+000
 7.2143455165e-001	 1.4281220583e+000	-1.6233387764e+000
 7.0602796396e-001	 1.4358011511e+000	-1.6075259015e+000
 6.9056727934e-001	 1.4433008194e+000	-1.5877380748e+000
 6.7505553390e-001	 1.4506207034e+000	-1.5611883120e+000
 6.5949575956e-001	 1.4577605098e+000	-1.5264770307e+000
 6.4389098239e-001	 1.4647200112e+000	-1.4905171846e+000
 6.2824422082e-001	 1.4714990455e+000	-1.4526541879e+000
 7.8571957594e-001	 1.4014363523e+000	-1.6956341017e+000
 7.7049658808e-001	 1.4098631766e+000	-1.6676294964e+000
 7.5520707725e-001	 1.4181119459e+000	-1.6468655010e+000
 7.3985409082e-001	 1.4261820295e+000	-1.6305919735e+000
 7.2444067925e-001	 1.4340728644e+000	-1.6160481159e+000
 7.0896989423e-001	 1.4417839551e+000	-1.6004686030e+000
 6.9344478688e-001	 1.4493148735e+000	-1.5810895369e+000
 6.7786840593e-001	 1.4566652585e+000	-1.5551542155e+000
 6.6224379596e-001	 1.4638348157e+000	-1.5204368426e+000
 6.4657399563e-001	 1.4708233164e+000	-1.4832480803e+000
 6.3086203596e-001	 1.4776305981e+000	-1.4443869374e+000
 7.8897998548e-001	 1.4072517305e+000	-1.6902254372e+000
 7.7369382855e-001	 1.4157135225e+000	-1.6620972223e+000
 7.5834087261e-001	 1.4239965208e+000	-1.6412284464e+000
 7.4292417767e-001	 1.4321000919e+000	-1.6249073486e+000
 7.2744680685e-001	 1.4400236705e+000	-1.6104121430e+000
 7.1191182450e-001	 1.4477667590e+000	-1.5950170882e+000
 6.9632229441e-001	 1.4553289276e+000	-1.5759983773e+000
 6.8068127796e-001	 1.4627098137e+000	-1.5506398366e+000
 6.6499183235e-001	 1.4699091215e+000	-1.5163132288e+000
 6.4925700887e-001	 1.4769266216e+000	-1.4779481312e+000
 6.3347985110e-001	 1.4837621507e+000	-1.4381667041e+000
 7.9224039502e-001	 1.4130671086e+000	-1.6863058668e+000
 7.7689106902e-001	 1.4215638685e+000	-1.6581109198e+000
 7.6147466796e-001	 1.4298810957e+000	-1.6371518890e+000
 7.4599426451e-001	 1.4380181543e+000	-1.6207660621e+000
 7.3045293445e-001	 1.4459744766e+000	-1.6062812230e+000
 7.1485375478e-001	 1.4537495629e+000	-1.5910216469e+000
 6.9919980195e-001	 1.4613429817e+000	-1.5723139091e+000
 6.8349414999e-001	 1.4687543688e+000	-1.5474924967e+000
 6.6773986875e-001	 1.4759834273e+000	-1.5139052158e+000
 6.5194002211e-001	 1.4830299268e+000	-1.4744446674e+000
 6.3609766624e-001	 1.4898937033e+000	-1.4338202566e+000
 7.9550080456e-001	 1.4188824868e+000	-1.6837227099e+000
 7.8008830949e-001	 1.4274142145e+000	-1.6555201692e+000
 7.6460846332e-001	 1.4357656707e+000	-1.6344872462e+000
 7.4906435136e-001	 1.4439362167e+000	-1.6180208250e+000
 7.3345906204e-001	 1.4519252827e+000	-1.6035087008e+000
 7.1779568505e-001	 1.4597323668e+000	-1.5883354830e+000
 7.0207730948e-001	 1.4673570358e+000	-1.5698883063e+000
 6.8630702202e-001	 1.4747989240e+000	-1.5455623404e+000
 6.7048790514e-001	 1.4820577331e+000	-1.5127660890e+000
 6.5462303535e-001	 1.4891332320e+000	-1.4725665834e+000
 6.3871548138e-001	 1.4960252558e+000	-1.4311758608e+000
 7.9876121410e-001	 1.4246978649e+000	-1.6823265798e+000
 7.8328554996e-001	 1.4332645604e+000	-1.6541777475e+000
 7.6774225868e-001	 1.4416502456e+000	-1.6330890399e+000
 7.5213443821e-001	 1.4498542792e+000	-1.6165273686e+000
 7.3646518964e-001	 1.4578760888e+000	-1.6019508660e+000
 7.2073761533e-001	 1.4657151707e+000	-1.5868146798e+000
 7.0495481702e-001	 1.4733710899e+000	-1.5685765709e+000
 6.8911989405e-001	 1.4808434791e+000	-1.5447023039e+000
 6.7323594154e-001	 1.4881320389e+000	-1.5126708227e+000
 6.5730604859e-001	 1.4952365372e+000	-1.4721443661e+000
 6.4133329652e-001	 1.5021568084e+000	-1.4300633040e+000
 8.0202162364e-001	 1.4305132431e+000	-1.6819713400e+000
 7.8648279043e-001	 1.4391149064e+000	-1.6539395871e+000
 7.7087605404e-001	 1.4475348205e+000	-1.6328148578e+000
 7.5520452506e-001	 1.4557723416e+000	-1.6161444071e+000
 7.3947131724e-001	 1.4638268949e+000	-1.6014669172e+000
 7.2367954560e-001	 1.4716979747e+000	-1.5863181673e+000
 7.0783232455e-001	 1.4793851440e+000	-1.5682365011e+000
 6.9193276608e-001	 1.4868880343e+000	-1.5447680832e+000
 6.7598397793e-001	 1.4942063448e+000	-1.5134719357e+000
 6.5998906182e-001	 1.5013398424e+000	-1.4730101239e+000
 6.4395111166e-001	 1.5082883610e+000	-1.4303139204e+000
 8.0528203318e-001	 1.4363286212e+000	-1.6825140614e+000
 7.8968003090e-001	 1.4449652523e+000	-1.6546647356e+000
 7.7400984939e-001	 1.4534193955e+000	-1.6335253152e+000
 7.5827461191e-001	 1.4616904040e+000	-1.6167336016e+000
 7.4247744484e-001	 1.4697777010e+000	-1.6019189283e+000
 7.2662147587e-001	 1.4776807786e+000	-1.5867076888e+000
 7.1070983208e-001	 1.4853991981e+000	-1.5687286593e+000
 6.9474563811e-001	 1.4929325894e+000	-1.5456181040e+000
 6.7873201433e-001	 1.5002806506e+000	-1.5150246574e+000
 6.6267207506e-001	 1.5074431476e+000	-1.4749976161e+000
 6.4656892680e-001	 1.5144199136e+000	-1.4317606169e+000
 8.0854244272e-001	 1.4421439994e+000	-1.6838149798e+000
 7.9287727137e-001	 1.4508155983e+000	-1.6562153150e+000
 7.7714364475e-001	 1.4593039704e+000	-1.6350840166e+000
 7.6134469875e-001	 1.4676084664e+000	-1.6181595242e+000
 7.4548357244e-001	 1.4757285071e+000	-1.6031718137e+000
 7.2956340615e-001	 1.4836635825e+000	-1.5878477687e+000
 7.1358733962e-001	 1.4914132522e+000	-1.5699163413e+000
 6.9755851014e-001	 1.4989771445e+000	-1.5471134908e+000
 6.8148005072e-001	 1.5063549564e+000	-1.5171868973e+000
 6.6535508830e-001	 1.5135464528e+000	-1.4779422825e+000
 6.4918674194e-001	 1.5205514662e+000	-1.4342378987e+000
 8.1180285226e-001	 1.4479593775e+000	-1.6857374537e+000
 7.9607451184e-001	 1.4566659443e+000	-1.6584564824e+000
 7.8027744011e-001	 1.4651885453e+000	-1.6373575188e+000
 7.6441478560e-001	 1.4735265288e+000	-1.6202896222e+000
 7.4848970004e-001	 1.4816793132e+000	-1.6050932949e+000
 7.3250533642e-001	 1.4896463864e+000	-1.5896056800e+000
 7.1646484715e-001	 1.4974273063e+000	-1.5716655445e+000
 7.0037138216e-001	 1.5050216997e+000	-1.5491180371e+000
 6.8422808712e-001	 1.5124292622e+000	-1.5198192159e+000
 6.6803810154e-001	 1.5196497580e+000	-1.4816403421e+000
 6.5180455708e-001	 1.5266830188e+000	-1.4375818964e+000
 8.1506326180e-001	 1.4537747557e+000	-1.6881479235e+000
 7.9927175231e-001	 1.4625162902e+000	-1.6612563910e+000
 7.8341123546e-001	 1.4710731202e+000	-1.6402152934e+000
 7.6748487245e-001	 1.4794445913e+000	-1.6229941835e+000
 7.5149582763e-001	 1.4876301193e+000	-1.6075538673e+000
 7.3544726669e-001	 1.4956291903e+000	-1.5918514126e+000
 7.1934235468e-001	 1.5034413604e+000	-1.5738449384e+000
 7.0318425419e-001	 1.5110662548e+000	-1.5514981757e+000
 6.8697612351e-001	 1.5185035681e+000	-1.5227847955e+000
 6.7072111478e-001	 1.5257530632e+000	-1.4856924991e+000
 6.5442237221e-001	 1.5328145713e+000	-1.4416303924e+000
 6.2824422082e-001	 1.4714990455e+000	-1.4526541879e+000
 6.1255612826e-001	 1.4780984920e+000	-1.4162363558e+000
 5.9683204901e-001	 1.4845172880e+000	-1.3852103693e+000
 5.8107497069e-001	 1.4907554653e+000	-1.3582560529e+000
 5.6528786665e-001	 1.4968131186e+000	-1.3342270685e+000
 5.4947369440e-001	 1.5026904046e+000	-1.3121370894e+000
 5.3363539409e-001	 1.5083875417e+000	-1.2911464567e+000
 5.1777588698e-001	 1.5139048087e+000	-1.2705493607e+000
 5.0189807397e-001	 1.5192425439e+000	-1.2497615790e+000
 4.8600483420e-001	 1.5244011448e+000	-1.2283087981e+000
 4.7009902366e-001	 1.5293810664e+000	-1.2058155365e+000
 6.3086203596e-001	 1.4776305981e+000	-1.4443869374e+000
 6.1510857308e-001	 1.4842575436e+000	-1.4072214259e+000
 5.9931897356e-001	 1.4907030859e+000	-1.3756598320e+000
 5.8349623746e-001	 1.4969672570e+000	-1.3483417595e+000
 5.6764335053e-001	 1.5030501517e+000	-1.3240808607e+000
 5.5176328261e-001	 1.5089519277e+000	-1.3018508466e+000
 5.3585898608e-001	 1.5146728041e+000	-1.2807720039e+000
 5.1993339438e-001	 1.5202130608e+000	-1.2600982628e+000
 5.0398942050e-001	 1.5255730377e+000	-1.2392048464e+000
 4.8802995560e-001	 1.5307531338e+000	-1.2175765288e+000
 4.7205786752e-001	 1.5357538061e+000	-1.1947965187e+000
 6.3347985110e-001	 1.4837621507e+000	-1.4381667041e+000
 6.1766101790e-001	 1.4904165953e+000	-1.4003516034e+000
 6.0180589810e-001	 1.4968888839e+000	-1.3683587491e+000
 5.8591750423e-001	 1.5031790486e+000	-1.3407839861e+000
 5.6999883441e-001	 1.5092871849e+000	-1.3163976136e+000
 5.5405287081e-001	 1.5152134508e+000	-1.2941302289e+000
 5.3808257806e-001	 1.5209580664e+000	-1.2730591052e+000
 5.2209090178e-001	 1.5265213129e+000	-1.2523951442e+000
 5.0608076704e-001	 1.5319035315e+000	-1.2314704370e+000
 4.9005507699e-001	 1.5371051228e+000	-1.2097264579e+000
 4.7401671139e-001	 1.5421265459e+000	-1.1867029087e+000
 6.3609766624e-001	 1.4898937033e+000	-1.4338202566e+000
 6.2021346272e-001	 1.4965756469e+000	-1.3954533590e+000
 6.0429282265e-001	 1.5030746819e+000	-1.3631352811e+000
 5.8833877100e-001	 1.5093908403e+000	-1.3354146306e+000
 5.7235431829e-001	 1.5155242180e+000	-1.3110150645e+000
 5.5634245901e-001	 1.5214749739e+000	-1.2888209665e+000
 5.4030617005e-001	 1.5272433287e+000	-1.2678636828e+000
 5.2424840918e-001	 1.5328295650e+000	-1.2473083603e+000
 5.0817211358e-001	 1.5382340253e+000	-1.2264414173e+000
 4.9208019838e-001	 1.5434571119e+000	-1.2046586739e+000
 4.7597555526e-001	 1.5484992856e+000	-1.1814541564e+000
 6.3871548138e-001	 1.4960252558e+000	-1.4311758608e+000
 6.2276590753e-001	 1.5027346986e+000	-1.3923545944e+000
 6.0677974719e-001	 1.5092604799e+000	-1.3598189269e+000
 5.9076003777e-001	 1.5156026320e+000	-1.3320668095e+000
 5.7470980217e-001	 1.5217612512e+000	-1.3077720230e+000
 5.5863204721e-001	 1.5277364969e+000	-1.2857696872e+000
 5.4252976203e-001	 1.5335285911e+000	-1.2650423544e+000
 5.2640591658e-001	 1.5391378171e+000	-1.2447067312e+000
 5.1026346012e-001	 1.5445645190e+000	-1.2240010598e+000
 4.9410531978e-001	 1.5498091009e+000	-1.2022731835e+000
 4.7793439913e-001	 1.5548720253e+000	-1.1789693124e+000
 6.4133329652e-001	 1.5021568084e+000	-1.4300633040e+000
 6.2531835235e-001	 1.5088937502e+000	-1.3908846630e+000
 6.0926667174e-001	 1.5154462778e+000	-1.3582405419e+000
 5.9318130454e-001	 1.5218144237e+000	-1.3305748742e+000
 5.7706528605e-001	 1.5279982844e+000	-1.3065083853e+000
 5.6092163541e-001	 1.5339980200e+000	-1.2848239308e+000
 5.4475335401e-001	 1.5398138534e+000	-1.2644524476e+000
 5.2856342398e-001	 1.5454460692e+000	-1.2444595578e+000
 5.1235480666e-001	 1.5508950128e+000	-1.2240328601e+000
 4.9613044117e-001	 1.5561610899e+000	-1.2024699306e+000
 4.7989324300e-001	 1.5612447650e+000	-1.1791670501e+000
 6.4395111166e-001	 1.5082883610e+000	-1.4303139204e+000
 6.2787079717e-001	 1.5150528019e+000	-1.3908743921e+000
 6.1175359629e-001	 1.5216320758e+000	-1.3582323565e+000
 5.9560257131e-001	 1.5280262153e+000	-1.3307744275e+000
 5.7942076993e-001	 1.5342353175e+000	-1.3070651494e+000
 5.6321122361e-001	 1.5402595431e+000	-1.2858321634e+000
 5.4697694600e-001	 1.5460991157e+000	-1.2659520143e+000
 5.3072093138e-001	 1.5517543213e+000	-1.2464366363e+000
 5.1444615319e-001	 1.5572255066e+000	-1.2264205533e+000
 4.9815556257e-001	 1.5625130789e+000	-1.2051488158e+000
 4.8185208687e-001	 1.5676175048e+000	-1.1819656887e+000
 6.4656892680e-001	 1.5144199136e+000	-1.4317606169e+000
 6.3042324199e-001	 1.5212118535e+000	-1.3921561044e+000
 6.1424052083e-001	 1.5278178738e+000	-1.3596279956e+000
 5.9802383808e-001	 1.5342380070e+000	-1.3325023407e+000
 5.8177625381e-001	 1.5404723507e+000	-1.3092844309e+000
 5.6550081182e-001	 1.5465210662e+000	-1.2886437923e+000
 5.4920053798e-001	 1.5523843781e+000	-1.2693998457e+000
 5.3287843878e-001	 1.5580625734e+000	-1.2505082742e+000
 5.1653749973e-001	 1.5635560003e+000	-1.2310481320e+000
 5.0018068396e-001	 1.5688650679e+000	-1.2102097160e+000
 4.8381093074e-001	 1.5739902445e+000	-1.1872832159e+000
 6.4918674194e-001	 1.5205514662e+000	-1.4342378987e+000
 6.3297568681e-001	 1.5273709052e+000	-1.3945636411e+000
 6.1672744538e-001	 1.5340036717e+000	-1.3622624984e+000
 6.0044510485e-001	 1.5404497987e+000	-1.3355967709e+000
 5.8413173769e-001	 1.5467093838e+000	-1.3130094789e+000
 5.6779040002e-001	 1.5527825892e+000	-1.2931091811e+000
 5.5142412996e-001	 1.5586696404e+000	-1.2746554874e+000
 5.3503594618e-001	 1.5643708254e+000	-1.2565453066e+000
 5.1862884627e-001	 1.5698864941e+000	-1.2377998630e+000
 5.0220580535e-001	 1.5752170569e+000	-1.2175525037e+000
 4.8576977461e-001	 1.5803629842e+000	-1.1950373099e+000
 6.5180455708e-001	 1.5266830188e+000	-1.4375818964e+000
 6.3552813162e-001	 1.5335299568e+000	-1.3979323844e+000
 6.1921436992e-001	 1.5401894697e+000	-1.3659723382e+000
 6.0286637162e-001	 1.5466615904e+000	-1.3398971795e+000
 5.8648722157e-001	 1.5529464170e+000	-1.3180846926e+000
 5.7007998822e-001	 1.5590441123e+000	-1.2990796659e+000
 5.5364772195e-001	 1.5649549028e+000	-1.2815792552e+000
 5.3719345357e-001	 1.5706790775e+000	-1.2644191118e+000
 5.2072019280e-001	 1.5762169879e+000	-1.2465603053e+000
 5.0423092675e-001	 1.5815690460e+000	-1.2270770669e+000
 4.8772861848e-001	 1.5867357239e+000	-1.2051453624e+000
 6.5442237221e-001	 1.5328145713e+000	-1.4416303924e+000
 6.3808057644e-001	 1.5396890085e+000	-1.4020992814e+000
 6.2170129446e-001	 1.5463752677e+000	-1.3705954434e+000
 6.0528763838e-001	 1.5528733820e+000	-1.3452443503e+000
 5.8884270545e-001	 1.5591834502e+000	-1.3243556383e+000
 5.7236957642e-001	 1.5653056354e+000	-1.3064075708e+000
 5.5587131393e-001	 1.5712401651e+000	-1.2900322510e+000
 5.3935096097e-001	 1.5769873296e+000	-1.2740016281e+000
 5.2281153934e-001	 1.5825474817e+000	-1.2572143277e+000
 5.0625604814e-001	 1.5879210350e+000	-1.2386833291e+000
 4.8968746235e-001	 1.5931084637e+000	-1.2175245012e+000
 4.7009902366e-001	 1.5293810664e+000	-1.2058155365e+000
 4.5418347357e-001	 1.5341828203e+000	-1.1833732372e+000
 4.3826098847e-001	 1.5388069724e+000	-1.1621746887e+000
 4.2233434566e-001	 1.5432541432e+000	-1.1421215258e+000
 4.0640629419e-001	 1.5475250065e+000	-1.1231850784e+000
 3.9047955369e-001	 1.5516202891e+000	-1.1053984394e+000
 3.7455681326e-001	 1.5555407692e+000	-1.0888490862e+000
 3.5864073036e-001	 1.5592872753e+000	-1.0736720328e+000
 3.4273392977e-001	 1.5628606849e+000	-1.0600434873e+000
 3.2683900259e-001	 1.5662619239e+000	-1.0481749849e+000
 3.1095850527e-001	 1.5694919644e+000	-1.0383079643e+000
 4.7205786752e-001	 1.5357538061e+000	-1.1947965187e+000
 4.5607599933e-001	 1.5405755683e+000	-1.1719750303e+000
 4.4008716723e-001	 1.5452189887e+000	-1.1503642382e+000
 4.2409416009e-001	 1.5496846903e+000	-1.1298858141e+000
 4.0809973841e-001	 1.5539733497e+000	-1.1105320409e+000
 3.9210663318e-001	 1.5580856969e+000	-1.0923578188e+000
 3.7611754468e-001	 1.5620225131e+000	-1.0754732424e+000
 3.6013514146e-001	 1.5657846304e+000	-1.0600367258e+000
 3.4416205922e-001	 1.5693729301e+000	-1.0462486491e+000
 3.2820089986e-001	 1.5727883415e+000	-1.0343454941e+000
 3.1225423050e-001	 1.5760318412e+000	-1.0245944369e+000
 4.7401671139e-001	 1.5421265459e+000	-1.1867029087e+000
 4.5796852509e-001	 1.5469683164e+000	-1.1635363236e+000
 4.4191334599e-001	 1.5516310051e+000	-1.1415479234e+000
 4.2585397451e-001	 1.5561152374e+000	-1.1206802862e+000
 4.0979318264e-001	 1.5604216930e+000	-1.1009471975e+000
 3.9373371267e-001	 1.5645511047e+000	-1.0824256000e+000
 3.7767827610e-001	 1.5685042571e+000	-1.0652481352e+000
 3.6162955255e-001	 1.5722819856e+000	-1.0495962505e+000
 3.4559018866e-001	 1.5758851752e+000	-1.0356938430e+000
 3.2956279713e-001	 1.5793147592e+000	-1.0238014090e+000
 3.1354995572e-001	 1.5825717180e+000	-1.0142106625e+000
 4.7597555526e-001	 1.5484992856e+000	-1.1814541564e+000
 4.5986105085e-001	 1.5533610644e+000	-1.1579959302e+000
 4.4373952474e-001	 1.5580430214e+000	-1.1356815639e+000
 4.2761378894e-001	 1.5625457845e+000	-1.1144754045e+000
 4.1148662687e-001	 1.5668700363e+000	-1.0944132816e+000
 3.9536079216e-001	 1.5710165125e+000	-1.0755944091e+000
 3.7923900752e-001	 1.5749860010e+000	-1.0581738985e+000
 3.6312396365e-001	 1.5787793408e+000	-1.0423558559e+000
 3.4701831811e-001	 1.5823974203e+000	-1.0283870346e+000
 3.3092469440e-001	 1.5858411768e+000	-1.0165510068e+000
 3.1484568094e-001	 1.5891115949e+000	-1.0071628194e+000
 4.7793439913e-001	 1.5548720253e+000	-1.1789693124e+000
 4.6175357661e-001	 1.5597538125e+000	-1.1552919553e+000
 4.4556570350e-001	 1.5644550377e+000	-1.1327200102e+000
 4.2937360337e-001	 1.5689763316e+000	-1.1112404480e+000
 4.1318007109e-001	 1.5733183795e+000	-1.0909116772e+000
 3.9698787165e-001	 1.5774819203e+000	-1.0718554038e+000
 3.8079973895e-001	 1.5814677450e+000	-1.0542491249e+000
 3.6461837474e-001	 1.5852766959e+000	-1.0383192245e+000
 3.4844644755e-001	 1.5889096654e+000	-1.0243346434e+000
 3.3228659167e-001	 1.5923675945e+000	-1.0126010847e+000
 3.1614140616e-001	 1.5956514717e+000	-1.0034557173e+000
 4.7989324300e-001	 1.5612447650e+000	-1.1791670501e+000
 4.6364610238e-001	 1.5661465605e+000	-1.1553618216e+000
 4.4739188226e-001	 1.5708670540e+000	-1.1326171718e+000
 4.3113341780e-001	 1.5754068787e+000	-1.1109435434e+000
 4.1487351532e-001	 1.5797667228e+000	-1.0904224505e+000
 3.9861495114e-001	 1.5839473281e+000	-1.0711983053e+000
 3.8236047037e-001	 1.5879494889e+000	-1.0534708980e+000
 3.6611278583e-001	 1.5917740511e+000	-1.0374885024e+000
 3.4987457700e-001	 1.5954219105e+000	-1.0235415714e+000
 3.3364848894e-001	 1.5988940121e+000	-1.0119569865e+000
 3.1743713139e-001	 1.6021913485e+000	-1.0030928209e+000
 4.8185208687e-001	 1.5676175048e+000	-1.1819656887e+000
 4.6553862814e-001	 1.5725393085e+000	-1.1581422959e+000
 4.4921806101e-001	 1.5772790703e+000	-1.1353260463e+000
 4.3289323222e-001	 1.5818374258e+000	-1.1135516949e+000
 4.1656695955e-001	 1.5862150660e+000	-1.0929243813e+000
 4.0024203063e-001	 1.5904127359e+000	-1.0736114294e+000
 3.8392120179e-001	 1.5944312329e+000	-1.0558348235e+000
 3.6760719693e-001	 1.5982714062e+000	-1.0398643304e+000
 3.5130270644e-001	 1.6019341556e+000	-1.0260112318e+000
 3.3501038621e-001	 1.6054204298e+000	-1.0146226284e+000
 3.1873285661e-001	 1.6087312253e+000	-1.0060762722e+000
 4.8381093074e-001	 1.5739902445e+000	-1.1872832159e+000
 4.6743115390e-001	 1.5789320566e+000	-1.1635695139e+000
 4.5104423977e-001	 1.5836910866e+000	-1.1407987467e+000
 4.3465304665e-001	 1.5882679729e+000	-1.1190308143e+000
 4.1826040378e-001	 1.5926634093e+000	-1.0983949937e+000
 4.0186911012e-001	 1.5968781436e+000	-1.0790817187e+000
 3.8548193321e-001	 1.6009129768e+000	-1.0613350599e+000
 3.6910160802e-001	 1.6047687614e+000	-1.0454458728e+000
 3.5273083588e-001	 1.6084464008e+000	-1.0317455769e+000
 3.3637228348e-001	 1.6119468474e+000	-1.0206005241e+000
 3.2002858183e-001	 1.6152711022e+000	-1.0124069128e+000
 4.8576977461e-001	 1.5803629842e+000	-1.1950373099e+000
 4.6932367966e-001	 1.5853248046e+000	-1.1715790067e+000
 4.5287041853e-001	 1.5901031029e+000	-1.1489865299e+000
 4.3641286108e-001	 1.5946985200e+000	-1.1273457503e+000
 4.1995384800e-001	 1.5991117526e+000	-1.1068105867e+000
 4.0349618961e-001	 1.6033435514e+000	-1.0875947725e+000
 3.8704266463e-001	 1.6073947207e+000	-1.0699643487e+000
 3.7059601911e-001	 1.6112661166e+000	-1.0542308472e+000
 3.5415896533e-001	 1.6149586459e+000	-1.0407451253e+000
 3.3773418075e-001	 1.6184732651e+000	-1.0298918105e+000
 3.2132430705e-001	 1.6218109790e+000	-1.0220843060e+000
 4.8772861848e-001	 1.5867357239e+000	-1.2051453624e+000
 4.7121620542e-001	 1.5917175526e+000	-1.1821057254e+000
 4.5469659728e-001	 1.5965151192e+000	-1.1598398241e+000
 4.3817267550e-001	 1.6011290671e+000	-1.1384603182e+000
 4.2164729223e-001	 1.6055600958e+000	-1.1181462642e+000
 4.0512326910e-001	 1.6098089592e+000	-1.0991348774e+000
 3.8860339605e-001	 1.6138764647e+000	-1.0817140449e+000
 3.7209043021e-001	 1.6177634717e+000	-1.0662155532e+000
 3.5558709477e-001	 1.6214708910e+000	-1.0530089895e+000
 3.3909607802e-001	 1.6249996827e+000	-1.0424962717e+000
 3.2262003228e-001	 1.6283508558e+000	-1.0351067583e+000
 4.8968746235e-001	 1.5931084637e+000	-1.2175245012e+000
 4.7310873118e-001	 1.5981103007e+000	-1.1950840673e+000
 4.5652277604e-001	 1.6029271355e+000	-1.1733082565e+000
 4.3993248993e-001	 1.6075596142e+000	-1.1523373282e+000
 4.2334073646e-001	 1.6120084391e+000	-1.1323759650e+000
 4.0675034859e-001	 1.6162743670e+000	-1.1136850376e+000
 3.9016412748e-001	 1.6203582086e+000	-1.0965741459e+000
 3.7358484130e-001	 1.6242608269e+000	-1.0813949010e+000
 3.5701522422e-001	 1.6279831361e+000	-1.0685349021e+000
 3.4045797529e-001	 1.6315261004e+000	-1.0584123637e+000
 3.2391575750e-001	 1.6348907326e+000	-1.0514713405e+000
 3.1095850527e-001	 1.5694919644e+000	-1.0383079643e+000
 2.9509733616e-001	 1.5725513783e+000	-1.0298930600e+000
 2.7925559253e-001	 1.5754417256e+000	-1.0221824839e+000
 2.6343571706e-001	 1.5781641122e+000	-1.0151479358e+000
 2.4764011452e-001	 1.5807196856e+000	-1.0087646318e+000
 2.3187115109e-001	 1.5831096338e+000	-1.0030083033e+000
 2.1613115365e-001	 1.5853351837e+000	-9.9785241598e-001
 2.0042240917e-001	 1.5873976000e+000	-9.9326556794e-001
 1.8474716411e-001	 1.5892981840e+000	-9.8920903236e-001
 1.6910762388e-001	 1.5910382720e+000	-9.8563440713e-001
 1.5350595236e-001	 1.5926192341e+000	-9.8248133821e-001
 3.1225423050e-001	 1.5760318412e+000	-1.0245944369e+000
 2.9632696987e-001	 1.5791040033e+000	-1.0163891939e+000
 2.8041921568e-001	 1.5820063943e+000	-1.0089007255e+000
 2.6453342076e-001	 1.5847401248e+000	-1.0020905159e+000
 2.4867199993e-001	 1.5873063470e+000	-9.9592371451e-001
 2.3283732920e-001	 1.5897062538e+000	-9.9036627741e-001
 2.1703174515e-001	 1.5919410773e+000	-9.8538232875e-001
 2.0125754430e-001	 1.5940120874e+000	-9.8093170343e-001
 1.8551698245e-001	 1.5959205909e+000	-9.7696763188e-001
 1.6981227421e-001	 1.5976679296e+000	-9.7343452971e-001
 1.5414559247e-001	 1.5992554794e+000	-9.7026585679e-001
 3.1354995572e-001	 1.5825717180e+000	-1.0142106625e+000
 2.9755660358e-001	 1.5856566283e+000	-1.0062510674e+000
 2.8158283883e-001	 1.5885710631e+000	-9.9900624862e-001
 2.6563112447e-001	 1.5913161374e+000	-9.9242806171e-001
 2.4970388533e-001	 1.5938930083e+000	-9.8647234281e-001
 2.3380350730e-001	 1.5963028737e+000	-9.8109619036e-001
 2.1793233666e-001	 1.5985469708e+000	-9.7625546988e-001
 2.0209267942e-001	 1.6006265748e+000	-9.7190249985e-001
 1.8628680079e-001	 1.6025429977e+000	-9.6798387854e-001
 1.7051692454e-001	 1.6042975872e+000	-9.6443841276e-001
 1.5478523259e-001	 1.6058917246e+000	-9.6119511174e-001
 3.1484568094e-001	 1.5891115949e+000	-1.0071628194e+000
 2.9878623730e-001	 1.5922092533e+000	-9.9948253738e-001
 2.8274646197e-001	 1.5951357318e+000	-9.9250252746e-001
 2.6672882817e-001	 1.5978921500e+000	-9.8616555903e-001
 2.5073577073e-001	 1.6004796697e+000	-9.8041885994e-001
 2.3476968540e-001	 1.6028994937e+000	-9.7521153928e-001
 2.1883292816e-001	 1.6051528643e+000	-9.7049223490e-001
 2.0292781455e-001	 1.6072410622e+000	-9.6620694242e-001
 1.8705661913e-001	 1.6091654046e+000	-9.6229698363e-001
 1.7122157488e-001	 1.6109272448e+000	-9.5869707388e-001
 1.5542487270e-001	 1.6125279699e+000	-9.5533344994e-001
 3.1614140616e-001	 1.5956514717e+000	-1.0034557173e+000
 3.0001587101e-001	 1.5987618784e+000	-9.9608621238e-001
 2.8391008512e-001	 1.6017004005e+000	-9.8939188132e-001
 2.6782653188e-001	 1.6044681625e+000	-9.8330690409e-001
 2.5176765614e-001	 1.6070663310e+000	-9.7777055786e-001
 2.3573586351e-001	 1.6094961136e+000	-9.7272478078e-001
 2.1973351966e-001	 1.6117587579e+000	-9.6811196239e-001
 2.0376294968e-001	 1.6138555495e+000	-9.6387291564e-001
 1.8782643747e-001	 1.6157878115e+000	-9.5994498670e-001
 1.7192622521e-001	 1.6175569024e+000	-9.5626026063e-001
 1.5606451282e-001	 1.6191642152e+000	-9.5274382278e-001
 3.1743713139e-001	 1.6021913485e+000	-1.0030928209e+000
 3.0124550472e-001	 1.6053145034e+000	-9.9606347286e-001
 2.8507370827e-001	 1.6082650693e+000	-9.8967549158e-001
 2.6892423558e-001	 1.6110441751e+000	-9.8385491900e-001
 2.5279954154e-001	 1.6136529923e+000	-9.7853369149e-001
 2.3670204161e-001	 1.6160927336e+000	-9.7364734491e-001
 2.2063411116e-001	 1.6183646514e+000	-9.6913294820e-001
 2.0459808481e-001	 1.6204700369e+000	-9.6492721850e-001
 1.8859625581e-001	 1.6224102184e+000	-9.6096477240e-001
 1.7263087554e-001	 1.6241865600e+000	-9.5717646979e-001
 1.5670415294e-001	 1.6258004604e+000	-9.5348780844e-001
 3.1873285661e-001	 1.6087312253e+000	-1.0060762722e+000
 3.0247513844e-001	 1.6118671284e+000	-9.9941449042e-001
 2.8623733142e-001	 1.6148297380e+000	-9.9335341871e-001
 2.7002193929e-001	 1.6176201877e+000	-9.8781136693e-001
 2.5383142694e-001	 1.6202396537e+000	-9.8271349281e-001
 2.3766821972e-001	 1.6226893536e+000	-9.7798964887e-001
 2.2153470267e-001	 1.6249705450e+000	-9.7357245947e-001
 2.0543321994e-001	 1.6270845243e+000	-9.6939557946e-001
 1.8936607415e-001	 1.6290326252e+000	-9.6539208713e-001
 1.7333552587e-001	 1.6308162175e+000	-9.6149296619e-001
 1.5734379305e-001	 1.6324367057e+000	-9.5762563353e-001
 3.2002858183e-001	 1.6152711022e+000	-1.0124069128e+000
 3.0370477215e-001	 1.6184197534e+000	-1.0061382470e+000
 2.8740095457e-001	 1.6213944068e+000	-1.0004246189e+000
 2.7111964299e-001	 1.6241962003e+000	-9.9517696697e-001
 2.5486331235e-001	 1.6268263150e+000	-9.9031418472e-001
 2.3863439782e-001	 1.6292859735e+000	-9.8576111044e-001
 2.2243529417e-001	 1.6315764385e+000	-9.8144674831e-001
 2.0626835506e-001	 1.6336990117e+000	-9.7730267108e-001
 1.9013589250e-001	 1.6356550321e+000	-9.7326155517e-001
 1.7404017620e-001	 1.6374458751e+000	-9.6925580109e-001
 1.5798343317e-001	 1.6390729510e+000	-9.6521619435e-001
 3.2132430705e-001	 1.6218109790e+000	-1.0220843060e+000
 3.0493440586e-001	 1.6249723785e+000	-1.0162325537e+000
 2.8856457772e-001	 1.6279590755e+000	-1.0108869607e+000
 2.7221734670e-001	 1.6307722129e+000	-1.0059514089e+000
 2.5589519775e-001	 1.6334129764e+000	-1.0013389947e+000
 2.3960057592e-001	 1.6358825935e+000	-9.9697016124e-001
 2.2333588567e-001	 1.6381823321e+000	-9.9277106531e-001
 2.0710349019e-001	 1.6403134990e+000	-9.8867212439e-001
 1.9090571084e-001	 1.6422774390e+000	-9.8460669463e-001
 1.7474482654e-001	 1.6440755327e+000	-9.8050983018e-001
 1.5862307329e-001	 1.6457091962e+000	-9.7631707762e-001
 3.2262003228e-001	 1.6283508558e+000	-1.0351067583e+000
 3.0616403958e-001	 1.6315250035e+000	-1.0296940693e+000
 2.8972820086e-001	 1.6345237442e+000	-1.0247372407e+000
 2.7331505040e-001	 1.6373482255e+000	-1.0201333677e+000
 2.5692708315e-001	 1.6399996377e+000	-1.0157901680e+000
 2.4056675403e-001	 1.6424792134e+000	-1.0116242597e+000
 2.2423647717e-001	 1.6447882256e+000	-1.0075596727e+000
 2.0793862532e-001	 1.6469279864e+000	-1.0035265429e+000
 1.9167552918e-001	 1.6488998458e+000	-9.9945993293e-001
 1.7544947687e-001	 1.6507051903e+000	-9.9529873123e-001
 1.5926271340e-001	 1.6523454415e+000	-9.9098458074e-001
 3.2391575750e-001	 1.6348907326e+000	-1.0514713405e+000
 3.0739367329e-001	 1.6380776285e+000	-1.0465183187e+000
 2.9089182401e-001	 1.6410884130e+000	-1.0419712002e+000
 2.7441275411e-001	 1.6439242380e+000	-1.0377205175e+000
 2.5795896856e-001	 1.6465862990e+000	-1.0336689814e+000
 2.4153293213e-001	 1.6490758334e+000	-1.0297299038e+000
 2.2513706867e-001	 1.6513941191e+000	-1.0258258576e+000
 2.0877376045e-001	 1.6535424738e+000	-1.0218875167e+000
 1.9244534752e-001	 1.6555222527e+000	-1.0178526221e+000
 1.7615412720e-001	 1.6573348479e+000	-1.0136650213e+000
 1.5990235352e-001	 1.6589816868e+000	-1.0092737316e+000
 1.5350595236e-001	 1.5926192341e+000	-9.8248133821e-001
 1.3794194542e-001	 1.5940426749e+000	-9.7915307049e-001
 1.2242005360e-001	 1.5953097801e+000	-9.7539543785e-001
 1.0694234572e-001	 1.5964220145e+000	-9.7163467227e-001
 9.1510846532e-002	 1.5973808717e+000	-9.6827355143e-001
 7.6127536390e-002	 1.5981878723e+000	-9.6568814757e-001
 6.0794351023e-002	 1.5988445630e+000	-9.6422452910e-001
 4.5513181338e-002	 1.5993525154e+000	-9.6419539943e-001
 3.0285873257e-002	 1.5997133243e+000	-9.6587666004e-001
 1.5114227599e-002	 1.5999286065e+000	-9.6950388782e-001
 0.0000000000e+000	 1.6000000000e+000	-9.7526872085e-001
 1.5414559247e-001	 1.5992554794e+000	-9.7026585679e-001
 1.3851673227e-001	 1.6006848514e+000	-9.6690514190e-001
 1.2293016266e-001	 1.6019572365e+000	-9.6313678392e-001
 1.0738796111e-001	 1.6030741055e+000	-9.5938189648e-001
 9.1892160791e-002	 1.6040369581e+000	-9.5604195881e-001
 7.6444750319e-002	 1.6048473214e+000	-9.5349559452e-001
 6.1047673486e-002	 1.6055067485e+000	-9.5209529054e-001
 4.5702829076e-002	 1.6060168174e+000	-9.5216404028e-001
 3.0412070705e-002	 1.6063791297e+000	-9.5399189735e-001
 1.5177206697e-002	 1.6065953090e+000	-9.5783242991e-001
 0.0000000000e+000	 1.6066670000e+000	-9.6389906905e-001
 1.5478523259e-001	 1.6058917246e+000	-9.6119511174e-001
 1.3909151911e-001	 1.6073270280e+000	-9.5775135832e-001
 1.2344027172e-001	 1.6086046930e+000	-9.5394824068e-001
 1.0783357649e-001	 1.6097261965e+000	-9.5020976486e-001
 9.2273475051e-002	 1.6106930445e+000	-9.4694326896e-001
 7.6761964248e-002	 1.6115067705e+000	-9.4453624806e-001
 6.1300995947e-002	 1.6121689339e+000	-9.4335310756e-001
 4.5892476814e-002	 1.6126811195e+000	-9.4373182825e-001
 3.0538268154e-002	 1.6130449352e+000	-9.4598052909e-001
 1.5240185794e-002	 1.6132620115e+000	-9.5037391713e-001
 0.0000000000e+000	 1.6133340000e+000	-9.5714961784e-001
 1.5542487270e-001	 1.6125279699e+000	-9.5533344994e-001
 1.3966630596e-001	 1.6139692046e+000	-9.5176576130e-001
 1.2395038078e-001	 1.6152521494e+000	-9.4790471447e-001
 1.0827919188e-001	 1.6163782875e+000	-9.4418511622e-001
 9.2654789310e-002	 1.6173491310e+000	-9.4102722635e-001
 7.7079178176e-002	 1.6181662196e+000	-9.3883364501e-001
 6.1554318409e-002	 1.6188311194e+000	-9.3798611751e-001
 4.6082124551e-002	 1.6193454215e+000	-9.3884223889e-001
 3.0664465602e-002	 1.6197107406e+000	-9.4173204407e-001
 1.5303164891e-002	 1.6199287141e+000	-9.4695447216e-001
 0.0000000000e+000	 1.6200010000e+000	-9.5477369780e-001
 1.5606451282e-001	 1.6191642152e+000	-9.5274382278e-001
 1.4024109280e-001	 1.6206113812e+000	-9.4902092801e-001
 1.2446048984e-001	 1.6218996058e+000	-9.4507971907e-001
 1.0872480727e-001	 1.6230303785e+000	-9.4137361018e-001
 9.3036103569e-002	 1.6240052174e+000	-9.3834275185e-001
 7.7396392104e-002	 1.6248256686e+000	-9.3641099698e-001
 6.1807640870e-002	 1.6254933048e+000	-9.3598277406e-001
 4.6271772289e-002	 1.6260097235e+000	-9.3743984913e-001
 3.0790663050e-002	 1.6263765461e+000	-9.4113796138e-001
 1.5366143988e-002	 1.6265954166e+000	-9.4740332064e-001
 0.0000000000e+000	 1.6266680000e+000	-9.5652895900e-001
 1.5670415294e-001	 1.6258004604e+000	-9.5348780844e-001
 1.4081587965e-001	 1.6272535577e+000	-9.4958799535e-001
 1.2497059891e-001	 1.6285470623e+000	-9.4554539888e-001
 1.0917042266e-001	 1.6296824695e+000	-9.4183974660e-001
 9.3417417828e-002	 1.6306613038e+000	-9.3893795559e-001
 7.7713606033e-002	 1.6314851177e+000	-9.3729119367e-001
 6.2060963331e-002	 1.6321554902e+000	-9.3733183819e-001
 4.6461420026e-002	 1.6326740255e+000	-9.3947031295e-001
 3.0916860497e-002	 1.6330423516e+000	-9.4409178764e-001
 1.5429123085e-002	 1.6332621191e+000	-9.5155272721e-001
 0.0000000000e+000	 1.6333350000e+000	-9.6217728285e-001
 1.5734379305e-001	 1.6324367057e+000	-9.5762563353e-001
 1.4139066649e-001	 1.6338957343e+000	-9.5353668346e-001
 1.2548070797e-001	 1.6351945187e+000	-9.4937255160e-001
 1.0961603804e-001	 1.6363345604e+000	-9.4564688463e-001
 9.3798732087e-002	 1.6373173902e+000	-9.4286014947e-001
 7.8030819961e-002	 1.6381445668e+000	-9.4149680616e-001
 6.2314285793e-002	 1.6388176757e+000	-9.4202236924e-001
 4.6651067763e-002	 1.6393383275e+000	-9.4488033750e-001
 3.1043057945e-002	 1.6397081570e+000	-9.5048897539e-001
 1.5492102181e-002	 1.6399288216e+000	-9.5923793312e-001
 0.0000000000e+000	 1.6400020000e+000	-9.7148469612e-001
 1.5798343317e-001	 1.6390729510e+000	-9.6521619435e-001
 1.4196545334e-001	 1.6405379109e+000	-9.6093531874e-001
 1.2599081703e-001	 1.6418419752e+000	-9.5663065032e-001
 1.1006165343e-001	 1.6429866514e+000	-9.5285726117e-001
 9.4180046346e-002	 1.6439734766e+000	-9.5015585939e-001
 7.8348033889e-002	 1.6448040159e+000	-9.4905009006e-001
 6.2567608254e-002	 1.6454798611e+000	-9.5004371637e-001
 4.6840715500e-002	 1.6460026295e+000	-9.5361765991e-001
 3.1169255393e-002	 1.6463739625e+000	-9.6022688245e-001
 1.5555081278e-002	 1.6465955241e+000	-9.7029709541e-001
 0.0000000000e+000	 1.6466690000e+000	-9.8422128697e-001
 1.5862307329e-001	 1.6457091962e+000	-9.7631707762e-001
 1.4254024018e-001	 1.6471800874e+000	-9.7185085637e-001
 1.2650092609e-001	 1.6484894316e+000	-9.6738786515e-001
 1.1050726882e-001	 1.6496387424e+000	-9.6353200902e-001
 9.4561360605e-002	 1.6506295631e+000	-9.6087083724e-001
 7.8665247818e-002	 1.6514634650e+000	-9.5997298869e-001
 6.2820930715e-002	 1.6521420466e+000	-9.6138551009e-001
 4.7030363238e-002	 1.6526669315e+000	-9.6563102461e-001
 3.1295452841e-002	 1.6530397679e+000	-9.7320473224e-001
 1.5618060375e-002	 1.6532622266e+000	-9.8457122745e-001
 0.0000000000e+000	 1.6533360000e+000	-1.0001611231e+000
 1.5926271340e-001	 1.6523454415e+000	-9.9098458074e-001
 1.4311502703e-001	 1.6538222640e+000	-9.8634890220e-001
 1.2701103515e-001	 1.6551368880e+000	-9.8171108430e-001
 1.1095288421e-001	 1.6562908334e+000	-9.7773117460e-001
 9.4942674864e-002	 1.6572856495e+000	-9.7505007253e-001
 7.8982461746e-002	 1.6581229141e+000	-9.7428713605e-001
 6.3074253177e-002	 1.6588042320e+000	-9.7603765407e-001
 4.7220010975e-002	 1.6593312336e+000	-9.8087016118e-001
 3.1421650289e-002	 1.6597055734e+000	-9.8932357508e-001
 1.5681039473e-002	 1.6599289291e+000	-1.0019041411e+000
 0.0000000000e+000	 1.6600030000e+000	-1.0190821718e+000
 1.5990235352e-001	 1.6589816868e+000	-1.0092737316e+000
 1.4368981387e-001	 1.6604644406e+000	-1.0044937342e+000
 1.2752114421e-001	 1.6617843445e+000	-9.9966593474e-001
 1.1139849959e-001	 1.6629429244e+000	-9.9551373514e-001
 9.5323989124e-002	 1.6639417359e+000	-9.9273780381e-001
 7.9299675675e-002	 1.6647823632e+000	-9.9201385986e-001
 6.3327575639e-002	 1.6654664174e+000	-9.9399031710e-001
 4.7409658713e-002	 1.6659955356e+000	-9.9928576281e-001
 3.1547847738e-002	 1.6663713789e+000	-1.0084862504e+000
 1.5744018570e-002	 1.6665956317e+000	-1.0221423898e+000
 0.0000000000e+000	 1.6666700000e+000	-1.0407662221e+000
 1.6666700000e+000	 0.0000000000e+000	 3.3011044315e+000
 1.6665956317e+000	 1.5744018570e-002	 3.3016062719e+000
 1.6663713789e+000	 3.1547847738e-002	 3.2986783790e+000
 1.6659955356e+000	 4.7409658713e-002	 3.2926634806e+000
 1.6654664174e+000	 6.3327575639e-002	 3.2838815429e+000
 1.6647823632e+000	 7.9299675675e-002	 3.2726298001e+000
 1.6639417359e+000	 9.5323989124e-002	 3.2591825954e+000
 1.6629429244e+000	 1.1139849959e-001	 3.2437910531e+000
 1.6617843445e+000	 1.2752114421e-001	 3.2266825996e+000
 1.6604644406e+000	 1.4368981387e-001	 3.2080603573e+000
 1.6589816868e+000	 1.5990235352e-001	 3.1881024379e+000
 1.6733360000e+000	 0.0000000000e+000	 3.3076193513e+000
 1.6732613342e+000	 1.5806988221e-002	 3.3079293274e+000
 1.6730361845e+000	 3.1674026258e-002	 3.3047981143e+000
 1.6726588380e+000	 4.7599278006e-002	 3.2985748131e+000
 1.6721276036e+000	 6.3580860105e-002	 3.2895868108e+000
 1.6714408134e+000	 7.9616842025e-002	 3.2781397318e+000
 1.6705968239e+000	 9.5705246189e-002	 3.2645171867e+000
 1.6695940176e+000	 1.1184404814e-001	 3.2489803377e+000
 1.6684308038e+000	 1.2803117676e-001	 3.2317672983e+000
 1.6671056209e+000	 1.4426451450e-001	 3.2130923919e+000
 1.6656169367e+000	 1.6054189769e-001	 3.1931452976e+000
 1.6800020000e+000	 0.0000000000e+000	 3.3070029248e+000
 1.6799270368e+000	 1.5869957872e-002	 3.3072728300e+000
 1.6797009901e+000	 3.1800204778e-002	 3.3040709820e+000
 1.6793221404e+000	 4.7788897299e-002	 3.2977561051e+000
 1.6787887898e+000	 6.3834144572e-002	 3.2886664227e+000
 1.6780992636e+000	 7.9934008375e-002	 3.2771195272e+000
 1.6772519120e+000	 9.6086503254e-002	 3.2634120305e+000
 1.6762451108e+000	 1.1228959669e-001	 3.2478190159e+000
 1.6750772632e+000	 1.2854120931e-001	 3.2305933098e+000
 1.6737468012e+000	 1.4483921513e-001	 3.2119645982e+000
 1.6722521865e+000	 1.6118144187e-001	 3.1921384148e+000
 1.6866680000e+000	 0.0000000000e+000	 3.2993019370e+000
 1.6865927393e+000	 1.5932927524e-002	 3.2996770515e+000
 1.6863657958e+000	 3.1926383299e-002	 3.2965308708e+000
 1.6859854428e+000	 4.7978516592e-002	 3.2902349613e+000
 1.6854499759e+000	 6.4087429038e-002	 3.2811417699e+000
 1.6847577138e+000	 8.0251174725e-002	 3.2695844055e+000
 1.6839070001e+000	 9.6467760320e-002	 3.2558761870e+000
 1.6828962040e+000	 1.1273514524e-001	 3.2403099748e+000
 1.6817237226e+000	 1.2905124186e-001	 3.2231573080e+000
 1.6803879814e+000	 1.4541391576e-001	 3.2046673696e+000
 1.6788874364e+000	 1.6182098604e-001	 3.1850658108e+000
 1.6933340000e+000	 0.0000000000e+000	 3.2845617043e+000
 1.6932584419e+000	 1.5995897176e-002	 3.2851810443e+000
 1.6930306014e+000	 3.2052561820e-002	 3.2822106823e+000
 1.6926487452e+000	 4.8168135886e-002	 3.2760382168e+000
 1.6921111621e+000	 6.4340713505e-002	 3.2670336758e+000
 1.6914161641e+000	 8.0568341075e-002	 3.2555492062e+000
 1.6905620881e+000	 9.6849017386e-002	 3.2419185121e+000
 1.6895472972e+000	 1.1318069379e-001	 3.2264560612e+000
 1.6883701820e+000	 1.2956127441e-001	 3.2094560789e+000
 1.6870291617e+000	 1.4598861639e-001	 3.1911913554e+000
 1.6855226863e+000	 1.6246053022e-001	 3.1719118972e+000
 1.7000000000e+000	 0.0000000000e+000	 3.2628261032e+000
 1.6999241444e+000	 1.6058866827e-002	 3.2638226663e+000
 1.6996954070e+000	 3.2178740341e-002	 3.2611423530e+000
 1.6993120476e+000	 4.8357755180e-002	 3.2551919551e+000
 1.6987723482e+000	 6.4593997972e-002	 3.2463624115e+000
 1.6980746143e+000	 8.0885507425e-002	 3.2350284015e+000
 1.6972171762e+000	 9.7230274452e-002	 3.2215476673e+000
 1.6961983904e+000	 1.1362624234e-001	 3.2062600881e+000
 1.6950166413e+000	 1.3007130696e-001	 3.1894865248e+000
 1.6936703420e+000	 1.4656331703e-001	 3.1715274614e+000
 1.6921579362e+000	 1.6310007439e-001	 3.1526614735e+000
 1.7066660000e+000	 0.0000000000e+000	 3.2341375984e+000
 1.7065898470e+000	 1.6121836479e-002	 3.2356386059e+000
 1.7063602127e+000	 3.2304918862e-002	 3.2333568758e+000
 1.7059753500e+000	 4.8547374473e-002	 3.2277215261e+000
 1.7054335344e+000	 6.4847282439e-002	 3.2191477107e+000
 1.7047330645e+000	 8.1202673775e-002	 3.2080361088e+000
 1.7038722642e+000	 9.7611531517e-002	 3.1947721286e+000
 1.7028494837e+000	 1.1407179089e-001	 3.1797248408e+000
 1.7016631007e+000	 1.3058133951e-001	 3.1632456679e+000
 1.7003115223e+000	 1.4713801766e-001	 3.1456668505e+000
 1.6987931861e+000	 1.6373961856e-001	 3.1272997262e+000
 1.7133320000e+000	 0.0000000000e+000	 3.1985372704e+000
 1.7132555495e+000	 1.6184806131e-002	 3.2006644060e+000
 1.7130250183e+000	 3.2431097383e-002	 3.1988843203e+000
 1.7126386525e+000	 4.8736993767e-002	 3.1936515645e+000
 1.7120947205e+000	 6.5100566905e-002	 3.1854087840e+000
 1.7113915147e+000	 8.1519840125e-002	 3.1745861020e+000
 1.7105273523e+000	 9.7992788583e-002	 3.1616001952e+000
 1.7095005769e+000	 1.1451733944e-001	 3.1468530834e+000
 1.7083095601e+000	 1.3109137206e-001	 3.1307306533e+000
 1.7069527026e+000	 1.4771271829e-001	 3.1136009442e+000
 1.7054284360e+000	 1.6437916274e-001	 3.0958122263e+000
 1.7199980000e+000	 0.0000000000e+000	 3.1560648420e+000
 1.7199212521e+000	 1.6247775782e-002	 3.1589344871e+000
 1.7196898239e+000	 3.2557275904e-002	 3.1577538538e+000
 1.7193019549e+000	 4.8926613060e-002	 3.1530060063e+000
 1.7187559067e+000	 6.5353851372e-002	 3.1451643340e+000
 1.7180499649e+000	 8.1837006475e-002	 3.1346918229e+000
 1.7171824403e+000	 9.8374045649e-002	 3.1220399987e+000
 1.7161516701e+000	 1.1496288799e-001	 3.1076475644e+000
 1.7149560194e+000	 1.3160140461e-001	 3.0919387530e+000
 1.7135938829e+000	 1.4828741892e-001	 3.0753214228e+000
 1.7120636858e+000	 1.6501870691e-001	 3.0581849278e+000
 1.7266640000e+000	 0.0000000000e+000	 3.1067587049e+000
 1.7265869546e+000	 1.6310745433e-002	 3.1104821710e+000
 1.7263546296e+000	 3.2683454424e-002	 3.1099937606e+000
 1.7259652573e+000	 4.9116232353e-002	 3.1058081060e+000
 1.7254170929e+000	 6.5607135838e-002	 3.0984325687e+000
 1.7247084152e+000	 8.2154172825e-002	 3.0883663928e+000
 1.7238375284e+000	 9.8755302714e-002	 3.0760995111e+000
 1.7228027633e+000	 1.1540843653e-001	 3.0621110229e+000
 1.7216024788e+000	 1.3211143715e-001	 3.0468673686e+000
 1.7202350632e+000	 1.4886211955e-001	 3.0308202264e+000
 1.7186989357e+000	 1.6565825109e-001	 3.0144041661e+000
 1.7333300000e+000	 0.0000000000e+000	 3.0506559450e+000
 1.7332526572e+000	 1.6373715085e-002	 3.0553397025e+000
 1.7330194352e+000	 3.2809632944e-002	 3.0556314618e+000
 1.7326285597e+000	 4.9305851646e-002	 3.0520804533e+000
 1.7320782790e+000	 6.5860420304e-002	 3.0452312150e+000
 1.7313668654e+000	 8.2471339175e-002	 3.0356226230e+000
 1.7304926164e+000	 9.9136559780e-002	 3.0237865531e+000
 1.7294538565e+000	 1.1585398508e-001	 3.0102461939e+000
 1.7282489382e+000	 1.3262146970e-001	 2.9955140345e+000
 1.7268762435e+000	 1.4943682018e-001	 2.9800895554e+000
 1.7253341856e+000	 1.6629779526e-001	 2.9644566561e+000
 1.6589816868e+000	 1.5990235352e-001	 3.1881024379e+000
 1.6573348479e+000	 1.7615412720e-001	 3.1648391507e+000
 1.6555222527e+000	 1.9244534752e-001	 3.1365777136e+000
 1.6535424738e+000	 2.0877376045e-001	 3.1038768540e+000
 1.6513941191e+000	 2.2513706867e-001	 3.0672607636e+000
 1.6490758334e+000	 2.4153293213e-001	 3.0272173065e+000
 1.6465862990e+000	 2.5795896856e-001	 2.9841963587e+000
 1.6439242380e+000	 2.7441275411e-001	 2.9386083368e+000
 1.6410884130e+000	 2.9089182401e-001	 2.8908229755e+000
 1.6380776285e+000	 3.0739367329e-001	 2.8411684209e+000
 1.6348907326e+000	 3.2391575750e-001	 2.7899307046e+000
 1.6656169367e+000	 1.6054189769e-001	 3.1931452976e+000
 1.6639635111e+000	 1.7685867184e-001	 3.1698982412e+000
 1.6621436663e+000	 1.9321505039e-001	 3.1415939051e+000
 1.6601559690e+000	 2.0960877031e-001	 3.1087929683e+000
 1.6579990218e+000	 2.2603752509e-001	 3.0720212995e+000
 1.6556714639e+000	 2.4249896532e-001	 3.0317679790e+000
 1.6531719724e+000	 2.5899069919e-001	 2.9884834438e+000
 1.6504992643e+000	 2.7551029316e-001	 2.9425778184e+000
 1.6476520971e+000	 2.9205527262e-001	 2.8944194923e+000
 1.6446292707e+000	 3.0862312257e-001	 2.8443340110e+000
 1.6414296285e+000	 3.2521128837e-001	 2.7926033509e+000
 1.6722521865e+000	 1.6118144187e-001	 3.1921384148e+000
 1.6705921743e+000	 1.7756321647e-001	 3.1690330999e+000
 1.6687650798e+000	 1.9398475326e-001	 3.1408270632e+000
 1.6667694643e+000	 2.1044378017e-001	 3.1080813733e+000
 1.6646039246e+000	 2.2693798151e-001	 3.0713220338e+000
 1.6622670944e+000	 2.4346499850e-001	 3.0310378141e+000
 1.6597576458e+000	 2.6002242981e-001	 2.9876781988e+000
 1.6570742905e+000	 2.7660783222e-001	 2.9416515167e+000
 1.6542157812e+000	 2.9321872124e-001	 2.8933233143e+000
 1.6511809129e+000	 3.0985257185e-001	 2.8430150418e+000
 1.6479685244e+000	 3.2650681924e-001	 2.7910031243e+000
 1.6788874364e+000	 1.6182098604e-001	 3.1850658108e+000
 1.6772208375e+000	 1.7826776111e-001	 3.1622212773e+000
 1.6753864934e+000	 1.9475445613e-001	 3.1342482093e+000
 1.6733829595e+000	 2.1127879003e-001	 3.1017065519e+000
 1.6712088273e+000	 2.2783843793e-001	 3.0651209504e+000
 1.6688627249e+000	 2.4443103168e-001	 3.0249783874e+000
 1.6663433192e+000	 2.6105416044e-001	 2.9817259325e+000
 1.6636493167e+000	 2.7770537128e-001	 2.9357686663e+000
 1.6607794652e+000	 2.9438216985e-001	 2.8874678463e+000
 1.6577325550e+000	 3.1108202112e-001	 2.8371393846e+000
 1.6545074203e+000	 3.2780235012e-001	 2.7850527102e+000
 1.6855226863e+000	 1.6246053022e-001	 3.1719118972e+000
 1.6838495007e+000	 1.7897230575e-001	 3.1494408407e+000
 1.6820079069e+000	 1.9552415901e-001	 3.1218290006e+000
 1.6799964548e+000	 2.1211379989e-001	 3.0896337340e+000
 1.6778137300e+000	 2.2873889435e-001	 3.0533768843e+000
 1.6754583554e+000	 2.4539706486e-001	 3.0135422217e+000
 1.6729289926e+000	 2.6208589107e-001	 2.9705729894e+000
 1.6702243430e+000	 2.7880291033e-001	 2.9248696187e+000
 1.6673431493e+000	 2.9554561846e-001	 2.8767876842e+000
 1.6642841972e+000	 3.1231147040e-001	 2.8266361681e+000
 1.6610463162e+000	 3.2909788099e-001	 2.7746761113e+000
 1.6921579362e+000	 1.6310007439e-001	 3.1526614735e+000
 1.6904781639e+000	 1.7967685039e-001	 3.1306703698e+000
 1.6886293205e+000	 1.9629386188e-001	 3.1035417230e+000
 1.6866099500e+000	 2.1294880976e-001	 3.0718288868e+000
 1.6844186327e+000	 2.2963935077e-001	 3.0360495091e+000
 1.6820539859e+000	 2.4636309805e-001	 2.9966827726e+000
 1.6795146660e+000	 2.6311762169e-001	 2.9541667331e+000
 1.6767993692e+000	 2.7990044939e-001	 2.9088958239e+000
 1.6739068334e+000	 2.9670906707e-001	 2.8612185940e+000
 1.6708358394e+000	 3.1354091968e-001	 2.8114357563e+000
 1.6675852121e+000	 3.3039341186e-001	 2.7597986229e+000
 1.6987931861e+000	 1.6373961856e-001	 3.1272997262e+000
 1.6971068271e+000	 1.8038139503e-001	 3.1058889521e+000
 1.6952507340e+000	 1.9706356475e-001	 3.0793592841e+000
 1.6932234453e+000	 2.1378381962e-001	 3.0482587058e+000
 1.6910235354e+000	 2.3053980719e-001	 3.0130993257e+000
 1.6886496164e+000	 2.4732913123e-001	 2.9743544138e+000
 1.6861003394e+000	 2.6414935232e-001	 2.9324555301e+000
 1.6833743954e+000	 2.8099798844e-001	 2.8877898116e+000
 1.6804705175e+000	 2.9787251569e-001	 2.8406974914e+000
 1.6773874816e+000	 3.1477036895e-001	 2.7914697259e+000
 1.6741241080e+000	 3.3168894273e-001	 2.7403468093e+000
 1.7054284360e+000	 1.6437916274e-001	 3.0958122263e+000
 1.7037354903e+000	 1.8108593966e-001	 3.0750761788e+000
 1.7018721476e+000	 1.9783326762e-001	 3.0492552067e+000
 1.6998369405e+000	 2.1461882948e-001	 3.0188906054e+000
 1.6976284381e+000	 2.3144026360e-001	 2.9844876501e+000
 1.6952452469e+000	 2.4829516441e-001	 2.9465124243e+000
 1.6926860128e+000	 2.6518108295e-001	 2.9053887338e+000
 1.6899494217e+000	 2.8209552750e-001	 2.8614951734e+000
 1.6870342016e+000	 2.9903596430e-001	 2.8151624221e+000
 1.6839391238e+000	 3.1599981823e-001	 2.7666708443e+000
 1.6806630039e+000	 3.3298447361e-001	 2.7162484797e+000
 1.7120636858e+000	 1.6501870691e-001	 3.0581849278e+000
 1.7103641535e+000	 1.8179048430e-001	 3.0382121405e+000
 1.7084935612e+000	 1.9860297050e-001	 3.0132036217e+000
 1.7064504358e+000	 2.1545383934e-001	 2.9836927100e+000
 1.7042333408e+000	 2.3234072002e-001	 2.9501766027e+000
 1.7018408775e+000	 2.4926119760e-001	 2.9131129738e+000
 1.6992716862e+000	 2.6621281357e-001	 2.8729166683e+000
 1.6965244479e+000	 2.8319306656e-001	 2.8299565448e+000
 1.6935978857e+000	 3.0019941291e-001	 2.7845525417e+000
 1.6904907659e+000	 3.1722926751e-001	 2.7369730485e+000
 1.6872018998e+000	 3.3428000448e-001	 2.6874326656e+000
 1.7186989357e+000	 1.6565825109e-001	 3.0144041661e+000
 1.7169928167e+000	 1.8249502894e-001	 2.9952774230e+000
 1.7151149747e+000	 1.9937267337e-001	 2.9711792619e+000
 1.7130639310e+000	 2.1628884920e-001	 2.9426338447e+000
 1.7108382435e+000	 2.3324117644e-001	 2.9101290967e+000
 1.7084365080e+000	 2.5022723078e-001	 2.8741131099e+000
 1.7058573595e+000	 2.6724454420e-001	 2.8349906135e+000
 1.7030994741e+000	 2.8429060561e-001	 2.7931195877e+000
 1.7001615698e+000	 3.0136286152e-001	 2.7488080965e+000
 1.6970424081e+000	 3.1845871678e-001	 2.7023114235e+000
 1.6937407957e+000	 3.3557553535e-001	 2.6538295977e+000
 1.7253341856e+000	 1.6629779526e-001	 2.9644566561e+000
 1.7236214799e+000	 1.8319957358e-001	 2.9462531032e+000
 1.7217363883e+000	 2.0014237624e-001	 2.9231574552e+000
 1.7196774263e+000	 2.1712385907e-001	 2.8956835268e+000
 1.7174431462e+000	 2.3414163286e-001	 2.8643088272e+000
 1.7150321385e+000	 2.5119326396e-001	 2.8294707447e+000
 1.7124430329e+000	 2.6827627483e-001	 2.7915627897e+000
 1.7096745004e+000	 2.8538814467e-001	 2.7509309736e+000
 1.7067252539e+000	 3.0252631014e-001	 2.7078704044e+000
 1.7035940503e+000	 3.1968816606e-001	 2.6626221818e+000
 1.7002796916e+000	 3.3687106623e-001	 2.6153706836e+000
 1.6348907326e+000	 3.2391575750e-001	 2.7899307046e+000
 1.6315261004e+000	 3.4045797529e-001	 2.7373405665e+000
 1.6279831361e+000	 3.5701522422e-001	 2.6831189980e+000
 1.6242608269e+000	 3.7358484130e-001	 2.6267053056e+000
 1.6203582086e+000	 3.9016412748e-001	 2.5675053297e+000
 1.6162743670e+000	 4.0675034859e-001	 2.5048953393e+000
 1.6120084391e+000	 4.2334073646e-001	 2.4382267697e+000
 1.6075596142e+000	 4.3993248993e-001	 2.3668318765e+000
 1.6029271355e+000	 4.5652277604e-001	 2.2900303723e+000
 1.5981103007e+000	 4.7310873118e-001	 2.2071371160e+000
 1.5931084637e+000	 4.8968746235e-001	 2.1174709136e+000
 1.6414296285e+000	 3.2521128837e-001	 2.7926033509e+000
 1.6380515391e+000	 3.4181966828e-001	 2.7395124505e+000
 1.6344944044e+000	 3.5844313945e-001	 2.6848370063e+000
 1.6307572075e+000	 3.7507902825e-001	 2.6280103031e+000
 1.6268389803e+000	 3.9172462480e-001	 2.5684303240e+000
 1.6227388050e+000	 4.0837718403e-001	 2.5054634938e+000
 1.6184558151e+000	 4.2503392668e-001	 2.4384492802e+000
 1.6139891968e+000	 4.4169204040e-001	 2.3667057280e+000
 1.6093381900e+000	 4.5834868088e-001	 2.2895359966e+000
 1.6045020898e+000	 4.7500097308e-001	 2.2062359710e+000
 1.5994802475e+000	 4.9164601241e-001	 2.1161030102e+000
 1.6479685244e+000	 3.2650681924e-001	 2.7910031243e+000
 1.6445769779e+000	 3.4318136128e-001	 2.7376270440e+000
 1.6410056728e+000	 3.5987105469e-001	 2.6827187100e+000
 1.6372535881e+000	 3.7657321519e-001	 2.6257056964e+000
 1.6333197521e+000	 3.9328512212e-001	 2.5659783948e+000
 1.6292032431e+000	 4.1000401947e-001	 2.5028935992e+000
 1.6249031912e+000	 4.2672711690e-001	 2.4357789639e+000
 1.6204187794e+000	 4.4345159086e-001	 2.3639384112e+000
 1.6157492446e+000	 4.6017458572e-001	 2.2866585631e+000
 1.6108938790e+000	 4.7689321498e-001	 2.2032162683e+000
 1.6058520314e+000	 4.9360456246e-001	 2.1128872920e+000
 1.6545074203e+000	 3.2780235012e-001	 2.7850527102e+000
 1.6511024166e+000	 3.4454305427e-001	 2.7316020164e+000
 1.6475169411e+000	 3.6129896992e-001	 2.6766767398e+000
 1.6437499687e+000	 3.7806740213e-001	 2.6196990816e+000
 1.6398005238e+000	 3.9484561945e-001	 2.5600521342e+000
 1.6356676811e+000	 4.1163085491e-001	 2.4970832998e+000
 1.6313505672e+000	 4.2842030713e-001	 2.4301085977e+000
 1.6268483619e+000	 4.4521114133e-001	 2.3584179393e+000
 1.6221602991e+000	 4.6200049057e-001	 2.2812814470e+000
 1.6172856682e+000	 4.7878545687e-001	 2.1979568909e+000
 1.6122238153e+000	 4.9556311252e-001	 2.1076983145e+000
 1.6610463162e+000	 3.2909788099e-001	 2.7746761113e+000
 1.6576278554e+000	 3.4590474727e-001	 2.7213564104e+000
 1.6540282094e+000	 3.6272688516e-001	 2.6666251559e+000
 1.6502463493e+000	 3.7956158907e-001	 2.6098995418e+000
 1.6462812955e+000	 3.9640611677e-001	 2.5505556800e+000
 1.6421321191e+000	 4.1325769035e-001	 2.4879318457e+000
 1.6377979433e+000	 4.3011349735e-001	 2.4213326268e+000
 1.6332779445e+000	 4.4697069180e-001	 2.3500340590e+000
 1.6285713536e+000	 4.6382639541e-001	 2.2732898249e+000
 1.6236774574e+000	 4.8067769877e-001	 2.1903385947e+000
 1.6185955991e+000	 4.9752166258e-001	 2.1004125814e+000
 1.6675852121e+000	 3.3039341186e-001	 2.7597986229e+000
 1.6641532941e+000	 3.4726644026e-001	 2.7068106158e+000
 1.6605394777e+000	 3.6415480039e-001	 2.6524794207e+000
 1.6567427299e+000	 3.8105577602e-001	 2.5962176179e+000
 1.6527620673e+000	 3.9796661409e-001	 2.5373946848e+000
 1.6485965572e+000	 4.1488452580e-001	 2.4753400608e+000
 1.6442453194e+000	 4.3180668757e-001	 2.4093471312e+000
 1.6397075271e+000	 4.4873024227e-001	 2.3386782151e+000
 1.6349824082e+000	 4.6565230025e-001	 2.2625706380e+000
 1.6300692465e+000	 4.8256994067e-001	 2.1802439701e+000
 1.6249673830e+000	 4.9948021263e-001	 2.0909085043e+000
 1.6741241080e+000	 3.3168894273e-001	 2.7403468093e+000
 1.6706787328e+000	 3.4862813326e-001	 2.6878863436e+000
 1.6670507461e+000	 3.6558271563e-001	 2.6341563710e+000
 1.6632391106e+000	 3.8254996296e-001	 2.5785652793e+000
 1.6592428390e+000	 3.9952711142e-001	 2.5204762853e+000
 1.6550609952e+000	 4.1651136124e-001	 2.4592103103e+000
 1.6506926954e+000	 4.3349987780e-001	 2.3940497917e+000
 1.6461371097e+000	 4.5048979273e-001	 2.3242435155e+000
 1.6413934627e+000	 4.6747820510e-001	 2.2490125560e+000
 1.6364610357e+000	 4.8446218256e-001	 2.1675574043e+000
 1.6313391669e+000	 5.0143876269e-001	 2.0790663638e+000
 1.6806630039e+000	 3.3298447361e-001	 2.7162484797e+000
 1.6772041716e+000	 3.4998982625e-001	 2.6645066017e+000
 1.6735620144e+000	 3.6701063086e-001	 2.6115741917e+000
 1.6697354912e+000	 3.8404414990e-001	 2.5568558961e+000
 1.6657236107e+000	 4.0108760874e-001	 2.4997090725e+000
 1.6615254332e+000	 4.1813819668e-001	 2.4394464696e+000
 1.6571400715e+000	 4.3519306802e-001	 2.3753398571e+000
 1.6525666922e+000	 4.5224934320e-001	 2.3066246967e+000
 1.6478045173e+000	 4.6930410994e-001	 2.2325059407e+000
 1.6428528249e+000	 4.8635442446e-001	 2.1521650442e+000
 1.6377109508e+000	 5.0339731275e-001	 2.0647682712e+000
 1.6872018998e+000	 3.3428000448e-001	 2.6874326656e+000
 1.6837296103e+000	 3.5135151924e-001	 2.6365956691e+000
 1.6800732827e+000	 3.6843854610e-001	 2.5846523893e+000
 1.6762318718e+000	 3.8553833685e-001	 2.5310042107e+000
 1.6722043824e+000	 4.0264810606e-001	 2.4750030626e+000
 1.6679898712e+000	 4.1976503212e-001	 2.4159538933e+000
 1.6635874475e+000	 4.3688625824e-001	 2.3531181123e+000
 1.6589962748e+000	 4.5400889367e-001	 2.2857180905e+000
 1.6542155718e+000	 4.7113001478e-001	 2.2129428116e+000
 1.6492446141e+000	 4.8824666635e-001	 2.1339547599e+000
 1.6440827346e+000	 5.0535586280e-001	 2.0478981310e+000
 1.6937407957e+000	 3.3557553535e-001	 2.6538295977e+000
 1.6902550491e+000	 3.5271321224e-001	 2.6040790721e+000
 1.6865845511e+000	 3.6986646133e-001	 2.5533117658e+000
 1.6827282524e+000	 3.8703252379e-001	 2.5009263110e+000
 1.6786851542e+000	 4.0420860339e-001	 2.4462696676e+000
 1.6744543093e+000	 4.2139186756e-001	 2.3886393849e+000
 1.6700348236e+000	 4.3857944847e-001	 2.3272868458e+000
 1.6654258574e+000	 4.5576844414e-001	 2.2614215906e+000
 1.6606266264e+000	 4.7295591963e-001	 2.1902168111e+000
 1.6556364033e+000	 4.9013890825e-001	 2.1128161090e+000
 1.6504545185e+000	 5.0731441286e-001	 2.0283416034e+000
 1.7002796916e+000	 3.3687106623e-001	 2.6153706836e+000
 1.6967804878e+000	 3.5407490523e-001	 2.5668835605e+000
 1.6930958194e+000	 3.7129437657e-001	 2.5174743937e+000
 1.6892246330e+000	 3.8852671073e-001	 2.4665396029e+000
 1.6851659259e+000	 4.0576910071e-001	 2.4134216676e+000
 1.6809187473e+000	 4.2301870300e-001	 2.3574111669e+000
 1.6764821997e+000	 4.4027263869e-001	 2.2977498194e+000
 1.6718554400e+000	 4.5752799460e-001	 2.2336346197e+000
 1.6670376810e+000	 4.7478182447e-001	 2.1642231706e+000
 1.6620281924e+000	 4.9203115015e-001	 2.0886403016e+000
 1.6568263024e+000	 5.0927296292e-001	 2.0059860684e+000
 1.5931084637e+000	 4.8968746235e-001	 2.1174709136e+000
 1.5879210350e+000	 5.0625604814e-001	 2.0229270184e+000
 1.5825474817e+000	 5.2281153934e-001	 1.9261842317e+000
 1.5769873296e+000	 5.3935096097e-001	 1.8277785056e+000
 1.5712401651e+000	 5.5587131393e-001	 1.7282997374e+000
 1.5653056354e+000	 5.7236957642e-001	 1.6284053005e+000
 1.5591834502e+000	 5.8884270545e-001	 1.5288349146e+000
 1.5528733820e+000	 6.0528763838e-001	 1.4304268757e+000
 1.5463752677e+000	 6.2170129446e-001	 1.3341356532e+000
 1.5396890085e+000	 6.3808057644e-001	 1.2410508526e+000
 1.5328145713e+000	 6.5442237221e-001	 1.1524175319e+000
 1.5994802475e+000	 4.9164601241e-001	 2.1161030102e+000
 1.5942720712e+000	 5.0828086578e-001	 2.0209978004e+000
 1.5888770259e+000	 5.2490257219e-001	 1.9235900497e+000
 1.5832946355e+000	 5.4150814476e-001	 1.8244281442e+000
 1.5775244847e+000	 5.5809457239e-001	 1.7241111240e+000
 1.5715662193e+000	 5.7465882119e-001	 1.6233022214e+000
 1.5654195478e+000	 5.9119783603e-001	 1.5227437755e+000
 1.5590842420e+000	 6.0770854198e-001	 1.4232735459e+000
 1.5525601378e+000	 6.2418784599e-001	 1.3258424335e+000
 1.5458471363e+000	 6.4063263841e-001	 1.2315336094e+000
 1.5389452042e+000	 6.5703979470e-001	 1.1415830396e+000
 1.6058520314e+000	 4.9360456246e-001	 2.1128872920e+000
 1.6006231075e+000	 5.1030568342e-001	 2.0174915562e+000
 1.5952065702e+000	 5.2699360504e-001	 1.9196803228e+000
 1.5896019415e+000	 5.4366532855e-001	 1.8200094190e+000
 1.5838088043e+000	 5.6031783085e-001	 1.7190819755e+000
 1.5778268032e+000	 5.7694806597e-001	 1.6175619778e+000
 1.5716556455e+000	 5.9355296660e-001	 1.5161892323e+000
 1.5652951020e+000	 6.1012944557e-001	 1.4157957705e+000
 1.5587450080e+000	 6.2667439751e-001	 1.3173237016e+000
 1.5520052641e+000	 6.4318470038e-001	 1.2218445170e+000
 1.5450758371e+000	 6.5965721718e-001	 1.1305798330e+000
 1.6122238153e+000	 4.9556311252e-001	 2.1076983145e+000
 1.6069741438e+000	 5.1233050106e-001	 2.0122790579e+000
 1.6015361144e+000	 5.2908463789e-001	 1.9143229984e+000
 1.5959092474e+000	 5.4582251234e-001	 1.8143884797e+000
 1.5900931239e+000	 5.6254108931e-001	 1.7130777374e+000
 1.5840873871e+000	 5.7923731075e-001	 1.6110504685e+000
 1.5778917431e+000	 5.9590809717e-001	 1.5090388553e+000
 1.5715059619e+000	 6.1255034917e-001	 1.4078640670e+000
 1.5649298781e+000	 6.2916094903e-001	 1.3084542530e+000
 1.5581633920e+000	 6.4573676234e-001	 1.2118640310e+000
 1.5512064700e+000	 6.6227463966e-001	 1.1192954586e+000
 1.6185955991e+000	 4.9752166258e-001	 2.1004125814e+000
 1.6133251801e+000	 5.1435531870e-001	 2.0052330987e+000
 1.6078656587e+000	 5.3117567074e-001	 1.9073881103e+000
 1.6022165533e+000	 5.4797969613e-001	 1.8074336198e+000
 1.5963774435e+000	 5.6476434777e-001	 1.7059660475e+000
 1.5903479710e+000	 5.8152655553e-001	 1.6036358232e+000
 1.5841278408e+000	 5.9826322774e-001	 1.5011624737e+000
 1.5777168219e+000	 6.1497125276e-001	 1.3993512294e+000
 1.5711147483e+000	 6.3164750055e-001	 1.2991111653e+000
 1.5643215198e+000	 6.4828882431e-001	 1.2014748822e+000
 1.5573371029e+000	 6.6489206214e-001	 1.1076197175e+000
 1.6249673830e+000	 4.9948021263e-001	 2.0909085043e+000
 1.6196762163e+000	 5.1638013634e-001	 1.9962284523e+000
 1.6141952029e+000	 5.3326670359e-001	 1.8987477373e+000
 1.6085238592e+000	 5.5013687991e-001	 1.7990152343e+000
 1.6026617631e+000	 5.6698760622e-001	 1.6976166930e+000
 1.5966085549e+000	 5.8381580030e-001	 1.5951883598e+000
 1.5903639384e+000	 6.0061835831e-001	 1.4924321341e+000
 1.5839276818e+000	 6.1739215636e-001	 1.3901322868e+000
 1.5772996184e+000	 6.3413405207e-001	 1.2891737580e+000
 1.5704796477e+000	 6.5084088628e-001	 1.1905620386e+000
 1.5634677358e+000	 6.6750948463e-001	 1.0954584660e+000
 1.6313391669e+000	 5.0143876269e-001	 2.0790663638e+000
 1.6260272526e+000	 5.1840495398e-001	 1.9851418319e+000
 1.6205247472e+000	 5.3535773644e-001	 1.8882759617e+000
 1.6148311651e+000	 5.5229406370e-001	 1.7890057778e+000
 1.6089460827e+000	 5.6921086468e-001	 1.6879015687e+000
 1.6028691388e+000	 5.8610504508e-001	 1.5855805424e+000
 1.5966000361e+000	 6.0297348889e-001	 1.4827220582e+000
 1.5901385418e+000	 6.1981305995e-001	 1.3800844633e+000
 1.5834844886e+000	 6.3662060359e-001	 1.2785235538e+000
 1.5766377755e+000	 6.5339294824e-001	 1.1790126673e+000
 1.5695983687e+000	 6.7012690711e-001	 1.0829133215e+000
 1.6377109508e+000	 5.0339731275e-001	 2.0647682712e+000
 1.6323782889e+000	 5.2042977162e-001	 1.9718518514e+000
 1.6268542914e+000	 5.3744876929e-001	 1.8758488293e+000
 1.6211384710e+000	 5.5445124749e-001	 1.7772797238e+000
 1.6152304023e+000	 5.7143412314e-001	 1.6766946355e+000
 1.6091297227e+000	 5.8839428986e-001	 1.5746869405e+000
 1.6028361337e+000	 6.0532861946e-001	 1.4719086030e+000
 1.5963494017e+000	 6.2223396355e-001	 1.3690871372e+000
 1.5896693587e+000	 6.3910715512e-001	 1.2670442390e+000
 1.5827959034e+000	 6.5594501021e-001	 1.1667160975e+000
 1.5757290016e+000	 6.7274432959e-001	 1.0699558021e+000
 1.6440827346e+000	 5.0535586280e-001	 2.0478981310e+000
 1.6387293251e+000	 5.2245458926e-001	 1.9562389862e+000
 1.6331838357e+000	 5.3953980214e-001	 1.8613443094e+000
 1.6274457769e+000	 5.5660843128e-001	 1.7637135243e+000
 1.6215147219e+000	 5.7365738160e-001	 1.6638718801e+000
 1.6153903066e+000	 5.9068353464e-001	 1.5623841881e+000
 1.6090722314e+000	 6.0768375003e-001	 1.4598702204e+000
 1.6025602617e+000	 6.2465486714e-001	 1.3570218030e+000
 1.5958542289e+000	 6.4159370664e-001	 1.2546216266e+000
 1.5889540312e+000	 6.5849707218e-001	 1.1535637845e+000
 1.5818596345e+000	 6.7536175207e-001	 1.0564909664e+000
 1.6504545185e+000	 5.0731441286e-001	 2.0283416034e+000
 1.6450803614e+000	 5.2447940690e-001	 1.9381855353e+000
 1.6395133799e+000	 5.4163083499e-001	 1.8446422560e+000
 1.6337530828e+000	 5.5876561506e-001	 1.7481855705e+000
 1.6277990415e+000	 5.7588064006e-001	 1.6493112755e+000
 1.6216508905e+000	 5.9297277941e-001	 1.5485509447e+000
 1.6153083291e+000	 6.1003888060e-001	 1.4464874179e+000
 1.6087711217e+000	 6.2707577074e-001	 1.3437720323e+000
 1.6020390990e+000	 6.4408025816e-001	 1.2411436184e+000
 1.5951121590e+000	 6.6104913414e-001	 1.1394492738e+000
 1.5879902674e+000	 6.7797917455e-001	 1.0424250667e+000
 1.6568263024e+000	 5.0927296292e-001	 2.0059860684e+000
 1.6514313977e+000	 5.2650422454e-001	 1.9175755836e+000
 1.6458429242e+000	 5.4372186784e-001	 1.8256243698e+000
 1.6400603887e+000	 5.6092279885e-001	 1.7305761538e+000
 1.6340833611e+000	 5.7810389852e-001	 1.6328927418e+000
 1.6279114744e+000	 5.9526202419e-001	 1.5330678561e+000
 1.6215444267e+000	 6.1239401118e-001	 1.4316427208e+000
 1.6149819816e+000	 6.2949667433e-001	 1.3292234362e+000
 1.6082239692e+000	 6.4656680968e-001	 1.2265001686e+000
 1.6012702869e+000	 6.6360119611e-001	 1.1242681662e+000
 1.5941209003e+000	 6.8059659704e-001	 1.0276655270e+000
 1.5328145713e+000	 6.5442237221e-001	 1.1524175319e+000
 1.5257530632e+000	 6.7072111478e-001	 1.0570997380e+000
 1.5185035681e+000	 6.8697612351e-001	 9.5091217008e-001
 1.5110662548e+000	 7.0318425419e-001	 8.3864932094e-001
 1.5034413604e+000	 7.1934235468e-001	 7.2210912726e-001
 1.4956291903e+000	 7.3544726669e-001	 6.0307971339e-001
 1.4876301193e+000	 7.5149582763e-001	 4.8333534138e-001
 1.4794445913e+000	 7.6748487245e-001	 3.6463209804e-001
 1.4710731202e+000	 7.8341123546e-001	 2.4870331893e-001
 1.4625162902e+000	 7.9927175231e-001	 1.3725475191e-001
 1.4537747557e+000	 8.1506326180e-001	 3.1959465869e-002
 1.5389452042e+000	 6.5703979470e-001	 1.1415830396e+000
 1.5318554529e+000	 6.7340372558e-001	 1.0454582178e+000
 1.5245769628e+000	 6.8972374771e-001	 9.3977732776e-001
 1.5171099033e+000	 7.0599670431e-001	 8.2813284549e-001
 1.5094545124e+000	 7.2221943061e-001	 7.1223809743e-001
 1.5016110969e+000	 7.3838875569e-001	 5.9379783115e-001
 1.4935800328e+000	 7.5450150433e-001	 4.7450432947e-001
 1.4853617660e+000	 7.7055449880e-001	 3.5603325346e-001
 1.4769568125e+000	 7.8654456077e-001	 2.4003921361e-001
 1.4683657587e+000	 8.0246851322e-001	 1.2815107121e-001
 1.4595892615e+000	 8.1832318230e-001	 2.1966975054e-002
 1.5450758371e+000	 6.5965721718e-001	 1.1305798330e+000
 1.5379578427e+000	 6.7608633638e-001	 1.0339330672e+000
 1.5306503575e+000	 6.9247137192e-001	 9.2878281704e-001
 1.5231535518e+000	 7.0880915442e-001	 8.1777346493e-001
 1.5154676645e+000	 7.2509650653e-001	 7.0253788027e-001
 1.5075930034e+000	 7.4133024470e-001	 5.8470159955e-001
 1.4995299463e+000	 7.5750718103e-001	 4.6587909855e-001
 1.4912789408e+000	 7.7362412516e-001	 3.4766978486e-001
 1.4828405048e+000	 7.8967788608e-001	 2.3165370948e-001
 1.4742152272e+000	 8.0566527412e-001	 1.1938699908e-001
 1.4654037674e+000	 8.2158310280e-001	 1.2397013339e-002
 1.5512064700e+000	 6.6227463966e-001	 1.1192954586e+000
 1.5440602324e+000	 6.7876894719e-001	 1.0224297784e+000
 1.5367237522e+000	 6.9521899613e-001	 9.1784070371e-001
 1.5291972003e+000	 7.1162160454e-001	 8.0748956912e-001
 1.5214808165e+000	 7.2797358246e-001	 6.9293288055e-001
 1.5135749100e+000	 7.4427173370e-001	 5.7572107024e-001
 1.5054798598e+000	 7.6051285773e-001	 4.5739492084e-001
 1.4971961155e+000	 7.7669375151e-001	 3.3948170118e-001
 1.4887241971e+000	 7.9281121139e-001	 2.2349101166e-001
 1.4800646956e+000	 8.0886203503e-001	 1.1091034038e-001
 1.4712182733e+000	 8.2484302330e-001	 3.2003339719e-003
 1.5573371029e+000	 6.6489206214e-001	 1.1076197175e+000
 1.5501626222e+000	 6.8145155799e-001	 1.0108550803e+000
 1.5427971469e+000	 6.9796662033e-001	 9.0686421452e-001
 1.5352408488e+000	 7.1443405465e-001	 7.9720063705e-001
 1.5274939686e+000	 7.3085065838e-001	 6.8334852524e-001
 1.5195568165e+000	 7.4721322270e-001	 5.6678725568e-001
 1.5114297734e+000	 7.6351853443e-001	 4.4898797437e-001
 1.5031132903e+000	 7.7976337786e-001	 3.3140986936e-001
 1.4946078894e+000	 7.9594453670e-001	 2.1549614339e-001
 1.4859141641e+000	 8.1205879593e-001	 1.0266968702e-001
 1.4770327792e+000	 8.2810294380e-001	-5.6715442492e-003
 1.5634677358e+000	 6.6750948463e-001	 1.0954584660e+000
 1.5562650119e+000	 6.8413416879e-001	 9.9911691483e-001
 1.5488705417e+000	 7.0071424454e-001	 8.9576771491e-001
 1.5412844974e+000	 7.1724650477e-001	 7.8682721615e-001
 1.5335071206e+000	 7.3372773430e-001	 6.7371124412e-001
 1.5255387231e+000	 7.5015471170e-001	 5.5783211105e-001
 1.5173796869e+000	 7.6652421112e-001	 4.4059532599e-001
 1.5090304650e+000	 7.8283300422e-001	 3.2339599823e-001
 1.5004915817e+000	 7.9907786200e-001	 2.0761493065e-001
 1.4917636325e+000	 8.1525555683e-001	 9.4614403021e-002
 1.4828472851e+000	 8.3136286430e-001	-1.4266351682e-002
 1.5695983687e+000	 6.7012690711e-001	 1.0829133215e+000
 1.5623674017e+000	 6.8681677959e-001	 9.8712441330e-001
 1.5549439364e+000	 7.0346186874e-001	 8.8446668723e-001
 1.5473281459e+000	 7.2005895488e-001	 7.7629090198e-001
 1.5395202726e+000	 7.3660481023e-001	 6.6394845096e-001
 1.5315206296e+000	 7.5309620070e-001	 5.4878851657e-001
 1.5233296004e+000	 7.6952988782e-001	 4.3215491472e-001
 1.5149476398e+000	 7.8590263057e-001	 3.1538262274e-001
 1.5063752740e+000	 8.0221118731e-001	 1.9979398706e-001
 1.4976131010e+000	 8.1845231774e-001	 8.6694609926e-002
 1.4886617910e+000	 8.3462278480e-001	-2.2631082179e-002
 1.5757290016e+000	 6.7274432959e-001	 1.0699558021e+000
 1.5684697914e+000	 6.8949939039e-001	 9.7478787395e-001
 1.5610173311e+000	 7.0620949295e-001	 8.7287770963e-001
 1.5533717944e+000	 7.2287140500e-001	 7.6551431857e-001
 1.5455334247e+000	 7.3948188615e-001	 6.5398852506e-001
 1.5375025362e+000	 7.5603768971e-001	 5.3959026032e-001
 1.5292795140e+000	 7.7253556452e-001	 4.2360553561e-001
 1.5208648145e+000	 7.8897225692e-001	 3.0731308866e-001
 1.5122589662e+000	 8.0534451262e-001	 1.9198069924e-001
 1.5034625694e+000	 8.2164907864e-001	 7.8861172586e-002
 1.4944762969e+000	 8.3788270530e-001	-3.0812007076e-002
 1.5818596345e+000	 6.7536175207e-001	 1.0564909664e+000
 1.5745721812e+000	 6.9218200120e-001	 9.6201873969e-001
 1.5670907259e+000	 7.0895711715e-001	 8.6091843543e-001
 1.5594154429e+000	 7.2568385511e-001	 7.5442109926e-001
 1.5515465767e+000	 7.4235896208e-001	 6.4376079345e-001
 1.5434844427e+000	 7.5897917871e-001	 5.3017202149e-001
 1.5352294275e+000	 7.7554124122e-001	 4.1488682398e-001
 1.5267819893e+000	 7.9204188328e-001	 2.9913153767e-001
 1.5181426585e+000	 8.0847783793e-001	 1.8412321254e-001
 1.5093120379e+000	 8.2484583955e-001	 7.1065685311e-002
 1.5002908027e+000	 8.4114262580e-001	-3.8854688816e-002
 1.5879902674e+000	 6.7797917455e-001	 1.0424250667e+000
 1.5806745709e+000	 6.9486461200e-001	 9.4872957659e-001
 1.5731641206e+000	 7.1170474136e-001	 8.4850757311e-001
 1.5654590914e+000	 7.2849630523e-001	 7.4293586799e-001
 1.5575597288e+000	 7.4523603800e-001	 6.3319551345e-001
 1.5494663493e+000	 7.6192066771e-001	 5.2046935411e-001
 1.5411793410e+000	 7.7854691792e-001	 4.0593924013e-001
 1.5326991640e+000	 7.9511150963e-001	 2.9078289282e-001
 1.5240263508e+000	 8.1161116324e-001	 1.7617041707e-001
 1.5151615064e+000	 8.2804260045e-001	 6.3260458367e-002
 1.5061053086e+000	 8.4440254630e-001	-4.6803994251e-002
 1.5941209003e+000	 6.8059659704e-001	 1.0276655270e+000
 1.5867769606e+000	 6.9754722280e-001	 9.3483405286e-001
 1.5792375153e+000	 7.1445236556e-001	 8.3556486674e-001
 1.5715027399e+000	 7.3130875535e-001	 7.3098422114e-001
 1.5635728808e+000	 7.4811311393e-001	 6.2222385569e-001
 1.5554482558e+000	 7.6486215671e-001	 5.1041867117e-001
 1.5471292545e+000	 7.8155259462e-001	 3.9670405435e-001
 1.5386163388e+000	 7.9818113599e-001	 2.8221284436e-001
 1.5299100431e+000	 8.1474448855e-001	 1.6807193421e-001
 1.5210109748e+000	 8.3123936136e-001	 5.5398504821e-002
 1.5119198145e+000	 8.4766246680e-001	-5.4704107602e-002
 1.4537747557e+000	 8.1506326180e-001	 3.1959465869e-002
 1.4448478888e+000	 8.3078496057e-001	-6.9213886616e-002
 1.4357377841e+000	 8.4643132472e-001	-1.6927788160e-001
 1.4264453092e+000	 8.6199921372e-001	-2.6809312301e-001
 1.4169714025e+000	 8.7748549806e-001	-3.6550706235e-001
 1.4073170729e+000	 8.9288706115e-001	-4.6135713718e-001
 1.3974833999e+000	 9.0820080129e-001	-5.5547416141e-001
 1.3874715330e+000	 9.2342363367e-001	-6.4768594814e-001
 1.3772826917e+000	 9.3855249233e-001	-7.3782114247e-001
 1.3669181652e+000	 9.5358433207e-001	-8.2571323894e-001
 1.3563793115e+000	 9.6851613048e-001	-9.1120475544e-001
 1.4595892615e+000	 8.1832318230e-001	 2.1966975054e-002
 1.4506266909e+000	 8.3410776145e-001	-8.0315928571e-002
 1.4414801494e+000	 8.4981670467e-001	-1.8140009411e-001
 1.4321505084e+000	 8.6544685888e-001	-2.8109798856e-001
 1.4226387100e+000	 8.8099508204e-001	-3.7920960097e-001
 1.4129457670e+000	 8.9645824509e-001	-4.7552573199e-001
 1.4030727633e+000	 9.1183323395e-001	-5.6983154327e-001
 1.3930208531e+000	 9.2711695145e-001	-6.6191034660e-001
 1.3827912606e+000	 9.4230631937e-001	-7.5154760962e-001
 1.3723852801e+000	 9.5739828034e-001	-8.3853515197e-001
 1.3618042754e+000	 9.7238979984e-001	-9.2267550294e-001
 1.4654037674e+000	 8.2158310280e-001	 1.2397013339e-002
 1.4564054929e+000	 8.3743056233e-001	-9.0901638137e-002
 1.4472225148e+000	 8.5320208462e-001	-1.9291813612e-001
 1.4378557077e+000	 8.6889450404e-001	-2.9342135131e-001
 1.4283060175e+000	 8.8450466602e-001	-3.9216830247e-001
 1.4185744611e+000	 9.0002942904e-001	-4.8890759035e-001
 1.4086621268e+000	 9.1546566660e-001	-5.8338309958e-001
 1.3985701731e+000	 9.3081026923e-001	-6.7533794773e-001
 1.3882998294e+000	 9.4606014641e-001	-7.6451865788e-001
 1.3778523951e+000	 9.6121222860e-001	-8.5067952763e-001
 1.3672292392e+000	 9.7626346921e-001	-9.3358716482e-001
 1.4712182733e+000	 8.2484302330e-001	 3.2003339719e-003
 1.4621842950e+000	 8.4075336321e-001	-1.0101743793e-001
 1.4529648802e+000	 8.5658746458e-001	-2.0387513389e-001
 1.4435609069e+000	 8.7234214920e-001	-3.0510251750e-001
 1.4339733249e+000	 8.8801425000e-001	-4.0441807771e-001
 1.4242031553e+000	 9.0360061298e-001	-5.0153260036e-001
 1.4142514902e+000	 9.1909809926e-001	-5.9615301603e-001
 1.4041194932e+000	 9.3450358700e-001	-6.8798650289e-001
 1.3938083983e+000	 9.4981397344e-001	-7.7674481997e-001
 1.3833195100e+000	 9.6502617687e-001	-8.6214884340e-001
 1.3726542031e+000	 9.8013713858e-001	-9.4393327462e-001
 1.4770327792e+000	 8.2810294380e-001	-5.6715442492e-003
 1.4679630971e+000	 8.4407616409e-001	-1.1070900529e-001
 1.4587072455e+000	 8.5997284453e-001	-2.1431349682e-001
 1.4492661062e+000	 8.7578979436e-001	-3.1618011397e-001
 1.4396406324e+000	 8.9152383397e-001	-4.1599320534e-001
 1.4298318494e+000	 9.0717179693e-001	-5.1343007562e-001
 1.4198408536e+000	 9.2273053192e-001	-6.0816497289e-001
 1.4096688132e+000	 9.3819690478e-001	-6.9987333909e-001
 1.3993169671e+000	 9.5356780048e-001	-7.8823629815e-001
 1.3887866250e+000	 9.6884012513e-001	-8.7294535366e-001
 1.3780791669e+000	 9.8401080794e-001	-9.5370726426e-001
 1.4828472851e+000	 8.3136286430e-001	-1.4266351682e-002
 1.4737418991e+000	 8.4739896497e-001	-1.2002128680e-001
 1.4644496109e+000	 8.6335822448e-001	-2.2427493171e-001
 1.4549713054e+000	 8.7923743951e-001	-3.2669210189e-001
 1.4453079399e+000	 8.9503341795e-001	-4.2692734496e-001
 1.4354605435e+000	 9.1074298087e-001	-5.2462876765e-001
 1.4254302171e+000	 9.2636296458e-001	-6.1944215641e-001
 1.4152181333e+000	 9.4189022256e-001	-7.1101536926e-001
 1.4048255359e+000	 9.5732162752e-001	-7.9900297304e-001
 1.3942537400e+000	 9.7265407340e-001	-8.8307109689e-001
 1.3835041307e+000	 9.8788447731e-001	-9.6290246951e-001
 1.4886617910e+000	 8.3462278480e-001	-2.2631082179e-002
 1.4795207012e+000	 8.5072176585e-001	-1.2899851245e-001
 1.4701919762e+000	 8.6674360444e-001	-2.3380045659e-001
 1.4606765047e+000	 8.8268508467e-001	-3.3667579026e-001
 1.4509752474e+000	 8.9854300193e-001	-4.3725354996e-001
 1.4410892376e+000	 9.1431416482e-001	-5.3515687798e-001
 1.4310195805e+000	 9.2999539724e-001	-6.3000726999e-001
 1.4207674533e+000	 9.4558354034e-001	-7.2142910230e-001
 1.4103341048e+000	 9.6107545456e-001	-8.0905441241e-001
 1.3997208549e+000	 9.7646802166e-001	-8.9252790288e-001
 1.3889290946e+000	 9.9175814668e-001	-9.7151213525e-001
 1.4944762969e+000	 8.3788270530e-001	-3.0812007076e-002
 1.4852995032e+000	 8.5404456673e-001	-1.3768420944e-001
 1.4759343416e+000	 8.7012898439e-001	-2.4293041429e-001
 1.4663817039e+000	 8.8613272983e-001	-3.4616784897e-001
 1.4566425549e+000	 9.0205258590e-001	-4.4700428010e-001
 1.4467179317e+000	 9.1788534877e-001	-5.4504207004e-001
 1.4366089439e+000	 9.3362782990e-001	-6.3988254521e-001
 1.4263167733e+000	 9.4927685811e-001	-7.3113065295e-001
 1.4158426736e+000	 9.6482928160e-001	-8.1839987968e-001
 1.4051879699e+000	 9.8028196993e-001	-9.0131739972e-001
 1.3943540584e+000	 9.9563181605e-001	-9.7952942074e-001
 1.5002908027e+000	 8.4114262580e-001	-3.8854688816e-002
 1.4910783053e+000	 8.5736736761e-001	-1.4612121567e-001
 1.4816767070e+000	 8.7351436434e-001	-2.5170448562e-001
 1.4720869032e+000	 8.8958037499e-001	-3.5520432167e-001
 1.4623098624e+000	 9.0556216988e-001	-4.5621141384e-001
 1.4523466258e+000	 9.2145653271e-001	-5.5431148070e-001
 1.4421983074e+000	 9.3726026255e-001	-6.4908975247e-001
 1.4318660934e+000	 9.5297017589e-001	-7.4013575147e-001
 1.4213512424e+000	 9.6858310864e-001	-8.2704834237e-001
 1.4106550848e+000	 9.8409591820e-001	-9.0944102072e-001
 1.3997790223e+000	 9.9950548541e-001	-9.8694740485e-001
 1.5061053086e+000	 8.4440254630e-001	-4.6803994251e-002
 1.4968571074e+000	 8.6069016849e-001	-1.5435169290e-001
 1.4874190723e+000	 8.7689974430e-001	-2.6016170228e-001
 1.4777921024e+000	 8.9302802015e-001	-3.6382063826e-001
 1.4679771699e+000	 9.0907175386e-001	-4.6490626026e-001
 1.4579753199e+000	 9.2502771666e-001	-5.6299173168e-001
 1.4477876708e+000	 9.4089269521e-001	-6.5765021156e-001
 1.4374154134e+000	 9.5666349367e-001	-7.4845975310e-001
 1.4268598113e+000	 9.7233693568e-001	-8.3500848036e-001
 1.4161221998e+000	 9.8790986646e-001	-9.1690001130e-001
 1.4052039861e+000	 1.0033791548e+000	-9.9375909119e-001
 1.5119198145e+000	 8.4766246680e-001	-5.4704107602e-002
 1.5026359094e+000	 8.6401296938e-001	-1.6241713955e-001
 1.4931614377e+000	 8.8028512425e-001	-2.6834045946e-001
 1.4834973017e+000	 8.9647566531e-001	-3.7205162715e-001
 1.4736444774e+000	 9.1258133784e-001	-4.7311957091e-001
 1.4636040140e+000	 9.2859890061e-001	-5.7110894058e-001
 1.4533770342e+000	 9.4452512788e-001	-6.6558480193e-001
 1.4429647335e+000	 9.6035681145e-001	-7.5611764740e-001
 1.4323683801e+000	 9.7609076273e-001	-8.4228869400e-001
 1.4215893148e+000	 9.9172381473e-001	-9.2369543562e-001
 1.4106289500e+000	 1.0072528242e+000	-9.9995741324e-001
 1.3563793115e+000	 9.6851613048e-001	-9.1120475544e-001
 1.3456675574e+000	 9.8334488948e-001	-9.9528490340e-001
 1.3347843959e+000	 9.9806763634e-001	-1.0791205379e+000
 1.3237313874e+000	 1.0126814265e+000	-1.1605672330e+000
 1.3125101591e+000	 1.0271833457e+000	-1.2361381889e+000
 1.3011224045e+000	 1.0415705121e+000	-1.3063185182e+000
 1.2895698824e+000	 1.0558400780e+000	-1.3718320700e+000
 1.2778544158e+000	 1.0699892316e+000	-1.4335755717e+000
 1.2659778918e+000	 1.0840151991e+000	-1.4926069717e+000
 1.2539422598e+000	 1.0979152461e+000	-1.5501323875e+000
 1.2417495307e+000	 1.1116866797e+000	-1.6074917499e+000
 1.3618042754e+000	 9.7238979984e-001	-9.2267550294e-001
 1.3510496786e+000	 9.8727786784e-001	-1.0050694793e+000
 1.3401229889e+000	 1.0020594997e+000	-1.0870413285e+000
 1.3290257729e+000	 1.0167317390e+000	-1.1683204309e+000
 1.3177596643e+000	 1.0312916600e+000	-1.2445798440e+000
 1.3063263633e+000	 1.0457363692e+000	-1.3151725677e+000
 1.2947276357e+000	 1.0600630075e+000	-1.3808421030e+000
 1.2829653121e+000	 1.0742687520e+000	-1.4425084788e+000
 1.2710412869e+000	 1.0883508176e+000	-1.5012562735e+000
 1.2589575172e+000	 1.1023064591e+000	-1.5583212081e+000
 1.2467160222e+000	 1.1161329729e+000	-1.6150754019e+000
 1.3672292392e+000	 9.7626346921e-001	-9.3358716482e-001
 1.3564317998e+000	 9.9121084619e-001	-1.0144460842e+000
 1.3454615819e+000	 1.0060513630e+000	-1.0947215568e+000
 1.3343201583e+000	 1.0207820515e+000	-1.1746268426e+000
 1.3230091694e+000	 1.0353999743e+000	-1.2518062322e+000
 1.3115303221e+000	 1.0499022263e+000	-1.3230556214e+000
 1.2998853891e+000	 1.0642859370e+000	-1.3891032009e+000
 1.2880762084e+000	 1.0785482724e+000	-1.4508840445e+000
 1.2761046819e+000	 1.0926864361e+000	-1.5095013358e+000
 1.2639727747e+000	 1.1066976722e+000	-1.5662126139e+000
 1.2516825137e+000	 1.1205792660e+000	-1.6224146490e+000
 1.3726542031e+000	 9.8013713858e-001	-9.4393327462e-001
 1.3618139210e+000	 9.9514382454e-001	-1.0233991057e+000
 1.3508001749e+000	 1.0100432263e+000	-1.1021370505e+000
 1.3396145438e+000	 1.0248323641e+000	-1.1803730965e+000
 1.3282586745e+000	 1.0395082886e+000	-1.2577587025e+000
 1.3167342808e+000	 1.0540680834e+000	-1.3299046439e+000
 1.3050431425e+000	 1.0685088666e+000	-1.3965486994e+000
 1.2931871047e+000	 1.0828277927e+000	-1.4586328398e+000
 1.2811680770e+000	 1.0970220546e+000	-1.5172709376e+000
 1.2689880321e+000	 1.1110888852e+000	-1.5737346750e+000
 1.2566490052e+000	 1.1250255592e+000	-1.6294380468e+000
 1.3780791669e+000	 9.8401080794e-001	-9.5370726426e-001
 1.3671960422e+000	 9.9907680290e-001	-1.0319129548e+000
 1.3561387679e+000	 1.0140350897e+000	-1.1092644469e+000
 1.3449089293e+000	 1.0288826766e+000	-1.1859899850e+000
 1.3335081797e+000	 1.0436166029e+000	-1.2623809660e+000
 1.3219382396e+000	 1.0582339404e+000	-1.3356579308e+000
 1.3102008959e+000	 1.0727317961e+000	-1.4031132972e+000
 1.2982980010e+000	 1.0871073131e+000	-1.4656868060e+000
 1.2862314720e+000	 1.1013576732e+000	-1.5244952104e+000
 1.2740032895e+000	 1.1154800982e+000	-1.5808167700e+000
 1.2616154967e+000	 1.1294718523e+000	-1.6360753878e+000
 1.3835041307e+000	 9.8788447731e-001	-9.6290246951e-001
 1.3725781634e+000	 1.0030097812e+000	-1.0399720694e+000
 1.3614773608e+000	 1.0180269530e+000	-1.1160784398e+000
 1.3502033147e+000	 1.0329329891e+000	-1.1914459467e+000
 1.3387576848e+000	 1.0477249171e+000	-1.2663620881e+000
 1.3271421984e+000	 1.0623997975e+000	-1.3402551474e+000
 1.3153586493e+000	 1.0769547256e+000	-1.4087330921e+000
 1.3034088973e+000	 1.0913868335e+000	-1.4719792899e+000
 1.2912948671e+000	 1.1056932917e+000	-1.5311056730e+000
 1.2790185470e+000	 1.1198713113e+000	-1.5873896201e+000
 1.2665819882e+000	 1.1339181455e+000	-1.6422577350e+000
 1.3889290946e+000	 9.9175814668e-001	-9.7151213525e-001
 1.3779602846e+000	 1.0069427596e+000	-1.0475609171e+000
 1.3668159538e+000	 1.0220188163e+000	-1.1225560255e+000
 1.3554977002e+000	 1.0369833017e+000	-1.1967096635e+000
 1.3440071899e+000	 1.0518332314e+000	-1.2702972175e+000
 1.3323461571e+000	 1.0665656546e+000	-1.3436373666e+000
 1.3205164027e+000	 1.0811776552e+000	-1.4133456181e+000
 1.3085197936e+000	 1.0956663538e+000	-1.4774450797e+000
 1.2963582621e+000	 1.1100289102e+000	-1.5370352660e+000
 1.2840338044e+000	 1.1242625243e+000	-1.5933853232e+000
 1.2715484796e+000	 1.1383644386e+000	-1.6479174560e+000
 1.3943540584e+000	 9.9563181605e-001	-9.7952942074e-001
 1.3833424058e+000	 1.0108757380e+000	-1.0546645912e+000
 1.3721545468e+000	 1.0260106797e+000	-1.1286735971e+000
 1.3607920857e+000	 1.0410336142e+000	-1.2017500617e+000
 1.3492566951e+000	 1.0559415457e+000	-1.2741485462e+000
 1.3375501159e+000	 1.0707315117e+000	-1.3461903208e+000
 1.3256741561e+000	 1.0854005847e+000	-1.4168898829e+000
 1.3136306899e+000	 1.0999458742e+000	-1.4820204412e+000
 1.3014216572e+000	 1.1143645287e+000	-1.5422183873e+000
 1.2890490618e+000	 1.1286537374e+000	-1.5987373886e+000
 1.2765149711e+000	 1.1428107318e+000	-1.6529882576e+000
 1.3997790223e+000	 9.9950548541e-001	-9.8694740485e-001
 1.3887245270e+000	 1.0148087163e+000	-1.0612663791e+000
 1.3774931398e+000	 1.0300025430e+000	-1.1344076935e+000
 1.3660864711e+000	 1.0450839267e+000	-1.2065363122e+000
 1.3545062002e+000	 1.0600498600e+000	-1.2778785977e+000
 1.3427540746e+000	 1.0748973688e+000	-1.3487281969e+000
 1.3308319094e+000	 1.0896235142e+000	-1.4193064048e+000
 1.3187415862e+000	 1.1042253946e+000	-1.4856431534e+000
 1.3064850522e+000	 1.1187001472e+000	-1.5465909269e+000
 1.2940643193e+000	 1.1330449504e+000	-1.6033807715e+000
 1.2814814626e+000	 1.1472570250e+000	-1.6574052196e+000
 1.4052039861e+000	 1.0033791548e+000	-9.9375909119e-001
 1.3941066482e+000	 1.0187416947e+000	-1.0673515233e+000
 1.3828317328e+000	 1.0339944064e+000	-1.1397350013e+000
 1.3713808566e+000	 1.0491342393e+000	-1.2110378309e+000
 1.3597557053e+000	 1.0641581743e+000	-1.2814502270e+000
 1.3479580334e+000	 1.0790632259e+000	-1.3512303366e+000
 1.3359896628e+000	 1.0938464438e+000	-1.4207095679e+000
 1.3238524825e+000	 1.1085049150e+000	-1.4882525453e+000
 1.3115484473e+000	 1.1230357658e+000	-1.5500903024e+000
 1.2990795767e+000	 1.1374361634e+000	-1.6072519077e+000
 1.2864479541e+000	 1.1517033181e+000	-1.6611048297e+000
 1.4106289500e+000	 1.0072528242e+000	-9.9995741324e-001
 1.3994887694e+000	 1.0226746730e+000	-1.0729046464e+000
 1.3881703258e+000	 1.0379862697e+000	-1.1446323571e+000
 1.3766752421e+000	 1.0531845518e+000	-1.2152242800e+000
 1.3650052105e+000	 1.0682664886e+000	-1.2848266195e+000
 1.3531619922e+000	 1.0832290830e+000	-1.3536542329e+000
 1.3411474162e+000	 1.0980693733e+000	-1.4219961903e+000
 1.3289633788e+000	 1.1127844353e+000	-1.4897895322e+000
 1.3166118423e+000	 1.1273713843e+000	-1.5526554951e+000
 1.3040948341e+000	 1.1418273765e+000	-1.6102887491e+000
 1.2914144456e+000	 1.1561496113e+000	-1.6640250187e+000
 1.2417495307e+000	 1.1116866797e+000	-1.6074917499e+000
 1.2294036397e+000	 1.1253248144e+000	-1.6607461198e+000
 1.2169049005e+000	 1.1388291223e+000	-1.7057039571e+000
 1.2042555018e+000	 1.1521970472e+000	-1.7434623919e+000
 1.1914576892e+000	 1.1654260806e+000	-1.7751993259e+000
 1.1785137638e+000	 1.1785137638e+000	-1.8021555448e+000
 1.1654260806e+000	 1.1914576892e+000	-1.8256162329e+000
 1.1521970472e+000	 1.2042555018e+000	-1.8468920311e+000
 1.1388291223e+000	 1.2169049005e+000	-1.8672997855e+000
 1.1253248144e+000	 1.2294036397e+000	-1.8881431357e+000
 1.1116866797e+000	 1.2417495307e+000	-1.9106930941e+000
 1.2467160222e+000	 1.1161329729e+000	-1.6150754019e+000
 1.2343207527e+000	 1.1298256545e+000	-1.6676450771e+000
 1.2217720236e+000	 1.1433839742e+000	-1.7118860516e+000
 1.2090720325e+000	 1.1568053653e+000	-1.7489044107e+000
 1.1962230339e+000	 1.1700873094e+000	-1.7798886388e+000
 1.1832273381e+000	 1.1832273381e+000	-1.8060912817e+000
 1.1700873094e+000	 1.1962230339e+000	-1.8288099948e+000
 1.1568053653e+000	 1.2090720325e+000	-1.8493681220e+000
 1.1433839742e+000	 1.2217720236e+000	-1.8690949561e+000
 1.1298256545e+000	 1.2343207527e+000	-1.8893058320e+000
 1.1161329729e+000	 1.2467160222e+000	-1.9112822110e+000
 1.2516825137e+000	 1.1205792660e+000	-1.6224146490e+000
 1.2392378657e+000	 1.1343264946e+000	-1.6742977326e+000
 1.2266391467e+000	 1.1479388260e+000	-1.7177765763e+000
 1.2138885631e+000	 1.1614136834e+000	-1.7539779490e+000
 1.2009883785e+000	 1.1747485383e+000	-1.7841128158e+000
 1.1879409123e+000	 1.1879409123e+000	-1.8094575203e+000
 1.1747485383e+000	 1.2009883785e+000	-1.8313343359e+000
 1.1614136834e+000	 1.2138885631e+000	-1.8510915340e+000
 1.1479388260e+000	 1.2266391467e+000	-1.8700831239e+000
 1.1343264946e+000	 1.2392378657e+000	-1.8896484209e+000
 1.1205792660e+000	 1.2516825137e+000	-1.9110916012e+000
 1.2566490052e+000	 1.1250255592e+000	-1.6294380468e+000
 1.2441549786e+000	 1.1388273347e+000	-1.6806341626e+000
 1.2315062698e+000	 1.1524936779e+000	-1.7233078584e+000
 1.2187050938e+000	 1.1660220015e+000	-1.7586182079e+000
 1.2057537232e+000	 1.1794097671e+000	-1.7878104486e+000
 1.1926544865e+000	 1.1926544865e+000	-1.8121966546e+000
 1.1794097671e+000	 1.2057537232e+000	-1.8331357587e+000
 1.1660220015e+000	 1.2187050938e+000	-1.8520130799e+000
 1.1524936779e+000	 1.2315062698e+000	-1.8702195105e+000
 1.1388273347e+000	 1.2441549786e+000	-1.8891305268e+000
 1.1250255592e+000	 1.2566490052e+000	-1.9100851834e+000
 1.2616154967e+000	 1.1294718523e+000	-1.6360753878e+000
 1.2490720916e+000	 1.1433281749e+000	-1.6865855841e+000
 1.2363733929e+000	 1.1570485297e+000	-1.7284132501e+000
 1.2235216245e+000	 1.1706303196e+000	-1.7627612808e+000
 1.2105190678e+000	 1.1840709959e+000	-1.7909208748e+000
 1.1973680607e+000	 1.1973680607e+000	-1.8142516652e+000
 1.1840709959e+000	 1.2105190678e+000	-1.8341611838e+000
 1.1706303196e+000	 1.2235216245e+000	-1.8520838149e+000
 1.1570485297e+000	 1.2363733929e+000	-1.8694593992e+000
 1.1433281749e+000	 1.2490720916e+000	-1.8877116533e+000
 1.1294718523e+000	 1.2616154967e+000	-1.9082265731e+000
 1.2665819882e+000	 1.1339181455e+000	-1.6422577350e+000
 1.2539892046e+000	 1.1478290150e+000	-1.6920843882e+000
 1.2412405160e+000	 1.1616033815e+000	-1.7330271624e+000
 1.2283381552e+000	 1.1752386376e+000	-1.7663441888e+000
 1.2152844125e+000	 1.1887322248e+000	-1.7933842129e+000
 1.2020816350e+000	 1.2020816350e+000	-1.8155661556e+000
 1.1887322248e+000	 1.2152844125e+000	-1.8343579870e+000
 1.1752386376e+000	 1.2283381552e+000	-1.8512550750e+000
 1.1616033815e+000	 1.2412405160e+000	-1.8677581742e+000
 1.1478290150e+000	 1.2539892046e+000	-1.8853512235e+000
 1.1339181455e+000	 1.2665819882e+000	-1.9054791239e+000
 1.2715484796e+000	 1.1383644386e+000	-1.6479174560e+000
 1.2589063175e+000	 1.1523298551e+000	-1.6970641747e+000
 1.2461076391e+000	 1.1661582334e+000	-1.7370851004e+000
 1.2331546858e+000	 1.1798469557e+000	-1.7693049147e+000
 1.2200497571e+000	 1.1933934536e+000	-1.7951413981e+000
 1.2067952092e+000	 1.2067952092e+000	-1.8160843889e+000
 1.1933934536e+000	 1.2200497571e+000	-1.8336740365e+000
 1.1798469557e+000	 1.2331546858e+000	-1.8494785142e+000
 1.1661582334e+000	 1.2461076391e+000	-1.8650713598e+000
 1.1523298551e+000	 1.2589063175e+000	-1.8820086193e+000
 1.1383644386e+000	 1.2715484796e+000	-1.9018059675e+000
 1.2765149711e+000	 1.1428107318e+000	-1.6529882576e+000
 1.2638234305e+000	 1.1568306952e+000	-1.7014597862e+000
 1.2509747622e+000	 1.1707130852e+000	-1.7405236970e+000
 1.2379712165e+000	 1.1844552738e+000	-1.7715824390e+000
 1.2248151018e+000	 1.1980546824e+000	-1.7961342180e+000
 1.2115087834e+000	 1.2115087834e+000	-1.8157513235e+000
 1.1980546824e+000	 1.2248151018e+000	-1.8320577305e+000
 1.1844552738e+000	 1.2379712165e+000	-1.8467061436e+000
 1.1707130852e+000	 1.2509747622e+000	-1.8613546591e+000
 1.1568306952e+000	 1.2638234305e+000	-1.8776432214e+000
 1.1428107318e+000	 1.2765149711e+000	-1.8971700545e+000
 1.2814814626e+000	 1.1472570250e+000	-1.6574052196e+000
 1.2687405435e+000	 1.1613315354e+000	-1.7052073425e+000
 1.2558418853e+000	 1.1752679371e+000	-1.7432807482e+000
 1.2427877472e+000	 1.1890635919e+000	-1.7731167746e+000
 1.2295804464e+000	 1.2027159113e+000	-1.7963053484e+000
 1.2162223576e+000	 1.2162223576e+000	-1.8145126504e+000
 1.2027159113e+000	 1.2295804464e+000	-1.8294580337e+000
 1.1890635919e+000	 1.2427877472e+000	-1.8428903685e+000
 1.1752679371e+000	 1.2558418853e+000	-1.8565639927e+000
 1.1613315354e+000	 1.2687405435e+000	-1.8722144490e+000
 1.1472570250e+000	 1.2814814626e+000	-1.8915341947e+000
 1.2864479541e+000	 1.1517033181e+000	-1.6611048297e+000
 1.2736576564e+000	 1.1658323755e+000	-1.7082442755e+000
 1.2607090084e+000	 1.1798227889e+000	-1.7452952483e+000
 1.2476042778e+000	 1.1936719100e+000	-1.7738490025e+000
 1.2343457910e+000	 1.2073771401e+000	-1.7955983893e+000
 1.2209359319e+000	 1.2209359319e+000	-1.8123148293e+000
 1.2073771401e+000	 1.2343457910e+000	-1.8258245154e+000
 1.1936719100e+000	 1.2476042778e+000	-1.8379840273e+000
 1.1798227889e+000	 1.2607090084e+000	-1.8506555379e+000
 1.1658323755e+000	 1.2736576564e+000	-1.8656817990e+000
 1.1517033181e+000	 1.2864479541e+000	-1.8848610967e+000
 1.2914144456e+000	 1.1561496113e+000	-1.6640250187e+000
 1.2785747694e+000	 1.1703332156e+000	-1.7105093640e+000
 1.2655761316e+000	 1.1843776408e+000	-1.7465074242e+000
 1.2524208085e+000	 1.1982802281e+000	-1.7737213068e+000
 1.2391111357e+000	 1.2120383689e+000	-1.7939579009e+000
 1.2256495061e+000	 1.2256495061e+000	-1.8091051252e+000
 1.2120383689e+000	 1.2391111357e+000	-1.8211073861e+000
 1.1982802281e+000	 1.2524208085e+000	-1.8319404287e+000
 1.1843776408e+000	 1.2655761316e+000	-1.8435857668e+000
 1.1703332156e+000	 1.2785747694e+000	-1.8580048855e+000
 1.1561496113e+000	 1.2914144456e+000	-1.8771134084e+000
 1.1116866797e+000	 1.2417495307e+000	-1.9106930941e+000
 1.0979152461e+000	 1.2539422598e+000	-1.9294558009e+000
 1.0840151991e+000	 1.2659778918e+000	-1.9397047221e+000
 1.0699892316e+000	 1.2778544158e+000	-1.9437638819e+000
 1.0558400780e+000	 1.2895698824e+000	-1.9438442981e+000
 1.0415705121e+000	 1.3011224045e+000	-1.9420244303e+000
 1.0271833457e+000	 1.3125101591e+000	-1.9402315313e+000
 1.0126814265e+000	 1.3237313874e+000	-1.9402240374e+000
 9.9806763634e-001	 1.3347843959e+000	-1.9434755535e+000
 9.8334488948e-001	 1.3456675574e+000	-1.9442097859e+000
 9.6851613048e-001	 1.3563793115e+000	-1.9391614047e+000
 1.1161329729e+000	 1.2467160222e+000	-1.9112822110e+000
 1.1023064591e+000	 1.2589575172e+000	-1.9295332633e+000
 1.0883508176e+000	 1.2710412869e+000	-1.9393934183e+000
 1.0742687520e+000	 1.2829653121e+000	-1.9432817763e+000
 1.0600630075e+000	 1.2947276357e+000	-1.9435028497e+000
 1.0457363692e+000	 1.3063263633e+000	-1.9422263751e+000
 1.0312916600e+000	 1.3177596643e+000	-1.9414680461e+000
 1.0167317390e+000	 1.3290257729e+000	-1.9430713079e+000
 1.0020594997e+000	 1.3401229889e+000	-1.9464832835e+000
 9.8727786784e-001	 1.3510496786e+000	-1.9444660889e+000
 9.7238979984e-001	 1.3618042754e+000	-1.9372498458e+000
 1.1205792660e+000	 1.2516825137e+000	-1.9110916012e+000
 1.1066976722e+000	 1.2639727747e+000	-1.9289411290e+000
 1.0926864361e+000	 1.2761046819e+000	-1.9385924308e+000
 1.0785482724e+000	 1.2880762084e+000	-1.9425474176e+000
 1.0642859370e+000	 1.2998853891e+000	-1.9431915937e+000
 1.0499022263e+000	 1.3115303221e+000	-1.9427732450e+000
 1.0353999743e+000	 1.3230091694e+000	-1.9433835673e+000
 1.0207820515e+000	 1.3343201583e+000	-1.9468898300e+000
 1.0060513630e+000	 1.3454615819e+000	-1.9481585603e+000
 9.9121084619e-001	 1.3564317998e+000	-1.9436233850e+000
 9.7626346921e-001	 1.3672292392e+000	-1.9344283597e+000
 1.1250255592e+000	 1.2566490052e+000	-1.9100851834e+000
 1.1110888852e+000	 1.2689880321e+000	-1.9276465675e+000
 1.0970220546e+000	 1.2811680770e+000	-1.9372703918e+000
 1.0828277927e+000	 1.2931871047e+000	-1.9415292981e+000
 1.0685088666e+000	 1.3050431425e+000	-1.9428774656e+000
 1.0540680834e+000	 1.3167342808e+000	-1.9436291886e+000
 1.0395082886e+000	 1.3282586745e+000	-1.9459384130e+000
 1.0248323641e+000	 1.3396145438e+000	-1.9499464800e+000
 1.0100432263e+000	 1.3508001749e+000	-1.9484821095e+000
 9.9514382454e-001	 1.3618139210e+000	-1.9416547044e+000
 9.8013713858e-001	 1.3726542031e+000	-1.9306616712e+000
 1.1294718523e+000	 1.2616154967e+000	-1.9082265731e+000
 1.1154800982e+000	 1.2740032895e+000	-1.9256162787e+000
 1.1013576732e+000	 1.2862314720e+000	-1.9353953265e+000
 1.0871073131e+000	 1.2982980010e+000	-1.9401951917e+000
 1.0727317961e+000	 1.3102008959e+000	-1.9425265956e+000
 1.0582339404e+000	 1.3219382396e+000	-1.9447574845e+000
 1.0436166029e+000	 1.3335081797e+000	-1.9490900605e+000
 1.0288826766e+000	 1.3449089293e+000	-1.9513836505e+000
 1.0140350897e+000	 1.3561387679e+000	-1.9474319444e+000
 9.9907680290e-001	 1.3671960422e+000	-1.9385349548e+000
 9.8401080794e-001	 1.3780791669e+000	-1.9259164729e+000
 1.1339181455e+000	 1.2665819882e+000	-1.9054791239e+000
 1.1198713113e+000	 1.2790185470e+000	-1.9228165348e+000
 1.1056932917e+000	 1.2912948671e+000	-1.9329346938e+000
 1.0913868335e+000	 1.3034088973e+000	-1.9385121939e+000
 1.0769547256e+000	 1.3153586493e+000	-1.9421043475e+000
 1.0623997975e+000	 1.3271421984e+000	-1.9461205788e+000
 1.0477249171e+000	 1.3387576848e+000	-1.9514859631e+000
 1.0329329891e+000	 1.3502033147e+000	-1.9511924170e+000
 1.0180269530e+000	 1.3614773608e+000	-1.9450015974e+000
 1.0030097812e+000	 1.3725781634e+000	-1.9342408946e+000
 9.8788447731e-001	 1.3835041307e+000	-1.9201613980e+000
 1.1383644386e+000	 1.2715484796e+000	-1.9018059675e+000
 1.1242625243e+000	 1.2840338044e+000	-1.9192132205e+000
 1.1100289102e+000	 1.2963582621e+000	-1.9298554274e+000
 1.0956663538e+000	 1.3085197936e+000	-1.9364467622e+000
 1.0811776552e+000	 1.3205164027e+000	-1.9415753577e+000
 1.0665656546e+000	 1.3323461571e+000	-1.9476801222e+000
 1.0518332314e+000	 1.3440071899e+000	-1.9519889215e+000
 1.0369833017e+000	 1.3554977002e+000	-1.9493655321e+000
 1.0220188163e+000	 1.3668159538e+000	-1.9411723653e+000
 1.0069427596e+000	 1.3779602846e+000	-1.9287511069e+000
 9.9175814668e-001	 1.3889290946e+000	-1.9133669928e+000
 1.1428107318e+000	 1.2765149711e+000	-1.8971700545e+000
 1.1286537374e+000	 1.2890490618e+000	-1.9147718743e+000
 1.1143645287e+000	 1.3014216572e+000	-1.9261239762e+000
 1.0999458742e+000	 1.3136306899e+000	-1.9339647558e+000
 1.0854005847e+000	 1.3256741561e+000	-1.9409035736e+000
 1.0707315117e+000	 1.3375501159e+000	-1.9486334413e+000
 1.0559415457e+000	 1.3492566951e+000	-1.9505991111e+000
 1.0410336142e+000	 1.3607920857e+000	-1.9458974007e+000
 1.0260106797e+000	 1.3721545468e+000	-1.9359320044e+000
 1.0108757380e+000	 1.3833424058e+000	-1.9220414695e+000
 9.9563181605e-001	 1.3943540584e+000	-1.9055056889e+000
 1.1472570250e+000	 1.2814814626e+000	-1.8915341947e+000
 1.1330449504e+000	 1.2940643193e+000	-1.9094577288e+000
 1.1187001472e+000	 1.3064850522e+000	-1.9217063445e+000
 1.1042253946e+000	 1.3187415862e+000	-1.9310314752e+000
 1.0896235142e+000	 1.3308319094e+000	-1.9400522924e+000
 1.0748973688e+000	 1.3427540746e+000	-1.9474790984e+000
 1.0600498600e+000	 1.3545062002e+000	-1.9473182812e+000
 1.0450839267e+000	 1.3660864711e+000	-1.9407840545e+000
 1.0300025430e+000	 1.3774931398e+000	-1.9292699643e+000
 1.0148087163e+000	 1.3887245270e+000	-1.9141033666e+000
 9.9950548541e-001	 1.3997790223e+000	-1.8965517766e+000
 1.1517033181e+000	 1.2864479541e+000	-1.8848610967e+000
 1.1374361634e+000	 1.2990795767e+000	-1.9032357512e+000
 1.1230357658e+000	 1.3115484473e+000	-1.9165681326e+000
 1.1085049150e+000	 1.3238524825e+000	-1.9276117016e+000
 1.0938464438e+000	 1.3359896628e+000	-1.9386935513e+000
 1.0790632259e+000	 1.3479580334e+000	-1.9441863437e+000
 1.0641581743e+000	 1.3597557053e+000	-1.9421497304e+000
 1.0491342393e+000	 1.3713808566e+000	-1.9340231272e+000
 1.0339944064e+000	 1.3828317328e+000	-1.9211773630e+000
 1.0187416947e+000	 1.3941066482e+000	-1.9049159605e+000
 1.0033791548e+000	 1.4052039861e+000	-1.8864813764e+000
 1.1561496113e+000	 1.2914144456e+000	-1.8771134084e+000
 1.1418273765e+000	 1.3040948341e+000	-1.8960706838e+000
 1.1273713843e+000	 1.3166118423e+000	-1.9106745764e+000
 1.1127844353e+000	 1.3289633788e+000	-1.9236697364e+000
 1.0980693733e+000	 1.3411474162e+000	-1.9352072594e+000
 1.0832290830e+000	 1.3531619922e+000	-1.9387646313e+000
 1.0682664886e+000	 1.3650052105e+000	-1.9350982817e+000
 1.0531845518e+000	 1.3766752421e+000	-1.9256138289e+000
 1.0379862697e+000	 1.3881703258e+000	-1.9116469599e+000
 1.0226746730e+000	 1.3994887694e+000	-1.8944648672e+000
 1.0072528242e+000	 1.4106289500e+000	-1.8752724123e+000
 9.6851613048e-001	 1.3563793115e+000	-1.9391614047e+000
 9.5358433207e-001	 1.3669181652e+000	-1.9286163177e+000
 9.3855249233e-001	 1.3772826917e+000	-1.9127867485e+000
 9.2342363367e-001	 1.3874715330e+000	-1.8924884022e+000
 9.0820080129e-001	 1.3974833999e+000	-1.8685084397e+000
 8.9288706115e-001	 1.4073170729e+000	-1.8416068786e+000
 8.7748549806e-001	 1.4169714025e+000	-1.8125179853e+000
 8.6199921372e-001	 1.4264453092e+000	-1.7819516382e+000
 8.4643132472e-001	 1.4357377841e+000	-1.7505946414e+000
 8.3078496057e-001	 1.4448478888e+000	-1.7191119688e+000
 8.1506326180e-001	 1.4537747557e+000	-1.6881479235e+000
 9.7238979984e-001	 1.3618042754e+000	-1.9372498458e+000
 9.5739828034e-001	 1.3723852801e+000	-1.9252639739e+000
 9.4230631937e-001	 1.3827912606e+000	-1.9087288206e+000
 9.2711695145e-001	 1.3930208531e+000	-1.8883370421e+000
 9.1183323395e-001	 1.4030727633e+000	-1.8647524225e+000
 8.9645824509e-001	 1.4129457670e+000	-1.8386115513e+000
 8.8099508204e-001	 1.4226387100e+000	-1.8105254885e+000
 8.6544685888e-001	 1.4321505084e+000	-1.7810813923e+000
 8.4981670467e-001	 1.4414801494e+000	-1.7508440892e+000
 8.3410776145e-001	 1.4506266909e+000	-1.7203575664e+000
 8.1832318230e-001	 1.4595892615e+000	-1.6901463690e+000
 9.7626346921e-001	 1.3672292392e+000	-1.9344283597e+000
 9.6121222860e-001	 1.3778523951e+000	-1.9211330183e+000
 9.4606014641e-001	 1.3882998294e+000	-1.9039664251e+000
 9.3081026923e-001	 1.3985701731e+000	-1.8835055016e+000
 9.1546566660e-001	 1.4086621268e+000	-1.8602981172e+000
 9.0002942904e-001	 1.4185744611e+000	-1.8348650345e+000
 8.8450466602e-001	 1.4283060175e+000	-1.8077018339e+000
 8.6889450404e-001	 1.4378557077e+000	-1.7792807955e+000
 8.5320208462e-001	 1.4472225148e+000	-1.7500527136e+000
 8.3743056233e-001	 1.4564054929e+000	-1.7204486253e+000
 8.2158310280e-001	 1.4654037674e+000	-1.6908814326e+000
 9.8013713858e-001	 1.3726542031e+000	-1.9306616712e+000
 9.6502617687e-001	 1.3833195100e+000	-1.9161803792e+000
 9.4981397344e-001	 1.3938083983e+000	-1.8984501569e+000
 9.3450358700e-001	 1.4041194932e+000	-1.8779394169e+000
 9.1909809926e-001	 1.4142514902e+000	-1.8550874886e+000
 9.0360061298e-001	 1.4242031553e+000	-1.8303068193e+000
 8.8801425000e-001	 1.4339733249e+000	-1.8039851479e+000
 8.7234214920e-001	 1.4435609069e+000	-1.7764876288e+000
 8.5658746458e-001	 1.4529648802e+000	-1.7481588795e+000
 8.4075336321e-001	 1.4621842950e+000	-1.7193249335e+000
 8.2484302330e-001	 1.4712182733e+000	-1.6902950759e+000
 9.8401080794e-001	 1.3780791669e+000	-1.9259164729e+000
 9.6884012513e-001	 1.3887866250e+000	-1.9103650353e+000
 9.5356780048e-001	 1.3993169671e+000	-1.8921327194e+000
 9.3819690478e-001	 1.4096688132e+000	-1.8715865689e+000
 9.2273053192e-001	 1.4198408536e+000	-1.8490646608e+000
 9.0717179693e-001	 1.4298318494e+000	-1.8248785511e+000
 8.9152383397e-001	 1.4396406324e+000	-1.7993156871e+000
 8.7578979436e-001	 1.4492661062e+000	-1.7726417614e+000
 8.5997284453e-001	 1.4587072455e+000	-1.7451029824e+000
 8.4407616409e-001	 1.4679630971e+000	-1.7169282376e+000
 8.2810294380e-001	 1.4770327792e+000	-1.6883311325e+000
 9.8788447731e-001	 1.3835041307e+000	-1.9201613980e+000
 9.7265407340e-001	 1.3942537400e+000	-1.9036479867e+000
 9.5732162752e-001	 1.4048255359e+000	-1.8849688957e+000
 9.4189022256e-001	 1.4152181333e+000	-1.8643968543e+000
 9.2636296458e-001	 1.4254302171e+000	-1.8421758888e+000
 9.1074298087e-001	 1.4354605435e+000	-1.8185240016e+000
 8.9503341795e-001	 1.4453079399e+000	-1.7936358116e+000
 8.7923743951e-001	 1.4549713054e+000	-1.7676851270e+000
 8.6335822448e-001	 1.4644496109e+000	-1.7408274260e+000
 8.4739896497e-001	 1.4737418991e+000	-1.7132022219e+000
 8.3136286430e-001	 1.4828472851e+000	-1.6849352903e+000
 9.9175814668e-001	 1.3889290946e+000	-1.9133669928e+000
 9.7646802166e-001	 1.3997208549e+000	-1.8959922273e+000
 9.6107545456e-001	 1.4103341048e+000	-1.8769155201e+000
 9.4558354034e-001	 1.4207674533e+000	-1.8563222571e+000
 9.2999539724e-001	 1.4310195805e+000	-1.8343695305e+000
 9.1431416482e-001	 1.4410892376e+000	-1.8111890422e+000
 8.9854300193e-001	 1.4509752474e+000	-1.7868899596e+000
 8.8268508467e-001	 1.4606765047e+000	-1.7615616978e+000
 8.6674360444e-001	 1.4701919762e+000	-1.7352765992e+000
 8.5072176585e-001	 1.4795207012e+000	-1.7080924872e+000
 8.3462278480e-001	 1.4886617910e+000	-1.6800550722e+000
 9.9563181605e-001	 1.3943540584e+000	-1.9055056889e+000
 9.8028196993e-001	 1.4051879699e+000	-1.8873627159e+000
 9.6482928160e-001	 1.4158426736e+000	-1.8679314494e+000
 9.4927685811e-001	 1.4263167733e+000	-1.8473168197e+000
 9.3362782990e-001	 1.4366089439e+000	-1.8255960187e+000
 9.1788534877e-001	 1.4467179317e+000	-1.8028216159e+000
 9.0205258590e-001	 1.4566425549e+000	-1.7790246206e+000
 8.8613272983e-001	 1.4663817039e+000	-1.7542174613e+000
 8.7012898439e-001	 1.4759343416e+000	-1.7283968533e+000
 8.5404456673e-001	 1.4852995032e+000	-1.7015465305e+000
 8.3788270530e-001	 1.4944762969e+000	-1.6736398178e+000
 9.9950548541e-001	 1.3997790223e+000	-1.8965517766e+000
 9.8409591820e-001	 1.4106550848e+000	-1.8777263487e+000
 9.6858310864e-001	 1.4213512424e+000	-1.8579775344e+000
 9.5297017589e-001	 1.4318660934e+000	-1.8373366149e+000
 9.3726026255e-001	 1.4421983074e+000	-1.8158078327e+000
 9.2145653271e-001	 1.4523466258e+000	-1.7933717107e+000
 9.0556216988e-001	 1.4623098624e+000	-1.7699883096e+000
 8.8958037499e-001	 1.4720869032e+000	-1.7456003944e+000
 8.7351436434e-001	 1.4816767070e+000	-1.7201364788e+000
 8.5736736761e-001	 1.4910783053e+000	-1.6935137237e+000
 8.4114262580e-001	 1.5002908027e+000	-1.6656406651e+000
 1.0033791548e+000	 1.4052039861e+000	-1.8864813764e+000
 9.8790986646e-001	 1.4161221998e+000	-1.8670519302e+000
 9.7233693568e-001	 1.4268598113e+000	-1.8470165912e+000
 9.5666349367e-001	 1.4374154134e+000	-1.8263397171e+000
 9.4089269521e-001	 1.4477876708e+000	-1.8049594707e+000
 9.2502771666e-001	 1.4579753199e+000	-1.7827913320e+000
 9.0907175386e-001	 1.4679771699e+000	-1.7597315411e+000
 8.9302802015e-001	 1.4777921024e+000	-1.7356604397e+000
 8.7689974430e-001	 1.4874190723e+000	-1.7104456831e+000
 8.6069016849e-001	 1.4968571074e+000	-1.6839452932e+000
 8.4440254630e-001	 1.5061053086e+000	-1.6560105310e+000
 1.0072528242e+000	 1.4106289500e+000	-1.8752724123e+000
 9.9172381473e-001	 1.4215893148e+000	-1.8553101456e+000
 9.7609076273e-001	 1.4323683801e+000	-1.8350133727e+000
 9.6035681145e-001	 1.4429647335e+000	-1.8142861737e+000
 9.4452512788e-001	 1.4533770342e+000	-1.7930074214e+000
 9.2859890061e-001	 1.4636040140e+000	-1.7710344760e+000
 9.1258133784e-001	 1.4736444774e+000	-1.7482068030e+000
 8.9647566531e-001	 1.4834973017e+000	-1.7243494806e+000
 8.8028512425e-001	 1.4931614377e+000	-1.6992765670e+000
 8.6401296938e-001	 1.5026359094e+000	-1.6727942982e+000
 8.4766246680e-001	 1.5119198145e+000	-1.6447040934e+000
 8.1506326180e-001	 1.4537747557e+000	-1.6881479235e+000
 7.9927175231e-001	 1.4625162902e+000	-1.6612563910e+000
 7.8341123546e-001	 1.4710731202e+000	-1.6402152934e+000
 7.6748487245e-001	 1.4794445913e+000	-1.6229941835e+000
 7.5149582763e-001	 1.4876301193e+000	-1.6075538673e+000
 7.3544726669e-001	 1.4956291903e+000	-1.5918514126e+000
 7.1934235468e-001	 1.5034413604e+000	-1.5738449384e+000
 7.0318425419e-001	 1.5110662548e+000	-1.5514981757e+000
 6.8697612351e-001	 1.5185035681e+000	-1.5227847955e+000
 6.7072111478e-001	 1.5257530632e+000	-1.4856924991e+000
 6.5442237221e-001	 1.5328145713e+000	-1.4416303924e+000
 8.1832318230e-001	 1.4595892615e+000	-1.6901463690e+000
 8.0246851322e-001	 1.4683657587e+000	-1.6636300550e+000
 7.8654456077e-001	 1.4769568125e+000	-1.6426141103e+000
 7.7055449880e-001	 1.4853617660e+000	-1.6251918592e+000
 7.5450150433e-001	 1.4935800328e+000	-1.6094475937e+000
 7.3838875569e-001	 1.5016110969e+000	-1.5934613888e+000
 7.2221943061e-001	 1.5094545124e+000	-1.5753136939e+000
 7.0599670431e-001	 1.5171099033e+000	-1.5530896928e+000
 6.8972374771e-001	 1.5245769628e+000	-1.5248834270e+000
 6.7340372558e-001	 1.5318554529e+000	-1.4888016786e+000
 6.5703979470e-001	 1.5389452042e+000	-1.4450315110e+000
 8.2158310280e-001	 1.4654037674e+000	-1.6908814326e+000
 8.0566527412e-001	 1.4742152272e+000	-1.6646414906e+000
 7.8967788608e-001	 1.4828405048e+000	-1.6435594296e+000
 7.7362412516e-001	 1.4912789408e+000	-1.6258491684e+000
 7.5750718103e-001	 1.4995299463e+000	-1.6097152139e+000
 7.4133024470e-001	 1.5075930034e+000	-1.5933572894e+000
 7.2509650653e-001	 1.5154676645e+000	-1.5749747356e+000
 7.0880915442e-001	 1.5231535518e+000	-1.5527706757e+000
 6.9247137192e-001	 1.5306503575e+000	-1.5249559413e+000
 6.7608633638e-001	 1.5379578427e+000	-1.4897527547e+000
 6.5965721718e-001	 1.5450758371e+000	-1.4464716973e+000
 8.2484302330e-001	 1.4712182733e+000	-1.6902950759e+000
 8.0886203503e-001	 1.4800646956e+000	-1.6642345632e+000
 7.9281121139e-001	 1.4887241971e+000	-1.6429958240e+000
 7.7669375151e-001	 1.4971961155e+000	-1.6249102439e+000
 7.6051285773e-001	 1.5054798598e+000	-1.6082993237e+000
 7.4427173370e-001	 1.5135749100e+000	-1.5914791280e+000
 7.2797358246e-001	 1.5214808165e+000	-1.5727645024e+000
 7.1162160454e-001	 1.5291972003e+000	-1.5504730513e+000
 6.9521899613e-001	 1.5367237522e+000	-1.5229288717e+000
 6.7876894719e-001	 1.5440602324e+000	-1.4884660415e+000
 6.6227463966e-001	 1.5512064700e+000	-1.4458461913e+000
 8.2810294380e-001	 1.4770327792e+000	-1.6883311325e+000
 8.1205879593e-001	 1.4859141641e+000	-1.6623549269e+000
 7.9594453670e-001	 1.4946078894e+000	-1.6408695884e+000
 7.7976337786e-001	 1.5031132903e+000	-1.6223208899e+000
 7.6351853443e-001	 1.5114297734e+000	-1.6051441548e+000
 7.4721322270e-001	 1.5195568165e+000	-1.5877685332e+000
 7.3085065838e-001	 1.5274939686e+000	-1.5686210418e+000
 7.1443405465e-001	 1.5352408488e+000	-1.5461303608e+000
 6.9796662033e-001	 1.5427971469e+000	-1.5187303829e+000
 6.8145155799e-001	 1.5501626222e+000	-1.4848635141e+000
 6.6489206214e-001	 1.5573371029e+000	-1.4430511726e+000
 8.3136286430e-001	 1.4828472851e+000	-1.6849352903e+000
 8.1525555683e-001	 1.4917636325e+000	-1.6589500081e+000
 7.9907786200e-001	 1.5004915817e+000	-1.6371287250e+000
 7.8283300422e-001	 1.5090304650e+000	-1.6180285691e+000
 7.6652421112e-001	 1.5173796869e+000	-1.6001955637e+000
 7.5015471170e-001	 1.5255387231e+000	-1.5821687385e+000
 7.3372773430e-001	 1.5335071206e+000	-1.5624839990e+000
 7.1724650477e-001	 1.5412844974e+000	-1.5396777491e+000
 7.0071424454e-001	 1.5488705417e+000	-1.5122902616e+000
 6.8413416879e-001	 1.5562650119e+000	-1.4788687976e+000
 6.6750948463e-001	 1.5634677358e+000	-1.4379704747e+000
 8.3462278480e-001	 1.4886617910e+000	-1.6800550722e+000
 8.1845231774e-001	 1.4976131010e+000	-1.6539689893e+000
 8.0221118731e-001	 1.5063752740e+000	-1.6317229294e+000
 7.8590263057e-001	 1.5149476398e+000	-1.6119823897e+000
 7.6952988782e-001	 1.5233296004e+000	-1.5934010193e+000
 7.5309620070e-001	 1.5315206296e+000	-1.5746245707e+000
 7.3660481023e-001	 1.5395202726e+000	-1.5542946068e+000
 7.2005895488e-001	 1.5473281459e+000	-1.5310519549e+000
 7.0346186874e-001	 1.5549439364e+000	-1.5035399058e+000
 6.8681677959e-001	 1.5623674017e+000	-1.4704071574e+000
 6.7012690711e-001	 1.5695983687e+000	-1.4303105044e+000
 8.3788270530e-001	 1.4944762969e+000	-1.6736398178e+000
 8.2164907864e-001	 1.5034625694e+000	-1.6473627929e+000
 8.0534451262e-001	 1.5122589662e+000	-1.6246035756e+000
 7.8897225692e-001	 1.5208648145e+000	-1.6041330925e+000
 7.7253556452e-001	 1.5292795140e+000	-1.5847095910e+000
 7.5603768971e-001	 1.5375025362e+000	-1.5650824390e+000
 7.3948188615e-001	 1.5455334247e+000	-1.5439956748e+000
 7.2287140500e-001	 1.5533717944e+000	-1.5201913002e+000
 7.0620949295e-001	 1.5610173311e+000	-1.4924123144e+000
 6.8949939039e-001	 1.5684697914e+000	-1.4594054876e+000
 6.7274432959e-001	 1.5757290016e+000	-1.4199238784e+000
 8.4114262580e-001	 1.5002908027e+000	-1.6656406651e+000
 8.2484583955e-001	 1.5093120379e+000	-1.6390840643e+000
 8.0847783793e-001	 1.5181426585e+000	-1.6157237012e+000
 7.9204188328e-001	 1.5267819893e+000	-1.5944330373e+000
 7.7554124122e-001	 1.5352294275e+000	-1.5740719371e+000
 7.5897917871e-001	 1.5434844427e+000	-1.5534903238e+000
 7.4235896208e-001	 1.5515465767e+000	-1.5315315787e+000
 7.2568385511e-001	 1.5594154429e+000	-1.5070356801e+000
 7.0895711715e-001	 1.5670907259e+000	-1.4788420770e+000
 6.9218200120e-001	 1.5745721812e+000	-1.4457923008e+000
 6.7536175207e-001	 1.5818596345e+000	-1.4067323149e+000
 8.4440254630e-001	 1.5061053086e+000	-1.6560105310e+000
 8.2804260045e-001	 1.5151615064e+000	-1.6290871554e+000
 8.1161116324e-001	 1.5240263508e+000	-1.6050379932e+000
 7.9511150963e-001	 1.5326991640e+000	-1.5828361896e+000
 7.7854691792e-001	 1.5411793410e+000	-1.5614402918e+000
 7.6192066771e-001	 1.5494663493e+000	-1.5397977650e+000
 7.4523603800e-001	 1.5575597288e+000	-1.5168482497e+000
 7.2849630523e-001	 1.5654590914e+000	-1.4915265516e+000
 7.1170474136e-001	 1.5731641206e+000	-1.4627653631e+000
 6.9486461200e-001	 1.5806745709e+000	-1.4294977171e+000
 6.7797917455e-001	 1.5879902674e+000	-1.3906591765e+000
 8.4766246680e-001	 1.5119198145e+000	-1.6447040934e+000
 8.3123936136e-001	 1.5210109748e+000	-1.6173281081e+000
 8.1474448855e-001	 1.5299100431e+000	-1.5925027721e+000
 7.9818113599e-001	 1.5386163388e+000	-1.5692981076e+000
 7.8155259462e-001	 1.5471292545e+000	-1.5467684535e+000
 7.6486215671e-001	 1.5554482558e+000	-1.5239558511e+000
 7.4811311393e-001	 1.5635728808e+000	-1.4998931633e+000
 7.3130875535e-001	 1.5715027399e+000	-1.4736069238e+000
 7.1445236556e-001	 1.5792375153e+000	-1.4441199115e+000
 6.9754722280e-001	 1.5867769606e+000	-1.4104534534e+000
 6.8059659704e-001	 1.5941209003e+000	-1.3716294588e+000
 6.5442237221e-001	 1.5328145713e+000	-1.4416303924e+000
 6.3808057644e-001	 1.5396890085e+000	-1.4020992814e+000
 6.2170129446e-001	 1.5463752677e+000	-1.3705954434e+000
 6.0528763838e-001	 1.5528733820e+000	-1.3452443503e+000
 5.8884270545e-001	 1.5591834502e+000	-1.3243556383e+000
 5.7236957642e-001	 1.5653056354e+000	-1.3064075708e+000
 5.5587131393e-001	 1.5712401651e+000	-1.2900322510e+000
 5.3935096097e-001	 1.5769873296e+000	-1.2740016281e+000
 5.2281153934e-001	 1.5825474817e+000	-1.2572143277e+000
 5.0625604814e-001	 1.5879210350e+000	-1.2386833291e+000
 4.8968746235e-001	 1.5931084637e+000	-1.2175245012e+000
 6.5703979470e-001	 1.5389452042e+000	-1.4450315110e+000
 6.4063263841e-001	 1.5458471363e+000	-1.4056082116e+000
 6.2418784599e-001	 1.5525601378e+000	-1.3745472418e+000
 6.0770854198e-001	 1.5590842420e+000	-1.3499057354e+000
 5.9119783603e-001	 1.5654195478e+000	-1.3299267858e+000
 5.7465882119e-001	 1.5715662193e+000	-1.3130237233e+000
 5.5809457239e-001	 1.5775244847e+000	-1.2977651713e+000
 5.4150814476e-001	 1.5832946355e+000	-1.2828609251e+000
 5.2490257219e-001	 1.5888770259e+000	-1.2671486843e+000
 5.0828086578e-001	 1.5942720712e+000	-1.2495816617e+000
 4.9164601241e-001	 1.5994802475e+000	-1.2292170784e+000
 6.5965721718e-001	 1.5450758371e+000	-1.4464716973e+000
 6.4318470038e-001	 1.5520052641e+000	-1.4070398289e+000
 6.2667439751e-001	 1.5587450080e+000	-1.3762770865e+000
 6.1012944557e-001	 1.5652951020e+000	-1.3521784674e+000
 5.9355296660e-001	 1.5716556455e+000	-1.3329265557e+000
 5.7694806597e-001	 1.5778268032e+000	-1.3168756010e+000
 5.6031783085e-001	 1.5838088043e+000	-1.3025364066e+000
 5.4366532855e-001	 1.5896019415e+000	-1.2885620714e+000
 5.2699360504e-001	 1.5952065702e+000	-1.2737346162e+000
 5.1030568342e-001	 1.6006231075e+000	-1.2569525162e+000
 4.9360456246e-001	 1.6058520314e+000	-1.2372191495e+000
 6.6227463966e-001	 1.5512064700e+000	-1.4458461913e+000
 6.4573676234e-001	 1.5581633920e+000	-1.4062860306e+000
 6.2916094903e-001	 1.5649298781e+000	-1.3756732287e+000
 6.1255034917e-001	 1.5715059619e+000	-1.3519468016e+000
 5.9590809717e-001	 1.5778917431e+000	-1.3332348087e+000
 5.7923731075e-001	 1.5840873871e+000	-1.3178382205e+000
 5.6254108931e-001	 1.5900931239e+000	-1.3042156280e+000
 5.4582251234e-001	 1.5959092474e+000	-1.2909688376e+000
 5.2908463789e-001	 1.6015361144e+000	-1.2768293830e+000
 5.1233050106e-001	 1.6069741438e+000	-1.2606459737e+000
 4.9556311252e-001	 1.6122238153e+000	-1.2413728909e+000
 6.6489206214e-001	 1.5573371029e+000	-1.4430511726e+000
 6.4828882431e-001	 1.5643215198e+000	-1.4032395875e+000
 6.3164750055e-001	 1.5711147483e+000	-1.3726247398e+000
 6.1497125276e-001	 1.5777168219e+000	-1.3490957737e+000
 5.9826322774e-001	 1.5841278408e+000	-1.3307321611e+000
 5.8152655553e-001	 1.5903479710e+000	-1.3157873459e+000
 5.6476434777e-001	 1.5963774435e+000	-1.3026732638e+000
 5.4797969613e-001	 1.6022165533e+000	-1.2899457801e+000
 5.3117567074e-001	 1.6078656587e+000	-1.2762910788e+000
 5.1435531870e-001	 1.6133251801e+000	-1.2605130196e+000
 4.9752166258e-001	 1.6185955991e+000	-1.2415214755e+000
 6.6750948463e-001	 1.5634677358e+000	-1.4379704747e+000
 6.5084088628e-001	 1.5704796477e+000	-1.3977941851e+000
 6.3413405207e-001	 1.5772996184e+000	-1.3670215484e+000
 6.1739215636e-001	 1.5839276818e+000	-1.3435112326e+000
 6.0061835831e-001	 1.5903639384e+000	-1.3253000134e+000
 5.8381580030e-001	 1.5966085549e+000	-1.3105995131e+000
 5.6698760622e-001	 1.6026617631e+000	-1.2977805191e+000
 5.5013687991e-001	 1.6085238592e+000	-1.2853582561e+000
 5.3326670359e-001	 1.6141952029e+000	-1.2719786420e+000
 5.1638013634e-001	 1.6196762163e+000	-1.2564055483e+000
 4.9948021263e-001	 1.6249673830e+000	-1.2375090723e+000
 6.7012690711e-001	 1.5695983687e+000	-1.4303105044e+000
 6.5339294824e-001	 1.5766377755e+000	-1.3898444644e+000
 6.3662060359e-001	 1.5834844886e+000	-1.3587544768e+000
 6.1981305995e-001	 1.5901385418e+000	-1.3350798730e+000
 6.0297348889e-001	 1.5966000361e+000	-1.3168205789e+000
 5.8610504508e-001	 1.6028691388e+000	-1.3021520535e+000
 5.6921086468e-001	 1.6089460827e+000	-1.2894093953e+000
 5.5229406370e-001	 1.6148311651e+000	-1.2770724378e+000
 5.3535773644e-001	 1.6205247472e+000	-1.2637518654e+000
 5.1840495398e-001	 1.6260272526e+000	-1.2481763688e+000
 5.0143876269e-001	 1.6313391669e+000	-1.2291808463e+000
 6.7274432959e-001	 1.5757290016e+000	-1.4199238784e+000
 6.5594501021e-001	 1.5827959034e+000	-1.3792860628e+000
 6.3910715512e-001	 1.5896693587e+000	-1.3477152781e+000
 6.2223396355e-001	 1.5963494017e+000	-1.3236892679e+000
 6.0532861946e-001	 1.6028361337e+000	-1.3051769118e+000
 5.8839428986e-001	 1.6091297227e+000	-1.2903231187e+000
 5.7143412314e-001	 1.6152304023e+000	-1.2774327099e+000
 5.5445124749e-001	 1.6211384710e+000	-1.2649553286e+000
 5.3744876929e-001	 1.6268542914e+000	-1.2514714071e+000
 5.2042977162e-001	 1.6323782889e+000	-1.2356792099e+000
 5.0339731275e-001	 1.6377109508e+000	-1.2163829587e+000
 6.7536175207e-001	 1.5818596345e+000	-1.4067323149e+000
 6.5849707218e-001	 1.5889540312e+000	-1.3660156550e+000
 6.4159370664e-001	 1.5958542289e+000	-1.3337966731e+000
 6.2465486714e-001	 1.6025602617e+000	-1.3092279020e+000
 6.0768375003e-001	 1.6090722314e+000	-1.2902529365e+000
 5.9068353464e-001	 1.6153903066e+000	-1.2749917047e+000
 5.7365738160e-001	 1.6215147219e+000	-1.2617241166e+000
 5.5660843128e-001	 1.6274457769e+000	-1.2488747781e+000
 5.3953980214e-001	 1.6331838357e+000	-1.2349988009e+000
 5.2245458926e-001	 1.6387293251e+000	-1.2187687263e+000
 5.0535586280e-001	 1.6440827346e+000	-1.1989625685e+000
 6.7797917455e-001	 1.5879902674e+000	-1.3906591765e+000
 6.6104913414e-001	 1.5951121590e+000	-1.3499309940e+000
 6.4408025816e-001	 1.6020390990e+000	-1.3168923873e+000
 6.2707577074e-001	 1.6087711217e+000	-1.2915852044e+000
 6.1003888060e-001	 1.6153083291e+000	-1.2719334763e+000
 5.9297277941e-001	 1.6216508905e+000	-1.2560376766e+000
 5.7588064006e-001	 1.6277990415e+000	-1.2421581256e+000
 5.5876561506e-001	 1.6337530828e+000	-1.2286994981e+000
 5.4163083499e-001	 1.6395133799e+000	-1.2141964679e+000
 5.2447940690e-001	 1.6450803614e+000	-1.1973005056e+000
 5.0731441286e-001	 1.6504545185e+000	-1.1767678336e+000
 6.8059659704e-001	 1.5941209003e+000	-1.3716294588e+000
 6.6360119611e-001	 1.6012702869e+000	-1.3309309523e+000
 6.4656680968e-001	 1.6082239692e+000	-1.2968971878e+000
 6.2949667433e-001	 1.6149819816e+000	-1.2706515816e+000
 6.1239401118e-001	 1.6215444267e+000	-1.2501042818e+000
 5.9526202419e-001	 1.6279114744e+000	-1.2333417934e+000
 5.7810389852e-001	 1.6340833611e+000	-1.2186101242e+000
 5.6092279885e-001	 1.6400603887e+000	-1.2042990787e+000
 5.4372186784e-001	 1.6458429242e+000	-1.1889277279e+000
 5.2650422454e-001	 1.6514313977e+000	-1.1711310741e+000
 5.0927296292e-001	 1.6568263024e+000	-1.1496479132e+000
 4.8968746235e-001	 1.5931084637e+000	-1.2175245012e+000
 4.7310873118e-001	 1.5981103007e+000	-1.1950840673e+000
 4.5652277604e-001	 1.6029271355e+000	-1.1733082565e+000
 4.3993248993e-001	 1.6075596142e+000	-1.1523373282e+000
 4.2334073646e-001	 1.6120084391e+000	-1.1323759650e+000
 4.0675034859e-001	 1.6162743670e+000	-1.1136850376e+000
 3.9016412748e-001	 1.6203582086e+000	-1.0965741459e+000
 3.7358484130e-001	 1.6242608269e+000	-1.0813949010e+000
 3.5701522422e-001	 1.6279831361e+000	-1.0685349021e+000
 3.4045797529e-001	 1.6315261004e+000	-1.0584123637e+000
 3.2391575750e-001	 1.6348907326e+000	-1.0514713405e+000
 4.9164601241e-001	 1.5994802475e+000	-1.2292170784e+000
 4.7500097308e-001	 1.6045020898e+000	-1.2073978369e+000
 4.5834868088e-001	 1.6093381900e+000	-1.1861250601e+000
 4.4169204040e-001	 1.6139891968e+000	-1.1655669638e+000
 4.2503392668e-001	 1.6184558151e+000	-1.1459541109e+000
 4.0837718403e-001	 1.6227388050e+000	-1.1275711810e+000
 3.9172462480e-001	 1.6268389803e+000	-1.1107495450e+000
 3.7507902825e-001	 1.6307572075e+000	-1.0958606040e+000
 3.5844313945e-001	 1.6344944044e+000	-1.0833098484e+000
 3.4181966828e-001	 1.6380515391e+000	-1.0735315868e+000
 3.2521128837e-001	 1.6414296285e+000	-1.0669842922e+000
 4.9360456246e-001	 1.6058520314e+000	-1.2372191495e+000
 4.7689321498e-001	 1.6108938790e+000	-1.2158684910e+000
 4.6017458572e-001	 1.6157492446e+000	-1.1949477413e+000
 4.4345159086e-001	 1.6204187794e+000	-1.1746529775e+000
 4.2672711690e-001	 1.6249031912e+000	-1.1552406608e+000
 4.1000401947e-001	 1.6292032431e+000	-1.1370194099e+000
 3.9328512212e-001	 1.6333197521e+000	-1.1203426076e+000
 3.7657321519e-001	 1.6372535881e+000	-1.1056017974e+000
 3.5987105469e-001	 1.6410056728e+000	-1.0932208235e+000
 3.4318136128e-001	 1.6445769779e+000	-1.0836506623e+000
 3.2650681924e-001	 1.6479685244e+000	-1.0773648903e+000
 4.9556311252e-001	 1.6122238153e+000	-1.2413728909e+000
 4.7878545687e-001	 1.6172856682e+000	-1.2203309427e+000
 4.6200049057e-001	 1.6221602991e+000	-1.1996059881e+000
 4.4521114133e-001	 1.6268483619e+000	-1.1794218530e+000
 4.2842030713e-001	 1.6313505672e+000	-1.1600608933e+000
 4.1163085491e-001	 1.6356676811e+000	-1.1418557712e+000
 3.9484561945e-001	 1.6398005238e+000	-1.1251820934e+000
 3.7806740213e-001	 1.6437499687e+000	-1.1104518650e+000
 3.6129896992e-001	 1.6475169411e+000	-1.0981077101e+000
 3.4454305427e-001	 1.6511024166e+000	-1.0886178071e+000
 3.2780235012e-001	 1.6545074203e+000	-1.0824714787e+000
 4.9752166258e-001	 1.6185955991e+000	-1.2415214755e+000
 4.8067769877e-001	 1.6236774574e+000	-1.2206211943e+000
 4.6382639541e-001	 1.6285713536e+000	-1.1999306494e+000
 4.4697069180e-001	 1.6332779445e+000	-1.1797012853e+000
 4.3011349735e-001	 1.6377979433e+000	-1.1602413271e+000
 4.1325769035e-001	 1.6421321191e+000	-1.1419075601e+000
 3.9640611677e-001	 1.6462812955e+000	-1.1250979975e+000
 3.7956158907e-001	 1.6502463493e+000	-1.1102453919e+000
 3.6272688516e-001	 1.6540282094e+000	-1.0978115377e+000
 3.4590474727e-001	 1.6576278554e+000	-1.0882823095e+000
 3.2909788099e-001	 1.6610463162e+000	-1.0821633762e+000
 4.9948021263e-001	 1.6249673830e+000	-1.2375090723e+000
 4.8256994067e-001	 1.6300692465e+000	-1.2165763320e+000
 4.6565230025e-001	 1.6349824082e+000	-1.1957537248e+000
 4.4873024227e-001	 1.6397075271e+000	-1.1753201661e+000
 4.3180668757e-001	 1.6442453194e+000	-1.1556097042e+000
 4.1488452580e-001	 1.6485965572e+000	-1.1370033007e+000
 3.9796661409e-001	 1.6527620673e+000	-1.1199215290e+000
 3.8105577602e-001	 1.6567427299e+000	-1.1048181425e+000
 3.6415480039e-001	 1.6605394777e+000	-1.0921744598e+000
 3.4726644026e-001	 1.6641532941e+000	-1.0824945066e+000
 3.3039341186e-001	 1.6675852121e+000	-1.0763008551e+000
 5.0143876269e-001	 1.6313391669e+000	-1.2291808463e+000
 4.8446218256e-001	 1.6364610357e+000	-1.2080345205e+000
 4.6747820510e-001	 1.6413934627e+000	-1.1869083552e+000
 4.5048979273e-001	 1.6461371097e+000	-1.1661085717e+000
 4.3349987780e-001	 1.6506926954e+000	-1.1459949736e+000
 4.1651136124e-001	 1.6550609952e+000	-1.1269727274e+000
 3.9952711142e-001	 1.6592428390e+000	-1.1094850907e+000
 3.8254996296e-001	 1.6632391106e+000	-1.0940070390e+000
 3.6558271563e-001	 1.6670507461e+000	-1.0810397320e+000
 3.4862813326e-001	 1.6706787328e+000	-1.0711057624e+000
 3.3168894273e-001	 1.6741241080e+000	-1.0647451198e+000
 5.0339731275e-001	 1.6377109508e+000	-1.2163829587e+000
 4.8635442446e-001	 1.6428528249e+000	-1.1948349992e+000
 4.6930410994e-001	 1.6478045173e+000	-1.1732288146e+000
 4.5224934320e-001	 1.6525666922e+000	-1.1518977505e+000
 4.3519306802e-001	 1.6571400715e+000	-1.1312272765e+000
 4.1813819668e-001	 1.6615254332e+000	-1.1116467672e+000
 4.0108760874e-001	 1.6657236107e+000	-1.0936222603e+000
 3.8404414990e-001	 1.6697354912e+000	-1.0776501407e+000
 3.6701063086e-001	 1.6735620144e+000	-1.0642516911e+000
 3.4998982625e-001	 1.6772041716e+000	-1.0539684465e+000
 3.3298447361e-001	 1.6806630039e+000	-1.0473582860e+000
 5.0535586280e-001	 1.6440827346e+000	-1.1989625685e+000
 4.8824666635e-001	 1.6492446141e+000	-1.1768180780e+000
 4.7113001478e-001	 1.6542155718e+000	-1.1545505019e+000
 4.5400889367e-001	 1.6589962748e+000	-1.1325201111e+000
 4.3688625824e-001	 1.6635874475e+000	-1.1111379314e+000
 4.1976503212e-001	 1.6679898712e+000	-1.0908575233e+000
 4.0264810606e-001	 1.6722043824e+000	-1.0721677711e+000
 3.8553833685e-001	 1.6762318718e+000	-1.0555866244e+000
 3.6843854610e-001	 1.6800732827e+000	-1.0416557339e+000
 3.5135151924e-001	 1.6837296103e+000	-1.0309359137e+000
 3.3428000448e-001	 1.6872018998e+000	-1.0240033611e+000
 5.0731441286e-001	 1.6504545185e+000	-1.1767678336e+000
 4.9013890825e-001	 1.6556364033e+000	-1.1538251341e+000
 4.7295591963e-001	 1.6606266264e+000	-1.1307099333e+000
 4.5576844414e-001	 1.6654258574e+000	-1.1078092118e+000
 4.3857944847e-001	 1.6700348236e+000	-1.0855594202e+000
 4.2139186756e-001	 1.6744543093e+000	-1.0644382583e+000
 4.0420860339e-001	 1.6786851542e+000	-1.0449574940e+000
 3.8703252379e-001	 1.6827282524e+000	-1.0276567648e+000
 3.6986646133e-001	 1.6865845511e+000	-1.0130982983e+000
 3.5271321224e-001	 1.6902550491e+000	-1.0018624841e+000
 3.3557553535e-001	 1.6937407957e+000	-9.9454422486e-001
 5.0927296292e-001	 1.6568263024e+000	-1.1496479132e+000
 4.9203115015e-001	 1.6620281924e+000	-1.1256986096e+000
 4.7478182447e-001	 1.6670376810e+000	-1.1015447359e+000
 4.5752799460e-001	 1.6718554400e+000	-1.0775997501e+000
 4.4027263869e-001	 1.6764821997e+000	-1.0543253754e+000
 4.2301870300e-001	 1.6809187473e+000	-1.0322233788e+000
 4.0576910071e-001	 1.6851659259e+000	-1.0118284208e+000
 3.8852671073e-001	 1.6892246330e+000	-9.9370191661e-001
 3.7129437657e-001	 1.6930958194e+000	-9.7842684357e-001
 3.5407490523e-001	 1.6967804878e+000	-9.6660342429e-001
 3.3687106623e-001	 1.7002796916e+000	-9.5884561038e-001
 3.2391575750e-001	 1.6348907326e+000	-1.0514713405e+000
 3.0739367329e-001	 1.6380776285e+000	-1.0465183187e+000
 2.9089182401e-001	 1.6410884130e+000	-1.0419712002e+000
 2.7441275411e-001	 1.6439242380e+000	-1.0377205175e+000
 2.5795896856e-001	 1.6465862990e+000	-1.0336689814e+000
 2.4153293213e-001	 1.6490758334e+000	-1.0297299038e+000
 2.2513706867e-001	 1.6513941191e+000	-1.0258258576e+000
 2.0877376045e-001	 1.6535424738e+000	-1.0218875167e+000
 1.9244534752e-001	 1.6555222527e+000	-1.0178526221e+000
 1.7615412720e-001	 1.6573348479e+000	-1.0136650213e+000
 1.5990235352e-001	 1.6589816868e+000	-1.0092737316e+000
 3.2521128837e-001	 1.6414296285e+000	-1.0669842922e+000
 3.0862312257e-001	 1.6446292707e+000	-1.0624386462e+000
 2.9205527262e-001	 1.6476520971e+000	-1.0582631451e+000
 2.7551029316e-001	 1.6504992643e+000	-1.0543419345e+000
 2.5899069919e-001	 1.6531719724e+000	-1.0505727433e+000
 2.4249896532e-001	 1.6556714639e+000	-1.0468654610e+000
 2.2603752509e-001	 1.6579990218e+000	-1.0431409543e+000
 2.0960877031e-001	 1.6601559690e+000	-1.0393300626e+000
 1.9321505039e-001	 1.6621436663e+000	-1.0353727192e+000
 1.7685867184e-001	 1.6639635111e+000	-1.0312171395e+000
 1.6054189769e-001	 1.6656169367e+000	-1.0268190294e+000
 3.2650681924e-001	 1.6479685244e+000	-1.0773648903e+000
 3.0985257185e-001	 1.6511809129e+000	-1.0731085859e+000
 2.9321872124e-001	 1.6542157812e+000	-1.0692108095e+000
 2.7660783222e-001	 1.6570742905e+000	-1.0655494583e+000
 2.6002242981e-001	 1.6597576458e+000	-1.0620169727e+000
 2.4346499850e-001	 1.6622670944e+000	-1.0585190854e+000
 2.2693798151e-001	 1.6646039246e+000	-1.0549738103e+000
 2.1044378017e-001	 1.6667694643e+000	-1.0513106127e+000
 1.9398475326e-001	 1.6687650798e+000	-1.0474697010e+000
 1.7756321647e-001	 1.6705921743e+000	-1.0434013839e+000
 1.6118144187e-001	 1.6722521865e+000	-1.0390654401e+000
 3.2780235012e-001	 1.6545074203e+000	-1.0824714787e+000
 3.1108202112e-001	 1.6577325550e+000	-1.0783954724e+000
 2.9438216985e-001	 1.6607794652e+000	-1.0746864692e+000
 2.7770537128e-001	 1.6636493167e+000	-1.0712162291e+000
 2.6105416044e-001	 1.6663433192e+000	-1.0678715734e+000
 2.4443103168e-001	 1.6688627249e+000	-1.0645533207e+000
 2.2783843793e-001	 1.6712088273e+000	-1.0611754663e+000
 2.1127879003e-001	 1.6733829595e+000	-1.0576645436e+000
 1.9475445613e-001	 1.6753864934e+000	-1.0539591047e+000
 1.7826776111e-001	 1.6772208375e+000	-1.0500092641e+000
 1.6182098604e-001	 1.6788874364e+000	-1.0457762488e+000
 3.2909788099e-001	 1.6610463162e+000	-1.0821633762e+000
 3.1231147040e-001	 1.6642841972e+000	-1.0781675441e+000
 2.9554561846e-001	 1.6673431493e+000	-1.0745633018e+000
 2.7880291033e-001	 1.6702243430e+000	-1.0712163569e+000
 2.6208589107e-001	 1.6729289926e+000	-1.0680075555e+000
 2.4539706486e-001	 1.6754583554e+000	-1.0648320224e+000
 2.2873889435e-001	 1.6778137300e+000	-1.0615985478e+000
 2.1211379989e-001	 1.6799964548e+000	-1.0582291571e+000
 1.9552415901e-001	 1.6820079069e+000	-1.0546587993e+000
 1.7897230575e-001	 1.6838495007e+000	-1.0508350942e+000
 1.6246053022e-001	 1.6855226863e+000	-1.0467180819e+000
 3.3039341186e-001	 1.6675852121e+000	-1.0763008551e+000
 3.1354091968e-001	 1.6708358394e+000	-1.0722939216e+000
 2.9670906707e-001	 1.6739068334e+000	-1.0687153649e+000
 2.7990044939e-001	 1.6767993692e+000	-1.0654248973e+000
 2.6311762169e-001	 1.6795146660e+000	-1.0622970084e+000
 2.4636309805e-001	 1.6820539859e+000	-1.0592203260e+000
 2.2963935077e-001	 1.6844186327e+000	-1.0560972275e+000
 2.1294880976e-001	 1.6866099500e+000	-1.0528436360e+000
 1.9629386188e-001	 1.6886293205e+000	-1.0493889335e+000
 1.7967685039e-001	 1.6904781639e+000	-1.0456759314e+000
 1.6310007439e-001	 1.6921579362e+000	-1.0416608364e+000
 3.3168894273e-001	 1.6741241080e+000	-1.0647451198e+000
 3.1477036895e-001	 1.6773874816e+000	-1.0606445868e+000
 2.9787251569e-001	 1.6804705175e+000	-1.0570175741e+000
 2.8099798844e-001	 1.6833743954e+000	-1.0537178279e+000
 2.6414935232e-001	 1.6861003394e+000	-1.0506130739e+000
 2.4732913123e-001	 1.6886496164e+000	-1.0475846159e+000
 2.3053980719e-001	 1.6910235354e+000	-1.0445271894e+000
 2.1378381962e-001	 1.6932234453e+000	-1.0413490010e+000
 1.9706356475e-001	 1.6952507340e+000	-1.0379718854e+000
 1.8038139503e-001	 1.6971068271e+000	-1.0343315168e+000
 1.6373961856e-001	 1.6987931861e+000	-1.0303776104e+000
 3.3298447361e-001	 1.6806630039e+000	-1.0473582860e+000
 3.1599981823e-001	 1.6839391238e+000	-1.0430903628e+000
 2.9903596430e-001	 1.6870342016e+000	-1.0393456821e+000
 2.8209552750e-001	 1.6899494217e+000	-1.0359720250e+000
 2.6518108295e-001	 1.6926860128e+000	-1.0328299199e+000
 2.4829516441e-001	 1.6952452469e+000	-1.0297924954e+000
 2.3144026360e-001	 1.6976284381e+000	-1.0267455931e+000
 2.1461882948e-001	 1.6998369405e+000	-1.0235880691e+000
 1.9783326762e-001	 1.7018721476e+000	-1.0202322129e+000
 1.8108593966e-001	 1.7037354903e+000	-1.0166042171e+000
 1.6437916274e-001	 1.7054284360e+000	-1.0126446348e+000
 3.3428000448e-001	 1.6872018998e+000	-1.0240033611e+000
 3.1722926751e-001	 1.6904907659e+000	-1.0195028942e+000
 3.0019941291e-001	 1.6935978857e+000	-1.0155762582e+000
 2.8319306656e-001	 1.6965244479e+000	-1.0120652419e+000
 2.6621281357e-001	 1.6992716862e+000	-1.0088227158e+000
 2.4926119760e-001	 1.7018408775e+000	-1.0057127571e+000
 2.3234072002e-001	 1.7042333408e+000	-1.0026110391e+000
 2.1545383934e-001	 1.7064504358e+000	-9.9940541281e-001
 1.9860297050e-001	 1.7084935612e+000	-9.9599660535e-001
 1.8179048430e-001	 1.7103641535e+000	-9.9229896827e-001
 1.6501870691e-001	 1.7120636858e+000	-9.8824120749e-001
 3.3557553535e-001	 1.6937407957e+000	-9.9454422486e-001
 3.1845871678e-001	 1.6970424081e+000	-9.8975462789e-001
 3.0136286152e-001	 1.7001615698e+000	-9.8558666853e-001
 2.8429060561e-001	 1.7030994741e+000	-9.8187608651e-001
 2.6724454420e-001	 1.7058573595e+000	-9.7846760716e-001
 2.5022723078e-001	 1.7084365080e+000	-9.7521535441e-001
 2.3324117644e-001	 1.7108382435e+000	-9.7198353553e-001
 2.1628884920e-001	 1.7130639310e+000	-9.6864731994e-001
 1.9937267337e-001	 1.7151149747e+000	-9.6509383689e-001
 1.8249502894e-001	 1.7169928167e+000	-9.6122321980e-001
 1.6565825109e-001	 1.7186989357e+000	-9.5694962866e-001
 3.3687106623e-001	 1.7002796916e+000	-9.5884561038e-001
 3.1968816606e-001	 1.7035940503e+000	-9.5371879491e-001
 3.0252631014e-001	 1.7067252539e+000	-9.4925505677e-001
 2.8538814467e-001	 1.7096745004e+000	-9.4528400102e-001
 2.6827627483e-001	 1.7124430329e+000	-9.4164169230e-001
 2.5119326396e-001	 1.7150321385e+000	-9.3817137388e-001
 2.3414163286e-001	 1.7174431462e+000	-9.3472446485e-001
 2.1712385907e-001	 1.7196774263e+000	-9.3116175514e-001
 2.0014237624e-001	 1.7217363883e+000	-9.2735472024e-001
 1.8319957358e-001	 1.7236214799e+000	-9.2318688106e-001
 1.6629779526e-001	 1.7253341856e+000	-9.1855513753e-001
 1.5990235352e-001	 1.6589816868e+000	-1.0092737316e+000
 1.4368981387e-001	 1.6604644406e+000	-1.0044937342e+000
 1.2752114421e-001	 1.6617843445e+000	-9.9966593474e-001
 1.1139849959e-001	 1.6629429244e+000	-9.9551373514e-001
 9.5323989124e-002	 1.6639417359e+000	-9.9273780381e-001
 7.9299675675e-002	 1.6647823632e+000	-9.9201385986e-001
 6.3327575639e-002	 1.6654664174e+000	-9.9399031710e-001
 4.7409658713e-002	 1.6659955356e+000	-9.9928576281e-001
 3.1547847738e-002	 1.6663713789e+000	-1.0084862504e+000
 1.5744018570e-002	 1.6665956317e+000	-1.0221423898e+000
 0.0000000000e+000	 1.6666700000e+000	-1.0407662221e+000
 1.6054189769e-001	 1.6656169367e+000	-1.0268190294e+000
 1.4426451450e-001	 1.6671056209e+000	-1.0219457062e+000
 1.2803117676e-001	 1.6684308038e+000	-1.0169248580e+000
 1.1184404814e-001	 1.6695940176e+000	-1.0125378579e+000
 9.5705246189e-002	 1.6705968239e+000	-1.0095405542e+000
 7.9616842025e-002	 1.6714408134e+000	-1.0086612248e+000
 6.3580860105e-002	 1.6721276036e+000	-1.0105983840e+000
 4.7599278006e-002	 1.6726588380e+000	-1.0160184155e+000
 3.1674026258e-002	 1.6730361845e+000	-1.0255530098e+000
 1.5806988221e-002	 1.6732613342e+000	-1.0397963881e+000
 0.0000000000e+000	 1.6733360000e+000	-1.0593022994e+000
 1.6118144187e-001	 1.6722521865e+000	-1.0390654401e+000
 1.4483921513e-001	 1.6737468012e+000	-1.0341561812e+000
 1.2854120931e-001	 1.6750772632e+000	-1.0289515399e+000
 1.1228959669e-001	 1.6762451108e+000	-1.0242730326e+000
 9.6086503254e-002	 1.6772519120e+000	-1.0209162231e+000
 7.9934008375e-002	 1.6780992636e+000	-1.0196488163e+000
 6.3834144572e-002	 1.6787887898e+000	-1.0212085936e+000
 4.7788897299e-002	 1.6793221404e+000	-1.0263011629e+000
 3.1800204778e-002	 1.6797009901e+000	-1.0355975008e+000
 1.5869957872e-002	 1.6799270368e+000	-1.0497312685e+000
 0.0000000000e+000	 1.6800020000e+000	-1.0692958867e+000
 1.6182098604e-001	 1.6788874364e+000	-1.0457762488e+000
 1.4541391576e-001	 1.6803879814e+000	-1.0408688273e+000
 1.2905124186e-001	 1.6817237226e+000	-1.0354915324e+000
 1.1273514524e-001	 1.6828962040e+000	-1.0304882915e+000
 9.6467760320e-002	 1.6839070001e+000	-1.0266789989e+000
 8.0251174725e-002	 1.6847577138e+000	-1.0248577168e+000
 6.4087429038e-002	 1.6854499759e+000	-1.0257907052e+000
 4.7978516592e-002	 1.6859854428e+000	-1.0302142527e+000
 3.1926383299e-002	 1.6863657958e+000	-1.0388322845e+000
 1.5932927524e-002	 1.6865927393e+000	-1.0523137285e+000
 0.0000000000e+000	 1.6866680000e+000	-1.0712896234e+000
 1.6246053022e-001	 1.6855226863e+000	-1.0467180819e+000
 1.4598861639e-001	 1.6870291617e+000	-1.0418310538e+000
 1.2956127441e-001	 1.6883701820e+000	-1.0362941862e+000
 1.1318069379e-001	 1.6895472972e+000	-1.0309561798e+000
 9.6849017386e-002	 1.6905620881e+000	-1.0266459506e+000
 8.0568341075e-002	 1.6914161641e+000	-1.0241709080e+000
 6.4340713505e-002	 1.6921111621e+000	-1.0243150458e+000
 4.8168135886e-002	 1.6926487452e+000	-1.0278368179e+000
 3.2052561820e-002	 1.6930306014e+000	-1.0354667725e+000
 1.5995897176e-002	 1.6932584419e+000	-1.0479049274e+000
 0.0000000000e+000	 1.6933340000e+000	-1.0658178692e+000
 1.6310007439e-001	 1.6921579362e+000	-1.0416608364e+000
 1.4656331703e-001	 1.6936703420e+000	-1.0367939328e+000
 1.3007130696e-001	 1.6950166413e+000	-1.0311125723e+000
 1.1362624234e-001	 1.6961983904e+000	-1.0254526824e+000
 9.7230274452e-002	 1.6972171762e+000	-1.0206369669e+000
 8.0885507425e-002	 1.6980746143e+000	-1.0174732303e+000
 6.4593997972e-002	 1.6987723482e+000	-1.0167524975e+000
 4.8357755180e-002	 1.6993120476e+000	-1.0192468975e+000
 3.2178740341e-002	 1.6996954070e+000	-1.0257072874e+000
 1.6058866827e-002	 1.6999241444e+000	-1.0368605950e+000
 0.0000000000e+000	 1.7000000000e+000	-1.0534068655e+000
 1.6373961856e-001	 1.6987931861e+000	-1.0303776104e+000
 1.4713801766e-001	 1.7003115223e+000	-1.0255121222e+000
 1.3058133951e-001	 1.7016631007e+000	-1.0197034040e+000
 1.1407179089e-001	 1.7028494837e+000	-1.0137571528e+000
 9.7611531517e-002	 1.7038722642e+000	-1.0084746981e+000
 8.1202673775e-002	 1.7047330645e+000	-1.0046513438e+000
 6.4847282439e-002	 1.7054335344e+000	-1.0030744830e+000
 4.8547374473e-002	 1.7059753500e+000	-1.0045214556e+000
 3.2304918862e-002	 1.7063602127e+000	-1.0097571224e+000
 1.6121836479e-002	 1.7065898470e+000	-1.0195311367e+000
 0.0000000000e+000	 1.7066660000e+000	-1.0345748947e+000
 1.6437916274e-001	 1.7054284360e+000	-1.0126446348e+000
 1.4771271829e-001	 1.7069527026e+000	-1.0077437909e+000
 1.3109137206e-001	 1.7083095601e+000	-1.0018269617e+000
 1.1451733944e-001	 1.7095005769e+000	-9.9565224298e-001
 9.7992788583e-002	 1.7105273523e+000	-9.8998449841e-001
 8.1519840125e-002	 1.7113915147e+000	-9.8559368948e-001
 6.5100566905e-002	 1.7120947205e+000	-9.8325295364e-001
 4.8736993767e-002	 1.7126386525e+000	-9.8373640024e-001
 3.2431097383e-002	 1.7130250183e+000	-9.8781659846e-001
 1.6184806131e-002	 1.7132555495e+000	-9.9626173644e-001
 0.0000000000e+000	 1.7133320000e+000	-1.0098324350e+000
 1.6501870691e-001	 1.7120636858e+000	-9.8824120749e-001
 1.4828741892e-001	 1.7135938829e+000	-9.8325054542e-001
 1.3160140461e-001	 1.7149560194e+000	-9.7724701880e-001
 1.1496288799e-001	 1.7161516701e+000	-9.7092383540e-001
 9.8374045649e-002	 1.7171824403e+000	-9.6499436984e-001
 8.1837006475e-002	 1.7180499649e+000	-9.6019045187e-001
 6.5353851372e-002	 1.7187559067e+000	-9.5726037623e-001
 4.8926613060e-002	 1.7193019549e+000	-9.5696660279e-001
 3.2557275904e-002	 1.7196898239e+000	-9.6008312096e-001
 1.6247775782e-002	 1.7199212521e+000	-9.6739245752e-001
 0.0000000000e+000	 1.7199980000e+000	-9.7968231105e-001
 1.6565825109e-001	 1.7186989357e+000	-9.5694962866e-001
 1.4886211955e-001	 1.7202350632e+000	-9.5179735881e-001
 1.3211143715e-001	 1.7216024788e+000	-9.4573076965e-001
 1.1540843653e-001	 1.7228027633e+000	-9.3936097659e-001
 9.8755302714e-002	 1.7238375284e+000	-9.3333490771e-001
 8.2154172825e-002	 1.7247084152e+000	-9.2833352223e-001
 6.5607135838e-002	 1.7254170929e+000	-9.2506972074e-001
 4.9116232353e-002	 1.7259652573e+000	-9.2428591553e-001
 3.2683454424e-002	 1.7263546296e+000	-9.2675123490e-001
 1.6310745433e-002	 1.7265869546e+000	-9.3325834071e-001
 0.0000000000e+000	 1.7266640000e+000	-9.4461984234e-001
 1.6629779526e-001	 1.7253341856e+000	-9.1855513753e-001
 1.4943682018e-001	 1.7268762435e+000	-9.1315250048e-001
 1.3262146970e-001	 1.7282489382e+000	-9.0704875929e-001
 1.1585398508e-001	 1.7294538565e+000	-9.0075581209e-001
 9.9136559780e-002	 1.7304926164e+000	-8.9483924701e-001
 8.2471339175e-002	 1.7313668654e+000	-8.8991646278e-001
 6.5860420304e-002	 1.7320782790e+000	-8.8665444831e-001
 4.9305851646e-002	 1.7326285597e+000	-8.8576718976e-001
 3.2809632944e-002	 1.7330194352e+000	-8.8801267859e-001
 1.6373715085e-002	 1.7332526572e+000	-8.9418950031e-001
 0.0000000000e+000	 1.7333300000e+000	-9.0513298714e-001
 1.7333300000e+000	 0.0000000000e+000	 3.0506559450e+000
 1.7332526572e+000	 1.6373715085e-002	 3.0553397025e+000
 1.7330194352e+000	 3.2809632944e-002	 3.0556314618e+000
 1.7326285597e+000	 4.9305851646e-002	 3.0520804533e+000
 1.7320782790e+000	 6.5860420304e-002	 3.0452312150e+000
 1.7313668654e+000	 8.2471339175e-002	 3.0356226230e+000
 1.7304926164e+000	 9.9136559780e-002	 3.0237865531e+000
 1.7294538565e+000	 1.1585398508e-001	 3.0102461939e+000
 1.7282489382e+000	 1.3262146970e-001	 2.9955140345e+000
 1.7268762435e+000	 1.4943682018e-001	 2.9800895554e+000
 1.7253341856e+000	 1.6629779526e-001	 2.9644566561e+000
 1.7399970000e+000	 0.0000000000e+000	 2.9992327993e+000
 1.7399193597e+000	 1.6436694182e-002	 3.0047827623e+000
 1.7396852407e+000	 3.2935830393e-002	 3.0057646197e+000
 1.7392928617e+000	 4.9495499384e-002	 3.0027616533e+000
 1.7387404645e+000	 6.6113742766e-002	 2.9963550505e+000
 1.7380263145e+000	 8.2788553104e-002	 2.9871228095e+000
 1.7371487029e+000	 9.9517874039e-002	 2.9756382528e+000
 1.7361059475e+000	 1.1629960047e-001	 2.9624681712e+000
 1.7348963946e+000	 1.3313157877e-001	 2.9481706203e+000
 1.7335184201e+000	 1.5001160702e-001	 2.9332924000e+000
 1.7319704309e+000	 1.6693743538e-001	 2.9183662506e+000
 1.7466640000e+000	 0.0000000000e+000	 2.9638460959e+000
 1.7465860622e+000	 1.6499673279e-002	 2.9699858745e+000
 1.7463510461e+000	 3.3062027841e-002	 2.9714065730e+000
 1.7459571637e+000	 4.9685147121e-002	 2.9687214472e+000
 1.7454026499e+000	 6.6367065228e-002	 2.9625441250e+000
 1.7446857636e+000	 8.3105767032e-002	 2.9534873836e+000
 1.7438047893e+000	 9.9899188298e-002	 2.9421615145e+000
 1.7427580385e+000	 1.1674521586e-001	 2.9291722954e+000
 1.7415438511e+000	 1.3364168783e-001	 2.9151185955e+000
 1.7401605966e+000	 1.5058639387e-001	 2.9005896406e+000
 1.7386066762e+000	 1.6757707549e-001	 2.8861619759e+000
 1.7533310000e+000	 0.0000000000e+000	 2.9443274764e+000
 1.7532527647e+000	 1.6562652376e-002	 2.9508036956e+000
 1.7530168516e+000	 3.3188225289e-002	 2.9524327951e+000
 1.7526214657e+000	 4.9874794859e-002	 2.9498539926e+000
 1.7520648353e+000	 6.6620387689e-002	 2.9437092146e+000
 1.7513452127e+000	 8.3422980960e-002	 2.9346417460e+000
 1.7504608757e+000	 1.0028050256e-001	 2.9232944441e+000
 1.7494101295e+000	 1.1719083125e-001	 2.9103075378e+000
 1.7481913075e+000	 1.3415179689e-001	 2.8963160381e+000
 1.7468027732e+000	 1.5116118071e-001	 2.8819467885e+000
 1.7452429214e+000	 1.6821671561e-001	 2.8678151921e+000
 1.7599980000e+000	 0.0000000000e+000	 2.9405104289e+000
 1.7599194672e+000	 1.6625631473e-002	 2.9470925334e+000
 1.7596826570e+000	 3.3314422737e-002	 2.9487202341e+000
 1.7592857678e+000	 5.0064442596e-002	 2.9460547611e+000
 1.7587270208e+000	 6.6873710150e-002	 2.9397622656e+000
 1.7580046618e+000	 8.3740194888e-002	 2.9305123396e+000
 1.7571169621e+000	 1.0066181682e-001	 2.9189760776e+000
 1.7560622204e+000	 1.1763644663e-001	 2.9058237014e+000
 1.7548387639e+000	 1.3466190595e-001	 2.8917217743e+000
 1.7534449498e+000	 1.5173596756e-001	 2.8773300339e+000
 1.7518791667e+000	 1.6885635573e-001	 2.8632978817e+000
 1.7666650000e+000	 0.0000000000e+000	 2.9522302529e+000
 1.7665861698e+000	 1.6688610569e-002	 2.9587103175e+000
 1.7663484625e+000	 3.3440620184e-002	 2.9601472868e+000
 1.7659500698e+000	 5.0254090332e-002	 2.9572205172e+000
 1.7653892062e+000	 6.7127032611e-002	 2.9506163768e+000
 1.7646641108e+000	 8.4057408816e-002	 2.9410266348e+000
 1.7637730485e+000	 1.0104313107e-001	 2.9291463684e+000
 1.7627143114e+000	 1.1808206202e-001	 2.9156714114e+000
 1.7614862204e+000	 1.3517201501e-001	 2.9012953705e+000
 1.7600871263e+000	 1.5231075440e-001	 2.8867062384e+000
 1.7585154120e+000	 1.6949599584e-001	 2.8725826428e+000
 1.7733320000e+000	 0.0000000000e+000	 2.9793240255e+000
 1.7732528723e+000	 1.6751589666e-002	 2.9855165700e+000
 1.7730142679e+000	 3.3566817631e-002	 2.9865937742e+000
 1.7726143718e+000	 5.0443738068e-002	 2.9832492967e+000
 1.7720513917e+000	 6.7380355071e-002	 2.9761857815e+000
 1.7713235599e+000	 8.4374622743e-002	 2.9661131146e+000
 1.7704291350e+000	 1.0142444533e-001	 2.9537461747e+000
 1.7693664024e+000	 1.1852767741e-001	 2.9398021042e+000
 1.7681336768e+000	 1.3568212407e-001	 2.9249971246e+000
 1.7667293029e+000	 1.5288554125e-001	 2.9100429278e+000
 1.7651516572e+000	 1.7013563596e-001	 2.8956426831e+000
 1.7799990000e+000	 0.0000000000e+000	 3.0216305678e+000
 1.7799195748e+000	 1.6814568762e-002	 3.0273723772e+000
 1.7796800734e+000	 3.3693015078e-002	 3.0279409171e+000
 1.7792786738e+000	 5.0633385805e-002	 3.0240403867e+000
 1.7787135771e+000	 6.7633677531e-002	 3.0163858306e+000
 1.7779830090e+000	 8.4691836670e-002	 3.0057012602e+000
 1.7770852214e+000	 1.0180575959e-001	 2.9927172480e+000
 1.7760184934e+000	 1.1897329279e-001	 2.9781680178e+000
 1.7747811332e+000	 1.3619223313e-001	 2.9627880571e+000
 1.7733714795e+000	 1.5346032809e-001	 2.9473082849e+000
 1.7717879025e+000	 1.7077527607e-001	 2.9324518130e+000
 1.7866660000e+000	 0.0000000000e+000	 3.0789904126e+000
 1.7865862773e+000	 1.6877547859e-002	 3.0841403613e+000
 1.7863458789e+000	 3.3819212525e-002	 3.0840713123e+000
 1.7859429758e+000	 5.0823033541e-002	 3.0794943054e+000
 1.7853757625e+000	 6.7886999991e-002	 3.0711329752e+000
 1.7846424581e+000	 8.5009050597e-002	 3.0597215369e+000
 1.7837413078e+000	 1.0218707385e-001	 3.0460022212e+000
 1.7826705844e+000	 1.1941890818e-001	 3.0307221818e+000
 1.7814285897e+000	 1.3670234219e-001	 3.0146299034e+000
 1.7800136561e+000	 1.5403511493e-001	 2.9984711423e+000
 1.7784241478e+000	 1.7141491619e-001	 2.9829844398e+000
 1.7933330000e+000	 0.0000000000e+000	 3.1512457723e+000
 1.7932529798e+000	 1.6940526955e-002	 3.1556846531e+000
 1.7930116843e+000	 3.3945409972e-002	 3.1548689092e+000
 1.7926072778e+000	 5.1012681276e-002	 3.1495127820e+000
 1.7920379480e+000	 6.8140322451e-002	 3.1403447504e+000
 1.7913019072e+000	 8.5326264524e-002	 3.1281053803e+000
 1.7903973942e+000	 1.0256838811e-001	 3.1135445967e+000
 1.7893226754e+000	 1.1986452356e-001	 3.0974184079e+000
 1.7880760461e+000	 1.3721245125e-001	 3.0804851055e+000
 1.7866558326e+000	 1.5460990178e-001	 3.0635009756e+000
 1.7850603930e+000	 1.7205455631e-001	 3.0472155615e+000
 1.8000000000e+000	 0.0000000000e+000	 3.2382405083e+000
 1.7999196823e+000	 1.7003506051e-002	 3.2418708657e+000
 1.7996774898e+000	 3.4071607418e-002	 3.2402189876e+000
 1.7992715798e+000	 5.1202329012e-002	 3.2339987379e+000
 1.7987001334e+000	 6.8393644910e-002	 3.2239397595e+000
 1.7979613563e+000	 8.5643478450e-002	 3.2107851827e+000
 1.7970534806e+000	 1.0294970236e-001	 3.1952887356e+000
 1.7959747663e+000	 1.2031013895e-001	 3.1782112804e+000
 1.7947235026e+000	 1.3772256031e-001	 3.1603168039e+000
 1.7932980092e+000	 1.5518468862e-001	 3.1423678963e+000
 1.7916966383e+000	 1.7269419642e-001	 3.1251207608e+000
 1.7253341856e+000	 1.6629779526e-001	 2.9644566561e+000
 1.7236214799e+000	 1.8319957358e-001	 2.9462531032e+000
 1.7217363883e+000	 2.0014237624e-001	 2.9231574552e+000
 1.7196774263e+000	 2.1712385907e-001	 2.8956835268e+000
 1.7174431462e+000	 2.3414163286e-001	 2.8643088272e+000
 1.7150321385e+000	 2.5119326396e-001	 2.8294707447e+000
 1.7124430329e+000	 2.6827627483e-001	 2.7915627897e+000
 1.7096745004e+000	 2.8538814467e-001	 2.7509309736e+000
 1.7067252539e+000	 3.0252631014e-001	 2.7078704044e+000
 1.7035940503e+000	 3.1968816606e-001	 2.6626221818e+000
 1.7002796916e+000	 3.3687106623e-001	 2.6153706836e+000
 1.7319704309e+000	 1.6693743538e-001	 2.9183662506e+000
 1.7302511375e+000	 1.8390422391e-001	 2.9010097603e+000
 1.7283587952e+000	 2.0091219458e-001	 2.8788403133e+000
 1.7262919136e+000	 2.1795899419e-001	 2.8523597935e+000
 1.7240490398e+000	 2.3504222436e-001	 2.8220337296e+000
 1.7216287584e+000	 2.5215944207e-001	 2.7882872559e+000
 1.7190296943e+000	 2.6930816023e-001	 2.7515011240e+000
 1.7162505129e+000	 2.8648584837e-001	 2.7120078435e+000
 1.7132899226e+000	 3.0368993328e-001	 2.6700880348e+000
 1.7101466753e+000	 3.2091779977e-001	 2.6259670796e+000
 1.7068195684e+000	 3.3816679145e-001	 2.5798121630e+000
 1.7386066762e+000	 1.6757707549e-001	 2.8861619759e+000
 1.7368807951e+000	 1.8460887424e-001	 2.8694298774e+000
 1.7349812020e+000	 2.0168201292e-001	 2.8479484573e+000
 1.7329064010e+000	 2.1879412932e-001	 2.8222056854e+000
 1.7306549333e+000	 2.3594281586e-001	 2.7926531367e+000
 1.7282253784e+000	 2.5312562017e-001	 2.7597017250e+000
 1.7256163556e+000	 2.7034004563e-001	 2.7237174800e+000
 1.7228265255e+000	 2.8758355208e-001	 2.6850174459e+000
 1.7198545913e+000	 3.0485355643e-001	 2.6438657881e+000
 1.7166993003e+000	 3.2214743349e-001	 2.6004701948e+000
 1.7133594453e+000	 3.3946251667e-001	 2.5549786707e+000
 1.7452429214e+000	 1.6821671561e-001	 2.8678151921e+000
 1.7435104527e+000	 1.8531352457e-001	 2.8514897465e+000
 1.7416036089e+000	 2.0245183126e-001	 2.8304628434e+000
 1.7395208884e+000	 2.1962926445e-001	 2.8052066176e+000
 1.7372608268e+000	 2.3684340737e-001	 2.7761567807e+000
 1.7348219983e+000	 2.5409179827e-001	 2.7437081246e+000
 1.7322030169e+000	 2.7137193104e-001	 2.7082100597e+000
 1.7294025381e+000	 2.8868125578e-001	 2.6699622680e+000
 1.7264192601e+000	 3.0601717958e-001	 2.6292105592e+000
 1.7232519254e+000	 3.2337706720e-001	 2.5861430200e+000
 1.7198993221e+000	 3.4075824189e-001	 2.5408865548e+000
 1.7518791667e+000	 1.6885635573e-001	 2.8632978817e+000
 1.7501401103e+000	 1.8601817490e-001	 2.8471662291e+000
 1.7482260158e+000	 2.0322164960e-001	 2.8263649391e+000
 1.7461353758e+000	 2.2046439958e-001	 2.8013484533e+000
 1.7438667204e+000	 2.3774399887e-001	 2.7725347736e+000
 1.7414186183e+000	 2.5505797638e-001	 2.7403007334e+000
 1.7387896783e+000	 2.7240381644e-001	 2.7049772920e+000
 1.7359785507e+000	 2.8977895949e-001	 2.6668449391e+000
 1.7329839288e+000	 3.0718080273e-001	 2.6261292951e+000
 1.7298045504e+000	 3.2460670091e-001	 2.5829970044e+000
 1.7264391989e+000	 3.4205396712e-001	 2.5375520189e+000
 1.7585154120e+000	 1.6949599584e-001	 2.8725826428e+000
 1.7567697679e+000	 1.8672282524e-001	 2.8564367502e+000
 1.7548484226e+000	 2.0399146794e-001	 2.8356367186e+000
 1.7527498631e+000	 2.2129953470e-001	 2.8106174996e+000
 1.7504726139e+000	 2.3864459037e-001	 2.7817776037e+000
 1.7480152383e+000	 2.5602415448e-001	 2.7494741332e+000
 1.7453763396e+000	 2.7343570185e-001	 2.7140178309e+000
 1.7425545633e+000	 2.9087666319e-001	 2.6756682299e+000
 1.7395485976e+000	 3.0834442588e-001	 2.6346289951e+000
 1.7363571754e+000	 3.2583633463e-001	 2.5910435555e+000
 1.7329790757e+000	 3.4334969234e-001	 2.5449911252e+000
 1.7651516572e+000	 1.7013563596e-001	 2.8956426831e+000
 1.7633994255e+000	 1.8742747557e-001	 2.8792792929e+000
 1.7614708295e+000	 2.0476128629e-001	 2.8582606572e+000
 1.7593643505e+000	 2.2213466983e-001	 2.8330005036e+000
 1.7570785075e+000	 2.3954518187e-001	 2.8038761321e+000
 1.7546118582e+000	 2.5699033259e-001	 2.7712232068e+000
 1.7519630010e+000	 2.7446758725e-001	 2.7353305537e+000
 1.7491305759e+000	 2.9197436690e-001	 2.6964350517e+000
 1.7461132663e+000	 3.0950804903e-001	 2.6547167114e+000
 1.7429098004e+000	 3.2706596834e-001	 2.6102940399e+000
 1.7395189526e+000	 3.4464541756e-001	 2.5632197967e+000
 1.7717879025e+000	 1.7077527607e-001	 2.9324518130e+000
 1.7700290831e+000	 1.8813212590e-001	 2.9156723927e+000
 1.7680932364e+000	 2.0553110463e-001	 2.8942197270e+000
 1.7659788379e+000	 2.2296980496e-001	 2.8684846477e+000
 1.7636844010e+000	 2.4044577338e-001	 2.8388215892e+000
 1.7612084782e+000	 2.5795651069e-001	 2.8055431347e+000
 1.7585496623e+000	 2.7549947265e-001	 2.7689145588e+000
 1.7557065884e+000	 2.9307207060e-001	 2.7291484556e+000
 1.7526779350e+000	 3.1067167217e-001	 2.6863995486e+000
 1.7494624254e+000	 3.2829560206e-001	 2.6407597849e+000
 1.7460588294e+000	 3.4594114278e-001	 2.5922538194e+000
 1.7784241478e+000	 1.7141491619e-001	 2.9829844398e+000
 1.7766587407e+000	 1.8883677623e-001	 2.9655951318e+000
 1.7747156432e+000	 2.0630092297e-001	 2.9434973919e+000
 1.7725933253e+000	 2.2380494009e-001	 2.9170575461e+000
 1.7702902946e+000	 2.4134636488e-001	 2.8866055717e+000
 1.7678050981e+000	 2.5892268880e-001	 2.8524293931e+000
 1.7651363236e+000	 2.7653135806e-001	 2.8147691649e+000
 1.7622826010e+000	 2.9416977431e-001	 2.7738116314e+000
 1.7592426038e+000	 3.1183529532e-001	 2.7296846643e+000
 1.7560150505e+000	 3.2952523577e-001	 2.6824520793e+000
 1.7525987062e+000	 3.4723686801e-001	 2.6321088447e+000
 1.7850603930e+000	 1.7205455631e-001	 3.0472155615e+000
 1.7832883983e+000	 1.8954142656e-001	 3.0290271340e+000
 1.7813380501e+000	 2.0707074131e-001	 3.0060776025e+000
 1.7792078126e+000	 2.2464007521e-001	 2.9787072402e+000
 1.7768961881e+000	 2.4224695638e-001	 2.9472200387e+000
 1.7744017181e+000	 2.5988886690e-001	 2.9118777508e+000
 1.7717229850e+000	 2.7756324346e-001	 2.8728939077e+000
 1.7688586136e+000	 2.9526747801e-001	 2.8304279064e+000
 1.7658072725e+000	 3.1299891847e-001	 2.7845792682e+000
 1.7625676755e+000	 3.3075486948e-001	 2.7353821742e+000
 1.7591385831e+000	 3.4853259323e-001	 2.6828003913e+000
 1.7916966383e+000	 1.7269419642e-001	 3.1251207608e+000
 1.7899180559e+000	 1.9024607689e-001	 3.1059485589e+000
 1.7879604570e+000	 2.0784055965e-001	 3.0819447919e+000
 1.7858223000e+000	 2.2547521034e-001	 3.0534221944e+000
 1.7835020816e+000	 2.4314754788e-001	 3.0206573085e+000
 1.7809983380e+000	 2.6085504500e-001	 2.9838842665e+000
 1.7783096463e+000	 2.7859512886e-001	 2.9432885391e+000
 1.7754346262e+000	 2.9636518172e-001	 2.8990007444e+000
 1.7723719412e+000	 3.1416254162e-001	 2.8510906226e+000
 1.7691203005e+000	 3.3198450320e-001	 2.7995612837e+000
 1.7656784599e+000	 3.4982831845e-001	 2.7443438466e+000
 1.7002796916e+000	 3.3687106623e-001	 2.6153706836e+000
 1.6967804878e+000	 3.5407490523e-001	 2.5668835605e+000
 1.6930958194e+000	 3.7129437657e-001	 2.5174743937e+000
 1.6892246330e+000	 3.8852671073e-001	 2.4665396029e+000
 1.6851659259e+000	 4.0576910071e-001	 2.4134216676e+000
 1.6809187473e+000	 4.2301870300e-001	 2.3574111669e+000
 1.6764821997e+000	 4.4027263869e-001	 2.2977498194e+000
 1.6718554400e+000	 4.5752799460e-001	 2.2336346197e+000
 1.6670376810e+000	 4.7478182447e-001	 2.1642231706e+000
 1.6620281924e+000	 4.9203115015e-001	 2.0886403016e+000
 1.6568263024e+000	 5.0927296292e-001	 2.0059860684e+000
 1.7068195684e+000	 3.3816679145e-001	 2.5798121630e+000
 1.7033069054e+000	 3.5543680250e-001	 2.5324409393e+000
 1.6996080645e+000	 3.7272250601e-001	 2.4842307336e+000
 1.6957219882e+000	 3.9002112183e-001	 2.4345790242e+000
 1.6916476699e+000	 4.0732983213e-001	 2.3828270286e+000
 1.6873841551e+000	 4.2464578249e-001	 2.3282615093e+000
 1.6829305429e+000	 4.4196608292e-001	 2.2701175943e+000
 1.6782859871e+000	 4.5928780903e-001	 2.2075827153e+000
 1.6734496973e+000	 4.7660800322e-001	 2.1398017632e+000
 1.6684209405e+000	 4.9392367591e-001	 2.0658835571e+000
 1.6631990421e+000	 5.1123180679e-001	 1.9849087205e+000
 1.7133594453e+000	 3.3946251667e-001	 2.5549786707e+000
 1.7098333231e+000	 3.5679869977e-001	 2.5082572809e+000
 1.7061203096e+000	 3.7415063546e-001	 2.4607509647e+000
 1.7022193433e+000	 3.9151553292e-001	 2.4118642225e+000
 1.6981294138e+000	 4.0889056355e-001	 2.3609429202e+000
 1.6938495629e+000	 4.2627286198e-001	 2.3072758424e+000
 1.6893788862e+000	 4.4365952714e-001	 2.2500972766e+000
 1.6847165342e+000	 4.6104762346e-001	 2.1885907351e+000
 1.6798617136e+000	 4.7843418198e-001	 2.1218939160e+000
 1.6748136885e+000	 4.9581620167e-001	 2.0491050049e+000
 1.6695717818e+000	 5.1319065065e-001	 1.9692904123e+000
 1.7198993221e+000	 3.4075824189e-001	 2.5408865548e+000
 1.7163597408e+000	 3.5816059704e-001	 2.4943536504e+000
 1.7126325547e+000	 3.7557876490e-001	 2.4470602697e+000
 1.7087166985e+000	 3.9300994401e-001	 2.3984238708e+000
 1.7046111577e+000	 4.1045129498e-001	 2.3478008497e+000
 1.7003149707e+000	 4.2789994147e-001	 2.2944878225e+000
 1.6958272294e+000	 4.4535297137e-001	 2.2377239560e+000
 1.6911470813e+000	 4.6280743788e-001	 2.1766944544e+000
 1.6862737299e+000	 4.8026036074e-001	 2.1105353093e+000
 1.6812064366e+000	 4.9770872743e-001	 2.0383394155e+000
 1.6759445216e+000	 5.1514949452e-001	 1.9591641529e+000
 1.7264391989e+000	 3.4205396712e-001	 2.5375520189e+000
 1.7228861584e+000	 3.5952249431e-001	 2.4907508690e+000
 1.7191447998e+000	 3.7700689435e-001	 2.4431834973e+000
 1.7152140537e+000	 3.9450435511e-001	 2.3942862287e+000
 1.7110929017e+000	 4.1201202640e-001	 2.3434318440e+000
 1.7067803785e+000	 4.2952702096e-001	 2.2899305722e+000
 1.7022755727e+000	 4.4704641560e-001	 2.2330321496e+000
 1.6975776284e+000	 4.6456725231e-001	 2.1719290538e+000
 1.6926857462e+000	 4.8208653949e-001	 2.1057610239e+000
 1.6875991846e+000	 4.9960125319e-001	 2.0336209737e+000
 1.6823172613e+000	 5.1710833839e-001	 1.9545624006e+000
 1.7329790757e+000	 3.4334969234e-001	 2.5449911252e+000
 1.7294125761e+000	 3.6088439158e-001	 2.4974695182e+000
 1.7256570450e+000	 3.7843502379e-001	 2.4491451672e+000
 1.7217114088e+000	 3.9599876620e-001	 2.3994791488e+000
 1.7175746456e+000	 4.1357275782e-001	 2.3478664565e+000
 1.7132457863e+000	 4.3115410045e-001	 2.2936366874e+000
 1.7087239160e+000	 4.4873985983e-001	 2.2360558098e+000
 1.7040081755e+000	 4.6632706674e-001	 2.1743291268e+000
 1.6990977625e+000	 4.8391271825e-001	 2.1076055488e+000
 1.6939919326e+000	 5.0149377895e-001	 2.0349832864e+000
 1.6886900010e+000	 5.1906718226e-001	 1.9555170690e+000
 1.7395189526e+000	 3.4464541756e-001	 2.5632197967e+000
 1.7359389937e+000	 3.6224628885e-001	 2.5145299428e+000
 1.7321692901e+000	 3.7986315323e-001	 2.4649694750e+000
 1.7282087640e+000	 3.9749317730e-001	 2.4140300816e+000
 1.7240563896e+000	 4.1513348924e-001	 2.3611347735e+000
 1.7197111941e+000	 4.3278117994e-001	 2.3056382447e+000
 1.7151722592e+000	 4.5043330405e-001	 2.2468283317e+000
 1.7104387226e+000	 4.6808688116e-001	 2.1839286873e+000
 1.7055097788e+000	 4.8573889701e-001	 2.1161027884e+000
 1.7003846807e+000	 5.0338630472e-001	 2.0424593896e+000
 1.6950627408e+000	 5.2102602613e-001	 1.9620595340e+000
 1.7460588294e+000	 3.4594114278e-001	 2.5922538194e+000
 1.7424654114e+000	 3.6360818612e-001	 2.5419522553e+000
 1.7386815352e+000	 3.8129128268e-001	 2.4906802965e+000
 1.7347061192e+000	 3.9898758839e-001	 2.4379660818e+000
 1.7305381335e+000	 4.1669422066e-001	 2.3832664199e+000
 1.7261766019e+000	 4.3440825943e-001	 2.3259668074e+000
 1.7216206025e+000	 4.5212674828e-001	 2.2653825595e+000
 1.7168692697e+000	 4.6984669559e-001	 2.2007611771e+000
 1.7119217951e+000	 4.8756507576e-001	 2.1312860700e+000
 1.7067774287e+000	 5.0527883048e-001	 2.0560817548e+000
 1.7014354805e+000	 5.2298487000e-001	 1.9742206396e+000
 1.7525987062e+000	 3.4723686801e-001	 2.6321088447e+000
 1.7489918290e+000	 3.6497008339e-001	 2.5797563384e+000
 1.7451937803e+000	 3.8271941212e-001	 2.5263011922e+000
 1.7412034743e+000	 4.0048199948e-001	 2.4713138125e+000
 1.7370198774e+000	 4.1825495208e-001	 2.4142905654e+000
 1.7326420096e+000	 4.3603533892e-001	 2.3546534322e+000
 1.7280689458e+000	 4.5382019251e-001	 2.2917507938e+000
 1.7232998168e+000	 4.7160651002e-001	 2.2248594718e+000
 1.7183338114e+000	 4.8939125452e-001	 2.1531881497e+000
 1.7131701768e+000	 5.0717135624e-001	 2.0758822955e+000
 1.7078082202e+000	 5.2494371387e-001	 1.9920307038e+000
 1.7591385831e+000	 3.4853259323e-001	 2.6828003913e+000
 1.7555182467e+000	 3.6633198066e-001	 2.6279618482e+000
 1.7517060254e+000	 3.8414754157e-001	 2.5718554110e+000
 1.7477008295e+000	 4.0197641058e-001	 2.5140995507e+000
 1.7435016214e+000	 4.1981568351e-001	 2.4542359297e+000
 1.7391074174e+000	 4.3766241841e-001	 2.3917286748e+000
 1.7345172890e+000	 4.5551363674e-001	 2.3259647971e+000
 1.7297303639e+000	 4.7336632444e-001	 2.2562558880e+000
 1.7247458277e+000	 4.9121743328e-001	 2.1818412192e+000
 1.7195629248e+000	 5.0906388200e-001	 2.1018923734e+000
 1.7141809600e+000	 5.2690255774e-001	 2.0155195240e+000
 1.7656784599e+000	 3.4982831845e-001	 2.7443438466e+000
 1.7620446643e+000	 3.6769387793e-001	 2.6865882175e+000
 1.7582182705e+000	 3.8557567101e-001	 2.6273658939e+000
 1.7541981846e+000	 4.0347082167e-001	 2.5663491913e+000
 1.7499833653e+000	 4.2137641493e-001	 2.5031307876e+000
 1.7455728252e+000	 4.3928949790e-001	 2.4372225960e+000
 1.7409656323e+000	 4.5720708096e-001	 2.3680558006e+000
 1.7361609110e+000	 4.7512613887e-001	 2.2949821887e+000
 1.7311578440e+000	 4.9304361203e-001	 2.2172769117e+000
 1.7259556728e+000	 5.1095640776e-001	 2.1341428036e+000
 1.7205536997e+000	 5.2886140161e-001	 2.0447163824e+000
 1.6568263024e+000	 5.0927296292e-001	 2.0059860684e+000
 1.6514313977e+000	 5.2650422454e-001	 1.9175755836e+000
 1.6458429242e+000	 5.4372186784e-001	 1.8256243698e+000
 1.6400603887e+000	 5.6092279885e-001	 1.7305761538e+000
 1.6340833611e+000	 5.7810389852e-001	 1.6328927418e+000
 1.6279114744e+000	 5.9526202419e-001	 1.5330678561e+000
 1.6215444267e+000	 6.1239401118e-001	 1.4316427208e+000
 1.6149819816e+000	 6.2949667433e-001	 1.3292234362e+000
 1.6082239692e+000	 6.4656680968e-001	 1.2265001686e+000
 1.6012702869e+000	 6.6360119611e-001	 1.1242681662e+000
 1.5941209003e+000	 6.8059659704e-001	 1.0276655270e+000
 1.6631990421e+000	 5.1123180679e-001	 1.9849087205e+000
 1.6577833867e+000	 5.2852934593e-001	 1.8981147094e+000
 1.6521734179e+000	 5.4581321437e-001	 1.8076343158e+000
 1.6463686408e+000	 5.6308030625e-001	 1.7138785580e+000
 1.6403686234e+000	 5.8032749050e-001	 1.6172724874e+000
 1.6341729975e+000	 5.9755161239e-001	 1.5182690765e+000
 1.6277814599e+000	 6.1474949506e-001	 1.4173649025e+000
 1.6211937733e+000	 6.3191794110e-001	 1.3151176678e+000
 1.6144097672e+000	 6.4905373423e-001	 1.2121655850e+000
 1.6074293385e+000	 6.6615364093e-001	 1.1092486413e+000
 1.6002524529e+000	 6.8321441218e-001	 1.0132212339e+000
 1.6695717818e+000	 5.1319065065e-001	 1.9692904123e+000
 1.6641353757e+000	 5.3055446732e-001	 1.8836121822e+000
 1.6585039117e+000	 5.4790456091e-001	 1.7941187736e+000
 1.6526768929e+000	 5.6523781365e-001	 1.7011876758e+000
 1.6466538857e+000	 5.8255108249e-001	 1.6052061784e+000
 1.6404345206e+000	 5.9984120059e-001	 1.5065853061e+000
 1.6340184931e+000	 6.1710497894e-001	 1.4057755977e+000
 1.6274055650e+000	 6.3433920787e-001	 1.3032847705e+000
 1.6205955651e+000	 6.5154065877e-001	 1.1996972998e+000
 1.6135883902e+000	 6.6870608574e-001	 1.0957801565e+000
 1.6063840055e+000	 6.8583222731e-001	 1.0001699075e+000
 1.6759445216e+000	 5.1514949452e-001	 1.9591641529e+000
 1.6704873647e+000	 5.3257958872e-001	 1.8740986942e+000
 1.6648344055e+000	 5.4999590745e-001	 1.7851058977e+000
 1.6589851451e+000	 5.6739532105e-001	 1.6925289270e+000
 1.6529391481e+000	 5.8477467447e-001	 1.5967163231e+000
 1.6466960436e+000	 6.0213078879e-001	 1.4980359841e+000
 1.6402555262e+000	 6.1946046282e-001	 1.3968910349e+000
 1.6336173567e+000	 6.3676047464e-001	 1.2937376339e+000
 1.6267813631e+000	 6.5402758332e-001	 1.1891047476e+000
 1.6197474419e+000	 6.7125853056e-001	 1.0840519681e+000
 1.6125155581e+000	 6.8845004245e-001	 9.8851602202e-001
 1.6823172613e+000	 5.1710833839e-001	 1.9545624006e+000
 1.6768393538e+000	 5.3460471011e-001	 1.8696044367e+000
 1.6711648993e+000	 5.5208725398e-001	 1.7806234045e+000
 1.6652933972e+000	 5.6955282845e-001	 1.6879273673e+000
 1.6592244104e+000	 5.8699826645e-001	 1.5918251528e+000
 1.6529575667e+000	 6.0442037699e-001	 1.4926403712e+000
 1.6464925594e+000	 6.2181594670e-001	 1.3907273751e+000
 1.6398291484e+000	 6.3918174140e-001	 1.2864892045e+000
 1.6329671611e+000	 6.5651450786e-001	 1.1803975559e+000
 1.6259064935e+000	 6.7381097538e-001	 1.0740793697e+000
 1.6186471107e+000	 6.9106785759e-001	 9.7826371945e-001
 1.6886900010e+000	 5.1906718226e-001	 1.9555170690e+000
 1.6831913428e+000	 5.3662983150e-001	 1.8701591067e+000
 1.6774953930e+000	 5.5417860052e-001	 1.7806985773e+000
 1.6716016493e+000	 5.7171033585e-001	 1.6874076933e+000
 1.6655096728e+000	 5.8922185843e-001	 1.5905546246e+000
 1.6592190898e+000	 6.0670996520e-001	 1.4904175523e+000
 1.6527295926e+000	 6.2417143057e-001	 1.3873007137e+000
 1.6460409400e+000	 6.4160300817e-001	 1.2815524853e+000
 1.6391529591e+000	 6.5900143241e-001	 1.1735855437e+000
 1.6320655452e+000	 6.7636342020e-001	 1.0658710884e+000
 1.6247786633e+000	 6.9368567273e-001	 9.6941681685e-001
 1.6950627408e+000	 5.2102602613e-001	 1.9620595340e+000
 1.6895433318e+000	 5.3865495290e-001	 1.8757919121e+000
 1.6838258868e+000	 5.5626994706e-001	 1.7853582712e+000
 1.6779099014e+000	 5.7386784325e-001	 1.6909942457e+000
 1.6717949351e+000	 5.9144545042e-001	 1.5929264249e+000
 1.6654806129e+000	 6.0899955340e-001	 1.4913864382e+000
 1.6589666257e+000	 6.2652691445e-001	 1.3866270813e+000
 1.6522527317e+000	 6.4402427494e-001	 1.2789405359e+000
 1.6453387571e+000	 6.6148835695e-001	 1.1686787206e+000
 1.6382245968e+000	 6.7891586502e-001	 1.0594354310e+000
 1.6309102159e+000	 6.9630348787e-001	 9.6197881312e-001
 1.7014354805e+000	 5.2298487000e-001	 1.9742206396e+000
 1.6958953208e+000	 5.4068007429e-001	 1.8865315773e+000
 1.6901563806e+000	 5.5836129360e-001	 1.7946289180e+000
 1.6842181535e+000	 5.7602535065e-001	 1.6987110138e+000
 1.6780801974e+000	 5.9366904240e-001	 1.5989619722e+000
 1.6717421360e+000	 6.1128914160e-001	 1.4955657675e+000
 1.6652036589e+000	 6.2888239833e-001	 1.3887224447e+000
 1.6584645234e+000	 6.4644554171e-001	 1.2786664726e+000
 1.6515245550e+000	 6.6397528150e-001	 1.1656872852e+000
 1.6443836485e+000	 6.8146830983e-001	 1.0547802929e+000
 1.6370417684e+000	 6.9892130301e-001	 9.5595289594e-001
 1.7078082202e+000	 5.2494371387e-001	 1.9920307038e+000
 1.7022473099e+000	 5.4270519568e-001	 1.9024063488e+000
 1.6964868744e+000	 5.6045264013e-001	 1.8085365301e+000
 1.6905264056e+000	 5.7818285805e-001	 1.7105816384e+000
 1.6843654598e+000	 5.9589263438e-001	 1.6086824197e+000
 1.6780036590e+000	 6.1357872980e-001	 1.5029741086e+000
 1.6714406920e+000	 6.3123788221e-001	 1.3936027071e+000
 1.6646763151e+000	 6.4886680848e-001	 1.2807434677e+000
 1.6577103530e+000	 6.6646220604e-001	 1.1646216239e+000
 1.6505427001e+000	 6.8402075465e-001	 1.0519131666e+000
 1.6431733210e+000	 7.0153911814e-001	 9.5134194856e-001
 1.7141809600e+000	 5.2690255774e-001	 2.0155195240e+000
 1.7085992989e+000	 5.4473031708e-001	 1.9234439990e+000
 1.7028173681e+000	 5.6254398667e-001	 1.8271067050e+000
 1.6968346577e+000	 5.8034036544e-001	 1.7266294155e+000
 1.6906507221e+000	 5.9811622637e-001	 1.6221086576e+000
 1.6842651821e+000	 6.1586831800e-001	 1.5136298611e+000
 1.6776777252e+000	 6.3359336609e-001	 1.4012837091e+000
 1.6708881068e+000	 6.5128807525e-001	 1.2851847489e+000
 1.6638961510e+000	 6.6894913058e-001	 1.1655930223e+000
 1.6567017518e+000	 6.8657319947e-001	 1.0508411495e+000
 1.6493048736e+000	 7.0415693328e-001	 9.4814855647e-001
 1.7205536997e+000	 5.2886140161e-001	 2.0447163824e+000
 1.7149512879e+000	 5.4675543847e-001	 1.9496718315e+000
 1.7091478619e+000	 5.6463533321e-001	 1.8503646286e+000
 1.7031429098e+000	 5.8249787284e-001	 1.7468772991e+000
 1.6969359845e+000	 6.0033981835e-001	 1.6392613150e+000
 1.6905267052e+000	 6.1815790620e-001	 1.5275512564e+000
 1.6839147584e+000	 6.3594884997e-001	 1.4117812288e+000
 1.6770998984e+000	 6.5370934202e-001	 1.2920035988e+000
 1.6700819490e+000	 6.7143605513e-001	 1.1687560466e+000
 1.6628608034e+000	 6.8912564428e-001	 1.0515709528e+000
 1.6554364262e+000	 7.0677474842e-001	 9.4637501406e-001
 1.5941209003e+000	 6.8059659704e-001	 1.0276655270e+000
 1.5867769606e+000	 6.9754722280e-001	 9.3483405286e-001
 1.5792375153e+000	 7.1445236556e-001	 8.3556486674e-001
 1.5715027399e+000	 7.3130875535e-001	 7.3098422114e-001
 1.5635728808e+000	 7.4811311393e-001	 6.2222385569e-001
 1.5554482558e+000	 7.6486215671e-001	 5.1041867117e-001
 1.5471292545e+000	 7.8155259462e-001	 3.9670405435e-001
 1.5386163388e+000	 7.9818113599e-001	 2.8221284436e-001
 1.5299100431e+000	 8.1474448855e-001	 1.6807193421e-001
 1.5210109748e+000	 8.3123936136e-001	 5.5398504821e-002
 1.5119198145e+000	 8.4766246680e-001	-5.4704107602e-002
 1.6002524529e+000	 6.8321441218e-001	 1.0132212339e+000
 1.5928802658e+000	 7.0023023604e-001	 9.2113923966e-001
 1.5853118211e+000	 7.1720040196e-001	 8.2271643832e-001
 1.5775472950e+000	 7.3412162737e-001	 7.1903027808e-001
 1.5695869349e+000	 7.5099062146e-001	 6.1116497245e-001
 1.5614310597e+000	 7.6780408699e-001	 5.0020929445e-001
 1.5530800606e+000	 7.8455872221e-001	 3.8725401108e-001
 1.5445344012e+000	 8.0125122283e-001	 2.7338894796e-001
 1.5357946180e+000	 8.1787828390e-001	 1.5969967714e-001
 1.5268613208e+000	 8.3443660183e-001	 4.7263825055e-002
 1.5177351927e+000	 8.5092287634e-001	-6.2852999197e-002
 1.6063840055e+000	 6.8583222731e-001	 1.0001699075e+000
 1.5989835710e+000	 7.0291324928e-001	 9.0851315858e-001
 1.5913861270e+000	 7.1994843835e-001	 8.1064171268e-001
 1.5835918502e+000	 7.3693449940e-001	 7.0758409090e-001
 1.5756009890e+000	 7.5386812899e-001	 6.0037689751e-001
 1.5674138637e+000	 7.7074601726e-001	 4.9006273580e-001
 1.5590308667e+000	 7.8756484981e-001	 3.7768775347e-001
 1.5504524636e+000	 8.0432130968e-001	 2.6429880626e-001
 1.5416791929e+000	 8.2101207926e-001	 1.5094023279e-001
 1.5327116667e+000	 8.3763384230e-001	 3.8650236473e-002
 1.5235505708e+000	 8.5418328588e-001	-7.1543125252e-002
 1.6125155581e+000	 6.8845004245e-001	 9.8851602202e-001
 1.6050868762e+000	 7.0559626252e-001	 8.9695514227e-001
 1.5974604328e+000	 7.2269647474e-001	 7.9933510238e-001
 1.5896364053e+000	 7.3974737143e-001	 6.9663535982e-001
 1.5816150431e+000	 7.5674563653e-001	 5.8984481322e-001
 1.5733966676e+000	 7.7368794753e-001	 4.7995984149e-001
 1.5649816728e+000	 7.9057097741e-001	 3.6798196112e-001
 1.5563705260e+000	 8.0739139653e-001	 2.5491508992e-001
 1.5475637679e+000	 8.2414587462e-001	 1.4176240930e-001
 1.5385620127e+000	 8.4083108277e-001	 2.9522820489e-002
 1.5293659489e+000	 8.5744369542e-001	-8.0813005445e-002
 1.6186471107e+000	 6.9106785759e-001	 9.7826371945e-001
 1.6111901814e+000	 7.0827927575e-001	 8.8646429732e-001
 1.6035347386e+000	 7.2544451114e-001	 7.8879089654e-001
 1.5956809605e+000	 7.4256024346e-001	 6.8617376080e-001
 1.5876290972e+000	 7.5962314406e-001	 5.7955397355e-001
 1.5793794715e+000	 7.7662987780e-001	 4.6988162183e-001
 1.5709324789e+000	 7.9357710501e-001	 3.5811356685e-001
 1.5622885885e+000	 8.1046148337e-001	 2.4521080870e-001
 1.5534483428e+000	 8.2727966998e-001	 1.3213543663e-001
 1.5444123587e+000	 8.4402832324e-001	 1.9847159943e-002
 1.5351813271e+000	 8.6070410496e-001	-9.0700581388e-002
 1.6247786633e+000	 6.9368567273e-001	 9.6941681685e-001
 1.6172934866e+000	 7.1096228899e-001	 8.7703950947e-001
 1.6096090444e+000	 7.2819254753e-001	 7.7900326421e-001
 1.6017255156e+000	 7.4537311549e-001	 6.7618894720e-001
 1.5936431513e+000	 7.6250065159e-001	 5.6948970388e-001
 1.5853622754e+000	 7.7957180808e-001	 4.5980924928e-001
 1.5768832850e+000	 7.9658323261e-001	 3.4805975304e-001
 1.5682066509e+000	 8.1353157022e-001	 2.3515930607e-001
 1.5593329177e+000	 8.3041346533e-001	 1.2202895950e-001
 1.5502627046e+000	 8.4722556371e-001	 9.5893303911e-003
 1.5409967052e+000	 8.6396451450e-001	-1.0124322702e-001
 1.6309102159e+000	 6.9630348787e-001	 9.6197881312e-001
 1.6233967918e+000	 7.1364530223e-001	 8.6867944875e-001
 1.6156833503e+000	 7.3094058393e-001	 7.6996625781e-001
 1.6077700708e+000	 7.4818598752e-001	 6.6667055138e-001
 1.5996572054e+000	 7.6537815913e-001	 5.5963740094e-001
 1.5913450793e+000	 7.8251373835e-001	 4.4972405666e-001
 1.5828340911e+000	 7.9958936021e-001	 3.3779794816e-001
 1.5741247133e+000	 8.1660165707e-001	 2.2473425414e-001
 1.5652174926e+000	 8.3354726069e-001	 1.1141303058e-001
 1.5561130506e+000	 8.5042280418e-001	-1.2841083897e-003
 1.5468120834e+000	 8.6722492404e-001	-1.1247775874e-001
 1.6370417684e+000	 6.9892130301e-001	 9.5595289594e-001
 1.6295000970e+000	 7.1632831547e-001	 8.6138257462e-001
 1.6217576561e+000	 7.3368862032e-001	 7.6167381648e-001
 1.6138146259e+000	 7.5099885955e-001	 6.5760818640e-001
 1.6056712595e+000	 7.6825566666e-001	 5.4998253280e-001
 1.5973278833e+000	 7.8545566863e-001	 4.3960753543e-001
 1.5887848972e+000	 8.0259548780e-001	 3.2730582339e-001
 1.5800427757e+000	 8.1967174392e-001	 2.1390964856e-001
 1.5711020676e+000	 8.3668105605e-001	 1.0025810382e-001
 1.5619633965e+000	 8.5362004465e-001	-1.2806120665e-002
 1.5526274615e+000	 8.7048533358e-001	-1.2444044526e-001
 1.6431733210e+000	 7.0153911814e-001	 9.5134194856e-001
 1.6356034022e+000	 7.1901132871e-001	 8.5514714102e-001
 1.6278319619e+000	 7.3643665671e-001	 7.5411976944e-001
 1.6198591810e+000	 7.5381173157e-001	 6.4899144772e-001
 1.6116853136e+000	 7.7113317419e-001	 5.4051063886e-001
 1.6033106872e+000	 7.8839759890e-001	 4.2944133410e-001
 1.5947357033e+000	 8.0560161540e-001	 3.1656128938e-001
 1.5859608381e+000	 8.2274183077e-001	 2.0265980371e-001
 1.5769866425e+000	 8.3981485141e-001	 8.8535028016e-002
 1.5678137425e+000	 8.5681728512e-001	-2.5009202799e-002
 1.5584428397e+000	 8.7374574312e-001	-1.3716701731e-001
 1.6493048736e+000	 7.0415693328e-001	 9.4814855647e-001
 1.6417067074e+000	 7.2169434194e-001	 8.4997120140e-001
 1.6339062677e+000	 7.3918469311e-001	 7.4729783937e-001
 1.6259037362e+000	 7.5662460360e-001	 6.4080991485e-001
 1.6176993677e+000	 7.7401068172e-001	 5.3120732998e-001
 1.6092934911e+000	 7.9133952917e-001	 4.1920725669e-001
 1.6006865094e+000	 8.0860774300e-001	 3.0554249314e-001
 1.5918789005e+000	 8.2581191761e-001	 1.9095934796e-001
 1.5828712174e+000	 8.4294864676e-001	 7.6215040498e-002
 1.5736640885e+000	 8.6001452559e-001	-3.7925391098e-002
 1.5642582178e+000	 8.7700615266e-001	-1.5069267695e-001
 1.6554364262e+000	 7.0677474842e-001	 9.4637501406e-001
 1.6478100126e+000	 7.2437735518e-001	 8.4585261368e-001
 1.6399805736e+000	 7.4193272950e-001	 7.4120164575e-001
 1.6319482913e+000	 7.5943747563e-001	 6.3305315316e-001
 1.6237134218e+000	 7.7688818926e-001	 5.2205828857e-001
 1.6152762950e+000	 7.9428145944e-001	 4.0888726129e-001
 1.6066373155e+000	 8.1161387060e-001	 2.9422781501e-001
 1.5977969630e+000	 8.2888200446e-001	 1.7878321915e-001
 1.5887557923e+000	 8.4608244212e-001	 6.3269761048e-002
 1.5795144344e+000	 8.6321176606e-001	-5.1586269451e-002
 1.5700735960e+000	 8.8026656220e-001	-1.6505210680e-001
 1.5119198145e+000	 8.4766246680e-001	-5.4704107602e-002
 1.5026359094e+000	 8.6401296938e-001	-1.6241713955e-001
 1.4931614377e+000	 8.8028512425e-001	-2.6834045946e-001
 1.4834973017e+000	 8.9647566531e-001	-3.7205162715e-001
 1.4736444774e+000	 9.1258133784e-001	-4.7311957091e-001
 1.4636040140e+000	 9.2859890061e-001	-5.7110894058e-001
 1.4533770342e+000	 9.4452512788e-001	-6.6558480193e-001
 1.4429647335e+000	 9.6035681145e-001	-7.5611764740e-001
 1.4323683801e+000	 9.7609076273e-001	-8.4228869400e-001
 1.4215893148e+000	 9.9172381473e-001	-9.2369543562e-001
 1.4106289500e+000	 1.0072528242e+000	-9.9995741324e-001
 1.5177351927e+000	 8.5092287634e-001	-6.2852999197e-002
 1.5084155784e+000	 8.6733626873e-001	-1.7069237588e-001
 1.4989046645e+000	 8.8367101207e-001	-2.7668605556e-001
 1.4892033568e+000	 8.9992382767e-001	-3.8040539304e-001
 1.4793126350e+000	 9.1609144831e-001	-4.8141329887e-001
 1.4692335525e+000	 9.3217062029e-001	-5.7926868148e-001
 1.4589672361e+000	 9.4815810546e-001	-6.7353124099e-001
 1.4485148860e+000	 9.6405068328e-001	-7.6376658906e-001
 1.4378777753e+000	 9.7984515290e-001	-8.4955166525e-001
 1.4270572499e+000	 9.9553833515e-001	-9.3048041615e-001
 1.4160547276e+000	 1.0111270746e+000	-1.0061701611e+000
 1.5235505708e+000	 8.5418328588e-001	-7.1543125252e-002
 1.5141952473e+000	 8.7065956808e-001	-1.7955082335e-001
 1.5046478913e+000	 8.8705689988e-001	-2.8564672343e-001
 1.4949094119e+000	 9.0337199003e-001	-3.8939755035e-001
 1.4849807927e+000	 9.1960155878e-001	-4.9036174815e-001
 1.4748630910e+000	 9.3574233997e-001	-5.8809401025e-001
 1.4645574380e+000	 9.5179108304e-001	-6.8215017184e-001
 1.4540650385e+000	 9.6774455512e-001	-7.7209243852e-001
 1.4433871705e+000	 9.8359954307e-001	-8.5749492083e-001
 1.4325251850e+000	 9.9935285557e-001	-9.3794944025e-001
 1.4214805053e+000	 1.0150013251e+000	-1.0130719704e+000
 1.5293659489e+000	 8.5744369542e-001	-8.0813005445e-002
 1.5199749163e+000	 8.7398286744e-001	-1.8903449475e-001
 1.5103911181e+000	 8.9044278770e-001	-2.9526786308e-001
 1.5006154670e+000	 9.0682015239e-001	-3.9907676797e-001
 1.4906489504e+000	 9.2311166925e-001	-5.0001672512e-001
 1.4804926295e+000	 9.3931405965e-001	-5.9763972556e-001
 1.4701476399e+000	 9.5542406062e-001	-6.9149922610e-001
 1.4596151911e+000	 9.7143842695e-001	-7.8115548624e-001
 1.4488965657e+000	 9.8735393325e-001	-8.6618122069e-001
 1.4379931201e+000	 1.0031673760e+000	-9.4616753245e-001
 1.4269062830e+000	 1.0188755756e+000	-1.0207304338e+000
 1.5351813271e+000	 8.6070410496e-001	-9.0700581388e-002
 1.5257545853e+000	 8.7730616679e-001	-1.9918475088e-001
 1.5161343448e+000	 8.9382867551e-001	-3.0559415138e-001
 1.5063215221e+000	 9.1026831475e-001	-4.0949092342e-001
 1.4963171080e+000	 9.2662177972e-001	-5.1042917951e-001
 1.4861221680e+000	 9.4288577933e-001	-6.0795970746e-001
 1.4757378419e+000	 9.5905703820e-001	-7.0163505811e-001
 1.4651653436e+000	 9.7513229879e-001	-7.9101499015e-001
 1.4544059609e+000	 9.9110832342e-001	-8.7567224063e-001
 1.4434610552e+000	 1.0069818964e+000	-9.5519858513e-001
 1.4323320606e+000	 1.0227498261e+000	-1.0292114431e+000
 1.5409967052e+000	 8.6396451450e-001	-1.0124322702e-001
 1.5315342542e+000	 8.8062946615e-001	-2.1004231267e-001
 1.5218775716e+000	 8.9721456333e-001	-3.1666955581e-001
 1.5120275772e+000	 9.1371647711e-001	-4.2068711816e-001
 1.5019852657e+000	 9.3013189019e-001	-5.2164922144e-001
 1.4917517065e+000	 9.4645749901e-001	-6.1910693597e-001
 1.4813280438e+000	 9.6269001579e-001	-7.1261336504e-001
 1.4707154961e+000	 9.7882617062e-001	-8.0172919736e-001
 1.4599153561e+000	 9.9486271360e-001	-8.8602859546e-001
 1.4489289903e+000	 1.0107964168e+000	-9.6510573537e-001
 1.4377578383e+000	 1.0266240766e+000	-1.0385797397e+000
 1.5468120834e+000	 8.6722492404e-001	-1.1247775874e-001
 1.5373139232e+000	 8.8395276550e-001	-2.2164727289e-001
 1.5276207984e+000	 9.0060045114e-001	-3.2853734781e-001
 1.5177336323e+000	 9.1716463947e-001	-4.3271169260e-001
 1.5076534233e+000	 9.3364200067e-001	-5.3372613798e-001
 1.4973812450e+000	 9.5002921869e-001	-6.3113350923e-001
 1.4869182457e+000	 9.6632299337e-001	-7.2448890666e-001
 1.4762656486e+000	 9.8252004246e-001	-8.1335536544e-001
 1.4654247513e+000	 9.9861710377e-001	-8.9730986184e-001
 1.4543969254e+000	 1.0146109373e+000	-9.7594992788e-001
 1.4431836160e+000	 1.0304983270e+000	-1.0488989406e+000
 1.5526274615e+000	 8.7048533358e-001	-1.2444044526e-001
 1.5430935922e+000	 8.8727606486e-001	-2.3403910770e-001
 1.5333640252e+000	 9.0398633896e-001	-3.4124011592e-001
 1.5234396875e+000	 9.2061280183e-001	-4.4561024085e-001
 1.5133215810e+000	 9.3715211114e-001	-5.4670840946e-001
 1.5030107835e+000	 9.5360093838e-001	-6.4409066134e-001
 1.4925084476e+000	 9.6995597095e-001	-7.3731552467e-001
 1.4818158011e+000	 9.8621391429e-001	-8.2594978322e-001
 1.4709341465e+000	 1.0023714939e+000	-9.0957460047e-001
 1.4598648605e+000	 1.0184254577e+000	-9.8779221338e-001
 1.4486093937e+000	 1.0343725775e+000	-1.0602315630e+000
 1.5584428397e+000	 8.7374574312e-001	-1.3716701731e-001
 1.5488732611e+000	 8.9059936421e-001	-2.4725668779e-001
 1.5391072520e+000	 9.0737222678e-001	-3.5481977852e-001
 1.5291457426e+000	 9.2406096419e-001	-4.5942762495e-001
 1.5189897387e+000	 9.4066222161e-001	-5.6064372530e-001
 1.5086403220e+000	 9.5717265806e-001	-6.5802877974e-001
 1.4980986495e+000	 9.7358894853e-001	-7.5114616160e-001
 1.4873659537e+000	 9.8990778613e-001	-8.3956779116e-001
 1.4764435417e+000	 1.0061258841e+000	-9.2288037797e-001
 1.4653327956e+000	 1.0222399781e+000	-1.0006921975e+000
 1.4540351713e+000	 1.0382468280e+000	-1.0726390495e+000
 1.5642582178e+000	 8.7700615266e-001	-1.5069267695e-001
 1.5546529301e+000	 8.9392266357e-001	-2.6133828939e-001
 1.5448504788e+000	 9.1075811459e-001	-3.6931759633e-001
 1.5348517977e+000	 9.2750912655e-001	-4.7420798901e-001
 1.5246578963e+000	 9.4417233208e-001	-5.7557899958e-001
 1.5142698605e+000	 9.6074437774e-001	-6.7299742230e-001
 1.5036888514e+000	 9.7722192612e-001	-7.6603287932e-001
 1.4929161062e+000	 9.9360165796e-001	-8.5426380139e-001
 1.4819529369e+000	 1.0098802743e+000	-9.3728378827e-001
 1.4708007307e+000	 1.0260544985e+000	-1.0147084724e+000
 1.4594609490e+000	 1.0421210785e+000	-1.0861817914e+000
 1.5700735960e+000	 8.8026656220e-001	-1.6505210680e-001
 1.5604325990e+000	 8.9724596292e-001	-2.7632160494e-001
 1.5505937056e+000	 9.1414400240e-001	-3.8477418463e-001
 1.5405578528e+000	 9.3095728891e-001	-4.8999477283e-001
 1.5303260540e+000	 9.4768244255e-001	-5.9156038626e-001
 1.5198993990e+000	 9.6431609742e-001	-6.8904533393e-001
 1.5092790533e+000	 9.8085490370e-001	-7.8202687722e-001
 1.4984662587e+000	 9.9729552980e-001	-8.7009131718e-001
 1.4874623321e+000	 1.0136346645e+000	-9.5284068831e-001
 1.4762686658e+000	 1.0298690189e+000	-1.0298986390e+000
 1.4648867267e+000	 1.0459953290e+000	-1.1009191532e+000
 1.4106289500e+000	 1.0072528242e+000	-9.9995741324e-001
 1.3994887694e+000	 1.0226746730e+000	-1.0729046464e+000
 1.3881703258e+000	 1.0379862697e+000	-1.1446323571e+000
 1.3766752421e+000	 1.0531845518e+000	-1.2152242800e+000
 1.3650052105e+000	 1.0682664886e+000	-1.2848266195e+000
 1.3531619922e+000	 1.0832290830e+000	-1.3536542329e+000
 1.3411474162e+000	 1.0980693733e+000	-1.4219961903e+000
 1.3289633788e+000	 1.1127844353e+000	-1.4897895322e+000
 1.3166118423e+000	 1.1273713843e+000	-1.5526554951e+000
 1.3040948341e+000	 1.1418273765e+000	-1.6102887491e+000
 1.2914144456e+000	 1.1561496113e+000	-1.6640250187e+000
 1.4160547276e+000	 1.0111270746e+000	-1.0061701611e+000
 1.4048716980e+000	 1.0266082414e+000	-1.0785114276e+000
 1.3935097197e+000	 1.0419787319e+000	-1.1496324636e+000
 1.3819704218e+000	 1.0572354719e+000	-1.2195690917e+000
 1.3702555031e+000	 1.0723754192e+000	-1.2884205717e+000
 1.3583667316e+000	 1.0873955650e+000	-1.3563554968e+000
 1.3463059433e+000	 1.1022929363e+000	-1.4236175932e+000
 1.3340750419e+000	 1.1170645977e+000	-1.4905313685e+000
 1.3216759970e+000	 1.1317076532e+000	-1.5545320127e+000
 1.3091108439e+000	 1.1462192483e+000	-1.6127400086e+000
 1.2963816822e+000	 1.1605965714e+000	-1.6664429882e+000
 1.4214805053e+000	 1.0150013251e+000	-1.0130719704e+000
 1.4102546266e+000	 1.0305418097e+000	-1.0848123915e+000
 1.3988491135e+000	 1.0459711940e+000	-1.1553282372e+000
 1.3872656015e+000	 1.0612863921e+000	-1.2246100295e+000
 1.3755057958e+000	 1.0764843498e+000	-1.2927120187e+000
 1.3635714710e+000	 1.0915620471e+000	-1.3597583158e+000
 1.3514644705e+000	 1.1065164994e+000	-1.4259489328e+000
 1.3391867049e+000	 1.1213447601e+000	-1.4915656734e+000
 1.3267401516e+000	 1.1360439221e+000	-1.5560294550e+000
 1.3141268537e+000	 1.1506111200e+000	-1.6149130913e+000
 1.3013489187e+000	 1.1650435316e+000	-1.6686876508e+000
 1.4269062830e+000	 1.0188755756e+000	-1.0207304338e+000
 1.4156375551e+000	 1.0344753781e+000	-1.0918759176e+000
 1.4041885074e+000	 1.0499636562e+000	-1.1617881176e+000
 1.3925607812e+000	 1.0653373122e+000	-1.2304143152e+000
 1.3807560884e+000	 1.0805932804e+000	-1.2977656596e+000
 1.3687762105e+000	 1.0957285291e+000	-1.3639235371e+000
 1.3566229976e+000	 1.1107400624e+000	-1.4290458510e+000
 1.3442983679e+000	 1.1256249224e+000	-1.4933731555e+000
 1.3318043063e+000	 1.1403801911e+000	-1.5571852504e+000
 1.3191428635e+000	 1.1550029918e+000	-1.6168365472e+000
 1.3063161552e+000	 1.1694904918e+000	-1.6707770315e+000
 1.4323320606e+000	 1.0227498261e+000	-1.0292114431e+000
 1.4210204837e+000	 1.0384089465e+000	-1.0997691765e+000
 1.4095279013e+000	 1.0539561184e+000	-1.1690793216e+000
 1.3978559609e+000	 1.0693882324e+000	-1.2370479528e+000
 1.3860063810e+000	 1.0847022110e+000	-1.3036450011e+000
 1.3739809499e+000	 1.0998950111e+000	-1.3689108599e+000
 1.3617815247e+000	 1.1149636254e+000	-1.4329629057e+000
 1.3494100309e+000	 1.1299050848e+000	-1.4960018752e+000
 1.3368684609e+000	 1.1447164600e+000	-1.5583180355e+000
 1.3241588733e+000	 1.1593948636e+000	-1.6185392842e+000
 1.3112833918e+000	 1.1739374519e+000	-1.6727295950e+000
 1.4377578383e+000	 1.0266240766e+000	-1.0385797397e+000
 1.4264034123e+000	 1.0423425148e+000	-1.1085581565e+000
 1.4148672951e+000	 1.0579485806e+000	-1.1772678712e+000
 1.4031511406e+000	 1.0734391525e+000	-1.2445757578e+000
 1.3912566737e+000	 1.0888111416e+000	-1.3104123861e+000
 1.3791856893e+000	 1.1040614932e+000	-1.3747788640e+000
 1.3669400518e+000	 1.1191871885e+000	-1.4377535994e+000
 1.3545216939e+000	 1.1341852472e+000	-1.4994989205e+000
 1.3419326155e+000	 1.1490527289e+000	-1.5602674921e+000
 1.3291748831e+000	 1.1637867354e+000	-1.6200506288e+000
 1.3162506283e+000	 1.1783844121e+000	-1.6745643029e+000
 1.4431836160e+000	 1.0304983270e+000	-1.0488989406e+000
 1.4317863409e+000	 1.0462760832e+000	-1.1183076911e+000
 1.4202066890e+000	 1.0619410428e+000	-1.1864186213e+000
 1.4084463203e+000	 1.0774900727e+000	-1.2530613850e+000
 1.3965069663e+000	 1.0929200722e+000	-1.3181290222e+000
 1.3843904288e+000	 1.1082279752e+000	-1.3815850383e+000
 1.3720985790e+000	 1.1234107515e+000	-1.4434704066e+000
 1.3596333569e+000	 1.1384654095e+000	-1.5039104341e+000
 1.3469967702e+000	 1.1533889979e+000	-1.5631214234e+000
 1.3341908929e+000	 1.1681786072e+000	-1.6214170674e+000
 1.3212178648e+000	 1.1828313722e+000	-1.6763006708e+000
 1.4486093937e+000	 1.0343725775e+000	-1.0602315630e+000
 1.4371692695e+000	 1.0502096516e+000	-1.1290814851e+000
 1.4255460828e+000	 1.0659335049e+000	-1.1965952869e+000
 1.4137415000e+000	 1.0815409928e+000	-1.2625673562e+000
 1.4017572589e+000	 1.0970290028e+000	-1.3268550097e+000
 1.3895951682e+000	 1.1123944572e+000	-1.3893858079e+000
 1.3772571061e+000	 1.1276343145e+000	-1.4501648012e+000
 1.3647450199e+000	 1.1427455719e+000	-1.5092816393e+000
 1.3520609248e+000	 1.1577252668e+000	-1.5669174822e+000
 1.3392069027e+000	 1.1725704790e+000	-1.6233516416e+000
 1.3261851014e+000	 1.1872783324e+000	-1.6779588254e+000
 1.4540351713e+000	 1.0382468280e+000	-1.0726390495e+000
 1.4425521981e+000	 1.0541432199e+000	-1.1409421403e+000
 1.4308854767e+000	 1.0699259671e+000	-1.2078604697e+000
 1.4190366797e+000	 1.0855919129e+000	-1.2731550879e+000
 1.4070075516e+000	 1.1011379335e+000	-1.3366493686e+000
 1.3947999076e+000	 1.1165609392e+000	-1.3982365623e+000
 1.3824156332e+000	 1.1318578776e+000	-1.4578872831e+000
 1.3698566829e+000	 1.1470257343e+000	-1.5156568664e+000
 1.3571250794e+000	 1.1620615357e+000	-1.5716925273e+000
 1.3442229125e+000	 1.1769623508e+000	-1.6262402524e+000
 1.3311523379e+000	 1.1917252926e+000	-1.6795595601e+000
 1.4594609490e+000	 1.0421210785e+000	-1.0861817914e+000
 1.4479351267e+000	 1.0580767883e+000	-1.1539511806e+000
 1.4362248705e+000	 1.0739184293e+000	-1.2202756843e+000
 1.4243318594e+000	 1.0896428331e+000	-1.2848849171e+000
 1.4122578442e+000	 1.1052468641e+000	-1.3475700661e+000
 1.4000046471e+000	 1.1207274213e+000	-1.4081916810e+000
 1.3875741603e+000	 1.1360814406e+000	-1.4666874046e+000
 1.3749683459e+000	 1.1513058966e+000	-1.5230795777e+000
 1.3621892341e+000	 1.1663978046e+000	-1.5774826478e+000
 1.3492389223e+000	 1.1813542225e+000	-1.6301103123e+000
 1.3361195745e+000	 1.1961722527e+000	-1.6812823245e+000
 1.4648867267e+000	 1.0459953290e+000	-1.1009191532e+000
 1.4533180553e+000	 1.0620103567e+000	-1.1681690771e+000
 1.4415642644e+000	 1.0779108915e+000	-1.2339013835e+000
 1.4296270391e+000	 1.0936937532e+000	-1.2978161281e+000
 1.4175081369e+000	 1.1093557947e+000	-1.3596740423e+000
 1.4052093865e+000	 1.1248939033e+000	-1.4193045608e+000
 1.3927326875e+000	 1.1403050036e+000	-1.4766137962e+000
 1.3800800090e+000	 1.1555860590e+000	-1.5315923928e+000
 1.3672533887e+000	 1.1707340736e+000	-1.5843231870e+000
 1.3542549321e+000	 1.1857460943e+000	-1.6349886030e+000
 1.3410868110e+000	 1.2006192129e+000	-1.6838777118e+000
 1.2914144456e+000	 1.1561496113e+000	-1.6640250187e+000
 1.2785747694e+000	 1.1703332156e+000	-1.7105093640e+000
 1.2655761316e+000	 1.1843776408e+000	-1.7465074242e+000
 1.2524208085e+000	 1.1982802281e+000	-1.7737213068e+000
 1.2391111357e+000	 1.2120383689e+000	-1.7939579009e+000
 1.2256495061e+000	 1.2256495061e+000	-1.8091051252e+000
 1.2120383689e+000	 1.2391111357e+000	-1.8211073861e+000
 1.1982802281e+000	 1.2524208085e+000	-1.8319404287e+000
 1.1843776408e+000	 1.2655761316e+000	-1.8435857668e+000
 1.1703332156e+000	 1.2785747694e+000	-1.8580048855e+000
 1.1561496113e+000	 1.2914144456e+000	-1.8771134084e+000
 1.2963816822e+000	 1.1605965714e+000	-1.6664429882e+000
 1.2834926200e+000	 1.1748347310e+000	-1.7123360051e+000
 1.2704439848e+000	 1.1889331759e+000	-1.7473310329e+000
 1.2572380617e+000	 1.2028892375e+000	-1.7732469584e+000
 1.2438771952e+000	 1.2167002970e+000	-1.7920107328e+000
 1.2303637874e+000	 1.2303637874e+000	-1.8056328739e+000
 1.2167002970e+000	 1.2438771952e+000	-1.8161821561e+000
 1.2028892375e+000	 1.2572380617e+000	-1.8257596748e+000
 1.1889331759e+000	 1.2704439848e+000	-1.8364724773e+000
 1.1748347310e+000	 1.2834926200e+000	-1.8504069570e+000
 1.1605965714e+000	 1.2963816822e+000	-1.8696022109e+000
 1.3013489187e+000	 1.1650435316e+000	-1.6686876508e+000
 1.2884104706e+000	 1.1793362463e+000	-1.7141011430e+000
 1.2753118380e+000	 1.1934887111e+000	-1.7482144910e+000
 1.2620553150e+000	 1.2074982469e+000	-1.7729643131e+000
 1.2486432547e+000	 1.2213622251e+000	-1.7903985955e+000
 1.2350780687e+000	 1.2350780687e+000	-1.8026514352e+000
 1.2213622251e+000	 1.2486432547e+000	-1.8119169475e+000
 1.2074982469e+000	 1.2620553150e+000	-1.8204225299e+000
 1.1934887111e+000	 1.2753118380e+000	-1.8304016787e+000
 1.1793362463e+000	 1.2884104706e+000	-1.8440665618e+000
 1.1650435316e+000	 1.3013489187e+000	-1.8635805493e+000
 1.3063161552e+000	 1.1694904918e+000	-1.6707770315e+000
 1.2933283212e+000	 1.1838377616e+000	-1.7158111099e+000
 1.2801796913e+000	 1.1980442462e+000	-1.7491517521e+000
 1.2668725682e+000	 1.2121072564e+000	-1.7728542794e+000
 1.2534093142e+000	 1.2260241532e+000	-1.7890887071e+000
 1.2397923501e+000	 1.2397923501e+000	-1.8001137144e+000
 1.2260241532e+000	 1.2534093142e+000	-1.8082497553e+000
 1.2121072564e+000	 1.2668725682e+000	-1.8158515072e+000
 1.1980442462e+000	 1.2801796913e+000	-1.8252798596e+000
 1.1838377616e+000	 1.2933283212e+000	-1.8388736487e+000
 1.1694904918e+000	 1.3063161552e+000	-1.8589213480e+000
 1.3112833918e+000	 1.1739374519e+000	-1.6727295950e+000
 1.2982461718e+000	 1.1883392769e+000	-1.7174727671e+000
 1.2850475445e+000	 1.2025997814e+000	-1.7501373902e+000
 1.2716898214e+000	 1.2167162658e+000	-1.7728984794e+000
 1.2581753738e+000	 1.2306860813e+000	-1.7880490947e+000
 1.2445066314e+000	 1.2445066314e+000	-1.7979735241e+000
 1.2306860813e+000	 1.2581753738e+000	-1.8051195832e+000
 1.2167162658e+000	 1.2716898214e+000	-1.8119702344e+000
 1.2025997814e+000	 1.2850475445e+000	-1.8210147321e+000
 1.1883392769e+000	 1.2982461718e+000	-1.8347195046e+000
 1.1739374519e+000	 1.3112833918e+000	-1.8554989891e+000
 1.3162506283e+000	 1.1783844121e+000	-1.6745643029e+000
 1.3031640224e+000	 1.1928407922e+000	-1.7190935593e+000
 1.2899153978e+000	 1.2071553165e+000	-1.7511666502e+000
 1.2765070746e+000	 1.2213252752e+000	-1.7730792950e+000
 1.2629414333e+000	 1.2353480093e+000	-1.7872486364e+000
 1.2492209127e+000	 1.2492209127e+000	-1.7961856216e+000
 1.2353480093e+000	 1.2629414333e+000	-1.8024664768e+000
 1.2213252752e+000	 1.2765070746e+000	-1.8087034818e+000
 1.2071553165e+000	 1.2899153978e+000	-1.8175152561e+000
 1.1928407922e+000	 1.3031640224e+000	-1.8314967737e+000
 1.1783844121e+000	 1.3162506283e+000	-1.8531893264e+000
 1.3212178648e+000	 1.1828313722e+000	-1.6763006708e+000
 1.3080818730e+000	 1.1973423076e+000	-1.7206815678e+000
 1.2947832510e+000	 1.2117108517e+000	-1.7522354971e+000
 1.2813243279e+000	 1.2259342846e+000	-1.7733799138e+000
 1.2677074928e+000	 1.2400099374e+000	-1.7866571034e+000
 1.2539351941e+000	 1.2539351941e+000	-1.7947057472e+000
 1.2400099374e+000	 1.2677074928e+000	-1.8002315574e+000
 1.2259342846e+000	 1.2813243279e+000	-1.8059771912e+000
 1.2117108517e+000	 1.2947832510e+000	-1.8146916630e+000
 1.1973423076e+000	 1.3080818730e+000	-1.8290994762e+000
 1.1828313722e+000	 1.3212178648e+000	-1.8518696996e+000
 1.3261851014e+000	 1.1872783324e+000	-1.6779588254e+000
 1.3129997236e+000	 1.2018438229e+000	-1.7222455640e+000
 1.2996511043e+000	 1.2162663868e+000	-1.7533406665e+000
 1.2861415811e+000	 1.2305432940e+000	-1.7737843753e+000
 1.2724735523e+000	 1.2446718655e+000	-1.7862452017e+000
 1.2586494754e+000	 1.2586494754e+000	-1.7934906618e+000
 1.2446718655e+000	 1.2724735523e+000	-1.7983570552e+000
 1.2305432940e+000	 1.2861415811e+000	-1.8037185052e+000
 1.2162663868e+000	 1.2996511043e+000	-1.8124554806e+000
 1.2018438229e+000	 1.3129997236e+000	-1.8274230286e+000
 1.1872783324e+000	 1.3261851014e+000	-1.8514189489e+000
 1.3311523379e+000	 1.1917252926e+000	-1.6795595601e+000
 1.3179175742e+000	 1.2063453382e+000	-1.7237950623e+000
 1.3045189575e+000	 1.2208219220e+000	-1.7544797133e+000
 1.2909588343e+000	 1.2351523034e+000	-1.7742776161e+000
 1.2772396118e+000	 1.2493337936e+000	-1.7859846146e+000
 1.2633637567e+000	 1.2633637567e+000	-1.7924981848e+000
 1.2493337936e+000	 1.2772396118e+000	-1.7967863433e+000
 1.2351523034e+000	 1.2909588343e+000	-1.8018557965e+000
 1.2208219220e+000	 1.3045189575e+000	-1.8107195573e+000
 1.2063453382e+000	 1.3179175742e+000	-1.8263642628e+000
 1.1917252926e+000	 1.3311523379e+000	-1.8517174298e+000
 1.3361195745e+000	 1.1961722527e+000	-1.6812823245e+000
 1.3228354248e+000	 1.2108468535e+000	-1.7253403732e+000
 1.3093868108e+000	 1.2253774571e+000	-1.7556510619e+000
 1.2957760875e+000	 1.2397613128e+000	-1.7748455164e+000
 1.2820056713e+000	 1.2539957217e+000	-1.7858480441e+000
 1.2680780381e+000	 1.2680780381e+000	-1.7916872321e+000
 1.2539957217e+000	 1.2820056713e+000	-1.7954639710e+000
 1.2397613128e+000	 1.2957760875e+000	-1.8003186970e+000
 1.2253774571e+000	 1.3093868108e+000	-1.8093980874e+000
 1.2108468535e+000	 1.3228354248e+000	-1.8258214471e+000
 1.1961722527e+000	 1.3361195745e+000	-1.8524092474e+000
 1.3410868110e+000	 1.2006192129e+000	-1.6838777118e+000
 1.3277532754e+000	 1.2153483688e+000	-1.7268926555e+000
 1.3142546640e+000	 1.2299329922e+000	-1.7568540545e+000
 1.3005933408e+000	 1.2443703222e+000	-1.7754749452e+000
 1.2867717309e+000	 1.2586576498e+000	-1.7858092528e+000
 1.2727923194e+000	 1.2727923194e+000	-1.7910178538e+000
 1.2586576498e+000	 1.2867717309e+000	-1.7943356979e+000
 1.2443703222e+000	 1.3005933408e+000	-1.7990381276e+000
 1.2299329922e+000	 1.3142546640e+000	-1.8084066361e+000
 1.2153483688e+000	 1.3277532754e+000	-1.8256943065e+000
 1.2006192129e+000	 1.3410868110e+000	-1.8523037239e+000
 1.1561496113e+000	 1.2914144456e+000	-1.8771134084e+000
 1.1418273765e+000	 1.3040948341e+000	-1.8960706838e+000
 1.1273713843e+000	 1.3166118423e+000	-1.9106745764e+000
 1.1127844353e+000	 1.3289633788e+000	-1.9236697364e+000
 1.0980693733e+000	 1.3411474162e+000	-1.9352072594e+000
 1.0832290830e+000	 1.3531619922e+000	-1.9387646313e+000
 1.0682664886e+000	 1.3650052105e+000	-1.9350982817e+000
 1.0531845518e+000	 1.3766752421e+000	-1.9256138289e+000
 1.0379862697e+000	 1.3881703258e+000	-1.9116469599e+000
 1.0226746730e+000	 1.3994887694e+000	-1.8944648672e+000
 1.0072528242e+000	 1.4106289500e+000	-1.8752724123e+000
 1.1605965714e+000	 1.2963816822e+000	-1.8696022109e+000
 1.1462192483e+000	 1.3091108439e+000	-1.8893393988e+000
 1.1317076532e+000	 1.3216759970e+000	-1.9054476547e+000
 1.1170645977e+000	 1.3340750419e+000	-1.9206326485e+000
 1.1022929363e+000	 1.3463059433e+000	-1.9308629818e+000
 1.0873955650e+000	 1.3583667316e+000	-1.9327338929e+000
 1.0723754192e+000	 1.3702555031e+000	-1.9276816160e+000
 1.0572354719e+000	 1.3819704218e+000	-1.9170698172e+000
 1.0419787319e+000	 1.3935097197e+000	-1.9021909527e+000
 1.0266082414e+000	 1.4048716980e+000	-1.8842678788e+000
 1.0111270746e+000	 1.4160547276e+000	-1.8644556742e+000
 1.1650435316e+000	 1.3013489187e+000	-1.8635805493e+000
 1.1506111200e+000	 1.3141268537e+000	-1.8843481879e+000
 1.1360439221e+000	 1.3267401516e+000	-1.9022281650e+000
 1.1213447601e+000	 1.3391867049e+000	-1.9186260171e+000
 1.1065164994e+000	 1.3514644705e+000	-1.9270830875e+000
 1.0915620471e+000	 1.3635714710e+000	-1.9275167611e+000
 1.0764843498e+000	 1.3755057958e+000	-1.9213185098e+000
 1.0612863921e+000	 1.3872656015e+000	-1.9098060091e+000
 1.0459711940e+000	 1.3988491135e+000	-1.8942246757e+000
 1.0305418097e+000	 1.4102546266e+000	-1.8757494594e+000
 1.0150013251e+000	 1.4214805053e+000	-1.8554868492e+000
 1.1694904918e+000	 1.3063161552e+000	-1.8589213480e+000
 1.1550029918e+000	 1.3191428635e+000	-1.8809535067e+000
 1.1403801911e+000	 1.3318043063e+000	-1.9008577325e+000
 1.1256249224e+000	 1.3442983679e+000	-1.9168144382e+000
 1.1107400624e+000	 1.3566229976e+000	-1.9237414136e+000
 1.0957285291e+000	 1.3687762105e+000	-1.9229777031e+000
 1.0805932804e+000	 1.3807560884e+000	-1.9158658024e+000
 1.0653373122e+000	 1.3925607812e+000	-1.9036733997e+000
 1.0499636562e+000	 1.4041885074e+000	-1.8875951029e+000
 1.0344753781e+000	 1.4156375551e+000	-1.8687544230e+000
 1.0188755756e+000	 1.4269062830e+000	-1.8482059717e+000
 1.1739374519e+000	 1.3112833918e+000	-1.8554989891e+000
 1.1593948636e+000	 1.3241588733e+000	-1.8790133790e+000
 1.1447164600e+000	 1.3368684609e+000	-1.9007309168e+000
 1.1299050848e+000	 1.3494100309e+000	-1.9150862229e+000
 1.1149636254e+000	 1.3617815247e+000	-1.9207153371e+000
 1.0998950111e+000	 1.3739809499e+000	-1.9189848354e+000
 1.0847022110e+000	 1.3860063810e+000	-1.9111840656e+000
 1.0693882324e+000	 1.3978559609e+000	-1.8985267734e+000
 1.0539561184e+000	 1.4095279013e+000	-1.8821530276e+000
 1.0384089465e+000	 1.4210204837e+000	-1.8631314044e+000
 1.0227498261e+000	 1.4323320606e+000	-1.8424613866e+000
 1.1783844121e+000	 1.3162506283e+000	-1.8531893264e+000
 1.1637867354e+000	 1.3291748831e+000	-1.8783874056e+000
 1.1490527289e+000	 1.3419326155e+000	-1.9004417145e+000
 1.1341852472e+000	 1.3545216939e+000	-1.9133330232e+000
 1.1191871885e+000	 1.3669400518e+000	-1.9178857079e+000
 1.1040614932e+000	 1.3791856893e+000	-1.9154098547e+000
 1.0888111416e+000	 1.3912566737e+000	-1.9071375345e+000
 1.0734391525e+000	 1.4031511406e+000	-1.8942246345e+000
 1.0579485806e+000	 1.4148672951e+000	-1.8777529927e+000
 1.0423425148e+000	 1.4264034123e+000	-1.8587327911e+000
 1.0266240766e+000	 1.4377578383e+000	-1.8381051650e+000
 1.1828313722e+000	 1.3212178648e+000	-1.8518696996e+000
 1.1681786072e+000	 1.3341908929e+000	-1.8789107329e+000
 1.1533889979e+000	 1.3469967702e+000	-1.8998176191e+000
 1.1384654095e+000	 1.3596333569e+000	-1.9114497674e+000
 1.1234107515e+000	 1.3720985790e+000	-1.9151367824e+000
 1.1082279752e+000	 1.3843904288e+000	-1.9121279708e+000
 1.0929200722e+000	 1.3965069663e+000	-1.9035940385e+000
 1.0774900727e+000	 1.4084463203e+000	-1.8906291383e+000
 1.0619410428e+000	 1.4202066890e+000	-1.8742532223e+000
 1.0462760832e+000	 1.4317863409e+000	-1.8554146544e+000
 1.0304983270e+000	 1.4431836160e+000	-1.8349930382e+000
 1.1872783324e+000	 1.3261851014e+000	-1.8514189489e+000
 1.1725704790e+000	 1.3392069027e+000	-1.8793938069e+000
 1.1577252668e+000	 1.3520609248e+000	-1.8987688745e+000
 1.1427455719e+000	 1.3647450199e+000	-1.9093345961e+000
 1.1276343145e+000	 1.3772571061e+000	-1.9123561576e+000
 1.1123944572e+000	 1.3895951682e+000	-1.9090178389e+000
 1.0970290028e+000	 1.4017572589e+000	-1.9004249338e+000
 1.0815409928e+000	 1.4137415000e+000	-1.8876060228e+000
 1.0659335049e+000	 1.4255460828e+000	-1.8715155538e+000
 1.0502096516e+000	 1.4371692695e+000	-1.8530366834e+000
 1.0343725775e+000	 1.4486093937e+000	-1.8329843315e+000
 1.1917252926e+000	 1.3311523379e+000	-1.8517174298e+000
 1.1769623508e+000	 1.3442229125e+000	-1.8791981104e+000
 1.1620615357e+000	 1.3571250794e+000	-1.8972087256e+000
 1.1470257343e+000	 1.3698566829e+000	-1.9068887994e+000
 1.1318578776e+000	 1.3824156332e+000	-1.9094347063e+000
 1.1165609392e+000	 1.3947999076e+000	-1.9059614940e+000
 1.1011379335e+000	 1.4070075516e+000	-1.8975050363e+000
 1.0855919129e+000	 1.4190366797e+000	-1.8850245415e+000
 1.0699259671e+000	 1.4308854767e+000	-1.8694053709e+000
 1.0541432199e+000	 1.4425521981e+000	-1.8514621181e+000
 1.0382468280e+000	 1.4540351713e+000	-1.8319419000e+000
 1.1961722527e+000	 1.3361195745e+000	-1.8524092474e+000
 1.1813542225e+000	 1.3492389223e+000	-1.8782531100e+000
 1.1663978046e+000	 1.3621892341e+000	-1.8950533573e+000
 1.1513058966e+000	 1.3749683459e+000	-1.9040167537e+000
 1.1360814406e+000	 1.3875741603e+000	-1.9062665125e+000
 1.1207274213e+000	 1.4000046471e+000	-1.9028442849e+000
 1.1052468641e+000	 1.4122578442e+000	-1.8947125554e+000
 1.0896428331e+000	 1.4243318594e+000	-1.8827573971e+000
 1.0739184293e+000	 1.4362248705e+000	-1.8677915374e+000
 1.0580767883e+000	 1.4479351267e+000	-1.8505576844e+000
 1.0421210785e+000	 1.4594609490e+000	-1.8317320637e+000
 1.2006192129e+000	 1.3410868110e+000	-1.8523037239e+000
 1.1857460943e+000	 1.3542549321e+000	-1.8764909887e+000
 1.1707340736e+000	 1.3672533887e+000	-1.8922218350e+000
 1.1555860590e+000	 1.3800800090e+000	-1.9006258601e+000
 1.1403050036e+000	 1.3927326875e+000	-1.9027488084e+000
 1.1248939033e+000	 1.4052093865e+000	-1.8995548097e+000
 1.1093557947e+000	 1.4175081369e+000	-1.8919290287e+000
 1.0936937532e+000	 1.4296270391e+000	-1.8806806760e+000
 1.0779108915e+000	 1.4415642644e+000	-1.8665463320e+000
 1.0620103567e+000	 1.4533180553e+000	-1.8501935295e+000
 1.0459953290e+000	 1.4648867267e+000	-1.8322245451e+000
 1.0072528242e+000	 1.4106289500e+000	-1.8752724123e+000
 9.9172381473e-001	 1.4215893148e+000	-1.8553101456e+000
 9.7609076273e-001	 1.4323683801e+000	-1.8350133727e+000
 9.6035681145e-001	 1.4429647335e+000	-1.8142861737e+000
 9.4452512788e-001	 1.4533770342e+000	-1.7930074214e+000
 9.2859890061e-001	 1.4636040140e+000	-1.7710344760e+000
 9.1258133784e-001	 1.4736444774e+000	-1.7482068030e+000
 8.9647566531e-001	 1.4834973017e+000	-1.7243494806e+000
 8.8028512425e-001	 1.4931614377e+000	-1.6992765670e+000
 8.6401296938e-001	 1.5026359094e+000	-1.6727942982e+000
 8.4766246680e-001	 1.5119198145e+000	-1.6447040934e+000
 1.0111270746e+000	 1.4160547276e+000	-1.8644556742e+000
 9.9553833515e-001	 1.4270572499e+000	-1.8440696144e+000
 9.7984515290e-001	 1.4378777753e+000	-1.8235876721e+000
 9.6405068328e-001	 1.4485148860e+000	-1.8028645095e+000
 9.4815810546e-001	 1.4589672361e+000	-1.7817263330e+000
 9.3217062029e-001	 1.4692335525e+000	-1.7599790530e+000
 9.1609144831e-001	 1.4793126350e+000	-1.7374120678e+000
 8.9992382767e-001	 1.4892033568e+000	-1.7138019273e+000
 8.8367101207e-001	 1.4989046645e+000	-1.6889158467e+000
 8.6733626873e-001	 1.5084155784e+000	-1.6625150401e+000
 8.5092287634e-001	 1.5177351927e+000	-1.6343578489e+000
 1.0150013251e+000	 1.4214805053e+000	-1.8554868492e+000
 9.9935285557e-001	 1.4325251850e+000	-1.8348161627e+000
 9.8359954307e-001	 1.4433871705e+000	-1.8142808760e+000
 9.6774455512e-001	 1.4540650385e+000	-1.7936882363e+000
 9.5179108304e-001	 1.4645574380e+000	-1.7728182628e+000
 9.3574233997e-001	 1.4748630910e+000	-1.7514318547e+000
 9.1960155878e-001	 1.4849807927e+000	-1.7292747325e+000
 9.0337199003e-001	 1.4949094119e+000	-1.7060812517e+000
 8.8705689988e-001	 1.5046478913e+000	-1.6815780541e+000
 8.7065956808e-001	 1.5141952473e+000	-1.6554875297e+000
 8.5418328588e-001	 1.5235505708e+000	-1.6275310605e+000
 1.0188755756e+000	 1.4269062830e+000	-1.8482059717e+000
 1.0031673760e+000	 1.4379931201e+000	-1.8273950043e+000
 9.8735393325e-001	 1.4488965657e+000	-1.8069387446e+000
 9.7143842695e-001	 1.4596151911e+000	-1.7866034712e+000
 9.5542406062e-001	 1.4701476399e+000	-1.7661294230e+000
 9.3931405965e-001	 1.4804926295e+000	-1.7452388547e+000
 9.2311166925e-001	 1.4906489504e+000	-1.7236401288e+000
 9.0682015239e-001	 1.5006154670e+000	-1.7010316702e+000
 8.9044278770e-001	 1.5103911181e+000	-1.6771057486e+000
 8.7398286744e-001	 1.5199749163e+000	-1.6515520606e+000
 8.5744369542e-001	 1.5293659489e+000	-1.6240610814e+000
 1.0227498261e+000	 1.4323320606e+000	-1.8424613866e+000
 1.0069818964e+000	 1.4434610552e+000	-1.8216551056e+000
 9.9110832342e-001	 1.4544059609e+000	-1.8014107501e+000
 9.7513229879e-001	 1.4651653436e+000	-1.7814600050e+000
 9.5905703820e-001	 1.4757378419e+000	-1.7615096643e+000
 9.4288577933e-001	 1.4861221680e+000	-1.7412496347e+000
 9.2662177972e-001	 1.4963171080e+000	-1.7203571703e+000
 9.1026831475e-001	 1.5063215221e+000	-1.6985009606e+000
 8.9382867551e-001	 1.5161343448e+000	-1.6753450370e+000
 8.7730616679e-001	 1.5257545853e+000	-1.6505524671e+000
 8.6070410496e-001	 1.5351813271e+000	-1.6237888069e+000
 1.0266240766e+000	 1.4377578383e+000	-1.8381051650e+000
 1.0107964168e+000	 1.4489289903e+000	-1.8174450176e+000
 9.9486271360e-001	 1.4599153561e+000	-1.7975500131e+000
 9.7882617062e-001	 1.4707154961e+000	-1.7781112406e+000
 9.6269001579e-001	 1.4813280438e+000	-1.7588124163e+000
 9.4645749901e-001	 1.4917517065e+000	-1.7393173253e+000
 9.3013189019e-001	 1.5019852657e+000	-1.7192782942e+000
 9.1371647711e-001	 1.5120275772e+000	-1.6983404048e+000
 8.9721456333e-001	 1.5218775716e+000	-1.6761455173e+000
 8.8062946615e-001	 1.5315342542e+000	-1.6523360689e+000
 8.6396451450e-001	 1.5409967052e+000	-1.6265586205e+000
 1.0304983270e+000	 1.4431836160e+000	-1.8349930382e+000
 1.0146109373e+000	 1.4543969254e+000	-1.8146294303e+000
 9.9861710377e-001	 1.4654247513e+000	-1.7952132388e+000
 9.8252004246e-001	 1.4762656486e+000	-1.7764141307e+000
 9.6632299337e-001	 1.4869182457e+000	-1.7578946262e+000
 9.5002921869e-001	 1.4973812450e+000	-1.7392985467e+000
 9.3364200067e-001	 1.5076534233e+000	-1.7202594042e+000
 9.1716463947e-001	 1.5177336323e+000	-1.7004047334e+000
 9.0060045114e-001	 1.5276207984e+000	-1.6793602241e+000
 8.8395276550e-001	 1.5373139232e+000	-1.6567536178e+000
 8.6722492404e-001	 1.5468120834e+000	-1.6322183404e+000
 1.0343725775e+000	 1.4486093937e+000	-1.8329843315e+000
 1.0184254577e+000	 1.4598648605e+000	-1.8130638551e+000
 1.0023714939e+000	 1.4709341465e+000	-1.7942606548e+000
 9.8621391429e-001	 1.4818158011e+000	-1.7762291172e+000
 9.6995597095e-001	 1.4925084476e+000	-1.7586167002e+000
 9.5360093838e-001	 1.5030107835e+000	-1.7410533516e+000
 9.3715211114e-001	 1.5133215810e+000	-1.7231598139e+000
 9.2061280183e-001	 1.5234396875e+000	-1.7045520696e+000
 9.0398633896e-001	 1.5333640252e+000	-1.6848455741e+000
 8.8727606486e-001	 1.5430935922e+000	-1.6636592438e+000
 8.7048533358e-001	 1.5526274615e+000	-1.6406191675e+000
 1.0382468280e+000	 1.4540351713e+000	-1.8319419000e+000
 1.0222399781e+000	 1.4653327956e+000	-1.8126116188e+000
 1.0061258841e+000	 1.4764435417e+000	-1.7945559497e+000
 9.8990778613e-001	 1.4873659537e+000	-1.7774200710e+000
 9.7358894853e-001	 1.4980986495e+000	-1.7608424447e+000
 9.5717265806e-001	 1.5086403220e+000	-1.7444451672e+000
 9.4066222161e-001	 1.5189897387e+000	-1.7278421912e+000
 9.2406096419e-001	 1.5291457426e+000	-1.7106438755e+000
 9.0737222678e-001	 1.5391072520e+000	-1.6924613132e+000
 8.9059936421e-001	 1.5488732611e+000	-1.6729104031e+000
 8.7374574312e-001	 1.5584428397e+000	-1.6516156331e+000
 1.0421210785e+000	 1.4594609490e+000	-1.8317320637e+000
 1.0260544985e+000	 1.4708007307e+000	-1.8131394802e+000
 1.0098802743e+000	 1.4819529369e+000	-1.7959662115e+000
 9.9360165796e-001	 1.4929161062e+000	-1.7798542325e+000
 9.7722192612e-001	 1.5036888514e+000	-1.7644390081e+000
 9.6074437774e-001	 1.5142698605e+000	-1.7493407393e+000
 9.4417233208e-001	 1.5246578963e+000	-1.7341725024e+000
 9.2750912655e-001	 1.5348517977e+000	-1.7185448973e+000
 9.1075811459e-001	 1.5448504788e+000	-1.7020704630e+000
 8.9392266357e-001	 1.5546529301e+000	-1.6843678257e+000
 8.7700615266e-001	 1.5642582178e+000	-1.6650655480e+000
 1.0459953290e+000	 1.4648867267e+000	-1.8322245451e+000
 1.0298690189e+000	 1.4762686658e+000	-1.8145175685e+000
 1.0136346645e+000	 1.4874623321e+000	-1.7983581399e+000
 9.9729552980e-001	 1.4984662587e+000	-1.7834021534e+000
 9.8085490370e-001	 1.5092790533e+000	-1.7692768243e+000
 9.6431609742e-001	 1.5198993990e+000	-1.7556100764e+000
 9.4768244255e-001	 1.5303260540e+000	-1.7420199589e+000
 9.3095728891e-001	 1.5405578528e+000	-1.7281231129e+000
 9.1414400240e-001	 1.5505937056e+000	-1.7135392689e+000
 8.9724596292e-001	 1.5604325990e+000	-1.6978954648e+000
 8.8026656220e-001	 1.5700735960e+000	-1.6808299525e+000
 8.4766246680e-001	 1.5119198145e+000	-1.6447040934e+000
 8.3123936136e-001	 1.5210109748e+000	-1.6173281081e+000
 8.1474448855e-001	 1.5299100431e+000	-1.5925027721e+000
 7.9818113599e-001	 1.5386163388e+000	-1.5692981076e+000
 7.8155259462e-001	 1.5471292545e+000	-1.5467684535e+000
 7.6486215671e-001	 1.5554482558e+000	-1.5239558511e+000
 7.4811311393e-001	 1.5635728808e+000	-1.4998931633e+000
 7.3130875535e-001	 1.5715027399e+000	-1.4736069238e+000
 7.1445236556e-001	 1.5792375153e+000	-1.4441199115e+000
 6.9754722280e-001	 1.5867769606e+000	-1.4104534534e+000
 6.8059659704e-001	 1.5941209003e+000	-1.3716294588e+000
 8.5092287634e-001	 1.5177351927e+000	-1.6343578489e+000
 8.3443660183e-001	 1.5268613208e+000	-1.6066387738e+000
 8.1787828390e-001	 1.5357946180e+000	-1.5811566619e+000
 8.0125122283e-001	 1.5445344012e+000	-1.5570744526e+000
 7.8455872221e-001	 1.5530800606e+000	-1.5335383597e+000
 7.6780408699e-001	 1.5614310597e+000	-1.5096811327e+000
 7.5099062146e-001	 1.5695869349e+000	-1.4846250464e+000
 7.3412162737e-001	 1.5775472950e+000	-1.4574846144e+000
 7.1720040196e-001	 1.5853118211e+000	-1.4273690224e+000
 7.0023023604e-001	 1.5928802658e+000	-1.3933842859e+000
 6.8321441218e-001	 1.6002524529e+000	-1.3546351342e+000
 8.5418328588e-001	 1.5235505708e+000	-1.6275310605e+000
 8.3763384230e-001	 1.5327116667e+000	-1.5997711109e+000
 8.2101207926e-001	 1.5416791929e+000	-1.5739571161e+000
 8.0432130968e-001	 1.5504524636e+000	-1.5493398048e+000
 7.8756484981e-001	 1.5590308667e+000	-1.5251523062e+000
 7.7074601726e-001	 1.5674138637e+000	-1.5006132933e+000
 7.5386812899e-001	 1.5756009890e+000	-1.4749298501e+000
 7.3693449940e-001	 1.5835918502e+000	-1.4473000548e+000
 7.1994843835e-001	 1.5913861270e+000	-1.4169152790e+000
 7.0291324928e-001	 1.5989835710e+000	-1.3829622033e+000
 6.8583222731e-001	 1.6063840055e+000	-1.3446245558e+000
 8.5744369542e-001	 1.5293659489e+000	-1.6240610814e+000
 8.4083108277e-001	 1.5385620127e+000	-1.5965595729e+000
 8.2414587462e-001	 1.5475637679e+000	-1.5707365280e+000
 8.0739139653e-001	 1.5563705260e+000	-1.5459254011e+000
 7.9057097741e-001	 1.5649816728e+000	-1.5214413391e+000
 7.7368794753e-001	 1.5733966676e+000	-1.4965842163e+000
 7.5674563653e-001	 1.5816150431e+000	-1.4706413844e+000
 7.3974737143e-001	 1.5896364053e+000	-1.4428901327e+000
 7.2269647474e-001	 1.5974604328e+000	-1.4125998569e+000
 7.0559626252e-001	 1.6050868762e+000	-1.3790339392e+000
 6.8845004245e-001	 1.6125155581e+000	-1.3414513445e+000
 8.6070410496e-001	 1.5351813271e+000	-1.6237888069e+000
 8.4402832324e-001	 1.5444123587e+000	-1.5968421539e+000
 8.2727966998e-001	 1.5534483428e+000	-1.5713308161e+000
 8.1046148337e-001	 1.5622885885e+000	-1.5466659712e+000
 7.9357710501e-001	 1.5709324789e+000	-1.5222399487e+000
 7.7662987780e-001	 1.5793794715e+000	-1.4974291625e+000
 7.5962314406e-001	 1.5876290972e+000	-1.4715967514e+000
 7.4256024346e-001	 1.5956809605e+000	-1.4440949216e+000
 7.2544451114e-001	 1.6035347386e+000	-1.4142669915e+000
 7.0827927575e-001	 1.6111901814e+000	-1.3814491399e+000
 6.9106785759e-001	 1.6186471107e+000	-1.3449718643e+000
 8.6396451450e-001	 1.5409967052e+000	-1.6265586205e+000
 8.4722556371e-001	 1.5502627046e+000	-1.6004603360e+000
 8.3041346533e-001	 1.5593329177e+000	-1.5755793716e+000
 8.1353157022e-001	 1.5682066509e+000	-1.5513996872e+000
 7.9658323261e-001	 1.5768832850e+000	-1.5273860201e+000
 7.7957180808e-001	 1.5853622754e+000	-1.5029867226e+000
 7.6250065159e-001	 1.5936431513e+000	-1.4776362995e+000
 7.4537311549e-001	 1.6017255156e+000	-1.4507576391e+000
 7.2819254753e-001	 1.6096090444e+000	-1.4217639390e+000
 7.1096228899e-001	 1.6172934866e+000	-1.3900603277e+000
 6.9368567273e-001	 1.6247786633e+000	-1.3550451885e+000
 8.6722492404e-001	 1.5468120834e+000	-1.6322183404e+000
 8.5042280418e-001	 1.5561130506e+000	-1.6072590368e+000
 8.3354726069e-001	 1.5652174926e+000	-1.5833250073e+000
 8.1660165707e-001	 1.5741247133e+000	-1.5599681133e+000
 7.9958936021e-001	 1.5828340911e+000	-1.5367207849e+000
 7.8251373835e-001	 1.5913450793e+000	-1.5130987707e+000
 7.6537815913e-001	 1.5996572054e+000	-1.4886035790e+000
 7.4818598752e-001	 1.6077700708e+000	-1.4627246038e+000
 7.3094058393e-001	 1.6156833503e+000	-1.4349409363e+000
 7.1364530223e-001	 1.6233967918e+000	-1.4047228644e+000
 6.9630348787e-001	 1.6309102159e+000	-1.3715330673e+000
 8.7048533358e-001	 1.5526274615e+000	-1.6406191675e+000
 8.5362004465e-001	 1.5619633965e+000	-1.6170865575e+000
 8.3668105605e-001	 1.5711020676e+000	-1.5944139067e+000
 8.1967174392e-001	 1.5800427757e+000	-1.5722161565e+000
 8.0259548780e-001	 1.5887848972e+000	-1.5500887732e+000
 7.8545566863e-001	 1.5973278833e+000	-1.5276104181e+000
 7.6825566666e-001	 1.6056712595e+000	-1.5043452985e+000
 7.5099885955e-001	 1.6138146259e+000	-1.4798451946e+000
 7.3368862032e-001	 1.6217576561e+000	-1.4536511624e+000
 7.1632831547e-001	 1.6295000970e+000	-1.4252949160e+000
 6.9892130301e-001	 1.6370417684e+000	-1.3942998957e+000
 8.7374574312e-001	 1.5584428397e+000	-1.6516156331e+000
 8.5681728512e-001	 1.5678137425e+000	-1.6297945319e+000
 8.3981485141e-001	 1.5769866425e+000	-1.6086955742e+000
 8.2274183077e-001	 1.5859608381e+000	-1.5879920178e+000
 8.0560161540e-001	 1.5947357033e+000	-1.5673377665e+000
 7.8839759890e-001	 1.6033106872e+000	-1.5463699680e+000
 7.7113317419e-001	 1.6116853136e+000	-1.5247112810e+000
 7.5381173157e-001	 1.6198591810e+000	-1.5019718092e+000
 7.3643665671e-001	 1.6278319619e+000	-1.4777507008e+000
 7.1901132871e-001	 1.6356034022e+000	-1.4516374174e+000
 7.0153911814e-001	 1.6431733210e+000	-1.4232126813e+000
 8.7700615266e-001	 1.5642582178e+000	-1.6650655480e+000
 8.6001452559e-001	 1.5736640885e+000	-1.6452378764e+000
 8.4294864676e-001	 1.5828712174e+000	-1.6260227859e+000
 8.2581191761e-001	 1.5918789005e+000	-1.6071471442e+000
 8.0860774300e-001	 1.6006865094e+000	-1.5883187512e+000
 7.9133952917e-001	 1.6092934911e+000	-1.5692288709e+000
 7.7401068172e-001	 1.6176993677e+000	-1.5495544220e+000
 7.5662460360e-001	 1.6259037362e+000	-1.5289598244e+000
 7.3918469311e-001	 1.6339062677e+000	-1.5070985009e+000
 7.2169434194e-001	 1.6417067074e+000	-1.4836140377e+000
 7.0415693328e-001	 1.6493048736e+000	-1.4581410131e+000
 8.8026656220e-001	 1.5700735960e+000	-1.6808299525e+000
 8.6321176606e-001	 1.5795144344e+000	-1.6632747402e+000
 8.4608244212e-001	 1.5887557923e+000	-1.6462515408e+000
 8.2888200446e-001	 1.5977969630e+000	-1.6295361816e+000
 8.1161387060e-001	 1.6066373155e+000	-1.6128858729e+000
 7.9428145944e-001	 1.6152762950e+000	-1.5960416805e+000
 7.7688818926e-001	 1.6237134218e+000	-1.5787306468e+000
 7.5943747563e-001	 1.6319482913e+000	-1.5606675559e+000
 7.4193272950e-001	 1.6399805736e+000	-1.5415563417e+000
 7.2437735518e-001	 1.6478100126e+000	-1.5210911456e+000
 7.0677474842e-001	 1.6554364262e+000	-1.4989570304e+000
 6.8059659704e-001	 1.5941209003e+000	-1.3716294588e+000
 6.6360119611e-001	 1.6012702869e+000	-1.3309309523e+000
 6.4656680968e-001	 1.6082239692e+000	-1.2968971878e+000
 6.2949667433e-001	 1.6149819816e+000	-1.2706515816e+000
 6.1239401118e-001	 1.6215444267e+000	-1.2501042818e+000
 5.9526202419e-001	 1.6279114744e+000	-1.2333417934e+000
 5.7810389852e-001	 1.6340833611e+000	-1.2186101242e+000
 5.6092279885e-001	 1.6400603887e+000	-1.2042990787e+000
 5.4372186784e-001	 1.6458429242e+000	-1.1889277279e+000
 5.2650422454e-001	 1.6514313977e+000	-1.1711310741e+000
 5.0927296292e-001	 1.6568263024e+000	-1.1496479132e+000
 6.8321441218e-001	 1.6002524529e+000	-1.3546351342e+000
 6.6615364093e-001	 1.6074293385e+000	-1.3142608402e+000
 6.4905373423e-001	 1.6144097672e+000	-1.2793367871e+000
 6.3191794110e-001	 1.6211937733e+000	-1.2522366109e+000
 6.1474949506e-001	 1.6277814599e+000	-1.2308611977e+000
 5.9755161239e-001	 1.6341729975e+000	-1.2132876429e+000
 5.8032749050e-001	 1.6403686234e+000	-1.1977521294e+000
 5.6308030625e-001	 1.6463686408e+000	-1.1826339956e+000
 5.4581321437e-001	 1.6521734179e+000	-1.1664410224e+000
 5.2852934593e-001	 1.6577833867e+000	-1.1477959571e+000
 5.1123180679e-001	 1.6631990421e+000	-1.1254242748e+000
 6.8583222731e-001	 1.6063840055e+000	-1.3446245558e+000
 6.6870608574e-001	 1.6135883902e+000	-1.3050631492e+000
 6.5154065877e-001	 1.6205955651e+000	-1.2697155295e+000
 6.3433920787e-001	 1.6274055650e+000	-1.2421421443e+000
 6.1710497894e-001	 1.6340184931e+000	-1.2203074699e+000
 5.9984120059e-001	 1.6404345206e+000	-1.2022828480e+000
 5.8255108249e-001	 1.6466538857e+000	-1.1862983528e+000
 5.6523781365e-001	 1.6526768929e+000	-1.1707266239e+000
 5.4790456091e-001	 1.6585039117e+000	-1.1540679599e+000
 5.3055446732e-001	 1.6641353757e+000	-1.1349366921e+000
 5.1319065065e-001	 1.6695717818e+000	-1.1120488387e+000
 6.8845004245e-001	 1.6125155581e+000	-1.3414513445e+000
 6.7125853056e-001	 1.6197474419e+000	-1.3030412497e+000
 6.5402758332e-001	 1.6267813631e+000	-1.2678885889e+000
 6.3676047464e-001	 1.6336173567e+000	-1.2402386533e+000
 6.1946046282e-001	 1.6402555262e+000	-1.2183308114e+000
 6.0213078879e-001	 1.6466960436e+000	-1.2002342933e+000
 5.8477467447e-001	 1.6529391481e+000	-1.1841767647e+000
 5.6739532105e-001	 1.6589851451e+000	-1.1685279111e+000
 5.4999590745e-001	 1.6648344055e+000	-1.1517843307e+000
 5.3257958872e-001	 1.6704873647e+000	-1.1325557482e+000
 5.1514949452e-001	 1.6759445216e+000	-1.1095525533e+000
 6.9106785759e-001	 1.6186471107e+000	-1.3449718643e+000
 6.7381097538e-001	 1.6259064935e+000	-1.3080545630e+000
 6.5651450786e-001	 1.6329671611e+000	-1.2737129799e+000
 6.3918174140e-001	 1.6398291484e+000	-1.2463980694e+000
 6.2181594670e-001	 1.6464925594e+000	-1.2248199947e+000
 6.0442037699e-001	 1.6529575667e+000	-1.2070495054e+000
 5.8699826645e-001	 1.6592244104e+000	-1.1913155412e+000
 5.6955282845e-001	 1.6652933972e+000	-1.1759885586e+000
 5.5208725398e-001	 1.6711648993e+000	-1.1595652113e+000
 5.3460471011e-001	 1.6768393538e+000	-1.1406543968e+000
 5.1710833839e-001	 1.6823172613e+000	-1.1179646714e+000
 6.9368567273e-001	 1.6247786633e+000	-1.3550451885e+000
 6.7636342020e-001	 1.6320655452e+000	-1.3199702524e+000
 6.5900143241e-001	 1.6391529591e+000	-1.2870475833e+000
 6.4160300817e-001	 1.6460409400e+000	-1.2604938107e+000
 6.2417143057e-001	 1.6527295926e+000	-1.2396648816e+000
 6.0670996520e-001	 1.6592190898e+000	-1.2226366845e+000
 5.8922185843e-001	 1.6655096728e+000	-1.2076431005e+000
 5.7171033585e-001	 1.6716016493e+000	-1.1930590613e+000
 5.5417860052e-001	 1.6774953930e+000	-1.1773850080e+000
 5.3662983150e-001	 1.6831913428e+000	-1.1592327611e+000
 5.1906718226e-001	 1.6886900010e+000	-1.1373128052e+000
 6.9630348787e-001	 1.6309102159e+000	-1.3715330673e+000
 6.7891586502e-001	 1.6382245968e+000	-1.3386579701e+000
 6.6148835695e-001	 1.6453387571e+000	-1.3077531708e+000
 6.4402427494e-001	 1.6522527317e+000	-1.2824008092e+000
 6.2652691445e-001	 1.6589666257e+000	-1.2627564523e+000
 6.0899955340e-001	 1.6654806129e+000	-1.2469047370e+000
 5.9144545042e-001	 1.6717949351e+000	-1.2330881379e+000
 5.7386784325e-001	 1.6779099014e+000	-1.2196897473e+000
 5.5626994706e-001	 1.6838258868e+000	-1.2052175012e+000
 5.3865495290e-001	 1.6895433318e+000	-1.1882898654e+000
 5.2102602613e-001	 1.6950627408e+000	-1.1676229811e+000
 6.9892130301e-001	 1.6370417684e+000	-1.3942998957e+000
 6.8146830983e-001	 1.6443836485e+000	-1.3639898286e+000
 6.6397528150e-001	 1.6515245550e+000	-1.3356924310e+000
 6.4644554171e-001	 1.6584645234e+000	-1.3119955377e+000
 6.2888239833e-001	 1.6652036589e+000	-1.2939868350e+000
 6.1128914160e-001	 1.6717421360e+000	-1.2797633075e+000
 5.9366904240e-001	 1.6780801974e+000	-1.2675796621e+000
 5.7602535065e-001	 1.6842181535e+000	-1.2558308175e+000
 5.5836129360e-001	 1.6901563806e+000	-1.2430358893e+000
 5.4068007429e-001	 1.6958953208e+000	-1.2278236831e+000
 5.2298487000e-001	 1.7014354805e+000	-1.2089196934e+000
 7.0153911814e-001	 1.6431733210e+000	-1.4232126813e+000
 6.8402075465e-001	 1.6505427001e+000	-1.3958403725e+000
 6.6646220604e-001	 1.6577103530e+000	-1.3707299950e+000
 6.4886680848e-001	 1.6646763151e+000	-1.3491560376e+000
 6.3123788221e-001	 1.6714406920e+000	-1.3332493353e+000
 6.1357872980e-001	 1.6780036590e+000	-1.3211228115e+000
 5.9589263438e-001	 1.6843654598e+000	-1.3110470300e+000
 5.7818285805e-001	 1.6905264056e+000	-1.3014323843e+000
 5.6045264013e-001	 1.6964868744e+000	-1.2908128318e+000
 5.4270519568e-001	 1.7022473099e+000	-1.2778311851e+000
 5.2494371387e-001	 1.7078082202e+000	-1.2612259573e+000
 7.0415693328e-001	 1.6493048736e+000	-1.4581410131e+000
 6.8657319947e-001	 1.6567017518e+000	-1.4340865508e+000
 6.6894913058e-001	 1.6638961510e+000	-1.4126604465e+000
 6.5128807525e-001	 1.6708881068e+000	-1.3937619466e+000
 6.3359336609e-001	 1.6776777252e+000	-1.3804384664e+000
 6.1586831800e-001	 1.6842651821e+000	-1.3708944672e+000
 5.9811622637e-001	 1.6906507221e+000	-1.3634199822e+000
 5.8034036544e-001	 1.6968346577e+000	-1.3564445107e+000
 5.6254398667e-001	 1.7028173681e+000	-1.3485204920e+000
 5.4473031708e-001	 1.7085992989e+000	-1.3383083869e+000
 5.2690255774e-001	 1.7141809600e+000	-1.3245633613e+000
 7.0677474842e-001	 1.6554364262e+000	-1.4989570304e+000
 6.8912564428e-001	 1.6628608034e+000	-1.4786076899e+000
 6.7143605513e-001	 1.6700819490e+000	-1.4612613598e+000
 6.5370934202e-001	 1.6770998984e+000	-1.4456945264e+000
 6.3594884997e-001	 1.6839147584e+000	-1.4354499783e+000
 6.1815790620e-001	 1.6905267052e+000	-1.4289903280e+000
 6.0033981835e-001	 1.6969359845e+000	-1.4246286783e+000
 5.8249787284e-001	 1.7031429098e+000	-1.4208172488e+000
 5.6463533321e-001	 1.7091478619e+000	-1.4161305799e+000
 5.4675543847e-001	 1.7149512879e+000	-1.4092503957e+000
 5.2886140161e-001	 1.7205536997e+000	-1.3989521190e+000
 5.0927296292e-001	 1.6568263024e+000	-1.1496479132e+000
 4.9203115015e-001	 1.6620281924e+000	-1.1256986096e+000
 4.7478182447e-001	 1.6670376810e+000	-1.1015447359e+000
 4.5752799460e-001	 1.6718554400e+000	-1.0775997501e+000
 4.4027263869e-001	 1.6764821997e+000	-1.0543253754e+000
 4.2301870300e-001	 1.6809187473e+000	-1.0322233788e+000
 4.0576910071e-001	 1.6851659259e+000	-1.0118284208e+000
 3.8852671073e-001	 1.6892246330e+000	-9.9370191661e-001
 3.7129437657e-001	 1.6930958194e+000	-9.7842684357e-001
 3.5407490523e-001	 1.6967804878e+000	-9.6660342429e-001
 3.3687106623e-001	 1.7002796916e+000	-9.5884561038e-001
 5.1123180679e-001	 1.6631990421e+000	-1.1254242748e+000
 4.9392367591e-001	 1.6684209405e+000	-1.1005448389e+000
 4.7660800322e-001	 1.6734496973e+000	-1.0754436973e+000
 4.5928780903e-001	 1.6782859871e+000	-1.0505580456e+000
 4.4196608292e-001	 1.6829305429e+000	-1.0263719062e+000
 4.2464578249e-001	 1.6873841551e+000	-1.0034079175e+000
 4.0732983213e-001	 1.6916476699e+000	-9.8222022607e-001
 3.9002112183e-001	 1.6957219882e+000	-9.6338842136e-001
 3.7272250601e-001	 1.6996080645e+000	-9.4751244341e-001
 3.5543680250e-001	 1.7033069054e+000	-9.3520839134e-001
 3.3816679145e-001	 1.7068195684e+000	-9.2710515468e-001
 5.1319065065e-001	 1.6695717818e+000	-1.1120488387e+000
 4.9581620167e-001	 1.6748136885e+000	-1.0866238022e+000
 4.7843418198e-001	 1.6798617136e+000	-1.0609683784e+000
 4.6104762346e-001	 1.6847165342e+000	-1.0355383034e+000
 4.4365952714e-001	 1.6893788862e+000	-1.0108341571e+000
 4.2627286198e-001	 1.6938495629e+000	-9.8739318503e-001
 4.0889056355e-001	 1.6981294138e+000	-9.6578225814e-001
 3.9151553292e-001	 1.7022193433e+000	-9.4659190510e-001
 3.7415063546e-001	 1.7061203096e+000	-9.3043134661e-001
 3.5679869977e-001	 1.7098333231e+000	-9.1792445582e-001
 3.3946251667e-001	 1.7133594453e+000	-9.0970656446e-001
 5.1514949452e-001	 1.6759445216e+000	-1.1095525533e+000
 4.9770872743e-001	 1.6812064366e+000	-1.0839937115e+000
 4.8026036074e-001	 1.6862737299e+000	-1.0582000931e+000
 4.6280743788e-001	 1.6911470813e+000	-1.0326408468e+000
 4.4535297137e-001	 1.6958272294e+000	-1.0078274368e+000
 4.2789994147e-001	 1.7003149707e+000	-9.8430552101e-001
 4.1045129498e-001	 1.7046111577e+000	-9.6264800210e-001
 3.9300994401e-001	 1.7087166985e+000	-9.4344918248e-001
 3.7557876490e-001	 1.7126325547e+000	-9.2731995105e-001
 3.5816059704e-001	 1.7163597408e+000	-9.1488392227e-001
 3.4075824189e-001	 1.7198993221e+000	-9.0677444441e-001
 5.1710833839e-001	 1.6823172613e+000	-1.1179646714e+000
 4.9960125319e-001	 1.6875991846e+000	-1.0927106162e+000
 4.8208653949e-001	 1.6926857462e+000	-1.0672176018e+000
 4.6456725231e-001	 1.6975776284e+000	-1.0419631289e+000
 4.4704641560e-001	 1.7022755727e+000	-1.0174639406e+000
 4.2952702096e-001	 1.7067803785e+000	-9.9426798040e-001
 4.1201202640e-001	 1.7110929017e+000	-9.7294755760e-001
 3.9450435511e-001	 1.7152140537e+000	-9.5409365080e-001
 3.7700689435e-001	 1.7191447998e+000	-9.3831127268e-001
 3.5952249431e-001	 1.7228861584e+000	-9.2621581439e-001
 3.4205396712e-001	 1.7264391989e+000	-9.1843028333e-001
 5.1906718226e-001	 1.6886900010e+000	-1.1373128052e+000
 5.0149377895e-001	 1.6939919326e+000	-1.1128284639e+000
 4.8391271825e-001	 1.6990977625e+000	-1.0880971761e+000
 4.6632706674e-001	 1.7040081755e+000	-1.0635998003e+000
 4.4873985983e-001	 1.7087239160e+000	-1.0398528202e+000
 4.3115410045e-001	 1.7132457863e+000	-1.0174004037e+000
 4.1357275782e-001	 1.7175746456e+000	-9.9680770866e-001
 3.9599876620e-001	 1.7217114088e+000	-9.7865535840e-001
 3.7843502379e-001	 1.7256570450e+000	-9.6353501138e-001
 3.6088439158e-001	 1.7294125761e+000	-9.5204593733e-001
 3.4334969234e-001	 1.7329790757e+000	-9.4479251195e-001
 5.2102602613e-001	 1.6950627408e+000	-1.1676229811e+000
 5.0338630472e-001	 1.7003846807e+000	-1.1443991597e+000
 4.8573889701e-001	 1.7055097788e+000	-1.1209126620e+000
 4.6808688116e-001	 1.7104387226e+000	-1.0976427759e+000
 4.5043330405e-001	 1.7151722592e+000	-1.0751002516e+000
 4.3278117994e-001	 1.7197111941e+000	-1.0538194862e+000
 4.1513348924e-001	 1.7240563896e+000	-1.0343519922e+000
 3.9749317730e-001	 1.7282087640e+000	-1.0172610717e+000
 3.7986315323e-001	 1.7321692901e+000	-1.0031176156e+000
 3.6224628885e-001	 1.7359389937e+000	-9.9249693890e-001
 3.4464541756e-001	 1.7395189526e+000	-9.8597655966e-001
 5.2298487000e-001	 1.7014354805e+000	-1.2089196934e+000
 5.0527883048e-001	 1.7067774287e+000	-1.1874726254e+000
 4.8756507576e-001	 1.7119217951e+000	-1.1657355434e+000
 4.6984669559e-001	 1.7168692697e+000	-1.1441813001e+000
 4.5212674828e-001	 1.7216206025e+000	-1.1233095024e+000
 4.3440825943e-001	 1.7261766019e+000	-1.1036388450e+000
 4.1669422066e-001	 1.7305381335e+000	-1.0857007652e+000
 3.9898758839e-001	 1.7347061192e+000	-1.0700343409e+000
 3.8129128268e-001	 1.7386815352e+000	-1.0571823456e+000
 3.6360818612e-001	 1.7424654114e+000	-1.0476883695e+000
 3.4594114278e-001	 1.7460588294e+000	-1.0420949101e+000
 5.2494371387e-001	 1.7078082202e+000	-1.2612259573e+000
 5.0717135624e-001	 1.7131701768e+000	-1.2420968572e+000
 4.8939125452e-001	 1.7183338114e+000	-1.2226350031e+000
 4.7160651002e-001	 1.7232998168e+000	-1.2033020109e+000
 4.5382019251e-001	 1.7280689458e+000	-1.1845809977e+000
 4.3603533892e-001	 1.7326420096e+000	-1.1669690863e+000
 4.1825495208e-001	 1.7370198774e+000	-1.1509712712e+000
 4.0048199948e-001	 1.7412034743e+000	-1.1370955650e+000
 3.8271941212e-001	 1.7451937803e+000	-1.1258493359e+000
 3.6497008339e-001	 1.7489918290e+000	-1.1177367409e+000
 3.4723686801e-001	 1.7525987062e+000	-1.1132571559e+000
 5.2690255774e-001	 1.7141809600e+000	-1.3245633613e+000
 5.0906388200e-001	 1.7195629248e+000	-1.3083179828e+000
 4.9121743328e-001	 1.7247458277e+000	-1.2916779838e+000
 4.7336632444e-001	 1.7297303639e+000	-1.2750890039e+000
 4.5551363674e-001	 1.7345172890e+000	-1.2590123850e+000
 4.3766241841e-001	 1.7391074174e+000	-1.2439178701e+000
 4.1981568351e-001	 1.7435016214e+000	-1.2302777043e+000
 4.0197641058e-001	 1.7477008295e+000	-1.2185620547e+000
 3.8414754157e-001	 1.7517060254e+000	-1.2092356562e+000
 3.6633198066e-001	 1.7555182467e+000	-1.2027555842e+000
 3.4853259323e-001	 1.7591385831e+000	-1.1995700517e+000
 5.2886140161e-001	 1.7205536997e+000	-1.3989521190e+000
 5.1095640776e-001	 1.7259556728e+000	-1.3861803177e+000
 4.9304361203e-001	 1.7311578440e+000	-1.3729292477e+000
 4.7512613887e-001	 1.7361609110e+000	-1.3596238937e+000
 4.5720708096e-001	 1.7409656323e+000	-1.3466985977e+000
 4.3928949790e-001	 1.7455728252e+000	-1.3345899749e+000
 4.2137641493e-001	 1.7499833653e+000	-1.3237312737e+000
 4.0347082167e-001	 1.7541981846e+000	-1.3145480948e+000
 3.8557567101e-001	 1.7582182705e+000	-1.3074553710e+000
 3.6769387793e-001	 1.7620446643e+000	-1.3028555062e+000
 3.4982831845e-001	 1.7656784599e+000	-1.3011375675e+000
 3.3687106623e-001	 1.7002796916e+000	-9.5884561038e-001
 3.1968816606e-001	 1.7035940503e+000	-9.5371879491e-001
 3.0252631014e-001	 1.7067252539e+000	-9.4925505677e-001
 2.8538814467e-001	 1.7096745004e+000	-9.4528400102e-001
 2.6827627483e-001	 1.7124430329e+000	-9.4164169230e-001
 2.5119326396e-001	 1.7150321385e+000	-9.3817137388e-001
 2.3414163286e-001	 1.7174431462e+000	-9.3472446485e-001
 2.1712385907e-001	 1.7196774263e+000	-9.3116175514e-001
 2.0014237624e-001	 1.7217363883e+000	-9.2735472024e-001
 1.8319957358e-001	 1.7236214799e+000	-9.2318688106e-001
 1.6629779526e-001	 1.7253341856e+000	-9.1855513753e-001
 3.3816679145e-001	 1.7068195684e+000	-9.2710515468e-001
 3.2091779977e-001	 1.7101466753e+000	-9.2170564276e-001
 3.0368993328e-001	 1.7132899226e+000	-9.1696814624e-001
 2.8648584837e-001	 1.7162505129e+000	-9.1271786417e-001
 2.6930816023e-001	 1.7190296943e+000	-9.0878415350e-001
 2.5215944207e-001	 1.7216287584e+000	-9.0500155250e-001
 2.3504222436e-001	 1.7240490398e+000	-9.0121108884e-001
 2.1795899419e-001	 1.7262919136e+000	-8.9726178904e-001
 2.0091219458e-001	 1.7283587952e+000	-8.9301230858e-001
 1.8390422391e-001	 1.7302511375e+000	-8.8833260514e-001
 1.6693743538e-001	 1.7319704309e+000	-8.8310558140e-001
 3.3946251667e-001	 1.7133594453e+000	-9.0970656446e-001
 3.2214743349e-001	 1.7166993003e+000	-9.0420270603e-001
 3.0485355643e-001	 1.7198545913e+000	-8.9928978512e-001
 2.8758355208e-001	 1.7228265255e+000	-8.9479208660e-001
 2.7034004563e-001	 1.7256163556e+000	-8.9053662401e-001
 2.5312562017e-001	 1.7282253784e+000	-8.8635444703e-001
 2.3594281586e-001	 1.7306549333e+000	-8.8208223944e-001
 2.1879412932e-001	 1.7329064010e+000	-8.7756412151e-001
 2.0168201292e-001	 1.7349812020e+000	-8.7265357329e-001
 1.8460887424e-001	 1.7368807951e+000	-8.6721539862e-001
 1.6757707549e-001	 1.7386066762e+000	-8.6112765389e-001
 3.4075824189e-001	 1.7198993221e+000	-9.0677444441e-001
 3.2337706720e-001	 1.7232519254e+000	-9.0132979908e-001
 3.0601717958e-001	 1.7264192601e+000	-8.9634430495e-001
 2.8868125578e-001	 1.7294025381e+000	-8.9164471555e-001
 2.7137193104e-001	 1.7322030169e+000	-8.8705994848e-001
 2.5409179827e-001	 1.7348219983e+000	-8.8242265680e-001
 2.3684340737e-001	 1.7372608268e+000	-8.7757109636e-001
 2.1962926445e-001	 1.7395208884e+000	-8.7235119992e-001
 2.0245183126e-001	 1.7416036089e+000	-8.6661877191e-001
 1.8531352457e-001	 1.7435104527e+000	-8.6024172102e-001
 1.6821671561e-001	 1.7452429214e+000	-8.5310225202e-001
 3.4205396712e-001	 1.7264391989e+000	-9.1843028333e-001
 3.2460670091e-001	 1.7298045504e+000	-9.1320374978e-001
 3.0718080273e-001	 1.7329839288e+000	-9.0825304672e-001
 2.8977895949e-001	 1.7359785507e+000	-9.0341067122e-001
 2.7240381644e-001	 1.7387896783e+000	-8.9851157634e-001
 2.5505797638e-001	 1.7414186183e+000	-8.9339498704e-001
 2.3774399887e-001	 1.7438667204e+000	-8.8790651656e-001
 2.2046439958e-001	 1.7461353758e+000	-8.8190049163e-001
 2.0322164960e-001	 1.7482260158e+000	-8.7524239729e-001
 1.8601817490e-001	 1.7501401103e+000	-8.6781135624e-001
 1.6885635573e-001	 1.7518791667e+000	-8.5950256133e-001
 3.4334969234e-001	 1.7329790757e+000	-9.4479251195e-001
 3.2583633463e-001	 1.7363571754e+000	-9.3993845363e-001
 3.0834442588e-001	 1.7395485976e+000	-9.3513441424e-001
 2.9087666319e-001	 1.7425545633e+000	-9.3022180184e-001
 2.7343570185e-001	 1.7453763396e+000	-9.2504562131e-001
 2.5602415448e-001	 1.7480152383e+000	-9.1945651539e-001
 2.3864459037e-001	 1.7504726139e+000	-9.1331311050e-001
 2.2129953470e-001	 1.7527498631e+000	-9.0648457251e-001
 2.0399146794e-001	 1.7548484226e+000	-8.9885328088e-001
 1.8672282524e-001	 1.7567697679e+000	-8.9031753315e-001
 1.6949599584e-001	 1.7585154120e+000	-8.8079419624e-001
 3.4464541756e-001	 1.7395189526e+000	-9.8597655966e-001
 3.2706596834e-001	 1.7429098004e+000	-9.8164492697e-001
 3.0950804903e-001	 1.7461132663e+000	-9.7710392632e-001
 2.9197436690e-001	 1.7491305759e+000	-9.7220693767e-001
 2.7446758725e-001	 1.7519630010e+000	-9.6681291969e-001
 2.5699033259e-001	 1.7546118582e+000	-9.6078865717e-001
 2.3954518187e-001	 1.7570785075e+000	-9.5401131679e-001
 2.2213466983e-001	 1.7593643505e+000	-9.4637121357e-001
 2.0476128629e-001	 1.7614708295e+000	-9.3777469376e-001
 1.8742747557e-001	 1.7633994255e+000	-9.2814704353e-001
 1.7013563596e-001	 1.7651516572e+000	-9.1743533730e-001
 3.4594114278e-001	 1.7460588294e+000	-1.0420949101e+000
 3.2829560206e-001	 1.7494624254e+000	-1.0384313591e+000
 3.1067167217e-001	 1.7526779350e+000	-1.0342742680e+000
 2.9307207060e-001	 1.7557065884e+000	-1.0294919438e+000
 2.7549947265e-001	 1.7585496623e+000	-1.0239610875e+000
 2.5795651069e-001	 1.7612084782e+000	-1.0175692292e+000
 2.4044577338e-001	 1.7636844010e+000	-1.0102174752e+000
 2.2296980496e-001	 1.7659788379e+000	-1.0018234656e+000
 2.0553110463e-001	 1.7680932364e+000	-9.9232444552e-001
 1.8813212590e-001	 1.7700290831e+000	-9.8168035737e-001
 1.7077527607e-001	 1.7717879025e+000	-9.6987686534e-001
 3.4723686801e-001	 1.7525987062e+000	-1.1132571559e+000
 3.2952523577e-001	 1.7560150505e+000	-1.1104031633e+000
 3.1183529532e-001	 1.7592426038e+000	-1.1067553408e+000
 2.9416977431e-001	 1.7622826010e+000	-1.1021997722e+000
 2.7653135806e-001	 1.7651363236e+000	-1.0966345762e+000
 2.5892268880e-001	 1.7678050981e+000	-1.0899725120e+000
 2.4134636488e-001	 1.7702902946e+000	-1.0821438982e+000
 2.2380494009e-001	 1.7725933253e+000	-1.0730997422e+000
 2.0630092297e-001	 1.7747156432e+000	-1.0628149808e+000
 1.8883677623e-001	 1.7766587407e+000	-1.0512917357e+000
 1.7141491619e-001	 1.7784241478e+000	-1.0385624927e+000
 3.4853259323e-001	 1.7591385831e+000	-1.1995700517e+000
 3.3075486948e-001	 1.7625676755e+000	-1.1976630272e+000
 3.1299891847e-001	 1.7658072725e+000	-1.1946543119e+000
 2.9526747801e-001	 1.7688586136e+000	-1.1904505119e+000
 2.7756324346e-001	 1.7717229850e+000	-1.1849747277e+000
 2.5988886690e-001	 1.7744017181e+000	-1.1781693115e+000
 2.4224695638e-001	 1.7768961881e+000	-1.1699989408e+000
 2.2464007521e-001	 1.7792078126e+000	-1.1604539006e+000
 2.0707074131e-001	 1.7813380501e+000	-1.1495534741e+000
 1.8954142656e-001	 1.7832883983e+000	-1.1373493408e+000
 1.7205455631e-001	 1.7850603930e+000	-1.1239288916e+000
 3.4982831845e-001	 1.7656784599e+000	-1.3011375675e+000
 3.3198450320e-001	 1.7691203005e+000	-1.3003109615e+000
 3.1416254162e-001	 1.7723719412e+000	-1.2980756622e+000
 2.9636518172e-001	 1.7754346262e+000	-1.2943614395e+000
 2.7859512886e-001	 1.7783096463e+000	-1.2891198278e+000
 2.6085504500e-001	 1.7809983380e+000	-1.2823270184e+000
 2.4314754788e-001	 1.7835020816e+000	-1.2739870690e+000
 2.2547521034e-001	 1.7858223000e+000	-1.2641353213e+000
 2.0784055965e-001	 1.7879604570e+000	-1.2528419217e+000
 1.9024607689e-001	 1.7899180559e+000	-1.2402153443e+000
 1.7269419642e-001	 1.7916966383e+000	-1.2264058196e+000
 1.6629779526e-001	 1.7253341856e+000	-9.1855513753e-001
 1.4943682018e-001	 1.7268762435e+000	-9.1315250048e-001
 1.3262146970e-001	 1.7282489382e+000	-9.0704875929e-001
 1.1585398508e-001	 1.7294538565e+000	-9.0075581209e-001
 9.9136559780e-002	 1.7304926164e+000	-8.9483924701e-001
 8.2471339175e-002	 1.7313668654e+000	-8.8991646278e-001
 6.5860420304e-002	 1.7320782790e+000	-8.8665444831e-001
 4.9305851646e-002	 1.7326285597e+000	-8.8576718976e-001
 3.2809632944e-002	 1.7330194352e+000	-8.8801267859e-001
 1.6373715085e-002	 1.7332526572e+000	-8.9418950031e-001
 0.0000000000e+000	 1.7333300000e+000	-9.0513298714e-001
 1.6693743538e-001	 1.7319704309e+000	-8.8310558140e-001
 1.5001160702e-001	 1.7335184201e+000	-8.7727878540e-001
 1.3313157877e-001	 1.7348963946e+000	-8.7111606510e-001
 1.1629960047e-001	 1.7361059475e+000	-8.6503624748e-001
 9.9517874039e-002	 1.7371487029e+000	-8.5952793128e-001
 8.2788553104e-002	 1.7380263145e+000	-8.5514755708e-001
 6.6113742766e-002	 1.7387404645e+000	-8.5251710498e-001
 4.9495499384e-002	 1.7392928617e+000	-8.5232138797e-001
 3.2935830393e-002	 1.7396852407e+000	-8.5530491440e-001
 1.6436694182e-002	 1.7399193597e+000	-8.6226829923e-001
 0.0000000000e+000	 1.7399970000e+000	-8.7406420736e-001
 1.6757707549e-001	 1.7386066762e+000	-8.6112765389e-001
 1.5058639387e-001	 1.7401605966e+000	-8.5466339996e-001
 1.3364168783e-001	 1.7415438511e+000	-8.4836758972e-001
 1.1674521586e-001	 1.7427580385e+000	-8.4259524403e-001
 9.9899188298e-002	 1.7438047893e+000	-8.3778144906e-001
 8.3105767032e-002	 1.7446857636e+000	-8.3443949799e-001
 6.6367065228e-002	 1.7454026499e+000	-8.3315863421e-001
 4.9685147121e-002	 1.7459571637e+000	-8.3460136325e-001
 3.3062027841e-002	 1.7463510461e+000	-8.3950030625e-001
 1.6499673279e-002	 1.7465860622e+000	-8.4865457422e-001
 0.0000000000e+000	 1.7466640000e+000	-8.6292564609e-001
 1.6821671561e-001	 1.7452429214e+000	-8.5310225202e-001
 1.5116118071e-001	 1.7468027732e+000	-8.4583816945e-001
 1.3415179689e-001	 1.7481913075e+000	-8.3933076223e-001
 1.1719083125e-001	 1.7494101295e+000	-8.3390031310e-001
 1.0028050256e-001	 1.7504608757e+000	-8.2995171935e-001
 8.3422980960e-002	 1.7513452127e+000	-8.2797282790e-001
 6.6620387689e-002	 1.7520648353e+000	-8.2853235073e-001
 4.9874794859e-002	 1.7526214657e+000	-8.3227732688e-001
 3.3188225289e-002	 1.7530168516e+000	-8.3993010275e-001
 1.6562652376e-002	 1.7532527647e+000	-8.5228480917e-001
 0.0000000000e+000	 1.7533310000e+000	-8.7020331732e-001
 1.6885635573e-001	 1.7518791667e+000	-8.5950256133e-001
 1.5173596756e-001	 1.7534449498e+000	-8.5132652683e-001
 1.3466190595e-001	 1.7548387639e+000	-8.4452477463e-001
 1.1763644663e-001	 1.7560622204e+000	-8.3941172204e-001
 1.0066181682e-001	 1.7571169621e+000	-8.3638524943e-001
 8.3740194888e-002	 1.7580046618e+000	-8.3592534955e-001
 6.6873710150e-002	 1.7587270208e+000	-8.3859234145e-001
 5.0064442596e-002	 1.7592857678e+000	-8.4502461323e-001
 3.3314422737e-002	 1.7596826570e+000	-8.5593586438e-001
 1.6625631473e-002	 1.7599194672e+000	-8.7211182457e-001
 0.0000000000e+000	 1.7599980000e+000	-8.9440643004e-001
 1.6949599584e-001	 1.7585154120e+000	-8.8079419624e-001
 1.5231075440e-001	 1.7600871263e+000	-8.7164366628e-001
 1.3517201501e-001	 1.7614862204e+000	-8.6446073277e-001
 1.1808206202e-001	 1.7627143114e+000	-8.5958262691e-001
 1.0104313107e-001	 1.7637730485e+000	-8.5742323348e-001
 8.4057408816e-002	 1.7646641108e+000	-8.5847217482e-001
 6.7127032611e-002	 1.7653892062e+000	-8.6329344852e-001
 5.0254090332e-002	 1.7659500698e+000	-8.7252358133e-001
 3.3440620184e-002	 1.7663484625e+000	-8.8686926772e-001
 1.6688610569e-002	 1.7665861698e+000	-9.0710446876e-001
 0.0000000000e+000	 1.7666650000e+000	-9.3406695061e-001
 1.7013563596e-001	 1.7651516572e+000	-9.1743533730e-001
 1.5288554125e-001	 1.7667293029e+000	-9.0729669331e-001
 1.3568212407e-001	 1.7681336768e+000	-8.9964180398e-001
 1.1852767741e-001	 1.7693664024e+000	-8.9485920219e-001
 1.0142444533e-001	 1.7704291350e+000	-8.9340164909e-001
 8.4374622743e-002	 1.7713235599e+000	-8.9578577237e-001
 6.7380355071e-002	 1.7720513917e+000	-9.0259125285e-001
 5.0443738068e-002	 1.7726143718e+000	-9.1445951869e-001
 3.3566817631e-002	 1.7730142679e+000	-9.3209191416e-001
 1.6751589666e-002	 1.7732528723e+000	-9.5624731599e-001
 0.0000000000e+000	 1.7733320000e+000	-9.8773917497e-001
 1.7077527607e-001	 1.7717879025e+000	-9.6987686534e-001
 1.5346032809e-001	 1.7733714795e+000	-9.5878477143e-001
 1.3619223313e-001	 1.7747811332e+000	-9.5056336134e-001
 1.1897329279e-001	 1.7760184934e+000	-9.4568076762e-001
 1.0180575959e-001	 1.7770852214e+000	-9.4465135140e-001
 8.4691836670e-002	 1.7779830090e+000	-9.4803601430e-001
 6.7633677531e-002	 1.7787135771e+000	-9.5644205787e-001
 5.0633385805e-002	 1.7792786738e+000	-9.7052254725e-001
 3.3693015078e-002	 1.7796800734e+000	-9.9097514292e-001
 1.6814568762e-002	 1.7799195748e+000	-1.0185403714e+000
 0.0000000000e+000	 1.7799990000e+000	-1.0539993104e+000
 1.7141491619e-001	 1.7784241478e+000	-1.0385624927e+000
 1.5403511493e-001	 1.7800136561e+000	-1.0265992657e+000
 1.3670234219e-001	 1.7814285897e+000	-1.0177131248e+000
 1.1941890818e-001	 1.7826705844e+000	-1.0124799122e+000
 1.0218707385e-001	 1.7837413078e+000	-1.0114981654e+000
 8.5009050597e-002	 1.7846424581e+000	-1.0153902217e+000
 6.7886999991e-002	 1.7853757625e+000	-1.0248028739e+000
 5.0823033541e-002	 1.7859429758e+000	-1.0404075315e+000
 3.3819212525e-002	 1.7863458789e+000	-1.0628998482e+000
 1.6877547859e-002	 1.7865862773e+000	-1.0929987827e+000
 0.0000000000e+000	 1.7866660000e+000	-1.1314450668e+000
 1.7205455631e-001	 1.7850603930e+000	-1.1239288916e+000
 1.5460990178e-001	 1.7866558326e+000	-1.1112238830e+000
 1.3721245125e-001	 1.7880760461e+000	-1.1015712991e+000
 1.1986452356e-001	 1.7893226754e+000	-1.0956826152e+000
 1.0256838811e-001	 1.7903973942e+000	-1.0942629759e+000
 8.5326264524e-002	 1.7913019072e+000	-1.0980132092e+000
 6.8140322451e-002	 1.7920379480e+000	-1.1076314024e+000
 5.1012681276e-002	 1.7926072778e+000	-1.1238139886e+000
 3.3945409972e-002	 1.7930116843e+000	-1.1472563004e+000
 1.6940526955e-002	 1.7932529798e+000	-1.1786525579e+000
 0.0000000000e+000	 1.7933330000e+000	-1.2186952570e+000
 1.7269419642e-001	 1.7916966383e+000	-1.2264058196e+000
 1.5518468862e-001	 1.7932980092e+000	-1.2131348092e+000
 1.3772256031e-001	 1.7947235026e+000	-1.2026107087e+000
 1.2031013895e-001	 1.7959747663e+000	-1.1957083653e+000
 1.0294970236e-001	 1.7970534806e+000	-1.1932618158e+000
 8.5643478450e-002	 1.7979613563e+000	-1.1960673285e+000
 6.8393644910e-002	 1.7987001334e+000	-1.2048860215e+000
 5.1202329012e-002	 1.7992715798e+000	-1.2204460005e+000
 3.4071607418e-002	 1.7996774898e+000	-1.2434439716e+000
 1.7003506051e-002	 1.7999196823e+000	-1.2745462895e+000
 0.0000000000e+000	 1.8000000000e+000	-1.3143894057e+000
 1.8000000000e+000	 0.0000000000e+000	 3.2382405083e+000
 1.7999196823e+000	 1.7003506051e-002	 3.2418708657e+000
 1.7996774898e+000	 3.4071607418e-002	 3.2402189876e+000
 1.7992715798e+000	 5.1202329012e-002	 3.2339987379e+000
 1.7987001334e+000	 6.8393644910e-002	 3.2239397595e+000
 1.7979613563e+000	 8.5643478450e-002	 3.2107851827e+000
 1.7970534806e+000	 1.0294970236e-001	 3.1952887356e+000
 1.7959747663e+000	 1.2031013895e-001	 3.1782112804e+000
 1.7947235026e+000	 1.3772256031e-001	 3.1603168039e+000
 1.7932980092e+000	 1.5518468862e-001	 3.1423678963e+000
 1.7916966383e+000	 1.7269419642e-001	 3.1251207608e+000
 1.8066670000e+000	 0.0000000000e+000	 3.3148845011e+000
 1.8065863848e+000	 1.7066485147e-002	 3.3179176294e+000
 1.8063432953e+000	 3.4197804865e-002	 3.3156199102e+000
 1.8059358819e+000	 5.1391976747e-002	 3.3087071767e+000
 1.8053623189e+000	 6.8646967369e-002	 3.2979128227e+000
 1.8046208054e+000	 8.5960692376e-002	 3.2839853687e+000
 1.8037095671e+000	 1.0333101662e-001	 3.2676854048e+000
 1.8026268573e+000	 1.2075575433e-001	 3.2497819355e+000
 1.8013709590e+000	 1.3823266937e-001	 3.2310481548e+000
 1.7999401858e+000	 1.5575947546e-001	 3.2122566860e+000
 1.7983328836e+000	 1.7333383654e-001	 3.1941743305e+000
 1.8133340000e+000	 0.0000000000e+000	 3.3564125221e+000
 1.8132530874e+000	 1.7129464244e-002	 3.3593241374e+000
 1.8130091007e+000	 3.4324002311e-002	 3.3568097873e+000
 1.8126001839e+000	 5.1581624483e-002	 3.3495954527e+000
 1.8120245043e+000	 6.8900289829e-002	 3.3384270375e+000
 1.8112802545e+000	 8.6277906302e-002	 3.3240677885e+000
 1.8103656535e+000	 1.0371233087e-001	 3.3072950645e+000
 1.8092789483e+000	 1.2120136972e-001	 3.2888964825e+000
 1.8080184155e+000	 1.3874277843e-001	 3.2696654686e+000
 1.8065823623e+000	 1.5633426231e-001	 3.2503962485e+000
 1.8049691289e+000	 1.7397347665e-001	 3.2318783233e+000
 1.8200010000e+000	 0.0000000000e+000	 3.3631528227e+000
 1.8199197899e+000	 1.7192443340e-002	 3.3663743924e+000
 1.8196749062e+000	 3.4450199758e-002	 3.3640315182e+000
 1.8192644859e+000	 5.1771272218e-002	 3.3568684294e+000
 1.8186866897e+000	 6.9153612288e-002	 3.3456522204e+000
 1.8179397036e+000	 8.6595120228e-002	 3.3311701188e+000
 1.8170217399e+000	 1.0409364513e-001	 3.3142260764e+000
 1.8159310393e+000	 1.2164698510e-001	 3.2956367088e+000
 1.8146658719e+000	 1.3925288749e-001	 3.2762266123e+000
 1.8132245389e+000	 1.5690904915e-001	 3.2568230961e+000
 1.8116053741e+000	 1.7461311676e-001	 3.2382503727e+000
 1.8266680000e+000	 0.0000000000e+000	 3.3354281827e+000
 1.8265864924e+000	 1.7255422436e-002	 3.3393477324e+000
 1.8263407116e+000	 3.4576397204e-002	 3.3375240814e+000
 1.8259287879e+000	 5.1960919954e-002	 3.3307277323e+000
 1.8253488752e+000	 6.9406934747e-002	 3.3197555721e+000
 1.8245991527e+000	 8.6912334153e-002	 3.3054279855e+000
 1.8236778263e+000	 1.0447495939e-001	 3.2885852604e+000
 1.8225831303e+000	 1.2209260049e-001	 3.2700833141e+000
 1.8213133283e+000	 1.3976299655e-001	 3.2507887679e+000
 1.8198667155e+000	 1.5748383599e-001	 3.2315734092e+000
 1.8182416194e+000	 1.7525275688e-001	 3.2133080850e+000
 1.8333350000e+000	 0.0000000000e+000	 3.2735560107e+000
 1.8332531949e+000	 1.7318401533e-002	 3.2785189173e+000
 1.8330065171e+000	 3.4702594651e-002	 3.2775226086e+000
 1.8325930899e+000	 5.2150567690e-002	 3.2713718104e+000
 1.8320110606e+000	 6.9660257206e-002	 3.2609017293e+000
 1.8312586018e+000	 8.7229548080e-002	 3.2469750053e+000
 1.8303339127e+000	 1.0485627364e-001	 3.2304779269e+000
 1.8292352213e+000	 1.2253821587e-001	 3.2123159357e+000
 1.8279607848e+000	 1.4027310561e-001	 3.1934084502e+000
 1.8265088921e+000	 1.5805862283e-001	 3.1746830466e+000
 1.8248778647e+000	 1.7589239699e-001	 3.1570690443e+000
 1.8400020000e+000	 0.0000000000e+000	 3.1778484406e+000
 1.8399198974e+000	 1.7381380629e-002	 3.1841582126e+000
 1.8396723226e+000	 3.4828792098e-002	 3.1842584561e+000
 1.8392573919e+000	 5.2340215426e-002	 3.1789959974e+000
 1.8386732461e+000	 6.9913579666e-002	 3.1692528147e+000
 1.8379180509e+000	 8.7546762006e-002	 3.1559428263e+000
 1.8369899992e+000	 1.0523758790e-001	 3.1400079087e+000
 1.8358873122e+000	 1.2298383126e-001	 3.1224131719e+000
 1.8346082412e+000	 1.4078321467e-001	 3.1041415231e+000
 1.8331510686e+000	 1.5863340967e-001	 3.0861875566e+000
 1.8315141099e+000	 1.7653203710e-001	 3.0695508170e+000
 1.8466690000e+000	 0.0000000000e+000	 3.0486124272e+000
 1.8465865999e+000	 1.7444359726e-002	 3.0565314719e+000
 1.8463381280e+000	 3.4954989546e-002	 3.0579592755e+000
 1.8459216940e+000	 5.2529863162e-002	 3.0537925703e+000
 1.8453354315e+000	 7.0166902126e-002	 3.0449684860e+000
 1.8445774999e+000	 8.7863975933e-002	 3.0324611681e+000
 1.8436460856e+000	 1.0561890216e-001	 3.0172775928e+000
 1.8425394032e+000	 1.2342944664e-001	 3.0004526059e+000
 1.8412556977e+000	 1.4129332373e-001	 2.9830432170e+000
 1.8397932452e+000	 1.5920819652e-001	 2.9661221869e+000
 1.8381503552e+000	 1.7717167722e-001	 2.9507709575e+000
 1.8533360000e+000	 0.0000000000e+000	 2.8861498391e+000
 1.8532533024e+000	 1.7507338823e-002	 2.8959002179e+000
 1.8530039335e+000	 3.5081186993e-002	 2.8988490827e+000
 1.8525859960e+000	 5.2719510899e-002	 2.8959508082e+000
 1.8519976169e+000	 7.0420224587e-002	 2.8882059843e+000
 1.8512369490e+000	 8.8181189860e-002	 2.8766578602e+000
 1.8503021720e+000	 1.0600021642e-001	 2.8623879503e+000
 1.8491914942e+000	 1.2387506203e-001	 2.8465108287e+000
 1.8479031541e+000	 1.4180343279e-001	 2.8301681442e+000
 1.8464354218e+000	 1.5978298336e-001	 2.8145218947e+000
 1.8447866005e+000	 1.7781131733e-001	 2.8007470120e+000
 1.8600030000e+000	 0.0000000000e+000	 2.6907575503e+000
 1.8599200050e+000	 1.7570317920e-002	 2.7025217203e+000
 1.8596697389e+000	 3.5207384442e-002	 2.7071483248e+000
 1.8592502980e+000	 5.2909158637e-002	 2.7056570485e+000
 1.8586598024e+000	 7.0673547048e-002	 2.6991201807e+000
 1.8578963981e+000	 8.8498403788e-002	 2.6886588805e+000
 1.8569582584e+000	 1.0638153067e-001	 2.6754385670e+000
 1.8558435852e+000	 1.2432067742e-001	 2.6606634616e+000
 1.8545506105e+000	 1.4231354185e-001	 2.6455703149e+000
 1.8530775984e+000	 1.6035777020e-001	 2.6314213570e+000
 1.8514228458e+000	 1.7845095745e-001	 2.6194965235e+000
 1.8666700000e+000	 0.0000000000e+000	 2.4627275290e+000
 1.8665867075e+000	 1.7633297017e-002	 2.4766490739e+000
 1.8663355444e+000	 3.5333581890e-002	 2.4830739467e+000
 1.8659146000e+000	 5.3098806374e-002	 2.4830947430e+000
 1.8653219878e+000	 7.0926869510e-002	 2.4778636228e+000
 1.8645558472e+000	 8.8815617717e-002	 2.4685883923e+000
 1.8636143449e+000	 1.0676284493e-001	 2.4565276718e+000
 1.8624956762e+000	 1.2476629280e-001	 2.4429851780e+000
 1.8611980670e+000	 1.4282365091e-001	 2.4293031529e+000
 1.8597197749e+000	 1.6093255705e-001	 2.4168549793e+000
 1.8580590910e+000	 1.7909059756e-001	 2.4070370358e+000
 1.7916966383e+000	 1.7269419642e-001	 3.1251207608e+000
 1.7899180559e+000	 1.9024607689e-001	 3.1059485589e+000
 1.7879604570e+000	 2.0784055965e-001	 3.0819447919e+000
 1.7858223000e+000	 2.2547521034e-001	 3.0534221944e+000
 1.7835020816e+000	 2.4314754788e-001	 3.0206573085e+000
 1.7809983380e+000	 2.6085504500e-001	 2.9838842665e+000
 1.7783096463e+000	 2.7859512886e-001	 2.9432885391e+000
 1.7754346262e+000	 2.9636518172e-001	 2.8990007444e+000
 1.7723719412e+000	 3.1416254162e-001	 2.8510906226e+000
 1.7691203005e+000	 3.3198450320e-001	 2.7995612837e+000
 1.7656784599e+000	 3.4982831845e-001	 2.7443438466e+000
 1.7983328836e+000	 1.7333383654e-001	 3.1941743305e+000
 1.7965477135e+000	 1.9095072722e-001	 3.1741585705e+000
 1.7945828638e+000	 2.0861037799e-001	 3.1492610658e+000
 1.7924367874e+000	 2.2631034547e-001	 3.1197667719e+000
 1.7901079752e+000	 2.4404813938e-001	 3.0859245633e+000
 1.7875949580e+000	 2.6182122311e-001	 3.0479407502e+000
 1.7848963077e+000	 2.7962701426e-001	 3.0059725498e+000
 1.7820106388e+000	 2.9746288542e-001	 2.9601216093e+000
 1.7789366100e+000	 3.1532616477e-001	 2.9104276886e+000
 1.7756729255e+000	 3.3321413691e-001	 2.8568626128e+000
 1.7722183367e+000	 3.5112404367e-001	 2.7993246150e+000
 1.8049691289e+000	 1.7397347665e-001	 3.2318783233e+000
 1.8031773711e+000	 1.9165537755e-001	 3.2114689959e+000
 1.8012052707e+000	 2.0938019632e-001	 3.1861860207e+000
 1.7990512748e+000	 2.2714548059e-001	 3.1562875560e+000
 1.7967138687e+000	 2.4494873088e-001	 3.1219958157e+000
 1.7941915779e+000	 2.6278740121e-001	 3.0834903108e+000
 1.7914829690e+000	 2.8065889967e-001	 3.0409010337e+000
 1.7885866514e+000	 2.9856058912e-001	 2.9943016859e+000
 1.7855012787e+000	 3.1648978791e-001	 2.9437030575e+000
 1.7822255506e+000	 3.3444377062e-001	 2.8890466737e+000
 1.7787582135e+000	 3.5241976890e-001	 2.8301988311e+000
 1.8116053741e+000	 1.7461311676e-001	 3.2382503727e+000
 1.8098070287e+000	 1.9236002788e-001	 3.2178795778e+000
 1.8078276776e+000	 2.1015001466e-001	 3.1927010840e+000
 1.8056657621e+000	 2.2798061572e-001	 3.1629472644e+000
 1.8033197623e+000	 2.4584932238e-001	 3.1288147104e+000
 1.8007881979e+000	 2.6375357931e-001	 3.0904571889e+000
 1.7980696303e+000	 2.8169078507e-001	 3.0479785295e+000
 1.7951626639e+000	 2.9965829283e-001	 3.0014255460e+000
 1.7920659475e+000	 3.1765341106e-001	 2.9507811028e+000
 1.7887781756e+000	 3.3567340433e-001	 2.8959574449e+000
 1.7852980904e+000	 3.5371549412e-001	 2.8367899145e+000
 1.8182416194e+000	 1.7525275688e-001	 3.2133080850e+000
 1.8164366863e+000	 1.9306467821e-001	 3.1933903111e+000
 1.8144500845e+000	 2.1091983300e-001	 3.1687882111e+000
 1.8122802495e+000	 2.2881575084e-001	 3.1397094155e+000
 1.8099256558e+000	 2.4674991388e-001	 3.1063259635e+000
 1.8073848178e+000	 2.6471975741e-001	 3.0687669651e+000
 1.8046562917e+000	 2.8272267047e-001	 3.0271111824e+000
 1.8017386765e+000	 3.0075599653e-001	 2.9813796338e+000
 1.7986306162e+000	 3.1881703421e-001	 2.9315283367e+000
 1.7953308006e+000	 3.3690303805e-001	 2.8774413089e+000
 1.7918379672e+000	 3.5501121934e-001	 2.8189239561e+000
 1.8248778647e+000	 1.7589239699e-001	 3.1570690443e+000
 1.8230663439e+000	 1.9376932854e-001	 3.1380014426e+000
 1.8210724913e+000	 2.1168965134e-001	 3.1144298799e+000
 1.8188947369e+000	 2.2965088597e-001	 3.0865383180e+000
 1.8165315494e+000	 2.4765050538e-001	 3.0544753457e+000
 1.8139814378e+000	 2.6568593551e-001	 3.0183465374e+000
 1.8112429530e+000	 2.8375455587e-001	 2.9782067166e+000
 1.8083146891e+000	 3.0185370023e-001	 2.9340522330e+000
 1.8051952849e+000	 3.1998065735e-001	 2.8858133705e+000
 1.8018834256e+000	 3.3813267176e-001	 2.8333470084e+000
 1.7983778440e+000	 3.5630694456e-001	 2.7764296681e+000
 1.8315141099e+000	 1.7653203710e-001	 3.0695508170e+000
 1.8296960015e+000	 1.9447397886e-001	 3.0517134710e+000
 1.8276948982e+000	 2.1245946968e-001	 3.0296090855e+000
 1.8255092243e+000	 2.3048602109e-001	 3.0033990594e+000
 1.8231374429e+000	 2.4855109688e-001	 2.9732096665e+000
 1.8205780578e+000	 2.6665211362e-001	 2.9391240998e+000
 1.8178296144e+000	 2.8478644127e-001	 2.9011744080e+000
 1.8148907017e+000	 3.0295140394e-001	 2.8593334343e+000
 1.8117599537e+000	 3.2114428050e-001	 2.8135068774e+000
 1.8084360507e+000	 3.3936230547e-001	 2.7635256027e+000
 1.8049177208e+000	 3.5760266978e-001	 2.7091383351e+000
 1.8381503552e+000	 1.7717167722e-001	 2.9507709575e+000
 1.8363256591e+000	 1.9517862919e-001	 2.9345271458e+000
 1.8343173051e+000	 2.1322928802e-001	 2.9143093339e+000
 1.8321237116e+000	 2.3132115622e-001	 2.8902574953e+000
 1.8297433364e+000	 2.4945168838e-001	 2.8624767573e+000
 1.8271746777e+000	 2.6761829172e-001	 2.8310291206e+000
 1.8244162757e+000	 2.8581832668e-001	 2.7959250578e+000
 1.8214667143e+000	 3.0404910764e-001	 2.7571151028e+000
 1.8183246224e+000	 3.2230790365e-001	 2.7144815546e+000
 1.8149886757e+000	 3.4059193919e-001	 2.6678304248e+000
 1.8114575977e+000	 3.5889839500e-001	 2.6168837661e+000
 1.8447866005e+000	 1.7781131733e-001	 2.8007470120e+000
 1.8429553167e+000	 1.9588327952e-001	 2.7864434678e+000
 1.8409397119e+000	 2.1399910635e-001	 2.7685146370e+000
 1.8387381990e+000	 2.3215629134e-001	 2.7470802389e+000
 1.8363492300e+000	 2.5035227988e-001	 2.7222254563e+000
 1.8337712977e+000	 2.6858446982e-001	 2.6939923217e+000
 1.8310029370e+000	 2.8685021208e-001	 2.6623709658e+000
 1.8280427269e+000	 3.0514681134e-001	 2.6272908473e+000
 1.8248892912e+000	 3.2347152680e-001	 2.5886120868e+000
 1.8215413007e+000	 3.4182157290e-001	 2.5461170397e+000
 1.8179974745e+000	 3.6019412023e-001	 2.4995022472e+000
 1.8514228458e+000	 1.7845095745e-001	 2.6194965235e+000
 1.8495849743e+000	 1.9658792985e-001	 2.6074636878e+000
 1.8475621188e+000	 2.1476892469e-001	 2.5922095070e+000
 1.8453526864e+000	 2.3299142647e-001	 2.5738346501e+000
 1.8429551235e+000	 2.5125287139e-001	 2.5524055927e+000
 1.8403679176e+000	 2.6955064792e-001	 2.5279456577e+000
 1.8375895984e+000	 2.8788209748e-001	 2.5004259052e+000
 1.8346187395e+000	 3.0624451505e-001	 2.4697559891e+000
 1.8314539599e+000	 3.2463514994e-001	 2.4357751105e+000
 1.8280939257e+000	 3.4305120661e-001	 2.3982432033e+000
 1.8245373513e+000	 3.6148984545e-001	 2.3568324956e+000
 1.8580590910e+000	 1.7909059756e-001	 2.4070370358e+000
 1.8562146319e+000	 1.9729258018e-001	 2.3975893065e+000
 1.8541845257e+000	 2.1553874303e-001	 2.3853789511e+000
 1.8519671738e+000	 2.3382656160e-001	 2.3704888259e+000
 1.8495610171e+000	 2.5215346289e-001	 2.3529679711e+000
 1.8469645376e+000	 2.7051682603e-001	 2.3328222960e+000
 1.8441762597e+000	 2.8891398288e-001	 2.3100050971e+000
 1.8411947520e+000	 3.0734221875e-001	 2.2844075317e+000
 1.8380186287e+000	 3.2579877309e-001	 2.2558491783e+000
 1.8346465508e+000	 3.4428084032e-001	 2.2240688219e+000
 1.8310772282e+000	 3.6278557067e-001	 2.1887156141e+000
 1.7656784599e+000	 3.4982831845e-001	 2.7443438466e+000
 1.7620446643e+000	 3.6769387793e-001	 2.6865882175e+000
 1.7582182705e+000	 3.8557567101e-001	 2.6273658939e+000
 1.7541981846e+000	 4.0347082167e-001	 2.5663491913e+000
 1.7499833653e+000	 4.2137641493e-001	 2.5031307876e+000
 1.7455728252e+000	 4.3928949790e-001	 2.4372225960e+000
 1.7409656323e+000	 4.5720708096e-001	 2.3680558006e+000
 1.7361609110e+000	 4.7512613887e-001	 2.2949821887e+000
 1.7311578440e+000	 4.9304361203e-001	 2.2172769117e+000
 1.7259556728e+000	 5.1095640776e-001	 2.1341428036e+000
 1.7205536997e+000	 5.2886140161e-001	 2.0447163824e+000
 1.7722183367e+000	 3.5112404367e-001	 2.7993246150e+000
 1.7685710820e+000	 3.6905577520e-001	 2.7389806256e+000
 1.7647305157e+000	 3.8700380046e-001	 2.6769786858e+000
 1.7606955398e+000	 4.0496523277e-001	 2.6130431090e+000
 1.7564651093e+000	 4.2293714635e-001	 2.5468156974e+000
 1.7520382330e+000	 4.4091657739e-001	 2.4778542082e+000
 1.7474139755e+000	 4.5890052519e-001	 2.4056319987e+000
 1.7425914581e+000	 4.7688595330e-001	 2.3295389899e+000
 1.7375698603e+000	 4.9486979079e-001	 2.2488840819e+000
 1.7323484209e+000	 5.1284893352e-001	 2.1628991565e+000
 1.7269264394e+000	 5.3082024548e-001	 2.0707447953e+000
 1.7787582135e+000	 3.5241976890e-001	 2.8301988311e+000
 1.7750974996e+000	 3.7041767247e-001	 2.7683388451e+000
 1.7712427608e+000	 3.8843192990e-001	 2.7046795154e+000
 1.7671928950e+000	 4.0645964386e-001	 2.6389877925e+000
 1.7629468532e+000	 4.2449787777e-001	 2.5709452121e+000
 1.7585036408e+000	 4.4254365688e-001	 2.5001459599e+000
 1.7538623188e+000	 4.6059396942e-001	 2.4260961347e+000
 1.7490220052e+000	 4.7864576772e-001	 2.3482143493e+000
 1.7439818766e+000	 4.9669596954e-001	 2.2658338095e+000
 1.7387411689e+000	 5.1474145928e-001	 2.1782060093e+000
 1.7332991791e+000	 5.3277908934e-001	 2.0845061754e+000
 1.7852980904e+000	 3.5371549412e-001	 2.8367899145e+000
 1.7816239173e+000	 3.7177956974e-001	 2.7744662632e+000
 1.7777550059e+000	 3.8986005934e-001	 2.7102530360e+000
 1.7736902501e+000	 4.0795405495e-001	 2.6439506084e+000
 1.7694285972e+000	 4.2605860919e-001	 2.5752710049e+000
 1.7649690486e+000	 4.4417073638e-001	 2.5038355710e+000
 1.7603106621e+000	 4.6228741364e-001	 2.4291738589e+000
 1.7554525524e+000	 4.8040558215e-001	 2.3507238738e+000
 1.7503938929e+000	 4.9852214830e-001	 2.2678338242e+000
 1.7451339169e+000	 5.1663398504e-001	 2.1797655182e+000
 1.7396719189e+000	 5.3473793321e-001	 2.0856995428e+000
 1.7918379672e+000	 3.5501121934e-001	 2.8189239561e+000
 1.7881503349e+000	 3.7314146701e-001	 2.7571691970e+000
 1.7842672510e+000	 3.9128818879e-001	 2.6934870717e+000
 1.7801876053e+000	 4.0944846605e-001	 2.6277023145e+000
 1.7759103411e+000	 4.2761934061e-001	 2.5595483414e+000
 1.7714344564e+000	 4.4579781587e-001	 2.4886645326e+000
 1.7667590053e+000	 4.6398085787e-001	 2.4145947490e+000
 1.7618830995e+000	 4.8216539658e-001	 2.3367872299e+000
 1.7568059092e+000	 5.0034832706e-001	 2.2545960224e+000
 1.7515266650e+000	 5.1852651080e-001	 2.1672840867e+000
 1.7460446586e+000	 5.3669677708e-001	 2.0740282192e+000
 1.7983778440e+000	 3.5630694456e-001	 2.7764296681e+000
 1.7946767526e+000	 3.7450336428e-001	 2.7162568385e+000
 1.7907794961e+000	 3.9271631823e-001	 2.6541725565e+000
 1.7866849605e+000	 4.1094287714e-001	 2.5900169958e+000
 1.7823920850e+000	 4.2918007203e-001	 2.5235360102e+000
 1.7778998642e+000	 4.4742489536e-001	 2.4543780340e+000
 1.7732073486e+000	 4.6567430210e-001	 2.3820922338e+000
 1.7683136466e+000	 4.8392521100e-001	 2.3061280649e+000
 1.7632179255e+000	 5.0217450581e-001	 2.2258363866e+000
 1.7579194130e+000	 5.2041903657e-001	 2.1404722841e+000
 1.7524173983e+000	 5.3865562095e-001	 2.0491997444e+000
 1.8049177208e+000	 3.5760266978e-001	 2.7091383351e+000
 1.8012031702e+000	 3.7586526155e-001	 2.6515412001e+000
 1.7972917412e+000	 3.9414444767e-001	 2.5921034758e+000
 1.7931823156e+000	 4.1243728823e-001	 2.5306719999e+000
 1.7888738290e+000	 4.3074080346e-001	 2.4669962550e+000
 1.7843652720e+000	 4.4905197485e-001	 2.4007248912e+000
 1.7796556918e+000	 4.6736774632e-001	 2.3314035186e+000
 1.7747441937e+000	 4.8568502543e-001	 2.2584739295e+000
 1.7696299418e+000	 5.0400068457e-001	 2.1812749053e+000
 1.7643121611e+000	 5.2231156233e-001	 2.0990447633e+000
 1.7587901381e+000	 5.4061446482e-001	 2.0109257938e+000
 1.8114575977e+000	 3.5889839500e-001	 2.6168837661e+000
 1.8077295879e+000	 3.7722715882e-001	 2.5628370616e+000
 1.8038039863e+000	 3.9557257712e-001	 2.5070768075e+000
 1.7996796708e+000	 4.1393169933e-001	 2.4494478747e+000
 1.7953555729e+000	 4.3230153488e-001	 2.3896947081e+000
 1.7908306798e+000	 4.5067905434e-001	 2.3274574764e+000
 1.7861040351e+000	 4.6906119055e-001	 2.2622695116e+000
 1.7811747408e+000	 4.8744483986e-001	 2.1935562014e+000
 1.7760419581e+000	 5.0582686332e-001	 2.1206354950e+000
 1.7707049091e+000	 5.2420408809e-001	 2.0427201822e+000
 1.7651628778e+000	 5.4257330869e-001	 1.9589220985e+000
 1.8179974745e+000	 3.6019412023e-001	 2.4995022472e+000
 1.8142560055e+000	 3.7858905608e-001	 2.4499619178e+000
 1.8103162315e+000	 3.9700070656e-001	 2.3988924659e+000
 1.8061770260e+000	 4.1542611042e-001	 2.3461283073e+000
 1.8018373169e+000	 4.3386226630e-001	 2.2914003249e+000
 1.7972960875e+000	 4.5230613383e-001	 2.2343316498e+000
 1.7925523783e+000	 4.7075463478e-001	 2.1744347525e+000
 1.7876052879e+000	 4.8920465428e-001	 2.1111100113e+000
 1.7824539744e+000	 5.0765304208e-001	 2.0436459242e+000
 1.7770976571e+000	 5.2609661385e-001	 1.9712211251e+000
 1.7715356175e+000	 5.4453215256e-001	 1.8929083663e+000
 1.8245373513e+000	 3.6148984545e-001	 2.3568324956e+000
 1.8207824232e+000	 3.7995095335e-001	 2.3127359271e+000
 1.8168284766e+000	 3.9842883601e-001	 2.2673532449e+000
 1.8126743811e+000	 4.1692052151e-001	 2.2205000635e+000
 1.8083190608e+000	 4.3542299772e-001	 2.1718853202e+000
 1.8037614953e+000	 4.5393321332e-001	 2.1211066914e+000
 1.7990007216e+000	 4.7244807901e-001	 2.0676473411e+000
 1.7940358350e+000	 4.9096446871e-001	 2.0108741699e+000
 1.7888659907e+000	 5.0947922084e-001	 1.9500377380e+000
 1.7834904052e+000	 5.2798913961e-001	 1.8842740268e+000
 1.7779083572e+000	 5.4649099642e-001	 1.8126082043e+000
 1.8310772282e+000	 3.6278557067e-001	 2.1887156141e+000
 1.8273088409e+000	 3.8131285062e-001	 2.1509818615e+000
 1.8233407217e+000	 3.9985696545e-001	 2.1122647638e+000
 1.8191717363e+000	 4.1841493261e-001	 2.0723529289e+000
 1.8148008047e+000	 4.3698372914e-001	 2.0309251047e+000
 1.8102269031e+000	 4.5556029281e-001	 1.9875452351e+000
 1.8054490649e+000	 4.7414152323e-001	 1.9416588689e+000
 1.8004663821e+000	 4.9272428313e-001	 1.8925910957e+000
 1.7952780070e+000	 5.1130539959e-001	 1.8395461844e+000
 1.7898831532e+000	 5.2988166537e-001	 1.7816090968e+000
 1.7842810970e+000	 5.4844984029e-001	 1.7177490430e+000
 1.7205536997e+000	 5.2886140161e-001	 2.0447163824e+000
 1.7149512879e+000	 5.4675543847e-001	 1.9496718315e+000
 1.7091478619e+000	 5.6463533321e-001	 1.8503646286e+000
 1.7031429098e+000	 5.8249787284e-001	 1.7468772991e+000
 1.6969359845e+000	 6.0033981835e-001	 1.6392613150e+000
 1.6905267052e+000	 6.1815790620e-001	 1.5275512564e+000
 1.6839147584e+000	 6.3594884997e-001	 1.4117812288e+000
 1.6770998984e+000	 6.5370934202e-001	 1.2920035988e+000
 1.6700819490e+000	 6.7143605513e-001	 1.1687560466e+000
 1.6628608034e+000	 6.8912564428e-001	 1.0515709528e+000
 1.6554364262e+000	 7.0677474842e-001	 9.4637501406e-001
 1.7269264394e+000	 5.3082024548e-001	 2.0707447953e+000
 1.7213032769e+000	 5.4878055986e-001	 1.9730463849e+000
 1.7154783557e+000	 5.6672667974e-001	 1.8710719873e+000
 1.7094511619e+000	 5.8465538024e-001	 1.7648619821e+000
 1.7032212468e+000	 6.0256341033e-001	 1.6544198142e+000
 1.6967882283e+000	 6.2044749440e-001	 1.5397261686e+000
 1.6901517915e+000	 6.3830433385e-001	 1.4207554560e+000
 1.6833116901e+000	 6.5613060878e-001	 1.2974946768e+000
 1.6762677469e+000	 6.7392297967e-001	 1.1710009911e+000
 1.6690198551e+000	 6.9167808910e-001	 1.0515443666e+000
 1.6615679788e+000	 7.0939256355e-001	 9.4397342681e-001
 1.7332991791e+000	 5.3277908934e-001	 2.0845061754e+000
 1.7276552659e+000	 5.5080568126e-001	 1.9853028882e+000
 1.7218088495e+000	 5.6881802628e-001	 1.8817716081e+000
 1.7157594140e+000	 5.8681288764e-001	 1.7739054394e+000
 1.7095065091e+000	 6.0478700231e-001	 1.6616547262e+000
 1.7030497514e+000	 6.2273708260e-001	 1.5449412454e+000
 1.6963888247e+000	 6.4065981773e-001	 1.4236747695e+000
 1.6895234818e+000	 6.5855187555e-001	 1.2977720670e+000
 1.6824535449e+000	 6.7640990421e-001	 1.1690489240e+000
 1.6751789068e+000	 6.9423053391e-001	 1.0480499619e+000
 1.6676995314e+000	 7.1201037869e-001	 9.3875948645e-001
 1.7396719189e+000	 5.3473793321e-001	 2.0856995428e+000
 1.7340072550e+000	 5.5283080265e-001	 1.9861396296e+000
 1.7281393432e+000	 5.7090937281e-001	 1.8821633816e+000
 1.7220676661e+000	 5.8897039504e-001	 1.7737115764e+000
 1.7157917715e+000	 6.0701059429e-001	 1.6606764557e+000
 1.7093112744e+000	 6.2502667079e-001	 1.5429159445e+000
 1.7026258579e+000	 6.4301530161e-001	 1.4202702977e+000
 1.6957352735e+000	 6.6097314232e-001	 1.2925812453e+000
 1.6886393429e+000	 6.7889682875e-001	 1.1626606057e+000
 1.6813379584e+000	 6.9678297873e-001	 1.0408665854e+000
 1.6738310840e+000	 7.1462819382e-001	 9.3053269352e-001
 1.7460446586e+000	 5.3669677708e-001	 2.0740282192e+000
 1.7403592440e+000	 5.5485592404e-001	 1.9752592264e+000
 1.7344698370e+000	 5.7300071935e-001	 1.8719515309e+000
 1.7283759182e+000	 5.9112790243e-001	 1.7639886086e+000
 1.7220770338e+000	 6.0923418627e-001	 1.6511996702e+000
 1.7155727975e+000	 6.2731625899e-001	 1.5333739130e+000
 1.7088628910e+000	 6.4537078548e-001	 1.4102772583e+000
 1.7019470652e+000	 6.6339440908e-001	 1.2816716498e+000
 1.6948251409e+000	 6.8138375330e-001	 1.1515999877e+000
 1.6874970101e+000	 6.9933542354e-001	 1.0297760392e+000
 1.6799626365e+000	 7.1724600896e-001	 9.1909523167e-001
 1.7524173983e+000	 5.3865562095e-001	 2.0491997444e+000
 1.7467112330e+000	 5.5688104543e-001	 1.9523685406e+000
 1.7408003308e+000	 5.7509206589e-001	 1.8508445272e+000
 1.7346841702e+000	 5.9328540983e-001	 1.7444489789e+000
 1.7283622961e+000	 6.1145777826e-001	 1.6329432189e+000
 1.7218343206e+000	 6.2960584719e-001	 1.5160429083e+000
 1.7150999242e+000	 6.4772626936e-001	 1.3934348821e+000
 1.7081588568e+000	 6.6581567585e-001	 1.2647966081e+000
 1.7010109388e+000	 6.8387067784e-001	 1.1356341557e+000
 1.6936560617e+000	 7.0188786836e-001	 1.0145630287e+000
 1.6860941891e+000	 7.1986382409e-001	 9.0425192023e-001
 1.7587901381e+000	 5.4061446482e-001	 2.0109257938e+000
 1.7530632220e+000	 5.5890616683e-001	 1.9171785976e+000
 1.7471308246e+000	 5.7718341242e-001	 1.8185550084e+000
 1.7409924223e+000	 5.9544291723e-001	 1.7148092767e+000
 1.7346475585e+000	 6.1368137024e-001	 1.6056300527e+000
 1.7280958437e+000	 6.3189543539e-001	 1.4906547205e+000
 1.7213369574e+000	 6.5008175324e-001	 1.3694863383e+000
 1.7143706485e+000	 6.6823694262e-001	 1.2417561540e+000
 1.7071967368e+000	 6.8635760238e-001	 1.1145332733e+000
 1.6998151134e+000	 7.0444031317e-001	 9.9501511157e-001
 1.6922257417e+000	 7.2248163923e-001	 8.8581016802e-001
 1.7651628778e+000	 5.4257330869e-001	 1.9589220985e+000
 1.7594152110e+000	 5.6093128822e-001	 1.8694045045e+000
 1.7534613183e+000	 5.7927475896e-001	 1.7747996983e+000
 1.7473006744e+000	 5.9760042463e-001	 1.6747901579e+000
 1.7409328208e+000	 6.1590496222e-001	 1.5689871466e+000
 1.7343573668e+000	 6.3418502359e-001	 1.4569450967e+000
 1.7275739905e+000	 6.5243723711e-001	 1.3381786610e+000
 1.7205824402e+000	 6.7065820938e-001	 1.2124651351e+000
 1.7133825348e+000	 6.8884452692e-001	 1.0880705283e+000
 1.7059741650e+000	 7.0699275798e-001	 9.7092264703e-001
 1.6983572943e+000	 7.2509945436e-001	 8.6357992808e-001
 1.7715356175e+000	 5.4453215256e-001	 1.8929083663e+000
 1.7657672000e+000	 5.6295640961e-001	 1.8087653716e+000
 1.7597918121e+000	 5.8136610549e-001	 1.7192993278e+000
 1.7536089265e+000	 5.9975793202e-001	 1.6241162672e+000
 1.7472180831e+000	 6.1812855420e-001	 1.5227454225e+000
 1.7406188898e+000	 6.3647461179e-001	 1.4146536658e+000
 1.7338110237e+000	 6.5479272099e-001	 1.2992626776e+000
 1.7267942319e+000	 6.7307947615e-001	 1.1766992228e+000
 1.7195683327e+000	 6.9133145146e-001	 1.0560220792e+000
 1.7121332167e+000	 7.0954520280e-001	 9.4207874740e-001
 1.7044888469e+000	 7.2771726950e-001	 8.3737365361e-001
 1.7779083572e+000	 5.4649099642e-001	 1.8126082043e+000
 1.7721191891e+000	 5.6498153100e-001	 1.7349842342e+000
 1.7661223059e+000	 5.8345745203e-001	 1.6517785575e+000
 1.7599171786e+000	 6.0191543942e-001	 1.5625161614e+000
 1.7535033455e+000	 6.2035214618e-001	 1.4666396746e+000
 1.7468804129e+000	 6.3876419999e-001	 1.3635238660e+000
 1.7400480568e+000	 6.5714820487e-001	 1.2524929381e+000
 1.7330060235e+000	 6.7550074291e-001	 1.1342230745e+000
 1.7257541307e+000	 6.9381837601e-001	 1.0181670033e+000
 1.7182922683e+000	 7.1209764761e-001	 9.0827923008e-001
 1.7106203995e+000	 7.3033508463e-001	 8.0700625476e-001
 1.7842810970e+000	 5.4844984029e-001	 1.7177490430e+000
 1.7784711781e+000	 5.6700665240e-001	 1.6477879771e+000
 1.7724527997e+000	 5.8554879857e-001	 1.5719659018e+000
 1.7662254307e+000	 6.0407294682e-001	 1.4897222341e+000
 1.7597886078e+000	 6.2257573816e-001	 1.4004084949e+000
 1.7531419360e+000	 6.4105378818e-001	 1.3033028725e+000
 1.7462850900e+000	 6.5950368875e-001	 1.1976276455e+000
 1.7392178152e+000	 6.7792200968e-001	 1.0848043924e+000
 1.7319399287e+000	 6.9630530055e-001	 9.7428724599e-001
 1.7244513200e+000	 7.1465009243e-001	 8.6932257082e-001
 1.7167519521e+000	 7.3295289977e-001	 7.7229505654e-001
 1.6554364262e+000	 7.0677474842e-001	 9.4637501406e-001
 1.6478100126e+000	 7.2437735518e-001	 8.4585261368e-001
 1.6399805736e+000	 7.4193272950e-001	 7.4120164575e-001
 1.6319482913e+000	 7.5943747563e-001	 6.3305315316e-001
 1.6237134218e+000	 7.7688818926e-001	 5.2205828857e-001
 1.6152762950e+000	 7.9428145944e-001	 4.0888726129e-001
 1.6066373155e+000	 8.1161387060e-001	 2.9422781501e-001
 1.5977969630e+000	 8.2888200446e-001	 1.7878321915e-001
 1.5887557923e+000	 8.4608244212e-001	 6.3269761048e-002
 1.5795144344e+000	 8.6321176606e-001	-5.1586269451e-002
 1.5700735960e+000	 8.8026656220e-001	-1.6505210680e-001
 1.6615679788e+000	 7.0939256355e-001	 9.4397342681e-001
 1.6539133178e+000	 7.2706036842e-001	 8.4121081272e-001
 1.6460548794e+000	 7.4468076589e-001	 7.3467660857e-001
 1.6379928465e+000	 7.6225034766e-001	 6.2495338726e-001
 1.6297274759e+000	 7.7976569679e-001	 5.1264548350e-001
 1.6212590990e+000	 7.9722338971e-001	 3.9837807316e-001
 1.6125881216e+000	 8.1461999819e-001	 2.8279576968e-001
 1.6037150254e+000	 8.3195209131e-001	 1.6656071956e-001
 1.5946403673e+000	 8.4921623748e-001	 5.0350183416e-002
 1.5853647804e+000	 8.6640900653e-001	-6.5146406559e-002
 1.5758889741e+000	 8.8352697174e-001	-1.7923091690e-001
 1.6676995314e+000	 7.1201037869e-001	 9.3875948645e-001
 1.6600166230e+000	 7.2974338165e-001	 8.3434623693e-001
 1.6521291852e+000	 7.4742880228e-001	 7.2646586812e-001
 1.6440374016e+000	 7.6506321968e-001	 6.1565655032e-001
 1.6357415300e+000	 7.8264320432e-001	 5.0247982457e-001
 1.6272419029e+000	 8.0016531998e-001	 3.8751980817e-001
 1.6185389277e+000	 8.1762612579e-001	 2.7138190317e-001
 1.6096330878e+000	 8.3502217815e-001	 1.5469098924e-001
 1.6005249422e+000	 8.5235003283e-001	 3.8089086380e-002
 1.5912151264e+000	 8.6960624700e-001	-7.7767521985e-002
 1.5817043523e+000	 8.8678738128e-001	-1.9221171049e-001
 1.6738310840e+000	 7.1462819382e-001	 9.3053269352e-001
 1.6661199282e+000	 7.3242639489e-001	 8.2507992947e-001
 1.6582034910e+000	 7.5017683867e-001	 7.1641116396e-001
 1.6500819568e+000	 7.6787609171e-001	 6.0502417692e-001
 1.6417555841e+000	 7.8552071185e-001	 4.9144168622e-001
 1.6332247068e+000	 8.0310725025e-001	 3.7621067313e-001
 1.6244897338e+000	 8.2063225338e-001	 2.5990119647e-001
 1.6155511502e+000	 8.3809226499e-001	 1.4310467602e-001
 1.6064095171e+000	 8.5548382818e-001	 2.6431629903e-002
 1.5970654723e+000	 8.7280348746e-001	-8.9491144045e-002
 1.5875197304e+000	 8.9004779081e-001	-2.0402394839e-001
 1.6799626365e+000	 7.1724600896e-001	 9.1909523167e-001
 1.6722232334e+000	 7.3510940812e-001	 8.1323533067e-001
 1.6642777969e+000	 7.5292487506e-001	 7.0435635884e-001
 1.6561265119e+000	 7.7068896373e-001	 5.9291966332e-001
 1.6477696382e+000	 7.8839821937e-001	 4.7941305610e-001
 1.6392075107e+000	 8.0604918052e-001	 3.6435025331e-001
 1.6304405400e+000	 8.2363838098e-001	 2.4826978856e-001
 1.6214692126e+000	 8.4116235184e-001	 1.3173338012e-001
 1.6122940921e+000	 8.5861762354e-001	 1.5323736157e-002
 1.6029158183e+000	 8.7600072793e-001	-1.0035821291e-001
 1.5933351085e+000	 8.9330820035e-001	-2.1469666068e-001
 1.6860941891e+000	 7.1986382409e-001	 9.0425192023e-001
 1.6783265386e+000	 7.3779242135e-001	 7.9863823604e-001
 1.6703521027e+000	 7.5567291145e-001	 6.9014740172e-001
 1.6621710671e+000	 7.7350183576e-001	 5.7920823524e-001
 1.6537836923e+000	 7.9127572690e-001	 4.6627750745e-001
 1.6451903146e+000	 8.0899111079e-001	 3.5183948906e-001
 1.6363913461e+000	 8.2664450857e-001	 2.3640495687e-001
 1.6273872751e+000	 8.4423243868e-001	 1.2050963820e-001
 1.6181786670e+000	 8.6175141889e-001	 4.7120769167e-003
 1.6087661643e+000	 8.7919796839e-001	-1.1040909032e-001
 1.5991504867e+000	 8.9656860989e-001	-2.2425845382e-001
 1.6922257417e+000	 7.2248163923e-001	 8.8581016802e-001
 1.6844298438e+000	 7.4047543459e-001	 7.8111675519e-001
 1.6764264085e+000	 7.5842094784e-001	 6.7363229171e-001
 1.6682156222e+000	 7.7631470778e-001	 5.6375691657e-001
 1.6597977464e+000	 7.9415323443e-001	 4.5192017215e-001
 1.6511731186e+000	 8.1193304106e-001	 3.3858065293e-001
 1.6423421522e+000	 8.2965063617e-001	 2.2422509836e-001
 1.6333053375e+000	 8.4730252552e-001	 1.0936690793e-001
 1.6240632419e+000	 8.6488521424e-001	-5.4559387570e-003
 1.6146165102e+000	 8.8239520886e-001	-1.1968356897e-001
 1.6049658648e+000	 8.9982901942e-001	-2.3273751760e-001
 1.6983572943e+000	 7.2509945436e-001	 8.6357992808e-001
 1.6905331490e+000	 7.4315844782e-001	 7.6050127174e-001
 1.6825007143e+000	 7.6116898423e-001	 6.5466104283e-001
 1.6742601773e+000	 7.7912757980e-001	 5.4643449867e-001
 1.6658118005e+000	 7.9703074196e-001	 4.3622771437e-001
 1.6571559225e+000	 8.1487497133e-001	 3.2447732739e-001
 1.6482929583e+000	 8.3265676376e-001	 2.1164971085e-001
 1.6392233999e+000	 8.5037261237e-001	 9.8239552786e-002
 1.6299478168e+000	 8.6801900960e-001	-1.5232176516e-002
 1.6204668562e+000	 8.8559244933e-001	-1.2822088182e-001
 1.6107812430e+000	 9.0308942896e-001	-2.4016163187e-001
 1.7044888469e+000	 7.2771726950e-001	 8.3737365361e-001
 1.6966364542e+000	 7.4584146106e-001	 7.3662440418e-001
 1.6885750202e+000	 7.6391702062e-001	 6.3308564960e-001
 1.6803047325e+000	 7.8194045183e-001	 5.2711151045e-001
 1.6718258546e+000	 7.9990824949e-001	 4.1908830487e-001
 1.6631387264e+000	 8.1781690160e-001	 3.0943438308e-001
 1.6542437644e+000	 8.3566289135e-001	 1.9859937500e-001
 1.6451414623e+000	 8.5344269921e-001	 8.7062827377e-002
 1.6358323918e+000	 8.7115280495e-001	-2.4667788441e-002
 1.6263172022e+000	 8.8878968979e-001	-1.3605971098e-001
 1.6165966211e+000	 9.0634983850e-001	-2.4655817314e-001
 1.7106203995e+000	 7.3033508463e-001	 8.0700625476e-001
 1.7027397594e+000	 7.4852447429e-001	 7.0932096763e-001
 1.6946493260e+000	 7.6666505701e-001	 6.0876005341e-001
 1.6863492876e+000	 7.8475332385e-001	 5.0566018916e-001
 1.6778399087e+000	 8.0278575702e-001	 4.0039159592e-001
 1.6691215303e+000	 8.2075883187e-001	 2.9335795754e-001
 1.6601945705e+000	 8.3866901895e-001	 1.8499573662e-001
 1.6510595247e+000	 8.5651278605e-001	 7.5772862988e-002
 1.6417169667e+000	 8.7428660031e-001	-3.3813224462e-002
 1.6321675481e+000	 8.9198693026e-001	-1.4323819655e-001
 1.6224119993e+000	 9.0961024803e-001	-2.5195412102e-001
 1.7167519521e+000	 7.3295289977e-001	 7.7229505654e-001
 1.7088430646e+000	 7.5120748753e-001	 6.7842793643e-001
 1.7007236318e+000	 7.6941309341e-001	 5.8154010970e-001
 1.6923938428e+000	 7.8756619588e-001	 4.8195445182e-001
 1.6838539628e+000	 8.0566326455e-001	 3.8002869676e-001
 1.6751043343e+000	 8.2370076214e-001	 2.7615543451e-001
 1.6661453766e+000	 8.4167514655e-001	 1.7076148935e-001
 1.6569775872e+000	 8.5958287290e-001	 6.4306653554e-002
 1.6476015416e+000	 8.7742039566e-001	-4.2718243513e-002
 1.6380178941e+000	 8.9518417073e-001	-1.4979394515e-001
 1.6282273774e+000	 9.1287065757e-001	-2.5637606450e-001
 1.5700735960e+000	 8.8026656220e-001	-1.6505210680e-001
 1.5604325990e+000	 8.9724596292e-001	-2.7632160494e-001
 1.5505937056e+000	 9.1414400240e-001	-3.8477418463e-001
 1.5405578528e+000	 9.3095728891e-001	-4.8999477283e-001
 1.5303260540e+000	 9.4768244255e-001	-5.9156038626e-001
 1.5198993990e+000	 9.6431609742e-001	-6.8904533393e-001
 1.5092790533e+000	 9.8085490370e-001	-7.8202687722e-001
 1.4984662587e+000	 9.9729552980e-001	-8.7009131718e-001
 1.4874623321e+000	 1.0136346645e+000	-9.5284068831e-001
 1.4762686658e+000	 1.0298690189e+000	-1.0298986390e+000
 1.4648867267e+000	 1.0459953290e+000	-1.1009191532e+000
 1.5758889741e+000	 8.8352697174e-001	-1.7923091690e-001
 1.5662122680e+000	 9.0056926227e-001	-2.9104695380e-001
 1.5563369324e+000	 9.1752989022e-001	-3.9990653951e-001
 1.5462639079e+000	 9.3440545127e-001	-5.0540199030e-001
 1.5359942117e+000	 9.5119255302e-001	-6.0711763580e-001
 1.5255289375e+000	 9.6788781710e-001	-7.0463510472e-001
 1.5148692553e+000	 9.8448788128e-001	-7.9753908155e-001
 1.5040164112e+000	 1.0009894016e+000	-8.8542350323e-001
 1.4929717273e+000	 1.0173890546e+000	-9.6789833037e-001
 1.4817366009e+000	 1.0336835393e+000	-1.0445957443e+000
 1.4703125043e+000	 1.0498695794e+000	-1.1151787218e+000
 1.5817043523e+000	 8.8678738128e-001	-1.9221171049e-001
 1.5719919370e+000	 9.0389256162e-001	-3.0434202071e-001
 1.5620801592e+000	 9.2091577803e-001	-4.1340954900e-001
 1.5519699630e+000	 9.3785361363e-001	-5.1901224844e-001
 1.5416623693e+000	 9.5470266349e-001	-6.2073998751e-001
 1.5311584759e+000	 9.7145953678e-001	-7.1817992374e-001
 1.5204594572e+000	 9.8812085886e-001	-8.1092236195e-001
 1.5095665638e+000	 1.0046832735e+000	-8.9856706561e-001
 1.4984811226e+000	 1.0211434448e+000	-9.8073011451e-001
 1.4872045360e+000	 1.0374980598e+000	-1.0570504107e+000
 1.4757382820e+000	 1.0537438299e+000	-1.1271981337e+000
 1.5875197304e+000	 8.9004779081e-001	-2.0402394839e-001
 1.5777716059e+000	 9.0721586097e-001	-3.1622490015e-001
 1.5678233860e+000	 9.2430166584e-001	-4.2529008743e-001
 1.5576760181e+000	 9.4130177598e-001	-5.3082136634e-001
 1.5473305270e+000	 9.5821277396e-001	-6.3241238801e-001
 1.5367880144e+000	 9.7503125645e-001	-7.2965406474e-001
 1.5260496591e+000	 9.9175383643e-001	-8.2214053487e-001
 1.5151167163e+000	 1.0083771453e+000	-9.0947559418e-001
 1.5039905178e+000	 1.0248978350e+000	-9.9127964881e-001
 1.4926724711e+000	 1.0413125802e+000	-1.0671965231e+000
 1.4811640597e+000	 1.0576180804e+000	-1.1369018213e+000
 1.5933351085e+000	 8.9330820035e-001	-2.1469666068e-001
 1.5835512749e+000	 9.1053916032e-001	-3.2671340458e-001
 1.5735666128e+000	 9.2768755365e-001	-4.3555489517e-001
 1.5633820732e+000	 9.4474993834e-001	-5.4082517630e-001
 1.5529986847e+000	 9.6172288443e-001	-6.4211994298e-001
 1.5424175529e+000	 9.7860297613e-001	-7.3903210484e-001
 1.5316398610e+000	 9.9538681401e-001	-8.3115786260e-001
 1.5206668688e+000	 1.0120710171e+000	-9.1810341081e-001
 1.5094999130e+000	 1.0286522252e+000	-9.9949126503e-001
 1.4981404063e+000	 1.0451271006e+000	-1.0749688246e+000
 1.4865898373e+000	 1.0614923309e+000	-1.1442152068e+000
 1.5991504867e+000	 8.9656860989e-001	-2.2425845382e-001
 1.5893309439e+000	 9.1386245967e-001	-3.3582506912e-001
 1.5793098396e+000	 9.3107344146e-001	-4.4421058103e-001
 1.5690881284e+000	 9.4819810070e-001	-5.4901952392e-001
 1.5586668424e+000	 9.6523299489e-001	-6.4984791515e-001
 1.5480470914e+000	 9.8217469581e-001	-7.4628892045e-001
 1.5372300629e+000	 9.9901979159e-001	-8.3793904711e-001
 1.5262170214e+000	 1.0157648890e+000	-9.2440493755e-001
 1.5150093082e+000	 1.0324066153e+000	-1.0053100086e+000
 1.5036083414e+000	 1.0489416210e+000	-1.0803029049e+000
 1.4920156150e+000	 1.0653665813e+000	-1.1490646887e+000
 1.6049658648e+000	 8.9982901942e-001	-2.3273751760e-001
 1.5951106128e+000	 9.1718575902e-001	-3.4357715622e-001
 1.5850530664e+000	 9.3445932927e-001	-4.5126362463e-001
 1.5747941835e+000	 9.5164626305e-001	-5.5540026832e-001
 1.5643350000e+000	 9.6874310536e-001	-6.5558172234e-001
 1.5536766299e+000	 9.8574641548e-001	-7.5139968323e-001
 1.5428202648e+000	 1.0026527692e+000	-8.4244922402e-001
 1.5317671739e+000	 1.0194587608e+000	-9.2833568712e-001
 1.5205187034e+000	 1.0361610055e+000	-1.0086816288e+000
 1.5090762765e+000	 1.0527561414e+000	-1.0831351887e+000
 1.4974413927e+000	 1.0692408318e+000	-1.1513776284e+000
 1.6107812430e+000	 9.0308942896e-001	-2.4016163187e-001
 1.6008902818e+000	 9.2050905837e-001	-3.4998666015e-001
 1.5907962932e+000	 9.3784521708e-001	-4.5672037870e-001
 1.5805002386e+000	 9.5509442541e-001	-5.5996328228e-001
 1.5700031577e+000	 9.7225321583e-001	-6.5930693551e-001
 1.5593061684e+000	 9.8931813516e-001	-7.5433985613e-001
 1.5484104668e+000	 1.0062857467e+000	-8.4465395670e-001
 1.5373173264e+000	 1.0231526326e+000	-9.2985154541e-001
 1.5260280986e+000	 1.0399153957e+000	-1.0095525692e+000
 1.5145442116e+000	 1.0565706618e+000	-1.0834029244e+000
 1.5028671704e+000	 1.0731150823e+000	-1.1510823373e+000
 1.6165966211e+000	 9.0634983850e-001	-2.4655817314e-001
 1.6066699508e+000	 9.2383235772e-001	-3.5507031139e-001
 1.5965395200e+000	 9.4123110489e-001	-4.6058707132e-001
 1.5862062937e+000	 9.5854258776e-001	-5.6270445239e-001
 1.5756713154e+000	 9.7576332629e-001	-6.6100927696e-001
 1.5649357069e+000	 9.9288985484e-001	-7.5508518957e-001
 1.5540006687e+000	 1.0099187243e+000	-8.4451923060e-001
 1.5428674789e+000	 1.0268465044e+000	-9.2890895299e-001
 1.5315374938e+000	 1.0436697858e+000	-1.0078699584e+000
 1.5200121467e+000	 1.0603851822e+000	-1.0810441732e+000
 1.5082929480e+000	 1.0769893328e+000	-1.1481080645e+000
 1.6224119993e+000	 9.0961024803e-001	-2.5195412102e-001
 1.6124496197e+000	 9.2715565707e-001	-3.5884458093e-001
 1.6022827468e+000	 9.4461699271e-001	-4.6286980815e-001
 1.5919123488e+000	 9.6199075012e-001	-5.6361967923e-001
 1.5813394730e+000	 9.7927343676e-001	-6.6067461843e-001
 1.5705652454e+000	 9.9646157451e-001	-7.5361171776e-001
 1.5595908706e+000	 1.0135517019e+000	-8.4201150220e-001
 1.5484176315e+000	 1.0305403763e+000	-9.2546489778e-001
 1.5370468890e+000	 1.0474241760e+000	-1.0035816012e+000
 1.5254800818e+000	 1.0641997027e+000	-1.0759977984e+000
 1.5137187257e+000	 1.0808635832e+000	-1.1423849845e+000
 1.6282273774e+000	 9.1287065757e-001	-2.5637606450e-001
 1.6182292887e+000	 9.3047895642e-001	-3.6132568440e-001
 1.6080259736e+000	 9.4800288052e-001	-4.6357457450e-001
 1.5976184039e+000	 9.6543891248e-001	-5.6270487750e-001
 1.5870076307e+000	 9.8278354723e-001	-6.5828897939e-001
 1.5761947839e+000	 1.0000332942e+000	-7.4989575500e-001
 1.5651810725e+000	 1.0171846795e+000	-8.3709744137e-001
 1.5539677840e+000	 1.0342342481e+000	-9.1947690790e-001
 1.5425562842e+000	 1.0511785662e+000	-9.9663596937e-001
 1.5309480169e+000	 1.0680142231e+000	-1.0682034551e+000
 1.5191445034e+000	 1.0847378337e+000	-1.1338441851e+000
 1.4648867267e+000	 1.0459953290e+000	-1.1009191532e+000
 1.4533180553e+000	 1.0620103567e+000	-1.1681690771e+000
 1.4415642644e+000	 1.0779108915e+000	-1.2339013835e+000
 1.4296270391e+000	 1.0936937532e+000	-1.2978161281e+000
 1.4175081369e+000	 1.1093557947e+000	-1.3596740423e+000
 1.4052093865e+000	 1.1248939033e+000	-1.4193045608e+000
 1.3927326875e+000	 1.1403050036e+000	-1.4766137962e+000
 1.3800800090e+000	 1.1555860590e+000	-1.5315923928e+000
 1.3672533887e+000	 1.1707340736e+000	-1.5843231870e+000
 1.3542549321e+000	 1.1857460943e+000	-1.6349886030e+000
 1.3410868110e+000	 1.2006192129e+000	-1.6838777118e+000
 1.4703125043e+000	 1.0498695794e+000	-1.1151787218e+000
 1.4587009839e+000	 1.0659439250e+000	-1.1819255505e+000
 1.4469036583e+000	 1.0819033536e+000	-1.2470760144e+000
 1.4349222188e+000	 1.0977446734e+000	-1.3103020350e+000
 1.4227584295e+000	 1.1134647253e+000	-1.3713353525e+000
 1.4104141259e+000	 1.1290603853e+000	-1.4299757928e+000
 1.3978912146e+000	 1.1445285667e+000	-1.4860994876e+000
 1.3851916720e+000	 1.1598662214e+000	-1.5396669797e+000
 1.3723175433e+000	 1.1750703425e+000	-1.5907311365e+000
 1.3592709419e+000	 1.1901379661e+000	-1.6394448012e+000
 1.3460540475e+000	 1.2050661731e+000	-1.6860681056e+000
 1.4757382820e+000	 1.0537438299e+000	-1.1271981337e+000
 1.4640839125e+000	 1.0698774934e+000	-1.1934539529e+000
 1.4522430521e+000	 1.0858958158e+000	-1.2580371340e+000
 1.4402173985e+000	 1.1017955935e+000	-1.3205924435e+000
 1.4280087221e+000	 1.1175736559e+000	-1.3808238321e+000
 1.4156188653e+000	 1.1332268674e+000	-1.4385029447e+000
 1.4030497417e+000	 1.1487521297e+000	-1.4934775903e+000
 1.3903033350e+000	 1.1641463837e+000	-1.5456800995e+000
 1.3773816980e+000	 1.1794066114e+000	-1.5951354959e+000
 1.3642869517e+000	 1.1945298379e+000	-1.6419694032e+000
 1.3510212841e+000	 1.2095131332e+000	-1.6864156139e+000
 1.4811640597e+000	 1.0576180804e+000	-1.1369018213e+000
 1.4694668411e+000	 1.0738110617e+000	-1.2026702662e+000
 1.4575824460e+000	 1.0898882780e+000	-1.2666939888e+000
 1.4455125782e+000	 1.1058465137e+000	-1.3285915620e+000
 1.4332590148e+000	 1.1216825865e+000	-1.3880403297e+000
 1.4208236048e+000	 1.1373933494e+000	-1.4447851630e+000
 1.4082082689e+000	 1.1529756927e+000	-1.4986471824e+000
 1.3954149980e+000	 1.1684265461e+000	-1.5495323722e+000
 1.3824458526e+000	 1.1837428804e+000	-1.5974400102e+000
 1.3693029615e+000	 1.1989217097e+000	-1.6424708340e+000
 1.3559885206e+000	 1.2139600934e+000	-1.6848348679e+000
 1.4865898373e+000	 1.0614923309e+000	-1.1442152068e+000
 1.4748497697e+000	 1.0777446301e+000	-1.2094915796e+000
 1.4629218399e+000	 1.0938807402e+000	-1.2729570247e+000
 1.4508077579e+000	 1.1098974338e+000	-1.3342048659e+000
 1.4385093074e+000	 1.1257915171e+000	-1.3928870040e+000
 1.4260283442e+000	 1.1415598314e+000	-1.4487229222e+000
 1.4133667960e+000	 1.1571992558e+000	-1.5015086645e+000
 1.4005266610e+000	 1.1727067085e+000	-1.5511257095e+000
 1.3875100072e+000	 1.1880791493e+000	-1.5975496609e+000
 1.3743189713e+000	 1.2033135815e+000	-1.6408586765e+000
 1.3609557572e+000	 1.2184070535e+000	-1.6812415535e+000
 1.4920156150e+000	 1.0653665813e+000	-1.1490646887e+000
 1.4802326983e+000	 1.0816781985e+000	-1.2138360742e+000
 1.4682612337e+000	 1.0978732023e+000	-1.2767378709e+000
 1.4561029376e+000	 1.1139483539e+000	-1.3373390812e+000
 1.4437596000e+000	 1.1299004477e+000	-1.3952673072e+000
 1.4312330837e+000	 1.1457263134e+000	-1.4502180094e+000
 1.4185253231e+000	 1.1614228188e+000	-1.5019637442e+000
 1.4056383240e+000	 1.1769868708e+000	-1.5503633005e+000
 1.3925741619e+000	 1.1924154182e+000	-1.5953706543e+000
 1.3793349811e+000	 1.2077054532e+000	-1.6370436611e+000
 1.3659229937e+000	 1.2228540137e+000	-1.6755524038e+000
 1.4974413927e+000	 1.0692408318e+000	-1.1513776284e+000
 1.4856156269e+000	 1.0856117668e+000	-1.2156230085e+000
 1.4736006276e+000	 1.1018656645e+000	-1.2779493246e+000
 1.4613981174e+000	 1.1179992741e+000	-1.3379021686e+000
 1.4490098927e+000	 1.1340093783e+000	-1.3950859691e+000
 1.4364378231e+000	 1.1498927955e+000	-1.4491735082e+000
 1.4236838502e+000	 1.1656463818e+000	-1.4999154212e+000
 1.4107499870e+000	 1.1812670332e+000	-1.5471495989e+000
 1.3976383165e+000	 1.1967516871e+000	-1.5908104092e+000
 1.3843509909e+000	 1.2120973250e+000	-1.6309376563e+000
 1.3708902302e+000	 1.2273009739e+000	-1.6676851916e+000
 1.5028671704e+000	 1.0731150823e+000	-1.1510823373e+000
 1.4909985555e+000	 1.0895453352e+000	-1.2147727039e+000
 1.4789400214e+000	 1.1058581267e+000	-1.2765053358e+000
 1.4666932971e+000	 1.1220501942e+000	-1.3358033077e+000
 1.4542601853e+000	 1.1381183089e+000	-1.3922489812e+000
 1.4416425625e+000	 1.1540592775e+000	-1.4454937837e+000
 1.4288423774e+000	 1.1698699449e+000	-1.4952679730e+000
 1.4158616500e+000	 1.1855471955e+000	-1.5413903090e+000
 1.4027024711e+000	 1.2010879560e+000	-1.5837775457e+000
 1.3893670007e+000	 1.2164891968e+000	-1.6224536590e+000
 1.3758574668e+000	 1.2317479340e+000	-1.6575587234e+000
 1.5082929480e+000	 1.0769893328e+000	-1.1481080645e+000
 1.4963814841e+000	 1.0934789035e+000	-1.2112065313e+000
 1.4842794153e+000	 1.1098505888e+000	-1.2723209924e+000
 1.4719884768e+000	 1.1261011143e+000	-1.3309528816e+000
 1.4595104780e+000	 1.1422272395e+000	-1.3866635819e+000
 1.4468473020e+000	 1.1582257595e+000	-1.4390844677e+000
 1.4340009045e+000	 1.1740935079e+000	-1.4879269409e+000
 1.4209733130e+000	 1.1898273579e+000	-1.5329923736e+000
 1.4077666258e+000	 1.2054242250e+000	-1.5741818740e+000
 1.3943830105e+000	 1.2208810686e+000	-1.6115057855e+000
 1.3808247033e+000	 1.2361948942e+000	-1.6450928317e+000
 1.5137187257e+000	 1.0808635832e+000	-1.1423849845e+000
 1.5017644127e+000	 1.0974124719e+000	-1.2048468972e+000
 1.4896188092e+000	 1.1138430510e+000	-1.2653125058e+000
 1.4772836565e+000	 1.1301520345e+000	-1.3232624629e+000
 1.4647607706e+000	 1.1463361701e+000	-1.3782382411e+000
 1.4520520414e+000	 1.1623922416e+000	-1.4298524443e+000
 1.4391594316e+000	 1.1783170709e+000	-1.4777991165e+000
 1.4260849761e+000	 1.1941075203e+000	-1.5218639616e+000
 1.4128307804e+000	 1.2097604939e+000	-1.5619343840e+000
 1.3993990203e+000	 1.2252729404e+000	-1.5980092634e+000
 1.3857919398e+000	 1.2406418543e+000	-1.6302083699e+000
 1.5191445034e+000	 1.0847378337e+000	-1.1338441851e+000
 1.5071473413e+000	 1.1013460402e+000	-1.1956172310e+000
 1.4949582030e+000	 1.1178355132e+000	-1.2553971974e+000
 1.4825788362e+000	 1.1342029546e+000	-1.3126447986e+000
 1.4700110632e+000	 1.1504451007e+000	-1.3668826466e+000
 1.4572567808e+000	 1.1665587236e+000	-1.4177058358e+000
 1.4443179588e+000	 1.1825406339e+000	-1.4647925289e+000
 1.4311966391e+000	 1.1983876826e+000	-1.5079144559e+000
 1.4178949350e+000	 1.2140967628e+000	-1.5469472346e+000
 1.4044150301e+000	 1.2296648121e+000	-1.5818804225e+000
 1.3907591764e+000	 1.2450888145e+000	-1.6128272053e+000
 1.3410868110e+000	 1.2006192129e+000	-1.6838777118e+000
 1.3277532754e+000	 1.2153483688e+000	-1.7268926555e+000
 1.3142546640e+000	 1.2299329922e+000	-1.7568540545e+000
 1.3005933408e+000	 1.2443703222e+000	-1.7754749452e+000
 1.2867717309e+000	 1.2586576498e+000	-1.7858092528e+000
 1.2727923194e+000	 1.2727923194e+000	-1.7910178538e+000
 1.2586576498e+000	 1.2867717309e+000	-1.7943356979e+000
 1.2443703222e+000	 1.3005933408e+000	-1.7990381276e+000
 1.2299329922e+000	 1.3142546640e+000	-1.8084066361e+000
 1.2153483688e+000	 1.3277532754e+000	-1.8256943065e+000
 1.2006192129e+000	 1.3410868110e+000	-1.8523037239e+000
 1.3460540475e+000	 1.2050661731e+000	-1.6860681056e+000
 1.3326711260e+000	 1.2198498842e+000	-1.7271581554e+000
 1.3191225173e+000	 1.2344885274e+000	-1.7568687383e+000
 1.3054105940e+000	 1.2489793316e+000	-1.7750199831e+000
 1.2915377904e+000	 1.2633195778e+000	-1.7847920295e+000
 1.2775066007e+000	 1.2775066007e+000	-1.7894747143e+000
 1.2633195778e+000	 1.2915377904e+000	-1.7924337845e+000
 1.2489793316e+000	 1.3054105940e+000	-1.7970762883e+000
 1.2344885274e+000	 1.3191225173e+000	-1.8068153862e+000
 1.2198498842e+000	 1.3326711260e+000	-1.8250348351e+000
 1.2050661731e+000	 1.3460540475e+000	-1.8503286366e+000
 1.3510212841e+000	 1.2095131332e+000	-1.6864156139e+000
 1.3375889766e+000	 1.2243513995e+000	-1.7251302185e+000
 1.3239903705e+000	 1.2390440625e+000	-1.7544318411e+000
 1.3102278472e+000	 1.2535883410e+000	-1.7723039201e+000
 1.2963038499e+000	 1.2679815059e+000	-1.7817024152e+000
 1.2822208820e+000	 1.2822208820e+000	-1.7860383611e+000
 1.2679815059e+000	 1.2963038499e+000	-1.7888006683e+000
 1.2535883410e+000	 1.3102278472e+000	-1.7935205844e+000
 1.2390440625e+000	 1.3239903705e+000	-1.8037355614e+000
 1.2243513995e+000	 1.3375889766e+000	-1.8224566705e+000
 1.2095131332e+000	 1.3510212841e+000	-1.8456279558e+000
 1.3559885206e+000	 1.2139600934e+000	-1.6848348679e+000
 1.3425068272e+000	 1.2288529148e+000	-1.7212846101e+000
 1.3288582238e+000	 1.2435995977e+000	-1.7494799811e+000
 1.3150451004e+000	 1.2581973505e+000	-1.7672695837e+000
 1.3010699094e+000	 1.2726434340e+000	-1.7764895781e+000
 1.2869351634e+000	 1.2869351634e+000	-1.7806645726e+000
 1.2726434340e+000	 1.3010699094e+000	-1.7833991446e+000
 1.2581973505e+000	 1.3150451004e+000	-1.7883413748e+000
 1.2435995977e+000	 1.3288582238e+000	-1.7991457693e+000
 1.2288529148e+000	 1.3425068272e+000	-1.8171873664e+000
 1.2139600934e+000	 1.3559885206e+000	-1.8382652102e+000
 1.3609557572e+000	 1.2184070535e+000	-1.6812415535e+000
 1.3474246778e+000	 1.2333544301e+000	-1.7155512453e+000
 1.3337260770e+000	 1.2481551328e+000	-1.7419550054e+000
 1.3198623537e+000	 1.2628063599e+000	-1.7598616618e+000
 1.3058359689e+000	 1.2773053621e+000	-1.7691043237e+000
 1.2916494447e+000	 1.2916494447e+000	-1.7733105289e+000
 1.2773053621e+000	 1.3058359689e+000	-1.7761931628e+000
 1.2628063599e+000	 1.3198623537e+000	-1.7815099104e+000
 1.2481551328e+000	 1.3337260770e+000	-1.7930207878e+000
 1.2333544301e+000	 1.3474246778e+000	-1.8092688923e+000
 1.2184070535e+000	 1.3609557572e+000	-1.8283046477e+000
 1.3659229937e+000	 1.2228540137e+000	-1.6755524038e+000
 1.3523425284e+000	 1.2378559454e+000	-1.7078535865e+000
 1.3385939303e+000	 1.2527106680e+000	-1.7322730789e+000
 1.3246796069e+000	 1.2674153693e+000	-1.7500267352e+000
 1.3106020284e+000	 1.2819672902e+000	-1.7594991283e+000
 1.2963637260e+000	 1.2963637260e+000	-1.7639348477e+000
 1.2819672902e+000	 1.3106020284e+000	-1.7671478641e+000
 1.2674153693e+000	 1.3246796069e+000	-1.7729983746e+000
 1.2527106680e+000	 1.3385939303e+000	-1.7846801637e+000
 1.2378559454e+000	 1.3523425284e+000	-1.7987549538e+000
 1.2228540137e+000	 1.3659229937e+000	-1.8158112122e+000
 1.3708902302e+000	 1.2273009739e+000	-1.6676851916e+000
 1.3572603790e+000	 1.2423574607e+000	-1.6981160255e+000
 1.3434617835e+000	 1.2572662031e+000	-1.7207096737e+000
 1.3294968601e+000	 1.2720243787e+000	-1.7377133105e+000
 1.3153680879e+000	 1.2866292183e+000	-1.7476281738e+000
 1.3010780073e+000	 1.3010780073e+000	-1.7524976207e+000
 1.2866292183e+000	 1.3153680879e+000	-1.7562296191e+000
 1.2720243787e+000	 1.3294968601e+000	-1.7627799223e+000
 1.2572662031e+000	 1.3434617835e+000	-1.7736764476e+000
 1.2423574607e+000	 1.3572603790e+000	-1.7857001247e+000
 1.2273009739e+000	 1.3708902302e+000	-1.8008505200e+000
 1.3758574668e+000	 1.2317479340e+000	-1.6575587234e+000
 1.3621782297e+000	 1.2468589761e+000	-1.6862638796e+000
 1.3483296368e+000	 1.2618217382e+000	-1.7071966740e+000
 1.3343141133e+000	 1.2766333881e+000	-1.7228883407e+000
 1.3201341475e+000	 1.2912911463e+000	-1.7334473816e+000
 1.3057922887e+000	 1.3057922887e+000	-1.7389604488e+000
 1.2912911463e+000	 1.3201341475e+000	-1.7434060657e+000
 1.2766333881e+000	 1.3343141133e+000	-1.7508064927e+000
 1.2618217382e+000	 1.3483296368e+000	-1.7600551435e+000
 1.2468589761e+000	 1.3621782297e+000	-1.7701598186e+000
 1.2317479340e+000	 1.3758574668e+000	-1.7834888357e+000
 1.3808247033e+000	 1.2361948942e+000	-1.6450928317e+000
 1.3670960803e+000	 1.2513604914e+000	-1.6722233876e+000
 1.3531974900e+000	 1.2663772734e+000	-1.6916667777e+000
 1.3391313665e+000	 1.2812423975e+000	-1.7059965679e+000
 1.3249002070e+000	 1.2959530744e+000	-1.7169144480e+000
 1.3105065700e+000	 1.3105065700e+000	-1.7232864794e+000
 1.2959530744e+000	 1.3249002070e+000	-1.7286461471e+000
 1.2812423975e+000	 1.3391313665e+000	-1.7364002735e+000
 1.2663772734e+000	 1.3531974900e+000	-1.7438627437e+000
 1.2513604914e+000	 1.3670960803e+000	-1.7521902610e+000
 1.2361948942e+000	 1.3808247033e+000	-1.7637930481e+000
 1.3857919398e+000	 1.2406418543e+000	-1.6302083699e+000
 1.3720139309e+000	 1.2558620067e+000	-1.6559217064e+000
 1.3580653432e+000	 1.2709328085e+000	-1.6740534950e+000
 1.3439486198e+000	 1.2858514069e+000	-1.6872112687e+000
 1.3296662665e+000	 1.3006150025e+000	-1.6979888783e+000
 1.3152208513e+000	 1.3152208513e+000	-1.7054404418e+000
 1.3006150025e+000	 1.3296662665e+000	-1.7119201494e+000
 1.2858514069e+000	 1.3439486198e+000	-1.7192808880e+000
 1.2709328085e+000	 1.3580653432e+000	-1.7251466976e+000
 1.2558620067e+000	 1.3720139309e+000	-1.7318484606e+000
 1.2406418543e+000	 1.3857919398e+000	-1.7418306456e+000
 1.3907591764e+000	 1.2450888145e+000	-1.6128272053e+000
 1.3769317815e+000	 1.2603635220e+000	-1.6372869072e+000
 1.3629331965e+000	 1.2754883437e+000	-1.6542911479e+000
 1.3487658730e+000	 1.2904604163e+000	-1.6664731523e+000
 1.3344323260e+000	 1.3052769306e+000	-1.6766508182e+000
 1.3199351327e+000	 1.3199351327e+000	-1.6853886838e+000
 1.3052769306e+000	 1.3344323260e+000	-1.6931755782e+000
 1.2904604163e+000	 1.3487658730e+000	-1.6994881383e+000
 1.2754883437e+000	 1.3629331965e+000	-1.7039553789e+000
 1.2603635220e+000	 1.3769317815e+000	-1.7091921814e+000
 1.2450888145e+000	 1.3907591764e+000	-1.7176696918e+000
 1.2006192129e+000	 1.3410868110e+000	-1.8523037239e+000
 1.1857460943e+000	 1.3542549321e+000	-1.8764909887e+000
 1.1707340736e+000	 1.3672533887e+000	-1.8922218350e+000
 1.1555860590e+000	 1.3800800090e+000	-1.9006258601e+000
 1.1403050036e+000	 1.3927326875e+000	-1.9027488084e+000
 1.1248939033e+000	 1.4052093865e+000	-1.8995548097e+000
 1.1093557947e+000	 1.4175081369e+000	-1.8919290287e+000
 1.0936937532e+000	 1.4296270391e+000	-1.8806806760e+000
 1.0779108915e+000	 1.4415642644e+000	-1.8665463320e+000
 1.0620103567e+000	 1.4533180553e+000	-1.8501935295e+000
 1.0459953290e+000	 1.4648867267e+000	-1.8322245451e+000
 1.2050661731e+000	 1.3460540475e+000	-1.8503286366e+000
 1.1901379661e+000	 1.3592709419e+000	-1.8729000581e+000
 1.1750703425e+000	 1.3723175433e+000	-1.8875944859e+000
 1.1598662214e+000	 1.3851916720e+000	-1.8954642919e+000
 1.1445285667e+000	 1.3978912146e+000	-1.8974777259e+000
 1.1290603853e+000	 1.4104141259e+000	-1.8945214071e+000
 1.1134647253e+000	 1.4227584295e+000	-1.8874032318e+000
 1.0977446734e+000	 1.4349222188e+000	-1.8768556457e+000
 1.0819033536e+000	 1.4469036583e+000	-1.8635392286e+000
 1.0659439250e+000	 1.4587009839e+000	-1.8480465387e+000
 1.0498695794e+000	 1.4703125043e+000	-1.8309061621e+000
 1.2095131332e+000	 1.3510212841e+000	-1.8456279558e+000
 1.1945298379e+000	 1.3642869517e+000	-1.8665625344e+000
 1.1794066114e+000	 1.3773816980e+000	-1.8801618813e+000
 1.1641463837e+000	 1.3903033350e+000	-1.8874054516e+000
 1.1487521297e+000	 1.4030497417e+000	-1.8891882025e+000
 1.1332268674e+000	 1.4156188653e+000	-1.8863233367e+000
 1.1175736559e+000	 1.4280087221e+000	-1.8795454660e+000
 1.1017955935e+000	 1.4402173985e+000	-1.8695141428e+000
 1.0858958158e+000	 1.4522430521e+000	-1.8568177056e+000
 1.0698774934e+000	 1.4640839125e+000	-1.8419773831e+000
 1.0537438299e+000	 1.4757382820e+000	-1.8254516016e+000
 1.2139600934e+000	 1.3559885206e+000	-1.8382652102e+000
 1.1989217097e+000	 1.3693029615e+000	-1.8575538569e+000
 1.1837428804e+000	 1.3824458526e+000	-1.8700108249e+000
 1.1684265461e+000	 1.3954149980e+000	-1.8765469216e+000
 1.1529756927e+000	 1.4082082689e+000	-1.8779879747e+000
 1.1373933494e+000	 1.4208236048e+000	-1.8750778255e+000
 1.1216825865e+000	 1.4332590148e+000	-1.8684817465e+000
 1.1058465137e+000	 1.4455125782e+000	-1.8587902310e+000
 1.0898882780e+000	 1.4575824460e+000	-1.8465230979e+000
 1.0738110617e+000	 1.4694668411e+000	-1.8321338551e+000
 1.0576180804e+000	 1.4811640597e+000	-1.8160142637e+000
 1.2184070535e+000	 1.3609557572e+000	-1.8283046477e+000
 1.2033135815e+000	 1.3743189713e+000	-1.8459499788e+000
 1.1880791493e+000	 1.3875100072e+000	-1.8572284388e+000
 1.1727067085e+000	 1.4005266610e+000	-1.8629864174e+000
 1.1571992558e+000	 1.4133667960e+000	-1.8639847378e+000
 1.1415598314e+000	 1.4260283442e+000	-1.8609018961e+000
 1.1257915171e+000	 1.4385093074e+000	-1.8543377328e+000
 1.1098974338e+000	 1.4508077579e+000	-1.8448174785e+000
 1.0938807402e+000	 1.4629218399e+000	-1.8327961174e+000
 1.0777446301e+000	 1.4748497697e+000	-1.8186630085e+000
 1.0614923309e+000	 1.4865898373e+000	-1.8027467070e+000
 1.2228540137e+000	 1.3659229937e+000	-1.8158112122e+000
 1.2077054532e+000	 1.3793349811e+000	-1.8318273481e+000
 1.1924154182e+000	 1.3925741619e+000	-1.8419021483e+000
 1.1769868708e+000	 1.4056383240e+000	-1.8468217773e+000
 1.1614228188e+000	 1.4185253231e+000	-1.8472861392e+000
 1.1457263134e+000	 1.4312330837e+000	-1.8439123639e+000
 1.1299004477e+000	 1.4437596000e+000	-1.8372387291e+000
 1.1139483539e+000	 1.4561029376e+000	-1.8277289619e+000
 1.0978732023e+000	 1.4682612337e+000	-1.8157768594e+000
 1.0816781985e+000	 1.4802326983e+000	-1.8017111682e+000
 1.0653665813e+000	 1.4920156150e+000	-1.7858006614e+000
 1.2273009739e+000	 1.3708902302e+000	-1.8008505200e+000
 1.2120973250e+000	 1.3843509909e+000	-1.8152628878e+000
 1.1967516871e+000	 1.3976383165e+000	-1.8241196669e+000
 1.1812670332e+000	 1.4107499870e+000	-1.8281509501e+000
 1.1656463818e+000	 1.4236838502e+000	-1.8279997710e+000
 1.1498927955e+000	 1.4364378231e+000	-1.8242258334e+000
 1.1340093783e+000	 1.4490098927e+000	-1.8173096842e+000
 1.1179992741e+000	 1.4613981174e+000	-1.8076572691e+000
 1.1018656645e+000	 1.4736006276e+000	-1.7956048096e+000
 1.0856117668e+000	 1.4856156269e+000	-1.7814239400e+000
 1.0692408318e+000	 1.4974413927e+000	-1.7653270403e+000
 1.2317479340e+000	 1.3758574668e+000	-1.7834888357e+000
 1.2164891968e+000	 1.3893670007e+000	-1.7963339764e+000
 1.2010879560e+000	 1.4027024711e+000	-1.8039689802e+000
 1.1855471955e+000	 1.4158616500e+000	-1.8070719842e+000
 1.1698699449e+000	 1.4288423774e+000	-1.8062331614e+000
 1.1540592775e+000	 1.4416425625e+000	-1.8019586931e+000
 1.1381183089e+000	 1.4542601853e+000	-1.7946751899e+000
 1.1220501942e+000	 1.4666932971e+000	-1.7847345014e+000
 1.1058581267e+000	 1.4789400214e+000	-1.7724188487e+000
 1.0895453352e+000	 1.4909985555e+000	-1.7579462186e+000
 1.0731150823e+000	 1.5028671704e+000	-1.7414759517e+000
 1.2361948942e+000	 1.3808247033e+000	-1.7637930481e+000
 1.2208810686e+000	 1.3943830105e+000	-1.7751184279e+000
 1.2054242250e+000	 1.4077666258e+000	-1.7815383300e+000
 1.1898273579e+000	 1.4209733130e+000	-1.7836830143e+000
 1.1740935079e+000	 1.4340009045e+000	-1.7820937664e+000
 1.1582257595e+000	 1.4468473020e+000	-1.7772271108e+000
 1.1422272395e+000	 1.4595104780e+000	-1.7694594799e+000
 1.1261011143e+000	 1.4719884768e+000	-1.7590922755e+000
 1.1098505888e+000	 1.4842794153e+000	-1.7463572578e+000
 1.0934789035e+000	 1.4963814841e+000	-1.7314221952e+000
 1.0769893328e+000	 1.5082929480e+000	-1.7143967086e+000
 1.2406418543e+000	 1.3857919398e+000	-1.7418306456e+000
 1.2252729404e+000	 1.3993990203e+000	-1.7516944709e+000
 1.2097604939e+000	 1.4128307804e+000	-1.7569161973e+000
 1.1941075203e+000	 1.4260849761e+000	-1.7580822491e+000
 1.1783170709e+000	 1.4391594316e+000	-1.7556889604e+000
 1.1623922416e+000	 1.4520520414e+000	-1.7501470280e+000
 1.1463361701e+000	 1.4647607706e+000	-1.7417864270e+000
 1.1301520345e+000	 1.4772836565e+000	-1.7308617242e+000
 1.1138430510e+000	 1.4896188092e+000	-1.7175577219e+000
 1.0974124719e+000	 1.5017644127e+000	-1.7019953646e+000
 1.0808635832e+000	 1.5137187257e+000	-1.6842378383e+000
 1.2450888145e+000	 1.3907591764e+000	-1.7176696918e+000
 1.2296648121e+000	 1.4044150301e+000	-1.7261407279e+000
 1.2140967628e+000	 1.4178949350e+000	-1.7301912855e+000
 1.1983876826e+000	 1.4311966391e+000	-1.7303679578e+000
 1.1825406339e+000	 1.4443179588e+000	-1.7271260266e+000
 1.1665587236e+000	 1.4572567808e+000	-1.7208341533e+000
 1.1504451007e+000	 1.4700110632e+000	-1.7117795405e+000
 1.1342029546e+000	 1.4825788362e+000	-1.7001734962e+000
 1.1178355132e+000	 1.4949582030e+000	-1.6861573332e+000
 1.1013460402e+000	 1.5071473413e+000	-1.6698085308e+000
 1.0847378337e+000	 1.5191445034e+000	-1.6511470913e+000
 1.0459953290e+000	 1.4648867267e+000	-1.8322245451e+000
 1.0298690189e+000	 1.4762686658e+000	-1.8145175685e+000
 1.0136346645e+000	 1.4874623321e+000	-1.7983581399e+000
 9.9729552980e-001	 1.4984662587e+000	-1.7834021534e+000
 9.8085490370e-001	 1.5092790533e+000	-1.7692768243e+000
 9.6431609742e-001	 1.5198993990e+000	-1.7556100764e+000
 9.4768244255e-001	 1.5303260540e+000	-1.7420199589e+000
 9.3095728891e-001	 1.5405578528e+000	-1.7281231129e+000
 9.1414400240e-001	 1.5505937056e+000	-1.7135392689e+000
 8.9724596292e-001	 1.5604325990e+000	-1.6978954648e+000
 8.8026656220e-001	 1.5700735960e+000	-1.6808299525e+000
 1.0498695794e+000	 1.4703125043e+000	-1.8309061621e+000
 1.0336835393e+000	 1.4817366009e+000	-1.8140464157e+000
 1.0173890546e+000	 1.4929717273e+000	-1.7988544599e+000
 1.0009894016e+000	 1.5040164112e+000	-1.7849910137e+000
 9.8448788128e-001	 1.5148692553e+000	-1.7720893654e+000
 9.6788781710e-001	 1.5255289375e+000	-1.7597836053e+000
 9.5119255302e-001	 1.5359942117e+000	-1.7476989606e+000
 9.3440545127e-001	 1.5462639079e+000	-1.7354601564e+000
 9.1752989022e-001	 1.5563369324e+000	-1.7226959939e+000
 9.0056926227e-001	 1.5662122680e+000	-1.7090436402e+000
 8.8352697174e-001	 1.5758889741e+000	-1.6941525942e+000
 1.0537438299e+000	 1.4757382820e+000	-1.8254516016e+000
 1.0374980598e+000	 1.4872045360e+000	-1.8092168335e+000
 1.0211434448e+000	 1.4984811226e+000	-1.7947574113e+000
 1.0046832735e+000	 1.5095665638e+000	-1.7817383854e+000
 9.8812085886e-001	 1.5204594572e+000	-1.7697982988e+000
 9.7145953678e-001	 1.5311584759e+000	-1.7585763182e+000
 9.5470266349e-001	 1.5416623693e+000	-1.7477034658e+000
 9.3785361363e-001	 1.5519699630e+000	-1.7368108886e+000
 9.2091577803e-001	 1.5620801592e+000	-1.7255345281e+000
 9.0389256162e-001	 1.5719919370e+000	-1.7135194896e+000
 8.8678738128e-001	 1.5817043523e+000	-1.7004240762e+000
 1.0576180804e+000	 1.4811640597e+000	-1.8160142637e+000
 1.0413125802e+000	 1.4926724711e+000	-1.8001861614e+000
 1.0248978350e+000	 1.5039905178e+000	-1.7862258134e+000
 1.0083771453e+000	 1.5151167163e+000	-1.7738021164e+000
 9.9175383643e-001	 1.5260496591e+000	-1.7625580604e+000
 9.7503125645e-001	 1.5367880144e+000	-1.7521368122e+000
 9.5821277396e-001	 1.5473305270e+000	-1.7421738211e+000
 9.4130177598e-001	 1.5576760181e+000	-1.7323050137e+000
 9.2430166584e-001	 1.5678233860e+000	-1.7221715625e+000
 9.0721586097e-001	 1.5777716059e+000	-1.7114243437e+000
 8.9004779081e-001	 1.5875197304e+000	-1.6997280491e+000
 1.0614923309e+000	 1.4865898373e+000	-1.8027467070e+000
 1.0451271006e+000	 1.4981404063e+000	-1.7871108185e+000
 1.0286522252e+000	 1.5094999130e+000	-1.7734175223e+000
 1.0120710171e+000	 1.5206668688e+000	-1.7613354969e+000
 9.9538681401e-001	 1.5316398610e+000	-1.7505221422e+000
 9.7860297613e-001	 1.5424175529e+000	-1.7406128015e+000
 9.6172288443e-001	 1.5529986847e+000	-1.7312495859e+000
 9.4474993834e-001	 1.5633820732e+000	-1.7220715771e+000
 9.2768755365e-001	 1.5735666128e+000	-1.7127232901e+000
 9.1053916032e-001	 1.5835512749e+000	-1.7028592290e+000
 8.9330820035e-001	 1.5933351085e+000	-1.6921480843e+000
 1.0653665813e+000	 1.4920156150e+000	-1.7858006614e+000
 1.0489416210e+000	 1.5036083414e+000	-1.7701463196e+000
 1.0324066153e+000	 1.5150093082e+000	-1.7564894483e+000
 1.0157648890e+000	 1.5262170214e+000	-1.7445018177e+000
 9.9901979159e-001	 1.5372300629e+000	-1.7338431110e+000
 9.8217469581e-001	 1.5480470914e+000	-1.7241511363e+000
 9.6523299489e-001	 1.5586668424e+000	-1.7150695499e+000
 9.4819810070e-001	 1.5690881284e+000	-1.7062389817e+000
 9.3107344146e-001	 1.5793098396e+000	-1.6973054214e+000
 9.1386245967e-001	 1.5893309439e+000	-1.6879248801e+000
 8.9656860989e-001	 1.5991504867e+000	-1.6777676839e+000
 1.0692408318e+000	 1.4974413927e+000	-1.7653270403e+000
 1.0527561414e+000	 1.5090762765e+000	-1.7494472889e+000
 1.0361610055e+000	 1.5205187034e+000	-1.7355975719e+000
 1.0194587608e+000	 1.5317671739e+000	-1.7234522805e+000
 1.0026527692e+000	 1.5428202648e+000	-1.7126726266e+000
 9.8574641548e-001	 1.5536766299e+000	-1.7028978213e+000
 9.6874310536e-001	 1.5643350000e+000	-1.6937717511e+000
 9.5164626305e-001	 1.5747941835e+000	-1.6849350046e+000
 9.3445932927e-001	 1.5850530664e+000	-1.6760331980e+000
 9.1718575902e-001	 1.5951106128e+000	-1.6667217519e+000
 8.9982901942e-001	 1.6049658648e+000	-1.6566702895e+000
 1.0731150823e+000	 1.5028671704e+000	-1.7414759517e+000
 1.0565706618e+000	 1.5145442116e+000	-1.7251674739e+000
 1.0399153957e+000	 1.5260280986e+000	-1.7108969593e+000
 1.0231526326e+000	 1.5373173264e+000	-1.6983409560e+000
 1.0062857467e+000	 1.5484104668e+000	-1.6871614589e+000
 9.8931813516e-001	 1.5593061684e+000	-1.6769980321e+000
 9.7225321583e-001	 1.5700031577e+000	-1.6674934916e+000
 9.5509442541e-001	 1.5805002386e+000	-1.6582868118e+000
 9.3784521708e-001	 1.5907962932e+000	-1.6490214067e+000
 9.2050905837e-001	 1.6008902818e+000	-1.6393500305e+000
 9.0308942896e-001	 1.6107812430e+000	-1.6289392897e+000
 1.0769893328e+000	 1.5082929480e+000	-1.7143967086e+000
 1.0603851822e+000	 1.5200121467e+000	-1.6974597583e+000
 1.0436697858e+000	 1.5315374938e+000	-1.6825417769e+000
 1.0268465044e+000	 1.5428674789e+000	-1.6693210118e+000
 1.0099187243e+000	 1.5540006687e+000	-1.6574595039e+000
 9.9288985484e-001	 1.5649357069e+000	-1.6465961317e+000
 9.7576332629e-001	 1.5756713154e+000	-1.6363713533e+000
 9.5854258776e-001	 1.5862062937e+000	-1.6264209728e+000
 9.4123110489e-001	 1.5965395200e+000	-1.6163843915e+000
 9.2383235772e-001	 1.6066699508e+000	-1.6059096433e+000
 9.0634983850e-001	 1.6165966211e+000	-1.5946580279e+000
 1.0808635832e+000	 1.5137187257e+000	-1.6842378383e+000
 1.0641997027e+000	 1.5254800818e+000	-1.6664761732e+000
 1.0474241760e+000	 1.5370468890e+000	-1.6506853045e+000
 1.0305403763e+000	 1.5484176315e+000	-1.6365447272e+000
 1.0135517019e+000	 1.5595908706e+000	-1.6237125247e+000
 9.9646157451e-001	 1.5705652454e+000	-1.6118356856e+000
 9.7927343676e-001	 1.5813394730e+000	-1.6005412130e+000
 9.6199075012e-001	 1.5919123488e+000	-1.5894634739e+000
 9.4461699271e-001	 1.6022827468e+000	-1.5782360660e+000
 9.2715565707e-001	 1.6124496197e+000	-1.5665002686e+000
 9.0961024803e-001	 1.6224119993e+000	-1.5539098091e+000
 1.0847378337e+000	 1.5191445034e+000	-1.6511470913e+000
 1.0680142231e+000	 1.5309480169e+000	-1.6323679087e+000
 1.0511785662e+000	 1.5425562842e+000	-1.6154799484e+000
 1.0342342481e+000	 1.5539677840e+000	-1.6001635067e+000
 1.0171846795e+000	 1.5651810725e+000	-1.5860754447e+000
 1.0000332942e+000	 1.5761947839e+000	-1.5728594763e+000
 9.8278354723e-001	 1.5870076307e+000	-1.5601382558e+000
 9.6543891248e-001	 1.5976184039e+000	-1.5475397317e+000
 9.4800288052e-001	 1.6080259736e+000	-1.5346899240e+000
 9.3047895642e-001	 1.6182292887e+000	-1.5212213450e+000
 9.1287065757e-001	 1.6282273774e+000	-1.5067779062e+000
 8.8026656220e-001	 1.5700735960e+000	-1.6808299525e+000
 8.6321176606e-001	 1.5795144344e+000	-1.6632747402e+000
 8.4608244212e-001	 1.5887557923e+000	-1.6462515408e+000
 8.2888200446e-001	 1.5977969630e+000	-1.6295361816e+000
 8.1161387060e-001	 1.6066373155e+000	-1.6128858729e+000
 7.9428145944e-001	 1.6152762950e+000	-1.5960416805e+000
 7.7688818926e-001	 1.6237134218e+000	-1.5787306468e+000
 7.5943747563e-001	 1.6319482913e+000	-1.5606675559e+000
 7.4193272950e-001	 1.6399805736e+000	-1.5415563417e+000
 7.2437735518e-001	 1.6478100126e+000	-1.5210911456e+000
 7.0677474842e-001	 1.6554364262e+000	-1.4989570304e+000
 8.8352697174e-001	 1.5758889741e+000	-1.6941525942e+000
 8.6640900653e-001	 1.5853647804e+000	-1.6788112369e+000
 8.4921623748e-001	 1.5946403673e+000	-1.6639197335e+000
 8.3195209131e-001	 1.6037150254e+000	-1.6492986581e+000
 8.1461999819e-001	 1.6125881216e+000	-1.6347506469e+000
 7.9722338971e-001	 1.6212590990e+000	-1.6200628182e+000
 7.7976569679e-001	 1.6297274759e+000	-1.6050088275e+000
 7.6225034766e-001	 1.6379928465e+000	-1.5893505556e+000
 7.4468076589e-001	 1.6460548794e+000	-1.5728394269e+000
 7.2706036842e-001	 1.6539133178e+000	-1.5552173658e+000
 7.0939256355e-001	 1.6615679788e+000	-1.5362173979e+000
 8.8678738128e-001	 1.5817043523e+000	-1.7004240762e+000
 8.6960624700e-001	 1.5912151264e+000	-1.6868901560e+000
 8.5235003283e-001	 1.6005249422e+000	-1.6736924239e+000
 8.3502217815e-001	 1.6096330878e+000	-1.6606924142e+000
 8.1762612579e-001	 1.6185389277e+000	-1.6477346958e+000
 8.0016531998e-001	 1.6272419029e+000	-1.6346492427e+000
 7.8264320432e-001	 1.6357415300e+000	-1.6212534271e+000
 7.6506321968e-001	 1.6440374016e+000	-1.6073536316e+000
 7.4742880228e-001	 1.6521291852e+000	-1.5927464797e+000
 7.2974338165e-001	 1.6600166230e+000	-1.5772196907e+000
 7.1201037869e-001	 1.6676995314e+000	-1.5605525684e+000
 8.9004779081e-001	 1.5875197304e+000	-1.6997280491e+000
 8.7280348746e-001	 1.5970654723e+000	-1.6875771634e+000
 8.5548382818e-001	 1.6064095171e+000	-1.6756190064e+000
 8.3809226499e-001	 1.6155511502e+000	-1.6637523253e+000
 8.2063225338e-001	 1.6244897338e+000	-1.6518601660e+000
 8.0310725025e-001	 1.6332247068e+000	-1.6398121988e+000
 7.8552071185e-001	 1.6417555841e+000	-1.6274666525e+000
 7.6787609171e-001	 1.6500819568e+000	-1.6146718518e+000
 7.5017683867e-001	 1.6582034910e+000	-1.6012673621e+000
 7.3242639489e-001	 1.6661199282e+000	-1.5870847428e+000
 7.1462819382e-001	 1.6738310840e+000	-1.5719479233e+000
 8.9330820035e-001	 1.5933351085e+000	-1.6921480843e+000
 8.7600072793e-001	 1.6029158183e+000	-1.6809380737e+000
 8.5861762354e-001	 1.6122940921e+000	-1.6697492244e+000
 8.4116235184e-001	 1.6214692126e+000	-1.6585137871e+000
 8.2363838098e-001	 1.6304405400e+000	-1.6471498673e+000
 8.0604918052e-001	 1.6392075107e+000	-1.6355637090e+000
 7.8839821937e-001	 1.6477696382e+000	-1.6236515719e+000
 7.7068896373e-001	 1.6561265119e+000	-1.6113011988e+000
 7.5292487506e-001	 1.6642777969e+000	-1.5983928728e+000
 7.3510940812e-001	 1.6722232334e+000	-1.5848000720e+000
 7.1724600896e-001	 1.6799626365e+000	-1.5703897305e+000
 8.9656860989e-001	 1.5991504867e+000	-1.6777676839e+000
 8.7919796839e-001	 1.6087661643e+000	-1.6670388562e+000
 8.6175141889e-001	 1.6181786670e+000	-1.6561331731e+000
 8.4423243868e-001	 1.6273872751e+000	-1.6450127174e+000
 8.2664450857e-001	 1.6363913461e+000	-1.6336272730e+000
 8.0899111079e-001	 1.6451903146e+000	-1.6219165707e+000
 7.9127572690e-001	 1.6537836923e+000	-1.6098121119e+000
 7.7350183576e-001	 1.6621710671e+000	-1.5972385662e+000
 7.5567291145e-001	 1.6703521027e+000	-1.5841147443e+000
 7.3779242135e-001	 1.6783265386e+000	-1.5703541534e+000
 7.1986382409e-001	 1.6860941891e+000	-1.5558651433e+000
 8.9982901942e-001	 1.6049658648e+000	-1.6566702895e+000
 8.8239520886e-001	 1.6146165102e+000	-1.6459456410e+000
 8.6488521424e-001	 1.6240632419e+000	-1.6348213029e+000
 8.4730252552e-001	 1.6333053375e+000	-1.6232855561e+000
 8.2965063617e-001	 1.6423421522e+000	-1.6113165180e+000
 8.1193304106e-001	 1.6511731186e+000	-1.5988843550e+000
 7.9415323443e-001	 1.6597977464e+000	-1.5859530543e+000
 7.7631470778e-001	 1.6682156222e+000	-1.5724817555e+000
 7.5842094784e-001	 1.6764264085e+000	-1.5584256396e+000
 7.4047543459e-001	 1.6844298438e+000	-1.5437363850e+000
 7.2248163923e-001	 1.6922257417e+000	-1.5283621992e+000
 9.0308942896e-001	 1.6107812430e+000	-1.6289392897e+000
 8.8559244933e-001	 1.6204668562e+000	-1.6177247232e+000
 8.6801900960e-001	 1.6299478168e+000	-1.6058644217e+000
 8.5037261237e-001	 1.6392233999e+000	-1.5933692660e+000
 8.3265676376e-001	 1.6482929583e+000	-1.5802423983e+000
 8.1487497133e-001	 1.6571559225e+000	-1.5664814032e+000
 7.9703074196e-001	 1.6658118005e+000	-1.5520800329e+000
 7.7912757980e-001	 1.6742601773e+000	-1.5370294728e+000
 7.6116898423e-001	 1.6825007143e+000	-1.5213191491e+000
 7.4315844782e-001	 1.6905331490e+000	-1.5049370850e+000
 7.2509945436e-001	 1.6983572943e+000	-1.4878698187e+000
 9.0634983850e-001	 1.6165966211e+000	-1.5946580279e+000
 8.8878968979e-001	 1.6263172022e+000	-1.5824425681e+000
 8.7115280495e-001	 1.6358323918e+000	-1.5693136968e+000
 8.5344269921e-001	 1.6451414623e+000	-1.5553013328e+000
 8.3566289135e-001	 1.6542437644e+000	-1.5404303686e+000
 8.1781690160e-001	 1.6631387264e+000	-1.5247228247e+000
 7.9990824949e-001	 1.6718258546e+000	-1.5081995301e+000
 7.8194045183e-001	 1.6803047325e+000	-1.4908813248e+000
 7.6391702062e-001	 1.6885750202e+000	-1.4727897867e+000
 7.4584146106e-001	 1.6966364542e+000	-1.4539474891e+000
 7.2771726950e-001	 1.7044888469e+000	-1.4343778034e+000
 9.0961024803e-001	 1.6224119993e+000	-1.5539098091e+000
 8.9198693026e-001	 1.6321675481e+000	-1.5401658149e+000
 8.7428660031e-001	 1.6417169667e+000	-1.5252206565e+000
 8.5651278605e-001	 1.6510595247e+000	-1.5091197641e+000
 8.3866901895e-001	 1.6601945705e+000	-1.4919065404e+000
 8.2075883187e-001	 1.6691215303e+000	-1.4736244931e+000
 8.0278575702e-001	 1.6778399087e+000	-1.4543188727e+000
 7.8475332385e-001	 1.6863492876e+000	-1.4340378146e+000
 7.6666505701e-001	 1.6946493260e+000	-1.4128329863e+000
 7.4852447429e-001	 1.7027397594e+000	-1.3907597471e+000
 7.3033508463e-001	 1.7106203995e+000	-1.3678768341e+000
 9.1287065757e-001	 1.6282273774e+000	-1.5067779062e+000
 8.9518417073e-001	 1.6380178941e+000	-1.4909612800e+000
 8.7742039566e-001	 1.6476015416e+000	-1.4736371913e+000
 8.5958287290e-001	 1.6569775872e+000	-1.4548630889e+000
 8.4167514655e-001	 1.6661453766e+000	-1.4346976801e+000
 8.2370076214e-001	 1.6751043343e+000	-1.4132030433e+000
 8.0566326455e-001	 1.6838539628e+000	-1.3904462281e+000
 7.8756619588e-001	 1.6923938428e+000	-1.3665003376e+000
 7.6941309341e-001	 1.7007236318e+000	-1.3414450979e+000
 7.5120748753e-001	 1.7088430646e+000	-1.3153669199e+000
 7.3295289977e-001	 1.7167519521e+000	-1.2883584691e+000
 7.0677474842e-001	 1.6554364262e+000	-1.4989570304e+000
 6.8912564428e-001	 1.6628608034e+000	-1.4786076899e+000
 6.7143605513e-001	 1.6700819490e+000	-1.4612613598e+000
 6.5370934202e-001	 1.6770998984e+000	-1.4456945264e+000
 6.3594884997e-001	 1.6839147584e+000	-1.4354499783e+000
 6.1815790620e-001	 1.6905267052e+000	-1.4289903280e+000
 6.0033981835e-001	 1.6969359845e+000	-1.4246286783e+000
 5.8249787284e-001	 1.7031429098e+000	-1.4208172488e+000
 5.6463533321e-001	 1.7091478619e+000	-1.4161305799e+000
 5.4675543847e-001	 1.7149512879e+000	-1.4092503957e+000
 5.2886140161e-001	 1.7205536997e+000	-1.3989521190e+000
 7.0939256355e-001	 1.6615679788e+000	-1.5362173979e+000
 6.9167808910e-001	 1.6690198551e+000	-1.5193439625e+000
 6.7392297967e-001	 1.6762677469e+000	-1.5058344426e+000
 6.5613060878e-001	 1.6833116901e+000	-1.4935839551e+000
 6.3830433385e-001	 1.6901517915e+000	-1.4862478883e+000
 6.2044749440e-001	 1.6967882283e+000	-1.4826976794e+000
 6.0256341033e-001	 1.7032212468e+000	-1.4812754566e+000
 5.8465538024e-001	 1.7094511619e+000	-1.4804615863e+000
 5.6672667974e-001	 1.7154783557e+000	-1.4788576035e+000
 5.4878055986e-001	 1.7213032769e+000	-1.4751708529e+000
 5.3082024548e-001	 1.7269264394e+000	-1.4682008359e+000
 7.1201037869e-001	 1.6676995314e+000	-1.5605525684e+000
 6.9423053391e-001	 1.6751789068e+000	-1.5463022351e+000
 6.7640990421e-001	 1.6824535449e+000	-1.5357361883e+000
 6.5855187555e-001	 1.6895234818e+000	-1.5260957510e+000
 6.4065981773e-001	 1.6963888247e+000	-1.5208072922e+000
 6.2273708260e-001	 1.7030497514e+000	-1.5192848730e+000
 6.0478700231e-001	 1.7095065091e+000	-1.5199079242e+000
 5.8681288764e-001	 1.7157594140e+000	-1.5211921703e+000
 5.6881802628e-001	 1.7218088495e+000	-1.5217722852e+000
 5.5080568126e-001	 1.7276552659e+000	-1.5203863166e+000
 5.3277908934e-001	 1.7332991791e+000	-1.5158618704e+000
 7.1462819382e-001	 1.6738310840e+000	-1.5719479233e+000
 6.9678297873e-001	 1.6813379584e+000	-1.5594642993e+000
 6.7889682875e-001	 1.6886393429e+000	-1.5509380178e+000
 6.6097314232e-001	 1.6957352735e+000	-1.5431661519e+000
 6.4301530161e-001	 1.7026258579e+000	-1.5390423419e+000
 6.2502667079e-001	 1.7093112744e+000	-1.5386372369e+000
 6.0701059429e-001	 1.7157917715e+000	-1.5403757876e+000
 5.8897039504e-001	 1.7220676661e+000	-1.5428162293e+000
 5.7090937281e-001	 1.7281393432e+000	-1.5446324659e+000
 5.5283080265e-001	 1.7340072550e+000	-1.5445982792e+000
 5.3473793321e-001	 1.7396719189e+000	-1.5415733581e+000
 7.1724600896e-001	 1.6799626365e+000	-1.5703897305e+000
 6.9933542354e-001	 1.6874970101e+000	-1.5588128236e+000
 6.8138375330e-001	 1.6948251409e+000	-1.5514123159e+000
 6.6339440908e-001	 1.7019470652e+000	-1.5447324039e+000
 6.4537078548e-001	 1.7088628910e+000	-1.5408683347e+000
 6.2731625899e-001	 1.7155727975e+000	-1.5406414929e+000
 6.0923418627e-001	 1.7220770338e+000	-1.5425305070e+000
 5.9112790243e-001	 1.7283759182e+000	-1.5451432208e+000
 5.7300071935e-001	 1.7344698370e+000	-1.5471988053e+000
 5.5485592404e-001	 1.7403592440e+000	-1.5475117582e+000
 5.3669677708e-001	 1.7460446586e+000	-1.5449777824e+000
 7.1986382409e-001	 1.6860941891e+000	-1.5558651433e+000
 7.0188786836e-001	 1.6936560617e+000	-1.5443313532e+000
 6.8387067784e-001	 1.7010109388e+000	-1.5371324302e+000
 6.6581567585e-001	 1.7081588568e+000	-1.5307328038e+000
 6.4772626936e-001	 1.7150999242e+000	-1.5262017475e+000
 6.2960584719e-001	 1.7218343206e+000	-1.5251857810e+000
 6.1145777826e-001	 1.7283622961e+000	-1.5262253105e+000
 5.9328540983e-001	 1.7346841702e+000	-1.5279848309e+000
 5.7509206589e-001	 1.7408003308e+000	-1.5292347663e+000
 5.5688104543e-001	 1.7467112330e+000	-1.5288352627e+000
 5.3865562095e-001	 1.7524173983e+000	-1.5257219226e+000
 7.2248163923e-001	 1.6922257417e+000	-1.5283621992e+000
 7.0444031317e-001	 1.6998151134e+000	-1.5160043095e+000
 6.8635760238e-001	 1.7071967368e+000	-1.5080726693e+000
 6.6823694262e-001	 1.7143706485e+000	-1.5010797269e+000
 6.5008175324e-001	 1.7213369574e+000	-1.4949602709e+000
 6.3189543539e-001	 1.7280958437e+000	-1.4921596835e+000
 6.1368137024e-001	 1.7346475585e+000	-1.4913152061e+000
 5.9544291723e-001	 1.7409924223e+000	-1.4911549742e+000
 5.7718341242e-001	 1.7471308246e+000	-1.4905066001e+000
 5.5890616683e-001	 1.7530632220e+000	-1.4882807625e+000
 5.4061446482e-001	 1.7587901381e+000	-1.4834568039e+000
 7.2509945436e-001	 1.6983572943e+000	-1.4878698187e+000
 7.0699275798e-001	 1.7059741650e+000	-1.4738169893e+000
 6.8884452692e-001	 1.7133825348e+000	-1.4642083006e+000
 6.7065820938e-001	 1.7205824402e+000	-1.4556240868e+000
 6.5243723711e-001	 1.7275739905e+000	-1.4470628433e+000
 6.3418502359e-001	 1.7343573668e+000	-1.4414542499e+000
 6.1590496222e-001	 1.7409328208e+000	-1.4376569960e+000
 5.9760042463e-001	 1.7473006744e+000	-1.4344697947e+000
 5.7927475896e-001	 1.7534613183e+000	-1.4307833321e+000
 5.6093128822e-001	 1.7594152110e+000	-1.4255636572e+000
 5.4257330869e-001	 1.7651628778e+000	-1.4178376481e+000
 7.2771726950e-001	 1.7044888469e+000	-1.4343778034e+000
 7.0954520280e-001	 1.7121332167e+000	-1.4177555634e+000
 6.9133145146e-001	 1.7195683327e+000	-1.4055155485e+000
 6.7307947615e-001	 1.7267942319e+000	-1.3943165053e+000
 6.5479272099e-001	 1.7338110237e+000	-1.3824296851e+000
 6.3647461179e-001	 1.7406188898e+000	-1.3729620220e+000
 6.1812855420e-001	 1.7472180831e+000	-1.3651092904e+000
 5.9975793202e-001	 1.7536089265e+000	-1.3577476670e+000
 5.8136610549e-001	 1.7597918121e+000	-1.3498367489e+000
 5.6295640961e-001	 1.7657672000e+000	-1.3404027472e+000
 5.4453215256e-001	 1.7715356175e+000	-1.3285238275e+000
 7.3033508463e-001	 1.7106203995e+000	-1.3678768341e+000
 7.1209764761e-001	 1.7182922683e+000	-1.3478070758e+000
 6.9381837601e-001	 1.7257541307e+000	-1.3319715918e+000
 6.7550074291e-001	 1.7330060235e+000	-1.3171179869e+000
 6.5714820487e-001	 1.7400480568e+000	-1.3009823327e+000
 6.3876419999e-001	 1.7468804129e+000	-1.2865770587e+000
 6.2035214618e-001	 1.7535033455e+000	-1.2735325215e+000
 6.0191543942e-001	 1.7599171786e+000	-1.2608091980e+000
 5.8345745203e-001	 1.7661223059e+000	-1.2474413862e+000
 5.6498153100e-001	 1.7721191891e+000	-1.2325202053e+000
 5.4649099642e-001	 1.7779083572e+000	-1.2151788183e+000
 7.3295289977e-001	 1.7167519521e+000	-1.2883584691e+000
 7.1465009243e-001	 1.7244513200e+000	-1.2639594420e+000
 6.9630530055e-001	 1.7319399287e+000	-1.2435545612e+000
 6.7792200968e-001	 1.7392178152e+000	-1.2239906564e+000
 6.5950368875e-001	 1.7462850900e+000	-1.2026436727e+000
 6.4105378818e-001	 1.7531419360e+000	-1.1821949611e+000
 6.2257573816e-001	 1.7597886078e+000	-1.1627889585e+000
 6.0407294682e-001	 1.7662254307e+000	-1.1434772297e+000
 5.8554879857e-001	 1.7724527997e+000	-1.1233745169e+000
 5.6700665240e-001	 1.7784711781e+000	-1.1016415500e+000
 5.4844984029e-001	 1.7842810970e+000	-1.0774701568e+000
 5.2886140161e-001	 1.7205536997e+000	-1.3989521190e+000
 5.1095640776e-001	 1.7259556728e+000	-1.3861803177e+000
 4.9304361203e-001	 1.7311578440e+000	-1.3729292477e+000
 4.7512613887e-001	 1.7361609110e+000	-1.3596238937e+000
 4.5720708096e-001	 1.7409656323e+000	-1.3466985977e+000
 4.3928949790e-001	 1.7455728252e+000	-1.3345899749e+000
 4.2137641493e-001	 1.7499833653e+000	-1.3237312737e+000
 4.0347082167e-001	 1.7541981846e+000	-1.3145480948e+000
 3.8557567101e-001	 1.7582182705e+000	-1.3074553710e+000
 3.6769387793e-001	 1.7620446643e+000	-1.3028555062e+000
 3.4982831845e-001	 1.7656784599e+000	-1.3011375675e+000
 5.3082024548e-001	 1.7269264394e+000	-1.4682008359e+000
 5.1284893352e-001	 1.7323484209e+000	-1.4587833090e+000
 4.9486979079e-001	 1.7375698603e+000	-1.4487777379e+000
 4.7688595330e-001	 1.7425914581e+000	-1.4385884862e+000
 4.5890052519e-001	 1.7474139755e+000	-1.4286234144e+000
 4.4091657739e-001	 1.7520382330e+000	-1.4192870031e+000
 4.2293714635e-001	 1.7564651093e+000	-1.4109749654e+000
 4.0496523277e-001	 1.7606955398e+000	-1.4040702557e+000
 3.8700380046e-001	 1.7647305157e+000	-1.3989403764e+000
 3.6905577520e-001	 1.7685710820e+000	-1.3959358754e+000
 3.5112404367e-001	 1.7722183367e+000	-1.3953899246e+000
 5.3277908934e-001	 1.7332991791e+000	-1.5158618704e+000
 5.1474145928e-001	 1.7387411689e+000	-1.5089143724e+000
 4.9669596954e-001	 1.7439818766e+000	-1.5012571347e+000
 4.7864576772e-001	 1.7490220052e+000	-1.4932785248e+000
 4.6059396942e-001	 1.7538623188e+000	-1.4853660508e+000
 4.4254365688e-001	 1.7585036408e+000	-1.4778996535e+000
 4.2449787777e-001	 1.7629468532e+000	-1.4712465294e+000
 4.0645964386e-001	 1.7671928950e+000	-1.4657573897e+000
 3.8843192990e-001	 1.7712427608e+000	-1.4617640510e+000
 3.7041767247e-001	 1.7750974996e+000	-1.4595782498e+000
 3.5241976890e-001	 1.7787582135e+000	-1.4594915642e+000
 5.3473793321e-001	 1.7396719189e+000	-1.5415733581e+000
 5.1663398504e-001	 1.7451339169e+000	-1.5361523384e+000
 4.9852214830e-001	 1.7503938929e+000	-1.5299020323e+000
 4.8040558215e-001	 1.7554525524e+000	-1.5231993154e+000
 4.6228741364e-001	 1.7603106621e+000	-1.5164173366e+000
 4.4417073638e-001	 1.7649690486e+000	-1.5099189402e+000
 4.2605860919e-001	 1.7694285972e+000	-1.5040516606e+000
 4.0795405495e-001	 1.7736902501e+000	-1.4991441896e+000
 3.8986005934e-001	 1.7777550059e+000	-1.4955042115e+000
 3.7177956974e-001	 1.7816239173e+000	-1.4934174909e+000
 3.5371549412e-001	 1.7852980904e+000	-1.4931480972e+000
 5.3669677708e-001	 1.7460446586e+000	-1.5449777824e+000
 5.1852651080e-001	 1.7515266650e+000	-1.5400811635e+000
 5.0034832706e-001	 1.7568059092e+000	-1.5342527246e+000
 4.8216539658e-001	 1.7618830995e+000	-1.5278622332e+000
 4.6398085787e-001	 1.7667590053e+000	-1.5212743379e+000
 4.4579781587e-001	 1.7714344564e+000	-1.5148420814e+000
 4.2761934061e-001	 1.7759103411e+000	-1.5089020271e+000
 4.0944846605e-001	 1.7801876053e+000	-1.5037708953e+000
 3.9128818879e-001	 1.7842672510e+000	-1.4997436009e+000
 3.7314146701e-001	 1.7881503349e+000	-1.4970925749e+000
 3.5501121934e-001	 1.7918379672e+000	-1.4960682478e+000
 5.3865562095e-001	 1.7524173983e+000	-1.5257219226e+000
 5.2041903657e-001	 1.7579194130e+000	-1.5202898611e+000
 5.0217450581e-001	 1.7632179255e+000	-1.5138551210e+000
 4.8392521100e-001	 1.7683136466e+000	-1.5067846284e+000
 4.6567430210e-001	 1.7732073486e+000	-1.4994402575e+000
 4.4742489536e-001	 1.7778998642e+000	-1.4921723973e+000
 4.2918007203e-001	 1.7823920850e+000	-1.4853151702e+000
 4.1094287714e-001	 1.7866849605e+000	-1.4791831982e+000
 3.9271631823e-001	 1.7907794961e+000	-1.4740698030e+000
 3.7450336428e-001	 1.7946767526e+000	-1.4702465195e+000
 3.5630694456e-001	 1.7983778440e+000	-1.4679637980e+000
 5.4061446482e-001	 1.7587901381e+000	-1.4834568039e+000
 5.2231156233e-001	 1.7643121611e+000	-1.4763724330e+000
 5.0400068457e-001	 1.7696299418e+000	-1.4682606653e+000
 4.8568502543e-001	 1.7747441937e+000	-1.4594897352e+000
 4.6736774632e-001	 1.7796556918e+000	-1.4504243379e+000
 4.4905197485e-001	 1.7843652720e+000	-1.4414192108e+000
 4.3074080346e-001	 1.7888738290e+000	-1.4328144065e+000
 4.1243728823e-001	 1.7931823156e+000	-1.4249321496e+000
 3.9414444767e-001	 1.7972917412e+000	-1.4180751590e+000
 3.7586526155e-001	 1.8012031702e+000	-1.4125263138e+000
 3.5760266978e-001	 1.8049177208e+000	-1.4085495330e+000
 5.4257330869e-001	 1.7651628778e+000	-1.4178376481e+000
 5.2420408809e-001	 1.7707049091e+000	-1.4079278041e+000
 5.0582686332e-001	 1.7760419581e+000	-1.3970262564e+000
 4.8744483986e-001	 1.7811747408e+000	-1.3855065832e+000
 4.6906119055e-001	 1.7861040351e+000	-1.3737417662e+000
 4.5067905434e-001	 1.7908306798e+000	-1.3620977503e+000
 4.3230153488e-001	 1.7953555729e+000	-1.3509287325e+000
 4.1393169933e-001	 1.7996796708e+000	-1.3405740699e+000
 3.9557257712e-001	 1.8038039863e+000	-1.3313566863e+000
 3.7722715882e-001	 1.8077295879e+000	-1.3235828495e+000
 3.5889839500e-001	 1.8114575977e+000	-1.3175431885e+000
 5.4453215256e-001	 1.7715356175e+000	-1.3285238275e+000
 5.2609661385e-001	 1.7770976571e+000	-1.3145597580e+000
 5.0765304208e-001	 1.7824539744e+000	-1.2997141708e+000
 4.8920465428e-001	 1.7876052879e+000	-1.2843699101e+000
 4.7075463478e-001	 1.7925523783e+000	-1.2689135821e+000
 4.5230613383e-001	 1.7972960875e+000	-1.2537290560e+000
 4.3386226630e-001	 1.8018373169e+000	-1.2391927319e+000
 4.1542611042e-001	 1.8061770260e+000	-1.2256704615e+000
 3.9700070656e-001	 1.8103162315e+000	-1.2135159992e+000
 3.7858905608e-001	 1.8142560055e+000	-1.2030708530e+000
 3.6019412023e-001	 1.8179974745e+000	-1.1946653983e+000
 5.4649099642e-001	 1.7779083572e+000	-1.2151788183e+000
 5.2798913961e-001	 1.7834904052e+000	-1.1958768749e+000
 5.0947922084e-001	 1.7888659907e+000	-1.1758919882e+000
 4.9096446871e-001	 1.7940358350e+000	-1.1556200780e+000
 4.7244807901e-001	 1.7990007216e+000	-1.1354665874e+000
 4.5393321332e-001	 1.8037614953e+000	-1.1158398871e+000
 4.3542299772e-001	 1.8083190608e+000	-1.0971464849e+000
 4.1692052151e-001	 1.8126743811e+000	-1.0797879222e+000
 3.9842883601e-001	 1.8168284766e+000	-1.0641592314e+000
 3.7995095335e-001	 1.8207824232e+000	-1.0506488204e+000
 3.6148984545e-001	 1.8245373513e+000	-1.0396396448e+000
 5.4844984029e-001	 1.7842810970e+000	-1.0774701568e+000
 5.2988166537e-001	 1.7898831532e+000	-1.0514924712e+000
 5.1130539959e-001	 1.7952780070e+000	-1.0251325174e+000
 4.9272428313e-001	 1.8004663821e+000	-9.9880299091e-001
 4.7414152323e-001	 1.8054490649e+000	-9.7293325876e-001
 4.5556029281e-001	 1.8102269031e+000	-9.4796263187e-001
 4.3698372914e-001	 1.8148008047e+000	-9.2433547919e-001
 4.1841493261e-001	 1.8191717363e+000	-9.0249806218e-001
 3.9985696545e-001	 1.8233407217e+000	-8.8289696073e-001
 3.8131285062e-001	 1.8273088409e+000	-8.6597895336e-001
 3.6278557067e-001	 1.8310772282e+000	-8.5219220876e-001
 3.4982831845e-001	 1.7656784599e+000	-1.3011375675e+000
 3.3198450320e-001	 1.7691203005e+000	-1.3003109615e+000
 3.1416254162e-001	 1.7723719412e+000	-1.2980756622e+000
 2.9636518172e-001	 1.7754346262e+000	-1.2943614395e+000
 2.7859512886e-001	 1.7783096463e+000	-1.2891198278e+000
 2.6085504500e-001	 1.7809983380e+000	-1.2823270184e+000
 2.4314754788e-001	 1.7835020816e+000	-1.2739870690e+000
 2.2547521034e-001	 1.7858223000e+000	-1.2641353213e+000
 2.0784055965e-001	 1.7879604570e+000	-1.2528419217e+000
 1.9024607689e-001	 1.7899180559e+000	-1.2402153443e+000
 1.7269419642e-001	 1.7916966383e+000	-1.2264058196e+000
 3.5112404367e-001	 1.7722183367e+000	-1.3953899246e+000
 3.3321413691e-001	 1.7756729255e+000	-1.3953830271e+000
 3.1532616477e-001	 1.7789366100e+000	-1.3937416789e+000
 2.9746288542e-001	 1.7820106388e+000	-1.3904224889e+000
 2.7962701426e-001	 1.7848963077e+000	-1.3854077012e+000
 2.6182122311e-001	 1.7875949580e+000	-1.3787082585e+000
 2.4404813938e-001	 1.7901079752e+000	-1.3703671856e+000
 2.2631034547e-001	 1.7924367874e+000	-1.3604631810e+000
 2.0861037799e-001	 1.7945828638e+000	-1.3491143092e+000
 1.9095072722e-001	 1.7965477135e+000	-1.3364816887e+000
 1.7333383654e-001	 1.7983328836e+000	-1.3227730785e+000
 3.5241976890e-001	 1.7787582135e+000	-1.4594915642e+000
 3.3444377062e-001	 1.7822255506e+000	-1.4596937293e+000
 3.1648978791e-001	 1.7855012787e+000	-1.4581705650e+000
 2.9856058912e-001	 1.7885866514e+000	-1.4549102986e+000
 2.8065889967e-001	 1.7914829690e+000	-1.4499270745e+000
 2.6278740121e-001	 1.7941915779e+000	-1.4432642777e+000
 2.4494873088e-001	 1.7967138687e+000	-1.4349981841e+000
 2.2714548059e-001	 1.7990512748e+000	-1.4252418225e+000
 2.0938019632e-001	 1.8012052707e+000	-1.4141489372e+000
 1.9165537755e-001	 1.8031773711e+000	-1.4019179446e+000
 1.7397347665e-001	 1.8049691289e+000	-1.3887957812e+000
 3.5371549412e-001	 1.7852980904e+000	-1.4931480972e+000
 3.3567340433e-001	 1.7887781756e+000	-1.4930104827e+000
 3.1765341106e-001	 1.7920659475e+000	-1.4911601074e+000
 2.9965829283e-001	 1.7951626639e+000	-1.4876215979e+000
 2.8169078507e-001	 1.7980696303e+000	-1.4824422151e+000
 2.6375357931e-001	 1.8007881979e+000	-1.4756955260e+000
 2.4584932238e-001	 1.8033197623e+000	-1.4674854134e+000
 2.2798061572e-001	 1.8056657621e+000	-1.4579503041e+000
 2.1015001466e-001	 1.8078276776e+000	-1.4472675016e+000
 1.9236002788e-001	 1.8098070287e+000	-1.4356575118e+000
 1.7461311676e-001	 1.8116053741e+000	-1.4233882582e+000
 3.5501121934e-001	 1.7918379672e+000	-1.4960682478e+000
 3.3690303805e-001	 1.7953308006e+000	-1.4951029558e+000
 3.1881703421e-001	 1.7986306162e+000	-1.4925099550e+000
 3.0075599653e-001	 1.8017386765e+000	-1.4883550538e+000
 2.8272267047e-001	 1.8046562917e+000	-1.4827198696e+000
 2.6471975741e-001	 1.8073848178e+000	-1.4757059383e+000
 2.4674991388e-001	 1.8099256558e+000	-1.4674391751e+000
 2.2881575084e-001	 1.8122802495e+000	-1.4580745652e+000
 2.1091983300e-001	 1.8144500845e+000	-1.4478009636e+000
 1.9306467821e-001	 1.8164366863e+000	-1.4368458936e+000
 1.7525275688e-001	 1.8182416194e+000	-1.4254802319e+000
 3.5630694456e-001	 1.7983778440e+000	-1.4679637980e+000
 3.3813267176e-001	 1.8018834256e+000	-1.4657430288e+000
 3.1998065735e-001	 1.8051952849e+000	-1.4620215829e+000
 3.0185370023e-001	 1.8083146891e+000	-1.4569112325e+000
 2.8375455587e-001	 1.8112429530e+000	-1.4505292148e+000
 2.6568593551e-001	 1.8139814378e+000	-1.4430028669e+000
 2.4765050538e-001	 1.8165315494e+000	-1.4344746297e+000
 2.2965088597e-001	 1.8188947369e+000	-1.4251072958e+000
 2.1168965134e-001	 1.8210724913e+000	-1.4150893766e+000
 1.9376932854e-001	 1.8230663439e+000	-1.4046404725e+000
 1.7589239699e-001	 1.8248778647e+000	-1.3940165330e+000
 3.5760266978e-001	 1.8049177208e+000	-1.4085495330e+000
 3.3936230547e-001	 1.8084360507e+000	-1.4047047535e+000
 3.2114428050e-001	 1.8117599537e+000	-1.3994982578e+000
 3.0295140394e-001	 1.8148907017e+000	-1.3930925631e+000
 2.8478644127e-001	 1.8178296144e+000	-1.3856418112e+000
 2.6665211362e-001	 1.8205780578e+000	-1.3772970162e+000
 2.4855109688e-001	 1.8231374429e+000	-1.3682117037e+000
 2.3048602109e-001	 1.8255092243e+000	-1.3585478104e+000
 2.1245946968e-001	 1.8276948982e+000	-1.3484817167e+000
 1.9447397886e-001	 1.8296960015e+000	-1.3382102899e+000
 1.7653203710e-001	 1.8315141099e+000	-1.3279568216e+000
 3.5889839500e-001	 1.8114575977e+000	-1.3175431885e+000
 3.4059193919e-001	 1.8149886757e+000	-1.3117643138e+000
 3.2230790365e-001	 1.8183246224e+000	-1.3047450043e+000
 3.0404910764e-001	 1.8214667143e+000	-1.2967033013e+000
 2.8581832668e-001	 1.8244162757e+000	-1.2878315561e+000
 2.6761829172e-001	 1.8271746777e+000	-1.2783023779e+000
 2.4945168838e-001	 1.8297433364e+000	-1.2682749995e+000
 2.3132115622e-001	 1.8321237116e+000	-1.2579019233e+000
 2.1322928802e-001	 1.8343173051e+000	-1.2473357172e+000
 1.9517862919e-001	 1.8363256591e+000	-1.2367358311e+000
 1.7717167722e-001	 1.8381503552e+000	-1.2262753153e+000
 3.6019412023e-001	 1.8179974745e+000	-1.1946653983e+000
 3.4182157290e-001	 1.8215413007e+000	-1.1866999874e+000
 3.2347152680e-001	 1.8248892912e+000	-1.1775685721e+000
 3.0514681134e-001	 1.8280427269e+000	-1.1675494943e+000
 2.8685021208e-001	 1.8310029370e+000	-1.1568746389e+000
 2.6858446982e-001	 1.8337712977e+000	-1.1457361687e+000
 2.5035227988e-001	 1.8363492300e+000	-1.1342937074e+000
 2.3215629134e-001	 1.8387381990e+000	-1.1226818277e+000
 2.1399910635e-001	 1.8409397119e+000	-1.1110177061e+000
 1.9588327952e-001	 1.8429553167e+000	-1.0994088150e+000
 1.7781131733e-001	 1.8447866005e+000	-1.0879605227e+000
 3.6148984545e-001	 1.8245373513e+000	-1.0396396448e+000
 3.4305120661e-001	 1.8280939257e+000	-1.0292921083e+000
 3.2463514994e-001	 1.8314539599e+000	-1.0177774037e+000
 3.0624451505e-001	 1.8346187395e+000	-1.0054389468e+000
 2.8788209748e-001	 1.8375895984e+000	-9.9254949706e-001
 2.6955064792e-001	 1.8403679176e+000	-9.7931876836e-001
 2.5125287139e-001	 1.8429551235e+000	-9.6590151929e-001
 2.3299142647e-001	 1.8453526864e+000	-9.5240597664e-001
 2.1476892469e-001	 1.8475621188e+000	-9.3890244825e-001
 1.9658792985e-001	 1.8495849743e+000	-9.2543198813e-001
 1.7845095745e-001	 1.8514228458e+000	-9.1201498292e-001
 3.6278557067e-001	 1.8310772282e+000	-8.5219220876e-001
 3.4428084032e-001	 1.8346465508e+000	-8.3932303014e-001
 3.2579877309e-001	 1.8380186287e+000	-8.2518160356e-001
 3.0734221875e-001	 1.8411947520e+000	-8.1018118701e-001
 2.8891398288e-001	 1.8441762597e+000	-7.9463677290e-001
 2.7051682603e-001	 1.8469645376e+000	-7.7877366026e-001
 2.5215346289e-001	 1.8495610171e+000	-7.6273654399e-001
 2.3382656160e-001	 1.8519671738e+000	-7.4659896741e-001
 2.1553874303e-001	 1.8541845257e+000	-7.3037298942e-001
 1.9729258018e-001	 1.8562146319e+000	-7.1401892330e-001
 1.7909059756e-001	 1.8580590910e+000	-6.9745501046e-001
 1.7269419642e-001	 1.7916966383e+000	-1.2264058196e+000
 1.5518468862e-001	 1.7932980092e+000	-1.2131348092e+000
 1.3772256031e-001	 1.7947235026e+000	-1.2026107087e+000
 1.2031013895e-001	 1.7959747663e+000	-1.1957083653e+000
 1.0294970236e-001	 1.7970534806e+000	-1.1932618158e+000
 8.5643478450e-002	 1.7979613563e+000	-1.1960673285e+000
 6.8393644910e-002	 1.7987001334e+000	-1.2048860215e+000
 5.1202329012e-002	 1.7992715798e+000	-1.2204460005e+000
 3.4071607418e-002	 1.7996774898e+000	-1.2434439716e+000
 1.7003506051e-002	 1.7999196823e+000	-1.2745462895e+000
 0.0000000000e+000	 1.8000000000e+000	-1.3143894057e+000
 1.7333383654e-001	 1.7983328836e+000	-1.3227730785e+000
 1.5575947546e-001	 1.7999401858e+000	-1.3092970787e+000
 1.3823266937e-001	 1.8013709590e+000	-1.2979169185e+000
 1.2075575433e-001	 1.8026268573e+000	-1.2896474072e+000
 1.0333101662e-001	 1.8037095671e+000	-1.2854327036e+000
 8.5960692376e-002	 1.8046208054e+000	-1.2861503028e+000
 6.8646967369e-002	 1.8053623189e+000	-1.2926146071e+000
 5.1391976747e-002	 1.8059358819e+000	-1.3055800241e+000
 3.4197804865e-002	 1.8063432953e+000	-1.3257435398e+000
 1.7066485147e-002	 1.8065863848e+000	-1.3537467265e+000
 0.0000000000e+000	 1.8066670000e+000	-1.3901771468e+000
 1.7397347665e-001	 1.8049691289e+000	-1.3887957812e+000
 1.5633426231e-001	 1.8065823623e+000	-1.3755168633e+000
 1.3874277843e-001	 1.8080184155e+000	-1.3633945453e+000
 1.2120136972e-001	 1.8092789483e+000	-1.3535093530e+000
 1.0371233087e-001	 1.8103656535e+000	-1.3468559589e+000
 8.6277906302e-002	 1.8112802545e+000	-1.3443478298e+000
 6.8900289829e-002	 1.8120245043e+000	-1.3468214540e+000
 5.1581624483e-002	 1.8126001839e+000	-1.3550400879e+000
 3.4324002311e-002	 1.8130091007e+000	-1.3696969670e+000
 1.7129464244e-002	 1.8132530874e+000	-1.3914179384e+000
 0.0000000000e+000	 1.8133340000e+000	-1.4207634745e+000
 1.7461311676e-001	 1.8116053741e+000	-1.4233882582e+000
 1.5690904915e-001	 1.8132245389e+000	-1.4105401517e+000
 1.3925288749e-001	 1.8146658719e+000	-1.3977536588e+000
 1.2164698510e-001	 1.8159310393e+000	-1.3861010577e+000
 1.0409364513e-001	 1.8170217399e+000	-1.3765681036e+000
 8.6595120228e-002	 1.8179397036e+000	-1.3700590562e+000
 6.9153612288e-002	 1.8186866897e+000	-1.3674012682e+000
 5.1771272218e-002	 1.8192644859e+000	-1.3693492713e+000
 3.4450199758e-002	 1.8196749062e+000	-1.3765883048e+000
 1.7192443340e-002	 1.8199197899e+000	-1.3897372400e+000
 0.0000000000e+000	 1.8200010000e+000	-1.4093508609e+000
 1.7525275688e-001	 1.8182416194e+000	-1.4254802319e+000
 1.5748383599e-001	 1.8198667155e+000	-1.4131308730e+000
 1.3976299655e-001	 1.8213133283e+000	-1.3997228824e+000
 1.2209260049e-001	 1.8225831303e+000	-1.3862466032e+000
 1.0447495939e-001	 1.8236778263e+000	-1.3736196160e+000
 8.6912334153e-002	 1.8245991527e+000	-1.3626918687e+000
 6.9406934747e-002	 1.8253488752e+000	-1.3542503326e+000
 5.1960919954e-002	 1.8259287879e+000	-1.3490231217e+000
 3.4576397204e-002	 1.8263407116e+000	-1.3476830197e+000
 1.7255422436e-002	 1.8265864924e+000	-1.3508503675e+000
 0.0000000000e+000	 1.8266680000e+000	-1.3590952694e+000
 1.7589239699e-001	 1.8248778647e+000	-1.3940165330e+000
 1.5805862283e-001	 1.8265088921e+000	-1.3820705660e+000
 1.4027310561e-001	 1.8279607848e+000	-1.3680490516e+000
 1.2253821587e-001	 1.8292352213e+000	-1.3527869809e+000
 1.0485627364e-001	 1.8303339127e+000	-1.3370746737e+000
 8.7229548080e-002	 1.8312586018e+000	-1.3216627327e+000
 6.9660257206e-002	 1.8320110606e+000	-1.3072664767e+000
 5.2150567690e-002	 1.8325930899e+000	-1.2945697896e+000
 3.4702594651e-002	 1.8330065171e+000	-1.2842283298e+000
 1.7318401533e-002	 1.8332531949e+000	-1.2768720518e+000
 0.0000000000e+000	 1.8333350000e+000	-1.2731070008e+000
 1.7653203710e-001	 1.8315141099e+000	-1.3279568216e+000
 1.5863340967e-001	 1.8331510686e+000	-1.3161580557e+000
 1.4078321467e-001	 1.8346082412e+000	-1.3014968796e+000
 1.2298383126e-001	 1.8358873122e+000	-1.2845797823e+000
 1.0523758790e-001	 1.8369899992e+000	-1.2660109026e+000
 8.7546762006e-002	 1.8379180509e+000	-1.2463965338e+000
 6.9913579666e-002	 1.8386732461e+000	-1.2263490458e+000
 5.2340215426e-002	 1.8392573919e+000	-1.2064901617e+000
 3.4828792098e-002	 1.8396723226e+000	-1.1874535347e+000
 1.7381380629e-002	 1.8399198974e+000	-1.1698865799e+000
 0.0000000000e+000	 1.8400020000e+000	-1.1544515206e+000
 1.7717167722e-001	 1.8381503552e+000	-1.2262753153e+000
 1.5920819652e-001	 1.8397932452e+000	-1.2142091369e+000
 1.4129332373e-001	 1.8412556977e+000	-1.1988486314e+000
 1.2342944664e-001	 1.8425394032e+000	-1.1804988955e+000
 1.0561890216e-001	 1.8436460856e+000	-1.1595191303e+000
 8.7863975933e-002	 1.8445774999e+000	-1.1363264232e+000
 7.0166902126e-002	 1.8453354315e+000	-1.1113988719e+000
 5.2529863162e-002	 1.8459216940e+000	-1.0852779895e+000
 3.4954989546e-002	 1.8463381280e+000	-1.0585703376e+000
 1.7444359726e-002	 1.8465865999e+000	-1.0319483438e+000
 0.0000000000e+000	 1.8466690000e+000	-1.0061502679e+000
 1.7781131733e-001	 1.8447866005e+000	-1.0879605227e+000
 1.5978298336e-001	 1.8464354218e+000	-1.0750562650e+000
 1.4180343279e-001	 1.8479031541e+000	-1.0589038030e+000
 1.2387506203e-001	 1.8491914942e+000	-1.0394342082e+000
 1.0600021642e-001	 1.8503021720e+000	-1.0167031461e+000
 8.8181189860e-002	 1.8512369490e+000	-9.9089366632e-001
 7.0420224587e-002	 1.8519976169e+000	-9.6231824425e-001
 5.2719510899e-002	 1.8525859960e+000	-9.3142001654e-001
 3.5081186993e-002	 1.8530039335e+000	-8.9877316055e-001
 1.7507338823e-002	 1.8532533024e+000	-8.6508237796e-001
 0.0000000000e+000	 1.8533360000e+000	-8.3118144790e-001
 1.7845095745e-001	 1.8514228458e+000	-9.1201498292e-001
 1.6035777020e-001	 1.8530775984e+000	-8.9754825262e-001
 1.4231354185e-001	 1.8545506105e+000	-8.8047880978e-001
 1.2432067742e-001	 1.8558435852e+000	-8.6029131760e-001
 1.0638153067e-001	 1.8569582584e+000	-8.3667946495e-001
 8.8498403788e-002	 1.8578963981e+000	-8.0954749483e-001
 7.0673547048e-002	 1.8586598024e+000	-7.7901088166e-001
 5.2909158637e-002	 1.8592502980e+000	-7.4539610210e-001
 3.5207384442e-002	 1.8596697389e+000	-7.0923945349e-001
 1.7570317920e-002	 1.8599200050e+000	-6.7128488434e-001
 0.0000000000e+000	 1.8600030000e+000	-6.3248080620e-001
 1.7909059756e-001	 1.8580590910e+000	-6.9745501046e-001
 1.6093255705e-001	 1.8597197749e+000	-6.8054997384e-001
 1.4282365091e-001	 1.8611980670e+000	-6.6240667944e-001
 1.2476629280e-001	 1.8624956762e+000	-6.4199124627e-001
 1.0676284493e-001	 1.8636143449e+000	-6.1857709749e-001
 8.8815617717e-002	 1.8645558472e+000	-5.9174496150e-001
 7.0926869510e-002	 1.8653219878e+000	-5.6138190438e-001
 5.3098806374e-002	 1.8659146000e+000	-5.2767934273e-001
 3.5333581890e-002	 1.8663355444e+000	-4.9112999601e-001
 1.7633297017e-002	 1.8665867075e+000	-4.5252374733e-001
 0.0000000000e+000	 1.8666700000e+000	-4.1294238738e-001
 1.8666700000e+000	 0.0000000000e+000	 2.4627275290e+000
 1.8665867075e+000	 1.7633297017e-002	 2.4766490739e+000
 1.8663355444e+000	 3.5333581890e-002	 2.4830739467e+000
 1.8659146000e+000	 5.3098806374e-002	 2.4830947430e+000
 1.8653219878e+000	 7.0926869510e-002	 2.4778636228e+000
 1.8645558472e+000	 8.8815617717e-002	 2.4685883923e+000
 1.8636143449e+000	 1.0676284493e-001	 2.4565276718e+000
 1.8624956762e+000	 1.2476629280e-001	 2.4429851780e+000
 1.8611980670e+000	 1.4282365091e-001	 2.4293031529e+000
 1.8597197749e+000	 1.6093255705e-001	 2.4168549793e+000
 1.8580590910e+000	 1.7909059756e-001	 2.4070370358e+000
 1.8733360003e+000	 0.0000000000e+000	 2.2618602719e+000
 1.8732524103e+000	 1.7696266671e-002	 2.2773501158e+000
 1.8730003503e+000	 3.5459760416e-002	 2.2850480797e+000
 1.8725779027e+000	 5.3288425675e-002	 2.2861126405e+000
 1.8719831743e+000	 7.1180153987e-002	 2.2817682168e+000
 1.8712142977e+000	 8.9132784080e-002	 2.2733010565e+000
 1.8702694332e+000	 1.0714410201e-001	 2.2620541730e+000
 1.8691467697e+000	 1.2521184137e-001	 2.2494213593e+000
 1.8678445266e+000	 1.4333368348e-001	 2.2368403086e+000
 1.8663609555e+000	 1.6150725770e-001	 2.2257848876e+000
 1.8646943412e+000	 1.7973014176e-001	 2.2177566113e+000
 1.8800020022e+000	 0.0000000000e+000	 2.1470068106e+000
 1.8799181148e+000	 1.7759236341e-002	 2.1628760415e+000
 1.8796651579e+000	 3.5585938973e-002	 2.1707964914e+000
 1.8792412070e+000	 5.3478045024e-002	 2.1719711004e+000
 1.8786443624e+000	 7.1433438528e-002	 2.1676734037e+000
 1.8778727499e+000	 8.9449950523e-002	 2.1592432110e+000
 1.8769245232e+000	 1.0752535919e-001	 2.1480812992e+000
 1.8757978648e+000	 1.2565739005e-001	 2.1356431457e+000
 1.8744909879e+000	 1.4384371618e-001	 2.1234317350e+000
 1.8730021377e+000	 1.6208195850e-001	 2.1129894810e+000
 1.8713295930e+000	 1.8036968613e-001	 2.1058893191e+000
 1.8866680075e+000	 0.0000000000e+000	 2.1171514938e+000
 1.8865838226e+000	 1.7822206042e-002	 2.1323695362e+000
 1.8863299688e+000	 3.5712117594e-002	 2.1396043883e+000
 1.8859045147e+000	 5.3667664468e-002	 2.1400822942e+000
 1.8853055538e+000	 7.1686723195e-002	 2.1351030382e+000
 1.8845312054e+000	 8.9767117125e-002	 2.1260354037e+000
 1.8835796165e+000	 1.0790661656e-001	 2.1143116080e+000
 1.8824489633e+000	 1.2610293895e-001	 2.1014207453e+000
 1.8811374526e+000	 1.4435374913e-001	 2.0889012701e+000
 1.8796433233e+000	 1.6265665959e-001	 2.0783325625e+000
 1.8779648482e+000	 1.8100923081e-001	 2.0713256336e+000
 1.8933340178e+000	 0.0000000000e+000	 2.1712922036e+000
 1.8932495355e+000	 1.7885175791e-002	 2.1849847577e+000
 1.8929947847e+000	 3.5838296309e-002	 2.1907665930e+000
 1.8925678274e+000	 5.3857284054e-002	 2.1898663531e+000
 1.8919667502e+000	 7.1940008053e-002	 2.1835874771e+000
 1.8911896659e+000	 9.0084283965e-002	 2.1733034208e+000
 1.8902347148e+000	 1.0828787422e-001	 2.1604518225e+000
 1.8891000668e+000	 1.2654848819e-001	 2.1465276457e+000
 1.8877839222e+000	 1.4486378247e-001	 2.1330753285e+000
 1.8862845138e+000	 1.6323136111e-001	 2.1216799883e+000
 1.8846001083e+000	 1.8164877597e-001	 2.1139577334e+000
 1.9000000347e+000	 0.0000000000e+000	 2.3084401164e+000
 1.8999152550e+000	 1.7948145602e-002	 2.3198871346e+000
 1.8996596073e+000	 3.5964475151e-002	 2.3235873750e+000
 1.8992311468e+000	 5.4046903829e-002	 2.3207512300e+000
 1.8986279533e+000	 7.2193293164e-002	 2.3126634667e+000
 1.8978481330e+000	 9.0401451122e-002	 2.3006781967e+000
 1.8968898198e+000	 1.0866913225e-001	 2.2862127607e+000
 1.8957511769e+000	 1.2699403787e-001	 2.2707405588e+000
 1.8944303985e+000	 1.4537381632e-001	 2.2557828594e+000
 1.8929257110e+000	 1.6380606320e-001	 2.2428996341e+000
 1.8912353750e+000	 1.8228832177e-001	 2.2336794741e+000
 1.9066660600e+000	 0.0000000000e+000	 2.5276194678e+000
 1.9065809828e+000	 1.8011115493e-002	 2.5362531679e+000
 1.9063244382e+000	 3.6090654150e-002	 2.5373802864e+000
 1.9058944744e+000	 5.4236523842e-002	 2.5321725635e+000
 1.9052891647e+000	 7.2446578592e-002	 2.5218740327e+000
 1.9045066085e+000	 9.0718618676e-002	 2.5077957265e+000
 1.9035449331e+000	 1.0905039076e-001	 2.4913092657e+000
 1.9024022953e+000	 1.2743958811e-001	 2.4738393674e+000
 1.9010768830e+000	 1.4588385080e-001	 2.4568553040e+000
 1.8995669165e+000	 1.6438076601e-001	 2.4418613625e+000
 1.8978706501e+000	 1.8292786837e-001	 2.4303863607e+000
 1.9133320953e+000	 0.0000000000e+000	 2.8278673236e+000
 1.9132467206e+000	 1.8074085477e-002	 2.8332702373e+000
 1.9129892791e+000	 3.6216833339e-002	 2.8314679999e+000
 1.9125578121e+000	 5.4426144139e-002	 2.8235735444e+000
 1.9119503861e+000	 7.2699864399e-002	 2.8107683725e+000
 1.9111650939e+000	 9.1035786705e-002	 2.7942969798e+000
 1.9102000564e+000	 1.0943164985e-001	 2.7754601386e+000
 1.9090534238e+000	 1.2788513902e-001	 2.7556070720e+000
 1.9077233776e+000	 1.4639388605e-001	 2.7361265549e+000
 1.9062081319e+000	 1.6495546969e-001	 2.7184369904e+000
 1.9045059351e+000	 1.8356741594e-001	 2.7039755212e+000
 1.9199981422e+000	 0.0000000000e+000	 3.2082333544e+000
 1.9199124701e+000	 1.8137055572e-002	 3.2101364119e+000
 1.9196541316e+000	 3.6343012748e-002	 3.2051821507e+000
 1.9192211615e+000	 5.4615764767e-002	 3.1944047863e+000
 1.9186116192e+000	 7.2953150649e-002	 3.1789017494e+000
 1.9178235910e+000	 9.1352955289e-002	 3.1598278162e+000
 1.9168551913e+000	 1.0981290960e-001	 3.1383880717e+000
 1.9157045638e+000	 1.2833069071e-001	 3.1158297397e+000
 1.9143698837e+000	 1.4690392219e-001	 3.0934329165e+000
 1.9128493590e+000	 1.6553017437e-001	 3.0725002577e+000
 1.9111412317e+000	 1.8420696462e-001	 3.0543456803e+000
 1.9266642025e+000	 0.0000000000e+000	 3.6677796159e+000
 1.9265782329e+000	 1.8200025792e-002	 3.6660602639e+000
 1.9263189975e+000	 3.6469192408e-002	 3.6578631814e+000
 1.9258845241e+000	 5.4805385774e-002	 3.6441241977e+000
 1.9252728656e+000	 7.3206437406e-002	 3.6258353895e+000
 1.9244821015e+000	 9.1670124506e-002	 3.6040389027e+000
 1.9235103395e+000	 1.1019417011e-001	 3.5798195834e+000
 1.9223557172e+000	 1.2877624329e-001	 3.5542964528e+000
 1.9210164032e+000	 1.4741395936e-001	 3.5286130646e+000
 1.9194905993e+000	 1.6610488020e-001	 3.5039267957e+000
 1.9177765415e+000	 1.8484651457e-001	 3.4813971338e+000
 1.9333302777e+000	 0.0000000000e+000	 4.2055803328e+000
 1.9332440107e+000	 1.8262996154e-002	 4.2002606866e+000
 1.9329838784e+000	 3.6595372353e-002	 4.1888601906e+000
 1.9325479018e+000	 5.4995007207e-002	 4.1721968573e+000
 1.9319341269e+000	 7.3459724731e-002	 4.1511363804e+000
 1.9311406269e+000	 9.1987294436e-002	 4.1265856331e+000
 1.9301655027e+000	 1.1057543148e-001	 4.0994849548e+000
 1.9290068855e+000	 1.2922179687e-001	 4.0707992598e+000
 1.9276629376e+000	 1.4792399767e-001	 4.0415080090e+000
 1.9261318546e+000	 1.6667958732e-001	 4.0125940977e+000
 1.9244118663e+000	 1.8548606597e-001	 3.9850317236e+000
 1.8580590910e+000	 1.7909059756e-001	 2.4070370358e+000
 1.8562146319e+000	 1.9729258018e-001	 2.3975893065e+000
 1.8541845257e+000	 2.1553874303e-001	 2.3853789511e+000
 1.8519671738e+000	 2.3382656160e-001	 2.3704888259e+000
 1.8495610171e+000	 2.5215346289e-001	 2.3529679711e+000
 1.8469645376e+000	 2.7051682603e-001	 2.3328222960e+000
 1.8441762597e+000	 2.8891398288e-001	 2.3100050971e+000
 1.8411947520e+000	 3.0734221875e-001	 2.2844075317e+000
 1.8380186287e+000	 3.2579877309e-001	 2.2558491783e+000
 1.8346465508e+000	 3.4428084032e-001	 2.2240688219e+000
 1.8310772282e+000	 3.6278557067e-001	 2.1887156141e+000
 1.8646943412e+000	 1.7973014176e-001	 2.2177566113e+000
 1.8628432954e+000	 1.9799712485e-001	 2.2105516529e+000
 1.8608059395e+000	 2.1630844594e-001	 2.2010075471e+000
 1.8585806693e+000	 2.3466157149e-001	 2.1891865065e+000
 1.8561659201e+000	 2.5305391934e-001	 2.1751174651e+000
 1.8535601684e+000	 2.7148285925e-001	 2.1587864064e+000
 1.8507619334e+000	 2.8994571355e-001	 2.1401265097e+000
 1.8477697786e+000	 3.0843975785e-001	 2.1190082388e+000
 1.8445823130e+000	 3.2696222175e-001	 2.0952295068e+000
 1.8411981932e+000	 3.4551028965e-001	 2.0685060600e+000
 1.8376161243e+000	 3.6408110160e-001	 2.0384622327e+000
 1.8713295930e+000	 1.8036968613e-001	 2.1058893191e+000
 1.8694719605e+000	 1.9870166970e-001	 2.0999537903e+000
 1.8674273550e+000	 2.1707814904e-001	 2.0919793811e+000
 1.8651941665e+000	 2.3549658160e-001	 2.0820008262e+000
 1.8627708247e+000	 2.5395437603e-001	 2.0700204040e+000
 1.8601558008e+000	 2.7244889272e-001	 2.0559979183e+000
 1.8573476087e+000	 2.9097744448e-001	 2.0398404799e+000
 1.8543448067e+000	 3.0953729723e-001	 2.0213922192e+000
 1.8511459990e+000	 3.2812567071e-001	 2.0004240634e+000
 1.8477498373e+000	 3.4673973929e-001	 1.9766237269e+000
 1.8441550221e+000	 3.6537663285e-001	 1.9495860679e+000
 1.8779648482e+000	 1.8100923081e-001	 2.0713256336e+000
 1.8761006290e+000	 1.9940621489e-001	 2.0657074775e+000
 1.8740487738e+000	 2.1784785252e-001	 2.0582298601e+000
 1.8718076670e+000	 2.3633159213e-001	 2.0488933436e+000
 1.8693757327e+000	 2.5485483316e-001	 2.0376671426e+000
 1.8667514365e+000	 2.7341492667e-001	 2.0244787663e+000
 1.8639332873e+000	 2.9200917593e-001	 2.0092034460e+000
 1.8609198381e+000	 3.1063483716e-001	 1.9916534780e+000
 1.8577096883e+000	 3.2928912024e-001	 1.9715676216e+000
 1.8543014847e+000	 3.4796918954e-001	 1.9486007025e+000
 1.8506939232e+000	 3.6667216475e-001	 1.9223135788e+000
 1.8846001083e+000	 1.8164877597e-001	 2.1139577334e+000
 1.8827293024e+000	 2.0011076062e-001	 2.1077258933e+000
 1.8806701976e+000	 2.1861755658e-001	 2.0996954834e+000
 1.8784211724e+000	 2.3716660328e-001	 2.0898263378e+000
 1.8759806455e+000	 2.5575529097e-001	 2.0780483378e+000
 1.8733470772e+000	 2.7438096134e-001	 2.0642507235e+000
 1.8705189709e+000	 2.9304090815e-001	 2.0482711741e+000
 1.8674948745e+000	 3.1173237791e-001	 2.0298847896e+000
 1.8642733825e+000	 3.3045257065e-001	 2.0087931164e+000
 1.8608531370e+000	 3.4919864071e-001	 1.9846133710e+000
 1.8572328292e+000	 3.6796769762e-001	 1.9568680225e+000
 1.8912353750e+000	 1.8228832177e-001	 2.2336794741e+000
 1.8893579825e+000	 2.0081530705e-001	 2.2259236139e+000
 1.8872916280e+000	 2.1938726141e-001	 2.2163138248e+000
 1.8850346845e+000	 2.3800161526e-001	 2.2047627959e+000
 1.8825855650e+000	 2.5665574968e-001	 2.1911549440e+000
 1.8799427245e+000	 2.7534699698e-001	 2.1753354038e+000
 1.8771046610e+000	 2.9407264140e-001	 2.1570987683e+000
 1.8740699175e+000	 3.1282991975e-001	 2.1361777164e+000
 1.8708370833e+000	 3.3161602222e-001	 2.1122316736e+000
 1.8674047958e+000	 3.5042809312e-001	 2.0848356622e+000
 1.8637717417e+000	 3.6926323179e-001	 2.0534695062e+000
 1.8978706501e+000	 1.8292786837e-001	 2.4303863607e+000
 1.8959866708e+000	 2.0151985436e-001	 2.4202165899e+000
 1.8939130667e+000	 2.2015696721e-001	 2.4080235156e+000
 1.8916482048e+000	 2.3883662830e-001	 2.3936664017e+000
 1.8891904928e+000	 2.5755620951e-001	 2.3769782078e+000
 1.8865383800e+000	 2.7631303383e-001	 2.3577542643e+000
 1.8836903594e+000	 2.9510437594e-001	 2.3357406813e+000
 1.8806449686e+000	 3.1392746297e-001	 2.3106226290e+000
 1.8774007923e+000	 3.3277947524e-001	 2.2820126394e+000
 1.8739564628e+000	 3.5165754706e-001	 2.2494390902e+000
 1.8703106624e+000	 3.7055876757e-001	 2.2123350383e+000
 1.9045059351e+000	 1.8356741594e-001	 2.7039755212e+000
 1.9026153691e+000	 2.0222440273e-001	 2.6905221241e+000
 1.9005345152e+000	 2.2092667415e-001	 2.6747642266e+000
 1.8982617351e+000	 2.3967164258e-001	 2.6565015244e+000
 1.8957954305e+000	 2.5845667070e-001	 2.6355096631e+000
 1.8931340454e+000	 2.7727907213e-001	 2.6115286075e+000
 1.8902760676e+000	 2.9613611203e-001	 2.5842507246e+000
 1.8872200297e+000	 3.1502500784e-001	 2.5533087240e+000
 1.8839645111e+000	 3.3394293001e-001	 2.5182636077e+000
 1.8805081397e+000	 3.5288700284e-001	 2.4785927925e+000
 1.8768495929e+000	 3.7185430530e-001	 2.4336785777e+000
 1.9111412317e+000	 1.8420696462e-001	 3.0543456803e+000
 1.9092440790e+000	 2.0292895234e-001	 3.0367588497e+000
 1.9071559754e+000	 2.2169638245e-001	 3.0164766521e+000
 1.9048752769e+000	 2.4050665832e-001	 2.9932332070e+000
 1.9024003797e+000	 2.5935713346e-001	 2.9667411261e+000
 1.8997297224e+000	 2.7824511211e-001	 2.9366795830e+000
 1.8968617874e+000	 2.9716784992e-001	 2.9026820776e+000
 1.8937951022e+000	 3.1612255462e-001	 2.8643240430e+000
 1.8905282414e+000	 3.3510638682e-001	 2.8211104485e+000
 1.8870598280e+000	 3.5411646077e-001	 2.7724635671e+000
 1.8833885349e+000	 3.7314984530e-001	 2.7177110823e+000
 1.9177765415e+000	 1.8484651457e-001	 3.4813971338e+000
 1.9158728021e+000	 2.0363350335e-001	 3.4588467090e+000
 1.9137774489e+000	 2.2246609228e-001	 3.4331024927e+000
 1.9114888319e+000	 2.4134167574e-001	 3.4038271554e+000
 1.9090053421e+000	 2.6025759802e-001	 3.3706646904e+000
 1.9063254126e+000	 2.7921115403e-001	 3.3332281898e+000
 1.9034475203e+000	 2.9819958988e-001	 3.2910872980e+000
 1.9003701879e+000	 3.1722010361e-001	 3.2437554899e+000
 1.8970919848e+000	 3.3626984595e-001	 3.1906773340e+000
 1.8936115294e+000	 3.5534592117e-001	 3.1312159092e+000
 1.8899274899e+000	 3.7444538788e-001	 3.0646405567e+000
 1.9244118663e+000	 1.8548606597e-001	 3.9850317236e+000
 1.9225015401e+000	 2.0433805594e-001	 3.9567069325e+000
 1.9203989372e+000	 2.2323580385e-001	 3.9245844394e+000
 1.9181024018e+000	 2.4217669503e-001	 3.8882497278e+000
 1.9156103194e+000	 2.6115806461e-001	 3.8472727220e+000
 1.9129211175e+000	 2.8017719813e-001	 3.8011952779e+000
 1.9100332680e+000	 2.9923133216e-001	 3.7495183300e+000
 1.9069452883e+000	 3.1831765506e-001	 3.6916888483e+000
 1.9036557430e+000	 3.3743330770e-001	 3.6270867651e+000
 1.9001632456e+000	 3.5657538433e-001	 3.5550120475e+000
 1.8964664596e+000	 3.7574093339e-001	 3.4746720978e+000
 1.8310772282e+000	 3.6278557067e-001	 2.1887156141e+000
 1.8273088409e+000	 3.8131285062e-001	 2.1509818615e+000
 1.8233407217e+000	 3.9985696545e-001	 2.1122647638e+000
 1.8191717363e+000	 4.1841493261e-001	 2.0723529289e+000
 1.8148008047e+000	 4.3698372914e-001	 2.0309251047e+000
 1.8102269031e+000	 4.5556029281e-001	 1.9875452351e+000
 1.8054490649e+000	 4.7414152323e-001	 1.9416588689e+000
 1.8004663821e+000	 4.9272428313e-001	 1.8925910957e+000
 1.7952780070e+000	 5.1130539959e-001	 1.8395461844e+000
 1.7898831532e+000	 5.2988166537e-001	 1.7816090968e+000
 1.7842810970e+000	 5.4844984029e-001	 1.7177490430e+000
 1.8376161243e+000	 3.6408110160e-001	 2.0384622327e+000
 1.8338342799e+000	 3.8267454367e-001	 2.0062903629e+000
 1.8298519903e+000	 4.0128488075e-001	 1.9733925653e+000
 1.8256681172e+000	 4.1990911961e-001	 1.9395385923e+000
 1.8212815767e+000	 4.3854422653e-001	 1.9043850439e+000
 1.8166913414e+000	 4.5718712832e-001	 1.8674700384e+000
 1.8118964412e+000	 4.7583471353e-001	 1.8282092574e+000
 1.8068959649e+000	 4.9448383368e-001	 1.7858935435e+000
 1.8016890618e+000	 5.1313130451e-001	 1.7396882312e+000
 1.7962749426e+000	 5.3177390735e-001	 1.6886343879e+000
 1.7906528811e+000	 5.5040839043e-001	 1.6316521365e+000
 1.8441550221e+000	 3.6537663285e-001	 1.9495860679e+000
 1.8403597205e+000	 3.8403623707e-001	 1.9205015281e+000
 1.8363632605e+000	 4.0271279640e-001	 1.8907951161e+000
 1.8321644997e+000	 4.2140330699e-001	 1.8602420041e+000
 1.8277623504e+000	 4.4010472431e-001	 1.8285007372e+000
 1.8231557813e+000	 4.5881396423e-001	 1.7951074665e+000
 1.8183438191e+000	 4.7752790424e-001	 1.7594715767e+000
 1.8133255494e+000	 4.9624338466e-001	 1.7208728921e+000
 1.8081001182e+000	 5.1495720989e-001	 1.6784606464e+000
 1.8026667337e+000	 5.3366614979e-001	 1.6312543970e+000
 1.7970246668e+000	 5.5236694106e-001	 1.5781470617e+000
 1.8506939232e+000	 3.6667216475e-001	 1.9223135788e+000
 1.8468851644e+000	 3.8539793114e-001	 1.8938895999e+000
 1.8428745340e+000	 4.0414071276e-001	 1.8647911464e+000
 1.8386608854e+000	 4.2289749512e-001	 1.8348228932e+000
 1.8342431272e+000	 4.4166522287e-001	 1.8036692317e+000
 1.8296202245e+000	 4.6044080096e-001	 1.7708880117e+000
 1.8247912003e+000	 4.7922109581e-001	 1.7359056990e+000
 1.8197551370e+000	 4.9800293652e-001	 1.6980141358e+000
 1.8145111779e+000	 5.1678311618e-001	 1.6563690955e+000
 1.8090585279e+000	 5.3555839319e-001	 1.6099908173e+000
 1.8033964557e+000	 5.5432549267e-001	 1.5577667030e+000
 1.8572328292e+000	 3.6796769762e-001	 1.9568680225e+000
 1.8534106132e+000	 3.8675962624e-001	 1.9267249096e+000
 1.8493858124e+000	 4.0556863020e-001	 1.8956948129e+000
 1.8451572761e+000	 4.2439168437e-001	 1.8636358049e+000
 1.8407239090e+000	 4.4322572260e-001	 1.8302818356e+000
 1.8360846725e+000	 4.6206763891e-001	 1.7952359315e+000
 1.8312385863e+000	 4.8091428864e-001	 1.7579648283e+000
 1.8261847295e+000	 4.9976248970e-001	 1.7177952334e+000
 1.8209222423e+000	 5.1860902383e-001	 1.6739119116e+000
 1.8154503269e+000	 5.3745063800e-001	 1.6253577864e+000
 1.8097682494e+000	 5.5628404575e-001	 1.5710362437e+000
 1.8637717417e+000	 3.6926323179e-001	 2.0534695062e+000
 1.8599360686e+000	 3.8812132269e-001	 2.0192739411e+000
 1.8558970973e+000	 4.0699654907e-001	 1.9838157740e+000
 1.8516536732e+000	 4.2588587511e-001	 1.9470301854e+000
 1.8472046972e+000	 4.4478622389e-001	 1.9087242122e+000
 1.8425491270e+000	 4.6369447849e-001	 1.8685693500e+000
 1.8376859787e+000	 4.8260748317e-001	 1.8260956089e+000
 1.8326143285e+000	 5.0152204464e-001	 1.7806872235e+000
 1.8273333131e+000	 5.2043493332e-001	 1.7315802162e+000
 1.8218421324e+000	 5.3934288471e-001	 1.6778620113e+000
 1.8161400495e+000	 5.5824260078e-001	 1.6184732928e+000
 1.8703106624e+000	 3.7055876757e-001	 2.2123350383e+000
 1.8664615320e+000	 3.8948302085e-001	 2.1717993927e+000
 1.8624083903e+000	 4.0842446971e-001	 2.1294592621e+000
 1.8581500784e+000	 4.2738006772e-001	 2.0853504647e+000
 1.8536854935e+000	 4.4634672713e-001	 2.0393764714e+000
 1.8490135895e+000	 4.6532132009e-001	 1.9913003585e+000
 1.8441333793e+000	 4.8430067981e-001	 1.9407382332e+000
 1.8390439354e+000	 5.0328160178e-001	 1.8871543378e+000
 1.8337443920e+000	 5.2226084509e-001	 1.8298580365e+000
 1.8282339458e+000	 5.4123513378e-001	 1.7680028893e+000
 1.8225118575e+000	 5.6020115826e-001	 1.7005880098e+000
 1.8768495929e+000	 3.7185430530e-001	 2.4336785777e+000
 1.8729870053e+000	 3.9084472105e-001	 2.3845602383e+000
 1.8689196931e+000	 4.0985239251e-001	 2.3329261556e+000
 1.8646464934e+000	 4.2887426257e-001	 2.2789361379e+000
 1.8601662995e+000	 4.4790723271e-001	 2.2226132598e+000
 1.8554780617e+000	 4.6694816414e-001	 2.1638351126e+000
 1.8505807894e+000	 4.8599387900e-001	 2.1023265458e+000
 1.8454735520e+000	 5.0504116156e-001	 2.0376541114e+000
 1.8401554805e+000	 5.2408675959e-001	 1.9692224215e+000
 1.8346257688e+000	 5.4312738569e-001	 1.8962726276e+000
 1.8288836751e+000	 5.6215971869e-001	 1.8178832256e+000
 1.8833885349e+000	 3.7314984530e-001	 2.7177110823e+000
 1.8795124900e+000	 3.9220642363e-001	 2.6578117869e+000
 1.8754310073e+000	 4.1128031780e-001	 2.5945130481e+000
 1.8711429198e+000	 4.3036846003e-001	 2.5281218438e+000
 1.8666471169e+000	 4.4946774102e-001	 2.4588038484e+000
 1.8619425453e+000	 4.6857501104e-001	 2.3865739282e+000
 1.8570282109e+000	 4.8768708114e-001	 2.3112881457e+000
 1.8519031799e+000	 5.0680072441e-001	 2.2326374906e+000
 1.8465665802e+000	 5.2591267729e-001	 2.1501435539e+000
 1.8410176030e+000	 5.4501964091e-001	 2.0631563592e+000
 1.8352555038e+000	 5.6411828254e-001	 1.9708545615e+000
 1.8899274899e+000	 3.7444538788e-001	 3.0646405567e+000
 1.8860379877e+000	 3.9356812894e-001	 2.9918057404e+000
 1.8819423345e+000	 4.1270824594e-001	 2.9145123170e+000
 1.8776393591e+000	 4.3186266048e-001	 2.8332374428e+000
 1.8731279472e+000	 4.5102825245e-001	 2.7483122182e+000
 1.8684070418e+000	 4.7020186119e-001	 2.6599113742e+000
 1.8634756452e+000	 4.8938028667e-001	 2.5680444863e+000
 1.8583328206e+000	 5.0856029079e-001	 2.4725489386e+000
 1.8529776927e+000	 5.2773859865e-001	 2.3730848604e+000
 1.8474094499e+000	 5.4691189992e-001	 2.2691322564e+000
 1.8416273453e+000	 5.6607685030e-001	 2.1599905454e+000
 1.8964664596e+000	 3.7574093339e-001	 3.4746720978e+000
 1.8925635002e+000	 3.9492983731e-001	 3.3867902507e+000
 1.8884536763e+000	 4.1413617730e-001	 3.2932121896e+000
 1.8841358131e+000	 4.3335686430e-001	 3.1946080921e+000
 1.8796087921e+000	 4.5258876740e-001	 3.0914971440e+000
 1.8748715528e+000	 4.7182871500e-001	 2.9842363638e+000
 1.8699230941e+000	 4.9107349602e-001	 2.8730109728e+000
 1.8647624757e+000	 5.1031986113e-001	 2.7578265384e+000
 1.8593888196e+000	 5.2956452411e-001	 2.6385031198e+000
 1.8538013113e+000	 5.4880416318e-001	 2.5146716425e+000
 1.8479992011e+000	 5.6803542248e-001	 2.3857727248e+000
 1.7842810970e+000	 5.4844984029e-001	 1.7177490430e+000
 1.7784711781e+000	 5.6700665240e-001	 1.6477879771e+000
 1.7724527997e+000	 5.8554879857e-001	 1.5719659018e+000
 1.7662254307e+000	 6.0407294682e-001	 1.4897222341e+000
 1.7597886078e+000	 6.2257573816e-001	 1.4004084949e+000
 1.7531419360e+000	 6.4105378818e-001	 1.3033028725e+000
 1.7462850900e+000	 6.5950368875e-001	 1.1976276455e+000
 1.7392178152e+000	 6.7792200968e-001	 1.0848043924e+000
 1.7319399287e+000	 6.9630530055e-001	 9.7428724599e-001
 1.7244513200e+000	 7.1465009243e-001	 8.6932257082e-001
 1.7167519521e+000	 7.3295289977e-001	 7.7229505654e-001
 1.7906528811e+000	 5.5040839043e-001	 1.6316521365e+000
 1.7848222146e+000	 5.6903147012e-001	 1.5684472716e+000
 1.7787823442e+000	 5.8763983150e-001	 1.4991281860e+000
 1.7725327369e+000	 6.0623013070e-001	 1.4230536298e+000
 1.7660729277e+000	 6.2479899671e-001	 1.3394885992e+000
 1.7594025202e+000	 6.4334303306e-001	 1.2476189481e+000
 1.7525211879e+000	 6.6185881942e-001	 1.1465689254e+000
 1.7454286754e+000	 6.8034291338e-001	 1.0387047221e+000
 1.7381247991e+000	 6.9879185218e-001	 9.3310406219e-001
 1.7306094481e+000	 7.1720215450e-001	 8.3249417317e-001
 1.7228825852e+000	 7.3557032236e-001	 7.3920062445e-001
 1.7970246668e+000	 5.5236694106e-001	 1.5781470617e+000
 1.7911732527e+000	 5.7105628835e-001	 1.5187483279e+000
 1.7851118903e+000	 5.8973086496e-001	 1.4530504756e+000
 1.7788400447e+000	 6.0838731512e-001	 1.3803457576e+000
 1.7723572491e+000	 6.2702225582e-001	 1.2998261543e+000
 1.7656631059e+000	 6.4563227851e-001	 1.2105979960e+000
 1.7587572874e+000	 6.6421395068e-001	 1.1116995767e+000
 1.7516395372e+000	 6.8276381768e-001	 1.0066438132e+000
 1.7443096711e+000	 7.0127840442e-001	 9.0376966579e-001
 1.7367675777e+000	 7.1975421722e-001	 8.0547763961e-001
 1.7290132199e+000	 7.3818774561e-001	 7.1404331523e-001
 1.8033964557e+000	 5.5432549267e-001	 1.5577667030e+000
 1.7975242940e+000	 5.7308110760e-001	 1.4992305687e+000
 1.7914414395e+000	 5.9182189947e-001	 1.4342743052e+000
 1.7851473556e+000	 6.1054450061e-001	 1.3621377092e+000
 1.7786415737e+000	 6.2924551604e-001	 1.2819531263e+000
 1.7719236947e+000	 6.4792152510e-001	 1.1927600451e+000
 1.7649933900e+000	 6.6656908312e-001	 1.0935227506e+000
 1.7578504021e+000	 6.8518472320e-001	 9.8909741049e-001
 1.7504945461e+000	 7.0376495792e-001	 8.8673068381e-001
 1.7429257104e+000	 7.2230628121e-001	 7.8868481704e-001
 1.7351438576e+000	 7.4080517017e-001	 6.9719439644e-001
 1.8097682494e+000	 5.5628404575e-001	 1.5710362437e+000
 1.8038753401e+000	 5.7510592836e-001	 1.5104256452e+000
 1.7977709935e+000	 5.9391293554e-001	 1.4433334408e+000
 1.7914546712e+000	 6.1270168773e-001	 1.3689608863e+000
 1.7849259030e+000	 6.3146877793e-001	 1.2863939475e+000
 1.7781842883e+000	 6.5021077341e-001	 1.1946178267e+000
 1.7712294972e+000	 6.6892421733e-001	 1.0926119479e+000
 1.7640612716e+000	 6.8760563052e-001	 9.8653423048e-001
 1.7566794258e+000	 7.0625151328e-001	 8.8242715753e-001
 1.7490838478e+000	 7.2485834711e-001	 7.8252148907e-001
 1.7412745000e+000	 7.4342259669e-001	 6.8901967587e-001
 1.8161400495e+000	 5.5824260078e-001	 1.6184732928e+000
 1.8102263925e+000	 5.7713075115e-001	 1.5528575657e+000
 1.8041005539e+000	 5.9600397371e-001	 1.4807540087e+000
 1.7977619931e+000	 6.1485887700e-001	 1.4013391286e+000
 1.7912102385e+000	 6.3369204205e-001	 1.3136656422e+000
 1.7844448881e+000	 6.5250002401e-001	 1.2166768977e+000
 1.7774656107e+000	 6.7127935389e-001	 1.1095488738e+000
 1.7702721473e+000	 6.9002654028e-001	 9.9941608500e-001
 1.7628643116e+000	 7.0873807112e-001	 8.9129265932e-001
 1.7552419912e+000	 7.2741041557e-001	 7.8738748395e-001
 1.7474051485e+000	 7.4604002583e-001	 6.8987959912e-001
 1.8225118575e+000	 5.6020115826e-001	 1.7005880098e+000
 1.8165774529e+000	 5.7915557646e-001	 1.6270428216e+000
 1.8104301221e+000	 5.9809501449e-001	 1.5470546215e+000
 1.8040693229e+000	 6.1701606897e-001	 1.4597888386e+000
 1.7974945819e+000	 6.3591530894e-001	 1.3642779502e+000
 1.7907054957e+000	 6.5478927747e-001	 1.2594357601e+000
 1.7837017320e+000	 6.7363449339e-001	 1.1448113361e+000
 1.7764830308e+000	 6.9244745305e-001	 1.0281980033e+000
 1.7690492052e+000	 7.1122463208e-001	 9.1375440707e-001
 1.7614001424e+000	 7.2996248722e-001	 8.0367678025e-001
 1.7535358046e+000	 7.4865745824e-001	 7.0012934512e-001
 1.8288836751e+000	 5.6215971869e-001	 1.8178832256e+000
 1.8229285227e+000	 5.8118040482e-001	 1.7334905098e+000
 1.8167596998e+000	 6.0018605841e-001	 1.6427465017e+000
 1.8103766622e+000	 6.1917326418e-001	 1.5448191045e+000
 1.8037789348e+000	 6.3813857916e-001	 1.4387334469e+000
 1.7969661127e+000	 6.5707853436e-001	 1.3233859788e+000
 1.7899378627e+000	 6.7598963643e-001	 1.1988698735e+000
 1.7826939237e+000	 6.9486836946e-001	 1.0733283512e+000
 1.7752341081e+000	 7.1371119676e-001	 9.5023337634e-001
 1.7675583029e+000	 7.3251456269e-001	 8.3177761049e-001
 1.7596664699e+000	 7.5127489458e-001	 7.2011891972e-001
 1.8352555038e+000	 5.6411828254e-001	 1.9708545615e+000
 1.8292796037e+000	 5.8320523672e-001	 1.8727024531e+000
 1.8230892887e+000	 6.0227710598e-001	 1.7683336013e+000
 1.8166840126e+000	 6.2133046316e-001	 1.6569318196e+000
 1.8100632986e+000	 6.4036185328e-001	 1.5375276615e+000
 1.8032267407e+000	 6.5936779526e-001	 1.4090122961e+000
 1.7961740043e+000	 6.7834478359e-001	 1.2721881367e+000
 1.7889048274e+000	 6.9728929011e-001	 1.1352489480e+000
 1.7814190218e+000	 7.1619776580e-001	 1.0011444102e+000
 1.7737164741e+000	 7.3506664264e-001	 8.7207256255e-001
 1.7657971460e+000	 7.5389233550e-001	 7.5019324747e-001
 1.8416273453e+000	 5.6607685030e-001	 2.1599905454e+000
 1.8356306974e+000	 5.8523007267e-001	 2.0451733175e+000
 1.8294188901e+000	 6.0436815774e-001	 1.9243127203e+000
 1.8229913755e+000	 6.2348766645e-001	 1.7966217992e+000
 1.8163476750e+000	 6.4258513184e-001	 1.6611491915e+000
 1.8094873812e+000	 6.6165706074e-001	 1.5167927439e+000
 1.8024101583e+000	 6.8069993546e-001	 1.3652230082e+000
 1.7951157435e+000	 6.9971021559e-001	 1.2143951811e+000
 1.7876039479e+000	 7.1868433980e-001	 1.0668963267e+000
 1.7798746576e+000	 7.3761872768e-001	 9.2493867910e-001
 1.7719278343e+000	 7.5650978165e-001	 7.9069226141e-001
 1.8479992011e+000	 5.6803542248e-001	 2.3857727248e+000
 1.8419818054e+000	 5.8725491317e-001	 2.2513907270e+000
 1.8357485059e+000	 6.0645921420e-001	 2.1111736213e+000
 1.8292987526e+000	 6.2564487460e-001	 1.9643768949e+000
 1.8226320656e+000	 6.4480841541e-001	 1.8100798160e+000
 1.8157480358e+000	 6.6394633137e-001	 1.6471987531e+000
 1.8086463264e+000	 6.8305509263e-001	 1.4784247200e+000
 1.8013266735e+000	 7.0213114653e-001	 1.3111961180e+000
 1.7937888879e+000	 7.2117091941e-001	 1.1478920246e+000
 1.7860328549e+000	 7.4017081847e-001	 9.9074755504e-001
 1.7780585364e+000	 7.5912723369e-001	 8.4195099120e-001
 1.7167519521e+000	 7.3295289977e-001	 7.7229505654e-001
 1.7088430646e+000	 7.5120748753e-001	 6.7842793643e-001
 1.7007236318e+000	 7.6941309341e-001	 5.8154010970e-001
 1.6923938428e+000	 7.8756619588e-001	 4.8195445182e-001
 1.6838539628e+000	 8.0566326455e-001	 3.8002869676e-001
 1.6751043343e+000	 8.2370076214e-001	 2.7615543451e-001
 1.6661453766e+000	 8.4167514655e-001	 1.7076148935e-001
 1.6569775872e+000	 8.5958287290e-001	 6.4306653554e-002
 1.6476015416e+000	 8.7742039566e-001	-4.2718243513e-002
 1.6380178941e+000	 8.9518417073e-001	-1.4979394515e-001
 1.6282273774e+000	 9.1287065757e-001	-2.5637606450e-001
 1.7228825852e+000	 7.3557032236e-001	 7.3920062445e-001
 1.7149454546e+000	 7.5389009844e-001	 6.4869547868e-001
 1.7067970268e+000	 7.7216071773e-001	 5.5507422206e-001
 1.6984374915e+000	 7.9037864612e-001	 4.5864254758e-001
 1.6898671151e+000	 8.0854034060e-001	 3.5974236028e-001
 1.6810862410e+000	 8.2664225127e-001	 2.5875186037e-001
 1.6720952903e+000	 8.4468082337e-001	 1.5608499033e-001
 1.6628947622e+000	 8.6265249938e-001	 5.2190220075e-002
 1.6534852341e+000	 8.8055372110e-001	-5.2451350746e-002
 1.6438673628e+000	 8.9838093177e-001	-1.5732858810e-001
 1.6340418836e+000	 9.1613057821e-001	-2.6190362557e-001
 1.7290132199e+000	 7.3818774561e-001	 7.1404331523e-001
 1.7210478461e+000	 7.5657271003e-001	 6.2519292179e-001
 1.7128704233e+000	 7.7490834274e-001	 5.3329065152e-001
 1.7044811418e+000	 7.9319109705e-001	 4.3861469693e-001
 1.6958802689e+000	 8.1141741736e-001	 3.4148092560e-001
 1.6870681493e+000	 8.2958374113e-001	 2.4224306809e-001
 1.6780452056e+000	 8.4768650095e-001	 1.4129225296e-001
 1.6688119386e+000	 8.6572212664e-001	 3.9055861914e-002
 1.6593689281e+000	 8.8368704733e-001	-6.4004316364e-002
 1.6497168329e+000	 9.0157769361e-001	-1.6739464947e-001
 1.6398563911e+000	 9.1939049966e-001	-2.7059295084e-001
 1.7351438576e+000	 7.4080517017e-001	 6.9719439644e-001
 1.7271502407e+000	 7.5925532296e-001	 6.0824863829e-001
 1.7189438228e+000	 7.7765596912e-001	 5.1647617407e-001
 1.7105247951e+000	 7.9600354940e-001	 4.2211745991e-001
 1.7018934257e+000	 8.1429449557e-001	 3.2545219942e-001
 1.6930500606e+000	 8.3252523246e-001	 2.2679965567e-001
 1.6839951238e+000	 8.5069218003e-001	 1.2651829307e-001
 1.6747291181e+000	 8.6879175542e-001	 2.5004721063e-002
 1.6652526251e+000	 8.8682037512e-001	-7.7308082465e-002
 1.6555663060e+000	 9.0477445704e-001	-1.7995328460e-001
 1.6456709016e+000	 9.2265042274e-001	-2.8243345738e-001
 1.7412745000e+000	 7.4342259669e-001	 6.8901967587e-001
 1.7332526398e+000	 7.6193793790e-001	 5.9818617626e-001
 1.7250172269e+000	 7.8040359757e-001	 5.0491335719e-001
 1.7165684529e+000	 7.9881600386e-001	 4.0939378316e-001
 1.7079065870e+000	 8.1717157593e-001	 3.1186094806e-001
 1.6990319764e+000	 8.3546672600e-001	 2.1258973040e-001
 1.6899450465e+000	 8.5369786137e-001	 1.1189616081e-001
 1.6806463019e+000	 8.7186138651e-001	 1.0136472870e-002
 1.6711363264e+000	 8.8995370526e-001	-9.2294585908e-002
 1.6614157835e+000	 9.0797122288e-001	-1.9496620004e-001
 1.6514854165e+000	 9.2591034827e-001	-2.9741469941e-001
 1.7474051485e+000	 7.4604002583e-001	 6.8987959912e-001
 1.7393550451e+000	 7.6462055553e-001	 5.9532434586e-001
 1.7310906370e+000	 7.8315122876e-001	 4.9888063561e-001
 1.7226121168e+000	 8.0162846112e-001	 4.0068306535e-001
 1.7139197543e+000	 8.2004865918e-001	 3.0090895294e-001
 1.7050138981e+000	 8.3840822249e-001	 1.9977895462e-001
 1.6958949752e+000	 8.5670354571e-001	 9.7556977035e-002
 1.6865634917e+000	 8.7493102067e-001	-5.4506464792e-003
 1.6770200337e+000	 8.9308703854e-001	-1.0889673931e-001
 1.6672652668e+000	 9.1116799191e-001	-2.1239564260e-001
 1.6572999371e+000	 9.2917027706e-001	-3.1552636501e-001
 1.7535358046e+000	 7.4865745824e-001	 7.0012934512e-001
 1.7454574580e+000	 7.6730317651e-001	 5.9997730412e-001
 1.7371640548e+000	 7.8589886339e-001	 4.9865238564e-001
 1.7286557882e+000	 8.0444092191e-001	 3.9622122134e-001
 1.7199329292e+000	 8.2292574601e-001	 2.9279506479e-001
 1.7109958273e+000	 8.4134972265e-001	 1.8853059048e-001
 1.7018449112e+000	 8.5970923381e-001	 8.3629968966e-002
 1.6924806889e+000	 8.7800065867e-001	-2.1659813009e-002
 1.6829037483e+000	 8.9622037573e-001	-1.2704841241e-001
 1.6731147574e+000	 9.1436476494e-001	-2.3220438863e-001
 1.6631144651e+000	 9.3243020992e-001	-3.3675827273e-001
 1.7596664699e+000	 7.5127489458e-001	 7.2011891972e-001
 1.7515598800e+000	 7.6998580151e-001	 6.1245463799e-001
 1.7432374816e+000	 7.8864650214e-001	 5.0449899802e-001
 1.7346994686e+000	 8.0725338691e-001	 3.9624074501e-001
 1.7259461130e+000	 8.2580283717e-001	 2.8771525692e-001
 1.7169777655e+000	 8.4429122722e-001	 1.7900554389e-001
 1.7077948562e+000	 8.6271492641e-001	 7.0242505188e-002
 1.6983978950e+000	 8.8107030127e-001	-3.8395588535e-002
 1.6887874717e+000	 8.9935371762e-001	-1.4668441382e-001
 1.6789642568e+000	 9.1756154277e-001	-2.5435573344e-001
 1.6689290017e+000	 9.3569014768e-001	-3.6110036837e-001
 1.7657971460e+000	 7.5389233550e-001	 7.5019324747e-001
 1.7576623127e+000	 7.7266843121e-001	 6.3306144578e-001
 1.7493109191e+000	 7.9139414570e-001	 5.1668694920e-001
 1.7407431597e+000	 8.1006585683e-001	 4.0097077086e-001
 1.7319593074e+000	 8.2867993336e-001	 2.8586267735e-001
 1.7229597142e+000	 8.4723273694e-001	 1.7136240754e-001
 1.7137448117e+000	 8.6572062428e-001	 5.7520129922e-002
 1.7043151114e+000	 8.8413994925e-001	-5.5563894752e-002
 1.6946712054e+000	 9.0248706500e-001	-1.6774047305e-001
 1.6848137665e+000	 9.2075832619e-001	-2.7881348093e-001
 1.6747435485e+000	 9.3895009114e-001	-3.8854272172e-001
 1.7719278343e+000	 7.5650978165e-001	 7.9069226141e-001
 1.7637647576e+000	 7.7535106627e-001	 6.6209841688e-001
 1.7553843688e+000	 7.9414179475e-001	 5.3547887133e-001
 1.7467868629e+000	 8.1287833238e-001	 4.1063713438e-001
 1.7379725138e+000	 8.3155703530e-001	 2.8742769991e-001
 1.7289416748e+000	 8.5017425254e-001	 1.6575750306e-001
 1.7196947790e+000	 8.6872632816e-001	 4.5586596649e-002
 1.7102323396e+000	 8.8720960336e-001	-7.3071987829e-002
 1.7005549509e+000	 9.0562041864e-001	-1.9015322297e-001
 1.6906632878e+000	 9.2395511600e-001	-3.0554193345e-001
 1.6805581070e+000	 9.4221004111e-001	-4.1907552338e-001
 1.7780585364e+000	 7.5912723369e-001	 8.4195099120e-001
 1.7698672163e+000	 7.7803370737e-001	 6.9986190995e-001
 1.7614578321e+000	 7.9688944998e-001	 5.6113362074e-001
 1.7528305796e+000	 8.1569081426e-001	 4.2546243122e-001
 1.7439857337e+000	 8.3443414372e-001	 2.9259797436e-001
 1.7349236489e+000	 8.5311577476e-001	 1.6234492245e-001
 1.7256447597e+000	 8.7173203880e-001	 3.4563901065e-002
 1.7161495812e+000	 8.9027926438e-001	-9.0828433492e-002
 1.7064387096e+000	 9.0875377933e-001	-2.1386018253e-001
 1.6965128223e+000	 9.2715191300e-001	-3.3450588179e-001
 1.6863726785e+000	 9.4546999843e-001	-4.5268908160e-001
 1.6282273774e+000	 9.1287065757e-001	-2.5637606450e-001
 1.6182292887e+000	 9.3047895642e-001	-3.6132568440e-001
 1.6080259736e+000	 9.4800288052e-001	-4.6357457450e-001
 1.5976184039e+000	 9.6543891248e-001	-5.6270487750e-001
 1.5870076307e+000	 9.8278354723e-001	-6.5828897939e-001
 1.5761947839e+000	 1.0000332942e+000	-7.4989575500e-001
 1.5651810725e+000	 1.0171846795e+000	-8.3709744137e-001
 1.5539677840e+000	 1.0342342481e+000	-9.1947690790e-001
 1.5425562842e+000	 1.0511785662e+000	-9.9663596937e-001
 1.5309480169e+000	 1.0680142231e+000	-1.0682034551e+000
 1.5191445034e+000	 1.0847378337e+000	-1.1338441851e+000
 1.6340418836e+000	 9.1613057821e-001	-2.6190362557e-001
 1.6240080910e+000	 9.3380175744e-001	-3.6502101690e-001
 1.6137683392e+000	 9.5138826061e-001	-4.6558716926e-001
 1.6033236034e+000	 9.6888655778e-001	-5.6317510409e-001
 1.5926749384e+000	 9.8629313135e-001	-6.5734772125e-001
 1.5818234783e+000	 1.0036044783e+000	-7.4766417498e-001
 1.5707704362e+000	 1.0208171123e+000	-8.3368686359e-001
 1.5595171043e+000	 1.0379275660e+000	-9.1498899608e-001
 1.5480648533e+000	 1.0549323934e+000	-9.9116287263e-001
 1.5364151321e+000	 1.0718281715e+000	-1.0618282989e+000
 1.5245694675e+000	 1.0886115032e+000	-1.1266417283e+000
 1.6398563911e+000	 9.1939049966e-001	-2.7059295084e-001
 1.6297868948e+000	 9.3712455930e-001	-3.7243893715e-001
 1.6195107062e+000	 9.5477364156e-001	-4.7181845186e-001
 1.6090288043e+000	 9.7233420394e-001	-5.6829423555e-001
 1.5983422476e+000	 9.8980271635e-001	-6.6141845098e-001
 1.5874521740e+000	 1.0071756633e+000	-7.5073919457e-001
 1.5763598012e+000	 1.0244495460e+000	-8.3580761093e-001
 1.5650664259e+000	 1.0416208849e+000	-9.1618575114e-001
 1.5535734237e+000	 1.0586862215e+000	-9.9145484461e-001
 1.5418822487e+000	 1.0756421209e+000	-1.0612240539e+000
 1.5299944329e+000	 1.0924851737e+000	-1.1251397944e+000
 1.6456709016e+000	 9.2265042274e-001	-2.8243345738e-001
 1.6355657014e+000	 9.4044736281e-001	-3.8359589378e-001
 1.6252530761e+000	 9.5815902419e-001	-4.8231145684e-001
 1.6147340081e+000	 9.7578185183e-001	-5.7813147291e-001
 1.6040095595e+000	 9.9331230311e-001	-6.7059614263e-001
 1.5930808726e+000	 1.0107468500e+000	-7.5924120859e-001
 1.5819491691e+000	 1.0280819815e+000	-8.4360512577e-001
 1.5706157504e+000	 1.0453142056e+000	-9.2323736154e-001
 1.5590819969e+000	 1.0624400515e+000	-9.9770652768e-001
 1.5473493680e+000	 1.0794560722e+000	-1.0666095491e+000
 1.5354194010e+000	 1.0963588462e+000	-1.1295811562e+000
 1.6514854165e+000	 9.2591034827e-001	-2.9741469941e-001
 1.6413445124e+000	 9.4377016882e-001	-3.9850807796e-001
 1.6309954503e+000	 9.6154440937e-001	-4.9710857486e-001
 1.6204392161e+000	 9.7922950231e-001	-5.9275499480e-001
 1.6096768758e+000	 9.9682189250e-001	-6.8497437687e-001
 1.5987095754e+000	 1.0143180395e+000	-7.7328877623e-001
 1.5875385411e+000	 1.0317144198e+000	-8.5722273550e-001
 1.5761650790e+000	 1.0490075291e+000	-9.3631154914e-001
 1.5645905742e+000	 1.0661938843e+000	-1.0101097516e+000
 1.5528164913e+000	 1.0832700263e+000	-1.0782004598e+000
 1.5408443732e+000	 1.1002325215e+000	-1.1402050960e+000
 1.6572999371e+000	 9.2917027706e-001	-3.1552636501e-001
 1.6471233291e+000	 9.4709297814e-001	-4.1719142729e-001
 1.6367378303e+000	 9.6492979793e-001	-5.1625156386e-001
 1.6261444299e+000	 9.8267715623e-001	-6.1223197572e-001
 1.6153441977e+000	 1.0003314854e+000	-7.0464536615e-001
 1.6043382838e+000	 1.0178892325e+000	-7.9299884411e-001
 1.5931279188e+000	 1.0353468617e+000	-8.7680169149e-001
 1.5817144131e+000	 1.0527008562e+000	-9.5557361507e-001
 1.5700991571e+000	 1.0699477209e+000	-1.0288535861e+000
 1.5582836202e+000	 1.0870839843e+000	-1.0962093669e+000
 1.5462693509e+000	 1.1041062007e+000	-1.1572474721e+000
 1.6631144651e+000	 9.3243020992e-001	-3.3675827273e-001
 1.6529021531e+000	 9.5041579163e-001	-4.3966162965e-001
 1.6424802174e+000	 9.6831519072e-001	-5.3978155988e-001
 1.6318496508e+000	 9.8612481446e-001	-6.3662860386e-001
 1.6210115266e+000	 1.0038410827e+000	-7.2969997946e-001
 1.6099669992e+000	 1.0214604300e+000	-8.1848661494e-001
 1.5987173034e+000	 1.0389793081e+000	-9.0248120735e-001
 1.5872637542e+000	 1.0563941880e+000	-9.8118648469e-001
 1.5756077468e+000	 1.0737015622e+000	-1.0541243925e+000
 1.5637507559e+000	 1.0908979470e+000	-1.1208458151e+000
 1.5516943353e+000	 1.1079798848e+000	-1.1809407827e+000
 1.6689290017e+000	 9.3569014768e-001	-3.6110036837e-001
 1.6586809857e+000	 9.5373861009e-001	-4.6593412689e-001
 1.6482226131e+000	 9.7170058859e-001	-5.6773908775e-001
 1.6375548802e+000	 9.8957247787e-001	-6.6601009856e-001
 1.6266788641e+000	 1.0073506852e+000	-7.6022776654e-001
 1.6155957231e+000	 1.0250316329e+000	-8.4986562853e-001
 1.6043066964e+000	 1.0426117600e+000	-9.3439849646e-001
 1.5928131036e+000	 1.0600875253e+000	-1.0133107515e+000
 1.5811163448e+000	 1.0774554091e+000	-1.0861058741e+000
 1.5692178998e+000	 1.0947119154e+000	-1.1523163696e+000
 1.5571193278e+000	 1.1118535746e+000	-1.2115142298e+000
 1.6747435485e+000	 9.3895009114e-001	-3.8854272172e-001
 1.6644598284e+000	 9.5706143438e-001	-4.9602411849e-001
 1.6539650189e+000	 9.7508599238e-001	-6.0016407144e-001
 1.6432601196e+000	 9.9302014731e-001	-7.0044072740e-001
 1.6323462115e+000	 1.0108602939e+000	-7.9631693852e-001
 1.6212244569e+000	 1.0286028419e+000	-8.8724779199e-001
 1.6098960992e+000	 1.0462442182e+000	-9.7268880864e-001
 1.5983624627e+000	 1.0637808691e+000	-1.0521047205e+000
 1.5866249524e+000	 1.0812092626e+000	-1.1249791257e+000
 1.5746850532e+000	 1.0985258906e+000	-1.1908246721e+000
 1.5625443299e+000	 1.1157272713e+000	-1.2491937810e+000
 1.6805581070e+000	 9.4221004111e-001	-4.1907552338e-001
 1.6702386827e+000	 9.6038426530e-001	-5.2994656510e-001
 1.6597074362e+000	 9.7847140295e-001	-6.3709584428e-001
 1.6489653704e+000	 9.9646782364e-001	-7.3998382294e-001
 1.6380135702e+000	 1.0143699096e+000	-8.3805453505e-001
 1.6268532019e+000	 1.0321740582e+000	-9.3074340942e-001
 1.6154855131e+000	 1.0498766837e+000	-1.0174854661e+000
 1.6039118329e+000	 1.0674742203e+000	-1.0977244501e+000
 1.5921335711e+000	 1.0849631235e+000	-1.1709226821e+000
 1.5801522176e+000	 1.1023398733e+000	-1.2365714955e+000
 1.5679693428e+000	 1.1196009757e+000	-1.2942022302e+000
 1.6863726785e+000	 9.4546999843e-001	-4.5268908160e-001
 1.6760175500e+000	 9.6370710370e-001	-5.6771619197e-001
 1.6654498664e+000	 9.8185682113e-001	-6.7857315890e-001
 1.6546706341e+000	 9.9991550773e-001	-7.8470179911e-001
 1.6436809417e+000	 1.0178795332e+000	-8.8552627599e-001
 1.6324819595e+000	 1.0357452825e+000	-9.8046121088e-001
 1.6210749397e+000	 1.0535091574e+000	-1.0689198988e+000
 1.6094612156e+000	 1.0711675798e+000	-1.1503237937e+000
 1.5976422021e+000	 1.0887169930e+000	-1.2241125655e+000
 1.5856193943e+000	 1.1061538646e+000	-1.2897547972e+000
 1.5733943679e+000	 1.1234746888e+000	-1.3467592574e+000
 1.5191445034e+000	 1.0847378337e+000	-1.1338441851e+000
 1.5071473413e+000	 1.1013460402e+000	-1.1956172310e+000
 1.4949582030e+000	 1.1178355132e+000	-1.2553971974e+000
 1.4825788362e+000	 1.1342029546e+000	-1.3126447986e+000
 1.4700110632e+000	 1.1504451007e+000	-1.3668826466e+000
 1.4572567808e+000	 1.1665587236e+000	-1.4177058358e+000
 1.4443179588e+000	 1.1825406339e+000	-1.4647925289e+000
 1.4311966391e+000	 1.1983876826e+000	-1.5079144559e+000
 1.4178949350e+000	 1.2140967628e+000	-1.5469472346e+000
 1.4044150301e+000	 1.2296648121e+000	-1.5818804225e+000
 1.3907591764e+000	 1.2450888145e+000	-1.6128272053e+000
 1.5245694675e+000	 1.0886115032e+000	-1.1266417283e+000
 1.5125294627e+000	 1.1052790188e+000	-1.1876158340e+000
 1.5002967963e+000	 1.1218273767e+000	-1.2465772061e+000
 1.4878732219e+000	 1.1382532673e+000	-1.3029768621e+000
 1.4752605686e+000	 1.1545534151e+000	-1.3563285469e+000
 1.4624607398e+000	 1.1707245808e+000	-1.4062195759e+000
 1.4494757124e+000	 1.1867635637e+000	-1.4523216838e+000
 1.4363075356e+000	 1.2026672032e+000	-1.4944017900e+000
 1.4229583303e+000	 1.2184323815e+000	-1.5323325860e+000
 1.4094302877e+000	 1.2340560254e+000	-1.5661028517e+000
 1.3957256681e+000	 1.2495351078e+000	-1.5958274063e+000
 1.5299944329e+000	 1.0924851737e+000	-1.1251397944e+000
 1.5179115855e+000	 1.1092119983e+000	-1.1851662597e+000
 1.5056353908e+000	 1.1258192412e+000	-1.2430944214e+000
 1.4931676089e+000	 1.1423035810e+000	-1.2983851064e+000
 1.4805100753e+000	 1.1586617306e+000	-1.3505619981e+000
 1.4676647001e+000	 1.1748904391e+000	-1.3992227062e+000
 1.4546334672e+000	 1.1909864944e+000	-1.4440498479e+000
 1.4414184334e+000	 1.2069467248e+000	-1.4848220479e+000
 1.4280217268e+000	 1.2227680013e+000	-1.5214247650e+000
 1.4144455466e+000	 1.2384472397e+000	-1.5538608457e+000
 1.4006921610e+000	 1.2539814023e+000	-1.5822607111e+000
 1.5354194010e+000	 1.0963588462e+000	-1.1295811562e+000
 1.5232937110e+000	 1.1131449797e+000	-1.1885324997e+000
 1.5109739880e+000	 1.1298111077e+000	-1.2452286895e+000
 1.4984619986e+000	 1.1463538968e+000	-1.2991596572e+000
 1.4857595846e+000	 1.1627700481e+000	-1.3498776261e+000
 1.4728686630e+000	 1.1790562995e+000	-1.3970083740e+000
 1.4597912247e+000	 1.1952094273e+000	-1.4402625148e+000
 1.4465293337e+000	 1.2112262485e+000	-1.4794467059e+000
 1.4330851259e+000	 1.2271036232e+000	-1.5144746829e+000
 1.4194608080e+000	 1.2428384562e+000	-1.5453780257e+000
 1.4056586564e+000	 1.2584276989e+000	-1.5723165541e+000
 1.5408443732e+000	 1.1002325215e+000	-1.1402050960e+000
 1.5286758405e+000	 1.1170779641e+000	-1.1979747582e+000
 1.5163125893e+000	 1.1338029772e+000	-1.2532558471e+000
 1.5037563922e+000	 1.1504042155e+000	-1.3055864886e+000
 1.4910090978e+000	 1.1668783688e+000	-1.3545658442e+000
 1.4780726298e+000	 1.1832221630e+000	-1.3998655357e+000
 1.4649489861e+000	 1.1994323633e+000	-1.4412410966e+000
 1.4516402379e+000	 1.2155057755e+000	-1.4785433560e+000
 1.4381485288e+000	 1.2314392485e+000	-1.5117296555e+000
 1.4244760732e+000	 1.2472296760e+000	-1.5408747986e+000
 1.4106251556e+000	 1.2628739990e+000	-1.5661816324e+000
 1.5462693509e+000	 1.1041062007e+000	-1.1572474721e+000
 1.5340579753e+000	 1.1210109525e+000	-1.2137495233e+000
 1.5216511958e+000	 1.1377948506e+000	-1.2674477987e+000
 1.5090507911e+000	 1.1544545384e+000	-1.3179475027e+000
 1.4962586163e+000	 1.1709866935e+000	-1.3649129343e+000
 1.4832766017e+000	 1.1873880307e+000	-1.4080790398e+000
 1.4701067526e+000	 1.2036553036e+000	-1.4472630048e+000
 1.4567511472e+000	 1.2197853068e+000	-1.4823757849e+000
 1.4432119367e+000	 1.2357748780e+000	-1.5134334769e+000
 1.4294913433e+000	 1.2516209002e+000	-1.5405684258e+000
 1.4155916597e+000	 1.2673203034e+000	-1.5640399667e+000
 1.5516943353e+000	 1.1079798848e+000	-1.1809407827e+000
 1.5394401169e+000	 1.1249439458e+000	-1.2361096381e+000
 1.5269898091e+000	 1.1417867291e+000	-1.2880725909e+000
 1.5143451967e+000	 1.1585048663e+000	-1.3365206081e+000
 1.5015081413e+000	 1.1750950234e+000	-1.3812011269e+000
 1.4884805802e+000	 1.1915539036e+000	-1.4219297068e+000
 1.4752645255e+000	 1.2078782491e+000	-1.4586017298e+000
 1.4618620629e+000	 1.2240648434e+000	-1.4912040504e+000
 1.4482753509e+000	 1.2401105129e+000	-1.5198264928e+000
 1.4345066198e+000	 1.2560121299e+000	-1.5446730900e+000
 1.4205581700e+000	 1.2717666134e+000	-1.5660729607e+000
 1.5571193278e+000	 1.1118535746e+000	-1.2115142298e+000
 1.5448222666e+000	 1.1288769449e+000	-1.2653043690e+000
 1.5323284303e+000	 1.1457786136e+000	-1.3153944868e+000
 1.5196396101e+000	 1.1625552002e+000	-1.3615797964e+000
 1.5067576742e+000	 1.1792033594e+000	-1.4037086804e+000
 1.4936845665e+000	 1.1957197827e+000	-1.4416944087e+000
 1.4804223062e+000	 1.2121012010e+000	-1.4755269192e+000
 1.4669729862e+000	 1.2283443864e+000	-1.5052845571e+000
 1.4533387728e+000	 1.2444461544e+000	-1.5311456716e+000
 1.4395219038e+000	 1.2604033661e+000	-1.5533999608e+000
 1.4255246878e+000	 1.2762129301e+000	-1.5724594598e+000
 1.5625443299e+000	 1.1157272713e+000	-1.2491937810e+000
 1.5502044257e+000	 1.1328099510e+000	-1.3015794739e+000
 1.5376670609e+000	 1.1497705050e+000	-1.3496740372e+000
 1.5249340329e+000	 1.1666055413e+000	-1.3933952178e+000
 1.5120072163e+000	 1.1833117026e+000	-1.4327099573e+000
 1.4988885619e+000	 1.1998856692e+000	-1.4676461461e+000
 1.4855800959e+000	 1.2163241603e+000	-1.4983044538e+000
 1.4720839185e+000	 1.2326239369e+000	-1.5248701303e+000
 1.4584022035e+000	 1.2487818035e+000	-1.5476246745e+000
 1.4445371965e+000	 1.2647946101e+000	-1.5669572596e+000
 1.4304912143e+000	 1.2806592546e+000	-1.5833758085e+000
 1.5679693428e+000	 1.1196009757e+000	-1.2942022302e+000
 1.5555865956e+000	 1.1367429649e+000	-1.3451772686e+000
 1.5430057021e+000	 1.1537624044e+000	-1.3911681522e+000
 1.5302284662e+000	 1.1706558904e+000	-1.4322332544e+000
 1.5172567689e+000	 1.1874200541e+000	-1.4684755001e+000
 1.5040925677e+000	 1.2040515639e+000	-1.5000541243e+000
 1.4907378959e+000	 1.2205471280e+000	-1.5271965231e+000
 1.4771948610e+000	 1.2369034959e+000	-1.5502100889e+000
 1.4634656443e+000	 1.2531174612e+000	-1.5694939243e+000
 1.4495524993e+000	 1.2691858628e+000	-1.5855503227e+000
 1.4354577506e+000	 1.2851055879e+000	-1.5989959070e+000
 1.5733943679e+000	 1.1234746888e+000	-1.3467592574e+000
 1.5609687775e+000	 1.1406759876e+000	-1.3963366916e+000
 1.5483443554e+000	 1.1577543128e+000	-1.4401301695e+000
 1.5355229115e+000	 1.1747062487e+000	-1.4783565928e+000
 1.5225063333e+000	 1.1915284148e+000	-1.5112721054e+000
 1.5092965853e+000	 1.2082174680e+000	-1.5391838277e+000
 1.4958957075e+000	 1.2247701052e+000	-1.5624616984e+000
 1.4823058150e+000	 1.2411830646e+000	-1.5815503163e+000
 1.4685290965e+000	 1.2574531287e+000	-1.5969806729e+000
 1.4545678133e+000	 1.2735771255e+000	-1.6093816638e+000
 1.4404242982e+000	 1.2895519313e+000	-1.6194912663e+000
 1.3907591764e+000	 1.2450888145e+000	-1.6128272053e+000
 1.3769317815e+000	 1.2603635220e+000	-1.6372869072e+000
 1.3629331965e+000	 1.2754883437e+000	-1.6542911479e+000
 1.3487658730e+000	 1.2904604163e+000	-1.6664731523e+000
 1.3344323260e+000	 1.3052769306e+000	-1.6766508182e+000
 1.3199351327e+000	 1.3199351327e+000	-1.6853886838e+000
 1.3052769306e+000	 1.3344323260e+000	-1.6931755782e+000
 1.2904604163e+000	 1.3487658730e+000	-1.6994881383e+000
 1.2754883437e+000	 1.3629331965e+000	-1.7039553789e+000
 1.2603635220e+000	 1.3769317815e+000	-1.7091921814e+000
 1.2450888145e+000	 1.3907591764e+000	-1.7176696918e+000
 1.3957256681e+000	 1.2495351078e+000	-1.5958274063e+000
 1.3818488946e+000	 1.2648643623e+000	-1.6191188240e+000
 1.3678003198e+000	 1.2800431957e+000	-1.6351289065e+000
 1.3535824039e+000	 1.2950687346e+000	-1.6465077100e+000
 1.3391976708e+000	 1.3099381596e+000	-1.6560931522e+000
 1.3246487071e+000	 1.3246487071e+000	-1.6659002209e+000
 1.3099381596e+000	 1.3391976708e+000	-1.6746634751e+000
 1.2950687346e+000	 1.3535824039e+000	-1.6799762075e+000
 1.2800431957e+000	 1.3678003198e+000	-1.6833399632e+000
 1.2648643623e+000	 1.3818488946e+000	-1.6873897680e+000
 1.2495351078e+000	 1.3957256681e+000	-1.6946141307e+000
 1.4006921610e+000	 1.2539814023e+000	-1.5822607111e+000
 1.3867660090e+000	 1.2693652038e+000	-1.6043603510e+000
 1.3726674443e+000	 1.2845980489e+000	-1.6194268689e+000
 1.3583989359e+000	 1.2996770540e+000	-1.6301177031e+000
 1.3439630169e+000	 1.3145993898e+000	-1.6392810830e+000
 1.3293622827e+000	 1.3293622827e+000	-1.6497511718e+000
 1.3145993898e+000	 1.3439630169e+000	-1.6589770467e+000
 1.2996770540e+000	 1.3583989359e+000	-1.6636280542e+000
 1.2845980489e+000	 1.3726674443e+000	-1.6662386546e+000
 1.2693652038e+000	 1.3867660090e+000	-1.6694532272e+000
 1.2539814023e+000	 1.4006921610e+000	-1.6757665903e+000
 1.4056586564e+000	 1.2584276989e+000	-1.5723165541e+000
 1.3916831259e+000	 1.2738660474e+000	-1.5931620752e+000
 1.3775345713e+000	 1.2891529043e+000	-1.6072944968e+000
 1.3632154704e+000	 1.3042853758e+000	-1.6173692635e+000
 1.3487283653e+000	 1.3192606223e+000	-1.6262352840e+000
 1.3340758606e+000	 1.3340758606e+000	-1.6369286369e+000
 1.3192606223e+000	 1.3487283653e+000	-1.6461127151e+000
 1.3042853758e+000	 1.3632154704e+000	-1.6503887077e+000
 1.2891529043e+000	 1.3775345713e+000	-1.6525434401e+000
 1.2738660474e+000	 1.3916831259e+000	-1.6552199433e+000
 1.2584276989e+000	 1.4056586564e+000	-1.6609083836e+000
 1.4106251556e+000	 1.2628739990e+000	-1.5661816324e+000
 1.3966002464e+000	 1.2783668945e+000	-1.5856723863e+000
 1.3824017019e+000	 1.2937077632e+000	-1.5988396245e+000
 1.3680320085e+000	 1.3088937010e+000	-1.6083274941e+000
 1.3534937173e+000	 1.3239218583e+000	-1.6169760251e+000
 1.3387894421e+000	 1.3387894421e+000	-1.6273483693e+000
 1.3239218583e+000	 1.3534937173e+000	-1.6360685279e+000
 1.3088937010e+000	 1.3680320085e+000	-1.6402055086e+000
 1.2937077632e+000	 1.3824017019e+000	-1.6421493300e+000
 1.2783668945e+000	 1.3966002464e+000	-1.6445310624e+000
 1.2628739990e+000	 1.4106251556e+000	-1.6498253464e+000
 1.4155916597e+000	 1.2673203034e+000	-1.5640399667e+000
 1.4015173719e+000	 1.2828677461e+000	-1.5820375293e+000
 1.3872688374e+000	 1.2982626266e+000	-1.5941685021e+000
 1.3728485514e+000	 1.3135020308e+000	-1.6030565019e+000
 1.3582590740e+000	 1.3285830990e+000	-1.6115231950e+000
 1.3435030283e+000	 1.3435030283e+000	-1.6209899198e+000
 1.3285830990e+000	 1.3582590740e+000	-1.6288441106e+000
 1.3135020308e+000	 1.3728485514e+000	-1.6330280492e+000
 1.2982626266e+000	 1.3872688374e+000	-1.6349542869e+000
 1.2828677461e+000	 1.4015173719e+000	-1.6372314075e+000
 1.2673203034e+000	 1.4155916597e+000	-1.6423077400e+000
 1.4205581700e+000	 1.2717666134e+000	-1.5660729607e+000
 1.4064345035e+000	 1.2873686033e+000	-1.5824016553e+000
 1.3921359789e+000	 1.3028174957e+000	-1.5933858375e+000
 1.3776651004e+000	 1.3181103663e+000	-1.6016194303e+000
 1.3630244368e+000	 1.3332443455e+000	-1.6098963238e+000
 1.3482166204e+000	 1.3482166204e+000	-1.6178826792e+000
 1.3332443455e+000	 1.3630244368e+000	-1.6244406186e+000
 1.3181103663e+000	 1.3776651004e+000	-1.6288081147e+000
 1.3028174957e+000	 1.3921359789e+000	-1.6308591544e+000
 1.2873686033e+000	 1.4064345035e+000	-1.6331693957e+000
 1.2717666134e+000	 1.4205581700e+000	-1.6381501560e+000
 1.4255246878e+000	 1.2762129301e+000	-1.5724594598e+000
 1.4113516425e+000	 1.2918694672e+000	-1.5869068715e+000
 1.3970031278e+000	 1.3073723717e+000	-1.5965948374e+000
 1.3824816565e+000	 1.3227187088e+000	-1.6040784912e+000
 1.3677898066e+000	 1.3379055990e+000	-1.6118297869e+000
 1.3529302196e+000	 1.3529302196e+000	-1.6180556944e+000
 1.3379055990e+000	 1.3677898066e+000	-1.6231112145e+000
 1.3227187088e+000	 1.3824816565e+000	-1.6274996237e+000
 1.3073723717e+000	 1.3970031278e+000	-1.6297675868e+000
 1.2918694672e+000	 1.4113516425e+000	-1.6321969556e+000
 1.2762129301e+000	 1.4255246878e+000	-1.6371514217e+000
 1.4304912143e+000	 1.2806592546e+000	-1.5833758085e+000
 1.4162687901e+000	 1.2963703390e+000	-1.5956932910e+000
 1.4018702852e+000	 1.3119272556e+000	-1.6038972482e+000
 1.3872982211e+000	 1.3273270594e+000	-1.6104949966e+000
 1.3725551848e+000	 1.3425668607e+000	-1.6170780454e+000
 1.3576438270e+000	 1.3576438270e+000	-1.6215376711e+000
 1.3425668607e+000	 1.3725551848e+000	-1.6251096949e+000
 1.3273270594e+000	 1.3872982211e+000	-1.6290585710e+000
 1.3119272556e+000	 1.4018702852e+000	-1.6315859797e+000
 1.2963703390e+000	 1.4162687901e+000	-1.6341694467e+000
 1.2806592546e+000	 1.4304912143e+000	-1.6391145066e+000
 1.4354577506e+000	 1.2851055879e+000	-1.5989959070e+000
 1.4211859475e+000	 1.3008712198e+000	-1.6088990810e+000
 1.4067374523e+000	 1.3164821486e+000	-1.6153933961e+000
 1.3921147953e+000	 1.3319354191e+000	-1.6209293895e+000
 1.3773205725e+000	 1.3472281316e+000	-1.6257111008e+000
 1.3623574438e+000	 1.3623574438e+000	-1.6283569761e+000
 1.3472281316e+000	 1.3773205725e+000	-1.6304210807e+000
 1.3319354191e+000	 1.3921147953e+000	-1.6334429690e+000
 1.3164821486e+000	 1.4067374523e+000	-1.6362234007e+000
 1.3008712198e+000	 1.4211859475e+000	-1.6389455786e+000
 1.2851055879e+000	 1.4354577506e+000	-1.6438464307e+000
 1.4404242982e+000	 1.2895519313e+000	-1.6194912663e+000
 1.4261031160e+000	 1.3053721108e+000	-1.6266605105e+000
 1.4116046303e+000	 1.3210370519e+000	-1.6311822265e+000
 1.3969313804e+000	 1.3365437893e+000	-1.6353228558e+000
 1.3820859710e+000	 1.3518894131e+000	-1.6377980817e+000
 1.3670710713e+000	 1.3670710713e+000	-1.6385416405e+000
 1.3518894131e+000	 1.3820859710e+000	-1.6390306227e+000
 1.3365437893e+000	 1.3969313804e+000	-1.6407233398e+000
 1.3210370519e+000	 1.4116046303e+000	-1.6435915218e+000
 1.3053721108e+000	 1.4261031160e+000	-1.6463873314e+000
 1.2895519313e+000	 1.4404242982e+000	-1.6511581734e+000
 1.2450888145e+000	 1.3907591764e+000	-1.7176696918e+000
 1.2296648121e+000	 1.4044150301e+000	-1.7261407279e+000
 1.2140967628e+000	 1.4178949350e+000	-1.7301912855e+000
 1.1983876826e+000	 1.4311966391e+000	-1.7303679578e+000
 1.1825406339e+000	 1.4443179588e+000	-1.7271260266e+000
 1.1665587236e+000	 1.4572567808e+000	-1.7208341533e+000
 1.1504451007e+000	 1.4700110632e+000	-1.7117795405e+000
 1.1342029546e+000	 1.4825788362e+000	-1.7001734962e+000
 1.1178355132e+000	 1.4949582030e+000	-1.6861573332e+000
 1.1013460402e+000	 1.5071473413e+000	-1.6698085308e+000
 1.0847378337e+000	 1.5191445034e+000	-1.6511470913e+000
 1.2495351078e+000	 1.3957256681e+000	-1.6946141307e+000
 1.2340560254e+000	 1.4094302877e+000	-1.7019137286e+000
 1.2184323815e+000	 1.4229583303e+000	-1.7049896793e+000
 1.2026672032e+000	 1.4363075356e+000	-1.7043534652e+000
 1.1867635637e+000	 1.4494757124e+000	-1.7004244318e+000
 1.1707245808e+000	 1.4624607398e+000	-1.6935347106e+000
 1.1545534151e+000	 1.4752605686e+000	-1.6839346185e+000
 1.1382532673e+000	 1.4878732219e+000	-1.6717984660e+000
 1.1218273767e+000	 1.5002967963e+000	-1.6572307024e+000
 1.1052790188e+000	 1.5125294627e+000	-1.6402723251e+000
 1.0886115032e+000	 1.5245694675e+000	-1.6209074820e+000
 1.2539814023e+000	 1.4006921610e+000	-1.6757665903e+000
 1.2384472397e+000	 1.4144455466e+000	-1.6822254020e+000
 1.2227680013e+000	 1.4280217268e+000	-1.6846545564e+000
 1.2069467248e+000	 1.4414184334e+000	-1.6835358164e+000
 1.1909864944e+000	 1.4546334672e+000	-1.6792588746e+000
 1.1748904391e+000	 1.4676647001e+000	-1.6721264953e+000
 1.1586617306e+000	 1.4805100753e+000	-1.6623601392e+000
 1.1423035810e+000	 1.4931676089e+000	-1.6501060002e+000
 1.1258192412e+000	 1.5056353908e+000	-1.6354413796e+000
 1.1092119983e+000	 1.5179115855e+000	-1.6183813255e+000
 1.0924851737e+000	 1.5299944329e+000	-1.5988854622e+000
 1.2584276989e+000	 1.4056586564e+000	-1.6609083836e+000
 1.2428384562e+000	 1.4194608080e+000	-1.6668037208e+000
 1.2271036232e+000	 1.4330851259e+000	-1.6688673849e+000
 1.2112262485e+000	 1.4465293337e+000	-1.6675567239e+000
 1.1952094273e+000	 1.4597912247e+000	-1.6632379673e+000
 1.1790562995e+000	 1.4728686630e+000	-1.6561915756e+000
 1.1627700481e+000	 1.4857595846e+000	-1.6466180760e+000
 1.1463538968e+000	 1.4984619986e+000	-1.6346443127e+000
 1.1298111077e+000	 1.5109739880e+000	-1.6203300353e+000
 1.1131449797e+000	 1.5232937110e+000	-1.6036747497e+000
 1.0963588462e+000	 1.5354194010e+000	-1.5846247558e+000
 1.2628739990e+000	 1.4106251556e+000	-1.6498253464e+000
 1.2472296760e+000	 1.4244760732e+000	-1.6553819067e+000
 1.2314392485e+000	 1.4381485288e+000	-1.6573155138e+000
 1.2155057755e+000	 1.4516402379e+000	-1.6560643206e+000
 1.1994323633e+000	 1.4649489861e+000	-1.6519771916e+000
 1.1832221630e+000	 1.4780726298e+000	-1.6453192471e+000
 1.1668783688e+000	 1.4910090978e+000	-1.6362778979e+000
 1.1504042155e+000	 1.5037563922e+000	-1.6249692940e+000
 1.1338029772e+000	 1.5163125893e+000	-1.6114451112e+000
 1.1170779641e+000	 1.5286758405e+000	-1.5956995962e+000
 1.1002325215e+000	 1.5408443732e+000	-1.5776767935e+000
 1.2673203034e+000	 1.4155916597e+000	-1.6423077400e+000
 1.2516209002e+000	 1.4294913433e+000	-1.6476983208e+000
 1.2357748780e+000	 1.4432119367e+000	-1.6496920536e+000
 1.2197853068e+000	 1.4567511472e+000	-1.6487130325e+000
 1.2036553036e+000	 1.4701067526e+000	-1.6450987631e+000
 1.1873880307e+000	 1.4832766017e+000	-1.6391058920e+000
 1.1709866935e+000	 1.4962586163e+000	-1.6309164259e+000
 1.1544545384e+000	 1.5090507911e+000	-1.6206443656e+000
 1.1377948506e+000	 1.5216511958e+000	-1.6083426738e+000
 1.1210109525e+000	 1.5340579753e+000	-1.5940104981e+000
 1.1041062007e+000	 1.5462693509e+000	-1.5776005689e+000
 1.2717666134e+000	 1.4205581700e+000	-1.6381501560e+000
 1.2560121299e+000	 1.4345066198e+000	-1.6434963561e+000
 1.2401105129e+000	 1.4482753509e+000	-1.6456957590e+000
 1.2240648434e+000	 1.4618620629e+000	-1.6451634518e+000
 1.2078782491e+000	 1.4752645255e+000	-1.6422314984e+000
 1.1915539036e+000	 1.4884805802e+000	-1.6371548405e+000
 1.1750950234e+000	 1.5015081413e+000	-1.6301176906e+000
 1.1585048663e+000	 1.5143451967e+000	-1.6212403349e+000
 1.1417867291e+000	 1.5269898091e+000	-1.6105862687e+000
 1.1249439458e+000	 1.5394401169e+000	-1.5981695795e+000
 1.1079798848e+000	 1.5516943353e+000	-1.5839624975e+000
 1.2762129301e+000	 1.4255246878e+000	-1.6371514217e+000
 1.2604033661e+000	 1.4395219038e+000	-1.6425243320e+000
 1.2444461544e+000	 1.4533387728e+000	-1.6450309123e+000
 1.2283443864e+000	 1.4669729862e+000	-1.6450822132e+000
 1.2121012010e+000	 1.4804223062e+000	-1.6430106839e+000
 1.1957197827e+000	 1.4936845665e+000	-1.6390762354e+000
 1.1792033594e+000	 1.5067576742e+000	-1.6334727926e+000
 1.1625552002e+000	 1.5196396101e+000	-1.6263352543e+000
 1.1457786136e+000	 1.5323284303e+000	-1.6177467794e+000
 1.1288769449e+000	 1.5448222666e+000	-1.6077463141e+000
 1.1118535746e+000	 1.5571193278e+000	-1.5963362771e+000
 1.2806592546e+000	 1.4304912143e+000	-1.6391145066e+000
 1.2647946101e+000	 1.4445371965e+000	-1.6445353890e+000
 1.2487818035e+000	 1.4584022035e+000	-1.6474072097e+000
 1.2326239369e+000	 1.4720839185e+000	-1.6481418712e+000
 1.2163241603e+000	 1.4855800959e+000	-1.6470779475e+000
 1.1998856692e+000	 1.4988885619e+000	-1.6444868976e+000
 1.1833117026e+000	 1.5120072163e+000	-1.6405797651e+000
 1.1666055413e+000	 1.5249340329e+000	-1.6355142812e+000
 1.1497705050e+000	 1.5376670609e+000	-1.6294022865e+000
 1.1328099510e+000	 1.5502044257e+000	-1.6223173861e+000
 1.1157272713e+000	 1.5625443299e+000	-1.6143027516e+000
 1.2851055879e+000	 1.4354577506e+000	-1.6438464307e+000
 1.2691858628e+000	 1.4495524993e+000	-1.6492873861e+000
 1.2531174612e+000	 1.4634656443e+000	-1.6525396482e+000
 1.2369034959e+000	 1.4771948610e+000	-1.6540207794e+000
 1.2205471280e+000	 1.4907378959e+000	-1.6540811307e+000
 1.2040515639e+000	 1.5040925677e+000	-1.6530101943e+000
 1.1874200541e+000	 1.5172567689e+000	-1.6510434387e+000
 1.1706558904e+000	 1.5302284662e+000	-1.6483695412e+000
 1.1537624044e+000	 1.5430057021e+000	-1.6451379305e+000
 1.1367429649e+000	 1.5555865956e+000	-1.6414665533e+000
 1.1196009757e+000	 1.5679693428e+000	-1.6374497759e+000
 1.2895519313e+000	 1.4404242982e+000	-1.6511581734e+000
 1.2735771255e+000	 1.4545678133e+000	-1.6565427989e+000
 1.2574531287e+000	 1.4685290965e+000	-1.6601484151e+000
 1.2411830646e+000	 1.4823058150e+000	-1.6624029724e+000
 1.2247701052e+000	 1.4958957075e+000	-1.6636741646e+000
 1.2082174680e+000	 1.5092965853e+000	-1.6642759095e+000
 1.1915284148e+000	 1.5225063333e+000	-1.6644753083e+000
 1.1747062487e+000	 1.5355229115e+000	-1.6644999929e+000
 1.1577543128e+000	 1.5483443554e+000	-1.6645457761e+000
 1.1406759876e+000	 1.5609687775e+000	-1.6647845128e+000
 1.1234746888e+000	 1.5733943679e+000	-1.6653720844e+000
 1.0847378337e+000	 1.5191445034e+000	-1.6511470913e+000
 1.0680142231e+000	 1.5309480169e+000	-1.6323679087e+000
 1.0511785662e+000	 1.5425562842e+000	-1.6154799484e+000
 1.0342342481e+000	 1.5539677840e+000	-1.6001635067e+000
 1.0171846795e+000	 1.5651810725e+000	-1.5860754447e+000
 1.0000332942e+000	 1.5761947839e+000	-1.5728594763e+000
 9.8278354723e-001	 1.5870076307e+000	-1.5601382558e+000
 9.6543891248e-001	 1.5976184039e+000	-1.5475397317e+000
 9.4800288052e-001	 1.6080259736e+000	-1.5346899240e+000
 9.3047895642e-001	 1.6182292887e+000	-1.5212213450e+000
 9.1287065757e-001	 1.6282273774e+000	-1.5067779062e+000
 1.0886115032e+000	 1.5245694675e+000	-1.6209074820e+000
 1.0718281715e+000	 1.5364151321e+000	-1.6013294744e+000
 1.0549323934e+000	 1.5480648533e+000	-1.5835705814e+000
 1.0379275660e+000	 1.5595171043e+000	-1.5673115815e+000
 1.0208171123e+000	 1.5707704362e+000	-1.5522077810e+000
 1.0036044783e+000	 1.5818234783e+000	-1.5378992872e+000
 9.8629313135e-001	 1.5926749384e+000	-1.5240040478e+000
 9.6888655778e-001	 1.6033236034e+000	-1.5101432607e+000
 9.5138826061e-001	 1.6137683392e+000	-1.4959350360e+000
 9.3380175744e-001	 1.6240080910e+000	-1.4810027994e+000
 9.1613057821e-001	 1.6340418836e+000	-1.4649803434e+000
 1.0924851737e+000	 1.5299944329e+000	-1.5988854622e+000
 1.0756421209e+000	 1.5418822487e+000	-1.5791418550e+000
 1.0586862215e+000	 1.5535734237e+000	-1.5611942541e+000
 1.0416208849e+000	 1.5650664259e+000	-1.5447237250e+000
 1.0244495460e+000	 1.5763598012e+000	-1.5293840768e+000
 1.0071756633e+000	 1.5874521740e+000	-1.5148121308e+000
 9.8980271635e-001	 1.5983422476e+000	-1.5006216837e+000
 9.7233420394e-001	 1.6090288043e+000	-1.4864280201e+000
 9.5477364156e-001	 1.6195107062e+000	-1.4718424313e+000
 9.3712455930e-001	 1.6297868948e+000	-1.4564806077e+000
 9.1939049966e-001	 1.6398563911e+000	-1.4399678351e+000
 1.0963588462e+000	 1.5354194010e+000	-1.5846247558e+000
 1.0794560722e+000	 1.5473493680e+000	-1.5653571254e+000
 1.0624400515e+000	 1.5590819969e+000	-1.5479132143e+000
 1.0453142056e+000	 1.5706157504e+000	-1.5319741802e+000
 1.0280819815e+000	 1.5819491691e+000	-1.5171923905e+000
 1.0107468500e+000	 1.5930808726e+000	-1.5031985251e+000
 9.9331230311e-001	 1.6040095595e+000	-1.4896122983e+000
 9.7578185183e-001	 1.6147340081e+000	-1.4760343955e+000
 9.5815902419e-001	 1.6252530761e+000	-1.4620735449e+000
 9.4044736281e-001	 1.6355657014e+000	-1.4473390446e+000
 9.2265042274e-001	 1.6456709016e+000	-1.4314492762e+000
 1.1002325215e+000	 1.5408443732e+000	-1.5776767935e+000
 1.0832700263e+000	 1.5528164913e+000	-1.5595349394e+000
 1.0661938843e+000	 1.5645905742e+000	-1.5432971350e+000
 1.0490075291e+000	 1.5761650790e+000	-1.5286444346e+000
 1.0317144198e+000	 1.5875385411e+000	-1.5152278177e+000
 1.0143180395e+000	 1.5987095754e+000	-1.5026754866e+000
 9.9682189250e-001	 1.6096768758e+000	-1.4906035700e+000
 9.7922950231e-001	 1.6204392161e+000	-1.4786090285e+000
 9.6154440937e-001	 1.6309954503e+000	-1.4662957531e+000
 9.4377016882e-001	 1.6413445124e+000	-1.4532679840e+000
 9.2591034827e-001	 1.6514854165e+000	-1.4391387909e+000
 1.1041062007e+000	 1.5462693509e+000	-1.5776005689e+000
 1.0870839843e+000	 1.5582836202e+000	-1.5612423889e+000
 1.0699477209e+000	 1.5700991571e+000	-1.5469229768e+000
 1.0527008562e+000	 1.5817144131e+000	-1.5343230876e+000
 1.0353468617e+000	 1.5931279188e+000	-1.5230923646e+000
 1.0178892325e+000	 1.6043382838e+000	-1.5128568344e+000
 1.0003314854e+000	 1.6153441977e+000	-1.5032296044e+000
 9.8267715623e-001	 1.6261444299e+000	-1.4938047064e+000
 9.6492979793e-001	 1.6367378303e+000	-1.4841822697e+000
 9.4709297814e-001	 1.6471233291e+000	-1.4739628019e+000
 9.2917027706e-001	 1.6572999371e+000	-1.4627556439e+000
 1.1079798848e+000	 1.5516943353e+000	-1.5839624975e+000
 1.0908979470e+000	 1.5637507559e+000	-1.5700538660e+000
 1.0737015622e+000	 1.5756077468e+000	-1.5583748542e+000
 1.0563941880e+000	 1.5872637542e+000	-1.5486057207e+000
 1.0389793081e+000	 1.5987173034e+000	-1.5403948217e+000
 1.0214604300e+000	 1.6099669992e+000	-1.5333663069e+000
 1.0038410827e+000	 1.6210115266e+000	-1.5271308200e+000
 9.8612481446e-001	 1.6318496508e+000	-1.5212802542e+000
 9.6831519072e-001	 1.6424802174e+000	-1.5154120442e+000
 9.5041579163e-001	 1.6529021531e+000	-1.5091242821e+000
 9.3243020992e-001	 1.6631144651e+000	-1.5020241520e+000
 1.1118535746e+000	 1.5571193278e+000	-1.5963362771e+000
 1.0947119154e+000	 1.5692178998e+000	-1.5855509273e+000
 1.0774554091e+000	 1.5811163448e+000	-1.5772439033e+000
 1.0600875253e+000	 1.5928131036e+000	-1.5710947697e+000
 1.0426117600e+000	 1.6043066964e+000	-1.5667506416e+000
 1.0250316329e+000	 1.6155957231e+000	-1.5638340857e+000
 1.0073506852e+000	 1.6266788641e+000	-1.5619538351e+000
 9.8957247787e-001	 1.6375548802e+000	-1.5607004271e+000
 9.7170058859e-001	 1.6482226131e+000	-1.5596696616e+000
 9.5373861009e-001	 1.6586809857e+000	-1.5584585220e+000
 9.3569014768e-001	 1.6689290017e+000	-1.5566735990e+000
 1.1157272713e+000	 1.5625443299e+000	-1.6143027516e+000
 1.0985258906e+000	 1.5746850532e+000	-1.6073221601e+000
 1.0812092626e+000	 1.5866249524e+000	-1.6031281524e+000
 1.0637808691e+000	 1.5983624627e+000	-1.6013993989e+000
 1.0462442182e+000	 1.6098960992e+000	-1.6017818170e+000
 1.0286028419e+000	 1.6212244569e+000	-1.6038966802e+000
 1.0108602939e+000	 1.6323462115e+000	-1.6073484462e+000
 9.9302014731e-001	 1.6432601196e+000	-1.6117358065e+000
 9.7508599238e-001	 1.6539650189e+000	-1.6166452435e+000
 9.5706143438e-001	 1.6644598284e+000	-1.6216768417e+000
 9.3895009114e-001	 1.6747435485e+000	-1.6264381502e+000
 1.1196009757e+000	 1.5679693428e+000	-1.6374497759e+000
 1.1023398733e+000	 1.5801522176e+000	-1.6349630514e+000
 1.0849631235e+000	 1.5921335711e+000	-1.6356323935e+000
 1.0674742203e+000	 1.6039118329e+000	-1.6391353771e+000
 1.0498766837e+000	 1.6154855131e+000	-1.6451167617e+000
 1.0321740582e+000	 1.6268532019e+000	-1.6531968125e+000
 1.0143699096e+000	 1.6380135702e+000	-1.6629793303e+000
 9.9646782364e-001	 1.6489653704e+000	-1.6740626960e+000
 9.7847140295e-001	 1.6597074362e+000	-1.6860343514e+000
 9.6038426530e-001	 1.6702386827e+000	-1.6984956925e+000
 9.4221004111e-001	 1.6805581070e+000	-1.7110567695e+000
 1.1234746888e+000	 1.5733943679e+000	-1.6653720844e+000
 1.1061538646e+000	 1.5856193943e+000	-1.6680758587e+000
 1.0887169930e+000	 1.5976422021e+000	-1.6743680575e+000
 1.0711675798e+000	 1.6094612156e+000	-1.6839249565e+000
 1.0535091574e+000	 1.6210749397e+000	-1.6963901937e+000
 1.0357452825e+000	 1.6324819595e+000	-1.7113833057e+000
 1.0178795332e+000	 1.6436809417e+000	-1.7285079633e+000
 9.9991550773e-001	 1.6546706341e+000	-1.7473630206e+000
 9.8185682113e-001	 1.6654498664e+000	-1.7675378911e+000
 9.6370710370e-001	 1.6760175500e+000	-1.7886365689e+000
 9.4546999843e-001	 1.6863726785e+000	-1.8102731371e+000
 9.1287065757e-001	 1.6282273774e+000	-1.5067779062e+000
 8.9518417073e-001	 1.6380178941e+000	-1.4909612800e+000
 8.7742039566e-001	 1.6476015416e+000	-1.4736371913e+000
 8.5958287290e-001	 1.6569775872e+000	-1.4548630889e+000
 8.4167514655e-001	 1.6661453766e+000	-1.4346976801e+000
 8.2370076214e-001	 1.6751043343e+000	-1.4132030433e+000
 8.0566326455e-001	 1.6838539628e+000	-1.3904462281e+000
 7.8756619588e-001	 1.6923938428e+000	-1.3665003376e+000
 7.6941309341e-001	 1.7007236318e+000	-1.3414450979e+000
 7.5120748753e-001	 1.7088430646e+000	-1.3153669199e+000
 7.3295289977e-001	 1.7167519521e+000	-1.2883584691e+000
 9.1613057821e-001	 1.6340418836e+000	-1.4649803434e+000
 8.9838093177e-001	 1.6438673628e+000	-1.4473859119e+000
 8.8055372110e-001	 1.6534852341e+000	-1.4280148778e+000
 8.6265249938e-001	 1.6628947622e+000	-1.4069367908e+000
 8.4468082337e-001	 1.6720952903e+000	-1.3842258696e+000
 8.2664225127e-001	 1.6810862410e+000	-1.3599630964e+000
 8.0854034060e-001	 1.6898671151e+000	-1.3342377777e+000
 7.9037864612e-001	 1.6984374915e+000	-1.3071485678e+000
 7.7216071773e-001	 1.7067970268e+000	-1.2788039582e+000
 7.5389009844e-001	 1.7149454546e+000	-1.2493222402e+000
 7.3557032236e-001	 1.7228825852e+000	-1.2188309560e+000
 9.1939049966e-001	 1.6398563911e+000	-1.4399678351e+000
 9.0157769361e-001	 1.6497168329e+000	-1.4217565669e+000
 8.8368704733e-001	 1.6593689281e+000	-1.4015910222e+000
 8.6572212664e-001	 1.6688119386e+000	-1.3795564720e+000
 8.4768650095e-001	 1.6780452056e+000	-1.3557462332e+000
 8.2958374113e-001	 1.6870681493e+000	-1.3302637421e+000
 8.1141741736e-001	 1.6958802689e+000	-1.3032240729e+000
 7.9319109705e-001	 1.7044811418e+000	-1.2747548986e+000
 7.7490834274e-001	 1.7128704233e+000	-1.2449968967e+000
 7.5657271003e-001	 1.7210478461e+000	-1.2141036091e+000
 7.3818774561e-001	 1.7290132199e+000	-1.1822407703e+000
 9.2265042274e-001	 1.6456709016e+000	-1.4314492762e+000
 9.0477445704e-001	 1.6555663060e+000	-1.4138074325e+000
 8.8682037512e-001	 1.6652526251e+000	-1.3941246663e+000
 8.6879175542e-001	 1.6747291181e+000	-1.3725055658e+000
 8.5069218003e-001	 1.6839951238e+000	-1.3490661102e+000
 8.3252523246e-001	 1.6930500606e+000	-1.3239357184e+000
 8.1429449557e-001	 1.7018934257e+000	-1.2972587229e+000
 7.9600354940e-001	 1.7105247951e+000	-1.2691952640e+000
 7.7765596912e-001	 1.7189438228e+000	-1.2399216089e+000
 7.5925532296e-001	 1.7271502407e+000	-1.2096299046e+000
 7.4080517017e-001	 1.7351438576e+000	-1.1785273786e+000
 9.2591034827e-001	 1.6514854165e+000	-1.4391387909e+000
 9.0797122288e-001	 1.6614157835e+000	-1.4232775435e+000
 8.8995370526e-001	 1.6711363264e+000	-1.4053793205e+000
 8.7186138651e-001	 1.6806463019e+000	-1.3855715994e+000
 8.5369786137e-001	 1.6899450465e+000	-1.3639965624e+000
 8.3546672600e-001	 1.6990319764e+000	-1.3408131187e+000
 8.1717157593e-001	 1.7079065870e+000	-1.3161983292e+000
 7.9881600386e-001	 1.7165684529e+000	-1.2903482318e+000
 7.8040359757e-001	 1.7250172269e+000	-1.2634780701e+000
 7.6193793790e-001	 1.7332526398e+000	-1.2358219346e+000
 7.4342259669e-001	 1.7412745000e+000	-1.2076318332e+000
 9.2917027706e-001	 1.6572999371e+000	-1.4627556439e+000
 9.1116799191e-001	 1.6672652668e+000	-1.4499107009e+000
 8.9308703854e-001	 1.6770200337e+000	-1.4351228905e+000
 8.7493102067e-001	 1.6865634917e+000	-1.4185461276e+000
 8.5670354571e-001	 1.6958949752e+000	-1.4003523157e+000
 8.3840822249e-001	 1.7050138981e+000	-1.3807333402e+000
 8.2004865918e-001	 1.7139197543e+000	-1.3599024412e+000
 8.0162846112e-001	 1.7226121168e+000	-1.3380949661e+000
 7.8315122876e-001	 1.7310906370e+000	-1.3155685042e+000
 7.6462055553e-001	 1.7393550451e+000	-1.2926024134e+000
 7.4604002583e-001	 1.7474051485e+000	-1.2694967552e+000
 9.3243020992e-001	 1.6631144651e+000	-1.5020241520e+000
 9.1436476494e-001	 1.6731147574e+000	-1.4934553917e+000
 8.9622037573e-001	 1.6829037483e+000	-1.4831276049e+000
 8.7800065867e-001	 1.6924806889e+000	-1.4712246680e+000
 8.5970923381e-001	 1.7018449112e+000	-1.4579517022e+000
 8.4134972265e-001	 1.7109958273e+000	-1.4435370338e+000
 8.2292574601e-001	 1.7199329292e+000	-1.4282335131e+000
 8.0444092191e-001	 1.7286557882e+000	-1.4123191908e+000
 7.8589886339e-001	 1.7371640548e+000	-1.3960973549e+000
 7.6730317651e-001	 1.7454574580e+000	-1.3798959390e+000
 7.4865745824e-001	 1.7535358046e+000	-1.3640663180e+000
 9.3569014768e-001	 1.6689290017e+000	-1.5566735990e+000
 9.1756154277e-001	 1.6789642568e+000	-1.5536647103e+000
 8.9935371762e-001	 1.6887874717e+000	-1.5491699435e+000
 8.8107030127e-001	 1.6983978950e+000	-1.5434066370e+000
 8.6271492641e-001	 1.7077948562e+000	-1.5366166034e+000
 8.4429122722e-001	 1.7169777655e+000	-1.5290680540e+000
 8.2580283717e-001	 1.7259461130e+000	-1.5210568607e+000
 8.0725338691e-001	 1.7346994686e+000	-1.5129071534e+000
 7.8864650214e-001	 1.7432374816e+000	-1.5049712554e+000
 7.6998580151e-001	 1.7515598800e+000	-1.4976289694e+000
 7.5127489458e-001	 1.7596664699e+000	-1.4912862304e+000
 9.3895009114e-001	 1.6747435485e+000	-1.6264381502e+000
 9.2075832619e-001	 1.6848137665e+000	-1.6302962814e+000
 9.0248706500e-001	 1.6946712054e+000	-1.6330305676e+000
 8.8413994925e-001	 1.7043151114e+000	-1.6348952868e+000
 8.6572062428e-001	 1.7137448117e+000	-1.6361723942e+000
 8.4723273694e-001	 1.7229597142e+000	-1.6371734096e+000
 8.2867993336e-001	 1.7319593074e+000	-1.6382406192e+000
 8.1006585683e-001	 1.7407431597e+000	-1.6397475896e+000
 7.9139414570e-001	 1.7493109191e+000	-1.6420989998e+000
 7.7266843121e-001	 1.7576623127e+000	-1.6457298007e+000
 7.5389233550e-001	 1.7657971460e+000	-1.6511037203e+000
 9.4221004111e-001	 1.6805581070e+000	-1.7110567695e+000
 9.2395511600e-001	 1.6906632878e+000	-1.7231121832e+000
 9.0562041864e-001	 1.7005549509e+000	-1.7344942506e+000
 8.8720960336e-001	 1.7102323396e+000	-1.7454976427e+000
 8.6872632816e-001	 1.7196947790e+000	-1.7564478875e+000
 8.5017425254e-001	 1.7289416748e+000	-1.7677032158e+000
 8.3155703530e-001	 1.7379725138e+000	-1.7796557011e+000
 8.1287833238e-001	 1.7467868629e+000	-1.7927316876e+000
 7.9414179475e-001	 1.7553843688e+000	-1.8073915141e+000
 7.7535106627e-001	 1.7637647576e+000	-1.8241285437e+000
 7.5650978165e-001	 1.7719278343e+000	-1.8434675182e+000
 9.4546999843e-001	 1.6863726785e+000	-1.8102731371e+000
 9.2715191300e-001	 1.6965128223e+000	-1.8318788730e+000
 9.0875377933e-001	 1.7064387096e+000	-1.8533498098e+000
 8.9027926438e-001	 1.7161495812e+000	-1.8750244428e+000
 8.7173203880e-001	 1.7256447597e+000	-1.8972752799e+000
 8.5311577476e-001	 1.7349236489e+000	-1.9205106460e+000
 8.3443414372e-001	 1.7439857337e+000	-1.9451757556e+000
 8.1569081426e-001	 1.7528305796e+000	-1.9717530538e+000
 7.9688944998e-001	 1.7614578321e+000	-2.0007618274e+000
 7.7803370737e-001	 1.7698672163e+000	-2.0327571021e+000
 7.5912723369e-001	 1.7780585364e+000	-2.0683278411e+000
 7.3295289977e-001	 1.7167519521e+000	-1.2883584691e+000
 7.1465009243e-001	 1.7244513200e+000	-1.2639594420e+000
 6.9630530055e-001	 1.7319399287e+000	-1.2435545612e+000
 6.7792200968e-001	 1.7392178152e+000	-1.2239906564e+000
 6.5950368875e-001	 1.7462850900e+000	-1.2026436727e+000
 6.4105378818e-001	 1.7531419360e+000	-1.1821949611e+000
 6.2257573816e-001	 1.7597886078e+000	-1.1627889585e+000
 6.0407294682e-001	 1.7662254307e+000	-1.1434772297e+000
 5.8554879857e-001	 1.7724527997e+000	-1.1233745169e+000
 5.6700665240e-001	 1.7784711781e+000	-1.1016415500e+000
 5.4844984029e-001	 1.7842810970e+000	-1.0774701568e+000
 7.3557032236e-001	 1.7228825852e+000	-1.2188309560e+000
 7.1720215450e-001	 1.7306094481e+000	-1.1907528626e+000
 6.9879185218e-001	 1.7381247991e+000	-1.1663996174e+000
 6.8034291338e-001	 1.7454286754e+000	-1.1427145254e+000
 6.6185881942e-001	 1.7525211879e+000	-1.1168595760e+000
 6.4334303306e-001	 1.7594025202e+000	-1.0909727549e+000
 6.2479899671e-001	 1.7660729277e+000	-1.0657644887e+000
 6.0623013070e-001	 1.7725327369e+000	-1.0403755837e+000
 5.8763983150e-001	 1.7787823442e+000	-1.0139994501e+000
 5.6903147012e-001	 1.7848222146e+000	-9.8586472194e-001
 5.5040839043e-001	 1.7906528811e+000	-9.5522025508e-001
 7.3818774561e-001	 1.7290132199e+000	-1.1822407703e+000
 7.1975421722e-001	 1.7367675777e+000	-1.1526836559e+000
 7.0127840442e-001	 1.7443096711e+000	-1.1266263553e+000
 6.8276381768e-001	 1.7516395372e+000	-1.1010929882e+000
 6.6421395068e-001	 1.7587572874e+000	-1.0731490171e+000
 6.4563227851e-001	 1.7656631059e+000	-1.0442007898e+000
 6.2702225582e-001	 1.7723572491e+000	-1.0155495858e+000
 6.0838731512e-001	 1.7788400447e+000	-9.8641512778e-001
 5.8973086496e-001	 1.7851118903e+000	-9.5606034040e-001
 5.7105628835e-001	 1.7911732527e+000	-9.2377377394e-001
 5.5236694106e-001	 1.7970246668e+000	-8.8885448516e-001
 7.4080517017e-001	 1.7351438576e+000	-1.1785273786e+000
 7.2230628121e-001	 1.7429257104e+000	-1.1497163115e+000
 7.0376495792e-001	 1.7504945461e+000	-1.1242338748e+000
 6.8518472320e-001	 1.7578504021e+000	-1.0991695193e+000
 6.6656908312e-001	 1.7649933900e+000	-1.0715930312e+000
 6.4792152510e-001	 1.7719236947e+000	-1.0420253932e+000
 6.2924551604e-001	 1.7786415737e+000	-1.0123665156e+000
 6.1054450061e-001	 1.7851473556e+000	-9.8190485619e-001
 5.9182189947e-001	 1.7914414395e+000	-9.4996382921e-001
 5.7308110760e-001	 1.7975242940e+000	-9.1588402869e-001
 5.5432549267e-001	 1.8033964557e+000	-8.7900798557e-001
 7.4342259669e-001	 1.7412745000e+000	-1.2076318332e+000
 7.2485834711e-001	 1.7490838478e+000	-1.1818164945e+000
 7.0625151328e-001	 1.7566794258e+000	-1.1592219034e+000
 6.8760563052e-001	 1.7640612716e+000	-1.1369875326e+000
 6.6892421733e-001	 1.7712294972e+000	-1.1122306611e+000
 6.5021077341e-001	 1.7781842883e+000	-1.0845910072e+000
 6.3146877793e-001	 1.7849259030e+000	-1.0564343822e+000
 6.1270168773e-001	 1.7914546712e+000	-1.0271491884e+000
 5.9391293554e-001	 1.7977709935e+000	-9.9611043310e-001
 5.7510592836e-001	 1.8038753401e+000	-9.6270299474e-001
 5.5628404575e-001	 1.8097682494e+000	-9.2630625124e-001
 7.4604002583e-001	 1.7474051485e+000	-1.2694967552e+000
 7.2741041557e-001	 1.7552419912e+000	-1.2489510368e+000
 7.0873807112e-001	 1.7628643116e+000	-1.2315907969e+000
 6.9002654028e-001	 1.7702721473e+000	-1.2145903941e+000
 6.7127935389e-001	 1.7774656107e+000	-1.1951009614e+000
 6.5250002401e-001	 1.7844448881e+000	-1.1720402742e+000
 6.3369204205e-001	 1.7912102385e+000	-1.1479692308e+000
 6.1485887700e-001	 1.7977619931e+000	-1.1224480925e+000
 5.9600397371e-001	 1.8041005539e+000	-1.0948946892e+000
 5.7713075115e-001	 1.8102263925e+000	-1.0647305370e+000
 5.5824260078e-001	 1.8161400495e+000	-1.0313653319e+000
 7.4865745824e-001	 1.7535358046e+000	-1.3640663180e+000
 7.2996248722e-001	 1.7614001424e+000	-1.3510879276e+000
 7.1122463208e-001	 1.7690492052e+000	-1.3413415404e+000
 6.9244745305e-001	 1.7764830308e+000	-1.3320214352e+000
 6.7363449339e-001	 1.7837017320e+000	-1.3202989772e+000
 6.5478927747e-001	 1.7907054957e+000	-1.3045141230e+000
 6.3591530894e-001	 1.7974945819e+000	-1.2871841502e+000
 6.1701606897e-001	 1.8040693229e+000	-1.2680972061e+000
 5.9809501449e-001	 1.8104301221e+000	-1.2467052982e+000
 5.7915557646e-001	 1.8165774529e+000	-1.2224590443e+000
 5.6020115826e-001	 1.8225118575e+000	-1.1947920267e+000
 7.5127489458e-001	 1.7596664699e+000	-1.4912862304e+000
 7.3251456269e-001	 1.7675583029e+000	-1.4881963043e+000
 7.1371119676e-001	 1.7752341081e+000	-1.4884757486e+000
 6.9486836946e-001	 1.7826939237e+000	-1.4893239647e+000
 6.7598963643e-001	 1.7899378627e+000	-1.4879190882e+000
 6.5707853436e-001	 1.7969661127e+000	-1.4821518525e+000
 6.3813857916e-001	 1.8037789348e+000	-1.4742893728e+000
 6.1917326418e-001	 1.8103766622e+000	-1.4643879558e+000
 6.0018605841e-001	 1.8167596998e+000	-1.4519252648e+000
 5.8118040482e-001	 1.8229285227e+000	-1.4363735938e+000
 5.6215971869e-001	 1.8288836751e+000	-1.4171840751e+000
 7.5389233550e-001	 1.7657971460e+000	-1.6511037203e+000
 7.3506664264e-001	 1.7737164741e+000	-1.6602464432e+000
 7.1619776580e-001	 1.7814190218e+000	-1.6729956661e+000
 6.9728929011e-001	 1.7889048274e+000	-1.6865412814e+000
 6.7834478359e-001	 1.7961740043e+000	-1.6980548904e+000
 6.5936779526e-001	 1.8032267407e+000	-1.7050912147e+000
 6.4036185328e-001	 1.8100632986e+000	-1.7094923738e+000
 6.2133046316e-001	 1.8166840126e+000	-1.7116076739e+000
 6.0227710598e-001	 1.8230892887e+000	-1.7109320359e+000
 5.8320523672e-001	 1.8292796037e+000	-1.7069521124e+000
 5.6411828254e-001	 1.8352555038e+000	-1.6991303446e+000
 7.5650978165e-001	 1.7719278343e+000	-1.8434675182e+000
 7.3761872768e-001	 1.7798746576e+000	-1.8672097504e+000
 7.1868433980e-001	 1.7876039479e+000	-1.8949041674e+000
 6.9971021559e-001	 1.7951157435e+000	-1.9237166849e+000
 6.8069993546e-001	 1.8024101583e+000	-1.9507992214e+000
 6.6165706074e-001	 1.8094873812e+000	-1.9734684968e+000
 6.4258513184e-001	 1.8163476750e+000	-1.9929979684e+000
 6.2348766645e-001	 1.8229913755e+000	-2.0100397148e+000
 6.0436815774e-001	 1.8294188901e+000	-2.0240976367e+000
 5.8523007267e-001	 1.8356306974e+000	-2.0346655357e+000
 5.6607685030e-001	 1.8416273453e+000	-2.0412110145e+000
 7.5912723369e-001	 1.7780585364e+000	-2.0683278411e+000
 7.4017081847e-001	 1.7860328549e+000	-2.1090587524e+000
 7.2117091941e-001	 1.7937888879e+000	-2.1542047568e+000
 7.0213114653e-001	 1.8013266735e+000	-2.2008934874e+000
 6.8305509263e-001	 1.8086463264e+000	-2.2462441842e+000
 6.6394633137e-001	 1.8157480358e+000	-2.2874186022e+000
 6.4480841541e-001	 1.8226320656e+000	-2.3250084080e+000
 6.2564487460e-001	 1.8292987526e+000	-2.3599635673e+000
 6.0645921420e-001	 1.8357485059e+000	-2.3917888036e+000
 5.8725491317e-001	 1.8419818054e+000	-2.4199779635e+000
 5.6803542248e-001	 1.8479992011e+000	-2.4439977567e+000
 5.4844984029e-001	 1.7842810970e+000	-1.0774701568e+000
 5.2988166537e-001	 1.7898831532e+000	-1.0514924712e+000
 5.1130539959e-001	 1.7952780070e+000	-1.0251325174e+000
 4.9272428313e-001	 1.8004663821e+000	-9.9880299091e-001
 4.7414152323e-001	 1.8054490649e+000	-9.7293325876e-001
 4.5556029281e-001	 1.8102269031e+000	-9.4796263187e-001
 4.3698372914e-001	 1.8148008047e+000	-9.2433547919e-001
 4.1841493261e-001	 1.8191717363e+000	-9.0249806218e-001
 3.9985696545e-001	 1.8233407217e+000	-8.8289696073e-001
 3.8131285062e-001	 1.8273088409e+000	-8.6597895336e-001
 3.6278557067e-001	 1.8310772282e+000	-8.5219220876e-001
 5.5040839043e-001	 1.7906528811e+000	-9.5522025508e-001
 5.3177390735e-001	 1.7962749426e+000	-9.2294339316e-001
 5.1313130451e-001	 1.8016890618e+000	-8.9067673045e-001
 4.9448383368e-001	 1.8068959649e+000	-8.5884622617e-001
 4.7583471353e-001	 1.8118964412e+000	-8.2790024964e-001
 4.5718712832e-001	 1.8166913414e+000	-7.9830275957e-001
 4.3854422653e-001	 1.8212815767e+000	-7.7052836335e-001
 4.1990911961e-001	 1.8256681172e+000	-7.4505913274e-001
 4.0128488075e-001	 1.8298519903e+000	-7.2238304334e-001
 3.8267454367e-001	 1.8338342799e+000	-7.0299389721e-001
 3.6408110160e-001	 1.8376161243e+000	-6.8739258234e-001
 5.5236694106e-001	 1.7970246668e+000	-8.8885448516e-001
 5.3366614979e-001	 1.8026667337e+000	-8.5247610431e-001
 5.1495720989e-001	 1.8081001182e+000	-8.1654998029e-001
 4.9624338466e-001	 1.8133255494e+000	-7.8150483821e-001
 4.7752790424e-001	 1.8183438191e+000	-7.4779337363e-001
 4.5881396423e-001	 1.8231557813e+000	-7.1588545076e-001
 4.4010472431e-001	 1.8277623504e+000	-6.8626322487e-001
 4.2140330699e-001	 1.8321644997e+000	-6.5941806185e-001
 4.0271279640e-001	 1.8363632605e+000	-6.3584911844e-001
 3.8403623707e-001	 1.8403597205e+000	-6.1606343881e-001
 3.6537663285e-001	 1.8441550221e+000	-6.0057741701e-001
 5.5432549267e-001	 1.8033964557e+000	-8.7900798557e-001
 5.3555839319e-001	 1.8090585279e+000	-8.4083406631e-001
 5.1678311618e-001	 1.8145111779e+000	-8.0357000591e-001
 4.9800293652e-001	 1.8197551370e+000	-7.6763701705e-001
 4.7922109581e-001	 1.8247912003e+000	-7.3347768858e-001
 4.6044080096e-001	 1.8296202245e+000	-7.0154931448e-001
 4.4166522287e-001	 1.8342431272e+000	-6.7231919657e-001
 4.2289749512e-001	 1.8386608854e+000	-6.4626179011e-001
 4.0414071276e-001	 1.8428745340e+000	-6.2385755154e-001
 3.8539793114e-001	 1.8468851644e+000	-6.0559333987e-001
 3.6667216475e-001	 1.8506939232e+000	-5.9196421666e-001
 5.5628404575e-001	 1.8097682494e+000	-9.2630625124e-001
 5.3745063800e-001	 1.8154503269e+000	-8.8874944644e-001
 5.1860902383e-001	 1.8209222423e+000	-8.5254209736e-001
 4.9976248970e-001	 1.8261847295e+000	-8.1808784209e-001
 4.8091428864e-001	 1.8312385863e+000	-7.8580496941e-001
 4.6206763891e-001	 1.8360846725e+000	-7.5611998975e-001
 4.4322572260e-001	 1.8407239090e+000	-7.2946323496e-001
 4.2439168437e-001	 1.8451572761e+000	-7.0626635146e-001
 4.0556863020e-001	 1.8493858124e+000	-6.8696154179e-001
 3.8675962624e-001	 1.8534106132e+000	-6.7198240101e-001
 3.6796769762e-001	 1.8572328292e+000	-6.6176618842e-001
 5.5824260078e-001	 1.8161400495e+000	-1.0313653319e+000
 5.3934288471e-001	 1.8218421324e+000	-9.9694334086e-001
 5.2043493332e-001	 1.8273333131e+000	-9.6425933539e-001
 5.0152204464e-001	 1.8326143285e+000	-9.3368952986e-001
 4.8260748317e-001	 1.8376859787e+000	-9.0561395561e-001
 4.6369447849e-001	 1.8425491270e+000	-8.8041038468e-001
 4.4478622389e-001	 1.8472046972e+000	-8.5845034272e-001
 4.2588587511e-001	 1.8516536732e+000	-8.4009707092e-001
 4.0699654907e-001	 1.8558970973e+000	-8.2570528692e-001
 3.8812132269e-001	 1.8599360686e+000	-8.1562258608e-001
 3.6926323179e-001	 1.8637717417e+000	-8.1019231840e-001
 5.6020115826e-001	 1.8225118575e+000	-1.1947920267e+000
 5.4123513378e-001	 1.8282339458e+000	-1.1661259936e+000
 5.2226084509e-001	 1.8337443920e+000	-1.1395028265e+000
 5.0328160178e-001	 1.8390439354e+000	-1.1152616770e+000
 4.8430067981e-001	 1.8441333793e+000	-1.0937305940e+000
 4.6532132009e-001	 1.8490135895e+000	-1.0752209108e+000
 4.4634672713e-001	 1.8536854935e+000	-1.0600237867e+000
 4.2738006772e-001	 1.8581500784e+000	-1.0484087583e+000
 4.0842446971e-001	 1.8624083903e+000	-1.0406241449e+000
 3.8948302085e-001	 1.8664615320e+000	-1.0368991439e+000
 3.7055876757e-001	 1.8703106624e+000	-1.0374474460e+000
 5.6215971869e-001	 1.8288836751e+000	-1.4171840751e+000
 5.4312738569e-001	 1.8346257688e+000	-1.3969970113e+000
 5.2408675959e-001	 1.8401554805e+000	-1.3790419336e+000
 5.0504116156e-001	 1.8454735520e+000	-1.3636114985e+000
 4.8599387900e-001	 1.8505807894e+000	-1.3509682765e+000
 4.6694816414e-001	 1.8554780617e+000	-1.3413397127e+000
 4.4790723271e-001	 1.8601662995e+000	-1.3349153115e+000
 4.2887426257e-001	 1.8646464934e+000	-1.3318458980e+000
 4.0985239251e-001	 1.8689196931e+000	-1.3322447922e+000
 3.9084472105e-001	 1.8729870053e+000	-1.3361907277e+000
 3.7185430530e-001	 1.8768495929e+000	-1.3437323370e+000
 5.6411828254e-001	 1.8352555038e+000	-1.6991303446e+000
 5.4501964091e-001	 1.8410176030e+000	-1.6902455739e+000
 5.2591267729e-001	 1.8465665802e+000	-1.6836345018e+000
 5.0680072441e-001	 1.8519031799e+000	-1.6795340610e+000
 4.8768708114e-001	 1.8570282109e+000	-1.6781280737e+000
 4.6857501104e-001	 1.8619425453e+000	-1.6795428934e+000
 4.4946774102e-001	 1.8666471169e+000	-1.6838453491e+000
 4.3036846003e-001	 1.8711429198e+000	-1.6910428354e+000
 4.1128031780e-001	 1.8754310073e+000	-1.7010853797e+000
 3.9220642363e-001	 1.8795124900e+000	-1.7138695124e+000
 3.7314984530e-001	 1.8833885349e+000	-1.7292437549e+000
 5.6607685030e-001	 1.8416273453e+000	-2.0412110145e+000
 5.4691189992e-001	 1.8474094499e+000	-2.0465506419e+000
 5.2773859865e-001	 1.8529776927e+000	-2.0540270806e+000
 5.0856029079e-001	 1.8583328206e+000	-2.0638125125e+000
 4.8938028667e-001	 1.8634756452e+000	-2.0759989631e+000
 4.7020186119e-001	 1.8684070418e+000	-2.0905947350e+000
 4.5102825245e-001	 1.8731279472e+000	-2.1075232244e+000
 4.3186266048e-001	 1.8776393591e+000	-2.1266239593e+000
 4.1270824594e-001	 1.8819423345e+000	-2.1476556844e+000
 3.9356812894e-001	 1.8860379877e+000	-2.1703013092e+000
 3.7444538788e-001	 1.8899274899e+000	-2.1941745312e+000
 5.6803542248e-001	 1.8479992011e+000	-2.4439977567e+000
 5.4880416318e-001	 1.8538013113e+000	-2.4665811583e+000
 5.2956452411e-001	 1.8593888196e+000	-2.4909551410e+000
 5.1031986113e-001	 1.8647624757e+000	-2.5172183062e+000
 4.9107349602e-001	 1.8699230941e+000	-2.5453580539e+000
 4.7182871500e-001	 1.8748715528e+000	-2.5752479153e+000
 4.5258876740e-001	 1.8796087921e+000	-2.6066473560e+000
 4.3335686430e-001	 1.8841358131e+000	-2.6392038809e+000
 4.1413617730e-001	 1.8884536763e+000	-2.6724572590e+000
 3.9492983731e-001	 1.8925635002e+000	-2.7058456786e+000
 3.7574093339e-001	 1.8964664596e+000	-2.7387136346e+000
 3.6278557067e-001	 1.8310772282e+000	-8.5219220876e-001
 3.4428084032e-001	 1.8346465508e+000	-8.3932303014e-001
 3.2579877309e-001	 1.8380186287e+000	-8.2518160356e-001
 3.0734221875e-001	 1.8411947520e+000	-8.1018118701e-001
 2.8891398288e-001	 1.8441762597e+000	-7.9463677290e-001
 2.7051682603e-001	 1.8469645376e+000	-7.7877366026e-001
 2.5215346289e-001	 1.8495610171e+000	-7.6273654399e-001
 2.3382656160e-001	 1.8519671738e+000	-7.4659896741e-001
 2.1553874303e-001	 1.8541845257e+000	-7.3037298942e-001
 1.9729258018e-001	 1.8562146319e+000	-7.1401892330e-001
 1.7909059756e-001	 1.8580590910e+000	-6.9745501046e-001
 3.6408110160e-001	 1.8376161243e+000	-6.8739258234e-001
 3.4551028965e-001	 1.8411981932e+000	-6.7282628269e-001
 3.2696222175e-001	 1.8445823130e+000	-6.5658466709e-001
 3.0843975785e-001	 1.8477697786e+000	-6.3914838256e-001
 2.8994571355e-001	 1.8507619334e+000	-6.2087619631e-001
 2.7148285925e-001	 1.8535601684e+000	-6.0201444389e-001
 2.5305391934e-001	 1.8561659201e+000	-5.8270702724e-001
 2.3466157149e-001	 1.8585806693e+000	-5.6300580334e-001
 2.1630844594e-001	 1.8608059395e+000	-5.4288120922e-001
 1.9799712485e-001	 1.8628432954e+000	-5.2223297450e-001
 1.7973014176e-001	 1.8646943412e+000	-5.0090078000e-001
 3.6537663285e-001	 1.8441550221e+000	-6.0057741701e-001
 3.4673973929e-001	 1.8477498373e+000	-5.8596110012e-001
 3.2812567071e-001	 1.8511459990e+000	-5.6886032852e-001
 3.0953729723e-001	 1.8543448067e+000	-5.4981330452e-001
 2.9097744448e-001	 1.8573476087e+000	-5.2922406012e-001
 2.7244889272e-001	 1.8601558008e+000	-5.0737252429e-001
 2.5395437603e-001	 1.8627708247e+000	-4.8442516190e-001
 2.3549658160e-001	 1.8651941665e+000	-4.6044602023e-001
 2.1707814904e-001	 1.8674273550e+000	-4.3540802346e-001
 1.9870166970e-001	 1.8694719605e+000	-4.0920436215e-001
 1.8036968613e-001	 1.8713295930e+000	-3.8165983141e-001
 3.6667216475e-001	 1.8506939232e+000	-5.9196421666e-001
 3.4796918954e-001	 1.8543014847e+000	-5.7879112599e-001
 3.2928912024e-001	 1.8577096883e+000	-5.6201835712e-001
 3.1063483716e-001	 1.8609198381e+000	-5.4223155966e-001
 2.9200917593e-001	 1.8639332873e+000	-5.1988116553e-001
 2.7341492667e-001	 1.8667514365e+000	-4.9529282066e-001
 2.5485483316e-001	 1.8693757327e+000	-4.6867839898e-001
 2.3633159213e-001	 1.8718076670e+000	-4.4014743028e-001
 2.1784785252e-001	 1.8740487738e+000	-4.0971877843e-001
 1.9940621489e-001	 1.8761006290e+000	-3.7733241286e-001
 1.8100923081e-001	 1.8779648482e+000	-3.4286112321e-001
 3.6796769762e-001	 1.8572328292e+000	-6.6176618842e-001
 3.4919864071e-001	 1.8608531370e+000	-6.5137789936e-001
 3.3045257065e-001	 1.8642733825e+000	-6.3606721338e-001
 3.1173237791e-001	 1.8674948745e+000	-6.1645684796e-001
 2.9304090815e-001	 1.8705189709e+000	-5.9304441922e-001
 2.7438096134e-001	 1.8733470772e+000	-5.6621298526e-001
 2.5575529097e-001	 1.8759806455e+000	-5.3624217130e-001
 2.3716660328e-001	 1.8784211724e+000	-5.0331970465e-001
 2.1861755658e-001	 1.8806701976e+000	-4.6755319279e-001
 2.0011076062e-001	 1.8827293024e+000	-4.2898198414e-001
 1.8164877597e-001	 1.8846001083e+000	-3.8758895845e-001
 3.6926323179e-001	 1.8637717417e+000	-8.1019231840e-001
 3.5042809312e-001	 1.8674047958e+000	-8.0378089059e-001
 3.3161602222e-001	 1.8708370833e+000	-7.9101406955e-001
 3.1282991975e-001	 1.8740699175e+000	-7.7254099257e-001
 2.9407264140e-001	 1.8771046610e+000	-7.4890689731e-001
 2.7534699698e-001	 1.8799427245e+000	-7.2056352578e-001
 2.5665574968e-001	 1.8825855650e+000	-6.8788009877e-001
 2.3800161526e-001	 1.8850346845e+000	-6.5115468572e-001
 2.1938726141e-001	 1.8872916280e+000	-6.1062580090e-001
 2.0081530705e-001	 1.8893579825e+000	-5.6648406281e-001
 1.8228832177e-001	 1.8912353750e+000	-5.1888376180e-001
 3.7055876757e-001	 1.8703106624e+000	-1.0374474460e+000
 3.5165754706e-001	 1.8739564628e+000	-1.0360575365e+000
 3.3277947524e-001	 1.8774007923e+000	-1.0268648298e+000
 3.1392746297e-001	 1.8806449686e+000	-1.0105339692e+000
 2.9510437594e-001	 1.8836903594e+000	-9.8765790799e-001
 2.7631303383e-001	 1.8865383800e+000	-9.5876792521e-001
 2.5755620951e-001	 1.8891904928e+000	-9.2434418933e-001
 2.3883662830e-001	 1.8916482048e+000	-8.8482669288e-001
 2.2015696721e-001	 1.8939130667e+000	-8.4062638695e-001
 2.0151985436e-001	 1.8959866708e+000	-7.9213635089e-001
 1.8292786837e-001	 1.8978706501e+000	-7.3974284049e-001
 3.7185430530e-001	 1.8768495929e+000	-1.3437323370e+000
 3.5288700284e-001	 1.8805081397e+000	-1.3482632751e+000
 3.3394293001e-001	 1.8839645111e+000	-1.3436241503e+000
 3.1502500784e-001	 1.8872200297e+000	-1.3304839351e+000
 2.9613611203e-001	 1.8902760676e+000	-1.3094830530e+000
 2.7727907213e-001	 1.8931340454e+000	-1.2812427593e+000
 2.5845667070e-001	 1.8957954305e+000	-1.2463750358e+000
 2.3967164258e-001	 1.8982617351e+000	-1.2054928219e+000
 2.2092667415e-001	 1.9005345152e+000	-1.1592204100e+000
 2.0222440273e-001	 1.9026153691e+000	-1.1082038392e+000
 1.8356741594e-001	 1.9045059351e+000	-1.0531211292e+000
 3.7314984530e-001	 1.8833885349e+000	-1.7292437549e+000
 3.5411646077e-001	 1.8870598280e+000	-1.7404515793e+000
 3.3510638682e-001	 1.8905282414e+000	-1.7412954586e+000
 3.1612255462e-001	 1.8937951022e+000	-1.7324372572e+000
 2.9716784992e-001	 1.8968617874e+000	-1.7145642879e+000
 2.7824511211e-001	 1.8997297224e+000	-1.6883978118e+000
 2.5935713346e-001	 1.9024003797e+000	-1.6547020086e+000
 2.4050665832e-001	 1.9048752769e+000	-1.6142932381e+000
 2.2169638245e-001	 1.9071559754e+000	-1.5680494204e+000
 2.0292895234e-001	 1.9092440790e+000	-1.5169193691e+000
 1.8420696462e-001	 1.9111412317e+000	-1.4619319194e+000
 3.7444538788e-001	 1.8899274899e+000	-2.1941745312e+000
 3.5534592117e-001	 1.8936115294e+000	-2.2126739905e+000
 3.3626984595e-001	 1.8970919848e+000	-2.2198809733e+000
 3.1722010361e-001	 1.9003701879e+000	-2.2164385406e+000
 2.9819958988e-001	 1.9034475203e+000	-2.2030799811e+000
 2.7921115403e-001	 1.9063254126e+000	-2.1806361868e+000
 2.6025759802e-001	 1.9090053421e+000	-2.1500434445e+000
 2.4134167574e-001	 1.9114888319e+000	-2.1123514635e+000
 2.2246609228e-001	 1.9137774489e+000	-2.0687314669e+000
 2.0363350335e-001	 1.9158728021e+000	-2.0204841823e+000
 1.8484651457e-001	 1.9177765415e+000	-1.9690475736e+000
 3.7574093339e-001	 1.8964664596e+000	-2.7387136346e+000
 3.5657538433e-001	 1.9001632456e+000	-2.7649801516e+000
 3.3743330770e-001	 1.9036557430e+000	-2.7793817227e+000
 3.1831765506e-001	 1.9069452883e+000	-2.7825306555e+000
 2.9923133216e-001	 1.9100332680e+000	-2.7752049719e+000
 2.8017719813e-001	 1.9129211175e+000	-2.7583544197e+000
 2.6115806461e-001	 1.9156103194e+000	-2.7331068319e+000
 2.4217669503e-001	 1.9181024018e+000	-2.7007746582e+000
 2.2323580385e-001	 1.9203989372e+000	-2.6628614965e+000
 2.0433805594e-001	 1.9225015401e+000	-2.6210684599e+000
 1.8548606597e-001	 1.9244118663e+000	-2.5773002248e+000
 1.7909059756e-001	 1.8580590910e+000	-6.9745501046e-001
 1.6093255705e-001	 1.8597197749e+000	-6.8054997384e-001
 1.4282365091e-001	 1.8611980670e+000	-6.6240667944e-001
 1.2476629280e-001	 1.8624956762e+000	-6.4199124627e-001
 1.0676284493e-001	 1.8636143449e+000	-6.1857709749e-001
 8.8815617717e-002	 1.8645558472e+000	-5.9174496150e-001
 7.0926869510e-002	 1.8653219878e+000	-5.6138190438e-001
 5.3098806374e-002	 1.8659146000e+000	-5.2767934273e-001
 3.5333581890e-002	 1.8663355444e+000	-4.9112999601e-001
 1.7633297017e-002	 1.8665867075e+000	-4.5252374733e-001
 0.0000000000e+000	 1.8666700000e+000	-4.1294238738e-001
 1.7973014176e-001	 1.8646943412e+000	-5.0090078000e-001
 1.6150725770e-001	 1.8663609555e+000	-4.8026100495e-001
 1.4333368348e-001	 1.8678445266e+000	-4.6061907073e-001
 1.2521184137e-001	 1.8691467697e+000	-4.4045139613e-001
 1.0714410201e-001	 1.8702694332e+000	-4.1862312383e-001
 8.9132784080e-002	 1.8712142977e+000	-3.9438702900e-001
 7.1180153987e-002	 1.8719831743e+000	-3.6738135456e-001
 5.3288425675e-002	 1.8725779027e+000	-3.3762652528e-001
 3.5459760416e-002	 1.8730003503e+000	-3.0552070349e-001
 1.7696266671e-002	 1.8732524103e+000	-2.7183415901e-001
 0.0000000000e+000	 1.8733360003e+000	-2.3770243165e-001
 1.8036968613e-001	 1.8713295930e+000	-3.8165983141e-001
 1.6208195850e-001	 1.8730021377e+000	-3.5604612189e-001
 1.4384371618e-001	 1.8744909879e+000	-3.3432262409e-001
 1.2565739005e-001	 1.8757978648e+000	-3.1460562802e-001
 1.0752535919e-001	 1.8769245232e+000	-2.9543431388e-001
 8.9449950523e-002	 1.8778727499e+000	-2.7576969774e-001
 7.1433438528e-002	 1.8786443624e+000	-2.5499243844e-001
 5.3478045024e-002	 1.8792412070e+000	-2.3289945784e-001
 3.5585938973e-002	 1.8796651579e+000	-2.0969933723e-001
 1.7759236341e-002	 1.8799181148e+000	-1.8600646287e-001
 0.0000000000e+000	 1.8800020022e+000	-1.6283389973e-001
 1.8100923081e-001	 1.8779648482e+000	-3.4286112321e-001
 1.6265665959e-001	 1.8796433233e+000	-3.1159664433e-001
 1.4435374913e-001	 1.8811374526e+000	-2.8734106642e-001
 1.2610293895e-001	 1.8824489633e+000	-2.6798023326e-001
 1.0790661656e-001	 1.8835796165e+000	-2.5181011500e-001
 8.9767117125e-002	 1.8845312054e+000	-2.3753691357e-001
 7.1686723195e-002	 1.8853055538e+000	-2.2427600296e-001
 5.3667664468e-002	 1.8859045147e+000	-2.1154965313e-001
 3.5712117594e-002	 1.8863299688e+000	-1.9928349692e-001
 1.7822206042e-002	 1.8865838226e+000	-1.8780171027e-001
 0.0000000000e+000	 1.8866680075e+000	-1.7782088198e-001
 1.8164877597e-001	 1.8846001083e+000	-3.8758895845e-001
 1.6323136111e-001	 1.8862845138e+000	-3.5055140643e-001
 1.4486378247e-001	 1.8877839222e+000	-3.2344386342e-001
 1.2654848819e-001	 1.8891000668e+000	-3.0405151759e-001
 1.0828787422e-001	 1.8902347148e+000	-2.9051030841e-001
 9.0084283965e-002	 1.8911896659e+000	-2.8130930756e-001
 7.1940008053e-002	 1.8919667502e+000	-2.7529194737e-001
 5.3857284054e-002	 1.8925678274e+000	-2.7165603866e-001
 3.5838296309e-002	 1.8929947847e+000	-2.6995253067e-001
 1.7885175791e-002	 1.8932495355e+000	-2.7008297740e-001
 0.0000000000e+000	 1.8933340178e+000	-2.7229568049e-001
 1.8228832177e-001	 1.8912353750e+000	-5.1888376180e-001
 1.6380606320e-001	 1.8929257110e+000	-4.7649767158e-001
 1.4537381632e-001	 1.8944303985e+000	-4.4634716580e-001
 1.2699403787e-001	 1.8957511769e+000	-4.2624667272e-001
 1.0866913225e-001	 1.8968898198e+000	-4.1425570005e-001
 9.0401451122e-002	 1.8978481330e+000	-4.0868460041e-001
 7.2193293164e-002	 1.8986279533e+000	-4.0809923577e-001
 5.4046903829e-002	 1.8992311468e+000	-4.1132447235e-001
 3.5964475151e-002	 1.8996596073e+000	-4.1744644890e-001
 1.7948145602e-002	 1.8999152550e+000	-4.2581357313e-001
 0.0000000000e+000	 1.9000000347e+000	-4.3603620741e-001
 1.8292786837e-001	 1.8978706501e+000	-7.3974284049e-001
 1.6438076601e-001	 1.8995669165e+000	-6.9297202788e-001
 1.4588385080e-001	 1.9010768830e+000	-6.5971473544e-001
 1.2743958811e-001	 1.9024022953e+000	-6.3794462940e-001
 1.0905039076e-001	 1.9035449331e+000	-6.2572879691e-001
 9.0718618676e-002	 1.9045066085e+000	-6.2123799851e-001
 7.2446578592e-002	 1.9052891647e+000	-6.2275590955e-001
 5.4236523842e-002	 1.9058944744e+000	-6.2868726839e-001
 3.6090654150e-002	 1.9063244382e+000	-6.3756486107e-001
 1.8011115493e-002	 1.9065809828e+000	-6.4805528463e-001
 0.0000000000e+000	 1.9066660600e+000	-6.5896343778e-001
 1.8356741594e-001	 1.9045059351e+000	-1.0531211292e+000
 1.6495546969e-001	 1.9062081319e+000	-1.0034612648e+000
 1.4639388605e-001	 1.9077233776e+000	-9.6715885220e-001
 1.2788513902e-001	 1.9090534238e+000	-9.4247689269e-001
 1.0943164985e-001	 1.9102000564e+000	-9.2757446916e-001
 9.1035786705e-002	 1.9111650939e+000	-9.2052258152e-001
 7.2699864399e-002	 1.9119503861e+000	-9.1931909942e-001
 5.4426144139e-002	 1.9125578121e+000	-9.2190273290e-001
 3.6216833339e-002	 1.9129892791e+000	-9.2616593466e-001
 1.8074085477e-002	 1.9132467206e+000	-9.2996665972e-001
 0.0000000000e+000	 1.9133320953e+000	-9.3113891600e-001
 1.8420696462e-001	 1.9111412317e+000	-1.4619319194e+000
 1.6553017437e-001	 1.9128493590e+000	-1.4114032316e+000
 1.4690392219e-001	 1.9143698837e+000	-1.3722412018e+000
 1.2833069071e-001	 1.9157045638e+000	-1.3431283598e+000
 1.0981290960e-001	 1.9168551913e+000	-1.3224005985e+000
 9.1352955289e-002	 1.9178235910e+000	-1.3080696820e+000
 7.2953150649e-002	 1.9186116192e+000	-1.2978450373e+000
 5.4615764767e-002	 1.9192211615e+000	-1.2891547094e+000
 3.6343012748e-002	 1.9196541316e+000	-1.2791653760e+000
 1.8137055572e-002	 1.9199124701e+000	-1.2648013252e+000
 0.0000000000e+000	 1.9199981422e+000	-1.2427623143e+000
 1.8484651457e-001	 1.9177765415e+000	-1.9690475736e+000
 1.6610488020e-001	 1.9194905993e+000	-1.9201876781e+000
 1.4741395936e-001	 1.9210164032e+000	-1.8784737454e+000
 1.2877624329e-001	 1.9223557172e+000	-1.8431381207e+000
 1.1019417011e-001	 1.9235103395e+000	-1.8127787128e+000
 9.1670124506e-002	 1.9244821015e+000	-1.7853892572e+000
 7.3206437406e-002	 1.9252728656e+000	-1.7583890679e+000
 5.4805385774e-002	 1.9258845241e+000	-1.7286521339e+000
 3.6469192408e-002	 1.9263189975e+000	-1.6925354322e+000
 1.8200025792e-002	 1.9265782329e+000	-1.6459063401e+000
 0.0000000000e+000	 1.9266642025e+000	-1.5841690418e+000
 1.8548606597e-001	 1.9244118663e+000	-2.5773002248e+000
 1.6667958732e-001	 1.9261318546e+000	-2.5331570773e+000
 1.4792399767e-001	 1.9276629376e+000	-2.4893195705e+000
 1.2922179687e-001	 1.9290068855e+000	-2.4457002427e+000
 1.1057543148e-001	 1.9301655027e+000	-2.4012446082e+000
 9.1987294436e-002	 1.9311406269e+000	-2.3539702527e+000
 7.3459724731e-002	 1.9319341269e+000	-2.3010056601e+000
 5.4995007207e-002	 1.9325479018e+000	-2.2386285988e+000
 3.6595372353e-002	 1.9329838784e+000	-2.1623039139e+000
 1.8262996154e-002	 1.9332440107e+000	-2.0667205831e+000
 0.0000000000e+000	 1.9333302777e+000	-1.9458279041e+000
 1.9333302777e+000	 0.0000000000e+000	 4.2055803328e+000
 1.9332440107e+000	 1.8262996154e-002	 4.2002606866e+000
 1.9329838784e+000	 3.6595372353e-002	 4.1888601906e+000
 1.9325479018e+000	 5.4995007207e-002	 4.1721968573e+000
 1.9319341269e+000	 7.3459724731e-002	 4.1511363804e+000
 1.9311406269e+000	 9.1987294436e-002	 4.1265856331e+000
 1.9301655027e+000	 1.1057543148e-001	 4.0994849548e+000
 1.9290068855e+000	 1.2922179687e-001	 4.0707992598e+000
 1.9276629376e+000	 1.4792399767e-001	 4.0415080090e+000
 1.9261318546e+000	 1.6667958732e-001	 4.0125940977e+000
 1.9244118663e+000	 1.8548606597e-001	 3.9850317236e+000
 1.9399973675e+000	 0.0000000000e+000	 4.6200356504e+000
 1.9399108030e+000	 1.8325976098e-002	 4.6112246292e+000
 1.9396497736e+000	 3.6721571498e-002	 4.5969062852e+000
 1.9392122935e+000	 5.5184657496e-002	 4.5777658759e+000
 1.9385964020e+000	 7.3713050601e-002	 4.5545286352e+000
 1.9378001656e+000	 9.2304512633e-002	 4.5279529871e+000
 1.9368216787e+000	 1.1095675087e-001	 4.4988225236e+000
 1.9356590660e+000	 1.2966741825e-001	 4.4679367850e+000
 1.9343104835e+000	 1.4843411359e-001	 4.4361008815e+000
 1.9327741205e+000	 1.6725438190e-001	 4.4041140113e+000
 1.9310482009e+000	 1.8612571470e-001	 4.3727569436e+000
 1.9466644622e+000	 0.0000000000e+000	 4.7122944805e+000
 1.9465776002e+000	 1.8388956089e-002	 4.6998000084e+000
 1.9463156738e+000	 3.6847770738e-002	 4.6827387874e+000
 1.9458766902e+000	 5.5374307927e-002	 4.6616528396e+000
 1.9452586821e+000	 7.3966376660e-002	 4.6371197590e+000
 1.9444597093e+000	 9.2621731067e-002	 4.6097457306e+000
 1.9434778597e+000	 1.1133807055e-001	 4.5801572887e+000
 1.9423112515e+000	 1.3011303997e-001	 4.5489918497e+000
 1.9409580344e+000	 1.4894422990e-001	 4.5168870642e+000
 1.9394163915e+000	 1.6782917691e-001	 4.4844690417e+000
 1.9376845405e+000	 1.8676536390e-001	 4.4523395185e+000
 1.9533315502e+000	 0.0000000000e+000	 4.4857842005e+000
 1.9532443908e+000	 1.8451936017e-002	 4.4689788352e+000
 1.9529815673e+000	 3.6973969852e-002	 4.4489464222e+000
 1.9525410802e+000	 5.5563958167e-002	 4.4260753923e+000
 1.9519209556e+000	 7.4219702465e-002	 4.4007886248e+000
 1.9511192463e+000	 9.2938949183e-002	 4.3735363617e+000
 1.9501340340e+000	 1.1171938984e-001	 4.3447878310e+000
 1.9489634303e+000	 1.3055866124e-001	 4.3150216171e+000
 1.9476055787e+000	 1.4945434570e-001	 4.2847148208e+000
 1.9460586558e+000	 1.6840397134e-001	 4.2543310657e+000
 1.9443208734e+000	 1.8740501246e-001	 4.2243074220e+000
 1.9599986200e+000	 0.0000000000e+000	 3.9438815021e+000
 1.9599111630e+000	 1.8514915772e-002	 3.9217085172e+000
 1.9596474424e+000	 3.7100168618e-002	 3.8980789420e+000
 1.9592054519e+000	 5.5753607886e-002	 3.8732173848e+000
 1.9585832107e+000	 7.4473027574e-002	 3.8473850399e+000
 1.9577787651e+000	 9.3256166427e-002	 3.8208725856e+000
 1.9567901900e+000	 1.1210070809e-001	 3.7939917588e+000
 1.9556155909e+000	 1.3100428129e-001	 3.7670656447e+000
 1.9542531046e+000	 1.4996446009e-001	 3.7404177233e+000
 1.9527009018e+000	 1.6897876420e-001	 3.7143597316e+000
 1.9509571881e+000	 1.8804465927e-001	 3.6891784125e+000
 1.9666656597e+000	 0.0000000000e+000	 3.0899131940e+000
 1.9665779053e+000	 1.8577895244e-002	 3.0608925583e+000
 1.9663132876e+000	 3.7226366817e-002	 3.0326477322e+000
 1.9658697937e+000	 5.5943256752e-002	 3.0052293932e+000
 1.9652454358e+000	 7.4726351542e-002	 2.9787301836e+000
 1.9644382538e+000	 9.3573382243e-002	 2.9532776809e+000
 1.9634463161e+000	 1.1248202462e-001	 2.9290260093e+000
 1.9622677215e+000	 1.3144989933e-001	 2.9061461293e+000
 1.9609006007e+000	 1.5047457219e-001	 2.8848148483e+000
 1.9593431180e+000	 1.6955355446e-001	 2.8652026132e+000
 1.9575934729e+000	 1.8868430319e-001	 2.8474601532e+000
 1.9733326578e+000	 0.0000000000e+000	 1.9271569886e+000
 1.9732446058e+000	 1.8640874322e-002	 1.8893912453e+000
 1.9729790911e+000	 3.7352564227e-002	 1.8551264048e+000
 1.9725340937e+000	 5.6132904432e-002	 1.8242292267e+000
 1.9719076193e+000	 7.4979673928e-002	 1.7966170371e+000
 1.9710977010e+000	 9.3890596076e-002	 1.7722508592e+000
 1.9701024006e+000	 1.1286333876e-001	 1.7511271451e+000
 1.9689198105e+000	 1.3189551458e-001	 1.7332681468e+000
 1.9675480552e+000	 1.5098468110e-001	 1.7187109688e+000
 1.9659852926e+000	 1.7012834114e-001	 1.7074953618e+000
 1.9642297162e+000	 1.8932394312e-001	 1.6996503304e+000
 1.9799996025e+000	 0.0000000000e+000	 4.5884227238e-001
 1.9799112531e+000	 1.8703852897e-002	 4.1002232042e-001
 1.9796448413e+000	 3.7478760628e-002	 3.6795137932e-001
 1.9791983405e+000	 5.6322550596e-002	 3.3230242499e-001
 1.9785697495e+000	 7.5232994288e-002	 3.0281080492e-001
 1.9777570949e+000	 9.4207807372e-002	 2.7926761653e-001
 1.9767584319e+000	 1.1324464986e-001	 2.6151164366e-001
 1.9755718464e+000	 1.3234112627e-001	 2.4941988849e-001
 1.9741954565e+000	 1.5149478593e-001	 2.4289674243e-001
 1.9726274141e+000	 1.7070312321e-001	 2.4186185431e-001
 1.9708659065e+000	 1.8996357793e-001	 2.4623676925e-001
 1.9866664822e+000	 0.0000000000e+000	-1.3118491376e+000
 1.9865778353e+000	 1.8766830858e-002	-1.3744383596e+000
 1.9863105265e+000	 3.7604955799e-002	-1.4264775466e+000
 1.9858625223e+000	 5.6512194912e-002	-1.4684972535e+000
 1.9852318148e+000	 7.5486312178e-002	-1.5009506726e+000
 1.9844164238e+000	 9.4525015576e-002	-1.5242199213e+000
 1.9834143982e+000	 1.1362595723e-001	-1.5386238180e+000
 1.9822238173e+000	 1.3278673361e-001	-1.5444271089e+000
 1.9808427930e+000	 1.5200488578e-001	-1.5418511039e+000
 1.9792694709e+000	 1.7127789968e-001	-1.5310856620e+000
 1.9775020320e+000	 1.9060320650e-001	-1.5123024534e+000
 1.9933332853e+000	 0.0000000000e+000	-3.3817822533e+000
 1.9932443409e+000	 1.8829808095e-002	-3.4612561769e+000
 1.9929761351e+000	 3.7731149520e-002	-3.5257966389e+000
 1.9925266274e+000	 5.6701837047e-002	-3.5761473539e+000
 1.9918938034e+000	 7.5739627156e-002	-3.6129565148e+000
 1.9910756762e+000	 9.4842220133e-002	-3.6367826613e+000
 1.9900702880e+000	 1.1400726022e-001	-3.6481020850e+000
 1.9888757118e+000	 1.3323233584e-001	-3.6473177369e+000
 1.9874900531e+000	 1.5251497977e-001	-3.6347695938e+000
 1.9859114512e+000	 1.7185266954e-001	-3.6107464268e+000
 1.9841380813e+000	 1.9124282771e-001	-3.5754988977e+000
 2.0000000000e+000	 0.0000000000e+000	-5.7478681894e+000
 1.9999107581e+000	 1.8892784498e-002	-5.8477371190e+000
 1.9996416553e+000	 3.7857341570e-002	-5.9276776792e+000
 1.9991906443e+000	 5.6891476671e-002	-5.9886562557e+000
 1.9985557038e+000	 7.5992938778e-002	-6.0315224038e+000
 1.9977348403e+000	 9.5159420487e-002	-6.0570142112e+000
 1.9967260896e+000	 1.1438855817e-001	-6.0657652517e+000
 1.9955275182e+000	 1.3367793215e-001	-6.0583130938e+000
 1.9941372251e+000	 1.5302506700e-001	-6.0351093241e+000
 1.9925533436e+000	 1.7242743179e-001	-5.9965310276e+000
 1.9907740426e+000	 1.9188244045e-001	-5.9428936528e+000
 1.9244118663e+000	 1.8548606597e-001	 3.9850317236e+000
 1.9225015401e+000	 2.0433805594e-001	 3.9567069325e+000
 1.9203989372e+000	 2.2323580385e-001	 3.9245844394e+000
 1.9181024018e+000	 2.4217669503e-001	 3.8882497278e+000
 1.9156103194e+000	 2.6115806461e-001	 3.8472727220e+000
 1.9129211175e+000	 2.8017719813e-001	 3.8011952779e+000
 1.9100332680e+000	 2.9923133216e-001	 3.7495183300e+000
 1.9069452883e+000	 3.1831765506e-001	 3.6916888483e+000
 1.9036557430e+000	 3.3743330770e-001	 3.6270867651e+000
 1.9001632456e+000	 3.5657538433e-001	 3.5550120475e+000
 1.8964664596e+000	 3.7574093339e-001	 3.4746720978e+000
 1.9310482009e+000	 1.8612571470e-001	 4.3727569436e+000
 1.9291312870e+000	 2.0504271576e-001	 4.3400348818e+000
 1.9270214332e+000	 2.2400563255e-001	 4.3031162341e+000
 1.9247169782e+000	 2.4301184140e-001	 4.2615167008e+000
 1.9222163018e+000	 2.6205866823e-001	 4.2147394979e+000
 1.9195178263e+000	 2.8114338923e-001	 4.1622625358e+000
 1.9166200180e+000	 3.0026323145e-001	 4.1035252364e+000
 1.9135213894e+000	 3.1941537353e-001	 4.0379151411e+000
 1.9102205001e+000	 3.3859694651e-001	 3.9647544754e+000
 1.9067159588e+000	 3.5780503459e-001	 3.8832868488e+000
 1.9030064244e+000	 3.7703667605e-001	 3.7926642769e+000
 1.9376845405e+000	 1.8676536390e-001	 4.4523395185e+000
 1.9357610387e+000	 2.0574737610e-001	 4.4186863935e+000
 1.9336439341e+000	 2.2477546183e-001	 4.3809484856e+000
 1.9313315596e+000	 2.4384698839e-001	 4.3385920609e+000
 1.9288222892e+000	 2.6295927253e-001	 4.2910735986e+000
 1.9261145399e+000	 2.8210958107e-001	 4.2378266038e+000
 1.9232067730e+000	 3.0129513151e-001	 4.1782480371e+000
 1.9200974954e+000	 3.2051309283e-001	 4.1116845157e+000
 1.9167852621e+000	 3.3976058619e-001	 4.0374184580e+000
 1.9132686769e+000	 3.5903468578e-001	 3.9546543512e+000
 1.9095463942e+000	 3.7833241968e-001	 3.8625053339e+000
 1.9443208734e+000	 1.8740501246e-001	 4.2243074220e+000
 1.9423907839e+000	 2.0645203574e-001	 4.1930591114e+000
 1.9402664285e+000	 2.2554529034e-001	 4.1583430307e+000
 1.9379461343e+000	 2.4468213455e-001	 4.1195961631e+000
 1.9354282700e+000	 2.6385987593e-001	 4.0762480282e+000
 1.9327112470e+000	 2.8307577193e-001	 4.0277070738e+000
 1.9297935213e+000	 3.0232703055e-001	 3.9733466600e+000
 1.9266735949e+000	 3.2161081104e-001	 3.9124907976e+000
 1.9233500176e+000	 3.4092422471e-001	 3.8443998124e+000
 1.9198213885e+000	 3.6026433573e-001	 3.7682561215e+000
 1.9160863574e+000	 3.7962816202e-001	 3.6831503175e+000
 1.9509571881e+000	 1.8804465927e-001	 3.6891784125e+000
 1.9490205108e+000	 2.0715669343e-001	 3.6635422854e+000
 1.9468889046e+000	 2.2631511673e-001	 3.6355552027e+000
 1.9445606909e+000	 2.4551727841e-001	 3.6046448228e+000
 1.9420342327e+000	 2.6476047685e-001	 3.5702332923e+000
 1.9393079360e+000	 2.8404196014e-001	 3.5317231607e+000
 1.9363802515e+000	 3.0335892674e-001	 3.4884828634e+000
 1.9332496762e+000	 3.2270852622e-001	 3.4398319383e+000
 1.9299147550e+000	 3.4208786003e-001	 3.3850261523e+000
 1.9263740820e+000	 3.6149398230e-001	 3.3232427265e+000
 1.9226263026e+000	 3.8092390079e-001	 3.2535658618e+000
 1.9575934729e+000	 1.8868430319e-001	 2.8474601532e+000
 1.9556502079e+000	 2.0786134796e-001	 2.8305168614e+000
 1.9535113509e+000	 2.2708493965e-001	 2.8128338899e+000
 1.9511752177e+000	 2.4635241851e-001	 2.7938493412e+000
 1.9486401656e+000	 2.6566107372e-001	 2.7729973886e+000
 1.9459045952e+000	 2.8500814400e-001	 2.7496936581e+000
 1.9429669521e+000	 3.0439081829e-001	 2.7233201536e+000
 1.9398257280e+000	 3.2380623647e-001	 2.6932098945e+000
 1.9364794628e+000	 3.4325149011e-001	 2.6586314454e+000
 1.9329267461e+000	 3.6272362334e-001	 2.6187735307e+000
 1.9291662184e+000	 3.8221963373e-001	 2.5727299415e+000
 1.9642297162e+000	 1.8932394312e-001	 1.6996503304e+000
 1.9622798636e+000	 2.0856599809e-001	 1.6943555693e+000
 1.9601337559e+000	 2.2785475776e-001	 1.6904215920e+000
 1.9577897031e+000	 2.4718755339e-001	 1.6873165292e+000
 1.9552460572e+000	 2.6656166495e-001	 1.6845057973e+000
 1.9525012133e+000	 2.8597432182e-001	 1.6814368929e+000
 1.9495536115e+000	 3.0542270339e-001	 1.6775237040e+000
 1.9464017387e+000	 3.2490393985e-001	 1.6721305098e+000
 1.9430441297e+000	 3.4441511292e-001	 1.6645558557e+000
 1.9394793692e+000	 3.6395325670e-001	 1.6540164979e+000
 1.9357060934e+000	 3.8351535858e-001	 1.6396316311e+000
 1.9708659065e+000	 1.8996357793e-001	 2.4623676925e-001
 1.9689094662e+000	 2.0927064257e-001	 2.5542300888e-001
 1.9667561078e+000	 2.2862456972e-001	 2.6855447608e-001
 1.9644041357e+000	 2.4802268159e-001	 2.8514873125e-001
 1.9618518960e+000	 2.6746224898e-001	 3.0472147185e-001
 1.9590977785e+000	 2.8694049191e-001	 3.2677068262e-001
 1.9561402183e+000	 3.0645458024e-001	 3.5076027611e-001
 1.9529776968e+000	 3.2600163445e-001	 3.7610339831e-001
 1.9496087440e+000	 3.4557872642e-001	 4.0214558870e-001
 1.9460319399e+000	 3.6518288022e-001	 4.2814799666e-001
 1.9422459160e+000	 3.8481107306e-001	 4.5327086919e-001
 1.9775020320e+000	 1.9060320650e-001	-1.5123024534e+000
 1.9755390042e+000	 2.0997528018e-001	-1.4859242656e+000
 1.9733783952e+000	 2.2939437417e-001	-1.4525375700e+000
 1.9710185037e+000	 2.4885780165e-001	-1.4125561517e+000
 1.9684576703e+000	 2.6836282423e-001	-1.3663951703e+000
 1.9656942795e+000	 2.8790665258e-001	-1.3144877085e+000
 1.9627267608e+000	 3.0748644702e-001	-1.2573018585e+000
 1.9595535907e+000	 3.2709931835e-001	-1.1953581697e+000
 1.9561732943e+000	 3.4674232857e-001	-1.1292472604e+000
 1.9525844467e+000	 3.6641249174e-001	-1.0596473907e+000
 1.9487856748e+000	 3.8610677490e-001	-9.8734177356e-001
 1.9841380813e+000	 1.9124282771e-001	-3.5754988977e+000
 1.9821684660e+000	 2.1067990969e-001	-3.5293376633e+000
 1.9800006065e+000	 2.3016416976e-001	-3.4726308839e+000
 1.9776327957e+000	 2.4969291210e-001	-3.4057046399e+000
 1.9750633687e+000	 2.6926338913e-001	-3.3288862574e+000
 1.9722907046e+000	 2.8887280213e-001	-3.2425216111e+000
 1.9693132275e+000	 3.0851830194e-001	-3.1469929951e+000
 1.9661294090e+000	 3.2819698962e-001	-3.0427373797e+000
 1.9627377691e+000	 3.4790591734e-001	-2.9302648560e+000
 1.9591368782e+000	 3.6764208913e-001	-2.8101770554e+000
 1.9553253585e+000	 3.8740246185e-001	-2.6831853212e+000
 1.9907740426e+000	 1.9188244045e-001	-5.9428936528e+000
 1.9887978399e+000	 2.1138452987e-001	-5.8744764759e+000
 1.9866227300e+000	 2.3093395515e-001	-5.7915079773e+000
 1.9842470000e+000	 2.5052801148e-001	-5.6942076527e+000
 1.9816689796e+000	 2.7016394209e-001	-5.5827964723e+000
 1.9788870423e+000	 2.8983893889e-001	-5.4575149930e+000
 1.9758996070e+000	 3.0955014318e-001	-5.3186420704e+000
 1.9727051402e+000	 3.2929464635e-001	-5.1665139834e+000
 1.9693021570e+000	 3.4906949069e-001	-5.0015437682e+000
 1.9656892228e+000	 3.6887167023e-001	-4.8242405465e+000
 1.9618649555e+000	 3.8869813162e-001	-4.6352286158e+000
 1.8964664596e+000	 3.7574093339e-001	 3.4746720978e+000
 1.8925635002e+000	 3.9492983731e-001	 3.3867902507e+000
 1.8884536763e+000	 4.1413617730e-001	 3.2932121896e+000
 1.8841358131e+000	 4.3335686430e-001	 3.1946080921e+000
 1.8796087921e+000	 4.5258876740e-001	 3.0914971440e+000
 1.8748715528e+000	 4.7182871500e-001	 2.9842363638e+000
 1.8699230941e+000	 4.9107349602e-001	 2.8730109728e+000
 1.8647624757e+000	 5.1031986113e-001	 2.7578265384e+000
 1.8593888196e+000	 5.2956452411e-001	 2.6385031198e+000
 1.8538013113e+000	 5.4880416318e-001	 2.5146716425e+000
 1.8479992011e+000	 5.6803542248e-001	 2.3857727248e+000
 1.9030064244e+000	 3.7703667605e-001	 3.7926642769e+000
 1.8990900057e+000	 3.9629175291e-001	 3.6934516337e+000
 1.8949660091e+000	 4.1556432597e-001	 3.5874882238e+000
 1.8906332557e+000	 4.3485129551e-001	 3.4756094869e+000
 1.8860906233e+000	 4.5414951983e-001	 3.3584950175e+000
 1.8813370476e+000	 4.7345581639e-001	 3.2366565631e+000
 1.8763715241e+000	 4.9276696304e-001	 3.1104275858e+000
 1.8711931094e+000	 5.1207969924e-001	 2.9799546212e+000
 1.8658009222e+000	 5.3139072744e-001	 2.8451906712e+000
 1.8601941453e+000	 5.5069671442e-001	 2.7058908618e+000
 1.8543720266e+000	 5.6999429271e-001	 2.5616105959e+000
 1.9095463942e+000	 3.7833241968e-001	 3.8625053339e+000
 1.9056165160e+000	 3.9765366953e-001	 3.7613578765e+000
 1.9014783467e+000	 4.1699247570e-001	 3.6529596500e+000
 1.8971307032e+000	 4.3634572783e-001	 3.5382336004e+000
 1.8925724593e+000	 4.5571027342e-001	 3.4179423245e+000
 1.8878025472e+000	 4.7508291900e-001	 3.2926753632e+000
 1.8828199590e+000	 4.9446043133e-001	 3.1628380786e+000
 1.8776237479e+000	 5.1383953867e-001	 3.0286423562e+000
 1.8722130296e+000	 5.3321693215e-001	 2.8900993724e+000
 1.8665869842e+000	 5.5258926707e-001	 2.7470146667e+000
 1.8607448569e+000	 5.7195316441e-001	 2.5989857532e+000
 1.9160863574e+000	 3.7962816202e-001	 3.6831503175e+000
 1.9121430199e+000	 3.9901558479e-001	 3.5892793216e+000
 1.9079906778e+000	 4.1842062401e-001	 3.4882234450e+000
 1.9036281442e+000	 4.3784015867e-001	 3.3809162147e+000
 1.8990542888e+000	 4.5727102546e-001	 3.2681266486e+000
 1.8942680404e+000	 4.7671001998e-001	 3.1504459660e+000
 1.8892683875e+000	 4.9615389792e-001	 3.0282759035e+000
 1.8840543799e+000	 5.1559937635e-001	 2.9018188853e+000
 1.8786251306e+000	 5.3504313503e-001	 2.7710702940e+000
 1.8729798167e+000	 5.5448181783e-001	 2.6358130856e+000
 1.8671176808e+000	 5.7391203416e-001	 2.4956149918e+000
 1.9226263026e+000	 3.8092390079e-001	 3.2535658618e+000
 1.9186695058e+000	 4.0037749630e-001	 3.1760004647e+000
 1.9145029911e+000	 4.1984876839e-001	 3.0918931604e+000
 1.9101255673e+000	 4.3933458539e-001	 3.0021119493e+000
 1.9055361006e+000	 4.5883177321e-001	 2.9073565049e+000
 1.9007335158e+000	 4.7833711649e-001	 2.8081444197e+000
 1.8957167982e+000	 4.9784735986e-001	 2.7047990832e+000
 1.8904849943e+000	 5.1735920918e-001	 2.5974394445e+000
 1.8850372140e+000	 5.3686933288e-001	 2.4859719123e+000
 1.8793726316e+000	 5.5637436339e-001	 2.3700846423e+000
 1.8734904872e+000	 5.7587089851e-001	 2.2492444598e+000
 1.9291662184e+000	 3.8221963373e-001	 2.5727299415e+000
 1.9251959623e+000	 4.0173940169e-001	 2.5203196677e+000
 1.9210152750e+000	 4.2127690635e-001	 2.4625985941e+000
 1.9166229612e+000	 4.4082900539e-001	 2.4002938963e+000
 1.9120178831e+000	 4.6039251393e-001	 2.3339609412e+000
 1.9071989622e+000	 4.7996420568e-001	 2.2639691889e+000
 1.9021651798e+000	 4.9954081418e-001	 2.1904897536e+000
 1.8969155797e+000	 5.1911903409e-001	 2.1134848819e+000
 1.8914492685e+000	 5.3869552252e-001	 2.0326996074e+000
 1.8857654177e+000	 5.5826690043e-001	 1.9476558378e+000
 1.8798632649e+000	 5.7782975406e-001	 1.8576491266e+000
 1.9357060934e+000	 3.8351535858e-001	 1.6396316311e+000
 1.9317223781e+000	 4.0310129856e-001	 1.6210488754e+000
 1.9275275182e+000	 4.2270503537e-001	 1.5989854694e+000
 1.9231203144e+000	 4.4232341605e-001	 1.5739532620e+000
 1.9184996252e+000	 4.6195324490e-001	 1.5462891459e+000
 1.9136643681e+000	 4.8159128470e-001	 1.5161407322e+000
 1.9086135212e+000	 5.0123425792e-001	 1.4834537144e+000
 1.9033461249e+000	 5.2087884801e-001	 1.4479611853e+000
 1.8978612829e+000	 5.4052170075e-001	 1.4091751704e+000
 1.8921581639e+000	 5.6015942564e-001	 1.3663806408e+000
 1.8862360028e+000	 5.7978859736e-001	 1.3186322626e+000
 1.9422459160e+000	 3.8481107306e-001	 4.5327086919e-001
 1.9382487417e+000	 4.0446318454e-001	 4.7701333946e-001
 1.9340397093e+000	 4.2413315298e-001	 4.9971511903e-001
 1.9296176157e+000	 4.4381781475e-001	 5.2159901613e-001
 1.9249813154e+000	 4.6351396338e-001	 5.4271006458e-001
 1.9201297223e+000	 4.8321835070e-001	 5.6290108857e-001
 1.9150618110e+000	 5.0292768810e-001	 5.8181998868e-001
 1.9097766187e+000	 5.2263864784e-001	 5.9889901833e-001
 1.9042732461e+000	 5.4234786436e-001	 6.1334632004e-001
 1.8985508589e+000	 5.6205193571e-001	 6.2413998908e-001
 1.8926086897e+000	 5.8174742499e-001	 6.3002492748e-001
 1.9487856748e+000	 3.8610677490e-001	-9.8734177356e-001
 1.9447750416e+000	 4.0582505724e-001	-9.1294865412e-001
 1.9405518370e+000	 4.2556125666e-001	-8.3653582413e-001
 1.9361148537e+000	 4.4531219888e-001	-7.5824245299e-001
 1.9314629424e+000	 4.6507466664e-001	-6.7838797697e-001
 1.9265950134e+000	 4.8484540083e-001	-5.9748652834e-001
 1.9215100380e+000	 5.0462110178e-001	-5.1625960900e-001
 1.9162070498e+000	 5.2439843052e-001	-4.3564673411e-001
 1.9106851467e+000	 5.4417401017e-001	-3.5681377092e-001
 1.9049434917e+000	 5.6394442733e-001	-2.8115870000e-001
 1.8989813144e+000	 5.8370623352e-001	-2.1031453048e-001
 1.9553253585e+000	 3.8740246185e-001	-2.6831853212e+000
 1.9513012664e+000	 4.0718691427e-001	-2.5499860512e+000
 1.9470638897e+000	 4.2698934391e-001	-2.4110757305e+000
 1.9426120169e+000	 4.4680656583e-001	-2.2670276761e+000
 1.9379444949e+000	 4.6663535196e-001	-2.1185976423e+000
 1.9330602302e+000	 4.8647243226e-001	-1.9667381287e+000
 1.9279581908e+000	 5.0631449598e-001	-1.8126108962e+000
 1.9226374070e+000	 5.2615819296e-001	-1.6575974117e+000
 1.9170969736e+000	 5.4600013498e-001	-1.5033069406e+000
 1.9113360509e+000	 5.6583689718e-001	-1.3515820095e+000
 1.9053538659e+000	 5.8566501952e-001	-1.2045009660e+000
 1.9618649555e+000	 3.8869813162e-001	-4.6352286158e+000
 1.9578274048e+000	 4.0854875327e-001	-4.4352352911e+000
 1.9535758562e+000	 4.2841741224e-001	-4.2251982716e+000
 1.9491090941e+000	 4.4830091298e-001	-4.0061964346e+000
 1.9444259615e+000	 4.6819601659e-001	-3.7794929468e+000
 1.9395253614e+000	 4.8809944212e-001	-3.5465493368e+000
 1.9344062581e+000	 5.0800786774e-001	-3.3090377382e+000
 1.9290676790e+000	 5.2791793208e-001	-3.0688510163e+000
 1.9235087156e+000	 5.4782623559e-001	-2.8281104938e+000
 1.9177285254e+000	 5.6772934196e-001	-2.5891709938e+000
 1.9117263330e+000	 5.8762377956e-001	-2.3546229189e+000
 1.8479992011e+000	 5.6803542248e-001	 2.3857727248e+000
 1.8419818054e+000	 5.8725491317e-001	 2.2513907270e+000
 1.8357485059e+000	 6.0645921420e-001	 2.1111736213e+000
 1.8292987526e+000	 6.2564487460e-001	 1.9643768949e+000
 1.8226320656e+000	 6.4480841541e-001	 1.8100798160e+000
 1.8157480358e+000	 6.6394633137e-001	 1.6471987531e+000
 1.8086463264e+000	 6.8305509263e-001	 1.4784247200e+000
 1.8013266735e+000	 7.0213114653e-001	 1.3111961180e+000
 1.7937888879e+000	 7.2117091941e-001	 1.1478920246e+000
 1.7860328549e+000	 7.4017081847e-001	 9.9074755504e-001
 1.7780585364e+000	 7.5912723369e-001	 8.4195099120e-001
 1.8543720266e+000	 5.6999429271e-001	 2.5616105959e+000
 1.8483338799e+000	 5.8928006182e-001	 2.4119818555e+000
 1.8420790848e+000	 6.0855058889e-001	 2.2566460308e+000
 1.8356070896e+000	 6.2780241104e-001	 2.0948764099e+000
 1.8289174125e+000	 6.4703203732e-001	 1.9257588264e+000
 1.8220096432e+000	 6.6623595039e-001	 1.7482047292e+000
 1.8148834435e+000	 6.8541060821e-001	 1.5660374270e+000
 1.8075385488e+000	 7.0455244589e-001	 1.3858793957e+000
 1.7999747691e+000	 7.2365787742e-001	 1.2100203249e+000
 1.7921919895e+000	 7.4272329764e-001	 1.0406977340e+000
 1.7841901715e+000	 7.6174508406e-001	 8.8009882211e-001
 1.8607448569e+000	 5.7195316441e-001	 2.5989857532e+000
 1.8546859592e+000	 5.9130521199e-001	 2.4456251053e+000
 1.8484096685e+000	 6.1064196514e-001	 2.2865060692e+000
 1.8419154313e+000	 6.2995994909e-001	 2.1208577563e+000
 1.8352027642e+000	 6.4925566090e-001	 1.9477123984e+000
 1.8282712552e+000	 6.6852557112e-001	 1.7659604015e+000
 1.8211205652e+000	 6.8776612556e-001	 1.5805022467e+000
 1.8137504288e+000	 7.0697374706e-001	 1.3969520497e+000
 1.8061606550e+000	 7.2614483730e-001	 1.2175507964e+000
 1.7983511286e+000	 7.4527577873e-001	 1.0444892233e+000
 1.7903218112e+000	 7.6436293640e-001	 8.7990712363e-001
 1.8671176808e+000	 5.7391203416e-001	 2.4956149918e+000
 1.8610380321e+000	 5.9333036014e-001	 2.3500030028e+000
 1.8547402459e+000	 6.1273333930e-001	 2.1984220594e+000
 1.8482237668e+000	 6.3211748499e-001	 2.0399957965e+000
 1.8414881095e+000	 6.5147928226e-001	 1.8736433389e+000
 1.8345328610e+000	 6.7081518957e-001	 1.6983026850e+000
 1.8273576808e+000	 6.9012164056e-001	 1.5196372309e+000
 1.8199623025e+000	 7.0939504581e-001	 1.3423260443e+000
 1.8123465346e+000	 7.2863179470e-001	 1.1685127787e+000
 1.8045102617e+000	 7.4782825726e-001	 1.0002927534e+000
 1.7964534448e+000	 7.6698078611e-001	 8.3971256954e-001
 1.8734904872e+000	 5.7587089851e-001	 2.2492444598e+000
 1.8673900875e+000	 5.9535550271e-001	 2.1228280366e+000
 1.8610708059e+000	 6.1482470772e-001	 1.9900926321e+000
 1.8545320848e+000	 6.3427501496e-001	 1.8499957747e+000
 1.8477734376e+000	 6.5370289750e-001	 1.7012846297e+000
 1.8407944495e+000	 6.7310480171e-001	 1.5430107454e+000
 1.8335947792e+000	 6.9247714907e-001	 1.3812890182e+000
 1.8261741591e+000	 7.1181633791e-001	 1.2199407874e+000
 1.8185323973e+000	 7.3111874526e-001	 1.0609615869e+000
 1.8106693777e+000	 7.5038072877e-001	 9.0630322874e-001
 1.8025850615e+000	 7.6959862863e-001	 7.5787386468e-001
 1.8798632649e+000	 5.7782975406e-001	 1.8576491266e+000
 1.8737421144e+000	 5.9738063617e-001	 1.7618421176e+000
 1.8674013374e+000	 6.1691606672e-001	 1.6592461834e+000
 1.8608403745e+000	 6.3643253522e-001	 1.5485927755e+000
 1.8540587374e+000	 6.5592650273e-001	 1.4283988921e+000
 1.8470560099e+000	 6.7539440356e-001	 1.2978899321e+000
 1.8398318495e+000	 6.9483264699e-001	 1.1633323384e+000
 1.8323859878e+000	 7.1423761911e-001	 1.0277626562e+000
 1.8247182321e+000	 7.3360568462e-001	 8.9297806344e-001
 1.8168284661e+000	 7.5293318880e-001	 7.6073931195e-001
 1.8087166507e+000	 7.7221645937e-001	 6.3277136718e-001
 1.8862360028e+000	 5.7978859736e-001	 1.3186322626e+000
 1.8800941016e+000	 5.9940575698e-001	 1.2648160503e+000
 1.8737318294e+000	 6.1900741265e-001	 1.2036403421e+000
 1.8671486248e+000	 6.3859004199e-001	 1.1335511926e+000
 1.8603439979e+000	 6.5815009407e-001	 1.0527778615e+000
 1.8533175312e+000	 6.7768399110e-001	 9.6077399437e-001
 1.8460688809e+000	 6.9718813019e-001	 8.6366952623e-001
 1.8385977777e+000	 7.1665888517e-001	 7.6378453148e-001
 1.8309040283e+000	 7.3609260845e-001	 6.6266813945e-001
 1.8229875159e+000	 7.5548563288e-001	 5.6184301657e-001
 1.8148482015e+000	 7.7483427375e-001	 4.6280671826e-001
 1.8926086897e+000	 5.8174742499e-001	 6.3002492748e-001
 1.8864460379e+000	 6.0143086158e-001	 6.2954901427e-001
 1.8800622707e+000	 6.2109874185e-001	 6.2106144754e-001
 1.8734568246e+000	 6.4074753150e-001	 6.0266420795e-001
 1.8666292081e+000	 6.6037366762e-001	 5.7224187234e-001
 1.8595790024e+000	 6.7997356032e-001	 5.2952458974e-001
 1.8523058623e+000	 6.9954359454e-001	 4.8023004486e-001
 1.8448095179e+000	 7.1908013187e-001	 4.2602534220e-001
 1.8370897750e+000	 7.3857951238e-001	 3.6816240431e-001
 1.8291465165e+000	 7.5803805654e-001	 3.0787930776e-001
 1.8209797032e+000	 7.7745206719e-001	 2.4640247940e-001
 1.8989813144e+000	 5.8370623352e-001	-2.1031453048e-001
 1.8927979124e+000	 6.0345594644e-001	-1.4613194504e-001
 1.8863926502e+000	 6.2319005065e-001	-9.0675962415e-002
 1.8797649629e+000	 6.4290499998e-001	-4.6246719137e-002
 1.8729143571e+000	 6.6259721949e-001	-1.5360647038e-002
 1.8658404125e+000	 6.8226310721e-001	 2.0308017250e-003
 1.8585427830e+000	 7.0189903593e-001	 1.0970018972e-002
 1.8510211975e+000	 7.2150135496e-001	 1.2529618225e-002
 1.8432754614e+000	 7.4106639206e-001	 7.6156840185e-003
 1.8353054571e+000	 7.6059045531e-001	-2.8642889834e-003
 1.8271111452e+000	 7.8006983511e-001	-1.7998223356e-002
 1.9053538659e+000	 5.8566501952e-001	-1.2045009660e+000
 1.8991497138e+000	 6.0548100801e-001	-1.0643724149e+000
 1.8927229570e+000	 6.2528133541e-001	-9.3372965349e-001
 1.8860730287e+000	 6.4506244364e-001	-8.1533235330e-001
 1.8791994338e+000	 6.6482074578e-001	-7.1215366995e-001
 1.8721017506e+000	 6.8455262778e-001	-6.2379133300e-001
 1.8647796319e+000	 7.0425445023e-001	-5.4612822319e-001
 1.8572328057e+000	 7.2392255020e-001	-4.7863294766e-001
 1.8494610766e+000	 7.4355324314e-001	-4.2079337230e-001
 1.8414643268e+000	 7.6314282474e-001	-3.7207807153e-001
 1.8332425166e+000	 7.8268757292e-001	-3.3193204805e-001
 1.9117263330e+000	 5.8762377956e-001	-2.3546229189e+000
 1.9055014310e+000	 6.0750604275e-001	-2.1272911050e+000
 1.8990531799e+000	 6.2737259245e-001	-1.9102301878e+000
 1.8923810108e+000	 6.4721985872e-001	-1.7067161745e+000
 1.8854844272e+000	 6.6704424262e-001	-1.5202329301e+000
 1.8783630058e+000	 6.8684211801e-001	-1.3499992880e+000
 1.8710163982e+000	 7.0660983332e-001	-1.1930565987e+000
 1.8634443316e+000	 7.2634371337e-001	-1.0493679293e+000
 1.8556466099e+000	 7.4604006127e-001	-9.1886269763e-001
 1.8476231149e+000	 7.6569516034e-001	-8.0143053717e-001
 1.8393738069e+000	 7.8530527604e-001	-6.9691577858e-001
 1.7780585364e+000	 7.5912723369e-001	 8.4195099120e-001
 1.7698672163e+000	 7.7803370737e-001	 6.9986190995e-001
 1.7614578321e+000	 7.9688944998e-001	 5.6113362074e-001
 1.7528305796e+000	 8.1569081426e-001	 4.2546243122e-001
 1.7439857337e+000	 8.3443414372e-001	 2.9259797436e-001
 1.7349236489e+000	 8.5311577476e-001	 1.6234492245e-001
 1.7256447597e+000	 8.7173203880e-001	 3.4563901065e-002
 1.7161495812e+000	 8.9027926438e-001	-9.0828433492e-002
 1.7064387096e+000	 9.0875377933e-001	-2.1386018253e-001
 1.6965128223e+000	 9.2715191300e-001	-3.3450588179e-001
 1.6863726785e+000	 9.4546999843e-001	-4.5268908160e-001
 1.7841901715e+000	 7.6174508406e-001	 8.8009882211e-001
 1.7759706036e+000	 7.8071675672e-001	 7.2701506190e-001
 1.7675322196e+000	 7.9963752336e-001	 5.7846686877e-001
 1.7588752161e+000	 8.1850372415e-001	 4.3405642238e-001
 1.7499998688e+000	 8.3731168998e-001	 2.9344144050e-001
 1.7409065334e+000	 8.5605774463e-001	 1.5633712849e-001
 1.7315956459e+000	 8.7473820686e-001	 2.2517308838e-002
 1.7220677232e+000	 8.9334939254e-001	-1.0818530713e-001
 1.7123233637e+000	 9.1188761686e-001	-2.3587973576e-001
 1.7023632470e+000	 9.3034919650e-001	-3.6061824944e-001
 1.6921881349e+000	 9.4873045184e-001	-4.8239883261e-001
 1.7903218112e+000	 7.6436293640e-001	 8.7990712363e-001
 1.7820739955e+000	 7.8339980808e-001	 7.2301114679e-001
 1.7736066118e+000	 8.0238559880e-001	 5.7122763191e-001
 1.7649198571e+000	 8.2131663614e-001	 4.2410023297e-001
 1.7560140083e+000	 8.4018923839e-001	 2.8122999054e-001
 1.7468894223e+000	 8.5899971670e-001	 1.4227745514e-001
 1.7375465365e+000	 8.7774437717e-001	 6.9639701278e-003
 1.7279858697e+000	 8.9641952301e-001	-1.2492792455e-001
 1.7182080222e+000	 9.1502145675e-001	-2.5355499951e-001
 1.7082136761e+000	 9.3354648240e-001	-3.7901477821e-001
 1.6980035957e+000	 9.5199090771e-001	-5.0134793116e-001
 1.7964534448e+000	 7.6698078611e-001	 8.3971256954e-001
 1.7881773813e+000	 7.8608285676e-001	 6.8636254661e-001
 1.7796809978e+000	 8.0513367150e-001	 5.3809845239e-001
 1.7709644921e+000	 8.2412954533e-001	 3.9444067653e-001
 1.7620281419e+000	 8.4306678394e-001	 2.5496848456e-001
 1.7528723052e+000	 8.6194168584e-001	 1.1932225370e-001
 1.7434974212e+000	 8.8075054447e-001	-1.2795152514e-002
 1.7339040103e+000	 8.9948965041e-001	-1.4161791043e-001
 1.7240926749e+000	 9.1815529350e-001	-2.6731769605e-001
 1.7140640993e+000	 9.3674376510e-001	-3.9000510337e-001
 1.7038190506e+000	 9.5525136031e-001	-5.0973203851e-001
 1.8025850615e+000	 7.6959862863e-001	 7.5787386468e-001
 1.7942807504e+000	 7.8876589806e-001	 6.1560139091e-001
 1.7857553672e+000	 8.0788173663e-001	 4.7777940413e-001
 1.7770091105e+000	 8.2694244678e-001	 3.4393995493e-001
 1.7680422589e+000	 8.4594432157e-001	 2.1367510478e-001
 1.7588551717e+000	 8.6488364688e-001	 8.6639213342e-002
 1.7494482896e+000	 8.8375670351e-001	-3.7449656413e-002
 1.7398221346e+000	 9.0255976937e-001	-1.5880925597e-001
 1.7299773113e+000	 9.2128912163e-001	-2.7759362527e-001
 1.7199145065e+000	 9.3994103901e-001	-3.9389454878e-001
 1.7096344896e+000	 9.5851180395e-001	-5.0774401117e-001
 1.8087166507e+000	 7.7221645937e-001	 6.3277136718e-001
 1.8003840919e+000	 7.9144892729e-001	 5.0927921912e-001
 1.7918297092e+000	 8.1062978941e-001	 3.8898779391e-001
 1.7830537016e+000	 8.2975533557e-001	 2.7147539692e-001
 1.7740563488e+000	 8.4882184625e-001	 1.5638113009e-001
 1.7648380113e+000	 8.6782559469e-001	 4.3407170078e-002
 1.7553991311e+000	 8.8676284903e-001	-6.7679856990e-002
 1.7457402323e+000	 9.0562987451e-001	-1.7704844597e-001
 1.7358619213e+000	 9.2442293567e-001	-2.8480276230e-001
 1.7257648873e+000	 9.4313829853e-001	-3.9098419703e-001
 1.7154499024e+000	 9.6177223292e-001	-4.9557394527e-001
 1.8148482015e+000	 7.7483427375e-001	 4.6280671826e-001
 1.8064873954e+000	 7.9413193975e-001	 3.6596664967e-001
 1.7979040132e+000	 8.1337782500e-001	 2.7045786848e-001
 1.7890982550e+000	 8.3256820678e-001	 1.7593920199e-001
 1.7800704012e+000	 8.5169935295e-001	 8.2130715138e-002
 1.7708208135e+000	 8.7076752411e-001	-1.1184080458e-002
 1.7613499355e+000	 8.8976897575e-001	-1.0415694280e-001
 1.7516582930e+000	 9.0869996047e-001	-1.9687458337e-001
 1.7417464946e+000	 9.2755673012e-001	-2.8935935324e-001
 1.7316152316e+000	 9.4633553808e-001	-3.8157095806e-001
 1.7212652789e+000	 9.6503264152e-001	-4.7340922010e-001
 1.8209797032e+000	 7.7745206719e-001	 2.4640247940e-001
 1.8125906500e+000	 7.9681493074e-001	 1.8425305567e-001
 1.8039782687e+000	 8.1612583862e-001	 1.2094052757e-001
 1.7951427600e+000	 8.3538105549e-001	 5.6238189206e-002
 1.7860844054e+000	 8.5457683663e-001	-1.0019326245e-002
 1.7768035678e+000	 8.7370942999e-001	-7.7933966481e-002
 1.7673006923e+000	 8.9277507843e-001	-1.4754312749e-001
 1.7575763064e+000	 9.1177002187e-001	-2.1881951125e-001
 1.7476310207e+000	 9.3069049950e-001	-2.9167200895e-001
 1.7374655290e+000	 9.4953275204e-001	-3.6594763650e-001
 1.7270806088e+000	 9.6829302403e-001	-4.4143454070e-001
 1.8271111452e+000	 7.8006983511e-001	-1.7998223356e-002
 1.8186938451e+000	 7.9949789558e-001	-3.7253752968e-002
 1.8100524650e+000	 8.1887382544e-001	-6.0796957510e-002
 1.8011872061e+000	 8.3819387678e-001	-8.8706448849e-002
 1.7920983510e+000	 8.5745429226e-001	-1.2099973329e-001
 1.7827862638e+000	 8.7665130720e-001	-1.5763131989e-001
 1.7732513910e+000	 8.9578115181e-001	-1.9849179869e-001
 1.7634942620e+000	 9.1484005334e-001	-2.4340793244e-001
 1.7535154895e+000	 9.3382423832e-001	-2.9214379697e-001
 1.7433157695e+000	 9.5272993484e-001	-3.4440299760e-001
 1.7328958820e+000	 9.7155337476e-001	-3.9983197958e-001
 1.8332425166e+000	 7.8268757292e-001	-3.3193204805e-001
 1.8247969700e+000	 8.0218082957e-001	-2.9992784119e-001
 1.8161265914e+000	 8.2162178066e-001	-2.7597121965e-001
 1.8072315827e+000	 8.4100666572e-001	-2.5995938734e-001
 1.7981122275e+000	 8.6033171479e-001	-2.5172900634e-001
 1.7887688910e+000	 8.7959315057e-001	-2.5105455250e-001
 1.7792020213e+000	 8.9878719061e-001	-2.5764766403e-001
 1.7694121497e+000	 9.1791004950e-001	-2.7115752672e-001
 1.7593998906e+000	 9.3695794112e-001	-2.9117233157e-001
 1.7491659426e+000	 9.5592708087e-001	-3.1722183185e-001
 1.7387110884e+000	 9.7481368799e-001	-3.4878101769e-001
 1.8393738069e+000	 7.8530527604e-001	-6.9691577858e-001
 1.8309000140e+000	 8.0486372800e-001	-6.0512545425e-001
 1.8222006373e+000	 8.2436969947e-001	-5.2578306627e-001
 1.8132758792e+000	 8.4381941740e-001	-4.5857140566e-001
 1.8041260242e+000	 8.6320909920e-001	-4.0311361077e-001
 1.7947514389e+000	 8.8253495497e-001	-3.5897182888e-001
 1.7851525728e+000	 9.0179318959e-001	-3.2564689415e-001
 1.7753299588e+000	 9.2098000499e-001	-3.0257906574e-001
 1.7652842137e+000	 9.4009160239e-001	-2.8914986210e-001
 1.7550160383e+000	 9.5912418454e-001	-2.8468501834e-001
 1.7445262177e+000	 9.7807395803e-001	-2.8845858450e-001
 1.6863726785e+000	 9.4546999843e-001	-4.5268908160e-001
 1.6760175500e+000	 9.6370710370e-001	-5.6771619197e-001
 1.6654498664e+000	 9.8185682113e-001	-6.7857315890e-001
 1.6546706341e+000	 9.9991550773e-001	-7.8470179911e-001
 1.6436809417e+000	 1.0178795332e+000	-8.8552627599e-001
 1.6324819595e+000	 1.0357452825e+000	-9.8046121088e-001
 1.6210749397e+000	 1.0535091574e+000	-1.0689198988e+000
 1.6094612156e+000	 1.0711675798e+000	-1.1503237937e+000
 1.5976422021e+000	 1.0887169930e+000	-1.2241125655e+000
 1.5856193943e+000	 1.1061538646e+000	-1.2897547972e+000
 1.5733943679e+000	 1.1234746888e+000	-1.3467592574e+000
 1.6921881349e+000	 9.4873045184e-001	-4.8239883261e-001
 1.6817972968e+000	 9.6703044778e-001	-6.0064209273e-001
 1.6711931705e+000	 9.8524275451e-001	-7.1438651945e-001
 1.6603767660e+000	 1.0033637165e+000	-8.2305387954e-001
 1.6493491756e+000	 1.0213896910e+000	-9.2604708216e-001
 1.6381115738e+000	 1.0393170502e+000	-1.0227585729e+000
 1.6266652168e+000	 1.0571421839e+000	-1.1125785882e+000
 1.6150114429e+000	 1.0748615013e+000	-1.1949049865e+000
 1.6031516714e+000	 1.0924714337e+000	-1.2691535190e+000
 1.5910874030e+000	 1.1099684364e+000	-1.3347687921e+000
 1.5788202185e+000	 1.1273489914e+000	-1.3912358246e+000
 1.6980035957e+000	 9.5199090771e-001	-5.0134793116e-001
 1.6875770479e+000	 9.7035379435e-001	-6.2007024268e-001
 1.6769364789e+000	 9.8862869044e-001	-7.3427405283e-001
 1.6660829022e+000	 1.0068119278e+000	-8.4335920620e-001
 1.6550174138e+000	 1.0248998513e+000	-9.4670561793e-001
 1.6437411922e+000	 1.0428888206e+000	-1.0436819440e+000
 1.6322554981e+000	 1.0607752131e+000	-1.1336538916e+000
 1.6205616742e+000	 1.0785554256e+000	-1.2159943890e+000
 1.6086611449e+000	 1.0962258772e+000	-1.2900940751e+000
 1.5965554158e+000	 1.1137830110e+000	-1.3553725313e+000
 1.5842460733e+000	 1.1312232969e+000	-1.4112901237e+000
 1.7038190506e+000	 9.5525136031e-001	-5.0973203851e-001
 1.6933567932e+000	 9.7367713760e-001	-6.2608734839e-001
 1.6826797815e+000	 9.9201462297e-001	-7.3821526286e-001
 1.6717890327e+000	 1.0102601357e+000	-8.4549181180e-001
 1.6606856464e+000	 1.0284100081e+000	-9.4727215292e-001
 1.6493708051e+000	 1.0464605875e+000	-1.0428995122e+000
 1.6378457739e+000	 1.0644082387e+000	-1.1317135670e+000
 1.6261119001e+000	 1.0822493462e+000	-1.2130609480e+000
 1.6141706129e+000	 1.0999803169e+000	-1.2863059526e+000
 1.6020234231e+000	 1.1175975818e+000	-1.3508420490e+000
 1.5896719226e+000	 1.1350975986e+000	-1.4061040076e+000
 1.7096344896e+000	 9.5851180395e-001	-5.0774401117e-001
 1.6991365226e+000	 9.7700047172e-001	-6.1877875575e-001
 1.6884230684e+000	 9.9540054620e-001	-7.2618971856e-001
 1.6774951475e+000	 1.0137083342e+000	-8.2932708951e-001
 1.6663538633e+000	 1.0319201553e+000	-9.2751981983e-001
 1.6550004025e+000	 1.0500323445e+000	-1.0200837012e+000
 1.6434360343e+000	 1.0680412542e+000	-1.1063309633e+000
 1.6316621106e+000	 1.0859432567e+000	-1.1855805390e+000
 1.6196800657e+000	 1.1037347464e+000	-1.2571691199e+000
 1.6074914154e+000	 1.1214121421e+000	-1.3204629344e+000
 1.5950977570e+000	 1.1389718896e+000	-1.3748701723e+000
 1.7154499024e+000	 9.6177223292e-001	-4.9557394527e-001
 1.7049162260e+000	 9.8032379087e-001	-5.9822846980e-001
 1.6941663294e+000	 9.9878645419e-001	-6.9817704986e-001
 1.6832012366e+000	 1.0171565171e+000	-7.9474219216e-001
 1.6720220547e+000	 1.0354302867e+000	-8.8722456312e-001
 1.6606299745e+000	 1.0536040855e+000	-9.7491109571e-001
 1.6490262695e+000	 1.0716742535e+000	-1.0570849230e+000
 1.6372122962e+000	 1.0896371506e+000	-1.1330358474e+000
 1.6251894937e+000	 1.1074891589e+000	-1.2020716545e+000
 1.6129593831e+000	 1.1252266853e+000	-1.2635301690e+000
 1.6005235670e+000	 1.1428461631e+000	-1.3167919738e+000
 1.7212652789e+000	 9.6503264152e-001	-4.7340922010e-001
 1.7106958933e+000	 9.8364708926e-001	-5.6451917424e-001
 1.6999095545e+000	 1.0021723410e+000	-6.5415694344e-001
 1.6889072900e+000	 1.0206046784e+000	-7.4161540096e-001
 1.6776902108e+000	 1.0389403961e+000	-8.2616508881e-001
 1.6662595114e+000	 1.0571758041e+000	-9.0706236931e-001
 1.6546164698e+000	 1.0753072300e+000	-9.8355968781e-001
 1.6427624471e+000	 1.0933310213e+000	-1.0549162517e+000
 1.6306988873e+000	 1.1112435480e+000	-1.1204096058e+000
 1.6184273166e+000	 1.1290412046e+000	-1.1793479683e+000
 1.6059493431e+000	 1.1467204125e+000	-1.2310832491e+000
 1.7270806088e+000	 9.6829302403e-001	-4.4143454070e-001
 1.7164755143e+000	 9.8697036107e-001	-5.1773225047e-001
 1.7056527337e+000	 1.0055582008e+000	-5.9410913862e-001
 1.6946132978e+000	 1.0240528122e+000	-6.6982647506e-001
 1.6833583214e+000	 1.0424504775e+000	-7.4412281520e-001
 1.6718890032e+000	 1.0607474942e+000	-8.1622221287e-001
 1.6602066254e+000	 1.0789401774e+000	-8.8534480577e-001
 1.6483125537e+000	 1.0970248625e+000	-9.5071770988e-001
 1.6362082369e+000	 1.1149979071e+000	-1.0115868593e+000
 1.6238952064e+000	 1.1328556934e+000	-1.0672296260e+000
 1.6113750758e+000	 1.1505946308e+000	-1.1169681400e+000
 1.7328958820e+000	 9.7155337476e-001	-3.9983197958e-001
 1.7222550790e+000	 9.9029360047e-001	-4.5794779622e-001
 1.7113958569e+000	 1.0089440275e+000	-5.1801342335e-001
 1.7003192500e+000	 1.0275009124e+000	-5.7925653803e-001
 1.6890263769e+000	 1.0459605247e+000	-6.4088182460e-001
 1.6775184401e+000	 1.0643191494e+000	-7.0207926483e-001
 1.6657967264e+000	 1.0825730895e+000	-7.6203504014e-001
 1.6538626061e+000	 1.1007186677e+000	-8.1994264709e-001
 1.6417175327e+000	 1.1187522295e+000	-8.7501500474e-001
 1.6293630428e+000	 1.1366701450e+000	-9.2649736174e-001
 1.6168007556e+000	 1.1544688114e+000	-9.7368092119e-001
 1.7387110884e+000	 9.7481368799e-001	-3.4878101769e-001
 1.7280345773e+000	 9.9361680166e-001	-3.8524464388e-001
 1.7171389141e+000	 1.0123298153e+000	-4.2584948673e-001
 1.7060251366e+000	 1.0309489729e+000	-4.6978805205e-001
 1.6946943671e+000	 1.0494705315e+000	-5.1622881601e-001
 1.6831478123e+000	 1.0678907636e+000	-5.6432604269e-001
 1.6713867632e+000	 1.0862059598e+000	-6.1323028025e-001
 1.6594125946e+000	 1.1044124304e+000	-6.6209984632e-001
 1.6472267651e+000	 1.1225065088e+000	-7.1011320644e-001
 1.6348308164e+000	 1.1404845527e+000	-7.5648217154e-001
 1.6222263730e+000	 1.1583429474e+000	-8.0046583112e-001
 1.7445262177e+000	 9.7807395803e-001	-2.8845858450e-001
 1.7338139989e+000	 9.9693995882e-001	-2.9970037836e-001
 1.7228818951e+000	 1.0157155582e+000	-3.1759746761e-001
 1.7117309475e+000	 1.0343969877e+000	-3.4130479252e-001
 1.7003622822e+000	 1.0529804917e+000	-3.6995305868e-001
 1.6887771100e+000	 1.0714623305e+000	-4.0265887593e-001
 1.6769767259e+000	 1.0898387819e+000	-4.3853545392e-001
 1.6649625097e+000	 1.1081061442e+000	-4.7670434076e-001
 1.6527359246e+000	 1.1262607383e+000	-5.1630807585e-001
 1.6402985176e+000	 1.1442989099e+000	-5.5652368129e-001
 1.6276519185e+000	 1.1622170321e+000	-5.9657690680e-001
 1.5733943679e+000	 1.1234746888e+000	-1.3467592574e+000
 1.5609687775e+000	 1.1406759876e+000	-1.3963366916e+000
 1.5483443554e+000	 1.1577543128e+000	-1.4401301695e+000
 1.5355229115e+000	 1.1747062487e+000	-1.4783565928e+000
 1.5225063333e+000	 1.1915284148e+000	-1.5112721054e+000
 1.5092965853e+000	 1.2082174680e+000	-1.5391838277e+000
 1.4958957075e+000	 1.2247701052e+000	-1.5624616984e+000
 1.4823058150e+000	 1.2411830646e+000	-1.5815503163e+000
 1.4685290965e+000	 1.2574531287e+000	-1.5969806729e+000
 1.4545678133e+000	 1.2735771255e+000	-1.6093816638e+000
 1.4404242982e+000	 1.2895519313e+000	-1.6194912663e+000
 1.5788202185e+000	 1.1273489914e+000	-1.3912358246e+000
 1.5663517786e+000	 1.1446096089e+000	-1.4395866663e+000
 1.5536838211e+000	 1.1617468288e+000	-1.4813984242e+000
 1.5408181624e+000	 1.1787572234e+000	-1.5170304508e+000
 1.5277566966e+000	 1.1956374007e+000	-1.5468770113e+000
 1.5145013947e+000	 1.2123840061e+000	-1.5713790297e+000
 1.5010543041e+000	 1.2289937251e+000	-1.5910359563e+000
 1.4874175468e+000	 1.2454632846e+000	-1.6064176498e+000
 1.4735933193e+000	 1.2617894559e+000	-1.6181761606e+000
 1.4595838906e+000	 1.2779690564e+000	-1.6270573023e+000
 1.4453916016e+000	 1.2939989513e+000	-1.6339118969e+000
 1.5842460733e+000	 1.1312232969e+000	-1.4112901237e+000
 1.5717347836e+000	 1.1485432332e+000	-1.4586744987e+000
 1.5590232908e+000	 1.1657393477e+000	-1.4989772541e+000
 1.5461134174e+000	 1.1828082011e+000	-1.5326505400e+000
 1.5330070638e+000	 1.1997463896e+000	-1.5601797002e+000
 1.5197062081e+000	 1.2165505474e+000	-1.5820951319e+000
 1.5062129045e+000	 1.2332173481e+000	-1.5989842796e+000
 1.4925292824e+000	 1.2497435078e+000	-1.6115036501e+000
 1.4786575459e+000	 1.2661257865e+000	-1.6203907361e+000
 1.4645999717e+000	 1.2823609905e+000	-1.6264757331e+000
 1.4503589087e+000	 1.2984459746e+000	-1.6306929309e+000
 1.5896719226e+000	 1.1350975986e+000	-1.4061040076e+000
 1.5771177833e+000	 1.1524768535e+000	-1.4526980874e+000
 1.5643627552e+000	 1.1697318626e+000	-1.4918999157e+000
 1.5514086670e+000	 1.1868591747e+000	-1.5242052703e+000
 1.5382574258e+000	 1.2038553745e+000	-1.5501439944e+000
 1.5249110163e+000	 1.2207170844e+000	-1.5702920742e+000
 1.5113714997e+000	 1.2374409669e+000	-1.5852838557e+000
 1.4976410130e+000	 1.2540237267e+000	-1.5958242873e+000
 1.4837217674e+000	 1.2704621127e+000	-1.6027010734e+000
 1.4696160477e+000	 1.2867529203e+000	-1.6067966192e+000
 1.4553262108e+000	 1.3028929935e+000	-1.6090996487e+000
 1.5950977570e+000	 1.1389718896e+000	-1.3748701723e+000
 1.5825007682e+000	 1.1564104630e+000	-1.4207673273e+000
 1.5697022049e+000	 1.1737243665e+000	-1.4592125558e+000
 1.5567039021e+000	 1.1909101372e+000	-1.4906965683e+000
 1.5435077733e+000	 1.2079643481e+000	-1.5157475861e+000
 1.5301158102e+000	 1.2248836100e+000	-1.5349437381e+000
 1.5165300808e+000	 1.2416645741e+000	-1.5489255981e+000
 1.5027527294e+000	 1.2583039338e+000	-1.5584087495e+000
 1.4887859750e+000	 1.2747984270e+000	-1.5641962560e+000
 1.4746321100e+000	 1.2911448381e+000	-1.5671909196e+000
 1.4602934993e+000	 1.3073400002e+000	-1.5684072026e+000
 1.6005235670e+000	 1.1428461631e+000	-1.3167919738e+000
 1.5878837289e+000	 1.1603440548e+000	-1.3620039084e+000
 1.5750416306e+000	 1.1777168525e+000	-1.3999739955e+000
 1.5619991133e+000	 1.1949610815e+000	-1.4311396524e+000
 1.5487580973e+000	 1.2120733032e+000	-1.4559818072e+000
 1.5353205806e+000	 1.2290501169e+000	-1.4750377164e+000
 1.5216886387e+000	 1.2458881624e+000	-1.4889139214e+000
 1.5078644229e+000	 1.2625841217e+000	-1.4982992262e+000
 1.4938501598e+000	 1.2791347217e+000	-1.5039775753e+000
 1.4796481497e+000	 1.2955367360e+000	-1.5068407076e+000
 1.4652607655e+000	 1.3117869869e+000	-1.5079004608e+000
 1.6059493431e+000	 1.1467204125e+000	-1.2310832491e+000
 1.5932666559e+000	 1.1642776220e+000	-1.2755411174e+000
 1.5803810229e+000	 1.1817093135e+000	-1.3132555186e+000
 1.5672942915e+000	 1.1990120005e+000	-1.3445628114e+000
 1.5540083884e+000	 1.2161822326e+000	-1.3698514029e+000
 1.5405253185e+000	 1.2332165977e+000	-1.3895750875e+000
 1.5268471643e+000	 1.2501117242e+000	-1.4042665193e+000
 1.5129760844e+000	 1.2668642828e+000	-1.4145506965e+000
 1.4989143130e+000	 1.2834709894e+000	-1.4211583334e+000
 1.4846641580e+000	 1.2999286065e+000	-1.4249389936e+000
 1.4702280006e+000	 1.3162339457e+000	-1.4268738545e+000
 1.6113750758e+000	 1.1505946308e+000	-1.1169681400e+000
 1.5986495399e+000	 1.1682111578e+000	-1.1605236448e+000
 1.5857203725e+000	 1.1857017425e+000	-1.1981406643e+000
 1.5725894273e+000	 1.2030628870e+000	-1.2300071881e+000
 1.5592586375e+000	 1.2202911291e+000	-1.2563743107e+000
 1.5457300148e+000	 1.2373830452e+000	-1.2775701933e+000
 1.5320056486e+000	 1.2543352522e+000	-1.2940141483e+000
 1.5180877051e+000	 1.2711444097e+000	-1.3062307221e+000
 1.5039784256e+000	 1.2878072224e+000	-1.3148636501e+000
 1.4896801262e+000	 1.3043204419e+000	-1.3206895504e+000
 1.4751951959e+000	 1.3206808690e+000	-1.3246312278e+000
 1.6168007556e+000	 1.1544688114e+000	-9.7368092119e-001
 1.6040323714e+000	 1.1721446552e+000	-1.0161073945e+000
 1.5910596700e+000	 1.1896941327e+000	-1.0537250242e+000
 1.5778845115e+000	 1.2071137341e+000	-1.0865265671e+000
 1.5645088354e+000	 1.2243999856e+000	-1.1145814438e+000
 1.5509346603e+000	 1.2415494521e+000	-1.1380504231e+000
 1.5371640827e+000	 1.2585587390e+000	-1.1572004149e+000
 1.5231992759e+000	 1.2754244948e+000	-1.1724192438e+000
 1.5090424889e+000	 1.2921434131e+000	-1.1842302731e+000
 1.4946960455e+000	 1.3087122344e+000	-1.1933067435e+000
 1.4801623429e+000	 1.3251277490e+000	-1.2004856912e+000
 1.6222263730e+000	 1.1583429474e+000	-8.0046583112e-001
 1.6094151410e+000	 1.1760781073e+000	-8.4145929806e-001
 1.5963989062e+000	 1.1936864769e+000	-8.7911604305e-001
 1.5831795348e+000	 1.2111645345e+000	-9.1318716690e-001
 1.5697589730e+000	 1.2285087948e+000	-9.4351647834e-001
 1.5561392460e+000	 1.2457158110e+000	-9.7005600041e-001
 1.5423224575e+000	 1.2627821773e+000	-9.9288156761e-001
 1.5283107879e+000	 1.2797045308e+000	-1.0122083821e+000
 1.5141064939e+000	 1.2964795539e+000	-1.0284063933e+000
 1.4997119072e+000	 1.3131039765e+000	-1.0420153634e+000
 1.4851294327e+000	 1.3295745778e+000	-1.0537594780e+000
 1.6276519185e+000	 1.1622170321e+000	-5.9657690680e-001
 1.6147978392e+000	 1.1800115074e+000	-6.3575713235e-001
 1.6017380716e+000	 1.1976787683e+000	-6.7343282344e-001
 1.5884744879e+000	 1.2152152813e+000	-7.0906743588e-001
 1.5750090410e+000	 1.2326175496e+000	-7.4223564517e-001
 1.5613437628e+000	 1.2498821148e+000	-7.7263977476e-001
 1.5474807639e+000	 1.2670055596e+000	-8.0012629293e-001
 1.5334222322e+000	 1.2839845100e+000	-8.2470224228e-001
 1.5191704319e+000	 1.3008156373e+000	-8.4655146229e-001
 1.5047277023e+000	 1.3174956603e+000	-8.6605046262e-001
 1.4900964567e+000	 1.3340213476e+000	-8.8378086287e-001
 1.4404242982e+000	 1.2895519313e+000	-1.6194912663e+000
 1.4261031160e+000	 1.3053721108e+000	-1.6266605105e+000
 1.4116046303e+000	 1.3210370519e+000	-1.6311822265e+000
 1.3969313804e+000	 1.3365437893e+000	-1.6353228558e+000
 1.3820859710e+000	 1.3518894131e+000	-1.6377980817e+000
 1.3670710713e+000	 1.3670710713e+000	-1.6385416405e+000
 1.3518894131e+000	 1.3820859710e+000	-1.6390306227e+000
 1.3365437893e+000	 1.3969313804e+000	-1.6407233398e+000
 1.3210370519e+000	 1.4116046303e+000	-1.6435915218e+000
 1.3053721108e+000	 1.4261031160e+000	-1.6463873314e+000
 1.2895519313e+000	 1.4404242982e+000	-1.6511581734e+000
 1.4453916016e+000	 1.2939989513e+000	-1.6339118969e+000
 1.4310210328e+000	 1.3098736867e+000	-1.6383848445e+000
 1.4164725491e+000	 1.3255926484e+000	-1.6409387110e+000
 1.4017486984e+000	 1.3411528607e+000	-1.6432133267e+000
 1.3868520946e+000	 1.3565514039e+000	-1.6433325235e+000
 1.3717854161e+000	 1.3717854161e+000	-1.6420905716e+000
 1.3565514039e+000	 1.3868520946e+000	-1.6408582067e+000
 1.3411528607e+000	 1.4017486984e+000	-1.6409852930e+000
 1.3255926484e+000	 1.4164725491e+000	-1.6432286918e+000
 1.3098736867e+000	 1.4310210328e+000	-1.6457180207e+000
 1.2939989513e+000	 1.4453916016e+000	-1.6498886057e+000
 1.4503589087e+000	 1.2984459746e+000	-1.6306929309e+000
 1.4359389532e+000	 1.3143752660e+000	-1.6329694507e+000
 1.4213404715e+000	 1.3301482482e+000	-1.6339381882e+000
 1.4065660201e+000	 1.3457619356e+000	-1.6341961813e+000
 1.3916182219e+000	 1.3612133982e+000	-1.6321449580e+000
 1.3764997644e+000	 1.3764997644e+000	-1.6289667495e+000
 1.3612133982e+000	 1.3916182219e+000	-1.6259204755e+000
 1.3457619356e+000	 1.4065660201e+000	-1.6242430765e+000
 1.3301482482e+000	 1.4213404715e+000	-1.6250531271e+000
 1.3143752660e+000	 1.4359389532e+000	-1.6266903242e+000
 1.2984459746e+000	 1.4503589087e+000	-1.6295613342e+000
 1.4553262108e+000	 1.3028929935e+000	-1.6090996487e+000
 1.4408568688e+000	 1.3188768408e+000	-1.6097996590e+000
 1.4262083890e+000	 1.3347038436e+000	-1.6096738849e+000
 1.4113833370e+000	 1.3503710059e+000	-1.6079623961e+000
 1.3963843443e+000	 1.3658753879e+000	-1.6040672106e+000
 1.3812141080e+000	 1.3812141080e+000	-1.5991495427e+000
 1.3658753879e+000	 1.3963843443e+000	-1.5943511681e+000
 1.3503710059e+000	 1.4113833370e+000	-1.5907917537e+000
 1.3347038436e+000	 1.4262083890e+000	-1.5895662144e+000
 1.3188768408e+000	 1.4408568688e+000	-1.5899606377e+000
 1.3028929935e+000	 1.4553262108e+000	-1.5910133503e+000
 1.4602934993e+000	 1.3073400002e+000	-1.5684072026e+000
 1.4457747708e+000	 1.3233784032e+000	-1.5682690486e+000
 1.4310762932e+000	 1.3392594264e+000	-1.5674014955e+000
 1.4162006406e+000	 1.3549800635e+000	-1.5642070237e+000
 1.4011504537e+000	 1.3705373647e+000	-1.5589332763e+000
 1.3859284386e+000	 1.3859284386e+000	-1.5526184905e+000
 1.3705373647e+000	 1.4011504537e+000	-1.5462821012e+000
 1.3549800635e+000	 1.4162006406e+000	-1.5409222771e+000
 1.3392594264e+000	 1.4310762932e+000	-1.5375134818e+000
 1.3233784032e+000	 1.4457747708e+000	-1.5361774928e+000
 1.3073400002e+000	 1.4602934993e+000	-1.5350712999e+000
 1.4652607655e+000	 1.3117869869e+000	-1.5079004608e+000
 1.4506926507e+000	 1.3278799453e+000	-1.5077793193e+000
 1.4359441755e+000	 1.3438149886e+000	-1.5065935692e+000
 1.4210179225e+000	 1.3595891004e+000	-1.5026291175e+000
 1.4059165416e+000	 1.3751993206e+000	-1.4965792770e+000
 1.3906427480e+000	 1.3906427480e+000	-1.4893532942e+000
 1.3751993206e+000	 1.4059165416e+000	-1.4818431962e+000
 1.3595891004e+000	 1.4210179225e+000	-1.4749215520e+000
 1.3438149886e+000	 1.4359441755e+000	-1.4694392562e+000
 1.3278799453e+000	 1.4506926507e+000	-1.4659816616e+000
 1.3117869869e+000	 1.4652607655e+000	-1.4625516309e+000
 1.4702280006e+000	 1.3162339457e+000	-1.4268738545e+000
 1.4556104999e+000	 1.3323814593e+000	-1.4277401675e+000
 1.4408120273e+000	 1.3483705225e+000	-1.4268241490e+000
 1.4258351743e+000	 1.3641981084e+000	-1.4229316584e+000
 1.4106825998e+000	 1.3798612473e+000	-1.4168434193e+000
 1.3953570280e+000	 1.3953570280e+000	-1.4093338084e+000
 1.3798612473e+000	 1.4106825998e+000	-1.4011625053e+000
 1.3641981084e+000	 1.4258351743e+000	-1.3930724997e+000
 1.3483705225e+000	 1.4408120273e+000	-1.3857881142e+000
 1.3323814593e+000	 1.4556104999e+000	-1.3800062591e+000
 1.3162339457e+000	 1.4702280006e+000	-1.3742607375e+000
 1.4751951959e+000	 1.3206808690e+000	-1.3246312278e+000
 1.4605283097e+000	 1.3368829373e+000	-1.3274768141e+000
 1.4456798402e+000	 1.3529260198e+000	-1.3276728582e+000
 1.4306523876e+000	 1.3688070796e+000	-1.3248214819e+000
 1.4154486198e+000	 1.3845231368e+000	-1.3195659538e+000
 1.4000712702e+000	 1.4000712702e+000	-1.3125400325e+000
 1.3845231368e+000	 1.4154486198e+000	-1.3043662372e+000
 1.3688070796e+000	 1.4306523876e+000	-1.2956541178e+000
 1.3529260198e+000	 1.4456798402e+000	-1.2869985366e+000
 1.3368829373e+000	 1.4605283097e+000	-1.2789779671e+000
 1.3206808690e+000	 1.4751951959e+000	-1.2709951002e+000
 1.4801623429e+000	 1.3251277490e+000	-1.2004856912e+000
 1.4654460716e+000	 1.3413843714e+000	-1.2062429739e+000
 1.4505476056e+000	 1.3574814728e+000	-1.2087248009e+000
 1.4354695539e+000	 1.3734160059e+000	-1.2080092080e+000
 1.4202145933e+000	 1.3891849808e+000	-1.2045891342e+000
 1.4047854665e+000	 1.4047854665e+000	-1.1989521025e+000
 1.3891849808e+000	 1.4202145933e+000	-1.1915787819e+000
 1.3734160059e+000	 1.4354695539e+000	-1.1829415413e+000
 1.3574814728e+000	 1.4505476056e+000	-1.1735030052e+000
 1.3413843714e+000	 1.4654460716e+000	-1.1637146197e+000
 1.3251277490e+000	 1.4801623429e+000	-1.1535414234e+000
 1.4851294327e+000	 1.3295745778e+000	-1.0537594780e+000
 1.4703637770e+000	 1.3458857538e+000	-1.0635048373e+000
 1.4554153151e+000	 1.3620368734e+000	-1.0695704636e+000
 1.4402866649e+000	 1.3780248792e+000	-1.0722091714e+000
 1.4249805120e+000	 1.3938467711e+000	-1.0717571785e+000
 1.4094996086e+000	 1.4094996086e+000	-1.0685502828e+000
 1.3938467711e+000	 1.4249805120e+000	-1.0629227360e+000
 1.3780248792e+000	 1.4402866649e+000	-1.0552061007e+000
 1.3620368734e+000	 1.4554153151e+000	-1.0457280979e+000
 1.3458857538e+000	 1.4703637770e+000	-1.0348114538e+000
 1.3295745778e+000	 1.4851294327e+000	-1.0226767685e+000
 1.4900964567e+000	 1.3340213476e+000	-8.8378086287e-001
 1.4752814172e+000	 1.3503870765e+000	-8.9874179073e-001
 1.4602829600e+000	 1.3665922136e+000	-9.0980561950e-001
 1.4451037120e+000	 1.3826336914e+000	-9.1713935385e-001
 1.4297463676e+000	 1.3985084997e+000	-9.2091623021e-001
 1.4142136882e+000	 1.4142136882e+000	-9.2131495815e-001
 1.3985084997e+000	 1.4297463676e+000	-9.1851892639e-001
 1.3826336914e+000	 1.4451037120e+000	-9.1271538069e-001
 1.3665922136e+000	 1.4602829600e+000	-9.0409458106e-001
 1.3503870765e+000	 1.4752814172e+000	-8.9284894562e-001
 1.3340213476e+000	 1.4900964567e+000	-8.7917218883e-001
 1.2895519313e+000	 1.4404242982e+000	-1.6511581734e+000
 1.2735771255e+000	 1.4545678133e+000	-1.6565427989e+000
 1.2574531287e+000	 1.4685290965e+000	-1.6601484151e+000
 1.2411830646e+000	 1.4823058150e+000	-1.6624029724e+000
 1.2247701052e+000	 1.4958957075e+000	-1.6636741646e+000
 1.2082174680e+000	 1.5092965853e+000	-1.6642759095e+000
 1.1915284148e+000	 1.5225063333e+000	-1.6644753083e+000
 1.1747062487e+000	 1.5355229115e+000	-1.6644999929e+000
 1.1577543128e+000	 1.5483443554e+000	-1.6645457761e+000
 1.1406759876e+000	 1.5609687775e+000	-1.6647845128e+000
 1.1234746888e+000	 1.5733943679e+000	-1.6653720844e+000
 1.2939989513e+000	 1.4453916016e+000	-1.6498886057e+000
 1.2779690564e+000	 1.4595838906e+000	-1.6546916970e+000
 1.2617894559e+000	 1.4735933193e+000	-1.6581129422e+000
 1.2454632846e+000	 1.4874175468e+000	-1.6605948920e+000
 1.2289937251e+000	 1.5010543041e+000	-1.6625254256e+000
 1.2123840061e+000	 1.5145013947e+000	-1.6642443685e+000
 1.1956374007e+000	 1.5277566966e+000	-1.6660505841e+000
 1.1787572234e+000	 1.5408181624e+000	-1.6682094503e+000
 1.1617468288e+000	 1.5536838211e+000	-1.6709606310e+000
 1.1446096089e+000	 1.5663517786e+000	-1.6745260495e+000
 1.1273489914e+000	 1.5788202185e+000	-1.6791179752e+000
 1.2984459746e+000	 1.4503589087e+000	-1.6295613342e+000
 1.2823609905e+000	 1.4645999717e+000	-1.6329567413e+000
 1.2661257865e+000	 1.4786575459e+000	-1.6352721709e+000
 1.2497435078e+000	 1.4925292824e+000	-1.6369685508e+000
 1.2332173481e+000	 1.5062129045e+000	-1.6384541663e+000
 1.2165505474e+000	 1.5197062081e+000	-1.6400914395e+000
 1.1997463896e+000	 1.5330070638e+000	-1.6422041852e+000
 1.1828082011e+000	 1.5461134174e+000	-1.6450852539e+000
 1.1657393477e+000	 1.5590232908e+000	-1.6490044693e+000
 1.1485432332e+000	 1.5717347836e+000	-1.6542167643e+000
 1.1312232969e+000	 1.5842460733e+000	-1.6609704253e+000
 1.3028929935e+000	 1.4553262108e+000	-1.5910133503e+000
 1.2867529203e+000	 1.4696160477e+000	-1.5923468453e+000
 1.2704621127e+000	 1.4837217674e+000	-1.5927821358e+000
 1.2540237267e+000	 1.4976410130e+000	-1.5928023539e+000
 1.2374409669e+000	 1.5113714997e+000	-1.5928364849e+000
 1.2207170844e+000	 1.5249110163e+000	-1.5932663326e+000
 1.2038553745e+000	 1.5382574258e+000	-1.5944339725e+000
 1.1868591747e+000	 1.5514086670e+000	-1.5966495982e+000
 1.1697318626e+000	 1.5643627552e+000	-1.6001996684e+000
 1.1524768535e+000	 1.5771177833e+000	-1.6053552568e+000
 1.1350975986e+000	 1.5896719226e+000	-1.6123805093e+000
 1.3073400002e+000	 1.4602934993e+000	-1.5350712999e+000
 1.2911448381e+000	 1.4746321100e+000	-1.5338582152e+000
 1.2747984270e+000	 1.4887859750e+000	-1.5317841430e+000
 1.2583039338e+000	 1.5027527294e+000	-1.5293582947e+000
 1.2416645741e+000	 1.5165300808e+000	-1.5270307211e+000
 1.2248836100e+000	 1.5301158102e+000	-1.5251994886e+000
 1.2079643481e+000	 1.5435077733e+000	-1.5242183604e+000
 1.1909101372e+000	 1.5567039021e+000	-1.5244048846e+000
 1.1737243665e+000	 1.5697022049e+000	-1.5260487951e+000
 1.1564104630e+000	 1.5825007682e+000	-1.5294206236e+000
 1.1389718896e+000	 1.5950977570e+000	-1.5347804272e+000
 1.3117869869e+000	 1.4652607655e+000	-1.4625516309e+000
 1.2955367360e+000	 1.4796481497e+000	-1.4584745390e+000
 1.2791347217e+000	 1.4938501598e+000	-1.4534049931e+000
 1.2625841217e+000	 1.5078644229e+000	-1.4478822070e+000
 1.2458881624e+000	 1.5216886387e+000	-1.4423777327e+000
 1.2290501169e+000	 1.5353205806e+000	-1.4373028736e+000
 1.2120733032e+000	 1.5487580973e+000	-1.4330166237e+000
 1.1949610815e+000	 1.5619991133e+000	-1.4298340360e+000
 1.1777168525e+000	 1.5750416306e+000	-1.4280349203e+000
 1.1603440548e+000	 1.5878837289e+000	-1.4278727683e+000
 1.1428461631e+000	 1.6005235670e+000	-1.4295838056e+000
 1.3162339457e+000	 1.4702280006e+000	-1.3742607375e+000
 1.2999286065e+000	 1.4846641580e+000	-1.3671671704e+000
 1.2834709894e+000	 1.4989143130e+000	-1.3587572001e+000
 1.2668642828e+000	 1.5129760844e+000	-1.3496040123e+000
 1.2501117242e+000	 1.5268471643e+000	-1.3402011661e+000
 1.2332165977e+000	 1.5405253185e+000	-1.3309702671e+000
 1.2161822326e+000	 1.5540083884e+000	-1.3222691976e+000
 1.1990120005e+000	 1.5672942915e+000	-1.3144008027e+000
 1.1817093135e+000	 1.5803810229e+000	-1.3076219275e+000
 1.1642776220e+000	 1.5932666559e+000	-1.3021527058e+000
 1.1467204125e+000	 1.6059493431e+000	-1.2981859919e+000
 1.3206808690e+000	 1.4751951959e+000	-1.2709951002e+000
 1.3043204419e+000	 1.4896801262e+000	-1.2608953080e+000
 1.2878072224e+000	 1.5039784256e+000	-1.2489392040e+000
 1.2711444097e+000	 1.5180877051e+000	-1.2357379618e+000
 1.2543352522e+000	 1.5320056486e+000	-1.2218077202e+000
 1.2373830452e+000	 1.5457300148e+000	-1.2075775433e+000
 1.2202911291e+000	 1.5592586375e+000	-1.1933979717e+000
 1.2030628870e+000	 1.5725894273e+000	-1.1795500628e+000
 1.1857017425e+000	 1.5857203725e+000	-1.1662548135e+000
 1.1682111578e+000	 1.5986495399e+000	-1.1536828592e+000
 1.1505946308e+000	 1.6113750758e+000	-1.1419643425e+000
 1.3251277490e+000	 1.4801623429e+000	-1.1535414234e+000
 1.3087122344e+000	 1.4946960455e+000	-1.1406061713e+000
 1.2921434131e+000	 1.5090424889e+000	-1.1250355801e+000
 1.2754244948e+000	 1.5231992759e+000	-1.1074828716e+000
 1.2585587390e+000	 1.5371640827e+000	-1.0884874049e+000
 1.2415494521e+000	 1.5509346603e+000	-1.0684829469e+000
 1.2243999856e+000	 1.5645088354e+000	-1.0478065764e+000
 1.2071137341e+000	 1.5778845115e+000	-1.0267081163e+000
 1.1896941327e+000	 1.5910596700e+000	-1.0053599838e+000
 1.1721446552e+000	 1.6040323714e+000	-9.8386735120e-001
 1.1544688114e+000	 1.6168007556e+000	-9.6227850445e-001
 1.3295745778e+000	 1.4851294327e+000	-1.0226767685e+000
 1.3131039765e+000	 1.4997119072e+000	-1.0072351715e+000
 1.2964795539e+000	 1.5141064939e+000	-9.8811724174e-001
 1.2797045308e+000	 1.5283107879e+000	-9.6602235418e-001
 1.2627821773e+000	 1.5423224575e+000	-9.4151379391e-001
 1.2457158110e+000	 1.5561392460e+000	-9.1502736217e-001
 1.2285087948e+000	 1.5697589730e+000	-8.8688066439e-001
 1.2111645345e+000	 1.5831795348e+000	-8.5728297119e-001
 1.1936864769e+000	 1.5963989062e+000	-8.2634554054e-001
 1.1760781073e+000	 1.6094151410e+000	-7.9409228789e-001
 1.1583429474e+000	 1.6222263730e+000	-7.6047069071e-001
 1.3340213476e+000	 1.4900964567e+000	-8.7917218883e-001
 1.3174956603e+000	 1.5047277023e+000	-8.6170607872e-001
 1.3008156373e+000	 1.5191704319e+000	-8.3924163974e-001
 1.2839845100e+000	 1.5334222322e+000	-8.1252504365e-001
 1.2670055596e+000	 1.5474807639e+000	-7.8214427170e-001
 1.2498821148e+000	 1.5613437628e+000	-7.4853457648e-001
 1.2326175496e+000	 1.5750090410e+000	-7.1198818486e-001
 1.2152152813e+000	 1.5884744879e+000	-6.7266462539e-001
 1.1976787683e+000	 1.6017380716e+000	-6.3060156484e-001
 1.1800115074e+000	 1.6147978392e+000	-5.8572603751e-001
 1.1622170321e+000	 1.6276519185e+000	-5.3786595007e-001
 1.1234746888e+000	 1.5733943679e+000	-1.6653720844e+000
 1.1061538646e+000	 1.5856193943e+000	-1.6680758587e+000
 1.0887169930e+000	 1.5976422021e+000	-1.6743680575e+000
 1.0711675798e+000	 1.6094612156e+000	-1.6839249565e+000
 1.0535091574e+000	 1.6210749397e+000	-1.6963901937e+000
 1.0357452825e+000	 1.6324819595e+000	-1.7113833057e+000
 1.0178795332e+000	 1.6436809417e+000	-1.7285079633e+000
 9.9991550773e-001	 1.6546706341e+000	-1.7473630206e+000
 9.8185682113e-001	 1.6654498664e+000	-1.7675378911e+000
 9.6370710370e-001	 1.6760175500e+000	-1.7886365689e+000
 9.4546999843e-001	 1.6863726785e+000	-1.8102731371e+000
 1.1273489914e+000	 1.5788202185e+000	-1.6791179752e+000
 1.1099684364e+000	 1.5910874030e+000	-1.6863617921e+000
 1.0924714337e+000	 1.6031516714e+000	-1.6975456844e+000
 1.0748615013e+000	 1.6150114429e+000	-1.7123439368e+000
 1.0571421839e+000	 1.6266652168e+000	-1.7303982566e+000
 1.0393170502e+000	 1.6381115738e+000	-1.7513265337e+000
 1.0213896910e+000	 1.6493491756e+000	-1.7747312858e+000
 1.0033637165e+000	 1.6603767660e+000	-1.8002107286e+000
 9.8524275451e-001	 1.6711931705e+000	-1.8273550219e+000
 9.6703044778e-001	 1.6817972968e+000	-1.8557694698e+000
 9.4873045184e-001	 1.6921881349e+000	-1.8850708145e+000
 1.1312232969e+000	 1.5842460733e+000	-1.6609704253e+000
 1.1137830110e+000	 1.5965554158e+000	-1.6707089505e+000
 1.0962258772e+000	 1.6086611449e+000	-1.6845112400e+000
 1.0785554256e+000	 1.6205616742e+000	-1.7020483968e+000
 1.0607752131e+000	 1.6322554981e+000	-1.7229585380e+000
 1.0428888206e+000	 1.6437411922e+000	-1.7468557858e+000
 1.0248998513e+000	 1.6550174138e+000	-1.7733389343e+000
 1.0068119278e+000	 1.6660829022e+000	-1.8020025563e+000
 9.8862869044e-001	 1.6769364789e+000	-1.8324341031e+000
 9.7035379435e-001	 1.6875770479e+000	-1.8642363368e+000
 9.5199090771e-001	 1.6980035957e+000	-1.8970243940e+000
 1.1350975986e+000	 1.5896719226e+000	-1.6123805093e+000
 1.1175975818e+000	 1.6020234231e+000	-1.6225072773e+000
 1.0999803169e+000	 1.6141706129e+000	-1.6365899051e+000
 1.0822493462e+000	 1.6261119001e+000	-1.6542951049e+000
 1.0644082387e+000	 1.6378457739e+000	-1.6752557295e+000
 1.0464605875e+000	 1.6493708051e+000	-1.6990800029e+000
 1.0284100081e+000	 1.6606856464e+000	-1.7253604188e+000
 1.0102601357e+000	 1.6717890327e+000	-1.7536849020e+000
 9.9201462297e-001	 1.6826797815e+000	-1.7836347437e+000
 9.7367713760e-001	 1.6933567932e+000	-1.8148063198e+000
 9.5525136031e-001	 1.7038190506e+000	-1.8468089087e+000
 1.1389718896e+000	 1.5950977570e+000	-1.5347804272e+000
 1.1214121421e+000	 1.6074914154e+000	-1.5431286535e+000
 1.1037347464e+000	 1.6196800657e+000	-1.5550896573e+000
 1.0859432567e+000	 1.6316621106e+000	-1.5703245325e+000
 1.0680412542e+000	 1.6434360343e+000	-1.5884591786e+000
 1.0500323445e+000	 1.6550004025e+000	-1.6090937809e+000
 1.0319201553e+000	 1.6663538633e+000	-1.6318119501e+000
 1.0137083342e+000	 1.6774951475e+000	-1.6561894376e+000
 9.9540054620e-001	 1.6884230684e+000	-1.6818054816e+000
 9.7700047172e-001	 1.6991365226e+000	-1.7082386793e+000
 9.5851180395e-001	 1.7096344896e+000	-1.7350907290e+000
 1.1428461631e+000	 1.6005235670e+000	-1.4295838056e+000
 1.1252266853e+000	 1.6129593831e+000	-1.4339271860e+000
 1.1074891589e+000	 1.6251894937e+000	-1.4413015457e+000
 1.0896371506e+000	 1.6372122962e+000	-1.4513611139e+000
 1.0716742535e+000	 1.6490262695e+000	-1.4637231332e+000
 1.0536040855e+000	 1.6606299745e+000	-1.4779775994e+000
 1.0354302867e+000	 1.6720220547e+000	-1.4936966512e+000
 1.0171565171e+000	 1.6832012366e+000	-1.5104435264e+000
 9.9878645419e-001	 1.6941663294e+000	-1.5277839588e+000
 9.8032379087e-001	 1.7049162260e+000	-1.5452829425e+000
 9.6177223292e-001	 1.7154499024e+000	-1.5625276983e+000
 1.1467204125e+000	 1.6059493431e+000	-1.2981859919e+000
 1.1290412046e+000	 1.6184273166e+000	-1.2962394895e+000
 1.1112435480e+000	 1.6306988873e+000	-1.2964999593e+000
 1.0933310213e+000	 1.6427624471e+000	-1.2986135006e+000
 1.0753072300e+000	 1.6546164698e+000	-1.3021869811e+000
 1.0571758041e+000	 1.6662595114e+000	-1.3067980452e+000
 1.0389403961e+000	 1.6776902108e+000	-1.3120047644e+000
 1.0206046784e+000	 1.6889072900e+000	-1.3173548445e+000
 1.0021723410e+000	 1.6999095545e+000	-1.3223970925e+000
 9.8364708926e-001	 1.7106958933e+000	-1.3266790556e+000
 9.6503264152e-001	 1.7212652789e+000	-1.3297692650e+000
 1.1505946308e+000	 1.6113750758e+000	-1.1419643425e+000
 1.1328556934e+000	 1.6238952064e+000	-1.1313849618e+000
 1.1149979071e+000	 1.6362082369e+000	-1.1219428894e+000
 1.0970248625e+000	 1.6483125537e+000	-1.1132748103e+000
 1.0789401774e+000	 1.6602066254e+000	-1.1049754839e+000
 1.0607474942e+000	 1.6718890032e+000	-1.0966080308e+000
 1.0424504775e+000	 1.6833583214e+000	-1.0877138532e+000
 1.0240528122e+000	 1.6946132978e+000	-1.0778221042e+000
 1.0055582008e+000	 1.7056527337e+000	-1.0664612430e+000
 9.8697036107e-001	 1.7164755143e+000	-1.0531575320e+000
 9.6829302403e-001	 1.7270806088e+000	-1.0374566122e+000
 1.1544688114e+000	 1.6168007556e+000	-9.6227850445e-001
 1.1366701450e+000	 1.6293630428e+000	-9.4066605374e-001
 1.1187522295e+000	 1.6417175327e+000	-9.1887218640e-001
 1.1007186677e+000	 1.6538626061e+000	-8.9652286951e-001
 1.0825730895e+000	 1.6657967264e+000	-8.7319900604e-001
 1.0643191494e+000	 1.6775184401e+000	-8.4844700839e-001
 1.0459605247e+000	 1.6890263769e+000	-8.2178900051e-001
 1.0275009124e+000	 1.7003192500e+000	-7.9273255944e-001
 1.0089440275e+000	 1.7113958569e+000	-7.6078237677e-001
 9.9029360047e-001	 1.7222550790e+000	-7.2543959839e-001
 9.7155337476e-001	 1.7328958820e+000	-6.8622278370e-001
 1.1583429474e+000	 1.6222263730e+000	-7.6047069071e-001
 1.1404845527e+000	 1.6348308164e+000	-7.2536853299e-001
 1.1225065088e+000	 1.6472267651e+000	-6.8851381130e-001
 1.1044124304e+000	 1.6594125946e+000	-6.4952045219e-001
 1.0862059598e+000	 1.6713867632e+000	-6.0795373818e-001
 1.0678907636e+000	 1.6831478123e+000	-5.6334117841e-001
 1.0494705315e+000	 1.6946943671e+000	-5.1518300201e-001
 1.0309489729e+000	 1.7060251366e+000	-4.6296218304e-001
 1.0123298153e+000	 1.7171389141e+000	-4.0615391208e-001
 9.9361680166e-001	 1.7280345773e+000	-3.4423733623e-001
 9.7481368799e-001	 1.7387110884e+000	-2.7669280752e-001
 1.1622170321e+000	 1.6276519185e+000	-5.3786595007e-001
 1.1442989099e+000	 1.6402985176e+000	-4.8676174186e-001
 1.1262607383e+000	 1.6527359246e+000	-4.3207808121e-001
 1.1081061442e+000	 1.6649625097e+000	-3.7341551194e-001
 1.0898387819e+000	 1.6769767259e+000	-3.1032191667e-001
 1.0714623305e+000	 1.6887771100e+000	-2.4230369431e-001
 1.0529804917e+000	 1.7003622822e+000	-1.6883655506e-001
 1.0343969877e+000	 1.7117309475e+000	-8.9375839595e-002
 1.0157155582e+000	 1.7228818951e+000	-3.3662752948e-003
 9.9693995882e-001	 1.7338139989e+000	 8.9746179211e-002
 9.7807395803e-001	 1.7445262177e+000	 1.9051618360e-001
 9.4546999843e-001	 1.6863726785e+000	-1.8102731371e+000
 9.2715191300e-001	 1.6965128223e+000	-1.8318788730e+000
 9.0875377933e-001	 1.7064387096e+000	-1.8533498098e+000
 8.9027926438e-001	 1.7161495812e+000	-1.8750244428e+000
 8.7173203880e-001	 1.7256447597e+000	-1.8972752799e+000
 8.5311577476e-001	 1.7349236489e+000	-1.9205106460e+000
 8.3443414372e-001	 1.7439857337e+000	-1.9451757556e+000
 8.1569081426e-001	 1.7528305796e+000	-1.9717530538e+000
 7.9688944998e-001	 1.7614578321e+000	-2.0007618274e+000
 7.7803370737e-001	 1.7698672163e+000	-2.0327571021e+000
 7.5912723369e-001	 1.7780585364e+000	-2.0683278411e+000
 9.4873045184e-001	 1.6921881349e+000	-1.8850708145e+000
 9.3034919650e-001	 1.7023632470e+000	-1.9147304426e+000
 9.1188761686e-001	 1.7123233637e+000	-1.9447046077e+000
 8.9334939254e-001	 1.7220677232e+000	-1.9753641826e+000
 8.7473820686e-001	 1.7315956459e+000	-2.0071168564e+000
 8.5605774463e-001	 1.7409065334e+000	-2.0404089214e+000
 8.3731168998e-001	 1.7499998688e+000	-2.0757263065e+000
 8.1850372415e-001	 1.7588752161e+000	-2.1135948550e+000
 7.9963752336e-001	 1.7675322196e+000	-2.1545798507e+000
 7.8071675672e-001	 1.7759706036e+000	-2.1992848062e+000
 7.6174508406e-001	 1.7841901715e+000	-2.2483495319e+000
 9.5199090771e-001	 1.6980035957e+000	-1.8970243940e+000
 9.3354648240e-001	 1.7082136761e+000	-1.9303068409e+000
 9.1502145675e-001	 1.7182080222e+000	-1.9640818955e+000
 8.9641952301e-001	 1.7279858697e+000	-1.9987266503e+000
 8.7774437717e-001	 1.7375465365e+000	-2.0346571365e+000
 8.5899971670e-001	 1.7468894223e+000	-2.0723301493e+000
 8.4018923839e-001	 1.7560140083e+000	-2.1122442961e+000
 8.2131663614e-001	 1.7649198571e+000	-2.1549402656e+000
 8.0238559880e-001	 1.7736066118e+000	-2.2010003234e+000
 7.8339980808e-001	 1.7820739955e+000	-2.2510470465e+000
 7.6436293640e-001	 1.7903218112e+000	-2.3057413161e+000
 9.5525136031e-001	 1.7038190506e+000	-1.8468089087e+000
 9.3674376510e-001	 1.7140640993e+000	-1.8791834600e+000
 9.1815529350e-001	 1.7240926749e+000	-1.9119501513e+000
 8.9948965041e-001	 1.7339040103e+000	-1.9454663789e+000
 8.8075054447e-001	 1.7434974212e+000	-1.9801299267e+000
 8.6194168584e-001	 1.7528723052e+000	-2.0163808835e+000
 8.4306678394e-001	 1.7620281419e+000	-2.0547027605e+000
 8.2412954533e-001	 1.7709644921e+000	-2.0956228068e+000
 8.0513367150e-001	 1.7796809978e+000	-2.1397115279e+000
 7.8608285676e-001	 1.7881773813e+000	-2.1875814208e+000
 7.6698078611e-001	 1.7964534448e+000	-2.2398849443e+000
 9.5851180395e-001	 1.7096344896e+000	-1.7350907290e+000
 9.3994103901e-001	 1.7199145065e+000	-1.7619283251e+000
 9.2128912163e-001	 1.7299773113e+000	-1.7887718755e+000
 9.0255976937e-001	 1.7398221346e+000	-1.8159334026e+000
 8.8375670351e-001	 1.7494482896e+000	-1.8437660984e+000
 8.6488364688e-001	 1.7588551717e+000	-1.8726663876e+000
 8.4594432157e-001	 1.7680422589e+000	-1.9030751685e+000
 8.2694244678e-001	 1.7770091105e+000	-1.9354782285e+000
 8.0788173663e-001	 1.7857553672e+000	-1.9704058406e+000
 7.8876589806e-001	 1.7942807504e+000	-2.0084315514e+000
 7.6959862863e-001	 1.8025850615e+000	-2.0501701838e+000
 9.6177223292e-001	 1.7154499024e+000	-1.5625276983e+000
 9.4313829853e-001	 1.7257648873e+000	-1.5791022093e+000
 9.2442293567e-001	 1.7358619213e+000	-1.5950036819e+000
 9.0562987451e-001	 1.7457402323e+000	-1.6104733221e+000
 8.8676284903e-001	 1.7553991311e+000	-1.6257936269e+000
 8.6782559469e-001	 1.7648380113e+000	-1.6412906466e+000
 8.4882184625e-001	 1.7740563488e+000	-1.6573354034e+000
 8.2975533557e-001	 1.7830537016e+000	-1.6743444609e+000
 8.1062978941e-001	 1.7918297092e+000	-1.6927796516e+000
 7.9144892729e-001	 1.8003840919e+000	-1.7131469721e+000
 7.7221645937e-001	 1.8087166507e+000	-1.7359946707e+000
 9.6503264152e-001	 1.7212652789e+000	-1.3297692650e+000
 9.4633553808e-001	 1.7316152316e+000	-1.3312587442e+000
 9.2755673012e-001	 1.7417464946e+000	-1.3310963864e+000
 9.0869996047e-001	 1.7516582930e+000	-1.3294273697e+000
 8.8976897575e-001	 1.7613499355e+000	-1.3264376304e+000
 8.7076752411e-001	 1.7708208135e+000	-1.3223563783e+000
 8.5169935295e-001	 1.7800704012e+000	-1.3174577461e+000
 8.3256820678e-001	 1.7890982550e+000	-1.3120615671e+000
 8.1337782500e-001	 1.7979040132e+000	-1.3065332861e+000
 7.9413193975e-001	 1.8064873954e+000	-1.3012830167e+000
 7.7483427375e-001	 1.8148482015e+000	-1.2967637647e+000
 9.6829302403e-001	 1.7270806088e+000	-1.0374566122e+000
 9.4953275204e-001	 1.7374655290e+000	-1.0189445287e+000
 9.3069049950e-001	 1.7476310207e+000	-9.9749509300e-001
 9.1177002187e-001	 1.7575763064e+000	-9.7313247128e-001
 8.9277507843e-001	 1.7673006923e+000	-9.4592040706e-001
 8.7370942999e-001	 1.7768035678e+000	-9.1596504372e-001
 8.5457683663e-001	 1.7860844054e+000	-8.8341685740e-001
 8.3538105549e-001	 1.7951427600e+000	-8.4847169584e-001
 8.1612583862e-001	 1.8039782687e+000	-8.1137092696e-001
 7.9681493074e-001	 1.8125906500e+000	-7.7240070959e-001
 7.7745206719e-001	 1.8209797032e+000	-7.3189040705e-001
 9.7155337476e-001	 1.7328958820e+000	-6.8622278370e-001
 9.5272993484e-001	 1.7433157695e+000	-6.4269923540e-001
 9.3382423832e-001	 1.7535154895e+000	-5.9463927864e-001
 9.1484005334e-001	 1.7634942620e+000	-5.4192130743e-001
 8.9578115181e-001	 1.7732513910e+000	-4.8446147138e-001
 8.7665130720e-001	 1.7827862638e+000	-4.2221685757e-001
 8.5745429226e-001	 1.7920983510e+000	-3.5518776067e-001
 8.3819387678e-001	 1.8011872061e+000	-2.8341903587e-001
 8.1887382544e-001	 1.8100524650e+000	-2.0700053791e-001
 7.9949789558e-001	 1.8186938451e+000	-1.2606665817e-001
 7.8006983511e-001	 1.8271111452e+000	-4.0794980266e-002
 9.7481368799e-001	 1.7387110884e+000	-2.7669280752e-001
 9.5592708087e-001	 1.7491659426e+000	-2.0305571380e-001
 9.3695794112e-001	 1.7593998906e+000	-1.2296287492e-001
 9.1791004950e-001	 1.7694121497e+000	-3.6122373036e-002
 8.9878719061e-001	 1.7792020213e+000	 5.7722410832e-002
 8.7959315057e-001	 1.7887688910e+000	 1.5878920280e-001
 8.6033171479e-001	 1.7981122275e+000	 2.6725417594e-001
 8.4100666572e-001	 1.8072315827e+000	 3.8325023042e-001
 8.2162178066e-001	 1.8161265914e+000	 5.0686621137e-001
 8.0218082957e-001	 1.8247969700e+000	 6.3814705311e-001
 7.8268757292e-001	 1.8332425166e+000	 7.7709482948e-001
 9.7807395803e-001	 1.7445262177e+000	 1.9051618360e-001
 9.5912418454e-001	 1.7550160383e+000	 2.9945990846e-001
 9.4009160239e-001	 1.7652842137e+000	 4.1710565150e-001
 9.2098000499e-001	 1.7753299588e+000	 5.4393996512e-001
 9.0179318959e-001	 1.7851525728e+000	 6.8041718838e-001
 8.8253495497e-001	 1.7947514389e+000	 8.2695538827e-001
 8.6320909920e-001	 1.8041260242e+000	 9.8393325686e-001
 8.4381941740e-001	 1.8132758792e+000	 1.1516879720e+000
 8.2436969947e-001	 1.8222006373e+000	 1.3305140195e+000
 8.0486372800e-001	 1.8309000140e+000	 1.5206629668e+000
 7.8530527604e-001	 1.8393738069e+000	 1.7223441675e+000
 7.5912723369e-001	 1.7780585364e+000	-2.0683278411e+000
 7.4017081847e-001	 1.7860328549e+000	-2.1090587524e+000
 7.2117091941e-001	 1.7937888879e+000	-2.1542047568e+000
 7.0213114653e-001	 1.8013266735e+000	-2.2008934874e+000
 6.8305509263e-001	 1.8086463264e+000	-2.2462441842e+000
 6.6394633137e-001	 1.8157480358e+000	-2.2874186022e+000
 6.4480841541e-001	 1.8226320656e+000	-2.3250084080e+000
 6.2564487460e-001	 1.8292987526e+000	-2.3599635673e+000
 6.0645921420e-001	 1.8357485059e+000	-2.3917888036e+000
 5.8725491317e-001	 1.8419818054e+000	-2.4199779635e+000
 5.6803542248e-001	 1.8479992011e+000	-2.4439977567e+000
 7.6174508406e-001	 1.7841901715e+000	-2.2483495319e+000
 7.4272329764e-001	 1.7921919895e+000	-2.3031462891e+000
 7.2365787742e-001	 1.7999747691e+000	-2.3626672725e+000
 7.0455244589e-001	 1.8075385488e+000	-2.4240280697e+000
 6.8541060821e-001	 1.8148834435e+000	-2.4843418894e+000
 6.6623595039e-001	 1.8220096432e+000	-2.5407223850e+000
 6.4703203732e-001	 1.8289174125e+000	-2.5930335529e+000
 6.2780241104e-001	 1.8356070896e+000	-2.6425406732e+000
 6.0855058889e-001	 1.8420790848e+000	-2.6887766245e+000
 5.8928006182e-001	 1.8483338799e+000	-2.7312625175e+000
 5.6999429271e-001	 1.8543720266e+000	-2.7694912257e+000
 7.6436293640e-001	 1.7903218112e+000	-2.3057413161e+000
 7.4527577873e-001	 1.7983511286e+000	-2.3662425881e+000
 7.2614483730e-001	 1.8061606550e+000	-2.4313467542e+000
 7.0697374706e-001	 1.8137504288e+000	-2.4982235688e+000
 6.8776612556e-001	 1.8211205652e+000	-2.5640459369e+000
 6.6852557112e-001	 1.8282712552e+000	-2.6259911884e+000
 6.4925566090e-001	 1.8352027642e+000	-2.6832719771e+000
 6.2995994909e-001	 1.8419154313e+000	-2.7374524297e+000
 6.1064196514e-001	 1.8484096685e+000	-2.7881745663e+000
 5.9130521199e-001	 1.8546859592e+000	-2.8350477885e+000
 5.7195316441e-001	 1.8607448569e+000	-2.8776508008e+000
 7.6698078611e-001	 1.7964534448e+000	-2.2398849443e+000
 7.4782825726e-001	 1.8045102617e+000	-2.2975714137e+000
 7.2863179470e-001	 1.8123465346e+000	-2.3593092457e+000
 7.0939504581e-001	 1.8199623025e+000	-2.4223878685e+000
 6.9012164056e-001	 1.8273576808e+000	-2.4841049129e+000
 6.7081518957e-001	 1.8345328610e+000	-2.5417671122e+000
 6.5147928226e-001	 1.8414881095e+000	-2.5941329363e+000
 6.3211748499e-001	 1.8482237668e+000	-2.6429414381e+000
 6.1273333930e-001	 1.8547402459e+000	-2.6880552617e+000
 5.9333036014e-001	 1.8610380321e+000	-2.7292324656e+000
 5.7391203416e-001	 1.8671176808e+000	-2.7661965971e+000
 7.6959862863e-001	 1.8025850615e+000	-2.0501701838e+000
 7.5038072877e-001	 1.8106693777e+000	-2.0963665582e+000
 7.3111874526e-001	 1.8185323973e+000	-2.1456328183e+000
 7.1181633791e-001	 1.8261741591e+000	-2.1954428778e+000
 6.9247714907e-001	 1.8335947792e+000	-2.2432834347e+000
 6.7310480171e-001	 1.8407944495e+000	-2.2866543865e+000
 6.5370289750e-001	 1.8477734376e+000	-2.3240460029e+000
 6.3427501496e-001	 1.8545320848e+000	-2.3572725400e+000
 6.1482470772e-001	 1.8610708059e+000	-2.3865155688e+000
 5.9535550271e-001	 1.8673900875e+000	-2.4117415205e+000
 5.7587089851e-001	 1.8734904872e+000	-2.4328771507e+000
 7.7221645937e-001	 1.8087166507e+000	-1.7359946707e+000
 7.5293318880e-001	 1.8168284661e+000	-1.7618716599e+000
 7.3360568462e-001	 1.8247182321e+000	-1.7894073539e+000
 7.1423761911e-001	 1.8323859878e+000	-1.8163242788e+000
 6.9483264699e-001	 1.8398318495e+000	-1.8403618635e+000
 6.7539440356e-001	 1.8470560099e+000	-1.8592762602e+000
 6.5592650273e-001	 1.8540587374e+000	-1.8714607458e+000
 6.3643253522e-001	 1.8608403745e+000	-1.8787324564e+000
 6.1691606672e-001	 1.8674013374e+000	-1.8816761692e+000
 5.9738063617e-001	 1.8737421144e+000	-1.8805257637e+000
 5.7782975406e-001	 1.8798632649e+000	-1.8754689336e+000
 7.7483427375e-001	 1.8148482015e+000	-1.2967637647e+000
 7.5548563288e-001	 1.8229875159e+000	-1.2933400232e+000
 7.3609260845e-001	 1.8309040283e+000	-1.2897343310e+000
 7.1665888517e-001	 1.8385977777e+000	-1.2839812787e+000
 6.9718813019e-001	 1.8460688809e+000	-1.2741360220e+000
 6.7768399110e-001	 1.8533175312e+000	-1.2582733977e+000
 6.5815009407e-001	 1.8603439979e+000	-1.2348464152e+000
 6.3859004199e-001	 1.8671486248e+000	-1.2056294340e+000
 6.1900741265e-001	 1.8737318294e+000	-1.1716811753e+000
 5.9940575698e-001	 1.8800941016e+000	-1.1335614115e+000
 5.7978859736e-001	 1.8862360028e+000	-1.0917758772e+000
 7.7745206719e-001	 1.8209797032e+000	-7.3189040705e-001
 7.5803805654e-001	 1.8291465165e+000	-6.9003444308e-001
 7.3857951238e-001	 1.8370897750e+000	-6.4572661561e-001
 7.1908013187e-001	 1.8448095179e+000	-5.9737636697e-001
 6.9954359454e-001	 1.8523058623e+000	-5.4341691759e-001
 6.7997356032e-001	 1.8595790024e+000	-4.8230356823e-001
 6.6037366762e-001	 1.8666292081e+000	-4.1269163580e-001
 6.4074753150e-001	 1.8734568246e+000	-3.3629289980e-001
 6.2109874185e-001	 1.8800622707e+000	-2.5469774523e-001
 6.0143086158e-001	 1.8864460379e+000	-1.6884966084e-001
 5.8174742499e-001	 1.8926086897e+000	-7.9628907517e-002
 7.8006983511e-001	 1.8271111452e+000	-4.0794980266e-002
 7.6059045531e-001	 1.8353054571e+000	 4.8772967819e-002
 7.4106639206e-001	 1.8432754614e+000	 1.4349174428e-001
 7.2150135496e-001	 1.8510211975e+000	 2.4451492302e-001
 7.0189903593e-001	 1.8585427830e+000	 3.5296952933e-001
 6.8226310721e-001	 1.8658404125e+000	 4.6995865970e-001
 6.6259721949e-001	 1.8729143571e+000	 5.9649589514e-001
 6.4290499998e-001	 1.8797649629e+000	 7.3092687794e-001
 6.2319005065e-001	 1.8863926502e+000	 8.7108429402e-001
 6.0345594644e-001	 1.8927979124e+000	 1.0155837268e+000
 5.8370623352e-001	 1.8989813144e+000	 1.1631145121e+000
 7.8268757292e-001	 1.8332425166e+000	 7.7709482948e-001
 7.6314282474e-001	 1.8414643268e+000	 9.2380094917e-001
 7.4355324314e-001	 1.8494610766e+000	 1.0787857210e+000
 7.2392255020e-001	 1.8572328057e+000	 1.2427042485e+000
 7.0425445023e-001	 1.8647796319e+000	 1.4161827518e+000
 6.8455262778e-001	 1.8721017506e+000	 1.5998222178e+000
 6.6482074578e-001	 1.8791994338e+000	 1.7941897020e+000
 6.4506244364e-001	 1.8860730287e+000	 1.9976591210e+000
 6.2528133541e-001	 1.8927229570e+000	 2.2074528157e+000
 6.0548100801e-001	 1.8991497138e+000	 2.4216888330e+000
 5.8566501952e-001	 1.9053538659e+000	 2.6385708274e+000
 7.8530527604e-001	 1.8393738069e+000	 1.7223441675e+000
 7.6569516034e-001	 1.8476231149e+000	 1.9357592596e+000
 7.4604006127e-001	 1.8556466099e+000	 2.1610095051e+000
 7.2634371337e-001	 1.8634443316e+000	 2.3981906868e+000
 7.0660983332e-001	 1.8710163982e+000	 2.6473677983e+000
 6.8684211801e-001	 1.8783630058e+000	 2.9085798317e+000
 6.6704424262e-001	 1.8854844272e+000	 3.1818452164e+000
 6.4721985872e-001	 1.8923810108e+000	 3.4655128658e+000
 6.2737259245e-001	 1.8990531799e+000	 3.7561737546e+000
 6.0750604275e-001	 1.9055014310e+000	 4.0513919814e+000
 5.8762377956e-001	 1.9117263330e+000	 4.3488308314e+000
 5.6803542248e-001	 1.8479992011e+000	-2.4439977567e+000
 5.4880416318e-001	 1.8538013113e+000	-2.4665811583e+000
 5.2956452411e-001	 1.8593888196e+000	-2.4909551410e+000
 5.1031986113e-001	 1.8647624757e+000	-2.5172183062e+000
 4.9107349602e-001	 1.8699230941e+000	-2.5453580539e+000
 4.7182871500e-001	 1.8748715528e+000	-2.5752479153e+000
 4.5258876740e-001	 1.8796087921e+000	-2.6066473560e+000
 4.3335686430e-001	 1.8841358131e+000	-2.6392038809e+000
 4.1413617730e-001	 1.8884536763e+000	-2.6724572590e+000
 3.9492983731e-001	 1.8925635002e+000	-2.7058456786e+000
 3.7574093339e-001	 1.8964664596e+000	-2.7387136346e+000
 5.6999429271e-001	 1.8543720266e+000	-2.7694912257e+000
 5.5069671442e-001	 1.8601941453e+000	-2.8060099876e+000
 5.3139072744e-001	 1.8658009222e+000	-2.8438248180e+000
 5.1207969924e-001	 1.8711931094e+000	-2.8829837326e+000
 4.9276696304e-001	 1.8763715241e+000	-2.9233934875e+000
 4.7345581639e-001	 1.8813370476e+000	-2.9648177551e+000
 4.5414951983e-001	 1.8860906233e+000	-3.0068778591e+000
 4.3485129551e-001	 1.8906332557e+000	-3.0490558921e+000
 4.1556432597e-001	 1.8949660091e+000	-3.0907000268e+000
 3.9629175291e-001	 1.8990900057e+000	-3.1310318256e+000
 3.7703667605e-001	 1.9030064244e+000	-3.1691553410e+000
 5.7195316441e-001	 1.8607448569e+000	-2.8776508008e+000
 5.5258926707e-001	 1.8665869842e+000	-2.9182961102e+000
 5.3321693215e-001	 1.8722130296e+000	-2.9597137995e+000
 5.1383953867e-001	 1.8776237479e+000	-3.0019555091e+000
 4.9446043133e-001	 1.8828199590e+000	-3.0449075000e+000
 4.7508291900e-001	 1.8878025472e+000	-3.0882894549e+000
 4.5571027342e-001	 1.8925724593e+000	-3.1316559224e+000
 4.3634572783e-001	 1.8971307032e+000	-3.1744002209e+000
 4.1699247570e-001	 1.9014783467e+000	-3.2157606084e+000
 3.9765366953e-001	 1.9056165160e+000	-3.2548285136e+000
 3.7833241968e-001	 1.9095463942e+000	-3.2905586179e+000
 5.7391203416e-001	 1.8671176808e+000	-2.7661965971e+000
 5.5448181783e-001	 1.8729798167e+000	-2.8010067141e+000
 5.3504313503e-001	 1.8786251306e+000	-2.8360922324e+000
 5.1559937635e-001	 1.8840543799e+000	-2.8715618831e+000
 4.9615389792e-001	 1.8892683875e+000	-2.9073407916e+000
 4.7671001998e-001	 1.8942680404e+000	-2.9431696868e+000
 4.5727102546e-001	 1.8990542888e+000	-2.9786068327e+000
 4.3784015867e-001	 1.9036281442e+000	-3.0130324958e+000
 4.1842062401e-001	 1.9079906778e+000	-3.0456557449e+000
 3.9901558479e-001	 1.9121430199e+000	-3.0755233755e+000
 3.7962816202e-001	 1.9160863574e+000	-3.1015307398e+000
 5.7587089851e-001	 1.8734904872e+000	-2.4328771507e+000
 5.5637436339e-001	 1.8793726316e+000	-2.4517392176e+000
 5.3686933288e-001	 1.8850372140e+000	-2.4704615629e+000
 5.1735920918e-001	 1.8904849943e+000	-2.4892627409e+000
 4.9784735986e-001	 1.8957167982e+000	-2.5081653223e+000
 4.7833711649e-001	 1.9007335158e+000	-2.5269952957e+000
 4.5883177321e-001	 1.9055361006e+000	-2.5453842686e+000
 4.3933458539e-001	 1.9101255673e+000	-2.5627742736e+000
 4.1984876839e-001	 1.9145029911e+000	-2.5784249741e+000
 4.0037749630e-001	 1.9186695058e+000	-2.5914230532e+000
 3.8092390079e-001	 1.9226263026e+000	-2.6006935623e+000
 5.7782975406e-001	 1.8798632649e+000	-1.8754689336e+000
 5.5826690043e-001	 1.8857654177e+000	-1.8681207475e+000
 5.3869552252e-001	 1.8914492685e+000	-1.8603539909e+000
 5.1911903409e-001	 1.8969155797e+000	-1.8525490501e+000
 4.9954081418e-001	 1.9021651798e+000	-1.8448837546e+000
 4.7996420568e-001	 1.9071989622e+000	-1.8373327567e+000
 4.6039251393e-001	 1.9120178831e+000	-1.8296697830e+000
 4.4082900539e-001	 1.9166229612e+000	-1.8214725597e+000
 4.2127690635e-001	 1.9210152750e+000	-1.8121301992e+000
 4.0173940169e-001	 1.9251959623e+000	-1.8008528274e+000
 3.8221963373e-001	 1.9291662184e+000	-1.7866832232e+000
 5.7978859736e-001	 1.8862360028e+000	-1.0917758772e+000
 5.6015942564e-001	 1.8921581639e+000	-1.0478076269e+000
 5.4052170075e-001	 1.8978612829e+000	-1.0033319341e+000
 5.2087884801e-001	 1.9033461249e+000	-9.5894231339e-001
 5.0123425792e-001	 1.9086135212e+000	-9.1502890947e-001
 4.8159128470e-001	 1.9136643681e+000	-8.7177764300e-001
 4.6195324490e-001	 1.9184996252e+000	-8.2917229643e-001
 4.4232341605e-001	 1.9231203144e+000	-7.8699933792e-001
 4.2270503537e-001	 1.9275275182e+000	-7.4485526689e-001
 4.0310129856e-001	 1.9317223781e+000	-7.0215625532e-001
 3.8351535858e-001	 1.9357060934e+000	-6.5814985037e-001
 5.8174742499e-001	 1.8926086897e+000	-7.9628907517e-002
 5.6205193571e-001	 1.8985508589e+000	 1.1515125658e-002
 5.4234786436e-001	 1.9042732461e+000	 1.0301249565e-001
 5.2263864784e-001	 1.9097766187e+000	 1.9400596696e-001
 5.0292768810e-001	 1.9150618110e+000	 2.8383676875e-001
 4.8321835070e-001	 1.9201297223e+000	 3.7204589515e-001
 4.6351396338e-001	 1.9249813154e+000	 4.5837239958e-001
 4.4381781475e-001	 1.9296176157e+000	 5.4274889009e-001
 4.2413315298e-001	 1.9340397093e+000	 6.2529444582e-001
 4.0446318454e-001	 1.9382487417e+000	 7.0630518512e-001
 3.8481107306e-001	 1.9422459160e+000	 7.8624272437e-001
 5.8370623352e-001	 1.8989813144e+000	 1.1631145121e+000
 5.6394442733e-001	 1.9049434917e+000	 1.3121342875e+000
 5.4417401017e-001	 1.9106851467e+000	 1.4610580067e+000
 5.2439843052e-001	 1.9162070498e+000	 1.6087148132e+000
 5.0462110178e-001	 1.9215100380e+000	 1.7541217352e+000
 4.8484540083e-001	 1.9265950134e+000	 1.8964856415e+000
 4.6507466664e-001	 1.9314629424e+000	 2.0352021295e+000
 4.4531219888e-001	 1.9361148537e+000	 2.1698515565e+000
 4.2556125666e-001	 1.9405518370e+000	 2.3001924373e+000
 4.0582505724e-001	 1.9447750416e+000	 2.4261524432e+000
 3.8610677490e-001	 1.9487856748e+000	 2.5478172461e+000
 5.8566501952e-001	 1.9053538659e+000	 2.6385708274e+000
 5.6583689718e-001	 1.9113360509e+000	 2.8563089129e+000
 5.4600013498e-001	 1.9170969736e+000	 3.0731546305e+000
 5.2615819296e-001	 1.9226374070e+000	 3.2875742861e+000
 5.0631449598e-001	 1.9279581908e+000	 3.4982058575e+000
 4.8647243226e-001	 1.9330602302e+000	 3.7038618141e+000
 4.6663535196e-001	 1.9379444949e+000	 3.9035288108e+000
 4.4680656583e-001	 1.9426120169e+000	 4.0963644699e+000
 4.2698934391e-001	 1.9470638897e+000	 4.2816914782e+000
 4.0718691427e-001	 1.9513012664e+000	 4.4589892367e+000
 3.8740246185e-001	 1.9553253585e+000	 4.6278833117e+000
 5.8762377956e-001	 1.9117263330e+000	 4.3488308314e+000
 5.6772934196e-001	 1.9177285254e+000	 4.6462708045e+000
 5.4782623559e-001	 1.9235087156e+000	 4.9416242151e+000
 5.2791793208e-001	 1.9290676790e+000	 5.2329459887e+000
 5.0800786774e-001	 1.9344062581e+000	 5.5184409185e+000
 4.8809944212e-001	 1.9395253614e+000	 5.7964675560e+000
 4.6819601659e-001	 1.9444259615e+000	 6.0655389212e+000
 4.4830091298e-001	 1.9491090941e+000	 6.3243202488e+000
 4.2841741224e-001	 1.9535758562e+000	 6.5716240011e+000
 4.0854875327e-001	 1.9578274048e+000	 6.8064023869e+000
 3.8869813162e-001	 1.9618649555e+000	 7.0277376397e+000
 3.7574093339e-001	 1.8964664596e+000	-2.7387136346e+000
 3.5657538433e-001	 1.9001632456e+000	-2.7649801516e+000
 3.3743330770e-001	 1.9036557430e+000	-2.7793817227e+000
 3.1831765506e-001	 1.9069452883e+000	-2.7825306555e+000
 2.9923133216e-001	 1.9100332680e+000	-2.7752049719e+000
 2.8017719813e-001	 1.9129211175e+000	-2.7583544197e+000
 2.6115806461e-001	 1.9156103194e+000	-2.7331068319e+000
 2.4217669503e-001	 1.9181024018e+000	-2.7007746582e+000
 2.2323580385e-001	 1.9203989372e+000	-2.6628614965e+000
 2.0433805594e-001	 1.9225015401e+000	-2.6210684599e+000
 1.8548606597e-001	 1.9244118663e+000	-2.5773002248e+000
 3.7703667605e-001	 1.9030064244e+000	-3.1691553410e+000
 3.5780503459e-001	 1.9067159588e+000	-3.1999647084e+000
 3.3859694651e-001	 1.9102205001e+000	-3.2192911253e+000
 3.1941537353e-001	 1.9135213894e+000	-3.2277187374e+000
 3.0026323145e-001	 1.9166200180e+000	-3.2260657511e+000
 2.8114338923e-001	 1.9195178263e+000	-3.2153892553e+000
 2.6205866823e-001	 1.9222163018e+000	-3.1969903343e+000
 2.4301184140e-001	 1.9247169782e+000	-3.1724192925e+000
 2.2400563255e-001	 1.9270214332e+000	-3.1434808226e+000
 2.0504271576e-001	 1.9291312870e+000	-3.1122389513e+000
 1.8612571470e-001	 1.9310482009e+000	-3.0810216091e+000
 3.7833241968e-001	 1.9095463942e+000	-3.2905586179e+000
 3.5903468578e-001	 1.9132686769e+000	-3.3192374212e+000
 3.3976058619e-001	 1.9167852621e+000	-3.3381673338e+000
 3.2051309283e-001	 1.9200974954e+000	-3.3479219025e+000
 3.0129513151e-001	 1.9232067730e+000	-3.3493522248e+000
 2.8210958107e-001	 1.9261145399e+000	-3.3435911740e+000
 2.6295927253e-001	 1.9288222892e+000	-3.3320578799e+000
 2.4384698839e-001	 1.9313315596e+000	-3.3164622887e+000
 2.2477546183e-001	 1.9336439341e+000	-3.2988096279e+000
 2.0574737610e-001	 1.9357610387e+000	-3.2814046116e+000
 1.8676536390e-001	 1.9376845405e+000	-3.2668552310e+000
 3.7962816202e-001	 1.9160863574e+000	-3.1015307398e+000
 3.6026433573e-001	 1.9198213885e+000	-3.1216443956e+000
 3.4092422471e-001	 1.9233500176e+000	-3.1348858811e+000
 3.2161081104e-001	 1.9266735949e+000	-3.1418360764e+000
 3.0232703055e-001	 1.9297935213e+000	-3.1433722105e+000
 2.8307577193e-001	 1.9327112470e+000	-3.1406720764e+000
 2.6385987593e-001	 1.9354282700e+000	-3.1352184949e+000
 2.4468213455e-001	 1.9379461343e+000	-3.1288038441e+000
 2.2554529034e-001	 1.9402664285e+000	-3.1235344798e+000
 2.0645203574e-001	 1.9423907839e+000	-3.1218348772e+000
 1.8740501246e-001	 1.9443208734e+000	-3.1264513357e+000
 3.8092390079e-001	 1.9226263026e+000	-2.6006935623e+000
 3.6149398230e-001	 1.9263740820e+000	-2.6060430114e+000
 3.4208786003e-001	 1.9299147550e+000	-2.6083331389e+000
 3.2270852622e-001	 1.9332496762e+000	-2.6081704540e+000
 3.0335892674e-001	 1.9363802515e+000	-2.6064520816e+000
 2.8404196014e-001	 1.9393079360e+000	-2.6043705528e+000
 2.6476047685e-001	 1.9420342327e+000	-2.6034188611e+000
 2.4551727841e-001	 1.9445606909e+000	-2.6053955951e+000
 2.2631511673e-001	 1.9468889046e+000	-2.6124099679e+000
 2.0715669343e-001	 1.9490205108e+000	-2.6268865681e+000
 1.8804465927e-001	 1.9509571881e+000	-2.6515696708e+000
 3.8221963373e-001	 1.9291662184e+000	-1.7866832232e+000
 3.6272362334e-001	 1.9329267461e+000	-1.7713016775e+000
 3.4325149011e-001	 1.9364794628e+000	-1.7574060777e+000
 3.2380623647e-001	 1.9398257280e+000	-1.7456472157e+000
 3.0439081829e-001	 1.9429669521e+000	-1.7369363928e+000
 2.8500814400e-001	 1.9459045952e+000	-1.7324513686e+000
 2.6566107372e-001	 1.9486401656e+000	-1.7336426148e+000
 2.4635241851e-001	 1.9511752177e+000	-1.7422396817e+000
 2.2708493965e-001	 1.9535113509e+000	-1.7602574863e+000
 2.0786134796e-001	 1.9556502079e+000	-1.7900023430e+000
 1.8868430319e-001	 1.9575934729e+000	-1.8340775664e+000
 3.8351535858e-001	 1.9357060934e+000	-6.5814985037e-001
 3.6395325670e-001	 1.9394793692e+000	-6.1629959176e-001
 3.4441511292e-001	 1.9430441297e+000	-5.8101203155e-001
 3.2490393985e-001	 1.9464017387e+000	-5.5300124943e-001
 3.0542270339e-001	 1.9495536115e+000	-5.3318751272e-001
 2.8597432182e-001	 1.9525012133e+000	-5.2270496033e-001
 2.6656166495e-001	 1.9552460572e+000	-5.2290965949e-001
 2.4718755339e-001	 1.9577897031e+000	-5.3538783033e-001
 2.2785475776e-001	 1.9601337559e+000	-5.6196404090e-001
 2.0856599809e-001	 1.9622798636e+000	-6.0470918333e-001
 1.8932394312e-001	 1.9642297162e+000	-6.6594805180e-001
 3.8481107306e-001	 1.9422459160e+000	 7.8624272437e-001
 3.6518288022e-001	 1.9460319399e+000	 8.6007349414e-001
 3.4557872642e-001	 1.9496087440e+000	 9.2193153297e-001
 3.2600163445e-001	 1.9529776968e+000	 9.7102012124e-001
 3.0645458024e-001	 1.9561402183e+000	 1.0064147365e+000
 2.8694049191e-001	 1.9590977785e+000	 1.0270530580e+000
 2.6746224898e-001	 1.9618518960e+000	 1.0317245080e+000
 2.4802268159e-001	 1.9644041357e+000	 1.0190595455e+000
 2.2862456972e-001	 1.9667561078e+000	 9.8751892086e-001
 2.0927064257e-001	 1.9689094662e+000	 9.3538309179e-001
 1.8996357793e-001	 1.9708659065e+000	 8.6074199021e-001
 3.8610677490e-001	 1.9487856748e+000	 2.5478172461e+000
 3.6641249174e-001	 1.9525844467e+000	 2.6589175055e+000
 3.4674232857e-001	 1.9561732943e+000	 2.7524972424e+000
 3.2709931835e-001	 1.9595535907e+000	 2.8276574044e+000
 3.0748644702e-001	 1.9627267608e+000	 2.8834734319e+000
 2.8790665258e-001	 1.9656942795e+000	 2.9189823795e+000
 2.6836282423e-001	 1.9684576703e+000	 2.9331694579e+000
 2.4885780165e-001	 1.9710185037e+000	 2.9249542262e+000
 2.2939437417e-001	 1.9733783952e+000	 2.8931766563e+000
 2.0997528018e-001	 1.9755390042e+000	 2.8365832817e+000
 1.9060320650e-001	 1.9775020320e+000	 2.7538136328e+000
 3.8740246185e-001	 1.9553253585e+000	 4.6278833117e+000
 3.6764208913e-001	 1.9591368782e+000	 4.7813222704e+000
 3.4790591734e-001	 1.9627377691e+000	 4.9117480383e+000
 3.2819698962e-001	 1.9661294090e+000	 5.0181392011e+000
 3.0851830194e-001	 1.9693132275e+000	 5.0995748961e+000
 2.8887280213e-001	 1.9722907046e+000	 5.1552184794e+000
 2.6926338913e-001	 1.9750633687e+000	 5.1843004751e+000
 2.4969291210e-001	 1.9776327957e+000	 5.1861010505e+000
 2.3016416976e-001	 1.9800006065e+000	 5.1599322521e+000
 2.1067990969e-001	 1.9821684660e+000	 5.1051202322e+000
 1.9124282771e-001	 1.9841380813e+000	 5.0209876794e+000
 3.8869813162e-001	 1.9618649555e+000	 7.0277376397e+000
 3.6887167023e-001	 1.9656892228e+000	 7.2283677414e+000
 3.4906949069e-001	 1.9693021570e+000	 7.4007373941e+000
 3.2929464635e-001	 1.9727051402e+000	 7.5436824624e+000
 3.0955014318e-001	 1.9758996070e+000	 7.6562890367e+000
 2.8983893889e-001	 1.9788870423e+000	 7.7378730801e+000
 2.7016394209e-001	 1.9816689796e+000	 7.7879591942e+000
 2.5052801148e-001	 1.9842470000e+000	 7.8062587626e+000
 2.3093395515e-001	 1.9866227300e+000	 7.7926477266e+000
 2.1138452987e-001	 1.9887978399e+000	 7.7471442352e+000
 1.9188244045e-001	 1.9907740426e+000	 7.6698864032e+000
 1.8548606597e-001	 1.9244118663e+000	-2.5773002248e+000
 1.6667958732e-001	 1.9261318546e+000	-2.5331570773e+000
 1.4792399767e-001	 1.9276629376e+000	-2.4893195705e+000
 1.2922179687e-001	 1.9290068855e+000	-2.4457002427e+000
 1.1057543148e-001	 1.9301655027e+000	-2.4012446082e+000
 9.1987294436e-002	 1.9311406269e+000	-2.3539702527e+000
 7.3459724731e-002	 1.9319341269e+000	-2.3010056601e+000
 5.4995007207e-002	 1.9325479018e+000	-2.2386285988e+000
 3.6595372353e-002	 1.9329838784e+000	-2.1623039139e+000
 1.8262996154e-002	 1.9332440107e+000	-2.0667205831e+000
 0.0000000000e+000	 1.9333302777e+000	-1.9458279041e+000
 1.8612571470e-001	 1.9310482009e+000	-3.0810216091e+000
 1.6725438190e-001	 1.9327741205e+000	-3.0454205005e+000
 1.4843411359e-001	 1.9343104835e+000	-3.0003838856e+000
 1.2966741825e-001	 1.9356590660e+000	-2.9464858041e+000
 1.1095675087e-001	 1.9368216787e+000	-2.8830371473e+000
 9.2304512633e-002	 1.9378001656e+000	-2.8081326228e+000
 7.3713050601e-002	 1.9385964020e+000	-2.7186976645e+000
 5.5184657496e-002	 1.9392122935e+000	-2.6105350929e+000
 3.6721571498e-002	 1.9396497736e+000	-2.4783713494e+000
 1.8325976098e-002	 1.9399108030e+000	-2.3159021366e+000
 0.0000000000e+000	 1.9399973675e+000	-2.1158373133e+000
 1.8676536390e-001	 1.9376845405e+000	-3.2668552310e+000
 1.6782917691e-001	 1.9394163915e+000	-3.2432565280e+000
 1.4894422990e-001	 1.9409580344e+000	-3.1982680342e+000
 1.3011303997e-001	 1.9423112515e+000	-3.1329558577e+000
 1.1133807055e-001	 1.9434778597e+000	-3.0469439416e+000
 9.2621731067e-002	 1.9444597093e+000	-2.9384659068e+000
 7.3966376660e-002	 1.9452586821e+000	-2.8044169623e+000
 5.5374307927e-002	 1.9458766902e+000	-2.6404056746e+000
 3.6847770738e-002	 1.9463156738e+000	-2.4408054001e+000
 1.8388956089e-002	 1.9465776002e+000	-2.1988052033e+000
 0.0000000000e+000	 1.9466644622e+000	-1.9064600901e+000
 1.8740501246e-001	 1.9443208734e+000	-3.1264513357e+000
 1.6840397134e-001	 1.9460586558e+000	-3.1171224392e+000
 1.4945434570e-001	 1.9476055787e+000	-3.0732893440e+000
 1.3055866124e-001	 1.9489634303e+000	-2.9963387293e+000
 1.1171938984e-001	 1.9501340340e+000	-2.8861524290e+000
 9.2938949183e-002	 1.9511192463e+000	-2.7411611798e+000
 7.4219702465e-002	 1.9519209556e+000	-2.5583984691e+000
 5.5563958167e-002	 1.9525410802e+000	-2.3335542654e+000
 3.6973969852e-002	 1.9529815673e+000	-2.0610284287e+000
 1.8451936017e-002	 1.9532443908e+000	-1.7339836165e+000
 0.0000000000e+000	 1.9533315502e+000	-1.3443975089e+000
 1.8804465927e-001	 1.9509571881e+000	-2.6515696708e+000
 1.6897876420e-001	 1.9527009018e+000	-2.6576013401e+000
 1.4996446009e-001	 1.9542531046e+000	-2.6158929655e+000
 1.3100428129e-001	 1.9556155909e+000	-2.5279782613e+000
 1.1210070809e-001	 1.9567901900e+000	-2.3939389916e+000
 9.3256166427e-002	 1.9577787651e+000	-2.2124576712e+000
 7.4473027574e-002	 1.9585832107e+000	-1.9808703058e+000
 5.5753607886e-002	 1.9592054519e+000	-1.6952189558e+000
 3.7100168618e-002	 1.9596474424e+000	-1.3503039224e+000
 1.8514915772e-002	 1.9599111630e+000	-9.3973537266e-001
 0.0000000000e+000	 1.9599986200e+000	-4.5598422950e-001
 1.8868430319e-001	 1.9575934729e+000	-1.8340775664e+000
 1.6955355446e-001	 1.9593431180e+000	-1.8553999661e+000
 1.5047457219e-001	 1.9609006007e+000	-1.8166496411e+000
 1.3144989933e-001	 1.9622677215e+000	-1.7193317901e+000
 1.1248202462e-001	 1.9634463161e+000	-1.5636673842e+000
 9.3573382243e-002	 1.9644382538e+000	-1.3486418851e+000
 7.4726351542e-002	 1.9652454358e+000	-1.0720538516e+000
 5.5943256752e-002	 1.9658697937e+000	-7.3056322824e-001
 3.7226366817e-002	 1.9663132876e+000	-3.1973912404e-001
 1.8577895244e-002	 1.9665779053e+000	 1.6589309257e-001
 0.0000000000e+000	 1.9666656597e+000	 7.3280554715e-001
 1.8932394312e-001	 1.9642297162e+000	-6.6594805180e-001
 1.7012834114e-001	 1.9659852926e+000	-7.0134652780e-001
 1.5098468110e-001	 1.9675480552e+000	-6.6625351796e-001
 1.3189551458e-001	 1.9689198105e+000	-5.6196816429e-001
 1.1286333876e-001	 1.9701024006e+000	-3.8878719405e-001
 9.3890596076e-002	 1.9710977010e+000	-1.4604673781e-001
 7.4979673928e-002	 1.9719076193e+000	 1.6783620519e-001
 5.6132904432e-002	 1.9725340937e+000	 5.5532284387e-001
 3.7352564227e-002	 1.9729790911e+000	 1.0197123880e+000
 1.8640874322e-002	 1.9732446058e+000	 1.5651027132e+000
 0.0000000000e+000	 1.9733326578e+000	 2.1963520462e+000
 1.8996357793e-001	 1.9708659065e+000	 8.6074199021e-001
 1.7070312321e-001	 1.9726274141e+000	 8.1361140065e-001
 1.5149478593e-001	 1.9741954565e+000	 8.4447999591e-001
 1.3234112627e-001	 1.9755718464e+000	 9.5243419879e-001
 1.1324464986e-001	 1.9767584319e+000	 1.1371676695e+000
 9.4207807372e-002	 1.9777570949e+000	 1.3989492875e+000
 7.5232994288e-002	 1.9785697495e+000	 1.7385918171e+000
 5.6322550596e-002	 1.9791983405e+000	 2.1574214214e+000
 3.7478760628e-002	 1.9796448413e+000	 2.6572481717e+000
 1.8703852897e-002	 1.9799112531e+000	 3.2403376841e+000
 0.0000000000e+000	 1.9799996025e+000	 3.9093840043e+000
 1.9060320650e-001	 1.9775020320e+000	 2.7538136328e+000
 1.7127789968e-001	 1.9792694709e+000	 2.6984089515e+000
 1.5200488578e-001	 1.9808427930e+000	 2.7246163335e+000
 1.3278673361e-001	 1.9822238173e+000	 2.8320892182e+000
 1.1362595723e-001	 1.9834143982e+000	 3.0205804555e+000
 9.4525015576e-002	 1.9844164238e+000	 3.2899229696e+000
 7.5486312178e-002	 1.9852318148e+000	 3.6400115285e+000
 5.6512194912e-002	 1.9858625223e+000	 4.0707857475e+000
 3.7604955799e-002	 1.9863105265e+000	 4.5822144432e+000
 1.8766830858e-002	 1.9865778353e+000	 5.1742814333e+000
 0.0000000000e+000	 1.9866664822e+000	 5.8469728722e+000
 1.9124282771e-001	 1.9841380813e+000	 5.0209876794e+000
 1.7185266954e-001	 1.9859114512e+000	 4.9618659932e+000
 1.5251497977e-001	 1.9874900531e+000	 4.9831038297e+000
 1.3323233584e-001	 1.9888757118e+000	 5.0851050173e+000
 1.1400726022e-001	 1.9900702880e+000	 5.2677530226e+000
 9.4842220133e-002	 1.9910756762e+000	 5.5304071619e+000
 7.5739627156e-002	 1.9918938034e+000	 5.8719004274e+000
 5.6701837047e-002	 1.9925266274e+000	 6.2905390182e+000
 3.7731149520e-002	 1.9929761351e+000	 6.7841036459e+000
 1.8829808095e-002	 1.9932443409e+000	 7.3498526729e+000
 0.0000000000e+000	 1.9933332853e+000	 7.9845271297e+000
 1.9188244045e-001	 1.9907740426e+000	 7.6698864032e+000
 1.7242743179e-001	 1.9925533436e+000	 7.6126891207e+000
 1.5302506700e-001	 1.9941372251e+000	 7.6287757418e+000
 1.3367793215e-001	 1.9955275182e+000	 7.7194857552e+000
 1.1438855817e-001	 1.9967260896e+000	 7.8849072633e+000
 9.5159420487e-002	 1.9977348403e+000	 8.1238915894e+000
 7.5992938778e-002	 1.9985557038e+000	 8.4340700992e+000
 5.6891476671e-002	 1.9991906443e+000	 8.8118732755e+000
 3.7857341570e-002	 1.9996416553e+000	 9.2525520687e+000
 1.8892784498e-002	 1.9999107581e+000	 9.7502015278e+000
 0.0000000000e+000	 2.0000000000e+000	 1.0297786713e+001
