patch_n	x	y	stress_yy
0	 0.000000000000000e+000	 0.000000000000000e+000	 4.107762317717461e+000
0	 0.000000000000000e+000	 6.666714722864756e-002	 2.484052381414529e+000
0	 0.000000000000000e+000	 1.333351778131789e-001	 1.288357222341868e+000
0	 0.000000000000000e+000	 2.000039750814772e-001	 4.811745930561389e-001
0	 0.000000000000000e+000	 2.666734223614256e-001	 2.300409339634466e-002
0	 0.000000000000000e+000	 3.333434029809069e-001	-1.256528297652524e-001
0	 0.000000000000000e+000	 4.000138002678044e-001	-4.292882723711591e-003
0	 0.000000000000000e+000	 4.666844975500011e-001	 3.475890749064922e-001
0	 0.000000000000000e+000	 5.333553781553803e-001	 8.905000300878546e-001
0	 0.000000000000000e+000	 6.000263254118248e-001	 1.584948816304703e+000
0	 0.000000000000000e+000	 6.666972226472175e-001	 2.391446113556528e+000
0	 6.666714722864756e-002	 0.000000000000000e+000	 3.105643253697834e+000
0	 6.666714722864756e-002	 6.666714722864756e-002	 2.295773437800169e+000
0	 6.666714722864754e-002	 1.333351778131789e-001	 1.709205061892884e+000
0	 6.666714722864754e-002	 2.000039750814772e-001	 1.318117152032536e+000
0	 6.666714722864757e-002	 2.666734223614254e-001	 1.094689250818434e+000
0	 6.666714722864760e-002	 3.333434029809069e-001	 1.011101417314795e+000
0	 6.666714722864757e-002	 4.000138002678046e-001	 1.039534226986420e+000
0	 6.666714722864756e-002	 4.666844975500011e-001	 1.152168771647938e+000
0	 6.666714722864754e-002	 5.333553781553803e-001	 1.321186659426619e+000
0	 6.666714722864757e-002	 6.000263254118247e-001	 1.518770014738722e+000
0	 6.666714722864757e-002	 6.666972226472178e-001	 1.717101478279406e+000
0	 1.333351778131789e-001	 0.000000000000000e+000	 2.765749487273530e+000
0	 1.333351778131789e-001	 6.666714722864753e-002	 2.302831752553886e+000
0	 1.333351778131789e-001	 1.333351778131789e-001	 1.961979543768274e+000
0	 1.333351778131789e-001	 2.000039750814772e-001	 1.726131688372492e+000
0	 1.333351778131789e-001	 2.666734223614256e-001	 1.578227215061559e+000
0	 1.333351778131790e-001	 3.333434029809069e-001	 1.501205353732573e+000
0	 1.333351778131789e-001	 4.000138002678044e-001	 1.478005535452860e+000
0	 1.333351778131790e-001	 4.666844975500011e-001	 1.491567392433377e+000
0	 1.333351778131789e-001	 5.333553781553803e-001	 1.524830758007419e+000
0	 1.333351778131789e-001	 6.000263254118246e-001	 1.560735666614601e+000
0	 1.333351778131790e-001	 6.666972226472178e-001	 1.582222353790112e+000
0	 2.000039750814772e-001	 0.000000000000000e+000	 2.950857813362567e+000
0	 2.000039750814772e-001	 6.666714722864756e-002	 2.458210704547228e+000
0	 2.000039750814772e-001	 1.333351778131789e-001	 2.071048463321316e+000
0	 2.000039750814772e-001	 2.000039750814772e-001	 1.782149410433578e+000
0	 2.000039750814772e-001	 2.666734223614255e-001	 1.584292570340044e+000
0	 2.000039750814773e-001	 3.333434029809069e-001	 1.470257671102943e+000
0	 2.000039750814773e-001	 4.000138002678044e-001	 1.432825144308115e+000
0	 2.000039750814772e-001	 4.666844975500011e-001	 1.464776125000877e+000
0	 2.000039750814772e-001	 5.333553781553803e-001	 1.558892451640367e+000
0	 2.000039750814773e-001	 6.000263254118247e-001	 1.707956666072345e+000
0	 2.000039750814773e-001	 6.666972226472178e-001	 1.904752013520465e+000
0	 2.666734223614256e-001	 0.000000000000000e+000	 3.523745149598698e+000
0	 2.666734223614255e-001	 6.666714722864758e-002	 2.714893507181251e+000
0	 2.666734223614256e-001	 1.333351778131790e-001	 2.060779233539790e+000
0	 2.666734223614256e-001	 2.000039750814772e-001	 1.563100988981983e+000
0	 2.666734223614255e-001	 2.666734223614256e-001	 1.223559260097989e+000
0	 2.666734223614256e-001	 3.333434029809070e-001	 1.043856359516626e+000
0	 2.666734223614255e-001	 4.000138002678043e-001	 1.025696425709489e+000
0	 2.666734223614256e-001	 4.666844975500010e-001	 1.170785422843012e+000
0	 2.666734223614256e-001	 5.333553781553803e-001	 1.480831140678443e+000
0	 2.666734223614256e-001	 6.000263254118247e-001	 1.957543194519769e+000
0	 2.666734223614255e-001	 6.666972226472174e-001	 2.602633025209528e+000
0	 3.333434029809069e-001	 0.000000000000000e+000	 4.347188536308998e+000
0	 3.333434029809069e-001	 6.666714722864757e-002	 3.025863208411337e+000
0	 3.333434029809069e-001	 1.333351778131790e-001	 1.955538885104521e+000
0	 3.333434029809069e-001	 2.000039750814773e-001	 1.145916557273210e+000
0	 3.333434029809070e-001	 2.666734223614256e-001	 6.067005871024780e-001
0	 3.333434029809070e-001	 3.333434029809070e-001	 3.475987076382324e-001
0	 3.333434029809069e-001	 4.000138002678044e-001	 3.783220224361438e-001
0	 3.333434029809069e-001	 4.666844975500011e-001	 7.085850052990689e-001
0	 3.333434029809070e-001	 5.333553781553805e-001	 1.348105500102950e+000
0	 3.333434029809069e-001	 6.000263254118248e-001	 2.306604720711178e+000
0	 3.333434029809069e-001	 6.666972226472177e-001	 3.593807250977430e+000
0	 4.000138002678044e-001	 0.000000000000000e+000	 5.283965136494670e+000
0	 4.000138002678045e-001	 6.666714722864756e-002	 3.344102690767638e+000
0	 4.000138002678044e-001	 1.333351778131789e-001	 1.779694066437865e+000
0	 4.000138002678044e-001	 2.000039750814773e-001	 6.075257111186689e-001
0	 4.000138002678042e-001	 2.666734223614255e-001	-1.556107864800106e-001
0	 4.000138002678042e-001	 3.333434029809068e-001	-4.929186972141145e-001
0	 4.000138002678044e-001	 4.000138002678044e-001	-3.875961520329935e-001
0	 4.000138002678044e-001	 4.666844975500011e-001	 1.771638576280152e-001
0	 4.000138002678043e-001	 5.333553781553800e-001	 1.218173479589920e+000
0	 4.000138002678045e-001	 6.000263254118249e-001	 2.752250000807345e+000
0	 4.000138002678044e-001	 6.666972226472177e-001	 4.796215847380656e+000
0	 4.666844975500011e-001	 0.000000000000000e+000	 6.196852235815068e+000
0	 4.666844975500011e-001	 6.666714722864756e-002	 3.622594671371208e+000
0	 4.666844975500012e-001	 1.333351778131790e-001	 1.557611043742178e+000
0	 4.666844975500012e-001	 2.000039750814773e-001	 2.485750893815265e-002
0	 4.666844975500011e-001	 2.666734223614255e-001	-9.527028390240201e-001
0	 4.666844975500011e-001	 3.333434029809069e-001	-1.352099969007575e+000
0	 4.666844975500011e-001	 4.000138002678044e-001	-1.150356913460461e+000
0	 4.666844975500012e-001	 4.666844975500012e-001	-3.244897689378378e-001
0	 4.666844975500011e-001	 5.333553781553804e-001	 1.148492303557496e+000
0	 4.666844975500012e-001	 6.000263254118249e-001	 3.291587078416753e+000
0	 4.666844975500012e-001	 6.666972226472175e-001	 6.127799265448837e+000
0	 5.333553781553803e-001	 0.000000000000000e+000	 6.948627242574949e+000
0	 5.333553781553805e-001	 6.666714722864757e-002	 3.814321701945783e+000
0	 5.333553781553803e-001	 1.333351778131789e-001	 1.313655701028243e+000
0	 5.333553781553804e-001	 2.000039750814772e-001	-5.251595282018039e-001
0	 5.333553781553800e-001	 2.666734223614255e-001	-1.673904189402352e+000
0	 5.333553781553805e-001	 3.333434029809070e-001	-2.104349922951797e+000
0	 5.333553781553801e-001	 4.000138002678044e-001	-1.788259806810649e+000
0	 5.333553781553804e-001	 4.666844975500011e-001	-6.973883571584154e-001
0	 5.333553781553803e-001	 5.333553781553803e-001	 1.196518471194251e+000
0	 5.333553781553803e-001	 6.000263254118248e-001	 3.921723284618177e+000
0	 5.333553781553801e-001	 6.666972226472177e-001	 7.506497250702993e+000
0	 6.000263254118248e-001	 0.000000000000000e+000	 7.402067687714939e+000
0	 6.000263254118247e-001	 6.666714722864756e-002	 3.872266168825203e+000
0	 6.000263254118247e-001	 1.333351778131789e-001	 1.072193540133657e+000
0	 6.000263254118248e-001	 2.000039750814773e-001	-9.655974165636528e-001
0	 6.000263254118248e-001	 2.666734223614256e-001	-2.208544096960110e+000
0	 6.000263254118247e-001	 3.333434029809070e-001	-2.624074075474532e+000
0	 6.000263254118248e-001	 4.000138002678045e-001	-2.179605106229317e+000
0	 6.000263254118248e-001	 4.666844975500011e-001	-8.425451237707465e-001
0	 6.000263254118247e-001	 5.333553781553800e-001	 1.419707756468487e+000
0	 6.000263254118247e-001	 6.000263254118247e-001	 4.639765237964510e+000
0	 6.000263254118247e-001	 6.666972226472175e-001	 8.850248843155248e+000
0	 6.666972226472175e-001	 0.000000000000000e+000	 7.419951224805224e+000
0	 6.666972226472178e-001	 6.666714722864757e-002	 3.749410292956507e+000
0	 6.666972226472178e-001	 1.333351778131789e-001	 8.575896807311952e-001
0	 6.666972226472178e-001	 2.000039750814772e-001	-1.219528709728684e+000
0	 6.666972226472178e-001	 2.666734223614256e-001	-2.445952461505561e+000
0	 6.666972226472177e-001	 3.333434029809069e-001	-2.785678644215653e+000
0	 6.666972226472179e-001	 4.000138002678045e-001	-2.202693815042267e+000
0	 6.666972226472175e-001	 4.666844975500010e-001	-6.609740194930840e-001
0	 6.666972226472177e-001	 5.333553781553801e-001	 1.875515208118491e+000
0	 6.666972226472178e-001	 6.000263254118248e-001	 5.442818844467935e+000
0	 6.666972226472177e-001	 6.666972226472177e-001	 1.007699237729008e+001
0	 0.000000000000000e+000	 6.666972226472175e-001	 2.391446113556528e+000
0	 0.000000000000000e+000	 7.333579753122049e-001	 3.410717650516117e+000
0	 0.000000000000000e+000	 8.000185779984417e-001	 4.780839870039691e+000
0	 0.000000000000000e+000	 8.666790473703454e-001	 6.517968223224197e+000
0	 0.000000000000000e+000	 9.333394000923322e-001	 8.638257504243903e+000
0	 0.000000000000000e+000	 9.999996528288191e-001	 1.115786185034153e+001
0	 0.000000000000000e+000	 1.066659822244222e+000	 1.409293474182185e+001
0	 0.000000000000000e+000	 1.133319925002959e+000	 1.745962900204776e+001
0	 0.000000000000000e+000	 1.199979977769445e+000	 2.127409679743874e+001
0	 0.000000000000000e+000	 1.266639997208098e+000	 2.555248963747192e+001
0	 0.000000000000000e+000	 1.333299999983334e+000	 3.031095837468550e+001
0	 6.666714722864757e-002	 6.666972226472178e-001	 1.717101478279406e+000
0	 6.666714722864757e-002	 7.333579753122048e-001	 2.156874908338771e+000
0	 6.666714722864754e-002	 8.000185779984415e-001	 3.105084192929926e+000
0	 6.666714722864754e-002	 8.666790473703453e-001	 4.573276519169558e+000
0	 6.666714722864754e-002	 9.333394000923321e-001	 6.572998214564566e+000
0	 6.666714722864757e-002	 9.999996528288190e-001	 9.115794746998855e+000
0	 6.666714722864756e-002	 1.066659822244222e+000	 1.221321072472333e+001
0	 6.666714722864756e-002	 1.133319925002959e+000	 1.587678989634919e+001
0	 6.666714722864757e-002	 1.199979977769445e+000	 2.011807515084433e+001
0	 6.666714722864756e-002	 1.266639997208098e+000	 2.494860851753304e+001
0	 6.666714722864757e-002	 1.333299999983334e+000	 3.037993116609893e+001
0	 1.333351778131790e-001	 6.666972226472178e-001	 1.582222353790112e+000
0	 1.333351778131790e-001	 7.333579753122046e-001	 1.868915818736176e+000
0	 1.333351778131790e-001	 8.000185779984417e-001	 2.716685123818348e+000
0	 1.333351778131790e-001	 8.666790473703454e-001	 4.132832204473011e+000
0	 1.333351778131789e-001	 9.333394000923321e-001	 6.124658089606085e+000
0	 1.333351778131789e-001	 9.999996528288191e-001	 8.699462901578805e+000
0	 1.333351778131789e-001	 1.066659822244222e+000	 1.186454585619691e+001
0	 1.333351778131790e-001	 1.133319925002959e+000	 1.562720526270324e+001
0	 1.333351778131790e-001	 1.199979977769445e+000	 1.999473852377369e+001
0	 1.333351778131789e-001	 1.266639997208097e+000	 2.497444213551659e+001
0	 1.333351778131789e-001	 1.333299999983334e+000	 3.057361168747554e+001
0	 2.000039750814773e-001	 6.666972226472178e-001	 1.904752013520465e+000
0	 2.000039750814772e-001	 7.333579753122048e-001	 2.385321430529465e+000
0	 2.000039750814773e-001	 8.000185779984419e-001	 3.392864439159476e+000
0	 2.000039750814772e-001	 8.666790473703453e-001	 4.930800861646950e+000
0	 2.000039750814772e-001	 9.333394000923322e-001	 7.002549695241551e+000
0	 2.000039750814773e-001	 9.999996528288189e-001	 9.611529112193709e+000
0	 2.000039750814772e-001	 1.066659822244222e+000	 1.276115645974517e+001
0	 2.000039750814772e-001	 1.133319925002958e+000	 1.645484826012279e+001
0	 2.000039750814772e-001	 1.199979977769445e+000	 2.069602021053521e+001
0	 2.000039750814772e-001	 1.266639997208098e+000	 2.548808718317285e+001
0	 2.000039750814772e-001	 1.333299999983334e+000	 3.083446322521084e+001
0	 2.666734223614255e-001	 6.666972226472174e-001	 2.602633025209527e+000
0	 2.666734223614256e-001	 7.333579753122047e-001	 3.544572080821732e+000
0	 2.666734223614255e-001	 8.000185779984416e-001	 4.910843186183906e+000
0	 2.666734223614256e-001	 8.666790473703452e-001	 6.701347318815739e+000
0	 2.666734223614257e-001	 9.333394000923323e-001	 8.915984813956136e+000
0	 2.666734223614255e-001	 9.999996528288188e-001	 1.155465536455460e+001
0	 2.666734223614256e-001	 1.066659822244222e+000	 1.461725802126506e+001
0	 2.666734223614256e-001	 1.133319925002959e+000	 1.810369119244207e+001
0	 2.666734223614256e-001	 1.199979977769445e+000	 2.201385264413942e+001
0	 2.666734223614255e-001	 1.266639997208098e+000	 2.634763950011115e+001
0	 2.666734223614254e-001	 1.333299999983334e+000	 3.110494824181507e+001
0	 3.333434029809069e-001	 6.666972226472177e-001	 3.593807250977430e+000
0	 3.333434029809069e-001	 7.333579753122046e-001	 5.185147395070405e+000
0	 3.333434029809069e-001	 8.000185779984415e-001	 7.047841682972298e+000
0	 3.333434029809068e-001	 8.666790473703451e-001	 9.178635649793655e+000
0	 3.333434029809070e-001	 9.333394000923321e-001	 1.157427444493045e+001
0	 3.333434029809069e-001	 9.999996528288191e-001	 1.423150283206093e+001
0	 3.333434029809068e-001	 1.066659822244222e+000	 1.714706518914388e+001
0	 3.333434029809069e-001	 1.133319925002959e+000	 2.031770550841832e+001
0	 3.333434029809069e-001	 1.199979977769445e+000	 2.374016739640474e+001
0	 3.333434029809068e-001	 1.266639997208097e+000	 2.741119407390758e+001
0	 3.333434029809069e-001	 1.333299999983334e+000	 3.132752837601944e+001
0	 4.000138002678044e-001	 6.666972226472177e-001	 4.796215847380656e+000
0	 4.000138002678044e-001	 7.333579753122048e-001	 7.145526287140916e+000
0	 4.000138002678044e-001	 8.000185779984415e-001	 9.581079518510205e+000
0	 4.000138002678044e-001	 8.666790473703453e-001	 1.209682917414296e+001
0	 4.000138002678043e-001	 9.333394000923319e-001	 1.468672880410344e+001
0	 4.000138002678044e-001	 9.999996528288191e-001	 1.734473187586893e+001
0	 4.000138002678044e-001	 1.066659822244222e+000	 2.006479177433333e+001
0	 4.000138002678044e-001	 1.133319925002958e+000	 2.284086180181091e+001
0	 4.000138002678044e-001	 1.199979977769445e+000	 2.566689517804050e+001
0	 4.000138002678043e-001	 1.266639997208098e+000	 2.853684504018997e+001
0	 4.000138002678044e-001	 1.333299999983334e+000	 3.144466444286096e+001
0	 4.666844975500012e-001	 6.666972226472175e-001	 6.127799265448839e+000
0	 4.666844975500011e-001	 7.333579753122047e-001	 9.264186959341703e+000
0	 4.666844975500012e-001	 8.000185779984417e-001	 1.228777555272377e+001
0	 4.666844975500010e-001	 8.666790473703451e-001	 1.519009045721225e+001
0	 4.666844975500011e-001	 9.333394000923321e-001	 1.796265732421463e+001
0	 4.666844975500012e-001	 9.999996528288191e-001	 2.059700204493868e+001
0	 4.666844975500012e-001	 1.066659822244222e+000	 2.308465075040157e+001
0	 4.666844975500012e-001	 1.133319925002959e+000	 2.541712981143800e+001
0	 4.666844975500012e-001	 1.199979977769445e+000	 2.758596583870752e+001
0	 4.666844975500011e-001	 1.266639997208098e+000	 2.958268568270085e+001
0	 4.666844975500012e-001	 1.333299999983334e+000	 3.139881643374545e+001
0	 5.333553781553801e-001	 6.666972226472177e-001	 7.506497250702993e+000
0	 5.333553781553801e-001	 7.333579753122047e-001	 1.137960690244051e+001
0	 5.333553781553803e-001	 8.000185779984418e-001	 1.494514791649629e+001
0	 5.333553781553803e-001	 8.666790473703456e-001	 1.819258131015494e+001
0	 5.333553781553803e-001	 9.333394000923324e-001	 2.111136865482586e+001
0	 5.333553781553803e-001	 9.999996528288188e-001	 2.369097207605979e+001
0	 5.333553781553801e-001	 1.066659822244222e+000	 2.592085425356326e+001
0	 5.333553781553804e-001	 1.133319925002959e+000	 2.779047842121092e+001
0	 5.333553781553803e-001	 1.199979977769445e+000	 2.928930836705585e+001
0	 5.333553781553803e-001	 1.266639997208098e+000	 3.040680843333773e+001
0	 5.333553781553803e-001	 1.333299999983334e+000	 3.113244351648904e+001
0	 6.000263254118247e-001	 6.666972226472175e-001	 8.850248843155248e+000
0	 6.000263254118247e-001	 7.333579753122048e-001	 1.333026289566204e+001
0	 6.000263254118247e-001	 8.000185779984417e-001	 1.733041401166563e+001
0	 6.000263254118247e-001	 8.666790473703451e-001	 2.083846278992802e+001
0	 6.000263254118247e-001	 9.333394000923321e-001	 2.384217066232250e+001
0	 6.000263254118246e-001	 9.999996528288189e-001	 2.632929989385588e+001
0	 6.000263254118248e-001	 1.066659822244222e+000	 2.828761358268763e+001
0	 6.000263254118249e-001	 1.133319925002959e+000	 2.970487566014586e+001
0	 6.000263254118246e-001	 1.199979977769445e+000	 3.056885089074015e+001
0	 6.000263254118248e-001	 1.266639997208098e+000	 3.086730487217129e+001
0	 6.000263254118247e-001	 1.333299999983334e+000	 3.058800403533800e+001
0	 6.666972226472177e-001	 6.666972226472177e-001	 1.007699237729008e+001
0	 6.666972226472175e-001	 7.333579753122045e-001	 1.495463100666694e+001
0	 6.666972226472177e-001	 8.000185779984415e-001	 1.922079051100251e+001
0	 6.666972226472177e-001	 8.666790473703451e-001	 2.286189519927094e+001
0	 6.666972226472177e-001	 9.333394000923322e-001	 2.586437042989396e+001
0	 6.666972226472177e-001	 9.999996528288189e-001	 2.821464261076759e+001
0	 6.666972226472174e-001	 1.066659822244222e+000	 2.989913919928464e+001
0	 6.666972226472178e-001	 1.133319925002959e+000	 3.090428870235335e+001
0	 6.666972226472177e-001	 1.199979977769445e+000	 3.121652067641229e+001
0	 6.666972226472175e-001	 1.266639997208098e+000	 3.082226572744102e+001
0	 6.666972226472175e-001	 1.333299999983334e+000	 2.970795551096701e+001
0	 0.000000000000000e+000	 1.333299999983334e+000	 3.031095837468550e+001
0	 0.000000000000000e+000	 1.399969999982150e+000	 3.477257371284448e+001
0	 0.000000000000000e+000	 1.466639999981866e+000	 3.814333607621479e+001
0	 0.000000000000000e+000	 1.533309999982383e+000	 4.041604238113758e+001
0	 0.000000000000000e+000	 1.599979999983599e+000	 4.158348954394375e+001
0	 0.000000000000000e+000	 1.666649999985416e+000	 4.163847448095388e+001
0	 0.000000000000000e+000	 1.733319999987733e+000	 4.057379410847830e+001
0	 0.000000000000000e+000	 1.799989999990450e+000	 3.838224534281703e+001
0	 0.000000000000000e+000	 1.866659999993466e+000	 3.505662510025987e+001
0	 0.000000000000000e+000	 1.933329999996683e+000	 3.058973029708625e+001
0	 0.000000000000000e+000	 2.000000000000000e+000	 2.497435784956543e+001
0	 6.666714722864757e-002	 1.333299999983334e+000	 3.037993116609893e+001
0	 6.666714722864754e-002	 1.399969999982149e+000	 3.550636024723465e+001
0	 6.666714722864754e-002	 1.466639999981867e+000	 3.941004414986376e+001
0	 6.666714722864756e-002	 1.533309999982382e+000	 4.208685151826567e+001
0	 6.666714722864754e-002	 1.599979999983599e+000	 4.353265099670852e+001
0	 6.666714722864756e-002	 1.666649999985416e+000	 4.374331122944922e+001
0	 6.666714722864756e-002	 1.733319999987733e+000	 4.271470086073323e+001
0	 6.666714722864756e-002	 1.799989999990450e+000	 4.044268853479468e+001
0	 6.666714722864756e-002	 1.866659999993467e+000	 3.692314289585659e+001
0	 6.666714722864756e-002	 1.933329999996682e+000	 3.215193258813034e+001
0	 6.666714722864756e-002	 2.000000000000000e+000	 2.612492625581622e+001
0	 1.333351778131789e-001	 1.333299999983334e+000	 3.057361168747554e+001
0	 1.333351778131790e-001	 1.399969999982150e+000	 3.585453017002580e+001
0	 1.333351778131789e-001	 1.466639999981867e+000	 3.987185345475930e+001
0	 1.333351778131790e-001	 1.533309999982383e+000	 4.262409613952359e+001
0	 1.333351778131789e-001	 1.599979999983599e+000	 4.410977282215469e+001
0	 1.333351778131790e-001	 1.666649999985416e+000	 4.432739810047706e+001
0	 1.333351778131789e-001	 1.733319999987733e+000	 4.327548657230364e+001
0	 1.333351778131789e-001	 1.799989999990450e+000	 4.095255283543570e+001
0	 1.333351778131789e-001	 1.866659999993466e+000	 3.735711148766315e+001
0	 1.333351778131789e-001	 1.933329999996683e+000	 3.248767712676403e+001
0	 1.333351778131789e-001	 2.000000000000000e+000	 2.634276435050512e+001
0	 2.000039750814772e-001	 1.333299999983334e+000	 3.083446322521085e+001
0	 2.000039750814773e-001	 1.399969999982150e+000	 3.584576489254271e+001
0	 2.000039750814773e-001	 1.466639999981867e+000	 3.962913542401297e+001
0	 2.000039750814773e-001	 1.533309999982383e+000	 4.218530962636606e+001
0	 2.000039750814772e-001	 1.599979999983599e+000	 4.351502230633530e+001
0	 2.000039750814773e-001	 1.666649999985417e+000	 4.361900827064281e+001
0	 2.000039750814772e-001	 1.733319999987733e+000	 4.249800232599966e+001
0	 2.000039750814772e-001	 1.799989999990449e+000	 4.015273927910575e+001
0	 2.000039750814772e-001	 1.866659999993466e+000	 3.658395393664988e+001
0	 2.000039750814773e-001	 1.933329999996683e+000	 3.179238110530968e+001
0	 2.000039750814773e-001	 2.000000000000000e+000	 2.577875559175167e+001
0	 2.666734223614254e-001	 1.333299999983334e+000	 3.110494824181507e+001
0	 2.666734223614255e-001	 1.399969999982150e+000	 3.550874505202833e+001
0	 2.666734223614255e-001	 1.466639999981867e+000	 3.878226078491415e+001
0	 2.666734223614256e-001	 1.533309999982383e+000	 4.092802473666977e+001
0	 2.666734223614256e-001	 1.599979999983599e+000	 4.194856620348232e+001
0	 2.666734223614256e-001	 1.666649999985416e+000	 4.184641448152868e+001
0	 2.666734223614254e-001	 1.733319999987733e+000	 4.062409886697563e+001
0	 2.666734223614255e-001	 1.799989999990449e+000	 3.828414865597983e+001
0	 2.666734223614256e-001	 1.866659999993467e+000	 3.482909314468770e+001
0	 2.666734223614256e-001	 1.933329999996683e+000	 3.026146162923559e+001
0	 2.666734223614255e-001	 2.000000000000000e+000	 2.458378340574963e+001
0	 3.333434029809069e-001	 1.333299999983334e+000	 3.132752837601944e+001
0	 3.333434029809069e-001	 1.399969999982150e+000	 3.487215051174538e+001
0	 3.333434029809069e-001	 1.466639999981866e+000	 3.743159955902377e+001
0	 3.333434029809068e-001	 1.533309999982383e+000	 3.900977360481681e+001
0	 3.333434029809069e-001	 1.599979999983599e+000	 3.961057073607804e+001
0	 3.333434029809069e-001	 1.666649999985416e+000	 3.923788903975218e+001
0	 3.333434029809069e-001	 1.733319999987733e+000	 3.789562660277512e+001
0	 3.333434029809069e-001	 1.799989999990450e+000	 3.558768151207411e+001
0	 3.333434029809069e-001	 1.866659999993467e+000	 3.231795185456760e+001
0	 3.333434029809068e-001	 1.933329999996683e+000	 2.809033571716517e+001
0	 3.333434029809069e-001	 2.000000000000000e+000	 2.290873118676774e+001
0	 4.000138002678044e-001	 1.333299999983334e+000	 3.144466444286097e+001
0	 4.000138002678045e-001	 1.399969999982150e+000	 3.396466036105774e+001
0	 4.000138002678044e-001	 1.466639999981866e+000	 3.567752106224961e+001
0	 4.000138002678043e-001	 1.533309999982383e+000	 3.658808774176185e+001
0	 4.000138002678044e-001	 1.599979999983599e+000	 3.670120159491264e+001
0	 4.000138002678043e-001	 1.666649999985415e+000	 3.602170381701301e+001
0	 4.000138002678042e-001	 1.733319999987733e+000	 3.455443560336698e+001
0	 4.000138002678044e-001	 1.799989999990450e+000	 3.230423814927141e+001
0	 4.000138002678043e-001	 1.866659999993466e+000	 2.927595265001609e+001
0	 4.000138002678044e-001	 1.933329999996683e+000	 2.547442030088366e+001
0	 4.000138002678044e-001	 2.000000000000000e+000	 2.090448229714973e+001
0	 4.666844975500012e-001	 1.333299999983334e+000	 3.139881643374545e+001
0	 4.666844975500012e-001	 1.399969999982150e+000	 3.281495291549123e+001
0	 4.666844975500011e-001	 1.466639999981866e+000	 3.362039390490303e+001
0	 4.666844975500012e-001	 1.533309999982383e+000	 3.382049803508291e+001
0	 4.666844975500011e-001	 1.599979999983599e+000	 3.342062393912767e+001
0	 4.666844975500012e-001	 1.666649999985416e+000	 3.242613025012882e+001
0	 4.666844975500011e-001	 1.733319999987733e+000	 3.084237560117259e+001
0	 4.666844975500011e-001	 1.799989999990450e+000	 2.867471862533991e+001
0	 4.666844975500012e-001	 1.866659999993466e+000	 2.592851795570644e+001
0	 4.666844975500010e-001	 1.933329999996683e+000	 2.260913222534257e+001
0	 4.666844975500011e-001	 2.000000000000000e+000	 1.872192006731342e+001
0	 5.333553781553803e-001	 1.333299999983334e+000	 3.113244351648904e+001
0	 5.333553781553803e-001	 1.399969999982150e+000	 3.145170571677444e+001
0	 5.333553781553801e-001	 1.466639999981867e+000	 3.136058599173713e+001
0	 5.333553781553803e-001	 1.533309999982383e+000	 3.086453474901585e+001
0	 5.333553781553803e-001	 1.599979999983599e+000	 2.996900239624595e+001
0	 5.333553781553801e-001	 1.666649999985417e+000	 2.867943934105928e+001
0	 5.333553781553803e-001	 1.733319999987733e+000	 2.700129599108431e+001
0	 5.333553781553803e-001	 1.799989999990450e+000	 2.494002275394597e+001
0	 5.333553781553803e-001	 1.866659999993466e+000	 2.250107003726583e+001
0	 5.333553781553800e-001	 1.933329999996683e+000	 1.968988824866196e+001
0	 5.333553781553803e-001	 2.000000000000000e+000	 1.651192779574903e+001
0	 6.000263254118247e-001	 1.333299999983334e+000	 3.058800403533801e+001
0	 6.000263254118247e-001	 1.399969999982150e+000	 2.990359553285897e+001
0	 6.000263254118249e-001	 1.466639999981866e+000	 2.899846452196641e+001
0	 6.000263254118246e-001	 1.533309999982383e+000	 2.787772752447232e+001
0	 6.000263254118247e-001	 1.599979999983600e+000	 2.654650106218696e+001
0	 6.000263254118249e-001	 1.666649999985417e+000	 2.500990165691889e+001
0	 6.000263254118248e-001	 1.733319999987733e+000	 2.327304583047493e+001
0	 6.000263254118246e-001	 1.799989999990450e+000	 2.134105010466021e+001
0	 6.000263254118247e-001	 1.866659999993466e+000	 1.921903100127810e+001
0	 6.000263254118247e-001	 1.933329999996683e+000	 1.691210504213026e+001
0	 6.000263254118247e-001	 2.000000000000000e+000	 1.442538874901665e+001
0	 6.666972226472175e-001	 1.333299999983334e+000	 2.970795551096701e+001
0	 6.666972226472177e-001	 1.399969999982150e+000	 2.819929835791955e+001
0	 6.666972226472177e-001	 1.466639999981867e+000	 2.663439598926804e+001
0	 6.666972226472178e-001	 1.533309999982383e+000	 2.501760537904149e+001
0	 6.666972226472177e-001	 1.599979999983600e+000	 2.335328350126872e+001
0	 6.666972226472177e-001	 1.666649999985416e+000	 2.164578732997826e+001
0	 6.666972226472177e-001	 1.733319999987733e+000	 1.989947383919840e+001
0	 6.666972226472177e-001	 1.799989999990450e+000	 1.811870000295722e+001
0	 6.666972226472178e-001	 1.866659999993466e+000	 1.630782279528257e+001
0	 6.666972226472175e-001	 1.933329999996683e+000	 1.447119919020200e+001
0	 6.666972226472177e-001	 2.000000000000000e+000	 1.261318616174286e+001
0	 0.000000000000000e+000	 2.000000000000000e+000	 2.497435784956543e+001
0	 0.000000000000000e+000	 2.066670000003316e+000	 1.918972128440718e+001
0	 0.000000000000000e+000	 2.133340000006534e+000	 1.421963123180283e+001
0	 0.000000000000000e+000	 2.200010000009550e+000	 1.006378026324172e+001
0	 0.000000000000000e+000	 2.266680000012268e+000	 6.721860950220600e+000
0	 0.000000000000000e+000	 2.333350000014584e+000	 4.193565864243727e+000
0	 0.000000000000000e+000	 2.400020000016401e+000	 2.478587576822807e+000
0	 0.000000000000000e+000	 2.466690000017617e+000	 1.576618659477010e+000
0	 0.000000000000000e+000	 2.533360000018134e+000	 1.487351683732939e+000
0	 0.000000000000000e+000	 2.600030000017850e+000	 2.210479221124676e+000
0	 0.000000000000000e+000	 2.666700000016666e+000	 3.745693843193747e+000
0	 6.666714722864756e-002	 2.000000000000000e+000	 2.612492625581622e+001
0	 6.666714722864756e-002	 2.066670000003317e+000	 1.991046017450340e+001
0	 6.666714722864754e-002	 2.133340000006534e+000	 1.457841057046071e+001
0	 6.666714722864757e-002	 2.200010000009551e+000	 1.012695601390531e+001
0	 6.666714722864756e-002	 2.266680000012268e+000	 6.554275075062307e+000
0	 6.666714722864756e-002	 2.333350000014584e+000	 3.858546324164854e+000
0	 6.666714722864756e-002	 2.400020000016402e+000	 2.037948331454052e+000
0	 6.666714722864757e-002	 2.466690000017617e+000	 1.090659667178967e+000
0	 6.666714722864754e-002	 2.533360000018134e+000	 1.014858901596656e+000
0	 6.666714722864757e-002	 2.600030000017850e+000	 1.808724604972166e+000
0	 6.666714722864756e-002	 2.666700000016667e+000	 3.470435347578474e+000
0	 1.333351778131789e-001	 2.000000000000000e+000	 2.634276435050512e+001
0	 1.333351778131789e-001	 2.066670000003317e+000	 2.001320562555843e+001
0	 1.333351778131789e-001	 2.133340000006535e+000	 1.458880700256815e+001
0	 1.333351778131789e-001	 2.200010000009550e+000	 1.006654345525651e+001
0	 1.333351778131790e-001	 2.266680000012268e+000	 6.443389957353781e+000
0	 1.333351778131790e-001	 2.333350000014585e+000	 3.716321482598411e+000
0	 1.333351778131790e-001	 2.400020000016402e+000	 1.882313004736942e+000
0	 1.333351778131789e-001	 2.466690000017618e+000	 9.383394975240054e-001
0	 1.333351778131790e-001	 2.533360000018134e+000	 8.813759347223478e-001
0	 1.333351778131790e-001	 2.600030000017851e+000	 1.708397290102819e+000
0	 1.333351778131789e-001	 2.666700000016666e+000	 3.416378537444381e+000
0	 2.000039750814773e-001	 2.000000000000000e+000	 2.577875559175167e+001
0	 2.000039750814773e-001	 2.066670000003318e+000	 1.960038124119700e+001
0	 2.000039750814773e-001	 2.133340000006534e+000	 1.431145987053189e+001
0	 2.000039750814773e-001	 2.200010000009550e+000	 9.908073243918100e+000
0	 2.000039750814773e-001	 2.266680000012268e+000	 6.386303125525271e+000
0	 2.000039750814773e-001	 2.333350000014585e+000	 3.742231279530971e+000
0	 2.000039750814772e-001	 2.400020000016401e+000	 1.971939470120689e+000
0	 2.000039750814773e-001	 2.466690000017618e+000	 1.071509461487785e+000
0	 2.000039750814772e-001	 2.533360000018133e+000	 1.037023017833549e+000
0	 2.000039750814772e-001	 2.600030000017851e+000	 1.864561903367165e+000
0	 2.000039750814772e-001	 2.666700000016666e+000	 3.550207882305713e+000
0	 2.666734223614255e-001	 2.000000000000000e+000	 2.458378340574963e+001
0	 2.666734223614255e-001	 2.066670000003317e+000	 1.877441062754576e+001
0	 2.666734223614256e-001	 2.133340000006534e+000	 1.380700853515911e+001
0	 2.666734223614256e-001	 2.200010000009550e+000	 9.677076055542662e+000
0	 2.666734223614256e-001	 2.266680000012267e+000	 6.380112115656790e+000
0	 2.666734223614256e-001	 2.333350000014583e+000	 3.911615642469343e+000
0	 2.666734223614256e-001	 2.400020000016402e+000	 2.267085562955571e+000
0	 2.666734223614255e-001	 2.466690000017618e+000	 1.442020804098206e+000
0	 2.666734223614255e-001	 2.533360000018133e+000	 1.431920292887354e+000
0	 2.666734223614255e-001	 2.600030000017850e+000	 2.232282956320605e+000
0	 2.666734223614256e-001	 2.666700000016667e+000	 3.838607721402947e+000
0	 3.333434029809069e-001	 2.000000000000000e+000	 2.290873118676774e+001
0	 3.333434029809069e-001	 2.066670000003317e+000	 1.763771739322868e+001
0	 3.333434029809069e-001	 2.133340000006534e+000	 1.313609237565011e+001
0	 3.333434029809069e-001	 2.200010000009550e+000	 9.399082584804507e+000
0	 3.333434029809069e-001	 2.266680000012267e+000	 6.421914471471077e+000
0	 3.333434029809069e-001	 2.333350000014584e+000	 4.199814486435806e+000
0	 3.333434029809068e-001	 2.400020000016401e+000	 2.728009080491443e+000
0	 3.333434029809068e-001	 2.466690000017617e+000	 2.001724704437473e+000
0	 3.333434029809069e-001	 2.533360000018134e+000	 2.016187809080133e+000
0	 3.333434029809070e-001	 2.600030000017851e+000	 2.766624845232427e+000
0	 3.333434029809069e-001	 2.666700000016666e+000	 4.248262263714086e+000
0	 4.000138002678044e-001	 2.000000000000000e+000	 2.090448229714973e+001
0	 4.000138002678045e-001	 2.066670000003317e+000	 1.629272514936256e+001
0	 4.000138002678044e-001	 2.133340000006534e+000	 1.235935078959132e+001
0	 4.000138002678044e-001	 2.200010000009551e+000	 9.099623545392044e+000
0	 4.000138002678043e-001	 2.266680000012267e+000	 6.508807744326681e+000
0	 4.000138002678044e-001	 2.333350000014584e+000	 4.582167713963117e+000
0	 4.000138002678044e-001	 2.400020000016401e+000	 3.314967781875160e+000
0	 4.000138002678044e-001	 2.466690000017617e+000	 2.702472275642520e+000
0	 4.000138002678044e-001	 2.533360000018134e+000	 2.739945522850856e+000
0	 4.000138002678045e-001	 2.600030000017851e+000	 3.422651851091733e+000
0	 4.000138002678044e-001	 2.666700000016665e+000	 4.745855587962629e+000
0	 4.666844975500011e-001	 2.000000000000000e+000	 1.872192006731342e+001
0	 4.666844975500009e-001	 2.066670000003316e+000	 1.484185750955246e+001
0	 4.666844975500012e-001	 2.133340000006534e+000	 1.153742319294880e+001
0	 4.666844975500011e-001	 2.200010000009550e+000	 8.804229670000686e+000
0	 4.666844975500011e-001	 2.266680000012267e+000	 6.637889493211360e+000
0	 4.666844975500012e-001	 2.333350000014585e+000	 5.034015215089069e+000
0	 4.666844975500011e-001	 2.400020000016400e+000	 3.988219388147074e+000
0	 4.666844975500012e-001	 2.466690000017617e+000	 3.496114564903623e+000
0	 4.666844975500011e-001	 2.533360000018134e+000	 3.553313297881961e+000
0	 4.666844975500012e-001	 2.600030000017851e+000	 4.155428139610344e+000
0	 4.666844975500012e-001	 2.666700000016666e+000	 5.298071642622025e+000
0	 5.333553781553803e-001	 2.000000000000000e+000	 1.651192779574903e+001
0	 5.333553781553804e-001	 2.066670000003317e+000	 1.338753808988740e+001
0	 5.333553781553803e-001	 2.133340000006534e+000	 1.073094902006234e+001
0	 5.333553781553804e-001	 2.200010000009550e+000	 8.538431710326247e+000
0	 5.333553781553801e-001	 2.266680000012267e+000	 6.806257284735570e+000
0	 5.333553781553804e-001	 2.333350000014584e+000	 5.530696867350808e+000
0	 5.333553781553804e-001	 2.400020000016401e+000	 4.708021582236516e+000
0	 5.333553781553801e-001	 2.466690000017616e+000	 4.334502553461295e+000
0	 5.333553781553803e-001	 2.533360000018133e+000	 4.406410905097794e+000
0	 5.333553781553803e-001	 2.600030000017851e+000	 4.920017761222710e+000
0	 5.333553781553803e-001	 2.666700000016666e+000	 5.871594245916800e+000
0	 6.000263254118247e-001	 2.000000000000000e+000	 1.442538874901665e+001
0	 6.000263254118248e-001	 2.066670000003317e+000	 1.203219050893599e+001
0	 6.000263254118247e-001	 2.133340000006534e+000	 1.000056772363991e+001
0	 6.000263254118247e-001	 2.200010000009550e+000	 8.327760437058831e+000
0	 6.000263254118247e-001	 2.266680000012267e+000	 7.011008693126229e+000
0	 6.000263254118246e-001	 2.333350000014584e+000	 6.047552535778773e+000
0	 6.000263254118247e-001	 2.400020000016400e+000	 5.434632008956227e+000
0	 6.000263254118248e-001	 2.466690000017617e+000	 5.169487156601503e+000
0	 6.000263254118247e-001	 2.533360000018134e+000	 5.249358022660619e+000
0	 6.000263254118247e-001	 2.600030000017850e+000	 5.671484651082745e+000
0	 6.000263254118247e-001	 2.666700000016666e+000	 6.433107085820174e+000
0	 6.666972226472177e-001	 2.000000000000000e+000	 1.261318616174286e+001
0	 6.666972226472177e-001	 2.066670000003317e+000	 1.087823838774214e+001
0	 6.666972226472178e-001	 2.133340000006534e+000	 9.406918774752686e+000
0	 6.666972226472177e-001	 2.200010000009550e+000	 8.197746639877197e+000
0	 6.666972226472177e-001	 2.266680000012268e+000	 7.249241300220656e+000
0	 6.666972226472175e-001	 2.333350000014584e+000	 6.559922072890347e+000
0	 6.666972226472175e-001	 2.400020000016400e+000	 6.128308274995857e+000
0	 6.666972226472178e-001	 2.466690000017616e+000	 5.952919223649080e+000
0	 6.666972226472178e-001	 2.533360000018134e+000	 6.032274235964193e+000
0	 6.666972226472177e-001	 2.600030000017850e+000	 6.364892629057683e+000
0	 6.666972226472177e-001	 2.666700000016667e+000	 6.949293720048337e+000
0	 0.000000000000000e+000	 2.666700000016666e+000	 3.745693843193747e+000
0	 0.000000000000000e+000	 2.733360000014533e+000	 5.548034618348461e+000
0	 0.000000000000000e+000	 2.800020000011600e+000	 7.075843645250445e+000
0	 0.000000000000000e+000	 2.866680000008067e+000	 8.332894564444496e+000
0	 0.000000000000000e+000	 2.933340000004133e+000	 9.322961016480120e+000
0	 0.000000000000000e+000	 3.000000000000000e+000	 1.004981664191153e+001
0	 0.000000000000000e+000	 3.066659999995867e+000	 1.051723508129762e+001
0	 0.000000000000000e+000	 3.133319999991933e+000	 1.072898997520201e+001
0	 0.000000000000000e+000	 3.199979999988401e+000	 1.068885496419306e+001
0	 0.000000000000000e+000	 3.266639999985467e+000	 1.040060368884376e+001
0	 0.000000000000000e+000	 3.333299999983334e+000	 9.868009789731874e+000
0	 6.666714722864756e-002	 2.666700000016667e+000	 3.470435347578474e+000
0	 6.666714722864754e-002	 2.733360000014533e+000	 5.414535162519647e+000
0	 6.666714722864756e-002	 2.800020000011599e+000	 7.060221326908668e+000
0	 6.666714722864754e-002	 2.866680000008067e+000	 8.411709562423971e+000
0	 6.666714722864758e-002	 2.933340000004133e+000	 9.473215590749080e+000
0	 6.666714722864757e-002	 3.000000000000000e+000	 1.024895513357256e+001
0	 6.666714722864757e-002	 3.066659999995867e+000	 1.074314391258812e+001
0	 6.666714722864756e-002	 3.133319999991933e+000	 1.095999764949449e+001
0	 6.666714722864756e-002	 3.199979999988400e+000	 1.090373206599554e+001
0	 6.666714722864756e-002	 3.266639999985467e+000	 1.057856288380015e+001
0	 6.666714722864756e-002	 3.333299999983333e+000	 9.988705824622363e+000
0	 1.333351778131789e-001	 2.666700000016666e+000	 3.416378537444379e+000
0	 1.333351778131790e-001	 2.733360000014533e+000	 5.408287223777458e+000
0	 1.333351778131789e-001	 2.800020000011600e+000	 7.092745676572898e+000
0	 1.333351778131789e-001	 2.866680000008067e+000	 8.474244734812487e+000
0	 1.333351778131789e-001	 2.933340000004134e+000	 9.557275237483225e+000
0	 1.333351778131789e-001	 3.000000000000000e+000	 1.034632802357731e+001
0	 1.333351778131789e-001	 3.066659999995868e+000	 1.084589393209213e+001
0	 1.333351778131790e-001	 3.133319999991934e+000	 1.106046380203033e+001
0	 1.333351778131790e-001	 3.199979999988401e+000	 1.099452847239971e+001
0	 1.333351778131789e-001	 3.266639999985468e+000	 1.065257878221328e+001
0	 1.333351778131789e-001	 3.333299999983334e+000	 1.003910557048929e+001
0	 2.000039750814772e-001	 2.666700000016666e+000	 3.550207882305713e+000
0	 2.000039750814772e-001	 2.733360000014533e+000	 5.509885865952604e+000
0	 2.000039750814773e-001	 2.800020000011600e+000	 7.165832909193128e+000
0	 2.000039750814773e-001	 2.866680000008066e+000	 8.522648012124805e+000
0	 2.000039750814773e-001	 2.933340000004133e+000	 9.584930174850285e+000
0	 2.000039750814773e-001	 3.000000000000000e+000	 1.035727839747731e+001
0	 2.000039750814772e-001	 3.066659999995867e+000	 1.084429168011878e+001
0	 2.000039750814772e-001	 3.133319999991933e+000	 1.105056902289268e+001
0	 2.000039750814772e-001	 3.199979999988401e+000	 1.098070942592210e+001
0	 2.000039750814772e-001	 3.266639999985467e+000	 1.063931188933524e+001
0	 2.000039750814772e-001	 3.333299999983334e+000	 1.003097541326546e+001
0	 2.666734223614256e-001	 2.666700000016667e+000	 3.838607721402947e+000
0	 2.666734223614256e-001	 2.733360000014533e+000	 5.699926017597501e+000
0	 2.666734223614255e-001	 2.800020000011599e+000	 7.271899108489724e+000
0	 2.666734223614255e-001	 2.866680000008067e+000	 8.559067204994538e+000
0	 2.666734223614256e-001	 2.933340000004134e+000	 9.565970518031694e+000
0	 2.666734223614255e-001	 2.999999999999999e+000	 1.029714925852579e+001
0	 2.666734223614254e-001	 3.066659999995866e+000	 1.075714363740630e+001
0	 2.666734223614255e-001	 3.133319999991933e+000	 1.095049386560754e+001
0	 2.666734223614256e-001	 3.199979999988401e+000	 1.088174015406862e+001
0	 2.666734223614255e-001	 3.266639999985467e+000	 1.055542271373358e+001
0	 2.666734223614255e-001	 3.333299999983333e+000	 9.976081755551265e+000
0	 3.333434029809069e-001	 2.666700000016666e+000	 4.248262263714087e+000
0	 3.333434029809069e-001	 2.733360000014533e+000	 5.959002471998795e+000
0	 3.333434029809069e-001	 2.800020000011600e+000	 7.403360226966109e+000
0	 3.333434029809069e-001	 2.866680000008067e+000	 8.585650004186048e+000
0	 3.333434029809069e-001	 2.933340000004133e+000	 9.510186279233055e+000
0	 3.333434029809070e-001	 3.000000000000000e+000	 1.018128352768603e+001
0	 3.333434029809069e-001	 3.066659999995867e+000	 1.060325622512832e+001
0	 3.333434029809069e-001	 3.133319999991934e+000	 1.078041884714770e+001
0	 3.333434029809069e-001	 3.199979999988400e+000	 1.071708586933640e+001
0	 3.333434029809069e-001	 3.266639999985467e+000	 1.041757176729107e+001
0	 3.333434029809069e-001	 3.333299999983334e+000	 9.886191016612832e+000
0	 4.000138002678044e-001	 2.666700000016665e+000	 4.745855587962629e+000
0	 4.000138002678044e-001	 2.733360000014533e+000	 6.267709887186350e+000
0	 4.000138002678044e-001	 2.800020000011600e+000	 7.552632085917918e+000
0	 4.000138002678043e-001	 2.866680000008066e+000	 8.604543980603165e+000
0	 4.000138002678044e-001	 2.933340000004134e+000	 9.427367367691886e+000
0	 4.000138002678044e-001	 3.000000000000000e+000	 1.002502404363778e+001
0	 4.000138002678043e-001	 3.066659999995866e+000	 1.040143580489853e+001
0	 4.000138002678044e-001	 3.133319999991934e+000	 1.056052444793571e+001
0	 4.000138002678044e-001	 3.199979999988400e+000	 1.050621176921485e+001
0	 4.000138002678044e-001	 3.266639999985467e+000	 1.024241956520542e+001
0	 4.000138002678044e-001	 3.333299999983334e+000	 9.773069632380805e+000
0	 4.666844975500012e-001	 2.666700000016666e+000	 5.298071642622025e+000
0	 4.666844975500011e-001	 2.733360000014533e+000	 6.606642785938708e+000
0	 4.666844975500012e-001	 2.800020000011600e+000	 7.712130375438799e+000
0	 4.666844975500011e-001	 2.866680000008067e+000	 8.617896585294805e+000
0	 4.666844975500011e-001	 2.933340000004133e+000	 9.327303589682595e+000
0	 4.666844975500010e-001	 3.000000000000000e+000	 9.843713562781385e+000
0	 4.666844975500011e-001	 3.066659999995867e+000	 1.017048867877380e+001
0	 4.666844975500011e-001	 3.133319999991933e+000	 1.031099111184579e+001
0	 4.666844975500012e-001	 3.199979999988400e+000	 1.026858303618669e+001
0	 4.666844975500011e-001	 3.266639999985468e+000	 1.004662662598919e+001
0	 4.666844975500011e-001	 3.333299999983334e+000	 9.648484055449350e+000
0	 5.333553781553803e-001	 2.666700000016666e+000	 5.871594245916800e+000
0	 5.333553781553801e-001	 2.733360000014532e+000	 6.956395555784938e+000
0	 5.333553781553803e-001	 2.800020000011600e+000	 7.874270654422755e+000
0	 5.333553781553803e-001	 2.866680000008067e+000	 8.627855149457419e+000
0	 5.333553781553801e-001	 2.933340000004133e+000	 9.219784648518880e+000
0	 5.333553781553803e-001	 3.000000000000000e+000	 9.652694759239823e+000
0	 5.333553781553803e-001	 3.066659999995867e+000	 9.929221089255758e+000
0	 5.333553781553801e-001	 3.133319999991934e+000	 1.005199924620492e+001
0	 5.333553781553801e-001	 3.199979999988401e+000	 1.002366483772833e+001
0	 5.333553781553801e-001	 3.266639999985467e+000	 9.846853471469776e+000
0	 5.333553781553803e-001	 3.333299999983335e+000	 9.524200755075800e+000
0	 6.000263254118247e-001	 2.666700000016666e+000	 6.433107085820175e+000
0	 6.000263254118247e-001	 2.733360000014532e+000	 7.297562449003001e+000
0	 6.000263254118247e-001	 2.800020000011599e+000	 8.031468350562975e+000
0	 6.000263254118247e-001	 2.866680000008067e+000	 8.636566884434279e+000
0	 6.000263254118248e-001	 2.933340000004133e+000	 9.114600144553288e+000
0	 6.000263254118248e-001	 3.000000000000000e+000	 9.467310224858533e+000
0	 6.000263254118246e-001	 3.066659999995866e+000	 9.696439219290760e+000
0	 6.000263254118249e-001	 3.133319999991934e+000	 9.803729221792883e+000
0	 6.000263254118247e-001	 3.199979999988401e+000	 9.790922326310010e+000
0	 6.000263254118248e-001	 3.266639999985468e+000	 9.659760626789419e+000
0	 6.000263254118246e-001	 3.333299999983333e+000	 9.411986217180589e+000
0	 6.666972226472177e-001	 2.666700000016667e+000	 6.949293720048336e+000
0	 6.666972226472175e-001	 2.733360000014533e+000	 7.610737582614520e+000
0	 6.666972226472178e-001	 2.800020000011599e+000	 8.176138760347310e+000
0	 6.666972226472177e-001	 2.866680000008067e+000	 8.646178881711668e+000
0	 6.666972226472178e-001	 2.933340000004133e+000	 9.021539575174177e+000
0	 6.666972226472175e-001	 3.000000000000000e+000	 9.302902469203094e+000
0	 6.666972226472178e-001	 3.066659999995867e+000	 9.490949192268298e+000
0	 6.666972226472175e-001	 3.133319999991933e+000	 9.586361372841353e+000
0	 6.666972226472178e-001	 3.199979999988400e+000	 9.589820639395434e+000
0	 6.666972226472177e-001	 3.266639999985467e+000	 9.502008620405380e+000
0	 6.666972226472175e-001	 3.333299999983334e+000	 9.323606944347674e+000
0	 0.000000000000000e+000	 3.333299999983334e+000	 9.868009789731874e+000
0	 0.000000000000000e+000	 3.399969999982150e+000	 9.270955285746203e+000
0	 0.000000000000000e+000	 3.466639999981866e+000	 8.784683043275967e+000
0	 0.000000000000000e+000	 3.533309999982383e+000	 8.405713866444080e+000
0	 0.000000000000000e+000	 3.599979999983600e+000	 8.130568559374234e+000
0	 0.000000000000000e+000	 3.666649999985416e+000	 7.955767926191021e+000
0	 0.000000000000000e+000	 3.733319999987733e+000	 7.877832771019844e+000
0	 0.000000000000000e+000	 3.799989999990449e+000	 7.893283897986942e+000
0	 0.000000000000000e+000	 3.866659999993467e+000	 7.998642111219417e+000
0	 0.000000000000000e+000	 3.933329999996684e+000	 8.190428214845190e+000
0	 0.000000000000000e+000	 4.000000000000000e+000	 8.465163012993035e+000
0	 6.666714722864756e-002	 3.333299999983333e+000	 9.988705824622363e+000
0	 6.666714722864756e-002	 3.399969999982149e+000	 9.329510252610318e+000
0	 6.666714722864754e-002	 3.466639999981866e+000	 8.791330980109109e+000
0	 6.666714722864756e-002	 3.533309999982382e+000	 8.370567510602973e+000
0	 6.666714722864754e-002	 3.599979999983600e+000	 8.063619347576996e+000
0	 6.666714722864756e-002	 3.666649999985416e+000	 7.866885994517239e+000
0	 6.666714722864756e-002	 3.733319999987732e+000	 7.776766954910664e+000
0	 6.666714722864754e-002	 3.799989999990449e+000	 7.789661732245169e+000
0	 6.666714722864756e-002	 3.866659999993467e+000	 7.901969830009589e+000
0	 6.666714722864756e-002	 3.933329999996683e+000	 8.110090751693628e+000
0	 6.666714722864757e-002	 4.000000000000001e+000	 8.410424000787991e+000
0	 1.333351778131789e-001	 3.333299999983334e+000	 1.003910557048929e+001
0	 1.333351778131789e-001	 3.399969999982150e+000	 9.355010963079646e+000
0	 1.333351778131789e-001	 3.466639999981866e+000	 8.796013100183570e+000
0	 1.333351778131789e-001	 3.533309999982381e+000	 8.358490326581524e+000
0	 1.333351778131789e-001	 3.599979999983600e+000	 8.038820987054891e+000
0	 1.333351778131790e-001	 3.666649999985417e+000	 7.833383426386040e+000
0	 1.333351778131790e-001	 3.733319999987733e+000	 7.738555989358294e+000
0	 1.333351778131789e-001	 3.799989999990449e+000	 7.750717020755920e+000
0	 1.333351778131789e-001	 3.866659999993466e+000	 7.866244865364172e+000
0	 1.333351778131789e-001	 3.933329999996684e+000	 8.081517867969241e+000
0	 1.333351778131789e-001	 4.000000000000000e+000	 8.392914373358261e+000
0	 2.000039750814772e-001	 3.333299999983334e+000	 1.003097541326546e+001
0	 2.000039750814772e-001	 3.399969999982150e+000	 9.353704501253739e+000
0	 2.000039750814773e-001	 3.466639999981866e+000	 8.800297976965084e+000
0	 2.000039750814772e-001	 3.533309999982382e+000	 8.367213164582283e+000
0	 2.000039750814772e-001	 3.599979999983600e+000	 8.050907388289049e+000
0	 2.000039750814773e-001	 3.666649999985417e+000	 7.847837972270075e+000
0	 2.000039750814773e-001	 3.733319999987733e+000	 7.754462240710966e+000
0	 2.000039750814773e-001	 3.799989999990450e+000	 7.767237517798296e+000
0	 2.000039750814772e-001	 3.866659999993467e+000	 7.882621127719600e+000
0	 2.000039750814773e-001	 3.933329999996684e+000	 8.097070394663337e+000
0	 2.000039750814773e-001	 4.000000000000000e+000	 8.407042642818936e+000
0	 2.666734223614255e-001	 3.333299999983333e+000	 9.976081755551265e+000
0	 2.666734223614255e-001	 3.399969999982149e+000	 9.331837974992434e+000
0	 2.666734223614256e-001	 3.466639999981866e+000	 8.805754209094705e+000
0	 2.666734223614256e-001	 3.533309999982383e+000	 8.394466896772045e+000
0	 2.666734223614256e-001	 3.599979999983600e+000	 8.094612476939304e+000
0	 2.666734223614256e-001	 3.666649999985417e+000	 7.902827388512255e+000
0	 2.666734223614255e-001	 3.733319999987733e+000	 7.815748070407560e+000
0	 2.666734223614256e-001	 3.799989999990450e+000	 7.830010961542787e+000
0	 2.666734223614256e-001	 3.866659999993466e+000	 7.942252500836445e+000
0	 2.666734223614255e-001	 3.933329999996683e+000	 8.149109127207886e+000
0	 2.666734223614255e-001	 4.000000000000001e+000	 8.447217279577426e+000
0	 3.333434029809069e-001	 3.333299999983334e+000	 9.886191016612836e+000
0	 3.333434029809069e-001	 3.399969999982149e+000	 9.295658515913299e+000
0	 3.333434029809069e-001	 3.466639999981867e+000	 8.813950420386020e+000
0	 3.333434029809069e-001	 3.533309999982384e+000	 8.437982417279269e+000
0	 3.333434029809068e-001	 3.599979999983599e+000	 8.164670193842163e+000
0	 3.333434029809069e-001	 3.666649999985416e+000	 7.990929437324636e+000
0	 3.333434029809069e-001	 3.733319999987733e+000	 7.913675834977471e+000
0	 3.333434029809068e-001	 3.799989999990450e+000	 7.929825074052266e+000
0	 3.333434029809069e-001	 3.866659999993467e+000	 8.036292841801471e+000
0	 3.333434029809069e-001	 3.933329999996685e+000	 8.229994825478361e+000
0	 3.333434029809069e-001	 4.000000000000000e+000	 8.507846712337045e+000
0	 4.000138002678044e-001	 3.333299999983334e+000	 9.773069632380802e+000
0	 4.000138002678045e-001	 3.399969999982150e+000	 9.251413279389670e+000
0	 4.000138002678044e-001	 3.466639999981866e+000	 8.826455259822909e+000
0	 4.000138002678043e-001	 3.533309999982383e+000	 8.495490642192022e+000
0	 4.000138002678045e-001	 3.599979999983599e+000	 8.255814495009197e+000
0	 4.000138002678043e-001	 3.666649999985415e+000	 8.104721886787411e+000
0	 4.000138002678043e-001	 3.733319999987732e+000	 8.039507886040362e+000
0	 4.000138002678043e-001	 3.799989999990449e+000	 8.057467561282481e+000
0	 4.000138002678043e-001	 3.866659999993466e+000	 8.155895981028957e+000
0	 4.000138002678043e-001	 3.933329999996683e+000	 8.332088213795711e+000
0	 4.000138002678044e-001	 4.000000000000000e+000	 8.583339328099402e+000
0	 4.666844975500011e-001	 3.333299999983334e+000	 9.648484055449350e+000
0	 4.666844975500011e-001	 3.399969999982150e+000	 9.205349444549247e+000
0	 4.666844975500011e-001	 3.466639999981867e+000	 8.844837401558060e+000
0	 4.666844975500012e-001	 3.533309999982384e+000	 8.564722509556486e+000
0	 4.666844975500011e-001	 3.599979999983599e+000	 8.362779351625832e+000
0	 4.666844975500012e-001	 3.666649999985417e+000	 8.236782510848071e+000
0	 4.666844975500011e-001	 3.733319999987733e+000	 8.184506570305796e+000
0	 4.666844975500011e-001	 3.799989999990451e+000	 8.203726113082242e+000
0	 4.666844975500011e-001	 3.866659999993466e+000	 8.292215722261275e+000
0	 4.666844975500010e-001	 3.933329999996683e+000	 8.447749980927403e+000
0	 4.666844975500010e-001	 3.999999999999999e+000	 8.668103472165763e+000
0	 5.333553781553803e-001	 3.333299999983335e+000	 9.524200755075801e+000
0	 5.333553781553803e-001	 3.399969999982150e+000	 9.163714214273465e+000
0	 5.333553781553801e-001	 3.466639999981867e+000	 8.870665544912097e+000
0	 5.333553781553803e-001	 3.533309999982383e+000	 8.643408979376131e+000
0	 5.333553781553800e-001	 3.599979999983599e+000	 8.480298750050499e+000
0	 5.333553781553803e-001	 3.666649999985416e+000	 8.379689089320697e+000
0	 5.333553781553801e-001	 3.733319999987733e+000	 8.339934229572707e+000
0	 5.333553781553803e-001	 3.799989999990450e+000	 8.359388403193059e+000
0	 5.333553781553803e-001	 3.866659999993466e+000	 8.436405842568810e+000
0	 5.333553781553803e-001	 3.933329999996683e+000	 8.569340780087531e+000
0	 5.333553781553803e-001	 4.000000000000000e+000	 8.756547448137322e+000
0	 6.000263254118246e-001	 3.333299999983333e+000	 9.411986217180587e+000
0	 6.000263254118247e-001	 3.399969999982150e+000	 9.132754815197307e+000
0	 6.000263254118248e-001	 3.466639999981867e+000	 8.905508414373376e+000
0	 6.000263254118246e-001	 3.533309999982382e+000	 8.729281033611368e+000
0	 6.000263254118248e-001	 3.599979999983600e+000	 8.603106691814261e+000
0	 6.000263254118247e-001	 3.666649999985416e+000	 8.526019407885451e+000
0	 6.000263254118249e-001	 3.733319999987733e+000	 8.497053200728777e+000
0	 6.000263254118247e-001	 3.799989999990450e+000	 8.515242089248456e+000
0	 6.000263254118247e-001	 3.866659999993467e+000	 8.579620092349153e+000
0	 6.000263254118247e-001	 3.933329999996683e+000	 8.689221228935940e+000
0	 6.000263254118247e-001	 4.000000000000000e+000	 8.843079517914310e+000
0	 6.666972226472175e-001	 3.333299999983334e+000	 9.323606944347674e+000
0	 6.666972226472177e-001	 3.399969999982150e+000	 9.118718497709880e+000
0	 6.666972226472177e-001	 3.466639999981867e+000	 8.950934759598450e+000
0	 6.666972226472177e-001	 3.533309999982382e+000	 8.820069676179818e+000
0	 6.666972226472177e-001	 3.599979999983599e+000	 8.725937193620716e+000
0	 6.666972226472175e-001	 3.666649999985416e+000	 8.668351258088203e+000
0	 6.666972226472175e-001	 3.733319999987733e+000	 8.647125815749673e+000
0	 6.666972226472175e-001	 3.799989999990450e+000	 8.662074812772811e+000
0	 6.666972226472177e-001	 3.866659999993467e+000	 8.713012195325648e+000
0	 6.666972226472175e-001	 3.933329999996683e+000	 8.799751909576530e+000
0	 6.666972226472175e-001	 4.000000000000001e+000	 8.922107901694117e+000
0	 0.000000000000000e+000	 4.000000000000000e+000	 8.465163012993035e+000
0	 0.000000000000000e+000	 4.066670000003317e+000	 8.755431065205174e+000
0	 0.000000000000000e+000	 4.133340000006535e+000	 8.997649249411522e+000
0	 0.000000000000000e+000	 4.200010000009550e+000	 9.194086847322627e+000
0	 0.000000000000000e+000	 4.266680000012268e+000	 9.347013140648796e+000
0	 0.000000000000000e+000	 4.333350000014584e+000	 9.458697411099928e+000
0	 0.000000000000000e+000	 4.400020000016401e+000	 9.531408940385669e+000
0	 0.000000000000000e+000	 4.466690000017617e+000	 9.567417010215277e+000
0	 0.000000000000000e+000	 4.533360000018134e+000	 9.568990902297710e+000
0	 0.000000000000000e+000	 4.600030000017850e+000	 9.538399898341586e+000
0	 0.000000000000000e+000	 4.666700000016666e+000	 9.477913280055219e+000
0	 6.666714722864757e-002	 4.000000000000001e+000	 8.410424000787991e+000
0	 6.666714722864756e-002	 4.066670000003317e+000	 8.728627048869543e+000
0	 6.666714722864757e-002	 4.133340000006534e+000	 8.994291668365097e+000
0	 6.666714722864756e-002	 4.200010000009550e+000	 9.209718814040508e+000
0	 6.666714722864756e-002	 4.266680000012267e+000	 9.377209440661353e+000
0	 6.666714722864757e-002	 4.333350000014583e+000	 9.499064502992805e+000
0	 6.666714722864754e-002	 4.400020000016402e+000	 9.577584955799660e+000
0	 6.666714722864756e-002	 4.466690000017618e+000	 9.615071753846372e+000
0	 6.666714722864754e-002	 4.533360000018135e+000	 9.613825851897012e+000
0	 6.666714722864756e-002	 4.600030000017849e+000	 9.576148204715297e+000
0	 6.666714722864756e-002	 4.666700000016666e+000	 9.504339767064556e+000
0	 1.333351778131789e-001	 4.000000000000000e+000	 8.392914373358261e+000
0	 1.333351778131789e-001	 4.066670000003315e+000	 8.723190017490284e+000
0	 1.333351778131789e-001	 4.133340000006534e+000	 8.999032164813562e+000
0	 1.333351778131789e-001	 4.200010000009550e+000	 9.222716752849534e+000
0	 1.333351778131790e-001	 4.266680000012268e+000	 9.396519719119244e+000
0	 1.333351778131789e-001	 4.333350000014582e+000	 9.522717001143386e+000
0	 1.333351778131790e-001	 4.400020000016403e+000	 9.603584536442225e+000
0	 1.333351778131789e-001	 4.466690000017618e+000	 9.641398262535684e+000
0	 1.333351778131790e-001	 4.533360000018134e+000	 9.638434116943271e+000
0	 1.333351778131789e-001	 4.600030000017852e+000	 9.596968037184128e+000
0	 1.333351778131790e-001	 4.666700000016667e+000	 9.519275960776993e+000
0	 2.000039750814773e-001	 4.000000000000000e+000	 8.407042642818938e+000
0	 2.000039750814773e-001	 4.066670000003317e+000	 8.735826903395637e+000
0	 2.000039750814772e-001	 4.133340000006534e+000	 9.010536812776442e+000
0	 2.000039750814772e-001	 4.200010000009551e+000	 9.233366602911787e+000
0	 2.000039750814773e-001	 4.266680000012268e+000	 9.406510505751742e+000
0	 2.000039750814773e-001	 4.333350000014583e+000	 9.532162753246000e+000
0	 2.000039750814772e-001	 4.400020000016401e+000	 9.612517577343860e+000
0	 2.000039750814773e-001	 4.466690000017619e+000	 9.649769209994219e+000
0	 2.000039750814773e-001	 4.533360000018134e+000	 9.646111883145627e+000
0	 2.000039750814772e-001	 4.600030000017852e+000	 9.603739828746218e+000
0	 2.000039750814772e-001	 4.666700000016667e+000	 9.524847278743758e+000
0	 2.666734223614255e-001	 4.000000000000001e+000	 8.447217279577425e+000
0	 2.666734223614255e-001	 4.066670000003317e+000	 8.763244594570358e+000
0	 2.666734223614256e-001	 4.133340000006534e+000	 9.027471642485448e+000
0	 2.666734223614255e-001	 4.200010000009550e+000	 9.241954262753589e+000
0	 2.666734223614255e-001	 4.266680000012268e+000	 9.408748294805292e+000
0	 2.666734223614255e-001	 4.333350000014584e+000	 9.529909578070720e+000
0	 2.666734223614256e-001	 4.400020000016402e+000	 9.607493951979654e+000
0	 2.666734223614256e-001	 4.466690000017617e+000	 9.643557255961497e+000
0	 2.666734223614256e-001	 4.533360000018133e+000	 9.640155329445292e+000
0	 2.666734223614256e-001	 4.600030000017850e+000	 9.599344011859706e+000
0	 2.666734223614255e-001	 4.666700000016667e+000	 9.523179142633051e+000
0	 3.333434029809069e-001	 4.000000000000000e+000	 8.507846712337045e+000
0	 3.333434029809069e-001	 4.066670000003318e+000	 8.802149934659498e+000
0	 3.333434029809069e-001	 4.133340000006533e+000	 9.048502640388346e+000
0	 3.333434029809069e-001	 4.200010000009550e+000	 9.248765590269025e+000
0	 3.333434029809069e-001	 4.266680000012268e+000	 9.404799545046624e+000
0	 3.333434029809069e-001	 4.333350000014583e+000	 9.518465265465906e+000
0	 3.333434029809069e-001	 4.400020000016400e+000	 9.591623512271271e+000
0	 3.333434029809069e-001	 4.466690000017617e+000	 9.626135046206779e+000
0	 3.333434029809069e-001	 4.533360000018134e+000	 9.623860628016150e+000
0	 3.333434029809070e-001	 4.600030000017851e+000	 9.586661018442754e+000
0	 3.333434029809069e-001	 4.666700000016667e+000	 9.516396978229626e+000
0	 4.000138002678044e-001	 4.000000000000000e+000	 8.583339328099402e+000
0	 4.000138002678044e-001	 4.066670000003318e+000	 8.849249722971106e+000
0	 4.000138002678045e-001	 4.133340000006535e+000	 9.072295749151623e+000
0	 4.000138002678043e-001	 4.200010000009550e+000	 9.254086402722495e+000
0	 4.000138002678043e-001	 4.266680000012268e+000	 9.396230679764983e+000
0	 4.000138002678044e-001	 4.333350000014584e+000	 9.500337576360021e+000
0	 4.000138002678044e-001	 4.400020000016402e+000	 9.568016088588244e+000
0	 4.000138002678044e-001	 4.466690000017617e+000	 9.600875212529948e+000
0	 4.000138002678044e-001	 4.533360000018134e+000	 9.600523944265152e+000
0	 4.000138002678044e-001	 4.600030000017851e+000	 9.568571279873556e+000
0	 4.000138002678044e-001	 4.666700000016665e+000	 9.506626215434533e+000
0	 4.666844975500010e-001	 3.999999999999999e+000	 8.668103472165765e+000
0	 4.666844975500010e-001	 4.066670000003317e+000	 8.901250714477722e+000
0	 4.666844975500011e-001	 4.133340000006535e+000	 9.097516867662018e+000
0	 4.666844975500011e-001	 4.200010000009551e+000	 9.258202476750169e+000
0	 4.666844975500011e-001	 4.266680000012267e+000	 9.384608086773408e+000
0	 4.666844975500011e-001	 4.333350000014584e+000	 9.478034242762700e+000
0	 4.666844975500011e-001	 4.400020000016402e+000	 9.539781489748746e+000
0	 4.666844975500012e-001	 4.466690000017619e+000	 9.571150372761970e+000
0	 4.666844975500011e-001	 4.533360000018135e+000	 9.573441436832525e+000
0	 4.666844975500011e-001	 4.600030000017849e+000	 9.547955226990302e+000
0	 4.666844975500011e-001	 4.666700000016666e+000	 9.495992288264896e+000
0	 5.333553781553803e-001	 4.000000000000000e+000	 8.756547448137322e+000
0	 5.333553781553803e-001	 4.066670000003318e+000	 8.954859619816720e+000
0	 5.333553781553804e-001	 4.133340000006535e+000	 9.122831851026945e+000
0	 5.333553781553803e-001	 4.200010000009550e+000	 9.261399548360348e+000
0	 5.333553781553801e-001	 4.266680000012268e+000	 9.371498118409075e+000
0	 5.333553781553803e-001	 4.333350000014583e+000	 9.454062967765029e+000
0	 5.333553781553803e-001	 4.400020000016401e+000	 9.510029503019887e+000
0	 5.333553781553804e-001	 4.466690000017618e+000	 9.540333130765093e+000
0	 5.333553781553804e-001	 4.533360000018134e+000	 9.545909257591861e+000
0	 5.333553781553804e-001	 4.600030000017851e+000	 9.527693290091182e+000
0	 5.333553781553803e-001	 4.666700000016666e+000	 9.486620634853814e+000
0	 6.000263254118247e-001	 4.000000000000000e+000	 8.843079517914310e+000
0	 6.000263254118247e-001	 4.066670000003318e+000	 9.006783105289518e+000
0	 6.000263254118248e-001	 4.133340000006535e+000	 9.146906510573695e+000
0	 6.000263254118246e-001	 4.200010000009550e+000	 9.263963312932834e+000
0	 6.000263254118247e-001	 4.266680000012267e+000	 9.358467091532763e+000
0	 6.000263254118248e-001	 4.333350000014584e+000	 9.430931425539093e+000
0	 6.000263254118246e-001	 4.400020000016401e+000	 9.481869894117267e+000
0	 6.000263254118247e-001	 4.466690000017618e+000	 9.511796076432523e+000
0	 6.000263254118248e-001	 4.533360000018133e+000	 9.521223551649918e+000
0	 6.000263254118247e-001	 4.600030000017850e+000	 9.510665898934333e+000
0	 6.000263254118248e-001	 4.666700000016667e+000	 9.480636697450438e+000
0	 6.666972226472175e-001	 4.000000000000001e+000	 8.922107901694117e+000
0	 6.666972226472178e-001	 4.066670000003317e+000	 9.053727792859565e+000
0	 6.666972226472177e-001	 4.133340000006535e+000	 9.168406613847557e+000
0	 6.666972226472177e-001	 4.200010000009550e+000	 9.266179425217162e+000
0	 6.666972226472177e-001	 4.266680000012267e+000	 9.347081287527308e+000
0	 6.666972226472175e-001	 4.333350000014583e+000	 9.411147261336758e+000
0	 6.666972226472175e-001	 4.400020000016400e+000	 9.458412407204140e+000
0	 6.666972226472175e-001	 4.466690000017618e+000	 9.488911785687904e+000
0	 6.666972226472177e-001	 4.533360000018134e+000	 9.502680457346399e+000
0	 6.666972226472177e-001	 4.600030000017851e+000	 9.499753482737773e+000
0	 6.666972226472178e-001	 4.666700000016666e+000	 9.480165922420033e+000
0	 0.000000000000000e+000	 4.666700000016666e+000	 9.477913280055219e+000
0	 0.000000000000000e+000	 4.733360000014534e+000	 9.412444822016266e+000
0	 0.000000000000000e+000	 4.800020000011600e+000	 9.364504395093221e+000
0	 0.000000000000000e+000	 4.866680000008066e+000	 9.332789028849266e+000
0	 0.000000000000000e+000	 4.933340000004134e+000	 9.315995752847410e+000
0	 0.000000000000000e+000	 5.000000000000000e+000	 9.312821596650487e+000
0	 0.000000000000000e+000	 5.066659999995866e+000	 9.321963589821118e+000
0	 0.000000000000000e+000	 5.133319999991934e+000	 9.342118761921771e+000
0	 0.000000000000000e+000	 5.199979999988400e+000	 9.371984142514751e+000
0	 0.000000000000000e+000	 5.266639999985467e+000	 9.410256761162152e+000
0	 0.000000000000000e+000	 5.333299999983334e+000	 9.455633647425884e+000
0	 6.666714722864756e-002	 4.666700000016666e+000	 9.504339767064556e+000
0	 6.666714722864754e-002	 4.733360000014533e+000	 9.426430602522883e+000
0	 6.666714722864757e-002	 4.800020000011601e+000	 9.368014514954815e+000
0	 6.666714722864756e-002	 4.866680000008067e+000	 9.327777715652202e+000
0	 6.666714722864756e-002	 4.933340000004133e+000	 9.304406415906724e+000
0	 6.666714722864756e-002	 5.000000000000001e+000	 9.296586827009776e+000
0	 6.666714722864757e-002	 5.066659999995869e+000	 9.303005160252603e+000
0	 6.666714722864756e-002	 5.133319999991934e+000	 9.322347626926202e+000
0	 6.666714722864756e-002	 5.199979999988400e+000	 9.353300438321368e+000
0	 6.666714722864756e-002	 5.266639999985467e+000	 9.394549805728671e+000
0	 6.666714722864757e-002	 5.333299999983336e+000	 9.444781940438469e+000
0	 1.333351778131790e-001	 4.666700000016667e+000	 9.519275960776993e+000
0	 1.333351778131790e-001	 4.733360000014534e+000	 9.434895486397256e+000
0	 1.333351778131789e-001	 4.800020000011599e+000	 9.370956268093201e+000
0	 1.333351778131790e-001	 4.866680000008067e+000	 9.326165095197066e+000
0	 1.333351778131789e-001	 4.933340000004133e+000	 9.299228757040890e+000
0	 1.333351778131789e-001	 5.000000000000001e+000	 9.288854042956421e+000
0	 1.333351778131789e-001	 5.066659999995866e+000	 9.293747742275235e+000
0	 1.333351778131789e-001	 5.133319999991935e+000	 9.312616644328596e+000
0	 1.333351778131790e-001	 5.199979999988402e+000	 9.344167538447614e+000
0	 1.333351778131789e-001	 5.266639999985468e+000	 9.387107213963123e+000
0	 1.333351778131789e-001	 5.333299999983333e+000	 9.440142460205731e+000
0	 2.000039750814772e-001	 4.666700000016667e+000	 9.524847278743758e+000
0	 2.000039750814772e-001	 4.733360000014534e+000	 9.439102656607934e+000
0	 2.000039750814772e-001	 4.800020000011601e+000	 9.373855147958201e+000
0	 2.000039750814773e-001	 4.866680000008068e+000	 9.327863515421361e+000
0	 2.000039750814772e-001	 4.933340000004133e+000	 9.299886521623982e+000
0	 2.000039750814773e-001	 4.999999999999999e+000	 9.288682929192373e+000
0	 2.000039750814772e-001	 5.066659999995867e+000	 9.293011500752625e+000
0	 2.000039750814772e-001	 5.133319999991935e+000	 9.311630998930580e+000
0	 2.000039750814773e-001	 5.199979999988400e+000	 9.343300186351829e+000
0	 2.000039750814772e-001	 5.266639999985467e+000	 9.386777825641735e+000
0	 2.000039750814772e-001	 5.333299999983335e+000	 9.440822679425434e+000
0	 2.666734223614255e-001	 4.666700000016667e+000	 9.523179142633051e+000
0	 2.666734223614256e-001	 4.733360000014533e+000	 9.440315302885125e+000
0	 2.666734223614255e-001	 4.800020000011599e+000	 9.377236655570002e+000
0	 2.666734223614255e-001	 4.866680000008066e+000	 9.332785331135414e+000
0	 2.666734223614256e-001	 4.933340000004134e+000	 9.305803460028816e+000
0	 2.666734223614256e-001	 5.000000000000000e+000	 9.295133172697440e+000
0	 2.666734223614255e-001	 5.066659999995866e+000	 9.299616599588305e+000
0	 2.666734223614255e-001	 5.133319999991935e+000	 9.318095871148154e+000
0	 2.666734223614256e-001	 5.199979999988402e+000	 9.349413117823518e+000
0	 2.666734223614254e-001	 5.266639999985468e+000	 9.392410470060694e+000
0	 2.666734223614254e-001	 5.333299999983333e+000	 9.445930058305731e+000
0	 3.333434029809069e-001	 4.666700000016667e+000	 9.516396978229627e+000
0	 3.333434029809069e-001	 4.733360000014533e+000	 9.439796621719951e+000
0	 3.333434029809068e-001	 4.800020000011599e+000	 9.381626299518359e+000
0	 3.333434029809069e-001	 4.866680000008066e+000	 9.340842904021665e+000
0	 3.333434029809069e-001	 4.933340000004134e+000	 9.316403327626444e+000
0	 3.333434029809070e-001	 5.000000000000000e+000	 9.307264462729050e+000
0	 3.333434029809069e-001	 5.066659999995866e+000	 9.312383201725618e+000
0	 3.333434029809069e-001	 5.133319999991934e+000	 9.330716437012042e+000
0	 3.333434029809069e-001	 5.199979999988400e+000	 9.361221060984029e+000
0	 3.333434029809069e-001	 5.266639999985467e+000	 9.402853966037025e+000
0	 3.333434029809069e-001	 5.333299999983335e+000	 9.454572044566278e+000
0	 4.000138002678044e-001	 4.666700000016665e+000	 9.506626215434533e+000
0	 4.000138002678044e-001	 4.733360000014533e+000	 9.438809816364058e+000
0	 4.000138002678044e-001	 4.800020000011599e+000	 9.387549595962115e+000
0	 4.000138002678045e-001	 4.866680000008067e+000	 9.351948602634243e+000
0	 4.000138002678044e-001	 4.933340000004134e+000	 9.331109884785844e+000
0	 4.000138002678044e-001	 5.000000000000000e+000	 9.324136490822060e+000
0	 4.000138002678044e-001	 5.066659999995868e+000	 9.330131469147865e+000
0	 4.000138002678045e-001	 5.133319999991935e+000	 9.348197868168004e+000
0	 4.000138002678044e-001	 5.199979999988400e+000	 9.377438736287047e+000
0	 4.000138002678044e-001	 5.266639999985467e+000	 9.416957121909318e+000
0	 4.000138002678044e-001	 5.333299999983333e+000	 9.465856073438982e+000
0	 4.666844975500011e-001	 4.666700000016666e+000	 9.495992288264898e+000
0	 4.666844975500011e-001	 4.733360000014533e+000	 9.438618096829325e+000
0	 4.666844975500011e-001	 4.800020000011597e+000	 9.395532068628857e+000
0	 4.666844975500012e-001	 4.866680000008068e+000	 9.366014802398647e+000
0	 4.666844975500011e-001	 4.933340000004134e+000	 9.349346896873650e+000
0	 4.666844975500011e-001	 5.000000000000000e+000	 9.344808950788663e+000
0	 4.666844975500011e-001	 5.066659999995867e+000	 9.351681562878278e+000
0	 4.666844975500012e-001	 5.133319999991935e+000	 9.369245331876920e+000
0	 4.666844975500011e-001	 5.199979999988399e+000	 9.396780856518831e+000
0	 4.666844975500012e-001	 5.266639999985468e+000	 9.433568735538080e+000
0	 4.666844975500012e-001	 5.333299999983334e+000	 9.478889567668510e+000
0	 5.333553781553803e-001	 4.666700000016666e+000	 9.486620634853814e+000
0	 5.333553781553800e-001	 4.733360000014533e+000	 9.440484679887643e+000
0	 5.333553781553804e-001	 4.800020000011601e+000	 9.406099248814817e+000
0	 5.333553781553803e-001	 4.866680000008067e+000	 9.382953885611604e+000
0	 5.333553781553803e-001	 4.933340000004133e+000	 9.370538134254119e+000
0	 5.333553781553803e-001	 5.000000000000000e+000	 9.368341538718333e+000
0	 5.333553781553804e-001	 5.066659999995867e+000	 9.375853642980038e+000
0	 5.333553781553805e-001	 5.133319999991935e+000	 9.392563991014885e+000
0	 5.333553781553803e-001	 5.199979999988401e+000	 9.417962126798361e+000
0	 5.333553781553801e-001	 5.266639999985467e+000	 9.451537594305805e+000
0	 5.333553781553803e-001	 5.333299999983334e+000	 9.492779937512378e+000
0	 6.000263254118248e-001	 4.666700000016667e+000	 9.480636697450438e+000
0	 6.000263254118247e-001	 4.733360000014531e+000	 9.445672789071129e+000
0	 6.000263254118247e-001	 4.800020000011600e+000	 9.419776675384936e+000
0	 6.000263254118248e-001	 4.866680000008066e+000	 9.402678241441212e+000
0	 6.000263254118248e-001	 4.933340000004134e+000	 9.394107372289147e+000
0	 6.000263254118247e-001	 5.000000000000000e+000	 9.393793952977838e+000
0	 6.000263254118246e-001	 5.066659999995867e+000	 9.401467868556209e+000
0	 6.000263254118247e-001	 5.133319999991935e+000	 9.416859004073073e+000
0	 6.000263254118247e-001	 5.199979999988401e+000	 9.439697244577108e+000
0	 6.000263254118247e-001	 5.266639999985467e+000	 9.469712475116864e+000
0	 6.000263254118248e-001	 5.333299999983335e+000	 9.506634580740753e+000
0	 6.666972226472178e-001	 4.666700000016666e+000	 9.480165922420035e+000
0	 6.666972226472177e-001	 4.733360000014533e+000	 9.455445654672239e+000
0	 6.666972226472177e-001	 4.800020000011600e+000	 9.437089894773139e+000
0	 6.666972226472178e-001	 4.866680000008067e+000	 9.425100265927119e+000
0	 6.666972226472175e-001	 4.933340000004133e+000	 9.419478391338448e+000
0	 6.666972226472174e-001	 4.999999999999999e+000	 9.420225894211278e+000
0	 6.666972226472178e-001	 5.066659999995868e+000	 9.427344397749675e+000
0	 6.666972226472177e-001	 5.133319999991935e+000	 9.440835525157567e+000
0	 6.666972226472178e-001	 5.199979999988400e+000	 9.460700899638789e+000
0	 6.666972226472177e-001	 5.266639999985468e+000	 9.486942144397039e+000
0	 6.666972226472175e-001	 5.333299999983334e+000	 9.519560882635940e+000
0	 0.000000000000000e+000	 5.333299999983334e+000	 9.455633647425882e+000
0	 0.000000000000000e+000	 5.399969999982149e+000	 9.500446277512021e+000
0	 0.000000000000000e+000	 5.466639999981866e+000	 9.538309946467459e+000
0	 0.000000000000000e+000	 5.533309999982383e+000	 9.569869236911133e+000
0	 0.000000000000000e+000	 5.599979999983600e+000	 9.595768731461988e+000
0	 0.000000000000000e+000	 5.666649999985417e+000	 9.616653012738903e+000
0	 0.000000000000000e+000	 5.733319999987733e+000	 9.633166663360745e+000
0	 0.000000000000000e+000	 5.799989999990450e+000	 9.645954265946358e+000
0	 0.000000000000000e+000	 5.866659999993467e+000	 9.655660403114537e+000
0	 0.000000000000000e+000	 5.933329999996683e+000	 9.662929657484042e+000
0	 0.000000000000000e+000	 6.000000000000000e+000	 9.668406611673625e+000
0	 6.666714722864757e-002	 5.333299999983336e+000	 9.444781940438469e+000
0	 6.666714722864756e-002	 5.399969999982148e+000	 9.494951484083508e+000
0	 6.666714722864756e-002	 5.466639999981866e+000	 9.537308651411445e+000
0	 6.666714722864756e-002	 5.533309999982381e+000	 9.572507444342891e+000
0	 6.666714722864753e-002	 5.599979999983598e+000	 9.601201864798441e+000
0	 6.666714722864757e-002	 5.666649999985415e+000	 9.624045914698645e+000
0	 6.666714722864756e-002	 5.733319999987733e+000	 9.641693595963982e+000
0	 6.666714722864757e-002	 5.799989999990449e+000	 9.654798910514938e+000
0	 6.666714722864756e-002	 5.866659999993468e+000	 9.664015860271965e+000
0	 6.666714722864757e-002	 5.933329999996683e+000	 9.669998447155416e+000
0	 6.666714722864756e-002	 6.000000000000000e+000	 9.673400673085686e+000
0	 1.333351778131789e-001	 5.333299999983333e+000	 9.440142460205729e+000
0	 1.333351778131789e-001	 5.399969999982151e+000	 9.493439209319369e+000
0	 1.333351778131789e-001	 5.466639999981865e+000	 9.538439456885511e+000
0	 1.333351778131789e-001	 5.533309999982383e+000	 9.575790033368099e+000
0	 1.333351778131790e-001	 5.599979999983600e+000	 9.606137769231026e+000
0	 1.333351778131790e-001	 5.666649999985418e+000	 9.630129494938133e+000
0	 1.333351778131789e-001	 5.733319999987733e+000	 9.648412040953238e+000
0	 1.333351778131789e-001	 5.799989999990448e+000	 9.661632237740099e+000
0	 1.333351778131789e-001	 5.866659999993466e+000	 9.670436915762450e+000
0	 1.333351778131789e-001	 5.933329999996686e+000	 9.675472905483959e+000
0	 1.333351778131789e-001	 6.000000000000000e+000	 9.677387037368275e+000
0	 2.000039750814772e-001	 5.333299999983335e+000	 9.440822679425436e+000
0	 2.000039750814772e-001	 5.399969999982151e+000	 9.495317451176231e+000
0	 2.000039750814772e-001	 5.466639999981867e+000	 9.541370038986781e+000
0	 2.000039750814772e-001	 5.533309999982384e+000	 9.579603511684269e+000
0	 2.000039750814772e-001	 5.599979999983600e+000	 9.610640938095825e+000
0	 2.000039750814772e-001	 5.666649999985415e+000	 9.635105387048521e+000
0	 2.000039750814772e-001	 5.733319999987732e+000	 9.653619927369403e+000
0	 2.000039750814773e-001	 5.799989999990449e+000	 9.666807627885488e+000
0	 2.000039750814772e-001	 5.866659999993465e+000	 9.675291557423694e+000
0	 2.000039750814773e-001	 5.933329999996684e+000	 9.679694784810959e+000
0	 2.000039750814772e-001	 5.999999999999999e+000	 9.680640378874118e+000
0	 2.666734223614254e-001	 5.333299999983333e+000	 9.445930058305727e+000
0	 2.666734223614254e-001	 5.399969999982147e+000	 9.499994194158861e+000
0	 2.666734223614255e-001	 5.466639999981866e+000	 9.545768060355730e+000
0	 2.666734223614256e-001	 5.533309999982383e+000	 9.583834374310772e+000
0	 2.666734223614255e-001	 5.599979999983599e+000	 9.614775853438289e+000
0	 2.666734223614255e-001	 5.666649999985415e+000	 9.639175215152598e+000
0	 2.666734223614255e-001	 5.733319999987732e+000	 9.657615176867976e+000
0	 2.666734223614255e-001	 5.799989999990449e+000	 9.670678455998615e+000
0	 2.666734223614255e-001	 5.866659999993464e+000	 9.678947769958674e+000
0	 2.666734223614255e-001	 5.933329999996683e+000	 9.683005836162284e+000
0	 2.666734223614256e-001	 6.000000000000001e+000	 9.683435372023514e+000
0	 3.333434029809069e-001	 5.333299999983335e+000	 9.454572044566278e+000
0	 3.333434029809069e-001	 5.399969999982149e+000	 9.506877409321362e+000
0	 3.333434029809069e-001	 5.466639999981866e+000	 9.551301170177437e+000
0	 3.333434029809068e-001	 5.533309999982383e+000	 9.588369103589937e+000
0	 3.333434029809069e-001	 5.599979999983598e+000	 9.618606986014246e+000
0	 3.333434029809069e-001	 5.666649999985415e+000	 9.642540593905718e+000
0	 3.333434029809070e-001	 5.733319999987733e+000	 9.660695703719641e+000
0	 3.333434029809068e-001	 5.799989999990449e+000	 9.673598091911275e+000
0	 3.333434029809068e-001	 5.866659999993468e+000	 9.681773534935827e+000
0	 3.333434029809068e-001	 5.933329999996682e+000	 9.685747809248468e+000
0	 3.333434029809069e-001	 6.000000000000000e+000	 9.686046691304309e+000
0	 4.000138002678044e-001	 5.333299999983333e+000	 9.465856073438982e+000
0	 4.000138002678045e-001	 5.399969999982150e+000	 9.515375054268006e+000
0	 4.000138002678044e-001	 5.466639999981865e+000	 9.557637004182316e+000
0	 4.000138002678043e-001	 5.533309999982383e+000	 9.593094169187863e+000
0	 4.000138002678045e-001	 5.599979999983599e+000	 9.622198795290549e+000
0	 4.000138002678043e-001	 5.666649999985415e+000	 9.645403128496236e+000
0	 4.000138002678043e-001	 5.733319999987731e+000	 9.663159414810743e+000
0	 4.000138002678044e-001	 5.799989999990450e+000	 9.675919900239839e+000
0	 4.000138002678043e-001	 5.866659999993467e+000	 9.684136830789264e+000
0	 4.000138002678044e-001	 5.933329999996684e+000	 9.688262452464690e+000
0	 4.000138002678044e-001	 6.000000000000001e+000	 9.688749011271778e+000
0	 4.666844975500012e-001	 5.333299999983334e+000	 9.478889567668507e+000
0	 4.666844975500011e-001	 5.399969999982149e+000	 9.524895073153726e+000
0	 4.666844975500011e-001	 5.466639999981864e+000	 9.564443184646706e+000
0	 4.666844975500012e-001	 5.533309999982383e+000	 9.597896028094832e+000
0	 4.666844975500011e-001	 5.599979999983600e+000	 9.625615729445471e+000
0	 4.666844975500012e-001	 5.666649999985417e+000	 9.647964414645930e+000
0	 4.666844975500012e-001	 5.733319999987733e+000	 9.665304209643482e+000
0	 4.666844975500011e-001	 5.799989999990449e+000	 9.677997240385356e+000
0	 4.666844975500012e-001	 5.866659999993467e+000	 9.686405632818751e+000
0	 4.666844975500012e-001	 5.933329999996683e+000	 9.690891512890804e+000
0	 4.666844975500011e-001	 5.999999999999999e+000	 9.691817006548629e+000
0	 5.333553781553803e-001	 5.333299999983334e+000	 9.492779937512378e+000
0	 5.333553781553804e-001	 5.399969999982151e+000	 9.534845396684252e+000
0	 5.333553781553801e-001	 5.466639999981866e+000	 9.571387320392919e+000
0	 5.333553781553801e-001	 5.533309999982382e+000	 9.602661124625437e+000
0	 5.333553781553801e-001	 5.599979999983598e+000	 9.628922225368800e+000
0	 5.333553781553803e-001	 5.666649999985417e+000	 9.650426038610002e+000
0	 5.333553781553803e-001	 5.733319999987733e+000	 9.667427980335962e+000
0	 5.333553781553803e-001	 5.799989999990449e+000	 9.680183466533581e+000
0	 5.333553781553801e-001	 5.866659999993465e+000	 9.688947913189736e+000
0	 5.333553781553804e-001	 5.933329999996683e+000	 9.693976736291241e+000
0	 5.333553781553801e-001	 5.999999999999998e+000	 9.695525351824871e+000
0	 6.000263254118248e-001	 5.333299999983335e+000	 9.506634580740750e+000
0	 6.000263254118247e-001	 5.399969999982149e+000	 9.544633942115889e+000
0	 6.000263254118247e-001	 5.466639999981865e+000	 9.578137006789097e+000
0	 6.000263254118246e-001	 5.533309999982383e+000	 9.607275890418363e+000
0	 6.000263254118247e-001	 5.599979999983601e+000	 9.632182708661647e+000
0	 6.000263254118247e-001	 5.666649999985416e+000	 9.652989577176905e+000
0	 6.000263254118248e-001	 5.733319999987733e+000	 9.669828611622021e+000
0	 6.000263254118248e-001	 5.799989999990451e+000	 9.682831927654858e+000
0	 6.000263254118247e-001	 5.866659999993466e+000	 9.692131640933242e+000
0	 6.000263254118246e-001	 5.933329999996682e+000	 9.697859867114971e+000
0	 6.000263254118248e-001	 6.000000000000001e+000	 9.700148721857795e+000
0	 6.666972226472175e-001	 5.333299999983334e+000	 9.519560882635936e+000
0	 6.666972226472177e-001	 5.399969999982150e+000	 9.553668613254963e+000
0	 6.666972226472175e-001	 5.466639999981865e+000	 9.584359825748548e+000
0	 6.666972226472177e-001	 5.533309999982382e+000	 9.611626744435831e+000
0	 6.666972226472177e-001	 5.599979999983599e+000	 9.635461593635940e+000
0	 6.666972226472174e-001	 5.666649999985414e+000	 9.655856597667937e+000
0	 6.666972226472177e-001	 5.733319999987732e+000	 9.672803980850883e+000
0	 6.666972226472177e-001	 5.799989999990449e+000	 9.686295967503785e+000
0	 6.666972226472178e-001	 5.866659999993467e+000	 9.696324781945631e+000
0	 6.666972226472177e-001	 5.933329999996684e+000	 9.702882648495370e+000
0	 6.666972226472177e-001	 6.000000000000000e+000	 9.705961791471923e+000
0	 0.000000000000000e+000	 6.000000000000000e+000	 9.668406611673625e+000
0	 0.000000000000000e+000	 6.066670000003317e+000	 9.674146158815788e+000
0	 0.000000000000000e+000	 6.133340000006534e+000	 9.681573708821796e+000
0	 0.000000000000000e+000	 6.200010000009551e+000	 9.690389619478527e+000
0	 0.000000000000000e+000	 6.266680000012268e+000	 9.700294248572874e+000
0	 0.000000000000000e+000	 6.333350000014584e+000	 9.710987953891699e+000
0	 0.000000000000000e+000	 6.400020000016401e+000	 9.722171093221878e+000
0	 0.000000000000000e+000	 6.466690000017618e+000	 9.733544024350284e+000
0	 0.000000000000000e+000	 6.533360000018134e+000	 9.744807105063792e+000
0	 0.000000000000000e+000	 6.600030000017850e+000	 9.755660693149268e+000
0	 0.000000000000000e+000	 6.666700000016666e+000	 9.765805146393566e+000
0	 6.666714722864756e-002	 6.000000000000000e+000	 9.673400673085686e+000
0	 6.666714722864754e-002	 6.066670000003317e+000	 9.676869289490597e+000
0	 6.666714722864756e-002	 6.133340000006531e+000	 9.682408938648537e+000
0	 6.666714722864756e-002	 6.200010000009550e+000	 9.689710458755624e+000
0	 6.666714722864756e-002	 6.266680000012269e+000	 9.698464688008016e+000
0	 6.666714722864756e-002	 6.333350000014582e+000	 9.708362464601848e+000
0	 6.666714722864754e-002	 6.400020000016401e+000	 9.719094626733227e+000
0	 6.666714722864757e-002	 6.466690000017620e+000	 9.730352012598326e+000
0	 6.666714722864756e-002	 6.533360000018132e+000	 9.741825460393255e+000
0	 6.666714722864756e-002	 6.600030000017848e+000	 9.753205808314183e+000
0	 6.666714722864757e-002	 6.666700000016668e+000	 9.764183894557231e+000
0	 1.333351778131789e-001	 6.000000000000000e+000	 9.677387037368275e+000
0	 1.333351778131789e-001	 6.066670000003318e+000	 9.679224166778061e+000
0	 1.333351778131790e-001	 6.133340000006535e+000	 9.683391303507229e+000
0	 1.333351778131789e-001	 6.200010000009550e+000	 9.689578509666260e+000
0	 1.333351778131789e-001	 6.266680000012267e+000	 9.697475847365649e+000
0	 1.333351778131790e-001	 6.333350000014583e+000	 9.706773378715853e+000
0	 1.333351778131789e-001	 6.400020000016401e+000	 9.717161165827356e+000
0	 1.333351778131789e-001	 6.466690000017617e+000	 9.728329270810665e+000
0	 1.333351778131790e-001	 6.533360000018136e+000	 9.739967755776272e+000
0	 1.333351778131790e-001	 6.600030000017853e+000	 9.751766682834671e+000
0	 1.333351778131789e-001	 6.666700000016666e+000	 9.763416114096337e+000
0	 2.000039750814772e-001	 5.999999999999999e+000	 9.680640378874118e+000
0	 2.000039750814773e-001	 6.066670000003318e+000	 9.681403011511637e+000
0	 2.000039750814772e-001	 6.133340000006531e+000	 9.684640661538255e+000
0	 2.000039750814773e-001	 6.200010000009552e+000	 9.690051358155200e+000
0	 2.000039750814772e-001	 6.266680000012267e+000	 9.697333130563711e+000
0	 2.000039750814773e-001	 6.333350000014584e+000	 9.706184007965035e+000
0	 2.000039750814772e-001	 6.400020000016400e+000	 9.716302019560411e+000
0	 2.000039750814773e-001	 6.466690000017618e+000	 9.727385194551099e+000
0	 2.000039750814772e-001	 6.533360000018134e+000	 9.739131562138363e+000
0	 2.000039750814773e-001	 6.600030000017851e+000	 9.751239151523448e+000
0	 2.000039750814772e-001	 6.666700000016666e+000	 9.763405991907636e+000
0	 2.666734223614256e-001	 6.000000000000001e+000	 9.683435372023514e+000
0	 2.666734223614255e-001	 6.066670000003315e+000	 9.683598045409182e+000
0	 2.666734223614256e-001	 6.133340000006533e+000	 9.686276872064443e+000
0	 2.666734223614254e-001	 6.200010000009550e+000	 9.691186591220866e+000
0	 2.666734223614255e-001	 6.266680000012266e+000	 9.698041942109994e+000
0	 2.666734223614256e-001	 6.333350000014583e+000	 9.706557663963389e+000
0	 2.666734223614255e-001	 6.400020000016399e+000	 9.716448496012614e+000
0	 2.666734223614255e-001	 6.466690000017617e+000	 9.727429177489276e+000
0	 2.666734223614256e-001	 6.533360000018133e+000	 9.739214447624919e+000
0	 2.666734223614255e-001	 6.600030000017849e+000	 9.751519045651170e+000
0	 2.666734223614256e-001	 6.666700000016667e+000	 9.764057710799598e+000
0	 3.333434029809069e-001	 6.000000000000000e+000	 9.686046691304309e+000
0	 3.333434029809069e-001	 6.066670000003317e+000	 9.686001491072817e+000
0	 3.333434029809069e-001	 6.133340000006532e+000	 9.688419795591011e+000
0	 3.333434029809069e-001	 6.200010000009552e+000	 9.693041796915267e+000
0	 3.333434029809070e-001	 6.266680000012269e+000	 9.699607687101976e+000
0	 3.333434029809069e-001	 6.333350000014584e+000	 9.707857658207535e+000
0	 3.333434029809069e-001	 6.400020000016399e+000	 9.717531902288364e+000
0	 3.333434029809069e-001	 6.466690000017618e+000	 9.728370611400866e+000
0	 3.333434029809069e-001	 6.533360000018135e+000	 9.740113977601483e+000
0	 3.333434029809070e-001	 6.600030000017851e+000	 9.752502192946620e+000
0	 3.333434029809068e-001	 6.666700000016665e+000	 9.765275449492721e+000
0	 4.000138002678044e-001	 6.000000000000001e+000	 9.688749011271778e+000
0	 4.000138002678044e-001	 6.066670000003316e+000	 9.688805571988809e+000
0	 4.000138002678044e-001	 6.133340000006533e+000	 9.691189293805335e+000
0	 4.000138002678045e-001	 6.200010000009552e+000	 9.695674564343840e+000
0	 4.000138002678044e-001	 6.266680000012268e+000	 9.702035771226825e+000
0	 4.000138002678044e-001	 6.333350000014584e+000	 9.710047302076809e+000
0	 4.000138002678044e-001	 6.400020000016401e+000	 9.719483544516283e+000
0	 4.000138002678044e-001	 6.466690000017616e+000	 9.730118886167796e+000
0	 4.000138002678043e-001	 6.533360000018133e+000	 9.741727714653871e+000
0	 4.000138002678044e-001	 6.600030000017851e+000	 9.754084417597065e+000
0	 4.000138002678044e-001	 6.666700000016665e+000	 9.766963382619906e+000
0	 4.666844975500011e-001	 5.999999999999999e+000	 9.691817006548629e+000
0	 4.666844975500010e-001	 6.066670000003315e+000	 9.692202512527508e+000
0	 4.666844975500012e-001	 6.133340000006535e+000	 9.694705229576968e+000
0	 4.666844975500011e-001	 6.200010000009551e+000	 9.699142483665419e+000
0	 4.666844975500011e-001	 6.266680000012268e+000	 9.705331600761317e+000
0	 4.666844975500012e-001	 6.333350000014587e+000	 9.713089906833098e+000
0	 4.666844975500011e-001	 6.400020000016400e+000	 9.722234727849216e+000
0	 4.666844975500011e-001	 6.466690000017615e+000	 9.732583389778151e+000
0	 4.666844975500011e-001	 6.533360000018134e+000	 9.743953218588377e+000
0	 4.666844975500012e-001	 6.600030000017849e+000	 9.756161540248344e+000
0	 4.666844975500011e-001	 6.666700000016666e+000	 9.769025680726584e+000
0	 5.333553781553801e-001	 5.999999999999998e+000	 9.695525351824871e+000
0	 5.333553781553803e-001	 6.066670000003319e+000	 9.696384537943237e+000
0	 5.333553781553803e-001	 6.133340000006533e+000	 9.699087466957485e+000
0	 5.333553781553804e-001	 6.200010000009550e+000	 9.703503146092135e+000
0	 5.333553781553801e-001	 6.266680000012267e+000	 9.709500582571788e+000
0	 5.333553781553804e-001	 6.333350000014582e+000	 9.716948783620984e+000
0	 5.333553781553801e-001	 6.400020000016399e+000	 9.725716756464310e+000
0	 5.333553781553804e-001	 6.466690000017618e+000	 9.735673508326361e+000
0	 5.333553781553801e-001	 6.533360000018132e+000	 9.746688046431709e+000
0	 5.333553781553801e-001	 6.600030000017849e+000	 9.758629378004981e+000
0	 5.333553781553803e-001	 6.666700000016667e+000	 9.771366510270790e+000
0	 6.000263254118248e-001	 6.000000000000001e+000	 9.700148721857795e+000
0	 6.000263254118247e-001	 6.066670000003315e+000	 9.701543874374277e+000
0	 6.000263254118248e-001	 6.133340000006534e+000	 9.704455871180493e+000
0	 6.000263254118248e-001	 6.200010000009551e+000	 9.708814143889443e+000
0	 6.000263254118248e-001	 6.266680000012269e+000	 9.714548124114140e+000
0	 6.000263254118246e-001	 6.333350000014585e+000	 9.721587243467607e+000
0	 6.000263254118247e-001	 6.400020000016399e+000	 9.729860933562895e+000
0	 6.000263254118248e-001	 6.466690000017618e+000	 9.739298626013039e+000
0	 6.000263254118247e-001	 6.533360000018133e+000	 9.749829752431088e+000
0	 6.000263254118248e-001	 6.600030000017851e+000	 9.761383744430109e+000
0	 6.000263254118246e-001	 6.666700000016665e+000	 9.773890033623168e+000
0	 6.666972226472177e-001	 6.000000000000000e+000	 9.705961791471923e+000
0	 6.666972226472178e-001	 6.066670000003318e+000	 9.707872748842858e+000
0	 6.666972226472178e-001	 6.133340000006534e+000	 9.710930308661652e+000
0	 6.666972226472177e-001	 6.200010000009551e+000	 9.715133070376055e+000
0	 6.666972226472178e-001	 6.266680000012268e+000	 9.720479633433826e+000
0	 6.666972226472175e-001	 6.333350000014583e+000	 9.726968597282729e+000
0	 6.666972226472175e-001	 6.400020000016400e+000	 9.734598561370532e+000
0	 6.666972226472177e-001	 6.466690000017618e+000	 9.743368125145043e+000
0	 6.666972226472174e-001	 6.533360000018134e+000	 9.753275888054047e+000
0	 6.666972226472178e-001	 6.600030000017851e+000	 9.764320449545352e+000
0	 6.666972226472178e-001	 6.666700000016667e+000	 9.776500409066758e+000
0	 0.000000000000000e+000	 6.666700000016666e+000	 9.765805146393566e+000
0	 0.000000000000000e+000	 6.733360000014533e+000	 9.775136632584033e+000
0	 0.000000000000000e+000	 6.800020000011600e+000	 9.783834843968231e+000
0	 0.000000000000000e+000	 6.866680000008066e+000	 9.792021064739162e+000
0	 0.000000000000000e+000	 6.933340000004133e+000	 9.799816579089892e+000
0	 0.000000000000000e+000	 7.000000000000000e+000	 9.807342671213327e+000
0	 0.000000000000000e+000	 7.066659999995865e+000	 9.814720625302527e+000
0	 0.000000000000000e+000	 7.133319999991934e+000	 9.822071725550485e+000
0	 0.000000000000000e+000	 7.199979999988400e+000	 9.829517256150185e+000
0	 0.000000000000000e+000	 7.266639999985467e+000	 9.837178501294652e+000
0	 0.000000000000000e+000	 7.333299999983335e+000	 9.845176745176868e+000
0	 6.666714722864757e-002	 6.666700000016668e+000	 9.764183894557233e+000
0	 6.666714722864754e-002	 6.733360000014533e+000	 9.774411267837335e+000
0	 6.666714722864757e-002	 6.800020000011601e+000	 9.783835268195595e+000
0	 6.666714722864756e-002	 6.866680000008067e+000	 9.792585617801880e+000
0	 6.666714722864757e-002	 6.933340000004135e+000	 9.800792038826046e+000
0	 6.666714722864757e-002	 7.000000000000002e+000	 9.808584253437990e+000
0	 6.666714722864758e-002	 7.066659999995868e+000	 9.816091983807546e+000
0	 6.666714722864756e-002	 7.133319999991934e+000	 9.823444952104621e+000
0	 6.666714722864757e-002	 7.199979999988400e+000	 9.830772880499060e+000
0	 6.666714722864754e-002	 7.266639999985467e+000	 9.838205491160771e+000
0	 6.666714722864756e-002	 7.333299999983333e+000	 9.845872506259607e+000
0	 1.333351778131789e-001	 6.666700000016666e+000	 9.763416114096337e+000
0	 1.333351778131789e-001	 6.733360000014533e+000	 9.774371881961534e+000
0	 1.333351778131789e-001	 6.800020000011598e+000	 9.784389001393523e+000
0	 1.333351778131789e-001	 6.866680000008065e+000	 9.793601146488632e+000
0	 1.333351778131789e-001	 6.933340000004130e+000	 9.802141991343168e+000
0	 1.333351778131789e-001	 7.000000000000000e+000	 9.810145210053458e+000
0	 1.333351778131789e-001	 7.066659999995866e+000	 9.817744476715843e+000
0	 1.333351778131790e-001	 7.133319999991935e+000	 9.825073465426669e+000
0	 1.333351778131790e-001	 7.199979999988401e+000	 9.832265850282246e+000
0	 1.333351778131790e-001	 7.266639999985467e+000	 9.839455305378934e+000
0	 1.333351778131789e-001	 7.333299999983334e+000	 9.846775504813072e+000
0	 2.000039750814772e-001	 6.666700000016666e+000	 9.763405991907639e+000
0	 2.000039750814772e-001	 6.733360000014534e+000	 9.774935759483261e+000
0	 2.000039750814773e-001	 6.800020000011600e+000	 9.785425832976122e+000
0	 2.000039750814773e-001	 6.866680000008068e+000	 9.795009352545868e+000
0	 2.000039750814772e-001	 6.933340000004133e+000	 9.803819458352152e+000
0	 2.000039750814773e-001	 7.000000000000001e+000	 9.811989290554640e+000
0	 2.000039750814772e-001	 7.066659999995867e+000	 9.819651989313009e+000
0	 2.000039750814772e-001	 7.133319999991936e+000	 9.826940694786925e+000
0	 2.000039750814773e-001	 7.199979999988401e+000	 9.833988547136070e+000
0	 2.000039750814773e-001	 7.266639999985467e+000	 9.840928686520122e+000
0	 2.000039750814772e-001	 7.333299999983335e+000	 9.847894253098776e+000
0	 2.666734223614256e-001	 6.666700000016667e+000	 9.764057710799600e+000
0	 2.666734223614254e-001	 6.733360000014532e+000	 9.776020180579183e+000
0	 2.666734223614255e-001	 6.800020000011598e+000	 9.786875548006281e+000
0	 2.666734223614255e-001	 6.866680000008067e+000	 9.796751933580955e+000
0	 2.666734223614256e-001	 6.933340000004135e+000	 9.805777457803234e+000
0	 2.666734223614256e-001	 6.999999999999999e+000	 9.814080241173175e+000
0	 2.666734223614256e-001	 7.066659999995866e+000	 9.821788404190833e+000
0	 2.666734223614255e-001	 7.133319999991935e+000	 9.829030067356300e+000
0	 2.666734223614256e-001	 7.199979999988401e+000	 9.835933351169647e+000
0	 2.666734223614256e-001	 7.266639999985467e+000	 9.842626376130950e+000
0	 2.666734223614256e-001	 7.333299999983333e+000	 9.849237262740312e+000
0	 3.333434029809068e-001	 6.666700000016665e+000	 9.765275449492721e+000
0	 3.333434029809069e-001	 6.733360000014531e+000	 9.777542421076404e+000
0	 3.333434029809069e-001	 6.800020000011599e+000	 9.788667927196189e+000
0	 3.333434029809070e-001	 6.866680000008065e+000	 9.798770583062625e+000
0	 3.333434029809069e-001	 6.933340000004132e+000	 9.807969003886297e+000
0	 3.333434029809070e-001	 7.000000000000001e+000	 9.816381804877775e+000
0	 3.333434029809069e-001	 7.066659999995866e+000	 9.824127601247652e+000
0	 3.333434029809069e-001	 7.133319999991934e+000	 9.831325008206539e+000
0	 3.333434029809069e-001	 7.199979999988399e+000	 9.838092640965028e+000
0	 3.333434029809069e-001	 7.266639999985466e+000	 9.844549114733756e+000
0	 3.333434029809069e-001	 7.333299999983336e+000	 9.850813044723347e+000
0	 4.000138002678044e-001	 6.666700000016665e+000	 9.766963382619910e+000
0	 4.000138002678042e-001	 6.733360000014530e+000	 9.779419752452791e+000
0	 4.000138002678044e-001	 6.800020000011601e+000	 9.790732746907507e+000
0	 4.000138002678043e-001	 6.866680000008066e+000	 9.801006990321211e+000
0	 4.000138002678043e-001	 6.933340000004133e+000	 9.810347107031136e+000
0	 4.000138002678044e-001	 7.000000000000001e+000	 9.818857721374465e+000
0	 4.000138002678044e-001	 7.066659999995867e+000	 9.826643457688435e+000
0	 4.000138002678044e-001	 7.133319999991936e+000	 9.833808940310277e+000
0	 4.000138002678044e-001	 7.199979999988400e+000	 9.840458793577263e+000
0	 4.000138002678045e-001	 7.266639999985468e+000	 9.846697641826626e+000
0	 4.000138002678045e-001	 7.333299999983335e+000	 9.852630109395637e+000
0	 4.666844975500011e-001	 6.666700000016666e+000	 9.769025680726584e+000
0	 4.666844975500012e-001	 6.733360000014534e+000	 9.781569441837156e+000
0	 4.666844975500012e-001	 6.800020000011600e+000	 9.792999779151646e+000
0	 4.666844975500010e-001	 6.866680000008067e+000	 9.803402840548843e+000
0	 4.666844975500011e-001	 6.933340000004133e+000	 9.812864773907569e+000
0	 4.666844975500011e-001	 6.999999999999999e+000	 9.821471727106648e+000
0	 4.666844975500011e-001	 7.066659999995867e+000	 9.829309848024906e+000
0	 4.666844975500011e-001	 7.133319999991935e+000	 9.836465284541202e+000
0	 4.666844975500012e-001	 7.199979999988400e+000	 9.843024184534396e+000
0	 4.666844975500012e-001	 7.266639999985467e+000	 9.849072695883386e+000
0	 4.666844975500011e-001	 7.333299999983333e+000	 9.854696966467019e+000
0	 5.333553781553803e-001	 6.666700000016667e+000	 9.771366510270791e+000
0	 5.333553781553803e-001	 6.733360000014532e+000	 9.783908752009287e+000
0	 5.333553781553803e-001	 6.800020000011601e+000	 9.795398791589799e+000
0	 5.333553781553803e-001	 6.866680000008066e+000	 9.805899814799497e+000
0	 5.333553781553803e-001	 6.933340000004135e+000	 9.815475007425551e+000
0	 5.333553781553803e-001	 7.000000000000000e+000	 9.824187555255165e+000
0	 5.333553781553803e-001	 7.066659999995868e+000	 9.832100644075549e+000
0	 5.333553781553803e-001	 7.133319999991937e+000	 9.839277459673916e+000
0	 5.333553781553803e-001	 7.199979999988400e+000	 9.845781187837508e+000
0	 5.333553781553804e-001	 7.266639999985468e+000	 9.851675014353578e+000
0	 5.333553781553803e-001	 7.333299999983335e+000	 9.857022125009378e+000
0	 6.000263254118246e-001	 6.666700000016665e+000	 9.773890033623166e+000
0	 6.000263254118248e-001	 6.733360000014534e+000	 9.786354941399960e+000
0	 6.000263254118247e-001	 6.800020000011600e+000	 9.797859547532898e+000
0	 6.000263254118248e-001	 6.866680000008067e+000	 9.808439589988938e+000
0	 6.000263254118249e-001	 6.933340000004134e+000	 9.818130806735057e+000
0	 6.000263254118247e-001	 7.000000000000000e+000	 9.826968935738265e+000
0	 6.000263254118249e-001	 7.066659999995869e+000	 9.834989714965575e+000
0	 6.000263254118248e-001	 7.133319999991934e+000	 9.842228882384008e+000
0	 6.000263254118248e-001	 7.199979999988401e+000	 9.848722175960615e+000
0	 6.000263254118248e-001	 7.266639999985467e+000	 9.854505333662425e+000
0	 6.000263254118248e-001	 7.333299999983334e+000	 9.859614093456560e+000
0	 6.666972226472178e-001	 6.666700000016667e+000	 9.776500409066758e+000
0	 6.666972226472175e-001	 6.733360000014532e+000	 9.788825264090763e+000
0	 6.666972226472177e-001	 6.800020000011597e+000	 9.800311805941448e+000
0	 6.666972226472177e-001	 6.866680000008066e+000	 9.810963838894574e+000
0	 6.666972226472177e-001	 6.933340000004131e+000	 9.820785167225962e+000
0	 6.666972226472175e-001	 6.999999999999999e+000	 9.829779595211425e+000
0	 6.666972226472178e-001	 7.066659999995868e+000	 9.837950927126768e+000
0	 6.666972226472177e-001	 7.133319999991935e+000	 9.845302967247859e+000
0	 6.666972226472177e-001	 7.199979999988400e+000	 9.851839519850575e+000
0	 6.666972226472175e-001	 7.266639999985466e+000	 9.857564389210783e+000
0	 6.666972226472177e-001	 7.333299999983333e+000	 9.862481379604388e+000
0	 0.000000000000000e+000	 7.333299999983335e+000	 9.845176745176865e+000
0	 0.000000000000000e+000	 7.399969999982150e+000	 9.853296279299299e+000
0	 0.000000000000000e+000	 7.466639999981865e+000	 9.861209853153270e+000
0	 0.000000000000000e+000	 7.533309999982385e+000	 9.868875131511512e+000
0	 0.000000000000000e+000	 7.599979999983599e+000	 9.876249779146752e+000
0	 0.000000000000000e+000	 7.666649999985417e+000	 9.883291460831719e+000
0	 0.000000000000000e+000	 7.733319999987733e+000	 9.889957841339136e+000
0	 0.000000000000000e+000	 7.799989999990449e+000	 9.896206585441703e+000
0	 0.000000000000000e+000	 7.866659999993465e+000	 9.901995357912147e+000
0	 0.000000000000000e+000	 7.933329999996683e+000	 9.907281823523126e+000
0	 0.000000000000000e+000	 8.000000000000000e+000	 9.912023647047413e+000
0	 6.666714722864756e-002	 7.333299999983333e+000	 9.845872506259607e+000
0	 6.666714722864756e-002	 7.399969999982149e+000	 9.853652468362043e+000
0	 6.666714722864756e-002	 7.466639999981865e+000	 9.861302501701838e+000
0	 6.666714722864757e-002	 7.533309999982386e+000	 9.868773723658322e+000
0	 6.666714722864754e-002	 7.599979999983599e+000	 9.876017251610808e+000
0	 6.666714722864756e-002	 7.666649999985415e+000	 9.882984202938559e+000
0	 6.666714722864756e-002	 7.733319999987732e+000	 9.889625695020872e+000
0	 6.666714722864756e-002	 7.799989999990451e+000	 9.895892845237023e+000
0	 6.666714722864756e-002	 7.866659999993467e+000	 9.901736770966309e+000
0	 6.666714722864756e-002	 7.933329999996682e+000	 9.907108589588008e+000
0	 6.666714722864756e-002	 8.000000000000002e+000	 9.911959418481356e+000
0	 1.333351778131789e-001	 7.333299999983334e+000	 9.846775504813071e+000
0	 1.333351778131789e-001	 7.399969999982150e+000	 9.854195267284439e+000
0	 1.333351778131789e-001	 7.466639999981865e+000	 9.861556665325743e+000
0	 1.333351778131789e-001	 7.533309999982381e+000	 9.868806597675471e+000
0	 1.333351778131789e-001	 7.599979999983598e+000	 9.875891963072141e+000
0	 1.333351778131790e-001	 7.666649999985415e+000	 9.882759660254191e+000
0	 1.333351778131789e-001	 7.733319999987733e+000	 9.889356587960133e+000
0	 1.333351778131789e-001	 7.799989999990448e+000	 9.895629644928446e+000
0	 1.333351778131790e-001	 7.866659999993467e+000	 9.901525729897591e+000
0	 1.333351778131789e-001	 7.933329999996682e+000	 9.906991741606031e+000
0	 1.333351778131789e-001	 7.999999999999999e+000	 9.911974578792236e+000
0	 2.000039750814772e-001	 7.333299999983335e+000	 9.847894253098774e+000
0	 2.000039750814772e-001	 7.399969999982151e+000	 9.854939845268387e+000
0	 2.000039750814772e-001	 7.466639999981868e+000	 9.861992533471176e+000
0	 2.000039750814773e-001	 7.533309999982383e+000	 9.868997326448856e+000
0	 2.000039750814772e-001	 7.599979999983599e+000	 9.875899232943104e+000
0	 2.000039750814773e-001	 7.666649999985417e+000	 9.882643261695652e+000
0	 2.000039750814772e-001	 7.733319999987731e+000	 9.889174421448171e+000
0	 2.000039750814773e-001	 7.799989999990449e+000	 9.895437720942361e+000
0	 2.000039750814772e-001	 7.866659999993469e+000	 9.901378168919898e+000
0	 2.000039750814773e-001	 7.933329999996684e+000	 9.906940774122450e+000
0	 2.000039750814773e-001	 8.000000000000002e+000	 9.912070545291721e+000
0	 2.666734223614256e-001	 7.333299999983333e+000	 9.849237262740312e+000
0	 2.666734223614255e-001	 7.399969999982150e+000	 9.855901371112623e+000
0	 2.666734223614256e-001	 7.466639999981866e+000	 9.862630295276903e+000
0	 2.666734223614256e-001	 7.533309999982385e+000	 9.869369482537904e+000
0	 2.666734223614256e-001	 7.599979999983598e+000	 9.876064380200445e+000
0	 2.666734223614256e-001	 7.666649999985416e+000	 9.882660435569289e+000
0	 2.666734223614254e-001	 7.733319999987733e+000	 9.889103095949219e+000
0	 2.666734223614254e-001	 7.799989999990450e+000	 9.895337808645000e+000
0	 2.666734223614256e-001	 7.866659999993468e+000	 9.901310020961436e+000
0	 2.666734223614256e-001	 7.933329999996682e+000	 9.906965180203235e+000
0	 2.666734223614255e-001	 8.000000000000002e+000	 9.912248733675220e+000
0	 3.333434029809069e-001	 7.333299999983336e+000	 9.850813044723346e+000
0	 3.333434029809069e-001	 7.399969999982151e+000	 9.857095013212817e+000
0	 3.333434029809069e-001	 7.466639999981866e+000	 9.863490139574230e+000
0	 3.333434029809069e-001	 7.533309999982384e+000	 9.869946638175682e+000
0	 3.333434029809068e-001	 7.599979999983598e+000	 9.876412723385196e+000
0	 3.333434029809069e-001	 7.666649999985418e+000	 9.882836609570822e+000
0	 3.333434029809070e-001	 7.733319999987734e+000	 9.889166511100607e+000
0	 3.333434029809068e-001	 7.799989999990449e+000	 9.895350642342597e+000
0	 3.333434029809069e-001	 7.866659999993466e+000	 9.901337217664795e+000
0	 3.333434029809069e-001	 7.933329999996684e+000	 9.907074451435275e+000
0	 3.333434029809069e-001	 7.999999999999999e+000	 9.912510558022065e+000
0	 4.000138002678045e-001	 7.333299999983335e+000	 9.852630109395637e+000
0	 4.000138002678045e-001	 7.399969999982150e+000	 9.858535939561437e+000
0	 4.000138002678043e-001	 7.466639999981865e+000	 9.864592254887036e+000
0	 4.000138002678043e-001	 7.533309999982381e+000	 9.870752365268727e+000
0	 4.000138002678045e-001	 7.599979999983600e+000	 9.876969580602742e+000
0	 4.000138002678044e-001	 7.666649999985416e+000	 9.883197210785349e+000
0	 4.000138002678044e-001	 7.733319999987733e+000	 9.889388565712762e+000
0	 4.000138002678045e-001	 7.799989999990448e+000	 9.895496955281248e+000
0	 4.000138002678043e-001	 7.866659999993465e+000	 9.901475689387054e+000
0	 4.000138002678044e-001	 7.933329999996683e+000	 9.907278077926407e+000
0	 4.000138002678044e-001	 8.000000000000000e+000	 9.912857430795548e+000
0	 4.666844975500011e-001	 7.333299999983333e+000	 9.854696966467019e+000
0	 4.666844975500010e-001	 7.399969999982147e+000	 9.860239317747832e+000
0	 4.666844975500011e-001	 7.466639999981866e+000	 9.865956829431667e+000
0	 4.666844975500012e-001	 7.533309999982382e+000	 9.871810235397140e+000
0	 4.666844975500011e-001	 7.599979999983599e+000	 9.877760269522826e+000
0	 4.666844975500012e-001	 7.666649999985417e+000	 9.883767665687346e+000
0	 4.666844975500011e-001	 7.733319999987733e+000	 9.889793157769283e+000
0	 4.666844975500011e-001	 7.799989999990450e+000	 9.895797479647239e+000
0	 4.666844975500012e-001	 7.866659999993467e+000	 9.901741365199799e+000
0	 4.666844975500010e-001	 7.933329999996682e+000	 9.907585548305553e+000
0	 4.666844975500011e-001	 8.000000000000000e+000	 9.913290762843108e+000
0	 5.333553781553803e-001	 7.333299999983335e+000	 9.857022125009378e+000
0	 5.333553781553803e-001	 7.399969999982151e+000	 9.862220314958185e+000
0	 5.333553781553801e-001	 7.466639999981864e+000	 9.867604051116967e+000
0	 5.333553781553801e-001	 7.533309999982384e+000	 9.873143819814484e+000
0	 5.333553781553800e-001	 7.599979999983598e+000	 9.878810107379481e+000
0	 5.333553781553803e-001	 7.666649999985416e+000	 9.884573400140697e+000
0	 5.333553781553801e-001	 7.733319999987733e+000	 9.890404184426899e+000
0	 5.333553781553804e-001	 7.799989999990451e+000	 9.896272946566807e+000
0	 5.333553781553801e-001	 7.866659999993466e+000	 9.902150172889188e+000
0	 5.333553781553803e-001	 7.933329999996682e+000	 9.908006349722768e+000
0	 5.333553781553804e-001	 8.000000000000000e+000	 9.913811963396295e+000
0	 6.000263254118248e-001	 7.333299999983334e+000	 9.859614093456560e+000
0	 6.000263254118247e-001	 7.399969999982150e+000	 9.864494097975388e+000
0	 6.000263254118246e-001	 7.466639999981863e+000	 9.869554107544204e+000
0	 6.000263254118246e-001	 7.533309999982382e+000	 9.874776689447812e+000
0	 6.000263254118248e-001	 7.599979999983600e+000	 9.880144410971017e+000
0	 6.000263254118248e-001	 7.666649999985419e+000	 9.885639839398637e+000
0	 6.000263254118248e-001	 7.733319999987734e+000	 9.891245542015433e+000
0	 6.000263254118248e-001	 7.799989999990450e+000	 9.896944086106251e+000
0	 6.000263254118247e-001	 7.866659999993466e+000	 9.902718038955866e+000
0	 6.000263254118247e-001	 7.933329999996684e+000	 9.908549967849096e+000
0	 6.000263254118246e-001	 7.999999999999999e+000	 9.914422440070720e+000
0	 6.666972226472177e-001	 7.333299999983333e+000	 9.862481379604388e+000
0	 6.666972226472178e-001	 7.399969999982152e+000	 9.867075833179081e+000
0	 6.666972226472177e-001	 7.466639999981865e+000	 9.871827186007051e+000
0	 6.666972226472175e-001	 7.533309999982382e+000	 9.876732414897585e+000
0	 6.666972226472175e-001	 7.599979999983599e+000	 9.881788496660027e+000
0	 6.666972226472177e-001	 7.666649999985417e+000	 9.886992408103666e+000
0	 6.666972226472175e-001	 7.733319999987731e+000	 9.892341126037845e+000
0	 6.666972226472177e-001	 7.799989999990449e+000	 9.897831627271851e+000
0	 6.666972226472177e-001	 7.866659999993466e+000	 9.903460888615012e+000
0	 6.666972226472177e-001	 7.933329999996682e+000	 9.909225886876653e+000
0	 6.666972226472177e-001	 8.000000000000000e+000	 9.915123598866083e+000
0	 0.000000000000000e+000	 8.000000000000000e+000	 9.912023647047413e+000
0	 0.000000000000000e+000	 8.066670000003317e+000	 9.916452117224115e+000
0	 0.000000000000000e+000	 8.133340000006534e+000	 9.920836704090018e+000
0	 0.000000000000000e+000	 8.200010000009550e+000	 9.925192344364128e+000
0	 0.000000000000000e+000	 8.266680000012267e+000	 9.929533974765482e+000
0	 0.000000000000000e+000	 8.333350000014583e+000	 9.933876532013105e+000
0	 0.000000000000000e+000	 8.400020000016401e+000	 9.938234952825994e+000
0	 0.000000000000000e+000	 8.466690000017616e+000	 9.942624173923214e+000
0	 0.000000000000000e+000	 8.533360000018133e+000	 9.947059132023755e+000
0	 0.000000000000000e+000	 8.600030000017851e+000	 9.951554763846648e+000
0	 0.000000000000000e+000	 8.666700000016666e+000	 9.956126006110900e+000
0	 6.666714722864756e-002	 8.000000000000002e+000	 9.911959418481356e+000
0	 6.666714722864753e-002	 8.066670000003313e+000	 9.916488171703938e+000
0	 6.666714722864754e-002	 8.133340000006532e+000	 9.920939493366491e+000
0	 6.666714722864756e-002	 8.200010000009552e+000	 9.925333095928083e+000
0	 6.666714722864754e-002	 8.266680000012265e+000	 9.929688691847758e+000
0	 6.666714722864756e-002	 8.333350000014582e+000	 9.934025993584601e+000
0	 6.666714722864754e-002	 8.400020000016403e+000	 9.938364713597636e+000
0	 6.666714722864756e-002	 8.466690000017618e+000	 9.942724564345902e+000
0	 6.666714722864754e-002	 8.533360000018135e+000	 9.947125258288468e+000
0	 6.666714722864757e-002	 8.600030000017849e+000	 9.951586507884411e+000
0	 6.666714722864757e-002	 8.666700000016668e+000	 9.956128025592733e+000
0	 1.333351778131789e-001	 7.999999999999999e+000	 9.911974578792236e+000
0	 1.333351778131789e-001	 8.066670000003317e+000	 9.916633654499204e+000
0	 1.333351778131790e-001	 8.133340000006534e+000	 9.921179288233976e+000
0	 1.333351778131789e-001	 8.200010000009552e+000	 9.925634738431139e+000
0	 1.333351778131789e-001	 8.266680000012270e+000	 9.930023263525275e+000
0	 1.333351778131790e-001	 8.333350000014583e+000	 9.934368121950962e+000
0	 1.333351778131789e-001	 8.400020000016401e+000	 9.938692572142763e+000
0	 1.333351778131789e-001	 8.466690000017618e+000	 9.943019872535261e+000
0	 1.333351778131790e-001	 8.533360000018133e+000	 9.947373281563010e+000
0	 1.333351778131789e-001	 8.600030000017851e+000	 9.951776057660617e+000
0	 1.333351778131789e-001	 8.666700000016666e+000	 9.956251459262614e+000
0	 2.000039750814773e-001	 8.000000000000002e+000	 9.912070545291721e+000
0	 2.000039750814773e-001	 8.066670000003317e+000	 9.916881884449516e+000
0	 2.000039750814772e-001	 8.133340000006530e+000	 9.921542904263173e+000
0	 2.000039750814773e-001	 8.200010000009552e+000	 9.926079179442501e+000
0	 2.000039750814772e-001	 8.266680000012267e+000	 9.930516284697392e+000
0	 2.000039750814772e-001	 8.333350000014583e+000	 9.934879794737677e+000
0	 2.000039750814772e-001	 8.400020000016403e+000	 9.939195284273229e+000
0	 2.000039750814772e-001	 8.466690000017618e+000	 9.943488328013904e+000
0	 2.000039750814772e-001	 8.533360000018135e+000	 9.947784500669549e+000
0	 2.000039750814772e-001	 8.600030000017851e+000	 9.952109376950007e+000
0	 2.000039750814772e-001	 8.666700000016666e+000	 9.956488531565142e+000
0	 2.666734223614255e-001	 8.000000000000002e+000	 9.912248733675220e+000
0	 2.666734223614255e-001	 8.066670000003315e+000	 9.917226178716046e+000
0	 2.666734223614256e-001	 8.133340000006532e+000	 9.922017155352066e+000
0	 2.666734223614255e-001	 8.200010000009550e+000	 9.926648324919569e+000
0	 2.666734223614256e-001	 8.266680000012267e+000	 9.931146348754774e+000
0	 2.666734223614256e-001	 8.333350000014582e+000	 9.935537888193956e+000
0	 2.666734223614255e-001	 8.400020000016399e+000	 9.939849604573366e+000
0	 2.666734223614256e-001	 8.466690000017618e+000	 9.944108159229261e+000
0	 2.666734223614255e-001	 8.533360000018133e+000	 9.948340213497890e+000
0	 2.666734223614256e-001	 8.600030000017849e+000	 9.952572428715506e+000
0	 2.666734223614255e-001	 8.666700000016668e+000	 9.956831466218334e+000
0	 3.333434029809069e-001	 7.999999999999999e+000	 9.912510558022065e+000
0	 3.333434029809069e-001	 8.066670000003319e+000	 9.917659852781497e+000
0	 3.333434029809068e-001	 8.133340000006532e+000	 9.922588853726079e+000
0	 3.333434029809069e-001	 8.200010000009549e+000	 9.927324079208017e+000
0	 3.333434029809069e-001	 8.266680000012267e+000	 9.931892047579551e+000
0	 3.333434029809069e-001	 8.333350000014582e+000	 9.936319277192878e+000
0	 3.333434029809069e-001	 8.400020000016399e+000	 9.940632286400208e+000
0	 3.333434029809068e-001	 8.466690000017618e+000	 9.944857593553747e+000
0	 3.333434029809069e-001	 8.533360000018137e+000	 9.949021717005719e+000
0	 3.333434029809070e-001	 8.600030000017853e+000	 9.953151175108326e+000
0	 3.333434029809069e-001	 8.666700000016665e+000	 9.957272486213768e+000
0	 4.000138002678044e-001	 8.000000000000000e+000	 9.912857430795548e+000
0	 4.000138002678044e-001	 8.066670000003317e+000	 9.918176220450366e+000
0	 4.000138002678044e-001	 8.133340000006534e+000	 9.923244809938092e+000
0	 4.000138002678044e-001	 8.200010000009550e+000	 9.928088345042003e+000
0	 4.000138002678043e-001	 8.266680000012268e+000	 9.932731971545360e+000
0	 4.000138002678044e-001	 8.333350000014585e+000	 9.937200835231433e+000
0	 4.000138002678044e-001	 8.400020000016399e+000	 9.941520081883482e+000
0	 4.000138002678044e-001	 8.466690000017620e+000	 9.945714857284758e+000
0	 4.000138002678044e-001	 8.533360000018133e+000	 9.949810307218538e+000
0	 4.000138002678044e-001	 8.600030000017851e+000	 9.953831577468053e+000
0	 4.000138002678044e-001	 8.666700000016668e+000	 9.957803813816577e+000
0	 4.666844975500011e-001	 8.000000000000000e+000	 9.913290762843108e+000
0	 4.666844975500010e-001	 8.066670000003317e+000	 9.918768593848974e+000
0	 4.666844975500012e-001	 8.133340000006536e+000	 9.923971832868622e+000
0	 4.666844975500012e-001	 8.200010000009552e+000	 9.928923023544108e+000
0	 4.666844975500011e-001	 8.266680000012268e+000	 9.933644709517441e+000
0	 4.666844975500012e-001	 8.333350000014585e+000	 9.938159434430627e+000
0	 4.666844975500011e-001	 8.400020000016399e+000	 9.942489741925717e+000
0	 4.666844975500011e-001	 8.466690000017618e+000	 9.946658175644734e+000
0	 4.666844975500011e-001	 8.533360000018133e+000	 9.950687279229680e+000
0	 4.666844975500012e-001	 8.600030000017851e+000	 9.954599596322570e+000
0	 4.666844975500011e-001	 8.666700000016665e+000	 9.958417670565419e+000
0	 5.333553781553804e-001	 8.000000000000000e+000	 9.913811963396295e+000
0	 5.333553781553803e-001	 8.066670000003319e+000	 9.919430283425520e+000
0	 5.333553781553803e-001	 8.133340000006536e+000	 9.924756729725846e+000
0	 5.333553781553803e-001	 8.200010000009550e+000	 9.929810014225465e+000
0	 5.333553781553801e-001	 8.266680000012268e+000	 9.934608848852598e+000
0	 5.333553781553803e-001	 8.333350000014585e+000	 9.939171945535469e+000
0	 5.333553781553801e-001	 8.400020000016399e+000	 9.943518016202239e+000
0	 5.333553781553804e-001	 8.466690000017620e+000	 9.947665772781145e+000
0	 5.333553781553804e-001	 8.533360000018135e+000	 9.951633927200380e+000
0	 5.333553781553803e-001	 8.600030000017849e+000	 9.955441191388113e+000
0	 5.333553781553803e-001	 8.666700000016666e+000	 9.959106277272559e+000
0	 6.000263254118246e-001	 7.999999999999999e+000	 9.914422440070720e+000
0	 6.000263254118246e-001	 8.066670000003315e+000	 9.920154597950026e+000
0	 6.000263254118248e-001	 8.133340000006534e+000	 9.925586306045483e+000
0	 6.000263254118248e-001	 8.200010000009550e+000	 9.930731214985714e+000
0	 6.000263254118248e-001	 8.266680000012267e+000	 9.935602975399331e+000
0	 6.000263254118248e-001	 8.333350000014583e+000	 9.940215237914927e+000
0	 6.000263254118248e-001	 8.400020000016401e+000	 9.944581653161123e+000
0	 6.000263254118249e-001	 8.466690000017620e+000	 9.948715871766506e+000
0	 6.000263254118248e-001	 8.533360000018135e+000	 9.952631544359672e+000
0	 6.000263254118247e-001	 8.600030000017849e+000	 9.956342321569222e+000
0	 6.000263254118247e-001	 8.666700000016668e+000	 9.959861854023737e+000
0	 6.666972226472177e-001	 8.000000000000000e+000	 9.915123598866083e+000
0	 6.666972226472178e-001	 8.066670000003317e+000	 9.920934844514298e+000
0	 6.666972226472177e-001	 8.133340000006532e+000	 9.926447365690891e+000
0	 6.666972226472175e-001	 8.200010000009550e+000	 9.931668522112947e+000
0	 6.666972226472178e-001	 8.266680000012267e+000	 9.936605673497599e+000
0	 6.666972226472177e-001	 8.333350000014583e+000	 9.941266179561966e+000
0	 6.666972226472177e-001	 8.400020000016401e+000	 9.945657400023157e+000
0	 6.666972226472177e-001	 8.466690000017616e+000	 9.949786694598265e+000
0	 6.666972226472173e-001	 8.533360000018133e+000	 9.953661423004414e+000
0	 6.666972226472178e-001	 8.600030000017851e+000	 9.957288944958687e+000
0	 6.666972226472177e-001	 8.666700000016666e+000	 9.960676620178194e+000
0	 0.000000000000000e+000	 8.666700000016666e+000	 9.956126006110896e+000
0	 0.000000000000000e+000	 8.733360002791903e+000	 9.960590654614792e+000
0	 0.000000000000000e+000	 8.800020022230555e+000	 9.964762443260433e+000
0	 0.000000000000000e+000	 8.866680074997042e+000	 9.968648140250537e+000
0	 0.000000000000000e+000	 8.933340177755779e+000	 9.972254514502213e+000
0	 0.000000000000000e+000	 9.000000347171183e+000	 9.975588335646995e+000
0	 0.000000000000000e+000	 9.066660599907667e+000	 9.978656374030837e+000
0	 0.000000000000000e+000	 9.133320952629655e+000	 9.981465400714139e+000
0	 0.000000000000000e+000	 9.199981422001557e+000	 9.984022187471641e+000
0	 0.000000000000000e+000	 9.266642024687796e+000	 9.986333506792519e+000
0	 0.000000000000000e+000	 9.333302777352781e+000	 9.988406131880330e+000
0	 6.666714722864757e-002	 8.666700000016668e+000	 9.956128025592737e+000
0	 6.666714722864754e-002	 8.733360002791905e+000	 9.960575475741237e+000
0	 6.666714722864758e-002	 8.800020022230559e+000	 9.964744784978393e+000
0	 6.666714722864754e-002	 8.866680074997040e+000	 9.968638995184795e+000
0	 6.666714722864758e-002	 8.933340177755779e+000	 9.972261148957646e+000
0	 6.666714722864756e-002	 9.000000347171183e+000	 9.975614289610681e+000
0	 6.666714722864757e-002	 9.066660599907671e+000	 9.978701461174321e+000
0	 6.666714722864756e-002	 9.133320952629656e+000	 9.981525708395468e+000
0	 6.666714722864754e-002	 9.199981422001560e+000	 9.984090076737616e+000
0	 6.666714722864754e-002	 9.266642024687792e+000	 9.986397612380840e+000
0	 6.666714722864757e-002	 9.333302777352785e+000	 9.988451362221683e+000
0	 1.333351778131789e-001	 8.666700000016666e+000	 9.956251459262614e+000
0	 1.333351778131789e-001	 8.733360002791903e+000	 9.960640722366220e+000
0	 1.333351778131789e-001	 8.800020022230553e+000	 9.964770967268011e+000
0	 1.333351778131790e-001	 8.866680074997039e+000	 9.968642245722784e+000
0	 1.333351778131790e-001	 8.933340177755779e+000	 9.972254610191756e+000
0	 1.333351778131789e-001	 9.000000347171183e+000	 9.975608113842487e+000
0	 1.333351778131789e-001	 9.066660599907666e+000	 9.978702810548922e+000
0	 1.333351778131790e-001	 9.133320952629656e+000	 9.981538754891334e+000
0	 1.333351778131790e-001	 9.199981422001562e+000	 9.984116002156362e+000
0	 1.333351778131789e-001	 9.266642024687798e+000	 9.986434608336964e+000
0	 1.333351778131789e-001	 9.333302777352783e+000	 9.988494630132411e+000
0	 2.000039750814772e-001	 8.666700000016666e+000	 9.956488531565139e+000
0	 2.000039750814772e-001	 8.733360002791903e+000	 9.960785053625807e+000
0	 2.000039750814773e-001	 8.800020022230557e+000	 9.964844838326121e+000
0	 2.000039750814772e-001	 8.866680074997040e+000	 9.968665683445892e+000
0	 2.000039750814773e-001	 8.933340177755779e+000	 9.972245387450668e+000
0	 2.000039750814773e-001	 9.000000347171184e+000	 9.975581749491530e+000
0	 2.000039750814772e-001	 9.066660599907669e+000	 9.978672569405253e+000
0	 2.000039750814772e-001	 9.133320952629655e+000	 9.981515647714220e+000
0	 2.000039750814773e-001	 9.199981422001558e+000	 9.984108785626438e+000
0	 2.000039750814773e-001	 9.266642024687794e+000	 9.986449785035472e+000
0	 2.000039750814772e-001	 9.333302777352783e+000	 9.988536448520533e+000
0	 2.666734223614255e-001	 8.666700000016668e+000	 9.956831466218336e+000
0	 2.666734223614254e-001	 8.733360002791899e+000	 9.961007127970014e+000
0	 2.666734223614256e-001	 8.800020022230552e+000	 9.964970245663594e+000
0	 2.666734223614256e-001	 8.866680074997042e+000	 9.968717099216960e+000
0	 2.666734223614254e-001	 8.933340177755778e+000	 9.972243969204246e+000
0	 2.666734223614256e-001	 9.000000347171181e+000	 9.975547136855884e+000
0	 2.666734223614255e-001	 9.066660599907669e+000	 9.978622884058506e+000
0	 2.666734223614256e-001	 9.133320952629655e+000	 9.981467493355046e+000
0	 2.666734223614255e-001	 9.199981422001558e+000	 9.984077247944608e+000
0	 2.666734223614255e-001	 9.266642024687796e+000	 9.986448431682623e+000
0	 2.666734223614256e-001	 9.333302777352781e+000	 9.988577329080631e+000
0	 3.333434029809069e-001	 8.666700000016665e+000	 9.957272486213768e+000
0	 3.333434029809069e-001	 8.733360002791903e+000	 9.961305603162883e+000
0	 3.333434029809068e-001	 8.800020022230553e+000	 9.965151036105402e+000
0	 3.333434029809069e-001	 8.866680074997040e+000	 9.968804283180198e+000
0	 3.333434029809069e-001	 8.933340177755776e+000	 9.972260843146234e+000
0	 3.333434029809069e-001	 9.000000347171179e+000	 9.975516215382603e+000
0	 3.333434029809069e-001	 9.066660599907667e+000	 9.978565899888469e+000
0	 3.333434029809069e-001	 9.133320952629655e+000	 9.981405397283130e+000
0	 3.333434029809070e-001	 9.199981422001560e+000	 9.984030208805949e+000
0	 3.333434029809070e-001	 9.266642024687798e+000	 9.986435836316408e+000
0	 3.333434029809070e-001	 9.333302777352783e+000	 9.988617782293982e+000
0	 4.000138002678044e-001	 8.666700000016668e+000	 9.957803813816579e+000
0	 4.000138002678044e-001	 8.733360002791903e+000	 9.961679136282516e+000
0	 4.000138002678044e-001	 8.800020022230557e+000	 9.965391055790624e+000
0	 4.000138002678045e-001	 8.866680074997040e+000	 9.968935024761350e+000
0	 4.000138002678044e-001	 8.933340177755779e+000	 9.972306496194186e+000
0	 4.000138002678045e-001	 9.000000347171184e+000	 9.975500923667731e+000
0	 4.000138002678045e-001	 9.066660599907666e+000	 9.978513761339576e+000
0	 4.000138002678044e-001	 9.133320952629656e+000	 9.981340463946371e+000
0	 4.000138002678044e-001	 9.199981422001560e+000	 9.983976486803840e+000
0	 4.000138002678044e-001	 9.266642024687798e+000	 9.986417285806665e+000
0	 4.000138002678044e-001	 9.333302777352781e+000	 9.988658317428588e+000
0	 4.666844975500011e-001	 8.666700000016665e+000	 9.958417670565419e+000
0	 4.666844975500012e-001	 8.733360002791903e+000	 9.962126383721078e+000
0	 4.666844975500012e-001	 8.800020022230561e+000	 9.965694150172451e+000
0	 4.666844975500012e-001	 8.866680074997040e+000	 9.969117112667611e+000
0	 4.666844975500011e-001	 8.933340177755778e+000	 9.972391414489604e+000
0	 4.666844975500011e-001	 9.000000347171181e+000	 9.975513199456414e+000
0	 4.666844975500010e-001	 9.066660599907666e+000	 9.978478611920997e+000
0	 4.666844975500012e-001	 9.133320952629656e+000	 9.981283796771274e+000
0	 4.666844975500011e-001	 9.199981422001558e+000	 9.983924899430070e+000
0	 4.666844975500012e-001	 9.266642024687798e+000	 9.986398065855168e+000
0	 4.666844975500012e-001	 9.333302777352783e+000	 9.988699442539229e+000
0	 5.333553781553803e-001	 8.666700000016666e+000	 9.959106277272561e+000
0	 5.333553781553801e-001	 8.733360002791901e+000	 9.962646001184755e+000
0	 5.333553781553801e-001	 8.800020022230555e+000	 9.966064164018180e+000
0	 5.333553781553801e-001	 8.866680074997039e+000	 9.969358334887687e+000
0	 5.333553781553801e-001	 8.933340177755778e+000	 9.972526083397815e+000
0	 5.333553781553800e-001	 9.000000347171181e+000	 9.975564979642817e+000
0	 5.333553781553803e-001	 9.066660599907667e+000	 9.978472594206638e+000
0	 5.333553781553803e-001	 9.133320952629656e+000	 9.981246498162872e+000
0	 5.333553781553803e-001	 9.199981422001560e+000	 9.983884263074843e+000
0	 5.333553781553804e-001	 9.266642024687796e+000	 9.986383460995532e+000
0	 5.333553781553800e-001	 9.333302777352779e+000	 9.988741664467536e+000
0	 6.000263254118247e-001	 8.666700000016668e+000	 9.959861854023737e+000
0	 6.000263254118248e-001	 8.733360002791901e+000	 9.963236643693731e+000
0	 6.000263254118248e-001	 8.800020022230557e+000	 9.966504941409188e+000
0	 6.000263254118247e-001	 8.866680074997042e+000	 9.969666478691700e+000
0	 6.000263254118247e-001	 8.933340177755779e+000	 9.972720987508060e+000
0	 6.000263254118249e-001	 9.000000347171184e+000	 9.975668200270141e+000
0	 6.000263254118247e-001	 9.066660599907667e+000	 9.978507849835005e+000
0	 6.000263254118247e-001	 9.133320952629656e+000	 9.981239669504783e+000
0	 6.000263254118248e-001	 9.199981422001558e+000	 9.983863393026770e+000
0	 6.000263254118248e-001	 9.266642024687798e+000	 9.986378754593320e+000
0	 6.000263254118248e-001	 9.333302777352785e+000	 9.988785488841936e+000
0	 6.666972226472177e-001	 8.666700000016666e+000	 9.960676620178194e+000
0	 6.666972226472175e-001	 8.733360002791901e+000	 9.963896965582212e+000
0	 6.666972226472177e-001	 8.800020022230555e+000	 9.967020325740899e+000
0	 6.666972226472177e-001	 8.866680074997042e+000	 9.970049330631223e+000
0	 6.666972226472178e-001	 8.933340177755779e+000	 9.972986610633342e+000
0	 6.666972226472177e-001	 9.000000347171181e+000	 9.975834796530563e+000
0	 6.666972226472178e-001	 9.066660599907667e+000	 9.978596519509321e+000
0	 6.666972226472175e-001	 9.133320952629656e+000	 9.981274411159141e+000
0	 6.666972226472179e-001	 9.199981422001560e+000	 9.983871103472747e+000
0	 6.666972226472177e-001	 9.266642024687796e+000	 9.986389228845900e+000
0	 6.666972226472177e-001	 9.333302777352785e+000	 9.988831420077545e+000
0	 0.000000000000000e+000	 9.333302777352781e+000	 9.988406131880332e+000
0	 0.000000000000000e+000	 9.399973674588175e+000	 9.990283796064480e+000
0	 0.000000000000000e+000	 9.466644621844621e+000	 9.992007088630952e+000
0	 0.000000000000000e+000	 9.533315502450000e+000	 9.993578944169098e+000
0	 0.000000000000000e+000	 9.599986199732198e+000	 9.995002293049650e+000
0	 0.000000000000000e+000	 9.666656597019093e+000	 9.996280061424011e+000
0	 0.000000000000000e+000	 9.733326577638575e+000	 9.997415171224002e+000
0	 0.000000000000000e+000	 9.799996024918523e+000	 9.998410540161054e+000
0	 0.000000000000000e+000	 9.866664822186824e+000	 9.999269081725258e+000
0	 0.000000000000000e+000	 9.933332852771354e+000	 9.999993705184652e+000
0	 0.000000000000000e+000	 1.000000000000000e+001	 1.000058731558433e+001
0	 6.666714722864757e-002	 9.333302777352785e+000	 9.988451362221687e+000
0	 6.666714722864754e-002	 9.399973674588171e+000	 9.990299163484334e+000
0	 6.666714722864756e-002	 9.466644621844621e+000	 9.991991480137555e+000
0	 6.666714722864756e-002	 9.533315502450000e+000	 9.993536164287393e+000
0	 6.666714722864756e-002	 9.599986199732193e+000	 9.994941063940285e+000
0	 6.666714722864758e-002	 9.666656597019101e+000	 9.996214023002761e+000
0	 6.666714722864757e-002	 9.733326577638577e+000	 9.997362881280806e+000
0	 6.666714722864757e-002	 9.799996024918523e+000	 9.998395474479173e+000
0	 6.666714722864756e-002	 9.866664822186820e+000	 9.999319634200747e+000
0	 6.666714722864757e-002	 9.933332852771352e+000	 1.000014318794539e+001
0	 6.666714722864756e-002	 1.000000000000000e+001	 1.000087395910918e+001
0	 1.333351778131789e-001	 9.333302777352783e+000	 9.988494630132410e+000
0	 1.333351778131789e-001	 9.399973674588175e+000	 9.990340096534466e+000
0	 1.333351778131789e-001	 9.466644621844619e+000	 9.992022379943993e+000
0	 1.333351778131790e-001	 9.533315502450002e+000	 9.993553418575226e+000
0	 1.333351778131789e-001	 9.599986199732193e+000	 9.994945146572542e+000
0	 1.333351778131790e-001	 9.666656597019093e+000	 9.996209494009943e+000
0	 1.333351778131789e-001	 9.733326577638577e+000	 9.997358386890548e+000
0	 1.333351778131789e-001	 9.799996024918523e+000	 9.998403747145911e+000
0	 1.333351778131789e-001	 9.866664822186818e+000	 9.999357492635308e+000
0	 1.333351778131789e-001	 9.933332852771352e+000	 1.000023153714465e+001
0	 1.333351778131789e-001	 9.999999999999998e+000	 1.000103779038591e+001
0	 2.000039750814772e-001	 9.333302777352783e+000	 9.988536448520529e+000
0	 2.000039750814772e-001	 9.399973674588173e+000	 9.990402403963246e+000
0	 2.000039750814773e-001	 9.466644621844623e+000	 9.992092286852506e+000
0	 2.000039750814772e-001	 9.533315502449998e+000	 9.993621290137876e+000
0	 2.000039750814773e-001	 9.599986199732200e+000	 9.995004602653753e+000
0	 2.000039750814773e-001	 9.666656597019092e+000	 9.996257409118906e+000
0	 2.000039750814772e-001	 9.733326577638573e+000	 9.997394890135899e+000
0	 2.000039750814772e-001	 9.799996024918523e+000	 9.998432222190548e+000
0	 2.000039750814772e-001	 9.866664822186822e+000	 9.999384577650854e+000
0	 2.000039750814772e-001	 9.933332852771354e+000	 1.000026712476645e+001
0	 2.000039750814772e-001	 1.000000000000000e+001	 1.000109502766753e+001
0	 2.666734223614256e-001	 9.333302777352781e+000	 9.988577329080629e+000
0	 2.666734223614256e-001	 9.399973674588173e+000	 9.990481893286900e+000
0	 2.666734223614256e-001	 9.466644621844623e+000	 9.992193698434955e+000
0	 2.666734223614256e-001	 9.533315502450003e+000	 9.993730360863538e+000
0	 2.666734223614256e-001	 9.599986199732198e+000	 9.995109492690583e+000
0	 2.666734223614255e-001	 9.666656597019093e+000	 9.996348701812941e+000
0	 2.666734223614254e-001	 9.733326577638573e+000	 9.997465591905602e+000
0	 2.666734223614256e-001	 9.799996024918526e+000	 9.998477762421166e+000
0	 2.666734223614256e-001	 9.866664822186824e+000	 9.999402808588997e+000
0	 2.666734223614256e-001	 9.933332852771352e+000	 1.000025832141441e+001
0	 2.666734223614256e-001	 1.000000000000000e+001	 1.000106188767761e+001
0	 3.333434029809070e-001	 9.333302777352783e+000	 9.988617782293980e+000
0	 3.333434029809068e-001	 9.399973674588173e+000	 9.990574370789597e+000
0	 3.333434029809068e-001	 9.466644621844619e+000	 9.992319111032865e+000
0	 3.333434029809069e-001	 9.533315502450002e+000	 9.993871211423480e+000
0	 3.333434029809069e-001	 9.599986199732195e+000	 9.995249875989185e+000
0	 3.333434029809069e-001	 9.666656597019092e+000	 9.996474304385352e+000
0	 3.333434029809069e-001	 9.733326577638573e+000	 9.997563691894300e+000
0	 3.333434029809068e-001	 9.799996024918523e+000	 9.998537229424805e+000
0	 3.333434029809068e-001	 9.866664822186822e+000	 9.999414103511091e+000
0	 3.333434029809069e-001	 9.933332852771354e+000	 1.000021349631211e+001
0	 3.333434029809069e-001	 1.000000000000000e+001	 1.000095458561042e+001
0	 4.000138002678044e-001	 9.333302777352781e+000	 9.988658317428584e+000
0	 4.000138002678045e-001	 9.399973674588177e+000	 9.990675641523563e+000
0	 4.000138002678044e-001	 9.466644621844621e+000	 9.992461019757487e+000
0	 4.000138002678043e-001	 9.533315502449998e+000	 9.994034421272140e+000
0	 4.000138002678044e-001	 9.599986199732197e+000	 9.995415810655176e+000
0	 4.000138002678044e-001	 9.666656597019092e+000	 9.996625147939504e+000
0	 4.000138002678043e-001	 9.733326577638575e+000	 9.997682388602959e+000
0	 4.000138002678044e-001	 9.799996024918523e+000	 9.998607483567495e+000
0	 4.000138002678044e-001	 9.866664822186820e+000	 9.999420379198352e+000
0	 4.000138002678045e-001	 9.933332852771352e+000	 1.000014101730319e+001
0	 4.000138002678044e-001	 1.000000000000000e+001	 1.000078933513106e+001
0	 4.666844975500012e-001	 9.333302777352783e+000	 9.988699442539225e+000
0	 4.666844975500012e-001	 9.399973674588175e+000	 9.990781509309100e+000
0	 4.666844975500012e-001	 9.466644621844619e+000	 9.992611918489926e+000
0	 4.666844975500011e-001	 9.533315502450000e+000	 9.994210568647175e+000
0	 4.666844975500011e-001	 9.599986199732197e+000	 9.995597353593636e+000
0	 4.666844975500011e-001	 9.666656597019092e+000	 9.996792162388839e+000
0	 4.666844975500012e-001	 9.733326577638575e+000	 9.997814879338600e+000
0	 4.666844975500012e-001	 9.799996024918524e+000	 9.998685383994243e+000
0	 4.666844975500010e-001	 9.866664822186822e+000	 9.999423551151873e+000
0	 4.666844975500012e-001	 9.933332852771352e+000	 1.000004925085127e+001
0	 4.666844975500011e-001	 1.000000000000000e+001	 1.000058234837510e+001
0	 5.333553781553800e-001	 9.333302777352779e+000	 9.988741664467536e+000
0	 5.333553781553801e-001	 9.399973674588175e+000	 9.990887776734635e+000
0	 5.333553781553803e-001	 9.466644621844619e+000	 9.992764299881031e+000
0	 5.333553781553803e-001	 9.533315502450002e+000	 9.994390230569396e+000
0	 5.333553781553804e-001	 9.599986199732197e+000	 9.995784560509339e+000
0	 5.333553781553804e-001	 9.666656597019095e+000	 9.996966276456996e+000
0	 5.333553781553801e-001	 9.733326577638575e+000	 9.997954360214479e+000
0	 5.333553781553801e-001	 9.799996024918524e+000	 9.998767788629110e+000
0	 5.333553781553801e-001	 9.866664822186822e+000	 9.999425533592589e+000
0	 5.333553781553803e-001	 9.933332852771356e+000	 9.999946562040122e+000
0	 5.333553781553803e-001	 1.000000000000000e+001	 1.000034983594924e+001
0	 6.000263254118248e-001	 9.333302777352785e+000	 9.988785488841936e+000
0	 6.000263254118247e-001	 9.399973674588178e+000	 9.990990245156674e+000
0	 6.000263254118248e-001	 9.466644621844621e+000	 9.992910655351510e+000
0	 6.000263254118246e-001	 9.533315502450002e+000	 9.994563982842779e+000
0	 6.000263254118248e-001	 9.599986199732195e+000	 9.995967485906473e+000
0	 6.000263254118249e-001	 9.666656597019095e+000	 9.997138417677643e+000
0	 6.000263254118247e-001	 9.733326577638575e+000	 9.998094026149998e+000
0	 6.000263254118246e-001	 9.799996024918523e+000	 9.998851554175046e+000
0	 6.000263254118247e-001	 9.866664822186820e+000	 9.999428239461345e+000
0	 6.000263254118247e-001	 9.933332852771351e+000	 9.999841314573464e+000
0	 6.000263254118248e-001	 1.000000000000000e+001	 1.000010800693084e+001
0	 6.666972226472177e-001	 9.333302777352785e+000	 9.988831420077542e+000
0	 6.666972226472175e-001	 9.399973674588177e+000	 9.991084714699746e+000
0	 6.666972226472177e-001	 9.466644621844619e+000	 9.993043475091760e+000
0	 6.666972226472178e-001	 9.533315502450000e+000	 9.994722400054517e+000
0	 6.666972226472177e-001	 9.599986199732195e+000	 9.996136183088726e+000
0	 6.666972226472175e-001	 9.666656597019095e+000	 9.997299512394474e+000
0	 6.666972226472178e-001	 9.733326577638577e+000	 9.998227070870639e+000
0	 6.666972226472177e-001	 9.799996024918521e+000	 9.998933536114020e+000
0	 6.666972226472177e-001	 9.866664822186822e+000	 9.999433580418753e+000
0	 6.666972226472177e-001	 9.933332852771352e+000	 9.999741870774978e+000
0	 6.666972226472175e-001	 1.000000000000000e+001	 9.999873068868020e+000
0	 6.666972226472175e-001	 0.000000000000000e+000	 7.419951224805224e+000
0	 6.666972226472178e-001	 6.666714722864757e-002	 3.749410292956507e+000
0	 6.666972226472178e-001	 1.333351778131789e-001	 8.575896807311952e-001
0	 6.666972226472178e-001	 2.000039750814772e-001	-1.219528709728684e+000
0	 6.666972226472178e-001	 2.666734223614256e-001	-2.445952461505561e+000
0	 6.666972226472177e-001	 3.333434029809069e-001	-2.785678644215653e+000
0	 6.666972226472179e-001	 4.000138002678045e-001	-2.202693815042267e+000
0	 6.666972226472175e-001	 4.666844975500010e-001	-6.609740194930840e-001
0	 6.666972226472177e-001	 5.333553781553801e-001	 1.875515208118491e+000
0	 6.666972226472178e-001	 6.000263254118248e-001	 5.442818844467935e+000
0	 6.666972226472177e-001	 6.666972226472177e-001	 1.007699237729008e+001
0	 7.333579753122049e-001	 0.000000000000000e+000	 6.860119832005665e+000
0	 7.333579753122049e-001	 6.666714722864756e-002	 3.378204534632620e+000
0	 7.333579753122048e-001	 1.333351778131790e-001	 6.640251716329644e-001
0	 7.333579753122048e-001	 2.000039750814772e-001	-1.244196241062165e+000
0	 7.333579753122046e-001	 2.666734223614255e-001	-2.308227190241311e+000
0	 7.333579753122047e-001	 3.333434029809069e-001	-2.489824666700569e+000
0	 7.333579753122048e-001	 4.000138002678045e-001	-1.750735166255888e+000
0	 7.333579753122048e-001	 4.666844975500012e-001	-5.269469047980684e-002
0	 7.333579753122046e-001	 5.333553781553801e-001	 2.642571252837263e+000
0	 7.333579753122050e-001	 6.000263254118248e-001	 6.373347649501283e+000
0	 7.333579753122046e-001	 6.666972226472175e-001	 1.117792997900421e+001
0	 8.000185779984418e-001	 0.000000000000000e+000	 5.754004532121887e+000
0	 8.000185779984416e-001	 6.666714722864754e-002	 2.760121613472922e+000
0	 8.000185779984417e-001	 1.333351778131790e-001	 4.706033306806068e-001
0	 8.000185779984420e-001	 2.000039750814773e-001	-1.075554097796918e+000
0	 8.000185779984416e-001	 2.666734223614255e-001	-1.839344612371504e+000
0	 8.000185779984417e-001	 3.333434029809069e-001	-1.781752313506668e+000
0	 8.000185779984419e-001	 4.000138002678044e-001	-8.637514626409035e-001
0	 8.000185779984418e-001	 4.666844975500011e-001	 9.536935171473311e-001
0	 8.000185779984419e-001	 5.333553781553804e-001	 3.709628040732892e+000
0	 8.000185779984420e-001	 6.000263254118249e-001	 7.443107360795499e+000
0	 8.000185779984416e-001	 6.666972226472175e-001	 1.219319656792950e+001
0	 8.666790473703455e-001	 0.000000000000000e+000	 4.224877264112431e+000
0	 8.666790473703454e-001	 6.666714722864754e-002	 1.951780131051907e+000
0	 8.666790473703455e-001	 1.333351778131789e-001	 2.791593644590117e-001
0	 8.666790473703456e-001	 2.000039750814772e-001	-7.546812641672082e-001
0	 8.666790473703454e-001	 2.666734223614256e-001	-1.111429312343362e+000
0	 8.666790473703452e-001	 3.333434029809069e-001	-7.527636676095966e-001
0	 8.666790473703454e-001	 4.000138002678044e-001	 3.596454516901371e-001
0	 8.666790473703455e-001	 4.666844975500011e-001	 2.264136495855448e+000
0	 8.666790473703454e-001	 5.333553781553801e-001	 4.999056583504405e+000
0	 8.666790473703453e-001	 6.000263254118247e-001	 8.602761501476035e+000
0	 8.666790473703452e-001	 6.666972226472177e-001	 1.311361570496026e+001
0	 9.333394000923323e-001	 0.000000000000000e+000	 2.396010094838366e+000
0	 9.333394000923324e-001	 6.666714722864756e-002	 1.009798826175503e+000
0	 9.333394000923321e-001	 1.333351778131789e-001	 9.152861347624951e-002
0	 9.333394000923321e-001	 2.000039750814772e-001	-3.226566042255475e-001
0	 9.333394000923324e-001	 2.666734223614256e-001	-1.966057763929060e-001
0	 9.333394000923324e-001	 3.333434029809070e-001	 5.058392582305404e-001
0	 9.333394000923322e-001	 4.000138002678044e-001	 1.820843771023517e+000
0	 9.333394000923321e-001	 4.666844975500011e-001	 3.784580143076728e+000
0	 9.333394000923324e-001	 5.333553781553803e-001	 6.433227864969140e+000
0	 9.333394000923323e-001	 6.000263254118248e-001	 9.802973536730860e+000
0	 9.333394000923322e-001	 6.666972226472175e-001	 1.393001086799269e+001
0	 9.999996528288190e-001	 0.000000000000000e+000	 3.906752190652598e-001
0	 9.999996528288194e-001	 6.666714722864756e-002	-9.203425116832082e-003
0	 9.999996528288192e-001	 1.333351778131789e-001	-9.045344783448418e-002
0	 9.999996528288191e-001	 2.000039750814772e-001	 1.794411381589535e-001
0	 9.999996528288191e-001	 2.666734223614255e-001	 8.330016074562346e-001
0	 9.999996528288190e-001	 3.333434029809069e-001	 1.902754521469830e+000
0	 9.999996528288192e-001	 4.000138002678044e-001	 3.421231728044367e+000
0	 9.999996528288191e-001	 4.666844975500012e-001	 5.420970361207809e+000
0	 9.999996528288192e-001	 5.333553781553803e-001	 7.934512841061467e+000
0	 9.999996528288190e-001	 6.000263254118247e-001	 1.099440687380873e+001
0	 9.999996528288192e-001	 6.666972226472177e-001	 1.463320545192253e+001
0	 1.066659822244222e+000	 0.000000000000000e+000	-1.667855040535330e+000
0	 1.066659822244222e+000	 6.666714722864757e-002	-1.048607609550575e+000
0	 1.066659822244223e+000	 1.333351778131789e-001	-2.649512111134182e-001
0	 1.066659822244223e+000	 2.000039750814772e-001	 7.105333393017623e-001
0	 1.066659822244222e+000	 2.666734223614254e-001	 1.905268549393641e+000
0	 1.066659822244222e+000	 3.333434029809069e-001	 3.346680249780919e+000
0	 1.066659822244223e+000	 4.000138002678044e-001	 5.062197593836539e+000
0	 1.066659822244223e+000	 4.666844975500011e-001	 7.079253057609138e+000
0	 1.066659822244222e+000	 5.333553781553801e-001	 9.425282439831708e+000
0	 1.066659822244223e+000	 6.000263254118248e-001	 1.212772486201750e+001
0	 1.066659822244223e+000	 6.666972226472177e-001	 1.521402276864311e+001
0	 1.133319925002959e+000	 0.000000000000000e+000	-3.656308233384851e+000
0	 1.133319925002959e+000	 6.666714722864757e-002	-2.051794576615086e+000
0	 1.133319925002959e+000	 1.333351778131790e-001	-4.301289340732724e-001
0	 1.133319925002959e+000	 2.000039750814772e-001	 1.229541495703676e+000
0	 1.133319925002959e+000	 2.666734223614256e-001	 2.948070857822575e+000
0	 1.133319925002959e+000	 3.333434029809069e-001	 4.746314641053132e+000
0	 1.133319925002959e+000	 4.000138002678045e-001	 6.645129677882367e+000
0	 1.133319925002959e+000	 4.666844975500011e-001	 8.665374144604330e+000
0	 1.133319925002959e+000	 5.333553781553804e-001	 1.082790756144507e+001
0	 1.133319925002959e+000	 6.000263254118248e-001	 1.315359079272287e+001
0	 1.133319925002959e+000	 6.666972226472178e-001	 1.566328604704378e+001
0	 1.199979977769445e+000	 0.000000000000000e+000	-5.451411780997218e+000
0	 1.199979977769445e+000	 6.666714722864757e-002	-2.962145038563088e+000
0	 1.199979977769445e+000	 1.333351778131789e-001	-5.841507404988153e-001
0	 1.199979977769445e+000	 2.000039750814772e-001	 1.695387224051096e+000
0	 1.199979977769445e+000	 2.666734223614256e-001	 3.889284439360041e+000
0	 1.199979977769445e+000	 3.333434029809070e-001	 6.010355963392307e+000
0	 1.199979977769445e+000	 4.000138002678043e-001	 8.071416328062229e+000
0	 1.199979977769445e+000	 4.666844975500011e-001	 1.008527953947951e+001
0	 1.199979977769445e+000	 5.333553781553801e-001	 1.206475907818074e+001
0	 1.199979977769445e+000	 6.000263254118248e-001	 1.402266789934715e+001
0	 1.199979977769445e+000	 6.666972226472177e-001	 1.597181843300850e+001
0	 1.266639997208098e+000	 0.000000000000000e+000	-6.929892976978755e+000
0	 1.266639997208098e+000	 6.666714722864756e-002	-3.723039570410649e+000
0	 1.266639997208098e+000	 1.333351778131789e-001	-7.251806202469211e-001
0	 1.266639997208098e+000	 2.000039750814773e-001	 2.066992261215872e+000
0	 1.266639997208098e+000	 2.666734223614256e-001	 4.656785298836511e+000
0	 1.266639997208098e+000	 3.333434029809069e-001	 7.047502555120399e+000
0	 1.266639997208098e+000	 4.000138002678044e-001	 9.242445930654005e+000
0	 1.266639997208098e+000	 4.666844975500012e-001	 1.124491516448257e+001
0	 1.266639997208098e+000	 5.333553781553803e-001	 1.305820783443107e+001
0	 1.266639997208098e+000	 6.000263254118247e-001	 1.468561935736840e+001
0	 1.266639997208098e+000	 6.666972226472177e-001	 1.613044298941488e+001
0	 1.333299999983334e+000	 0.000000000000000e+000	-7.968478987028634e+000
0	 1.333299999983334e+000	 6.666714722864758e-002	-4.277858609937690e+000
0	 1.333299999983334e+000	 1.333351778131789e-001	-8.513824292471452e-001
0	 1.333299999983334e+000	 2.000039750814772e-001	 2.303278464254687e+000
0	 1.333299999983334e+000	 2.666734223614255e-001	 5.178449539295295e+000
0	 1.333299999983334e+000	 3.333434029809069e-001	 7.766452824774788e+000
0	 1.333299999983334e+000	 4.000138002678044e-001	 1.005960691033239e+001
0	 1.333299999983334e+000	 4.666844975500012e-001	 1.205022694682255e+001
0	 1.333299999983334e+000	 5.333553781553803e-001	 1.373062464670086e+001
0	 1.333299999983334e+000	 6.000263254118247e-001	 1.509310828431966e+001
0	 1.333299999983334e+000	 6.666972226472174e-001	 1.612998269613342e+001
0	 6.666972226472177e-001	 6.666972226472177e-001	 1.007699237729008e+001
0	 6.666972226472175e-001	 7.333579753122045e-001	 1.495463100666694e+001
0	 6.666972226472177e-001	 8.000185779984415e-001	 1.922079051100251e+001
0	 6.666972226472177e-001	 8.666790473703451e-001	 2.286189519927094e+001
0	 6.666972226472177e-001	 9.333394000923322e-001	 2.586437042989396e+001
0	 6.666972226472177e-001	 9.999996528288189e-001	 2.821464261076759e+001
0	 6.666972226472174e-001	 1.066659822244222e+000	 2.989913919928464e+001
0	 6.666972226472178e-001	 1.133319925002959e+000	 3.090428870235335e+001
0	 6.666972226472177e-001	 1.199979977769445e+000	 3.121652067641229e+001
0	 6.666972226472175e-001	 1.266639997208098e+000	 3.082226572744102e+001
0	 6.666972226472175e-001	 1.333299999983334e+000	 2.970795551096701e+001
0	 7.333579753122046e-001	 6.666972226472175e-001	 1.117792997900421e+001
0	 7.333579753122049e-001	 7.333579753122049e-001	 1.619112303826957e+001
0	 7.333579753122049e-001	 8.000185779984419e-001	 2.051415267738415e+001
0	 7.333579753122049e-001	 8.666790473703454e-001	 2.413254541936772e+001
0	 7.333579753122048e-001	 9.333394000923321e-001	 2.703182896959633e+001
0	 7.333579753122048e-001	 9.999996528288190e-001	 2.919753221583145e+001
0	 7.333579753122049e-001	 1.066659822244222e+000	 3.061518522824449e+001
0	 7.333579753122050e-001	 1.133319925002959e+000	 3.127031925943692e+001
0	 7.333579753122048e-001	 1.199979977769445e+000	 3.114846674445606e+001
0	 7.333579753122049e-001	 1.266639997208098e+000	 3.023516130080622e+001
0	 7.333579753122049e-001	 1.333299999983334e+000	 2.851593772845557e+001
0	 8.000185779984416e-001	 6.666972226472175e-001	 1.219319656792950e+001
0	 8.000185779984418e-001	 7.333579753122048e-001	 1.710821337645807e+001
0	 8.000185779984416e-001	 8.000185779984416e-001	 2.130210199422305e+001
0	 8.000185779984419e-001	 8.666790473703455e-001	 2.476000353901727e+001
0	 8.000185779984418e-001	 9.333394000923323e-001	 2.746706036589596e+001
0	 8.000185779984416e-001	 9.999996528288186e-001	 2.940841606720650e+001
0	 8.000185779984420e-001	 1.066659822244222e+000	 3.056921547261348e+001
0	 8.000185779984418e-001	 1.133319925002959e+000	 3.093460464911923e+001
0	 8.000185779984420e-001	 1.199979977769445e+000	 3.048973090107951e+001
0	 8.000185779984419e-001	 1.266639997208098e+000	 2.921974277021479e+001
0	 8.000185779984420e-001	 1.333299999983334e+000	 2.710979003561663e+001
0	 8.666790473703452e-001	 6.666972226472177e-001	 1.311361570496026e+001
0	 8.666790473703455e-001	 7.333579753122048e-001	 1.773883806340375e+001
0	 8.666790473703453e-001	 8.000185779984416e-001	 2.165173796692157e+001
0	 8.666790473703455e-001	 8.666790473703453e-001	 2.483758343606550e+001
0	 8.666790473703456e-001	 9.333394000923325e-001	 2.728164371747561e+001
0	 8.666790473703456e-001	 9.999996528288190e-001	 2.896918928390923e+001
0	 8.666790473703455e-001	 1.066659822244222e+000	 2.988549183426537e+001
0	 8.666790473703455e-001	 1.133319925002959e+000	 3.001582429360457e+001
0	 8.666790473703454e-001	 1.199979977769445e+000	 2.934546081316404e+001
0	 8.666790473703454e-001	 1.266639997208098e+000	 2.785967677036829e+001
0	 8.666790473703456e-001	 1.333299999983334e+000	 2.554374876883509e+001
0	 9.333394000923322e-001	 6.666972226472175e-001	 1.393001086799269e+001
0	 9.333394000923324e-001	 7.333579753122048e-001	 1.811593303992500e+001
0	 9.333394000923323e-001	 8.000185779984417e-001	 2.163015998760359e+001
0	 9.333394000923325e-001	 8.666790473703453e-001	 2.445859886881555e+001
0	 9.333394000923324e-001	 9.333394000923323e-001	 2.658715800210445e+001
0	 9.333394000923322e-001	 9.999996528288189e-001	 2.800174686679741e+001
0	 9.333394000923323e-001	 1.066659822244223e+000	 2.868827610302797e+001
0	 9.333394000923323e-001	 1.133319925002959e+000	 2.863265751175429e+001
0	 9.333394000923324e-001	 1.199979977769445e+000	 2.782080405477329e+001
0	 9.333394000923325e-001	 1.266639997208098e+000	 2.623862985473028e+001
0	 9.333394000923323e-001	 1.333299999983334e+000	 2.387205019512428e+001
0	 9.999996528288192e-001	 6.666972226472177e-001	 1.463320545192253e+001
0	 9.999996528288195e-001	 7.333579753122050e-001	 1.827243414548472e+001
0	 9.999996528288193e-001	 8.000185779984418e-001	 2.130446733511166e+001
0	 9.999996528288192e-001	 8.666790473703453e-001	 2.371636347602475e+001
0	 9.999996528288192e-001	 9.333394000923323e-001	 2.549518207663502e+001
0	 9.999996528288191e-001	 9.999996528288190e-001	 2.662798369856724e+001
0	 9.999996528288193e-001	 1.066659822244222e+000	 2.710182995668047e+001
0	 9.999996528288192e-001	 1.133319925002959e+000	 2.690378351908419e+001
0	 9.999996528288191e-001	 1.199979977769445e+000	 2.602090810715086e+001
0	 9.999996528288194e-001	 1.266639997208098e+000	 2.444026849552430e+001
0	 9.999996528288190e-001	 1.333299999983334e+000	 2.214893051212417e+001
0	 1.066659822244223e+000	 6.666972226472177e-001	 1.521402276864311e+001
0	 1.066659822244222e+000	 7.333579753122046e-001	 1.824127711818807e+001
0	 1.066659822244223e+000	 8.000185779984418e-001	 2.074175917500454e+001
0	 1.066659822244223e+000	 8.666790473703454e-001	 2.270419077690225e+001
0	 1.066659822244222e+000	 9.333394000923321e-001	 2.411729467700086e+001
0	 1.066659822244222e+000	 9.999996528288189e-001	 2.496979454375091e+001
0	 1.066659822244223e+000	 1.066659822244222e+000	 2.525041496095118e+001
0	 1.066659822244223e+000	 1.133319925002959e+000	 2.494788142776248e+001
0	 1.066659822244222e+000	 1.199979977769445e+000	 2.405092035871838e+001
0	 1.066659822244223e+000	 1.266639997208098e+000	 2.254825908373199e+001
0	 1.066659822244223e+000	 1.333299999983334e+000	 2.042862584809983e+001
0	 1.133319925002959e+000	 6.666972226472178e-001	 1.566328604704378e+001
0	 1.133319925002959e+000	 7.333579753122049e-001	 1.805539759478064e+001
0	 1.133319925002959e+000	 8.000185779984417e-001	 2.000913455955536e+001
0	 1.133319925002959e+000	 8.666790473703453e-001	 2.151539417110687e+001
0	 1.133319925002959e+000	 9.333394000923322e-001	 2.256507441821443e+001
0	 1.133319925002959e+000	 9.999996528288191e-001	 2.314907404871464e+001
0	 1.133319925002959e+000	 1.066659822244222e+000	 2.325829256951552e+001
0	 1.133319925002959e+000	 1.133319925002959e+000	 2.288363024660792e+001
0	 1.133319925002959e+000	 1.199979977769445e+000	 2.201598810507378e+001
0	 1.133319925002959e+000	 1.266639997208098e+000	 2.064626792909181e+001
0	 1.133319925002959e+000	 1.333299999983334e+000	 1.876537226194012e+001
0	 1.199979977769445e+000	 6.666972226472177e-001	 1.597181843300850e+001
0	 1.199979977769445e+000	 7.333579753122046e-001	 1.774773111064697e+001
0	 1.199979977769445e+000	 8.000185779984419e-001	 1.917369242774995e+001
0	 1.199979977769445e+000	 8.666790473703453e-001	 2.024328693874570e+001
0	 1.199979977769445e+000	 9.333394000923322e-001	 2.095009979436559e+001
0	 1.199979977769445e+000	 9.999996528288190e-001	 2.128771674165710e+001
0	 1.199979977769445e+000	 1.066659822244222e+000	 2.124972412399473e+001
0	 1.199979977769446e+000	 1.133319925002959e+000	 2.082970888108847e+001
0	 1.199979977769445e+000	 1.199979977769445e+000	 2.002125854899019e+001
0	 1.199979977769445e+000	 1.266639997208098e+000	 1.881796126009771e+001
0	 1.199979977769445e+000	 1.333299999983334e+000	 1.721340574315668e+001
0	 1.266639997208098e+000	 6.666972226472177e-001	 1.613044298941488e+001
0	 1.266639997208098e+000	 7.333579753122048e-001	 1.735121309980952e+001
0	 1.266639997208098e+000	 8.000185779984419e-001	 1.830253160528578e+001
0	 1.266639997208098e+000	 8.666790473703452e-001	 1.898118224037278e+001
0	 1.266639997208098e+000	 9.333394000923321e-001	 1.938394917862037e+001
0	 1.266639997208098e+000	 9.999996528288190e-001	 1.950761703260845e+001
0	 1.266639997208098e+000	 1.066659822244222e+000	 1.934897085395465e+001
0	 1.266639997208098e+000	 1.133319925002959e+000	 1.890479613332030e+001
0	 1.266639997208098e+000	 1.199979977769445e+000	 1.817187880041483e+001
0	 1.266639997208098e+000	 1.266639997208098e+000	 1.714700522399845e+001
0	 1.266639997208098e+000	 1.333299999983334e+000	 1.582696221188322e+001
0	 1.333299999983334e+000	 6.666972226472174e-001	 1.612998269613342e+001
0	 1.333299999983334e+000	 7.333579753122047e-001	 1.689877889492792e+001
0	 1.333299999983334e+000	 8.000185779984418e-001	 1.746275080457129e+001
0	 1.333299999983334e+000	 8.666790473703454e-001	 1.782239311698853e+001
0	 1.333299999983334e+000	 9.333394000923321e-001	 1.797820082322040e+001
0	 1.333299999983334e+000	 9.999996528288189e-001	 1.793066921342950e+001
0	 1.333299999983334e+000	 1.066659822244222e+000	 1.768029387690518e+001
0	 1.333299999983334e+000	 1.133319925002959e+000	 1.722757070206723e+001
0	 1.333299999983334e+000	 1.199979977769445e+000	 1.657299587646860e+001
0	 1.333299999983334e+000	 1.266639997208098e+000	 1.571706588679694e+001
0	 1.333299999983334e+000	 1.333299999983334e+000	 1.466027751887492e+001
0	 6.666972226472175e-001	 1.333299999983334e+000	 2.970795551096701e+001
0	 6.666972226472177e-001	 1.399969999982150e+000	 2.819929835791955e+001
0	 6.666972226472177e-001	 1.466639999981867e+000	 2.663439598926804e+001
0	 6.666972226472178e-001	 1.533309999982383e+000	 2.501760537904149e+001
0	 6.666972226472177e-001	 1.599979999983600e+000	 2.335328350126871e+001
0	 6.666972226472177e-001	 1.666649999985416e+000	 2.164578732997826e+001
0	 6.666972226472177e-001	 1.733319999987733e+000	 1.989947383919840e+001
0	 6.666972226472177e-001	 1.799989999990450e+000	 1.811870000295722e+001
0	 6.666972226472178e-001	 1.866659999993466e+000	 1.630782279528257e+001
0	 6.666972226472175e-001	 1.933329999996683e+000	 1.447119919020200e+001
0	 6.666972226472177e-001	 2.000000000000000e+000	 1.261318616174286e+001
0	 7.333579753122049e-001	 1.333299999983334e+000	 2.851593772845558e+001
0	 7.333579753122047e-001	 1.399969999982150e+000	 2.642298503753139e+001
0	 7.333579753122046e-001	 1.466639999981867e+000	 2.440105525696480e+001
0	 7.333579753122048e-001	 1.533309999982383e+000	 2.245357135422217e+001
0	 7.333579753122049e-001	 1.599979999983599e+000	 2.058395629677071e+001
0	 7.333579753122046e-001	 1.666649999985416e+000	 1.879563305207854e+001
0	 7.333579753122048e-001	 1.733319999987733e+000	 1.709202458761474e+001
0	 7.333579753122049e-001	 1.799989999990450e+000	 1.547655387084920e+001
0	 7.333579753122047e-001	 1.866659999993466e+000	 1.395264386925274e+001
0	 7.333579753122046e-001	 1.933329999996684e+000	 1.252371755029708e+001
0	 7.333579753122047e-001	 2.000000000000000e+000	 1.119319788145485e+001
0	 8.000185779984420e-001	 1.333299999983334e+000	 2.710979003561663e+001
0	 8.000185779984420e-001	 1.399969999982150e+000	 2.465461215660555e+001
0	 8.000185779984417e-001	 1.466639999981866e+000	 2.236131894105327e+001
0	 8.000185779984417e-001	 1.533309999982383e+000	 2.023247580666795e+001
0	 8.000185779984418e-001	 1.599979999983600e+000	 1.827064817115952e+001
0	 8.000185779984419e-001	 1.666649999985416e+000	 1.647840145223958e+001
0	 8.000185779984416e-001	 1.733319999987733e+000	 1.485830106762147e+001
0	 8.000185779984418e-001	 1.799989999990449e+000	 1.341291243502017e+001
0	 8.000185779984417e-001	 1.866659999993466e+000	 1.214480097215241e+001
0	 8.000185779984418e-001	 1.933329999996683e+000	 1.105653209673664e+001
0	 8.000185779984419e-001	 2.000000000000000e+000	 1.015067122649294e+001
0	 8.666790473703456e-001	 1.333299999983334e+000	 2.554374876883509e+001
0	 8.666790473703454e-001	 1.399969999982150e+000	 2.291733142917482e+001
0	 8.666790473703453e-001	 1.466639999981866e+000	 2.051190476140460e+001
0	 8.666790473703456e-001	 1.533309999982383e+000	 1.832925309140928e+001
0	 8.666790473703454e-001	 1.599979999983599e+000	 1.637116074507590e+001
0	 8.666790473703456e-001	 1.666649999985416e+000	 1.463941204829378e+001
0	 8.666790473703456e-001	 1.733319999987733e+000	 1.313579132695444e+001
0	 8.666790473703453e-001	 1.799989999990449e+000	 1.186208290695160e+001
0	 8.666790473703452e-001	 1.866659999993466e+000	 1.082007111418121e+001
0	 8.666790473703454e-001	 1.933329999996682e+000	 1.001154027454144e+001
0	 8.666790473703455e-001	 2.000000000000000e+000	 9.438274713932673e+000
0	 9.333394000923323e-001	 1.333299999983334e+000	 2.387205019512428e+001
0	 9.333394000923319e-001	 1.399969999982150e+000	 2.123429451139626e+001
0	 9.333394000923323e-001	 1.466639999981866e+000	 1.884953039091427e+001
0	 9.333394000923321e-001	 1.533309999982383e+000	 1.671883752669019e+001
0	 9.333394000923323e-001	 1.599979999983599e+000	 1.484329561173831e+001
0	 9.333394000923322e-001	 1.666649999985416e+000	 1.322398433907547e+001
0	 9.333394000923320e-001	 1.733319999987733e+000	 1.186198340172097e+001
0	 9.333394000923321e-001	 1.799989999990449e+000	 1.075837249269659e+001
0	 9.333394000923321e-001	 1.866659999993466e+000	 9.914231305026641e+000
0	 9.333394000923323e-001	 1.933329999996683e+000	 9.330639531737866e+000
0	 9.333394000923323e-001	 2.000000000000000e+000	 9.008676865859524e+000
0	 9.999996528288190e-001	 1.333299999983334e+000	 2.214893051212417e+001
0	 9.999996528288189e-001	 1.399969999982150e+000	 1.962865300154968e+001
0	 9.999996528288191e-001	 1.466639999981866e+000	 1.737091345550071e+001
0	 9.999996528288189e-001	 1.533309999982383e+000	 1.537616339396733e+001
0	 9.999996528288189e-001	 1.599979999983600e+000	 1.364485433694211e+001
0	 9.999996528288190e-001	 1.666649999985416e+000	 1.217743780442020e+001
0	 9.999996528288191e-001	 1.733319999987733e+000	 1.097436531639928e+001
0	 9.999996528288191e-001	 1.799989999990450e+000	 1.003608839287963e+001
0	 9.999996528288191e-001	 1.866659999993466e+000	 9.363058553864022e+000
0	 9.999996528288192e-001	 1.933329999996683e+000	 8.955727319357809e+000
0	 9.999996528288191e-001	 2.000000000000000e+000	 8.814546209368903e+000
0	 1.066659822244223e+000	 1.333299999983334e+000	 2.042862584809983e+001
0	 1.066659822244223e+000	 1.399969999982150e+000	 1.812355844003637e+001
0	 1.066659822244222e+000	 1.466639999981866e+000	 1.607277153410420e+001
0	 1.066659822244222e+000	 1.533309999982383e+000	 1.427616493790896e+001
0	 1.066659822244222e+000	 1.599979999983599e+000	 1.273363845905877e+001
0	 1.066659822244222e+000	 1.666649999985416e+000	 1.144509190516418e+001
0	 1.066659822244222e+000	 1.733319999987733e+000	 1.041042508383818e+001
0	 1.066659822244222e+000	 1.799989999990450e+000	 9.629537802696230e+000
0	 1.066659822244222e+000	 1.866659999993466e+000	 9.102329869356266e+000
0	 1.066659822244222e+000	 1.933329999996683e+000	 8.828701091438610e+000
0	 1.066659822244223e+000	 2.000000000000000e+000	 8.808551276566091e+000
0	 1.133319925002959e+000	 1.333299999983334e+000	 1.876537226194012e+001
0	 1.133319925002959e+000	 1.399969999982150e+000	 1.674216230937792e+001
0	 1.133319925002959e+000	 1.466639999981866e+000	 1.495182215868591e+001
0	 1.133319925002959e+000	 1.533309999982383e+000	 1.339377636639422e+001
0	 1.133319925002959e+000	 1.599979999983600e+000	 1.206744948903532e+001
0	 1.133319925002959e+000	 1.666649999985416e+000	 1.097226608314382e+001
0	 1.133319925002959e+000	 1.733319999987733e+000	 1.010765070525662e+001
0	 1.133319925002959e+000	 1.799989999990449e+000	 9.473027911912814e+000
0	 1.133319925002959e+000	 1.866659999993466e+000	 9.067822259653726e+000
0	 1.133319925002959e+000	 1.933329999996683e+000	 8.891458305022931e+000
0	 1.133319925002959e+000	 2.000000000000000e+000	 8.943360604566207e+000
0	 1.199979977769445e+000	 1.333299999983334e+000	 1.721340574315668e+001
0	 1.199979977769445e+000	 1.399969999982150e+000	 1.550761603421538e+001
0	 1.199979977769445e+000	 1.466639999981866e+000	 1.400478281422716e+001
0	 1.199979977769445e+000	 1.533309999982383e+000	 1.270393185051249e+001
0	 1.199979977769445e+000	 1.599979999983599e+000	 1.160408891039377e+001
0	 1.199979977769445e+000	 1.666649999985416e+000	 1.070427976119534e+001
0	 1.199979977769445e+000	 1.733319999987733e+000	 1.000353017024347e+001
0	 1.199979977769445e+000	 1.799989999990450e+000	 9.500865904866341e+000
0	 1.199979977769446e+000	 1.866659999993466e+000	 9.195312732394068e+000
0	 1.199979977769445e+000	 1.933329999996684e+000	 9.085896420158681e+000
0	 1.199979977769445e+000	 2.000000000000000e+000	 9.171642735494149e+000
0	 1.266639997208098e+000	 1.333299999983334e+000	 1.582696221188322e+001
0	 1.266639997208098e+000	 1.399969999982150e+000	 1.444307098130853e+001
0	 1.266639997208098e+000	 1.466639999981867e+000	 1.322837093872883e+001
0	 1.266639997208098e+000	 1.533309999982383e+000	 1.218156552456280e+001
0	 1.266639997208098e+000	 1.599979999983600e+000	 1.130135817923069e+001
0	 1.266639997208098e+000	 1.666649999985416e+000	 1.058645234315433e+001
0	 1.266639997208098e+000	 1.733319999987733e+000	 1.003555145675717e+001
0	 1.266639997208098e+000	 1.799989999990450e+000	 9.647358960464215e+000
0	 1.266639997208098e+000	 1.866659999993466e+000	 9.420578294702059e+000
0	 1.266639997208098e+000	 1.933329999996683e+000	 9.353912899898887e+000
0	 1.266639997208098e+000	 2.000000000000000e+000	 9.446066216484466e+000
0	 1.333299999983334e+000	 1.333299999983334e+000	 1.466027751887492e+001
0	 1.333299999983334e+000	 1.399969999982150e+000	 1.357167845953543e+001
0	 1.333299999983334e+000	 1.466639999981867e+000	 1.261930392321093e+001
0	 1.333299999983334e+000	 1.533309999982383e+000	 1.180161148605361e+001
0	 1.333299999983334e+000	 1.599979999983599e+000	 1.111705872421692e+001
0	 1.333299999983334e+000	 1.666649999985416e+000	 1.056410321385558e+001
0	 1.333299999983334e+000	 1.733319999987733e+000	 1.014120253112554e+001
0	 1.333299999983334e+000	 1.799989999990449e+000	 9.846814252184023e+000
0	 1.333299999983334e+000	 1.866659999993466e+000	 9.679395953189452e+000
0	 1.333299999983334e+000	 1.933329999996683e+000	 9.637405210301546e+000
0	 1.333299999983334e+000	 2.000000000000000e+000	 9.719299599681255e+000
0	 6.666972226472177e-001	 2.000000000000000e+000	 1.261318616174286e+001
0	 6.666972226472177e-001	 2.066670000003317e+000	 1.087823838774214e+001
0	 6.666972226472178e-001	 2.133340000006534e+000	 9.406918774752686e+000
0	 6.666972226472177e-001	 2.200010000009550e+000	 8.197746639877197e+000
0	 6.666972226472177e-001	 2.266680000012268e+000	 7.249241300220656e+000
0	 6.666972226472175e-001	 2.333350000014584e+000	 6.559922072890347e+000
0	 6.666972226472175e-001	 2.400020000016400e+000	 6.128308274995857e+000
0	 6.666972226472178e-001	 2.466690000017616e+000	 5.952919223649080e+000
0	 6.666972226472178e-001	 2.533360000018134e+000	 6.032274235964193e+000
0	 6.666972226472177e-001	 2.600030000017850e+000	 6.364892629057683e+000
0	 6.666972226472177e-001	 2.666700000016667e+000	 6.949293720048337e+000
0	 7.333579753122047e-001	 2.000000000000000e+000	 1.119319788145485e+001
0	 7.333579753122047e-001	 2.066670000003317e+000	 1.000336795657107e+001
0	 7.333579753122048e-001	 2.133340000006534e+000	 8.994131874807557e+000
0	 7.333579753122048e-001	 2.200010000009550e+000	 8.165344111613935e+000
0	 7.333579753122047e-001	 2.266680000012267e+000	 7.516859142441454e+000
0	 7.333579753122047e-001	 2.333350000014584e+000	 7.048531442742974e+000
0	 7.333579753122050e-001	 2.400020000016402e+000	 6.760215487972966e+000
0	 7.333579753122049e-001	 2.466690000017618e+000	 6.651765753587489e+000
0	 7.333579753122047e-001	 2.533360000018133e+000	 6.723036715044235e+000
0	 7.333579753122049e-001	 2.600030000017851e+000	 6.973882847802485e+000
0	 7.333579753122047e-001	 2.666700000016666e+000	 7.404158627323122e+000
0	 8.000185779984419e-001	 2.000000000000000e+000	 1.015067122649294e+001
0	 8.000185779984416e-001	 2.066670000003316e+000	 9.393324653639562e+000
0	 8.000185779984416e-001	 2.133340000006534e+000	 8.749549375022300e+000
0	 8.000185779984418e-001	 2.200010000009550e+000	 8.220336865304720e+000
0	 8.000185779984417e-001	 2.266680000012266e+000	 7.806678599151441e+000
0	 8.000185779984419e-001	 2.333350000014585e+000	 7.509566051228144e+000
0	 8.000185779984418e-001	 2.400020000016401e+000	 7.329990696201542e+000
0	 8.000185779984418e-001	 2.466690000017617e+000	 7.268944008739412e+000
0	 8.000185779984418e-001	 2.533360000018134e+000	 7.327417463510584e+000
0	 8.000185779984420e-001	 2.600030000017851e+000	 7.506402535184940e+000
0	 8.000185779984420e-001	 2.666700000016666e+000	 7.806890698433398e+000
0	 8.666790473703455e-001	 2.000000000000000e+000	 9.438274713932673e+000
0	 8.666790473703454e-001	 2.066670000003316e+000	 9.013079495867743e+000
0	 8.666790473703452e-001	 2.133340000006534e+000	 8.648857008343502e+000
0	 8.666790473703455e-001	 2.200010000009550e+000	 8.347537563988542e+000
0	 8.666790473703454e-001	 2.266680000012267e+000	 8.111051475432070e+000
0	 8.666790473703454e-001	 2.333350000014584e+000	 7.941329055303916e+000
0	 8.666790473703452e-001	 2.400020000016400e+000	 7.840300616234502e+000
0	 8.666790473703456e-001	 2.466690000017618e+000	 7.809896470854906e+000
0	 8.666790473703454e-001	 2.533360000018134e+000	 7.852046931796796e+000
0	 8.666790473703453e-001	 2.600030000017850e+000	 7.968682311692455e+000
0	 8.666790473703455e-001	 2.666700000016666e+000	 8.161732923174816e+000
0	 9.333394000923323e-001	 2.000000000000000e+000	 9.008676865859524e+000
0	 9.333394000923324e-001	 2.066670000003317e+000	 8.827603505630707e+000
0	 9.333394000923322e-001	 2.133340000006534e+000	 8.667740512286949e+000
0	 9.333394000923323e-001	 2.200010000009550e+000	 8.531758873354285e+000
0	 9.333394000923322e-001	 2.266680000012267e+000	 8.422329576359038e+000
0	 9.333394000923324e-001	 2.333350000014584e+000	 8.342123608827819e+000
0	 9.333394000923320e-001	 2.400020000016400e+000	 8.293811958287549e+000
0	 9.333394000923324e-001	 2.466690000017617e+000	 8.280065612265414e+000
0	 9.333394000923321e-001	 2.533360000018133e+000	 8.303555558288903e+000
0	 9.333394000923323e-001	 2.600030000017851e+000	 8.366952783885795e+000
0	 9.333394000923324e-001	 2.666700000016666e+000	 8.472928276584163e+000
0	 9.999996528288191e-001	 2.000000000000000e+000	 8.814546209368903e+000
0	 9.999996528288192e-001	 2.066670000003317e+000	 8.801867710758513e+000
0	 9.999996528288192e-001	 2.133340000006534e+000	 8.781885628937616e+000
0	 9.999996528288193e-001	 2.200010000009550e+000	 8.757813461740660e+000
0	 9.999996528288192e-001	 2.266680000012268e+000	 8.732864707002152e+000
0	 9.999996528288190e-001	 2.333350000014584e+000	 8.710252862556679e+000
0	 9.999996528288191e-001	 2.400020000016401e+000	 8.693191426238869e+000
0	 9.999996528288190e-001	 2.466690000017617e+000	 8.684893895883405e+000
0	 9.999996528288192e-001	 2.533360000018134e+000	 8.688573769325048e+000
0	 9.999996528288190e-001	 2.600030000017850e+000	 8.707444544398578e+000
0	 9.999996528288191e-001	 2.666700000016666e+000	 8.744719718938878e+000
0	 1.066659822244223e+000	 2.000000000000000e+000	 8.808551276566091e+000
0	 1.066659822244222e+000	 2.066670000003317e+000	 8.900843144536147e+000
0	 1.066659822244223e+000	 2.133340000006533e+000	 8.966978104949616e+000
0	 1.066659822244222e+000	 2.200010000009550e+000	 9.010514000136130e+000
0	 1.066659822244222e+000	 2.266680000012267e+000	 9.035008672425239e+000
0	 1.066659822244223e+000	 2.333350000014584e+000	 9.044019964146392e+000
0	 1.066659822244223e+000	 2.400020000016401e+000	 9.041105717628932e+000
0	 1.066659822244223e+000	 2.466690000017617e+000	 9.029823775202123e+000
0	 1.066659822244223e+000	 2.533360000018134e+000	 9.013731979195121e+000
0	 1.066659822244223e+000	 2.600030000017851e+000	 8.996388171936983e+000
0	 1.066659822244223e+000	 2.666700000016667e+000	 8.981350195756676e+000
0	 1.133319925002959e+000	 2.000000000000000e+000	 8.943360604566207e+000
0	 1.133319925002959e+000	 2.066670000003318e+000	 9.089500845703480e+000
0	 1.133319925002959e+000	 2.133340000006534e+000	 9.198703691546173e+000
0	 1.133319925002959e+000	 2.200010000009551e+000	 9.274673162178887e+000
0	 1.133319925002959e+000	 2.266680000012267e+000	 9.321113277686019e+000
0	 1.133319925002959e+000	 2.333350000014585e+000	 9.341728058151798e+000
0	 1.133319925002959e+000	 2.400020000016401e+000	 9.340221523660263e+000
0	 1.133319925002959e+000	 2.466690000017617e+000	 9.320297694295267e+000
0	 1.133319925002959e+000	 2.533360000018134e+000	 9.285660590140463e+000
0	 1.133319925002959e+000	 2.600030000017850e+000	 9.240014231279336e+000
0	 1.133319925002959e+000	 2.666700000016666e+000	 9.187062637795176e+000
0	 1.199979977769445e+000	 2.000000000000000e+000	 9.171642735494149e+000
0	 1.199979977769445e+000	 2.066670000003316e+000	 9.332811858455237e+000
0	 1.199979977769445e+000	 2.133340000006533e+000	 9.452748144519555e+000
0	 1.199979977769445e+000	 2.200010000009551e+000	 9.535103624156685e+000
0	 1.199979977769445e+000	 2.266680000012267e+000	 9.583530327835966e+000
0	 1.199979977769445e+000	 2.333350000014584e+000	 9.601680286026523e+000
0	 1.199979977769445e+000	 2.400020000016401e+000	 9.593205529197231e+000
0	 1.199979977769445e+000	 2.466690000017617e+000	 9.561758087816774e+000
0	 1.199979977769445e+000	 2.533360000018134e+000	 9.510989992353574e+000
0	 1.199979977769445e+000	 2.600030000017850e+000	 9.444553273275860e+000
0	 1.199979977769445e+000	 2.666700000016666e+000	 9.366099961051624e+000
0	 1.266639997208098e+000	 2.000000000000000e+000	 9.446066216484466e+000
0	 1.266639997208098e+000	 2.066670000003317e+000	 9.595747232440861e+000
0	 1.266639997208098e+000	 2.133340000006534e+000	 9.704797224230966e+000
0	 1.266639997208098e+000	 2.200010000009550e+000	 9.776618065006815e+000
0	 1.266639997208098e+000	 2.266680000012267e+000	 9.814611627920236e+000
0	 1.266639997208098e+000	 2.333350000014584e+000	 9.822179786122813e+000
0	 1.266639997208098e+000	 2.400020000016400e+000	 9.802724412765906e+000
0	 1.266639997208098e+000	 2.466690000017617e+000	 9.759647381000651e+000
0	 1.266639997208098e+000	 2.533360000018133e+000	 9.696350563977951e+000
0	 1.266639997208098e+000	 2.600030000017851e+000	 9.616235834848473e+000
0	 1.266639997208098e+000	 2.666700000016666e+000	 9.522705066762670e+000
0	 1.333299999983334e+000	 2.000000000000000e+000	 9.719299599681255e+000
0	 1.333299999983334e+000	 2.066670000003317e+000	 9.843278022764482e+000
0	 1.333299999983334e+000	 2.133340000006534e+000	 9.930536695610455e+000
0	 1.333299999983334e+000	 2.200010000009550e+000	 9.984029166315947e+000
0	 1.333299999983334e+000	 2.266680000012267e+000	 1.000670898297750e+001
0	 1.333299999983334e+000	 2.333350000014584e+000	 1.000152969369144e+001
0	 1.333299999983334e+000	 2.400020000016401e+000	 9.971444846553906e+000
0	 1.333299999983334e+000	 2.466690000017617e+000	 9.919407989660812e+000
0	 1.333299999983334e+000	 2.533360000018134e+000	 9.848372671107864e+000
0	 1.333299999983334e+000	 2.600030000017851e+000	 9.761292438990546e+000
0	 1.333299999983334e+000	 2.666700000016666e+000	 9.661120841404161e+000
0	 6.666972226472177e-001	 2.666700000016667e+000	 6.949293720048336e+000
0	 6.666972226472175e-001	 2.733360000014533e+000	 7.610737582614521e+000
0	 6.666972226472178e-001	 2.800020000011599e+000	 8.176138760347310e+000
0	 6.666972226472177e-001	 2.866680000008067e+000	 8.646178881711668e+000
0	 6.666972226472178e-001	 2.933340000004133e+000	 9.021539575174177e+000
0	 6.666972226472175e-001	 3.000000000000000e+000	 9.302902469203094e+000
0	 6.666972226472178e-001	 3.066659999995867e+000	 9.490949192268298e+000
0	 6.666972226472175e-001	 3.133319999991933e+000	 9.586361372841353e+000
0	 6.666972226472178e-001	 3.199979999988400e+000	 9.589820639395434e+000
0	 6.666972226472177e-001	 3.266639999985467e+000	 9.502008620405380e+000
0	 6.666972226472175e-001	 3.333299999983334e+000	 9.323606944347674e+000
0	 7.333579753122047e-001	 2.666700000016666e+000	 7.404158627323125e+000
0	 7.333579753122049e-001	 2.733360000014534e+000	 7.891209395334868e+000
0	 7.333579753122047e-001	 2.800020000011599e+000	 8.312379679210448e+000
0	 7.333579753122050e-001	 2.866680000008067e+000	 8.667288770634368e+000
0	 7.333579753122048e-001	 2.933340000004133e+000	 8.955555961292346e+000
0	 7.333579753122049e-001	 3.000000000000000e+000	 9.176800542871286e+000
0	 7.333579753122047e-001	 3.066659999995868e+000	 9.330641807059269e+000
0	 7.333579753122048e-001	 3.133319999991934e+000	 9.416699045545583e+000
0	 7.333579753122047e-001	 3.199979999988400e+000	 9.434591550020699e+000
0	 7.333579753122049e-001	 3.266639999985468e+000	 9.383938612176292e+000
0	 7.333579753122049e-001	 3.333299999983334e+000	 9.264359523705208e+000
0	 8.000185779984420e-001	 2.666700000016666e+000	 7.806890698433397e+000
0	 8.000185779984419e-001	 2.733360000014533e+000	 8.148402569659403e+000
0	 8.000185779984418e-001	 2.800020000011599e+000	 8.449052798533975e+000
0	 8.000185779984419e-001	 2.866680000008066e+000	 8.707561211175426e+000
0	 8.000185779984418e-001	 2.933340000004134e+000	 8.922647633702914e+000
0	 8.000185779984419e-001	 3.000000000000000e+000	 9.093031892236397e+000
0	 8.000185779984419e-001	 3.066659999995868e+000	 9.217433812896649e+000
0	 8.000185779984420e-001	 3.133319999991934e+000	 9.294573221805251e+000
0	 8.000185779984418e-001	 3.199979999988400e+000	 9.323169945084629e+000
0	 8.000185779984419e-001	 3.266639999985467e+000	 9.301943808857990e+000
0	 8.000185779984420e-001	 3.333299999983334e+000	 9.229614639249359e+000
0	 8.666790473703455e-001	 2.666700000016666e+000	 8.161732923174816e+000
0	 8.666790473703455e-001	 2.733360000014534e+000	 8.383983762898939e+000
0	 8.666790473703452e-001	 2.800020000011599e+000	 8.585658008438031e+000
0	 8.666790473703454e-001	 2.866680000008067e+000	 8.764738893271316e+000
0	 8.666790473703455e-001	 2.933340000004133e+000	 8.919209650878582e+000
0	 8.666790473703453e-001	 3.000000000000000e+000	 9.047053514740064e+000
0	 8.666790473703453e-001	 3.066659999995866e+000	 9.146253718336578e+000
0	 8.666790473703455e-001	 3.133319999991934e+000	 9.214793495149397e+000
0	 8.666790473703455e-001	 3.199979999988401e+000	 9.250656078660317e+000
0	 8.666790473703454e-001	 3.266639999985467e+000	 9.251824702351659e+000
0	 8.666790473703454e-001	 3.333299999983333e+000	 9.216282599706233e+000
0	 9.333394000923324e-001	 2.666700000016666e+000	 8.472928276584163e+000
0	 9.333394000923323e-001	 2.733360000014533e+000	 8.599619618026937e+000
0	 9.333394000923322e-001	 2.800020000011600e+000	 8.721695186226366e+000
0	 9.333394000923322e-001	 2.866680000008067e+000	 8.836564496418298e+000
0	 9.333394000923324e-001	 2.933340000004133e+000	 8.941637063838842e+000
0	 9.333394000923324e-001	 3.000000000000000e+000	 9.034322403724397e+000
0	 9.333394000923324e-001	 3.066659999995867e+000	 9.112030031311607e+000
0	 9.333394000923321e-001	 3.133319999991933e+000	 9.172169461837408e+000
0	 9.333394000923322e-001	 3.199979999988401e+000	 9.212150210538992e+000
0	 9.333394000923324e-001	 3.266639999985467e+000	 9.229381792653818e+000
0	 9.333394000923324e-001	 3.333299999983334e+000	 9.221273723419634e+000
0	 9.999996528288191e-001	 2.666700000016666e+000	 8.744719718938878e+000
0	 9.999996528288191e-001	 2.733360000014533e+000	 8.796976763679023e+000
0	 9.999996528288192e-001	 2.800020000011600e+000	 8.856664196385939e+000
0	 9.999996528288192e-001	 2.866680000008067e+000	 8.920780689672014e+000
0	 9.999996528288193e-001	 2.933340000004133e+000	 8.986324916149757e+000
0	 9.999996528288189e-001	 2.999999999999999e+000	 9.050295548431723e+000
0	 9.999996528288193e-001	 3.066659999995867e+000	 9.109691259130585e+000
0	 9.999996528288191e-001	 3.133319999991934e+000	 9.161510720859093e+000
0	 9.999996528288192e-001	 3.199979999988401e+000	 9.202752606230083e+000
0	 9.999996528288191e-001	 3.266639999985467e+000	 9.230415587856456e+000
0	 9.999996528288191e-001	 3.333299999983334e+000	 9.241498338351235e+000
0	 1.066659822244223e+000	 2.666700000016667e+000	 8.981350195756678e+000
0	 1.066659822244223e+000	 2.733360000014533e+000	 8.977721814152641e+000
0	 1.066659822244223e+000	 2.800020000011600e+000	 8.990064890586533e+000
0	 1.066659822244222e+000	 2.866680000008066e+000	 9.015130131647242e+000
0	 1.066659822244223e+000	 2.933340000004133e+000	 9.049668243923625e+000
0	 1.066659822244222e+000	 2.999999999999999e+000	 9.090429934004483e+000
0	 1.066659822244222e+000	 3.066659999995865e+000	 9.134165908478577e+000
0	 1.066659822244223e+000	 3.133319999991933e+000	 9.177626873934605e+000
0	 1.066659822244223e+000	 3.199979999988401e+000	 9.217563536961244e+000
0	 1.066659822244222e+000	 3.266639999985466e+000	 9.250726604147095e+000
0	 1.066659822244222e+000	 3.333299999983333e+000	 9.273866782080727e+000
0	 1.133319925002959e+000	 2.666700000016666e+000	 9.187062637795179e+000
0	 1.133319925002959e+000	 2.733360000014532e+000	 9.143521369406688e+000
0	 1.133319925002959e+000	 2.800020000011601e+000	 9.121397107680487e+000
0	 1.133319925002959e+000	 2.866680000008066e+000	 9.117355470517596e+000
0	 1.133319925002959e+000	 2.933340000004133e+000	 9.128062075818873e+000
0	 1.133319925002959e+000	 3.000000000000000e+000	 9.150182541485068e+000
0	 1.133319925002959e+000	 3.066659999995867e+000	 9.180382485416779e+000
0	 1.133319925002959e+000	 3.133319999991934e+000	 9.215327525514466e+000
0	 1.133319925002959e+000	 3.199979999988400e+000	 9.251683279678446e+000
0	 1.133319925002959e+000	 3.266639999985467e+000	 9.286115365808916e+000
0	 1.133319925002959e+000	 3.333299999983334e+000	 9.315289401805913e+000
0	 1.199979977769445e+000	 2.666700000016666e+000	 9.366099961051626e+000
0	 1.199979977769445e+000	 2.733360000014534e+000	 9.296042015061250e+000
0	 1.199979977769445e+000	 2.800020000011600e+000	 9.250160673702437e+000
0	 1.199979977769446e+000	 2.866680000008067e+000	 9.225199344015312e+000
0	 1.199979977769445e+000	 2.933340000004133e+000	 9.217901433039810e+000
0	 1.199979977769445e+000	 3.000000000000000e+000	 9.225010347815669e+000
0	 1.199979977769445e+000	 3.066659999995865e+000	 9.243269495382442e+000
0	 1.199979977769445e+000	 3.133319999991933e+000	 9.269422282779477e+000
0	 1.199979977769445e+000	 3.199979999988401e+000	 9.300212117045923e+000
0	 1.199979977769445e+000	 3.266639999985467e+000	 9.332382405220768e+000
0	 1.199979977769445e+000	 3.333299999983334e+000	 9.362676554342759e+000
0	 1.266639997208098e+000	 2.666700000016666e+000	 9.522705066762670e+000
0	 1.266639997208098e+000	 2.733360000014533e+000	 9.436950322397362e+000
0	 1.266639997208098e+000	 2.800020000011600e+000	 9.375855401869060e+000
0	 1.266639997208098e+000	 2.866680000008066e+000	 9.336404379431079e+000
0	 1.266639997208098e+000	 2.933340000004134e+000	 9.315581329336490e+000
0	 1.266639997208098e+000	 3.000000000000000e+000	 9.310370325838171e+000
0	 1.266639997208098e+000	 3.066659999995867e+000	 9.317755443188768e+000
0	 1.266639997208098e+000	 3.133319999991934e+000	 9.334720755640705e+000
0	 1.266639997208098e+000	 3.199979999988401e+000	 9.358250337446181e+000
0	 1.266639997208098e+000	 3.266639999985467e+000	 9.385328262857177e+000
0	 1.266639997208098e+000	 3.333299999983334e+000	 9.412938606125449e+000
0	 1.333299999983334e+000	 2.666700000016666e+000	 9.661120841404161e+000
0	 1.333299999983334e+000	 2.733360000014532e+000	 9.567912848356857e+000
0	 1.333299999983334e+000	 2.800020000011599e+000	 9.497981092578982e+000
0	 1.333299999983334e+000	 2.866680000008067e+000	 9.448713193613870e+000
0	 1.333299999983334e+000	 2.933340000004133e+000	 9.417496771004606e+000
0	 1.333299999983334e+000	 3.000000000000000e+000	 9.401719444294058e+000
0	 1.333299999983334e+000	 3.066659999995867e+000	 9.398768833024866e+000
0	 1.333299999983334e+000	 3.133319999991934e+000	 9.406032556739435e+000
0	 1.333299999983334e+000	 3.199979999988401e+000	 9.420898234979953e+000
0	 1.333299999983334e+000	 3.266639999985467e+000	 9.440753487288349e+000
0	 1.333299999983334e+000	 3.333299999983334e+000	 9.462985933206360e+000
0	 6.666972226472175e-001	 3.333299999983334e+000	 9.323606944347674e+000
0	 6.666972226472177e-001	 3.399969999982150e+000	 9.118718497709880e+000
0	 6.666972226472177e-001	 3.466639999981867e+000	 8.950934759598450e+000
0	 6.666972226472177e-001	 3.533309999982382e+000	 8.820069676179818e+000
0	 6.666972226472177e-001	 3.599979999983599e+000	 8.725937193620716e+000
0	 6.666972226472175e-001	 3.666649999985416e+000	 8.668351258088203e+000
0	 6.666972226472175e-001	 3.733319999987733e+000	 8.647125815749673e+000
0	 6.666972226472175e-001	 3.799989999990450e+000	 8.662074812772811e+000
0	 6.666972226472177e-001	 3.866659999993467e+000	 8.713012195325648e+000
0	 6.666972226472175e-001	 3.933329999996683e+000	 8.799751909576530e+000
0	 6.666972226472175e-001	 4.000000000000001e+000	 8.922107901694117e+000
0	 7.333579753122049e-001	 3.333299999983334e+000	 9.264359523705211e+000
0	 7.333579753122048e-001	 3.399969999982150e+000	 9.121995208601049e+000
0	 7.333579753122047e-001	 3.466639999981868e+000	 9.003675352970555e+000
0	 7.333579753122048e-001	 3.533309999982382e+000	 8.909983008659175e+000
0	 7.333579753122049e-001	 3.599979999983600e+000	 8.841501227512572e+000
0	 7.333579753122046e-001	 3.666649999985416e+000	 8.798813061376666e+000
0	 7.333579753122047e-001	 3.733319999987733e+000	 8.782501562097620e+000
0	 7.333579753122048e-001	 3.799989999990450e+000	 8.793149781521821e+000
0	 7.333579753122048e-001	 3.866659999993467e+000	 8.831340771495894e+000
0	 7.333579753122047e-001	 3.933329999996684e+000	 8.897657583866725e+000
0	 7.333579753122048e-001	 4.000000000000002e+000	 8.992683270481409e+000
0	 8.000185779984420e-001	 3.333299999983334e+000	 9.229614639249359e+000
0	 8.000185779984421e-001	 3.399969999982151e+000	 9.137563567859534e+000
0	 8.000185779984418e-001	 3.466639999981866e+000	 9.058875083235538e+000
0	 8.000185779984418e-001	 3.533309999982383e+000	 8.994779804162361e+000
0	 8.000185779984419e-001	 3.599979999983600e+000	 8.946508349425177e+000
0	 8.000185779984420e-001	 3.666649999985417e+000	 8.915291337809313e+000
0	 8.000185779984417e-001	 3.733319999987733e+000	 8.902359388100271e+000
0	 8.000185779984418e-001	 3.799989999990451e+000	 8.908943119083730e+000
0	 8.000185779984416e-001	 3.866659999993466e+000	 8.936273149545555e+000
0	 8.000185779984418e-001	 3.933329999996683e+000	 8.985580098271763e+000
0	 8.000185779984418e-001	 4.000000000000001e+000	 9.058094584048558e+000
0	 8.666790473703454e-001	 3.333299999983333e+000	 9.216282599706233e+000
0	 8.666790473703452e-001	 3.399969999982150e+000	 9.163555432553547e+000
0	 8.666790473703453e-001	 3.466639999981866e+000	 9.115700843437653e+000
0	 8.666790473703455e-001	 3.533309999982383e+000	 9.074475478083205e+000
0	 8.666790473703453e-001	 3.599979999983600e+000	 9.041635982214975e+000
0	 8.666790473703453e-001	 3.666649999985416e+000	 9.018939001557875e+000
0	 8.666790473703456e-001	 3.733319999987733e+000	 9.008141181836912e+000
0	 8.666790473703456e-001	 3.799989999990451e+000	 9.010999168777236e+000
0	 8.666790473703452e-001	 3.866659999993467e+000	 9.029269608104100e+000
0	 8.666790473703453e-001	 3.933329999996683e+000	 9.064709145542901e+000
0	 8.666790473703455e-001	 4.000000000000001e+000	 9.119074426819125e+000
0	 9.333394000923324e-001	 3.333299999983334e+000	 9.221273723419632e+000
0	 9.333394000923320e-001	 3.399969999982149e+000	 9.198102669863358e+000
0	 9.333394000923324e-001	 3.466639999981867e+000	 9.173319536310393e+000
0	 9.333394000923322e-001	 3.533309999982383e+000	 9.149085454347064e+000
0	 9.333394000923324e-001	 3.599979999983600e+000	 9.127561555559767e+000
0	 9.333394000923322e-001	 3.666649999985416e+000	 9.110908971534968e+000
0	 9.333394000923323e-001	 3.733319999987733e+000	 9.101288833859236e+000
0	 9.333394000923319e-001	 3.799989999990449e+000	 9.100862274119235e+000
0	 9.333394000923324e-001	 3.866659999993468e+000	 9.111790423901677e+000
0	 9.333394000923323e-001	 3.933329999996683e+000	 9.136234414793378e+000
0	 9.333394000923324e-001	 4.000000000000000e+000	 9.176355378381242e+000
0	 9.999996528288191e-001	 3.333299999983334e+000	 9.241498338351235e+000
0	 9.999996528288189e-001	 3.399969999982150e+000	 9.239337157081458e+000
0	 9.999996528288191e-001	 3.466639999981867e+000	 9.230898074276686e+000
0	 9.999996528288190e-001	 3.533309999982383e+000	 9.218625165411062e+000
0	 9.999996528288191e-001	 3.599979999983600e+000	 9.204962505958775e+000
0	 9.999996528288190e-001	 3.666649999985416e+000	 9.192354171394094e+000
0	 9.999996528288191e-001	 3.733319999987733e+000	 9.183244237191314e+000
0	 9.999996528288192e-001	 3.799989999990450e+000	 9.180076778824803e+000
0	 9.999996528288191e-001	 3.866659999993466e+000	 9.185295871768998e+000
0	 9.999996528288193e-001	 3.933329999996685e+000	 9.201345591498336e+000
0	 9.999996528288191e-001	 4.000000000000000e+000	 9.230670013487371e+000
0	 1.066659822244222e+000	 3.333299999983333e+000	 9.273866782080726e+000
0	 1.066659822244222e+000	 3.399969999982150e+000	 9.285390781612733e+000
0	 1.066659822244222e+000	 3.466639999981866e+000	 9.287603379449005e+000
0	 1.066659822244222e+000	 3.533309999982383e+000	 9.283110052264162e+000
0	 1.066659822244222e+000	 3.599979999983600e+000	 9.274516276732841e+000
0	 1.066659822244222e+000	 3.666649999985416e+000	 9.264427529529749e+000
0	 1.066659822244222e+000	 3.733319999987733e+000	 9.255449287329617e+000
0	 1.066659822244223e+000	 3.799989999990450e+000	 9.250187026807183e+000
0	 1.066659822244222e+000	 3.866659999993466e+000	 9.251246224637262e+000
0	 1.066659822244223e+000	 3.933329999996684e+000	 9.261232357494668e+000
0	 1.066659822244223e+000	 4.000000000000000e+000	 9.282750902054293e+000
0	 1.133319925002959e+000	 3.333299999983334e+000	 9.315289401805911e+000
0	 1.133319925002959e+000	 3.399969999982149e+000	 9.334395440974550e+000
0	 1.133319925002959e+000	 3.466639999981866e+000	 9.342602383629508e+000
0	 1.133319925002959e+000	 3.533309999982382e+000	 9.342555564427270e+000
0	 1.133319925002959e+000	 3.599979999983600e+000	 9.336900318024407e+000
0	 1.133319925002959e+000	 3.666649999985416e+000	 9.328281979077456e+000
0	 1.133319925002959e+000	 3.733319999987733e+000	 9.319345882243015e+000
0	 1.133319925002959e+000	 3.799989999990450e+000	 9.312737362177685e+000
0	 1.133319925002959e+000	 3.866659999993466e+000	 9.311101753538114e+000
0	 1.133319925002959e+000	 3.933329999996684e+000	 9.317084390980947e+000
0	 1.133319925002959e+000	 4.000000000000000e+000	 9.333330609162877e+000
0	 1.199979977769445e+000	 3.333299999983334e+000	 9.362676554342757e+000
0	 1.199979977769446e+000	 3.399969999982150e+000	 9.384483042796859e+000
0	 1.199979977769445e+000	 3.466639999981866e+000	 9.395062028310086e+000
0	 1.199979977769445e+000	 3.533309999982383e+000	 9.396977159953343e+000
0	 1.199979977769445e+000	 3.599979999983599e+000	 9.392792086797574e+000
0	 1.199979977769445e+000	 3.666649999985416e+000	 9.385070457913733e+000
0	 1.199979977769445e+000	 3.733319999987733e+000	 9.376375922372798e+000
0	 1.199979977769445e+000	 3.799989999990450e+000	 9.369272129245731e+000
0	 1.199979977769445e+000	 3.866659999993466e+000	 9.366322727603572e+000
0	 1.199979977769445e+000	 3.933329999996684e+000	 9.370091366517347e+000
0	 1.199979977769445e+000	 4.000000000000000e+000	 9.383141695058088e+000
0	 1.266639997208098e+000	 3.333299999983334e+000	 9.412938606125449e+000
0	 1.266639997208098e+000	 3.399969999982151e+000	 9.433785504822216e+000
0	 1.266639997208098e+000	 3.466639999981867e+000	 9.444149264672435e+000
0	 1.266639997208098e+000	 3.533309999982383e+000	 9.446390305427336e+000
0	 1.266639997208098e+000	 3.599979999983599e+000	 9.442869046838156e+000
0	 1.266639997208098e+000	 3.666649999985415e+000	 9.435945908656153e+000
0	 1.266639997208098e+000	 3.733319999987732e+000	 9.427981310632587e+000
0	 1.266639997208098e+000	 3.799989999990451e+000	 9.421335672518763e+000
0	 1.266639997208098e+000	 3.866659999993466e+000	 9.418369414065966e+000
0	 1.266639997208098e+000	 3.933329999996684e+000	 9.421442955025544e+000
0	 1.266639997208098e+000	 4.000000000000001e+000	 9.432916715148819e+000
0	 1.333299999983334e+000	 3.333299999983334e+000	 9.462985933206362e+000
0	 1.333299999983334e+000	 3.399969999982149e+000	 9.480434754905760e+000
0	 1.333299999983334e+000	 3.466639999981867e+000	 9.489031053588020e+000
0	 1.333299999983334e+000	 3.533309999982383e+000	 9.490810475966260e+000
0	 1.333299999983334e+000	 3.599979999983599e+000	 9.487808668753619e+000
0	 1.333299999983334e+000	 3.666649999985416e+000	 9.482061278663284e+000
0	 1.333299999983334e+000	 3.733319999987733e+000	 9.475603952408415e+000
0	 1.333299999983334e+000	 3.799989999990450e+000	 9.470472336702210e+000
0	 1.333299999983334e+000	 3.866659999993467e+000	 9.468702078257895e+000
0	 1.333299999983334e+000	 3.933329999996683e+000	 9.472328823788711e+000
0	 1.333299999983334e+000	 4.000000000000000e+000	 9.483388220007901e+000
0	 6.666972226472175e-001	 4.000000000000001e+000	 8.922107901694117e+000
0	 6.666972226472178e-001	 4.066670000003317e+000	 9.053727792859565e+000
0	 6.666972226472177e-001	 4.133340000006535e+000	 9.168406613847557e+000
0	 6.666972226472177e-001	 4.200010000009550e+000	 9.266179425217162e+000
0	 6.666972226472177e-001	 4.266680000012267e+000	 9.347081287527308e+000
0	 6.666972226472175e-001	 4.333350000014583e+000	 9.411147261336758e+000
0	 6.666972226472175e-001	 4.400020000016400e+000	 9.458412407204140e+000
0	 6.666972226472175e-001	 4.466690000017618e+000	 9.488911785687904e+000
0	 6.666972226472177e-001	 4.533360000018134e+000	 9.502680457346399e+000
0	 6.666972226472177e-001	 4.600030000017851e+000	 9.499753482737773e+000
0	 6.666972226472178e-001	 4.666700000016666e+000	 9.480165922420033e+000
0	 7.333579753122048e-001	 4.000000000000002e+000	 8.992683270481409e+000
0	 7.333579753122047e-001	 4.066670000003317e+000	 9.096878535791770e+000
0	 7.333579753122047e-001	 4.133340000006533e+000	 9.190026530267859e+000
0	 7.333579753122049e-001	 4.200010000009551e+000	 9.271693974784220e+000
0	 7.333579753122048e-001	 4.266680000012269e+000	 9.341447590215287e+000
0	 7.333579753122047e-001	 4.333350000014584e+000	 9.398854097435367e+000
0	 7.333579753122049e-001	 4.400020000016401e+000	 9.443480217318633e+000
0	 7.333579753122048e-001	 4.466690000017619e+000	 9.474892670739186e+000
0	 7.333579753122048e-001	 4.533360000018134e+000	 9.492658178570945e+000
0	 7.333579753122048e-001	 4.600030000017851e+000	 9.496343461687768e+000
0	 7.333579753122047e-001	 4.666700000016665e+000	 9.485515240963327e+000
0	 8.000185779984418e-001	 4.000000000000001e+000	 9.058094584048558e+000
0	 8.000185779984417e-001	 4.066670000003316e+000	 9.139777481808544e+000
0	 8.000185779984416e-001	 4.133340000006532e+000	 9.215219440962500e+000
0	 8.000185779984419e-001	 4.200010000009551e+000	 9.283595742013915e+000
0	 8.000185779984417e-001	 4.266680000012266e+000	 9.344081665466225e+000
0	 8.000185779984419e-001	 4.333350000014585e+000	 9.395852491822735e+000
0	 8.000185779984417e-001	 4.400020000016400e+000	 9.438083501586659e+000
0	 8.000185779984417e-001	 4.466690000017619e+000	 9.469949975261143e+000
0	 8.000185779984417e-001	 4.533360000018134e+000	 9.490627193349191e+000
0	 8.000185779984419e-001	 4.600030000017849e+000	 9.499290436353748e+000
0	 8.000185779984419e-001	 4.666700000016666e+000	 9.495114984777656e+000
0	 8.666790473703455e-001	 4.000000000000001e+000	 9.119074426819125e+000
0	 8.666790473703453e-001	 4.066670000003318e+000	 9.182647647392516e+000
0	 8.666790473703454e-001	 4.133340000006533e+000	 9.243780399058906e+000
0	 8.666790473703454e-001	 4.200010000009550e+000	 9.301333422048003e+000
0	 8.666790473703454e-001	 4.266680000012267e+000	 9.354167456589469e+000
0	 8.666790473703457e-001	 4.333350000014586e+000	 9.401143242912868e+000
0	 8.666790473703452e-001	 4.400020000016400e+000	 9.441121521247707e+000
0	 8.666790473703454e-001	 4.466690000017617e+000	 9.472963031823390e+000
0	 8.666790473703456e-001	 4.533360000018134e+000	 9.495528514869266e+000
0	 8.666790473703452e-001	 4.600030000017849e+000	 9.507678710614597e+000
0	 8.666790473703454e-001	 4.666700000016665e+000	 9.508274359288581e+000
0	 9.333394000923324e-001	 4.000000000000000e+000	 9.176355378381242e+000
0	 9.333394000923323e-001	 4.066670000003316e+000	 9.225712043667281e+000
0	 9.333394000923321e-001	 4.133340000006535e+000	 9.275504452410020e+000
0	 9.333394000923322e-001	 4.200010000009551e+000	 9.324355705331085e+000
0	 9.333394000923320e-001	 4.266680000012266e+000	 9.370888903152059e+000
0	 9.333394000923321e-001	 4.333350000014583e+000	 9.413727146594438e+000
0	 9.333394000923320e-001	 4.400020000016400e+000	 9.451493536379696e+000
0	 9.333394000923323e-001	 4.466690000017618e+000	 9.482811173229193e+000
0	 9.333394000923325e-001	 4.533360000018133e+000	 9.506303157864272e+000
0	 9.333394000923320e-001	 4.600030000017850e+000	 9.520592591006196e+000
0	 9.333394000923324e-001	 4.666700000016667e+000	 9.524302573376167e+000
0	 9.999996528288191e-001	 4.000000000000000e+000	 9.230670013487371e+000
0	 9.999996528288191e-001	 4.066670000003318e+000	 9.269193676397208e+000
0	 9.999996528288190e-001	 4.133340000006534e+000	 9.310186643594152e+000
0	 9.999996528288192e-001	 4.200010000009551e+000	 9.352111277610531e+000
0	 9.999996528288191e-001	 4.266680000012268e+000	 9.393429940978638e+000
0	 9.999996528288192e-001	 4.333350000014583e+000	 9.432604996230706e+000
0	 9.999996528288192e-001	 4.400020000016402e+000	 9.468098805898920e+000
0	 9.999996528288190e-001	 4.466690000017617e+000	 9.498373732515407e+000
0	 9.999996528288191e-001	 4.533360000018134e+000	 9.521892138612259e+000
0	 9.999996528288189e-001	 4.600030000017849e+000	 9.537116386721497e+000
0	 9.999996528288191e-001	 4.666700000016665e+000	 9.542508839375104e+000
0	 1.066659822244223e+000	 4.000000000000000e+000	 9.282750902054293e+000
0	 1.066659822244223e+000	 4.066670000003318e+000	 9.313315545987331e+000
0	 1.066659822244223e+000	 4.133340000006535e+000	 9.347622009914815e+000
0	 1.066659822244222e+000	 4.200010000009551e+000	 9.384048819936311e+000
0	 1.066659822244222e+000	 4.266680000012267e+000	 9.420974502151362e+000
0	 1.066659822244223e+000	 4.333350000014584e+000	 9.456777582659457e+000
0	 1.066659822244222e+000	 4.400020000016401e+000	 9.489836587560038e+000
0	 1.066659822244223e+000	 4.466690000017619e+000	 9.518530042952513e+000
0	 1.066659822244223e+000	 4.533360000018134e+000	 9.541236474936239e+000
0	 1.066659822244223e+000	 4.600030000017851e+000	 9.556334409610551e+000
0	 1.066659822244223e+000	 4.666700000016665e+000	 9.562202373074703e+000
0	 1.133319925002959e+000	 4.000000000000000e+000	 9.333330609162877e+000
0	 1.133319925002959e+000	 4.066670000003318e+000	 9.358300647483208e+000
0	 1.133319925002959e+000	 4.133340000006535e+000	 9.387605583400637e+000
0	 1.133319925002959e+000	 4.200010000009551e+000	 9.419617008660914e+000
0	 1.133319925002959e+000	 4.266680000012268e+000	 9.452706515009769e+000
0	 1.133319925002959e+000	 4.333350000014584e+000	 9.485245694192896e+000
0	 1.133319925002959e+000	 4.400020000016400e+000	 9.515606137955942e+000
0	 1.133319925002959e+000	 4.466690000017617e+000	 9.542159438044520e+000
0	 1.133319925002959e+000	 4.533360000018133e+000	 9.563277186204200e+000
0	 1.133319925002959e+000	 4.600030000017849e+000	 9.577330974180516e+000
0	 1.133319925002959e+000	 4.666700000016667e+000	 9.582692393718954e+000
0	 1.199979977769445e+000	 4.000000000000000e+000	 9.383141695058088e+000
0	 1.199979977769445e+000	 4.066670000003318e+000	 9.404371970570837e+000
0	 1.199979977769445e+000	 4.133340000006533e+000	 9.429932390805236e+000
0	 1.199979977769445e+000	 4.200010000009551e+000	 9.458264515439229e+000
0	 1.199979977769445e+000	 4.266680000012268e+000	 9.487809904150746e+000
0	 1.199979977769445e+000	 4.333350000014583e+000	 9.517010116617644e+000
0	 1.199979977769445e+000	 4.400020000016402e+000	 9.544306712517802e+000
0	 1.199979977769446e+000	 4.466690000017618e+000	 9.568141251529010e+000
0	 1.199979977769445e+000	 4.533360000018133e+000	 9.586955293329059e+000
0	 1.199979977769445e+000	 4.600030000017851e+000	 9.599190397595674e+000
0	 1.199979977769445e+000	 4.666700000016665e+000	 9.603288124006580e+000
0	 1.266639997208098e+000	 4.000000000000001e+000	 9.432916715148823e+000
0	 1.266639997208098e+000	 4.066670000003318e+000	 9.451752499576561e+000
0	 1.266639997208098e+000	 4.133340000006534e+000	 9.474397453607182e+000
0	 1.266639997208098e+000	 4.200010000009551e+000	 9.499440007228522e+000
0	 1.266639997208098e+000	 4.266680000012267e+000	 9.525468590428424e+000
0	 1.266639997208098e+000	 4.333350000014585e+000	 9.551071633194656e+000
0	 1.266639997208098e+000	 4.400020000016401e+000	 9.574837565514967e+000
0	 1.266639997208098e+000	 4.466690000017618e+000	 9.595354817377087e+000
0	 1.266639997208098e+000	 4.533360000018133e+000	 9.611211818768693e+000
0	 1.266639997208098e+000	 4.600030000017850e+000	 9.620996999677441e+000
0	 1.266639997208098e+000	 4.666700000016666e+000	 9.623298790090958e+000
0	 1.333299999983334e+000	 4.000000000000000e+000	 9.483388220007903e+000
0	 1.333299999983334e+000	 4.066670000003317e+000	 9.500665213466990e+000
0	 1.333299999983334e+000	 4.133340000006535e+000	 9.520795788009856e+000
0	 1.333299999983334e+000	 4.200010000009550e+000	 9.542592146288321e+000
0	 1.333299999983334e+000	 4.266680000012268e+000	 9.564866490954168e+000
0	 1.333299999983334e+000	 4.333350000014584e+000	 9.586431024659147e+000
0	 1.333299999983334e+000	 4.400020000016402e+000	 9.606097950054972e+000
0	 1.333299999983334e+000	 4.466690000017619e+000	 9.622679469793344e+000
0	 1.333299999983334e+000	 4.533360000018134e+000	 9.634987786525924e+000
0	 1.333299999983334e+000	 4.600030000017851e+000	 9.641835102904336e+000
0	 1.333299999983334e+000	 4.666700000016667e+000	 9.642033621580202e+000
0	 6.666972226472178e-001	 4.666700000016666e+000	 9.480165922420035e+000
0	 6.666972226472177e-001	 4.733360000014533e+000	 9.455445654672239e+000
0	 6.666972226472177e-001	 4.800020000011600e+000	 9.437089894773141e+000
0	 6.666972226472178e-001	 4.866680000008067e+000	 9.425100265927119e+000
0	 6.666972226472175e-001	 4.933340000004133e+000	 9.419478391338448e+000
0	 6.666972226472174e-001	 4.999999999999999e+000	 9.420225894211278e+000
0	 6.666972226472178e-001	 5.066659999995868e+000	 9.427344397749675e+000
0	 6.666972226472177e-001	 5.133319999991935e+000	 9.440835525157567e+000
0	 6.666972226472178e-001	 5.199979999988400e+000	 9.460700899638789e+000
0	 6.666972226472177e-001	 5.266639999985468e+000	 9.486942144397039e+000
0	 6.666972226472175e-001	 5.333299999983334e+000	 9.519560882635940e+000
0	 7.333579753122047e-001	 4.666700000016665e+000	 9.485515240963327e+000
0	 7.333579753122049e-001	 4.733360000014534e+000	 9.469173261786175e+000
0	 7.333579753122046e-001	 4.800020000011598e+000	 9.456778613434571e+000
0	 7.333579753122049e-001	 4.866680000008067e+000	 9.448598235436126e+000
0	 7.333579753122049e-001	 4.933340000004135e+000	 9.444899067318337e+000
0	 7.333579753122050e-001	 5.000000000000000e+000	 9.445948048608610e+000
0	 7.333579753122047e-001	 5.066659999995867e+000	 9.452012118834261e+000
0	 7.333579753122048e-001	 5.133319999991935e+000	 9.463358217522504e+000
0	 7.333579753122048e-001	 5.199979999988400e+000	 9.480253284200451e+000
0	 7.333579753122052e-001	 5.266639999985467e+000	 9.502964258395155e+000
0	 7.333579753122048e-001	 5.333299999983334e+000	 9.531758079633526e+000
0	 8.000185779984419e-001	 4.666700000016666e+000	 9.495114984777660e+000
0	 8.000185779984421e-001	 4.733360000014534e+000	 9.485091601387996e+000
0	 8.000185779984419e-001	 4.800020000011602e+000	 9.477083001203109e+000
0	 8.000185779984418e-001	 4.866680000008066e+000	 9.471577284225505e+000
0	 8.000185779984419e-001	 4.933340000004133e+000	 9.469062550457576e+000
0	 8.000185779984418e-001	 5.000000000000000e+000	 9.470026899901660e+000
0	 8.000185779984419e-001	 5.066659999995867e+000	 9.474958432559998e+000
0	 8.000185779984420e-001	 5.133319999991934e+000	 9.484345248434741e+000
0	 8.000185779984418e-001	 5.199979999988401e+000	 9.498675447527960e+000
0	 8.000185779984418e-001	 5.266639999985467e+000	 9.518437129841677e+000
0	 8.000185779984419e-001	 5.333299999983336e+000	 9.544118395377788e+000
0	 8.666790473703454e-001	 4.666700000016665e+000	 9.508274359288581e+000
0	 8.666790473703455e-001	 4.733360000014535e+000	 9.502757301985698e+000
0	 8.666790473703452e-001	 4.800020000011600e+000	 9.497770620772165e+000
0	 8.666790473703454e-001	 4.866680000008067e+000	 9.493979419829705e+000
0	 8.666790473703455e-001	 4.933340000004133e+000	 9.492048803339957e+000
0	 8.666790473703455e-001	 5.000000000000000e+000	 9.492643875484502e+000
0	 8.666790473703454e-001	 5.066659999995865e+000	 9.496429740444823e+000
0	 8.666790473703455e-001	 5.133319999991934e+000	 9.504071502402349e+000
0	 8.666790473703455e-001	 5.199979999988401e+000	 9.516234265538426e+000
0	 8.666790473703455e-001	 5.266639999985467e+000	 9.533583134034332e+000
0	 8.666790473703454e-001	 5.333299999983334e+000	 9.556783212071258e+000
0	 9.333394000923324e-001	 4.666700000016667e+000	 9.524302573376168e+000
0	 9.333394000923324e-001	 4.733360000014534e+000	 9.521726995939622e+000
0	 9.333394000923323e-001	 4.800020000011600e+000	 9.518609038721776e+000
0	 9.333394000923324e-001	 4.866680000008067e+000	 9.515746653406795e+000
0	 9.333394000923324e-001	 4.933340000004133e+000	 9.513937791678750e+000
0	 9.333394000923323e-001	 5.000000000000000e+000	 9.513980405221698e+000
0	 9.333394000923324e-001	 5.066659999995867e+000	 9.516672445719557e+000
0	 9.333394000923325e-001	 5.133319999991934e+000	 9.522811864856253e+000
0	 9.333394000923323e-001	 5.199979999988401e+000	 9.533196614315576e+000
0	 9.333394000923325e-001	 5.266639999985470e+000	 9.548624645781279e+000
0	 9.333394000923324e-001	 5.333299999983335e+000	 9.569893910937056e+000
0	 9.999996528288191e-001	 4.666700000016665e+000	 9.542508839375108e+000
0	 9.999996528288191e-001	 4.733360000014534e+000	 9.541557319462580e+000
0	 9.999996528288190e-001	 4.800020000011599e+000	 9.539365825518759e+000
0	 9.999996528288191e-001	 4.866680000008067e+000	 9.536820999738549e+000
0	 9.999996528288193e-001	 4.933340000004134e+000	 9.534809484316822e+000
0	 9.999996528288190e-001	 4.999999999999999e+000	 9.534217921448370e+000
0	 9.999996528288192e-001	 5.066659999995866e+000	 9.535932953327929e+000
0	 9.999996528288191e-001	 5.133319999991935e+000	 9.540841222150176e+000
0	 9.999996528288192e-001	 5.199979999988400e+000	 9.549829370109714e+000
0	 9.999996528288192e-001	 5.266639999985466e+000	 9.563784039401082e+000
0	 9.999996528288190e-001	 5.333299999983333e+000	 9.583591872218742e+000
0	 1.066659822244223e+000	 4.666700000016665e+000	 9.562202373074705e+000
0	 1.066659822244223e+000	 4.733360000014534e+000	 9.561804912619886e+000
0	 1.066659822244223e+000	 4.800020000011601e+000	 9.559808555516696e+000
0	 1.066659822244222e+000	 4.866680000008065e+000	 9.557144477230489e+000
0	 1.066659822244223e+000	 4.933340000004134e+000	 9.554743853226581e+000
0	 1.066659822244223e+000	 5.000000000000001e+000	 9.553537858970207e+000
0	 1.066659822244223e+000	 5.066659999995867e+000	 9.554457669926546e+000
0	 1.066659822244223e+000	 5.133319999991935e+000	 9.558434461560712e+000
0	 1.066659822244222e+000	 5.199979999988401e+000	 9.566399409337750e+000
0	 1.066659822244223e+000	 5.266639999985467e+000	 9.579283688722661e+000
0	 1.066659822244222e+000	 5.333299999983333e+000	 9.598018475180359e+000
0	 1.133319925002959e+000	 4.666700000016667e+000	 9.582692393718954e+000
0	 1.133319925002959e+000	 4.733360000014533e+000	 9.582026419329376e+000
0	 1.133319925002959e+000	 4.800020000011601e+000	 9.579704806956013e+000
0	 1.133319925002959e+000	 4.866680000008065e+000	 9.576659107911940e+000
0	 1.133319925002959e+000	 4.933340000004135e+000	 9.573820873510123e+000
0	 1.133319925002959e+000	 5.000000000000000e+000	 9.572121655063516e+000
0	 1.133319925002959e+000	 5.066659999995867e+000	 9.572493003884961e+000
0	 1.133319925002959e+000	 5.133319999991935e+000	 9.575866471287263e+000
0	 1.133319925002959e+000	 5.199979999988400e+000	 9.583173608583158e+000
0	 1.133319925002959e+000	 5.266639999985467e+000	 9.595345967085319e+000
0	 1.133319925002959e+000	 5.333299999983335e+000	 9.613315098106360e+000
0	 1.199979977769445e+000	 4.666700000016665e+000	 9.603288124006582e+000
0	 1.199979977769445e+000	 4.733360000014533e+000	 9.601778487361457e+000
0	 1.199979977769445e+000	 4.800020000011599e+000	 9.598822161964003e+000
0	 1.199979977769446e+000	 4.866680000008067e+000	 9.595306917435998e+000
0	 1.199979977769445e+000	 4.933340000004133e+000	 9.592120523399180e+000
0	 1.199979977769445e+000	 4.999999999999999e+000	 9.590150749475185e+000
0	 1.199979977769445e+000	 5.066659999995866e+000	 9.590285365285642e+000
0	 1.199979977769445e+000	 5.133319999991933e+000	 9.593412140452069e+000
0	 1.199979977769445e+000	 5.199979999988399e+000	 9.600418844595941e+000
0	 1.199979977769445e+000	 5.266639999985467e+000	 9.612193247338666e+000
0	 1.199979977769445e+000	 5.333299999983335e+000	 9.629623118301597e+000
0	 1.266639997208098e+000	 4.666700000016666e+000	 9.623298790090958e+000
0	 1.266639997208098e+000	 4.733360000014533e+000	 9.620617768339146e+000
0	 1.266639997208098e+000	 4.800020000011601e+000	 9.616928206554835e+000
0	 1.266639997208098e+000	 4.866680000008067e+000	 9.613029935079640e+000
0	 1.266639997208098e+000	 4.933340000004135e+000	 9.609722784255123e+000
0	 1.266639997208098e+000	 4.999999999999999e+000	 9.607806584422768e+000
0	 1.266639997208098e+000	 5.066659999995866e+000	 9.608081165924011e+000
0	 1.266639997208098e+000	 5.133319999991934e+000	 9.611346359100208e+000
0	 1.266639997208098e+000	 5.199979999988400e+000	 9.618401994292666e+000
0	 1.266639997208098e+000	 5.266639999985467e+000	 9.630047901842644e+000
0	 1.266639997208098e+000	 5.333299999983331e+000	 9.647083912091294e+000
0	 1.333299999983334e+000	 4.666700000016667e+000	 9.642033621580202e+000
0	 1.333299999983334e+000	 4.733360000014533e+000	 9.638100917738017e+000
0	 1.333299999983334e+000	 4.800020000011600e+000	 9.633790530629572e+000
0	 1.333299999983334e+000	 4.866680000008067e+000	 9.629770193743655e+000
0	 1.333299999983334e+000	 4.933340000004134e+000	 9.626707640569029e+000
0	 1.333299999983334e+000	 5.000000000000000e+000	 9.625270604594396e+000
0	 1.333299999983334e+000	 5.066659999995867e+000	 9.626126819308386e+000
0	 1.333299999983334e+000	 5.133319999991934e+000	 9.629944018199566e+000
0	 1.333299999983334e+000	 5.199979999988400e+000	 9.637389934756444e+000
0	 1.333299999983334e+000	 5.266639999985467e+000	 9.649132302467475e+000
0	 1.333299999983334e+000	 5.333299999983335e+000	 9.665838854821040e+000
0	 6.666972226472175e-001	 5.333299999983334e+000	 9.519560882635936e+000
0	 6.666972226472177e-001	 5.399969999982150e+000	 9.553668613254963e+000
0	 6.666972226472175e-001	 5.466639999981865e+000	 9.584359825748548e+000
0	 6.666972226472177e-001	 5.533309999982382e+000	 9.611626744435831e+000
0	 6.666972226472177e-001	 5.599979999983599e+000	 9.635461593635940e+000
0	 6.666972226472174e-001	 5.666649999985414e+000	 9.655856597667937e+000
0	 6.666972226472177e-001	 5.733319999987732e+000	 9.672803980850883e+000
0	 6.666972226472177e-001	 5.799989999990449e+000	 9.686295967503785e+000
0	 6.666972226472178e-001	 5.866659999993467e+000	 9.696324781945631e+000
0	 6.666972226472177e-001	 5.933329999996684e+000	 9.702882648495370e+000
0	 6.666972226472177e-001	 6.000000000000000e+000	 9.705961791471923e+000
0	 7.333579753122048e-001	 5.333299999983334e+000	 9.531758079633528e+000
0	 7.333579753122048e-001	 5.399969999982151e+000	 9.562521447915918e+000
0	 7.333579753122047e-001	 5.466639999981865e+000	 9.590857337495137e+000
0	 7.333579753122048e-001	 5.533309999982381e+000	 9.616621466614525e+000
0	 7.333579753122049e-001	 5.599979999983600e+000	 9.639669553517393e+000
0	 7.333579753122046e-001	 5.666649999985414e+000	 9.659857316447029e+000
0	 7.333579753122048e-001	 5.733319999987733e+000	 9.677040473646699e+000
0	 7.333579753122049e-001	 5.799989999990450e+000	 9.691074743359611e+000
0	 7.333579753122047e-001	 5.866659999993466e+000	 9.701815843828987e+000
0	 7.333579753122047e-001	 5.933329999996683e+000	 9.709119493297957e+000
0	 7.333579753122048e-001	 6.000000000000002e+000	 9.712841410009688e+000
0	 8.000185779984419e-001	 5.333299999983336e+000	 9.544118395377787e+000
0	 8.000185779984421e-001	 5.399969999982150e+000	 9.572194583817723e+000
0	 8.000185779984415e-001	 5.466639999981865e+000	 9.598635346141869e+000
0	 8.000185779984418e-001	 5.533309999982385e+000	 9.623183212287476e+000
0	 8.000185779984419e-001	 5.599979999983599e+000	 9.645580712191746e+000
0	 8.000185779984419e-001	 5.666649999985417e+000	 9.665570375791880e+000
0	 8.000185779984418e-001	 5.733319999987733e+000	 9.682894733025028e+000
0	 8.000185779984419e-001	 5.799989999990450e+000	 9.697296313828339e+000
0	 8.000185779984416e-001	 5.866659999993466e+000	 9.708517648138908e+000
0	 8.000185779984419e-001	 5.933329999996683e+000	 9.716301265893799e+000
0	 8.000185779984420e-001	 6.000000000000001e+000	 9.720389697030068e+000
0	 8.666790473703454e-001	 5.333299999983334e+000	 9.556783212071258e+000
0	 8.666790473703452e-001	 5.399969999982148e+000	 9.582737256621101e+000
0	 8.666790473703453e-001	 5.466639999981866e+000	 9.607665156618818e+000
0	 8.666790473703455e-001	 5.533309999982383e+000	 9.631219571698789e+000
0	 8.666790473703454e-001	 5.599979999983598e+000	 9.653053161495375e+000
0	 8.666790473703456e-001	 5.666649999985415e+000	 9.672818585642867e+000
0	 8.666790473703454e-001	 5.733319999987732e+000	 9.690168503775592e+000
0	 8.666790473703453e-001	 5.799989999990449e+000	 9.704755575527802e+000
0	 8.666790473703452e-001	 5.866659999993465e+000	 9.716232460533728e+000
0	 8.666790473703455e-001	 5.933329999996685e+000	 9.724251818427581e+000
0	 8.666790473703456e-001	 6.000000000000002e+000	 9.728466308843549e+000
0	 9.333394000923324e-001	 5.333299999983335e+000	 9.569893910937056e+000
0	 9.333394000923320e-001	 5.399969999982149e+000	 9.594198700733022e+000
0	 9.333394000923324e-001	 5.466639999981867e+000	 9.617918072525603e+000
0	 9.333394000923321e-001	 5.533309999982382e+000	 9.640638133848068e+000
0	 9.333394000923323e-001	 5.599979999983601e+000	 9.661944992233702e+000
0	 9.333394000923322e-001	 5.666649999985417e+000	 9.681424755215735e+000
0	 9.333394000923321e-001	 5.733319999987733e+000	 9.698663530327382e+000
0	 9.333394000923323e-001	 5.799989999990450e+000	 9.713247425101816e+000
0	 9.333394000923324e-001	 5.866659999993468e+000	 9.724762547072226e+000
0	 9.333394000923324e-001	 5.933329999996683e+000	 9.732795003771710e+000
0	 9.333394000923322e-001	 5.999999999999998e+000	 9.736930902733375e+000
0	 9.999996528288190e-001	 5.333299999983333e+000	 9.583591872218744e+000
0	 9.999996528288190e-001	 5.399969999982149e+000	 9.606628149306644e+000
0	 9.999996528288192e-001	 5.466639999981866e+000	 9.629365396131320e+000
0	 9.999996528288191e-001	 5.533309999982384e+000	 9.651346486490317e+000
0	 9.999996528288190e-001	 5.599979999983600e+000	 9.672114294181194e+000
0	 9.999996528288191e-001	 5.666649999985416e+000	 9.691211693001479e+000
0	 9.999996528288192e-001	 5.733319999987734e+000	 9.708181556748672e+000
0	 9.999996528288192e-001	 5.799989999990449e+000	 9.722566759220245e+000
0	 9.999996528288192e-001	 5.866659999993467e+000	 9.733910174213634e+000
0	 9.999996528288192e-001	 5.933329999996683e+000	 9.741754675526263e+000
0	 9.999996528288192e-001	 6.000000000000000e+000	 9.745643136955531e+000
0	 1.066659822244222e+000	 5.333299999983333e+000	 9.598018475180359e+000
0	 1.066659822244222e+000	 5.399969999982149e+000	 9.620074834241304e+000
0	 1.066659822244222e+000	 5.466639999981865e+000	 9.641978428374561e+000
0	 1.066659822244223e+000	 5.533309999982383e+000	 9.663252216135959e+000
0	 1.066659822244223e+000	 5.599979999983600e+000	 9.683419156081323e+000
0	 1.066659822244222e+000	 5.666649999985417e+000	 9.702002206766419e+000
0	 1.066659822244223e+000	 5.733319999987733e+000	 9.718524326747032e+000
0	 1.066659822244223e+000	 5.799989999990450e+000	 9.732508474578879e+000
0	 1.066659822244222e+000	 5.866659999993467e+000	 9.743477608817667e+000
0	 1.066659822244223e+000	 5.933329999996684e+000	 9.750954688019085e+000
0	 1.066659822244223e+000	 6.000000000000000e+000	 9.754462670738780e+000
0	 1.133319925002959e+000	 5.333299999983335e+000	 9.613315098106362e+000
0	 1.133319925002959e+000	 5.399969999982148e+000	 9.634587986182408e+000
0	 1.133319925002959e+000	 5.466639999981866e+000	 9.655728468863314e+000
0	 1.133319925002959e+000	 5.533309999982384e+000	 9.676262908050786e+000
0	 1.133319925002959e+000	 5.599979999983599e+000	 9.695717665646496e+000
0	 1.133319925002959e+000	 5.666649999985415e+000	 9.713619103552119e+000
0	 1.133319925002959e+000	 5.733319999987733e+000	 9.729493583669246e+000
0	 1.133319925002959e+000	 5.799989999990451e+000	 9.742867467899503e+000
0	 1.133319925002959e+000	 5.866659999993467e+000	 9.753267118144461e+000
0	 1.133319925002959e+000	 5.933329999996683e+000	 9.760218896305668e+000
0	 1.133319925002959e+000	 6.000000000000000e+000	 9.763249164284652e+000
0	 1.199979977769445e+000	 5.333299999983335e+000	 9.629623118301595e+000
0	 1.199979977769445e+000	 5.399969999982148e+000	 9.650216834521485e+000
0	 1.199979977769445e+000	 5.466639999981866e+000	 9.670586815874987e+000
0	 1.199979977769445e+000	 5.533309999982383e+000	 9.690286146255922e+000
0	 1.199979977769445e+000	 5.599979999983600e+000	 9.708867909558112e+000
0	 1.199979977769445e+000	 5.666649999985417e+000	 9.725885189675324e+000
0	 1.199979977769445e+000	 5.733319999987733e+000	 9.740891070501332e+000
0	 1.199979977769445e+000	 5.799989999990449e+000	 9.753438635929848e+000
0	 1.199979977769445e+000	 5.866659999993467e+000	 9.763080969854599e+000
0	 1.199979977769445e+000	 5.933329999996683e+000	 9.769371156169246e+000
0	 1.199979977769445e+000	 6.000000000000000e+000	 9.771862278767458e+000
0	 1.266639997208098e+000	 5.333299999983331e+000	 9.647083912091292e+000
0	 1.266639997208098e+000	 5.399969999982151e+000	 9.667010607396126e+000
0	 1.266639997208098e+000	 5.466639999981866e+000	 9.686524766356341e+000
0	 1.266639997208098e+000	 5.533309999982383e+000	 9.705229513527822e+000
0	 1.266639997208098e+000	 5.599979999983598e+000	 9.722727973466455e+000
0	 1.266639997208098e+000	 5.666649999985416e+000	 9.738623270728082e+000
0	 1.266639997208098e+000	 5.733319999987733e+000	 9.752518529868537e+000
0	 1.266639997208098e+000	 5.799989999990449e+000	 9.764016875443634e+000
0	 1.266639997208098e+000	 5.866659999993467e+000	 9.772721432009110e+000
0	 1.266639997208098e+000	 5.933329999996684e+000	 9.778235324120761e+000
0	 1.266639997208098e+000	 5.999999999999999e+000	 9.780161676334297e+000
0	 1.333299999983334e+000	 5.333299999983335e+000	 9.665838854821040e+000
0	 1.333299999983334e+000	 5.399969999982149e+000	 9.685018531689970e+000
0	 1.333299999983334e+000	 5.466639999981867e+000	 9.703513615923505e+000
0	 1.333299999983334e+000	 5.533309999982383e+000	 9.721000591398232e+000
0	 1.333299999983334e+000	 5.599979999983599e+000	 9.737155941990737e+000
0	 1.333299999983334e+000	 5.666649999985414e+000	 9.751656151577587e+000
0	 1.333299999983334e+000	 5.733319999987733e+000	 9.764177704035324e+000
0	 1.333299999983334e+000	 5.799989999990448e+000	 9.774397083240446e+000
0	 1.333299999983334e+000	 5.866659999993467e+000	 9.781990773069465e+000
0	 1.333299999983334e+000	 5.933329999996684e+000	 9.786635257398844e+000
0	 1.333299999983334e+000	 6.000000000000000e+000	 9.788007020105022e+000
0	 6.666972226472177e-001	 6.000000000000000e+000	 9.705961791471923e+000
0	 6.666972226472178e-001	 6.066670000003318e+000	 9.707872748842858e+000
0	 6.666972226472178e-001	 6.133340000006534e+000	 9.710930308661652e+000
0	 6.666972226472177e-001	 6.200010000009551e+000	 9.715133070376055e+000
0	 6.666972226472178e-001	 6.266680000012268e+000	 9.720479633433826e+000
0	 6.666972226472175e-001	 6.333350000014583e+000	 9.726968597282729e+000
0	 6.666972226472175e-001	 6.400020000016400e+000	 9.734598561370532e+000
0	 6.666972226472177e-001	 6.466690000017618e+000	 9.743368125145043e+000
0	 6.666972226472174e-001	 6.533360000018134e+000	 9.753275888054047e+000
0	 6.666972226472178e-001	 6.600030000017851e+000	 9.764320449545350e+000
0	 6.666972226472178e-001	 6.666700000016667e+000	 9.776500409066758e+000
0	 7.333579753122048e-001	 6.000000000000002e+000	 9.712841410009688e+000
0	 7.333579753122047e-001	 6.066670000003317e+000	 9.715101514080939e+000
0	 7.333579753122047e-001	 6.133340000006530e+000	 9.718160137467379e+000
0	 7.333579753122049e-001	 6.200010000009551e+000	 9.722083616170417e+000
0	 7.333579753122048e-001	 6.266680000012270e+000	 9.726938286191476e+000
0	 7.333579753122047e-001	 6.333350000014585e+000	 9.732790483532011e+000
0	 7.333579753122048e-001	 6.400020000016402e+000	 9.739706544193451e+000
0	 7.333579753122049e-001	 6.466690000017619e+000	 9.747752804177267e+000
0	 7.333579753122047e-001	 6.533360000018132e+000	 9.756995599484919e+000
0	 7.333579753122048e-001	 6.600030000017850e+000	 9.767501266117877e+000
0	 7.333579753122049e-001	 6.666700000016668e+000	 9.779336140077639e+000
0	 8.000185779984420e-001	 6.000000000000001e+000	 9.720389697030068e+000
0	 8.000185779984419e-001	 6.066670000003318e+000	 9.722767661599614e+000
0	 8.000185779984416e-001	 6.133340000006532e+000	 9.725673185207121e+000
0	 8.000185779984418e-001	 6.200010000009551e+000	 9.729228756118882e+000
0	 8.000185779984418e-001	 6.266680000012267e+000	 9.733556862601139e+000
0	 8.000185779984419e-001	 6.333350000014585e+000	 9.738779992920204e+000
0	 8.000185779984418e-001	 6.400020000016401e+000	 9.745020635342346e+000
0	 8.000185779984418e-001	 6.466690000017617e+000	 9.752401278133872e+000
0	 8.000185779984418e-001	 6.533360000018135e+000	 9.761044409561077e+000
0	 8.000185779984420e-001	 6.600030000017851e+000	 9.771072517890302e+000
0	 8.000185779984418e-001	 6.666700000016666e+000	 9.782608091387871e+000
0	 8.666790473703456e-001	 6.000000000000002e+000	 9.728466308843549e+000
0	 8.666790473703456e-001	 6.066670000003319e+000	 9.730770988267937e+000
0	 8.666790473703452e-001	 6.133340000006531e+000	 9.733403844181787e+000
0	 8.666790473703453e-001	 6.200010000009550e+000	 9.736531932711431e+000
0	 8.666790473703455e-001	 6.266680000012268e+000	 9.740322309983187e+000
0	 8.666790473703453e-001	 6.333350000014582e+000	 9.744942032123394e+000
0	 8.666790473703453e-001	 6.400020000016399e+000	 9.750558155258391e+000
0	 8.666790473703456e-001	 6.466690000017619e+000	 9.757337735514543e+000
0	 8.666790473703454e-001	 6.533360000018134e+000	 9.765447829018246e+000
0	 8.666790473703452e-001	 6.600030000017849e+000	 9.775055491895833e+000
0	 8.666790473703456e-001	 6.666700000016668e+000	 9.786327780273721e+000
0	 9.333394000923322e-001	 5.999999999999998e+000	 9.736930902733375e+000
0	 9.333394000923323e-001	 6.066670000003318e+000	 9.739011292064383e+000
0	 9.333394000923321e-001	 6.133340000006531e+000	 9.741286507838474e+000
0	 9.333394000923323e-001	 6.200010000009551e+000	 9.743956589538632e+000
0	 9.333394000923323e-001	 6.266680000012268e+000	 9.747221576647904e+000
0	 9.333394000923324e-001	 6.333350000014584e+000	 9.751281508649290e+000
0	 9.333394000923324e-001	 6.400020000016402e+000	 9.756336425025850e+000
0	 9.333394000923322e-001	 6.466690000017617e+000	 9.762586365260598e+000
0	 9.333394000923323e-001	 6.533360000018134e+000	 9.770231368836619e+000
0	 9.333394000923321e-001	 6.600030000017849e+000	 9.779471475236974e+000
0	 9.333394000923324e-001	 6.666700000016668e+000	 9.790506723944747e+000
0	 9.999996528288192e-001	 6.000000000000000e+000	 9.745643136955531e+000
0	 9.999996528288192e-001	 6.066670000003318e+000	 9.747388372076760e+000
0	 9.999996528288191e-001	 6.133340000006532e+000	 9.749255570770433e+000
0	 9.999996528288191e-001	 6.200010000009550e+000	 9.751466171291670e+000
0	 9.999996528288193e-001	 6.266680000012268e+000	 9.754241611895587e+000
0	 9.999996528288189e-001	 6.333350000014584e+000	 9.757803330837312e+000
0	 9.999996528288189e-001	 6.400020000016401e+000	 9.762372766372005e+000
0	 9.999996528288191e-001	 6.466690000017617e+000	 9.768171356754833e+000
0	 9.999996528288192e-001	 6.533360000018134e+000	 9.775420540240942e+000
0	 9.999996528288191e-001	 6.600030000017850e+000	 9.784341755085540e+000
0	 9.999996528288190e-001	 6.666700000016665e+000	 9.795156439543817e+000
0	 1.066659822244223e+000	 6.000000000000000e+000	 9.754462670738780e+000
0	 1.066659822244223e+000	 6.066670000003317e+000	 9.755802028502265e+000
0	 1.066659822244223e+000	 6.133340000006535e+000	 9.757245428717162e+000
0	 1.066659822244223e+000	 6.200010000009552e+000	 9.759024123762275e+000
0	 1.066659822244222e+000	 6.266680000012267e+000	 9.761369366016444e+000
0	 1.066659822244222e+000	 6.333350000014584e+000	 9.764512407858485e+000
0	 1.066659822244222e+000	 6.400020000016401e+000	 9.768684501667266e+000
0	 1.066659822244223e+000	 6.466690000017617e+000	 9.774116899821628e+000
0	 1.066659822244223e+000	 6.533360000018135e+000	 9.781040854700457e+000
0	 1.066659822244223e+000	 6.600030000017850e+000	 9.789687618682635e+000
0	 1.066659822244222e+000	 6.666700000016665e+000	 9.800288444147055e+000
0	 1.133319925002959e+000	 6.000000000000000e+000	 9.763249164284652e+000
0	 1.133319925002959e+000	 6.066670000003318e+000	 9.764152062647479e+000
0	 1.133319925002959e+000	 6.133340000006534e+000	 9.765190478564342e+000
0	 1.133319925002959e+000	 6.200010000009550e+000	 9.766593893842865e+000
0	 1.133319925002959e+000	 6.266680000012268e+000	 9.768591790290714e+000
0	 1.133319925002959e+000	 6.333350000014582e+000	 9.771413649715546e+000
0	 1.133319925002959e+000	 6.400020000016401e+000	 9.775288953925053e+000
0	 1.133319925002959e+000	 6.466690000017617e+000	 9.780447184726926e+000
0	 1.133319925002959e+000	 6.533360000018135e+000	 9.787117823928883e+000
0	 1.133319925002959e+000	 6.600030000017851e+000	 9.795530353338631e+000
0	 1.133319925002959e+000	 6.666700000016667e+000	 9.805914254763906e+000
0	 1.199979977769445e+000	 6.000000000000000e+000	 9.771862278767458e+000
0	 1.199979977769445e+000	 6.066670000003318e+000	 9.772338276928418e+000
0	 1.199979977769445e+000	 6.133340000006534e+000	 9.773025118343888e+000
0	 1.199979977769445e+000	 6.200010000009551e+000	 9.774138929526435e+000
0	 1.199979977769445e+000	 6.266680000012268e+000	 9.775895836988585e+000
0	 1.199979977769445e+000	 6.333350000014584e+000	 9.778511967242876e+000
0	 1.199979977769445e+000	 6.400020000016401e+000	 9.782203446801901e+000
0	 1.199979977769445e+000	 6.466690000017616e+000	 9.787186402178229e+000
0	 1.199979977769445e+000	 6.533360000018132e+000	 9.793676959884463e+000
0	 1.199979977769445e+000	 6.600030000017849e+000	 9.801891246433200e+000
0	 1.199979977769445e+000	 6.666700000016666e+000	 9.812045388337065e+000
0	 1.266639997208098e+000	 5.999999999999999e+000	 9.780161676334297e+000
0	 1.266639997208098e+000	 6.066670000003318e+000	 9.780260474870445e+000
0	 1.266639997208098e+000	 6.133340000006534e+000	 9.780683747233974e+000
0	 1.266639997208098e+000	 6.200010000009550e+000	 9.781622679906652e+000
0	 1.266639997208098e+000	 6.266680000012267e+000	 9.783268459370252e+000
0	 1.266639997208098e+000	 6.333350000014583e+000	 9.785812272106575e+000
0	 1.266639997208098e+000	 6.400020000016400e+000	 9.789445304597413e+000
0	 1.266639997208098e+000	 6.466690000017618e+000	 9.794358743324592e+000
0	 1.266639997208098e+000	 6.533360000018132e+000	 9.800743774769948e+000
0	 1.266639997208098e+000	 6.600030000017851e+000	 9.808791585415296e+000
0	 1.266639997208098e+000	 6.666700000016667e+000	 9.818693361742517e+000
0	 1.333299999983334e+000	 6.000000000000000e+000	 9.788007020105022e+000
0	 1.333299999983334e+000	 6.066670000003319e+000	 9.787818461108355e+000
0	 1.333299999983334e+000	 6.133340000006530e+000	 9.788100765558925e+000
0	 1.333299999983334e+000	 6.200010000009551e+000	 9.789008595177750e+000
0	 1.333299999983334e+000	 6.266680000012268e+000	 9.790696611685885e+000
0	 1.333299999983334e+000	 6.333350000014583e+000	 9.793319476804363e+000
0	 1.333299999983334e+000	 6.400020000016402e+000	 9.797031852254237e+000
0	 1.333299999983334e+000	 6.466690000017617e+000	 9.801988399756604e+000
0	 1.333299999983334e+000	 6.533360000018134e+000	 9.808343781032539e+000
0	 1.333299999983334e+000	 6.600030000017851e+000	 9.816252657803132e+000
0	 1.333299999983334e+000	 6.666700000016665e+000	 9.825869691789501e+000
0	 6.666972226472178e-001	 6.666700000016667e+000	 9.776500409066758e+000
0	 6.666972226472175e-001	 6.733360000014532e+000	 9.788825264090763e+000
0	 6.666972226472177e-001	 6.800020000011597e+000	 9.800311805941448e+000
0	 6.666972226472177e-001	 6.866680000008066e+000	 9.810963838894574e+000
0	 6.666972226472177e-001	 6.933340000004131e+000	 9.820785167225964e+000
0	 6.666972226472175e-001	 6.999999999999999e+000	 9.829779595211425e+000
0	 6.666972226472178e-001	 7.066659999995868e+000	 9.837950927126768e+000
0	 6.666972226472177e-001	 7.133319999991935e+000	 9.845302967247859e+000
0	 6.666972226472177e-001	 7.199979999988400e+000	 9.851839519850575e+000
0	 6.666972226472175e-001	 7.266639999985466e+000	 9.857564389210783e+000
0	 6.666972226472177e-001	 7.333299999983333e+000	 9.862481379604388e+000
0	 7.333579753122049e-001	 6.666700000016668e+000	 9.779336140077641e+000
0	 7.333579753122050e-001	 6.733360000014534e+000	 9.791507571046582e+000
0	 7.333579753122046e-001	 6.800020000011598e+000	 9.802964019707302e+000
0	 7.333579753122050e-001	 6.866680000008069e+000	 9.813677854127977e+000
0	 7.333579753122049e-001	 6.933340000004136e+000	 9.823621442376801e+000
0	 7.333579753122050e-001	 7.000000000000000e+000	 9.832767152521990e+000
0	 7.333579753122049e-001	 7.066659999995869e+000	 9.841087352631785e+000
0	 7.333579753122048e-001	 7.133319999991936e+000	 9.848554410774455e+000
0	 7.333579753122047e-001	 7.199979999988400e+000	 9.855140695018253e+000
0	 7.333579753122048e-001	 7.266639999985467e+000	 9.860818573431486e+000
0	 7.333579753122048e-001	 7.333299999983334e+000	 9.865560414082440e+000
0	 8.000185779984418e-001	 6.666700000016666e+000	 9.782608091387871e+000
0	 8.000185779984419e-001	 6.733360000014533e+000	 9.794645515148345e+000
0	 8.000185779984419e-001	 6.800020000011601e+000	 9.806065482681113e+000
0	 8.000185779984418e-001	 6.866680000008067e+000	 9.816814396591290e+000
0	 8.000185779984419e-001	 6.933340000004136e+000	 9.826838659483963e+000
0	 8.000185779984420e-001	 7.000000000000001e+000	 9.836084673964242e+000
0	 8.000185779984417e-001	 7.066659999995866e+000	 9.844498842637277e+000
0	 8.000185779984419e-001	 7.133319999991935e+000	 9.852027568108223e+000
0	 8.000185779984420e-001	 7.199979999988401e+000	 9.858617252982254e+000
0	 8.000185779984420e-001	 7.266639999985467e+000	 9.864214299864566e+000
0	 8.000185779984419e-001	 7.333299999983335e+000	 9.868765111360361e+000
0	 8.666790473703456e-001	 6.666700000016668e+000	 9.786327780273723e+000
0	 8.666790473703455e-001	 6.733360000014534e+000	 9.798238945369251e+000
0	 8.666790473703452e-001	 6.800020000011600e+000	 9.809606120846235e+000
0	 8.666790473703453e-001	 6.866680000008065e+000	 9.820355214645508e+000
0	 8.666790473703455e-001	 6.933340000004133e+000	 9.830412134707920e+000
0	 8.666790473703453e-001	 6.999999999999998e+000	 9.839702788974320e+000
0	 8.666790473703452e-001	 7.066659999995864e+000	 9.848153085385617e+000
0	 8.666790473703455e-001	 7.133319999991935e+000	 9.855688931882703e+000
0	 8.666790473703452e-001	 7.199979999988401e+000	 9.862236236406485e+000
0	 8.666790473703453e-001	 7.266639999985466e+000	 9.867720906897933e+000
0	 8.666790473703453e-001	 7.333299999983334e+000	 9.872068851297991e+000
0	 9.333394000923324e-001	 6.666700000016668e+000	 9.790506723944748e+000
0	 9.333394000923325e-001	 6.733360000014534e+000	 9.802287710532166e+000
0	 9.333394000923323e-001	 6.800020000011601e+000	 9.813575860000317e+000
0	 9.333394000923325e-001	 6.866680000008069e+000	 9.824282056470784e+000
0	 9.333394000923325e-001	 6.933340000004134e+000	 9.834317184065132e+000
0	 9.333394000923325e-001	 7.000000000000001e+000	 9.843592126904941e+000
0	 9.333394000923325e-001	 7.066659999995868e+000	 9.852017769111846e+000
0	 9.333394000923326e-001	 7.133319999991935e+000	 9.859504994807493e+000
0	 9.333394000923323e-001	 7.199979999988400e+000	 9.865964688113527e+000
0	 9.333394000923324e-001	 7.266639999985466e+000	 9.871307733151621e+000
0	 9.333394000923324e-001	 7.333299999983335e+000	 9.875445014043478e+000
0	 9.999996528288190e-001	 6.666700000016665e+000	 9.795156439543817e+000
0	 9.999996528288192e-001	 6.733360000014532e+000	 9.806791659309564e+000
0	 9.999996528288191e-001	 6.800020000011600e+000	 9.817964625755376e+000
0	 9.999996528288192e-001	 6.866680000008067e+000	 9.828576670066441e+000
0	 9.999996528288193e-001	 6.933340000004134e+000	 9.838529123428000e+000
0	 9.999996528288190e-001	 7.000000000000000e+000	 9.847723317025309e+000
0	 9.999996528288193e-001	 7.066659999995867e+000	 9.856060582043627e+000
0	 9.999996528288190e-001	 7.133319999991936e+000	 9.863442249668262e+000
0	 9.999996528288192e-001	 7.199979999988400e+000	 9.869769651084518e+000
0	 9.999996528288193e-001	 7.266639999985468e+000	 9.874944117477748e+000
0	 9.999996528288190e-001	 7.333299999983335e+000	 9.878866980033287e+000
0	 1.066659822244222e+000	 6.666700000016665e+000	 9.800288444147055e+000
0	 1.066659822244222e+000	 6.733360000014532e+000	 9.811750640223570e+000
0	 1.066659822244223e+000	 6.800020000011600e+000	 9.822762343537708e+000
0	 1.066659822244222e+000	 6.866680000008065e+000	 9.833220803250987e+000
0	 1.066659822244223e+000	 6.933340000004135e+000	 9.843023268524965e+000
0	 1.066659822244223e+000	 7.000000000000000e+000	 9.852066988521200e+000
0	 1.066659822244222e+000	 7.066659999995867e+000	 9.860249212401246e+000
0	 1.066659822244222e+000	 7.133319999991934e+000	 9.867467189326749e+000
0	 1.066659822244222e+000	 7.199979999988400e+000	 9.873618168459306e+000
0	 1.066659822244222e+000	 7.266639999985466e+000	 9.878599398960564e+000
0	 1.066659822244223e+000	 7.333299999983334e+000	 9.882308129992198e+000
0	 1.133319925002959e+000	 6.666700000016667e+000	 9.805914254763906e+000
0	 1.133319925002959e+000	 6.733360000014532e+000	 9.817164501645873e+000
0	 1.133319925002959e+000	 6.800020000011600e+000	 9.827958938587941e+000
0	 1.133319925002959e+000	 6.866680000008067e+000	 9.838196203662102e+000
0	 1.133319925002959e+000	 6.933340000004134e+000	 9.847774934940398e+000
0	 1.133319925002959e+000	 6.999999999999999e+000	 9.856593770494881e+000
0	 1.133319925002959e+000	 7.066659999995867e+000	 9.864551348397637e+000
0	 1.133319925002959e+000	 7.133319999991935e+000	 9.871546306720727e+000
0	 1.133319925002959e+000	 7.199979999988401e+000	 9.877477283536273e+000
0	 1.133319925002959e+000	 7.266639999985467e+000	 9.882242916916432e+000
0	 1.133319925002959e+000	 7.333299999983335e+000	 9.885741844933330e+000
0	 1.199979977769445e+000	 6.666700000016666e+000	 9.812045388337065e+000
0	 1.199979977769445e+000	 6.733360000014533e+000	 9.823033091797806e+000
0	 1.199979977769445e+000	 6.800020000011598e+000	 9.833544335960966e+000
0	 1.199979977769445e+000	 6.866680000008068e+000	 9.843484618756584e+000
0	 1.199979977769445e+000	 6.933340000004135e+000	 9.852759438114646e+000
0	 1.199979977769445e+000	 7.000000000000000e+000	 9.861274291965200e+000
0	 1.199979977769445e+000	 7.066659999995867e+000	 9.868934678238302e+000
0	 1.199979977769445e+000	 7.133319999991934e+000	 9.875646094864042e+000
0	 1.199979977769445e+000	 7.199979999988400e+000	 9.881314039772505e+000
0	 1.199979977769445e+000	 7.266639999985467e+000	 9.885844010893814e+000
0	 1.199979977769445e+000	 7.333299999983334e+000	 9.889141506158108e+000
0	 1.266639997208098e+000	 6.666700000016667e+000	 9.818693361742518e+000
0	 1.266639997208098e+000	 6.733360000014533e+000	 9.829356258750266e+000
0	 1.266639997208098e+000	 6.800020000011600e+000	 9.839508460526025e+000
0	 1.266639997208098e+000	 6.866680000008067e+000	 9.849067795810392e+000
0	 1.266639997208098e+000	 6.933340000004133e+000	 9.857952093343991e+000
0	 1.266639997208098e+000	 7.000000000000000e+000	 9.866079181867443e+000
0	 1.266639997208098e+000	 7.066659999995868e+000	 9.873366890121416e+000
0	 1.266639997208098e+000	 7.133319999991935e+000	 9.879733046846592e+000
0	 1.266639997208098e+000	 7.199979999988400e+000	 9.885095480783638e+000
0	 1.266639997208098e+000	 7.266639999985467e+000	 9.889372020673289e+000
0	 1.266639997208098e+000	 7.333299999983334e+000	 9.892480495256281e+000
0	 1.333299999983334e+000	 6.666700000016665e+000	 9.825869691789501e+000
0	 1.333299999983334e+000	 6.733360000014534e+000	 9.836133850423774e+000
0	 1.333299999983334e+000	 6.800020000011599e+000	 9.845841236966585e+000
0	 1.333299999983334e+000	 6.866680000008066e+000	 9.854927481918640e+000
0	 1.333299999983334e+000	 6.933340000004134e+000	 9.863328215780687e+000
0	 1.333299999983334e+000	 6.999999999999999e+000	 9.870979069053457e+000
0	 1.333299999983334e+000	 7.066659999995867e+000	 9.877815672237739e+000
0	 1.333299999983334e+000	 7.133319999991935e+000	 9.883773655834300e+000
0	 1.333299999983334e+000	 7.199979999988400e+000	 9.888788650343974e+000
0	 1.333299999983334e+000	 7.266639999985467e+000	 9.892796286267558e+000
0	 1.333299999983334e+000	 7.333299999983336e+000	 9.895732194105904e+000
0	 6.666972226472177e-001	 7.333299999983333e+000	 9.862481379604388e+000
0	 6.666972226472178e-001	 7.399969999982152e+000	 9.867075833179081e+000
0	 6.666972226472177e-001	 7.466639999981865e+000	 9.871827186007051e+000
0	 6.666972226472175e-001	 7.533309999982382e+000	 9.876732414897585e+000
0	 6.666972226472175e-001	 7.599979999983599e+000	 9.881788496660027e+000
0	 6.666972226472177e-001	 7.666649999985417e+000	 9.886992408103666e+000
0	 6.666972226472175e-001	 7.733319999987731e+000	 9.892341126037845e+000
0	 6.666972226472177e-001	 7.799989999990449e+000	 9.897831627271851e+000
0	 6.666972226472177e-001	 7.866659999993466e+000	 9.903460888615012e+000
0	 6.666972226472177e-001	 7.933329999996682e+000	 9.909225886876653e+000
0	 6.666972226472177e-001	 8.000000000000000e+000	 9.915123598866083e+000
0	 7.333579753122048e-001	 7.333299999983334e+000	 9.865560414082438e+000
0	 7.333579753122048e-001	 7.399969999982150e+000	 9.869886228468573e+000
0	 7.333579753122046e-001	 7.466639999981865e+000	 9.874340711443402e+000
0	 7.333579753122047e-001	 7.533309999982383e+000	 9.878935175376334e+000
0	 7.333579753122050e-001	 7.599979999983603e+000	 9.883680932636725e+000
0	 7.333579753122045e-001	 7.666649999985414e+000	 9.888589295593963e+000
0	 7.333579753122047e-001	 7.733319999987733e+000	 9.893671576617431e+000
0	 7.333579753122050e-001	 7.799989999990451e+000	 9.898939088076512e+000
0	 7.333579753122048e-001	 7.866659999993465e+000	 9.904403142340598e+000
0	 7.333579753122046e-001	 7.933329999996684e+000	 9.910075051779069e+000
0	 7.333579753122048e-001	 8.000000000000000e+000	 9.915966128761307e+000
0	 8.000185779984419e-001	 7.333299999983335e+000	 9.868765111360359e+000
0	 8.000185779984419e-001	 7.399969999982151e+000	 9.872822056712257e+000
0	 8.000185779984416e-001	 7.466639999981866e+000	 9.876987484378493e+000
0	 8.000185779984418e-001	 7.533309999982384e+000	 9.881284570390877e+000
0	 8.000185779984419e-001	 7.599979999983601e+000	 9.885736490781195e+000
0	 8.000185779984420e-001	 7.666649999985416e+000	 9.890366421581266e+000
0	 8.000185779984418e-001	 7.733319999987733e+000	 9.895197538822885e+000
0	 8.000185779984419e-001	 7.799989999990449e+000	 9.900253018537841e+000
0	 8.000185779984416e-001	 7.866659999993466e+000	 9.905556036757949e+000
0	 8.000185779984417e-001	 7.933329999996681e+000	 9.911129769515021e+000
0	 8.000185779984418e-001	 8.000000000000000e+000	 9.916997392840855e+000
0	 8.666790473703453e-001	 7.333299999983334e+000	 9.872068851297993e+000
0	 8.666790473703453e-001	 7.399969999982150e+000	 9.875861348398329e+000
0	 8.666790473703454e-001	 7.466639999981866e+000	 9.879749656966681e+000
0	 8.666790473703456e-001	 7.533309999982384e+000	 9.883766344774969e+000
0	 8.666790473703453e-001	 7.599979999983600e+000	 9.887943979595086e+000
0	 8.666790473703455e-001	 7.666649999985417e+000	 9.892315129198970e+000
0	 8.666790473703455e-001	 7.733319999987733e+000	 9.896912361358520e+000
0	 8.666790473703453e-001	 7.799989999990448e+000	 9.901768243845648e+000
0	 8.666790473703453e-001	 7.866659999993467e+000	 9.906915344432278e+000
0	 8.666790473703456e-001	 7.933329999996683e+000	 9.912386230890327e+000
0	 8.666790473703455e-001	 8.000000000000002e+000	 9.918213470991732e+000
0	 9.333394000923324e-001	 7.333299999983335e+000	 9.875445014043477e+000
0	 9.333394000923321e-001	 7.399969999982149e+000	 9.878982134336029e+000
0	 9.333394000923323e-001	 7.466639999981867e+000	 9.882609381694332e+000
0	 9.333394000923322e-001	 7.533309999982382e+000	 9.886366243687156e+000
0	 9.333394000923323e-001	 7.599979999983601e+000	 9.890292207883292e+000
0	 9.333394000923323e-001	 7.666649999985417e+000	 9.894426761851499e+000
0	 9.333394000923321e-001	 7.733319999987733e+000	 9.898809393160571e+000
0	 9.333394000923321e-001	 7.799989999990448e+000	 9.903479589379250e+000
0	 9.333394000923323e-001	 7.866659999993468e+000	 9.908476838076334e+000
0	 9.333394000923323e-001	 7.933329999996683e+000	 9.913840626820615e+000
0	 9.333394000923323e-001	 7.999999999999999e+000	 9.919610443180872e+000
0	 9.999996528288190e-001	 7.333299999983335e+000	 9.878866980033287e+000
0	 9.999996528288190e-001	 7.399969999982150e+000	 9.882162445655574e+000
0	 9.999996528288192e-001	 7.466639999981867e+000	 9.885548811379715e+000
0	 9.999996528288191e-001	 7.533309999982383e+000	 9.889070012610789e+000
0	 9.999996528288192e-001	 7.599979999983600e+000	 9.892769984753963e+000
0	 9.999996528288190e-001	 7.666649999985415e+000	 9.896692663214353e+000
0	 9.999996528288190e-001	 7.733319999987733e+000	 9.900881983397156e+000
0	 9.999996528288191e-001	 7.799989999990450e+000	 9.905381880707481e+000
0	 9.999996528288192e-001	 7.866659999993467e+000	 9.910236290550479e+000
0	 9.999996528288191e-001	 7.933329999996683e+000	 9.915489148331300e+000
0	 9.999996528288192e-001	 8.000000000000000e+000	 9.921184389455105e+000
0	 1.066659822244223e+000	 7.333299999983334e+000	 9.882308129992198e+000
0	 1.066659822244222e+000	 7.399969999982150e+000	 9.885380313808314e+000
0	 1.066659822244222e+000	 7.466639999981867e+000	 9.888550099173083e+000
0	 1.066659822244223e+000	 7.533309999982382e+000	 9.891863397353967e+000
0	 1.066659822244222e+000	 7.599979999983601e+000	 9.895366119618508e+000
0	 1.066659822244222e+000	 7.666649999985417e+000	 9.899104177234142e+000
0	 1.066659822244222e+000	 7.733319999987732e+000	 9.903123481468372e+000
0	 1.066659822244223e+000	 7.799989999990450e+000	 9.907469943588705e+000
0	 1.066659822244222e+000	 7.866659999993468e+000	 9.912189474862618e+000
0	 1.066659822244223e+000	 7.933329999996684e+000	 9.917327986557607e+000
0	 1.066659822244222e+000	 7.999999999999999e+000	 9.922931389941191e+000
0	 1.133319925002959e+000	 7.333299999983335e+000	 9.885741844933328e+000
0	 1.133319925002959e+000	 7.399969999982150e+000	 9.888613770566494e+000
0	 1.133319925002959e+000	 7.466639999981867e+000	 9.891595398556614e+000
0	 1.133319925002959e+000	 7.533309999982384e+000	 9.894732144049661e+000
0	 1.133319925002959e+000	 7.599979999983599e+000	 9.898069422191606e+000
0	 1.133319925002959e+000	 7.666649999985417e+000	 9.901652648128456e+000
0	 1.133319925002959e+000	 7.733319999987733e+000	 9.905527237006199e+000
0	 1.133319925002959e+000	 7.799989999990447e+000	 9.909738603970808e+000
0	 1.133319925002959e+000	 7.866659999993467e+000	 9.914332164168275e+000
0	 1.133319925002959e+000	 7.933329999996683e+000	 9.919353332744606e+000
0	 1.133319925002959e+000	 8.000000000000000e+000	 9.924847524845797e+000
0	 1.199979977769445e+000	 7.333299999983334e+000	 9.889141506158108e+000
0	 1.199979977769445e+000	 7.399969999982150e+000	 9.891840848023486e+000
0	 1.199979977769445e+000	 7.466639999981867e+000	 9.894666863344451e+000
0	 1.199979977769445e+000	 7.533309999982383e+000	 9.897661999155528e+000
0	 1.199979977769445e+000	 7.599979999983599e+000	 9.900868702491220e+000
0	 1.199979977769445e+000	 7.666649999985416e+000	 9.904329420386047e+000
0	 1.199979977769445e+000	 7.733319999987733e+000	 9.908086599874530e+000
0	 1.199979977769446e+000	 7.799989999990450e+000	 9.912182687991178e+000
0	 1.199979977769445e+000	 7.866659999993466e+000	 9.916660131770540e+000
0	 1.199979977769445e+000	 7.933329999996684e+000	 9.921561378247130e+000
0	 1.199979977769445e+000	 8.000000000000000e+000	 9.926928874455470e+000
0	 1.266639997208098e+000	 7.333299999983334e+000	 9.892480495256283e+000
0	 1.266639997208098e+000	 7.399969999982150e+000	 9.895039578593648e+000
0	 1.266639997208098e+000	 7.466639999981867e+000	 9.897746647682695e+000
0	 1.266639997208098e+000	 7.533309999982384e+000	 9.900638709454094e+000
0	 1.266639997208098e+000	 7.599979999983599e+000	 9.903752770838532e+000
0	 1.266639997208098e+000	 7.666649999985416e+000	 9.907125838766664e+000
0	 1.266639997208098e+000	 7.733319999987733e+000	 9.910794920169183e+000
0	 1.266639997208098e+000	 7.799989999990449e+000	 9.914797021976751e+000
0	 1.266639997208098e+000	 7.866659999993467e+000	 9.919169151120066e+000
0	 1.266639997208098e+000	 7.933329999996682e+000	 9.923948314529811e+000
0	 1.266639997208098e+000	 8.000000000000000e+000	 9.929171519136686e+000
0	 1.333299999983334e+000	 7.333299999983336e+000	 9.895732194105902e+000
0	 1.333299999983334e+000	 7.399969999982149e+000	 9.898187995012382e+000
0	 1.333299999983334e+000	 7.466639999981866e+000	 9.900816906049382e+000
0	 1.333299999983334e+000	 7.533309999982384e+000	 9.903648022052682e+000
0	 1.333299999983334e+000	 7.599979999983600e+000	 9.906710437858017e+000
0	 1.333299999983334e+000	 7.666649999985415e+000	 9.910033248301176e+000
0	 1.333299999983334e+000	 7.733319999987733e+000	 9.913645548217893e+000
0	 1.333299999983334e+000	 7.799989999990449e+000	 9.917576432443953e+000
0	 1.333299999983334e+000	 7.866659999993466e+000	 9.921854995815101e+000
0	 1.333299999983334e+000	 7.933329999996683e+000	 9.926510333167137e+000
0	 1.333299999983334e+000	 8.000000000000000e+000	 9.931571539335799e+000
0	 6.666972226472177e-001	 8.000000000000000e+000	 9.915123598866083e+000
0	 6.666972226472178e-001	 8.066670000003317e+000	 9.920934844514298e+000
0	 6.666972226472177e-001	 8.133340000006532e+000	 9.926447365690891e+000
0	 6.666972226472175e-001	 8.200010000009550e+000	 9.931668522112947e+000
0	 6.666972226472178e-001	 8.266680000012267e+000	 9.936605673497599e+000
0	 6.666972226472177e-001	 8.333350000014583e+000	 9.941266179561964e+000
0	 6.666972226472177e-001	 8.400020000016401e+000	 9.945657400023157e+000
0	 6.666972226472177e-001	 8.466690000017616e+000	 9.949786694598265e+000
0	 6.666972226472173e-001	 8.533360000018133e+000	 9.953661423004414e+000
0	 6.666972226472178e-001	 8.600030000017851e+000	 9.957288944958689e+000
0	 6.666972226472177e-001	 8.666700000016666e+000	 9.960676620178194e+000
0	 7.333579753122048e-001	 8.000000000000000e+000	 9.915966128761307e+000
0	 7.333579753122047e-001	 8.066670000003317e+000	 9.921824268853625e+000
0	 7.333579753122047e-001	 8.133340000006532e+000	 9.927390494208449e+000
0	 7.333579753122048e-001	 8.200010000009550e+000	 9.932665807074370e+000
0	 7.333579753122048e-001	 8.266680000012268e+000	 9.937651209699922e+000
0	 7.333579753122047e-001	 8.333350000014583e+000	 9.942347704333677e+000
0	 7.333579753122049e-001	 8.400020000016403e+000	 9.946756293224205e+000
0	 7.333579753122047e-001	 8.466690000017616e+000	 9.950877978620033e+000
0	 7.333579753122047e-001	 8.533360000018133e+000	 9.954713762769739e+000
0	 7.333579753122049e-001	 8.600030000017853e+000	 9.958264647921853e+000
0	 7.333579753122048e-001	 8.666700000016665e+000	 9.961531636324908e+000
0	 8.000185779984418e-001	 8.000000000000000e+000	 9.916997392840855e+000
0	 8.000185779984418e-001	 8.066670000003319e+000	 9.922877974514409e+000
0	 8.000185779984417e-001	 8.133340000006530e+000	 9.928472291118904e+000
0	 8.000185779984418e-001	 8.200010000009552e+000	 9.933776081892475e+000
0	 8.000185779984417e-001	 8.266680000012265e+000	 9.938785086073221e+000
0	 8.000185779984419e-001	 8.333350000014585e+000	 9.943495042899317e+000
0	 8.000185779984417e-001	 8.400020000016399e+000	 9.947901691608820e+000
0	 8.000185779984417e-001	 8.466690000017618e+000	 9.952000771439904e+000
0	 8.000185779984416e-001	 8.533360000018133e+000	 9.955788021630655e+000
0	 8.000185779984417e-001	 8.600030000017847e+000	 9.959259181419203e+000
0	 8.000185779984420e-001	 8.666700000016666e+000	 9.962409990043625e+000
0	 8.666790473703455e-001	 8.000000000000002e+000	 9.918213470991732e+000
0	 8.666790473703453e-001	 8.066670000003317e+000	 9.924091691418665e+000
0	 8.666790473703453e-001	 8.133340000006532e+000	 9.929688187469893e+000
0	 8.666790473703454e-001	 8.200010000009547e+000	 9.934994529842140e+000
0	 8.666790473703455e-001	 8.266680000012265e+000	 9.940002289232165e+000
0	 8.666790473703455e-001	 8.333350000014585e+000	 9.944703036336684e+000
0	 8.666790473703453e-001	 8.400020000016401e+000	 9.949088341852438e+000
0	 8.666790473703455e-001	 8.466690000017618e+000	 9.953149776476129e+000
0	 8.666790473703455e-001	 8.533360000018133e+000	 9.956878910904511e+000
0	 8.666790473703452e-001	 8.600030000017847e+000	 9.960267315834278e+000
0	 8.666790473703455e-001	 8.666700000016665e+000	 9.963306561962158e+000
0	 9.333394000923323e-001	 7.999999999999999e+000	 9.919610443180872e+000
0	 9.333394000923323e-001	 8.066670000003317e+000	 9.925461149549076e+000
0	 9.333394000923321e-001	 8.133340000006534e+000	 9.931033614360464e+000
0	 9.333394000923323e-001	 8.200010000009550e+000	 9.936316334248719e+000
0	 9.333394000923323e-001	 8.266680000012267e+000	 9.941297805847510e+000
0	 9.333394000923323e-001	 8.333350000014587e+000	 9.945966525790503e+000
0	 9.333394000923321e-001	 8.400020000016399e+000	 9.950310990711353e+000
0	 9.333394000923322e-001	 8.466690000017616e+000	 9.954319697243728e+000
0	 9.333394000923323e-001	 8.533360000018131e+000	 9.957981142021280e+000
0	 9.333394000923321e-001	 8.600030000017849e+000	 9.961283821677650e+000
0	 9.333394000923324e-001	 8.666700000016668e+000	 9.964216232846480e+000
0	 9.999996528288192e-001	 8.000000000000000e+000	 9.921184389455105e+000
0	 9.999996528288194e-001	 8.066670000003319e+000	 9.926982078949033e+000
0	 9.999996528288192e-001	 8.133340000006532e+000	 9.932504002941148e+000
0	 9.999996528288192e-001	 8.200010000009552e+000	 9.937736678488026e+000
0	 9.999996528288192e-001	 8.266680000012267e+000	 9.942666622646234e+000
0	 9.999996528288191e-001	 8.333350000014582e+000	 9.947280352472342e+000
0	 9.999996528288192e-001	 8.400020000016401e+000	 9.951564385022902e+000
0	 9.999996528288189e-001	 8.466690000017616e+000	 9.955505237354480e+000
0	 9.999996528288192e-001	 8.533360000018133e+000	 9.959089426523610e+000
0	 9.999996528288189e-001	 8.600030000017846e+000	 9.962303469586869e+000
0	 9.999996528288188e-001	 8.666700000016665e+000	 9.965133883600791e+000
0	 1.066659822244222e+000	 7.999999999999999e+000	 9.922931389941191e+000
0	 1.066659822244222e+000	 8.066670000003319e+000	 9.928650209722646e+000
0	 1.066659822244223e+000	 8.133340000006534e+000	 9.934094784413892e+000
0	 1.066659822244222e+000	 8.200010000009552e+000	 9.939250745986342e+000
0	 1.066659822244222e+000	 8.266680000012267e+000	 9.944103726411434e+000
0	 1.066659822244222e+000	 8.333350000014585e+000	 9.948639357660612e+000
0	 1.066659822244222e+000	 8.400020000016401e+000	 9.952843271705296e+000
0	 1.066659822244222e+000	 8.466690000017618e+000	 9.956701100516899e+000
0	 1.066659822244223e+000	 8.533360000018133e+000	 9.960198476066850e+000
0	 1.066659822244223e+000	 8.600030000017851e+000	 9.963321030326533e+000
0	 1.066659822244223e+000	 8.666700000016663e+000	 9.966054395267378e+000
0	 1.133319925002959e+000	 8.000000000000000e+000	 9.924847524845797e+000
0	 1.133319925002959e+000	 8.066670000003319e+000	 9.930461272034732e+000
0	 1.133319925002959e+000	 8.133340000006532e+000	 9.935801390032074e+000
0	 1.133319925002959e+000	 8.200010000009552e+000	 9.940853720220416e+000
0	 1.133319925002959e+000	 8.266680000012268e+000	 9.945604103982403e+000
0	 1.133319925002959e+000	 8.333350000014585e+000	 9.950038382700639e+000
0	 1.133319925002959e+000	 8.400020000016403e+000	 9.954142397757728e+000
0	 1.133319925002959e+000	 8.466690000017618e+000	 9.957901990536277e+000
0	 1.133319925002959e+000	 8.533360000018137e+000	 9.961303002418921e+000
0	 1.133319925002959e+000	 8.600030000017849e+000	 9.964331274788217e+000
0	 1.133319925002959e+000	 8.666700000016668e+000	 9.966972649026769e+000
0	 1.199979977769445e+000	 8.000000000000000e+000	 9.926928874455470e+000
0	 1.199979977769445e+000	 8.066670000003317e+000	 9.932410996110791e+000
0	 1.199979977769445e+000	 8.133340000006532e+000	 9.937619251100506e+000
0	 1.199979977769445e+000	 8.200010000009550e+000	 9.942540784717480e+000
0	 1.199979977769445e+000	 8.266680000012267e+000	 9.947162742254550e+000
0	 1.199979977769445e+000	 8.333350000014585e+000	 9.951472269004535e+000
0	 1.199979977769445e+000	 8.400020000016399e+000	 9.955456510260325e+000
0	 1.199979977769446e+000	 8.466690000017618e+000	 9.959102611314686e+000
0	 1.199979977769445e+000	 8.533360000018133e+000	 9.962397717460480e+000
0	 1.199979977769445e+000	 8.600030000017851e+000	 9.965328973990532e+000
0	 1.199979977769445e+000	 8.666700000016666e+000	 9.967883526197653e+000
0	 1.266639997208098e+000	 8.000000000000000e+000	 9.929171519136686e+000
0	 1.266639997208098e+000	 8.066670000003319e+000	 9.934495112237007e+000
0	 1.266639997208098e+000	 8.133340000006534e+000	 9.939543798975450e+000
0	 1.266639997208098e+000	 8.200010000009550e+000	 9.944307123055198e+000
0	 1.266639997208098e+000	 8.266680000012268e+000	 9.948774628179454e+000
0	 1.266639997208098e+000	 8.333350000014583e+000	 9.952935858051369e+000
0	 1.266639997208098e+000	 8.400020000016399e+000	 9.956780356374114e+000
0	 1.266639997208098e+000	 8.466690000017618e+000	 9.960297666850874e+000
0	 1.266639997208098e+000	 8.533360000018135e+000	 9.963477333184819e+000
0	 1.266639997208098e+000	 8.600030000017853e+000	 9.966308899079095e+000
0	 1.266639997208098e+000	 8.666700000016668e+000	 9.968781908236863e+000
0	 1.333299999983334e+000	 8.000000000000000e+000	 9.931571539335799e+000
0	 1.333299999983334e+000	 8.066670000003317e+000	 9.936709350760284e+000
0	 1.333299999983334e+000	 8.133340000006532e+000	 9.941570465064562e+000
0	 1.333299999983334e+000	 8.200010000009550e+000	 9.946147918861724e+000
0	 1.333299999983334e+000	 8.266680000012268e+000	 9.950434748764847e+000
0	 1.333299999983334e+000	 8.333350000014587e+000	 9.954423991386955e+000
0	 1.333299999983334e+000	 8.400020000016399e+000	 9.958108683341138e+000
0	 1.333299999983334e+000	 8.466690000017618e+000	 9.961481861240419e+000
0	 1.333299999983334e+000	 8.533360000018135e+000	 9.964536561697869e+000
0	 1.333299999983334e+000	 8.600030000017851e+000	 9.967265821326523e+000
0	 1.333299999983334e+000	 8.666700000016666e+000	 9.969662676739411e+000
0	 6.666972226472177e-001	 8.666700000016666e+000	 9.960676620178194e+000
0	 6.666972226472175e-001	 8.733360002791901e+000	 9.963896965582212e+000
0	 6.666972226472177e-001	 8.800020022230555e+000	 9.967020325740899e+000
0	 6.666972226472177e-001	 8.866680074997042e+000	 9.970049330631223e+000
0	 6.666972226472178e-001	 8.933340177755779e+000	 9.972986610633342e+000
0	 6.666972226472177e-001	 9.000000347171181e+000	 9.975834796530563e+000
0	 6.666972226472178e-001	 9.066660599907667e+000	 9.978596519509321e+000
0	 6.666972226472175e-001	 9.133320952629656e+000	 9.981274411159141e+000
0	 6.666972226472179e-001	 9.199981422001560e+000	 9.983871103472747e+000
0	 6.666972226472177e-001	 9.266642024687796e+000	 9.986389228845900e+000
0	 6.666972226472177e-001	 9.333302777352785e+000	 9.988831420077545e+000
0	 7.333579753122048e-001	 8.666700000016665e+000	 9.961531636324907e+000
0	 7.333579753122047e-001	 8.733360002791901e+000	 9.964609262784805e+000
0	 7.333579753122047e-001	 8.800020022230552e+000	 9.967596084742313e+000
0	 7.333579753122052e-001	 8.866680074997042e+000	 9.970497732324187e+000
0	 7.333579753122048e-001	 8.933340177755776e+000	 9.973319836022485e+000
0	 7.333579753122049e-001	 9.000000347171183e+000	 9.976068026694490e+000
0	 7.333579753122047e-001	 9.066660599907669e+000	 9.978747935562822e+000
0	 7.333579753122048e-001	 9.133320952629655e+000	 9.981365194215320e+000
0	 7.333579753122049e-001	 9.199981422001557e+000	 9.983925434605071e+000
0	 7.333579753122048e-001	 9.266642024687794e+000	 9.986434289050409e+000
0	 7.333579753122046e-001	 9.333302777352783e+000	 9.988897390234932e+000
0	 8.000185779984420e-001	 8.666700000016666e+000	 9.962409990043623e+000
0	 8.000185779984418e-001	 8.733360002791903e+000	 9.965353624998672e+000
0	 8.000185779984419e-001	 8.800020022230555e+000	 9.968212399895503e+000
0	 8.000185779984417e-001	 8.866680074997040e+000	 9.970994413317090e+000
0	 8.000185779984420e-001	 8.933340177755779e+000	 9.973707764178270e+000
0	 8.000185779984418e-001	 9.000000347171183e+000	 9.976360551725605e+000
0	 8.000185779984417e-001	 9.066660599907667e+000	 9.978960875537524e+000
0	 8.000185779984416e-001	 9.133320952629653e+000	 9.981516835524142e+000
0	 8.000185779984418e-001	 9.199981422001558e+000	 9.984036531927410e+000
0	 8.000185779984418e-001	 9.266642024687796e+000	 9.986528065321055e+000
0	 8.000185779984417e-001	 9.333302777352781e+000	 9.988999536610502e+000
0	 8.666790473703455e-001	 8.666700000016665e+000	 9.963306561962158e+000
0	 8.666790473703456e-001	 8.733360002791905e+000	 9.966125084190804e+000
0	 8.666790473703456e-001	 8.800020022230555e+000	 9.968864485548160e+000
0	 8.666790473703454e-001	 8.866680074997042e+000	 9.971534801374544e+000
0	 8.666790473703454e-001	 8.933340177755779e+000	 9.974146067312924e+000
0	 8.666790473703455e-001	 9.000000347171183e+000	 9.976708319308910e+000
0	 8.666790473703454e-001	 9.066660599907667e+000	 9.979231593610839e+000
0	 8.666790473703455e-001	 9.133320952629655e+000	 9.981725926769578e+000
0	 8.666790473703455e-001	 9.199981422001557e+000	 9.984201355638676e+000
0	 8.666790473703454e-001	 9.266642024687794e+000	 9.986667917374350e+000
0	 8.666790473703451e-001	 9.333302777352781e+000	 9.989135649435385e+000
0	 9.333394000923324e-001	 8.666700000016668e+000	 9.964216232846479e+000
0	 9.333394000923324e-001	 8.733360002791905e+000	 9.966918672473051e+000
0	 9.333394000923323e-001	 8.800020022230557e+000	 9.969547556195590e+000
0	 9.333394000923323e-001	 8.866680074997044e+000	 9.972114324408189e+000
0	 9.333394000923321e-001	 8.933340177755776e+000	 9.974630417782713e+000
0	 9.333394000923322e-001	 9.000000347171181e+000	 9.977107277268900e+000
0	 9.333394000923322e-001	 9.066660599907667e+000	 9.979556344094229e+000
0	 9.333394000923325e-001	 9.133320952629655e+000	 9.981989059764043e+000
0	 9.333394000923322e-001	 9.199981422001558e+000	 9.984416866061432e+000
0	 9.333394000923324e-001	 9.266642024687796e+000	 9.986851205047284e+000
0	 9.333394000923323e-001	 9.333302777352783e+000	 9.989303519060270e+000
0	 9.999996528288188e-001	 8.666700000016665e+000	 9.965133883600791e+000
0	 9.999996528288193e-001	 8.733360002791901e+000	 9.967729422102195e+000
0	 9.999996528288191e-001	 8.800020022230557e+000	 9.970256826480688e+000
0	 9.999996528288191e-001	 8.866680074997042e+000	 9.972728410476726e+000
0	 9.999996528288191e-001	 8.933340177755776e+000	 9.975156488088008e+000
0	 9.999996528288189e-001	 9.000000347171181e+000	 9.977553373569442e+000
0	 9.999996528288190e-001	 9.066660599907667e+000	 9.979931381433136e+000
0	 9.999996528288191e-001	 9.133320952629656e+000	 9.982302826448462e+000
0	 9.999996528288193e-001	 9.199981422001560e+000	 9.984680023641953e+000
0	 9.999996528288192e-001	 9.266642024687796e+000	 9.987075288297321e+000
0	 9.999996528288191e-001	 9.333302777352783e+000	 9.989500935955515e+000
0	 1.066659822244223e+000	 8.666700000016663e+000	 9.966054395267374e+000
0	 1.066659822244223e+000	 8.733360002791901e+000	 9.968552365479916e+000
0	 1.066659822244223e+000	 8.800020022230557e+000	 9.970987511193957e+000
0	 1.066659822244222e+000	 8.866680074997042e+000	 9.973372487785952e+000
0	 1.066659822244223e+000	 8.933340177755781e+000	 9.975719950873222e+000
0	 1.066659822244223e+000	 9.000000347171181e+000	 9.978042556313916e+000
0	 1.066659822244222e+000	 9.066660599907667e+000	 9.980352960206997e+000
0	 1.066659822244223e+000	 9.133320952629658e+000	 9.982663818892242e+000
0	 1.066659822244222e+000	 9.199981422001558e+000	 9.984987788950255e+000
0	 1.066659822244222e+000	 9.266642024687794e+000	 9.987337527202485e+000
0	 1.066659822244222e+000	 9.333302777352781e+000	 9.989725690711074e+000
0	 1.133319925002959e+000	 8.666700000016668e+000	 9.966972649026769e+000
0	 1.133319925002959e+000	 8.733360002791903e+000	 9.969382535152816e+000
0	 1.133319925002959e+000	 8.800020022230557e+000	 9.971734825273504e+000
0	 1.133319925002959e+000	 8.866680074997040e+000	 9.974041984688711e+000
0	 1.133319925002959e+000	 8.933340177755778e+000	 9.976316478926899e+000
0	 1.133319925002959e+000	 9.000000347171183e+000	 9.978570773745188e+000
0	 1.133319925002959e+000	 9.066660599907669e+000	 9.980817335129194e+000
0	 1.133319925002959e+000	 9.133320952629656e+000	 9.983068629293209e+000
0	 1.133319925002959e+000	 9.199981422001557e+000	 9.985337122680072e+000
0	 1.133319925002959e+000	 9.266642024687798e+000	 9.987635281961186e+000
0	 1.133319925002959e+000	 9.333302777352781e+000	 9.989975574036548e+000
0	 1.199979977769445e+000	 8.666700000016666e+000	 9.967883526197653e+000
0	 1.199979977769445e+000	 8.733360002791903e+000	 9.970214963812371e+000
0	 1.199979977769445e+000	 8.800020022230557e+000	 9.972493983805034e+000
0	 1.199979977769445e+000	 8.866680074997040e+000	 9.974732329684890e+000
0	 1.199979977769445e+000	 8.933340177755781e+000	 9.976941745181652e+000
0	 1.199979977769446e+000	 9.000000347171183e+000	 9.979133974245531e+000
0	 1.199979977769445e+000	 9.066660599907666e+000	 9.981320761047183e+000
0	 1.199979977769445e+000	 9.133320952629653e+000	 9.983513849977731e+000
0	 1.199979977769445e+000	 9.199981422001560e+000	 9.985724985648803e+000
0	 1.199979977769446e+000	 9.266642024687794e+000	 9.987965912892440e+000
0	 1.199979977769445e+000	 9.333302777352785e+000	 9.990248376761146e+000
0	 1.266639997208098e+000	 8.666700000016668e+000	 9.968781908236863e+000
0	 1.266639997208098e+000	 8.733360002791903e+000	 9.971044684294979e+000
0	 1.266639997208098e+000	 8.800020022230557e+000	 9.973260202021860e+000
0	 1.266639997208098e+000	 8.866680074997042e+000	 9.975438951421468e+000
0	 1.266639997208098e+000	 8.933340177755776e+000	 9.977591422714140e+000
0	 1.266639997208098e+000	 9.000000347171183e+000	 9.979728106336705e+000
0	 1.266639997208098e+000	 9.066660599907666e+000	 9.981859492942311e+000
0	 1.266639997208098e+000	 9.133320952629656e+000	 9.983996073400601e+000
0	 1.266639997208098e+000	 9.199981422001558e+000	 9.986148338797587e+000
0	 1.266639997208098e+000	 9.266642024687796e+000	 9.988326780435665e+000
0	 1.266639997208098e+000	 9.333302777352781e+000	 9.990541889833652e+000
0	 1.333299999983334e+000	 8.666700000016666e+000	 9.969662676739409e+000
0	 1.333299999983334e+000	 8.733360002791903e+000	 9.971866729581926e+000
0	 1.333299999983334e+000	 8.800020022230553e+000	 9.974028695304895e+000
0	 1.333299999983334e+000	 8.866680074997040e+000	 9.976157278692444e+000
0	 1.333299999983334e+000	 8.933340177755781e+000	 9.978261184745145e+000
0	 1.333299999983334e+000	 9.000000347171181e+000	 9.980349118679909e+000
0	 1.333299999983334e+000	 9.066660599907669e+000	 9.982429785930025e+000
0	 1.333299999983334e+000	 9.133320952629656e+000	 9.984511892145124e+000
0	 1.333299999983334e+000	 9.199981422001560e+000	 9.986604143191272e+000
0	 1.333299999983334e+000	 9.266642024687796e+000	 9.988715245150823e+000
0	 1.333299999983334e+000	 9.333302777352785e+000	 9.990853904322542e+000
0	 6.666972226472177e-001	 9.333302777352785e+000	 9.988831420077542e+000
0	 6.666972226472175e-001	 9.399973674588177e+000	 9.991084714699746e+000
0	 6.666972226472177e-001	 9.466644621844619e+000	 9.993043475091760e+000
0	 6.666972226472178e-001	 9.533315502450000e+000	 9.994722400054517e+000
0	 6.666972226472177e-001	 9.599986199732195e+000	 9.996136183088726e+000
0	 6.666972226472175e-001	 9.666656597019095e+000	 9.997299512394474e+000
0	 6.666972226472178e-001	 9.733326577638577e+000	 9.998227070870637e+000
0	 6.666972226472177e-001	 9.799996024918521e+000	 9.998933536114020e+000
0	 6.666972226472177e-001	 9.866664822186822e+000	 9.999433580418753e+000
0	 6.666972226472177e-001	 9.933332852771352e+000	 9.999741870774978e+000
0	 6.666972226472175e-001	 1.000000000000000e+001	 9.999873068868020e+000
0	 7.333579753122046e-001	 9.333302777352783e+000	 9.988897390234930e+000
0	 7.333579753122048e-001	 9.399973674588171e+000	 9.991185468905780e+000
0	 7.333579753122045e-001	 9.466644621844619e+000	 9.993172722366939e+000
0	 7.333579753122048e-001	 9.533315502450000e+000	 9.994871078401879e+000
0	 7.333579753122049e-001	 9.599986199732198e+000	 9.996292459373544e+000
0	 7.333579753122047e-001	 9.666656597019093e+000	 9.997448782224002e+000
0	 7.333579753122049e-001	 9.733326577638579e+000	 9.998351958473718e+000
0	 7.333579753122048e-001	 9.799996024918523e+000	 9.999013894220990e+000
0	 7.333579753122047e-001	 9.866664822186820e+000	 9.999446490141031e+000
0	 7.333579753122048e-001	 9.933332852771354e+000	 9.999661641484691e+000
0	 7.333579753122049e-001	 1.000000000000000e+001	 9.999671238077870e+000
0	 8.000185779984417e-001	 9.333302777352781e+000	 9.988999536610503e+000
0	 8.000185779984417e-001	 9.399973674588173e+000	 9.991308396214269e+000
0	 8.000185779984416e-001	 9.466644621844619e+000	 9.993312340190050e+000
0	 8.000185779984419e-001	 9.533315502450002e+000	 9.995020943000208e+000
0	 8.000185779984417e-001	 9.599986199732195e+000	 9.996443773607160e+000
0	 8.000185779984416e-001	 9.666656597019090e+000	 9.997590395472694e+000
0	 8.000185779984417e-001	 9.733326577638577e+000	 9.998470366557633e+000
0	 8.000185779984419e-001	 9.799996024918524e+000	 9.999093239320946e+000
0	 8.000185779984416e-001	 9.866664822186820e+000	 9.999468560718963e+000
0	 8.000185779984415e-001	 9.933332852771351e+000	 9.999605872204302e+000
0	 8.000185779984418e-001	 1.000000000000000e+001	 9.999514709724704e+000
0	 8.666790473703451e-001	 9.333302777352781e+000	 9.989135649435381e+000
0	 8.666790473703452e-001	 9.399973674588178e+000	 9.991451663184025e+000
0	 8.666790473703455e-001	 9.466644621844619e+000	 9.993460731951231e+000
0	 8.666790473703456e-001	 9.533315502450003e+000	 9.995170494580387e+000
0	 8.666790473703454e-001	 9.599986199732195e+000	 9.996588584374505e+000
0	 8.666790473703454e-001	 9.666656597019093e+000	 9.997722629095843e+000
0	 8.666790473703452e-001	 9.733326577638573e+000	 9.998580250965283e+000
0	 8.666790473703456e-001	 9.799996024918523e+000	 9.999169066661601e+000
0	 8.666790473703454e-001	 9.866664822186824e+000	 9.999496687320624e+000
0	 8.666790473703453e-001	 9.933332852771354e+000	 9.999570718534159e+000
0	 8.666790473703455e-001	 1.000000000000000e+001	 9.999398760348946e+000
0	 9.333394000923323e-001	 9.333302777352783e+000	 9.989303519060270e+000
0	 9.333394000923324e-001	 9.399973674588177e+000	 9.991613436495483e+000
0	 9.333394000923323e-001	 9.466644621844619e+000	 9.993616301166876e+000
0	 9.333394000923323e-001	 9.533315502450003e+000	 9.995318234005870e+000
0	 9.333394000923320e-001	 9.599986199732195e+000	 9.996725350400947e+000
0	 9.333394000923324e-001	 9.666656597019095e+000	 9.997843760197403e+000
0	 9.333394000923323e-001	 9.733326577638575e+000	 9.998679567696639e+000
0	 9.333394000923322e-001	 9.799996024918523e+000	 9.999238871655432e+000
0	 9.333394000923321e-001	 9.866664822186822e+000	 9.999527765285230e+000
0	 9.333394000923324e-001	 9.933332852771354e+000	 9.999552336250765e+000
0	 9.333394000923323e-001	 1.000000000000000e+001	 9.999318666669351e+000
0	 9.999996528288191e-001	 9.333302777352783e+000	 9.989500935955514e+000
0	 9.999996528288192e-001	 9.399973674588178e+000	 9.991791882950714e+000
0	 9.999996528288191e-001	 9.466644621844619e+000	 9.993777451479526e+000
0	 9.999996528288193e-001	 9.533315502450002e+000	 9.995462662272736e+000
0	 9.999996528288191e-001	 9.599986199732198e+000	 9.996852530552101e+000
0	 9.999996528288189e-001	 9.666656597019090e+000	 9.997952066030001e+000
0	 9.999996528288190e-001	 9.733326577638575e+000	 9.998766272908732e+000
0	 9.999996528288193e-001	 9.799996024918523e+000	 9.999300149879863e+000
0	 9.999996528288191e-001	 9.866664822186824e+000	 9.999558690123275e+000
0	 9.999996528288192e-001	 9.933332852771354e+000	 9.999546881306332e+000
0	 9.999996528288190e-001	 1.000000000000000e+001	 9.999269705582567e+000
0	 1.066659822244222e+000	 9.333302777352781e+000	 9.989725690711074e+000
0	 1.066659822244222e+000	 9.399973674588175e+000	 9.991985169473482e+000
0	 1.066659822244222e+000	 9.466644621844619e+000	 9.993942586657933e+000
0	 1.066659822244222e+000	 9.533315502450000e+000	 9.995602280509749e+000
0	 1.066659822244222e+000	 9.599986199732197e+000	 9.996968583834013e+000
0	 1.066659822244222e+000	 9.666656597019092e+000	 9.998045823994984e+000
0	 1.066659822244223e+000	 9.733326577638575e+000	 9.998838322915612e+000
0	 1.066659822244223e+000	 9.799996024918524e+000	 9.999350397076814e+000
0	 1.066659822244222e+000	 9.866664822186822e+000	 9.999586357516616e+000
0	 1.066659822244223e+000	 9.933332852771352e+000	 9.999550509829087e+000
0	 1.066659822244222e+000	 9.999999999999998e+000	 9.999247154163317e+000
0	 1.133319925002959e+000	 9.333302777352781e+000	 9.989975574036546e+000
0	 1.133319925002959e+000	 9.399973674588175e+000	 9.992191463109192e+000
0	 1.133319925002958e+000	 9.466644621844619e+000	 9.994110110597070e+000
0	 1.133319925002959e+000	 9.533315502450000e+000	 9.995735589978393e+000
0	 1.133319925002959e+000	 9.599986199732197e+000	 9.997071969393046e+000
0	 1.133319925002959e+000	 9.666656597019095e+000	 9.998123311642338e+000
0	 1.133319925002959e+000	 9.733326577638579e+000	 9.998893674188356e+000
0	 1.133319925002959e+000	 9.799996024918523e+000	 9.999387109153203e+000
0	 1.133319925002959e+000	 9.866664822186822e+000	 9.999607663318258e+000
0	 1.133319925002959e+000	 9.933332852771356e+000	 9.999559378123083e+000
0	 1.133319925002959e+000	 1.000000000000000e+001	 9.999246289664322e+000
0	 1.199979977769445e+000	 9.333302777352785e+000	 9.990248376761146e+000
0	 1.199979977769445e+000	 9.399973674588178e+000	 9.992408931024885e+000
0	 1.199979977769445e+000	 9.466644621844619e+000	 9.994278427318136e+000
0	 1.199979977769445e+000	 9.533315502450002e+000	 9.995861092072637e+000
0	 1.199979977769446e+000	 9.599986199732195e+000	 9.997161146515909e+000
0	 1.199979977769445e+000	 9.666656597019093e+000	 9.998182806670839e+000
0	 1.199979977769445e+000	 9.733326577638575e+000	 9.998930283355152e+000
0	 1.199979977769445e+000	 9.799996024918523e+000	 9.999407782180644e+000
0	 1.199979977769446e+000	 9.866664822186822e+000	 9.999619503552562e+000
0	 1.199979977769445e+000	 9.933332852771354e+000	 9.999569642668140e+000
0	 1.199979977769445e+000	 1.000000000000000e+001	 9.999262389516190e+000
0	 1.266639997208098e+000	 9.333302777352781e+000	 9.990541889833654e+000
0	 1.266639997208098e+000	 9.399973674588178e+000	 9.992635740509243e+000
0	 1.266639997208098e+000	 9.466644621844617e+000	 9.994445940968502e+000
0	 1.266639997208098e+000	 9.533315502449998e+000	 9.995977288319249e+000
0	 1.266639997208098e+000	 9.599986199732198e+000	 9.997234574629665e+000
0	 1.266639997208098e+000	 9.666656597019095e+000	 9.998222586927824e+000
0	 1.266639997208098e+000	 9.733326577638577e+000	 9.998946107201110e+000
0	 1.266639997208098e+000	 9.799996024918524e+000	 9.999409912395555e+000
0	 1.266639997208098e+000	 9.866664822186822e+000	 9.999618774415037e+000
0	 1.266639997208098e+000	 9.933332852771354e+000	 9.999577460120346e+000
0	 1.266639997208098e+000	 1.000000000000000e+001	 9.999290731327845e+000
0	 1.333299999983334e+000	 9.333302777352785e+000	 9.990853904322545e+000
0	 1.333299999983334e+000	 9.399973674588177e+000	 9.992870058972674e+000
0	 1.333299999983334e+000	 9.466644621844619e+000	 9.994611055821711e+000
0	 1.333299999983334e+000	 9.533315502450002e+000	 9.996082680377478e+000
0	 1.333299999983334e+000	 9.599986199732198e+000	 9.997290713301695e+000
0	 1.333299999983334e+000	 9.666656597019093e+000	 9.998240930409363e+000
0	 1.333299999983334e+000	 9.733326577638575e+000	 9.998939102668457e+000
0	 1.333299999983334e+000	 9.799996024918523e+000	 9.999390996199079e+000
0	 1.333299999983334e+000	 9.866664822186824e+000	 9.999602372272658e+000
0	 1.333299999983334e+000	 9.933332852771356e+000	 9.999578987311132e+000
0	 1.333299999983334e+000	 1.000000000000000e+001	 9.999326592885971e+000
0	 1.333299999983334e+000	 0.000000000000000e+000	-7.968478987028634e+000
0	 1.333299999983334e+000	 6.666714722864758e-002	-4.277858609937690e+000
0	 1.333299999983334e+000	 1.333351778131789e-001	-8.513824292471443e-001
0	 1.333299999983334e+000	 2.000039750814772e-001	 2.303278464254687e+000
0	 1.333299999983334e+000	 2.666734223614255e-001	 5.178449539295295e+000
0	 1.333299999983334e+000	 3.333434029809069e-001	 7.766452824774788e+000
0	 1.333299999983334e+000	 4.000138002678044e-001	 1.005960691033239e+001
0	 1.333299999983334e+000	 4.666844975500012e-001	 1.205022694682255e+001
0	 1.333299999983334e+000	 5.333553781553803e-001	 1.373062464670086e+001
0	 1.333299999983334e+000	 6.000263254118247e-001	 1.509310828431966e+001
0	 1.333299999983334e+000	 6.666972226472174e-001	 1.612998269613342e+001
0	 1.399969999982150e+000	 0.000000000000000e+000	-8.346775669570109e+000
0	 1.399969999982150e+000	 6.666714722864754e-002	-4.443307930171951e+000
0	 1.399969999982150e+000	 1.333351778131789e-001	-8.181926173198156e-001
0	 1.399969999982150e+000	 2.000039750814772e-001	 2.510192612011791e+000
0	 1.399969999982150e+000	 2.666734223614255e-001	 5.523465834365778e+000
0	 1.399969999982150e+000	 3.333434029809069e-001	 8.203240860559392e+000
0	 1.399969999982150e+000	 4.000138002678045e-001	 1.053112723632906e+001
0	 1.399969999982150e+000	 4.666844975500012e-001	 1.248873024286334e+001
0	 1.399969999982150e+000	 5.333553781553803e-001	 1.405765089722381e+001
0	 1.399969999982150e+000	 6.000263254118247e-001	 1.521948595265408e+001
0	 1.399969999982150e+000	 6.666972226472177e-001	 1.595582789877684e+001
0	 1.466639999981866e+000	 0.000000000000000e+000	-7.998681633105885e+000
0	 1.466639999981866e+000	 6.666714722864756e-002	-4.117929656298766e+000
0	 1.466639999981866e+000	 1.333351778131789e-001	-5.024371924559586e-001
0	 1.466639999981866e+000	 2.000039750814773e-001	 2.820733389514218e+000
0	 1.466639999981866e+000	 2.666734223614254e-001	 5.824515046976216e+000
0	 1.466639999981867e+000	 3.333434029809070e-001	 8.481836064363851e+000
0	 1.466639999981866e+000	 4.000138002678044e-001	 1.076562005385434e+001
0	 1.466639999981867e+000	 4.666844975500011e-001	 1.264878595591959e+001
0	 1.466639999981867e+000	 5.333553781553803e-001	 1.410424803975475e+001
0	 1.466639999981866e+000	 6.000263254118248e-001	 1.510491590358433e+001
0	 1.466639999981867e+000	 6.666972226472175e-001	 1.562369447484556e+001
0	 1.533309999982383e+000	 0.000000000000000e+000	-7.032713003864484e+000
0	 1.533309999982383e+000	 6.666714722864754e-002	-3.368053479521615e+000
0	 1.533309999982383e+000	 1.333351778131789e-001	 6.558256822524303e-002
0	 1.533309999982383e+000	 2.000039750814772e-001	 3.234470330550763e+000
0	 1.533309999982383e+000	 2.666734223614256e-001	 6.104880271737305e+000
0	 1.533309999982383e+000	 3.333434029809069e-001	 8.643078129960584e+000
0	 1.533309999982383e+000	 4.000138002678044e-001	 1.081532491795142e+001
0	 1.533309999982383e+000	 4.666844975500011e-001	 1.258787692353318e+001
0	 1.533309999982383e+000	 5.333553781553803e-001	 1.392698571003536e+001
0	 1.533309999982383e+000	 6.000263254118248e-001	 1.479889811658310e+001
0	 1.533309999982383e+000	 6.666972226472177e-001	 1.516985625826257e+001
0	 1.599979999983600e+000	 0.000000000000000e+000	-5.557385908072754e+000
0	 1.599979999983599e+000	 6.666714722864754e-002	-2.260009091042133e+000
0	 1.599979999983600e+000	 1.333351778131790e-001	 8.555653876064894e-001
0	 1.599979999983600e+000	 2.000039750814772e-001	 3.750972968912000e+000
0	 1.599979999983600e+000	 2.666734223614256e-001	 6.387844603261391e+000
0	 1.599979999983600e+000	 3.333434029809069e-001	 8.727806751123470e+000
0	 1.599979999983600e+000	 4.000138002678044e-001	 1.073248138366467e+001
0	 1.599979999983599e+000	 4.666844975500011e-001	 1.236348598324699e+001
0	 1.599979999983600e+000	 5.333553781553801e-001	 1.358243354380807e+001
0	 1.599979999983600e+000	 6.000263254118248e-001	 1.435093257112347e+001
0	 1.599979999983600e+000	 6.666972226472177e-001	 1.463058708295111e+001
0	 1.666649999985417e+000	 0.000000000000000e+000	-3.681216471955867e+000
0	 1.666649999985416e+000	 6.666714722864757e-002	-8.601261820601630e-001
0	 1.666649999985417e+000	 1.333351778131790e-001	 1.837209988572324e+000
0	 1.666649999985416e+000	 2.000039750814773e-001	 4.369810838390322e+000
0	 1.666649999985416e+000	 2.666734223614256e-001	 6.696691136162539e+000
0	 1.666649999985416e+000	 3.333434029809069e-001	 8.776861621627862e+000
0	 1.666649999985416e+000	 4.000138002678043e-001	 1.056932900603977e+001
0	 1.666649999985417e+000	 4.666844975500012e-001	 1.203309597260491e+001
0	 1.666649999985416e+000	 5.333553781553800e-001	 1.312716117681602e+001
0	 1.666649999985416e+000	 6.000263254118247e-001	 1.381051924667909e+001
0	 1.666649999985416e+000	 6.666972226472175e-001	 1.404216078283470e+001
0	 1.733319999987733e+000	 0.000000000000000e+000	-1.512720821737318e+000
0	 1.733319999987733e+000	 6.666714722864756e-002	 7.652655562263174e-001
0	 1.733319999987733e+000	 1.333351778131789e-001	 2.980215094009160e+000
0	 1.733319999987733e+000	 2.000039750814772e-001	 5.090553472779918e+000
0	 1.733319999987734e+000	 2.666734223614256e-001	 7.054702965056436e+000
0	 1.733319999987733e+000	 3.333434029809068e-001	 8.831082435250591e+000
0	 1.733319999987733e+000	 4.000138002678043e-001	 1.037810734012359e+001
0	 1.733319999987733e+000	 4.666844975500011e-001	 1.165418972915176e+001
0	 1.733319999987733e+000	 5.333553781553801e-001	 1.261773824480308e+001
0	 1.733319999987733e+000	 6.000263254118248e-001	 1.322715812272401e+001
0	 1.733319999987733e+000	 6.666972226472177e-001	 1.344085119183710e+001
0	 1.799989999990450e+000	 0.000000000000000e+000	 8.395849163610765e-001
0	 1.799989999990450e+000	 6.666714722864754e-002	 2.549836432621127e+000
0	 1.799989999990450e+000	 1.333351778131789e-001	 4.254279426805276e+000
0	 1.799989999990450e+000	 2.000039750814773e-001	 5.912770405876767e+000
0	 1.799989999990450e+000	 2.666734223614256e-001	 7.485163184560452e+000
0	 1.799989999990450e+000	 3.333434029809069e-001	 8.931308885769969e+000
0	 1.799989999990450e+000	 4.000138002678043e-001	 1.021105594096426e+001
0	 1.799989999990450e+000	 4.666844975500012e-001	 1.128425009043341e+001
0	 1.799989999990450e+000	 5.333553781553804e-001	 1.211073438351384e+001
0	 1.799989999990450e+000	 6.000263254118247e-001	 1.265034917873280e+001
0	 1.799989999990450e+000	 6.666972226472177e-001	 1.286293214388236e+001
0	 1.866659999993467e+000	 0.000000000000000e+000	 3.267184616119178e+000
0	 1.866659999993467e+000	 6.666714722864756e-002	 4.427256755929924e+000
0	 1.866659999993467e+000	 1.333351778131790e-001	 5.629101709850803e+000
0	 1.866659999993467e+000	 2.000039750814772e-001	 6.836031171478694e+000
0	 1.866659999993467e+000	 2.666734223614254e-001	 8.011354889293630e+000
0	 1.866659999993467e+000	 3.333434029809069e-001	 9.118380666965754e+000
0	 1.866659999993466e+000	 4.000138002678043e-001	 1.012041436361116e+001
0	 1.866659999993467e+000	 4.666844975500012e-001	 1.098075989399666e+001
0	 1.866659999993466e+000	 5.333553781553801e-001	 1.166271922869360e+001
0	 1.866659999993467e+000	 6.000263254118247e-001	 1.212959239418051e+001
0	 1.866659999993467e+000	 6.666972226472177e-001	 1.234467747289480e+001
0	 1.933329999996684e+000	 0.000000000000000e+000	 5.661562151318517e+000
0	 1.933329999996684e+000	 6.666714722864757e-002	 6.331196834960194e+000
0	 1.933329999996684e+000	 1.333351778131789e-001	 7.074380666037744e+000
0	 1.933329999996684e+000	 2.000039750814773e-001	 7.859905303385273e+000
0	 1.933329999996684e+000	 2.666734223614255e-001	 8.656561173876670e+000
0	 1.933329999996683e+000	 3.333434029809069e-001	 9.433137472619208e+000
0	 1.933329999996684e+000	 4.000138002678044e-001	 1.015842216311489e+001
0	 1.933329999996684e+000	 4.666844975500011e-001	 1.080120197738932e+001
0	 1.933329999996684e+000	 5.333553781553804e-001	 1.133026241608842e+001
0	 1.933329999996683e+000	 6.000263254118246e-001	 1.171438774854265e+001
0	 1.933329999996683e+000	 6.666972226472177e-001	 1.192236101279899e+001
0	 2.000000000000000e+000	 0.000000000000000e+000	 7.914201395742289e+000
0	 2.000000000000000e+000	 6.666714722864757e-002	 8.195326978521232e+000
0	 2.000000000000000e+000	 1.333351778131789e-001	 8.559815018259949e+000
0	 2.000000000000000e+000	 2.000039750814773e-001	 8.983962335397917e+000
0	 2.000000000000000e+000	 2.666734223614256e-001	 9.444065132931939e+000
0	 2.000000000000000e+000	 3.333434029809069e-001	 9.916418996513048e+000
0	 2.000000000000000e+000	 4.000138002678043e-001	 1.037731889452729e+001
0	 2.000000000000000e+000	 4.666844975500010e-001	 1.080305917816017e+001
0	 2.000000000000000e+000	 5.333553781553803e-001	 1.116993358144505e+001
0	 2.000000000000000e+000	 6.000263254118246e-001	 1.145423522129521e+001
0	 2.000000000000000e+000	 6.666972226472177e-001	 1.163225659751975e+001
0	 1.333299999983334e+000	 6.666972226472174e-001	 1.612998269613342e+001
0	 1.333299999983334e+000	 7.333579753122047e-001	 1.689877889492792e+001
0	 1.333299999983334e+000	 8.000185779984418e-001	 1.746275080457129e+001
0	 1.333299999983334e+000	 8.666790473703454e-001	 1.782239311698853e+001
0	 1.333299999983334e+000	 9.333394000923321e-001	 1.797820082322040e+001
0	 1.333299999983334e+000	 9.999996528288189e-001	 1.793066921342950e+001
0	 1.333299999983334e+000	 1.066659822244222e+000	 1.768029387690518e+001
0	 1.333299999983334e+000	 1.133319925002959e+000	 1.722757070206723e+001
0	 1.333299999983334e+000	 1.199979977769445e+000	 1.657299587646860e+001
0	 1.333299999983334e+000	 1.266639997208098e+000	 1.571706588679695e+001
0	 1.333299999983334e+000	 1.333299999983334e+000	 1.466027751887492e+001
0	 1.399969999982150e+000	 6.666972226472177e-001	 1.595582789877684e+001
0	 1.399969999982150e+000	 7.333579753122047e-001	 1.639298025786468e+001
0	 1.399969999982150e+000	 8.000185779984417e-001	 1.667244130757294e+001
0	 1.399969999982150e+000	 8.666790473703450e-001	 1.679835976776028e+001
0	 1.399969999982150e+000	 9.333394000923321e-001	 1.677488454427891e+001
0	 1.399969999982150e+000	 9.999996528288191e-001	 1.660616472897807e+001
0	 1.399969999982150e+000	 1.066659822244222e+000	 1.629634959970669e+001
0	 1.399969999982150e+000	 1.133319925002959e+000	 1.584958862031543e+001
0	 1.399969999982150e+000	 1.199979977769445e+000	 1.527003144065791e+001
0	 1.399969999982150e+000	 1.266639997208098e+000	 1.456182789659138e+001
0	 1.399969999982150e+000	 1.333299999983334e+000	 1.372912800997657e+001
0	 1.466639999981867e+000	 6.666972226472175e-001	 1.562369447484556e+001
0	 1.466639999981867e+000	 7.333579753122048e-001	 1.582855480389728e+001
0	 1.466639999981866e+000	 8.000185779984416e-001	 1.591039823773719e+001
0	 1.466639999981866e+000	 8.666790473703453e-001	 1.587640076560159e+001
0	 1.466639999981866e+000	 9.333394000923321e-001	 1.573373847581438e+001
0	 1.466639999981866e+000	 9.999996528288190e-001	 1.548958755578854e+001
0	 1.466639999981867e+000	 1.066659822244222e+000	 1.515112429202713e+001
0	 1.466639999981867e+000	 1.133319925002959e+000	 1.472552507012398e+001
0	 1.466639999981866e+000	 1.199979977769445e+000	 1.421996637476403e+001
0	 1.466639999981866e+000	 1.266639997208097e+000	 1.364162478972321e+001
0	 1.466639999981866e+000	 1.333299999983334e+000	 1.299767699786800e+001
0	 1.533309999982383e+000	 6.666972226472177e-001	 1.516985625826257e+001
0	 1.533309999982383e+000	 7.333579753122047e-001	 1.522650531241243e+001
0	 1.533309999982383e+000	 8.000185779984417e-001	 1.518441517258293e+001
0	 1.533309999982383e+000	 8.666790473703455e-001	 1.505316236188224e+001
0	 1.533309999982383e+000	 9.333394000923321e-001	 1.484232343872387e+001
0	 1.533309999982383e+000	 9.999996528288192e-001	 1.456147499682675e+001
0	 1.533309999982383e+000	 1.066659822244222e+000	 1.422019366521506e+001
0	 1.533309999982383e+000	 1.133319925002958e+000	 1.382805610821795e+001
0	 1.533309999982383e+000	 1.199979977769445e+000	 1.339463902546923e+001
0	 1.533309999982383e+000	 1.266639997208098e+000	 1.292951915190681e+001
0	 1.533309999982383e+000	 1.333299999983334e+000	 1.244227325777204e+001
0	 1.599979999983600e+000	 6.666972226472177e-001	 1.463058708295111e+001
0	 1.599979999983600e+000	 7.333579753122049e-001	 1.460783456279695e+001
0	 1.599979999983600e+000	 8.000185779984417e-001	 1.450228568962904e+001
0	 1.599979999983599e+000	 8.666790473703451e-001	 1.432529080797189e+001
0	 1.599979999983600e+000	 9.333394000923322e-001	 1.408820025390427e+001
0	 1.599979999983600e+000	 9.999996528288191e-001	 1.380236435505835e+001
0	 1.599979999983600e+000	 1.066659822244222e+000	 1.347913343061887e+001
0	 1.599979999983599e+000	 1.133319925002958e+000	 1.312985779132218e+001
0	 1.599979999983600e+000	 1.199979977769445e+000	 1.276588773945558e+001
0	 1.599979999983600e+000	 1.266639997208098e+000	 1.239857356885644e+001
0	 1.599979999983600e+000	 1.333299999983334e+000	 1.203926556491144e+001
0	 1.666649999985416e+000	 6.666972226472175e-001	 1.404216078283469e+001
0	 1.666649999985416e+000	 7.333579753122048e-001	 1.399354533443770e+001
0	 1.666649999985417e+000	 8.000185779984420e-001	 1.387180336639437e+001
0	 1.666649999985416e+000	 8.666790473703451e-001	 1.368943235524013e+001
0	 1.666649999985416e+000	 9.333394000923321e-001	 1.345892974225232e+001
0	 1.666649999985417e+000	 9.999996528288191e-001	 1.319279293344883e+001
0	 1.666649999985416e+000	 1.066659822244222e+000	 1.290351929958679e+001
0	 1.666649999985417e+000	 1.133319925002959e+000	 1.260360617616142e+001
0	 1.666649999985416e+000	 1.199979977769445e+000	 1.230555086340507e+001
0	 1.666649999985416e+000	 1.266639997208098e+000	 1.202185062628626e+001
0	 1.666649999985417e+000	 1.333299999983334e+000	 1.176500269450897e+001
0	 1.733319999987733e+000	 6.666972226472177e-001	 1.344085119183710e+001
0	 1.733319999987733e+000	 7.333579753122046e-001	 1.340464040672169e+001
0	 1.733319999987733e+000	 8.000185779984415e-001	 1.330076178039774e+001
0	 1.733319999987733e+000	 8.666790473703454e-001	 1.314223325505641e+001
0	 1.733319999987733e+000	 9.333394000923320e-001	 1.294207272466461e+001
0	 1.733319999987733e+000	 9.999996528288189e-001	 1.271329803496347e+001
0	 1.733319999987733e+000	 1.066659822244222e+000	 1.246892698346688e+001
0	 1.733319999987733e+000	 1.133319925002959e+000	 1.222197731946027e+001
0	 1.733319999987733e+000	 1.199979977769445e+000	 1.198546674399959e+001
0	 1.733319999987733e+000	 1.266639997208098e+000	 1.177241290991042e+001
0	 1.733319999987733e+000	 1.333299999983334e+000	 1.159583342178731e+001
0	 1.799989999990450e+000	 6.666972226472177e-001	 1.286293214388236e+001
0	 1.799989999990450e+000	 7.333579753122047e-001	 1.286212255903602e+001
0	 1.799989999990450e+000	 8.000185779984418e-001	 1.279695450915795e+001
0	 1.799989999990450e+000	 8.666790473703450e-001	 1.268033975879008e+001
0	 1.799989999990450e+000	 9.333394000923322e-001	 1.252519002203758e+001
0	 1.799989999990450e+000	 9.999996528288190e-001	 1.234441696256744e+001
0	 1.799989999990450e+000	 1.066659822244222e+000	 1.215093219360705e+001
0	 1.799989999990450e+000	 1.133319925002959e+000	 1.195764727794316e+001
0	 1.799989999990450e+000	 1.199979977769445e+000	 1.177747372792088e+001
0	 1.799989999990450e+000	 1.266639997208098e+000	 1.162332300544293e+001
0	 1.799989999990450e+000	 1.333299999983334e+000	 1.150810652196913e+001
0	 1.866659999993467e+000	 6.666972226472177e-001	 1.234467747289481e+001
0	 1.866659999993467e+000	 7.333579753122049e-001	 1.238699457076787e+001
0	 1.866659999993467e+000	 8.000185779984415e-001	 1.236817513019379e+001
0	 1.866659999993467e+000	 8.666790473703453e-001	 1.230039811781041e+001
0	 1.866659999993467e+000	 9.333394000923321e-001	 1.219584245526753e+001
0	 1.866659999993467e+000	 9.999996528288186e-001	 1.206668701922569e+001
0	 1.866659999993467e+000	 1.066659822244222e+000	 1.192511064135503e+001
0	 1.866659999993467e+000	 1.133319925002958e+000	 1.178329210833439e+001
0	 1.866659999993467e+000	 1.199979977769445e+000	 1.165341016185059e+001
0	 1.866659999993467e+000	 1.266639997208098e+000	 1.154764349859777e+001
0	 1.866659999993467e+000	 1.333299999983334e+000	 1.147817077027704e+001
0	 1.933329999996683e+000	 6.666972226472177e-001	 1.192236101279899e+001
0	 1.933329999996684e+000	 7.333579753122047e-001	 1.200025922130455e+001
0	 1.933329999996683e+000	 8.000185779984416e-001	 1.202221722102402e+001
0	 1.933329999996683e+000	 8.666790473703453e-001	 1.199905458348655e+001
0	 1.933329999996684e+000	 9.333394000923321e-001	 1.194159084525058e+001
0	 1.933329999996683e+000	 9.999996528288188e-001	 1.186064550790302e+001
0	 1.933329999996683e+000	 1.066659822244222e+000	 1.176703803805836e+001
0	 1.933329999996684e+000	 1.133319925002958e+000	 1.167158786735812e+001
0	 1.933329999996684e+000	 1.199979977769445e+000	 1.158511439247025e+001
0	 1.933329999996684e+000	 1.266639997208098e+000	 1.151843697508881e+001
0	 1.933329999996684e+000	 1.333299999983334e+000	 1.148237494193363e+001
0	 2.000000000000000e+000	 6.666972226472177e-001	 1.163225659751975e+001
0	 2.000000000000000e+000	 7.333579753122048e-001	 1.172291929003343e+001
0	 2.000000000000000e+000	 8.000185779984418e-001	 1.176687435916737e+001
0	 2.000000000000000e+000	 8.666790473703454e-001	 1.177295540718755e+001
0	 2.000000000000000e+000	 9.333394000923323e-001	 1.174999601288274e+001
0	 2.000000000000000e+000	 9.999996528288190e-001	 1.170682973156406e+001
0	 2.000000000000000e+000	 1.066659822244222e+000	 1.165229009506446e+001
0	 2.000000000000000e+000	 1.133319925002958e+000	 1.159521061173834e+001
0	 2.000000000000000e+000	 1.199979977769445e+000	 1.154442476646128e+001
0	 2.000000000000000e+000	 1.266639997208097e+000	 1.150876602062983e+001
0	 2.000000000000000e+000	 1.333299999983334e+000	 1.149706781216142e+001
0	 1.333299999983334e+000	 1.333299999983334e+000	 1.466027751887492e+001
0	 1.333299999983334e+000	 1.399969999982150e+000	 1.357167845953543e+001
0	 1.333299999983334e+000	 1.466639999981867e+000	 1.261930392321093e+001
0	 1.333299999983334e+000	 1.533309999982383e+000	 1.180161148605361e+001
0	 1.333299999983334e+000	 1.599979999983599e+000	 1.111705872421692e+001
0	 1.333299999983334e+000	 1.666649999985416e+000	 1.056410321385558e+001
0	 1.333299999983334e+000	 1.733319999987733e+000	 1.014120253112554e+001
0	 1.333299999983334e+000	 1.799989999990449e+000	 9.846814252184021e+000
0	 1.333299999983334e+000	 1.866659999993466e+000	 9.679395953189452e+000
0	 1.333299999983334e+000	 1.933329999996683e+000	 9.637405210301546e+000
0	 1.333299999983334e+000	 2.000000000000000e+000	 9.719299599681255e+000
0	 1.399969999982150e+000	 1.333299999983334e+000	 1.372912800997657e+001
0	 1.399969999982150e+000	 1.399969999982150e+000	 1.288969782303074e+001
0	 1.399969999982150e+000	 1.466639999981866e+000	 1.215764993859007e+001
0	 1.399969999982150e+000	 1.533309999982383e+000	 1.153125221463042e+001
0	 1.399969999982150e+000	 1.599979999983599e+000	 1.100877250912858e+001
0	 1.399969999982150e+000	 1.666649999985416e+000	 1.058847868006232e+001
0	 1.399969999982150e+000	 1.733319999987733e+000	 1.026863858541034e+001
0	 1.399969999982150e+000	 1.799989999990450e+000	 1.004752008315227e+001
0	 1.399969999982150e+000	 1.866659999993466e+000	 9.923391031268741e+000
0	 1.399969999982150e+000	 1.933329999996683e+000	 9.894519287741284e+000
0	 1.399969999982150e+000	 2.000000000000000e+000	 9.959172710552409e+000
0	 1.466639999981866e+000	 1.333299999983334e+000	 1.299767699786801e+001
0	 1.466639999981866e+000	 1.399969999982150e+000	 1.236518415092196e+001
0	 1.466639999981867e+000	 1.466639999981866e+000	 1.181536791129761e+001
0	 1.466639999981867e+000	 1.533309999982383e+000	 1.134634231047444e+001
0	 1.466639999981866e+000	 1.599979999983599e+000	 1.095622137993266e+001
0	 1.466639999981867e+000	 1.666649999985416e+000	 1.064311915115316e+001
0	 1.466639999981867e+000	 1.733319999987733e+000	 1.040514965561752e+001
0	 1.466639999981867e+000	 1.799989999990450e+000	 1.024042692480802e+001
0	 1.466639999981866e+000	 1.866659999993466e+000	 1.014706499020763e+001
0	 1.466639999981867e+000	 1.933329999996683e+000	 1.012317788329999e+001
0	 1.466639999981866e+000	 2.000000000000000e+000	 1.016687963556949e+001
0	 1.533309999982383e+000	 1.333299999983334e+000	 1.244227325777204e+001
0	 1.533309999982383e+000	 1.399969999982150e+000	 1.197863706701667e+001
0	 1.533309999982383e+000	 1.466639999981866e+000	 1.157677438673535e+001
0	 1.533309999982383e+000	 1.533309999982383e+000	 1.123468131359127e+001
0	 1.533309999982383e+000	 1.599979999983600e+000	 1.095035394424808e+001
0	 1.533309999982383e+000	 1.666649999985416e+000	 1.072178837536992e+001
0	 1.533309999982383e+000	 1.733319999987733e+000	 1.054698070362143e+001
0	 1.533309999982383e+000	 1.799989999990450e+000	 1.042392702566769e+001
0	 1.533309999982383e+000	 1.866659999993466e+000	 1.035062343817426e+001
0	 1.533309999982383e+000	 1.933329999996683e+000	 1.032506603780720e+001
0	 1.533309999982383e+000	 2.000000000000000e+000	 1.034525092123301e+001
0	 1.599979999983600e+000	 1.333299999983334e+000	 1.203926556491144e+001
0	 1.599979999983600e+000	 1.399969999982150e+000	 1.171055619512245e+001
0	 1.599979999983600e+000	 1.466639999981866e+000	 1.142618591030516e+001
0	 1.599979999983600e+000	 1.533309999982383e+000	 1.118406876398654e+001
0	 1.599979999983600e+000	 1.599979999983599e+000	 1.098211880969382e+001
0	 1.599979999983599e+000	 1.666649999985416e+000	 1.081825010095452e+001
0	 1.599979999983600e+000	 1.733319999987733e+000	 1.069037669129648e+001
0	 1.599979999983600e+000	 1.799989999990450e+000	 1.059641263424780e+001
0	 1.599979999983600e+000	 1.866659999993467e+000	 1.053427198333692e+001
0	 1.599979999983600e+000	 1.933329999996683e+000	 1.050186879209251e+001
0	 1.599979999983600e+000	 2.000000000000000e+000	 1.049711711404361e+001
0	 1.666649999985417e+000	 1.333299999983334e+000	 1.176500269450897e+001
0	 1.666649999985416e+000	 1.399969999982150e+000	 1.154144115904682e+001
0	 1.666649999985416e+000	 1.466639999981866e+000	 1.134791902740889e+001
0	 1.666649999985417e+000	 1.533309999982383e+000	 1.118230420166595e+001
0	 1.666649999985416e+000	 1.599979999983599e+000	 1.104246458388894e+001
0	 1.666649999985416e+000	 1.666649999985416e+000	 1.092626807614894e+001
0	 1.666649999985417e+000	 1.733319999987733e+000	 1.083158258051717e+001
0	 1.666649999985416e+000	 1.799989999990449e+000	 1.075627599906499e+001
0	 1.666649999985416e+000	 1.866659999993466e+000	 1.069821623386393e+001
0	 1.666649999985417e+000	 1.933329999996683e+000	 1.065527118698566e+001
0	 1.666649999985416e+000	 2.000000000000000e+000	 1.062530876050198e+001
0	 1.733319999987733e+000	 1.333299999983334e+000	 1.159583342178731e+001
0	 1.733319999987733e+000	 1.399969999982150e+000	 1.145179158259735e+001
0	 1.733319999987733e+000	 1.466639999981866e+000	 1.132629028344841e+001
0	 1.733319999987733e+000	 1.533309999982383e+000	 1.121718716663522e+001
0	 1.733319999987733e+000	 1.599979999983599e+000	 1.112233987445256e+001
0	 1.733319999987733e+000	 1.666649999985416e+000	 1.103960604919523e+001
0	 1.733319999987733e+000	 1.733319999987733e+000	 1.096684333315808e+001
0	 1.733319999987733e+000	 1.799989999990449e+000	 1.090190936863596e+001
0	 1.733319999987733e+000	 1.866659999993466e+000	 1.084266179792377e+001
0	 1.733319999987733e+000	 1.933329999996683e+000	 1.078695826331644e+001
0	 1.733319999987733e+000	 2.000000000000000e+000	 1.073265640710892e+001
0	 1.799989999990450e+000	 1.333299999983334e+000	 1.150810652196913e+001
0	 1.799989999990450e+000	 1.399969999982150e+000	 1.142210708958159e+001
0	 1.799989999990450e+000	 1.466639999981867e+000	 1.134561622382562e+001
0	 1.799989999990450e+000	 1.533309999982383e+000	 1.127651719890012e+001
0	 1.799989999990450e+000	 1.599979999983599e+000	 1.121269328900384e+001
0	 1.799989999990450e+000	 1.666649999985417e+000	 1.115202776833553e+001
0	 1.799989999990450e+000	 1.733319999987733e+000	 1.109240391109388e+001
0	 1.799989999990450e+000	 1.799989999990450e+000	 1.103170499147751e+001
0	 1.799989999990450e+000	 1.866659999993466e+000	 1.096781428368497e+001
0	 1.799989999990450e+000	 1.933329999996683e+000	 1.089861506191476e+001
0	 1.799989999990450e+000	 2.000000000000000e+000	 1.082199060036532e+001
0	 1.866659999993467e+000	 1.333299999983334e+000	 1.147817077027704e+001
0	 1.866659999993467e+000	 1.399969999982150e+000	 1.143288730380706e+001
0	 1.866659999993467e+000	 1.466639999981866e+000	 1.139021339394248e+001
0	 1.866659999993467e+000	 1.533309999982383e+000	 1.134809383846647e+001
0	 1.866659999993466e+000	 1.599979999983599e+000	 1.130447343516203e+001
0	 1.866659999993467e+000	 1.666649999985416e+000	 1.125729698181205e+001
0	 1.866659999993467e+000	 1.733319999987733e+000	 1.120450927619935e+001
0	 1.866659999993467e+000	 1.799989999990449e+000	 1.114405511610653e+001
0	 1.866659999993467e+000	 1.866659999993467e+000	 1.107387929931616e+001
0	 1.866659999993467e+000	 1.933329999996683e+000	 1.099192662361062e+001
0	 1.866659999993466e+000	 2.000000000000000e+000	 1.089614188677218e+001
0	 1.933329999996684e+000	 1.333299999983334e+000	 1.148237494193363e+001
0	 1.933329999996684e+000	 1.399969999982150e+000	 1.146463184908129e+001
0	 1.933329999996684e+000	 1.466639999981866e+000	 1.144439833920090e+001
0	 1.933329999996684e+000	 1.533309999982383e+000	 1.141971662534012e+001
0	 1.933329999996683e+000	 1.599979999983599e+000	 1.138862892054641e+001
0	 1.933329999996683e+000	 1.666649999985416e+000	 1.134917743786709e+001
0	 1.933329999996684e+000	 1.733319999987733e+000	 1.129940439034931e+001
0	 1.933329999996683e+000	 1.799989999990449e+000	 1.123735199104003e+001
0	 1.933329999996684e+000	 1.866659999993466e+000	 1.116106245298609e+001
0	 1.933329999996684e+000	 1.933329999996684e+000	 1.106857798923410e+001
0	 1.933329999996684e+000	 2.000000000000000e+000	 1.095794081283055e+001
0	 2.000000000000000e+000	 1.333299999983334e+000	 1.149706781216142e+001
0	 2.000000000000000e+000	 1.399969999982150e+000	 1.149784034921180e+001
0	 2.000000000000000e+000	 1.466639999981866e+000	 1.149248760500286e+001
0	 2.000000000000000e+000	 1.533309999982383e+000	 1.147918509952698e+001
0	 2.000000000000000e+000	 1.599979999983599e+000	 1.145610835277635e+001
0	 2.000000000000000e+000	 1.666649999985416e+000	 1.142143288474298e+001
0	 2.000000000000000e+000	 1.733319999987733e+000	 1.137333421541868e+001
0	 2.000000000000000e+000	 1.799989999990450e+000	 1.130998786479506e+001
0	 2.000000000000000e+000	 1.866659999993467e+000	 1.122956935286356e+001
0	 2.000000000000000e+000	 1.933329999996683e+000	 1.113025419961540e+001
0	 2.000000000000000e+000	 2.000000000000000e+000	 1.101021792504162e+001
0	 1.333299999983334e+000	 2.000000000000000e+000	 9.719299599681255e+000
0	 1.333299999983334e+000	 2.066670000003317e+000	 9.843278022764480e+000
0	 1.333299999983334e+000	 2.133340000006534e+000	 9.930536695610455e+000
0	 1.333299999983334e+000	 2.200010000009550e+000	 9.984029166315947e+000
0	 1.333299999983334e+000	 2.266680000012267e+000	 1.000670898297750e+001
0	 1.333299999983334e+000	 2.333350000014584e+000	 1.000152969369144e+001
0	 1.333299999983334e+000	 2.400020000016401e+000	 9.971444846553906e+000
0	 1.333299999983334e+000	 2.466690000017617e+000	 9.919407989660812e+000
0	 1.333299999983334e+000	 2.533360000018134e+000	 9.848372671107864e+000
0	 1.333299999983334e+000	 2.600030000017851e+000	 9.761292438990546e+000
0	 1.333299999983334e+000	 2.666700000016666e+000	 9.661120841404161e+000
0	 1.399969999982150e+000	 2.000000000000000e+000	 9.959172710552409e+000
0	 1.399969999982150e+000	 2.066670000003317e+000	 1.005349957660826e+001
0	 1.399969999982150e+000	 2.133340000006534e+000	 1.011642465726316e+001
0	 1.399969999982150e+000	 2.200010000009551e+000	 1.015038055217253e+001
0	 1.399969999982150e+000	 2.266680000012268e+000	 1.015779986099151e+001
0	 1.399969999982150e+000	 2.333350000014584e+000	 1.014111518337514e+001
0	 1.399969999982150e+000	 2.400020000016400e+000	 1.010275911897822e+001
0	 1.399969999982150e+000	 2.466690000017617e+000	 1.004516426745541e+001
0	 1.399969999982150e+000	 2.533360000018133e+000	 9.970763228461181e+000
0	 1.399969999982150e+000	 2.600030000017851e+000	 9.881988601649789e+000
0	 1.399969999982150e+000	 2.666700000016667e+000	 9.781272986675358e+000
0	 1.466639999981866e+000	 2.000000000000000e+000	 1.016687963556949e+001
0	 1.466639999981866e+000	 2.066670000003317e+000	 1.023026404097943e+001
0	 1.466639999981866e+000	 2.133340000006534e+000	 1.026799203003236e+001
0	 1.466639999981866e+000	 2.200010000009550e+000	 1.028202833902179e+001
0	 1.466639999981867e+000	 2.266680000012266e+000	 1.027433770424115e+001
0	 1.466639999981866e+000	 2.333350000014585e+000	 1.024688486198364e+001
0	 1.466639999981866e+000	 2.400020000016400e+000	 1.020163454854239e+001
0	 1.466639999981866e+000	 2.466690000017618e+000	 1.014055150021033e+001
0	 1.466639999981867e+000	 2.533360000018134e+000	 1.006560045328026e+001
0	 1.466639999981866e+000	 2.600030000017850e+000	 9.978746144044838e+000
0	 1.466639999981867e+000	 2.666700000016667e+000	 9.881953308796570e+000
0	 1.533309999982383e+000	 2.000000000000000e+000	 1.034525092123301e+001
0	 1.533309999982383e+000	 2.066670000003316e+000	 1.037728035356178e+001
0	 1.533309999982383e+000	 2.133340000006534e+000	 1.038962584079989e+001
0	 1.533309999982383e+000	 2.200010000009551e+000	 1.038383734095859e+001
0	 1.533309999982383e+000	 2.266680000012267e+000	 1.036146481204905e+001
0	 1.533309999982383e+000	 2.333350000014584e+000	 1.032405821208227e+001
0	 1.533309999982383e+000	 2.400020000016400e+000	 1.027316749906919e+001
0	 1.533309999982383e+000	 2.466690000017617e+000	 1.021034263102065e+001
0	 1.533309999982383e+000	 2.533360000018134e+000	 1.013713356594734e+001
0	 1.533309999982383e+000	 2.600030000017850e+000	 1.005509026185985e+001
0	 1.533309999982383e+000	 2.666700000016667e+000	 9.965762676768680e+000
0	 1.599979999983600e+000	 2.000000000000000e+000	 1.049711711404361e+001
0	 1.599979999983599e+000	 2.066670000003317e+000	 1.049825745203917e+001
0	 1.599979999983600e+000	 2.133340000006534e+000	 1.048571311644774e+001
0	 1.599979999983600e+000	 2.200010000009550e+000	 1.046067237207783e+001
0	 1.599979999983600e+000	 2.266680000012267e+000	 1.042432348373791e+001
0	 1.599979999983600e+000	 2.333350000014584e+000	 1.037785471623636e+001
0	 1.599979999983600e+000	 2.400020000016400e+000	 1.032245433438147e+001
0	 1.599979999983600e+000	 2.466690000017617e+000	 1.025931060298152e+001
0	 1.599979999983600e+000	 2.533360000018133e+000	 1.018961178684466e+001
0	 1.599979999983600e+000	 2.600030000017851e+000	 1.011454615077901e+001
0	 1.599979999983599e+000	 2.666700000016666e+000	 1.003530195959259e+001
0	 1.666649999985416e+000	 2.000000000000000e+000	 1.062530876050198e+001
0	 1.666649999985417e+000	 2.066670000003317e+000	 1.059690427409553e+001
0	 1.666649999985416e+000	 2.133340000006534e+000	 1.056064088385792e+001
0	 1.666649999985416e+000	 2.200010000009550e+000	 1.051739824647448e+001
0	 1.666649999985417e+000	 2.266680000012267e+000	 1.046805601863051e+001
0	 1.666649999985416e+000	 2.333350000014584e+000	 1.041349385701130e+001
0	 1.666649999985417e+000	 2.400020000016401e+000	 1.035459141830209e+001
0	 1.666649999985417e+000	 2.466690000017617e+000	 1.029222835918811e+001
0	 1.666649999985416e+000	 2.533360000018133e+000	 1.022728433635453e+001
0	 1.666649999985416e+000	 2.600030000017850e+000	 1.016063900648652e+001
0	 1.666649999985417e+000	 2.666700000016666e+000	 1.009317202626921e+001
0	 1.733319999987733e+000	 2.000000000000000e+000	 1.073265640710892e+001
0	 1.733319999987734e+000	 2.066670000003317e+000	 1.067692975741490e+001
0	 1.733319999987733e+000	 2.133340000006533e+000	 1.061879616991256e+001
0	 1.733319999987733e+000	 2.200010000009550e+000	 1.055887977824359e+001
0	 1.733319999987733e+000	 2.266680000012267e+000	 1.049780471604970e+001
0	 1.733319999987733e+000	 2.333350000014583e+000	 1.043619511697257e+001
0	 1.733319999987733e+000	 2.400020000016401e+000	 1.037467511465398e+001
0	 1.733319999987733e+000	 2.466690000017618e+000	 1.031386884273562e+001
0	 1.733319999987733e+000	 2.533360000018134e+000	 1.025440043485925e+001
0	 1.733319999987733e+000	 2.600030000017851e+000	 1.019689402466661e+001
0	 1.733319999987733e+000	 2.666700000016666e+000	 1.014197374579947e+001
0	 1.799989999990450e+000	 2.000000000000000e+000	 1.082199060036532e+001
0	 1.799989999990450e+000	 2.066670000003318e+000	 1.074204283968141e+001
0	 1.799989999990450e+000	 2.133340000006533e+000	 1.066456600149387e+001
0	 1.799989999990450e+000	 2.200010000009550e+000	 1.058998178148030e+001
0	 1.799989999990450e+000	 2.266680000012268e+000	 1.051871187531833e+001
0	 1.799989999990450e+000	 2.333350000014584e+000	 1.045117797868569e+001
0	 1.799989999990450e+000	 2.400020000016400e+000	 1.038780178726008e+001
0	 1.799989999990450e+000	 2.466690000017617e+000	 1.032900499671929e+001
0	 1.799989999990450e+000	 2.533360000018134e+000	 1.027520930274115e+001
0	 1.799989999990450e+000	 2.600030000017851e+000	 1.022683640100352e+001
0	 1.799989999990450e+000	 2.666700000016667e+000	 1.018430798718432e+001
0	 1.866659999993466e+000	 2.000000000000000e+000	 1.089614188677218e+001
0	 1.866659999993467e+000	 2.066670000003317e+000	 1.079595245857925e+001
0	 1.866659999993467e+000	 2.133340000006534e+000	 1.070233740548410e+001
0	 1.866659999993467e+000	 2.200010000009550e+000	 1.061556907027978e+001
0	 1.866659999993466e+000	 2.266680000012266e+000	 1.053591979575941e+001
0	 1.866659999993467e+000	 2.333350000014583e+000	 1.046366192471619e+001
0	 1.866659999993467e+000	 2.400020000016401e+000	 1.039906779994340e+001
0	 1.866659999993467e+000	 2.466690000017618e+000	 1.034240976423440e+001
0	 1.866659999993467e+000	 2.533360000018134e+000	 1.029396016038260e+001
0	 1.866659999993467e+000	 2.600030000017850e+000	 1.025399133118151e+001
0	 1.866659999993467e+000	 2.666700000016666e+000	 1.022277561942471e+001
0	 1.933329999996684e+000	 2.000000000000000e+000	 1.095794081283055e+001
0	 1.933329999996684e+000	 2.066670000003317e+000	 1.084236755179272e+001
0	 1.933329999996684e+000	 2.133340000006534e+000	 1.073649740876563e+001
0	 1.933329999996684e+000	 2.200010000009550e+000	 1.064050645873731e+001
0	 1.933329999996684e+000	 2.266680000012268e+000	 1.055457077669592e+001
0	 1.933329999996684e+000	 2.333350000014584e+000	 1.047886643762971e+001
0	 1.933329999996684e+000	 2.400020000016401e+000	 1.041356951652700e+001
0	 1.933329999996684e+000	 2.466690000017617e+000	 1.035885608837625e+001
0	 1.933329999996684e+000	 2.533360000018134e+000	 1.031490222816600e+001
0	 1.933329999996683e+000	 2.600030000017850e+000	 1.028188401088487e+001
0	 1.933329999996684e+000	 2.666700000016667e+000	 1.025997751152162e+001
0	 2.000000000000000e+000	 2.000000000000000e+000	 1.101021792504162e+001
0	 2.000000000000000e+000	 2.066670000003317e+000	 1.088499705700620e+001
0	 2.000000000000000e+000	 2.133340000006534e+000	 1.077143303822088e+001
0	 2.000000000000000e+000	 2.200010000009551e+000	 1.066965876094823e+001
0	 2.000000000000000e+000	 2.266680000012268e+000	 1.057980711745097e+001
0	 2.000000000000000e+000	 2.333350000014584e+000	 1.050201099999190e+001
0	 2.000000000000000e+000	 2.400020000016401e+000	 1.043640330083396e+001
0	 2.000000000000000e+000	 2.466690000017618e+000	 1.038311691224019e+001
0	 2.000000000000000e+000	 2.533360000018133e+000	 1.034228472647374e+001
0	 2.000000000000000e+000	 2.600030000017851e+000	 1.031403963579790e+001
0	 2.000000000000000e+000	 2.666700000016667e+000	 1.029851453247605e+001
0	 1.333299999983334e+000	 2.666700000016666e+000	 9.661120841404161e+000
0	 1.333299999983334e+000	 2.733360000014532e+000	 9.567912848356857e+000
0	 1.333299999983334e+000	 2.800020000011599e+000	 9.497981092578982e+000
0	 1.333299999983334e+000	 2.866680000008067e+000	 9.448713193613870e+000
0	 1.333299999983334e+000	 2.933340000004133e+000	 9.417496771004606e+000
0	 1.333299999983334e+000	 3.000000000000000e+000	 9.401719444294058e+000
0	 1.333299999983334e+000	 3.066659999995867e+000	 9.398768833024866e+000
0	 1.333299999983334e+000	 3.133319999991934e+000	 9.406032556739435e+000
0	 1.333299999983334e+000	 3.199979999988401e+000	 9.420898234979953e+000
0	 1.333299999983334e+000	 3.266639999985467e+000	 9.440753487288349e+000
0	 1.333299999983334e+000	 3.333299999983334e+000	 9.462985933206360e+000
0	 1.399969999982150e+000	 2.666700000016667e+000	 9.781272986675360e+000
0	 1.399969999982150e+000	 2.733360000014533e+000	 9.686563743988925e+000
0	 1.399969999982150e+000	 2.800020000011600e+000	 9.612720724667268e+000
0	 1.399969999982150e+000	 2.866680000008067e+000	 9.557592905779798e+000
0	 1.399969999982150e+000	 2.933340000004134e+000	 9.519029264395689e+000
0	 1.399969999982150e+000	 3.000000000000000e+000	 9.494878777583903e+000
0	 1.399969999982150e+000	 3.066659999995866e+000	 9.482990422413190e+000
0	 1.399969999982150e+000	 3.133319999991934e+000	 9.481213175952068e+000
0	 1.399969999982150e+000	 3.199979999988400e+000	 9.487396015268818e+000
0	 1.399969999982150e+000	 3.266639999985468e+000	 9.499387917431527e+000
0	 1.399969999982150e+000	 3.333299999983334e+000	 9.515037859508043e+000
0	 1.466639999981867e+000	 2.666700000016667e+000	 9.881953308796568e+000
0	 1.466639999981866e+000	 2.733360000014534e+000	 9.790481762068174e+000
0	 1.466639999981866e+000	 2.800020000011599e+000	 9.717093120625760e+000
0	 1.466639999981866e+000	 2.866680000008066e+000	 9.660050320070621e+000
0	 1.466639999981866e+000	 2.933340000004133e+000	 9.617616296003858e+000
0	 1.466639999981866e+000	 2.999999999999999e+000	 9.588053984026335e+000
0	 1.466639999981866e+000	 3.066659999995866e+000	 9.569626319738733e+000
0	 1.466639999981866e+000	 3.133319999991933e+000	 9.560596238741537e+000
0	 1.466639999981866e+000	 3.199979999988400e+000	 9.559226676635001e+000
0	 1.466639999981866e+000	 3.266639999985467e+000	 9.563780569019199e+000
0	 1.466639999981867e+000	 3.333299999983334e+000	 9.572520851493973e+000
0	 1.533309999982383e+000	 2.666700000016667e+000	 9.965762676768680e+000
0	 1.533309999982383e+000	 2.733360000014533e+000	 9.881307302382909e+000
0	 1.533309999982383e+000	 2.800020000011600e+000	 9.811905920628949e+000
0	 1.533309999982383e+000	 2.866680000008067e+000	 9.756188026645797e+000
0	 1.533309999982383e+000	 2.933340000004134e+000	 9.712783115572288e+000
0	 1.533309999982383e+000	 3.000000000000000e+000	 9.680320682547023e+000
0	 1.533309999982383e+000	 3.066659999995867e+000	 9.657430222708495e+000
0	 1.533309999982383e+000	 3.133319999991934e+000	 9.642741231194950e+000
0	 1.533309999982383e+000	 3.199979999988400e+000	 9.634883203144494e+000
0	 1.533309999982383e+000	 3.266639999985467e+000	 9.632485633695058e+000
0	 1.533309999982383e+000	 3.333299999983335e+000	 9.634178017984365e+000
0	 1.599979999983599e+000	 2.666700000016666e+000	 1.003530195959259e+001
0	 1.599979999983600e+000	 2.733360000014533e+000	 9.960680764721472e+000
0	 1.599979999983600e+000	 2.800020000011600e+000	 9.897966764851383e+000
0	 1.599979999983599e+000	 2.866680000008066e+000	 9.846108615664818e+000
0	 1.599979999983600e+000	 2.933340000004134e+000	 9.804054972844190e+000
0	 1.599979999983600e+000	 3.000000000000000e+000	 9.770754492071712e+000
0	 1.599979999983600e+000	 3.066659999995867e+000	 9.745155829029475e+000
0	 1.599979999983599e+000	 3.133319999991933e+000	 9.726207639399425e+000
0	 1.599979999983600e+000	 3.199979999988400e+000	 9.712858578863322e+000
0	 1.599979999983600e+000	 3.266639999985468e+000	 9.704057303102839e+000
0	 1.599979999983600e+000	 3.333299999983334e+000	 9.698752467799462e+000
0	 1.666649999985417e+000	 2.666700000016666e+000	 1.009317202626921e+001
0	 1.666649999985416e+000	 2.733360000014533e+000	 1.003024254887223e+001
0	 1.666649999985417e+000	 2.800020000011601e+000	 9.976083293467577e+000
0	 1.666649999985416e+000	 2.866680000008067e+000	 9.929914677287167e+000
0	 1.666649999985416e+000	 2.933340000004133e+000	 9.890957117562785e+000
0	 1.666649999985416e+000	 3.000000000000000e+000	 9.858431031526113e+000
0	 1.666649999985417e+000	 3.066659999995867e+000	 9.831556836408730e+000
0	 1.666649999985416e+000	 3.133319999991934e+000	 9.809554949442090e+000
0	 1.666649999985417e+000	 3.199979999988400e+000	 9.791645787857549e+000
0	 1.666649999985416e+000	 3.266639999985466e+000	 9.777049768886327e+000
0	 1.666649999985417e+000	 3.333299999983334e+000	 9.764987309759556e+000
0	 1.733319999987733e+000	 2.666700000016666e+000	 1.014197374579947e+001
0	 1.733319999987733e+000	 2.733360000014533e+000	 1.009163305462354e+001
0	 1.733319999987733e+000	 2.800020000011600e+000	 1.004706314665211e+001
0	 1.733319999987733e+000	 2.866680000008067e+000	 1.000770880167235e+001
0	 1.733319999987733e+000	 2.933340000004133e+000	 9.973014799471301e+000
0	 1.733319999987733e+000	 3.000000000000000e+000	 9.942425919835991e+000
0	 1.733319999987733e+000	 3.066659999995867e+000	 9.915386942553328e+000
0	 1.733319999987733e+000	 3.133319999991933e+000	 9.891342647410154e+000
0	 1.733319999987733e+000	 3.199979999988401e+000	 9.869737814193243e+000
0	 1.733319999987733e+000	 3.266639999985467e+000	 9.850017222689301e+000
0	 1.733319999987733e+000	 3.333299999983334e+000	 9.831625652684940e+000
0	 1.799989999990450e+000	 2.666700000016667e+000	 1.018430798718432e+001
0	 1.799989999990450e+000	 2.733360000014534e+000	 1.014649268176377e+001
0	 1.799989999990450e+000	 2.800020000011600e+000	 1.011171396457953e+001
0	 1.799989999990449e+000	 2.866680000008066e+000	 1.007959357897987e+001
0	 1.799989999990450e+000	 2.933340000004133e+000	 1.004975326831301e+001
0	 1.799989999990450e+000	 3.000000000000000e+000	 1.002181477592711e+001
0	 1.799989999990450e+000	 3.066659999995868e+000	 9.995399845170343e+000
0	 1.799989999990450e+000	 3.133319999991933e+000	 9.970130219390796e+000
0	 1.799989999990450e+000	 3.199979999988400e+000	 9.945627641936534e+000
0	 1.799989999990450e+000	 3.266639999985468e+000	 9.921513856155599e+000
0	 1.799989999990450e+000	 3.333299999983335e+000	 9.897410605395951e+000
0	 1.866659999993467e+000	 2.666700000016666e+000	 1.022277561942471e+001
0	 1.866659999993467e+000	 2.733360000014533e+000	 1.019646183008131e+001
0	 1.866659999993467e+000	 2.800020000011600e+000	 1.017084338742441e+001
0	 1.866659999993467e+000	 2.866680000008067e+000	 1.014567159936927e+001
0	 1.866659999993467e+000	 2.933340000004134e+000	 1.012069777383115e+001
0	 1.866659999993467e+000	 2.999999999999999e+000	 1.009567321872527e+001
0	 1.866659999993467e+000	 3.066659999995866e+000	 1.007034924196689e+001
0	 1.866659999993467e+000	 3.133319999991933e+000	 1.004447715147125e+001
0	 1.866659999993466e+000	 3.199979999988400e+000	 1.001780825515357e+001
0	 1.866659999993467e+000	 3.266639999985467e+000	 9.990093860929067e+000
0	 1.866659999993467e+000	 3.333299999983334e+000	 9.961085276712982e+000
0	 1.933329999996684e+000	 2.666700000016667e+000	 1.025997751152162e+001
0	 1.933329999996684e+000	 2.733360000014532e+000	 1.024318089936457e+001
0	 1.933329999996684e+000	 2.800020000011600e+000	 1.022525905536136e+001
0	 1.933329999996683e+000	 2.866680000008066e+000	 1.020604545300011e+001
0	 1.933329999996684e+000	 2.933340000004133e+000	 1.018537356576902e+001
0	 1.933329999996684e+000	 3.000000000000000e+000	 1.016307686715628e+001
0	 1.933329999996684e+000	 3.066659999995866e+000	 1.013898883065011e+001
0	 1.933329999996684e+000	 3.133319999991934e+000	 1.011294292973877e+001
0	 1.933329999996684e+000	 3.199979999988401e+000	 1.008477263791051e+001
0	 1.933329999996684e+000	 3.266639999985467e+000	 1.005431142865362e+001
0	 1.933329999996684e+000	 3.333299999983334e+000	 1.002139277545642e+001
0	 2.000000000000000e+000	 2.666700000016667e+000	 1.029851453247605e+001
0	 2.000000000000000e+000	 2.733360000014533e+000	 1.028829028940198e+001
0	 2.000000000000000e+000	 2.800020000011600e+000	 1.027576860856495e+001
0	 2.000000000000000e+000	 2.866680000008067e+000	 1.026081773003194e+001
0	 2.000000000000000e+000	 2.933340000004133e+000	 1.024330589386993e+001
0	 2.000000000000000e+000	 3.000000000000000e+000	 1.022310134014597e+001
0	 2.000000000000000e+000	 3.066659999995867e+000	 1.020007230892716e+001
0	 2.000000000000000e+000	 3.133319999991934e+000	 1.017408704028064e+001
0	 2.000000000000000e+000	 3.199979999988400e+000	 1.014501377427358e+001
0	 2.000000000000000e+000	 3.266639999985468e+000	 1.011272075097318e+001
0	 2.000000000000000e+000	 3.333299999983334e+000	 1.007707621044673e+001
0	 1.333299999983334e+000	 3.333299999983334e+000	 9.462985933206362e+000
0	 1.333299999983334e+000	 3.399969999982149e+000	 9.480434754905762e+000
0	 1.333299999983334e+000	 3.466639999981867e+000	 9.489031053588020e+000
0	 1.333299999983334e+000	 3.533309999982383e+000	 9.490810475966260e+000
0	 1.333299999983334e+000	 3.599979999983599e+000	 9.487808668753619e+000
0	 1.333299999983334e+000	 3.666649999985416e+000	 9.482061278663284e+000
0	 1.333299999983334e+000	 3.733319999987733e+000	 9.475603952408415e+000
0	 1.333299999983334e+000	 3.799989999990450e+000	 9.470472336702210e+000
0	 1.333299999983334e+000	 3.866659999993467e+000	 9.468702078257895e+000
0	 1.333299999983334e+000	 3.933329999996683e+000	 9.472328823788711e+000
0	 1.333299999983334e+000	 4.000000000000000e+000	 9.483388220007901e+000
0	 1.399969999982150e+000	 3.333299999983334e+000	 9.515037859508043e+000
0	 1.399969999982150e+000	 3.399969999982151e+000	 9.527804422815095e+000
0	 1.399969999982150e+000	 3.466639999981866e+000	 9.533687622943230e+000
0	 1.399969999982150e+000	 3.533309999982383e+000	 9.534356132004689e+000
0	 1.399969999982150e+000	 3.599979999983601e+000	 9.531478622111747e+000
0	 1.399969999982150e+000	 3.666649999985416e+000	 9.526723765376673e+000
0	 1.399969999982150e+000	 3.733319999987733e+000	 9.521760233911781e+000
0	 1.399969999982150e+000	 3.799989999990450e+000	 9.518256699829399e+000
0	 1.399969999982150e+000	 3.866659999993467e+000	 9.517881835241868e+000
0	 1.399969999982150e+000	 3.933329999996683e+000	 9.522304312261571e+000
0	 1.399969999982150e+000	 4.000000000000000e+000	 9.533192803000876e+000
0	 1.466639999981867e+000	 3.333299999983334e+000	 9.572520851493975e+000
0	 1.466639999981866e+000	 3.399969999982150e+000	 9.579823073853683e+000
0	 1.466639999981867e+000	 3.466639999981867e+000	 9.582110387966770e+000
0	 1.466639999981866e+000	 3.533309999982383e+000	 9.580721747510811e+000
0	 1.466639999981866e+000	 3.599979999983600e+000	 9.576996106163417e+000
0	 1.466639999981866e+000	 3.666649999985417e+000	 9.572272417602225e+000
0	 1.466639999981867e+000	 3.733319999987733e+000	 9.567889635504873e+000
0	 1.466639999981866e+000	 3.799989999990451e+000	 9.565186713549048e+000
0	 1.466639999981866e+000	 3.866659999993467e+000	 9.565502605412442e+000
0	 1.466639999981866e+000	 3.933329999996683e+000	 9.570176264772776e+000
0	 1.466639999981867e+000	 4.000000000000002e+000	 9.580546645307813e+000
0	 1.533309999982383e+000	 3.333299999983335e+000	 9.634178017984365e+000
0	 1.533309999982383e+000	 3.399969999982150e+000	 9.635475163756814e+000
0	 1.533309999982383e+000	 3.466639999981866e+000	 9.633502225348183e+000
0	 1.533309999982383e+000	 3.533309999982383e+000	 9.629305694167618e+000
0	 1.533309999982383e+000	 3.599979999983599e+000	 9.623932061624275e+000
0	 1.533309999982383e+000	 3.666649999985415e+000	 9.618427819127351e+000
0	 1.533309999982383e+000	 3.733319999987733e+000	 9.613839458086071e+000
0	 1.533309999982383e+000	 3.799989999990450e+000	 9.611213469909668e+000
0	 1.533309999982383e+000	 3.866659999993466e+000	 9.611596346007428e+000
0	 1.533309999982383e+000	 3.933329999996684e+000	 9.616034577788634e+000
0	 1.533309999982383e+000	 4.000000000000002e+000	 9.625574656662618e+000
0	 1.599979999983600e+000	 3.333299999983334e+000	 9.698752467799464e+000
0	 1.599979999983600e+000	 3.399969999982150e+000	 9.693745148259826e+000
0	 1.599979999983600e+000	 3.466639999981867e+000	 9.687066011777088e+000
0	 1.599979999983599e+000	 3.533309999982383e+000	 9.679506343658147e+000
0	 1.599979999983600e+000	 3.599979999983600e+000	 9.671857429209954e+000
0	 1.599979999983599e+000	 3.666649999985416e+000	 9.664910553739491e+000
0	 1.599979999983600e+000	 3.733319999987733e+000	 9.659457002553753e+000
0	 1.599979999983600e+000	 3.799989999990449e+000	 9.656288060959774e+000
0	 1.599979999983600e+000	 3.866659999993467e+000	 9.656195014264625e+000
0	 1.599979999983600e+000	 3.933329999996683e+000	 9.659969147775394e+000
0	 1.599979999983599e+000	 4.000000000000000e+000	 9.668401746799196e+000
0	 1.666649999985417e+000	 3.333299999983334e+000	 9.764987309759556e+000
0	 1.666649999985416e+000	 3.399969999982150e+000	 9.753617483098086e+000
0	 1.666649999985417e+000	 3.466639999981867e+000	 9.742004623943082e+000
0	 1.666649999985416e+000	 3.533309999982383e+000	 9.730722067665447e+000
0	 1.666649999985417e+000	 3.599979999983600e+000	 9.720343149636120e+000
0	 1.666649999985416e+000	 3.666649999985417e+000	 9.711441205226077e+000
0	 1.666649999985417e+000	 3.733319999987733e+000	 9.704589569806318e+000
0	 1.666649999985416e+000	 3.799989999990450e+000	 9.700361578747893e+000
0	 1.666649999985416e+000	 3.866659999993467e+000	 9.699330567421864e+000
0	 1.666649999985417e+000	 3.933329999996684e+000	 9.702069871199335e+000
0	 1.666649999985417e+000	 4.000000000000000e+000	 9.709152825451451e+000
0	 1.733319999987733e+000	 3.333299999983334e+000	 9.831625652684938e+000
0	 1.733319999987733e+000	 3.399969999982150e+000	 9.814076624006985e+000
0	 1.733319999987733e+000	 3.466639999981866e+000	 9.797520938535836e+000
0	 1.733319999987733e+000	 3.533309999982383e+000	 9.782351237872614e+000
0	 1.733319999987733e+000	 3.599979999983599e+000	 9.768960163618464e+000
0	 1.733319999987733e+000	 3.666649999985417e+000	 9.757740357374578e+000
0	 1.733319999987733e+000	 3.733319999987733e+000	 9.749084460742186e+000
0	 1.733319999987733e+000	 3.799989999990450e+000	 9.743385115322539e+000
0	 1.733319999987733e+000	 3.866659999993466e+000	 9.741034962716944e+000
0	 1.733319999987733e+000	 3.933329999996684e+000	 9.742426644526731e+000
0	 1.733319999987733e+000	 4.000000000000000e+000	 9.747952802353264e+000
0	 1.799989999990450e+000	 3.333299999983335e+000	 9.897410605395953e+000
0	 1.799989999990450e+000	 3.399969999982150e+000	 9.874107026721944e+000
0	 1.799989999990450e+000	 3.466639999981866e+000	 9.852817832245034e+000
0	 1.799989999990450e+000	 3.533309999982383e+000	 9.833792225962746e+000
0	 1.799989999990450e+000	 3.599979999983600e+000	 9.817279411872683e+000
0	 1.799989999990450e+000	 3.666649999985416e+000	 9.803528593972471e+000
0	 1.799989999990450e+000	 3.733319999987733e+000	 9.792788976259763e+000
0	 1.799989999990450e+000	 3.799989999990450e+000	 9.785309762732254e+000
0	 1.799989999990450e+000	 3.866659999993466e+000	 9.781340157387692e+000
0	 1.799989999990450e+000	 3.933329999996684e+000	 9.781129364223846e+000
0	 1.799989999990450e+000	 4.000000000000000e+000	 9.784926587238530e+000
0	 1.866659999993467e+000	 3.333299999983334e+000	 9.961085276712979e+000
0	 1.866659999993466e+000	 3.399969999982150e+000	 9.932693146978417e+000
0	 1.866659999993467e+000	 3.466639999981866e+000	 9.907098181760352e+000
0	 1.866659999993467e+000	 3.533309999982383e+000	 9.884443403618970e+000
0	 1.866659999993466e+000	 3.599979999983599e+000	 9.864871835114510e+000
0	 1.866659999993467e+000	 3.666649999985416e+000	 9.848526498807239e+000
0	 1.866659999993467e+000	 3.733319999987733e+000	 9.835550417257473e+000
0	 1.866659999993466e+000	 3.799989999990449e+000	 9.826086613025565e+000
0	 1.866659999993467e+000	 3.866659999993466e+000	 9.820278108671911e+000
0	 1.866659999993467e+000	 3.933329999996685e+000	 9.818267926756935e+000
0	 1.866659999993467e+000	 4.000000000000000e+000	 9.820199089841124e+000
0	 1.933329999996684e+000	 3.333299999983334e+000	 1.002139277545643e+001
0	 1.933329999996684e+000	 3.399969999982150e+000	 9.988819440511898e+000
0	 1.933329999996684e+000	 3.466639999981867e+000	 9.959564863771552e+000
0	 1.933329999996684e+000	 3.533309999982382e+000	 9.933703142524450e+000
0	 1.933329999996684e+000	 3.599979999983600e+000	 9.911308374059681e+000
0	 1.933329999996684e+000	 3.666649999985416e+000	 9.892454655666382e+000
0	 1.933329999996684e+000	 3.733319999987733e+000	 9.877216084633753e+000
0	 1.933329999996684e+000	 3.799989999990449e+000	 9.865666758251006e+000
0	 1.933329999996684e+000	 3.866659999993467e+000	 9.857880773807398e+000
0	 1.933329999996684e+000	 3.933329999996684e+000	 9.853932228592251e+000
0	 1.933329999996684e+000	 4.000000000000000e+000	 9.853895219894907e+000
0	 2.000000000000000e+000	 3.333299999983334e+000	 1.007707621044673e+001
0	 2.000000000000000e+000	 3.399969999982150e+000	 1.004147036305790e+001
0	 2.000000000000000e+000	 3.466639999981867e+000	 1.000942075496840e+001
0	 2.000000000000000e+000	 3.533309999982383e+000	 9.980969814362354e+000
0	 2.000000000000000e+000	 3.599979999983600e+000	 9.956159969423956e+000
0	 2.000000000000000e+000	 3.666649999985416e+000	 9.935033648337436e+000
0	 2.000000000000000e+000	 3.733319999987733e+000	 9.917633279287051e+000
0	 2.000000000000000e+000	 3.799989999990449e+000	 9.904001290457112e+000
0	 2.000000000000000e+000	 3.866659999993466e+000	 9.894180110031984e+000
0	 2.000000000000000e+000	 3.933329999996683e+000	 9.888212166196045e+000
0	 2.000000000000000e+000	 4.000000000000001e+000	 9.886139887133743e+000
0	 1.333299999983334e+000	 4.000000000000000e+000	 9.483388220007903e+000
0	 1.333299999983334e+000	 4.066670000003317e+000	 9.500665213466990e+000
0	 1.333299999983334e+000	 4.133340000006535e+000	 9.520795788009856e+000
0	 1.333299999983334e+000	 4.200010000009550e+000	 9.542592146288321e+000
0	 1.333299999983334e+000	 4.266680000012268e+000	 9.564866490954168e+000
0	 1.333299999983334e+000	 4.333350000014584e+000	 9.586431024659147e+000
0	 1.333299999983334e+000	 4.400020000016402e+000	 9.606097950054970e+000
0	 1.333299999983334e+000	 4.466690000017619e+000	 9.622679469793344e+000
0	 1.333299999983334e+000	 4.533360000018134e+000	 9.634987786525924e+000
0	 1.333299999983334e+000	 4.600030000017851e+000	 9.641835102904336e+000
0	 1.333299999983334e+000	 4.666700000016667e+000	 9.642033621580202e+000
0	 1.399969999982150e+000	 4.000000000000000e+000	 9.533192803000876e+000
0	 1.399969999982150e+000	 4.066670000003317e+000	 9.549085200545921e+000
0	 1.399969999982150e+000	 4.133340000006534e+000	 9.566780747693734e+000
0	 1.399969999982150e+000	 4.200010000009550e+000	 9.585340141123115e+000
0	 1.399969999982150e+000	 4.266680000012268e+000	 9.603824077512840e+000
0	 1.399969999982150e+000	 4.333350000014584e+000	 9.621293253541632e+000
0	 1.399969999982150e+000	 4.400020000016401e+000	 9.636808365888182e+000
0	 1.399969999982150e+000	 4.466690000017615e+000	 9.649430111231188e+000
0	 1.399969999982150e+000	 4.533360000018132e+000	 9.658219186249303e+000
0	 1.399969999982150e+000	 4.600030000017851e+000	 9.662236287621131e+000
0	 1.399969999982150e+000	 4.666700000016665e+000	 9.660542112025290e+000
0	 1.466639999981867e+000	 4.000000000000002e+000	 9.580546645307813e+000
0	 1.466639999981866e+000	 4.066670000003318e+000	 9.594919579003651e+000
0	 1.466639999981866e+000	 4.133340000006533e+000	 9.610229363712000e+000
0	 1.466639999981866e+000	 4.200010000009550e+000	 9.625757651909019e+000
0	 1.466639999981867e+000	 4.266680000012267e+000	 9.640786096070828e+000
0	 1.466639999981866e+000	 4.333350000014583e+000	 9.654596348673540e+000
0	 1.466639999981866e+000	 4.400020000016402e+000	 9.666470062193222e+000
0	 1.466639999981866e+000	 4.466690000017617e+000	 9.675688889105937e+000
0	 1.466639999981867e+000	 4.533360000018134e+000	 9.681534481887693e+000
0	 1.466639999981866e+000	 4.600030000017851e+000	 9.683288493014498e+000
0	 1.466639999981867e+000	 4.666700000016667e+000	 9.680232574962338e+000
0	 1.533309999982383e+000	 4.000000000000002e+000	 9.625574656662618e+000
0	 1.533309999982383e+000	 4.066670000003317e+000	 9.638311759765006e+000
0	 1.533309999982383e+000	 4.133340000006534e+000	 9.651293449987819e+000
0	 1.533309999982383e+000	 4.200010000009553e+000	 9.663994797374928e+000
0	 1.533309999982383e+000	 4.266680000012266e+000	 9.675890871970228e+000
0	 1.533309999982383e+000	 4.333350000014584e+000	 9.686456743817592e+000
0	 1.533309999982383e+000	 4.400020000016401e+000	 9.695167482960823e+000
0	 1.533309999982383e+000	 4.466690000017617e+000	 9.701498159443746e+000
0	 1.533309999982383e+000	 4.533360000018135e+000	 9.704923843310155e+000
0	 1.533309999982383e+000	 4.600030000017851e+000	 9.704919604603820e+000
0	 1.533309999982383e+000	 4.666700000016666e+000	 9.700960513368482e+000
0	 1.599979999983599e+000	 4.000000000000000e+000	 9.668401746799196e+000
0	 1.599979999983600e+000	 4.066670000003317e+000	 9.679405153754827e+000
0	 1.599979999983600e+000	 4.133340000006533e+000	 9.690124820444353e+000
0	 1.599979999983600e+000	 4.200010000009550e+000	 9.700201696249785e+000
0	 1.599979999983600e+000	 4.266680000012268e+000	 9.709276730553155e+000
0	 1.599979999983599e+000	 4.333350000014583e+000	 9.716990872736476e+000
0	 1.599979999983600e+000	 4.400020000016401e+000	 9.722985072181709e+000
0	 1.599979999983600e+000	 4.466690000017618e+000	 9.726900278270820e+000
0	 1.599979999983600e+000	 4.533360000018133e+000	 9.728377440385767e+000
0	 1.599979999983600e+000	 4.600030000017851e+000	 9.727057507908468e+000
0	 1.599979999983599e+000	 4.666700000016665e+000	 9.722581430220826e+000
0	 1.666649999985417e+000	 4.000000000000000e+000	 9.709152825451451e+000
0	 1.666649999985417e+000	 4.066670000003319e+000	 9.718343171897928e+000
0	 1.666649999985416e+000	 4.133340000006533e+000	 9.726875289004747e+000
0	 1.666649999985416e+000	 4.200010000009550e+000	 9.734528467262493e+000
0	 1.666649999985417e+000	 4.266680000012268e+000	 9.741081997161688e+000
0	 1.666649999985416e+000	 4.333350000014583e+000	 9.746315169192888e+000
0	 1.666649999985417e+000	 4.400020000016402e+000	 9.750007273846617e+000
0	 1.666649999985416e+000	 4.466690000017618e+000	 9.751937601613347e+000
0	 1.666649999985416e+000	 4.533360000018133e+000	 9.751885442983603e+000
0	 1.666649999985416e+000	 4.600030000017851e+000	 9.749630088447832e+000
0	 1.666649999985416e+000	 4.666700000016667e+000	 9.744950828496508e+000
0	 1.733319999987733e+000	 4.000000000000000e+000	 9.747952802353264e+000
0	 1.733319999987733e+000	 4.066670000003318e+000	 9.755269225119102e+000
0	 1.733319999987733e+000	 4.133340000006534e+000	 9.761696669592155e+000
0	 1.733319999987733e+000	 4.200010000009550e+000	 9.767125229141945e+000
0	 1.733319999987733e+000	 4.266680000012268e+000	 9.771444997137914e+000
0	 1.733319999987733e+000	 4.333350000014584e+000	 9.774546066949537e+000
0	 1.733319999987733e+000	 4.400020000016402e+000	 9.776318531946256e+000
0	 1.733319999987733e+000	 4.466690000017617e+000	 9.776652485497509e+000
0	 1.733319999987733e+000	 4.533360000018133e+000	 9.775438020972731e+000
0	 1.733319999987733e+000	 4.600030000017850e+000	 9.772565231741309e+000
0	 1.733319999987733e+000	 4.666700000016665e+000	 9.767924211172662e+000
0	 1.799989999990450e+000	 4.000000000000000e+000	 9.784926587238532e+000
0	 1.799989999990450e+000	 4.066670000003317e+000	 9.790326724343146e+000
0	 1.799989999990450e+000	 4.133340000006535e+000	 9.794740776129720e+000
0	 1.799989999990450e+000	 4.200010000009550e+000	 9.798142100617048e+000
0	 1.799989999990450e+000	 4.266680000012267e+000	 9.800504055823918e+000
0	 1.799989999990450e+000	 4.333350000014583e+000	 9.801799999769107e+000
0	 1.799989999990450e+000	 4.400020000016400e+000	 9.802003290471383e+000
0	 1.799989999990450e+000	 4.466690000017618e+000	 9.801087285949507e+000
0	 1.799989999990450e+000	 4.533360000018134e+000	 9.799025344222240e+000
0	 1.799989999990450e+000	 4.600030000017851e+000	 9.795790823308312e+000
0	 1.799989999990449e+000	 4.666700000016665e+000	 9.791357081226463e+000
0	 1.866659999993467e+000	 4.000000000000000e+000	 9.820199089841124e+000
0	 1.866659999993467e+000	 4.066670000003316e+000	 9.823659080494863e+000
0	 1.866659999993467e+000	 4.133340000006534e+000	 9.826159422540554e+000
0	 1.866659999993467e+000	 4.200010000009551e+000	 9.827729200416693e+000
0	 1.866659999993467e+000	 4.266680000012268e+000	 9.828397498561778e+000
0	 1.866659999993467e+000	 4.333350000014583e+000	 9.828193401414287e+000
0	 1.866659999993467e+000	 4.400020000016400e+000	 9.827145993412715e+000
0	 1.866659999993467e+000	 4.466690000017617e+000	 9.825284358995534e+000
0	 1.866659999993467e+000	 4.533360000018134e+000	 9.822637582601221e+000
0	 1.866659999993466e+000	 4.600030000017848e+000	 9.819234748668245e+000
0	 1.866659999993467e+000	 4.666700000016665e+000	 9.815104941635052e+000
0	 1.933329999996684e+000	 4.000000000000000e+000	 9.853895219894906e+000
0	 1.933329999996684e+000	 4.066670000003317e+000	 9.855409704499026e+000
0	 1.933329999996684e+000	 4.133340000006534e+000	 9.856104422747782e+000
0	 1.933329999996683e+000	 4.200010000009551e+000	 9.856036647269763e+000
0	 1.933329999996684e+000	 4.266680000012267e+000	 9.855263650693559e+000
0	 1.933329999996684e+000	 4.333350000014584e+000	 9.853842705647766e+000
0	 1.933329999996684e+000	 4.400020000016401e+000	 9.851831084760981e+000
0	 1.933329999996684e+000	 4.466690000017616e+000	 9.849286060661788e+000
0	 1.933329999996684e+000	 4.533360000018133e+000	 9.846264905978773e+000
0	 1.933329999996684e+000	 4.600030000017850e+000	 9.842824893340520e+000
0	 1.933329999996684e+000	 4.666700000016666e+000	 9.839023295375608e+000
0	 2.000000000000000e+000	 4.000000000000001e+000	 9.886139887133743e+000
0	 2.000000000000000e+000	 4.066670000003318e+000	 9.885722007280418e+000
0	 2.000000000000000e+000	 4.133340000006533e+000	 9.884727590674519e+000
0	 2.000000000000000e+000	 4.200010000009550e+000	 9.883214559905120e+000
0	 2.000000000000000e+000	 4.266680000012268e+000	 9.881240837561336e+000
0	 2.000000000000000e+000	 4.333350000014584e+000	 9.878864346232231e+000
0	 2.000000000000000e+000	 4.400020000016401e+000	 9.876143008506919e+000
0	 2.000000000000000e+000	 4.466690000017617e+000	 9.873134746974470e+000
0	 2.000000000000000e+000	 4.533360000018134e+000	 9.869897484223991e+000
0	 2.000000000000000e+000	 4.600030000017851e+000	 9.866489142844573e+000
0	 2.000000000000000e+000	 4.666700000016665e+000	 9.862967645425298e+000
0	 1.333299999983334e+000	 4.666700000016667e+000	 9.642033621580202e+000
0	 1.333299999983334e+000	 4.733360000014533e+000	 9.638100917738017e+000
0	 1.333299999983334e+000	 4.800020000011600e+000	 9.633790530629570e+000
0	 1.333299999983334e+000	 4.866680000008067e+000	 9.629770193743655e+000
0	 1.333299999983334e+000	 4.933340000004134e+000	 9.626707640569029e+000
0	 1.333299999983334e+000	 5.000000000000000e+000	 9.625270604594396e+000
0	 1.333299999983334e+000	 5.066659999995867e+000	 9.626126819308386e+000
0	 1.333299999983334e+000	 5.133319999991934e+000	 9.629944018199566e+000
0	 1.333299999983334e+000	 5.199979999988400e+000	 9.637389934756444e+000
0	 1.333299999983334e+000	 5.266639999985467e+000	 9.649132302467475e+000
0	 1.333299999983334e+000	 5.333299999983335e+000	 9.665838854821040e+000
0	 1.399969999982150e+000	 4.666700000016665e+000	 9.660542112025292e+000
0	 1.399969999982150e+000	 4.733360000014534e+000	 9.655632142359142e+000
0	 1.399969999982150e+000	 4.800020000011601e+000	 9.650974666712816e+000
0	 1.399969999982150e+000	 4.866680000008066e+000	 9.647091777756364e+000
0	 1.399969999982150e+000	 4.933340000004133e+000	 9.644505568159751e+000
0	 1.399969999982150e+000	 5.000000000000000e+000	 9.643738130592920e+000
0	 1.399969999982150e+000	 5.066659999995867e+000	 9.645311557725735e+000
0	 1.399969999982150e+000	 5.133319999991936e+000	 9.649747942228013e+000
0	 1.399969999982150e+000	 5.199979999988400e+000	 9.657569376769486e+000
0	 1.399969999982150e+000	 5.266639999985468e+000	 9.669297954019852e+000
0	 1.399969999982150e+000	 5.333299999983333e+000	 9.685455766648758e+000
0	 1.466639999981867e+000	 4.666700000016667e+000	 9.680232574962339e+000
0	 1.466639999981866e+000	 4.733360000014533e+000	 9.674763477152634e+000
0	 1.466639999981866e+000	 4.800020000011600e+000	 9.670017515812370e+000
0	 1.466639999981866e+000	 4.866680000008065e+000	 9.666388258646839e+000
0	 1.466639999981866e+000	 4.933340000004134e+000	 9.664269273361295e+000
0	 1.466639999981866e+000	 4.999999999999997e+000	 9.664054127660945e+000
0	 1.466639999981866e+000	 5.066659999995866e+000	 9.666136389250918e+000
0	 1.466639999981866e+000	 5.133319999991933e+000	 9.670909625836277e+000
0	 1.466639999981866e+000	 5.199979999988401e+000	 9.678767405122093e+000
0	 1.466639999981866e+000	 5.266639999985467e+000	 9.690103294813310e+000
0	 1.466639999981867e+000	 5.333299999983335e+000	 9.705310862614841e+000
0	 1.533309999982383e+000	 4.666700000016666e+000	 9.700960513368484e+000
0	 1.533309999982383e+000	 4.733360000014534e+000	 9.695280819243155e+000
0	 1.533309999982383e+000	 4.800020000011601e+000	 9.690650997544196e+000
0	 1.533309999982383e+000	 4.866680000008068e+000	 9.687353206866222e+000
0	 1.533309999982383e+000	 4.933340000004134e+000	 9.685669605803771e+000
0	 1.533309999982383e+000	 5.000000000000002e+000	 9.685882352951326e+000
0	 1.533309999982383e+000	 5.066659999995866e+000	 9.688273606903335e+000
0	 1.533309999982383e+000	 5.133319999991934e+000	 9.693125526254200e+000
0	 1.533309999982383e+000	 5.199979999988400e+000	 9.700720269598246e+000
0	 1.533309999982383e+000	 5.266639999985467e+000	 9.711339995529766e+000
0	 1.533309999982383e+000	 5.333299999983333e+000	 9.725266862643020e+000
0	 1.599979999983599e+000	 4.666700000016665e+000	 9.722581430220828e+000
0	 1.599979999983600e+000	 4.733360000014534e+000	 9.716970065755319e+000
0	 1.599979999983600e+000	 4.800020000011599e+000	 9.712607031524298e+000
0	 1.599979999983599e+000	 4.866680000008065e+000	 9.709680192865640e+000
0	 1.599979999983599e+000	 4.933340000004134e+000	 9.708377415117241e+000
0	 1.599979999983600e+000	 5.000000000000000e+000	 9.708886563616908e+000
0	 1.599979999983600e+000	 5.066659999995866e+000	 9.711395503702425e+000
0	 1.599979999983599e+000	 5.133319999991934e+000	 9.716092100711535e+000
0	 1.599979999983599e+000	 5.199979999988400e+000	 9.723164219981914e+000
0	 1.599979999983600e+000	 5.266639999985468e+000	 9.732799726851212e+000
0	 1.599979999983600e+000	 5.333299999983335e+000	 9.745186486657026e+000
0	 1.666649999985416e+000	 4.666700000016667e+000	 9.744950828496510e+000
0	 1.666649999985416e+000	 4.733360000014534e+000	 9.739617113813834e+000
0	 1.666649999985416e+000	 4.800020000011599e+000	 9.735617537368658e+000
0	 1.666649999985416e+000	 4.866680000008066e+000	 9.733062787096239e+000
0	 1.666649999985416e+000	 4.933340000004134e+000	 9.732063550931807e+000
0	 1.666649999985417e+000	 4.999999999999999e+000	 9.732730516810548e+000
0	 1.666649999985417e+000	 5.066659999995866e+000	 9.735174372667604e+000
0	 1.666649999985416e+000	 5.133319999991935e+000	 9.739505806438089e+000
0	 1.666649999985417e+000	 5.199979999988400e+000	 9.745835506057071e+000
0	 1.666649999985416e+000	 5.266639999985467e+000	 9.754274159459584e+000
0	 1.666649999985416e+000	 5.333299999983334e+000	 9.764932454580610e+000
0	 1.733319999987733e+000	 4.666700000016665e+000	 9.767924211172664e+000
0	 1.733319999987733e+000	 4.733360000014532e+000	 9.763007860543349e+000
0	 1.733319999987733e+000	 4.800020000011601e+000	 9.759414434693307e+000
0	 1.733319999987733e+000	 4.866680000008066e+000	 9.757194560009173e+000
0	 1.733319999987733e+000	 4.933340000004133e+000	 9.756398862877584e+000
0	 1.733319999987733e+000	 4.999999999999999e+000	 9.757077969685108e+000
0	 1.733319999987733e+000	 5.066659999995868e+000	 9.759282506818300e+000
0	 1.733319999987733e+000	 5.133319999991935e+000	 9.763063100663663e+000
0	 1.733319999987733e+000	 5.199979999988402e+000	 9.768470377607697e+000
0	 1.733319999987733e+000	 5.266639999985469e+000	 9.775554964036834e+000
0	 1.733319999987733e+000	 5.333299999983333e+000	 9.784367486337487e+000
0	 1.799989999990449e+000	 4.666700000016665e+000	 9.791357081226465e+000
0	 1.799989999990450e+000	 4.733360000014533e+000	 9.786928203068534e+000
0	 1.799989999990450e+000	 4.800020000011599e+000	 9.783729643114230e+000
0	 1.799989999990450e+000	 4.866680000008066e+000	 9.781769082055591e+000
0	 1.799989999990450e+000	 4.933340000004132e+000	 9.781054200584675e+000
0	 1.799989999990450e+000	 4.999999999999999e+000	 9.781592679393469e+000
0	 1.799989999990450e+000	 5.066659999995867e+000	 9.783392199173948e+000
0	 1.799989999990450e+000	 5.133319999991935e+000	 9.786460440618075e+000
0	 1.799989999990449e+000	 5.199979999988399e+000	 9.790805084417759e+000
0	 1.799989999990450e+000	 5.266639999985467e+000	 9.796433811264908e+000
0	 1.799989999990450e+000	 5.333299999983334e+000	 9.803354301851392e+000
0	 1.866659999993467e+000	 4.666700000016665e+000	 9.815104941635056e+000
0	 1.866659999993467e+000	 4.733360000014532e+000	 9.811164038514102e+000
0	 1.866659999993467e+000	 4.800020000011599e+000	 9.808295082247472e+000
0	 1.866659999993467e+000	 4.866680000008066e+000	 9.806479923686677e+000
0	 1.866659999993467e+000	 4.933340000004133e+000	 9.805700413683200e+000
0	 1.866659999993467e+000	 5.000000000000000e+000	 9.805938403088478e+000
0	 1.866659999993467e+000	 5.066659999995867e+000	 9.807175742753971e+000
0	 1.866659999993467e+000	 5.133319999991935e+000	 9.809394283531093e+000
0	 1.866659999993467e+000	 5.199979999988400e+000	 9.812575876271234e+000
0	 1.866659999993467e+000	 5.266639999985467e+000	 9.816702371825764e+000
0	 1.866659999993467e+000	 5.333299999983333e+000	 9.821755621046044e+000
0	 1.933329999996684e+000	 4.666700000016666e+000	 9.839023295375611e+000
0	 1.933329999996684e+000	 4.733360000014534e+000	 9.835501264004746e+000
0	 1.933329999996684e+000	 4.800020000011601e+000	 9.832842671709075e+000
0	 1.933329999996683e+000	 4.866680000008066e+000	 9.831020655353596e+000
0	 1.933329999996684e+000	 4.933340000004135e+000	 9.830008351803263e+000
0	 1.933329999996683e+000	 5.000000000000000e+000	 9.829778897923033e+000
0	 1.933329999996683e+000	 5.066659999995865e+000	 9.830305430577813e+000
0	 1.933329999996684e+000	 5.133319999991934e+000	 9.831561086632531e+000
0	 1.933329999996684e+000	 5.199979999988401e+000	 9.833519002952089e+000
0	 1.933329999996684e+000	 5.266639999985469e+000	 9.836152316401345e+000
0	 1.933329999996684e+000	 5.333299999983335e+000	 9.839434163845171e+000
0	 2.000000000000000e+000	 4.666700000016665e+000	 9.862967645425302e+000
0	 2.000000000000000e+000	 4.733360000014533e+000	 9.859725776665158e+000
0	 2.000000000000000e+000	 4.800020000011601e+000	 9.857104331115069e+000
0	 2.000000000000000e+000	 4.866680000008067e+000	 9.855084847507538e+000
0	 2.000000000000000e+000	 4.933340000004134e+000	 9.853648864575028e+000
0	 2.000000000000000e+000	 5.000000000000001e+000	 9.852777921050006e+000
0	 2.000000000000000e+000	 5.066659999995866e+000	 9.852453555664905e+000
0	 2.000000000000000e+000	 5.133319999991934e+000	 9.852657307152196e+000
0	 2.000000000000000e+000	 5.199979999988400e+000	 9.853370714244283e+000
0	 2.000000000000000e+000	 5.266639999985468e+000	 9.854575315673570e+000
0	 2.000000000000000e+000	 5.333299999983333e+000	 9.856252650172470e+000
0	 1.333299999983334e+000	 5.333299999983335e+000	 9.665838854821040e+000
0	 1.333299999983334e+000	 5.399969999982149e+000	 9.685018531689970e+000
0	 1.333299999983334e+000	 5.466639999981867e+000	 9.703513615923505e+000
0	 1.333299999983334e+000	 5.533309999982383e+000	 9.721000591398232e+000
0	 1.333299999983334e+000	 5.599979999983599e+000	 9.737155941990737e+000
0	 1.333299999983334e+000	 5.666649999985414e+000	 9.751656151577587e+000
0	 1.333299999983334e+000	 5.733319999987733e+000	 9.764177704035324e+000
0	 1.333299999983334e+000	 5.799989999990448e+000	 9.774397083240446e+000
0	 1.333299999983334e+000	 5.866659999993467e+000	 9.781990773069465e+000
0	 1.333299999983334e+000	 5.933329999996684e+000	 9.786635257398844e+000
0	 1.333299999983334e+000	 6.000000000000000e+000	 9.788007020105020e+000
0	 1.399969999982150e+000	 5.333299999983333e+000	 9.685455766648758e+000
0	 1.399969999982150e+000	 5.399969999982149e+000	 9.703617775661829e+000
0	 1.399969999982150e+000	 5.466639999981864e+000	 9.720842994437131e+000
0	 1.399969999982150e+000	 5.533309999982382e+000	 9.736887940945103e+000
0	 1.399969999982150e+000	 5.599979999983600e+000	 9.751509133156167e+000
0	 1.399969999982150e+000	 5.666649999985418e+000	 9.764463089040723e+000
0	 1.399969999982150e+000	 5.733319999987733e+000	 9.775506326569133e+000
0	 1.399969999982150e+000	 5.799989999990447e+000	 9.784395363711768e+000
0	 1.399969999982150e+000	 5.866659999993465e+000	 9.790886718438937e+000
0	 1.399969999982150e+000	 5.933329999996682e+000	 9.794736908720974e+000
0	 1.399969999982150e+000	 5.999999999999999e+000	 9.795702452528159e+000
0	 1.466639999981867e+000	 5.333299999983335e+000	 9.705310862614841e+000
0	 1.466639999981867e+000	 5.399969999982150e+000	 9.722103909625751e+000
0	 1.466639999981867e+000	 5.466639999981866e+000	 9.737813047223904e+000
0	 1.466639999981866e+000	 5.533309999982383e+000	 9.752264832878046e+000
0	 1.466639999981866e+000	 5.599979999983599e+000	 9.765285824056942e+000
0	 1.466639999981867e+000	 5.666649999985417e+000	 9.776702578229275e+000
0	 1.466639999981867e+000	 5.733319999987733e+000	 9.786341652863763e+000
0	 1.466639999981866e+000	 5.799989999990450e+000	 9.794029605429083e+000
0	 1.466639999981866e+000	 5.866659999993467e+000	 9.799592993393912e+000
0	 1.466639999981867e+000	 5.933329999996683e+000	 9.802858374226869e+000
0	 1.466639999981867e+000	 6.000000000000001e+000	 9.803652305396584e+000
0	 1.533309999982383e+000	 5.333299999983333e+000	 9.725266862643020e+000
0	 1.533309999982383e+000	 5.399969999982150e+000	 9.740412147580178e+000
0	 1.533309999982383e+000	 5.466639999981866e+000	 9.754418720017572e+000
0	 1.533309999982383e+000	 5.533309999982384e+000	 9.767173182326772e+000
0	 1.533309999982383e+000	 5.599979999983599e+000	 9.778562136879302e+000
0	 1.533309999982383e+000	 5.666649999985416e+000	 9.788472186046700e+000
0	 1.533309999982383e+000	 5.733319999987732e+000	 9.796789932200497e+000
0	 1.533309999982383e+000	 5.799989999990449e+000	 9.803401977712165e+000
0	 1.533309999982383e+000	 5.866659999993467e+000	 9.808194924953209e+000
0	 1.533309999982383e+000	 5.933329999996683e+000	 9.811055376295071e+000
0	 1.533309999982383e+000	 6.000000000000000e+000	 9.811869934109206e+000
0	 1.599979999983600e+000	 5.333299999983335e+000	 9.745186486657026e+000
0	 1.599979999983600e+000	 5.399969999982149e+000	 9.758477703523527e+000
0	 1.599979999983600e+000	 5.466639999981866e+000	 9.770654958551873e+000
0	 1.599979999983600e+000	 5.533309999982384e+000	 9.781654904420915e+000
0	 1.599979999983600e+000	 5.599979999983600e+000	 9.791414193809491e+000
0	 1.599979999983599e+000	 5.666649999985416e+000	 9.799869479396458e+000
0	 1.599979999983600e+000	 5.733319999987732e+000	 9.806957413860602e+000
0	 1.599979999983600e+000	 5.799989999990450e+000	 9.812614649880747e+000
0	 1.599979999983600e+000	 5.866659999993466e+000	 9.816777840135659e+000
0	 1.599979999983600e+000	 5.933329999996685e+000	 9.819383637304146e+000
0	 1.599979999983599e+000	 6.000000000000000e+000	 9.820368694064950e+000
0	 1.666649999985416e+000	 5.333299999983334e+000	 9.764932454580608e+000
0	 1.666649999985416e+000	 5.399969999982150e+000	 9.776235791454234e+000
0	 1.666649999985416e+000	 5.466639999981865e+000	 9.786516708560537e+000
0	 1.666649999985416e+000	 5.533309999982384e+000	 9.795751914290172e+000
0	 1.666649999985416e+000	 5.599979999983598e+000	 9.803918117033781e+000
0	 1.666649999985416e+000	 5.666649999985416e+000	 9.810992025181974e+000
0	 1.666649999985416e+000	 5.733319999987733e+000	 9.816950347125351e+000
0	 1.666649999985416e+000	 5.799989999990448e+000	 9.821769791254534e+000
0	 1.666649999985417e+000	 5.866659999993467e+000	 9.825427065960112e+000
0	 1.666649999985416e+000	 5.933329999996683e+000	 9.827898879632647e+000
0	 1.666649999985416e+000	 6.000000000000000e+000	 9.829161940662724e+000
0	 1.733319999987733e+000	 5.333299999983333e+000	 9.784367486337485e+000
0	 1.733319999987733e+000	 5.399969999982151e+000	 9.793621625370699e+000
0	 1.733319999987733e+000	 5.466639999981866e+000	 9.801998915777302e+000
0	 1.733319999987733e+000	 5.533309999982383e+000	 9.809506127064234e+000
0	 1.733319999987733e+000	 5.599979999983599e+000	 9.816150028738399e+000
0	 1.733319999987733e+000	 5.666649999985415e+000	 9.821937390306701e+000
0	 1.733319999987733e+000	 5.733319999987733e+000	 9.826874981276037e+000
0	 1.733319999987733e+000	 5.799989999990450e+000	 9.830969571153304e+000
0	 1.733319999987733e+000	 5.866659999993468e+000	 9.834227929445378e+000
0	 1.733319999987733e+000	 5.933329999996683e+000	 9.836656825659134e+000
0	 1.733319999987733e+000	 6.000000000000001e+000	 9.838263029301441e+000
0	 1.799989999990450e+000	 5.333299999983334e+000	 9.803354301851391e+000
0	 1.799989999990450e+000	 5.399969999982148e+000	 9.810570419271338e+000
0	 1.799989999990450e+000	 5.466639999981866e+000	 9.817096525935900e+000
0	 1.799989999990450e+000	 5.533309999982383e+000	 9.822959457872752e+000
0	 1.799989999990450e+000	 5.599979999983600e+000	 9.828186051109586e+000
0	 1.799989999990450e+000	 5.666649999985416e+000	 9.832803141674084e+000
0	 1.799989999990450e+000	 5.733319999987733e+000	 9.836837565593925e+000
0	 1.799989999990450e+000	 5.799989999990449e+000	 9.840316158896775e+000
0	 1.799989999990450e+000	 5.866659999993467e+000	 9.843265757610299e+000
0	 1.799989999990450e+000	 5.933329999996685e+000	 9.845713197762155e+000
0	 1.799989999990450e+000	 6.000000000000000e+000	 9.847685315380026e+000
0	 1.866659999993467e+000	 5.333299999983333e+000	 9.821755621046044e+000
0	 1.866659999993466e+000	 5.399969999982148e+000	 9.827017387154573e+000
0	 1.866659999993467e+000	 5.466639999981867e+000	 9.831804484770036e+000
0	 1.866659999993467e+000	 5.533309999982382e+000	 9.836153821845379e+000
0	 1.866659999993466e+000	 5.599979999983599e+000	 9.840102306333581e+000
0	 1.866659999993467e+000	 5.666649999985415e+000	 9.843686846187554e+000
0	 1.866659999993467e+000	 5.733319999987733e+000	 9.846944349360273e+000
0	 1.866659999993466e+000	 5.799989999990448e+000	 9.849911723804663e+000
0	 1.866659999993467e+000	 5.866659999993466e+000	 9.852625877473697e+000
0	 1.866659999993467e+000	 5.933329999996682e+000	 9.855123718320284e+000
0	 1.866659999993466e+000	 5.999999999999998e+000	 9.857442154297388e+000
0	 1.933329999996684e+000	 5.333299999983335e+000	 9.839434163845169e+000
0	 1.933329999996684e+000	 5.399969999982150e+000	 9.842897743018799e+000
0	 1.933329999996684e+000	 5.466639999981866e+000	 9.846117738013446e+000
0	 1.933329999996684e+000	 5.533309999982384e+000	 9.849131134111806e+000
0	 1.933329999996684e+000	 5.599979999983600e+000	 9.851974916596607e+000
0	 1.933329999996684e+000	 5.666649999985418e+000	 9.854686070750557e+000
0	 1.933329999996684e+000	 5.733319999987733e+000	 9.857301581856358e+000
0	 1.933329999996684e+000	 5.799989999990450e+000	 9.859858435196735e+000
0	 1.933329999996684e+000	 5.866659999993466e+000	 9.862393616054405e+000
0	 1.933329999996684e+000	 5.933329999996683e+000	 9.864944109712072e+000
0	 1.933329999996684e+000	 6.000000000000000e+000	 9.867546901452460e+000
0	 2.000000000000000e+000	 5.333299999983333e+000	 9.856252650172470e+000
0	 2.000000000000000e+000	 5.399969999982149e+000	 9.858146700862418e+000
0	 2.000000000000000e+000	 5.466639999981868e+000	 9.860031231399836e+000
0	 2.000000000000000e+000	 5.533309999982383e+000	 9.861933309801668e+000
0	 2.000000000000000e+000	 5.599979999983600e+000	 9.863880004084903e+000
0	 2.000000000000000e+000	 5.666649999985416e+000	 9.865898382266506e+000
0	 2.000000000000000e+000	 5.733319999987732e+000	 9.868015512363451e+000
0	 2.000000000000000e+000	 5.799989999990449e+000	 9.870258462392707e+000
0	 1.999999999999999e+000	 5.866659999993466e+000	 9.872654300371261e+000
0	 2.000000000000000e+000	 5.933329999996682e+000	 9.875230094316081e+000
0	 2.000000000000000e+000	 6.000000000000000e+000	 9.878012912244152e+000
0	 1.333299999983334e+000	 6.000000000000000e+000	 9.788007020105020e+000
0	 1.333299999983334e+000	 6.066670000003319e+000	 9.787818461108353e+000
0	 1.333299999983334e+000	 6.133340000006530e+000	 9.788100765558925e+000
0	 1.333299999983334e+000	 6.200010000009551e+000	 9.789008595177750e+000
0	 1.333299999983334e+000	 6.266680000012268e+000	 9.790696611685885e+000
0	 1.333299999983334e+000	 6.333350000014583e+000	 9.793319476804363e+000
0	 1.333299999983334e+000	 6.400020000016402e+000	 9.797031852254237e+000
0	 1.333299999983334e+000	 6.466690000017617e+000	 9.801988399756603e+000
0	 1.333299999983334e+000	 6.533360000018134e+000	 9.808343781032539e+000
0	 1.333299999983334e+000	 6.600030000017851e+000	 9.816252657803133e+000
0	 1.333299999983334e+000	 6.666700000016665e+000	 9.825869691789501e+000
0	 1.399969999982150e+000	 5.999999999999999e+000	 9.795702452528159e+000
0	 1.399969999982150e+000	 6.066670000003315e+000	 9.795405541694612e+000
0	 1.399969999982150e+000	 6.133340000006533e+000	 9.795707352702340e+000
0	 1.399969999982150e+000	 6.200010000009551e+000	 9.796722880493473e+000
0	 1.399969999982150e+000	 6.266680000012269e+000	 9.798567120010103e+000
0	 1.399969999982150e+000	 6.333350000014585e+000	 9.801355066194379e+000
0	 1.399969999982150e+000	 6.400020000016401e+000	 9.805201713988437e+000
0	 1.399969999982150e+000	 6.466690000017618e+000	 9.810222058334423e+000
0	 1.399969999982150e+000	 6.533360000018132e+000	 9.816531094174502e+000
0	 1.399969999982150e+000	 6.600030000017851e+000	 9.824243816450863e+000
0	 1.399969999982150e+000	 6.666700000016667e+000	 9.833475220105687e+000
0	 1.466639999981867e+000	 6.000000000000001e+000	 9.803652305396584e+000
0	 1.466639999981866e+000	 6.066670000003318e+000	 9.803458708484794e+000
0	 1.466639999981866e+000	 6.133340000006535e+000	 9.803930894454656e+000
0	 1.466639999981866e+000	 6.200010000009550e+000	 9.805149504846915e+000
0	 1.466639999981867e+000	 6.266680000012265e+000	 9.807195181202344e+000
0	 1.466639999981866e+000	 6.333350000014585e+000	 9.810148565061715e+000
0	 1.466639999981866e+000	 6.400020000016399e+000	 9.814090297965798e+000
0	 1.466639999981866e+000	 6.466690000017616e+000	 9.819101021455387e+000
0	 1.466639999981867e+000	 6.533360000018135e+000	 9.825261377071307e+000
0	 1.466639999981867e+000	 6.600030000017850e+000	 9.832652006354358e+000
0	 1.466639999981867e+000	 6.666700000016667e+000	 9.841353550845355e+000
0	 1.533309999982383e+000	 6.000000000000000e+000	 9.811869934109206e+000
0	 1.533309999982383e+000	 6.066670000003318e+000	 9.811946600097826e+000
0	 1.533309999982383e+000	 6.133340000006530e+000	 9.812703375393491e+000
0	 1.533309999982383e+000	 6.200010000009550e+000	 9.814191861513148e+000
0	 1.533309999982383e+000	 6.266680000012267e+000	 9.816463659973755e+000
0	 1.533309999982383e+000	 6.333350000014584e+000	 9.819570372292320e+000
0	 1.533309999982383e+000	 6.400020000016400e+000	 9.823563599985793e+000
0	 1.533309999982383e+000	 6.466690000017615e+000	 9.828494944571196e+000
0	 1.533309999982383e+000	 6.533360000018136e+000	 9.834416007565521e+000
0	 1.533309999982383e+000	 6.600030000017851e+000	 9.841378390485785e+000
0	 1.533309999982383e+000	 6.666700000016665e+000	 9.849433694848997e+000
0	 1.599979999983599e+000	 6.000000000000000e+000	 9.820368694064950e+000
0	 1.599979999983600e+000	 6.066670000003319e+000	 9.820837855152668e+000
0	 1.599979999983600e+000	 6.133340000006534e+000	 9.821956780096514e+000
0	 1.599979999983600e+000	 6.200010000009550e+000	 9.823753343767232e+000
0	 1.599979999983599e+000	 6.266680000012266e+000	 9.826255421035539e+000
0	 1.599979999983600e+000	 6.333350000014583e+000	 9.829490886772195e+000
0	 1.599979999983600e+000	 6.400020000016402e+000	 9.833487615847943e+000
0	 1.599979999983600e+000	 6.466690000017618e+000	 9.838273483133522e+000
0	 1.599979999983599e+000	 6.533360000018133e+000	 9.843876363499714e+000
0	 1.599979999983600e+000	 6.600030000017849e+000	 9.850324131817294e+000
0	 1.599979999983599e+000	 6.666700000016665e+000	 9.857644662957027e+000
0	 1.666649999985416e+000	 6.000000000000000e+000	 9.829161940662724e+000
0	 1.666649999985417e+000	 6.066670000003318e+000	 9.830101112268235e+000
0	 1.666649999985417e+000	 6.133340000006535e+000	 9.831623093141388e+000
0	 1.666649999985416e+000	 6.200010000009550e+000	 9.833737344884240e+000
0	 1.666649999985417e+000	 6.266680000012268e+000	 9.836453329098875e+000
0	 1.666649999985416e+000	 6.333350000014584e+000	 9.839780507387335e+000
0	 1.666649999985416e+000	 6.400020000016402e+000	 9.843728341351703e+000
0	 1.666649999985416e+000	 6.466690000017618e+000	 9.848306292594049e+000
0	 1.666649999985416e+000	 6.533360000018134e+000	 9.853523822716481e+000
0	 1.666649999985417e+000	 6.600030000017852e+000	 9.859390393321078e+000
0	 1.666649999985416e+000	 6.666700000016665e+000	 9.865915466009913e+000
0	 1.733319999987733e+000	 6.000000000000001e+000	 9.838263029301441e+000
0	 1.733319999987733e+000	 6.066670000003316e+000	 9.839705010063476e+000
0	 1.733319999987733e+000	 6.133340000006531e+000	 9.841634299105765e+000
0	 1.733319999987733e+000	 6.200010000009552e+000	 9.844047258139268e+000
0	 1.733319999987733e+000	 6.266680000012268e+000	 9.846940248874940e+000
0	 1.733319999987733e+000	 6.333350000014583e+000	 9.850309633023739e+000
0	 1.733319999987733e+000	 6.400020000016398e+000	 9.854151772296611e+000
0	 1.733319999987733e+000	 6.466690000017615e+000	 9.858463028404502e+000
0	 1.733319999987733e+000	 6.533360000018136e+000	 9.863239763058402e+000
0	 1.733319999987733e+000	 6.600030000017851e+000	 9.868478337969272e+000
0	 1.733319999987733e+000	 6.666700000016665e+000	 9.874175114848095e+000
0	 1.799989999990450e+000	 6.000000000000000e+000	 9.847685315380026e+000
0	 1.799989999990450e+000	 6.066670000003319e+000	 9.849618187157319e+000
0	 1.799989999990450e+000	 6.133340000006533e+000	 9.851922382567306e+000
0	 1.799989999990450e+000	 6.200010000009552e+000	 9.854586476807395e+000
0	 1.799989999990450e+000	 6.266680000012267e+000	 9.857599045074942e+000
0	 1.799989999990450e+000	 6.333350000014584e+000	 9.860948662567386e+000
0	 1.799989999990450e+000	 6.400020000016401e+000	 9.864623904482116e+000
0	 1.799989999990450e+000	 6.466690000017616e+000	 9.868613346016522e+000
0	 1.799989999990450e+000	 6.533360000018134e+000	 9.872905562368048e+000
0	 1.799989999990450e+000	 6.600030000017851e+000	 9.877489128734066e+000
0	 1.799989999990450e+000	 6.666700000016666e+000	 9.882352620312012e+000
0	 1.866659999993466e+000	 5.999999999999998e+000	 9.857442154297388e+000
0	 1.866659999993467e+000	 6.066670000003315e+000	 9.859809282168724e+000
0	 1.866659999993467e+000	 6.133340000006532e+000	 9.862419328103680e+000
0	 1.866659999993467e+000	 6.200010000009551e+000	 9.865258394163666e+000
0	 1.866659999993467e+000	 6.266680000012268e+000	 9.868312582410063e+000
0	 1.866659999993467e+000	 6.333350000014583e+000	 9.871567994904281e+000
0	 1.866659999993467e+000	 6.400020000016403e+000	 9.875010733707743e+000
0	 1.866659999993467e+000	 6.466690000017616e+000	 9.878626900881839e+000
0	 1.866659999993467e+000	 6.533360000018133e+000	 9.882402598487998e+000
0	 1.866659999993466e+000	 6.600030000017850e+000	 9.886323928587617e+000
0	 1.866659999993467e+000	 6.666700000016665e+000	 9.890376993242112e+000
0	 1.933329999996684e+000	 6.000000000000000e+000	 9.867546901452460e+000
0	 1.933329999996684e+000	 6.066670000003315e+000	 9.870246933716647e+000
0	 1.933329999996683e+000	 6.133340000006533e+000	 9.873057120292566e+000
0	 1.933329999996684e+000	 6.200010000009551e+000	 9.875966403483183e+000
0	 1.933329999996683e+000	 6.266680000012266e+000	 9.878963725591477e+000
0	 1.933329999996684e+000	 6.333350000014586e+000	 9.882038028920411e+000
0	 1.933329999996684e+000	 6.400020000016400e+000	 9.885178255772964e+000
0	 1.933329999996684e+000	 6.466690000017617e+000	 9.888373348452108e+000
0	 1.933329999996684e+000	 6.533360000018135e+000	 9.891612249260819e+000
0	 1.933329999996684e+000	 6.600030000017852e+000	 9.894883900502070e+000
0	 1.933329999996684e+000	 6.666700000016668e+000	 9.898177244478841e+000
0	 2.000000000000000e+000	 6.000000000000000e+000	 9.878012912244152e+000
0	 2.000000000000000e+000	 6.066670000003317e+000	 9.880899780420011e+000
0	 2.000000000000000e+000	 6.133340000006534e+000	 9.883767743711601e+000
0	 2.000000000000000e+000	 6.200010000009550e+000	 9.886613898041029e+000
0	 1.999999999999999e+000	 6.266680000012266e+000	 9.889435339330387e+000
0	 2.000000000000000e+000	 6.333350000014585e+000	 9.892229163501778e+000
0	 2.000000000000000e+000	 6.400020000016401e+000	 9.894992466477294e+000
0	 2.000000000000000e+000	 6.466690000017618e+000	 9.897722344179043e+000
0	 2.000000000000000e+000	 6.533360000018136e+000	 9.900415892529111e+000
0	 2.000000000000000e+000	 6.600030000017848e+000	 9.903070207449620e+000
0	 2.000000000000000e+000	 6.666700000016668e+000	 9.905682384862649e+000
0	 1.333299999983334e+000	 6.666700000016665e+000	 9.825869691789501e+000
0	 1.333299999983334e+000	 6.733360000014534e+000	 9.836133850423774e+000
0	 1.333299999983334e+000	 6.800020000011599e+000	 9.845841236966585e+000
0	 1.333299999983334e+000	 6.866680000008066e+000	 9.854927481918640e+000
0	 1.333299999983334e+000	 6.933340000004134e+000	 9.863328215780687e+000
0	 1.333299999983334e+000	 6.999999999999999e+000	 9.870979069053457e+000
0	 1.333299999983334e+000	 7.066659999995867e+000	 9.877815672237739e+000
0	 1.333299999983334e+000	 7.133319999991935e+000	 9.883773655834300e+000
0	 1.333299999983334e+000	 7.199979999988400e+000	 9.888788650343974e+000
0	 1.333299999983334e+000	 7.266639999985467e+000	 9.892796286267558e+000
0	 1.333299999983334e+000	 7.333299999983336e+000	 9.895732194105904e+000
0	 1.399969999982150e+000	 6.666700000016667e+000	 9.833475220105683e+000
0	 1.399969999982150e+000	 6.733360000014532e+000	 9.843222791016702e+000
0	 1.399969999982150e+000	 6.800020000011600e+000	 9.852380233281854e+000
0	 1.399969999982150e+000	 6.866680000008066e+000	 9.860902356315087e+000
0	 1.399969999982150e+000	 6.933340000004133e+000	 9.868743969530367e+000
0	 1.399969999982150e+000	 7.000000000000000e+000	 9.875859882341681e+000
0	 1.399969999982150e+000	 7.066659999995866e+000	 9.882204904162993e+000
0	 1.399969999982150e+000	 7.133319999991933e+000	 9.887733844408338e+000
0	 1.399969999982150e+000	 7.199979999988401e+000	 9.892401512491739e+000
0	 1.399969999982150e+000	 7.266639999985465e+000	 9.896162717827245e+000
0	 1.399969999982150e+000	 7.333299999983334e+000	 9.898972269828910e+000
0	 1.466639999981867e+000	 6.666700000016667e+000	 9.841353550845357e+000
0	 1.466639999981866e+000	 6.733360000014534e+000	 9.850450339028592e+000
0	 1.466639999981867e+000	 6.800020000011599e+000	 9.858956597070623e+000
0	 1.466639999981866e+000	 6.866680000008066e+000	 9.866843590499716e+000
0	 1.466639999981866e+000	 6.933340000004134e+000	 9.874082584844155e+000
0	 1.466639999981866e+000	 6.999999999999999e+000	 9.880644845632228e+000
0	 1.466639999981866e+000	 7.066659999995866e+000	 9.886501638392243e+000
0	 1.466639999981866e+000	 7.133319999991934e+000	 9.891624228652509e+000
0	 1.466639999981866e+000	 7.199979999988401e+000	 9.895983881941362e+000
0	 1.466639999981867e+000	 7.266639999985466e+000	 9.899551863787165e+000
0	 1.466639999981867e+000	 7.333299999983336e+000	 9.902299439718275e+000
0	 1.533309999982383e+000	 6.666700000016665e+000	 9.849433694848997e+000
0	 1.533309999982383e+000	 6.733360000014534e+000	 9.857774996173147e+000
0	 1.533309999982383e+000	 6.800020000011601e+000	 9.865553553754342e+000
0	 1.533309999982383e+000	 6.866680000008064e+000	 9.872754366436279e+000
0	 1.533309999982383e+000	 6.933340000004133e+000	 9.879362433062603e+000
0	 1.533309999982383e+000	 7.000000000000001e+000	 9.885362752477009e+000
0	 1.533309999982383e+000	 7.066659999995868e+000	 9.890740323523207e+000
0	 1.533309999982383e+000	 7.133319999991935e+000	 9.895480145044918e+000
0	 1.533309999982383e+000	 7.199979999988402e+000	 9.899567215885845e+000
0	 1.533309999982383e+000	 7.266639999985466e+000	 9.902986534889751e+000
0	 1.533309999982383e+000	 7.333299999983335e+000	 9.905723100900381e+000
0	 1.599979999983599e+000	 6.666700000016665e+000	 9.857644662957027e+000
0	 1.599979999983600e+000	 6.733360000014532e+000	 9.865155264164054e+000
0	 1.599979999983600e+000	 6.800020000011601e+000	 9.872154328754490e+000
0	 1.599979999983599e+000	 6.866680000008064e+000	 9.878637866088507e+000
0	 1.599979999983600e+000	 6.933340000004133e+000	 9.884601885526253e+000
0	 1.599979999983600e+000	 7.000000000000000e+000	 9.890042396427910e+000
0	 1.599979999983599e+000	 7.066659999995867e+000	 9.894955408153658e+000
0	 1.599979999983599e+000	 7.133319999991931e+000	 9.899336930063695e+000
0	 1.599979999983600e+000	 7.199979999988400e+000	 9.903182971518227e+000
0	 1.599979999983600e+000	 7.266639999985469e+000	 9.906489541877459e+000
0	 1.599979999983600e+000	 7.333299999983336e+000	 9.909252650501639e+000
0	 1.666649999985416e+000	 6.666700000016665e+000	 9.865915466009913e+000
0	 1.666649999985416e+000	 6.733360000014533e+000	 9.872549644715004e+000
0	 1.666649999985416e+000	 6.800020000011599e+000	 9.878742147492513e+000
0	 1.666649999985416e+000	 6.866680000008067e+000	 9.884497271420162e+000
0	 1.666649999985416e+000	 6.933340000004131e+000	 9.889819313575668e+000
0	 1.666649999985417e+000	 6.999999999999999e+000	 9.894712571036802e+000
0	 1.666649999985416e+000	 7.066659999995867e+000	 9.899181340881318e+000
0	 1.666649999985416e+000	 7.133319999991934e+000	 9.903229920186947e+000
0	 1.666649999985417e+000	 7.199979999988401e+000	 9.906862606031490e+000
0	 1.666649999985416e+000	 7.266639999985467e+000	 9.910083695492700e+000
0	 1.666649999985416e+000	 7.333299999983333e+000	 9.912897485648369e+000
0	 1.733319999987733e+000	 6.666700000016665e+000	 9.874175114848095e+000
0	 1.733319999987733e+000	 6.733360000014534e+000	 9.879916639539701e+000
0	 1.733319999987733e+000	 6.800020000011600e+000	 9.885300235389861e+000
0	 1.733319999987733e+000	 6.866680000008067e+000	 9.890335764394969e+000
0	 1.733319999987733e+000	 6.933340000004132e+000	 9.895033088551420e+000
0	 1.733319999987733e+000	 6.999999999999998e+000	 9.899402069855602e+000
0	 1.733319999987733e+000	 7.066659999995868e+000	 9.903452570303926e+000
0	 1.733319999987733e+000	 7.133319999991935e+000	 9.907194451892813e+000
0	 1.733319999987733e+000	 7.199979999988400e+000	 9.910637576618663e+000
0	 1.733319999987733e+000	 7.266639999985467e+000	 9.913791806477923e+000
0	 1.733319999987733e+000	 7.333299999983335e+000	 9.916667003467010e+000
0	 1.799989999990450e+000	 6.666700000016666e+000	 9.882352620312016e+000
0	 1.799989999990450e+000	 6.733360000014534e+000	 9.887214750351822e+000
0	 1.799989999990450e+000	 6.800020000011600e+000	 9.891811817867998e+000
0	 1.799989999990450e+000	 6.866680000008068e+000	 9.896156526976686e+000
0	 1.799989999990450e+000	 6.933340000004134e+000	 9.900261581794030e+000
0	 1.799989999990450e+000	 7.000000000000001e+000	 9.904139686436166e+000
0	 1.799989999990450e+000	 7.066659999995868e+000	 9.907803545019236e+000
0	 1.799989999990450e+000	 7.133319999991935e+000	 9.911265861659389e+000
0	 1.799989999990450e+000	 7.199979999988400e+000	 9.914539340472778e+000
0	 1.799989999990450e+000	 7.266639999985467e+000	 9.917636685575566e+000
0	 1.799989999990450e+000	 7.333299999983335e+000	 9.920570601083901e+000
0	 1.866659999993467e+000	 6.666700000016665e+000	 9.890376993242112e+000
0	 1.866659999993467e+000	 6.733360000014532e+000	 9.894402478865045e+000
0	 1.866659999993467e+000	 6.800020000011601e+000	 9.898260120348368e+000
0	 1.866659999993467e+000	 6.866680000008066e+000	 9.901962741129063e+000
0	 1.866659999993467e+000	 6.933340000004133e+000	 9.905523164644078e+000
0	 1.866659999993467e+000	 6.999999999999998e+000	 9.908954214330400e+000
0	 1.866659999993467e+000	 7.066659999995866e+000	 9.912268713624979e+000
0	 1.866659999993467e+000	 7.133319999991935e+000	 9.915479485964799e+000
0	 1.866659999993467e+000	 7.199979999988400e+000	 9.918599354786830e+000
0	 1.866659999993467e+000	 7.266639999985466e+000	 9.921641143528039e+000
0	 1.866659999993467e+000	 7.333299999983333e+000	 9.924617675625441e+000
0	 1.933329999996684e+000	 6.666700000016668e+000	 9.898177244478843e+000
0	 1.933329999996683e+000	 6.733360000014531e+000	 9.901438326793073e+000
0	 1.933329999996684e+000	 6.800020000011601e+000	 9.904628368252427e+000
0	 1.933329999996684e+000	 6.866680000008067e+000	 9.907757588815816e+000
0	 1.933329999996684e+000	 6.933340000004133e+000	 9.910836208442102e+000
0	 1.933329999996684e+000	 7.000000000000000e+000	 9.913874447090162e+000
0	 1.933329999996683e+000	 7.066659999995864e+000	 9.916882524718897e+000
0	 1.933329999996684e+000	 7.133319999991936e+000	 9.919870661287160e+000
0	 1.933329999996684e+000	 7.199979999988401e+000	 9.922849076753844e+000
0	 1.933329999996684e+000	 7.266639999985467e+000	 9.925827991077828e+000
0	 1.933329999996684e+000	 7.333299999983332e+000	 9.928817624217993e+000
0	 2.000000000000000e+000	 6.666700000016668e+000	 9.905682384862647e+000
0	 2.000000000000000e+000	 6.733360000014532e+000	 9.908280795849576e+000
0	 2.000000000000000e+000	 6.800020000011601e+000	 9.910899787001636e+000
0	 2.000000000000000e+000	 6.866680000008068e+000	 9.913544252000701e+000
0	 2.000000000000000e+000	 6.933340000004133e+000	 9.916219084528652e+000
0	 2.000000000000000e+000	 6.999999999999999e+000	 9.918929178267366e+000
0	 2.000000000000000e+000	 7.066659999995867e+000	 9.921679426898715e+000
0	 2.000000000000000e+000	 7.133319999991933e+000	 9.924474724104574e+000
0	 2.000000000000000e+000	 7.199979999988401e+000	 9.927319963566823e+000
0	 2.000000000000000e+000	 7.266639999985467e+000	 9.930220038967319e+000
0	 2.000000000000000e+000	 7.333299999983335e+000	 9.933179843987949e+000
0	 1.333299999983334e+000	 7.333299999983336e+000	 9.895732194105902e+000
0	 1.333299999983334e+000	 7.399969999982149e+000	 9.898187995012382e+000
0	 1.333299999983334e+000	 7.466639999981866e+000	 9.900816906049382e+000
0	 1.333299999983334e+000	 7.533309999982384e+000	 9.903648022052680e+000
0	 1.333299999983334e+000	 7.599979999983600e+000	 9.906710437858017e+000
0	 1.333299999983334e+000	 7.666649999985415e+000	 9.910033248301176e+000
0	 1.333299999983334e+000	 7.733319999987733e+000	 9.913645548217893e+000
0	 1.333299999983334e+000	 7.799989999990449e+000	 9.917576432443953e+000
0	 1.333299999983334e+000	 7.866659999993466e+000	 9.921854995815099e+000
0	 1.333299999983334e+000	 7.933329999996683e+000	 9.926510333167137e+000
0	 1.333299999983334e+000	 8.000000000000000e+000	 9.931571539335799e+000
0	 1.399969999982150e+000	 7.333299999983334e+000	 9.898972269828906e+000
0	 1.399969999982150e+000	 7.399969999982150e+000	 9.901379885510862e+000
0	 1.399969999982150e+000	 7.466639999981867e+000	 9.903978449983756e+000
0	 1.399969999982150e+000	 7.533309999982385e+000	 9.906788568308647e+000
0	 1.399969999982150e+000	 7.599979999983598e+000	 9.909830845546557e+000
0	 1.399969999982150e+000	 7.666649999985416e+000	 9.913125886758557e+000
0	 1.399969999982150e+000	 7.733319999987733e+000	 9.916694297005636e+000
0	 1.399969999982150e+000	 7.799989999990451e+000	 9.920556681348895e+000
0	 1.399969999982150e+000	 7.866659999993467e+000	 9.924733644849367e+000
0	 1.399969999982150e+000	 7.933329999996682e+000	 9.929245792568082e+000
0	 1.399969999982150e+000	 7.999999999999999e+000	 9.934113729566116e+000
0	 1.466639999981867e+000	 7.333299999983336e+000	 9.902299439718279e+000
0	 1.466639999981866e+000	 7.399969999982151e+000	 9.904719310690648e+000
0	 1.466639999981867e+000	 7.466639999981866e+000	 9.907331592006196e+000
0	 1.466639999981866e+000	 7.533309999982383e+000	 9.910149718324712e+000
0	 1.466639999981866e+000	 7.599979999983600e+000	 9.913187124305940e+000
0	 1.466639999981866e+000	 7.666649999985419e+000	 9.916457244609669e+000
0	 1.466639999981866e+000	 7.733319999987731e+000	 9.919973513895677e+000
0	 1.466639999981867e+000	 7.799989999990449e+000	 9.923749366823731e+000
0	 1.466639999981866e+000	 7.866659999993466e+000	 9.927798238053621e+000
0	 1.466639999981867e+000	 7.933329999996684e+000	 9.932133562245115e+000
0	 1.466639999981866e+000	 8.000000000000000e+000	 9.936768774058001e+000
0	 1.533309999982383e+000	 7.333299999983335e+000	 9.905723100900381e+000
0	 1.533309999982383e+000	 7.399969999982148e+000	 9.908201114395340e+000
0	 1.533309999982383e+000	 7.466639999981864e+000	 9.910859115249208e+000
0	 1.533309999982383e+000	 7.533309999982384e+000	 9.913704687093951e+000
0	 1.533309999982383e+000	 7.599979999983599e+000	 9.916745413561516e+000
0	 1.533309999982383e+000	 7.666649999985414e+000	 9.919988878283846e+000
0	 1.533309999982383e+000	 7.733319999987733e+000	 9.923442664892905e+000
0	 1.533309999982383e+000	 7.799989999990449e+000	 9.927114357020665e+000
0	 1.533309999982383e+000	 7.866659999993468e+000	 9.931011538299060e+000
0	 1.533309999982383e+000	 7.933329999996682e+000	 9.935141792360053e+000
0	 1.533309999982383e+000	 8.000000000000000e+000	 9.939512702835611e+000
0	 1.599979999983600e+000	 7.333299999983336e+000	 9.909252650501639e+000
0	 1.599979999983600e+000	 7.399969999982152e+000	 9.911820140468553e+000
0	 1.599979999983600e+000	 7.466639999981867e+000	 9.914543802845307e+000
0	 1.599979999983600e+000	 7.533309999982383e+000	 9.917426689609474e+000
0	 1.599979999983600e+000	 7.599979999983600e+000	 9.920471852738634e+000
0	 1.599979999983599e+000	 7.666649999985414e+000	 9.923682344210359e+000
0	 1.599979999983600e+000	 7.733319999987733e+000	 9.927061216002240e+000
0	 1.599979999983600e+000	 7.799989999990450e+000	 9.930611520091864e+000
0	 1.599979999983600e+000	 7.866659999993468e+000	 9.934336308456812e+000
0	 1.599979999983600e+000	 7.933329999996683e+000	 9.938238633074676e+000
0	 1.599979999983600e+000	 8.000000000000000e+000	 9.942321545923043e+000
0	 1.666649999985416e+000	 7.333299999983333e+000	 9.912897485648369e+000
0	 1.666649999985416e+000	 7.399969999982151e+000	 9.915571232753894e+000
0	 1.666649999985416e+000	 7.466639999981865e+000	 9.918368437927009e+000
0	 1.666649999985416e+000	 7.533309999982385e+000	 9.921288940864379e+000
0	 1.666649999985417e+000	 7.599979999983598e+000	 9.924332581262641e+000
0	 1.666649999985416e+000	 7.666649999985418e+000	 9.927499198818477e+000
0	 1.666649999985417e+000	 7.733319999987733e+000	 9.930788633228570e+000
0	 1.666649999985416e+000	 7.799989999990450e+000	 9.934200724189546e+000
0	 1.666649999985416e+000	 7.866659999993466e+000	 9.937735311398068e+000
0	 1.666649999985417e+000	 7.933329999996684e+000	 9.941392234550820e+000
0	 1.666649999985416e+000	 8.000000000000000e+000	 9.945171333344453e+000
0	 1.733319999987733e+000	 7.333299999983335e+000	 9.916667003467010e+000
0	 1.733319999987733e+000	 7.399969999982150e+000	 9.919449235094957e+000
0	 1.733319999987733e+000	 7.466639999981866e+000	 9.922315803626807e+000
0	 1.733319999987733e+000	 7.533309999982383e+000	 9.925264655851722e+000
0	 1.733319999987733e+000	 7.599979999983598e+000	 9.928293738558908e+000
0	 1.733319999987733e+000	 7.666649999985417e+000	 9.931400998537542e+000
0	 1.733319999987733e+000	 7.733319999987733e+000	 9.934584382576800e+000
0	 1.733319999987733e+000	 7.799989999990450e+000	 9.937841837465893e+000
0	 1.733319999987733e+000	 7.866659999993465e+000	 9.941171309993981e+000
0	 1.733319999987733e+000	 7.933329999996684e+000	 9.944570746950287e+000
0	 1.733319999987733e+000	 7.999999999999999e+000	 9.948038095123971e+000
0	 1.799989999990450e+000	 7.333299999983335e+000	 9.920570601083897e+000
0	 1.799989999990450e+000	 7.399969999982150e+000	 9.923448991335370e+000
0	 1.799989999990450e+000	 7.466639999981866e+000	 9.926368683077230e+000
0	 1.799989999990450e+000	 7.533309999982384e+000	 9.929327049564641e+000
0	 1.799989999990450e+000	 7.599979999983599e+000	 9.932321464052778e+000
0	 1.799989999990450e+000	 7.666649999985416e+000	 9.935349299796791e+000
0	 1.799989999990450e+000	 7.733319999987732e+000	 9.938407930051850e+000
0	 1.799989999990450e+000	 7.799989999990450e+000	 9.941494728073113e+000
0	 1.799989999990450e+000	 7.866659999993468e+000	 9.944607067115729e+000
0	 1.799989999990450e+000	 7.933329999996683e+000	 9.947742320434877e+000
0	 1.799989999990450e+000	 8.000000000000002e+000	 9.950897861285730e+000
0	 1.866659999993467e+000	 7.333299999983333e+000	 9.924617675625441e+000
0	 1.866659999993467e+000	 7.399969999982151e+000	 9.927565345318717e+000
0	 1.866659999993467e+000	 7.466639999981866e+000	 9.930509859410785e+000
0	 1.866659999993467e+000	 7.533309999982383e+000	 9.933449336996219e+000
0	 1.866659999993466e+000	 7.599979999983599e+000	 9.936381897169598e+000
0	 1.866659999993467e+000	 7.666649999985416e+000	 9.939305659025541e+000
0	 1.866659999993467e+000	 7.733319999987733e+000	 9.942218741658598e+000
0	 1.866659999993466e+000	 7.799989999990448e+000	 9.945119264163381e+000
0	 1.866659999993467e+000	 7.866659999993466e+000	 9.948005345634451e+000
0	 1.866659999993467e+000	 7.933329999996684e+000	 9.950875105166414e+000
0	 1.866659999993467e+000	 7.999999999999998e+000	 9.953726661853841e+000
0	 1.933329999996684e+000	 7.333299999983332e+000	 9.928817624217993e+000
0	 1.933329999996684e+000	 7.399969999982151e+000	 9.931793140888614e+000
0	 1.933329999996684e+000	 7.466639999981867e+000	 9.934722115759977e+000
0	 1.933329999996684e+000	 7.533309999982384e+000	 9.937604733139528e+000
0	 1.933329999996684e+000	 7.599979999983602e+000	 9.940441177334741e+000
0	 1.933329999996684e+000	 7.666649999985416e+000	 9.943231632653077e+000
0	 1.933329999996684e+000	 7.733319999987734e+000	 9.945976283401979e+000
0	 1.933329999996684e+000	 7.799989999990451e+000	 9.948675313888911e+000
0	 1.933329999996684e+000	 7.866659999993467e+000	 9.951328908421335e+000
0	 1.933329999996684e+000	 7.933329999996685e+000	 9.953937251306698e+000
0	 1.933329999996683e+000	 8.000000000000000e+000	 9.956500526852452e+000
0	 2.000000000000000e+000	 7.333299999983335e+000	 9.933179843987945e+000
0	 2.000000000000000e+000	 7.399969999982151e+000	 9.936127221888667e+000
0	 2.000000000000000e+000	 7.466639999981867e+000	 9.938988235257316e+000
0	 2.000000000000000e+000	 7.533309999982384e+000	 9.941766452987684e+000
0	 2.000000000000000e+000	 7.599979999983599e+000	 9.944465443973543e+000
0	 2.000000000000000e+000	 7.666649999985416e+000	 9.947088777108684e+000
0	 2.000000000000000e+000	 7.733319999987733e+000	 9.949640021286871e+000
0	 2.000000000000000e+000	 7.799989999990449e+000	 9.952122745401885e+000
0	 2.000000000000000e+000	 7.866659999993466e+000	 9.954540518347510e+000
0	 2.000000000000000e+000	 7.933329999996684e+000	 9.956896909017511e+000
0	 2.000000000000000e+000	 7.999999999999999e+000	 9.959195486305680e+000
0	 1.333299999983334e+000	 8.000000000000000e+000	 9.931571539335799e+000
0	 1.333299999983334e+000	 8.066670000003317e+000	 9.936709350760284e+000
0	 1.333299999983334e+000	 8.133340000006532e+000	 9.941570465064562e+000
0	 1.333299999983334e+000	 8.200010000009550e+000	 9.946147918861724e+000
0	 1.333299999983334e+000	 8.266680000012268e+000	 9.950434748764847e+000
0	 1.333299999983334e+000	 8.333350000014587e+000	 9.954423991386955e+000
0	 1.333299999983334e+000	 8.400020000016399e+000	 9.958108683341138e+000
0	 1.333299999983334e+000	 8.466690000017618e+000	 9.961481861240419e+000
0	 1.333299999983334e+000	 8.533360000018135e+000	 9.964536561697869e+000
0	 1.333299999983334e+000	 8.600030000017851e+000	 9.967265821326523e+000
0	 1.333299999983334e+000	 8.666700000016666e+000	 9.969662676739411e+000
0	 1.399969999982150e+000	 7.999999999999999e+000	 9.934113729566116e+000
0	 1.399969999982150e+000	 8.066670000003315e+000	 9.939030362169788e+000
0	 1.399969999982150e+000	 8.133340000006530e+000	 9.943672697263269e+000
0	 1.399969999982150e+000	 8.200010000009547e+000	 9.948037490744365e+000
0	 1.399969999982150e+000	 8.266680000012268e+000	 9.952121498510868e+000
0	 1.399969999982150e+000	 8.333350000014583e+000	 9.955921476460581e+000
0	 1.399969999982150e+000	 8.400020000016399e+000	 9.959434180491309e+000
0	 1.399969999982150e+000	 8.466690000017616e+000	 9.962656366500823e+000
0	 1.399969999982150e+000	 8.533360000018131e+000	 9.965584790386933e+000
0	 1.399969999982150e+000	 8.600030000017849e+000	 9.968216208047386e+000
0	 1.399969999982150e+000	 8.666700000016668e+000	 9.970547375380006e+000
0	 1.466639999981866e+000	 8.000000000000000e+000	 9.936768774058001e+000
0	 1.466639999981866e+000	 8.066670000003317e+000	 9.941426624963413e+000
0	 1.466639999981866e+000	 8.133340000006534e+000	 9.945820798140398e+000
0	 1.466639999981867e+000	 8.200010000009552e+000	 9.949951125810740e+000
0	 1.466639999981867e+000	 8.266680000012267e+000	 9.953817440196161e+000
0	 1.466639999981866e+000	 8.333350000014585e+000	 9.957419573518394e+000
0	 1.466639999981866e+000	 8.400020000016401e+000	 9.960757357999166e+000
0	 1.466639999981866e+000	 8.466690000017618e+000	 9.963830625860197e+000
0	 1.466639999981867e+000	 8.533360000018135e+000	 9.966639209323240e+000
0	 1.466639999981866e+000	 8.600030000017849e+000	 9.969182940609997e+000
0	 1.466639999981866e+000	 8.666700000016666e+000	 9.971461651942164e+000
0	 1.533309999982383e+000	 8.000000000000000e+000	 9.939512702835611e+000
0	 1.533309999982383e+000	 8.066670000003315e+000	 9.943882636693509e+000
0	 1.533309999982383e+000	 8.133340000006529e+000	 9.948006415536810e+000
0	 1.533309999982383e+000	 8.200010000009552e+000	 9.951886304950410e+000
0	 1.533309999982383e+000	 8.266680000012267e+000	 9.955524570519152e+000
0	 1.533309999982383e+000	 8.333350000014583e+000	 9.958923477827911e+000
0	 1.533309999982383e+000	 8.400020000016401e+000	 9.962085292461550e+000
0	 1.533309999982383e+000	 8.466690000017614e+000	 9.965012280004920e+000
0	 1.533309999982383e+000	 8.533360000018135e+000	 9.967706706042891e+000
0	 1.533309999982383e+000	 8.600030000017849e+000	 9.970170836160284e+000
0	 1.533309999982383e+000	 8.666700000016666e+000	 9.972406935942006e+000
0	 1.599979999983600e+000	 8.000000000000000e+000	 9.942321545923043e+000
0	 1.599979999983600e+000	 8.066670000003319e+000	 9.946382894912507e+000
0	 1.599979999983600e+000	 8.133340000006534e+000	 9.950221197293391e+000
0	 1.599979999983599e+000	 8.200010000009550e+000	 9.953840509052933e+000
0	 1.599979999983600e+000	 8.266680000012267e+000	 9.957244886178291e+000
0	 1.599979999983600e+000	 8.333350000014585e+000	 9.960438384656673e+000
0	 1.599979999983600e+000	 8.400020000016401e+000	 9.963425060475275e+000
0	 1.599979999983600e+000	 8.466690000017616e+000	 9.966208969621293e+000
0	 1.599979999983599e+000	 8.533360000018133e+000	 9.968794168081901e+000
0	 1.599979999983600e+000	 8.600030000017853e+000	 9.971184711844295e+000
0	 1.599979999983600e+000	 8.666700000016668e+000	 9.973384656895661e+000
0	 1.666649999985416e+000	 8.000000000000000e+000	 9.945171333344453e+000
0	 1.666649999985417e+000	 8.066670000003317e+000	 9.948911897172797e+000
0	 1.666649999985417e+000	 8.133340000006534e+000	 9.952456791251001e+000
0	 1.666649999985416e+000	 8.200010000009549e+000	 9.955811219007831e+000
0	 1.666649999985417e+000	 8.266680000012268e+000	 9.958980383871985e+000
0	 1.666649999985416e+000	 8.333350000014587e+000	 9.961969489272198e+000
0	 1.666649999985416e+000	 8.400020000016403e+000	 9.964783738637202e+000
0	 1.666649999985416e+000	 8.466690000017614e+000	 9.967428335395676e+000
0	 1.666649999985416e+000	 8.533360000018133e+000	 9.969908482976370e+000
0	 1.666649999985416e+000	 8.600030000017849e+000	 9.972229384807974e+000
0	 1.666649999985417e+000	 8.666700000016666e+000	 9.974396244319209e+000
0	 1.733319999987733e+000	 7.999999999999999e+000	 9.948038095123971e+000
0	 1.733319999987733e+000	 8.066670000003317e+000	 9.951454141026749e+000
0	 1.733319999987733e+000	 8.133340000006534e+000	 9.954704845250502e+000
0	 1.733319999987733e+000	 8.200010000009554e+000	 9.957795915704663e+000
0	 1.733319999987733e+000	 8.266680000012268e+000	 9.960733060298695e+000
0	 1.733319999987733e+000	 8.333350000014583e+000	 9.963521986942027e+000
0	 1.733319999987733e+000	 8.400020000016401e+000	 9.966168403544112e+000
0	 1.733319999987733e+000	 8.466690000017618e+000	 9.968678018014415e+000
0	 1.733319999987733e+000	 8.533360000018135e+000	 9.971056538262323e+000
0	 1.733319999987733e+000	 8.600030000017851e+000	 9.973309672197321e+000
0	 1.733319999987733e+000	 8.666700000016668e+000	 9.975443127728831e+000
0	 1.799989999990450e+000	 8.000000000000002e+000	 9.950897861285730e+000
0	 1.799989999990450e+000	 8.066670000003319e+000	 9.953994124026790e+000
0	 1.799989999990450e+000	 8.133340000006534e+000	 9.956957007132759e+000
0	 1.799989999990450e+000	 8.200010000009554e+000	 9.959792080032971e+000
0	 1.799989999990450e+000	 8.266680000012265e+000	 9.962504912156829e+000
0	 1.799989999990450e+000	 8.333350000014585e+000	 9.965101072933679e+000
0	 1.799989999990450e+000	 8.400020000016399e+000	 9.967586131792885e+000
0	 1.799989999990450e+000	 8.466690000017616e+000	 9.969965658163817e+000
0	 1.799989999990450e+000	 8.533360000018133e+000	 9.972245221475836e+000
0	 1.799989999990450e+000	 8.600030000017851e+000	 9.974430391158318e+000
0	 1.799989999990450e+000	 8.666700000016666e+000	 9.976526736640594e+000
0	 1.866659999993467e+000	 7.999999999999998e+000	 9.953726661853841e+000
0	 1.866659999993467e+000	 8.066670000003315e+000	 9.956516343725298e+000
0	 1.866659999993467e+000	 8.133340000006532e+000	 9.959204924738632e+000
0	 1.866659999993467e+000	 8.200010000009552e+000	 9.961797192882310e+000
0	 1.866659999993467e+000	 8.266680000012267e+000	 9.964297936144831e+000
0	 1.866659999993467e+000	 8.333350000014582e+000	 9.966711942514685e+000
0	 1.866659999993467e+000	 8.400020000016401e+000	 9.969043999980327e+000
0	 1.866659999993467e+000	 8.466690000017618e+000	 9.971298896530268e+000
0	 1.866659999993467e+000	 8.533360000018137e+000	 9.973481420152972e+000
0	 1.866659999993467e+000	 8.600030000017849e+000	 9.975596358836924e+000
0	 1.866659999993466e+000	 8.666700000016663e+000	 9.977648500570611e+000
0	 1.933329999996683e+000	 8.000000000000000e+000	 9.956500526852452e+000
0	 1.933329999996684e+000	 8.066670000003313e+000	 9.959005297674677e+000
0	 1.933329999996683e+000	 8.133340000006534e+000	 9.961440245909000e+000
0	 1.933329999996684e+000	 8.200010000009552e+000	 9.963808735142214e+000
0	 1.933329999996683e+000	 8.266680000012267e+000	 9.966114128961138e+000
0	 1.933329999996684e+000	 8.333350000014585e+000	 9.968359790952556e+000
0	 1.933329999996684e+000	 8.400020000016401e+000	 9.970549084703261e+000
0	 1.933329999996684e+000	 8.466690000017614e+000	 9.972685373800076e+000
0	 1.933329999996684e+000	 8.533360000018135e+000	 9.974772021829768e+000
0	 1.933329999996683e+000	 8.600030000017849e+000	 9.976812392379161e+000
0	 1.933329999996684e+000	 8.666700000016666e+000	 9.978809849035043e+000
0	 2.000000000000000e+000	 7.999999999999999e+000	 9.959195486305680e+000
0	 2.000000000000000e+000	 8.066670000003319e+000	 9.961445483427308e+000
0	 2.000000000000000e+000	 8.133340000006534e+000	 9.963654618484719e+000
0	 2.000000000000000e+000	 8.200010000009549e+000	 9.965824187702237e+000
0	 2.000000000000000e+000	 8.266680000012267e+000	 9.967955487304170e+000
0	 2.000000000000000e+000	 8.333350000014585e+000	 9.970049813514828e+000
0	 1.999999999999999e+000	 8.400020000016397e+000	 9.972108462558529e+000
0	 2.000000000000000e+000	 8.466690000017618e+000	 9.974132730659582e+000
0	 2.000000000000000e+000	 8.533360000018131e+000	 9.976123914042292e+000
0	 2.000000000000000e+000	 8.600030000017851e+000	 9.978083308930996e+000
0	 2.000000000000000e+000	 8.666700000016666e+000	 9.980012211549962e+000
0	 1.333299999983334e+000	 8.666700000016666e+000	 9.969662676739407e+000
0	 1.333299999983334e+000	 8.733360002791903e+000	 9.971866729581926e+000
0	 1.333299999983334e+000	 8.800020022230553e+000	 9.974028695304897e+000
0	 1.333299999983334e+000	 8.866680074997040e+000	 9.976157278692444e+000
0	 1.333299999983334e+000	 8.933340177755781e+000	 9.978261184745145e+000
0	 1.333299999983334e+000	 9.000000347171181e+000	 9.980349118679909e+000
0	 1.333299999983334e+000	 9.066660599907669e+000	 9.982429785930025e+000
0	 1.333299999983334e+000	 9.133320952629656e+000	 9.984511892145124e+000
0	 1.333299999983334e+000	 9.199981422001560e+000	 9.986604143191272e+000
0	 1.333299999983334e+000	 9.266642024687796e+000	 9.988715245150823e+000
0	 1.333299999983334e+000	 9.333302777352785e+000	 9.990853904322542e+000
0	 1.399969999982150e+000	 8.666700000016668e+000	 9.970547375380003e+000
0	 1.399969999982150e+000	 8.733360002791905e+000	 9.972705218597607e+000
0	 1.399969999982150e+000	 8.800020022230555e+000	 9.974824027181230e+000
0	 1.399969999982150e+000	 8.866680074997044e+000	 9.976910621162716e+000
0	 1.399969999982150e+000	 8.933340177755778e+000	 9.978971820794085e+000
0	 1.399969999982150e+000	 9.000000347171181e+000	 9.981014446547469e+000
0	 1.399969999982150e+000	 9.066660599907667e+000	 9.983045319115206e+000
0	 1.399969999982150e+000	 9.133320952629653e+000	 9.985071259409734e+000
0	 1.399969999982150e+000	 9.199981422001560e+000	 9.987099088563666e+000
0	 1.399969999982150e+000	 9.266642024687794e+000	 9.989135627929686e+000
0	 1.399969999982150e+000	 9.333302777352783e+000	 9.991187699080649e+000
0	 1.466639999981866e+000	 8.666700000016666e+000	 9.971461651942160e+000
0	 1.466639999981867e+000	 8.733360002791901e+000	 9.973585813726624e+000
0	 1.466639999981866e+000	 8.800020022230552e+000	 9.975670164283644e+000
0	 1.466639999981867e+000	 8.866680074997040e+000	 9.977719972158152e+000
0	 1.466639999981867e+000	 8.933340177755781e+000	 9.979740506121974e+000
0	 1.466639999981866e+000	 9.000000347171183e+000	 9.981737035173778e+000
0	 1.466639999981866e+000	 9.066660599907669e+000	 9.983714828539204e+000
0	 1.466639999981866e+000	 9.133320952629655e+000	 9.985679155670784e+000
0	 1.466639999981867e+000	 9.199981422001558e+000	 9.987635286247857e+000
0	 1.466639999981867e+000	 9.266642024687799e+000	 9.989588490176724e+000
0	 1.466639999981866e+000	 9.333302777352783e+000	 9.991544037590511e+000
0	 1.533309999982383e+000	 8.666700000016666e+000	 9.972406935942006e+000
0	 1.533309999982383e+000	 8.733360002791901e+000	 9.974506230734447e+000
0	 1.533309999982383e+000	 8.800020022230557e+000	 9.976561772413001e+000
0	 1.533309999982383e+000	 8.866680074997040e+000	 9.978577611302534e+000
0	 1.533309999982383e+000	 8.933340177755779e+000	 9.980557797963551e+000
0	 1.533309999982383e+000	 9.000000347171184e+000	 9.982506383192161e+000
0	 1.533309999982383e+000	 9.066660599907669e+000	 9.984427418020122e+000
0	 1.533309999982383e+000	 9.133320952629656e+000	 9.986324953714830e+000
0	 1.533309999982383e+000	 9.199981422001560e+000	 9.988203041779277e+000
0	 1.533309999982383e+000	 9.266642024687798e+000	 9.990065733952060e+000
0	 1.533309999982383e+000	 9.333302777352783e+000	 9.991917082207385e+000
0	 1.599979999983600e+000	 8.666700000016668e+000	 9.973384656895659e+000
0	 1.599979999983600e+000	 8.733360002791901e+000	 9.975464185386588e+000
0	 1.599979999983600e+000	 8.800020022230555e+000	 9.977493517370160e+000
0	 1.599979999983600e+000	 8.866680074997042e+000	 9.979475818219603e+000
0	 1.599979999983600e+000	 8.933340177755779e+000	 9.981414253553547e+000
0	 1.599979999983600e+000	 9.000000347171183e+000	 9.983311989235920e+000
0	 1.599979999983600e+000	 9.066660599907669e+000	 9.985172191376023e+000
0	 1.599979999983599e+000	 9.133320952629655e+000	 9.986998026328513e+000
0	 1.599979999983600e+000	 9.199981422001557e+000	 9.988792660693328e+000
0	 1.599979999983600e+000	 9.266642024687799e+000	 9.990559261315761e+000
0	 1.599979999983600e+000	 9.333302777352785e+000	 9.992300995286426e+000
0	 1.666649999985417e+000	 8.666700000016666e+000	 9.974396244319209e+000
0	 1.666649999985416e+000	 8.733360002791903e+000	 9.976457393448545e+000
0	 1.666649999985417e+000	 8.800020022230555e+000	 9.978460064955982e+000
0	 1.666649999985417e+000	 8.866680074997042e+000	 9.980406872533134e+000
0	 1.666649999985416e+000	 8.933340177755779e+000	 9.982300430126687e+000
0	 1.666649999985416e+000	 9.000000347171183e+000	 9.984143351938412e+000
0	 1.666649999985417e+000	 9.066660599907669e+000	 9.985938252425029e+000
0	 1.666649999985417e+000	 9.133320952629658e+000	 9.987687746298418e+000
0	 1.666649999985416e+000	 9.199981422001558e+000	 9.989394448525420e+000
0	 1.666649999985416e+000	 9.266642024687796e+000	 9.991060974327940e+000
0	 1.666649999985417e+000	 9.333302777352783e+000	 9.992689939182847e+000
0	 1.733319999987733e+000	 8.666700000016668e+000	 9.975443127728831e+000
0	 1.733319999987733e+000	 8.733360002791901e+000	 9.977483570685809e+000
0	 1.733319999987733e+000	 8.800020022230557e+000	 9.979456080971316e+000
0	 1.733319999987733e+000	 8.866680074997044e+000	 9.981363053866858e+000
0	 1.733319999987733e+000	 8.933340177755776e+000	 9.983206884917719e+000
0	 1.733319999987733e+000	 9.000000347171181e+000	 9.984989969932908e+000
0	 1.733319999987733e+000	 9.066660599907671e+000	 9.986714704985211e+000
0	 1.733319999987733e+000	 9.133320952629653e+000	 9.988383486411154e+000
0	 1.733319999987733e+000	 9.199981422001558e+000	 9.989998710810978e+000
0	 1.733319999987733e+000	 9.266642024687798e+000	 9.991562775048653e+000
0	 1.733319999987734e+000	 9.333302777352785e+000	 9.993078076251866e+000
0	 1.799989999990450e+000	 8.666700000016666e+000	 9.976526736640592e+000
0	 1.799989999990450e+000	 8.733360002791903e+000	 9.978540432863868e+000
0	 1.799989999990450e+000	 8.800020022230557e+000	 9.980476231217040e+000
0	 1.799989999990450e+000	 8.866680074997042e+000	 9.982336641844539e+000
0	 1.799989999990450e+000	 8.933340177755776e+000	 9.984124175161321e+000
0	 1.799989999990450e+000	 9.000000347171181e+000	 9.985841341852765e+000
0	 1.799989999990450e+000	 9.066660599907669e+000	 9.987490652874696e+000
0	 1.799989999990450e+000	 9.133320952629656e+000	 9.989074619453344e+000
0	 1.799989999990450e+000	 9.199981422001560e+000	 9.990595753085403e+000
0	 1.799989999990450e+000	 9.266642024687798e+000	 9.992056565538006e+000
0	 1.799989999990450e+000	 9.333302777352781e+000	 9.993459568848625e+000
0	 1.866659999993466e+000	 8.666700000016663e+000	 9.977648500570608e+000
0	 1.866659999993467e+000	 8.733360002791903e+000	 9.979625695748226e+000
0	 1.866659999993466e+000	 8.800020022230553e+000	 9.981515181493981e+000
0	 1.866659999993467e+000	 8.866680074997042e+000	 9.983319916089945e+000
0	 1.866659999993467e+000	 8.933340177755779e+000	 9.985042858092269e+000
0	 1.866659999993467e+000	 9.000000347171183e+000	 9.986686966331327e+000
0	 1.866659999993467e+000	 9.066660599907667e+000	 9.988255199911547e+000
0	 1.866659999993467e+000	 9.133320952629656e+000	 9.989750518211574e+000
0	 1.866659999993467e+000	 9.199981422001557e+000	 9.991175880884118e+000
0	 1.866659999993467e+000	 9.266642024687796e+000	 9.992534247856074e+000
0	 1.866659999993467e+000	 9.333302777352783e+000	 9.993828579328389e+000
0	 1.933329999996684e+000	 8.666700000016666e+000	 9.978809849035043e+000
0	 1.933329999996683e+000	 8.733360002791899e+000	 9.980737075104353e+000
0	 1.933329999996683e+000	 8.800020022230555e+000	 9.982567597603023e+000
0	 1.933329999996684e+000	 8.866680074997040e+000	 9.984305156226800e+000
0	 1.933329999996684e+000	 8.933340177755781e+000	 9.985953490945249e+000
0	 1.933329999996684e+000	 9.000000347171183e+000	 9.987516342001845e+000
0	 1.933329999996684e+000	 9.066660599907669e+000	 9.988997449913864e+000
0	 1.933329999996683e+000	 9.133320952629656e+000	 9.990400555472446e+000
0	 1.933329999996684e+000	 9.199981422001557e+000	 9.991729399742537e+000
0	 1.933329999996684e+000	 9.266642024687798e+000	 9.992987724062960e+000
0	 1.933329999996684e+000	 9.333302777352785e+000	 9.994179270046327e+000
0	 2.000000000000000e+000	 8.666700000016666e+000	 9.980012211549962e+000
0	 2.000000000000000e+000	 8.733360002791905e+000	 9.981872286697755e+000
0	 2.000000000000000e+000	 8.800020022230555e+000	 9.983628145345026e+000
0	 2.000000000000000e+000	 8.866680074997039e+000	 9.985284641878888e+000
0	 2.000000000000000e+000	 8.933340177755779e+000	 9.986846630955029e+000
0	 2.000000000000000e+000	 9.000000347171183e+000	 9.988318967497694e+000
0	 2.000000000000000e+000	 9.066660599907667e+000	 9.989706506699749e+000
0	 2.000000000000000e+000	 9.133320952629653e+000	 9.991014104022558e+000
0	 2.000000000000000e+000	 9.199981422001558e+000	 9.992246615196054e+000
0	 2.000000000000000e+000	 9.266642024687796e+000	 9.993408896218739e+000
0	 2.000000000000000e+000	 9.333302777352783e+000	 9.994505803357621e+000
0	 1.333299999983334e+000	 9.333302777352785e+000	 9.990853904322545e+000
0	 1.333299999983334e+000	 9.399973674588177e+000	 9.992870058972674e+000
0	 1.333299999983334e+000	 9.466644621844619e+000	 9.994611055821711e+000
0	 1.333299999983334e+000	 9.533315502450002e+000	 9.996082680377478e+000
0	 1.333299999983334e+000	 9.599986199732198e+000	 9.997290713301695e+000
0	 1.333299999983334e+000	 9.666656597019093e+000	 9.998240930409363e+000
0	 1.333299999983334e+000	 9.733326577638575e+000	 9.998939102668457e+000
0	 1.333299999983334e+000	 9.799996024918523e+000	 9.999390996199079e+000
0	 1.333299999983334e+000	 9.866664822186824e+000	 9.999602372272658e+000
0	 1.333299999983334e+000	 9.933332852771356e+000	 9.999578987311132e+000
0	 1.333299999983334e+000	 1.000000000000000e+001	 9.999326592885971e+000
0	 1.399969999982150e+000	 9.333302777352783e+000	 9.991187699080648e+000
0	 1.399969999982150e+000	 9.399973674588177e+000	 9.993115577786053e+000
0	 1.399969999982150e+000	 9.466644621844623e+000	 9.994778927220629e+000
0	 1.399969999982150e+000	 9.533315502449998e+000	 9.996184574803717e+000
0	 1.399969999982150e+000	 9.599986199732197e+000	 9.997339343328765e+000
0	 1.399969999982150e+000	 9.666656597019095e+000	 9.998250050963009e+000
0	 1.399969999982150e+000	 9.733326577638573e+000	 9.998923511246815e+000
0	 1.399969999982150e+000	 9.799996024918523e+000	 9.999366533093170e+000
0	 1.399969999982150e+000	 9.866664822186824e+000	 9.999585920786810e+000
0	 1.399969999982150e+000	 9.933332852771354e+000	 9.999588473983298e+000
0	 1.399969999982150e+000	 1.000000000000000e+001	 9.999380987708053e+000
0	 1.466639999981866e+000	 9.333302777352783e+000	 9.991544037590511e+000
0	 1.466639999981867e+000	 9.399973674588177e+000	 9.993374785254265e+000
0	 1.466639999981867e+000	 9.466644621844619e+000	 9.994954529838552e+000
0	 1.466639999981867e+000	 9.533315502450003e+000	 9.996290829619477e+000
0	 1.466639999981867e+000	 9.599986199732198e+000	 9.997391238489284e+000
0	 1.466639999981867e+000	 9.666656597019093e+000	 9.998263305955778e+000
0	 1.466639999981867e+000	 9.733326577638577e+000	 9.998914577141930e+000
0	 1.466639999981867e+000	 9.799996024918523e+000	 9.999352592785135e+000
0	 1.466639999981867e+000	 9.866664822186822e+000	 9.999584889236521e+000
0	 1.466639999981867e+000	 9.933332852771354e+000	 9.999618998460115e+000
0	 1.466639999981866e+000	 1.000000000000000e+001	 9.999462448031753e+000
0	 1.533309999982383e+000	 9.333302777352783e+000	 9.991917082207383e+000
0	 1.533309999982383e+000	 9.399973674588175e+000	 9.993644151148498e+000
0	 1.533309999982383e+000	 9.466644621844619e+000	 9.995136070569176e+000
0	 1.533309999982383e+000	 9.533315502450002e+000	 9.996400818556621e+000
0	 1.533309999982383e+000	 9.599986199732197e+000	 9.997446369071591e+000
0	 1.533309999982383e+000	 9.666656597019092e+000	 9.998280691947963e+000
0	 1.533309999982383e+000	 9.733326577638577e+000	 9.998911752892237e+000
0	 1.533309999982383e+000	 9.799996024918526e+000	 9.999347513482833e+000
0	 1.533309999982383e+000	 9.866664822186824e+000	 9.999595931169415e+000
0	 1.533309999982383e+000	 9.933332852771354e+000	 9.999664959272179e+000
0	 1.533309999982383e+000	 1.000000000000000e+001	 9.999562546980629e+000
0	 1.599979999983600e+000	 9.333302777352785e+000	 9.992300995286424e+000
0	 1.599979999983600e+000	 9.399973674588175e+000	 9.993920145239938e+000
0	 1.599979999983600e+000	 9.466644621844617e+000	 9.995321756306295e+000
0	 1.599979999983600e+000	 9.533315502450000e+000	 9.996513915346986e+000
0	 1.599979999983600e+000	 9.599986199732197e+000	 9.997504705364086e+000
0	 1.599979999983600e+000	 9.666656597019097e+000	 9.998302205499853e+000
0	 1.599979999983600e+000	 9.733326577638575e+000	 9.998914491036203e+000
0	 1.599979999983600e+000	 9.799996024918524e+000	 9.999349633394187e+000
0	 1.599979999983600e+000	 9.866664822186824e+000	 9.999615700133093e+000
0	 1.599979999983600e+000	 9.933332852771352e+000	 9.999720754949944e+000
0	 1.599979999983600e+000	 1.000000000000000e+001	 9.999672857678192e+000
0	 1.666649999985417e+000	 9.333302777352783e+000	 9.992689939182846e+000
0	 1.666649999985416e+000	 9.399973674588177e+000	 9.994199237299748e+000
0	 1.666649999985416e+000	 9.466644621844619e+000	 9.995509793943674e+000
0	 1.666649999985417e+000	 9.533315502450002e+000	 9.996629493722445e+000
0	 1.666649999985416e+000	 9.599986199732197e+000	 9.997566217655153e+000
0	 1.666649999985416e+000	 9.666656597019090e+000	 9.998327843171698e+000
0	 1.666649999985417e+000	 9.733326577638577e+000	 9.998922244112338e+000
0	 1.666649999985416e+000	 9.799996024918523e+000	 9.999357290727094e+000
0	 1.666649999985416e+000	 9.866664822186824e+000	 9.999640849675153e+000
0	 1.666649999985416e+000	 9.933332852771352e+000	 9.999780784023821e+000
0	 1.666649999985417e+000	 1.000000000000000e+001	 9.999784953248046e+000
0	 1.733319999987734e+000	 9.333302777352785e+000	 9.993078076251864e+000
0	 1.733319999987733e+000	 9.399973674588175e+000	 9.994477897099090e+000
0	 1.733319999987733e+000	 9.466644621844623e+000	 9.995698390375040e+000
0	 1.733319999987733e+000	 9.533315502450002e+000	 9.996746927414835e+000
0	 1.733319999987733e+000	 9.599986199732198e+000	 9.997630876233153e+000
0	 1.733319999987733e+000	 9.666656597019095e+000	 9.998357601523740e+000
0	 1.733319999987733e+000	 9.733326577638579e+000	 9.998934464659062e+000
0	 1.733319999987734e+000	 9.799996024918524e+000	 9.999368823689517e+000
0	 1.733319999987733e+000	 9.866664822186820e+000	 9.999668033343125e+000
0	 1.733319999987733e+000	 9.933332852771352e+000	 9.999839445024355e+000
0	 1.733319999987733e+000	 1.000000000000000e+001	 9.999890406813677e+000
0	 1.799989999990450e+000	 9.333302777352781e+000	 9.993459568848621e+000
0	 1.799989999990450e+000	 9.399973674588177e+000	 9.994752594409166e+000
0	 1.799989999990450e+000	 9.466644621844617e+000	 9.995885752494177e+000
0	 1.799989999990450e+000	 9.533315502450003e+000	 9.996865590156023e+000
0	 1.799989999990450e+000	 9.599986199732193e+000	 9.997698651386456e+000
0	 1.799989999990450e+000	 9.666656597019097e+000	 9.998391477116279e+000
0	 1.799989999990450e+000	 9.733326577638577e+000	 9.998950605214816e+000
0	 1.799989999990450e+000	 9.799996024918524e+000	 9.999382570489344e+000
0	 1.799989999990450e+000	 9.866664822186824e+000	 9.999693904684635e+000
0	 1.799989999990450e+000	 9.933332852771352e+000	 9.999891136482001e+000
0	 1.799989999990450e+000	 1.000000000000000e+001	 9.999980791498642e+000
0	 1.866659999993467e+000	 9.333302777352783e+000	 9.993828579328389e+000
0	 1.866659999993467e+000	 9.399973674588173e+000	 9.995019799001101e+000
0	 1.866659999993467e+000	 9.466644621844623e+000	 9.996070087194795e+000
0	 1.866659999993467e+000	 9.533315502450003e+000	 9.996984855677830e+000
0	 1.866659999993467e+000	 9.599986199732197e+000	 9.997769513403460e+000
0	 1.866659999993467e+000	 9.666656597019093e+000	 9.998429466509561e+000
0	 1.866659999993466e+000	 9.733326577638575e+000	 9.998970118318072e+000
0	 1.866659999993467e+000	 9.799996024918523e+000	 9.999396869334474e+000
0	 1.866659999993467e+000	 9.866664822186822e+000	 9.999715117247270e+000
0	 1.866659999993467e+000	 9.933332852771352e+000	 9.999930256927204e+000
0	 1.866659999993467e+000	 1.000000000000000e+001	 1.000004768042643e+001
0	 1.933329999996684e+000	 9.333302777352785e+000	 9.994179270046329e+000
0	 1.933329999996684e+000	 9.399973674588178e+000	 9.995275980646106e+000
0	 1.933329999996684e+000	 9.466644621844621e+000	 9.996249601370684e+000
0	 1.933329999996684e+000	 9.533315502450000e+000	 9.997104097712091e+000
0	 1.933329999996684e+000	 9.599986199732197e+000	 9.997843432572532e+000
0	 1.933329999996684e+000	 9.666656597019093e+000	 9.998471566263861e+000
0	 1.933329999996684e+000	 9.733326577638575e+000	 9.998992456507343e+000
0	 1.933329999996684e+000	 9.799996024918524e+000	 9.999410058432872e+000
0	 1.933329999996684e+000	 9.866664822186822e+000	 9.999728324578669e+000
0	 1.933329999996684e+000	 9.933332852771352e+000	 9.999951204890458e+000
0	 1.933329999996684e+000	 1.000000000000000e+001	 1.000008264672061e+001
0	 2.000000000000000e+000	 9.333302777352783e+000	 9.994505803357621e+000
0	 2.000000000000000e+000	 9.399973674588177e+000	 9.995517609115336e+000
0	 2.000000000000000e+000	 9.466644621844621e+000	 9.996422501915589e+000
0	 2.000000000000000e+000	 9.533315502449998e+000	 9.997222689990712e+000
0	 2.000000000000000e+000	 9.599986199732198e+000	 9.997920379182023e+000
0	 2.000000000000000e+000	 9.666656597019093e+000	 9.998517772939458e+000
0	 2.000000000000000e+000	 9.733326577638575e+000	 9.999017072321005e+000
0	 2.000000000000000e+000	 9.799996024918524e+000	 9.999420475992411e+000
0	 2.000000000000000e+000	 9.866664822186822e+000	 9.999730180226404e+000
0	 2.000000000000000e+000	 9.933332852771352e+000	 9.999948378902213e+000
0	 2.000000000000000e+000	 1.000000000000000e+001	 1.000007726350482e+001
0	 2.000000000000000e+000	 0.000000000000000e+000	 7.914201395742289e+000
0	 2.000000000000000e+000	 6.666714722864757e-002	 8.195326978521232e+000
0	 2.000000000000000e+000	 1.333351778131789e-001	 8.559815018259949e+000
0	 2.000000000000000e+000	 2.000039750814773e-001	 8.983962335397917e+000
0	 2.000000000000000e+000	 2.666734223614256e-001	 9.444065132931939e+000
0	 2.000000000000000e+000	 3.333434029809069e-001	 9.916418996513048e+000
0	 2.000000000000000e+000	 4.000138002678043e-001	 1.037731889452729e+001
0	 2.000000000000000e+000	 4.666844975500010e-001	 1.080305917816017e+001
0	 2.000000000000000e+000	 5.333553781553803e-001	 1.116993358144505e+001
0	 2.000000000000000e+000	 6.000263254118246e-001	 1.145423522129521e+001
0	 2.000000000000000e+000	 6.666972226472177e-001	 1.163225659751975e+001
0	 2.066670000003316e+000	 0.000000000000000e+000	 9.788082304862368e+000
0	 2.066670000003316e+000	 6.666714722864756e-002	 9.801187726338769e+000
0	 2.066670000003317e+000	 1.333351778131789e-001	 9.890619747555958e+000
0	 2.066670000003318e+000	 2.000039750814773e-001	 1.004063986856150e+001
0	 2.066670000003317e+000	 2.666734223614255e-001	 1.023550943727801e+001
0	 2.066670000003317e+000	 3.333434029809069e-001	 1.045948964952744e+001
0	 2.066670000003317e+000	 4.000138002678045e-001	 1.069684154905140e+001
0	 2.066670000003317e+000	 4.666844975500010e-001	 1.093182602752749e+001
0	 2.066670000003316e+000	 5.333553781553803e-001	 1.114870382458159e+001
0	 2.066670000003317e+000	 6.000263254118247e-001	 1.133173552779622e+001
0	 2.066670000003317e+000	 6.666972226472175e-001	 1.146518157271487e+001
0	 2.133340000006534e+000	 0.000000000000000e+000	 1.115753219328273e+001
0	 2.133340000006534e+000	 6.666714722864753e-002	 1.100280598874439e+001
0	 2.133340000006534e+000	 1.333351778131789e-001	 1.091101045414584e+001
0	 2.133340000006534e+000	 2.000039750814772e-001	 1.087326523342511e+001
0	 2.133340000006534e+000	 2.666734223614256e-001	 1.088069014040577e+001
0	 2.133340000006534e+000	 3.333434029809069e-001	 1.092440515877155e+001
0	 2.133340000006534e+000	 4.000138002678044e-001	 1.099553044204548e+001
0	 2.133340000006534e+000	 4.666844975500012e-001	 1.108518631357335e+001
0	 2.133340000006534e+000	 5.333553781553801e-001	 1.118449326651178e+001
0	 2.133340000006535e+000	 6.000263254118247e-001	 1.128457196382064e+001
0	 2.133340000006534e+000	 6.666972226472177e-001	 1.137654323825998e+001
0	 2.200010000009550e+000	 0.000000000000000e+000	 1.208105597348527e+001
0	 2.200010000009550e+000	 6.666714722864756e-002	 1.184258163045666e+001
0	 2.200010000009551e+000	 1.333351778131789e-001	 1.164918678969620e+001
0	 2.200010000009550e+000	 2.000039750814772e-001	 1.149774255804686e+001
0	 2.200010000009551e+000	 2.666734223614255e-001	 1.138512041094637e+001
0	 2.200010000009551e+000	 3.333434029809069e-001	 1.130819219237191e+001
0	 2.200010000009550e+000	 4.000138002678043e-001	 1.126383011479437e+001
0	 2.200010000009550e+000	 4.666844975500011e-001	 1.124890675914237e+001
0	 2.200010000009551e+000	 5.333553781553804e-001	 1.126029507477593e+001
0	 2.200010000009551e+000	 6.000263254118248e-001	 1.129486837946980e+001
0	 2.200010000009551e+000	 6.666972226472177e-001	 1.134950035940647e+001
0	 2.266680000012268e+000	 0.000000000000000e+000	 1.261715855795075e+001
0	 2.266680000012267e+000	 6.666714722864756e-002	 1.236291451619294e+001
0	 2.266680000012268e+000	 1.333351778131789e-001	 1.213334840587239e+001
0	 2.266680000012268e+000	 2.000039750814772e-001	 1.192997597048365e+001
0	 2.266680000012267e+000	 2.666734223614255e-001	 1.175431341752987e+001
0	 2.266680000012268e+000	 3.333434029809069e-001	 1.160787741845400e+001
0	 2.266680000012267e+000	 4.000138002678044e-001	 1.149218510858202e+001
0	 2.266680000012268e+000	 4.666844975500011e-001	 1.140875408707837e+001
0	 2.266680000012268e+000	 5.333553781553801e-001	 1.135910241691368e+001
0	 2.266680000012268e+000	 6.000263254118248e-001	 1.134474862484452e+001
0	 2.266680000012268e+000	 6.666972226472177e-001	 1.136721170140537e+001
0	 2.333350000014584e+000	 0.000000000000000e+000	 1.282434485915876e+001
0	 2.333350000014584e+000	 6.666714722864756e-002	 1.260620451066930e+001
0	 2.333350000014585e+000	 1.333351778131789e-001	 1.239169495433848e+001
0	 2.333350000014585e+000	 2.000039750814772e-001	 1.218586959879109e+001
0	 2.333350000014584e+000	 2.666734223614256e-001	 1.199378232878507e+001
0	 2.333350000014584e+000	 3.333434029809068e-001	 1.182048750514218e+001
0	 2.333350000014584e+000	 4.000138002678044e-001	 1.167103996469135e+001
0	 2.333350000014585e+000	 4.666844975500012e-001	 1.155049502022433e+001
0	 2.333350000014584e+000	 5.333553781553804e-001	 1.146390846046399e+001
0	 2.333350000014584e+000	 6.000263254118247e-001	 1.141633655004507e+001
0	 2.333350000014584e+000	 6.666972226472177e-001	 1.141283602950735e+001
0	 2.400020000016401e+000	 0.000000000000000e+000	 1.276111978958778e+001
0	 2.400020000016401e+000	 6.666714722864756e-002	 1.261485147860062e+001
0	 2.400020000016401e+000	 1.333351778131790e-001	 1.245242608675725e+001
0	 2.400020000016400e+000	 2.000039750814772e-001	 1.228132757102357e+001
0	 2.400020000016401e+000	 2.666734223614256e-001	 1.210904031333959e+001
0	 2.400020000016401e+000	 3.333434029809069e-001	 1.194304912055973e+001
0	 2.400020000016401e+000	 4.000138002678044e-001	 1.179083922440436e+001
0	 2.400020000016401e+000	 4.666844975500011e-001	 1.165989628142241e+001
0	 2.400020000016400e+000	 5.333553781553801e-001	 1.155770637296516e+001
0	 2.400020000016402e+000	 6.000263254118247e-001	 1.149175600517123e+001
0	 2.400020000016400e+000	 6.666972226472178e-001	 1.146953210896262e+001
0	 2.466690000017618e+000	 0.000000000000000e+000	 1.248598826171517e+001
0	 2.466690000017618e+000	 6.666714722864757e-002	 1.243125528470051e+001
0	 2.466690000017617e+000	 1.333351778131789e-001	 1.234374145479023e+001
0	 2.466690000017618e+000	 2.000039750814773e-001	 1.223225401523421e+001
0	 2.466690000017618e+000	 2.666734223614256e-001	 1.210560053981989e+001
0	 2.466690000017618e+000	 3.333434029809068e-001	 1.197258893282885e+001
0	 2.466690000017617e+000	 4.000138002678044e-001	 1.184202742900209e+001
0	 2.466690000017617e+000	 4.666844975500011e-001	 1.172272459351397e+001
0	 2.466690000017618e+000	 5.333553781553803e-001	 1.162348932195481e+001
0	 2.466690000017618e+000	 6.000263254118246e-001	 1.155313084032223e+001
0	 2.466690000017618e+000	 6.666972226472177e-001	 1.152045870502105e+001
0	 2.533360000018134e+000	 0.000000000000000e+000	 1.205745518801711e+001
0	 2.533360000018134e+000	 6.666714722864753e-002	 1.209781579368136e+001
0	 2.533360000018134e+000	 1.333351778131789e-001	 1.209384071009766e+001
0	 2.533360000018133e+000	 2.000039750814772e-001	 1.205455305947485e+001
0	 2.533360000018134e+000	 2.666734223614255e-001	 1.198897617685121e+001
0	 2.533360000018134e+000	 3.333434029809068e-001	 1.190613361007064e+001
0	 2.533360000018134e+000	 4.000138002678043e-001	 1.181504911976461e+001
0	 2.533360000018134e+000	 4.666844975500011e-001	 1.172474667933955e+001
0	 2.533360000018134e+000	 5.333553781553804e-001	 1.164425047496992e+001
0	 2.533360000018134e+000	 6.000263254118248e-001	 1.158258490559678e+001
0	 2.533360000018134e+000	 6.666972226472177e-001	 1.154877458293208e+001
0	 2.600030000017850e+000	 0.000000000000000e+000	 1.153402548096866e+001
0	 2.600030000017850e+000	 6.666714722864756e-002	 1.165693287025431e+001
0	 2.600030000017851e+000	 1.333351778131790e-001	 1.173092350433851e+001
0	 2.600030000017851e+000	 2.000039750814772e-001	 1.176412883179613e+001
0	 2.600030000017850e+000	 2.666734223614255e-001	 1.176468039305763e+001
0	 2.600030000017851e+000	 3.333434029809069e-001	 1.174070982040513e+001
0	 2.600030000017850e+000	 4.000138002678045e-001	 1.170034883797103e+001
0	 2.600030000017851e+000	 4.666844975500011e-001	 1.165172926173887e+001
0	 2.600030000017851e+000	 5.333553781553803e-001	 1.160298299954675e+001
0	 2.600030000017850e+000	 6.000263254118247e-001	 1.156224205109308e+001
0	 2.600030000017851e+000	 6.666972226472178e-001	 1.153763850794478e+001
0	 2.666700000016666e+000	 0.000000000000000e+000	 1.097420405304376e+001
0	 2.666700000016666e+000	 6.666714722864756e-002	 1.115100637912928e+001
0	 2.666700000016666e+000	 1.333351778131789e-001	 1.128318948917049e+001
0	 2.666700000016666e+000	 2.000039750814772e-001	 1.137688546024740e+001
0	 2.666700000016666e+000	 2.666734223614255e-001	 1.143822635706201e+001
0	 2.666700000016666e+000	 3.333434029809069e-001	 1.147334423195126e+001
0	 2.666700000016666e+000	 4.000138002678045e-001	 1.148837112489949e+001
0	 2.666700000016666e+000	 4.666844975500011e-001	 1.148943906355082e+001
0	 2.666700000016666e+000	 5.333553781553803e-001	 1.148268006322094e+001
0	 2.666700000016666e+000	 6.000263254118247e-001	 1.147422612690880e+001
0	 2.666700000016666e+000	 6.666972226472175e-001	 1.147020924530782e+001
0	 2.000000000000000e+000	 6.666972226472177e-001	 1.163225659751975e+001
0	 2.000000000000000e+000	 7.333579753122048e-001	 1.172291929003343e+001
0	 2.000000000000000e+000	 8.000185779984418e-001	 1.176687435916737e+001
0	 2.000000000000000e+000	 8.666790473703454e-001	 1.177295540718755e+001
0	 2.000000000000000e+000	 9.333394000923323e-001	 1.174999601288274e+001
0	 2.000000000000000e+000	 9.999996528288190e-001	 1.170682973156406e+001
0	 2.000000000000000e+000	 1.066659822244222e+000	 1.165229009506446e+001
0	 2.000000000000000e+000	 1.133319925002958e+000	 1.159521061173834e+001
0	 2.000000000000000e+000	 1.199979977769445e+000	 1.154442476646128e+001
0	 2.000000000000000e+000	 1.266639997208097e+000	 1.150876602062983e+001
0	 2.000000000000000e+000	 1.333299999983334e+000	 1.149706781216142e+001
0	 2.066670000003317e+000	 6.666972226472175e-001	 1.146518157271488e+001
0	 2.066670000003317e+000	 7.333579753122047e-001	 1.154862693963786e+001
0	 2.066670000003316e+000	 8.000185779984413e-001	 1.159662689611854e+001
0	 2.066670000003316e+000	 8.666790473703450e-001	 1.161585065407876e+001
0	 2.066670000003317e+000	 9.333394000923323e-001	 1.161296741236818e+001
0	 2.066670000003317e+000	 9.999996528288190e-001	 1.159464635676410e+001
0	 2.066670000003317e+000	 1.066659822244222e+000	 1.156755665997121e+001
0	 2.066670000003317e+000	 1.133319925002959e+000	 1.153836748162154e+001
0	 2.066670000003316e+000	 1.199979977769445e+000	 1.151374796827428e+001
0	 2.066670000003318e+000	 1.266639997208098e+000	 1.150036725341575e+001
0	 2.066670000003317e+000	 1.333299999983333e+000	 1.150489445745943e+001
0	 2.133340000006534e+000	 6.666972226472177e-001	 1.137654323825998e+001
0	 2.133340000006534e+000	 7.333579753122046e-001	 1.144711294021786e+001
0	 2.133340000006534e+000	 8.000185779984417e-001	 1.149211479289473e+001
0	 2.133340000006534e+000	 8.666790473703452e-001	 1.151632333332708e+001
0	 2.133340000006534e+000	 9.333394000923321e-001	 1.152451309434231e+001
0	 2.133340000006534e+000	 9.999996528288190e-001	 1.152145860455880e+001
0	 2.133340000006534e+000	 1.066659822244222e+000	 1.151193438838589e+001
0	 2.133340000006534e+000	 1.133319925002959e+000	 1.150071496602398e+001
0	 2.133340000006534e+000	 1.199979977769445e+000	 1.149257485346451e+001
0	 2.133340000006534e+000	 1.266639997208098e+000	 1.149228856249010e+001
0	 2.133340000006534e+000	 1.333299999983334e+000	 1.150463060067463e+001
0	 2.200010000009551e+000	 6.666972226472177e-001	 1.134950035940647e+001
0	 2.200010000009551e+000	 7.333579753122049e-001	 1.140349798228568e+001
0	 2.200010000009551e+000	 8.000185779984419e-001	 1.144037104129826e+001
0	 2.200010000009550e+000	 8.666790473703452e-001	 1.146326911230364e+001
0	 2.200010000009550e+000	 9.333394000923322e-001	 1.147534177434775e+001
0	 2.200010000009550e+000	 9.999996528288191e-001	 1.147973860966328e+001
0	 2.200010000009551e+000	 1.066659822244222e+000	 1.147960920366983e+001
0	 2.200010000009551e+000	 1.133319925002959e+000	 1.147810314497415e+001
0	 2.200010000009551e+000	 1.199979977769445e+000	 1.147837002537026e+001
0	 2.200010000009551e+000	 1.266639997208098e+000	 1.148355943983969e+001
0	 2.200010000009552e+000	 1.333299999983334e+000	 1.149682098655153e+001
0	 2.266680000012268e+000	 6.666972226472177e-001	 1.136721170140538e+001
0	 2.266680000012267e+000	 7.333579753122047e-001	 1.140290275635328e+001
0	 2.266680000012267e+000	 8.000185779984413e-001	 1.142842863313126e+001
0	 2.266680000012267e+000	 8.666790473703453e-001	 1.144558365837944e+001
0	 2.266680000012268e+000	 9.333394000923323e-001	 1.145616216792703e+001
0	 2.266680000012268e+000	 9.999996528288190e-001	 1.146195850679256e+001
0	 2.266680000012268e+000	 1.066659822244222e+000	 1.146476702918430e+001
0	 2.266680000012268e+000	 1.133319925002958e+000	 1.146638209850054e+001
0	 2.266680000012267e+000	 1.199979977769445e+000	 1.146859808732985e+001
0	 2.266680000012268e+000	 1.266639997208098e+000	 1.147320937745129e+001
0	 2.266680000012267e+000	 1.333299999983334e+000	 1.148201035983462e+001
0	 2.333350000014584e+000	 6.666972226472177e-001	 1.141283602950735e+001
0	 2.333350000014585e+000	 7.333579753122047e-001	 1.143044795293234e+001
0	 2.333350000014585e+000	 8.000185779984416e-001	 1.144332056019563e+001
0	 2.333350000014584e+000	 8.666790473703452e-001	 1.145216263892539e+001
0	 2.333350000014585e+000	 9.333394000923322e-001	 1.145768299062261e+001
0	 2.333350000014584e+000	 9.999996528288191e-001	 1.146059043066162e+001
0	 2.333350000014585e+000	 1.066659822244222e+000	 1.146159378829056e+001
0	 2.333350000014584e+000	 1.133319925002959e+000	 1.146140190663163e+001
0	 2.333350000014585e+000	 1.199979977769445e+000	 1.146072364268154e+001
0	 2.333350000014585e+000	 1.266639997208098e+000	 1.146026786731169e+001
0	 2.333350000014584e+000	 1.333299999983334e+000	 1.146074346526840e+001
0	 2.400020000016400e+000	 6.666972226472178e-001	 1.146953210896262e+001
0	 2.400020000016402e+000	 7.333579753122050e-001	 1.147125426253423e+001
0	 2.400020000016400e+000	 8.000185779984415e-001	 1.147207981429312e+001
0	 2.400020000016401e+000	 8.666790473703453e-001	 1.147190172131222e+001
0	 2.400020000016401e+000	 9.333394000923321e-001	 1.147061295797686e+001
0	 2.400020000016401e+000	 9.999996528288186e-001	 1.146810651598545e+001
0	 2.400020000016402e+000	 1.066659822244223e+000	 1.146427540434986e+001
0	 2.400020000016400e+000	 1.133319925002958e+000	 1.145901264939591e+001
0	 2.400020000016401e+000	 1.199979977769445e+000	 1.145221129476364e+001
0	 2.400020000016401e+000	 1.266639997208098e+000	 1.144376440140767e+001
0	 2.400020000016401e+000	 1.333299999983334e+000	 1.143356504759736e+001
0	 2.466690000017618e+000	 6.666972226472177e-001	 1.152045870502105e+001
0	 2.466690000017618e+000	 7.333579753122049e-001	 1.151044237567007e+001
0	 2.466690000017617e+000	 8.000185779984419e-001	 1.150173938722526e+001
0	 2.466690000017618e+000	 8.666790473703456e-001	 1.149369657291054e+001
0	 2.466690000017618e+000	 9.333394000923322e-001	 1.148566078553207e+001
0	 2.466690000017618e+000	 9.999996528288190e-001	 1.147697889747891e+001
0	 2.466690000017617e+000	 1.066659822244222e+000	 1.146699780072343e+001
0	 2.466690000017617e+000	 1.133319925002959e+000	 1.145506440682183e+001
0	 2.466690000017618e+000	 1.199979977769445e+000	 1.144052564691444e+001
0	 2.466690000017617e+000	 1.266639997208098e+000	 1.142272847172602e+001
0	 2.466690000017618e+000	 1.333299999983334e+000	 1.140101985156600e+001
0	 2.533360000018134e+000	 6.666972226472177e-001	 1.154877458293208e+001
0	 2.533360000018134e+000	 7.333579753122047e-001	 1.153313298285067e+001
0	 2.533360000018134e+000	 8.000185779984416e-001	 1.151933227079336e+001
0	 2.533360000018134e+000	 8.666790473703454e-001	 1.150644286109083e+001
0	 2.533360000018134e+000	 9.333394000923322e-001	 1.149353518883045e+001
0	 2.533360000018134e+000	 9.999996528288191e-001	 1.147967970985686e+001
0	 2.533360000018134e+000	 1.066659822244222e+000	 1.146394690077246e+001
0	 2.533360000018134e+000	 1.133319925002959e+000	 1.144540725893785e+001
0	 2.533360000018134e+000	 1.199979977769445e+000	 1.142313130247221e+001
0	 2.533360000018134e+000	 1.266639997208098e+000	 1.139618957025353e+001
0	 2.533360000018134e+000	 1.333299999983334e+000	 1.136365262191883e+001
0	 2.600030000017851e+000	 6.666972226472178e-001	 1.153763850794478e+001
0	 2.600030000017851e+000	 7.333579753122048e-001	 1.152444677458657e+001
0	 2.600030000017851e+000	 8.000185779984418e-001	 1.151189145679855e+001
0	 2.600030000017851e+000	 8.666790473703451e-001	 1.149903625322345e+001
0	 2.600030000017851e+000	 9.333394000923320e-001	 1.148494488341413e+001
0	 2.600030000017851e+000	 9.999996528288191e-001	 1.146868108783412e+001
0	 2.600030000017851e+000	 1.066659822244223e+000	 1.144930862785813e+001
0	 2.600030000017850e+000	 1.133319925002959e+000	 1.142589128577243e+001
0	 2.600030000017851e+000	 1.199979977769445e+000	 1.139749286477526e+001
0	 2.600030000017851e+000	 1.266639997208098e+000	 1.136317718897698e+001
0	 2.600030000017851e+000	 1.333299999983334e+000	 1.132200810340032e+001
0	 2.666700000016666e+000	 6.666972226472175e-001	 1.147020924530782e+001
0	 2.666700000016666e+000	 7.333579753122047e-001	 1.146950444138801e+001
0	 2.666700000016666e+000	 8.000185779984416e-001	 1.146644993704175e+001
0	 2.666700000016666e+000	 8.666790473703453e-001	 1.146037241667861e+001
0	 2.666700000016666e+000	 9.333394000923323e-001	 1.145059858482514e+001
0	 2.666700000016665e+000	 9.999996528288190e-001	 1.143645516612544e+001
0	 2.666700000016666e+000	 1.066659822244222e+000	 1.141726890534158e+001
0	 2.666700000016667e+000	 1.133319925002959e+000	 1.139236656735401e+001
0	 2.666700000016667e+000	 1.199979977769445e+000	 1.136107493716185e+001
0	 2.666700000016666e+000	 1.266639997208098e+000	 1.132272081988316e+001
0	 2.666700000016667e+000	 1.333299999983334e+000	 1.127663104075501e+001
0	 2.000000000000000e+000	 1.333299999983334e+000	 1.149706781216142e+001
0	 2.000000000000000e+000	 1.399969999982150e+000	 1.149784034921180e+001
0	 2.000000000000000e+000	 1.466639999981866e+000	 1.149248760500286e+001
0	 2.000000000000000e+000	 1.533309999982383e+000	 1.147918509952698e+001
0	 2.000000000000000e+000	 1.599979999983599e+000	 1.145610835277635e+001
0	 2.000000000000000e+000	 1.666649999985416e+000	 1.142143288474298e+001
0	 2.000000000000000e+000	 1.733319999987733e+000	 1.137333421541868e+001
0	 2.000000000000000e+000	 1.799989999990450e+000	 1.130998786479506e+001
0	 2.000000000000000e+000	 1.866659999993467e+000	 1.122956935286356e+001
0	 2.000000000000000e+000	 1.933329999996683e+000	 1.113025419961540e+001
0	 2.000000000000000e+000	 2.000000000000000e+000	 1.101021792504162e+001
0	 2.066670000003317e+000	 1.333299999983333e+000	 1.150489445745943e+001
0	 2.066670000003317e+000	 1.399969999982150e+000	 1.151699880712409e+001
0	 2.066670000003317e+000	 1.466639999981867e+000	 1.152078284920386e+001
0	 2.066670000003317e+000	 1.533309999982383e+000	 1.151457274201747e+001
0	 2.066670000003317e+000	 1.599979999983599e+000	 1.149669464388341e+001
0	 2.066670000003317e+000	 1.666649999985416e+000	 1.146547471312002e+001
0	 2.066670000003317e+000	 1.733319999987733e+000	 1.141923910804539e+001
0	 2.066670000003317e+000	 1.799989999990450e+000	 1.135631398697743e+001
0	 2.066670000003317e+000	 1.866659999993466e+000	 1.127502550823385e+001
0	 2.066670000003317e+000	 1.933329999996683e+000	 1.117369983013215e+001
0	 2.066670000003317e+000	 2.000000000000000e+000	 1.105066311098961e+001
0	 2.133340000006534e+000	 1.333299999983334e+000	 1.150463060067464e+001
0	 2.133340000006534e+000	 1.399969999982150e+000	 1.152086006567620e+001
0	 2.133340000006534e+000	 1.466639999981866e+000	 1.152803068910797e+001
0	 2.133340000006534e+000	 1.533309999982383e+000	 1.152461803869788e+001
0	 2.133340000006534e+000	 1.599979999983600e+000	 1.150909768217374e+001
0	 2.133340000006534e+000	 1.666649999985416e+000	 1.147994518726310e+001
0	 2.133340000006534e+000	 1.733319999987733e+000	 1.143563612169334e+001
0	 2.133340000006534e+000	 1.799989999990450e+000	 1.137464605319160e+001
0	 2.133340000006534e+000	 1.866659999993466e+000	 1.129545054948491e+001
0	 2.133340000006534e+000	 1.933329999996683e+000	 1.119652517830000e+001
0	 2.133340000006534e+000	 2.000000000000000e+000	 1.107634550736345e+001
0	 2.200010000009552e+000	 1.333299999983334e+000	 1.149682098655153e+001
0	 2.200010000009551e+000	 1.399969999982150e+000	 1.151132400857454e+001
0	 2.200010000009551e+000	 1.466639999981867e+000	 1.151721510928997e+001
0	 2.200010000009551e+000	 1.533309999982383e+000	 1.151311803691799e+001
0	 2.200010000009550e+000	 1.599979999983599e+000	 1.149765653967859e+001
0	 2.200010000009551e+000	 1.666649999985416e+000	 1.146945436579153e+001
0	 2.200010000009550e+000	 1.733319999987732e+000	 1.142713526347645e+001
0	 2.200010000009551e+000	 1.799989999990449e+000	 1.136932298095275e+001
0	 2.200010000009550e+000	 1.866659999993466e+000	 1.129464126643969e+001
0	 2.200010000009550e+000	 1.933329999996683e+000	 1.120171386815628e+001
0	 2.200010000009551e+000	 2.000000000000000e+000	 1.108916453432143e+001
0	 2.266680000012267e+000	 1.333299999983334e+000	 1.148201035983462e+001
0	 2.266680000012268e+000	 1.399969999982150e+000	 1.149029051952549e+001
0	 2.266680000012267e+000	 1.466639999981867e+000	 1.149132009432468e+001
0	 2.266680000012268e+000	 1.533309999982383e+000	 1.148386978402754e+001
0	 2.266680000012267e+000	 1.599979999983599e+000	 1.146671028842919e+001
0	 2.266680000012268e+000	 1.666649999985416e+000	 1.143861230732464e+001
0	 2.266680000012268e+000	 1.733319999987733e+000	 1.139834654050869e+001
0	 2.266680000012268e+000	 1.799989999990449e+000	 1.134468368777602e+001
0	 2.266680000012267e+000	 1.866659999993466e+000	 1.127639444892112e+001
0	 2.266680000012267e+000	 1.933329999996683e+000	 1.119224952373832e+001
0	 2.266680000012268e+000	 2.000000000000000e+000	 1.109101961202180e+001
0	 2.333350000014584e+000	 1.333299999983334e+000	 1.146074346526840e+001
0	 2.333350000014585e+000	 1.399969999982150e+000	 1.145965948223543e+001
0	 2.333350000014585e+000	 1.466639999981867e+000	 1.145332962878690e+001
0	 2.333350000014584e+000	 1.533309999982383e+000	 1.144067032737627e+001
0	 2.333350000014584e+000	 1.599979999983599e+000	 1.142059800045682e+001
0	 2.333350000014584e+000	 1.666649999985416e+000	 1.139202907048172e+001
0	 2.333350000014584e+000	 1.733319999987732e+000	 1.135387995990400e+001
0	 2.333350000014584e+000	 1.799989999990449e+000	 1.130506709117657e+001
0	 2.333350000014585e+000	 1.866659999993466e+000	 1.124450688675217e+001
0	 2.333350000014584e+000	 1.933329999996683e+000	 1.117111576908343e+001
0	 2.333350000014584e+000	 2.000000000000000e+000	 1.108381016062285e+001
0	 2.400020000016401e+000	 1.333299999983334e+000	 1.143356504759736e+001
0	 2.400020000016402e+000	 1.399969999982151e+000	 1.142133078041076e+001
0	 2.400020000016401e+000	 1.466639999981867e+000	 1.140622769725144e+001
0	 2.400020000016401e+000	 1.533309999982382e+000	 1.138731671431394e+001
0	 2.400020000016401e+000	 1.599979999983599e+000	 1.136365874779272e+001
0	 2.400020000016401e+000	 1.666649999985416e+000	 1.133431471388211e+001
0	 2.400020000016401e+000	 1.733319999987733e+000	 1.129834552877635e+001
0	 2.400020000016401e+000	 1.799989999990450e+000	 1.125481210866957e+001
0	 2.400020000016400e+000	 1.866659999993466e+000	 1.120277536975580e+001
0	 2.400020000016401e+000	 1.933329999996683e+000	 1.114129622822895e+001
0	 2.400020000016401e+000	 2.000000000000000e+000	 1.106943560028285e+001
0	 2.466690000017618e+000	 1.333299999983334e+000	 1.140101985156600e+001
0	 2.466690000017618e+000	 1.399969999982150e+000	 1.137720429775786e+001
0	 2.466690000017618e+000	 1.466639999981867e+000	 1.135299828429308e+001
0	 2.466690000017618e+000	 1.533309999982383e+000	 1.132760599219031e+001
0	 2.466690000017617e+000	 1.599979999983599e+000	 1.130023160246815e+001
0	 2.466690000017618e+000	 1.666649999985416e+000	 1.127007929614512e+001
0	 2.466690000017617e+000	 1.733319999987733e+000	 1.123635325423967e+001
0	 2.466690000017617e+000	 1.799989999990449e+000	 1.119825765777018e+001
0	 2.466690000017617e+000	 1.866659999993466e+000	 1.115499668775494e+001
0	 2.466690000017618e+000	 1.933329999996684e+000	 1.110577452521219e+001
0	 2.466690000017618e+000	 2.000000000000000e+000	 1.104979535116009e+001
0	 2.533360000018134e+000	 1.333299999983334e+000	 1.136365262191882e+001
0	 2.533360000018133e+000	 1.399969999982150e+000	 1.132917991798314e+001
0	 2.533360000018134e+000	 1.466639999981867e+000	 1.129662537448662e+001
0	 2.533360000018134e+000	 1.533309999982383e+000	 1.126533520835511e+001
0	 2.533360000018134e+000	 1.599979999983599e+000	 1.123465563651435e+001
0	 2.533360000018134e+000	 1.666649999985416e+000	 1.120393287589006e+001
0	 2.533360000018134e+000	 1.733319999987733e+000	 1.117251314340792e+001
0	 2.533360000018134e+000	 1.799989999990450e+000	 1.113974265599356e+001
0	 2.533360000018134e+000	 1.866659999993466e+000	 1.110496763057256e+001
0	 2.533360000018134e+000	 1.933329999996683e+000	 1.106753428407049e+001
0	 2.533360000018134e+000	 2.000000000000000e+000	 1.102678883341285e+001
0	 2.600030000017851e+000	 1.333299999983334e+000	 1.132200810340032e+001
0	 2.600030000017851e+000	 1.399969999982150e+000	 1.127915752479295e+001
0	 2.600030000017850e+000	 1.466639999981866e+000	 1.124009295240689e+001
0	 2.600030000017850e+000	 1.533309999982383e+000	 1.120430141015812e+001
0	 2.600030000017850e+000	 1.599979999983599e+000	 1.117126992196259e+001
0	 2.600030000017851e+000	 1.666649999985416e+000	 1.114048551173625e+001
0	 2.600030000017851e+000	 1.733319999987733e+000	 1.111143520339504e+001
0	 2.600030000017850e+000	 1.799989999990449e+000	 1.108360602085487e+001
0	 2.600030000017851e+000	 1.866659999993466e+000	 1.105648498803163e+001
0	 2.600030000017850e+000	 1.933329999996683e+000	 1.102955912884119e+001
0	 2.600030000017851e+000	 2.000000000000000e+000	 1.100231546719941e+001
0	 2.666700000016667e+000	 1.333299999983334e+000	 1.127663104075501e+001
0	 2.666700000016667e+000	 1.399969999982150e+000	 1.122903700189372e+001
0	 2.666700000016666e+000	 1.466639999981867e+000	 1.118638500262867e+001
0	 2.666700000016667e+000	 1.533309999982383e+000	 1.114830164494906e+001
0	 2.666700000016667e+000	 1.599979999983600e+000	 1.111441353084411e+001
0	 2.666700000016665e+000	 1.666649999985416e+000	 1.108434726230303e+001
0	 2.666700000016667e+000	 1.733319999987733e+000	 1.105772944131501e+001
0	 2.666700000016667e+000	 1.799989999990450e+000	 1.103418666986928e+001
0	 2.666700000016666e+000	 1.866659999993466e+000	 1.101334554995508e+001
0	 2.666700000016667e+000	 1.933329999996683e+000	 1.099483268356159e+001
0	 2.666700000016667e+000	 2.000000000000000e+000	 1.097827467267807e+001
0	 2.000000000000000e+000	 2.000000000000000e+000	 1.101021792504162e+001
0	 2.000000000000000e+000	 2.066670000003317e+000	 1.088499705700620e+001
0	 2.000000000000000e+000	 2.133340000006534e+000	 1.077143303822088e+001
0	 2.000000000000000e+000	 2.200010000009551e+000	 1.066965876094823e+001
0	 2.000000000000000e+000	 2.266680000012268e+000	 1.057980711745097e+001
0	 2.000000000000000e+000	 2.333350000014584e+000	 1.050201099999190e+001
0	 2.000000000000000e+000	 2.400020000016401e+000	 1.043640330083396e+001
0	 2.000000000000000e+000	 2.466690000017618e+000	 1.038311691224019e+001
0	 2.000000000000000e+000	 2.533360000018133e+000	 1.034228472647374e+001
0	 2.000000000000000e+000	 2.600030000017851e+000	 1.031403963579790e+001
0	 2.000000000000000e+000	 2.666700000016667e+000	 1.029851453247605e+001
0	 2.066670000003317e+000	 2.000000000000000e+000	 1.105066311098961e+001
0	 2.066670000003317e+000	 2.066670000003317e+000	 1.092237617165611e+001
0	 2.066670000003317e+000	 2.133340000006534e+000	 1.080649334503546e+001
0	 2.066670000003317e+000	 2.200010000009551e+000	 1.070313105752582e+001
0	 2.066670000003317e+000	 2.266680000012268e+000	 1.061240573552547e+001
0	 2.066670000003316e+000	 2.333350000014584e+000	 1.053443380543282e+001
0	 2.066670000003318e+000	 2.400020000016401e+000	 1.046933169364637e+001
0	 2.066670000003317e+000	 2.466690000017617e+000	 1.041721582656479e+001
0	 2.066670000003317e+000	 2.533360000018134e+000	 1.037820263058681e+001
0	 2.066670000003317e+000	 2.600030000017850e+000	 1.035240853211130e+001
0	 2.066670000003317e+000	 2.666700000016667e+000	 1.033994995753728e+001
0	 2.133340000006534e+000	 2.000000000000000e+000	 1.107634550736345e+001
0	 2.133340000006534e+000	 2.066670000003317e+000	 1.095108199777098e+001
0	 2.133340000006534e+000	 2.133340000006534e+000	 1.083798827158478e+001
0	 2.133340000006534e+000	 2.200010000009551e+000	 1.073716463798112e+001
0	 2.133340000006534e+000	 2.266680000012268e+000	 1.064871140613633e+001
0	 2.133340000006534e+000	 2.333350000014584e+000	 1.057272888522692e+001
0	 2.133340000006534e+000	 2.400020000016400e+000	 1.050931738442949e+001
0	 2.133340000006534e+000	 2.466690000017617e+000	 1.045857721292074e+001
0	 2.133340000006534e+000	 2.533360000018133e+000	 1.042060867987750e+001
0	 2.133340000006534e+000	 2.600030000017851e+000	 1.039551209447671e+001
0	 2.133340000006534e+000	 2.666700000016666e+000	 1.038338776589542e+001
0	 2.200010000009551e+000	 2.000000000000000e+000	 1.108916453432143e+001
0	 2.200010000009551e+000	 2.066670000003317e+000	 1.097188632992345e+001
0	 2.200010000009551e+000	 2.133340000006534e+000	 1.086574618153608e+001
0	 2.200010000009551e+000	 2.200010000009551e+000	 1.077082862975614e+001
0	 2.200010000009551e+000	 2.266680000012268e+000	 1.068721821518062e+001
0	 2.200010000009550e+000	 2.333350000014583e+000	 1.061499947840656e+001
0	 2.200010000009550e+000	 2.400020000016400e+000	 1.055425696003114e+001
0	 2.200010000009551e+000	 2.466690000017618e+000	 1.050507520065162e+001
0	 2.200010000009550e+000	 2.533360000018133e+000	 1.046753874086537e+001
0	 2.200010000009551e+000	 2.600030000017851e+000	 1.044173212126988e+001
0	 2.200010000009551e+000	 2.666700000016666e+000	 1.042773988246269e+001
0	 2.266680000012268e+000	 2.000000000000000e+000	 1.109101961202180e+001
0	 2.266680000012267e+000	 2.066670000003317e+000	 1.098556096268615e+001
0	 2.266680000012267e+000	 2.133340000006534e+000	 1.088959543855655e+001
0	 2.266680000012267e+000	 2.200010000009550e+000	 1.080319216029296e+001
0	 2.266680000012267e+000	 2.266680000012267e+000	 1.072642024855543e+001
0	 2.266680000012268e+000	 2.333350000014584e+000	 1.065934882400410e+001
0	 2.266680000012267e+000	 2.400020000016400e+000	 1.060204700729919e+001
0	 2.266680000012267e+000	 2.466690000017617e+000	 1.055458391910102e+001
0	 2.266680000012268e+000	 2.533360000018134e+000	 1.051702868006998e+001
0	 2.266680000012268e+000	 2.600030000017851e+000	 1.048945041086656e+001
0	 2.266680000012268e+000	 2.666700000016667e+000	 1.047191823215132e+001
0	 2.333350000014584e+000	 2.000000000000000e+000	 1.108381016062285e+001
0	 2.333350000014584e+000	 2.066670000003316e+000	 1.099287769063171e+001
0	 2.333350000014585e+000	 2.133340000006534e+000	 1.090936440631343e+001
0	 2.333350000014585e+000	 2.200010000009551e+000	 1.083332435703359e+001
0	 2.333350000014584e+000	 2.266680000012267e+000	 1.076481159215784e+001
0	 2.333350000014584e+000	 2.333350000014584e+000	 1.070388016105188e+001
0	 2.333350000014584e+000	 2.400020000016401e+000	 1.065058411308148e+001
0	 2.333350000014584e+000	 2.466690000017617e+000	 1.060497749761251e+001
0	 2.333350000014585e+000	 2.533360000018134e+000	 1.056711436401087e+001
0	 2.333350000014585e+000	 2.600030000017851e+000	 1.053704876164253e+001
0	 2.333350000014584e+000	 2.666700000016666e+000	 1.051483473987353e+001
0	 2.400020000016401e+000	 2.000000000000000e+000	 1.106943560028285e+001
0	 2.400020000016401e+000	 2.066670000003317e+000	 1.099460830833278e+001
0	 2.400020000016400e+000	 2.133340000006534e+000	 1.092488144847396e+001
0	 2.400020000016401e+000	 2.200010000009550e+000	 1.086029434742010e+001
0	 2.400020000016401e+000	 2.266680000012267e+000	 1.080088633188494e+001
0	 2.400020000016401e+000	 2.333350000014584e+000	 1.074669672858227e+001
0	 2.400020000016401e+000	 2.400020000016400e+000	 1.069776486422589e+001
0	 2.400020000016401e+000	 2.466690000017617e+000	 1.065413006552970e+001
0	 2.400020000016401e+000	 2.533360000018134e+000	 1.061583165920762e+001
0	 2.400020000016402e+000	 2.600030000017852e+000	 1.058290897197357e+001
0	 2.400020000016401e+000	 2.666700000016666e+000	 1.055540133054158e+001
0	 2.466690000017618e+000	 2.000000000000000e+000	 1.104979535116009e+001
0	 2.466690000017618e+000	 2.066670000003317e+000	 1.099152461036198e+001
0	 2.466690000017617e+000	 2.133340000006534e+000	 1.093597492870536e+001
0	 2.466690000017618e+000	 2.200010000009551e+000	 1.088317125889452e+001
0	 2.466690000017618e+000	 2.266680000012268e+000	 1.083313855363384e+001
0	 2.466690000017617e+000	 2.333350000014584e+000	 1.078590176562762e+001
0	 2.466690000017617e+000	 2.400020000016400e+000	 1.074148584758028e+001
0	 2.466690000017618e+000	 2.466690000017618e+000	 1.069991575219619e+001
0	 2.466690000017617e+000	 2.533360000018134e+000	 1.066121643217977e+001
0	 2.466690000017618e+000	 2.600030000017851e+000	 1.062541284023546e+001
0	 2.466690000017618e+000	 2.666700000016666e+000	 1.059252992906770e+001
0	 2.533360000018134e+000	 2.000000000000000e+000	 1.102678883341285e+001
0	 2.533360000018134e+000	 2.066670000003317e+000	 1.098439839129198e+001
0	 2.533360000018134e+000	 2.133340000006534e+000	 1.094247321067486e+001
0	 2.533360000018134e+000	 2.200010000009550e+000	 1.090102421889893e+001
0	 2.533360000018134e+000	 2.266680000012268e+000	 1.086006234330161e+001
0	 2.533360000018135e+000	 2.333350000014585e+000	 1.081959851122033e+001
0	 2.533360000018134e+000	 2.400020000016401e+000	 1.077964364999251e+001
0	 2.533360000018134e+000	 2.466690000017617e+000	 1.074020868695557e+001
0	 2.533360000018134e+000	 2.533360000018134e+000	 1.070130454944692e+001
0	 2.533360000018134e+000	 2.600030000017850e+000	 1.066294216480398e+001
0	 2.533360000018134e+000	 2.666700000016666e+000	 1.062513246036416e+001
0	 2.600030000017851e+000	 2.000000000000000e+000	 1.100231546719941e+001
0	 2.600030000017850e+000	 2.066670000003317e+000	 1.097400144569540e+001
0	 2.600030000017851e+000	 2.133340000006534e+000	 1.094420465804970e+001
0	 2.600030000017851e+000	 2.200010000009550e+000	 1.091292235487535e+001
0	 2.600030000017850e+000	 2.266680000012267e+000	 1.088015178678537e+001
0	 2.600030000017850e+000	 2.333350000014584e+000	 1.084589020439275e+001
0	 2.600030000017851e+000	 2.400020000016400e+000	 1.081013485831047e+001
0	 2.600030000017850e+000	 2.466690000017618e+000	 1.077288299915145e+001
0	 2.600030000017850e+000	 2.533360000018134e+000	 1.073413187752864e+001
0	 2.600030000017851e+000	 2.600030000017851e+000	 1.069387874405494e+001
0	 2.600030000017850e+000	 2.666700000016666e+000	 1.065212084934322e+001
0	 2.666700000016667e+000	 2.000000000000000e+000	 1.097827467267807e+001
0	 2.666700000016667e+000	 2.066670000003317e+000	 1.096110556814490e+001
0	 2.666700000016666e+000	 2.133340000006534e+000	 1.094099763449712e+001
0	 2.666700000016666e+000	 2.200010000009550e+000	 1.091793479426587e+001
0	 2.666700000016667e+000	 2.266680000012268e+000	 1.089190096998223e+001
0	 2.666700000016666e+000	 2.333350000014584e+000	 1.086288008417728e+001
0	 2.666700000016667e+000	 2.400020000016401e+000	 1.083085605938202e+001
0	 2.666700000016666e+000	 2.466690000017618e+000	 1.079581281812746e+001
0	 2.666700000016666e+000	 2.533360000018134e+000	 1.075773428294452e+001
0	 2.666700000016666e+000	 2.600030000017850e+000	 1.071660437636413e+001
0	 2.666700000016667e+000	 2.666700000016667e+000	 1.067240702091716e+001
0	 2.000000000000000e+000	 2.666700000016667e+000	 1.029851453247605e+001
0	 2.000000000000000e+000	 2.733360000014533e+000	 1.028829028940198e+001
0	 2.000000000000000e+000	 2.800020000011600e+000	 1.027576860856495e+001
0	 2.000000000000000e+000	 2.866680000008067e+000	 1.026081773003194e+001
0	 2.000000000000000e+000	 2.933340000004133e+000	 1.024330589386993e+001
0	 2.000000000000000e+000	 3.000000000000000e+000	 1.022310134014597e+001
0	 2.000000000000000e+000	 3.066659999995867e+000	 1.020007230892716e+001
0	 2.000000000000000e+000	 3.133319999991934e+000	 1.017408704028064e+001
0	 2.000000000000000e+000	 3.199979999988400e+000	 1.014501377427358e+001
0	 2.000000000000000e+000	 3.266639999985468e+000	 1.011272075097318e+001
0	 2.000000000000000e+000	 3.333299999983334e+000	 1.007707621044673e+001
0	 2.066670000003317e+000	 2.666700000016667e+000	 1.033994995753728e+001
0	 2.066670000003318e+000	 2.733360000014533e+000	 1.033281985295158e+001
0	 2.066670000003317e+000	 2.800020000011600e+000	 1.032285040391091e+001
0	 2.066670000003316e+000	 2.866680000008066e+000	 1.030991948429143e+001
0	 2.066670000003317e+000	 2.933340000004133e+000	 1.029390496796940e+001
0	 2.066670000003318e+000	 3.000000000000000e+000	 1.027468472882111e+001
0	 2.066670000003317e+000	 3.066659999995867e+000	 1.025213664072292e+001
0	 2.066670000003317e+000	 3.133319999991933e+000	 1.022613857755121e+001
0	 2.066670000003317e+000	 3.199979999988401e+000	 1.019656841318245e+001
0	 2.066670000003317e+000	 3.266639999985467e+000	 1.016330402149314e+001
0	 2.066670000003317e+000	 3.333299999983333e+000	 1.012622327635986e+001
0	 2.133340000006534e+000	 2.666700000016666e+000	 1.038338776589542e+001
0	 2.133340000006534e+000	 2.733360000014533e+000	 1.037636670686004e+001
0	 2.133340000006534e+000	 2.800020000011600e+000	 1.036643447006065e+001
0	 2.133340000006534e+000	 2.866680000008067e+000	 1.035347569663759e+001
0	 2.133340000006534e+000	 2.933340000004133e+000	 1.033737502773122e+001
0	 2.133340000006535e+000	 3.000000000000001e+000	 1.031801710448197e+001
0	 2.133340000006534e+000	 3.066659999995868e+000	 1.029528656803036e+001
0	 2.133340000006534e+000	 3.133319999991934e+000	 1.026906805951692e+001
0	 2.133340000006534e+000	 3.199979999988401e+000	 1.023924622008226e+001
0	 2.133340000006534e+000	 3.266639999985467e+000	 1.020570569086703e+001
0	 2.133340000006534e+000	 3.333299999983334e+000	 1.016833111301198e+001
0	 2.200010000009551e+000	 2.666700000016666e+000	 1.042773988246269e+001
0	 2.200010000009551e+000	 2.733360000014533e+000	 1.041842214704867e+001
0	 2.200010000009551e+000	 2.800020000011601e+000	 1.040650595486747e+001
0	 2.200010000009550e+000	 2.866680000008066e+000	 1.039187984777845e+001
0	 2.200010000009550e+000	 2.933340000004133e+000	 1.037443236764102e+001
0	 2.200010000009551e+000	 3.000000000000000e+000	 1.035405205631466e+001
0	 2.200010000009550e+000	 3.066659999995866e+000	 1.033062745565889e+001
0	 2.200010000009550e+000	 3.133319999991934e+000	 1.030404710753326e+001
0	 2.200010000009551e+000	 3.199979999988400e+000	 1.027419955379741e+001
0	 2.200010000009551e+000	 3.266639999985467e+000	 1.024097333631102e+001
0	 2.200010000009551e+000	 3.333299999983335e+000	 1.020425699693380e+001
0	 2.266680000012268e+000	 2.666700000016667e+000	 1.047191823215131e+001
0	 2.266680000012267e+000	 2.733360000014533e+000	 1.045847746943881e+001
0	 2.266680000012267e+000	 2.800020000011599e+000	 1.044305000618463e+001
0	 2.266680000012267e+000	 2.866680000008067e+000	 1.042552541842209e+001
0	 2.266680000012268e+000	 2.933340000004134e+000	 1.040579328218453e+001
0	 2.266680000012268e+000	 3.000000000000000e+000	 1.038374317350532e+001
0	 2.266680000012268e+000	 3.066659999995868e+000	 1.035926466841789e+001
0	 2.266680000012268e+000	 3.133319999991934e+000	 1.033224734295572e+001
0	 2.266680000012267e+000	 3.199979999988400e+000	 1.030258077315232e+001
0	 2.266680000012268e+000	 3.266639999985468e+000	 1.027015453504124e+001
0	 2.266680000012267e+000	 3.333299999983333e+000	 1.023485820465609e+001
0	 2.333350000014584e+000	 2.666700000016666e+000	 1.051483473987354e+001
0	 2.333350000014584e+000	 2.733360000014533e+000	 1.049602396995180e+001
0	 2.333350000014585e+000	 2.800020000011600e+000	 1.047605177186543e+001
0	 2.333350000014584e+000	 2.866680000008067e+000	 1.045480588927659e+001
0	 2.333350000014585e+000	 2.933340000004134e+000	 1.043217406584741e+001
0	 2.333350000014585e+000	 3.000000000000000e+000	 1.040804404524007e+001
0	 2.333350000014585e+000	 3.066659999995868e+000	 1.038230357111680e+001
0	 2.333350000014584e+000	 3.133319999991934e+000	 1.035484038713982e+001
0	 2.333350000014585e+000	 3.199979999988401e+000	 1.032554223697141e+001
0	 2.333350000014585e+000	 3.266639999985466e+000	 1.029429686427389e+001
0	 2.333350000014584e+000	 3.333299999983333e+000	 1.026099201270957e+001
0	 2.400020000016401e+000	 2.666700000016666e+000	 1.055540133054158e+001
0	 2.400020000016402e+000	 2.733360000014533e+000	 1.053055294450897e+001
0	 2.400020000016401e+000	 2.800020000011600e+000	 1.050549639976317e+001
0	 2.400020000016401e+000	 2.866680000008067e+000	 1.048011474105003e+001
0	 2.400020000016402e+000	 2.933340000004134e+000	 1.045429101311538e+001
0	 2.400020000016401e+000	 2.999999999999999e+000	 1.042790826070509e+001
0	 2.400020000016402e+000	 3.066659999995868e+000	 1.040084952856502e+001
0	 2.400020000016401e+000	 3.133319999991934e+000	 1.037299786144107e+001
0	 2.400020000016401e+000	 3.199979999988401e+000	 1.034423630407914e+001
0	 2.400020000016401e+000	 3.266639999985467e+000	 1.031444790122514e+001
0	 2.400020000016401e+000	 3.333299999983334e+000	 1.028351569762502e+001
0	 2.466690000017618e+000	 2.666700000016666e+000	 1.059252992906770e+001
0	 2.466690000017617e+000	 2.733360000014533e+000	 1.056155568903169e+001
0	 2.466690000017618e+000	 2.800020000011601e+000	 1.053136903773116e+001
0	 2.466690000017618e+000	 2.866680000008067e+000	 1.050184545445051e+001
0	 2.466690000017618e+000	 2.933340000004134e+000	 1.047286041847416e+001
0	 2.466690000017618e+000	 3.000000000000000e+000	 1.044428940908652e+001
0	 2.466690000017617e+000	 3.066659999995866e+000	 1.041600790557200e+001
0	 2.466690000017617e+000	 3.133319999991934e+000	 1.038789138721500e+001
0	 2.466690000017618e+000	 3.199979999988401e+000	 1.035981533329994e+001
0	 2.466690000017618e+000	 3.266639999985467e+000	 1.033165522311122e+001
0	 2.466690000017617e+000	 3.333299999983334e+000	 1.030328653593323e+001
0	 2.533360000018134e+000	 2.666700000016666e+000	 1.062513246036416e+001
0	 2.533360000018134e+000	 2.733360000014533e+000	 1.058852349944133e+001
0	 2.533360000018134e+000	 2.800020000011600e+000	 1.055365483362270e+001
0	 2.533360000018134e+000	 2.866680000008067e+000	 1.052039151018612e+001
0	 2.533360000018134e+000	 2.933340000004133e+000	 1.048859857640946e+001
0	 2.533360000018134e+000	 3.000000000000000e+000	 1.045814107957055e+001
0	 2.533360000018134e+000	 3.066659999995867e+000	 1.042888406694719e+001
0	 2.533360000018134e+000	 3.133319999991934e+000	 1.040069258581718e+001
0	 2.533360000018134e+000	 3.199979999988400e+000	 1.037343168345831e+001
0	 2.533360000018134e+000	 3.266639999985467e+000	 1.034696640714833e+001
0	 2.533360000018134e+000	 3.333299999983334e+000	 1.032116180416498e+001
0	 2.600030000017850e+000	 2.666700000016666e+000	 1.065212084934322e+001
0	 2.600030000017850e+000	 2.733360000014533e+000	 1.061094767165925e+001
0	 2.600030000017850e+000	 2.800020000011599e+000	 1.057233893529112e+001
0	 2.600030000017850e+000	 2.866680000008066e+000	 1.053614638896500e+001
0	 2.600030000017850e+000	 2.933340000004134e+000	 1.050222178140704e+001
0	 2.600030000017851e+000	 3.000000000000000e+000	 1.047041686134336e+001
0	 2.600030000017850e+000	 3.066659999995866e+000	 1.044058337750005e+001
0	 2.600030000017851e+000	 3.133319999991933e+000	 1.041257307860316e+001
0	 2.600030000017850e+000	 3.199979999988400e+000	 1.038623771337871e+001
0	 2.600030000017851e+000	 3.266639999985467e+000	 1.036142903055270e+001
0	 2.600030000017851e+000	 3.333299999983334e+000	 1.033799877885108e+001
0	 2.666700000016667e+000	 2.666700000016667e+000	 1.067240702091716e+001
0	 2.666700000016666e+000	 2.733360000014533e+000	 1.062831950160684e+001
0	 2.666700000016666e+000	 2.800020000011599e+000	 1.058740649058975e+001
0	 2.666700000016667e+000	 2.866680000008067e+000	 1.054950357149526e+001
0	 2.666700000016666e+000	 2.933340000004133e+000	 1.051444632795264e+001
0	 2.666700000016666e+000	 3.000000000000000e+000	 1.048207034359117e+001
0	 2.666700000016666e+000	 3.066659999995867e+000	 1.045221120204006e+001
0	 2.666700000016666e+000	 3.133319999991934e+000	 1.042470448692850e+001
0	 2.666700000016667e+000	 3.199979999988401e+000	 1.039938578188564e+001
0	 2.666700000016666e+000	 3.266639999985468e+000	 1.037609067054058e+001
0	 2.666700000016667e+000	 3.333299999983334e+000	 1.035465473652237e+001
0	 2.000000000000000e+000	 3.333299999983334e+000	 1.007707621044673e+001
0	 2.000000000000000e+000	 3.399969999982150e+000	 1.004147036305790e+001
0	 2.000000000000000e+000	 3.466639999981867e+000	 1.000942075496840e+001
0	 2.000000000000000e+000	 3.533309999982383e+000	 9.980969814362354e+000
0	 2.000000000000000e+000	 3.599979999983600e+000	 9.956159969423956e+000
0	 2.000000000000000e+000	 3.666649999985416e+000	 9.935033648337436e+000
0	 2.000000000000000e+000	 3.733319999987733e+000	 9.917633279287051e+000
0	 2.000000000000000e+000	 3.799989999990449e+000	 9.904001290457112e+000
0	 2.000000000000000e+000	 3.866659999993466e+000	 9.894180110031984e+000
0	 2.000000000000000e+000	 3.933329999996683e+000	 9.888212166196045e+000
0	 2.000000000000000e+000	 4.000000000000001e+000	 9.886139887133743e+000
0	 2.066670000003317e+000	 3.333299999983333e+000	 1.012622327635986e+001
0	 2.066670000003317e+000	 3.399969999982150e+000	 1.008896126278562e+001
0	 2.066670000003317e+000	 3.466639999981866e+000	 1.005526669869820e+001
0	 2.066670000003316e+000	 3.533309999982382e+000	 1.002517034227111e+001
0	 2.066670000003317e+000	 3.599979999983600e+000	 9.998702951677890e+000
0	 2.066670000003317e+000	 3.666649999985415e+000	 9.975895285092131e+000
0	 2.066670000003317e+000	 3.733319999987733e+000	 9.956778100687439e+000
0	 2.066670000003317e+000	 3.799989999990450e+000	 9.941382156637500e+000
0	 2.066670000003317e+000	 3.866659999993466e+000	 9.929738211116007e+000
0	 2.066670000003318e+000	 3.933329999996684e+000	 9.921877022296709e+000
0	 2.066670000003317e+000	 4.000000000000001e+000	 9.917829348353397e+000
0	 2.133340000006534e+000	 3.333299999983334e+000	 1.016833111301198e+001
0	 2.133340000006534e+000	 3.399969999982150e+000	 1.013070868933185e+001
0	 2.133340000006534e+000	 3.466639999981867e+000	 1.009652788220093e+001
0	 2.133340000006534e+000	 3.533309999982382e+000	 1.006581052180441e+001
0	 2.133340000006534e+000	 3.599979999983601e+000	 1.003857843832748e+001
0	 2.133340000006534e+000	 3.666649999985416e+000	 1.001485346195545e+001
0	 2.133340000006534e+000	 3.733319999987733e+000	 9.994657422873599e+000
0	 2.133340000006534e+000	 3.799989999990450e+000	 9.978012151267267e+000
0	 2.133340000006534e+000	 3.866659999993468e+000	 9.964939477321838e+000
0	 2.133340000006534e+000	 3.933329999996684e+000	 9.955461231222737e+000
0	 2.133340000006533e+000	 4.000000000000000e+000	 9.949599243155397e+000
0	 2.200010000009551e+000	 3.333299999983335e+000	 1.020425699693380e+001
0	 2.200010000009551e+000	 3.399969999982150e+000	 1.016734890063357e+001
0	 2.200010000009550e+000	 3.466639999981866e+000	 1.013364369800533e+001
0	 2.200010000009551e+000	 3.533309999982383e+000	 1.010315703326829e+001
0	 2.200010000009550e+000	 3.599979999983600e+000	 1.007590455064168e+001
0	 2.200010000009551e+000	 3.666649999985416e+000	 1.005190189434477e+001
0	 2.200010000009551e+000	 3.733319999987733e+000	 1.003116470859685e+001
0	 2.200010000009551e+000	 3.799989999990451e+000	 1.001370863761725e+001
0	 2.200010000009551e+000	 3.866659999993467e+000	 9.999549325625344e+000
0	 2.200010000009551e+000	 3.933329999996683e+000	 9.988702416840551e+000
0	 2.200010000009551e+000	 4.000000000000000e+000	 9.981183555482280e+000
0	 2.266680000012267e+000	 3.333299999983333e+000	 1.023485820465609e+001
0	 2.266680000012268e+000	 3.399969999982151e+000	 1.019951815462773e+001
0	 2.266680000012267e+000	 3.466639999981866e+000	 1.016705353864016e+001
0	 2.266680000012268e+000	 3.533309999982383e+000	 1.013747655696888e+001
0	 2.266680000012267e+000	 3.599979999983600e+000	 1.011079940988945e+001
0	 2.266680000012268e+000	 3.666649999985417e+000	 1.008703429767745e+001
0	 2.266680000012267e+000	 3.733319999987733e+000	 1.006619342060851e+001
0	 2.266680000012268e+000	 3.799989999990450e+000	 1.004828897895825e+001
0	 2.266680000012268e+000	 3.866659999993466e+000	 1.003333317300237e+001
0	 2.266680000012268e+000	 3.933329999996684e+000	 1.002133820301658e+001
0	 2.266680000012268e+000	 4.000000000000001e+000	 1.001231626927660e+001
0	 2.333350000014584e+000	 3.333299999983333e+000	 1.026099201270957e+001
0	 2.333350000014584e+000	 3.399969999982150e+000	 1.022785270925135e+001
0	 2.333350000014585e+000	 3.466639999981867e+000	 1.019719679663420e+001
0	 2.333350000014585e+000	 3.533309999982384e+000	 1.016903577321227e+001
0	 2.333350000014584e+000	 3.599979999983600e+000	 1.014338113733977e+001
0	 2.333350000014584e+000	 3.666649999985416e+000	 1.012024438737090e+001
0	 2.333350000014585e+000	 3.733319999987733e+000	 1.009963702165993e+001
0	 2.333350000014584e+000	 3.799989999990450e+000	 1.008157053856113e+001
0	 2.333350000014585e+000	 3.866659999993466e+000	 1.006605643642881e+001
0	 2.333350000014585e+000	 3.933329999996684e+000	 1.005310621361727e+001
0	 2.333350000014584e+000	 3.999999999999999e+000	 1.004273136848089e+001
0	 2.400020000016401e+000	 3.333299999983334e+000	 1.028351569762502e+001
0	 2.400020000016401e+000	 3.399969999982150e+000	 1.025298882244142e+001
0	 2.400020000016401e+000	 3.466639999981866e+000	 1.022451286451623e+001
0	 2.400020000016401e+000	 3.533309999982383e+000	 1.019810136230458e+001
0	 2.400020000016401e+000	 3.599979999983600e+000	 1.017376785426161e+001
0	 2.400020000016401e+000	 3.666649999985416e+000	 1.015152587884251e+001
0	 2.400020000016401e+000	 3.733319999987733e+000	 1.013138897450248e+001
0	 2.400020000016401e+000	 3.799989999990449e+000	 1.011337067969673e+001
0	 2.400020000016401e+000	 3.866659999993466e+000	 1.009748453288052e+001
0	 2.400020000016401e+000	 3.933329999996684e+000	 1.008374407250907e+001
0	 2.400020000016401e+000	 4.000000000000000e+000	 1.007216283703773e+001
0	 2.466690000017617e+000	 3.333299999983334e+000	 1.030328653593322e+001
0	 2.466690000017618e+000	 3.399969999982150e+000	 1.027556275213496e+001
0	 2.466690000017618e+000	 3.466639999981867e+000	 1.024944113481506e+001
0	 2.466690000017617e+000	 3.533309999982382e+000	 1.022494000455193e+001
0	 2.466690000017618e+000	 3.599979999983600e+000	 1.020207768192400e+001
0	 2.466690000017617e+000	 3.666649999985417e+000	 1.018087248750971e+001
0	 2.466690000017617e+000	 3.733319999987733e+000	 1.016134274188752e+001
0	 2.466690000017617e+000	 3.799989999990450e+000	 1.014350676563591e+001
0	 2.466690000017618e+000	 3.866659999993467e+000	 1.012738287933339e+001
0	 2.466690000017618e+000	 3.933329999996684e+000	 1.011298940355845e+001
0	 2.466690000017617e+000	 4.000000000000000e+000	 1.010034465888966e+001
0	 2.533360000018134e+000	 3.333299999983334e+000	 1.032116180416498e+001
0	 2.533360000018134e+000	 3.399969999982150e+000	 1.029621075626901e+001
0	 2.533360000018134e+000	 3.466639999981866e+000	 1.027242100005952e+001
0	 2.533360000018134e+000	 3.533309999982383e+000	 1.024981838026049e+001
0	 2.533360000018134e+000	 3.599979999983600e+000	 1.022842874159595e+001
0	 2.533360000018134e+000	 3.666649999985416e+000	 1.020827792878991e+001
0	 2.533360000018134e+000	 3.733319999987733e+000	 1.018939178656642e+001
0	 2.533360000018134e+000	 3.799989999990449e+000	 1.017179615964953e+001
0	 2.533360000018134e+000	 3.866659999993467e+000	 1.015551689276332e+001
0	 2.533360000018134e+000	 3.933329999996683e+000	 1.014057983063187e+001
0	 2.533360000018134e+000	 4.000000000000000e+000	 1.012701081797928e+001
0	 2.600030000017851e+000	 3.333299999983334e+000	 1.033799877885108e+001
0	 2.600030000017851e+000	 3.399969999982150e+000	 1.031556909278062e+001
0	 2.600030000017849e+000	 3.466639999981866e+000	 1.029389185277842e+001
0	 2.600030000017850e+000	 3.533309999982382e+000	 1.027300316973640e+001
0	 2.600030000017851e+000	 3.599979999983600e+000	 1.025293915454648e+001
0	 2.600030000017851e+000	 3.666649999985416e+000	 1.023373591810055e+001
0	 2.600030000017850e+000	 3.733319999987733e+000	 1.021542957129057e+001
0	 2.600030000017851e+000	 3.799989999990450e+000	 1.019805622500848e+001
0	 2.600030000017850e+000	 3.866659999993465e+000	 1.018165199014625e+001
0	 2.600030000017850e+000	 3.933329999996684e+000	 1.016625297759581e+001
0	 2.600030000017850e+000	 4.000000000000000e+000	 1.015189529824916e+001
0	 2.666700000016667e+000	 3.333299999983334e+000	 1.035465473652238e+001
0	 2.666700000016666e+000	 3.399969999982150e+000	 1.033427401960684e+001
0	 2.666700000016666e+000	 3.466639999981867e+000	 1.031429308550062e+001
0	 2.666700000016666e+000	 3.533309999982383e+000	 1.029476105328584e+001
0	 2.666700000016666e+000	 3.599979999983599e+000	 1.027572704204462e+001
0	 2.666700000016666e+000	 3.666649999985416e+000	 1.025724017085909e+001
0	 2.666700000016667e+000	 3.733319999987733e+000	 1.023934955881139e+001
0	 2.666700000016667e+000	 3.799989999990450e+000	 1.022210432498366e+001
0	 2.666700000016666e+000	 3.866659999993467e+000	 1.020555358845806e+001
0	 2.666700000016666e+000	 3.933329999996684e+000	 1.018974646831675e+001
0	 2.666700000016666e+000	 4.000000000000001e+000	 1.017473208364189e+001
0	 2.000000000000000e+000	 4.000000000000001e+000	 9.886139887133743e+000
0	 2.000000000000000e+000	 4.066670000003318e+000	 9.885722007280418e+000
0	 2.000000000000000e+000	 4.133340000006533e+000	 9.884727590674519e+000
0	 2.000000000000000e+000	 4.200010000009550e+000	 9.883214559905120e+000
0	 2.000000000000000e+000	 4.266680000012268e+000	 9.881240837561336e+000
0	 2.000000000000000e+000	 4.333350000014584e+000	 9.878864346232231e+000
0	 2.000000000000000e+000	 4.400020000016401e+000	 9.876143008506919e+000
0	 2.000000000000000e+000	 4.466690000017617e+000	 9.873134746974470e+000
0	 2.000000000000000e+000	 4.533360000018134e+000	 9.869897484223991e+000
0	 2.000000000000000e+000	 4.600030000017851e+000	 9.866489142844573e+000
0	 2.000000000000000e+000	 4.666700000016665e+000	 9.862967645425298e+000
0	 2.066670000003317e+000	 4.000000000000001e+000	 9.917829348353397e+000
0	 2.066670000003318e+000	 4.066670000003317e+000	 9.915530614718001e+000
0	 2.066670000003316e+000	 4.133340000006534e+000	 9.912925811072832e+000
0	 2.066670000003317e+000	 4.200010000009550e+000	 9.910060041967197e+000
0	 2.066670000003317e+000	 4.266680000012267e+000	 9.906978411950428e+000
0	 2.066670000003317e+000	 4.333350000014584e+000	 9.903726025571872e+000
0	 2.066670000003318e+000	 4.400020000016401e+000	 9.900347987380847e+000
0	 2.066670000003317e+000	 4.466690000017618e+000	 9.896889401926710e+000
0	 2.066670000003317e+000	 4.533360000018134e+000	 9.893395373758789e+000
0	 2.066670000003318e+000	 4.600030000017852e+000	 9.889911007426427e+000
0	 2.066670000003317e+000	 4.666700000016667e+000	 9.886481407478966e+000
0	 2.133340000006533e+000	 4.000000000000000e+000	 9.949599243155397e+000
0	 2.133340000006534e+000	 4.066670000003317e+000	 9.945504080309558e+000
0	 2.133340000006534e+000	 4.133340000006534e+000	 9.941333682243727e+000
0	 2.133340000006534e+000	 4.200010000009550e+000	 9.937120937696578e+000
0	 2.133340000006534e+000	 4.266680000012269e+000	 9.932898735406766e+000
0	 2.133340000006534e+000	 4.333350000014584e+000	 9.928699964112990e+000
0	 2.133340000006534e+000	 4.400020000016402e+000	 9.924557512553889e+000
0	 2.133340000006534e+000	 4.466690000017618e+000	 9.920504269468161e+000
0	 2.133340000006534e+000	 4.533360000018134e+000	 9.916573123594507e+000
0	 2.133340000006534e+000	 4.600030000017850e+000	 9.912796963671584e+000
0	 2.133340000006534e+000	 4.666700000016666e+000	 9.909208678438102e+000
0	 2.200010000009551e+000	 4.000000000000000e+000	 9.981183555482280e+000
0	 2.200010000009551e+000	 4.066670000003318e+000	 9.975386706408047e+000
0	 2.200010000009550e+000	 4.133340000006534e+000	 9.969709588433748e+000
0	 2.200010000009551e+000	 4.200010000009551e+000	 9.964173476716487e+000
0	 2.200010000009551e+000	 4.266680000012268e+000	 9.958799646413358e+000
0	 2.200010000009551e+000	 4.333350000014583e+000	 9.953609372681481e+000
0	 2.200010000009550e+000	 4.400020000016401e+000	 9.948623930677938e+000
0	 2.200010000009551e+000	 4.466690000017618e+000	 9.943864595559898e+000
0	 2.200010000009550e+000	 4.533360000018135e+000	 9.939352642484449e+000
0	 2.200010000009550e+000	 4.600030000017850e+000	 9.935109346608730e+000
0	 2.200010000009551e+000	 4.666700000016667e+000	 9.931155983089882e+000
0	 2.266680000012268e+000	 4.000000000000001e+000	 1.001231626927660e+001
0	 2.266680000012268e+000	 4.066670000003317e+000	 1.000492279536646e+001
0	 2.266680000012268e+000	 4.133340000006534e+000	 9.997811913889422e+000
0	 2.266680000012267e+000	 4.200010000009550e+000	 9.990993888650115e+000
0	 2.266680000012267e+000	 4.266680000012268e+000	 9.984478983453160e+000
0	 2.266680000012267e+000	 4.333350000014583e+000	 9.978277462103224e+000
0	 2.266680000012267e+000	 4.400020000016401e+000	 9.972399588404931e+000
0	 2.266680000012267e+000	 4.466690000017616e+000	 9.966855626162950e+000
0	 2.266680000012267e+000	 4.533360000018134e+000	 9.961655839181926e+000
0	 2.266680000012268e+000	 4.600030000017852e+000	 9.956810491266538e+000
0	 2.266680000012268e+000	 4.666700000016667e+000	 9.952329846221462e+000
0	 2.333350000014584e+000	 3.999999999999999e+000	 1.004273136848089e+001
0	 2.333350000014584e+000	 4.066670000003318e+000	 1.003385664953777e+001
0	 2.333350000014585e+000	 4.133340000006535e+000	 1.002539904285728e+001
0	 2.333350000014585e+000	 4.200010000009550e+000	 1.001735840312068e+001
0	 2.333350000014584e+000	 4.266680000012268e+000	 1.000973458500921e+001
0	 2.333350000014584e+000	 4.333350000014584e+000	 1.000252744320414e+001
0	 2.333350000014584e+000	 4.400020000016402e+000	 9.995736832386777e+000
0	 2.333350000014585e+000	 4.466690000017618e+000	 9.989362607238382e+000
0	 2.333350000014585e+000	 4.533360000018135e+000	 9.983404622440260e+000
0	 2.333350000014585e+000	 4.600030000017850e+000	 9.977862732673703e+000
0	 2.333350000014584e+000	 4.666700000016666e+000	 9.972736792620021e+000
0	 2.400020000016401e+000	 4.000000000000000e+000	 1.007216283703773e+001
0	 2.400020000016401e+000	 4.066670000003317e+000	 1.006193257127499e+001
0	 2.400020000016401e+000	 4.133340000006534e+000	 1.005222935958389e+001
0	 2.400020000016401e+000	 4.200010000009550e+000	 1.004304324975138e+001
0	 2.400020000016401e+000	 4.266680000012268e+000	 1.003436428956446e+001
0	 2.400020000016402e+000	 4.333350000014583e+000	 1.002618252681014e+001
0	 2.400020000016401e+000	 4.400020000016401e+000	 1.001848800927540e+001
0	 2.400020000016401e+000	 4.466690000017616e+000	 1.001127078474726e+001
0	 2.400020000016400e+000	 4.533360000018133e+000	 1.000452090101275e+001
0	 2.400020000016401e+000	 4.600030000017851e+000	 9.998228405858891e+000
0	 2.400020000016401e+000	 4.666700000016665e+000	 9.992383347072723e+000
0	 2.466690000017617e+000	 4.000000000000000e+000	 1.010034465888966e+001
0	 2.466690000017618e+000	 4.066670000003317e+000	 1.008889486293112e+001
0	 2.466690000017618e+000	 4.133340000006535e+000	 1.007806124831579e+001
0	 2.466690000017618e+000	 4.200010000009550e+000	 1.006782465816547e+001
0	 2.466690000017618e+000	 4.266680000012268e+000	 1.005816593560197e+001
0	 2.466690000017618e+000	 4.333350000014583e+000	 1.004906592374710e+001
0	 2.466690000017617e+000	 4.400020000016402e+000	 1.004050546572272e+001
0	 2.466690000017617e+000	 4.466690000017618e+000	 1.003246540465064e+001
0	 2.466690000017617e+000	 4.533360000018133e+000	 1.002492658365272e+001
0	 2.466690000017617e+000	 4.600030000017849e+000	 1.001786984585081e+001
0	 2.466690000017617e+000	 4.666700000016666e+000	 1.001127603436676e+001
0	 2.533360000018134e+000	 4.000000000000000e+000	 1.012701081797928e+001
0	 2.533360000018134e+000	 4.066670000003318e+000	 1.011448782685916e+001
0	 2.533360000018134e+000	 4.133340000006535e+000	 1.010265309329954e+001
0	 2.533360000018134e+000	 4.200010000009550e+000	 1.009147885798614e+001
0	 2.533360000018135e+000	 4.266680000012268e+000	 1.008093736160470e+001
0	 2.533360000018134e+000	 4.333350000014584e+000	 1.007100084484095e+001
0	 2.533360000018134e+000	 4.400020000016402e+000	 1.006164154838067e+001
0	 2.533360000018134e+000	 4.466690000017617e+000	 1.005283171290959e+001
0	 2.533360000018134e+000	 4.533360000018135e+000	 1.004454357911349e+001
0	 2.533360000018134e+000	 4.600030000017849e+000	 1.003674938767813e+001
0	 2.533360000018134e+000	 4.666700000016666e+000	 1.002942137928932e+001
0	 2.600030000017850e+000	 4.000000000000000e+000	 1.015189529824916e+001
0	 2.600030000017850e+000	 4.066670000003316e+000	 1.013845576541212e+001
0	 2.600030000017851e+000	 4.133340000006535e+000	 1.012576327878170e+001
0	 2.600030000017851e+000	 4.200010000009550e+000	 1.011378207883664e+001
0	 2.600030000017851e+000	 4.266680000012268e+000	 1.010247640605570e+001
0	 2.600030000017851e+000	 4.333350000014584e+000	 1.009181050091762e+001
0	 2.600030000017850e+000	 4.400020000016400e+000	 1.008174860390120e+001
0	 2.600030000017850e+000	 4.466690000017617e+000	 1.007225495548518e+001
0	 2.600030000017850e+000	 4.533360000018132e+000	 1.006329379614838e+001
0	 2.600030000017851e+000	 4.600030000017849e+000	 1.005482936636958e+001
0	 2.600030000017851e+000	 4.666700000016666e+000	 1.004682590662758e+001
0	 2.666700000016666e+000	 4.000000000000001e+000	 1.017473208364189e+001
0	 2.666700000016667e+000	 4.066670000003317e+000	 1.016054298094303e+001
0	 2.666700000016666e+000	 4.133340000006535e+000	 1.014715018900886e+001
0	 2.666700000016666e+000	 4.200010000009551e+000	 1.013451055034022e+001
0	 2.666700000016667e+000	 4.266680000012267e+000	 1.012258090743798e+001
0	 2.666700000016667e+000	 4.333350000014584e+000	 1.011131810280302e+001
0	 2.666700000016666e+000	 4.400020000016401e+000	 1.010067897893622e+001
0	 2.666700000016667e+000	 4.466690000017619e+000	 1.009062037833849e+001
0	 2.666700000016666e+000	 4.533360000018133e+000	 1.008109914351073e+001
0	 2.666700000016666e+000	 4.600030000017851e+000	 1.007207211695382e+001
0	 2.666700000016666e+000	 4.666700000016666e+000	 1.006349614116870e+001
0	 2.000000000000000e+000	 4.666700000016665e+000	 9.862967645425302e+000
0	 2.000000000000000e+000	 4.733360000014533e+000	 9.859725776665158e+000
0	 2.000000000000000e+000	 4.800020000011601e+000	 9.857104331115069e+000
0	 2.000000000000000e+000	 4.866680000008067e+000	 9.855084847507538e+000
0	 2.000000000000000e+000	 4.933340000004134e+000	 9.853648864575028e+000
0	 2.000000000000000e+000	 5.000000000000001e+000	 9.852777921050006e+000
0	 2.000000000000000e+000	 5.066659999995866e+000	 9.852453555664905e+000
0	 2.000000000000000e+000	 5.133319999991934e+000	 9.852657307152196e+000
0	 2.000000000000000e+000	 5.199979999988400e+000	 9.853370714244283e+000
0	 2.000000000000000e+000	 5.266639999985468e+000	 9.854575315673570e+000
0	 2.000000000000000e+000	 5.333299999983333e+000	 9.856252650172470e+000
0	 2.066670000003317e+000	 4.666700000016667e+000	 9.886481407478968e+000
0	 2.066670000003317e+000	 4.733360000014534e+000	 9.883297089190236e+000
0	 2.066670000003316e+000	 4.800020000011599e+000	 9.880515787072627e+000
0	 2.066670000003317e+000	 4.866680000008067e+000	 9.878134958689007e+000
0	 2.066670000003317e+000	 4.933340000004134e+000	 9.876152061602264e+000
0	 2.066670000003318e+000	 5.000000000000000e+000	 9.874564553375217e+000
0	 2.066670000003317e+000	 5.066659999995868e+000	 9.873369891570743e+000
0	 2.066670000003317e+000	 5.133319999991933e+000	 9.872565533751658e+000
0	 2.066670000003316e+000	 5.199979999988400e+000	 9.872148937480775e+000
0	 2.066670000003317e+000	 5.266639999985467e+000	 9.872117560320923e+000
0	 2.066670000003317e+000	 5.333299999983333e+000	 9.872468859834898e+000
0	 2.133340000006534e+000	 4.666700000016666e+000	 9.909208678438102e+000
0	 2.133340000006534e+000	 4.733360000014533e+000	 9.905849308923516e+000
0	 2.133340000006533e+000	 4.800020000011598e+000	 9.902744455011547e+000
0	 2.133340000006534e+000	 4.866680000008067e+000	 9.899905411167193e+000
0	 2.133340000006534e+000	 4.933340000004134e+000	 9.897343471855375e+000
0	 2.133340000006534e+000	 5.000000000000002e+000	 9.895069931541094e+000
0	 2.133340000006534e+000	 5.066659999995867e+000	 9.893096084689281e+000
0	 2.133340000006534e+000	 5.133319999991935e+000	 9.891433225764882e+000
0	 2.133340000006534e+000	 5.199979999988400e+000	 9.890092649232825e+000
0	 2.133340000006534e+000	 5.266639999985467e+000	 9.889085649558039e+000
0	 2.133340000006533e+000	 5.333299999983334e+000	 9.888423521205439e+000
0	 2.200010000009551e+000	 4.666700000016667e+000	 9.931155983089882e+000
0	 2.200010000009551e+000	 4.733360000014534e+000	 9.927430224962739e+000
0	 2.200010000009551e+000	 4.800020000011601e+000	 9.923869787781936e+000
0	 2.200010000009550e+000	 4.866680000008064e+000	 9.920497720986255e+000
0	 2.200010000009550e+000	 4.933340000004133e+000	 9.917337074014485e+000
0	 2.200010000009551e+000	 5.000000000000002e+000	 9.914410896305395e+000
0	 2.200010000009550e+000	 5.066659999995866e+000	 9.911742237297762e+000
0	 2.200010000009551e+000	 5.133319999991936e+000	 9.909354146430347e+000
0	 2.200010000009551e+000	 5.199979999988402e+000	 9.907269673141906e+000
0	 2.200010000009550e+000	 5.266639999985466e+000	 9.905511866871196e+000
0	 2.200010000009551e+000	 5.333299999983335e+000	 9.904103777056934e+000
0	 2.266680000012268e+000	 4.666700000016667e+000	 9.952329846221462e+000
0	 2.266680000012268e+000	 4.733360000014534e+000	 9.948087626405631e+000
0	 2.266680000012267e+000	 4.800020000011600e+000	 9.943971238233837e+000
0	 2.266680000012268e+000	 4.866680000008068e+000	 9.940013404190395e+000
0	 2.266680000012268e+000	 4.933340000004133e+000	 9.936246846759641e+000
0	 2.266680000012267e+000	 4.999999999999999e+000	 9.932704288425867e+000
0	 2.266680000012268e+000	 5.066659999995868e+000	 9.929418451673403e+000
0	 2.266680000012267e+000	 5.133319999991935e+000	 9.926422058986510e+000
0	 2.266680000012268e+000	 5.199979999988401e+000	 9.923747832849493e+000
0	 2.266680000012268e+000	 5.266639999985469e+000	 9.921428495746641e+000
0	 2.266680000012268e+000	 5.333299999983335e+000	 9.919496770162214e+000
0	 2.333350000014584e+000	 4.666700000016666e+000	 9.972736792620021e+000
0	 2.333350000014584e+000	 4.733360000014534e+000	 9.967869302349923e+000
0	 2.333350000014585e+000	 4.800020000011601e+000	 9.963128259217326e+000
0	 2.333350000014584e+000	 4.866680000008066e+000	 9.958553976823822e+000
0	 2.333350000014585e+000	 4.933340000004134e+000	 9.954186768770958e+000
0	 2.333350000014584e+000	 4.999999999999999e+000	 9.950066948660298e+000
0	 2.333350000014584e+000	 5.066659999995866e+000	 9.946234830093399e+000
0	 2.333350000014585e+000	 5.133319999991935e+000	 9.942730726671808e+000
0	 2.333350000014584e+000	 5.199979999988400e+000	 9.939594951997043e+000
0	 2.333350000014585e+000	 5.266639999985466e+000	 9.936867819670644e+000
0	 2.333350000014583e+000	 5.333299999983333e+000	 9.934589643294116e+000
0	 2.400020000016401e+000	 4.666700000016665e+000	 9.992383347072723e+000
0	 2.400020000016401e+000	 4.733360000014533e+000	 9.986823041893349e+000
0	 2.400020000016401e+000	 4.800020000011599e+000	 9.981420303582491e+000
0	 2.400020000016401e+000	 4.866680000008067e+000	 9.976220954930707e+000
0	 2.400020000016401e+000	 4.933340000004132e+000	 9.971270818728504e+000
0	 2.400020000016401e+000	 5.000000000000000e+000	 9.966615717766443e+000
0	 2.400020000016402e+000	 5.066659999995868e+000	 9.962301474835005e+000
0	 2.400020000016401e+000	 5.133319999991934e+000	 9.958373912724712e+000
0	 2.400020000016401e+000	 5.199979999988400e+000	 9.954878854226031e+000
0	 2.400020000016402e+000	 5.266639999985467e+000	 9.951862122129471e+000
0	 2.400020000016401e+000	 5.333299999983335e+000	 9.949369539225499e+000
0	 2.466690000017617e+000	 4.666700000016666e+000	 1.001127603436677e+001
0	 2.466690000017617e+000	 4.733360000014532e+000	 1.000499663413364e+001
0	 2.466690000017617e+000	 4.800020000011599e+000	 9.998926824179396e+000
0	 2.466690000017618e+000	 4.866680000008068e+000	 9.993115854555251e+000
0	 2.466690000017617e+000	 4.933340000004134e+000	 9.987612975312414e+000
0	 2.466690000017618e+000	 5.000000000000000e+000	 9.982467436502079e+000
0	 2.466690000017618e+000	 5.066659999995866e+000	 9.977728488175449e+000
0	 2.466690000017618e+000	 5.133319999991934e+000	 9.973445380383673e+000
0	 2.466690000017618e+000	 5.199979999988400e+000	 9.969667363177946e+000
0	 2.466690000017618e+000	 5.266639999985469e+000	 9.966443686609415e+000
0	 2.466690000017618e+000	 5.333299999983335e+000	 9.963823600729194e+000
0	 2.533360000018134e+000	 4.666700000016666e+000	 1.002942137928933e+001
0	 2.533360000018134e+000	 4.733360000014534e+000	 1.002243786816856e+001
0	 2.533360000018134e+000	 4.800020000011600e+000	 1.001572727385813e+001
0	 2.533360000018134e+000	 4.866680000008065e+000	 1.000934019174166e+001
0	 2.533360000018133e+000	 4.933340000004133e+000	 1.000332721720275e+001
0	 2.533360000018134e+000	 5.000000000000000e+000	 9.997738945624985e+000
0	 2.533360000018134e+000	 5.066659999995868e+000	 9.992625972391945e+000
0	 2.533360000018134e+000	 5.133319999991934e+000	 9.988038892887190e+000
0	 2.533360000018134e+000	 5.199979999988400e+000	 9.984028302494263e+000
0	 2.533360000018134e+000	 5.266639999985468e+000	 9.980644796596708e+000
0	 2.533360000018134e+000	 5.333299999983333e+000	 9.977938970578048e+000
0	 2.600030000017851e+000	 4.666700000016666e+000	 1.004682590662758e+001
0	 2.600030000017851e+000	 4.733360000014534e+000	 1.003919453309582e+001
0	 2.600030000017850e+000	 4.800020000011600e+000	 1.003190110546876e+001
0	 2.600030000017851e+000	 4.866680000008067e+000	 1.002499548253413e+001
0	 2.600030000017851e+000	 4.933340000004134e+000	 1.001852752307963e+001
0	 2.600030000017851e+000	 5.000000000000000e+000	 1.001254708589294e+001
0	 2.600030000017850e+000	 5.066659999995866e+000	 1.000710402976174e+001
0	 2.600030000017850e+000	 5.133319999991935e+000	 1.000224821347370e+001
0	 2.600030000017850e+000	 5.199979999988400e+000	 9.998029495816464e+000
0	 2.600030000017851e+000	 5.266639999985468e+000	 9.994497735577669e+000
0	 2.600030000017851e+000	 5.333299999983334e+000	 9.991702791544924e+000
0	 2.666700000016666e+000	 4.666700000016666e+000	 1.006349614116871e+001
0	 2.666700000016666e+000	 4.733360000014533e+000	 1.005531441801317e+001
0	 2.666700000016666e+000	 4.800020000011600e+000	 1.004752777186138e+001
0	 2.666700000016667e+000	 4.866680000008069e+000	 1.004018324297686e+001
0	 2.666700000016666e+000	 4.933340000004133e+000	 1.003332787162314e+001
0	 2.666700000016666e+000	 5.000000000000001e+000	 1.002700869806371e+001
0	 2.666700000016667e+000	 5.066659999995868e+000	 1.002127276256207e+001
0	 2.666700000016666e+000	 5.133319999991934e+000	 1.001616710538169e+001
0	 2.666700000016667e+000	 5.199979999988402e+000	 1.001173876678604e+001
0	 2.666700000016667e+000	 5.266639999985468e+000	 1.000803478703855e+001
0	 2.666700000016666e+000	 5.333299999983335e+000	 1.000510220640267e+001
0	 2.000000000000000e+000	 5.333299999983333e+000	 9.856252650172470e+000
0	 2.000000000000000e+000	 5.399969999982149e+000	 9.858146700862418e+000
0	 2.000000000000000e+000	 5.466639999981868e+000	 9.860031231399836e+000
0	 2.000000000000000e+000	 5.533309999982383e+000	 9.861933309801668e+000
0	 2.000000000000000e+000	 5.599979999983600e+000	 9.863880004084903e+000
0	 2.000000000000000e+000	 5.666649999985416e+000	 9.865898382266506e+000
0	 2.000000000000000e+000	 5.733319999987732e+000	 9.868015512363451e+000
0	 2.000000000000000e+000	 5.799989999990449e+000	 9.870258462392707e+000
0	 1.999999999999999e+000	 5.866659999993466e+000	 9.872654300371261e+000
0	 2.000000000000000e+000	 5.933329999996682e+000	 9.875230094316081e+000
0	 2.000000000000000e+000	 6.000000000000000e+000	 9.878012912244152e+000
0	 2.066670000003317e+000	 5.333299999983333e+000	 9.872468859834896e+000
0	 2.066670000003317e+000	 5.399969999982150e+000	 9.873099679709897e+000
0	 2.066670000003317e+000	 5.466639999981866e+000	 9.873917178063437e+000
0	 2.066670000003317e+000	 5.533309999982385e+000	 9.874934527933716e+000
0	 2.066670000003317e+000	 5.599979999983599e+000	 9.876164902359015e+000
0	 2.066670000003317e+000	 5.666649999985414e+000	 9.877621474377571e+000
0	 2.066670000003317e+000	 5.733319999987733e+000	 9.879317417027666e+000
0	 2.066670000003317e+000	 5.799989999990450e+000	 9.881265903347535e+000
0	 2.066670000003317e+000	 5.866659999993467e+000	 9.883480106375451e+000
0	 2.066670000003317e+000	 5.933329999996684e+000	 9.885973199149673e+000
0	 2.066670000003317e+000	 5.999999999999999e+000	 9.888758354708489e+000
0	 2.133340000006533e+000	 5.333299999983334e+000	 9.888423521205439e+000
0	 2.133340000006534e+000	 5.399969999982150e+000	 9.888096381255968e+000
0	 2.133340000006534e+000	 5.466639999981865e+000	 9.888087841092975e+000
0	 2.133340000006534e+000	 5.533309999982383e+000	 9.888399217945572e+000
0	 2.133340000006534e+000	 5.599979999983600e+000	 9.889031829042800e+000
0	 2.133340000006534e+000	 5.666649999985418e+000	 9.889986991613785e+000
0	 2.133340000006534e+000	 5.733319999987733e+000	 9.891266022887605e+000
0	 2.133340000006534e+000	 5.799989999990448e+000	 9.892870240093357e+000
0	 2.133340000006534e+000	 5.866659999993466e+000	 9.894800960460151e+000
0	 2.133340000006534e+000	 5.933329999996684e+000	 9.897059501217102e+000
0	 2.133340000006533e+000	 5.999999999999998e+000	 9.899647179593314e+000
0	 2.200010000009551e+000	 5.333299999983335e+000	 9.904103777056932e+000
0	 2.200010000009551e+000	 5.399969999982152e+000	 9.903078443504390e+000
0	 2.200010000009551e+000	 5.466639999981866e+000	 9.902448241153987e+000
0	 2.200010000009551e+000	 5.533309999982383e+000	 9.902204670595193e+000
0	 2.200010000009550e+000	 5.599979999983599e+000	 9.902339232417496e+000
0	 2.200010000009551e+000	 5.666649999985415e+000	 9.902843427210337e+000
0	 2.200010000009550e+000	 5.733319999987733e+000	 9.903708755563253e+000
0	 2.200010000009551e+000	 5.799989999990449e+000	 9.904926718065708e+000
0	 2.200010000009550e+000	 5.866659999993466e+000	 9.906488815307201e+000
0	 2.200010000009551e+000	 5.933329999996686e+000	 9.908386547877235e+000
0	 2.200010000009551e+000	 6.000000000000000e+000	 9.910611416365315e+000
0	 2.266680000012268e+000	 5.333299999983335e+000	 9.919496770162214e+000
0	 2.266680000012268e+000	 5.399969999982151e+000	 9.917987504458965e+000
0	 2.266680000012268e+000	 5.466639999981866e+000	 9.916903398911947e+000
0	 2.266680000012268e+000	 5.533309999982383e+000	 9.916228176640587e+000
0	 2.266680000012267e+000	 5.599979999983599e+000	 9.915945560764277e+000
0	 2.266680000012268e+000	 5.666649999985416e+000	 9.916039274402481e+000
0	 2.266680000012267e+000	 5.733319999987733e+000	 9.916493040674615e+000
0	 2.266680000012268e+000	 5.799989999990450e+000	 9.917290582700096e+000
0	 2.266680000012267e+000	 5.866659999993466e+000	 9.918415623598397e+000
0	 2.266680000012268e+000	 5.933329999996684e+000	 9.919851886488937e+000
0	 2.266680000012268e+000	 6.000000000000000e+000	 9.921583094491179e+000
0	 2.333350000014583e+000	 5.333299999983333e+000	 9.934589643294119e+000
0	 2.333350000014585e+000	 5.399969999982150e+000	 9.932765202123475e+000
0	 2.333350000014584e+000	 5.466639999981866e+000	 9.931358335032364e+000
0	 2.333350000014584e+000	 5.533309999982384e+000	 9.930347026839700e+000
0	 2.333350000014584e+000	 5.599979999983599e+000	 9.929709262364414e+000
0	 2.333350000014584e+000	 5.666649999985417e+000	 9.929423026425425e+000
0	 2.333350000014584e+000	 5.733319999987733e+000	 9.929466303841654e+000
0	 2.333350000014584e+000	 5.799989999990448e+000	 9.929817079432050e+000
0	 2.333350000014585e+000	 5.866659999993468e+000	 9.930453338015541e+000
0	 2.333350000014585e+000	 5.933329999996683e+000	 9.931353064411077e+000
0	 2.333350000014584e+000	 6.000000000000000e+000	 9.932494243437589e+000
0	 2.400020000016401e+000	 5.333299999983335e+000	 9.949369539225499e+000
0	 2.400020000016401e+000	 5.399969999982150e+000	 9.947353174501707e+000
0	 2.400020000016401e+000	 5.466639999981866e+000	 9.945718070180732e+000
0	 2.400020000016401e+000	 5.533309999982383e+000	 9.944438511950542e+000
0	 2.400020000016401e+000	 5.599979999983598e+000	 9.943488785499097e+000
0	 2.400020000016401e+000	 5.666649999985414e+000	 9.942843176514380e+000
0	 2.400020000016401e+000	 5.733319999987733e+000	 9.942475970684386e+000
0	 2.400020000016401e+000	 5.799989999990450e+000	 9.942361453697080e+000
0	 2.400020000016401e+000	 5.866659999993468e+000	 9.942473911240464e+000
0	 2.400020000016401e+000	 5.933329999996683e+000	 9.942787629002522e+000
0	 2.400020000016401e+000	 6.000000000000000e+000	 9.943276892671252e+000
0	 2.466690000017618e+000	 5.333299999983335e+000	 9.963823600729194e+000
0	 2.466690000017617e+000	 5.399969999982149e+000	 9.961693059597467e+000
0	 2.466690000017618e+000	 5.466639999981865e+000	 9.959887625022573e+000
0	 2.466690000017617e+000	 5.533309999982382e+000	 9.958379922731075e+000
0	 2.466690000017617e+000	 5.599979999983598e+000	 9.957142578449558e+000
0	 2.466690000017617e+000	 5.666649999985414e+000	 9.956148217904600e+000
0	 2.466690000017618e+000	 5.733319999987732e+000	 9.955369466822797e+000
0	 2.466690000017618e+000	 5.799989999990450e+000	 9.954778950930724e+000
0	 2.466690000017617e+000	 5.866659999993468e+000	 9.954349295954977e+000
0	 2.466690000017618e+000	 5.933329999996683e+000	 9.954053127622142e+000
0	 2.466690000017618e+000	 6.000000000000000e+000	 9.953863071658823e+000
0	 2.533360000018134e+000	 5.333299999983333e+000	 9.977938970578048e+000
0	 2.533360000018134e+000	 5.399969999982148e+000	 9.975726495414543e+000
0	 2.533360000018134e+000	 5.466639999981866e+000	 9.973772020223382e+000
0	 2.533360000018134e+000	 5.533309999982383e+000	 9.972048549939286e+000
0	 2.533360000018133e+000	 5.599979999983598e+000	 9.970529089497031e+000
0	 2.533360000018134e+000	 5.666649999985417e+000	 9.969186643831304e+000
0	 2.533360000018134e+000	 5.733319999987734e+000	 9.967994217876880e+000
0	 2.533360000018134e+000	 5.799989999990449e+000	 9.966924816568488e+000
0	 2.533360000018134e+000	 5.866659999993467e+000	 9.965951444840886e+000
0	 2.533360000018134e+000	 5.933329999996683e+000	 9.965047107628820e+000
0	 2.533360000018134e+000	 6.000000000000000e+000	 9.964184809867005e+000
0	 2.600030000017851e+000	 5.333299999983334e+000	 9.991702791544924e+000
0	 2.600030000017851e+000	 5.399969999982149e+000	 9.989395119956733e+000
0	 2.600030000017849e+000	 5.466639999981865e+000	 9.987276276448670e+000
0	 2.600030000017850e+000	 5.533309999982384e+000	 9.985321684333179e+000
0	 2.600030000017850e+000	 5.599979999983599e+000	 9.983506766922719e+000
0	 2.600030000017850e+000	 5.666649999985417e+000	 9.981806947529718e+000
0	 2.600030000017851e+000	 5.733319999987734e+000	 9.980197649466627e+000
0	 2.600030000017850e+000	 5.799989999990451e+000	 9.978654296045908e+000
0	 2.600030000017851e+000	 5.866659999993467e+000	 9.977152310580012e+000
0	 2.600030000017851e+000	 5.933329999996685e+000	 9.975667116381386e+000
0	 2.600030000017851e+000	 6.000000000000000e+000	 9.974174136762485e+000
0	 2.666700000016666e+000	 5.333299999983335e+000	 1.000510220640267e+001
0	 2.666700000016666e+000	 5.399969999982150e+000	 1.000264057122784e+001
0	 2.666700000016666e+000	 5.466639999981865e+000	 1.000030541436396e+001
0	 2.666700000016666e+000	 5.533309999982384e+000	 9.998076616670733e+000
0	 2.666700000016666e+000	 5.599979999983598e+000	 9.995934059007876e+000
0	 2.666700000016665e+000	 5.666649999985414e+000	 9.993857622235071e+000
0	 2.666700000016667e+000	 5.733319999987733e+000	 9.991827187212044e+000
0	 2.666700000016667e+000	 5.799989999990448e+000	 9.989822634798514e+000
0	 2.666700000016665e+000	 5.866659999993467e+000	 9.987823845854180e+000
0	 2.666700000016666e+000	 5.933329999996683e+000	 9.985810701238755e+000
0	 2.666700000016666e+000	 6.000000000000001e+000	 9.983763081811954e+000
0	 2.000000000000000e+000	 6.000000000000000e+000	 9.878012912244152e+000
0	 2.000000000000000e+000	 6.066670000003317e+000	 9.880899780420011e+000
0	 2.000000000000000e+000	 6.133340000006534e+000	 9.883767743711601e+000
0	 2.000000000000000e+000	 6.200010000009550e+000	 9.886613898041029e+000
0	 1.999999999999999e+000	 6.266680000012266e+000	 9.889435339330387e+000
0	 2.000000000000000e+000	 6.333350000014585e+000	 9.892229163501778e+000
0	 2.000000000000000e+000	 6.400020000016401e+000	 9.894992466477294e+000
0	 2.000000000000000e+000	 6.466690000017618e+000	 9.897722344179043e+000
0	 2.000000000000000e+000	 6.533360000018136e+000	 9.900415892529111e+000
0	 2.000000000000000e+000	 6.600030000017848e+000	 9.903070207449620e+000
0	 2.000000000000000e+000	 6.666700000016668e+000	 9.905682384862649e+000
0	 2.066670000003317e+000	 5.999999999999999e+000	 9.888758354708489e+000
0	 2.066670000003317e+000	 6.066670000003316e+000	 9.891631771415273e+000
0	 2.066670000003317e+000	 6.133340000006533e+000	 9.894385582813531e+000
0	 2.066670000003317e+000	 6.200010000009550e+000	 9.897026864711648e+000
0	 2.066670000003317e+000	 6.266680000012268e+000	 9.899562692918067e+000
0	 2.066670000003316e+000	 6.333350000014582e+000	 9.902000143241198e+000
0	 2.066670000003318e+000	 6.400020000016401e+000	 9.904346291489445e+000
0	 2.066670000003318e+000	 6.466690000017618e+000	 9.906608213471216e+000
0	 2.066670000003316e+000	 6.533360000018132e+000	 9.908792984994935e+000
0	 2.066670000003317e+000	 6.600030000017851e+000	 9.910907681869022e+000
0	 2.066670000003317e+000	 6.666700000016665e+000	 9.912959379901851e+000
0	 2.133340000006533e+000	 5.999999999999998e+000	 9.899647179593314e+000
0	 2.133340000006534e+000	 6.066670000003318e+000	 9.902306323282064e+000
0	 2.133340000006534e+000	 6.133340000006535e+000	 9.904788645058311e+000
0	 2.133340000006534e+000	 6.200010000009550e+000	 9.907109539773554e+000
0	 2.133340000006533e+000	 6.266680000012268e+000	 9.909284402279374e+000
0	 2.133340000006534e+000	 6.333350000014584e+000	 9.911328627427288e+000
0	 2.133340000006534e+000	 6.400020000016400e+000	 9.913257610068840e+000
0	 2.133340000006534e+000	 6.466690000017617e+000	 9.915086745055588e+000
0	 2.133340000006534e+000	 6.533360000018135e+000	 9.916831427239069e+000
0	 2.133340000006535e+000	 6.600030000017850e+000	 9.918507051470808e+000
0	 2.133340000006534e+000	 6.666700000016665e+000	 9.920129012602345e+000
0	 2.200010000009551e+000	 6.000000000000000e+000	 9.910611416365315e+000
0	 2.200010000009551e+000	 6.066670000003318e+000	 9.912891275804180e+000
0	 2.200010000009551e+000	 6.133340000006534e+000	 9.914974349534568e+000
0	 2.200010000009551e+000	 6.200010000009551e+000	 9.916882690607970e+000
0	 2.200010000009551e+000	 6.266680000012268e+000	 9.918638352075861e+000
0	 2.200010000009550e+000	 6.333350000014584e+000	 9.920263386989740e+000
0	 2.200010000009550e+000	 6.400020000016403e+000	 9.921779848401071e+000
0	 2.200010000009551e+000	 6.466690000017617e+000	 9.923209789361371e+000
0	 2.200010000009550e+000	 6.533360000018132e+000	 9.924575262922103e+000
0	 2.200010000009551e+000	 6.600030000017851e+000	 9.925898322134756e+000
0	 2.200010000009551e+000	 6.666700000016667e+000	 9.927201020050797e+000
0	 2.266680000012268e+000	 6.000000000000000e+000	 9.921583094491179e+000
0	 2.266680000012267e+000	 6.066670000003316e+000	 9.923354468765364e+000
0	 2.266680000012267e+000	 6.133340000006531e+000	 9.924940115330909e+000
0	 2.266680000012268e+000	 6.200010000009551e+000	 9.926367084596075e+000
0	 2.266680000012267e+000	 6.266680000012268e+000	 9.927662426969096e+000
0	 2.266680000012268e+000	 6.333350000014584e+000	 9.928853192858226e+000
0	 2.266680000012268e+000	 6.400020000016402e+000	 9.929966432671700e+000
0	 2.266680000012267e+000	 6.466690000017616e+000	 9.931029196817759e+000
0	 2.266680000012267e+000	 6.533360000018132e+000	 9.932068535704659e+000
0	 2.266680000012267e+000	 6.600030000017849e+000	 9.933111499740633e+000
0	 2.266680000012268e+000	 6.666700000016666e+000	 9.934185139333923e+000
0	 2.333350000014584e+000	 6.000000000000000e+000	 9.932494243437589e+000
0	 2.333350000014584e+000	 6.066670000003316e+000	 9.933663741949374e+000
0	 2.333350000014585e+000	 6.133340000006532e+000	 9.934683361535940e+000
0	 2.333350000014584e+000	 6.200010000009550e+000	 9.935583489119093e+000
0	 2.333350000014584e+000	 6.266680000012268e+000	 9.936394511620669e+000
0	 2.333350000014584e+000	 6.333350000014583e+000	 9.937146815962448e+000
0	 2.333350000014584e+000	 6.400020000016401e+000	 9.937870789066277e+000
0	 2.333350000014585e+000	 6.466690000017619e+000	 9.938596817853986e+000
0	 2.333350000014584e+000	 6.533360000018132e+000	 9.939355289247354e+000
0	 2.333350000014585e+000	 6.600030000017851e+000	 9.940176590168216e+000
0	 2.333350000014584e+000	 6.666700000016665e+000	 9.941091107538401e+000
0	 2.400020000016401e+000	 6.000000000000000e+000	 9.943276892671252e+000
0	 2.400020000016401e+000	 6.066670000003318e+000	 9.943786935139995e+000
0	 2.400020000016401e+000	 6.133340000006532e+000	 9.944201507238251e+000
0	 2.400020000016401e+000	 6.200010000009550e+000	 9.944552671558231e+000
0	 2.400020000016401e+000	 6.266680000012267e+000	 9.944872490692099e+000
0	 2.400020000016401e+000	 6.333350000014582e+000	 9.945193027232090e+000
0	 2.400020000016400e+000	 6.400020000016400e+000	 9.945546343770412e+000
0	 2.400020000016401e+000	 6.466690000017618e+000	 9.945964502899249e+000
0	 2.400020000016401e+000	 6.533360000018134e+000	 9.946479567210792e+000
0	 2.400020000016401e+000	 6.600030000017850e+000	 9.947123599297285e+000
0	 2.400020000016401e+000	 6.666700000016667e+000	 9.947928661750916e+000
0	 2.466690000017618e+000	 6.000000000000000e+000	 9.953863071658823e+000
0	 2.466690000017618e+000	 6.066670000003317e+000	 9.953691888120986e+000
0	 2.466690000017617e+000	 6.133340000006533e+000	 9.953491971526468e+000
0	 2.466690000017618e+000	 6.200010000009551e+000	 9.953295399294683e+000
0	 2.466690000017617e+000	 6.266680000012268e+000	 9.953134248844995e+000
0	 2.466690000017617e+000	 6.333350000014583e+000	 9.953040597596848e+000
0	 2.466690000017618e+000	 6.400020000016401e+000	 9.953046522969636e+000
0	 2.466690000017617e+000	 6.466690000017616e+000	 9.953184102382751e+000
0	 2.466690000017617e+000	 6.533360000018134e+000	 9.953485413255605e+000
0	 2.466690000017618e+000	 6.600030000017852e+000	 9.953982533007622e+000
0	 2.466690000017617e+000	 6.666700000016665e+000	 9.954707539058184e+000
0	 2.533360000018134e+000	 6.000000000000000e+000	 9.964184809867005e+000
0	 2.533360000018133e+000	 6.066670000003315e+000	 9.963346440676110e+000
0	 2.533360000018134e+000	 6.133340000006535e+000	 9.962552173489197e+000
0	 2.533360000018134e+000	 6.200010000009550e+000	 9.961832439709649e+000
0	 2.533360000018134e+000	 6.266680000012267e+000	 9.961217670740920e+000
0	 2.533360000018135e+000	 6.333350000014584e+000	 9.960738297986394e+000
0	 2.533360000018134e+000	 6.400020000016399e+000	 9.960424752849526e+000
0	 2.533360000018134e+000	 6.466690000017617e+000	 9.960307466733715e+000
0	 2.533360000018134e+000	 6.533360000018134e+000	 9.960416871042385e+000
0	 2.533360000018134e+000	 6.600030000017850e+000	 9.960783397178973e+000
0	 2.533360000018134e+000	 6.666700000016665e+000	 9.961437476546912e+000
0	 2.600030000017851e+000	 6.000000000000000e+000	 9.974174136762485e+000
0	 2.600030000017851e+000	 6.066670000003318e+000	 9.972718432589147e+000
0	 2.600030000017850e+000	 6.133340000006532e+000	 9.971379532215023e+000
0	 2.600030000017850e+000	 6.200010000009550e+000	 9.970184560184366e+000
0	 2.600030000017851e+000	 6.266680000012268e+000	 9.969160641041421e+000
0	 2.600030000017851e+000	 6.333350000014585e+000	 9.968334899330438e+000
0	 2.600030000017850e+000	 6.400020000016400e+000	 9.967734459595672e+000
0	 2.600030000017850e+000	 6.466690000017617e+000	 9.967386446381353e+000
0	 2.600030000017850e+000	 6.533360000018133e+000	 9.967317984231757e+000
0	 2.600030000017851e+000	 6.600030000017850e+000	 9.967556197691152e+000
0	 2.600030000017850e+000	 6.666700000016665e+000	 9.968128211303768e+000
0	 2.666700000016666e+000	 6.000000000000001e+000	 9.983763081811954e+000
0	 2.666700000016666e+000	 6.066670000003318e+000	 9.981775703643834e+000
0	 2.666700000016666e+000	 6.133340000006533e+000	 9.979971466792566e+000
0	 2.666700000016667e+000	 6.200010000009550e+000	 9.978372528100023e+000
0	 2.666700000016667e+000	 6.266680000012268e+000	 9.977001044408087e+000
0	 2.666700000016666e+000	 6.333350000014584e+000	 9.975879172558660e+000
0	 2.666700000016667e+000	 6.400020000016400e+000	 9.975029069393626e+000
0	 2.666700000016666e+000	 6.466690000017617e+000	 9.974472891754887e+000
0	 2.666700000016666e+000	 6.533360000018133e+000	 9.974232796484353e+000
0	 2.666700000016667e+000	 6.600030000017850e+000	 9.974330940423913e+000
0	 2.666700000016667e+000	 6.666700000016667e+000	 9.974789480415463e+000
0	 2.000000000000000e+000	 6.666700000016668e+000	 9.905682384862647e+000
0	 2.000000000000000e+000	 6.733360000014532e+000	 9.908280795849576e+000
0	 2.000000000000000e+000	 6.800020000011601e+000	 9.910899787001636e+000
0	 2.000000000000000e+000	 6.866680000008068e+000	 9.913544252000701e+000
0	 2.000000000000000e+000	 6.933340000004133e+000	 9.916219084528652e+000
0	 2.000000000000000e+000	 6.999999999999999e+000	 9.918929178267366e+000
0	 2.000000000000000e+000	 7.066659999995867e+000	 9.921679426898715e+000
0	 2.000000000000000e+000	 7.133319999991933e+000	 9.924474724104574e+000
0	 2.000000000000000e+000	 7.199979999988401e+000	 9.927319963566823e+000
0	 2.000000000000000e+000	 7.266639999985467e+000	 9.930220038967319e+000
0	 2.000000000000000e+000	 7.333299999983335e+000	 9.933179843987949e+000
0	 2.066670000003317e+000	 6.666700000016665e+000	 9.912959379901851e+000
0	 2.066670000003317e+000	 6.733360000014534e+000	 9.915028641263421e+000
0	 2.066670000003317e+000	 6.800020000011601e+000	 9.917191089784305e+000
0	 2.066670000003316e+000	 6.866680000008066e+000	 9.919445483658709e+000
0	 2.066670000003317e+000	 6.933340000004136e+000	 9.921790581080822e+000
0	 2.066670000003317e+000	 7.000000000000001e+000	 9.924225140244831e+000
0	 2.066670000003317e+000	 7.066659999995869e+000	 9.926747919344889e+000
0	 2.066670000003318e+000	 7.133319999991935e+000	 9.929357676575208e+000
0	 2.066670000003316e+000	 7.199979999988399e+000	 9.932053170129951e+000
0	 2.066670000003318e+000	 7.266639999985467e+000	 9.934833158203299e+000
0	 2.066670000003316e+000	 7.333299999983331e+000	 9.937696398989418e+000
0	 2.133340000006534e+000	 6.666700000016665e+000	 9.920129012602345e+000
0	 2.133340000006534e+000	 6.733360000014533e+000	 9.921800455565167e+000
0	 2.133340000006534e+000	 6.800020000011600e+000	 9.923610560166717e+000
0	 2.133340000006534e+000	 6.866680000008066e+000	 9.925553053491065e+000
0	 2.133340000006534e+000	 6.933340000004134e+000	 9.927621662622190e+000
0	 2.133340000006534e+000	 7.000000000000000e+000	 9.929810114644178e+000
0	 2.133340000006534e+000	 7.066659999995868e+000	 9.932112136641003e+000
0	 2.133340000006534e+000	 7.133319999991935e+000	 9.934521455696713e+000
0	 2.133340000006534e+000	 7.199979999988400e+000	 9.937031798895323e+000
0	 2.133340000006534e+000	 7.266639999985467e+000	 9.939636893320852e+000
0	 2.133340000006534e+000	 7.333299999983335e+000	 9.942330466057323e+000
0	 2.200010000009551e+000	 6.666700000016667e+000	 9.927201020050799e+000
0	 2.200010000009551e+000	 6.733360000014533e+000	 9.928584496421046e+000
0	 2.200010000009551e+000	 6.800020000011601e+000	 9.930128779137249e+000
0	 2.200010000009550e+000	 6.866680000008067e+000	 9.931823668550772e+000
0	 2.200010000009550e+000	 6.933340000004134e+000	 9.933658965013056e+000
0	 2.200010000009551e+000	 7.000000000000000e+000	 9.935624468875494e+000
0	 2.200010000009550e+000	 7.066659999995867e+000	 9.937709980489508e+000
0	 2.200010000009550e+000	 7.133319999991934e+000	 9.939905300206480e+000
0	 2.200010000009551e+000	 7.199979999988401e+000	 9.942200228377834e+000
0	 2.200010000009552e+000	 7.266639999985468e+000	 9.944584565354955e+000
0	 2.200010000009551e+000	 7.333299999983335e+000	 9.947048111489229e+000
0	 2.266680000012268e+000	 6.666700000016666e+000	 9.934185139333923e+000
0	 2.266680000012267e+000	 6.733360000014531e+000	 9.935369021497348e+000
0	 2.266680000012267e+000	 6.800020000011599e+000	 9.936716327684241e+000
0	 2.266680000012267e+000	 6.866680000008067e+000	 9.938214035890896e+000
0	 2.266680000012268e+000	 6.933340000004134e+000	 9.939849124113680e+000
0	 2.266680000012268e+000	 7.000000000000001e+000	 9.941608570348897e+000
0	 2.266680000012267e+000	 7.066659999995865e+000	 9.943479352592867e+000
0	 2.266680000012267e+000	 7.133319999991934e+000	 9.945448448841923e+000
0	 2.266680000012267e+000	 7.199979999988401e+000	 9.947502837092380e+000
0	 2.266680000012268e+000	 7.266639999985467e+000	 9.949629495340545e+000
0	 2.266680000012267e+000	 7.333299999983333e+000	 9.951815401582751e+000
0	 2.333350000014584e+000	 6.666700000016665e+000	 9.941091107538401e+000
0	 2.333350000014585e+000	 6.733360000014533e+000	 9.942142288460278e+000
0	 2.333350000014585e+000	 6.800020000011600e+000	 9.943343786796039e+000
0	 2.333350000014584e+000	 6.866680000008066e+000	 9.944680862564477e+000
0	 2.333350000014584e+000	 6.933340000004132e+000	 9.946138775784354e+000
0	 2.333350000014585e+000	 6.999999999999999e+000	 9.947702786474453e+000
0	 2.333350000014585e+000	 7.066659999995865e+000	 9.949358154653544e+000
0	 2.333350000014584e+000	 7.133319999991935e+000	 9.951090140340423e+000
0	 2.333350000014584e+000	 7.199979999988400e+000	 9.952884003553860e+000
0	 2.333350000014585e+000	 7.266639999985468e+000	 9.954725004312595e+000
0	 2.333350000014584e+000	 7.333299999983333e+000	 9.956598402635432e+000
0	 2.400020000016401e+000	 6.666700000016667e+000	 9.947928661750920e+000
0	 2.400020000016401e+000	 6.733360000014533e+000	 9.948892554976098e+000
0	 2.400020000016401e+000	 6.800020000011598e+000	 9.949981737461052e+000
0	 2.400020000016401e+000	 6.866680000008064e+000	 9.951180855624548e+000
0	 2.400020000016402e+000	 6.933340000004134e+000	 9.952474555885351e+000
0	 2.400020000016402e+000	 7.000000000000000e+000	 9.953847484662251e+000
0	 2.400020000016401e+000	 7.066659999995866e+000	 9.955284288374001e+000
0	 2.400020000016401e+000	 7.133319999991936e+000	 9.956769613439374e+000
0	 2.400020000016400e+000	 7.199979999988400e+000	 9.958288106277141e+000
0	 2.400020000016402e+000	 7.266639999985467e+000	 9.959824413306061e+000
0	 2.400020000016401e+000	 7.333299999983335e+000	 9.961363180944897e+000
0	 2.466690000017617e+000	 6.666700000016665e+000	 9.954707539058184e+000
0	 2.466690000017618e+000	 6.733360000014534e+000	 9.955608078711045e+000
0	 2.466690000017618e+000	 6.800020000011600e+000	 9.956600760667600e+000
0	 2.466690000017617e+000	 6.866680000008068e+000	 9.957670722124140e+000
0	 2.466690000017617e+000	 6.933340000004133e+000	 9.958803100276976e+000
0	 2.466690000017618e+000	 6.999999999999999e+000	 9.959983032322395e+000
0	 2.466690000017617e+000	 7.066659999995868e+000	 9.961195655456699e+000
0	 2.466690000017617e+000	 7.133319999991935e+000	 9.962426106876180e+000
0	 2.466690000017618e+000	 7.199979999988401e+000	 9.963659523777139e+000
0	 2.466690000017618e+000	 7.266639999985467e+000	 9.964881043355897e+000
0	 2.466690000017617e+000	 7.333299999983336e+000	 9.966075802808700e+000
0	 2.533360000018134e+000	 6.666700000016665e+000	 9.961437476546911e+000
0	 2.533360000018134e+000	 6.733360000014532e+000	 9.962277117331388e+000
0	 2.533360000018134e+000	 6.800020000011599e+000	 9.963171437404084e+000
0	 2.533360000018134e+000	 6.866680000008065e+000	 9.964107169116319e+000
0	 2.533360000018134e+000	 6.933340000004132e+000	 9.965071044819492e+000
0	 2.533360000018133e+000	 6.999999999999999e+000	 9.966049796864954e+000
0	 2.533360000018134e+000	 7.066659999995868e+000	 9.967030157604089e+000
0	 2.533360000018134e+000	 7.133319999991935e+000	 9.967998859388242e+000
0	 2.533360000018134e+000	 7.199979999988400e+000	 9.968942634568762e+000
0	 2.533360000018134e+000	 7.266639999985466e+000	 9.969848215497045e+000
0	 2.533360000018134e+000	 7.333299999983334e+000	 9.970702334524439e+000
0	 2.600030000017850e+000	 6.666700000016665e+000	 9.968128211303764e+000
0	 2.600030000017851e+000	 6.733360000014532e+000	 9.968887928503360e+000
0	 2.600030000017850e+000	 6.800020000011601e+000	 9.969664348658817e+000
0	 2.600030000017851e+000	 6.866680000008067e+000	 9.970446903654112e+000
0	 2.600030000017851e+000	 6.933340000004134e+000	 9.971225025373199e+000
0	 2.600030000017851e+000	 7.000000000000000e+000	 9.971988145700060e+000
0	 2.600030000017851e+000	 7.066659999995867e+000	 9.972725696518641e+000
0	 2.600030000017850e+000	 7.133319999991934e+000	 9.973427109712928e+000
0	 2.600030000017851e+000	 7.199979999988402e+000	 9.974081817166887e+000
0	 2.600030000017851e+000	 7.266639999985467e+000	 9.974679250764490e+000
0	 2.600030000017851e+000	 7.333299999983335e+000	 9.975208842389701e+000
0	 2.666700000016667e+000	 6.666700000016667e+000	 9.974789480415463e+000
0	 2.666700000016666e+000	 6.733360000014533e+000	 9.975428769893227e+000
0	 2.666700000016666e+000	 6.800020000011599e+000	 9.976050075420222e+000
0	 2.666700000016666e+000	 6.866680000008068e+000	 9.976646632790580e+000
0	 2.666700000016667e+000	 6.933340000004134e+000	 9.977211677798374e+000
0	 2.666700000016667e+000	 7.000000000000000e+000	 9.977738446237749e+000
0	 2.666700000016667e+000	 7.066659999995867e+000	 9.978220173902814e+000
0	 2.666700000016666e+000	 7.133319999991936e+000	 9.978650096587666e+000
0	 2.666700000016666e+000	 7.199979999988401e+000	 9.979021450086401e+000
0	 2.666700000016666e+000	 7.266639999985467e+000	 9.979327470193177e+000
0	 2.666700000016667e+000	 7.333299999983335e+000	 9.979561392702054e+000
0	 2.000000000000000e+000	 7.333299999983335e+000	 9.933179843987945e+000
0	 2.000000000000000e+000	 7.399969999982151e+000	 9.936127221888667e+000
0	 2.000000000000000e+000	 7.466639999981867e+000	 9.938988235257316e+000
0	 2.000000000000000e+000	 7.533309999982384e+000	 9.941766452987684e+000
0	 2.000000000000000e+000	 7.599979999983599e+000	 9.944465443973543e+000
0	 2.000000000000000e+000	 7.666649999985416e+000	 9.947088777108684e+000
0	 2.000000000000000e+000	 7.733319999987733e+000	 9.949640021286871e+000
0	 2.000000000000000e+000	 7.799989999990449e+000	 9.952122745401885e+000
0	 2.000000000000000e+000	 7.866659999993466e+000	 9.954540518347510e+000
0	 2.000000000000000e+000	 7.933329999996684e+000	 9.956896909017511e+000
0	 2.000000000000000e+000	 7.999999999999999e+000	 9.959195486305680e+000
0	 2.066670000003316e+000	 7.333299999983331e+000	 9.937696398989418e+000
0	 2.066670000003317e+000	 7.399969999982150e+000	 9.940541270845147e+000
0	 2.066670000003317e+000	 7.466639999981865e+000	 9.943270945804974e+000
0	 2.066670000003317e+000	 7.533309999982384e+000	 9.945892679714202e+000
0	 2.066670000003318e+000	 7.599979999983600e+000	 9.948413728418140e+000
0	 2.066670000003317e+000	 7.666649999985414e+000	 9.950841347762109e+000
0	 2.066670000003317e+000	 7.733319999987731e+000	 9.953182793591417e+000
0	 2.066670000003317e+000	 7.799989999990450e+000	 9.955445321751384e+000
0	 2.066670000003317e+000	 7.866659999993468e+000	 9.957636188087287e+000
0	 2.066670000003318e+000	 7.933329999996684e+000	 9.959762648444464e+000
0	 2.066670000003317e+000	 7.999999999999999e+000	 9.961831958668201e+000
0	 2.133340000006534e+000	 7.333299999983335e+000	 9.942330466057323e+000
0	 2.133340000006534e+000	 7.399969999982150e+000	 9.944998821879574e+000
0	 2.133340000006534e+000	 7.466639999981867e+000	 9.947538445477322e+000
0	 2.133340000006533e+000	 7.533309999982382e+000	 9.949959565004354e+000
0	 2.133340000006534e+000	 7.599979999983600e+000	 9.952272408614537e+000
0	 2.133340000006534e+000	 7.666649999985416e+000	 9.954487204461650e+000
0	 2.133340000006534e+000	 7.733319999987731e+000	 9.956614180699519e+000
0	 2.133340000006534e+000	 7.799989999990448e+000	 9.958663565481976e+000
0	 2.133340000006534e+000	 7.866659999993466e+000	 9.960645586962809e+000
0	 2.133340000006534e+000	 7.933329999996685e+000	 9.962570473295845e+000
0	 2.133340000006534e+000	 8.000000000000000e+000	 9.964448452634905e+000
0	 2.200010000009551e+000	 7.333299999983335e+000	 9.947048111489229e+000
0	 2.200010000009551e+000	 7.399969999982150e+000	 9.949479496228406e+000
0	 2.200010000009551e+000	 7.466639999981867e+000	 9.951781722665205e+000
0	 2.200010000009551e+000	 7.533309999982385e+000	 9.953967276618936e+000
0	 2.200010000009550e+000	 7.599979999983601e+000	 9.956048643908911e+000
0	 2.200010000009550e+000	 7.666649999985416e+000	 9.958038310354400e+000
0	 2.200010000009551e+000	 7.733319999987732e+000	 9.959948761774733e+000
0	 2.200010000009551e+000	 7.799989999990449e+000	 9.961792483989182e+000
0	 2.200010000009551e+000	 7.866659999993468e+000	 9.963581962817058e+000
0	 2.200010000009551e+000	 7.933329999996684e+000	 9.965329684077645e+000
0	 2.200010000009551e+000	 8.000000000000000e+000	 9.967048133590259e+000
0	 2.266680000012267e+000	 7.333299999983333e+000	 9.951815401582751e+000
0	 2.266680000012267e+000	 7.399969999982149e+000	 9.953962915128109e+000
0	 2.266680000012267e+000	 7.466639999981863e+000	 9.955991765759494e+000
0	 2.266680000012267e+000	 7.533309999982382e+000	 9.957915982318690e+000
0	 2.266680000012267e+000	 7.599979999983599e+000	 9.959749593647437e+000
0	 2.266680000012268e+000	 7.666649999985416e+000	 9.961506628587495e+000
0	 2.266680000012267e+000	 7.733319999987733e+000	 9.963201115980601e+000
0	 2.266680000012268e+000	 7.799989999990449e+000	 9.964847084668516e+000
0	 2.266680000012267e+000	 7.866659999993468e+000	 9.966458563493005e+000
0	 2.266680000012267e+000	 7.933329999996682e+000	 9.968049581295817e+000
0	 2.266680000012267e+000	 7.999999999999998e+000	 9.969634166918688e+000
0	 2.333350000014584e+000	 7.333299999983333e+000	 9.956598402635432e+000
0	 2.333350000014584e+000	 7.399969999982148e+000	 9.958428699815134e+000
0	 2.333350000014584e+000	 7.466639999981866e+000	 9.960159563151054e+000
0	 2.333350000014584e+000	 7.533309999982383e+000	 9.961805849864382e+000
0	 2.333350000014584e+000	 7.599979999983599e+000	 9.963382417176304e+000
0	 2.333350000014585e+000	 7.666649999985417e+000	 9.964904122308004e+000
0	 2.333350000014584e+000	 7.733319999987733e+000	 9.966385822480666e+000
0	 2.333350000014584e+000	 7.799989999990449e+000	 9.967842374915474e+000
0	 2.333350000014585e+000	 7.866659999993465e+000	 9.969288636833625e+000
0	 2.333350000014584e+000	 7.933329999996682e+000	 9.970739465456285e+000
0	 2.333350000014583e+000	 8.000000000000000e+000	 9.972209718004640e+000
0	 2.400020000016401e+000	 7.333299999983335e+000	 9.961363180944897e+000
0	 2.400020000016401e+000	 7.399969999982149e+000	 9.962856471525972e+000
0	 2.400020000016401e+000	 7.466639999981866e+000	 9.964276103230725e+000
0	 2.400020000016401e+000	 7.533309999982383e+000	 9.965637047016765e+000
0	 2.400020000016401e+000	 7.599979999983599e+000	 9.966954273841681e+000
0	 2.400020000016401e+000	 7.666649999985415e+000	 9.968242754663063e+000
0	 2.400020000016401e+000	 7.733319999987733e+000	 9.969517460438503e+000
0	 2.400020000016400e+000	 7.799989999990447e+000	 9.970793362125587e+000
0	 2.400020000016401e+000	 7.866659999993467e+000	 9.972085430681903e+000
0	 2.400020000016401e+000	 7.933329999996683e+000	 9.973408637065047e+000
0	 2.400020000016401e+000	 8.000000000000000e+000	 9.974777952232614e+000
0	 2.466690000017617e+000	 7.333299999983336e+000	 9.966075802808698e+000
0	 2.466690000017618e+000	 7.399969999982151e+000	 9.967225851497052e+000
0	 2.466690000017618e+000	 7.466639999981866e+000	 9.968332374389361e+000
0	 2.466690000017617e+000	 7.533309999982383e+000	 9.969409741536609e+000
0	 2.466690000017618e+000	 7.599979999983601e+000	 9.970472322989753e+000
0	 2.466690000017618e+000	 7.666649999985418e+000	 9.971534488799774e+000
0	 2.466690000017617e+000	 7.733319999987734e+000	 9.972610609017639e+000
0	 2.466690000017618e+000	 7.799989999990449e+000	 9.973715053694329e+000
0	 2.466690000017617e+000	 7.866659999993468e+000	 9.974862192880796e+000
0	 2.466690000017618e+000	 7.933329999996683e+000	 9.976066396628042e+000
0	 2.466690000017618e+000	 8.000000000000000e+000	 9.977342034987020e+000
0	 2.533360000018134e+000	 7.333299999983334e+000	 9.970702334524439e+000
0	 2.533360000018134e+000	 7.399969999982149e+000	 9.971516460964866e+000
0	 2.533360000018134e+000	 7.466639999981867e+000	 9.972319365017823e+000
0	 2.533360000018134e+000	 7.533309999982385e+000	 9.973124101184659e+000
0	 2.533360000018134e+000	 7.599979999983598e+000	 9.973943723966693e+000
0	 2.533360000018134e+000	 7.666649999985415e+000	 9.974791287865234e+000
0	 2.533360000018134e+000	 7.733319999987733e+000	 9.975679847381628e+000
0	 2.533360000018134e+000	 7.799989999990449e+000	 9.976622457017216e+000
0	 2.533360000018134e+000	 7.866659999993467e+000	 9.977632171273296e+000
0	 2.533360000018134e+000	 7.933329999996683e+000	 9.978722044651217e+000
0	 2.533360000018133e+000	 8.000000000000000e+000	 9.979905131652313e+000
0	 2.600030000017851e+000	 7.333299999983335e+000	 9.975208842389701e+000
0	 2.600030000017851e+000	 7.399969999982149e+000	 9.975707921165860e+000
0	 2.600030000017850e+000	 7.466639999981865e+000	 9.976228063506976e+000
0	 2.600030000017851e+000	 7.533309999982384e+000	 9.976780293721690e+000
0	 2.600030000017851e+000	 7.599979999983599e+000	 9.977375636118669e+000
0	 2.600030000017851e+000	 7.666649999985416e+000	 9.978025115006561e+000
0	 2.600030000017850e+000	 7.733319999987733e+000	 9.978739754694043e+000
0	 2.600030000017850e+000	 7.799989999990449e+000	 9.979530579489753e+000
0	 2.600030000017851e+000	 7.866659999993467e+000	 9.980408613702364e+000
0	 2.600030000017850e+000	 7.933329999996685e+000	 9.981384881640551e+000
0	 2.600030000017851e+000	 8.000000000000000e+000	 9.982470407612954e+000
0	 2.666700000016667e+000	 7.333299999983335e+000	 9.979561392702053e+000
0	 2.666700000016667e+000	 7.399969999982151e+000	 9.979779853336511e+000
0	 2.666700000016666e+000	 7.466639999981866e+000	 9.980049458247660e+000
0	 2.666700000016666e+000	 7.533309999982383e+000	 9.980378486908453e+000
0	 2.666700000016666e+000	 7.599979999983598e+000	 9.980775218791871e+000
0	 2.666700000016666e+000	 7.666649999985416e+000	 9.981247933370868e+000
0	 2.666700000016667e+000	 7.733319999987733e+000	 9.981804910118408e+000
0	 2.666700000016667e+000	 7.799989999990449e+000	 9.982454428507465e+000
0	 2.666700000016665e+000	 7.866659999993464e+000	 9.983204768011001e+000
0	 2.666700000016666e+000	 7.933329999996683e+000	 9.984064208101996e+000
0	 2.666700000016667e+000	 8.000000000000000e+000	 9.985041028253407e+000
0	 2.000000000000000e+000	 7.999999999999999e+000	 9.959195486305680e+000
0	 2.000000000000000e+000	 8.066670000003319e+000	 9.961445483427308e+000
0	 2.000000000000000e+000	 8.133340000006534e+000	 9.963654618484719e+000
0	 2.000000000000000e+000	 8.200010000009549e+000	 9.965824187702237e+000
0	 2.000000000000000e+000	 8.266680000012267e+000	 9.967955487304170e+000
0	 2.000000000000000e+000	 8.333350000014585e+000	 9.970049813514828e+000
0	 1.999999999999999e+000	 8.400020000016397e+000	 9.972108462558529e+000
0	 2.000000000000000e+000	 8.466690000017618e+000	 9.974132730659582e+000
0	 2.000000000000000e+000	 8.533360000018131e+000	 9.976123914042292e+000
0	 2.000000000000000e+000	 8.600030000017851e+000	 9.978083308930996e+000
0	 2.000000000000000e+000	 8.666700000016666e+000	 9.980012211549962e+000
0	 2.066670000003317e+000	 7.999999999999999e+000	 9.961831958668201e+000
0	 2.066670000003317e+000	 8.066670000003317e+000	 9.963866391739011e+000
0	 2.066670000003316e+000	 8.133340000006532e+000	 9.965882798191274e+000
0	 2.066670000003317e+000	 8.200010000009549e+000	 9.967880300201161e+000
0	 2.066670000003317e+000	 8.266680000012268e+000	 9.969858019944873e+000
0	 2.066670000003317e+000	 8.333350000014583e+000	 9.971815079598574e+000
0	 2.066670000003318e+000	 8.400020000016401e+000	 9.973750601338455e+000
0	 2.066670000003316e+000	 8.466690000017616e+000	 9.975663707340665e+000
0	 2.066670000003317e+000	 8.533360000018135e+000	 9.977553519781388e+000
0	 2.066670000003317e+000	 8.600030000017851e+000	 9.979419160836805e+000
0	 2.066670000003317e+000	 8.666700000016666e+000	 9.981259752683092e+000
0	 2.133340000006534e+000	 8.000000000000000e+000	 9.964448452634905e+000
0	 2.133340000006534e+000	 8.066670000003317e+000	 9.966305524796301e+000
0	 2.133340000006534e+000	 8.133340000006536e+000	 9.968159122638822e+000
0	 2.133340000006534e+000	 8.200010000009550e+000	 9.970006623880039e+000
0	 2.133340000006534e+000	 8.266680000012268e+000	 9.971845406237476e+000
0	 2.133340000006534e+000	 8.333350000014583e+000	 9.973672847428675e+000
0	 2.133340000006534e+000	 8.400020000016401e+000	 9.975486325171195e+000
0	 2.133340000006534e+000	 8.466690000017616e+000	 9.977283217182595e+000
0	 2.133340000006534e+000	 8.533360000018135e+000	 9.979060901180402e+000
0	 2.133340000006535e+000	 8.600030000017851e+000	 9.980816754882156e+000
0	 2.133340000006534e+000	 8.666700000016668e+000	 9.982548156005391e+000
0	 2.200010000009551e+000	 8.000000000000000e+000	 9.967048133590259e+000
0	 2.200010000009551e+000	 8.066670000003319e+000	 9.968759397297637e+000
0	 2.200010000009551e+000	 8.133340000006532e+000	 9.970474612495320e+000
0	 2.200010000009551e+000	 8.200010000009550e+000	 9.972189842031716e+000
0	 2.200010000009551e+000	 8.266680000012268e+000	 9.973901148755266e+000
0	 2.200010000009550e+000	 8.333350000014583e+000	 9.975604595514355e+000
0	 2.200010000009550e+000	 8.400020000016399e+000	 9.977296245157444e+000
0	 2.200010000009551e+000	 8.466690000017618e+000	 9.978972160532930e+000
0	 2.200010000009550e+000	 8.533360000018135e+000	 9.980628404489231e+000
0	 2.200010000009550e+000	 8.600030000017851e+000	 9.982261039874777e+000
0	 2.200010000009551e+000	 8.666700000016666e+000	 9.983866129537972e+000
0	 2.266680000012267e+000	 7.999999999999998e+000	 9.969634166918688e+000
0	 2.266680000012268e+000	 8.066670000003319e+000	 9.971224523941451e+000
0	 2.266680000012267e+000	 8.133340000006530e+000	 9.972820288428657e+000
0	 2.266680000012268e+000	 8.200010000009554e+000	 9.974416637949085e+000
0	 2.266680000012266e+000	 8.266680000012265e+000	 9.976008750071559e+000
0	 2.266680000012268e+000	 8.333350000014583e+000	 9.977591802364863e+000
0	 2.266680000012268e+000	 8.400020000016403e+000	 9.979160972397798e+000
0	 2.266680000012267e+000	 8.466690000017618e+000	 9.980711437739171e+000
0	 2.266680000012268e+000	 8.533360000018135e+000	 9.982238375957772e+000
0	 2.266680000012268e+000	 8.600030000017849e+000	 9.983736964622411e+000
0	 2.266680000012268e+000	 8.666700000016670e+000	 9.985202381301878e+000
0	 2.333350000014583e+000	 8.000000000000000e+000	 9.972209718004640e+000
0	 2.333350000014584e+000	 8.066670000003315e+000	 9.973697419426202e+000
0	 2.333350000014585e+000	 8.133340000006532e+000	 9.975187171106766e+000
0	 2.333350000014584e+000	 8.200010000009552e+000	 9.976673694925035e+000
0	 2.333350000014583e+000	 8.266680000012267e+000	 9.978151712759681e+000
0	 2.333350000014584e+000	 8.333350000014583e+000	 9.979615946489407e+000
0	 2.333350000014584e+000	 8.400020000016401e+000	 9.981061117992903e+000
0	 2.333350000014584e+000	 8.466690000017618e+000	 9.982481949148831e+000
0	 2.333350000014585e+000	 8.533360000018135e+000	 9.983873161835895e+000
0	 2.333350000014585e+000	 8.600030000017851e+000	 9.985229477932784e+000
0	 2.333350000014584e+000	 8.666700000016668e+000	 9.986545619318148e+000
0	 2.400020000016401e+000	 8.000000000000000e+000	 9.974777952232614e+000
0	 2.400020000016401e+000	 8.066670000003317e+000	 9.976174598450315e+000
0	 2.400020000016401e+000	 8.133340000006534e+000	 9.977566281197554e+000
0	 2.400020000016401e+000	 8.200010000009550e+000	 9.978947696252408e+000
0	 2.400020000016402e+000	 8.266680000012268e+000	 9.980313539392942e+000
0	 2.400020000016402e+000	 8.333350000014583e+000	 9.981658506397240e+000
0	 2.400020000016401e+000	 8.400020000016397e+000	 9.982977293043369e+000
0	 2.400020000016401e+000	 8.466690000017618e+000	 9.984264595109439e+000
0	 2.400020000016401e+000	 8.533360000018135e+000	 9.985515108373498e+000
0	 2.400020000016401e+000	 8.600030000017851e+000	 9.986723528613613e+000
0	 2.400020000016401e+000	 8.666700000016665e+000	 9.987884551607884e+000
0	 2.466690000017618e+000	 8.000000000000000e+000	 9.977342034987020e+000
0	 2.466690000017617e+000	 8.066670000003317e+000	 9.978652575712252e+000
0	 2.466690000017617e+000	 8.133340000006534e+000	 9.979948639368956e+000
0	 2.466690000017619e+000	 8.200010000009552e+000	 9.981225325224095e+000
0	 2.466690000017618e+000	 8.266680000012268e+000	 9.982477732544643e+000
0	 2.466690000017617e+000	 8.333350000014585e+000	 9.983700960597577e+000
0	 2.466690000017617e+000	 8.400020000016401e+000	 9.984890108649879e+000
0	 2.466690000017617e+000	 8.466690000017616e+000	 9.986040275968518e+000
0	 2.466690000017618e+000	 8.533360000018135e+000	 9.987146561820447e+000
0	 2.466690000017618e+000	 8.600030000017849e+000	 9.988204065472663e+000
0	 2.466690000017618e+000	 8.666700000016668e+000	 9.989207886192130e+000
0	 2.533360000018133e+000	 8.000000000000000e+000	 9.979905131652313e+000
0	 2.533360000018134e+000	 8.066670000003315e+000	 9.981127865910446e+000
0	 2.533360000018134e+000	 8.133340000006534e+000	 9.982325266288877e+000
0	 2.533360000018133e+000	 8.200010000009549e+000	 9.983493265132969e+000
0	 2.533360000018134e+000	 8.266680000012268e+000	 9.984627794788104e+000
0	 2.533360000018135e+000	 8.333350000014585e+000	 9.985724787599674e+000
0	 2.533360000018134e+000	 8.400020000016403e+000	 9.986780175913030e+000
0	 2.533360000018134e+000	 8.466690000017616e+000	 9.987789892073563e+000
0	 2.533360000018134e+000	 8.533360000018133e+000	 9.988749868426636e+000
0	 2.533360000018134e+000	 8.600030000017851e+000	 9.989656037317648e+000
0	 2.533360000018134e+000	 8.666700000016666e+000	 9.990504331091943e+000
0	 2.600030000017851e+000	 8.000000000000000e+000	 9.982470407612954e+000
0	 2.600030000017851e+000	 8.066670000003317e+000	 9.983596983743354e+000
0	 2.600030000017850e+000	 8.133340000006532e+000	 9.984687182625237e+000
0	 2.600030000017851e+000	 8.200010000009552e+000	 9.985738199271918e+000
0	 2.600030000017851e+000	 8.266680000012268e+000	 9.986747228696647e+000
0	 2.600030000017851e+000	 8.333350000014585e+000	 9.987711465912733e+000
0	 2.600030000017850e+000	 8.400020000016401e+000	 9.988628105933469e+000
0	 2.600030000017850e+000	 8.466690000017618e+000	 9.989494343772115e+000
0	 2.600030000017850e+000	 8.533360000018133e+000	 9.990307374441965e+000
0	 2.600030000017850e+000	 8.600030000017849e+000	 9.991064392956298e+000
0	 2.600030000017851e+000	 8.666700000016668e+000	 9.991762594328398e+000
0	 2.666700000016667e+000	 8.000000000000000e+000	 9.985041028253407e+000
0	 2.666700000016666e+000	 8.066670000003317e+000	 9.986056443909405e+000
0	 2.666700000016666e+000	 8.133340000006532e+000	 9.987025409045957e+000
0	 2.666700000016666e+000	 8.200010000009550e+000	 9.987946810933792e+000
0	 2.666700000016666e+000	 8.266680000012267e+000	 9.988819536843575e+000
0	 2.666700000016666e+000	 8.333350000014583e+000	 9.989642474046013e+000
0	 2.666700000016665e+000	 8.400020000016399e+000	 9.990414509811821e+000
0	 2.666700000016666e+000	 8.466690000017618e+000	 9.991134531411683e+000
0	 2.666700000016666e+000	 8.533360000018133e+000	 9.991801426116297e+000
0	 2.666700000016666e+000	 8.600030000017851e+000	 9.992414081196344e+000
0	 2.666700000016666e+000	 8.666700000016668e+000	 9.992971383922530e+000
0	 2.000000000000000e+000	 8.666700000016666e+000	 9.980012211549962e+000
0	 2.000000000000000e+000	 8.733360002791905e+000	 9.981872286697755e+000
0	 2.000000000000000e+000	 8.800020022230555e+000	 9.983628145345026e+000
0	 2.000000000000000e+000	 8.866680074997039e+000	 9.985284641878888e+000
0	 2.000000000000000e+000	 8.933340177755779e+000	 9.986846630955029e+000
0	 2.000000000000000e+000	 9.000000347171183e+000	 9.988318967497694e+000
0	 2.000000000000000e+000	 9.066660599907667e+000	 9.989706506699749e+000
0	 2.000000000000000e+000	 9.133320952629653e+000	 9.991014104022558e+000
0	 2.000000000000000e+000	 9.199981422001558e+000	 9.992246615196054e+000
0	 2.000000000000000e+000	 9.266642024687796e+000	 9.993408896218739e+000
0	 2.000000000000000e+000	 9.333302777352783e+000	 9.994505803357621e+000
0	 2.066670000003317e+000	 8.666700000016666e+000	 9.981259752683092e+000
0	 2.066670000003317e+000	 8.733360002791905e+000	 9.983031158334775e+000
0	 2.066670000003317e+000	 8.800020022230557e+000	 9.984694368190317e+000
0	 2.066670000003318e+000	 8.866680074997042e+000	 9.986255373237484e+000
0	 2.066670000003317e+000	 8.933340177755779e+000	 9.987720164721681e+000
0	 2.066670000003317e+000	 9.000000347171184e+000	 9.989094734145979e+000
0	 2.066670000003317e+000	 9.066660599907671e+000	 9.990385073271071e+000
0	 2.066670000003316e+000	 9.133320952629656e+000	 9.991597174115281e+000
0	 2.066670000003317e+000	 9.199981422001560e+000	 9.992737028954515e+000
0	 2.066670000003317e+000	 9.266642024687798e+000	 9.993810630322351e+000
0	 2.066670000003317e+000	 9.333302777352783e+000	 9.994823971009939e+000
0	 2.133340000006534e+000	 8.666700000016668e+000	 9.982548156005395e+000
0	 2.133340000006534e+000	 8.733360002791903e+000	 9.984210178215893e+000
0	 2.133340000006534e+000	 8.800020022230553e+000	 9.985764717462649e+000
0	 2.133340000006534e+000	 8.866680074997042e+000	 9.987218611872802e+000
0	 2.133340000006534e+000	 8.933340177755776e+000	 9.988578699815243e+000
0	 2.133340000006534e+000	 9.000000347171181e+000	 9.989851819900530e+000
0	 2.133340000006534e+000	 9.066660599907666e+000	 9.991044810981025e+000
0	 2.133340000006534e+000	 9.133320952629655e+000	 9.992164512150779e+000
0	 2.133340000006534e+000	 9.199981422001558e+000	 9.993217762745582e+000
0	 2.133340000006534e+000	 9.266642024687796e+000	 9.994211402342938e+000
0	 2.133340000006534e+000	 9.333302777352783e+000	 9.995152270762015e+000
0	 2.200010000009551e+000	 8.666700000016666e+000	 9.983866129537974e+000
0	 2.200010000009551e+000	 8.733360002791905e+000	 9.985402052697774e+000
0	 2.200010000009551e+000	 8.800020022230557e+000	 9.986835220742961e+000
0	 2.200010000009550e+000	 8.866680074997039e+000	 9.988173029476975e+000
0	 2.200010000009551e+000	 8.933340177755778e+000	 9.989422874925147e+000
0	 2.200010000009550e+000	 9.000000347171183e+000	 9.990592153334637e+000
0	 2.200010000009550e+000	 9.066660599907667e+000	 9.991688261174609e+000
0	 2.200010000009551e+000	 9.133320952629656e+000	 9.992718595135919e+000
0	 2.200010000009551e+000	 9.199981422001558e+000	 9.993690552131442e+000
0	 2.200010000009551e+000	 9.266642024687799e+000	 9.994611529295858e+000
0	 2.200010000009551e+000	 9.333302777352783e+000	 9.995488923985656e+000
0	 2.266680000012268e+000	 8.666700000016670e+000	 9.985202381301878e+000
0	 2.266680000012267e+000	 8.733360002791901e+000	 9.986599488137117e+000
0	 2.266680000012267e+000	 8.800020022230553e+000	 9.987901905612201e+000
0	 2.266680000012267e+000	 8.866680074997042e+000	 9.989117297742117e+000
0	 2.266680000012268e+000	 8.933340177755781e+000	 9.990253328740909e+000
0	 2.266680000012268e+000	 9.000000347171181e+000	 9.991317663021734e+000
0	 2.266680000012267e+000	 9.066660599907669e+000	 9.992317965196845e+000
0	 2.266680000012268e+000	 9.133320952629653e+000	 9.993261900077574e+000
0	 2.266680000012267e+000	 9.199981422001558e+000	 9.994157132674292e+000
0	 2.266680000012267e+000	 9.266642024687796e+000	 9.995011328196478e+000
0	 2.266680000012268e+000	 9.333302777352783e+000	 9.995832152052678e+000
0	 2.333350000014584e+000	 8.666700000016668e+000	 9.986545619318148e+000
0	 2.333350000014585e+000	 8.733360002791905e+000	 9.987795190890585e+000
0	 2.333350000014585e+000	 8.800020022230557e+000	 9.988960799651313e+000
0	 2.333350000014584e+000	 8.866680074997040e+000	 9.990050088360315e+000
0	 2.333350000014585e+000	 8.933340177755779e+000	 9.991070699951994e+000
0	 2.333350000014585e+000	 9.000000347171183e+000	 9.992030277535106e+000
0	 2.333350000014585e+000	 9.066660599907669e+000	 9.992936464392786e+000
0	 2.333350000014584e+000	 9.133320952629658e+000	 9.993796903982572e+000
0	 2.333350000014585e+000	 9.199981422001560e+000	 9.994619239936290e+000
0	 2.333350000014584e+000	 9.266642024687796e+000	 9.995411116060192e+000
0	 2.333350000014584e+000	 9.333302777352781e+000	 9.996180176334843e+000
0	 2.400020000016401e+000	 8.666700000016665e+000	 9.987884551607884e+000
0	 2.400020000016400e+000	 8.733360002791899e+000	 9.988981867314905e+000
0	 2.400020000016401e+000	 8.800020022230555e+000	 9.990007930441241e+000
0	 2.400020000016401e+000	 8.866680074997040e+000	 9.990970073023721e+000
0	 2.400020000016402e+000	 8.933340177755779e+000	 9.991875627247888e+000
0	 2.400020000016401e+000	 9.000000347171181e+000	 9.992731925448107e+000
0	 2.400020000016401e+000	 9.066660599907667e+000	 9.993546300107463e+000
0	 2.400020000016401e+000	 9.133320952629655e+000	 9.994326083857773e+000
0	 2.400020000016401e+000	 9.199981422001558e+000	 9.995078609479632e+000
0	 2.400020000016402e+000	 9.266642024687796e+000	 9.995811209902357e+000
0	 2.400020000016400e+000	 9.333302777352781e+000	 9.996531218203996e+000
0	 2.466690000017618e+000	 8.666700000016668e+000	 9.989207886192130e+000
0	 2.466690000017617e+000	 8.733360002791901e+000	 9.990152223766733e+000
0	 2.466690000017618e+000	 8.800020022230559e+000	 9.991039325562955e+000
0	 2.466690000017618e+000	 8.866680074997042e+000	 9.991875923424438e+000
0	 2.466690000017617e+000	 8.933340177755776e+000	 9.992668749318101e+000
0	 2.466690000017618e+000	 9.000000347171183e+000	 9.993424535334111e+000
0	 2.466690000017617e+000	 9.066660599907667e+000	 9.994150013685871e+000
0	 2.466690000017618e+000	 9.133320952629656e+000	 9.994851916710031e+000
0	 2.466690000017618e+000	 9.199981422001557e+000	 9.995536976866486e+000
0	 2.466690000017618e+000	 9.266642024687798e+000	 9.996211926738344e+000
0	 2.466690000017618e+000	 9.333302777352783e+000	 9.996883499031897e+000
0	 2.533360000018134e+000	 8.666700000016666e+000	 9.990504331091943e+000
0	 2.533360000018134e+000	 8.733360002791899e+000	 9.991298966602754e+000
0	 2.533360000018134e+000	 8.800020022230557e+000	 9.992051012597358e+000
0	 2.533360000018134e+000	 8.866680074997042e+000	 9.992766311254567e+000
0	 2.533360000018135e+000	 8.933340177755779e+000	 9.993450704852069e+000
0	 2.533360000018135e+000	 9.000000347171181e+000	 9.994110035766415e+000
0	 2.533360000018134e+000	 9.066660599907667e+000	 9.994750146473056e+000
0	 2.533360000018135e+000	 9.133320952629656e+000	 9.995376879546203e+000
0	 2.533360000018134e+000	 9.199981422001557e+000	 9.995996077659054e+000
0	 2.533360000018134e+000	 9.266642024687798e+000	 9.996613583583518e+000
0	 2.533360000018134e+000	 9.333302777352783e+000	 9.997235240190397e+000
0	 2.600030000017851e+000	 8.666700000016668e+000	 9.991762594328396e+000
0	 2.600030000017851e+000	 8.733360002791903e+000	 9.992414802179678e+000
0	 2.600030000017850e+000	 8.800020022230555e+000	 9.993039019125439e+000
0	 2.600030000017850e+000	 8.866680074997042e+000	 9.993639908206241e+000
0	 2.600030000017851e+000	 8.933340177755778e+000	 9.994222132539283e+000
0	 2.600030000017851e+000	 9.000000347171183e+000	 9.994790355318397e+000
0	 2.600030000017851e+000	 9.066660599907669e+000	 9.995349239814013e+000
0	 2.600030000017851e+000	 9.133320952629655e+000	 9.995903449373159e+000
0	 2.600030000017851e+000	 9.199981422001558e+000	 9.996457647419499e+000
0	 2.600030000017851e+000	 9.266642024687798e+000	 9.997016497453240e+000
0	 2.600030000017850e+000	 9.333302777352781e+000	 9.997584663051258e+000
0	 2.666700000016666e+000	 8.666700000016668e+000	 9.992971383922530e+000
0	 2.666700000016667e+000	 8.733360002791903e+000	 9.993492436854156e+000
0	 2.666700000016667e+000	 8.800020022230555e+000	 9.993999372728109e+000
0	 2.666700000016666e+000	 8.866680074997040e+000	 9.994495385971563e+000
0	 2.666700000016667e+000	 8.933340177755779e+000	 9.994983671069251e+000
0	 2.666700000016666e+000	 9.000000347171183e+000	 9.995467422563417e+000
0	 2.666700000016666e+000	 9.066660599907667e+000	 9.995949835053800e+000
0	 2.666700000016666e+000	 9.133320952629655e+000	 9.996434103197723e+000
0	 2.666700000016667e+000	 9.199981422001557e+000	 9.996923421709999e+000
0	 2.666700000016667e+000	 9.266642024687794e+000	 9.997420985362904e+000
0	 2.666700000016666e+000	 9.333302777352785e+000	 9.997929988986286e+000
0	 2.000000000000000e+000	 9.333302777352783e+000	 9.994505803357621e+000
0	 2.000000000000000e+000	 9.399973674588177e+000	 9.995517609115336e+000
0	 2.000000000000000e+000	 9.466644621844621e+000	 9.996422501915589e+000
0	 2.000000000000000e+000	 9.533315502449998e+000	 9.997222689990712e+000
0	 2.000000000000000e+000	 9.599986199732198e+000	 9.997920379182023e+000
0	 2.000000000000000e+000	 9.666656597019093e+000	 9.998517772939458e+000
0	 2.000000000000000e+000	 9.733326577638575e+000	 9.999017072321005e+000
0	 2.000000000000000e+000	 9.799996024918524e+000	 9.999420475992411e+000
0	 2.000000000000000e+000	 9.866664822186822e+000	 9.999730180226404e+000
0	 2.000000000000000e+000	 9.933332852771352e+000	 9.999948378902213e+000
0	 2.000000000000000e+000	 1.000000000000000e+001	 1.000007726350482e+001
0	 2.066670000003317e+000	 9.333302777352783e+000	 9.994823971009939e+000
0	 2.066670000003317e+000	 9.399973674588177e+000	 9.995762343692274e+000
0	 2.066670000003317e+000	 9.466644621844623e+000	 9.996607055739085e+000
0	 2.066670000003317e+000	 9.533315502450000e+000	 9.997358563897956e+000
0	 2.066670000003317e+000	 9.599986199732197e+000	 9.998017322693935e+000
0	 2.066670000003318e+000	 9.666656597019095e+000	 9.998583784429025e+000
0	 2.066670000003317e+000	 9.733326577638573e+000	 9.999058399181873e+000
0	 2.066670000003318e+000	 9.799996024918524e+000	 9.999441614807244e+000
0	 2.066670000003318e+000	 9.866664822186822e+000	 9.999733876935455e+000
0	 2.066670000003317e+000	 9.933332852771352e+000	 9.999935628971809e+000
0	 2.066670000003316e+000	 9.999999999999998e+000	 1.000004731209591e+001
0	 2.133340000006534e+000	 9.333302777352783e+000	 9.995152270762015e+000
0	 2.133340000006534e+000	 9.399973674588177e+000	 9.996027566644189e+000
0	 2.133340000006534e+000	 9.466644621844621e+000	 9.996819006470878e+000
0	 2.133340000006534e+000	 9.533315502450003e+000	 9.997525618026613e+000
0	 2.133340000006534e+000	 9.599986199732195e+000	 9.998146427015154e+000
0	 2.133340000006534e+000	 9.666656597019093e+000	 9.998680457059002e+000
0	 2.133340000006534e+000	 9.733326577638577e+000	 9.999126729698995e+000
0	 2.133340000006534e+000	 9.799996024918523e+000	 9.999484264393836e+000
0	 2.133340000006534e+000	 9.866664822186820e+000	 9.999752078519665e+000
0	 2.133340000006534e+000	 9.933332852771351e+000	 9.999929187369203e+000
0	 2.133340000006534e+000	 1.000000000000000e+001	 1.000001460415145e+001
0	 2.200010000009551e+000	 9.333302777352783e+000	 9.995488923985652e+000
0	 2.200010000009551e+000	 9.399973674588173e+000	 9.996309332218015e+000
0	 2.200010000009550e+000	 9.466644621844621e+000	 9.997052776084837e+000
0	 2.200010000009551e+000	 9.533315502450000e+000	 9.997717176921116e+000
0	 2.200010000009550e+000	 9.599986199732197e+000	 9.998300454101569e+000
0	 2.200010000009551e+000	 9.666656597019095e+000	 9.998800525040274e+000
0	 2.200010000009551e+000	 9.733326577638573e+000	 9.999215305190450e+000
0	 2.200010000009551e+000	 9.799996024918523e+000	 9.999542708043734e+000
0	 2.200010000009550e+000	 9.866664822186822e+000	 9.999780645129759e+000
0	 2.200010000009551e+000	 9.933332852771354e+000	 9.999927026015763e+000
0	 2.200010000009550e+000	 1.000000000000000e+001	 9.999979758305667e+000
0	 2.266680000012268e+000	 9.333302777352783e+000	 9.995832152052680e+000
0	 2.266680000012267e+000	 9.399973674588175e+000	 9.996603694660612e+000
0	 2.266680000012268e+000	 9.466644621844619e+000	 9.997302786554926e+000
0	 2.266680000012268e+000	 9.533315502450002e+000	 9.997926565125985e+000
0	 2.266680000012268e+000	 9.599986199732197e+000	 9.998472165908968e+000
0	 2.266680000012267e+000	 9.666656597019093e+000	 9.998936722583741e+000
0	 2.266680000012268e+000	 9.733326577638575e+000	 9.999317366974275e+000
0	 2.266680000012268e+000	 9.799996024918526e+000	 9.999611229048259e+000
0	 2.266680000012268e+000	 9.866664822186824e+000	 9.999815436916625e+000
0	 2.266680000012268e+000	 9.933332852771354e+000	 9.999927116832998e+000
0	 2.266680000012268e+000	 1.000000000000000e+001	 9.999943393192920e+000
0	 2.333350000014584e+000	 9.333302777352781e+000	 9.996180176334846e+000
0	 2.333350000014584e+000	 9.399973674588173e+000	 9.996906708218871e+000
0	 2.333350000014584e+000	 9.466644621844621e+000	 9.997563459855021e+000
0	 2.333350000014584e+000	 9.533315502450002e+000	 9.998147107185615e+000
0	 2.333350000014584e+000	 9.599986199732197e+000	 9.998654324393211e+000
0	 2.333350000014585e+000	 9.666656597019093e+000	 9.999081783900216e+000
0	 2.333350000014584e+000	 9.733326577638575e+000	 9.999426156368475e+000
0	 2.333350000014584e+000	 9.799996024918523e+000	 9.999684110698919e+000
0	 2.333350000014584e+000	 9.866664822186822e+000	 9.999852314031031e+000
0	 2.333350000014584e+000	 9.933332852771352e+000	 9.999927431742169e+000
0	 2.333350000014584e+000	 1.000000000000000e+001	 9.999906127447327e+000
0	 2.400020000016400e+000	 9.333302777352781e+000	 9.996531218203996e+000
0	 2.400020000016401e+000	 9.399973674588178e+000	 9.997214427139669e+000
0	 2.400020000016401e+000	 9.466644621844623e+000	 9.997829217959010e+000
0	 2.400020000016401e+000	 9.533315502450002e+000	 9.998372127644560e+000
0	 2.400020000016401e+000	 9.599986199732197e+000	 9.998839691510165e+000
0	 2.400020000016402e+000	 9.666656597019093e+000	 9.999228443200593e+000
0	 2.400020000016401e+000	 9.733326577638579e+000	 9.999534914691099e+000
0	 2.400020000016401e+000	 9.799996024918523e+000	 9.999755636287130e+000
0	 2.400020000016401e+000	 9.866664822186822e+000	 9.999887136623668e+000
0	 2.400020000016401e+000	 9.933332852771351e+000	 9.999925942664813e+000
0	 2.400020000016401e+000	 1.000000000000000e+001	 9.999868579703211e+000
0	 2.466690000017618e+000	 9.333302777352783e+000	 9.996883499031901e+000
0	 2.466690000017618e+000	 9.399973674588177e+000	 9.997522905669960e+000
0	 2.466690000017618e+000	 9.466644621844623e+000	 9.998094482840825e+000
0	 2.466690000017617e+000	 9.533315502450000e+000	 9.998594951047227e+000
0	 2.466690000017617e+000	 9.599986199732198e+000	 9.999021029215628e+000
0	 2.466690000017618e+000	 9.666656597019095e+000	 9.999369434695714e+000
0	 2.466690000017618e+000	 9.733326577638577e+000	 9.999636883260211e+000
0	 2.466690000017617e+000	 9.799996024918523e+000	 9.999820089104336e+000
0	 2.466690000017617e+000	 9.866664822186822e+000	 9.999915764845422e+000
0	 2.466690000017618e+000	 9.933332852771354e+000	 9.999920621522275e+000
0	 2.466690000017618e+000	 1.000000000000000e+001	 9.999831368594828e+000
0	 2.533360000018134e+000	 9.333302777352783e+000	 9.997235240190394e+000
0	 2.533360000018134e+000	 9.399973674588177e+000	 9.997828198056572e+000
0	 2.533360000018134e+000	 9.466644621844621e+000	 9.998353676474364e+000
0	 2.533360000018134e+000	 9.533315502450002e+000	 9.998808901938141e+000
0	 2.533360000018134e+000	 9.599986199732197e+000	 9.999191099465431e+000
0	 2.533360000018134e+000	 9.666656597019095e+000	 9.999497492596463e+000
0	 2.533360000018135e+000	 9.733326577638575e+000	 9.999725303393785e+000
0	 2.533360000018134e+000	 9.799996024918524e+000	 9.999871752441978e+000
0	 2.533360000018134e+000	 9.866664822186824e+000	 9.999934058847021e+000
0	 2.533360000018134e+000	 9.933332852771354e+000	 9.999909440235992e+000
0	 2.533360000018134e+000	 1.000000000000000e+001	 9.999795112756384e+000
0	 2.600030000017850e+000	 9.333302777352781e+000	 9.997584663051256e+000
0	 2.600030000017851e+000	 9.399973674588177e+000	 9.998126358546445e+000
0	 2.600030000017850e+000	 9.466644621844619e+000	 9.998601220833526e+000
0	 2.600030000017850e+000	 9.533315502450002e+000	 9.999007304861737e+000
0	 2.600030000017850e+000	 9.599986199732197e+000	 9.999342664215442e+000
0	 2.600030000017850e+000	 9.666656597019093e+000	 9.999605351113692e+000
0	 2.600030000017850e+000	 9.733326577638575e+000	 9.999793416409920e+000
0	 2.600030000017850e+000	 9.799996024918523e+000	 9.999904909591500e+000
0	 2.600030000017851e+000	 9.866664822186824e+000	 9.999937878779337e+000
0	 2.600030000017850e+000	 9.933332852771351e+000	 9.999890370727345e+000
0	 2.600030000017850e+000	 1.000000000000000e+001	 9.999760430822136e+000
0	 2.666700000016666e+000	 9.333302777352785e+000	 9.997929988986288e+000
0	 2.666700000016666e+000	 9.399973674588178e+000	 9.998413441386445e+000
0	 2.666700000016666e+000	 9.466644621844617e+000	 9.998831537892224e+000
0	 2.666700000016666e+000	 9.533315502450000e+000	 9.999183484362501e+000
0	 2.666700000016666e+000	 9.599986199732197e+000	 9.999468485421486e+000
0	 2.666700000016667e+000	 9.666656597019095e+000	 9.999685744458287e+000
0	 2.666700000016666e+000	 9.733326577638575e+000	 9.999834463626572e+000
0	 2.666700000016667e+000	 9.799996024918521e+000	 9.999913843844279e+000
0	 2.666700000016666e+000	 9.866664822186822e+000	 9.999923084793016e+000
0	 2.666700000016666e+000	 9.933332852771351e+000	 9.999861384917814e+000
0	 2.666700000016666e+000	 1.000000000000000e+001	 9.999727941426437e+000
0	 2.666700000016666e+000	 0.000000000000000e+000	 1.097420405304376e+001
0	 2.666700000016666e+000	 6.666714722864756e-002	 1.115100637912928e+001
0	 2.666700000016666e+000	 1.333351778131789e-001	 1.128318948917049e+001
0	 2.666700000016666e+000	 2.000039750814772e-001	 1.137688546024740e+001
0	 2.666700000016666e+000	 2.666734223614255e-001	 1.143822635706201e+001
0	 2.666700000016666e+000	 3.333434029809069e-001	 1.147334423195126e+001
0	 2.666700000016666e+000	 4.000138002678045e-001	 1.148837112489949e+001
0	 2.666700000016666e+000	 4.666844975500011e-001	 1.148943906355082e+001
0	 2.666700000016666e+000	 5.333553781553803e-001	 1.148268006322094e+001
0	 2.666700000016666e+000	 6.000263254118247e-001	 1.147422612690880e+001
0	 2.666700000016666e+000	 6.666972226472175e-001	 1.147020924530782e+001
0	 2.733360000014533e+000	 0.000000000000000e+000	 1.050305135004365e+001
0	 2.733360000014533e+000	 6.666714722864756e-002	 1.070069032204182e+001
0	 2.733360000014533e+000	 1.333351778131789e-001	 1.086350671215334e+001
0	 2.733360000014533e+000	 2.000039750814772e-001	 1.099525493213661e+001
0	 2.733360000014532e+000	 2.666734223614255e-001	 1.109968930972055e+001
0	 2.733360000014533e+000	 3.333434029809069e-001	 1.118056408862859e+001
0	 2.733360000014533e+000	 4.000138002678044e-001	 1.124163342860051e+001
0	 2.733360000014533e+000	 4.666844975500011e-001	 1.128665140541198e+001
0	 2.733360000014533e+000	 5.333553781553801e-001	 1.131937201089201e+001
0	 2.733360000014533e+000	 6.000263254118246e-001	 1.134354915293810e+001
0	 2.733360000014533e+000	 6.666972226472175e-001	 1.136293665552919e+001
0	 2.800020000011600e+000	 0.000000000000000e+000	 1.019187661585071e+001
0	 2.800020000011600e+000	 6.666714722864754e-002	 1.038683772451873e+001
0	 2.800020000011600e+000	 1.333351778131790e-001	 1.055730636951721e+001
0	 2.800020000011600e+000	 2.000039750814773e-001	 1.070500976537928e+001
0	 2.800020000011600e+000	 2.666734223614255e-001	 1.083167500266630e+001
0	 2.800020000011600e+000	 3.333434029809069e-001	 1.093902904799745e+001
0	 2.800020000011600e+000	 4.000138002678044e-001	 1.102879874407612e+001
0	 2.800020000011600e+000	 4.666844975500012e-001	 1.110271080971316e+001
0	 2.800020000011600e+000	 5.333553781553803e-001	 1.116249183984670e+001
0	 2.800020000011599e+000	 6.000263254118249e-001	 1.120986830555887e+001
0	 2.800020000011599e+000	 6.666972226472175e-001	 1.124656655408916e+001
0	 2.866680000008067e+000	 0.000000000000000e+000	 1.001880927953612e+001
0	 2.866680000008066e+000	 6.666714722864754e-002	 1.019238291690285e+001
0	 2.866680000008067e+000	 1.333351778131790e-001	 1.035184915924887e+001
0	 2.866680000008066e+000	 2.000039750814772e-001	 1.049725853245753e+001
0	 2.866680000008067e+000	 2.666734223614255e-001	 1.062866142518104e+001
0	 2.866680000008067e+000	 3.333434029809069e-001	 1.074610808887133e+001
0	 2.866680000008067e+000	 4.000138002678044e-001	 1.084964863780712e+001
0	 2.866680000008067e+000	 4.666844975500011e-001	 1.093933304911758e+001
0	 2.866680000008066e+000	 5.333553781553803e-001	 1.101521116280218e+001
0	 2.866680000008067e+000	 6.000263254118248e-001	 1.107733268174717e+001
0	 2.866680000008067e+000	 6.666972226472177e-001	 1.112574717173823e+001
0	 2.933340000004133e+000	 0.000000000000000e+000	 9.961978770170470e+000
0	 2.933340000004133e+000	 6.666714722864756e-002	 1.010026022953626e+001
0	 2.933340000004133e+000	 1.333351778131789e-001	 1.023439577933437e+001
0	 2.933340000004133e+000	 2.000039750814772e-001	 1.036310980585268e+001
0	 2.933340000004134e+000	 2.666734223614256e-001	 1.048512656654576e+001
0	 2.933340000004133e+000	 3.333434029809070e-001	 1.059917019006305e+001
0	 2.933340000004133e+000	 4.000138002678044e-001	 1.070396467627370e+001
0	 2.933340000004133e+000	 4.666844975500011e-001	 1.079823389628794e+001
0	 2.933340000004134e+000	 5.333553781553803e-001	 1.088070159247518e+001
0	 2.933340000004133e+000	 6.000263254118248e-001	 1.095009137847864e+001
0	 2.933340000004133e+000	 6.666972226472175e-001	 1.100512673922665e+001
0	 3.000000000000000e+000	 0.000000000000000e+000	 9.999514516823757e+000
0	 3.000000000000000e+000	 6.666714722864756e-002	 1.009340399276040e+001
0	 3.000000000000000e+000	 1.333351778131790e-001	 1.019220692775900e+001
0	 3.000000000000000e+000	 2.000039750814773e-001	 1.029367215804535e+001
0	 3.000000000000000e+000	 2.666734223614255e-001	 1.039554841604075e+001
0	 3.000000000000001e+000	 3.333434029809069e-001	 1.049558433038477e+001
0	 3.000000000000000e+000	 4.000138002678044e-001	 1.059152842595541e+001
0	 3.000000000000000e+000	 4.666844975500011e-001	 1.068112912388641e+001
0	 3.000000000000000e+000	 5.333553781553801e-001	 1.076213474158197e+001
0	 3.000000000000000e+000	 6.000263254118247e-001	 1.083229349272860e+001
0	 3.000000000000001e+000	 6.666972226472178e-001	 1.088935348730437e+001
0	 3.066659999995866e+000	 0.000000000000000e+000	 1.010954594856535e+001
0	 3.066659999995867e+000	 6.666714722864757e-002	 1.015474853691599e+001
0	 3.066659999995868e+000	 1.333351778131789e-001	 1.021254330250730e+001
0	 3.066659999995867e+000	 2.000039750814772e-001	 1.028005416151538e+001
0	 3.066659999995867e+000	 2.666734223614256e-001	 1.035440496294553e+001
0	 3.066659999995867e+000	 3.333434029809069e-001	 1.043271948864791e+001
0	 3.066659999995868e+000	 4.000138002678044e-001	 1.051212145333118e+001
0	 3.066659999995868e+000	 4.666844975500012e-001	 1.058973450457462e+001
0	 3.066659999995868e+000	 5.333553781553801e-001	 1.066268222283839e+001
0	 3.066659999995868e+000	 6.000263254118249e-001	 1.072808812147199e+001
0	 3.066659999995867e+000	 6.666972226472177e-001	 1.078307564672105e+001
0	 3.133319999991934e+000	 0.000000000000000e+000	 1.027020249446406e+001
0	 3.133319999991935e+000	 6.666714722864757e-002	 1.026722819234307e+001
0	 3.133319999991934e+000	 1.333351778131790e-001	 1.028266560156308e+001
0	 3.133319999991934e+000	 2.000039750814772e-001	 1.031336438874184e+001
0	 3.133319999991934e+000	 2.666734223614255e-001	 1.035617419653896e+001
0	 3.133319999991933e+000	 3.333434029809069e-001	 1.040794464366326e+001
0	 3.133319999991933e+000	 4.000138002678043e-001	 1.046552532487935e+001
0	 3.133319999991934e+000	 4.666844975500011e-001	 1.052576581101365e+001
0	 3.133319999991934e+000	 5.333553781553804e-001	 1.058551564895980e+001
0	 3.133319999991935e+000	 6.000263254118247e-001	 1.064162436168340e+001
0	 3.133319999991934e+000	 6.666972226472177e-001	 1.069094144822610e+001
0	 3.199979999988401e+000	 0.000000000000000e+000	 1.045961358358806e+001
0	 3.199979999988400e+000	 6.666714722864756e-002	 1.041377728938097e+001
0	 3.199979999988400e+000	 1.333351778131789e-001	 1.038983452290942e+001
0	 3.199979999988401e+000	 2.000039750814773e-001	 1.038471141220309e+001
0	 3.199979999988400e+000	 2.666734223614255e-001	 1.039533410609910e+001
0	 3.199979999988401e+000	 3.333434029809070e-001	 1.041862877424090e+001
0	 3.199979999988401e+000	 4.000138002678044e-001	 1.045152160707763e+001
0	 3.199979999988401e+000	 4.666844975500011e-001	 1.049093881586406e+001
0	 3.199979999988401e+000	 5.333553781553801e-001	 1.053380663266115e+001
0	 3.199979999988401e+000	 6.000263254118249e-001	 1.057705131033703e+001
0	 3.199979999988400e+000	 6.666972226472175e-001	 1.061759912256861e+001
0	 3.266639999985468e+000	 0.000000000000000e+000	 1.065590864500493e+001
0	 3.266639999985468e+000	 6.666714722864756e-002	 1.057733015836834e+001
0	 3.266639999985467e+000	 1.333351778131789e-001	 1.052131076452862e+001
0	 3.266639999985468e+000	 2.000039750814772e-001	 1.048520380437670e+001
0	 3.266639999985468e+000	 2.666734223614255e-001	 1.046636268090331e+001
0	 3.266639999985467e+000	 3.333434029809068e-001	 1.046214085919023e+001
0	 3.266639999985467e+000	 4.000138002678043e-001	 1.046989186640309e+001
0	 3.266639999985468e+000	 4.666844975500012e-001	 1.048696929178586e+001
0	 3.266639999985467e+000	 5.333553781553803e-001	 1.051072678665690e+001
0	 3.266639999985467e+000	 6.000263254118246e-001	 1.053851806440675e+001
0	 3.266639999985468e+000	 6.666972226472178e-001	 1.056769690049745e+001
0	 3.333299999983334e+000	 0.000000000000000e+000	 1.083721710778166e+001
0	 3.333299999983333e+000	 6.666714722864756e-002	 1.074082112964313e+001
0	 3.333299999983333e+000	 1.333351778131789e-001	 1.066435502440227e+001
0	 3.333299999983334e+000	 2.000039750814772e-001	 1.060595013773949e+001
0	 3.333299999983334e+000	 2.666734223614256e-001	 1.056373791022820e+001
0	 3.333299999983334e+000	 3.333434029809069e-001	 1.053584987731996e+001
0	 3.333299999983334e+000	 4.000138002678044e-001	 1.052041766933223e+001
0	 3.333299999983333e+000	 4.666844975500011e-001	 1.051557301143853e+001
0	 3.333299999983335e+000	 5.333553781553803e-001	 1.051944772366109e+001
0	 3.333299999983334e+000	 6.000263254118248e-001	 1.053017372086605e+001
0	 3.333299999983334e+000	 6.666972226472175e-001	 1.054588301276112e+001
0	 2.666700000016666e+000	 6.666972226472175e-001	 1.147020924530782e+001
0	 2.666700000016666e+000	 7.333579753122047e-001	 1.146950444138801e+001
0	 2.666700000016666e+000	 8.000185779984416e-001	 1.146644993704175e+001
0	 2.666700000016666e+000	 8.666790473703453e-001	 1.146037241667861e+001
0	 2.666700000016666e+000	 9.333394000923323e-001	 1.145059858482514e+001
0	 2.666700000016665e+000	 9.999996528288190e-001	 1.143645516612544e+001
0	 2.666700000016666e+000	 1.066659822244222e+000	 1.141726890534158e+001
0	 2.666700000016667e+000	 1.133319925002959e+000	 1.139236656735401e+001
0	 2.666700000016667e+000	 1.199979977769445e+000	 1.136107493716185e+001
0	 2.666700000016666e+000	 1.266639997208098e+000	 1.132272081988316e+001
0	 2.666700000016667e+000	 1.333299999983334e+000	 1.127663104075501e+001
0	 2.733360000014533e+000	 6.666972226472175e-001	 1.136293665552919e+001
0	 2.733360000014533e+000	 7.333579753122049e-001	 1.137844710799011e+001
0	 2.733360000014532e+000	 8.000185779984417e-001	 1.138829472938202e+001
0	 2.733360000014533e+000	 8.666790473703454e-001	 1.139217752984700e+001
0	 2.733360000014533e+000	 9.333394000923319e-001	 1.138979353799637e+001
0	 2.733360000014533e+000	 9.999996528288192e-001	 1.138084080091121e+001
0	 2.733360000014532e+000	 1.066659822244222e+000	 1.136501738414279e+001
0	 2.733360000014533e+000	 1.133319925002959e+000	 1.134202137171288e+001
0	 2.733360000014533e+000	 1.199979977769445e+000	 1.131155086611407e+001
0	 2.733360000014533e+000	 1.266639997208098e+000	 1.127330398830994e+001
0	 2.733360000014532e+000	 1.333299999983334e+000	 1.122697887773524e+001
0	 2.800020000011599e+000	 6.666972226472175e-001	 1.124656655408916e+001
0	 2.800020000011599e+000	 7.333579753122049e-001	 1.127454314583693e+001
0	 2.800020000011599e+000	 8.000185779984415e-001	 1.129462433299604e+001
0	 2.800020000011600e+000	 8.666790473703455e-001	 1.130682654988483e+001
0	 2.800020000011600e+000	 9.333394000923321e-001	 1.131116624694901e+001
0	 2.800020000011600e+000	 9.999996528288189e-001	 1.130765989076206e+001
0	 2.800020000011600e+000	 1.066659822244222e+000	 1.129632396402565e+001
0	 2.800020000011600e+000	 1.133319925002959e+000	 1.127717496556986e+001
0	 2.800020000011600e+000	 1.199979977769445e+000	 1.125022941035351e+001
0	 2.800020000011600e+000	 1.266639997208098e+000	 1.121550382946426e+001
0	 2.800020000011600e+000	 1.333299999983334e+000	 1.117301477011881e+001
0	 2.866680000008067e+000	 6.666972226472177e-001	 1.112574717173823e+001
0	 2.866680000008067e+000	 7.333579753122049e-001	 1.116264147720816e+001
0	 2.866680000008066e+000	 8.000185779984417e-001	 1.119036990400765e+001
0	 2.866680000008067e+000	 8.666790473703453e-001	 1.120921440825832e+001
0	 2.866680000008067e+000	 9.333394000923322e-001	 1.121945695935072e+001
0	 2.866680000008067e+000	 9.999996528288191e-001	 1.122137953994473e+001
0	 2.866680000008066e+000	 1.066659822244222e+000	 1.121526414596977e+001
0	 2.866680000008066e+000	 1.133319925002958e+000	 1.120139278662519e+001
0	 2.866680000008067e+000	 1.199979977769445e+000	 1.118004748438032e+001
0	 2.866680000008067e+000	 1.266639997208098e+000	 1.115151027497479e+001
0	 2.866680000008067e+000	 1.333299999983334e+000	 1.111606320741848e+001
0	 2.933340000004133e+000	 6.666972226472175e-001	 1.100512673922665e+001
0	 2.933340000004133e+000	 7.333579753122048e-001	 1.104759102438328e+001
0	 2.933340000004134e+000	 8.000185779984418e-001	 1.108046259854057e+001
0	 2.933340000004133e+000	 8.666790473703455e-001	 1.110423603643361e+001
0	 2.933340000004133e+000	 9.333394000923322e-001	 1.111940592286916e+001
0	 2.933340000004134e+000	 9.999996528288188e-001	 1.112646685272590e+001
0	 2.933340000004133e+000	 1.066659822244222e+000	 1.112591343095477e+001
0	 2.933340000004133e+000	 1.133319925002958e+000	 1.111824027257907e+001
0	 2.933340000004133e+000	 1.199979977769445e+000	 1.110394200269470e+001
0	 2.933340000004133e+000	 1.266639997208098e+000	 1.108351325647023e+001
0	 2.933340000004133e+000	 1.333299999983334e+000	 1.105744867914706e+001
0	 3.000000000000001e+000	 6.666972226472178e-001	 1.088935348730437e+001
0	 3.000000000000000e+000	 7.333579753122049e-001	 1.093424070964156e+001
0	 3.000000000000001e+000	 8.000185779984418e-001	 1.096983357271838e+001
0	 3.000000000000001e+000	 8.666790473703453e-001	 1.099678636587676e+001
0	 3.000000000000000e+000	 9.333394000923321e-001	 1.101575338517185e+001
0	 3.000000000000000e+000	 9.999996528288189e-001	 1.102738893337226e+001
0	 3.000000000000000e+000	 1.066659822244222e+000	 1.103234731996023e+001
0	 3.000000000000000e+000	 1.133319925002959e+000	 1.103128286113178e+001
0	 3.000000000000001e+000	 1.199979977769445e+000	 1.102484987979683e+001
0	 3.000000000000000e+000	 1.266639997208098e+000	 1.101370270557935e+001
0	 3.000000000000000e+000	 1.333299999983334e+000	 1.099849567481738e+001
0	 3.066659999995867e+000	 6.666972226472177e-001	 1.078307564672105e+001
0	 3.066659999995867e+000	 7.333579753122047e-001	 1.082743945526206e+001
0	 3.066659999995868e+000	 8.000185779984420e-001	 1.086341398266449e+001
0	 3.066659999995867e+000	 8.666790473703452e-001	 1.089176032805370e+001
0	 3.066659999995867e+000	 9.333394000923320e-001	 1.091323959392632e+001
0	 3.066659999995868e+000	 9.999996528288190e-001	 1.092861288615045e+001
0	 3.066659999995867e+000	 1.066659822244222e+000	 1.093864131396577e+001
0	 3.066659999995868e+000	 1.133319925002959e+000	 1.094408598998357e+001
0	 3.066659999995867e+000	 1.199979977769445e+000	 1.094570803018698e+001
0	 3.066659999995868e+000	 1.266639997208098e+000	 1.094426855393093e+001
0	 3.066659999995867e+000	 1.333299999983334e+000	 1.094052868394232e+001
0	 3.133319999991934e+000	 6.666972226472177e-001	 1.069094144822610e+001
0	 3.133319999991934e+000	 7.333579753122048e-001	 1.073203618352363e+001
0	 3.133319999991934e+000	 8.000185779984418e-001	 1.076613498450217e+001
0	 3.133319999991934e+000	 8.666790473703455e-001	 1.079405285443027e+001
0	 3.133319999991934e+000	 9.333394000923323e-001	 1.081660479680001e+001
0	 3.133319999991934e+000	 9.999996528288190e-001	 1.083460581532710e+001
0	 3.133319999991934e+000	 1.066659822244222e+000	 1.084887091395095e+001
0	 3.133319999991934e+000	 1.133319925002959e+000	 1.086021509683472e+001
0	 3.133319999991933e+000	 1.199979977769445e+000	 1.086945336836538e+001
0	 3.133319999991934e+000	 1.266639997208098e+000	 1.087740073315381e+001
0	 3.133319999991933e+000	 1.333299999983334e+000	 1.088487219603482e+001
0	 3.199979999988400e+000	 6.666972226472175e-001	 1.061759912256861e+001
0	 3.199979999988401e+000	 7.333579753122048e-001	 1.065287981670490e+001
0	 3.199979999988401e+000	 8.000185779984419e-001	 1.068292773435454e+001
0	 3.199979999988400e+000	 8.666790473703452e-001	 1.070855887647221e+001
0	 3.199979999988402e+000	 9.333394000923322e-001	 1.073058924146030e+001
0	 3.199979999988401e+000	 9.999996528288190e-001	 1.074983482516879e+001
0	 3.199979999988401e+000	 1.066659822244222e+000	 1.076711162089540e+001
0	 3.199979999988401e+000	 1.133319925002959e+000	 1.078323561938552e+001
0	 3.199979999988401e+000	 1.199979977769445e+000	 1.079902280883235e+001
0	 3.199979999988401e+000	 1.266639997208098e+000	 1.081528917487685e+001
0	 3.199979999988401e+000	 1.333299999983334e+000	 1.083285070060783e+001
0	 3.266639999985468e+000	 6.666972226472178e-001	 1.056769690049745e+001
0	 3.266639999985468e+000	 7.333579753122048e-001	 1.059481927708431e+001
0	 3.266639999985468e+000	 8.000185779984418e-001	 1.061872338834455e+001
0	 3.266639999985467e+000	 8.666790473703451e-001	 1.064017332564519e+001
0	 3.266639999985467e+000	 9.333394000923321e-001	 1.065993317557451e+001
0	 3.266639999985467e+000	 9.999996528288189e-001	 1.067876701994209e+001
0	 3.266639999985468e+000	 1.066659822244222e+000	 1.069743893577868e+001
0	 3.266639999985468e+000	 1.133319925002959e+000	 1.071671299533630e+001
0	 3.266639999985467e+000	 1.199979977769445e+000	 1.073735326608821e+001
0	 3.266639999985468e+000	 1.266639997208098e+000	 1.076012381072895e+001
0	 3.266639999985468e+000	 1.333299999983334e+000	 1.078578868717439e+001
0	 3.333299999983334e+000	 6.666972226472175e-001	 1.054588301276112e+001
0	 3.333299999983334e+000	 7.333579753122049e-001	 1.056270348694006e+001
0	 3.333299999983334e+000	 8.000185779984418e-001	 1.057845310259502e+001
0	 3.333299999983334e+000	 8.666790473703455e-001	 1.059379113341471e+001
0	 3.333299999983334e+000	 9.333394000923322e-001	 1.060937684680993e+001
0	 3.333299999983334e+000	 9.999996528288189e-001	 1.062586950391354e+001
0	 3.333299999983335e+000	 1.066659822244222e+000	 1.064392835958040e+001
0	 3.333299999983334e+000	 1.133319925002958e+000	 1.066421266238738e+001
0	 3.333299999983334e+000	 1.199979977769445e+000	 1.068738165463330e+001
0	 3.333299999983334e+000	 1.266639997208098e+000	 1.071409457233905e+001
0	 3.333299999983334e+000	 1.333299999983334e+000	 1.074501064524754e+001
0	 2.666700000016667e+000	 1.333299999983334e+000	 1.127663104075501e+001
0	 2.666700000016667e+000	 1.399969999982150e+000	 1.122903700189372e+001
0	 2.666700000016666e+000	 1.466639999981867e+000	 1.118638500262867e+001
0	 2.666700000016667e+000	 1.533309999982383e+000	 1.114830164494906e+001
0	 2.666700000016667e+000	 1.599979999983600e+000	 1.111441353084411e+001
0	 2.666700000016665e+000	 1.666649999985416e+000	 1.108434726230303e+001
0	 2.666700000016667e+000	 1.733319999987733e+000	 1.105772944131501e+001
0	 2.666700000016667e+000	 1.799989999990450e+000	 1.103418666986928e+001
0	 2.666700000016666e+000	 1.866659999993466e+000	 1.101334554995508e+001
0	 2.666700000016667e+000	 1.933329999996683e+000	 1.099483268356159e+001
0	 2.666700000016667e+000	 2.000000000000000e+000	 1.097827467267807e+001
0	 2.733360000014532e+000	 1.333299999983334e+000	 1.122697887773524e+001
0	 2.733360000014533e+000	 1.399969999982150e+000	 1.117920820451555e+001
0	 2.733360000014533e+000	 1.466639999981867e+000	 1.113667871817930e+001
0	 2.733360000014533e+000	 1.533309999982383e+000	 1.109914697966860e+001
0	 2.733360000014532e+000	 1.599979999983600e+000	 1.106636954992557e+001
0	 2.733360000014533e+000	 1.666649999985416e+000	 1.103810298989234e+001
0	 2.733360000014534e+000	 1.733319999987733e+000	 1.101410386051106e+001
0	 2.733360000014532e+000	 1.799989999990449e+000	 1.099412872272389e+001
0	 2.733360000014533e+000	 1.866659999993466e+000	 1.097793413747303e+001
0	 2.733360000014533e+000	 1.933329999996683e+000	 1.096527666570062e+001
0	 2.733360000014533e+000	 2.000000000000000e+000	 1.095591286834890e+001
0	 2.800020000011600e+000	 1.333299999983334e+000	 1.117301477011881e+001
0	 2.800020000011600e+000	 1.399969999982150e+000	 1.112909713618678e+001
0	 2.800020000011600e+000	 1.466639999981866e+000	 1.109000107114244e+001
0	 2.800020000011600e+000	 1.533309999982383e+000	 1.105559512724404e+001
0	 2.800020000011600e+000	 1.599979999983599e+000	 1.102574785674992e+001
0	 2.800020000011599e+000	 1.666649999985416e+000	 1.100032781191837e+001
0	 2.800020000011600e+000	 1.733319999987733e+000	 1.097920354500774e+001
0	 2.800020000011600e+000	 1.799989999990450e+000	 1.096224360827639e+001
0	 2.800020000011600e+000	 1.866659999993466e+000	 1.094931655398269e+001
0	 2.800020000011600e+000	 1.933329999996683e+000	 1.094029093438504e+001
0	 2.800020000011600e+000	 2.000000000000000e+000	 1.093503530174183e+001
0	 2.866680000008067e+000	 1.333299999983334e+000	 1.111606320741848e+001
0	 2.866680000008067e+000	 1.399969999982150e+000	 1.107918019327865e+001
0	 2.866680000008067e+000	 1.466639999981866e+000	 1.104613379899666e+001
0	 2.866680000008067e+000	 1.533309999982383e+000	 1.101688660051022e+001
0	 2.866680000008067e+000	 1.599979999983600e+000	 1.099140117375711e+001
0	 2.866680000008067e+000	 1.666649999985416e+000	 1.096964009467508e+001
0	 2.866680000008067e+000	 1.733319999987733e+000	 1.095156593920192e+001
0	 2.866680000008067e+000	 1.799989999990450e+000	 1.093714128327541e+001
0	 2.866680000008067e+000	 1.866659999993467e+000	 1.092632870283337e+001
0	 2.866680000008067e+000	 1.933329999996683e+000	 1.091909077381363e+001
0	 2.866680000008067e+000	 2.000000000000000e+000	 1.091539007215403e+001
0	 2.933340000004133e+000	 1.333299999983334e+000	 1.105744867914706e+001
0	 2.933340000004133e+000	 1.399969999982150e+000	 1.102993377216239e+001
0	 2.933340000004133e+000	 1.466639999981866e+000	 1.100485863922054e+001
0	 2.933340000004133e+000	 1.533309999982383e+000	 1.098226191230197e+001
0	 2.933340000004134e+000	 1.599979999983599e+000	 1.096218222338714e+001
0	 2.933340000004133e+000	 1.666649999985416e+000	 1.094465820445649e+001
0	 2.933340000004133e+000	 1.733319999987732e+000	 1.092972848749050e+001
0	 2.933340000004133e+000	 1.799989999990450e+000	 1.091743170446964e+001
0	 2.933340000004133e+000	 1.866659999993466e+000	 1.090780648737438e+001
0	 2.933340000004133e+000	 1.933329999996683e+000	 1.090089146818523e+001
0	 2.933340000004134e+000	 2.000000000000000e+000	 1.089672527888267e+001
0	 3.000000000000000e+000	 1.333299999983334e+000	 1.099849567481738e+001
0	 3.000000000000000e+000	 1.399969999982150e+000	 1.098183426920928e+001
0	 3.000000000000000e+000	 1.466639999981867e+000	 1.096595732929275e+001
0	 3.000000000000001e+000	 1.533309999982383e+000	 1.095096157545422e+001
0	 3.000000000000000e+000	 1.599979999983599e+000	 1.093694372808006e+001
0	 3.000000000000000e+000	 1.666649999985416e+000	 1.092400050755668e+001
0	 3.000000000000000e+000	 1.733319999987733e+000	 1.091222863427045e+001
0	 3.000000000000000e+000	 1.799989999990450e+000	 1.090172482860778e+001
0	 3.000000000000000e+000	 1.866659999993466e+000	 1.089258581095504e+001
0	 3.000000000000000e+000	 1.933329999996683e+000	 1.088490830169862e+001
0	 3.000000000000001e+000	 2.000000000000000e+000	 1.087878902122489e+001
0	 3.066659999995867e+000	 1.333299999983334e+000	 1.094052868394232e+001
0	 3.066659999995867e+000	 1.399969999982150e+000	 1.093535808079067e+001
0	 3.066659999995867e+000	 1.466639999981866e+000	 1.092921160669200e+001
0	 3.066659999995868e+000	 1.533309999982383e+000	 1.092222610280189e+001
0	 3.066659999995868e+000	 1.599979999983600e+000	 1.091453841027595e+001
0	 3.066659999995868e+000	 1.666649999985416e+000	 1.090628537026972e+001
0	 3.066659999995868e+000	 1.733319999987733e+000	 1.089760382393875e+001
0	 3.066659999995867e+000	 1.799989999990450e+000	 1.088863061243857e+001
0	 3.066659999995867e+000	 1.866659999993466e+000	 1.087950257692471e+001
0	 3.066659999995866e+000	 1.933329999996683e+000	 1.087035655855266e+001
0	 3.066659999995868e+000	 2.000000000000000e+000	 1.086132939847789e+001
0	 3.133319999991933e+000	 1.333299999983334e+000	 1.088487219603482e+001
0	 3.133319999991935e+000	 1.399969999982150e+000	 1.089098160327794e+001
0	 3.133319999991935e+000	 1.466639999981866e+000	 1.089440320889700e+001
0	 3.133319999991933e+000	 1.533309999982382e+000	 1.089529600718000e+001
0	 3.133319999991934e+000	 1.599979999983600e+000	 1.089381899241492e+001
0	 3.133319999991934e+000	 1.666649999985416e+000	 1.089013115888974e+001
0	 3.133319999991935e+000	 1.733319999987733e+000	 1.088439150089239e+001
0	 3.133319999991934e+000	 1.799989999990449e+000	 1.087675901271077e+001
0	 3.133319999991933e+000	 1.866659999993466e+000	 1.086739268863274e+001
0	 3.133319999991934e+000	 1.933329999996683e+000	 1.085645152294617e+001
0	 3.133319999991934e+000	 2.000000000000000e+000	 1.084409450993885e+001
0	 3.199979999988401e+000	 1.333299999983334e+000	 1.083285070060783e+001
0	 3.199979999988401e+000	 1.399969999982150e+000	 1.084918123304255e+001
0	 3.199979999988401e+000	 1.466639999981866e+000	 1.086131387338657e+001
0	 3.199979999988401e+000	 1.533309999982383e+000	 1.086941180142356e+001
0	 3.199979999988400e+000	 1.599979999983599e+000	 1.087363819693715e+001
0	 3.199979999988401e+000	 1.666649999985416e+000	 1.087415623971092e+001
0	 3.199979999988400e+000	 1.733319999987733e+000	 1.087112910952842e+001
0	 3.199979999988400e+000	 1.799989999990450e+000	 1.086471998617313e+001
0	 3.199979999988401e+000	 1.866659999993466e+000	 1.085509204942853e+001
0	 3.199979999988401e+000	 1.933329999996683e+000	 1.084240847907802e+001
0	 3.199979999988401e+000	 2.000000000000000e+000	 1.082683245490495e+001
0	 3.266639999985468e+000	 1.333299999983334e+000	 1.078578868717439e+001
0	 3.266639999985467e+000	 1.399969999982150e+000	 1.081043336645594e+001
0	 3.266639999985468e+000	 1.466639999981866e+000	 1.082972533763951e+001
0	 3.266639999985468e+000	 1.533309999982383e+000	 1.084381399836765e+001
0	 3.266639999985469e+000	 1.599979999983600e+000	 1.085284874628283e+001
0	 3.266639999985467e+000	 1.666649999985416e+000	 1.085697897902745e+001
0	 3.266639999985467e+000	 1.733319999987733e+000	 1.085635409424391e+001
0	 3.266639999985467e+000	 1.799989999990449e+000	 1.085112348957450e+001
0	 3.266639999985468e+000	 1.866659999993466e+000	 1.084143656266148e+001
0	 3.266639999985468e+000	 1.933329999996684e+000	 1.082744271114706e+001
0	 3.266639999985468e+000	 2.000000000000000e+000	 1.080929133267341e+001
0	 3.333299999983334e+000	 1.333299999983334e+000	 1.074501064524754e+001
0	 3.333299999983334e+000	 1.399969999982150e+000	 1.077521439988964e+001
0	 3.333299999983334e+000	 1.466639999981867e+000	 1.079941933913473e+001
0	 3.333299999983334e+000	 1.533309999982383e+000	 1.081774311084741e+001
0	 3.333299999983333e+000	 1.599979999983599e+000	 1.083030336289221e+001
0	 3.333299999983334e+000	 1.666649999985416e+000	 1.083721774313359e+001
0	 3.333299999983334e+000	 1.733319999987733e+000	 1.083860389943596e+001
0	 3.333299999983334e+000	 1.799989999990450e+000	 1.083457947966367e+001
0	 3.333299999983334e+000	 1.866659999993466e+000	 1.082526213168102e+001
0	 3.333299999983334e+000	 1.933329999996683e+000	 1.081076950335220e+001
0	 3.333299999983334e+000	 2.000000000000000e+000	 1.079121924254141e+001
0	 2.666700000016667e+000	 2.000000000000000e+000	 1.097827467267807e+001
0	 2.666700000016667e+000	 2.066670000003317e+000	 1.096110556814490e+001
0	 2.666700000016666e+000	 2.133340000006534e+000	 1.094099763449712e+001
0	 2.666700000016666e+000	 2.200010000009550e+000	 1.091793479426587e+001
0	 2.666700000016667e+000	 2.266680000012268e+000	 1.089190096998223e+001
0	 2.666700000016666e+000	 2.333350000014584e+000	 1.086288008417728e+001
0	 2.666700000016667e+000	 2.400020000016401e+000	 1.083085605938202e+001
0	 2.666700000016666e+000	 2.466690000017618e+000	 1.079581281812746e+001
0	 2.666700000016666e+000	 2.533360000018134e+000	 1.075773428294452e+001
0	 2.666700000016666e+000	 2.600030000017850e+000	 1.071660437636413e+001
0	 2.666700000016667e+000	 2.666700000016667e+000	 1.067240702091716e+001
0	 2.733360000014533e+000	 2.000000000000000e+000	 1.095591286834890e+001
0	 2.733360000014533e+000	 2.066670000003317e+000	 1.094623174024747e+001
0	 2.733360000014533e+000	 2.133340000006534e+000	 1.093276544730068e+001
0	 2.733360000014533e+000	 2.200010000009550e+000	 1.091548530706281e+001
0	 2.733360000014533e+000	 2.266680000012268e+000	 1.089436263708809e+001
0	 2.733360000014533e+000	 2.333350000014585e+000	 1.086936875493072e+001
0	 2.733360000014533e+000	 2.400020000016402e+000	 1.084047497814483e+001
0	 2.733360000014534e+000	 2.466690000017618e+000	 1.080765262428451e+001
0	 2.733360000014533e+000	 2.533360000018134e+000	 1.077087301090382e+001
0	 2.733360000014533e+000	 2.600030000017851e+000	 1.073010745555675e+001
0	 2.733360000014533e+000	 2.666700000016666e+000	 1.068532727579725e+001
0	 2.800020000011600e+000	 2.000000000000000e+000	 1.093503530174183e+001
0	 2.800020000011599e+000	 2.066670000003316e+000	 1.092958861149497e+001
0	 2.800020000011600e+000	 2.133340000006534e+000	 1.092005065504679e+001
0	 2.800020000011600e+000	 2.200010000009551e+000	 1.090638123859641e+001
0	 2.800020000011600e+000	 2.266680000012266e+000	 1.088854016834291e+001
0	 2.800020000011600e+000	 2.333350000014585e+000	 1.086648725048526e+001
0	 2.800020000011600e+000	 2.400020000016400e+000	 1.084018229122245e+001
0	 2.800020000011601e+000	 2.466690000017618e+000	 1.080958509675335e+001
0	 2.800020000011600e+000	 2.533360000018134e+000	 1.077465547327683e+001
0	 2.800020000011599e+000	 2.600030000017851e+000	 1.073535322699168e+001
0	 2.800020000011600e+000	 2.666700000016667e+000	 1.069163816409666e+001
0	 2.866680000008067e+000	 2.000000000000000e+000	 1.091539007215403e+001
0	 2.866680000008066e+000	 2.066670000003316e+000	 1.091148572761031e+001
0	 2.866680000008066e+000	 2.133340000006534e+000	 1.090362807829004e+001
0	 2.866680000008067e+000	 2.200010000009550e+000	 1.089176651265887e+001
0	 2.866680000008067e+000	 2.266680000012267e+000	 1.087585041918235e+001
0	 2.866680000008066e+000	 2.333350000014584e+000	 1.085582918632601e+001
0	 2.866680000008066e+000	 2.400020000016400e+000	 1.083165220255529e+001
0	 2.866680000008067e+000	 2.466690000017618e+000	 1.080326885633563e+001
0	 2.866680000008066e+000	 2.533360000018134e+000	 1.077062853613237e+001
0	 2.866680000008067e+000	 2.600030000017850e+000	 1.073368063041081e+001
0	 2.866680000008067e+000	 2.666700000016667e+000	 1.069237452763623e+001
0	 2.933340000004134e+000	 2.000000000000000e+000	 1.089672527888267e+001
0	 2.933340000004133e+000	 2.066670000003317e+000	 1.089223263431639e+001
0	 2.933340000004133e+000	 2.133340000006534e+000	 1.088427253758500e+001
0	 2.933340000004133e+000	 2.200010000009550e+000	 1.087278505304231e+001
0	 2.933340000004134e+000	 2.266680000012267e+000	 1.085771024504208e+001
0	 2.933340000004134e+000	 2.333350000014585e+000	 1.083898817793801e+001
0	 2.933340000004133e+000	 2.400020000016400e+000	 1.081655891608378e+001
0	 2.933340000004133e+000	 2.466690000017617e+000	 1.079036252383300e+001
0	 2.933340000004134e+000	 2.533360000018134e+000	 1.076033906553925e+001
0	 2.933340000004133e+000	 2.600030000017851e+000	 1.072642860555602e+001
0	 2.933340000004133e+000	 2.666700000016666e+000	 1.068857120823683e+001
0	 3.000000000000001e+000	 2.000000000000000e+000	 1.087878902122489e+001
0	 3.000000000000000e+000	 2.066670000003317e+000	 1.087213887733614e+001
0	 3.000000000000001e+000	 2.133340000006534e+000	 1.086275885348625e+001
0	 3.000000000000000e+000	 2.200010000009550e+000	 1.085058078353890e+001
0	 3.000000000000000e+000	 2.266680000012267e+000	 1.083553650135772e+001
0	 3.000000000000000e+000	 2.333350000014584e+000	 1.081755784080633e+001
0	 3.000000000000001e+000	 2.400020000016401e+000	 1.079657663574828e+001
0	 3.000000000000000e+000	 2.466690000017617e+000	 1.077252472004710e+001
0	 3.000000000000000e+000	 2.533360000018134e+000	 1.074533392756626e+001
0	 3.000000000000000e+000	 2.600030000017850e+000	 1.071493609216919e+001
0	 3.000000000000000e+000	 2.666700000016666e+000	 1.068126304771928e+001
0	 3.066659999995868e+000	 2.000000000000000e+000	 1.086132939847789e+001
0	 3.066659999995866e+000	 2.066670000003317e+000	 1.085151400239248e+001
0	 3.066659999995868e+000	 2.133340000006534e+000	 1.083986184654835e+001
0	 3.066659999995867e+000	 2.200010000009550e+000	 1.082629762794076e+001
0	 3.066659999995868e+000	 2.266680000012267e+000	 1.081074604356491e+001
0	 3.066659999995868e+000	 2.333350000014584e+000	 1.079313179041600e+001
0	 3.066659999995867e+000	 2.400020000016401e+000	 1.077337956548918e+001
0	 3.066659999995867e+000	 2.466690000017617e+000	 1.075141406577954e+001
0	 3.066659999995868e+000	 2.533360000018134e+000	 1.072715998828218e+001
0	 3.066659999995868e+000	 2.600030000017851e+000	 1.070054202999213e+001
0	 3.066659999995868e+000	 2.666700000016666e+000	 1.067148488790441e+001
0	 3.133319999991934e+000	 2.000000000000000e+000	 1.084409450993885e+001
0	 3.133319999991935e+000	 2.066670000003317e+000	 1.083066755520830e+001
0	 3.133319999991934e+000	 2.133340000006534e+000	 1.081635633732586e+001
0	 3.133319999991934e+000	 2.200010000009550e+000	 1.080107951004003e+001
0	 3.133319999991933e+000	 2.266680000012267e+000	 1.078475572709928e+001
0	 3.133319999991935e+000	 2.333350000014585e+000	 1.076730364225206e+001
0	 3.133319999991934e+000	 2.400020000016401e+000	 1.074864190924682e+001
0	 3.133319999991934e+000	 2.466690000017617e+000	 1.072868918183193e+001
0	 3.133319999991934e+000	 2.533360000018134e+000	 1.070736411375576e+001
0	 3.133319999991934e+000	 2.600030000017850e+000	 1.068458535876669e+001
0	 3.133319999991934e+000	 2.666700000016666e+000	 1.066027157061301e+001
0	 3.199979999988401e+000	 2.000000000000000e+000	 1.082683245490495e+001
0	 3.199979999988401e+000	 2.066670000003316e+000	 1.080990908150653e+001
0	 3.199979999988401e+000	 2.133340000006534e+000	 1.079301714637335e+001
0	 3.199979999988401e+000	 2.200010000009550e+000	 1.077607035362884e+001
0	 3.199979999988401e+000	 2.266680000012267e+000	 1.075898240739644e+001
0	 3.199979999988401e+000	 2.333350000014584e+000	 1.074166701179954e+001
0	 3.199979999988401e+000	 2.400020000016401e+000	 1.072403787096155e+001
0	 3.199979999988401e+000	 2.466690000017617e+000	 1.070600868900583e+001
0	 3.199979999988401e+000	 2.533360000018134e+000	 1.068749317005576e+001
0	 3.199979999988401e+000	 2.600030000017851e+000	 1.066840501823466e+001
0	 3.199979999988401e+000	 2.666700000016666e+000	 1.064865793766585e+001
0	 3.266639999985468e+000	 2.000000000000000e+000	 1.080929133267341e+001
0	 3.266639999985467e+000	 2.066670000003317e+000	 1.078954812701010e+001
0	 3.266639999985467e+000	 2.133340000006534e+000	 1.077061909424537e+001
0	 3.266639999985468e+000	 2.200010000009550e+000	 1.075241408249930e+001
0	 3.266639999985468e+000	 2.266680000012267e+000	 1.073484293989197e+001
0	 3.266639999985467e+000	 2.333350000014584e+000	 1.071781551454341e+001
0	 3.266639999985468e+000	 2.400020000016401e+000	 1.070124165457369e+001
0	 3.266639999985467e+000	 2.466690000017616e+000	 1.068503120810283e+001
0	 3.266639999985467e+000	 2.533360000018133e+000	 1.066909402325087e+001
0	 3.266639999985468e+000	 2.600030000017851e+000	 1.065333994813783e+001
0	 3.266639999985468e+000	 2.666700000016666e+000	 1.063767883088370e+001
0	 3.333299999983334e+000	 2.000000000000000e+000	 1.079121924254141e+001
0	 3.333299999983333e+000	 2.066670000003317e+000	 1.076989423744190e+001
0	 3.333299999983334e+000	 2.133340000006534e+000	 1.074993700149648e+001
0	 3.333299999983335e+000	 2.200010000009550e+000	 1.073125462044354e+001
0	 3.333299999983334e+000	 2.266680000012267e+000	 1.071375418002148e+001
0	 3.333299999983334e+000	 2.333350000014584e+000	 1.069734276596869e+001
0	 3.333299999983334e+000	 2.400020000016401e+000	 1.068192746402356e+001
0	 3.333299999983334e+000	 2.466690000017617e+000	 1.066741535992448e+001
0	 3.333299999983334e+000	 2.533360000018134e+000	 1.065371353940982e+001
0	 3.333299999983334e+000	 2.600030000017851e+000	 1.064072908821796e+001
0	 3.333299999983334e+000	 2.666700000016667e+000	 1.062836909208729e+001
0	 2.666700000016667e+000	 2.666700000016667e+000	 1.067240702091716e+001
0	 2.666700000016666e+000	 2.733360000014533e+000	 1.062831950160684e+001
0	 2.666700000016666e+000	 2.800020000011599e+000	 1.058740649058975e+001
0	 2.666700000016667e+000	 2.866680000008067e+000	 1.054950357149526e+001
0	 2.666700000016666e+000	 2.933340000004133e+000	 1.051444632795264e+001
0	 2.666700000016666e+000	 3.000000000000000e+000	 1.048207034359117e+001
0	 2.666700000016666e+000	 3.066659999995867e+000	 1.045221120204006e+001
0	 2.666700000016666e+000	 3.133319999991934e+000	 1.042470448692850e+001
0	 2.666700000016667e+000	 3.199979999988401e+000	 1.039938578188564e+001
0	 2.666700000016666e+000	 3.266639999985468e+000	 1.037609067054058e+001
0	 2.666700000016667e+000	 3.333299999983334e+000	 1.035465473652237e+001
0	 2.733360000014533e+000	 2.666700000016666e+000	 1.068532727579725e+001
0	 2.733360000014534e+000	 2.733360000014534e+000	 1.064034433578003e+001
0	 2.733360000014533e+000	 2.800020000011599e+000	 1.059885597547462e+001
0	 2.733360000014533e+000	 2.866680000008067e+000	 1.056068278377800e+001
0	 2.733360000014533e+000	 2.933340000004133e+000	 1.052564534958710e+001
0	 2.733360000014534e+000	 3.000000000000000e+000	 1.049356426179882e+001
0	 2.733360000014533e+000	 3.066659999995867e+000	 1.046426010931002e+001
0	 2.733360000014532e+000	 3.133319999991934e+000	 1.043755348101750e+001
0	 2.733360000014533e+000	 3.199979999988400e+000	 1.041326496581801e+001
0	 2.733360000014534e+000	 3.266639999985468e+000	 1.039121515260829e+001
0	 2.733360000014533e+000	 3.333299999983334e+000	 1.037122463028500e+001
0	 2.800020000011600e+000	 2.666700000016667e+000	 1.069163816409666e+001
0	 2.800020000011600e+000	 2.733360000014533e+000	 1.064754171885487e+001
0	 2.800020000011599e+000	 2.800020000011600e+000	 1.060698220573156e+001
0	 2.800020000011600e+000	 2.866680000008066e+000	 1.056977042088621e+001
0	 2.800020000011600e+000	 2.933340000004134e+000	 1.053571716047823e+001
0	 2.800020000011600e+000	 3.000000000000000e+000	 1.050463322066706e+001
0	 2.800020000011601e+000	 3.066659999995868e+000	 1.047632939761199e+001
0	 2.800020000011600e+000	 3.133319999991933e+000	 1.045061648747237e+001
0	 2.800020000011600e+000	 3.199979999988401e+000	 1.042730528640743e+001
0	 2.800020000011599e+000	 3.266639999985466e+000	 1.040620659057641e+001
0	 2.800020000011600e+000	 3.333299999983334e+000	 1.038713119613847e+001
0	 2.866680000008067e+000	 2.666700000016667e+000	 1.069237452763623e+001
0	 2.866680000008066e+000	 2.733360000014533e+000	 1.065061764011222e+001
0	 2.866680000008067e+000	 2.800020000011600e+000	 1.061220887480780e+001
0	 2.866680000008067e+000	 2.866680000008067e+000	 1.057695443713979e+001
0	 2.866680000008067e+000	 2.933340000004133e+000	 1.054466053252499e+001
0	 2.866680000008066e+000	 2.999999999999999e+000	 1.051513336638016e+001
0	 2.866680000008067e+000	 3.066659999995866e+000	 1.048817914412201e+001
0	 2.866680000008067e+000	 3.133319999991934e+000	 1.046360407116722e+001
0	 2.866680000008066e+000	 3.199979999988400e+000	 1.044121435293243e+001
0	 2.866680000008066e+000	 3.266639999985467e+000	 1.042081619483424e+001
0	 2.866680000008066e+000	 3.333299999983333e+000	 1.040221580228921e+001
0	 2.933340000004133e+000	 2.666700000016666e+000	 1.068857120823683e+001
0	 2.933340000004133e+000	 2.733360000014533e+000	 1.065027808883296e+001
0	 2.933340000004134e+000	 2.800020000011599e+000	 1.061495967615054e+001
0	 2.933340000004133e+000	 2.866680000008067e+000	 1.058242278685864e+001
0	 2.933340000004133e+000	 2.933340000004133e+000	 1.055247423762627e+001
0	 2.933340000004133e+000	 2.999999999999999e+000	 1.052492084512242e+001
0	 2.933340000004133e+000	 3.066659999995867e+000	 1.049956942601607e+001
0	 2.933340000004133e+000	 3.133319999991933e+000	 1.047622679697613e+001
0	 2.933340000004133e+000	 3.199979999988400e+000	 1.045469977467151e+001
0	 2.933340000004133e+000	 3.266639999985467e+000	 1.043479517577105e+001
0	 2.933340000004133e+000	 3.333299999983334e+000	 1.041631981694360e+001
0	 3.000000000000000e+000	 2.666700000016666e+000	 1.068126304771928e+001
0	 3.000000000000000e+000	 2.733360000014533e+000	 1.064722905429791e+001
0	 3.000000000000000e+000	 2.800020000011599e+000	 1.061565830320697e+001
0	 3.000000000000001e+000	 2.866680000008067e+000	 1.058636342436262e+001
0	 3.000000000000000e+000	 2.933340000004132e+000	 1.055915704768097e+001
0	 3.000000000000000e+000	 3.000000000000000e+000	 1.053385180307814e+001
0	 2.999999999999999e+000	 3.066659999995866e+000	 1.051026032047019e+001
0	 3.000000000000000e+000	 3.133319999991935e+000	 1.048819522977319e+001
0	 3.000000000000000e+000	 3.199979999988400e+000	 1.046746916090316e+001
0	 3.000000000000000e+000	 3.266639999985467e+000	 1.044789474377613e+001
0	 3.000000000000000e+000	 3.333299999983334e+000	 1.042928460830806e+001
0	 3.066659999995868e+000	 2.666700000016666e+000	 1.067148488790442e+001
0	 3.066659999995868e+000	 2.733360000014534e+000	 1.064217652578790e+001
0	 3.066659999995867e+000	 2.800020000011600e+000	 1.061472844942425e+001
0	 3.066659999995867e+000	 2.866680000008066e+000	 1.058896430397158e+001
0	 3.066659999995867e+000	 2.933340000004134e+000	 1.056470773458798e+001
0	 3.066659999995867e+000	 2.999999999999999e+000	 1.054178238643155e+001
0	 3.066659999995867e+000	 3.066659999995865e+000	 1.052001190466036e+001
0	 3.066659999995868e+000	 3.133319999991934e+000	 1.049921993443246e+001
0	 3.066659999995867e+000	 3.199979999988400e+000	 1.047923012090591e+001
0	 3.066659999995868e+000	 3.266639999985467e+000	 1.045986610923874e+001
0	 3.066659999995867e+000	 3.333299999983333e+000	 1.044095154458899e+001
0	 3.133319999991934e+000	 2.666700000016666e+000	 1.066027157061301e+001
0	 3.133319999991934e+000	 2.733360000014533e+000	 1.063582649258374e+001
0	 3.133319999991934e+000	 2.800020000011599e+000	 1.061259380824954e+001
0	 3.133319999991935e+000	 2.866680000008067e+000	 1.059041338000537e+001
0	 3.133319999991934e+000	 2.933340000004134e+000	 1.056912507024618e+001
0	 3.133319999991934e+000	 3.000000000000000e+000	 1.054856874136693e+001
0	 3.133319999991934e+000	 3.066659999995868e+000	 1.052858425576256e+001
0	 3.133319999991935e+000	 3.133319999991934e+000	 1.050901147582800e+001
0	 3.133319999991934e+000	 3.199979999988400e+000	 1.048969026395822e+001
0	 3.133319999991933e+000	 3.266639999985467e+000	 1.047046048254816e+001
0	 3.133319999991934e+000	 3.333299999983333e+000	 1.045116199399274e+001
0	 3.199979999988401e+000	 2.666700000016666e+000	 1.064865793766585e+001
0	 3.199979999988401e+000	 2.733360000014534e+000	 1.062888494396620e+001
0	 3.199979999988400e+000	 2.800020000011599e+000	 1.060967807312996e+001
0	 3.199979999988401e+000	 2.866680000008067e+000	 1.059089860678381e+001
0	 3.199979999988401e+000	 2.933340000004134e+000	 1.057240782655443e+001
0	 3.199979999988401e+000	 3.000000000000000e+000	 1.055406701406851e+001
0	 3.199979999988401e+000	 3.066659999995867e+000	 1.053573745095275e+001
0	 3.199979999988401e+000	 3.133319999991933e+000	 1.051728041883388e+001
0	 3.199979999988401e+000	 3.199979999988400e+000	 1.049855719933859e+001
0	 3.199979999988401e+000	 3.266639999985466e+000	 1.047942907409363e+001
0	 3.199979999988401e+000	 3.333299999983334e+000	 1.045975732472572e+001
0	 3.266639999985468e+000	 2.666700000016666e+000	 1.063767883088370e+001
0	 3.266639999985468e+000	 2.733360000014533e+000	 1.062205786921607e+001
0	 3.266639999985468e+000	 2.800020000011600e+000	 1.060640493751263e+001
0	 3.266639999985468e+000	 2.866680000008066e+000	 1.059060793862670e+001
0	 3.266639999985467e+000	 2.933340000004133e+000	 1.057455477541155e+001
0	 3.266639999985468e+000	 3.000000000000000e+000	 1.055813335072051e+001
0	 3.266639999985468e+000	 3.066659999995867e+000	 1.054123156740691e+001
0	 3.266639999985467e+000	 3.133319999991933e+000	 1.052373732832411e+001
0	 3.266639999985468e+000	 3.199979999988400e+000	 1.050553853632548e+001
0	 3.266639999985468e+000	 3.266639999985468e+000	 1.048652309426440e+001
0	 3.266639999985468e+000	 3.333299999983334e+000	 1.046657890499428e+001
0	 3.333299999983334e+000	 2.666700000016667e+000	 1.062836909208729e+001
0	 3.333299999983333e+000	 2.733360000014532e+000	 1.061605125761407e+001
0	 3.333299999983334e+000	 2.800020000011600e+000	 1.060319809484466e+001
0	 3.333299999983334e+000	 2.866680000008067e+000	 1.058972932985383e+001
0	 3.333299999983334e+000	 2.933340000004133e+000	 1.057556468871638e+001
0	 3.333299999983334e+000	 3.000000000000000e+000	 1.056062389750715e+001
0	 3.333299999983334e+000	 3.066659999995868e+000	 1.054482668230098e+001
0	 3.333299999983333e+000	 3.133319999991934e+000	 1.052809276917274e+001
0	 3.333299999983333e+000	 3.199979999988400e+000	 1.051034188419735e+001
0	 3.333299999983334e+000	 3.266639999985468e+000	 1.049149375344971e+001
0	 3.333299999983334e+000	 3.333299999983334e+000	 1.047146810300479e+001
0	 2.666700000016667e+000	 3.333299999983334e+000	 1.035465473652238e+001
0	 2.666700000016666e+000	 3.399969999982150e+000	 1.033427401960684e+001
0	 2.666700000016666e+000	 3.466639999981867e+000	 1.031429308550062e+001
0	 2.666700000016666e+000	 3.533309999982383e+000	 1.029476105328584e+001
0	 2.666700000016666e+000	 3.599979999983599e+000	 1.027572704204462e+001
0	 2.666700000016666e+000	 3.666649999985416e+000	 1.025724017085909e+001
0	 2.666700000016667e+000	 3.733319999987733e+000	 1.023934955881139e+001
0	 2.666700000016667e+000	 3.799989999990450e+000	 1.022210432498366e+001
0	 2.666700000016666e+000	 3.866659999993467e+000	 1.020555358845806e+001
0	 2.666700000016666e+000	 3.933329999996684e+000	 1.018974646831675e+001
0	 2.666700000016666e+000	 4.000000000000001e+000	 1.017473208364189e+001
0	 2.733360000014533e+000	 3.333299999983334e+000	 1.037122463028500e+001
0	 2.733360000014533e+000	 3.399969999982150e+000	 1.035225135916954e+001
0	 2.733360000014533e+000	 3.466639999981868e+000	 1.033341958912256e+001
0	 2.733360000014534e+000	 3.533309999982383e+000	 1.031479078318729e+001
0	 2.733360000014533e+000	 3.599979999983600e+000	 1.029642640440696e+001
0	 2.733360000014533e+000	 3.666649999985416e+000	 1.027838791582481e+001
0	 2.733360000014532e+000	 3.733319999987732e+000	 1.026073678048409e+001
0	 2.733360000014533e+000	 3.799989999990450e+000	 1.024353446142803e+001
0	 2.733360000014534e+000	 3.866659999993467e+000	 1.022684242169990e+001
0	 2.733360000014533e+000	 3.933329999996684e+000	 1.021072212434298e+001
0	 2.733360000014533e+000	 4.000000000000001e+000	 1.019523503240051e+001
0	 2.800020000011600e+000	 3.333299999983334e+000	 1.038713119613847e+001
0	 2.800020000011599e+000	 3.399969999982150e+000	 1.036897324299535e+001
0	 2.800020000011600e+000	 3.466639999981866e+000	 1.035080493942166e+001
0	 2.800020000011600e+000	 3.533309999982382e+000	 1.033269602625475e+001
0	 2.800020000011600e+000	 3.599979999983599e+000	 1.031471624433204e+001
0	 2.800020000011599e+000	 3.666649999985417e+000	 1.029693533449088e+001
0	 2.800020000011600e+000	 3.733319999987733e+000	 1.027942303756868e+001
0	 2.800020000011600e+000	 3.799989999990450e+000	 1.026224909440283e+001
0	 2.800020000011601e+000	 3.866659999993467e+000	 1.024548324583073e+001
0	 2.800020000011600e+000	 3.933329999996684e+000	 1.022919523268977e+001
0	 2.800020000011600e+000	 4.000000000000001e+000	 1.021345479581736e+001
0	 2.866680000008066e+000	 3.333299999983333e+000	 1.040221580228921e+001
0	 2.866680000008066e+000	 3.399969999982149e+000	 1.038438702745815e+001
0	 2.866680000008066e+000	 3.466639999981866e+000	 1.036648755089936e+001
0	 2.866680000008066e+000	 3.533309999982382e+000	 1.034859132507736e+001
0	 2.866680000008067e+000	 3.599979999983599e+000	 1.033077230245675e+001
0	 2.866680000008066e+000	 3.666649999985417e+000	 1.031310443550208e+001
0	 2.866680000008067e+000	 3.733319999987734e+000	 1.029566167667794e+001
0	 2.866680000008067e+000	 3.799989999990450e+000	 1.027851797844889e+001
0	 2.866680000008067e+000	 3.866659999993467e+000	 1.026174729327952e+001
0	 2.866680000008066e+000	 3.933329999996684e+000	 1.024542357363441e+001
0	 2.866680000008066e+000	 4.000000000000000e+000	 1.022962077197814e+001
0	 2.933340000004133e+000	 3.333299999983334e+000	 1.041631981694360e+001
0	 2.933340000004133e+000	 3.399969999982150e+000	 1.039844006893181e+001
0	 2.933340000004133e+000	 3.466639999981867e+000	 1.038050583805708e+001
0	 2.933340000004133e+000	 3.533309999982383e+000	 1.036259122224421e+001
0	 2.933340000004134e+000	 3.599979999983600e+000	 1.034477031941797e+001
0	 2.933340000004133e+000	 3.666649999985415e+000	 1.032711722750316e+001
0	 2.933340000004133e+000	 3.733319999987733e+000	 1.030970604442456e+001
0	 2.933340000004133e+000	 3.799989999990450e+000	 1.029261086810701e+001
0	 2.933340000004133e+000	 3.866659999993467e+000	 1.027590579647527e+001
0	 2.933340000004133e+000	 3.933329999996683e+000	 1.025966492745416e+001
0	 2.933340000004133e+000	 4.000000000000001e+000	 1.024396235896851e+001
0	 3.000000000000000e+000	 3.333299999983334e+000	 1.042928460830806e+001
0	 3.000000000000000e+000	 3.399969999982150e+000	 1.041107972379020e+001
0	 3.000000000000000e+000	 3.466639999981868e+000	 1.039289821539630e+001
0	 3.000000000000000e+000	 3.533309999982383e+000	 1.037481026034441e+001
0	 3.000000000000001e+000	 3.599979999983601e+000	 1.035688603585258e+001
0	 3.000000000000001e+000	 3.666649999985417e+000	 1.033919571913886e+001
0	 3.000000000000000e+000	 3.733319999987733e+000	 1.032180948742131e+001
0	 3.000000000000000e+000	 3.799989999990450e+000	 1.030479751791798e+001
0	 3.000000000000001e+000	 3.866659999993467e+000	 1.028822998784696e+001
0	 3.000000000000001e+000	 3.933329999996685e+000	 1.027217707442631e+001
0	 3.000000000000000e+000	 4.000000000000001e+000	 1.025670895487410e+001
0	 3.066659999995867e+000	 3.333299999983333e+000	 1.044095154458899e+001
0	 3.066659999995868e+000	 3.399969999982150e+000	 1.042225334840718e+001
0	 3.066659999995866e+000	 3.466639999981866e+000	 1.040370309741842e+001
0	 3.066659999995868e+000	 3.533309999982383e+000	 1.038536298196705e+001
0	 3.066659999995868e+000	 3.599979999983600e+000	 1.036729519239743e+001
0	 3.066659999995867e+000	 3.666649999985415e+000	 1.034956191905391e+001
0	 3.066659999995868e+000	 3.733319999987733e+000	 1.033222535228085e+001
0	 3.066659999995867e+000	 3.799989999990450e+000	 1.031534768242262e+001
0	 3.066659999995867e+000	 3.866659999993466e+000	 1.029899109982357e+001
0	 3.066659999995868e+000	 3.933329999996685e+000	 1.028321779482810e+001
0	 3.066659999995868e+000	 4.000000000000000e+000	 1.026808995778056e+001
0	 3.133319999991934e+000	 3.333299999983333e+000	 1.045116199399274e+001
0	 3.133319999991933e+000	 3.399969999982149e+000	 1.043190829915659e+001
0	 3.133319999991934e+000	 3.466639999981867e+000	 1.041295889862487e+001
0	 3.133319999991934e+000	 3.533309999982382e+000	 1.039436392970124e+001
0	 3.133319999991933e+000	 3.599979999983600e+000	 1.037617352968941e+001
0	 3.133319999991934e+000	 3.666649999985416e+000	 1.035843783589307e+001
0	 3.133319999991934e+000	 3.733319999987733e+000	 1.034120698561592e+001
0	 3.133319999991934e+000	 3.799989999990450e+000	 1.032453111616168e+001
0	 3.133319999991934e+000	 3.866659999993466e+000	 1.030846036483405e+001
0	 3.133319999991934e+000	 3.933329999996683e+000	 1.029304486893675e+001
0	 3.133319999991935e+000	 4.000000000000000e+000	 1.027833476577352e+001
0	 3.199979999988401e+000	 3.333299999983334e+000	 1.045975732472572e+001
0	 3.199979999988401e+000	 3.399969999982150e+000	 1.043999193241231e+001
0	 3.199979999988400e+000	 3.466639999981866e+000	 1.042070403351705e+001
0	 3.199979999988400e+000	 3.533309999982383e+000	 1.040192764613604e+001
0	 3.199979999988400e+000	 3.599979999983599e+000	 1.038369678836534e+001
0	 3.199979999988401e+000	 3.666649999985417e+000	 1.036604547830103e+001
0	 3.199979999988401e+000	 3.733319999987733e+000	 1.034900773403920e+001
0	 3.199979999988401e+000	 3.799989999990450e+000	 1.033261757367593e+001
0	 3.199979999988400e+000	 3.866659999993466e+000	 1.031690901530734e+001
0	 3.199979999988401e+000	 3.933329999996683e+000	 1.030191607702952e+001
0	 3.199979999988401e+000	 4.000000000000000e+000	 1.028767277693859e+001
0	 3.266639999985468e+000	 3.333299999983334e+000	 1.046657890499428e+001
0	 3.266639999985468e+000	 3.399969999982151e+000	 1.044645160454814e+001
0	 3.266639999985468e+000	 3.466639999981867e+000	 1.042697691659640e+001
0	 3.266639999985467e+000	 3.533309999982383e+000	 1.040816867386054e+001
0	 3.266639999985468e+000	 3.599979999983599e+000	 1.039004070906208e+001
0	 3.266639999985467e+000	 3.666649999985417e+000	 1.037260685492251e+001
0	 3.266639999985467e+000	 3.733319999987732e+000	 1.035588094416336e+001
0	 3.266639999985468e+000	 3.799989999990451e+000	 1.033987680950613e+001
0	 3.266639999985468e+000	 3.866659999993467e+000	 1.032460828367238e+001
0	 3.266639999985468e+000	 3.933329999996684e+000	 1.031008919938361e+001
0	 3.266639999985467e+000	 4.000000000000001e+000	 1.029633338936136e+001
0	 3.333299999983334e+000	 3.333299999983334e+000	 1.047146810300479e+001
0	 3.333299999983333e+000	 3.399969999982149e+000	 1.045123467193794e+001
0	 3.333299999983333e+000	 3.466639999981866e+000	 1.043181596236429e+001
0	 3.333299999983334e+000	 3.533309999982383e+000	 1.041320155546381e+001
0	 3.333299999983334e+000	 3.599979999983599e+000	 1.039538103241645e+001
0	 3.333299999983334e+000	 3.666649999985416e+000	 1.037834397440223e+001
0	 3.333299999983334e+000	 3.733319999987733e+000	 1.036207996260110e+001
0	 3.333299999983334e+000	 3.799989999990450e+000	 1.034657857819305e+001
0	 3.333299999983334e+000	 3.866659999993467e+000	 1.033182940235809e+001
0	 3.333299999983333e+000	 3.933329999996682e+000	 1.031782201627622e+001
0	 3.333299999983333e+000	 4.000000000000000e+000	 1.030454600112744e+001
0	 2.666700000016666e+000	 4.000000000000001e+000	 1.017473208364189e+001
0	 2.666700000016667e+000	 4.066670000003317e+000	 1.016054298094303e+001
0	 2.666700000016666e+000	 4.133340000006535e+000	 1.014715018900886e+001
0	 2.666700000016666e+000	 4.200010000009551e+000	 1.013451055034022e+001
0	 2.666700000016667e+000	 4.266680000012267e+000	 1.012258090743797e+001
0	 2.666700000016667e+000	 4.333350000014584e+000	 1.011131810280302e+001
0	 2.666700000016666e+000	 4.400020000016401e+000	 1.010067897893622e+001
0	 2.666700000016667e+000	 4.466690000017619e+000	 1.009062037833849e+001
0	 2.666700000016666e+000	 4.533360000018133e+000	 1.008109914351073e+001
0	 2.666700000016666e+000	 4.600030000017851e+000	 1.007207211695382e+001
0	 2.666700000016666e+000	 4.666700000016666e+000	 1.006349614116870e+001
0	 2.733360000014533e+000	 4.000000000000001e+000	 1.019523503240051e+001
0	 2.733360000014533e+000	 4.066670000003317e+000	 1.018051651128714e+001
0	 2.733360000014534e+000	 4.133340000006533e+000	 1.016662811021793e+001
0	 2.733360000014533e+000	 4.200010000009550e+000	 1.015352056793676e+001
0	 2.733360000014534e+000	 4.266680000012269e+000	 1.014114462318747e+001
0	 2.733360000014533e+000	 4.333350000014582e+000	 1.012945101471396e+001
0	 2.733360000014533e+000	 4.400020000016402e+000	 1.011839048126014e+001
0	 2.733360000014534e+000	 4.466690000017618e+000	 1.010791376156990e+001
0	 2.733360000014533e+000	 4.533360000018131e+000	 1.009797159438714e+001
0	 2.733360000014533e+000	 4.600030000017852e+000	 1.008851471845579e+001
0	 2.733360000014533e+000	 4.666700000016666e+000	 1.007949387251976e+001
0	 2.800020000011600e+000	 4.000000000000001e+000	 1.021345479581736e+001
0	 2.800020000011599e+000	 4.066670000003317e+000	 1.019844992404094e+001
0	 2.800020000011599e+000	 4.133340000006532e+000	 1.018428652500999e+001
0	 2.800020000011600e+000	 4.200010000009550e+000	 1.017091121779517e+001
0	 2.800020000011599e+000	 4.266680000012266e+000	 1.015827062146707e+001
0	 2.800020000011600e+000	 4.333350000014584e+000	 1.014631135509634e+001
0	 2.800020000011601e+000	 4.400020000016401e+000	 1.013498003775360e+001
0	 2.800020000011600e+000	 4.466690000017619e+000	 1.012422328850948e+001
0	 2.800020000011600e+000	 4.533360000018134e+000	 1.011398772643465e+001
0	 2.800020000011600e+000	 4.600030000017849e+000	 1.010421997059976e+001
0	 2.800020000011599e+000	 4.666700000016665e+000	 1.009486664007548e+001
0	 2.866680000008066e+000	 4.000000000000000e+000	 1.022962077197814e+001
0	 2.866680000008066e+000	 4.066670000003319e+000	 1.021453783894348e+001
0	 2.866680000008067e+000	 4.133340000006533e+000	 1.020028741250747e+001
0	 2.866680000008067e+000	 4.200010000009550e+000	 1.018681397615120e+001
0	 2.866680000008067e+000	 4.266680000012268e+000	 1.017406201335577e+001
0	 2.866680000008066e+000	 4.333350000014585e+000	 1.016197600760230e+001
0	 2.866680000008067e+000	 4.400020000016401e+000	 1.015050044237187e+001
0	 2.866680000008066e+000	 4.466690000017617e+000	 1.013957980114559e+001
0	 2.866680000008066e+000	 4.533360000018135e+000	 1.012915856740461e+001
0	 2.866680000008067e+000	 4.600030000017851e+000	 1.011918122463004e+001
0	 2.866680000008067e+000	 4.666700000016666e+000	 1.010959225630302e+001
0	 2.933340000004133e+000	 4.000000000000001e+000	 1.024396235896851e+001
0	 2.933340000004133e+000	 4.066670000003317e+000	 1.022897487573386e+001
0	 2.933340000004133e+000	 4.133340000006534e+000	 1.021479275183279e+001
0	 2.933340000004133e+000	 4.200010000009550e+000	 1.020136031924058e+001
0	 2.933340000004134e+000	 4.266680000012267e+000	 1.018862190993254e+001
0	 2.933340000004133e+000	 4.333350000014583e+000	 1.017652185588397e+001
0	 2.933340000004133e+000	 4.400020000016400e+000	 1.016500448907020e+001
0	 2.933340000004133e+000	 4.466690000017617e+000	 1.015401414146654e+001
0	 2.933340000004133e+000	 4.533360000018133e+000	 1.014349514504833e+001
0	 2.933340000004133e+000	 4.600030000017850e+000	 1.013339183179088e+001
0	 2.933340000004133e+000	 4.666700000016667e+000	 1.012364853366956e+001
0	 3.000000000000000e+000	 4.000000000000001e+000	 1.025670895487410e+001
0	 3.000000000000000e+000	 4.066670000003318e+000	 1.024195565415114e+001
0	 3.000000000000001e+000	 4.133340000006534e+000	 1.022796452210836e+001
0	 3.000000000000000e+000	 4.200010000009552e+000	 1.021468172329900e+001
0	 3.000000000000000e+000	 4.266680000012268e+000	 1.020205342227629e+001
0	 3.000000000000000e+000	 4.333350000014583e+000	 1.019002578359348e+001
0	 3.000000000000000e+000	 4.400020000016401e+000	 1.017854497180386e+001
0	 3.000000000000000e+000	 4.466690000017617e+000	 1.016755715146065e+001
0	 3.000000000000001e+000	 4.533360000018135e+000	 1.015700848711714e+001
0	 3.000000000000001e+000	 4.600030000017850e+000	 1.014684514332659e+001
0	 3.000000000000000e+000	 4.666700000016665e+000	 1.013701328464228e+001
0	 3.066659999995868e+000	 4.000000000000000e+000	 1.026808995778056e+001
0	 3.066659999995867e+000	 4.066670000003318e+000	 1.025367479393437e+001
0	 3.066659999995868e+000	 4.133340000006535e+000	 1.023996470245660e+001
0	 3.066659999995866e+000	 4.200010000009550e+000	 1.022690966456215e+001
0	 3.066659999995867e+000	 4.266680000012268e+000	 1.021445966146598e+001
0	 3.066659999995867e+000	 4.333350000014583e+000	 1.020256467438297e+001
0	 3.066659999995868e+000	 4.400020000016402e+000	 1.019117468452807e+001
0	 3.066659999995867e+000	 4.466690000017617e+000	 1.018023967311621e+001
0	 3.066659999995868e+000	 4.533360000018135e+000	 1.016970962136234e+001
0	 3.066659999995867e+000	 4.600030000017850e+000	 1.015953451048139e+001
0	 3.066659999995867e+000	 4.666700000016665e+000	 1.014966432168832e+001
0	 3.133319999991935e+000	 4.000000000000000e+000	 1.027833476577352e+001
0	 3.133319999991935e+000	 4.066670000003318e+000	 1.026432691482257e+001
0	 3.133319999991935e+000	 4.133340000006535e+000	 1.025095527199988e+001
0	 3.133319999991934e+000	 4.200010000009551e+000	 1.023817561926575e+001
0	 3.133319999991934e+000	 4.266680000012268e+000	 1.022594373858051e+001
0	 3.133319999991935e+000	 4.333350000014585e+000	 1.021421541190452e+001
0	 3.133319999991933e+000	 4.400020000016399e+000	 1.020294642119807e+001
0	 3.133319999991935e+000	 4.466690000017617e+000	 1.019209254842153e+001
0	 3.133319999991935e+000	 4.533360000018134e+000	 1.018160957553525e+001
0	 3.133319999991934e+000	 4.600030000017850e+000	 1.017145328449957e+001
0	 3.133319999991934e+000	 4.666700000016667e+000	 1.016157945727483e+001
0	 3.199979999988401e+000	 4.000000000000000e+000	 1.028767277693859e+001
0	 3.199979999988401e+000	 4.066670000003318e+000	 1.027410663655478e+001
0	 3.199979999988400e+000	 4.133340000006534e+000	 1.026109820986057e+001
0	 3.199979999988401e+000	 4.200010000009550e+000	 1.024861106364543e+001
0	 3.199979999988401e+000	 4.266680000012268e+000	 1.023660876469882e+001
0	 3.199979999988400e+000	 4.333350000014583e+000	 1.022505487981021e+001
0	 3.199979999988401e+000	 4.400020000016401e+000	 1.021391297576907e+001
0	 3.199979999988401e+000	 4.466690000017617e+000	 1.020314661936489e+001
0	 3.199979999988400e+000	 4.533360000018132e+000	 1.019271937738715e+001
0	 3.199979999988401e+000	 4.600030000017852e+000	 1.018259481662534e+001
0	 3.199979999988400e+000	 4.666700000016665e+000	 1.017273650386894e+001
0	 3.266639999985467e+000	 4.000000000000001e+000	 1.029633338936137e+001
0	 3.266639999985468e+000	 4.066670000003318e+000	 1.028320857887001e+001
0	 3.266639999985467e+000	 4.133340000006533e+000	 1.027055549516106e+001
0	 3.266639999985467e+000	 4.200010000009550e+000	 1.025834747393687e+001
0	 3.266639999985468e+000	 4.266680000012268e+000	 1.024655785089979e+001
0	 3.266639999985468e+000	 4.333350000014584e+000	 1.023515996175214e+001
0	 3.266639999985468e+000	 4.400020000016402e+000	 1.022412714219628e+001
0	 3.266639999985468e+000	 4.466690000017616e+000	 1.021343272793457e+001
0	 3.266639999985468e+000	 4.533360000018134e+000	 1.020305005466934e+001
0	 3.266639999985468e+000	 4.600030000017851e+000	 1.019295245810296e+001
0	 3.266639999985468e+000	 4.666700000016667e+000	 1.018311327393780e+001
0	 3.333299999983333e+000	 4.000000000000000e+000	 1.030454600112744e+001
0	 3.333299999983334e+000	 4.066670000003317e+000	 1.029182736150723e+001
0	 3.333299999983334e+000	 4.133340000006534e+000	 1.027948910702367e+001
0	 3.333299999983335e+000	 4.200010000009551e+000	 1.026751632637572e+001
0	 3.333299999983334e+000	 4.266680000012268e+000	 1.025589410826230e+001
0	 3.333299999983334e+000	 4.333350000014583e+000	 1.024460754138238e+001
0	 3.333299999983334e+000	 4.400020000016401e+000	 1.023364171443489e+001
0	 3.333299999983333e+000	 4.466690000017617e+000	 1.022298171611881e+001
0	 3.333299999983334e+000	 4.533360000018134e+000	 1.021261263513308e+001
0	 3.333299999983334e+000	 4.600030000017851e+000	 1.020251956017665e+001
0	 3.333299999983333e+000	 4.666700000016666e+000	 1.019268757994852e+001
0	 2.666700000016666e+000	 4.666700000016666e+000	 1.006349614116871e+001
0	 2.666700000016666e+000	 4.733360000014533e+000	 1.005531441801317e+001
0	 2.666700000016666e+000	 4.800020000011600e+000	 1.004752777186138e+001
0	 2.666700000016667e+000	 4.866680000008069e+000	 1.004018324297686e+001
0	 2.666700000016666e+000	 4.933340000004133e+000	 1.003332787162314e+001
0	 2.666700000016666e+000	 5.000000000000001e+000	 1.002700869806371e+001
0	 2.666700000016667e+000	 5.066659999995868e+000	 1.002127276256207e+001
0	 2.666700000016666e+000	 5.133319999991934e+000	 1.001616710538169e+001
0	 2.666700000016667e+000	 5.199979999988402e+000	 1.001173876678604e+001
0	 2.666700000016667e+000	 5.266639999985468e+000	 1.000803478703855e+001
0	 2.666700000016666e+000	 5.333299999983335e+000	 1.000510220640267e+001
0	 2.733360000014533e+000	 4.666700000016666e+000	 1.007949387251976e+001
0	 2.733360000014533e+000	 4.733360000014534e+000	 1.007087888527811e+001
0	 2.733360000014533e+000	 4.800020000011600e+000	 1.006269851093584e+001
0	 2.733360000014533e+000	 4.866680000008067e+000	 1.005499584496047e+001
0	 2.733360000014533e+000	 4.933340000004135e+000	 1.004781398281950e+001
0	 2.733360000014534e+000	 5.000000000000000e+000	 1.004119601998040e+001
0	 2.733360000014533e+000	 5.066659999995868e+000	 1.003518505191065e+001
0	 2.733360000014533e+000	 5.133319999991935e+000	 1.002982417407770e+001
0	 2.733360000014534e+000	 5.199979999988400e+000	 1.002515648194898e+001
0	 2.733360000014533e+000	 5.266639999985467e+000	 1.002122507099193e+001
0	 2.733360000014532e+000	 5.333299999983334e+000	 1.001807303667394e+001
0	 2.800020000011599e+000	 4.666700000016665e+000	 1.009486664007548e+001
0	 2.800020000011599e+000	 4.733360000014533e+000	 1.008591884791323e+001
0	 2.800020000011600e+000	 4.800020000011601e+000	 1.007742653134696e+001
0	 2.800020000011600e+000	 4.866680000008067e+000	 1.006942866927495e+001
0	 2.800020000011600e+000	 4.933340000004134e+000	 1.006196424059553e+001
0	 2.800020000011600e+000	 5.000000000000000e+000	 1.005507222420698e+001
0	 2.800020000011600e+000	 5.066659999995867e+000	 1.004879159900758e+001
0	 2.800020000011601e+000	 5.133319999991935e+000	 1.004316134389558e+001
0	 2.800020000011600e+000	 5.199979999988400e+000	 1.003822043776923e+001
0	 2.800020000011599e+000	 5.266639999985466e+000	 1.003400785952675e+001
0	 2.800020000011600e+000	 5.333299999983335e+000	 1.003056258806636e+001
0	 2.866680000008067e+000	 4.666700000016666e+000	 1.010959225630302e+001
0	 2.866680000008066e+000	 4.733360000014534e+000	 1.010039930352877e+001
0	 2.866680000008067e+000	 4.800020000011600e+000	 1.009166732161761e+001
0	 2.866680000008067e+000	 4.866680000008066e+000	 1.008343100112550e+001
0	 2.866680000008066e+000	 4.933340000004132e+000	 1.007572503260837e+001
0	 2.866680000008067e+000	 5.000000000000001e+000	 1.006858410662216e+001
0	 2.866680000008067e+000	 5.066659999995866e+000	 1.006204291372273e+001
0	 2.866680000008067e+000	 5.133319999991933e+000	 1.005613614446603e+001
0	 2.866680000008067e+000	 5.199979999988401e+000	 1.005089848940788e+001
0	 2.866680000008067e+000	 5.266639999985468e+000	 1.004636463910418e+001
0	 2.866680000008066e+000	 5.333299999983334e+000	 1.004256928411075e+001
0	 2.933340000004133e+000	 4.666700000016667e+000	 1.012364853366956e+001
0	 2.933340000004133e+000	 4.733360000014534e+000	 1.011428524973494e+001
0	 2.933340000004134e+000	 4.800020000011599e+000	 1.010537637027072e+001
0	 2.933340000004133e+000	 4.866680000008067e+000	 1.009695212571734e+001
0	 2.933340000004133e+000	 4.933340000004132e+000	 1.008904274651516e+001
0	 2.933340000004133e+000	 5.000000000000000e+000	 1.008167846310459e+001
0	 2.933340000004133e+000	 5.066659999995868e+000	 1.007488950592598e+001
0	 2.933340000004134e+000	 5.133319999991934e+000	 1.006870610541969e+001
0	 2.933340000004133e+000	 5.199979999988400e+000	 1.006315849202605e+001
0	 2.933340000004134e+000	 5.266639999985470e+000	 1.005827689618538e+001
0	 2.933340000004133e+000	 5.333299999983334e+000	 1.005409154833799e+001
0	 3.000000000000000e+000	 4.666700000016665e+000	 1.013701328464227e+001
0	 3.000000000000001e+000	 4.733360000014534e+000	 1.012754168414196e+001
0	 3.000000000000000e+000	 4.800020000011601e+000	 1.011850916582919e+001
0	 3.000000000000001e+000	 4.866680000008068e+000	 1.010994132825565e+001
0	 3.000000000000000e+000	 4.933340000004135e+000	 1.010186376997304e+001
0	 3.000000000000000e+000	 4.999999999999999e+000	 1.009430208953300e+001
0	 3.000000000000000e+000	 5.066659999995866e+000	 1.008728188548719e+001
0	 3.000000000000000e+000	 5.133319999991934e+000	 1.008082875638726e+001
0	 3.000000000000001e+000	 5.199979999988401e+000	 1.007496830078481e+001
0	 3.000000000000000e+000	 5.266639999985467e+000	 1.006972611723150e+001
0	 3.000000000000000e+000	 5.333299999983333e+000	 1.006512780427887e+001
0	 3.066659999995867e+000	 4.666700000016665e+000	 1.014966432168832e+001
0	 3.066659999995868e+000	 4.733360000014534e+000	 1.014013360436005e+001
0	 3.066659999995868e+000	 4.800020000011600e+000	 1.013102119681589e+001
0	 3.066659999995868e+000	 4.866680000008067e+000	 1.012234789394564e+001
0	 3.066659999995867e+000	 4.933340000004133e+000	 1.011413449063909e+001
0	 3.066659999995867e+000	 5.000000000000001e+000	 1.010640178178603e+001
0	 3.066659999995867e+000	 5.066659999995867e+000	 1.009917056227620e+001
0	 3.066659999995868e+000	 5.133319999991936e+000	 1.009246162699938e+001
0	 3.066659999995867e+000	 5.199979999988400e+000	 1.008629577084530e+001
0	 3.066659999995867e+000	 5.266639999985467e+000	 1.008069378870368e+001
0	 3.066659999995867e+000	 5.333299999983333e+000	 1.007567647546423e+001
0	 3.133319999991934e+000	 4.666700000016667e+000	 1.016157945727483e+001
0	 3.133319999991934e+000	 4.733360000014534e+000	 1.015202600799940e+001
0	 3.133319999991934e+000	 4.800020000011601e+000	 1.014286795175371e+001
0	 3.133319999991934e+000	 4.866680000008065e+000	 1.013412110799249e+001
0	 3.133319999991934e+000	 4.933340000004134e+000	 1.012580129617046e+001
0	 3.133319999991934e+000	 4.999999999999999e+000	 1.011792433574236e+001
0	 3.133319999991934e+000	 5.066659999995868e+000	 1.011050604616288e+001
0	 3.133319999991935e+000	 5.133319999991935e+000	 1.010356224688673e+001
0	 3.133319999991933e+000	 5.199979999988398e+000	 1.009710875736857e+001
0	 3.133319999991934e+000	 5.266639999985468e+000	 1.009116139706307e+001
0	 3.133319999991933e+000	 5.333299999983333e+000	 1.008573598542492e+001
0	 3.199979999988400e+000	 4.666700000016665e+000	 1.017273650386895e+001
0	 3.199979999988401e+000	 4.733360000014532e+000	 1.016318389267022e+001
0	 3.199979999988401e+000	 4.800020000011601e+000	 1.015400491916553e+001
0	 3.199979999988401e+000	 4.866680000008067e+000	 1.014521025560137e+001
0	 3.199979999988402e+000	 4.933340000004134e+000	 1.013681057422425e+001
0	 3.199979999988401e+000	 4.999999999999999e+000	 1.012881654728066e+001
0	 3.199979999988401e+000	 5.066659999995867e+000	 1.012123884701706e+001
0	 3.199979999988400e+000	 5.133319999991934e+000	 1.011408814567993e+001
0	 3.199979999988400e+000	 5.199979999988400e+000	 1.010737511551570e+001
0	 3.199979999988400e+000	 5.266639999985467e+000	 1.010111042877082e+001
0	 3.199979999988401e+000	 5.333299999983335e+000	 1.009530475769172e+001
0	 3.266639999985468e+000	 4.666700000016667e+000	 1.018311327393781e+001
0	 3.266639999985468e+000	 4.733360000014534e+000	 1.017357225598268e+001
0	 3.266639999985468e+000	 4.800020000011601e+000	 1.016438758757421e+001
0	 3.266639999985468e+000	 4.866680000008065e+000	 1.015556462197748e+001
0	 3.266639999985468e+000	 4.933340000004135e+000	 1.014710871245758e+001
0	 3.266639999985468e+000	 4.999999999999999e+000	 1.013902521227959e+001
0	 3.266639999985468e+000	 5.066659999995868e+000	 1.013131947470860e+001
0	 3.266639999985467e+000	 5.133319999991936e+000	 1.012399685300964e+001
0	 3.266639999985468e+000	 5.199979999988400e+000	 1.011706270044778e+001
0	 3.266639999985468e+000	 5.266639999985468e+000	 1.011052237028805e+001
0	 3.266639999985467e+000	 5.333299999983334e+000	 1.010438121579549e+001
0	 3.333299999983333e+000	 4.666700000016666e+000	 1.019268757994853e+001
0	 3.333299999983334e+000	 4.733360000014533e+000	 1.018315609554697e+001
0	 3.333299999983334e+000	 4.800020000011601e+000	 1.017397144550262e+001
0	 3.333299999983333e+000	 4.866680000008066e+000	 1.016513349232597e+001
0	 3.333299999983335e+000	 4.933340000004134e+000	 1.015664209852753e+001
0	 3.333299999983334e+000	 5.000000000000001e+000	 1.014849712661783e+001
0	 3.333299999983334e+000	 5.066659999995867e+000	 1.014069843910733e+001
0	 3.333299999983334e+000	 5.133319999991934e+000	 1.013324589850652e+001
0	 3.333299999983334e+000	 5.199979999988400e+000	 1.012613936732590e+001
0	 3.333299999983333e+000	 5.266639999985467e+000	 1.011937870807590e+001
0	 3.333299999983334e+000	 5.333299999983335e+000	 1.011296378326699e+001
0	 2.666700000016666e+000	 5.333299999983335e+000	 1.000510220640267e+001
0	 2.666700000016666e+000	 5.399969999982150e+000	 1.000264057122784e+001
0	 2.666700000016666e+000	 5.466639999981865e+000	 1.000030541436396e+001
0	 2.666700000016666e+000	 5.533309999982384e+000	 9.998076616670732e+000
0	 2.666700000016666e+000	 5.599979999983598e+000	 9.995934059007876e+000
0	 2.666700000016665e+000	 5.666649999985414e+000	 9.993857622235071e+000
0	 2.666700000016667e+000	 5.733319999987733e+000	 9.991827187212044e+000
0	 2.666700000016667e+000	 5.799989999990448e+000	 9.989822634798514e+000
0	 2.666700000016665e+000	 5.866659999993467e+000	 9.987823845854180e+000
0	 2.666700000016666e+000	 5.933329999996683e+000	 9.985810701238755e+000
0	 2.666700000016666e+000	 6.000000000000001e+000	 9.983763081811954e+000
0	 2.733360000014532e+000	 5.333299999983334e+000	 1.001807303667394e+001
0	 2.733360000014533e+000	 5.399969999982151e+000	 1.001537102250202e+001
0	 2.733360000014533e+000	 5.466639999981866e+000	 1.001275181437048e+001
0	 2.733360000014532e+000	 5.533309999982381e+000	 1.001020048461269e+001
0	 2.733360000014533e+000	 5.599979999983599e+000	 1.000770210556200e+001
0	 2.733360000014533e+000	 5.666649999985415e+000	 1.000524174955178e+001
0	 2.733360000014533e+000	 5.733319999987733e+000	 1.000280448891537e+001
0	 2.733360000014533e+000	 5.799989999990450e+000	 1.000037539598613e+001
0	 2.733360000014534e+000	 5.866659999993466e+000	 9.997939543097443e+000
0	 2.733360000014533e+000	 5.933329999996684e+000	 9.995482002582650e+000
0	 2.733360000014533e+000	 6.000000000000001e+000	 9.992987846775106e+000
0	 2.800020000011600e+000	 5.333299999983335e+000	 1.003056258806636e+001
0	 2.800020000011599e+000	 5.399969999982149e+000	 1.002754759395783e+001
0	 2.800020000011600e+000	 5.466639999981864e+000	 1.002459390594002e+001
0	 2.800020000011600e+000	 5.533309999982385e+000	 1.002169121814621e+001
0	 2.800020000011600e+000	 5.599979999983599e+000	 1.001882922470968e+001
0	 2.800020000011600e+000	 5.666649999985417e+000	 1.001599761976372e+001
0	 2.800020000011600e+000	 5.733319999987732e+000	 1.001318609744163e+001
0	 2.800020000011600e+000	 5.799989999990451e+000	 1.001038435187669e+001
0	 2.800020000011600e+000	 5.866659999993467e+000	 1.000758207720218e+001
0	 2.800020000011600e+000	 5.933329999996683e+000	 1.000476896755141e+001
0	 2.800020000011600e+000	 6.000000000000000e+000	 1.000193471705766e+001
0	 2.866680000008066e+000	 5.333299999983334e+000	 1.004256928411075e+001
0	 2.866680000008066e+000	 5.399969999982149e+000	 1.003918548776380e+001
0	 2.866680000008066e+000	 5.466639999981866e+000	 1.003586004166754e+001
0	 2.866680000008066e+000	 5.533309999982384e+000	 1.003258669208147e+001
0	 2.866680000008066e+000	 5.599979999983598e+000	 1.002935918526508e+001
0	 2.866680000008066e+000	 5.666649999985414e+000	 1.002617126747787e+001
0	 2.866680000008067e+000	 5.733319999987731e+000	 1.002301668497936e+001
0	 2.866680000008066e+000	 5.799989999990449e+000	 1.001988918402904e+001
0	 2.866680000008066e+000	 5.866659999993466e+000	 1.001678251088642e+001
0	 2.866680000008067e+000	 5.933329999996684e+000	 1.001369041181100e+001
0	 2.866680000008067e+000	 6.000000000000002e+000	 1.001060663306230e+001
0	 2.933340000004133e+000	 5.333299999983334e+000	 1.005409154833799e+001
0	 2.933340000004133e+000	 5.399969999982149e+000	 1.005029990608843e+001
0	 2.933340000004133e+000	 5.466639999981866e+000	 1.004657857414796e+001
0	 2.933340000004133e+000	 5.533309999982382e+000	 1.004292478122860e+001
0	 2.933340000004134e+000	 5.599979999983600e+000	 1.003933575604235e+001
0	 2.933340000004134e+000	 5.666649999985417e+000	 1.003580872730118e+001
0	 2.933340000004134e+000	 5.733319999987733e+000	 1.003234092371709e+001
0	 2.933340000004133e+000	 5.799989999990449e+000	 1.002892957400210e+001
0	 2.933340000004134e+000	 5.866659999993467e+000	 1.002557190686819e+001
0	 2.933340000004133e+000	 5.933329999996683e+000	 1.002226515102739e+001
0	 2.933340000004133e+000	 5.999999999999998e+000	 1.001900653519167e+001
0	 3.000000000000000e+000	 5.333299999983333e+000	 1.006512780427887e+001
0	 3.000000000000000e+000	 5.399969999982150e+000	 1.006090605110016e+001
0	 3.000000000000000e+000	 5.466639999981866e+000	 1.005677785597622e+001
0	 3.000000000000000e+000	 5.533309999982383e+000	 1.005274336039779e+001
0	 3.000000000000001e+000	 5.599979999983600e+000	 1.004880270585566e+001
0	 3.000000000000001e+000	 5.666649999985417e+000	 1.004495603384059e+001
0	 3.000000000000001e+000	 5.733319999987733e+000	 1.004120348584337e+001
0	 3.000000000000000e+000	 5.799989999990451e+000	 1.003754520335476e+001
0	 3.000000000000000e+000	 5.866659999993466e+000	 1.003398132786555e+001
0	 3.000000000000000e+000	 5.933329999996684e+000	 1.003051200086652e+001
0	 3.000000000000000e+000	 6.000000000000000e+000	 1.002713736384845e+001
0	 3.066659999995867e+000	 5.333299999983333e+000	 1.007567647546423e+001
0	 3.066659999995867e+000	 5.399969999982149e+000	 1.007101912496753e+001
0	 3.066659999995867e+000	 5.466639999981865e+000	 1.006648623974722e+001
0	 3.066659999995868e+000	 5.533309999982384e+000	 1.006208030439916e+001
0	 3.066659999995868e+000	 5.599979999983599e+000	 1.005780380351916e+001
0	 3.066659999995866e+000	 5.666649999985416e+000	 1.005365922170305e+001
0	 3.066659999995867e+000	 5.733319999987734e+000	 1.004964904354668e+001
0	 3.066659999995867e+000	 5.799989999990450e+000	 1.004577575364589e+001
0	 3.066659999995867e+000	 5.866659999993468e+000	 1.004204183659649e+001
0	 3.066659999995867e+000	 5.933329999996683e+000	 1.003844977699434e+001
0	 3.066659999995868e+000	 6.000000000000001e+000	 1.003500205943531e+001
0	 3.133319999991933e+000	 5.333299999983333e+000	 1.008573598542492e+001
0	 3.133319999991933e+000	 5.399969999982149e+000	 1.008065432985900e+001
0	 3.133319999991934e+000	 5.466639999981865e+000	 1.007573207805592e+001
0	 3.133319999991933e+000	 5.533309999982383e+000	 1.007097348804286e+001
0	 3.133319999991933e+000	 5.599979999983598e+000	 1.006638281784701e+001
0	 3.133319999991934e+000	 5.666649999985416e+000	 1.006196432549552e+001
0	 3.133319999991933e+000	 5.733319999987733e+000	 1.005772226901557e+001
0	 3.133319999991934e+000	 5.799989999990449e+000	 1.005366090643435e+001
0	 3.133319999991934e+000	 5.866659999993467e+000	 1.004978449577904e+001
0	 3.133319999991933e+000	 5.933329999996682e+000	 1.004609729507683e+001
0	 3.133319999991934e+000	 6.000000000000000e+000	 1.004260356235490e+001
0	 3.199979999988401e+000	 5.333299999983335e+000	 1.009530475769172e+001
0	 3.199979999988401e+000	 5.399969999982150e+000	 1.008982686794303e+001
0	 3.199979999988401e+000	 5.466639999981867e+000	 1.008454372349720e+001
0	 3.199979999988401e+000	 5.533309999982383e+000	 1.007946078613905e+001
0	 3.199979999988401e+000	 5.599979999983601e+000	 1.007458351765335e+001
0	 3.199979999988400e+000	 5.666649999985415e+000	 1.006991737982492e+001
0	 3.199979999988401e+000	 5.733319999987733e+000	 1.006546783443855e+001
0	 3.199979999988401e+000	 5.799989999990450e+000	 1.006124034327904e+001
0	 3.199979999988400e+000	 5.866659999993467e+000	 1.005724036813122e+001
0	 3.199979999988401e+000	 5.933329999996685e+000	 1.005347337077989e+001
0	 3.199979999988401e+000	 6.000000000000001e+000	 1.004994481300986e+001
0	 3.266639999985467e+000	 5.333299999983334e+000	 1.010438121579549e+001
0	 3.266639999985468e+000	 5.399969999982149e+000	 1.009855194138811e+001
0	 3.266639999985467e+000	 5.466639999981867e+000	 1.009294952866600e+001
0	 3.266639999985468e+000	 5.533309999982385e+000	 1.008758007349784e+001
0	 3.266639999985467e+000	 5.599979999983599e+000	 1.008244967175233e+001
0	 3.266639999985468e+000	 5.666649999985419e+000	 1.007756441929819e+001
0	 3.266639999985467e+000	 5.733319999987733e+000	 1.007293041200411e+001
0	 3.266639999985467e+000	 5.799989999990450e+000	 1.006855374573883e+001
0	 3.266639999985468e+000	 5.866659999993468e+000	 1.006444051637104e+001
0	 3.266639999985468e+000	 5.933329999996684e+000	 1.006059681976947e+001
0	 3.266639999985468e+000	 6.000000000000001e+000	 1.005702875180285e+001
0	 3.333299999983334e+000	 5.333299999983335e+000	 1.011296378326700e+001
0	 3.333299999983334e+000	 5.399969999982148e+000	 1.010684475236272e+001
0	 3.333299999983335e+000	 5.466639999981867e+000	 1.010097784615722e+001
0	 3.333299999983334e+000	 5.533309999982384e+000	 1.009536922492939e+001
0	 3.333299999983334e+000	 5.599979999983601e+000	 1.009002504895809e+001
0	 3.333299999983334e+000	 5.666649999985414e+000	 1.008495147852226e+001
0	 3.333299999983334e+000	 5.733319999987733e+000	 1.008015467390079e+001
0	 3.333299999983333e+000	 5.799989999990449e+000	 1.007564079537256e+001
0	 3.333299999983333e+000	 5.866659999993468e+000	 1.007141600321649e+001
0	 3.333299999983334e+000	 5.933329999996684e+000	 1.006748645771152e+001
0	 3.333299999983333e+000	 5.999999999999998e+000	 1.006385831913652e+001
0	 2.666700000016666e+000	 6.000000000000001e+000	 9.983763081811954e+000
0	 2.666700000016666e+000	 6.066670000003318e+000	 9.981775703643834e+000
0	 2.666700000016666e+000	 6.133340000006533e+000	 9.979971466792566e+000
0	 2.666700000016667e+000	 6.200010000009550e+000	 9.978372528100023e+000
0	 2.666700000016667e+000	 6.266680000012268e+000	 9.977001044408087e+000
0	 2.666700000016666e+000	 6.333350000014584e+000	 9.975879172558660e+000
0	 2.666700000016667e+000	 6.400020000016400e+000	 9.975029069393626e+000
0	 2.666700000016666e+000	 6.466690000017617e+000	 9.974472891754887e+000
0	 2.666700000016666e+000	 6.533360000018133e+000	 9.974232796484353e+000
0	 2.666700000016667e+000	 6.600030000017850e+000	 9.974330940423913e+000
0	 2.666700000016667e+000	 6.666700000016667e+000	 9.974789480415463e+000
0	 2.733360000014533e+000	 6.000000000000001e+000	 9.992987846775106e+000
0	 2.733360000014533e+000	 6.066670000003318e+000	 9.990581293274936e+000
0	 2.733360000014533e+000	 6.133340000006531e+000	 9.988407653472196e+000
0	 2.733360000014533e+000	 6.200010000009551e+000	 9.986483640385250e+000
0	 2.733360000014532e+000	 6.266680000012268e+000	 9.984825967032407e+000
0	 2.733360000014533e+000	 6.333350000014583e+000	 9.983451346432068e+000
0	 2.733360000014533e+000	 6.400020000016401e+000	 9.982376491602569e+000
0	 2.733360000014533e+000	 6.466690000017619e+000	 9.981618115562236e+000
0	 2.733360000014533e+000	 6.533360000018132e+000	 9.981192931329463e+000
0	 2.733360000014533e+000	 6.600030000017851e+000	 9.981117651922599e+000
0	 2.733360000014533e+000	 6.666700000016669e+000	 9.981408990360000e+000
0	 2.800020000011600e+000	 6.000000000000000e+000	 1.000193471705766e+001
0	 2.800020000011599e+000	 6.066670000003313e+000	 9.999213524074412e+000
0	 2.800020000011600e+000	 6.133340000006533e+000	 9.996754441570442e+000
0	 2.800020000011600e+000	 6.200010000009553e+000	 9.994569445602028e+000
0	 2.800020000011599e+000	 6.266680000012265e+000	 9.992670512225427e+000
0	 2.800020000011600e+000	 6.333350000014586e+000	 9.991069617496917e+000
0	 2.800020000011600e+000	 6.400020000016401e+000	 9.989778737472784e+000
0	 2.800020000011600e+000	 6.466690000017617e+000	 9.988809848209307e+000
0	 2.800020000011600e+000	 6.533360000018133e+000	 9.988174925762774e+000
0	 2.800020000011600e+000	 6.600030000017850e+000	 9.987885946189467e+000
0	 2.800020000011599e+000	 6.666700000016665e+000	 9.987954885545696e+000
0	 2.866680000008067e+000	 6.000000000000002e+000	 1.001060663306230e+001
0	 2.866680000008066e+000	 6.066670000003317e+000	 1.000765916062623e+001
0	 2.866680000008066e+000	 6.133340000006531e+000	 1.000498544695285e+001
0	 2.866680000008067e+000	 6.200010000009550e+000	 1.000259343799781e+001
0	 2.866680000008067e+000	 6.266680000012267e+000	 1.000049107971677e+001
0	 2.866680000008067e+000	 6.333350000014584e+000	 9.998686318065422e+000
0	 2.866680000008066e+000	 6.400020000016399e+000	 9.997187098999405e+000
0	 2.866680000008066e+000	 6.466690000017618e+000	 9.996001368474419e+000
0	 2.866680000008066e+000	 6.533360000018135e+000	 9.995137072446136e+000
0	 2.866680000008067e+000	 6.600030000017850e+000	 9.994602156870249e+000
0	 2.866680000008067e+000	 6.666700000016666e+000	 9.994404567702420e+000
0	 2.933340000004133e+000	 5.999999999999998e+000	 1.001900653519167e+001
0	 2.933340000004133e+000	 6.066670000003318e+000	 1.001590496751431e+001
0	 2.933340000004133e+000	 6.133340000006530e+000	 1.001307428548492e+001
0	 2.933340000004133e+000	 6.200010000009551e+000	 1.001051911182003e+001
0	 2.933340000004134e+000	 6.266680000012268e+000	 1.000824406923613e+001
0	 2.933340000004133e+000	 6.333350000014583e+000	 1.000625378044980e+001
0	 2.933340000004135e+000	 6.400020000016403e+000	 1.000455286817755e+001
0	 2.933340000004133e+000	 6.466690000017616e+000	 1.000314595513591e+001
0	 2.933340000004134e+000	 6.533360000018133e+000	 1.000203766404143e+001
0	 2.933340000004134e+000	 6.600030000017850e+000	 1.000123261761064e+001
0	 2.933340000004133e+000	 6.666700000016665e+000	 1.000073543856010e+001
0	 3.000000000000000e+000	 6.000000000000000e+000	 1.002713736384845e+001
0	 3.000000000000000e+000	 6.066670000003318e+000	 1.002393770932258e+001
0	 3.000000000000000e+000	 6.133340000006531e+000	 1.002099457303218e+001
0	 3.000000000000000e+000	 6.200010000009552e+000	 1.001830996131609e+001
0	 3.000000000000000e+000	 6.266680000012268e+000	 1.001588588051318e+001
0	 3.000000000000000e+000	 6.333350000014584e+000	 1.001372433696228e+001
0	 3.000000000000000e+000	 6.400020000016401e+000	 1.001182733700230e+001
0	 3.000000000000000e+000	 6.466690000017617e+000	 1.001019688697208e+001
0	 3.000000000000000e+000	 6.533360000018136e+000	 1.000883499321047e+001
0	 3.000000000000000e+000	 6.600030000017848e+000	 1.000774366205635e+001
0	 3.000000000000000e+000	 6.666700000016666e+000	 1.000692489984861e+001
0	 3.066659999995868e+000	 6.000000000000001e+000	 1.003500205943531e+001
0	 3.066659999995867e+000	 6.066670000003317e+000	 1.003174415063497e+001
0	 3.066659999995867e+000	 6.133340000006533e+000	 1.002871992546013e+001
0	 3.066659999995867e+000	 6.200010000009553e+000	 1.002592948073345e+001
0	 3.066659999995868e+000	 6.266680000012269e+000	 1.002337291327756e+001
0	 3.066659999995868e+000	 6.333350000014584e+000	 1.002105031991514e+001
0	 3.066659999995868e+000	 6.400020000016403e+000	 1.001896179746881e+001
0	 3.066659999995868e+000	 6.466690000017617e+000	 1.001710744276127e+001
0	 3.066659999995868e+000	 6.533360000018135e+000	 1.001548735261514e+001
0	 3.066659999995868e+000	 6.600030000017851e+000	 1.001410162385312e+001
0	 3.066659999995867e+000	 6.666700000016665e+000	 1.001295035329787e+001
0	 3.133319999991934e+000	 6.000000000000000e+000	 1.004260356235490e+001
0	 3.133319999991935e+000	 6.066670000003319e+000	 1.003931105603540e+001
0	 3.133319999991934e+000	 6.133340000006534e+000	 1.003622395863430e+001
0	 3.133319999991934e+000	 6.200010000009550e+000	 1.003334116431951e+001
0	 3.133319999991934e+000	 6.266680000012267e+000	 1.003066156725894e+001
0	 3.133319999991934e+000	 6.333350000014583e+000	 1.002818406162053e+001
0	 3.133319999991934e+000	 6.400020000016399e+000	 1.002590754157215e+001
0	 3.133319999991933e+000	 6.466690000017615e+000	 1.002383090128177e+001
0	 3.133319999991935e+000	 6.533360000018135e+000	 1.002195303491729e+001
0	 3.133319999991933e+000	 6.600030000017849e+000	 1.002027283664664e+001
0	 3.133319999991934e+000	 6.666700000016667e+000	 1.001878920063775e+001
0	 3.199979999988401e+000	 6.000000000000001e+000	 1.004994481300986e+001
0	 3.199979999988401e+000	 6.066670000003318e+000	 1.004662519010778e+001
0	 3.199979999988401e+000	 6.133340000006532e+000	 1.004348028842017e+001
0	 3.199979999988401e+000	 6.200010000009551e+000	 1.004050850632169e+001
0	 3.199979999988400e+000	 6.266680000012266e+000	 1.003770824218698e+001
0	 3.199979999988400e+000	 6.333350000014582e+000	 1.003507789439069e+001
0	 3.199979999988401e+000	 6.400020000016401e+000	 1.003261586130744e+001
0	 3.199979999988400e+000	 6.466690000017614e+000	 1.003032054131191e+001
0	 3.199979999988401e+000	 6.533360000018133e+000	 1.002819033277875e+001
0	 3.199979999988400e+000	 6.600030000017850e+000	 1.002622363408262e+001
0	 3.199979999988401e+000	 6.666700000016667e+000	 1.002441884359815e+001
0	 3.266639999985468e+000	 6.000000000000001e+000	 1.005702875180285e+001
0	 3.266639999985468e+000	 6.066670000003318e+000	 1.005367331743603e+001
0	 3.266639999985467e+000	 6.133340000006531e+000	 1.005046253068328e+001
0	 3.266639999985468e+000	 6.200010000009553e+000	 1.004739500098744e+001
0	 3.266639999985467e+000	 6.266680000012268e+000	 1.004446933779134e+001
0	 3.266639999985468e+000	 6.333350000014584e+000	 1.004168415053784e+001
0	 3.266639999985468e+000	 6.400020000016400e+000	 1.003903804866978e+001
0	 3.266639999985468e+000	 6.466690000017618e+000	 1.003652964163001e+001
0	 3.266639999985467e+000	 6.533360000018132e+000	 1.003415753886139e+001
0	 3.266639999985468e+000	 6.600030000017852e+000	 1.003192034980676e+001
0	 3.266639999985468e+000	 6.666700000016667e+000	 1.002981668390898e+001
0	 3.333299999983333e+000	 5.999999999999998e+000	 1.006385831913652e+001
0	 3.333299999983333e+000	 6.066670000003317e+000	 1.006044220260407e+001
0	 3.333299999983333e+000	 6.133340000006531e+000	 1.005714430128911e+001
0	 3.333299999983334e+000	 6.200010000009550e+000	 1.005396414256414e+001
0	 3.333299999983334e+000	 6.266680000012269e+000	 1.005090125380166e+001
0	 3.333299999983334e+000	 6.333350000014584e+000	 1.004795516237421e+001
0	 3.333299999983334e+000	 6.400020000016401e+000	 1.004512539565427e+001
0	 3.333299999983334e+000	 6.466690000017618e+000	 1.004241148101438e+001
0	 3.333299999983334e+000	 6.533360000018134e+000	 1.003981294582705e+001
0	 3.333299999983334e+000	 6.600030000017851e+000	 1.003732931746478e+001
0	 3.333299999983333e+000	 6.666700000016665e+000	 1.003496012330010e+001
0	 2.666700000016667e+000	 6.666700000016667e+000	 9.974789480415463e+000
0	 2.666700000016666e+000	 6.733360000014533e+000	 9.975428769893227e+000
0	 2.666700000016666e+000	 6.800020000011599e+000	 9.976050075420220e+000
0	 2.666700000016666e+000	 6.866680000008068e+000	 9.976646632790578e+000
0	 2.666700000016667e+000	 6.933340000004134e+000	 9.977211677798374e+000
0	 2.666700000016667e+000	 7.000000000000000e+000	 9.977738446237749e+000
0	 2.666700000016667e+000	 7.066659999995867e+000	 9.978220173902814e+000
0	 2.666700000016666e+000	 7.133319999991936e+000	 9.978650096587666e+000
0	 2.666700000016666e+000	 7.199979999988401e+000	 9.979021450086401e+000
0	 2.666700000016666e+000	 7.266639999985467e+000	 9.979327470193177e+000
0	 2.666700000016667e+000	 7.333299999983335e+000	 9.979561392702054e+000
0	 2.733360000014533e+000	 6.666700000016669e+000	 9.981408990360004e+000
0	 2.733360000014533e+000	 6.733360000014533e+000	 9.981868910417727e+000
0	 2.733360000014533e+000	 6.800020000011597e+000	 9.982286561794494e+000
0	 2.733360000014533e+000	 6.866680000008068e+000	 9.982659220305299e+000
0	 2.733360000014533e+000	 6.933340000004135e+000	 9.982984161765115e+000
0	 2.733360000014534e+000	 7.000000000000002e+000	 9.983258661988922e+000
0	 2.733360000014533e+000	 7.066659999995870e+000	 9.983479996791722e+000
0	 2.733360000014533e+000	 7.133319999991937e+000	 9.983645441988490e+000
0	 2.733360000014533e+000	 7.199979999988400e+000	 9.983752273394186e+000
0	 2.733360000014533e+000	 7.266639999985468e+000	 9.983797766823827e+000
0	 2.733360000014533e+000	 7.333299999983334e+000	 9.983779198092400e+000
0	 2.800020000011599e+000	 6.666700000016665e+000	 9.987954885545696e+000
0	 2.800020000011599e+000	 6.733360000014535e+000	 9.988180043191125e+000
0	 2.800020000011599e+000	 6.800020000011600e+000	 9.988352266669088e+000
0	 2.800020000011600e+000	 6.866680000008067e+000	 9.988472240966122e+000
0	 2.800020000011600e+000	 6.933340000004134e+000	 9.988540651068792e+000
0	 2.800020000011600e+000	 7.000000000000001e+000	 9.988558181963619e+000
0	 2.800020000011600e+000	 7.066659999995867e+000	 9.988525518637175e+000
0	 2.800020000011600e+000	 7.133319999991935e+000	 9.988443346076000e+000
0	 2.800020000011600e+000	 7.199979999988400e+000	 9.988312349266632e+000
0	 2.800020000011599e+000	 7.266639999985466e+000	 9.988133213195631e+000
0	 2.800020000011599e+000	 7.333299999983334e+000	 9.987906622849533e+000
0	 2.866680000008067e+000	 6.666700000016666e+000	 9.994404567702423e+000
0	 2.866680000008067e+000	 6.733360000014534e+000	 9.994351136448129e+000
0	 2.866680000008067e+000	 6.800020000011600e+000	 9.994245698298743e+000
0	 2.866680000008066e+000	 6.866680000008065e+000	 9.994091716563064e+000
0	 2.866680000008067e+000	 6.933340000004133e+000	 9.993892654549914e+000
0	 2.866680000008067e+000	 6.999999999999997e+000	 9.993651975568076e+000
0	 2.866680000008066e+000	 7.066659999995865e+000	 9.993373142926364e+000
0	 2.866680000008067e+000	 7.133319999991935e+000	 9.993059619933558e+000
0	 2.866680000008067e+000	 7.199979999988402e+000	 9.992714869898498e+000
0	 2.866680000008067e+000	 7.266639999985468e+000	 9.992342356129933e+000
0	 2.866680000008067e+000	 7.333299999983333e+000	 9.991945541936708e+000
0	 2.933340000004133e+000	 6.666700000016665e+000	 1.000073543856010e+001
0	 2.933340000004133e+000	 6.733360000014533e+000	 1.000037115842344e+001
0	 2.933340000004134e+000	 6.800020000011601e+000	 9.999965364938207e+000
0	 2.933340000004133e+000	 6.866680000008067e+000	 9.999523668886145e+000
0	 2.933340000004133e+000	 6.933340000004134e+000	 9.999051681049004e+000
0	 2.933340000004133e+000	 7.000000000000000e+000	 9.998555012208531e+000
0	 2.933340000004133e+000	 7.066659999995869e+000	 9.998039273146457e+000
0	 2.933340000004133e+000	 7.133319999991932e+000	 9.997510074644545e+000
0	 2.933340000004133e+000	 7.199979999988399e+000	 9.996973027484543e+000
0	 2.933340000004133e+000	 7.266639999985467e+000	 9.996433742448168e+000
0	 2.933340000004133e+000	 7.333299999983336e+000	 9.995897830317187e+000
0	 3.000000000000000e+000	 6.666700000016666e+000	 1.000692489984862e+001
0	 3.000000000000000e+000	 6.733360000014533e+000	 1.000622907735177e+001
0	 3.000000000000001e+000	 6.800020000011600e+000	 1.000550977484221e+001
0	 3.000000000000000e+000	 6.866680000008066e+000	 1.000477411972535e+001
0	 3.000000000000001e+000	 6.933340000004134e+000	 1.000402923940654e+001
0	 3.000000000000000e+000	 7.000000000000000e+000	 1.000328226129118e+001
0	 3.000000000000000e+000	 7.066659999995870e+000	 1.000254031278463e+001
0	 3.000000000000000e+000	 7.133319999991934e+000	 1.000181052129228e+001
0	 3.000000000000000e+000	 7.199979999988401e+000	 1.000110001421952e+001
0	 3.000000000000000e+000	 7.266639999985467e+000	 1.000041591897172e+001
0	 3.000000000000001e+000	 7.333299999983335e+000	 9.999765362954239e+000
0	 3.066659999995867e+000	 6.666700000016665e+000	 1.001295035329787e+001
0	 3.066659999995868e+000	 6.733360000014532e+000	 1.001191386146782e+001
0	 3.066659999995868e+000	 6.800020000011598e+000	 1.001087743626553e+001
0	 3.066659999995867e+000	 6.866680000008066e+000	 1.000984909087070e+001
0	 3.066659999995867e+000	 6.933340000004133e+000	 1.000883683846305e+001
0	 3.066659999995867e+000	 7.000000000000000e+000	 1.000784869222226e+001
0	 3.066659999995867e+000	 7.066659999995864e+000	 1.000689266532806e+001
0	 3.066659999995868e+000	 7.133319999991935e+000	 1.000597677096015e+001
0	 3.066659999995867e+000	 7.199979999988399e+000	 1.000510902229822e+001
0	 3.066659999995866e+000	 7.266639999985464e+000	 1.000429743252197e+001
0	 3.066659999995867e+000	 7.333299999983333e+000	 1.000355001481110e+001
0	 3.133319999991934e+000	 6.666700000016667e+000	 1.001878920063775e+001
0	 3.133319999991934e+000	 6.733360000014533e+000	 1.001741447900628e+001
0	 3.133319999991934e+000	 6.800020000011601e+000	 1.001606685746286e+001
0	 3.133319999991934e+000	 6.866680000008067e+000	 1.001475460411221e+001
0	 3.133319999991934e+000	 6.933340000004134e+000	 1.001348598705900e+001
0	 3.133319999991933e+000	 6.999999999999998e+000	 1.001226927440801e+001
0	 3.133319999991934e+000	 7.066659999995867e+000	 1.001111273426392e+001
0	 3.133319999991934e+000	 7.133319999991935e+000	 1.001002463473148e+001
0	 3.133319999991934e+000	 7.199979999988399e+000	 1.000901324391537e+001
0	 3.133319999991934e+000	 7.266639999985467e+000	 1.000808682992032e+001
0	 3.133319999991933e+000	 7.333299999983334e+000	 1.000725366085104e+001
0	 3.199979999988401e+000	 6.666700000016667e+000	 1.002441884359816e+001
0	 3.199979999988401e+000	 6.733360000014533e+000	 1.002271989820189e+001
0	 3.199979999988401e+000	 6.800020000011601e+000	 1.002107654668898e+001
0	 3.199979999988401e+000	 6.866680000008066e+000	 1.001949668123985e+001
0	 3.199979999988402e+000	 6.933340000004133e+000	 1.001798819403494e+001
0	 3.199979999988401e+000	 7.000000000000000e+000	 1.001655897725463e+001
0	 3.199979999988401e+000	 7.066659999995867e+000	 1.001521692307939e+001
0	 3.199979999988401e+000	 7.133319999991935e+000	 1.001396992368962e+001
0	 3.199979999988401e+000	 7.199979999988402e+000	 1.001282587126574e+001
0	 3.199979999988400e+000	 7.266639999985467e+000	 1.001179265798817e+001
0	 3.199979999988401e+000	 7.333299999983334e+000	 1.001087817603730e+001
0	 3.266639999985468e+000	 6.666700000016667e+000	 1.002981668390898e+001
0	 3.266639999985468e+000	 6.733360000014533e+000	 1.002781908728932e+001
0	 3.266639999985468e+000	 6.800020000011600e+000	 1.002590501219862e+001
0	 3.266639999985468e+000	 6.866680000008067e+000	 1.002408134404368e+001
0	 3.266639999985468e+000	 6.933340000004133e+000	 1.002235496823132e+001
0	 3.266639999985468e+000	 6.999999999999999e+000	 1.002073277016837e+001
0	 3.266639999985468e+000	 7.066659999995867e+000	 1.001922163526164e+001
0	 3.266639999985468e+000	 7.133319999991934e+000	 1.001782844891795e+001
0	 3.266639999985468e+000	 7.199979999988400e+000	 1.001656009654409e+001
0	 3.266639999985468e+000	 7.266639999985468e+000	 1.001542346354689e+001
0	 3.266639999985467e+000	 7.333299999983333e+000	 1.001442543533313e+001
0	 3.333299999983333e+000	 6.666700000016665e+000	 1.003496012330010e+001
0	 3.333299999983334e+000	 6.733360000014534e+000	 1.003270101450329e+001
0	 3.333299999983334e+000	 6.800020000011601e+000	 1.003055076224651e+001
0	 3.333299999983333e+000	 6.866680000008064e+000	 1.002851461431366e+001
0	 3.333299999983334e+000	 6.933340000004133e+000	 1.002659781848866e+001
0	 3.333299999983333e+000	 6.999999999999999e+000	 1.002480562255542e+001
0	 3.333299999983335e+000	 7.066659999995867e+000	 1.002314327429783e+001
0	 3.333299999983334e+000	 7.133319999991936e+000	 1.002161602149978e+001
0	 3.333299999983334e+000	 7.199979999988401e+000	 1.002022911194517e+001
0	 3.333299999983334e+000	 7.266639999985467e+000	 1.001898779341789e+001
0	 3.333299999983335e+000	 7.333299999983336e+000	 1.001789731370182e+001
0	 2.666700000016667e+000	 7.333299999983335e+000	 9.979561392702053e+000
0	 2.666700000016667e+000	 7.399969999982151e+000	 9.979779853336511e+000
0	 2.666700000016666e+000	 7.466639999981866e+000	 9.980049458247660e+000
0	 2.666700000016666e+000	 7.533309999982383e+000	 9.980378486908453e+000
0	 2.666700000016666e+000	 7.599979999983598e+000	 9.980775218791871e+000
0	 2.666700000016666e+000	 7.666649999985416e+000	 9.981247933370868e+000
0	 2.666700000016667e+000	 7.733319999987733e+000	 9.981804910118408e+000
0	 2.666700000016667e+000	 7.799989999990449e+000	 9.982454428507465e+000
0	 2.666700000016665e+000	 7.866659999993464e+000	 9.983204768011001e+000
0	 2.666700000016666e+000	 7.933329999996683e+000	 9.984064208101996e+000
0	 2.666700000016667e+000	 8.000000000000000e+000	 9.985041028253407e+000
0	 2.733360000014533e+000	 7.333299999983334e+000	 9.983779198092401e+000
0	 2.733360000014533e+000	 7.399969999982149e+000	 9.983763109305530e+000
0	 2.733360000014533e+000	 7.466639999981865e+000	 9.983821476810338e+000
0	 2.733360000014533e+000	 7.533309999982382e+000	 9.983959704603096e+000
0	 2.733360000014533e+000	 7.599979999983601e+000	 9.984183196680140e+000
0	 2.733360000014533e+000	 7.666649999985416e+000	 9.984497357037762e+000
0	 2.733360000014533e+000	 7.733319999987733e+000	 9.984907589672261e+000
0	 2.733360000014533e+000	 7.799989999990449e+000	 9.985419298579933e+000
0	 2.733360000014533e+000	 7.866659999993466e+000	 9.986037887757112e+000
0	 2.733360000014533e+000	 7.933329999996682e+000	 9.986768761200072e+000
0	 2.733360000014533e+000	 7.999999999999999e+000	 9.987617322905139e+000
0	 2.800020000011599e+000	 7.333299999983334e+000	 9.987906622849533e+000
0	 2.800020000011599e+000	 7.399969999982149e+000	 9.987699874286200e+000
0	 2.800020000011599e+000	 7.466639999981865e+000	 9.987581869240115e+000
0	 2.800020000011600e+000	 7.533309999982383e+000	 9.987555588661422e+000
0	 2.800020000011601e+000	 7.599979999983602e+000	 9.987624013500229e+000
0	 2.800020000011600e+000	 7.666649999985417e+000	 9.987790124706676e+000
0	 2.800020000011600e+000	 7.733319999987733e+000	 9.988056903230881e+000
0	 2.800020000011600e+000	 7.799989999990451e+000	 9.988427330022990e+000
0	 2.800020000011600e+000	 7.866659999993467e+000	 9.988904386033122e+000
0	 2.800020000011600e+000	 7.933329999996681e+000	 9.989491052211427e+000
0	 2.800020000011600e+000	 8.000000000000000e+000	 9.990190309508000e+000
0	 2.866680000008067e+000	 7.333299999983333e+000	 9.991945541936708e+000
0	 2.866680000008067e+000	 7.399969999982149e+000	 9.991584967263059e+000
0	 2.866680000008066e+000	 7.466639999981866e+000	 9.991319659092232e+000
0	 2.866680000008066e+000	 7.533309999982383e+000	 9.991150627758676e+000
0	 2.866680000008066e+000	 7.599979999983598e+000	 9.991078883596822e+000
0	 2.866680000008067e+000	 7.666649999985417e+000	 9.991105436941101e+000
0	 2.866680000008067e+000	 7.733319999987733e+000	 9.991231298125980e+000
0	 2.866680000008066e+000	 7.799989999990447e+000	 9.991457477485906e+000
0	 2.866680000008066e+000	 7.866659999993466e+000	 9.991784985355281e+000
0	 2.866680000008066e+000	 7.933329999996682e+000	 9.992214832068587e+000
0	 2.866680000008067e+000	 7.999999999999999e+000	 9.992748027960264e+000
0	 2.933340000004133e+000	 7.333299999983336e+000	 9.995897830317187e+000
0	 2.933340000004133e+000	 7.399969999982149e+000	 9.995413207220652e+000
0	 2.933340000004133e+000	 7.466639999981866e+000	 9.995023869921893e+000
0	 2.933340000004133e+000	 7.533309999982383e+000	 9.994729310570127e+000
0	 2.933340000004134e+000	 7.599979999983602e+000	 9.994529021314603e+000
0	 2.933340000004133e+000	 7.666649999985414e+000	 9.994422494304565e+000
0	 2.933340000004134e+000	 7.733319999987733e+000	 9.994409221689255e+000
0	 2.933340000004133e+000	 7.799989999990448e+000	 9.994488695617912e+000
0	 2.933340000004134e+000	 7.866659999993468e+000	 9.994660408239785e+000
0	 2.933340000004134e+000	 7.933329999996684e+000	 9.994923851704133e+000
0	 2.933340000004133e+000	 7.999999999999999e+000	 9.995278518160177e+000
0	 3.000000000000001e+000	 7.333299999983335e+000	 9.999765362954239e+000
0	 3.000000000000000e+000	 7.399969999982151e+000	 9.999179413143539e+000
0	 2.999999999999999e+000	 7.466639999981865e+000	 9.998683525284294e+000
0	 3.000000000000000e+000	 7.533309999982383e+000	 9.998276125771024e+000
0	 3.000000000000001e+000	 7.599979999983599e+000	 9.997955640998271e+000
0	 3.000000000000000e+000	 7.666649999985415e+000	 9.997720497360541e+000
0	 3.000000000000000e+000	 7.733319999987733e+000	 9.997569121252367e+000
0	 3.000000000000000e+000	 7.799989999990451e+000	 9.997499939068330e+000
0	 3.000000000000001e+000	 7.866659999993468e+000	 9.997511377202880e+000
0	 3.000000000000000e+000	 7.933329999996683e+000	 9.997601862050596e+000
0	 3.000000000000000e+000	 8.000000000000000e+000	 9.997769820006024e+000
0	 3.066659999995867e+000	 7.333299999983333e+000	 1.000355001481110e+001
0	 3.066659999995868e+000	 7.399969999982150e+000	 1.000287840401624e+001
0	 3.066659999995867e+000	 7.466639999981867e+000	 1.000228764873465e+001
0	 3.066659999995867e+000	 7.533309999982381e+000	 1.000177556203664e+001
0	 3.066659999995868e+000	 7.599979999983601e+000	 1.000133995699250e+001
0	 3.066659999995868e+000	 7.666649999985417e+000	 1.000097864667253e+001
0	 3.066659999995868e+000	 7.733319999987733e+000	 1.000068944414706e+001
0	 3.066659999995867e+000	 7.799989999990450e+000	 1.000047016248636e+001
0	 3.066659999995867e+000	 7.866659999993466e+000	 1.000031861476076e+001
0	 3.066659999995867e+000	 7.933329999996682e+000	 1.000023261404057e+001
0	 3.066659999995868e+000	 8.000000000000000e+000	 1.000020997339606e+001
0	 3.133319999991933e+000	 7.333299999983334e+000	 1.000725366085104e+001
0	 3.133319999991933e+000	 7.399969999982148e+000	 1.000650499882331e+001
0	 3.133319999991935e+000	 7.466639999981867e+000	 1.000582526382819e+001
0	 3.133319999991934e+000	 7.533309999982384e+000	 1.000521210804221e+001
0	 3.133319999991933e+000	 7.599979999983598e+000	 1.000466318364198e+001
0	 3.133319999991934e+000	 7.666649999985417e+000	 1.000417614280404e+001
0	 3.133319999991934e+000	 7.733319999987733e+000	 1.000374863770495e+001
0	 3.133319999991934e+000	 7.799989999990449e+000	 1.000337832052130e+001
0	 3.133319999991934e+000	 7.866659999993466e+000	 1.000306284342964e+001
0	 3.133319999991935e+000	 7.933329999996683e+000	 1.000279985860653e+001
0	 3.133319999991934e+000	 8.000000000000000e+000	 1.000258701822857e+001
0	 3.199979999988401e+000	 7.333299999983334e+000	 1.001087817603730e+001
0	 3.199979999988402e+000	 7.399969999982152e+000	 1.001005401654929e+001
0	 3.199979999988402e+000	 7.466639999981867e+000	 1.000928539412009e+001
0	 3.199979999988400e+000	 7.533309999982381e+000	 1.000857025246303e+001
0	 3.199979999988401e+000	 7.599979999983600e+000	 1.000790653529141e+001
0	 3.199979999988401e+000	 7.666649999985417e+000	 1.000729218631857e+001
0	 3.199979999988401e+000	 7.733319999987733e+000	 1.000672514925780e+001
0	 3.199979999988401e+000	 7.799989999990449e+000	 1.000620336782241e+001
0	 3.199979999988400e+000	 7.866659999993467e+000	 1.000572478572574e+001
0	 3.199979999988401e+000	 7.933329999996684e+000	 1.000528734668109e+001
0	 3.199979999988401e+000	 7.999999999999999e+000	 1.000488899440179e+001
0	 3.266639999985467e+000	 7.333299999983333e+000	 1.001442543533314e+001
0	 3.266639999985467e+000	 7.399969999982151e+000	 1.001352027617870e+001
0	 3.266639999985468e+000	 7.466639999981867e+000	 1.001265706316558e+001
0	 3.266639999985468e+000	 7.533309999982384e+000	 1.001183448397432e+001
0	 3.266639999985468e+000	 7.599979999983599e+000	 1.001105122628547e+001
0	 3.266639999985467e+000	 7.666649999985417e+000	 1.001030597777960e+001
0	 3.266639999985467e+000	 7.733319999987733e+000	 1.000959742613724e+001
0	 3.266639999985467e+000	 7.799989999990450e+000	 1.000892425903895e+001
0	 3.266639999985467e+000	 7.866659999993466e+000	 1.000828516416527e+001
0	 3.266639999985468e+000	 7.933329999996683e+000	 1.000767882919678e+001
0	 3.266639999985468e+000	 8.000000000000000e+000	 1.000710394181401e+001
0	 3.333299999983335e+000	 7.333299999983336e+000	 1.001789731370182e+001
0	 3.333299999983333e+000	 7.399969999982149e+000	 1.001689859669611e+001
0	 3.333299999983334e+000	 7.466639999981866e+000	 1.001592929451986e+001
0	 3.333299999983334e+000	 7.533309999982383e+000	 1.001498929125135e+001
0	 3.333299999983334e+000	 7.599979999983601e+000	 1.001407847096885e+001
0	 3.333299999983334e+000	 7.666649999985416e+000	 1.001319671775065e+001
0	 3.333299999983334e+000	 7.733319999987733e+000	 1.001234391567499e+001
0	 3.333299999983334e+000	 7.799989999990448e+000	 1.001151994882018e+001
0	 3.333299999983333e+000	 7.866659999993466e+000	 1.001072470126448e+001
0	 3.333299999983334e+000	 7.933329999996683e+000	 1.000995805708615e+001
0	 3.333299999983334e+000	 8.000000000000000e+000	 1.000921990036348e+001
0	 2.666700000016667e+000	 8.000000000000000e+000	 9.985041028253407e+000
0	 2.666700000016666e+000	 8.066670000003317e+000	 9.986056443909405e+000
0	 2.666700000016666e+000	 8.133340000006532e+000	 9.987025409045957e+000
0	 2.666700000016666e+000	 8.200010000009550e+000	 9.987946810933792e+000
0	 2.666700000016666e+000	 8.266680000012267e+000	 9.988819536843575e+000
0	 2.666700000016666e+000	 8.333350000014583e+000	 9.989642474046013e+000
0	 2.666700000016665e+000	 8.400020000016399e+000	 9.990414509811821e+000
0	 2.666700000016666e+000	 8.466690000017618e+000	 9.991134531411683e+000
0	 2.666700000016666e+000	 8.533360000018133e+000	 9.991801426116297e+000
0	 2.666700000016666e+000	 8.600030000017851e+000	 9.992414081196344e+000
0	 2.666700000016666e+000	 8.666700000016668e+000	 9.992971383922530e+000
0	 2.733360000014533e+000	 7.999999999999999e+000	 9.987617322905139e+000
0	 2.733360000014534e+000	 8.066670000003319e+000	 9.988499926319166e+000
0	 2.733360000014534e+000	 8.133340000006532e+000	 9.989329745322946e+000
0	 2.733360000014533e+000	 8.200010000009552e+000	 9.990107414563765e+000
0	 2.733360000014533e+000	 8.266680000012268e+000	 9.990833568688917e+000
0	 2.733360000014533e+000	 8.333350000014583e+000	 9.991508842345628e+000
0	 2.733360000014532e+000	 8.400020000016403e+000	 9.992133870181219e+000
0	 2.733360000014534e+000	 8.466690000017618e+000	 9.992709286842910e+000
0	 2.733360000014532e+000	 8.533360000018133e+000	 9.993235726977996e+000
0	 2.733360000014533e+000	 8.600030000017854e+000	 9.993713825233728e+000
0	 2.733360000014533e+000	 8.666700000016666e+000	 9.994144216257402e+000
0	 2.800020000011600e+000	 8.000000000000000e+000	 9.990190309508000e+000
0	 2.800020000011599e+000	 8.066670000003315e+000	 9.990919225335562e+000
0	 2.800020000011600e+000	 8.133340000006530e+000	 9.991594255303184e+000
0	 2.800020000011599e+000	 8.200010000009550e+000	 9.992217462655605e+000
0	 2.800020000011600e+000	 8.266680000012265e+000	 9.992790910637572e+000
0	 2.800020000011600e+000	 8.333350000014585e+000	 9.993316662493838e+000
0	 2.800020000011600e+000	 8.400020000016397e+000	 9.993796781469138e+000
0	 2.800020000011600e+000	 8.466690000017618e+000	 9.994233330808193e+000
0	 2.800020000011601e+000	 8.533360000018135e+000	 9.994628373755793e+000
0	 2.800020000011601e+000	 8.600030000017853e+000	 9.994983973556625e+000
0	 2.800020000011600e+000	 8.666700000016666e+000	 9.995302193455469e+000
0	 2.866680000008067e+000	 7.999999999999999e+000	 9.992748027960264e+000
0	 2.866680000008066e+000	 8.066670000003319e+000	 9.993306923329518e+000
0	 2.866680000008067e+000	 8.133340000006532e+000	 9.993815310294705e+000
0	 2.866680000008067e+000	 8.200010000009549e+000	 9.994276361918965e+000
0	 2.866680000008067e+000	 8.266680000012267e+000	 9.994693251265369e+000
0	 2.866680000008066e+000	 8.333350000014585e+000	 9.995069151397054e+000
0	 2.866680000008066e+000	 8.400020000016399e+000	 9.995407235377122e+000
0	 2.866680000008066e+000	 8.466690000017618e+000	 9.995710676268695e+000
0	 2.866680000008066e+000	 8.533360000018133e+000	 9.995982647134907e+000
0	 2.866680000008067e+000	 8.600030000017849e+000	 9.996226321038831e+000
0	 2.866680000008067e+000	 8.666700000016665e+000	 9.996444871043607e+000
0	 2.933340000004133e+000	 7.999999999999999e+000	 9.995278518160177e+000
0	 2.933340000004133e+000	 8.066670000003319e+000	 9.995655602671963e+000
0	 2.933340000004133e+000	 8.133340000006534e+000	 9.995989281605620e+000
0	 2.933340000004133e+000	 8.200010000009550e+000	 9.996283519063537e+000
0	 2.933340000004133e+000	 8.266680000012267e+000	 9.996542279148109e+000
0	 2.933340000004133e+000	 8.333350000014585e+000	 9.996769525961707e+000
0	 2.933340000004133e+000	 8.400020000016399e+000	 9.996969223606721e+000
0	 2.933340000004133e+000	 8.466690000017618e+000	 9.997145336185556e+000
0	 2.933340000004133e+000	 8.533360000018131e+000	 9.997301827800570e+000
0	 2.933340000004133e+000	 8.600030000017851e+000	 9.997442662554169e+000
0	 2.933340000004133e+000	 8.666700000016666e+000	 9.997571804548715e+000
0	 3.000000000000000e+000	 8.000000000000000e+000	 9.997769820006024e+000
0	 3.000000000000000e+000	 8.066670000003319e+000	 9.997957845733794e+000
0	 3.000000000000000e+000	 8.133340000006530e+000	 9.998112540543957e+000
0	 2.999999999999999e+000	 8.200010000009549e+000	 9.998238340799029e+000
0	 3.000000000000000e+000	 8.266680000012267e+000	 9.998339682861612e+000
0	 3.000000000000000e+000	 8.333350000014582e+000	 9.998421003094249e+000
0	 3.000000000000000e+000	 8.400020000016401e+000	 9.998486737859487e+000
0	 3.000000000000001e+000	 8.466690000017618e+000	 9.998541323519888e+000
0	 3.000000000000000e+000	 8.533360000018133e+000	 9.998589196438008e+000
0	 3.000000000000000e+000	 8.600030000017847e+000	 9.998634792976418e+000
0	 3.000000000000001e+000	 8.666700000016666e+000	 9.998682549497657e+000
0	 3.066659999995868e+000	 8.000000000000000e+000	 1.000020997339606e+001
0	 3.066659999995867e+000	 8.066670000003319e+000	 1.000020623488594e+001
0	 3.066659999995867e+000	 8.133340000006534e+000	 1.000018145841776e+001
0	 3.066659999995867e+000	 8.200010000009552e+000	 1.000014023383514e+001
0	 3.066659999995868e+000	 8.266680000012270e+000	 1.000008715098171e+001
0	 3.066659999995867e+000	 8.333350000014583e+000	 1.000002679970111e+001
0	 3.066659999995868e+000	 8.400020000016399e+000	 9.999963769836928e+000
0	 3.066659999995867e+000	 8.466690000017616e+000	 9.999902651232839e+000
0	 3.066659999995867e+000	 8.533360000018133e+000	 9.999848033732459e+000
0	 3.066659999995868e+000	 8.600030000017851e+000	 9.999804507179402e+000
0	 3.066659999995868e+000	 8.666700000016665e+000	 9.999776661417318e+000
0	 3.133319999991934e+000	 8.000000000000000e+000	 1.000258701822857e+001
0	 3.133319999991934e+000	 8.066670000003317e+000	 1.000239335249933e+001
0	 3.133319999991935e+000	 8.133340000006536e+000	 1.000219240653513e+001
0	 3.133319999991933e+000	 8.200010000009550e+000	 1.000198860488156e+001
0	 3.133319999991935e+000	 8.266680000012268e+000	 1.000178637208422e+001
0	 3.133319999991934e+000	 8.333350000014583e+000	 1.000159013268870e+001
0	 3.133319999991934e+000	 8.400020000016403e+000	 1.000140431124060e+001
0	 3.133319999991934e+000	 8.466690000017618e+000	 1.000123333228555e+001
0	 3.133319999991935e+000	 8.533360000018137e+000	 1.000108162036912e+001
0	 3.133319999991935e+000	 8.600030000017851e+000	 1.000095360003693e+001
0	 3.133319999991935e+000	 8.666700000016668e+000	 1.000085369583455e+001
0	 3.199979999988401e+000	 7.999999999999999e+000	 1.000488899440179e+001
0	 3.199979999988401e+000	 8.066670000003317e+000	 1.000451178094486e+001
0	 3.199979999988400e+000	 8.133340000006530e+000	 1.000414175620408e+001
0	 3.199979999988401e+000	 8.200010000009550e+000	 1.000378286064795e+001
0	 3.199979999988400e+000	 8.266680000012265e+000	 1.000343903474493e+001
0	 3.199979999988401e+000	 8.333350000014583e+000	 1.000311421896347e+001
0	 3.199979999988401e+000	 8.400020000016401e+000	 1.000281235377206e+001
0	 3.199979999988401e+000	 8.466690000017618e+000	 1.000253737963916e+001
0	 3.199979999988400e+000	 8.533360000018133e+000	 1.000229323703325e+001
0	 3.199979999988400e+000	 8.600030000017849e+000	 1.000208386642279e+001
0	 3.199979999988401e+000	 8.666700000016668e+000	 1.000191320827627e+001
0	 3.266639999985468e+000	 8.000000000000000e+000	 1.000710394181401e+001
0	 3.266639999985468e+000	 8.066670000003317e+000	 1.000655410259345e+001
0	 3.266639999985467e+000	 8.133340000006534e+000	 1.000602587873271e+001
0	 3.266639999985468e+000	 8.200010000009552e+000	 1.000552240784404e+001
0	 3.266639999985468e+000	 8.266680000012267e+000	 1.000504682753967e+001
0	 3.266639999985468e+000	 8.333350000014583e+000	 1.000460227543186e+001
0	 3.266639999985468e+000	 8.400020000016401e+000	 1.000419188913283e+001
0	 3.266639999985467e+000	 8.466690000017616e+000	 1.000381880625481e+001
0	 3.266639999985467e+000	 8.533360000018133e+000	 1.000348616441006e+001
0	 3.266639999985467e+000	 8.600030000017849e+000	 1.000319710121082e+001
0	 3.266639999985467e+000	 8.666700000016666e+000	 1.000295475426932e+001
0	 3.333299999983334e+000	 8.000000000000000e+000	 1.000921990036348e+001
0	 3.333299999983334e+000	 8.066670000003317e+000	 1.000851289981602e+001
0	 3.333299999983334e+000	 8.133340000006532e+000	 1.000784114542907e+001
0	 3.333299999983334e+000	 8.200010000009550e+000	 1.000720665317952e+001
0	 3.333299999983334e+000	 8.266680000012267e+000	 1.000661143904431e+001
0	 3.333299999983334e+000	 8.333350000014585e+000	 1.000605751900030e+001
0	 3.333299999983334e+000	 8.400020000016399e+000	 1.000554690902444e+001
0	 3.333299999983334e+000	 8.466690000017618e+000	 1.000508162509362e+001
0	 3.333299999983333e+000	 8.533360000018133e+000	 1.000466368318478e+001
0	 3.333299999983335e+000	 8.600030000017851e+000	 1.000429509927480e+001
0	 3.333299999983334e+000	 8.666700000016668e+000	 1.000397788934060e+001
0	 2.666700000016666e+000	 8.666700000016668e+000	 9.992971383922530e+000
0	 2.666700000016667e+000	 8.733360002791903e+000	 9.993492436854156e+000
0	 2.666700000016667e+000	 8.800020022230555e+000	 9.993999372728109e+000
0	 2.666700000016666e+000	 8.866680074997040e+000	 9.994495385971563e+000
0	 2.666700000016667e+000	 8.933340177755779e+000	 9.994983671069251e+000
0	 2.666700000016666e+000	 9.000000347171183e+000	 9.995467422563417e+000
0	 2.666700000016666e+000	 9.066660599907667e+000	 9.995949835053800e+000
0	 2.666700000016666e+000	 9.133320952629655e+000	 9.996434103197723e+000
0	 2.666700000016667e+000	 9.199981422001557e+000	 9.996923421709999e+000
0	 2.666700000016667e+000	 9.266642024687794e+000	 9.997420985362904e+000
0	 2.666700000016666e+000	 9.333302777352785e+000	 9.997929988986286e+000
0	 2.733360000014533e+000	 8.666700000016666e+000	 9.994144216257402e+000
0	 2.733360000014533e+000	 8.733360002791901e+000	 9.994549021025463e+000
0	 2.733360000014534e+000	 8.800020022230553e+000	 9.994951192003724e+000
0	 2.733360000014533e+000	 8.866680074997044e+000	 9.995352428077380e+000
0	 2.733360000014533e+000	 8.933340177755776e+000	 9.995754428173948e+000
0	 2.733360000014533e+000	 9.000000347171183e+000	 9.996158891263299e+000
0	 2.733360000014533e+000	 9.066660599907669e+000	 9.996567516357606e+000
0	 2.733360000014533e+000	 9.133320952629655e+000	 9.996982002511397e+000
0	 2.733360000014532e+000	 9.199981422001558e+000	 9.997404048821464e+000
0	 2.733360000014533e+000	 9.266642024687798e+000	 9.997835354427005e+000
0	 2.733360000014533e+000	 9.333302777352785e+000	 9.998277618509464e+000
0	 2.800020000011600e+000	 8.666700000016666e+000	 9.995302193455469e+000
0	 2.800020000011600e+000	 8.733360002791905e+000	 9.995604993565319e+000
0	 2.800020000011600e+000	 8.800020022230557e+000	 9.995913340867487e+000
0	 2.800020000011599e+000	 8.866680074997040e+000	 9.996227673840929e+000
0	 2.800020000011600e+000	 8.933340177755781e+000	 9.996548430995198e+000
0	 2.800020000011600e+000	 9.000000347171183e+000	 9.996876050870561e+000
0	 2.800020000011600e+000	 9.066660599907667e+000	 9.997210972037848e+000
0	 2.800020000011600e+000	 9.133320952629653e+000	 9.997553633098564e+000
0	 2.800020000011600e+000	 9.199981422001557e+000	 9.997904472684821e+000
0	 2.800020000011599e+000	 9.266642024687796e+000	 9.998263929459315e+000
0	 2.800020000011600e+000	 9.333302777352783e+000	 9.998632442115419e+000
0	 2.866680000008067e+000	 8.666700000016665e+000	 9.996444871043607e+000
0	 2.866680000008066e+000	 8.733360002791903e+000	 9.996657518316541e+000
0	 2.866680000008067e+000	 8.800020022230553e+000	 9.996881039555529e+000
0	 2.866680000008066e+000	 8.866680074997040e+000	 9.997114847969998e+000
0	 2.866680000008067e+000	 8.933340177755778e+000	 9.997358356791118e+000
0	 2.866680000008067e+000	 9.000000347171184e+000	 9.997610979271887e+000
0	 2.866680000008066e+000	 9.066660599907666e+000	 9.997872128687005e+000
0	 2.866680000008067e+000	 9.133320952629656e+000	 9.998141218332936e+000
0	 2.866680000008067e+000	 9.199981422001558e+000	 9.998417661527906e+000
0	 2.866680000008067e+000	 9.266642024687798e+000	 9.998700871611916e+000
0	 2.866680000008067e+000	 9.333302777352783e+000	 9.998990261946675e+000
0	 2.933340000004133e+000	 8.666700000016666e+000	 9.997571804548711e+000
0	 2.933340000004133e+000	 8.733360002791905e+000	 9.997703759121933e+000
0	 2.933340000004133e+000	 8.800020022230555e+000	 9.997849508303988e+000
0	 2.933340000004133e+000	 8.866680074997042e+000	 9.998007675172428e+000
0	 2.933340000004133e+000	 8.933340177755776e+000	 9.998176882819887e+000
0	 2.933340000004133e+000	 9.000000347171181e+000	 9.998355754354000e+000
0	 2.933340000004133e+000	 9.066660599907667e+000	 9.998542912897483e+000
0	 2.933340000004133e+000	 9.133320952629653e+000	 9.998736981588095e+000
0	 2.933340000004133e+000	 9.199981422001558e+000	 9.998936583578633e+000
0	 2.933340000004133e+000	 9.266642024687798e+000	 9.999140342036876e+000
0	 2.933340000004133e+000	 9.333302777352783e+000	 9.999346880145673e+000
0	 3.000000000000001e+000	 8.666700000016666e+000	 9.998682549497657e+000
0	 3.000000000000000e+000	 8.733360002791903e+000	 9.998740879824290e+000
0	 3.000000000000000e+000	 8.800020022230555e+000	 9.998813967348996e+000
0	 3.000000000000000e+000	 8.866680074997039e+000	 9.998899880156028e+000
0	 3.000000000000000e+000	 8.933340177755776e+000	 9.998996686339586e+000
0	 3.000000000000000e+000	 9.000000347171181e+000	 9.999102454003575e+000
0	 3.000000000000000e+000	 9.066660599907666e+000	 9.999215251261774e+000
0	 3.000000000000000e+000	 9.133320952629658e+000	 9.999333146237744e+000
0	 2.999999999999999e+000	 9.199981422001557e+000	 9.999454207064870e+000
0	 3.000000000000001e+000	 9.266642024687796e+000	 9.999576501886290e+000
0	 3.000000000000000e+000	 9.333302777352781e+000	 9.999698098854969e+000
0	 3.066659999995868e+000	 8.666700000016665e+000	 9.999776661417318e+000
0	 3.066659999995868e+000	 8.733360002791901e+000	 9.999766044266446e+000
0	 3.066659999995868e+000	 8.800020022230557e+000	 9.999769636926674e+000
0	 3.066659999995867e+000	 8.866680074997042e+000	 9.999785187628646e+000
0	 3.066659999995867e+000	 8.933340177755779e+000	 9.999810444608372e+000
0	 3.066659999995868e+000	 9.000000347171181e+000	 9.999843156107319e+000
0	 3.066659999995868e+000	 9.066660599907667e+000	 9.999881070372297e+000
0	 3.066659999995867e+000	 9.133320952629655e+000	 9.999921935655486e+000
0	 3.066659999995868e+000	 9.199981422001562e+000	 9.999963500214482e+000
0	 3.066659999995867e+000	 9.266642024687794e+000	 1.000000351231221e+001
0	 3.066659999995867e+000	 9.333302777352781e+000	 1.000003972021698e+001
0	 3.133319999991935e+000	 8.666700000016668e+000	 1.000085369583455e+001
0	 3.133319999991934e+000	 8.733360002791903e+000	 1.000077641629117e+001
0	 3.133319999991934e+000	 8.800020022230555e+000	 1.000071173727318e+001
0	 3.133319999991934e+000	 8.866680074997040e+000	 1.000065732229806e+001
0	 3.133319999991933e+000	 8.933340177755776e+000	 1.000061083488442e+001
0	 3.133319999991934e+000	 9.000000347171183e+000	 1.000056993855197e+001
0	 3.133319999991934e+000	 9.066660599907669e+000	 1.000053229682154e+001
0	 3.133319999991933e+000	 9.133320952629653e+000	 1.000049557321499e+001
0	 3.133319999991934e+000	 9.199981422001557e+000	 1.000045743125538e+001
0	 3.133319999991934e+000	 9.266642024687799e+000	 1.000041553446674e+001
0	 3.133319999991934e+000	 9.333302777352783e+000	 1.000036754637427e+001
0	 3.199979999988401e+000	 8.666700000016668e+000	 1.000191320827627e+001
0	 3.199979999988400e+000	 8.733360002791901e+000	 1.000176915974129e+001
0	 3.199979999988401e+000	 8.800020022230557e+000	 1.000163548862462e+001
0	 3.199979999988401e+000	 8.866680074997042e+000	 1.000151000887210e+001
0	 3.199979999988400e+000	 8.933340177755778e+000	 1.000139053442581e+001
0	 3.199979999988401e+000	 9.000000347171181e+000	 1.000127487922419e+001
0	 3.199979999988401e+000	 9.066660599907667e+000	 1.000116085720190e+001
0	 3.199979999988400e+000	 9.133320952629653e+000	 1.000104628228991e+001
0	 3.199979999988402e+000	 9.199981422001560e+000	 1.000092896841543e+001
0	 3.199979999988400e+000	 9.266642024687794e+000	 1.000080672950199e+001
0	 3.199979999988401e+000	 9.333302777352785e+000	 1.000067737946928e+001
0	 3.266639999985467e+000	 8.666700000016666e+000	 1.000295475426932e+001
0	 3.266639999985467e+000	 8.733360002791901e+000	 1.000274143845960e+001
0	 3.266639999985468e+000	 8.800020022230555e+000	 1.000253611121715e+001
0	 3.266639999985467e+000	 8.866680074997042e+000	 1.000233697205859e+001
0	 3.266639999985468e+000	 8.933340177755778e+000	 1.000214222049072e+001
0	 3.266639999985468e+000	 9.000000347171181e+000	 1.000195005601070e+001
0	 3.266639999985468e+000	 9.066660599907667e+000	 1.000175867810588e+001
0	 3.266639999985468e+000	 9.133320952629656e+000	 1.000156628625387e+001
0	 3.266639999985468e+000	 9.199981422001562e+000	 1.000137107992252e+001
0	 3.266639999985468e+000	 9.266642024687798e+000	 1.000117125856996e+001
0	 3.266639999985468e+000	 9.333302777352785e+000	 1.000096502164453e+001
0	 3.333299999983334e+000	 8.666700000016668e+000	 1.000397788934060e+001
0	 3.333299999983334e+000	 8.733360002791903e+000	 1.000369041628892e+001
0	 3.333299999983334e+000	 8.800020022230553e+000	 1.000340882528692e+001
0	 3.333299999983334e+000	 8.866680074997039e+000	 1.000313193656533e+001
0	 3.333299999983334e+000	 8.933340177755779e+000	 1.000285857033728e+001
0	 3.333299999983333e+000	 9.000000347171181e+000	 1.000258754679820e+001
0	 3.333299999983334e+000	 9.066660599907667e+000	 1.000231768612589e+001
0	 3.333299999983335e+000	 9.133320952629656e+000	 1.000204780848051e+001
0	 3.333299999983333e+000	 9.199981422001558e+000	 1.000177673400454e+001
0	 3.333299999983334e+000	 9.266642024687796e+000	 1.000150328282281e+001
0	 3.333299999983334e+000	 9.333302777352785e+000	 1.000122627504249e+001
0	 2.666700000016666e+000	 9.333302777352785e+000	 9.997929988986288e+000
0	 2.666700000016666e+000	 9.399973674588178e+000	 9.998413441386445e+000
0	 2.666700000016666e+000	 9.466644621844617e+000	 9.998831537892222e+000
0	 2.666700000016666e+000	 9.533315502450000e+000	 9.999183484362501e+000
0	 2.666700000016666e+000	 9.599986199732197e+000	 9.999468485421486e+000
0	 2.666700000016667e+000	 9.666656597019095e+000	 9.999685744458287e+000
0	 2.666700000016666e+000	 9.733326577638575e+000	 9.999834463626572e+000
0	 2.666700000016667e+000	 9.799996024918521e+000	 9.999913843844279e+000
0	 2.666700000016666e+000	 9.866664822186822e+000	 9.999923084793016e+000
0	 2.666700000016666e+000	 9.933332852771351e+000	 9.999861384917814e+000
0	 2.666700000016666e+000	 1.000000000000000e+001	 9.999727941426437e+000
0	 2.733360000014533e+000	 9.333302777352785e+000	 9.998277618509464e+000
0	 2.733360000014533e+000	 9.399973674588175e+000	 9.998694973173224e+000
0	 2.733360000014533e+000	 9.466644621844619e+000	 9.999050536043919e+000
0	 2.733360000014533e+000	 9.533315502450000e+000	 9.999344685564243e+000
0	 2.733360000014532e+000	 9.599986199732195e+000	 9.999577799094555e+000
0	 2.733360000014533e+000	 9.666656597019092e+000	 9.999750252912401e+000
0	 2.733360000014533e+000	 9.733326577638577e+000	 9.999862422212193e+000
0	 2.733360000014533e+000	 9.799996024918524e+000	 9.999914681104805e+000
0	 2.733360000014532e+000	 9.866664822186822e+000	 9.999907402617355e+000
0	 2.733360000014533e+000	 9.933332852771352e+000	 9.999840958692550e+000
0	 2.733360000014533e+000	 1.000000000000000e+001	 9.999715720188258e+000
0	 2.800020000011600e+000	 9.333302777352783e+000	 9.998632442115421e+000
0	 2.800020000011599e+000	 9.399973674588173e+000	 9.998977489603208e+000
0	 2.800020000011600e+000	 9.466644621844619e+000	 9.999266995099173e+000
0	 2.800020000011600e+000	 9.533315502450002e+000	 9.999502230926771e+000
0	 2.800020000011601e+000	 9.599986199732197e+000	 9.999684468498495e+000
0	 2.800020000011600e+000	 9.666656597019092e+000	 9.999814978315312e+000
0	 2.800020000011600e+000	 9.733326577638575e+000	 9.999895029966547e+000
0	 2.800020000011599e+000	 9.799996024918523e+000	 9.999925892129390e+000
0	 2.800020000011600e+000	 9.866664822186820e+000	 9.999908832568556e+000
0	 2.800020000011600e+000	 9.933332852771352e+000	 9.999845118135887e+000
0	 2.800020000011600e+000	 1.000000000000000e+001	 9.999736014769972e+000
0	 2.866680000008067e+000	 9.333302777352783e+000	 9.998990261946673e+000
0	 2.866680000008067e+000	 9.399973674588178e+000	 9.999258432476264e+000
0	 2.866680000008066e+000	 9.466644621844619e+000	 9.999479545232630e+000
0	 2.866680000008066e+000	 9.533315502450000e+000	 9.999655487722983e+000
0	 2.866680000008067e+000	 9.599986199732197e+000	 9.999788146729177e+000
0	 2.866680000008066e+000	 9.666656597019095e+000	 9.999879408307386e+000
0	 2.866680000008066e+000	 9.733326577638572e+000	 9.999931157787753e+000
0	 2.866680000008067e+000	 9.799996024918524e+000	 9.999945279774098e+000
0	 2.866680000008067e+000	 9.866664822186822e+000	 9.999923658143546e+000
0	 2.866680000008066e+000	 9.933332852771354e+000	 9.999868176046048e+000
0	 2.866680000008067e+000	 1.000000000000000e+001	 9.999780715904292e+000
0	 2.933340000004133e+000	 9.333302777352783e+000	 9.999346880145671e+000
0	 2.933340000004133e+000	 9.399973674588175e+000	 9.999535243592225e+000
0	 2.933340000004133e+000	 9.466644621844619e+000	 9.999686816618926e+000
0	 2.933340000004134e+000	 9.533315502450002e+000	 9.999803823225744e+000
0	 2.933340000004133e+000	 9.599986199732197e+000	 9.999888486882586e+000
0	 2.933340000004133e+000	 9.666656597019093e+000	 9.999943030529021e+000
0	 2.933340000004134e+000	 9.733326577638575e+000	 9.999969676573887e+000
0	 2.933340000004133e+000	 9.799996024918521e+000	 9.999970646895129e+000
0	 2.933340000004133e+000	 9.866664822186820e+000	 9.999948162839305e+000
0	 2.933340000004133e+000	 9.933332852771354e+000	 9.999904445221286e+000
0	 2.933340000004133e+000	 1.000000000000000e+001	 9.999841714323859e+000
0	 3.000000000000000e+000	 9.333302777352781e+000	 9.999698098854969e+000
0	 3.000000000000001e+000	 9.399973674588180e+000	 9.999805364750959e+000
0	 3.000000000000000e+000	 9.466644621844623e+000	 9.999887439432698e+000
0	 3.000000000000000e+000	 9.533315502450000e+000	 9.999946604707962e+000
0	 3.000000000000001e+000	 9.599986199732197e+000	 9.999985142054664e+000
0	 3.000000000000000e+000	 9.666656597019092e+000	 1.000000533262061e+001
0	 3.000000000000000e+000	 9.733326577638575e+000	 1.000000945722309e+001
0	 3.000000000000000e+000	 9.799996024918523e+000	 9.999999796348707e+000
0	 3.000000000000000e+000	 9.866664822186822e+000	 9.999978630152876e+000
0	 3.000000000000001e+000	 9.933332852771352e+000	 9.999948238459723e+000
0	 3.000000000000000e+000	 1.000000000000000e+001	 9.999910900761496e+000
0	 3.066659999995867e+000	 9.333302777352781e+000	 1.000003972021698e+001
0	 3.066659999995867e+000	 9.399973674588175e+000	 1.000006623775236e+001
0	 3.066659999995868e+000	 9.466644621844619e+000	 1.000008004384859e+001
0	 3.066659999995868e+000	 9.533315502450002e+000	 1.000008319944248e+001
0	 3.066659999995867e+000	 9.599986199732197e+000	 1.000007776534134e+001
0	 3.066659999995867e+000	 9.666656597019090e+000	 1.000006580222255e+001
0	 3.066659999995868e+000	 9.733326577638577e+000	 1.000004937063344e+001
0	 3.066659999995868e+000	 9.799996024918524e+000	 1.000003053099092e+001
0	 3.066659999995867e+000	 9.866664822186822e+000	 1.000001134358128e+001
0	 3.066659999995868e+000	 9.933332852771354e+000	 9.999993868559534e+000
0	 3.066659999995866e+000	 9.999999999999998e+000	 9.999980165949799e+000
0	 3.133319999991934e+000	 9.333302777352783e+000	 1.000036754637427e+001
0	 3.133319999991933e+000	 9.399973674588175e+000	 1.000031530439626e+001
0	 3.133319999991933e+000	 9.466644621844619e+000	 1.000026326004123e+001
0	 3.133319999991935e+000	 9.533315502450002e+000	 1.000021297470223e+001
0	 3.133319999991934e+000	 9.599986199732195e+000	 1.000016600983855e+001
0	 3.133319999991934e+000	 9.666656597019097e+000	 1.000012392697521e+001
0	 3.133319999991934e+000	 9.733326577638579e+000	 1.000008828770304e+001
0	 3.133319999991935e+000	 9.799996024918523e+000	 1.000006065367807e+001
0	 3.133319999991934e+000	 9.866664822186820e+000	 1.000004258662142e+001
0	 3.133319999991934e+000	 9.933332852771354e+000	 1.000003564831905e+001
0	 3.133319999991934e+000	 1.000000000000000e+001	 1.000004140062147e+001
0	 3.199979999988401e+000	 9.333302777352785e+000	 1.000067737946928e+001
0	 3.199979999988400e+000	 9.399973674588173e+000	 1.000055000648254e+001
0	 3.199979999988400e+000	 9.466644621844617e+000	 1.000043571818527e+001
0	 3.199979999988400e+000	 9.533315502449998e+000	 1.000033529776011e+001
0	 3.199979999988401e+000	 9.599986199732197e+000	 1.000024952864225e+001
0	 3.199979999988401e+000	 9.666656597019095e+000	 1.000017919451907e+001
0	 3.199979999988401e+000	 9.733326577638577e+000	 1.000012507932999e+001
0	 3.199979999988401e+000	 9.799996024918523e+000	 1.000008796726621e+001
0	 3.199979999988401e+000	 9.866664822186822e+000	 1.000006864277037e+001
0	 3.199979999988401e+000	 9.933332852771354e+000	 1.000006789053637e+001
0	 3.199979999988401e+000	 1.000000000000000e+001	 1.000008649550916e+001
0	 3.266639999985468e+000	 9.333302777352785e+000	 1.000096502164453e+001
0	 3.266639999985467e+000	 9.399973674588177e+000	 1.000076778581105e+001
0	 3.266639999985468e+000	 9.466644621844621e+000	 1.000059604845535e+001
0	 3.266639999985468e+000	 9.533315502450002e+000	 1.000044953588900e+001
0	 3.266639999985468e+000	 9.599986199732198e+000	 1.000032797484838e+001
0	 3.266639999985468e+000	 9.666656597019095e+000	 1.000023109249443e+001
0	 3.266639999985468e+000	 9.733326577638573e+000	 1.000015861641238e+001
0	 3.266639999985468e+000	 9.799996024918523e+000	 1.000011027461158e+001
0	 3.266639999985468e+000	 9.866664822186822e+000	 1.000008579552512e+001
0	 3.266639999985468e+000	 9.933332852771354e+000	 1.000008490800976e+001
0	 3.266639999985468e+000	 1.000000000000000e+001	 1.000010734134564e+001
0	 3.333299999983334e+000	 9.333302777352785e+000	 1.000122627504249e+001
0	 3.333299999983334e+000	 9.399973674588177e+000	 1.000096608418166e+001
0	 3.333299999983334e+000	 9.466644621844619e+000	 1.000074288102610e+001
0	 3.333299999983334e+000	 9.533315502450002e+000	 1.000055505636175e+001
0	 3.333299999983333e+000	 9.599986199732197e+000	 1.000040100155287e+001
0	 3.333299999983334e+000	 9.666656597019093e+000	 1.000027910854172e+001
0	 3.333299999983334e+000	 9.733326577638577e+000	 1.000018776984835e+001
0	 3.333299999983334e+000	 9.799996024918524e+000	 1.000012537857035e+001
0	 3.333299999983334e+000	 9.866664822186822e+000	 1.000009032838267e+001
0	 3.333299999983333e+000	 9.933332852771354e+000	 1.000008101353737e+001
0	 3.333299999983334e+000	 1.000000000000000e+001	 1.000009582886358e+001
0	 3.333299999983334e+000	 0.000000000000000e+000	 1.083721710778166e+001
0	 3.333299999983333e+000	 6.666714722864756e-002	 1.074082112964313e+001
0	 3.333299999983333e+000	 1.333351778131789e-001	 1.066435502440227e+001
0	 3.333299999983334e+000	 2.000039750814772e-001	 1.060595013773949e+001
0	 3.333299999983334e+000	 2.666734223614256e-001	 1.056373791022820e+001
0	 3.333299999983334e+000	 3.333434029809069e-001	 1.053584987731996e+001
0	 3.333299999983334e+000	 4.000138002678044e-001	 1.052041766933223e+001
0	 3.333299999983333e+000	 4.666844975500011e-001	 1.051557301143853e+001
0	 3.333299999983335e+000	 5.333553781553803e-001	 1.051944772366109e+001
0	 3.333299999983334e+000	 6.000263254118248e-001	 1.053017372086605e+001
0	 3.333299999983334e+000	 6.666972226472175e-001	 1.054588301276112e+001
0	 3.399969999982150e+000	 0.000000000000000e+000	 1.096592290447807e+001
0	 3.399969999982149e+000	 6.666714722864757e-002	 1.086625277249944e+001
0	 3.399969999982150e+000	 1.333351778131789e-001	 1.078197365125832e+001
0	 3.399969999982150e+000	 2.000039750814772e-001	 1.071210310139656e+001
0	 3.399969999982149e+000	 2.666734223614254e-001	 1.065565879887245e+001
0	 3.399969999982150e+000	 3.333434029809069e-001	 1.061165853494218e+001
0	 3.399969999982150e+000	 4.000138002678045e-001	 1.057912021614442e+001
0	 3.399969999982150e+000	 4.666844975500012e-001	 1.055706186428789e+001
0	 3.399969999982150e+000	 5.333553781553803e-001	 1.054450161644196e+001
0	 3.399969999982150e+000	 6.000263254118246e-001	 1.054045772493032e+001
0	 3.399969999982150e+000	 6.666972226472177e-001	 1.054394855732759e+001
0	 3.466639999981865e+000	 0.000000000000000e+000	 1.102602869301858e+001
0	 3.466639999981866e+000	 6.666714722864756e-002	 1.093264071330248e+001
0	 3.466639999981865e+000	 1.333351778131789e-001	 1.085002101751764e+001
0	 3.466639999981866e+000	 2.000039750814772e-001	 1.077793868543384e+001
0	 3.466639999981866e+000	 2.666734223614255e-001	 1.071616292092644e+001
0	 3.466639999981866e+000	 3.333434029809069e-001	 1.066446305195634e+001
0	 3.466639999981866e+000	 4.000138002678044e-001	 1.062260853055325e+001
0	 3.466639999981866e+000	 4.666844975500011e-001	 1.059036893280227e+001
0	 3.466639999981866e+000	 5.333553781553801e-001	 1.056751395883367e+001
0	 3.466639999981866e+000	 6.000263254118248e-001	 1.055381343281592e+001
0	 3.466639999981866e+000	 6.666972226472177e-001	 1.054903730295204e+001
0	 3.533309999982383e+000	 0.000000000000000e+000	 1.102816693424892e+001
0	 3.533309999982382e+000	 6.666714722864756e-002	 1.094850987225634e+001
0	 3.533309999982382e+000	 1.333351778131790e-001	 1.087509492503314e+001
0	 3.533309999982383e+000	 2.000039750814773e-001	 1.080830797882796e+001
0	 3.533309999982383e+000	 2.666734223614256e-001	 1.074853504304490e+001
0	 3.533309999982382e+000	 3.333434029809068e-001	 1.069616225022380e+001
0	 3.533309999982383e+000	 4.000138002678045e-001	 1.065157585602377e+001
0	 3.533309999982382e+000	 4.666844975500012e-001	 1.061516223921006e+001
0	 3.533309999982382e+000	 5.333553781553801e-001	 1.058730790164404e+001
0	 3.533309999982382e+000	 6.000263254118247e-001	 1.056839946827652e+001
0	 3.533309999982382e+000	 6.666972226472177e-001	 1.055882368714416e+001
0	 3.599979999983598e+000	 0.000000000000000e+000	 1.098297008901471e+001
0	 3.599979999983598e+000	 6.666714722864756e-002	 1.092238516956500e+001
0	 3.599979999983598e+000	 1.333351778131789e-001	 1.086379317565761e+001
0	 3.599979999983600e+000	 2.000039750814772e-001	 1.080806207055542e+001
0	 3.599979999983600e+000	 2.666734223614256e-001	 1.075605993188243e+001
0	 3.599979999983598e+000	 3.333434029809068e-001	 1.070865495160578e+001
0	 3.599979999983598e+000	 4.000138002678043e-001	 1.066671543602087e+001
0	 3.599979999983598e+000	 4.666844975500011e-001	 1.063110980573948e+001
0	 3.599979999983599e+000	 5.333553781553801e-001	 1.060270659568083e+001
0	 3.599979999983598e+000	 6.000263254118247e-001	 1.058237445506569e+001
0	 3.599979999983599e+000	 6.666972226472178e-001	 1.057098214741353e+001
0	 3.666649999985415e+000	 0.000000000000000e+000	 1.090107061816149e+001
0	 3.666649999985415e+000	 6.666714722864756e-002	 1.086279152543233e+001
0	 3.666649999985415e+000	 1.333351778131789e-001	 1.082271357124371e+001
0	 3.666649999985416e+000	 2.000039750814773e-001	 1.078205204959258e+001
0	 3.666649999985415e+000	 2.666734223614255e-001	 1.074202235409347e+001
0	 3.666649999985414e+000	 3.333434029809068e-001	 1.070383997796338e+001
0	 3.666649999985415e+000	 4.000138002678044e-001	 1.066872051400936e+001
0	 3.666649999985415e+000	 4.666844975500012e-001	 1.063787965461869e+001
0	 3.666649999985415e+000	 5.333553781553803e-001	 1.061253319175163e+001
0	 3.666649999985415e+000	 6.000263254118246e-001	 1.059389701693693e+001
0	 3.666649999985416e+000	 6.666972226472177e-001	 1.058318712126968e+001
0	 3.733319999987732e+000	 0.000000000000000e+000	 1.079310098253475e+001
0	 3.733319999987730e+000	 6.666714722864754e-002	 1.077825386006210e+001
0	 3.733319999987731e+000	 1.333351778131789e-001	 1.075845391364398e+001
0	 3.733319999987732e+000	 2.000039750814773e-001	 1.073512900491568e+001
0	 3.733319999987731e+000	 2.666734223614256e-001	 1.070970707633236e+001
0	 3.733319999987732e+000	 3.333434029809069e-001	 1.068361615115757e+001
0	 3.733319999987732e+000	 4.000138002678044e-001	 1.065828433345388e+001
0	 3.733319999987732e+000	 4.666844975500011e-001	 1.063513980807568e+001
0	 3.733319999987732e+000	 5.333553781553803e-001	 1.061561084066402e+001
0	 3.733319999987731e+000	 6.000263254118247e-001	 1.060112577764362e+001
0	 3.733319999987732e+000	 6.666972226472177e-001	 1.059311304622205e+001
0	 3.799989999990448e+000	 0.000000000000000e+000	 1.066969364297986e+001
0	 3.799989999990448e+000	 6.666714722864756e-002	 1.067729709365796e+001
0	 3.799989999990448e+000	 1.333351778131790e-001	 1.067761200471084e+001
0	 3.799989999990448e+000	 2.000039750814773e-001	 1.067214402550081e+001
0	 3.799989999990448e+000	 2.666734223614256e-001	 1.066239886525329e+001
0	 3.799989999990449e+000	 3.333434029809070e-001	 1.064988229304918e+001
0	 3.799989999990448e+000	 4.000138002678043e-001	 1.063610013781900e+001
0	 3.799989999990448e+000	 4.666844975500011e-001	 1.062255828833840e+001
0	 3.799989999990449e+000	 5.333553781553804e-001	 1.061076269322540e+001
0	 3.799989999990448e+000	 6.000263254118246e-001	 1.060221936093911e+001
0	 3.799989999990448e+000	 6.666972226472178e-001	 1.059843435978003e+001
0	 3.866659999993465e+000	 0.000000000000000e+000	 1.054148106034213e+001
0	 3.866659999993464e+000	 6.666714722864754e-002	 1.056844614642347e+001
0	 3.866659999993465e+000	 1.333351778131789e-001	 1.058678564629657e+001
0	 3.866659999993465e+000	 2.000039750814773e-001	 1.059794820032395e+001
0	 3.866659999993464e+000	 2.666734223614255e-001	 1.060338248751030e+001
0	 3.866659999993465e+000	 3.333434029809068e-001	 1.060453722549892e+001
0	 3.866659999993466e+000	 4.000138002678045e-001	 1.060286117056912e+001
0	 3.866659999993465e+000	 4.666844975500012e-001	 1.059980311763464e+001
0	 3.866659999993464e+000	 5.333553781553800e-001	 1.059681190024314e+001
0	 3.866659999993466e+000	 6.000263254118247e-001	 1.059533639057662e+001
0	 3.866659999993465e+000	 6.666972226472177e-001	 1.059682549945293e+001
0	 3.933329999996682e+000	 0.000000000000000e+000	 1.041909569546679e+001
0	 3.933329999996682e+000	 6.666714722864757e-002	 1.046022593856208e+001
0	 3.933329999996682e+000	 1.333351778131790e-001	 1.049257264025336e+001
0	 3.933329999996681e+000	 2.000039750814773e-001	 1.051739261836092e+001
0	 3.933329999996681e+000	 2.666734223614255e-001	 1.053594270975733e+001
0	 3.933329999996682e+000	 3.333434029809070e-001	 1.054947977036736e+001
0	 3.933329999996681e+000	 4.000138002678044e-001	 1.055926067516855e+001
0	 3.933329999996682e+000	 4.666844975500011e-001	 1.056654231819210e+001
0	 3.933329999996682e+000	 5.333553781553801e-001	 1.057258161252447e+001
0	 3.933329999996682e+000	 6.000263254118247e-001	 1.057863549030932e+001
0	 3.933329999996682e+000	 6.666972226472177e-001	 1.058596090274998e+001
0	 4.000000000000000e+000	 0.000000000000000e+000	 1.031317000919897e+001
0	 4.000000000000001e+000	 6.666714722864757e-002	 1.036116139027713e+001
0	 4.000000000000001e+000	 1.333351778131790e-001	 1.040157078843323e+001
0	 4.000000000000000e+000	 2.000039750814772e-001	 1.043532836858744e+001
0	 4.000000000000001e+000	 2.666734223614255e-001	 1.046336429864816e+001
0	 3.999999999999999e+000	 3.333434029809068e-001	 1.048660874951496e+001
0	 4.000000000000000e+000	 4.000138002678045e-001	 1.050599189508146e+001
0	 4.000000000000000e+000	 4.666844975500011e-001	 1.052244391223836e+001
0	 4.000000000000000e+000	 5.333553781553803e-001	 1.053689498087655e+001
0	 4.000000000000001e+000	 6.000263254118247e-001	 1.055027528389026e+001
0	 4.000000000000000e+000	 6.666972226472175e-001	 1.056351500718036e+001
0	 3.333299999983334e+000	 6.666972226472175e-001	 1.054588301276112e+001
0	 3.333299999983334e+000	 7.333579753122049e-001	 1.056270348694006e+001
0	 3.333299999983334e+000	 8.000185779984418e-001	 1.057845310259502e+001
0	 3.333299999983334e+000	 8.666790473703455e-001	 1.059379113341472e+001
0	 3.333299999983334e+000	 9.333394000923322e-001	 1.060937684680993e+001
0	 3.333299999983334e+000	 9.999996528288189e-001	 1.062586950391354e+001
0	 3.333299999983335e+000	 1.066659822244222e+000	 1.064392835958040e+001
0	 3.333299999983334e+000	 1.133319925002958e+000	 1.066421266238738e+001
0	 3.333299999983334e+000	 1.199979977769445e+000	 1.068738165463330e+001
0	 3.333299999983334e+000	 1.266639997208098e+000	 1.071409457233905e+001
0	 3.333299999983334e+000	 1.333299999983334e+000	 1.074501064524754e+001
0	 3.399969999982150e+000	 6.666972226472177e-001	 1.054394855732758e+001
0	 3.399969999982150e+000	 7.333579753122047e-001	 1.055106550407192e+001
0	 3.399969999982150e+000	 8.000185779984420e-001	 1.055891286469036e+001
0	 3.399969999982150e+000	 8.666790473703454e-001	 1.056802533283441e+001
0	 3.399969999982150e+000	 9.333394000923322e-001	 1.057893759522940e+001
0	 3.399969999982150e+000	 9.999996528288190e-001	 1.059218433167435e+001
0	 3.399969999982150e+000	 1.066659822244222e+000	 1.060830021504204e+001
0	 3.399969999982150e+000	 1.133319925002958e+000	 1.062781991127884e+001
0	 3.399969999982150e+000	 1.199979977769445e+000	 1.065127807940483e+001
0	 3.399969999982150e+000	 1.266639997208098e+000	 1.067920937151371e+001
0	 3.399969999982149e+000	 1.333299999983334e+000	 1.071214843277296e+001
0	 3.466639999981866e+000	 6.666972226472177e-001	 1.054903730295204e+001
0	 3.466639999981867e+000	 7.333579753122049e-001	 1.054943050975487e+001
0	 3.466639999981866e+000	 8.000185779984418e-001	 1.055167354412676e+001
0	 3.466639999981866e+000	 8.666790473703452e-001	 1.055618994352315e+001
0	 3.466639999981866e+000	 9.333394000923321e-001	 1.056340323858386e+001
0	 3.466639999981866e+000	 9.999996528288189e-001	 1.057373695313318e+001
0	 3.466639999981866e+000	 1.066659822244222e+000	 1.058761460417967e+001
0	 3.466639999981866e+000	 1.133319925002959e+000	 1.060545970191619e+001
0	 3.466639999981866e+000	 1.199979977769445e+000	 1.062769574971995e+001
0	 3.466639999981867e+000	 1.266639997208098e+000	 1.065474624415244e+001
0	 3.466639999981866e+000	 1.333299999983334e+000	 1.068703467495955e+001
0	 3.533309999982382e+000	 6.666972226472177e-001	 1.055882368714416e+001
0	 3.533309999982382e+000	 7.333579753122047e-001	 1.055512772349239e+001
0	 3.533309999982382e+000	 8.000185779984416e-001	 1.055381662190321e+001
0	 3.533309999982383e+000	 8.666790473703456e-001	 1.055521618828424e+001
0	 3.533309999982382e+000	 9.333394000923320e-001	 1.055965222245090e+001
0	 3.533309999982383e+000	 9.999996528288191e-001	 1.056745051812641e+001
0	 3.533309999982382e+000	 1.066659822244222e+000	 1.057893686294170e+001
0	 3.533309999982382e+000	 1.133319925002958e+000	 1.059443703843541e+001
0	 3.533309999982382e+000	 1.199979977769445e+000	 1.061427682005391e+001
0	 3.533309999982383e+000	 1.266639997208098e+000	 1.063878197715131e+001
0	 3.533309999982381e+000	 1.333299999983334e+000	 1.066827827298950e+001
0	 3.599979999983599e+000	 6.666972226472178e-001	 1.057098214741353e+001
0	 3.599979999983600e+000	 7.333579753122049e-001	 1.056548636478792e+001
0	 3.599979999983598e+000	 8.000185779984416e-001	 1.056242357901866e+001
0	 3.599979999983598e+000	 8.666790473703452e-001	 1.056203528992103e+001
0	 3.599979999983598e+000	 9.333394000923321e-001	 1.056456299240804e+001
0	 3.599979999983599e+000	 9.999996528288191e-001	 1.057024817649042e+001
0	 3.599979999983598e+000	 1.066659822244222e+000	 1.057933232727655e+001
0	 3.599979999983599e+000	 1.133319925002959e+000	 1.059205692497248e+001
0	 3.599979999983598e+000	 1.199979977769445e+000	 1.060866344488194e+001
0	 3.599979999983598e+000	 1.266639997208098e+000	 1.062939335740638e+001
0	 3.599979999983598e+000	 1.333299999983334e+000	 1.065448812804498e+001
0	 3.666649999985416e+000	 6.666972226472177e-001	 1.058318712126968e+001
0	 3.666649999985415e+000	 7.333579753122047e-001	 1.057783565314485e+001
0	 3.666649999985415e+000	 8.000185779984416e-001	 1.057457589647198e+001
0	 3.666649999985415e+000	 8.666790473703450e-001	 1.057357847123674e+001
0	 3.666649999985415e+000	 9.333394000923321e-001	 1.057501399403275e+001
0	 3.666649999985415e+000	 9.999996528288190e-001	 1.057905307806155e+001
0	 3.666649999985415e+000	 1.066659822244222e+000	 1.058586633313261e+001
0	 3.666649999985415e+000	 1.133319925002959e+000	 1.059562436566337e+001
0	 3.666649999985415e+000	 1.199979977769445e+000	 1.060849777867926e+001
0	 3.666649999985415e+000	 1.266639997208098e+000	 1.062465717181369e+001
0	 3.666649999985415e+000	 1.333299999983333e+000	 1.064427314130816e+001
0	 3.733319999987732e+000	 6.666972226472177e-001	 1.059311304622205e+001
0	 3.733319999987732e+000	 7.333579753122047e-001	 1.058950480806649e+001
0	 3.733319999987731e+000	 8.000185779984413e-001	 1.058735505526204e+001
0	 3.733319999987732e+000	 8.666790473703451e-001	 1.058677695503465e+001
0	 3.733319999987732e+000	 9.333394000923323e-001	 1.058788367290252e+001
0	 3.733319999987732e+000	 9.999996528288190e-001	 1.059078837267611e+001
0	 3.733319999987732e+000	 1.066659822244222e+000	 1.059560421645823e+001
0	 3.733319999987731e+000	 1.133319925002959e+000	 1.060244436464404e+001
0	 3.733319999987731e+000	 1.199979977769445e+000	 1.061142197592106e+001
0	 3.733319999987732e+000	 1.266639997208098e+000	 1.062265020726929e+001
0	 3.733319999987732e+000	 1.333299999983334e+000	 1.063624221396120e+001
0	 3.799989999990448e+000	 6.666972226472178e-001	 1.059843435978003e+001
0	 3.799989999990447e+000	 7.333579753122048e-001	 1.059782304905609e+001
0	 3.799989999990448e+000	 8.000185779984416e-001	 1.059784253638762e+001
0	 3.799989999990448e+000	 8.666790473703453e-001	 1.059856196411793e+001
0	 3.799989999990449e+000	 9.333394000923323e-001	 1.060005047459475e+001
0	 3.799989999990448e+000	 9.999996528288186e-001	 1.060237721017040e+001
0	 3.799989999990448e+000	 1.066659822244222e+000	 1.060561131320177e+001
0	 3.799989999990448e+000	 1.133319925002958e+000	 1.060982192605040e+001
0	 3.799989999990448e+000	 1.199979977769445e+000	 1.061507819108256e+001
0	 3.799989999990448e+000	 1.266639997208098e+000	 1.062144925066922e+001
0	 3.799989999990448e+000	 1.333299999983334e+000	 1.062900424718624e+001
0	 3.866659999993465e+000	 6.666972226472177e-001	 1.059682549945293e+001
0	 3.866659999993465e+000	 7.333579753122048e-001	 1.060011959561686e+001
0	 3.866659999993465e+000	 8.000185779984417e-001	 1.060311982084747e+001
0	 3.866659999993465e+000	 8.666790473703453e-001	 1.060586472128972e+001
0	 3.866659999993466e+000	 9.333394000923324e-001	 1.060839284468686e+001
0	 3.866659999993465e+000	 9.999996528288191e-001	 1.061074274038069e+001
0	 3.866659999993465e+000	 1.066659822244222e+000	 1.061295295931155e+001
0	 3.866659999993465e+000	 1.133319925002958e+000	 1.061506205401840e+001
0	 3.866659999993466e+000	 1.199979977769445e+000	 1.061710857863889e+001
0	 3.866659999993464e+000	 1.266639997208098e+000	 1.061913108890949e+001
0	 3.866659999993464e+000	 1.333299999983334e+000	 1.062116814216543e+001
0	 3.933329999996682e+000	 6.666972226472177e-001	 1.058596090274998e+001
0	 3.933329999996681e+000	 7.333579753122047e-001	 1.059372366725193e+001
0	 3.933329999996682e+000	 8.000185779984415e-001	 1.060026838964031e+001
0	 3.933329999996682e+000	 8.666790473703455e-001	 1.060561644935314e+001
0	 3.933329999996682e+000	 9.333394000923321e-001	 1.060978922875621e+001
0	 3.933329999996682e+000	 9.999996528288190e-001	 1.061280811314323e+001
0	 3.933329999996681e+000	 1.066659822244222e+000	 1.061469449073587e+001
0	 3.933329999996681e+000	 1.133319925002959e+000	 1.061546975268391e+001
0	 3.933329999996682e+000	 1.199979977769445e+000	 1.061515529306527e+001
0	 3.933329999996681e+000	 1.266639997208098e+000	 1.061377250888612e+001
0	 3.933329999996682e+000	 1.333299999983334e+000	 1.061134280008091e+001
0	 4.000000000000000e+000	 6.666972226472175e-001	 1.056351500718036e+001
0	 4.000000000000002e+000	 7.333579753122048e-001	 1.057596448346440e+001
0	 4.000000000000001e+000	 8.000185779984418e-001	 1.058636972376477e+001
0	 4.000000000000000e+000	 8.666790473703454e-001	 1.059474837111125e+001
0	 4.000000000000000e+000	 9.333394000923323e-001	 1.060111807238014e+001
0	 3.999999999999999e+000	 9.999996528288188e-001	 1.060549647829422e+001
0	 4.000000000000001e+000	 1.066659822244222e+000	 1.060790124342303e+001
0	 3.999999999999999e+000	 1.133319925002959e+000	 1.060835002618284e+001
0	 4.000000000000001e+000	 1.199979977769445e+000	 1.060686048883682e+001
0	 4.000000000000000e+000	 1.266639997208098e+000	 1.060345029749511e+001
0	 3.999999999999999e+000	 1.333299999983334e+000	 1.059813712211480e+001
0	 3.333299999983334e+000	 1.333299999983334e+000	 1.074501064524754e+001
0	 3.333299999983334e+000	 1.399969999982150e+000	 1.077521439988964e+001
0	 3.333299999983334e+000	 1.466639999981867e+000	 1.079941933913473e+001
0	 3.333299999983334e+000	 1.533309999982383e+000	 1.081774311084741e+001
0	 3.333299999983333e+000	 1.599979999983599e+000	 1.083030336289221e+001
0	 3.333299999983334e+000	 1.666649999985416e+000	 1.083721774313359e+001
0	 3.333299999983334e+000	 1.733319999987733e+000	 1.083860389943596e+001
0	 3.333299999983334e+000	 1.799989999990450e+000	 1.083457947966367e+001
0	 3.333299999983334e+000	 1.866659999993466e+000	 1.082526213168102e+001
0	 3.333299999983334e+000	 1.933329999996683e+000	 1.081076950335220e+001
0	 3.333299999983334e+000	 2.000000000000000e+000	 1.079121924254141e+001
0	 3.399969999982149e+000	 1.333299999983334e+000	 1.071214843277295e+001
0	 3.399969999982150e+000	 1.399969999982150e+000	 1.074469393419290e+001
0	 3.399969999982150e+000	 1.466639999981867e+000	 1.077113066742544e+001
0	 3.399969999982150e+000	 1.533309999982383e+000	 1.079153848453036e+001
0	 3.399969999982150e+000	 1.599979999983600e+000	 1.080599723756737e+001
0	 3.399969999982150e+000	 1.666649999985416e+000	 1.081458677859613e+001
0	 3.399969999982150e+000	 1.733319999987733e+000	 1.081738695967625e+001
0	 3.399969999982150e+000	 1.799989999990450e+000	 1.081447763286725e+001
0	 3.399969999982150e+000	 1.866659999993466e+000	 1.080593865022860e+001
0	 3.399969999982150e+000	 1.933329999996683e+000	 1.079184986381969e+001
0	 3.399969999982150e+000	 2.000000000000000e+000	 1.077229112569988e+001
0	 3.466639999981866e+000	 1.333299999983334e+000	 1.068703467495955e+001
0	 3.466639999981866e+000	 1.399969999982150e+000	 1.071916577765171e+001
0	 3.466639999981866e+000	 1.466639999981866e+000	 1.074548341173646e+001
0	 3.466639999981866e+000	 1.533309999982382e+000	 1.076603552127312e+001
0	 3.466639999981865e+000	 1.599979999983599e+000	 1.078087005032100e+001
0	 3.466639999981866e+000	 1.666649999985416e+000	 1.079003494293932e+001
0	 3.466639999981866e+000	 1.733319999987733e+000	 1.079357814318725e+001
0	 3.466639999981866e+000	 1.799989999990450e+000	 1.079154759512386e+001
0	 3.466639999981866e+000	 1.866659999993466e+000	 1.078399124280822e+001
0	 3.466639999981866e+000	 1.933329999996684e+000	 1.077095703029927e+001
0	 3.466639999981866e+000	 2.000000000000000e+000	 1.075249290165595e+001
0	 3.533309999982381e+000	 1.333299999983334e+000	 1.066827827298950e+001
0	 3.533309999982382e+000	 1.399969999982150e+000	 1.069777765322127e+001
0	 3.533309999982383e+000	 1.466639999981866e+000	 1.072207987584792e+001
0	 3.533309999982382e+000	 1.533309999982383e+000	 1.074120686473273e+001
0	 3.533309999982383e+000	 1.599979999983600e+000	 1.075518054373892e+001
0	 3.533309999982382e+000	 1.666649999985416e+000	 1.076402283672967e+001
0	 3.533309999982382e+000	 1.733319999987733e+000	 1.076775566756809e+001
0	 3.533309999982382e+000	 1.799989999990450e+000	 1.076640096011724e+001
0	 3.533309999982382e+000	 1.866659999993466e+000	 1.075998063824009e+001
0	 3.533309999982383e+000	 1.933329999996683e+000	 1.074851662579961e+001
0	 3.533309999982383e+000	 2.000000000000000e+000	 1.073203084665866e+001
0	 3.599979999983598e+000	 1.333299999983334e+000	 1.065448812804498e+001
0	 3.599979999983598e+000	 1.399969999982150e+000	 1.067967728385680e+001
0	 3.599979999983599e+000	 1.466639999981866e+000	 1.070052236354000e+001
0	 3.599979999983599e+000	 1.533309999982383e+000	 1.071702515856619e+001
0	 3.599979999983598e+000	 1.599979999983599e+000	 1.072918746040693e+001
0	 3.599979999983598e+000	 1.666649999985416e+000	 1.073701106053370e+001
0	 3.599979999983600e+000	 1.733319999987733e+000	 1.074049775041795e+001
0	 3.599979999983597e+000	 1.799989999990449e+000	 1.073964932153110e+001
0	 3.599979999983599e+000	 1.866659999993466e+000	 1.073446756534447e+001
0	 3.599979999983598e+000	 1.933329999996683e+000	 1.072495427332937e+001
0	 3.599979999983599e+000	 2.000000000000001e+000	 1.071111123695703e+001
0	 3.666649999985415e+000	 1.333299999983333e+000	 1.064427314130816e+001
0	 3.666649999985415e+000	 1.399969999982150e+000	 1.066401239251348e+001
0	 3.666649999985415e+000	 1.466639999981867e+000	 1.068041317859284e+001
0	 3.666649999985416e+000	 1.533309999982383e+000	 1.069346304643052e+001
0	 3.666649999985415e+000	 1.599979999983600e+000	 1.070314954291080e+001
0	 3.666649999985415e+000	 1.666649999985416e+000	 1.070946021491790e+001
0	 3.666649999985415e+000	 1.733319999987733e+000	 1.071238260933597e+001
0	 3.666649999985415e+000	 1.799989999990449e+000	 1.071190427304916e+001
0	 3.666649999985415e+000	 1.866659999993466e+000	 1.070801275294156e+001
0	 3.666649999985415e+000	 1.933329999996683e+000	 1.070069559589721e+001
0	 3.666649999985414e+000	 2.000000000000000e+000	 1.068994034880012e+001
0	 3.733319999987732e+000	 1.333299999983334e+000	 1.063624221396120e+001
0	 3.733319999987732e+000	 1.399969999982150e+000	 1.064993070214652e+001
0	 3.733319999987732e+000	 1.466639999981866e+000	 1.066135462478656e+001
0	 3.733319999987732e+000	 1.533309999982383e+000	 1.067049317198272e+001
0	 3.733319999987731e+000	 1.599979999983599e+000	 1.067732553383634e+001
0	 3.733319999987732e+000	 1.666649999985416e+000	 1.068183090044876e+001
0	 3.733319999987732e+000	 1.733319999987733e+000	 1.068398846192128e+001
0	 3.733319999987732e+000	 1.799989999990450e+000	 1.068377740835514e+001
0	 3.733319999987732e+000	 1.866659999993466e+000	 1.068117692985157e+001
0	 3.733319999987732e+000	 1.933329999996683e+000	 1.067616621651178e+001
0	 3.733319999987732e+000	 2.000000000000000e+000	 1.066872445843692e+001
0	 3.799989999990448e+000	 1.333299999983334e+000	 1.062900424718624e+001
0	 3.799989999990449e+000	 1.399969999982150e+000	 1.063657993571109e+001
0	 3.799989999990448e+000	 1.466639999981866e+000	 1.064294900590132e+001
0	 3.799989999990448e+000	 1.533309999982383e+000	 1.064808817887978e+001
0	 3.799989999990448e+000	 1.599979999983599e+000	 1.065197417576935e+001
0	 3.799989999990449e+000	 1.666649999985416e+000	 1.065458371769282e+001
0	 3.799989999990449e+000	 1.733319999987733e+000	 1.065589352577303e+001
0	 3.799989999990448e+000	 1.799989999990450e+000	 1.065588032113275e+001
0	 3.799989999990448e+000	 1.866659999993466e+000	 1.065452082489473e+001
0	 3.799989999990449e+000	 1.933329999996683e+000	 1.065179175818173e+001
0	 3.799989999990448e+000	 2.000000000000000e+000	 1.064766984211645e+001
0	 3.866659999993464e+000	 1.333299999983334e+000	 1.062116814216543e+001
0	 3.866659999993465e+000	 1.399969999982150e+000	 1.062310781616238e+001
0	 3.866659999993464e+000	 1.466639999981866e+000	 1.062479862571723e+001
0	 3.866659999993465e+000	 1.533309999982383e+000	 1.062622071077871e+001
0	 3.866659999993464e+000	 1.599979999983599e+000	 1.062735421129558e+001
0	 3.866659999993463e+000	 1.666649999985416e+000	 1.062817926721656e+001
0	 3.866659999993464e+000	 1.733319999987733e+000	 1.062867601849036e+001
0	 3.866659999993465e+000	 1.799989999990450e+000	 1.062882460506569e+001
0	 3.866659999993465e+000	 1.866659999993467e+000	 1.062860516689125e+001
0	 3.866659999993465e+000	 1.933329999996683e+000	 1.062799784391570e+001
0	 3.866659999993465e+000	 2.000000000000000e+000	 1.062698277608773e+001
0	 3.933329999996682e+000	 1.333299999983334e+000	 1.061134280008091e+001
0	 3.933329999996682e+000	 1.399969999982150e+000	 1.060866206645557e+001
0	 3.933329999996682e+000	 1.466639999981866e+000	 1.060650578801442e+001
0	 3.933329999996682e+000	 1.533309999982383e+000	 1.060486341133649e+001
0	 3.933329999996681e+000	 1.599979999983600e+000	 1.060372438300083e+001
0	 3.933329999996682e+000	 1.666649999985416e+000	 1.060307814958645e+001
0	 3.933329999996681e+000	 1.733319999987733e+000	 1.060291415767240e+001
0	 3.933329999996681e+000	 1.799989999990450e+000	 1.060322185383769e+001
0	 3.933329999996682e+000	 1.866659999993466e+000	 1.060399068466133e+001
0	 3.933329999996682e+000	 1.933329999996683e+000	 1.060521009672234e+001
0	 3.933329999996681e+000	 2.000000000000000e+000	 1.060686953659974e+001
0	 3.999999999999999e+000	 1.333299999983334e+000	 1.059813712211480e+001
0	 4.000000000000000e+000	 1.399969999982150e+000	 1.059239040954581e+001
0	 4.000000000000002e+000	 1.466639999981866e+000	 1.058767279657300e+001
0	 4.000000000000000e+000	 1.533309999982383e+000	 1.058398892421011e+001
0	 4.000000000000001e+000	 1.599979999983599e+000	 1.058134343347087e+001
0	 4.000000000000001e+000	 1.666649999985416e+000	 1.057974096536901e+001
0	 4.000000000000001e+000	 1.733319999987733e+000	 1.057918616091828e+001
0	 4.000000000000001e+000	 1.799989999990450e+000	 1.057968366113241e+001
0	 4.000000000000000e+000	 1.866659999993467e+000	 1.058123810702516e+001
0	 4.000000000000001e+000	 1.933329999996683e+000	 1.058385413961027e+001
0	 4.000000000000001e+000	 2.000000000000000e+000	 1.058753639990150e+001
0	 3.333299999983334e+000	 2.000000000000000e+000	 1.079121924254141e+001
0	 3.333299999983333e+000	 2.066670000003317e+000	 1.076989423744190e+001
0	 3.333299999983334e+000	 2.133340000006534e+000	 1.074993700149648e+001
0	 3.333299999983335e+000	 2.200010000009550e+000	 1.073125462044354e+001
0	 3.333299999983334e+000	 2.266680000012267e+000	 1.071375418002148e+001
0	 3.333299999983334e+000	 2.333350000014584e+000	 1.069734276596869e+001
0	 3.333299999983334e+000	 2.400020000016401e+000	 1.068192746402356e+001
0	 3.333299999983334e+000	 2.466690000017617e+000	 1.066741535992447e+001
0	 3.333299999983334e+000	 2.533360000018134e+000	 1.065371353940982e+001
0	 3.333299999983334e+000	 2.600030000017851e+000	 1.064072908821796e+001
0	 3.333299999983334e+000	 2.666700000016667e+000	 1.062836909208729e+001
0	 3.399969999982150e+000	 2.000000000000000e+000	 1.077229112569988e+001
0	 3.399969999982150e+000	 2.066670000003318e+000	 1.075087575041714e+001
0	 3.399969999982150e+000	 2.133340000006534e+000	 1.073110109233353e+001
0	 3.399969999982150e+000	 2.200010000009551e+000	 1.071287306322946e+001
0	 3.399969999982150e+000	 2.266680000012267e+000	 1.069609757488532e+001
0	 3.399969999982150e+000	 2.333350000014584e+000	 1.068068053908149e+001
0	 3.399969999982150e+000	 2.400020000016401e+000	 1.066652786759838e+001
0	 3.399969999982150e+000	 2.466690000017616e+000	 1.065354547221638e+001
0	 3.399969999982150e+000	 2.533360000018133e+000	 1.064163926471590e+001
0	 3.399969999982150e+000	 2.600030000017851e+000	 1.063071515687731e+001
0	 3.399969999982150e+000	 2.666700000016666e+000	 1.062067906048102e+001
0	 3.466639999981866e+000	 2.000000000000000e+000	 1.075249290165595e+001
0	 3.466639999981866e+000	 2.066670000003318e+000	 1.073219795819047e+001
0	 3.466639999981866e+000	 2.133340000006534e+000	 1.071357721965101e+001
0	 3.466639999981866e+000	 2.200010000009550e+000	 1.069653750775035e+001
0	 3.466639999981866e+000	 2.266680000012266e+000	 1.068098564420127e+001
0	 3.466639999981866e+000	 2.333350000014584e+000	 1.066682845071654e+001
0	 3.466639999981866e+000	 2.400020000016401e+000	 1.065397274900895e+001
0	 3.466639999981866e+000	 2.466690000017617e+000	 1.064232536079127e+001
0	 3.466639999981867e+000	 2.533360000018134e+000	 1.063179310777630e+001
0	 3.466639999981866e+000	 2.600030000017849e+000	 1.062228281167682e+001
0	 3.466639999981867e+000	 2.666700000016666e+000	 1.061370129420561e+001
0	 3.533309999982383e+000	 2.000000000000000e+000	 1.073203084665866e+001
0	 3.533309999982382e+000	 2.066670000003316e+000	 1.071382719885125e+001
0	 3.533309999982382e+000	 2.133340000006534e+000	 1.069713484152657e+001
0	 3.533309999982382e+000	 2.200010000009550e+000	 1.068186359022013e+001
0	 3.533309999982382e+000	 2.266680000012267e+000	 1.066792326046749e+001
0	 3.533309999982382e+000	 2.333350000014584e+000	 1.065522366780419e+001
0	 3.533309999982382e+000	 2.400020000016401e+000	 1.064367462776577e+001
0	 3.533309999982382e+000	 2.466690000017617e+000	 1.063318595588781e+001
0	 3.533309999982383e+000	 2.533360000018134e+000	 1.062366746770582e+001
0	 3.533309999982382e+000	 2.600030000017850e+000	 1.061502897875536e+001
0	 3.533309999982382e+000	 2.666700000016667e+000	 1.060718030457200e+001
0	 3.599979999983599e+000	 2.000000000000001e+000	 1.071111123695703e+001
0	 3.599979999983598e+000	 2.066670000003316e+000	 1.069572981048885e+001
0	 3.599979999983599e+000	 2.133340000006534e+000	 1.068154341603784e+001
0	 3.599979999983599e+000	 2.200010000009550e+000	 1.066846694685269e+001
0	 3.599979999983598e+000	 2.266680000012267e+000	 1.065641529618210e+001
0	 3.599979999983599e+000	 2.333350000014584e+000	 1.064530335727477e+001
0	 3.599979999983598e+000	 2.400020000016401e+000	 1.063504602337939e+001
0	 3.599979999983599e+000	 2.466690000017617e+000	 1.062555818774464e+001
0	 3.599979999983599e+000	 2.533360000018134e+000	 1.061675474361923e+001
0	 3.599979999983599e+000	 2.600030000017851e+000	 1.060855058425184e+001
0	 3.599979999983599e+000	 2.666700000016667e+000	 1.060086060289116e+001
0	 3.666649999985414e+000	 2.000000000000000e+000	 1.068994034880012e+001
0	 3.666649999985414e+000	 2.066670000003316e+000	 1.067787213119260e+001
0	 3.666649999985415e+000	 2.133340000006534e+000	 1.066657240126246e+001
0	 3.666649999985415e+000	 2.200010000009550e+000	 1.065596321386193e+001
0	 3.666649999985415e+000	 2.266680000012267e+000	 1.064596662384326e+001
0	 3.666649999985415e+000	 2.333350000014583e+000	 1.063650468605862e+001
0	 3.666649999985415e+000	 2.400020000016400e+000	 1.062749945536028e+001
0	 3.666649999985415e+000	 2.466690000017617e+000	 1.061887298660044e+001
0	 3.666649999985415e+000	 2.533360000018134e+000	 1.061054733463131e+001
0	 3.666649999985415e+000	 2.600030000017851e+000	 1.060244455430510e+001
0	 3.666649999985415e+000	 2.666700000016666e+000	 1.059448670047402e+001
0	 3.733319999987732e+000	 2.000000000000000e+000	 1.066872445843692e+001
0	 3.733319999987733e+000	 2.066670000003317e+000	 1.066022049905185e+001
0	 3.733319999987732e+000	 2.133340000006534e+000	 1.065199125527808e+001
0	 3.733319999987732e+000	 2.200010000009550e+000	 1.064396802746176e+001
0	 3.733319999987731e+000	 2.266680000012266e+000	 1.063608211594905e+001
0	 3.733319999987732e+000	 2.333350000014584e+000	 1.062826482108607e+001
0	 3.733319999987731e+000	 2.400020000016400e+000	 1.062044744321896e+001
0	 3.733319999987732e+000	 2.466690000017617e+000	 1.061256128269383e+001
0	 3.733319999987732e+000	 2.533360000018134e+000	 1.060453763985682e+001
0	 3.733319999987733e+000	 2.600030000017851e+000	 1.059630781505402e+001
0	 3.733319999987732e+000	 2.666700000016666e+000	 1.058780310863152e+001
0	 3.799989999990448e+000	 2.000000000000000e+000	 1.064766984211645e+001
0	 3.799989999990449e+000	 2.066670000003318e+000	 1.064274125215592e+001
0	 3.799989999990448e+000	 2.133340000006534e+000	 1.063756943616230e+001
0	 3.799989999990448e+000	 2.200010000009550e+000	 1.063209702386605e+001
0	 3.799989999990448e+000	 2.266680000012268e+000	 1.062626664499762e+001
0	 3.799989999990449e+000	 2.333350000014584e+000	 1.062002092928744e+001
0	 3.799989999990448e+000	 2.400020000016401e+000	 1.061330250646593e+001
0	 3.799989999990448e+000	 2.466690000017617e+000	 1.060605400626349e+001
0	 3.799989999990448e+000	 2.533360000018133e+000	 1.059821805841053e+001
0	 3.799989999990448e+000	 2.600030000017850e+000	 1.058973729263744e+001
0	 3.799989999990448e+000	 2.666700000016666e+000	 1.058055433867458e+001
0	 3.866659999993465e+000	 2.000000000000000e+000	 1.062698277608773e+001
0	 3.866659999993464e+000	 2.066670000003317e+000	 1.062540072859413e+001
0	 3.866659999993465e+000	 2.133340000006534e+000	 1.062307640199273e+001
0	 3.866659999993465e+000	 2.200010000009550e+000	 1.061996583928867e+001
0	 3.866659999993464e+000	 2.266680000012267e+000	 1.061602508348706e+001
0	 3.866659999993465e+000	 2.333350000014584e+000	 1.061121017759302e+001
0	 3.866659999993466e+000	 2.400020000016401e+000	 1.060547716461164e+001
0	 3.866659999993465e+000	 2.466690000017617e+000	 1.059878208754802e+001
0	 3.866659999993464e+000	 2.533360000018133e+000	 1.059108098940718e+001
0	 3.866659999993464e+000	 2.600030000017850e+000	 1.058232991319421e+001
0	 3.866659999993464e+000	 2.666700000016666e+000	 1.057248490191413e+001
0	 3.933329999996681e+000	 2.000000000000000e+000	 1.060686953659974e+001
0	 3.933329999996681e+000	 2.066670000003317e+000	 1.060816526645582e+001
0	 3.933329999996681e+000	 2.133340000006534e+000	 1.060828161084701e+001
0	 3.933329999996682e+000	 2.200010000009551e+000	 1.060719010994349e+001
0	 3.933329999996681e+000	 2.266680000012267e+000	 1.060486230391548e+001
0	 3.933329999996682e+000	 2.333350000014584e+000	 1.060126973293313e+001
0	 3.933329999996682e+000	 2.400020000016401e+000	 1.059638393716660e+001
0	 3.933329999996681e+000	 2.466690000017617e+000	 1.059017645678603e+001
0	 3.933329999996682e+000	 2.533360000018134e+000	 1.058261883196153e+001
0	 3.933329999996681e+000	 2.600030000017850e+000	 1.057368260286319e+001
0	 3.933329999996681e+000	 2.666700000016666e+000	 1.056333930966110e+001
0	 4.000000000000001e+000	 2.000000000000000e+000	 1.058753639990150e+001
0	 4.000000000000001e+000	 2.066670000003317e+000	 1.059100120383029e+001
0	 4.000000000000001e+000	 2.133340000006534e+000	 1.059295452080269e+001
0	 4.000000000000000e+000	 2.200010000009551e+000	 1.059338547204437e+001
0	 4.000000000000001e+000	 2.266680000012268e+000	 1.059228317878096e+001
0	 4.000000000000000e+000	 2.333350000014584e+000	 1.058963676223806e+001
0	 4.000000000000000e+000	 2.400020000016400e+000	 1.058543534364126e+001
0	 4.000000000000001e+000	 2.466690000017617e+000	 1.057966804421616e+001
0	 4.000000000000001e+000	 2.533360000018134e+000	 1.057232398518829e+001
0	 4.000000000000000e+000	 2.600030000017850e+000	 1.056339228778320e+001
0	 4.000000000000000e+000	 2.666700000016667e+000	 1.055286207322638e+001
0	 3.333299999983334e+000	 2.666700000016667e+000	 1.062836909208729e+001
0	 3.333299999983333e+000	 2.733360000014532e+000	 1.061605125761407e+001
0	 3.333299999983334e+000	 2.800020000011600e+000	 1.060319809484466e+001
0	 3.333299999983334e+000	 2.866680000008067e+000	 1.058972932985383e+001
0	 3.333299999983334e+000	 2.933340000004133e+000	 1.057556468871638e+001
0	 3.333299999983334e+000	 3.000000000000000e+000	 1.056062389750715e+001
0	 3.333299999983334e+000	 3.066659999995868e+000	 1.054482668230098e+001
0	 3.333299999983333e+000	 3.133319999991934e+000	 1.052809276917274e+001
0	 3.333299999983333e+000	 3.199979999988400e+000	 1.051034188419735e+001
0	 3.333299999983334e+000	 3.266639999985468e+000	 1.049149375344971e+001
0	 3.333299999983334e+000	 3.333299999983334e+000	 1.047146810300479e+001
0	 3.399969999982150e+000	 2.666700000016666e+000	 1.062067906048102e+001
0	 3.399969999982150e+000	 2.733360000014534e+000	 1.061062893442888e+001
0	 3.399969999982150e+000	 2.800020000011598e+000	 1.059969016237965e+001
0	 3.399969999982149e+000	 2.866680000008067e+000	 1.058781412358665e+001
0	 3.399969999982150e+000	 2.933340000004133e+000	 1.057495219730323e+001
0	 3.399969999982150e+000	 3.000000000000000e+000	 1.056105576278277e+001
0	 3.399969999982150e+000	 3.066659999995866e+000	 1.054607619927868e+001
0	 3.399969999982149e+000	 3.133319999991933e+000	 1.052996488604438e+001
0	 3.399969999982150e+000	 3.199979999988400e+000	 1.051267320233334e+001
0	 3.399969999982150e+000	 3.266639999985468e+000	 1.049415252739906e+001
0	 3.399969999982149e+000	 3.333299999983333e+000	 1.047435424049505e+001
0	 3.466639999981867e+000	 2.666700000016666e+000	 1.061370129420561e+001
0	 3.466639999981867e+000	 2.733360000014534e+000	 1.060502015402452e+001
0	 3.466639999981866e+000	 2.800020000011600e+000	 1.059525565100131e+001
0	 3.466639999981866e+000	 2.866680000008065e+000	 1.058438526515876e+001
0	 3.466639999981866e+000	 2.933340000004133e+000	 1.057238647651966e+001
0	 3.466639999981865e+000	 2.999999999999999e+000	 1.055923676510683e+001
0	 3.466639999981866e+000	 3.066659999995866e+000	 1.054491361094314e+001
0	 3.466639999981866e+000	 3.133319999991933e+000	 1.052939449405148e+001
0	 3.466639999981866e+000	 3.199979999988401e+000	 1.051265689445478e+001
0	 3.466639999981867e+000	 3.266639999985468e+000	 1.049467829217597e+001
0	 3.466639999981866e+000	 3.333299999983334e+000	 1.047543616723807e+001
0	 3.533309999982382e+000	 2.666700000016667e+000	 1.060718030457200e+001
0	 3.533309999982383e+000	 2.733360000014533e+000	 1.059912663661093e+001
0	 3.533309999982382e+000	 2.800020000011600e+000	 1.058992972985615e+001
0	 3.533309999982383e+000	 2.866680000008067e+000	 1.057958761269079e+001
0	 3.533309999982383e+000	 2.933340000004133e+000	 1.056809831349799e+001
0	 3.533309999982382e+000	 3.000000000000000e+000	 1.055545986066093e+001
0	 3.533309999982383e+000	 3.066659999995867e+000	 1.054167028256286e+001
0	 3.533309999982383e+000	 3.133319999991934e+000	 1.052672760758697e+001
0	 3.533309999982382e+000	 3.199979999988401e+000	 1.051062986411657e+001
0	 3.533309999982383e+000	 3.266639999985468e+000	 1.049337508053496e+001
0	 3.533309999982382e+000	 3.333299999983334e+000	 1.047496128522548e+001
0	 3.599979999983599e+000	 2.666700000016667e+000	 1.060086060289116e+001
0	 3.599979999983599e+000	 2.733360000014533e+000	 1.059285010239804e+001
0	 3.599979999983599e+000	 2.800020000011600e+000	 1.058374756809065e+001
0	 3.599979999983598e+000	 2.866680000008067e+000	 1.057356602430336e+001
0	 3.599979999983598e+000	 2.933340000004133e+000	 1.056231849537057e+001
0	 3.599979999983599e+000	 3.000000000000000e+000	 1.055001800562673e+001
0	 3.599979999983598e+000	 3.066659999995866e+000	 1.053667757940628e+001
0	 3.599979999983599e+000	 3.133319999991934e+000	 1.052231024104375e+001
0	 3.599979999983599e+000	 3.199979999988401e+000	 1.050692901487364e+001
0	 3.599979999983599e+000	 3.266639999985467e+000	 1.049054692523049e+001
0	 3.599979999983598e+000	 3.333299999983333e+000	 1.047317699644891e+001
0	 3.666649999985415e+000	 2.666700000016666e+000	 1.059448670047402e+001
0	 3.666649999985415e+000	 2.733360000014533e+000	 1.058609227159578e+001
0	 3.666649999985415e+000	 2.800020000011600e+000	 1.057674433485130e+001
0	 3.666649999985415e+000	 2.866680000008065e+000	 1.056646535811709e+001
0	 3.666649999985415e+000	 2.933340000004133e+000	 1.055527780926973e+001
0	 3.666649999985415e+000	 3.000000000000000e+000	 1.054320415618581e+001
0	 3.666649999985415e+000	 3.066659999995867e+000	 1.053026686674193e+001
0	 3.666649999985415e+000	 3.133319999991933e+000	 1.051648840881473e+001
0	 3.666649999985415e+000	 3.199979999988401e+000	 1.050189125028088e+001
0	 3.666649999985415e+000	 3.266639999985468e+000	 1.048649785901707e+001
0	 3.666649999985415e+000	 3.333299999983334e+000	 1.047033070290003e+001
0	 3.733319999987732e+000	 2.666700000016666e+000	 1.058780310863152e+001
0	 3.733319999987731e+000	 2.733360000014532e+000	 1.057875486441407e+001
0	 3.733319999987731e+000	 2.800020000011599e+000	 1.056895519928457e+001
0	 3.733319999987732e+000	 2.866680000008066e+000	 1.055843047225262e+001
0	 3.733319999987732e+000	 2.933340000004133e+000	 1.054720704232781e+001
0	 3.733319999987731e+000	 3.000000000000000e+000	 1.053531126851980e+001
0	 3.733319999987732e+000	 3.066659999995867e+000	 1.052276950983825e+001
0	 3.733319999987732e+000	 3.133319999991933e+000	 1.050960812529281e+001
0	 3.733319999987731e+000	 3.199979999988401e+000	 1.049585347389322e+001
0	 3.733319999987732e+000	 3.266639999985467e+000	 1.048153191464918e+001
0	 3.733319999987732e+000	 3.333299999983334e+000	 1.046666980657046e+001
0	 3.799989999990448e+000	 2.666700000016666e+000	 1.058055433867458e+001
0	 3.799989999990448e+000	 2.733360000014533e+000	 1.057073960106282e+001
0	 3.799989999990448e+000	 2.800020000011600e+000	 1.056041533053696e+001
0	 3.799989999990448e+000	 2.866680000008066e+000	 1.054960622483054e+001
0	 3.799989999990448e+000	 2.933340000004133e+000	 1.053833698167713e+001
0	 3.799989999990448e+000	 3.000000000000000e+000	 1.052663229881032e+001
0	 3.799989999990448e+000	 3.066659999995866e+000	 1.051451687396370e+001
0	 3.799989999990448e+000	 3.133319999991934e+000	 1.050201540487091e+001
0	 3.799989999990448e+000	 3.199979999988400e+000	 1.048915258926557e+001
0	 3.799989999990449e+000	 3.266639999985467e+000	 1.047595312488133e+001
0	 3.799989999990448e+000	 3.333299999983334e+000	 1.046244170945187e+001
0	 3.866659999993464e+000	 2.666700000016666e+000	 1.057248490191413e+001
0	 3.866659999993464e+000	 2.733360000014533e+000	 1.056194820175194e+001
0	 3.866659999993465e+000	 2.800020000011601e+000	 1.055115989775492e+001
0	 3.866659999993464e+000	 2.866680000008067e+000	 1.054013747397147e+001
0	 3.866659999993464e+000	 2.933340000004133e+000	 1.052889841445002e+001
0	 3.866659999993465e+000	 3.000000000000000e+000	 1.051746020323898e+001
0	 3.866659999993464e+000	 3.066659999995866e+000	 1.050584032438680e+001
0	 3.866659999993465e+000	 3.133319999991934e+000	 1.049405626194193e+001
0	 3.866659999993465e+000	 3.199979999988400e+000	 1.048212549995284e+001
0	 3.866659999993465e+000	 3.266639999985467e+000	 1.047006552246801e+001
0	 3.866659999993464e+000	 3.333299999983334e+000	 1.045789381353593e+001
0	 3.933329999996681e+000	 2.666700000016666e+000	 1.056333930966110e+001
0	 3.933329999996682e+000	 2.733360000014532e+000	 1.055228238669133e+001
0	 3.933329999996682e+000	 2.800020000011600e+000	 1.054122407008492e+001
0	 3.933329999996681e+000	 2.866680000008066e+000	 1.053016907779603e+001
0	 3.933329999996681e+000	 2.933340000004133e+000	 1.051912212777879e+001
0	 3.933329999996681e+000	 3.000000000000000e+000	 1.050808793798739e+001
0	 3.933329999996682e+000	 3.066659999995867e+000	 1.049707122637600e+001
0	 3.933329999996681e+000	 3.133319999991933e+000	 1.048607671089879e+001
0	 3.933329999996682e+000	 3.199979999988400e+000	 1.047510910950997e+001
0	 3.933329999996682e+000	 3.266639999985467e+000	 1.046417314016373e+001
0	 3.933329999996681e+000	 3.333299999983334e+000	 1.045327352081429e+001
0	 4.000000000000000e+000	 2.666700000016667e+000	 1.055286207322639e+001
0	 4.000000000000000e+000	 2.733360000014533e+000	 1.054164387609088e+001
0	 4.000000000000000e+000	 2.800020000011599e+000	 1.053064301667344e+001
0	 4.000000000000001e+000	 2.866680000008067e+000	 1.051984589442480e+001
0	 4.000000000000000e+000	 2.933340000004133e+000	 1.050923890879578e+001
0	 4.000000000000000e+000	 3.000000000000000e+000	 1.049880845923718e+001
0	 4.000000000000000e+000	 3.066659999995867e+000	 1.048854094519978e+001
0	 4.000000000000000e+000	 3.133319999991933e+000	 1.047842276613440e+001
0	 4.000000000000001e+000	 3.199979999988401e+000	 1.046844032149186e+001
0	 4.000000000000001e+000	 3.266639999985467e+000	 1.045858001072299e+001
0	 4.000000000000000e+000	 3.333299999983333e+000	 1.044882823327861e+001
0	 3.333299999983334e+000	 3.333299999983334e+000	 1.047146810300479e+001
0	 3.333299999983333e+000	 3.399969999982149e+000	 1.045123467193794e+001
0	 3.333299999983333e+000	 3.466639999981866e+000	 1.043181596236429e+001
0	 3.333299999983334e+000	 3.533309999982383e+000	 1.041320155546381e+001
0	 3.333299999983334e+000	 3.599979999983599e+000	 1.039538103241645e+001
0	 3.333299999983334e+000	 3.666649999985416e+000	 1.037834397440223e+001
0	 3.333299999983334e+000	 3.733319999987733e+000	 1.036207996260110e+001
0	 3.333299999983334e+000	 3.799989999990450e+000	 1.034657857819305e+001
0	 3.333299999983334e+000	 3.866659999993467e+000	 1.033182940235809e+001
0	 3.333299999983333e+000	 3.933329999996682e+000	 1.031782201627622e+001
0	 3.333299999983333e+000	 4.000000000000000e+000	 1.030454600112744e+001
0	 3.399969999982149e+000	 3.333299999983333e+000	 1.047435424049505e+001
0	 3.399969999982150e+000	 3.399969999982150e+000	 1.045437397955460e+001
0	 3.399969999982150e+000	 3.466639999981867e+000	 1.043532301018661e+001
0	 3.399969999982150e+000	 3.533309999982383e+000	 1.041716694825265e+001
0	 3.399969999982150e+000	 3.599979999983600e+000	 1.039987140961432e+001
0	 3.399969999982150e+000	 3.666649999985417e+000	 1.038340201013325e+001
0	 3.399969999982150e+000	 3.733319999987732e+000	 1.036772436567103e+001
0	 3.399969999982150e+000	 3.799989999990450e+000	 1.035280409208927e+001
0	 3.399969999982150e+000	 3.866659999993467e+000	 1.033860680524962e+001
0	 3.399969999982150e+000	 3.933329999996684e+000	 1.032509812101369e+001
0	 3.399969999982150e+000	 4.000000000000000e+000	 1.031224365524311e+001
0	 3.466639999981866e+000	 3.333299999983334e+000	 1.047543616723807e+001
0	 3.466639999981866e+000	 3.399969999982150e+000	 1.045605841218000e+001
0	 3.466639999981867e+000	 3.466639999981867e+000	 1.043765809590154e+001
0	 3.466639999981866e+000	 3.533309999982382e+000	 1.042018151544532e+001
0	 3.466639999981866e+000	 3.599979999983600e+000	 1.040357496785404e+001
0	 3.466639999981866e+000	 3.666649999985417e+000	 1.038778475017038e+001
0	 3.466639999981866e+000	 3.733319999987733e+000	 1.037275715943701e+001
0	 3.466639999981866e+000	 3.799989999990450e+000	 1.035843849269662e+001
0	 3.466639999981866e+000	 3.866659999993466e+000	 1.034477504699191e+001
0	 3.466639999981866e+000	 3.933329999996683e+000	 1.033171311936557e+001
0	 3.466639999981866e+000	 4.000000000000001e+000	 1.031919900686030e+001
0	 3.533309999982382e+000	 3.333299999983334e+000	 1.047496128522548e+001
0	 3.533309999982383e+000	 3.399969999982150e+000	 1.045647115332584e+001
0	 3.533309999982382e+000	 3.466639999981867e+000	 1.043894878962440e+001
0	 3.533309999982381e+000	 3.533309999982382e+000	 1.042232581884433e+001
0	 3.533309999982383e+000	 3.599979999983600e+000	 1.040653386570883e+001
0	 3.533309999982381e+000	 3.666649999985415e+000	 1.039150455494108e+001
0	 3.533309999982382e+000	 3.733319999987732e+000	 1.037716951126430e+001
0	 3.533309999982382e+000	 3.799989999990450e+000	 1.036346035940168e+001
0	 3.533309999982382e+000	 3.866659999993467e+000	 1.035030872407643e+001
0	 3.533309999982383e+000	 3.933329999996684e+000	 1.033764623001177e+001
0	 3.533309999982383e+000	 4.000000000000000e+000	 1.032540450193091e+001
0	 3.599979999983598e+000	 3.333299999983333e+000	 1.047317699644891e+001
0	 3.599979999983598e+000	 3.399969999982150e+000	 1.045579538650385e+001
0	 3.599979999983599e+000	 3.466639999981867e+000	 1.043932266147056e+001
0	 3.599979999983600e+000	 3.533309999982384e+000	 1.042368042025218e+001
0	 3.599979999983598e+000	 3.599979999983600e+000	 1.040879026175189e+001
0	 3.599979999983599e+000	 3.666649999985416e+000	 1.039457378487284e+001
0	 3.599979999983598e+000	 3.733319999987732e+000	 1.038095258851816e+001
0	 3.599979999983598e+000	 3.799989999990448e+000	 1.036784827159105e+001
0	 3.599979999983598e+000	 3.866659999993467e+000	 1.035518243299467e+001
0	 3.599979999983599e+000	 3.933329999996684e+000	 1.034287667163217e+001
0	 3.599979999983598e+000	 4.000000000000000e+000	 1.033085258640675e+001
0	 3.666649999985415e+000	 3.333299999983334e+000	 1.047033070290003e+001
0	 3.666649999985415e+000	 3.399969999982150e+000	 1.045421429522574e+001
0	 3.666649999985415e+000	 3.466639999981866e+000	 1.043890728155535e+001
0	 3.666649999985416e+000	 3.533309999982384e+000	 1.042432588147140e+001
0	 3.666649999985415e+000	 3.599979999983600e+000	 1.041038631455646e+001
0	 3.666649999985415e+000	 3.666649999985416e+000	 1.039700480039310e+001
0	 3.666649999985416e+000	 3.733319999987733e+000	 1.038409755856387e+001
0	 3.666649999985415e+000	 3.799989999990450e+000	 1.037158080865135e+001
0	 3.666649999985415e+000	 3.866659999993467e+000	 1.035937077023810e+001
0	 3.666649999985415e+000	 3.933329999996683e+000	 1.034738366290670e+001
0	 3.666649999985415e+000	 4.000000000000001e+000	 1.033553570623971e+001
0	 3.733319999987732e+000	 3.333299999983334e+000	 1.046666980657046e+001
0	 3.733319999987733e+000	 3.399969999982150e+000	 1.045191106300324e+001
0	 3.733319999987732e+000	 3.466639999981866e+000	 1.043783021999411e+001
0	 3.733319999987732e+000	 3.533309999982383e+000	 1.042434276430448e+001
0	 3.733319999987730e+000	 3.599979999983599e+000	 1.041136418269575e+001
0	 3.733319999987732e+000	 3.666649999985417e+000	 1.039880996192935e+001
0	 3.733319999987732e+000	 3.733319999987733e+000	 1.038659558876669e+001
0	 3.733319999987732e+000	 3.799989999990451e+000	 1.037463654996918e+001
0	 3.733319999987732e+000	 3.866659999993467e+000	 1.036284833229823e+001
0	 3.733319999987732e+000	 3.933329999996684e+000	 1.035114642251525e+001
0	 3.733319999987732e+000	 4.000000000000001e+000	 1.033944630738167e+001
0	 3.799989999990448e+000	 3.333299999983334e+000	 1.046244170945187e+001
0	 3.799989999990449e+000	 3.399969999982149e+000	 1.044906887334809e+001
0	 3.799989999990447e+000	 3.466639999981866e+000	 1.043621904690222e+001
0	 3.799989999990448e+000	 3.533309999982383e+000	 1.042381163055395e+001
0	 3.799989999990449e+000	 3.599979999983600e+000	 1.041176602474301e+001
0	 3.799989999990449e+000	 3.666649999985417e+000	 1.040000162990910e+001
0	 3.799989999990448e+000	 3.733319999987733e+000	 1.038843784649191e+001
0	 3.799989999990448e+000	 3.799989999990450e+000	 1.037699407493115e+001
0	 3.799989999990448e+000	 3.866659999993467e+000	 1.036558971566653e+001
0	 3.799989999990448e+000	 3.933329999996684e+000	 1.035414416913774e+001
0	 3.799989999990448e+000	 4.000000000000001e+000	 1.034257683578449e+001
0	 3.866659999993464e+000	 3.333299999983334e+000	 1.045789381353593e+001
0	 3.866659999993465e+000	 3.399969999982150e+000	 1.044587090977202e+001
0	 3.866659999993465e+000	 3.466639999981867e+000	 1.043420133239501e+001
0	 3.866659999993465e+000	 3.533309999982383e+000	 1.042281304202234e+001
0	 3.866659999993465e+000	 3.599979999983600e+000	 1.041163399927146e+001
0	 3.866659999993464e+000	 3.666649999985416e+000	 1.040059216475980e+001
0	 3.866659999993465e+000	 3.733319999987733e+000	 1.038961549910479e+001
0	 3.866659999993464e+000	 3.799989999990449e+000	 1.037863196292389e+001
0	 3.866659999993464e+000	 3.866659999993466e+000	 1.036756951683450e+001
0	 3.866659999993465e+000	 3.933329999996684e+000	 1.035635612145407e+001
0	 3.866659999993465e+000	 4.000000000000000e+000	 1.034491973740002e+001
0	 3.933329999996681e+000	 3.333299999983334e+000	 1.045327352081429e+001
0	 3.933329999996682e+000	 3.399969999982151e+000	 1.044250035578677e+001
0	 3.933329999996682e+000	 3.466639999981867e+000	 1.043190464658786e+001
0	 3.933329999996682e+000	 3.533309999982382e+000	 1.042142756051218e+001
0	 3.933329999996682e+000	 3.599979999983600e+000	 1.041101026485434e+001
0	 3.933329999996681e+000	 3.666649999985416e+000	 1.040059392690895e+001
0	 3.933329999996681e+000	 3.733319999987733e+000	 1.039011971397063e+001
0	 3.933329999996681e+000	 3.799989999990450e+000	 1.037952879333399e+001
0	 3.933329999996682e+000	 3.866659999993466e+000	 1.036876233229363e+001
0	 3.933329999996682e+000	 3.933329999996684e+000	 1.035776149814415e+001
0	 3.933329999996682e+000	 4.000000000000000e+000	 1.034646745818017e+001
0	 4.000000000000000e+000	 3.333299999983333e+000	 1.044882823327861e+001
0	 4.000000000000000e+000	 3.399969999982150e+000	 1.043914039490409e+001
0	 4.000000000000001e+000	 3.466639999981866e+000	 1.042945655959614e+001
0	 4.000000000000000e+000	 3.533309999982383e+000	 1.041973574782599e+001
0	 4.000000000000000e+000	 3.599979999983600e+000	 1.040993698006488e+001
0	 4.000000000000001e+000	 3.666649999985417e+000	 1.040001927678404e+001
0	 4.000000000000001e+000	 3.733319999987733e+000	 1.038994165845470e+001
0	 4.000000000000001e+000	 3.799989999990450e+000	 1.037966314554809e+001
0	 4.000000000000000e+000	 3.866659999993467e+000	 1.036914275853542e+001
0	 3.999999999999999e+000	 3.933329999996683e+000	 1.035833951788790e+001
0	 4.000000000000000e+000	 4.000000000000000e+000	 1.034721244407677e+001
0	 3.333299999983333e+000	 4.000000000000000e+000	 1.030454600112744e+001
0	 3.333299999983334e+000	 4.066670000003317e+000	 1.029182736150723e+001
0	 3.333299999983334e+000	 4.133340000006534e+000	 1.027948910702367e+001
0	 3.333299999983335e+000	 4.200010000009551e+000	 1.026751632637572e+001
0	 3.333299999983334e+000	 4.266680000012268e+000	 1.025589410826230e+001
0	 3.333299999983334e+000	 4.333350000014583e+000	 1.024460754138238e+001
0	 3.333299999983334e+000	 4.400020000016401e+000	 1.023364171443489e+001
0	 3.333299999983333e+000	 4.466690000017617e+000	 1.022298171611881e+001
0	 3.333299999983334e+000	 4.533360000018134e+000	 1.021261263513308e+001
0	 3.333299999983334e+000	 4.600030000017851e+000	 1.020251956017666e+001
0	 3.333299999983333e+000	 4.666700000016666e+000	 1.019268757994852e+001
0	 3.399969999982150e+000	 4.000000000000000e+000	 1.031224365524311e+001
0	 3.399969999982150e+000	 4.066670000003317e+000	 1.029985526087145e+001
0	 3.399969999982150e+000	 4.133340000006534e+000	 1.028776548361573e+001
0	 3.399969999982150e+000	 4.200010000009551e+000	 1.027597097851279e+001
0	 3.399969999982150e+000	 4.266680000012267e+000	 1.026446840059948e+001
0	 3.399969999982150e+000	 4.333350000014584e+000	 1.025325440491263e+001
0	 3.399969999982149e+000	 4.400020000016400e+000	 1.024232564648910e+001
0	 3.399969999982150e+000	 4.466690000017616e+000	 1.023167878036573e+001
0	 3.399969999982149e+000	 4.533360000018131e+000	 1.022131046157938e+001
0	 3.399969999982150e+000	 4.600030000017850e+000	 1.021121734516691e+001
0	 3.399969999982150e+000	 4.666700000016666e+000	 1.020139608616518e+001
0	 3.466639999981866e+000	 4.000000000000001e+000	 1.031919900686030e+001
0	 3.466639999981866e+000	 4.066670000003318e+000	 1.030705824769404e+001
0	 3.466639999981865e+000	 4.133340000006533e+000	 1.029515608882270e+001
0	 3.466639999981866e+000	 4.200010000009550e+000	 1.028349839039595e+001
0	 3.466639999981866e+000	 4.266680000012267e+000	 1.027209101256350e+001
0	 3.466639999981865e+000	 4.333350000014584e+000	 1.026093981547507e+001
0	 3.466639999981866e+000	 4.400020000016402e+000	 1.025005065928031e+001
0	 3.466639999981866e+000	 4.466690000017618e+000	 1.023942940412896e+001
0	 3.466639999981866e+000	 4.533360000018133e+000	 1.022908191017072e+001
0	 3.466639999981866e+000	 4.600030000017851e+000	 1.021901403755532e+001
0	 3.466639999981866e+000	 4.666700000016666e+000	 1.020923164643243e+001
0	 3.533309999982383e+000	 4.000000000000000e+000	 1.032540450193090e+001
0	 3.533309999982383e+000	 4.066670000003318e+000	 1.031344528251778e+001
0	 3.533309999982382e+000	 4.133340000006534e+000	 1.030168436733257e+001
0	 3.533309999982382e+000	 4.200010000009551e+000	 1.029013446041274e+001
0	 3.533309999982382e+000	 4.266680000012267e+000	 1.027880826579582e+001
0	 3.533309999982382e+000	 4.333350000014583e+000	 1.026771848751930e+001
0	 3.533309999982383e+000	 4.400020000016403e+000	 1.025687782962072e+001
0	 3.533309999982381e+000	 4.466690000017615e+000	 1.024629899613757e+001
0	 3.533309999982383e+000	 4.533360000018135e+000	 1.023599469110739e+001
0	 3.533309999982383e+000	 4.600030000017849e+000	 1.022597761856767e+001
0	 3.533309999982381e+000	 4.666700000016665e+000	 1.021626048255597e+001
0	 3.599979999983598e+000	 4.000000000000000e+000	 1.033085258640675e+001
0	 3.599979999983598e+000	 4.066670000003316e+000	 1.031902532588543e+001
0	 3.599979999983599e+000	 4.133340000006532e+000	 1.030737376383332e+001
0	 3.599979999983598e+000	 4.200010000009550e+000	 1.029591508695070e+001
0	 3.599979999983598e+000	 4.266680000012268e+000	 1.028466648193784e+001
0	 3.599979999983599e+000	 4.333350000014584e+000	 1.027364513549502e+001
0	 3.599979999983598e+000	 4.400020000016402e+000	 1.026286823432252e+001
0	 3.599979999983599e+000	 4.466690000017617e+000	 1.025235296512063e+001
0	 3.599979999983598e+000	 4.533360000018133e+000	 1.024211651458963e+001
0	 3.599979999983598e+000	 4.600030000017853e+000	 1.023217606942982e+001
0	 3.599979999983599e+000	 4.666700000016667e+000	 1.022254881634148e+001
0	 3.666649999985415e+000	 4.000000000000001e+000	 1.033553570623972e+001
0	 3.666649999985415e+000	 4.066670000003317e+000	 1.032380733833974e+001
0	 3.666649999985415e+000	 4.133340000006534e+000	 1.031224772301296e+001
0	 3.666649999985415e+000	 4.200010000009550e+000	 1.030087616839737e+001
0	 3.666649999985415e+000	 4.266680000012268e+000	 1.028971198263100e+001
0	 3.666649999985415e+000	 4.333350000014582e+000	 1.027877447385184e+001
0	 3.666649999985415e+000	 4.400020000016401e+000	 1.026808295019791e+001
0	 3.666649999985416e+000	 4.466690000017618e+000	 1.025765671980721e+001
0	 3.666649999985415e+000	 4.533360000018133e+000	 1.024751509081774e+001
0	 3.666649999985416e+000	 4.600030000017850e+000	 1.023767737136755e+001
0	 3.666649999985415e+000	 4.666700000016665e+000	 1.022816286959465e+001
0	 3.733319999987732e+000	 4.000000000000001e+000	 1.033944630738167e+001
0	 3.733319999987732e+000	 4.066670000003318e+000	 1.032780028042347e+001
0	 3.733319999987732e+000	 4.133340000006535e+000	 1.031632968955944e+001
0	 3.733319999987732e+000	 4.200010000009550e+000	 1.030505360314030e+001
0	 3.733319999987731e+000	 4.266680000012267e+000	 1.029399108951674e+001
0	 3.733319999987732e+000	 4.333350000014584e+000	 1.028316121703944e+001
0	 3.733319999987732e+000	 4.400020000016402e+000	 1.027258305405908e+001
0	 3.733319999987732e+000	 4.466690000017617e+000	 1.026227566892636e+001
0	 3.733319999987732e+000	 4.533360000018135e+000	 1.025225812999202e+001
0	 3.733319999987732e+000	 4.600030000017851e+000	 1.024254950560671e+001
0	 3.733319999987732e+000	 4.666700000016666e+000	 1.023316886412117e+001
0	 3.799989999990448e+000	 4.000000000000001e+000	 1.034257683578449e+001
0	 3.799989999990449e+000	 4.066670000003317e+000	 1.033101311267938e+001
0	 3.799989999990448e+000	 4.133340000006534e+000	 1.031964310816079e+001
0	 3.799989999990448e+000	 4.200010000009550e+000	 1.030848328956706e+001
0	 3.799989999990448e+000	 4.266680000012267e+000	 1.029755012423648e+001
0	 3.799989999990448e+000	 4.333350000014583e+000	 1.028686007950743e+001
0	 3.799989999990448e+000	 4.400020000016401e+000	 1.027642962271822e+001
0	 3.799989999990447e+000	 4.466690000017617e+000	 1.026627522120721e+001
0	 3.799989999990449e+000	 4.533360000018134e+000	 1.025641334231272e+001
0	 3.799989999990449e+000	 4.600030000017850e+000	 1.024686045337312e+001
0	 3.799989999990448e+000	 4.666700000016666e+000	 1.023763302172674e+001
0	 3.866659999993465e+000	 4.000000000000000e+000	 1.034491973740002e+001
0	 3.866659999993464e+000	 4.066670000003316e+000	 1.033345479565026e+001
0	 3.866659999993465e+000	 4.133340000006534e+000	 1.032221142350499e+001
0	 3.866659999993464e+000	 4.200010000009551e+000	 1.031120112606515e+001
0	 3.866659999993464e+000	 4.266680000012268e+000	 1.030043540843167e+001
0	 3.866659999993464e+000	 4.333350000014585e+000	 1.028992577570549e+001
0	 3.866659999993466e+000	 4.400020000016401e+000	 1.027968373298756e+001
0	 3.866659999993465e+000	 4.466690000017617e+000	 1.026972078537879e+001
0	 3.866659999993464e+000	 4.533360000018133e+000	 1.026004843798016e+001
0	 3.866659999993464e+000	 4.600030000017849e+000	 1.025067819589259e+001
0	 3.866659999993464e+000	 4.666700000016665e+000	 1.024162156421705e+001
0	 3.933329999996682e+000	 4.000000000000000e+000	 1.034646745818016e+001
0	 3.933329999996681e+000	 4.066670000003316e+000	 1.033513428987886e+001
0	 3.933329999996682e+000	 4.133340000006535e+000	 1.032405808028002e+001
0	 3.933329999996682e+000	 4.200010000009551e+000	 1.031324301102215e+001
0	 3.933329999996681e+000	 4.266680000012268e+000	 1.030269326374374e+001
0	 3.933329999996682e+000	 4.333350000014584e+000	 1.029241302008328e+001
0	 3.933329999996681e+000	 4.400020000016401e+000	 1.028240646167927e+001
0	 3.933329999996682e+000	 4.466690000017618e+000	 1.027267777017021e+001
0	 3.933329999996682e+000	 4.533360000018134e+000	 1.026323112719461e+001
0	 3.933329999996682e+000	 4.600030000017851e+000	 1.025407071439097e+001
0	 3.933329999996682e+000	 4.666700000016666e+000	 1.024520071339780e+001
0	 4.000000000000000e+000	 4.000000000000000e+000	 1.034721244407677e+001
0	 4.000000000000000e+000	 4.066670000003317e+000	 1.033606055590795e+001
0	 4.000000000000000e+000	 4.133340000006534e+000	 1.032520652317389e+001
0	 4.000000000000000e+000	 4.200010000009550e+000	 1.031464484282562e+001
0	 4.000000000000001e+000	 4.266680000012268e+000	 1.030437001181412e+001
0	 4.000000000000000e+000	 4.333350000014584e+000	 1.029437652709044e+001
0	 4.000000000000000e+000	 4.400020000016401e+000	 1.028465888560557e+001
0	 4.000000000000000e+000	 4.466690000017617e+000	 1.027521158431054e+001
0	 4.000000000000001e+000	 4.533360000018134e+000	 1.026602912015637e+001
0	 4.000000000000000e+000	 4.600030000017851e+000	 1.025710599009408e+001
0	 4.000000000000000e+000	 4.666700000016666e+000	 1.024843669107469e+001
0	 3.333299999983333e+000	 4.666700000016666e+000	 1.019268757994853e+001
0	 3.333299999983334e+000	 4.733360000014533e+000	 1.018315609554697e+001
0	 3.333299999983334e+000	 4.800020000011601e+000	 1.017397144550262e+001
0	 3.333299999983333e+000	 4.866680000008066e+000	 1.016513349232597e+001
0	 3.333299999983335e+000	 4.933340000004134e+000	 1.015664209852753e+001
0	 3.333299999983334e+000	 5.000000000000001e+000	 1.014849712661783e+001
0	 3.333299999983334e+000	 5.066659999995867e+000	 1.014069843910733e+001
0	 3.333299999983334e+000	 5.133319999991934e+000	 1.013324589850652e+001
0	 3.333299999983334e+000	 5.199979999988400e+000	 1.012613936732590e+001
0	 3.333299999983333e+000	 5.266639999985467e+000	 1.011937870807590e+001
0	 3.333299999983334e+000	 5.333299999983335e+000	 1.011296378326699e+001
0	 3.399969999982150e+000	 4.666700000016666e+000	 1.020139608616518e+001
0	 3.399969999982151e+000	 4.733360000014534e+000	 1.019188397418152e+001
0	 3.399969999982150e+000	 4.800020000011601e+000	 1.018271414553459e+001
0	 3.399969999982149e+000	 4.866680000008066e+000	 1.017388138401064e+001
0	 3.399969999982149e+000	 4.933340000004132e+000	 1.016538047339586e+001
0	 3.399969999982150e+000	 5.000000000000001e+000	 1.015720619747652e+001
0	 3.399969999982150e+000	 5.066659999995867e+000	 1.014935334003878e+001
0	 3.399969999982149e+000	 5.133319999991934e+000	 1.014181668486891e+001
0	 3.399969999982150e+000	 5.199979999988400e+000	 1.013459101575306e+001
0	 3.399969999982150e+000	 5.266639999985468e+000	 1.012767111647745e+001
0	 3.399969999982149e+000	 5.333299999983332e+000	 1.012105177082827e+001
0	 3.466639999981866e+000	 4.666700000016666e+000	 1.020923164643243e+001
0	 3.466639999981866e+000	 4.733360000014534e+000	 1.019976714816151e+001
0	 3.466639999981866e+000	 4.800020000011600e+000	 1.019063995788358e+001
0	 3.466639999981866e+000	 4.866680000008067e+000	 1.018184077816751e+001
0	 3.466639999981866e+000	 4.933340000004135e+000	 1.017336031158219e+001
0	 3.466639999981866e+000	 4.999999999999999e+000	 1.016518926069652e+001
0	 3.466639999981866e+000	 5.066659999995866e+000	 1.015731832807937e+001
0	 3.466639999981866e+000	 5.133319999991933e+000	 1.014973821629958e+001
0	 3.466639999981866e+000	 5.199979999988401e+000	 1.014243962792603e+001
0	 3.466639999981866e+000	 5.266639999985468e+000	 1.013541326552758e+001
0	 3.466639999981866e+000	 5.333299999983334e+000	 1.012864983167305e+001
0	 3.533309999982381e+000	 4.666700000016665e+000	 1.021626048255597e+001
0	 3.533309999982382e+000	 4.733360000014534e+000	 1.020686878215452e+001
0	 3.533309999982382e+000	 4.800020000011601e+000	 1.019780842425642e+001
0	 3.533309999982384e+000	 4.866680000008067e+000	 1.018906702772013e+001
0	 3.533309999982383e+000	 4.933340000004134e+000	 1.018063221140415e+001
0	 3.533309999982382e+000	 4.999999999999999e+000	 1.017249159416693e+001
0	 3.533309999982382e+000	 5.066659999995867e+000	 1.016463279486695e+001
0	 3.533309999982383e+000	 5.133319999991936e+000	 1.015704343236266e+001
0	 3.533309999982382e+000	 5.199979999988400e+000	 1.014971112551252e+001
0	 3.533309999982382e+000	 5.266639999985468e+000	 1.014262349317495e+001
0	 3.533309999982382e+000	 5.333299999983335e+000	 1.013576815420843e+001
0	 3.599979999983599e+000	 4.666700000016667e+000	 1.022254881634149e+001
0	 3.599979999983598e+000	 4.733360000014534e+000	 1.021325204082815e+001
0	 3.599979999983599e+000	 4.800020000011600e+000	 1.020427908636001e+001
0	 3.599979999983599e+000	 4.866680000008065e+000	 1.019561548559206e+001
0	 3.599979999983599e+000	 4.933340000004134e+000	 1.018724677117933e+001
0	 3.599979999983598e+000	 4.999999999999999e+000	 1.017915847577678e+001
0	 3.599979999983598e+000	 5.066659999995866e+000	 1.017133613203943e+001
0	 3.599979999983598e+000	 5.133319999991934e+000	 1.016376527262224e+001
0	 3.599979999983598e+000	 5.199979999988400e+000	 1.015643143018022e+001
0	 3.599979999983598e+000	 5.266639999985467e+000	 1.014932013736831e+001
0	 3.599979999983598e+000	 5.333299999983333e+000	 1.014241692684149e+001
0	 3.666649999985415e+000	 4.666700000016665e+000	 1.022816286959465e+001
0	 3.666649999985415e+000	 4.733360000014534e+000	 1.021898008884997e+001
0	 3.666649999985415e+000	 4.800020000011601e+000	 1.021011148590122e+001
0	 3.666649999985415e+000	 4.866680000008065e+000	 1.020154150470687e+001
0	 3.666649999985414e+000	 4.933340000004133e+000	 1.019325458922536e+001
0	 3.666649999985415e+000	 5.000000000000001e+000	 1.018523518341515e+001
0	 3.666649999985415e+000	 5.066659999995867e+000	 1.017746773123471e+001
0	 3.666649999985415e+000	 5.133319999991935e+000	 1.016993667664246e+001
0	 3.666649999985415e+000	 5.199979999988400e+000	 1.016262646359686e+001
0	 3.666649999985415e+000	 5.266639999985467e+000	 1.015552153605632e+001
0	 3.666649999985415e+000	 5.333299999983333e+000	 1.014860633797929e+001
0	 3.733319999987732e+000	 4.666700000016666e+000	 1.023316886412118e+001
0	 3.733319999987732e+000	 4.733360000014534e+000	 1.022411609088760e+001
0	 3.733319999987731e+000	 4.800020000011599e+000	 1.021536516458695e+001
0	 3.733319999987733e+000	 4.866680000008066e+000	 1.020690043798808e+001
0	 3.733319999987731e+000	 4.933340000004131e+000	 1.019870626385985e+001
0	 3.733319999987731e+000	 4.999999999999999e+000	 1.019076699497110e+001
0	 3.733319999987732e+000	 5.066659999995868e+000	 1.018306698409068e+001
0	 3.733319999987732e+000	 5.133319999991934e+000	 1.017559058398740e+001
0	 3.733319999987732e+000	 5.199979999988401e+000	 1.016832214743015e+001
0	 3.733319999987732e+000	 5.266639999985467e+000	 1.016124602718772e+001
0	 3.733319999987731e+000	 5.333299999983333e+000	 1.015434657602894e+001
0	 3.799989999990448e+000	 4.666700000016666e+000	 1.023763302172674e+001
0	 3.799989999990448e+000	 4.733360000014532e+000	 1.022872321160862e+001
0	 3.799989999990448e+000	 4.800020000011600e+000	 1.022009966412407e+001
0	 3.799989999990448e+000	 4.866680000008067e+000	 1.021174763835928e+001
0	 3.799989999990448e+000	 4.933340000004133e+000	 1.020365239340043e+001
0	 3.799989999990447e+000	 4.999999999999999e+000	 1.019579918833369e+001
0	 3.799989999990449e+000	 5.066659999995868e+000	 1.018817328224523e+001
0	 3.799989999990448e+000	 5.133319999991934e+000	 1.018075993422122e+001
0	 3.799989999990448e+000	 5.199979999988400e+000	 1.017354440334782e+001
0	 3.799989999990449e+000	 5.266639999985467e+000	 1.016651194871119e+001
0	 3.799989999990449e+000	 5.333299999983334e+000	 1.015964782939749e+001
0	 3.866659999993464e+000	 4.666700000016665e+000	 1.024162156421705e+001
0	 3.866659999993465e+000	 4.733360000014533e+000	 1.023286461568063e+001
0	 3.866659999993465e+000	 4.800020000011601e+000	 1.022437452621948e+001
0	 3.866659999993464e+000	 4.866680000008066e+000	 1.021613845874403e+001
0	 3.866659999993465e+000	 4.933340000004133e+000	 1.020814357616471e+001
0	 3.866659999993465e+000	 5.000000000000000e+000	 1.020037704139199e+001
0	 3.866659999993465e+000	 5.066659999995866e+000	 1.019282601733628e+001
0	 3.866659999993465e+000	 5.133319999991935e+000	 1.018547766690800e+001
0	 3.866659999993465e+000	 5.199979999988400e+000	 1.017831915301759e+001
0	 3.866659999993465e+000	 5.266639999985468e+000	 1.017133763857547e+001
0	 3.866659999993464e+000	 5.333299999983333e+000	 1.016452028649205e+001
0	 3.933329999996682e+000	 4.666700000016666e+000	 1.024520071339780e+001
0	 3.933329999996682e+000	 4.733360000014532e+000	 1.023660346777125e+001
0	 3.933329999996682e+000	 4.800020000011600e+000	 1.022824929258008e+001
0	 3.933329999996682e+000	 4.866680000008067e+000	 1.022012825206589e+001
0	 3.933329999996682e+000	 4.933340000004133e+000	 1.021223041047036e+001
0	 3.933329999996682e+000	 5.000000000000001e+000	 1.020454583203509e+001
0	 3.933329999996681e+000	 5.066659999995867e+000	 1.019706458100172e+001
0	 3.933329999996682e+000	 5.133319999991934e+000	 1.018977672161188e+001
0	 3.933329999996682e+000	 5.199979999988400e+000	 1.018267231810718e+001
0	 3.933329999996682e+000	 5.266639999985467e+000	 1.017574143472925e+001
0	 3.933329999996682e+000	 5.333299999983334e+000	 1.016897413571970e+001
0	 4.000000000000000e+000	 4.666700000016666e+000	 1.024843669107469e+001
0	 4.000000000000000e+000	 4.733360000014533e+000	 1.024000293254808e+001
0	 4.000000000000000e+000	 4.800020000011600e+000	 1.023178350491273e+001
0	 4.000000000000001e+000	 4.866680000008067e+000	 1.022377237124844e+001
0	 3.999999999999999e+000	 4.933340000004133e+000	 1.021596349463495e+001
0	 3.999999999999999e+000	 5.000000000000000e+000	 1.020835083815204e+001
0	 4.000000000000000e+000	 5.066659999995866e+000	 1.020092836487946e+001
0	 4.000000000000000e+000	 5.133319999991934e+000	 1.019369003789697e+001
0	 4.000000000000001e+000	 5.199979999988400e+000	 1.018662982028432e+001
0	 4.000000000000000e+000	 5.266639999985467e+000	 1.017974167512126e+001
0	 4.000000000000000e+000	 5.333299999983334e+000	 1.017301956548754e+001
0	 3.333299999983334e+000	 5.333299999983335e+000	 1.011296378326700e+001
0	 3.333299999983334e+000	 5.399969999982148e+000	 1.010684475236272e+001
0	 3.333299999983335e+000	 5.466639999981867e+000	 1.010097784615722e+001
0	 3.333299999983334e+000	 5.533309999982384e+000	 1.009536922492939e+001
0	 3.333299999983334e+000	 5.599979999983601e+000	 1.009002504895809e+001
0	 3.333299999983334e+000	 5.666649999985414e+000	 1.008495147852226e+001
0	 3.333299999983334e+000	 5.733319999987733e+000	 1.008015467390079e+001
0	 3.333299999983333e+000	 5.799989999990449e+000	 1.007564079537256e+001
0	 3.333299999983333e+000	 5.866659999993468e+000	 1.007141600321649e+001
0	 3.333299999983334e+000	 5.933329999996684e+000	 1.006748645771152e+001
0	 3.333299999983333e+000	 5.999999999999998e+000	 1.006385831913652e+001
0	 3.399969999982149e+000	 5.333299999983332e+000	 1.012105177082827e+001
0	 3.399969999982150e+000	 5.399969999982149e+000	 1.011471192366027e+001
0	 3.399969999982150e+000	 5.466639999981866e+000	 1.010863985427940e+001
0	 3.399969999982150e+000	 5.533309999982383e+000	 1.010284143599392e+001
0	 3.399969999982150e+000	 5.599979999983599e+000	 1.009732254211211e+001
0	 3.399969999982150e+000	 5.666649999985416e+000	 1.009208904594222e+001
0	 3.399969999982150e+000	 5.733319999987733e+000	 1.008714682079257e+001
0	 3.399969999982150e+000	 5.799989999990447e+000	 1.008250173997142e+001
0	 3.399969999982150e+000	 5.866659999993466e+000	 1.007815967678706e+001
0	 3.399969999982150e+000	 5.933329999996683e+000	 1.007412650454778e+001
0	 3.399969999982150e+000	 6.000000000000001e+000	 1.007040809656186e+001
0	 3.466639999981866e+000	 5.333299999983334e+000	 1.012864983167305e+001
0	 3.466639999981866e+000	 5.399969999982150e+000	 1.012214919905347e+001
0	 3.466639999981867e+000	 5.466639999981867e+000	 1.011592306491088e+001
0	 3.466639999981866e+000	 5.533309999982382e+000	 1.010997688256117e+001
0	 3.466639999981865e+000	 5.599979999983598e+000	 1.010431610532020e+001
0	 3.466639999981866e+000	 5.666649999985417e+000	 1.009894618650387e+001
0	 3.466639999981866e+000	 5.733319999987733e+000	 1.009387257942806e+001
0	 3.466639999981867e+000	 5.799989999990451e+000	 1.008910073740866e+001
0	 3.466639999981866e+000	 5.866659999993467e+000	 1.008463611376156e+001
0	 3.466639999981866e+000	 5.933329999996685e+000	 1.008048416180266e+001
0	 3.466639999981866e+000	 6.000000000000001e+000	 1.007665033484788e+001
0	 3.533309999982382e+000	 5.333299999983335e+000	 1.013576815420844e+001
0	 3.533309999982383e+000	 5.399969999982149e+000	 1.012915909932963e+001
0	 3.533309999982383e+000	 5.466639999981865e+000	 1.012282386341554e+001
0	 3.533309999982382e+000	 5.533309999982382e+000	 1.011676734676788e+001
0	 3.533309999982383e+000	 5.599979999983600e+000	 1.011099444968837e+001
0	 3.533309999982382e+000	 5.666649999985417e+000	 1.010551007247868e+001
0	 3.533309999982383e+000	 5.733319999987733e+000	 1.010031911544062e+001
0	 3.533309999982382e+000	 5.799989999990449e+000	 1.009542647887585e+001
0	 3.533309999982382e+000	 5.866659999993466e+000	 1.009083706308612e+001
0	 3.533309999982382e+000	 5.933329999996683e+000	 1.008655576837315e+001
0	 3.533309999982383e+000	 6.000000000000000e+000	 1.008258749503872e+001
0	 3.599979999983598e+000	 5.333299999983333e+000	 1.014241692684149e+001
0	 3.599979999983598e+000	 5.399969999982149e+000	 1.013574414527607e+001
0	 3.599979999983600e+000	 5.466639999981866e+000	 1.012933863515726e+001
0	 3.599979999983599e+000	 5.533309999982384e+000	 1.012320461075084e+001
0	 3.599979999983598e+000	 5.599979999983600e+000	 1.011734628632257e+001
0	 3.599979999983598e+000	 5.666649999985416e+000	 1.011176787613826e+001
0	 3.599979999983598e+000	 5.733319999987733e+000	 1.010647359446367e+001
0	 3.599979999983598e+000	 5.799989999990449e+000	 1.010146765556461e+001
0	 3.599979999983599e+000	 5.866659999993468e+000	 1.009675427370687e+001
0	 3.599979999983598e+000	 5.933329999996683e+000	 1.009233766315625e+001
0	 3.599979999983599e+000	 6.000000000000001e+000	 1.008822203817853e+001
0	 3.666649999985415e+000	 5.333299999983333e+000	 1.014860633797929e+001
0	 3.666649999985415e+000	 5.399969999982151e+000	 1.014190685768010e+001
0	 3.666649999985415e+000	 5.466639999981864e+000	 1.013546376549992e+001
0	 3.666649999985415e+000	 5.533309999982385e+000	 1.012928045664681e+001
0	 3.666649999985415e+000	 5.599979999983601e+000	 1.012336032632882e+001
0	 3.666649999985415e+000	 5.666649999985416e+000	 1.011770676975407e+001
0	 3.666649999985416e+000	 5.733319999987733e+000	 1.011232318213063e+001
0	 3.666649999985415e+000	 5.799989999990449e+000	 1.010721295866654e+001
0	 3.666649999985415e+000	 5.866659999993467e+000	 1.010237949456994e+001
0	 3.666649999985415e+000	 5.933329999996684e+000	 1.009782618504888e+001
0	 3.666649999985415e+000	 5.999999999999998e+000	 1.009355642531148e+001
0	 3.733319999987731e+000	 5.333299999983333e+000	 1.015434657602893e+001
0	 3.733319999987733e+000	 5.399969999982150e+000	 1.014764975732906e+001
0	 3.733319999987732e+000	 5.466639999981866e+000	 1.014119563980740e+001
0	 3.733319999987732e+000	 5.533309999982384e+000	 1.013498666659256e+001
0	 3.733319999987731e+000	 5.599979999983598e+000	 1.012902528081312e+001
0	 3.733319999987731e+000	 5.666649999985416e+000	 1.012331392559769e+001
0	 3.733319999987731e+000	 5.733319999987733e+000	 1.011785504407487e+001
0	 3.733319999987732e+000	 5.799989999990450e+000	 1.011265107937324e+001
0	 3.733319999987731e+000	 5.866659999993466e+000	 1.010770447462144e+001
0	 3.733319999987732e+000	 5.933329999996684e+000	 1.010301767294807e+001
0	 3.733319999987732e+000	 6.000000000000000e+000	 1.009859311748172e+001
0	 3.799989999990449e+000	 5.333299999983334e+000	 1.015964782939749e+001
0	 3.799989999990449e+000	 5.399969999982148e+000	 1.015297536501024e+001
0	 3.799989999990448e+000	 5.466639999981866e+000	 1.014653064344359e+001
0	 3.799989999990448e+000	 5.533309999982381e+000	 1.014031502272488e+001
0	 3.799989999990449e+000	 5.599979999983600e+000	 1.013432986088144e+001
0	 3.799989999990449e+000	 5.666649999985418e+000	 1.012857651594063e+001
0	 3.799989999990448e+000	 5.733319999987732e+000	 1.012305634592981e+001
0	 3.799989999990448e+000	 5.799989999990449e+000	 1.011777070887632e+001
0	 3.799989999990448e+000	 5.866659999993468e+000	 1.011272096280751e+001
0	 3.799989999990449e+000	 5.933329999996684e+000	 1.010790846575074e+001
0	 3.799989999990448e+000	 6.000000000000000e+000	 1.010333457573338e+001
0	 3.866659999993464e+000	 5.333299999983333e+000	 1.016452028649205e+001
0	 3.866659999993465e+000	 5.399969999982149e+000	 1.015788620151098e+001
0	 3.866659999993465e+000	 5.466639999981866e+000	 1.015146516177237e+001
0	 3.866659999993465e+000	 5.533309999982382e+000	 1.014525730718053e+001
0	 3.866659999993464e+000	 5.599979999983599e+000	 1.013926277763979e+001
0	 3.866659999993463e+000	 5.666649999985416e+000	 1.013348171305445e+001
0	 3.866659999993465e+000	 5.733319999987733e+000	 1.012791425332887e+001
0	 3.866659999993464e+000	 5.799989999990449e+000	 1.012256053836737e+001
0	 3.866659999993466e+000	 5.866659999993469e+000	 1.011742070807427e+001
0	 3.866659999993465e+000	 5.933329999996684e+000	 1.011249490235393e+001
0	 3.866659999993465e+000	 6.000000000000000e+000	 1.010778326111065e+001
0	 3.933329999996682e+000	 5.333299999983334e+000	 1.016897413571970e+001
0	 3.933329999996681e+000	 5.399969999982149e+000	 1.016238478761861e+001
0	 3.933329999996681e+000	 5.466639999981867e+000	 1.015599558015764e+001
0	 3.933329999996681e+000	 5.533309999982383e+000	 1.014980530209630e+001
0	 3.933329999996681e+000	 5.599979999983599e+000	 1.014381274219415e+001
0	 3.933329999996681e+000	 5.666649999985417e+000	 1.013801668921068e+001
0	 3.933329999996682e+000	 5.733319999987733e+000	 1.013241593190547e+001
0	 3.933329999996682e+000	 5.799989999990448e+000	 1.012700925903801e+001
0	 3.933329999996682e+000	 5.866659999993466e+000	 1.012179545936786e+001
0	 3.933329999996682e+000	 5.933329999996683e+000	 1.011677332165457e+001
0	 3.933329999996682e+000	 5.999999999999998e+000	 1.011194163465766e+001
0	 4.000000000000000e+000	 5.333299999983334e+000	 1.017301956548754e+001
0	 4.000000000000000e+000	 5.399969999982148e+000	 1.016647364412044e+001
0	 4.000000000000002e+000	 5.466639999981868e+000	 1.016011828396328e+001
0	 4.000000000000000e+000	 5.533309999982382e+000	 1.015395078960898e+001
0	 4.000000000000001e+000	 5.599979999983600e+000	 1.014796846565052e+001
0	 4.000000000000001e+000	 5.666649999985416e+000	 1.014216861668086e+001
0	 4.000000000000001e+000	 5.733319999987733e+000	 1.013654854729299e+001
0	 4.000000000000000e+000	 5.799989999990448e+000	 1.013110556207983e+001
0	 4.000000000000001e+000	 5.866659999993468e+000	 1.012583696563441e+001
0	 4.000000000000000e+000	 5.933329999996682e+000	 1.012074006254966e+001
0	 4.000000000000000e+000	 6.000000000000001e+000	 1.011581215741857e+001
0	 3.333299999983333e+000	 5.999999999999998e+000	 1.006385831913652e+001
0	 3.333299999983333e+000	 6.066670000003317e+000	 1.006044220260407e+001
0	 3.333299999983333e+000	 6.133340000006531e+000	 1.005714430128911e+001
0	 3.333299999983334e+000	 6.200010000009550e+000	 1.005396414256414e+001
0	 3.333299999983334e+000	 6.266680000012269e+000	 1.005090125380166e+001
0	 3.333299999983334e+000	 6.333350000014584e+000	 1.004795516237421e+001
0	 3.333299999983334e+000	 6.400020000016401e+000	 1.004512539565427e+001
0	 3.333299999983334e+000	 6.466690000017618e+000	 1.004241148101438e+001
0	 3.333299999983334e+000	 6.533360000018134e+000	 1.003981294582705e+001
0	 3.333299999983334e+000	 6.600030000017851e+000	 1.003732931746478e+001
0	 3.333299999983333e+000	 6.666700000016665e+000	 1.003496012330010e+001
0	 3.399969999982150e+000	 6.000000000000001e+000	 1.007040809656186e+001
0	 3.399969999982150e+000	 6.066670000003313e+000	 1.006689841870841e+001
0	 3.399969999982150e+000	 6.133340000006532e+000	 1.006348799315497e+001
0	 3.399969999982150e+000	 6.200010000009552e+000	 1.006017752764258e+001
0	 3.399969999982150e+000	 6.266680000012269e+000	 1.005696772991224e+001
0	 3.399969999982151e+000	 6.333350000014587e+000	 1.005385930770497e+001
0	 3.399969999982150e+000	 6.400020000016400e+000	 1.005085296876179e+001
0	 3.399969999982150e+000	 6.466690000017618e+000	 1.004794942082370e+001
0	 3.399969999982150e+000	 6.533360000018132e+000	 1.004514937163176e+001
0	 3.399969999982150e+000	 6.600030000017850e+000	 1.004245352892698e+001
0	 3.399969999982150e+000	 6.666700000016666e+000	 1.003986260045035e+001
0	 3.466639999981866e+000	 6.000000000000001e+000	 1.007665033484788e+001
0	 3.466639999981866e+000	 6.066670000003317e+000	 1.007302116202814e+001
0	 3.466639999981866e+000	 6.133340000006534e+000	 1.006948067409333e+001
0	 3.466639999981867e+000	 6.200010000009552e+000	 1.006603057678773e+001
0	 3.466639999981866e+000	 6.266680000012266e+000	 1.006267257585566e+001
0	 3.466639999981866e+000	 6.333350000014584e+000	 1.005940837704136e+001
0	 3.466639999981866e+000	 6.400020000016401e+000	 1.005623968608917e+001
0	 3.466639999981866e+000	 6.466690000017618e+000	 1.005316820874337e+001
0	 3.466639999981866e+000	 6.533360000018134e+000	 1.005019565074824e+001
0	 3.466639999981866e+000	 6.600030000017850e+000	 1.004732371784810e+001
0	 3.466639999981867e+000	 6.666700000016669e+000	 1.004455411578724e+001
0	 3.533309999982383e+000	 6.000000000000000e+000	 1.008258749503872e+001
0	 3.533309999982383e+000	 6.066670000003317e+000	 1.007881911340274e+001
0	 3.533309999982382e+000	 6.133340000006533e+000	 1.007513590783894e+001
0	 3.533309999982382e+000	 6.200010000009550e+000	 1.007154039972963e+001
0	 3.533309999982382e+000	 6.266680000012268e+000	 1.006803511045717e+001
0	 3.533309999982381e+000	 6.333350000014585e+000	 1.006462256140388e+001
0	 3.533309999982383e+000	 6.400020000016402e+000	 1.006130527395210e+001
0	 3.533309999982382e+000	 6.466690000017618e+000	 1.005808576948417e+001
0	 3.533309999982383e+000	 6.533360000018136e+000	 1.005496656938243e+001
0	 3.533309999982383e+000	 6.600030000017850e+000	 1.005195019502922e+001
0	 3.533309999982382e+000	 6.666700000016667e+000	 1.004903916780689e+001
0	 3.599979999983599e+000	 6.000000000000001e+000	 1.008822203817853e+001
0	 3.599979999983598e+000	 6.066670000003318e+000	 1.008430095367170e+001
0	 3.599979999983598e+000	 6.133340000006532e+000	 1.008046725812658e+001
0	 3.599979999983598e+000	 6.200010000009550e+000	 1.007672410619832e+001
0	 3.599979999983598e+000	 6.266680000012266e+000	 1.007307465254209e+001
0	 3.599979999983599e+000	 6.333350000014584e+000	 1.006952205181302e+001
0	 3.599979999983598e+000	 6.400020000016400e+000	 1.006606945866626e+001
0	 3.599979999983599e+000	 6.466690000017616e+000	 1.006272002775696e+001
0	 3.599979999983598e+000	 6.533360000018133e+000	 1.005947691374028e+001
0	 3.599979999983599e+000	 6.600030000017851e+000	 1.005634327127137e+001
0	 3.599979999983599e+000	 6.666700000016668e+000	 1.005332225500539e+001
0	 3.666649999985415e+000	 5.999999999999998e+000	 1.009355642531148e+001
0	 3.666649999985415e+000	 6.066670000003318e+000	 1.008947536367448e+001
0	 3.666649999985415e+000	 6.133340000006533e+000	 1.008548828869101e+001
0	 3.666649999985415e+000	 6.200010000009550e+000	 1.008159880592385e+001
0	 3.666649999985415e+000	 6.266680000012267e+000	 1.007781052093569e+001
0	 3.666649999985415e+000	 6.333350000014584e+000	 1.007412703928926e+001
0	 3.666649999985415e+000	 6.400020000016402e+000	 1.007055196654731e+001
0	 3.666649999985416e+000	 6.466690000017619e+000	 1.006708890827255e+001
0	 3.666649999985416e+000	 6.533360000018135e+000	 1.006374147002773e+001
0	 3.666649999985416e+000	 6.600030000017851e+000	 1.006051325737560e+001
0	 3.666649999985415e+000	 6.666700000016666e+000	 1.005740787587887e+001
0	 3.733319999987732e+000	 6.000000000000000e+000	 1.009859311748172e+001
0	 3.733319999987732e+000	 6.066670000003316e+000	 1.009435102425056e+001
0	 3.733319999987732e+000	 6.133340000006533e+000	 1.009021256326703e+001
0	 3.733319999987732e+000	 6.200010000009552e+000	 1.008618160863624e+001
0	 3.733319999987732e+000	 6.266680000012268e+000	 1.008226203446324e+001
0	 3.733319999987732e+000	 6.333350000014586e+000	 1.007845771485309e+001
0	 3.733319999987731e+000	 6.400020000016399e+000	 1.007477252391093e+001
0	 3.733319999987732e+000	 6.466690000017619e+000	 1.007121033574178e+001
0	 3.733319999987732e+000	 6.533360000018135e+000	 1.006777502445076e+001
0	 3.733319999987733e+000	 6.600030000017851e+000	 1.006447046414295e+001
0	 3.733319999987732e+000	 6.666700000016666e+000	 1.006130052892343e+001
0	 3.799989999990448e+000	 6.000000000000000e+000	 1.010333457573338e+001
0	 3.799989999990448e+000	 6.066670000003319e+000	 1.009893661623943e+001
0	 3.799989999990448e+000	 6.133340000006533e+000	 1.009465364558942e+001
0	 3.799989999990448e+000	 6.200010000009551e+000	 1.009048962406555e+001
0	 3.799989999990448e+000	 6.266680000012268e+000	 1.008644851195003e+001
0	 3.799989999990449e+000	 6.333350000014584e+000	 1.008253426952505e+001
0	 3.799989999990448e+000	 6.400020000016402e+000	 1.007875085707278e+001
0	 3.799989999990448e+000	 6.466690000017616e+000	 1.007510223487548e+001
0	 3.799989999990449e+000	 6.533360000018135e+000	 1.007159236321530e+001
0	 3.799989999990449e+000	 6.600030000017850e+000	 1.006822520237447e+001
0	 3.799989999990448e+000	 6.666700000016664e+000	 1.006500471263520e+001
0	 3.866659999993465e+000	 6.000000000000000e+000	 1.010778326111065e+001
0	 3.866659999993464e+000	 6.066670000003315e+000	 1.010324082048056e+001
0	 3.866659999993465e+000	 6.133340000006534e+000	 1.009882509939293e+001
0	 3.866659999993464e+000	 6.200010000009551e+000	 1.009453996194183e+001
0	 3.866659999993465e+000	 6.266680000012268e+000	 1.009038927222135e+001
0	 3.866659999993465e+000	 6.333350000014584e+000	 1.008637689432557e+001
0	 3.866659999993465e+000	 6.400020000016401e+000	 1.008250669234857e+001
0	 3.866659999993465e+000	 6.466690000017617e+000	 1.007878253038445e+001
0	 3.866659999993464e+000	 6.533360000018134e+000	 1.007520827252731e+001
0	 3.866659999993465e+000	 6.600030000017849e+000	 1.007178778287122e+001
0	 3.866659999993464e+000	 6.666700000016666e+000	 1.006852492551028e+001
0	 3.933329999996682e+000	 5.999999999999998e+000	 1.011194163465766e+001
0	 3.933329999996682e+000	 6.066670000003318e+000	 1.010727231781344e+001
0	 3.933329999996682e+000	 6.133340000006533e+000	 1.010274048841235e+001
0	 3.933329999996682e+000	 6.200010000009552e+000	 1.009834973199512e+001
0	 3.933329999996681e+000	 6.266680000012267e+000	 1.009410363410247e+001
0	 3.933329999996682e+000	 6.333350000014585e+000	 1.009000578027518e+001
0	 3.933329999996682e+000	 6.400020000016402e+000	 1.008605975605396e+001
0	 3.933329999996681e+000	 6.466690000017615e+000	 1.008226914697956e+001
0	 3.933329999996682e+000	 6.533360000018136e+000	 1.007863753859274e+001
0	 3.933329999996682e+000	 6.600030000017851e+000	 1.007516851643424e+001
0	 3.933329999996681e+000	 6.666700000016666e+000	 1.007186566604480e+001
0	 4.000000000000000e+000	 6.000000000000001e+000	 1.011581215741857e+001
0	 4.000000000000000e+000	 6.066670000003314e+000	 1.011103978907755e+001
0	 4.000000000000001e+000	 6.133340000006534e+000	 1.010641337638245e+001
0	 4.000000000000000e+000	 6.200010000009551e+000	 1.010193604395545e+001
0	 4.000000000000001e+000	 6.266680000012268e+000	 1.009761091641870e+001
0	 4.000000000000000e+000	 6.333350000014584e+000	 1.009344111839437e+001
0	 3.999999999999999e+000	 6.400020000016398e+000	 1.008942977450462e+001
0	 4.000000000000000e+000	 6.466690000017617e+000	 1.008558000937164e+001
0	 4.000000000000000e+000	 6.533360000018133e+000	 1.008189494761756e+001
0	 4.000000000000000e+000	 6.600030000017848e+000	 1.007837771386458e+001
0	 4.000000000000000e+000	 6.666700000016665e+000	 1.007503143273486e+001
0	 3.333299999983333e+000	 6.666700000016665e+000	 1.003496012330010e+001
0	 3.333299999983334e+000	 6.733360000014534e+000	 1.003270101450329e+001
0	 3.333299999983334e+000	 6.800020000011601e+000	 1.003055076224651e+001
0	 3.333299999983333e+000	 6.866680000008064e+000	 1.002851461431367e+001
0	 3.333299999983334e+000	 6.933340000004133e+000	 1.002659781848866e+001
0	 3.333299999983333e+000	 6.999999999999999e+000	 1.002480562255542e+001
0	 3.333299999983335e+000	 7.066659999995867e+000	 1.002314327429783e+001
0	 3.333299999983334e+000	 7.133319999991936e+000	 1.002161602149978e+001
0	 3.333299999983334e+000	 7.199979999988401e+000	 1.002022911194517e+001
0	 3.333299999983334e+000	 7.266639999985467e+000	 1.001898779341789e+001
0	 3.333299999983335e+000	 7.333299999983336e+000	 1.001789731370182e+001
0	 3.399969999982150e+000	 6.666700000016666e+000	 1.003986260045035e+001
0	 3.399969999982150e+000	 6.733360000014531e+000	 1.003738763807298e+001
0	 3.399969999982150e+000	 6.800020000011599e+000	 1.003504074381728e+001
0	 3.399969999982150e+000	 6.866680000008066e+000	 1.003282534280016e+001
0	 3.399969999982150e+000	 6.933340000004133e+000	 1.003074486013853e+001
0	 3.399969999982150e+000	 6.999999999999999e+000	 1.002880272094930e+001
0	 3.399969999982150e+000	 7.066659999995865e+000	 1.002700235034937e+001
0	 3.399969999982150e+000	 7.133319999991934e+000	 1.002534717345566e+001
0	 3.399969999982150e+000	 7.199979999988400e+000	 1.002384061538504e+001
0	 3.399969999982150e+000	 7.266639999985467e+000	 1.002248610125441e+001
0	 3.399969999982149e+000	 7.333299999983332e+000	 1.002128705618066e+001
0	 3.466639999981867e+000	 6.666700000016669e+000	 1.004455411578724e+001
0	 3.466639999981867e+000	 6.733360000014534e+000	 1.004190587809555e+001
0	 3.466639999981866e+000	 6.800020000011599e+000	 1.003939732835172e+001
0	 3.466639999981866e+000	 6.866680000008068e+000	 1.003703033035280e+001
0	 3.466639999981866e+000	 6.933340000004134e+000	 1.003480674789584e+001
0	 3.466639999981866e+000	 6.999999999999998e+000	 1.003272844477784e+001
0	 3.466639999981866e+000	 7.066659999995866e+000	 1.003079728479588e+001
0	 3.466639999981866e+000	 7.133319999991935e+000	 1.002901513174694e+001
0	 3.466639999981866e+000	 7.199979999988400e+000	 1.002738384942807e+001
0	 3.466639999981866e+000	 7.266639999985467e+000	 1.002590530163628e+001
0	 3.466639999981866e+000	 7.333299999983332e+000	 1.002458135216859e+001
0	 3.533309999982382e+000	 6.666700000016667e+000	 1.004903916780690e+001
0	 3.533309999982382e+000	 6.733360000014534e+000	 1.004625429215080e+001
0	 3.533309999982382e+000	 6.800020000011599e+000	 1.004361421024653e+001
0	 3.533309999982383e+000	 6.866680000008067e+000	 1.004111948591835e+001
0	 3.533309999982382e+000	 6.933340000004132e+000	 1.003877068299056e+001
0	 3.533309999982383e+000	 7.000000000000001e+000	 1.003656836528745e+001
0	 3.533309999982382e+000	 7.066659999995866e+000	 1.003451309663327e+001
0	 3.533309999982383e+000	 7.133319999991936e+000	 1.003260544085234e+001
0	 3.533309999982382e+000	 7.199979999988400e+000	 1.003084596176891e+001
0	 3.533309999982383e+000	 7.266639999985467e+000	 1.002923522320725e+001
0	 3.533309999982382e+000	 7.333299999983335e+000	 1.002777378899160e+001
0	 3.599979999983599e+000	 6.666700000016668e+000	 1.005332225500539e+001
0	 3.599979999983599e+000	 6.733360000014532e+000	 1.005043143781855e+001
0	 3.599979999983599e+000	 6.800020000011598e+000	 1.004768508389839e+001
0	 3.599979999983598e+000	 6.866680000008066e+000	 1.004508271844354e+001
0	 3.599979999983599e+000	 6.933340000004134e+000	 1.004262386665268e+001
0	 3.599979999983598e+000	 6.999999999999999e+000	 1.004030805372445e+001
0	 3.599979999983598e+000	 7.066659999995865e+000	 1.003813480485753e+001
0	 3.599979999983599e+000	 7.133319999991934e+000	 1.003610364525055e+001
0	 3.599979999983598e+000	 7.199979999988399e+000	 1.003421410010216e+001
0	 3.599979999983599e+000	 7.266639999985468e+000	 1.003246569461100e+001
0	 3.599979999983598e+000	 7.333299999983334e+000	 1.003085795397571e+001
0	 3.666649999985415e+000	 6.666700000016666e+000	 1.005740787587887e+001
0	 3.666649999985415e+000	 6.733360000014532e+000	 1.005443587267863e+001
0	 3.666649999985415e+000	 6.800020000011601e+000	 1.005160364370400e+001
0	 3.666649999985415e+000	 6.866680000008066e+000	 1.004890993687512e+001
0	 3.666649999985414e+000	 6.933340000004129e+000	 1.004635350011216e+001
0	 3.666649999985415e+000	 6.999999999999999e+000	 1.004393308133527e+001
0	 3.666649999985415e+000	 7.066659999995867e+000	 1.004164742846459e+001
0	 3.666649999985415e+000	 7.133319999991936e+000	 1.003949528942027e+001
0	 3.666649999985416e+000	 7.199979999988400e+000	 1.003747541212245e+001
0	 3.666649999985415e+000	 7.266639999985468e+000	 1.003558654449128e+001
0	 3.666649999985415e+000	 7.333299999983333e+000	 1.003382743444689e+001
0	 3.733319999987732e+000	 6.666700000016666e+000	 1.006130052892343e+001
0	 3.733319999987731e+000	 6.733360000014532e+000	 1.005826615431084e+001
0	 3.733319999987731e+000	 6.800020000011599e+000	 1.005536358406005e+001
0	 3.733319999987732e+000	 6.866680000008067e+000	 1.005259105015984e+001
0	 3.733319999987732e+000	 6.933340000004134e+000	 1.004994678459898e+001
0	 3.733319999987732e+000	 6.999999999999999e+000	 1.004742901936625e+001
0	 3.733319999987732e+000	 7.066659999995867e+000	 1.004503598645039e+001
0	 3.733319999987732e+000	 7.133319999991934e+000	 1.004276591784020e+001
0	 3.733319999987732e+000	 7.199979999988401e+000	 1.004061704552442e+001
0	 3.733319999987732e+000	 7.266639999985467e+000	 1.003858760149182e+001
0	 3.733319999987732e+000	 7.333299999983333e+000	 1.003667581773115e+001
0	 3.799989999990448e+000	 6.666700000016664e+000	 1.006500471263520e+001
0	 3.799989999990449e+000	 6.733360000014533e+000	 1.006192084029500e+001
0	 3.799989999990449e+000	 6.800020000011601e+000	 1.005895859936324e+001
0	 3.799989999990448e+000	 6.866680000008067e+000	 1.005611596724445e+001
0	 3.799989999990448e+000	 6.933340000004132e+000	 1.005339092134311e+001
0	 3.799989999990448e+000	 6.999999999999999e+000	 1.005078143906375e+001
0	 3.799989999990448e+000	 7.066659999995867e+000	 1.004828549781091e+001
0	 3.799989999990448e+000	 7.133319999991934e+000	 1.004590107498905e+001
0	 3.799989999990449e+000	 7.199979999988400e+000	 1.004362614800269e+001
0	 3.799989999990448e+000	 7.266639999985467e+000	 1.004145869425633e+001
0	 3.799989999990449e+000	 7.333299999983335e+000	 1.003939669115448e+001
0	 3.866659999993464e+000	 6.666700000016666e+000	 1.006852492551028e+001
0	 3.866659999993465e+000	 6.733360000014533e+000	 1.006539848821094e+001
0	 3.866659999993465e+000	 6.800020000011601e+000	 1.006238238401028e+001
0	 3.866659999993465e+000	 6.866680000008067e+000	 1.005947459707569e+001
0	 3.866659999993465e+000	 6.933340000004135e+000	 1.005667311157453e+001
0	 3.866659999993464e+000	 6.999999999999999e+000	 1.005397591167419e+001
0	 3.866659999993465e+000	 7.066659999995868e+000	 1.005138098154207e+001
0	 3.866659999993465e+000	 7.133319999991935e+000	 1.004888630534550e+001
0	 3.866659999993465e+000	 7.199979999988401e+000	 1.004648986725187e+001
0	 3.866659999993466e+000	 7.266639999985467e+000	 1.004418965142854e+001
0	 3.866659999993464e+000	 7.333299999983333e+000	 1.004198364204287e+001
0	 3.933329999996681e+000	 6.666700000016666e+000	 1.007186566604480e+001
0	 3.933329999996682e+000	 6.733360000014534e+000	 1.006869765563847e+001
0	 3.933329999996682e+000	 6.800020000011600e+000	 1.006562863239785e+001
0	 3.933329999996682e+000	 6.866680000008067e+000	 1.006265684860031e+001
0	 3.933329999996682e+000	 6.933340000004133e+000	 1.005978055652322e+001
0	 3.933329999996681e+000	 6.999999999999999e+000	 1.005699800844394e+001
0	 3.933329999996681e+000	 7.066659999995866e+000	 1.005430745663983e+001
0	 3.933329999996681e+000	 7.133319999991934e+000	 1.005170715338827e+001
0	 3.933329999996682e+000	 7.199979999988401e+000	 1.004919535096660e+001
0	 3.933329999996682e+000	 7.266639999985467e+000	 1.004677030165217e+001
0	 3.933329999996682e+000	 7.333299999983334e+000	 1.004443025772233e+001
0	 4.000000000000000e+000	 6.666700000016665e+000	 1.007503143273486e+001
0	 4.000000000000001e+000	 6.733360000014532e+000	 1.007181690015741e+001
0	 4.000000000000000e+000	 6.800020000011598e+000	 1.006869103892265e+001
0	 4.000000000000000e+000	 6.866680000008068e+000	 1.006565263076507e+001
0	 4.000000000000001e+000	 6.933340000004132e+000	 1.006270045741915e+001
0	 4.000000000000000e+000	 6.999999999999998e+000	 1.005983330061936e+001
0	 4.000000000000000e+000	 7.066659999995868e+000	 1.005704994210018e+001
0	 4.000000000000000e+000	 7.133319999991934e+000	 1.005434916359607e+001
0	 4.000000000000001e+000	 7.199979999988402e+000	 1.005172974684150e+001
0	 4.000000000000001e+000	 7.266639999985467e+000	 1.004919047357095e+001
0	 4.000000000000001e+000	 7.333299999983335e+000	 1.004673012551887e+001
0	 3.333299999983335e+000	 7.333299999983336e+000	 1.001789731370182e+001
0	 3.333299999983333e+000	 7.399969999982149e+000	 1.001689859669611e+001
0	 3.333299999983334e+000	 7.466639999981866e+000	 1.001592929451986e+001
0	 3.333299999983334e+000	 7.533309999982383e+000	 1.001498929125135e+001
0	 3.333299999983334e+000	 7.599979999983601e+000	 1.001407847096885e+001
0	 3.333299999983334e+000	 7.666649999985416e+000	 1.001319671775065e+001
0	 3.333299999983334e+000	 7.733319999987733e+000	 1.001234391567499e+001
0	 3.333299999983334e+000	 7.799989999990448e+000	 1.001151994882018e+001
0	 3.333299999983333e+000	 7.866659999993466e+000	 1.001072470126448e+001
0	 3.333299999983334e+000	 7.933329999996683e+000	 1.000995805708615e+001
0	 3.333299999983334e+000	 8.000000000000000e+000	 1.000921990036348e+001
0	 3.399969999982149e+000	 7.333299999983332e+000	 1.002128705618066e+001
0	 3.399969999982150e+000	 7.399969999982149e+000	 1.002017658320939e+001
0	 3.399969999982150e+000	 7.466639999981865e+000	 1.001908662972935e+001
0	 3.399969999982150e+000	 7.533309999982385e+000	 1.001801838324586e+001
0	 3.399969999982150e+000	 7.599979999983598e+000	 1.001697303126420e+001
0	 3.399969999982150e+000	 7.666649999985416e+000	 1.001595176128967e+001
0	 3.399969999982150e+000	 7.733319999987732e+000	 1.001495576082755e+001
0	 3.399969999982150e+000	 7.799989999990450e+000	 1.001398621738312e+001
0	 3.399969999982150e+000	 7.866659999993466e+000	 1.001304431846169e+001
0	 3.399969999982150e+000	 7.933329999996683e+000	 1.001213125156856e+001
0	 3.399969999982150e+000	 8.000000000000000e+000	 1.001124820420900e+001
0	 3.466639999981866e+000	 7.333299999983332e+000	 1.002458135216859e+001
0	 3.466639999981866e+000	 7.399969999982150e+000	 1.002334264757672e+001
0	 3.466639999981867e+000	 7.466639999981868e+000	 1.002212046714954e+001
0	 3.466639999981866e+000	 7.533309999982382e+000	 1.002091706302063e+001
0	 3.466639999981866e+000	 7.599979999983601e+000	 1.001973468732357e+001
0	 3.466639999981866e+000	 7.666649999985418e+000	 1.001857559219196e+001
0	 3.466639999981866e+000	 7.733319999987734e+000	 1.001744202975936e+001
0	 3.466639999981867e+000	 7.799989999990450e+000	 1.001633625215936e+001
0	 3.466639999981866e+000	 7.866659999993466e+000	 1.001526051152555e+001
0	 3.466639999981866e+000	 7.933329999996682e+000	 1.001421705999150e+001
0	 3.466639999981866e+000	 8.000000000000000e+000	 1.001320814969083e+001
0	 3.533309999982382e+000	 7.333299999983335e+000	 1.002777378899160e+001
0	 3.533309999982383e+000	 7.399969999982151e+000	 1.002639431873885e+001
0	 3.533309999982383e+000	 7.466639999981866e+000	 1.002503156417819e+001
0	 3.533309999982382e+000	 7.533309999982385e+000	 1.002368860327281e+001
0	 3.533309999982383e+000	 7.599979999983599e+000	 1.002236851398584e+001
0	 3.533309999982382e+000	 7.666649999985417e+000	 1.002107437428043e+001
0	 3.533309999982382e+000	 7.733319999987733e+000	 1.001980926211974e+001
0	 3.533309999982382e+000	 7.799989999990448e+000	 1.001857625546692e+001
0	 3.533309999982382e+000	 7.866659999993467e+000	 1.001737843228510e+001
0	 3.533309999982383e+000	 7.933329999996684e+000	 1.001621887053745e+001
0	 3.533309999982383e+000	 8.000000000000000e+000	 1.001510064818713e+001
0	 3.599979999983598e+000	 7.333299999983334e+000	 1.003085795397571e+001
0	 3.599979999983599e+000	 7.399969999982151e+000	 1.002932912563647e+001
0	 3.599979999983599e+000	 7.466639999981866e+000	 1.002782067821309e+001
0	 3.599979999983599e+000	 7.533309999982382e+000	 1.002633627669956e+001
0	 3.599979999983598e+000	 7.599979999983598e+000	 1.002487958608987e+001
0	 3.599979999983598e+000	 7.666649999985415e+000	 1.002345427137802e+001
0	 3.599979999983599e+000	 7.733319999987733e+000	 1.002206399755801e+001
0	 3.599979999983598e+000	 7.799989999990448e+000	 1.002071242962382e+001
0	 3.599979999983598e+000	 7.866659999993466e+000	 1.001940323256942e+001
0	 3.599979999983598e+000	 7.933329999996682e+000	 1.001814007138884e+001
0	 3.599979999983599e+000	 8.000000000000002e+000	 1.001692661107608e+001
0	 3.666649999985415e+000	 7.333299999983333e+000	 1.003382743444689e+001
0	 3.666649999985415e+000	 7.399969999982151e+000	 1.003214459721032e+001
0	 3.666649999985415e+000	 7.466639999981868e+000	 1.003048856665199e+001
0	 3.666649999985416e+000	 7.533309999982385e+000	 1.002886335599804e+001
0	 3.666649999985415e+000	 7.599979999983599e+000	 1.002727297847457e+001
0	 3.666649999985415e+000	 7.666649999985417e+000	 1.002572144730767e+001
0	 3.666649999985415e+000	 7.733319999987732e+000	 1.002421277572347e+001
0	 3.666649999985415e+000	 7.799989999990449e+000	 1.002275097694808e+001
0	 3.666649999985415e+000	 7.866659999993464e+000	 1.002134006420761e+001
0	 3.666649999985415e+000	 7.933329999996682e+000	 1.001998405072816e+001
0	 3.666649999985414e+000	 7.999999999999998e+000	 1.001868694973584e+001
0	 3.733319999987732e+000	 7.333299999983333e+000	 1.003667581773115e+001
0	 3.733319999987732e+000	 7.399969999982150e+000	 1.003483826240110e+001
0	 3.733319999987732e+000	 7.466639999981866e+000	 1.003303598689268e+001
0	 3.733319999987732e+000	 7.533309999982383e+000	 1.003127311386540e+001
0	 3.733319999987730e+000	 7.599979999983598e+000	 1.002955376597878e+001
0	 3.733319999987732e+000	 7.666649999985416e+000	 1.002788206589230e+001
0	 3.733319999987732e+000	 7.733319999987733e+000	 1.002626213626544e+001
0	 3.733319999987732e+000	 7.799989999990451e+000	 1.002469809975775e+001
0	 3.733319999987732e+000	 7.866659999993465e+000	 1.002319407902871e+001
0	 3.733319999987732e+000	 7.933329999996683e+000	 1.002175419673782e+001
0	 3.733319999987732e+000	 8.000000000000000e+000	 1.002038257554459e+001
0	 3.799989999990449e+000	 7.333299999983335e+000	 1.003939669115448e+001
0	 3.799989999990449e+000	 7.399969999982151e+000	 1.003740765014953e+001
0	 3.799989999990448e+000	 7.466639999981865e+000	 1.003546369633293e+001
0	 3.799989999990448e+000	 7.533309999982384e+000	 1.003356882299882e+001
0	 3.799989999990448e+000	 7.599979999983598e+000	 1.003172702344140e+001
0	 3.799989999990449e+000	 7.666649999985417e+000	 1.002994229095482e+001
0	 3.799989999990449e+000	 7.733319999987733e+000	 1.002821861883325e+001
0	 3.799989999990448e+000	 7.799989999990450e+000	 1.002656000037085e+001
0	 3.799989999990448e+000	 7.866659999993466e+000	 1.002497042886182e+001
0	 3.799989999990448e+000	 7.933329999996683e+000	 1.002345389760031e+001
0	 3.799989999990448e+000	 8.000000000000000e+000	 1.002201439988049e+001
0	 3.866659999993464e+000	 7.333299999983333e+000	 1.004198364204287e+001
0	 3.866659999993466e+000	 7.399969999982151e+000	 1.003985028939635e+001
0	 3.866659999993464e+000	 7.466639999981866e+000	 1.003777245237052e+001
0	 3.866659999993465e+000	 7.533309999982382e+000	 1.003575375609548e+001
0	 3.866659999993465e+000	 7.599979999983599e+000	 1.003379782570133e+001
0	 3.866659999993464e+000	 7.666649999985417e+000	 1.003190828631819e+001
0	 3.866659999993465e+000	 7.733319999987733e+000	 1.003008876307619e+001
0	 3.866659999993463e+000	 7.799989999990447e+000	 1.002834288110542e+001
0	 3.866659999993465e+000	 7.866659999993468e+000	 1.002667426553602e+001
0	 3.866659999993465e+000	 7.933329999996684e+000	 1.002508654149806e+001
0	 3.866659999993465e+000	 8.000000000000000e+000	 1.002358333412171e+001
0	 3.933329999996682e+000	 7.333299999983334e+000	 1.004443025772233e+001
0	 3.933329999996682e+000	 7.399969999982151e+000	 1.004216370908227e+001
0	 3.933329999996681e+000	 7.466639999981865e+000	 1.003996301240321e+001
0	 3.933329999996681e+000	 7.533309999982382e+000	 1.003783118585249e+001
0	 3.933329999996681e+000	 7.599979999983600e+000	 1.003577124759742e+001
0	 3.933329999996682e+000	 7.666649999985415e+000	 1.003378621580535e+001
0	 3.933329999996681e+000	 7.733319999987733e+000	 1.003187910864360e+001
0	 3.933329999996682e+000	 7.799989999990451e+000	 1.003005294427950e+001
0	 3.933329999996682e+000	 7.866659999993467e+000	 1.002831074088037e+001
0	 3.933329999996682e+000	 7.933329999996685e+000	 1.002665551661357e+001
0	 3.933329999996681e+000	 7.999999999999999e+000	 1.002509028964641e+001
0	 4.000000000000001e+000	 7.333299999983335e+000	 1.004673012551887e+001
0	 4.000000000000001e+000	 7.399969999982151e+000	 1.004434543814801e+001
0	 4.000000000000000e+000	 7.466639999981866e+000	 1.004203613382880e+001
0	 4.000000000000000e+000	 7.533309999982384e+000	 1.003980438496705e+001
0	 4.000000000000000e+000	 7.599979999983599e+000	 1.003765236396858e+001
0	 4.000000000000001e+000	 7.666649999985416e+000	 1.003558224323921e+001
0	 4.000000000000000e+000	 7.733319999987733e+000	 1.003359619518477e+001
0	 4.000000000000000e+000	 7.799989999990448e+000	 1.003169639221108e+001
0	 4.000000000000000e+000	 7.866659999993465e+000	 1.002988500672397e+001
0	 4.000000000000000e+000	 7.933329999996684e+000	 1.002816421112927e+001
0	 4.000000000000000e+000	 7.999999999999999e+000	 1.002653617783277e+001
0	 3.333299999983334e+000	 8.000000000000000e+000	 1.000921990036348e+001
0	 3.333299999983334e+000	 8.066670000003317e+000	 1.000851289981602e+001
0	 3.333299999983334e+000	 8.133340000006532e+000	 1.000784114542907e+001
0	 3.333299999983334e+000	 8.200010000009550e+000	 1.000720665317952e+001
0	 3.333299999983334e+000	 8.266680000012267e+000	 1.000661143904431e+001
0	 3.333299999983334e+000	 8.333350000014585e+000	 1.000605751900030e+001
0	 3.333299999983334e+000	 8.400020000016399e+000	 1.000554690902444e+001
0	 3.333299999983334e+000	 8.466690000017618e+000	 1.000508162509362e+001
0	 3.333299999983333e+000	 8.533360000018133e+000	 1.000466368318478e+001
0	 3.333299999983335e+000	 8.600030000017851e+000	 1.000429509927480e+001
0	 3.333299999983334e+000	 8.666700000016668e+000	 1.000397788934060e+001
0	 3.399969999982150e+000	 8.000000000000000e+000	 1.001124820420900e+001
0	 3.399969999982150e+000	 8.066670000003317e+000	 1.001040344664101e+001
0	 3.399969999982149e+000	 8.133340000006530e+000	 1.000960500948308e+001
0	 3.399969999982150e+000	 8.200010000009549e+000	 1.000885372078134e+001
0	 3.399969999982150e+000	 8.266680000012268e+000	 1.000815040858183e+001
0	 3.399969999982151e+000	 8.333350000014583e+000	 1.000749590093067e+001
0	 3.399969999982150e+000	 8.400020000016401e+000	 1.000689102587393e+001
0	 3.399969999982150e+000	 8.466690000017614e+000	 1.000633661145771e+001
0	 3.399969999982150e+000	 8.533360000018133e+000	 1.000583348572808e+001
0	 3.399969999982150e+000	 8.600030000017851e+000	 1.000538247673113e+001
0	 3.399969999982149e+000	 8.666700000016666e+000	 1.000498441251297e+001
0	 3.466639999981866e+000	 8.000000000000000e+000	 1.001320814969083e+001
0	 3.466639999981865e+000	 8.066670000003317e+000	 1.001224426198568e+001
0	 3.466639999981866e+000	 8.133340000006532e+000	 1.001133426127431e+001
0	 3.466639999981867e+000	 8.200010000009552e+000	 1.001047797424449e+001
0	 3.466639999981866e+000	 8.266680000012265e+000	 1.000967522758391e+001
0	 3.466639999981866e+000	 8.333350000014583e+000	 1.000892584798033e+001
0	 3.466639999981866e+000	 8.400020000016401e+000	 1.000822966212141e+001
0	 3.466639999981866e+000	 8.466690000017620e+000	 1.000758649669494e+001
0	 3.466639999981867e+000	 8.533360000018135e+000	 1.000699617838863e+001
0	 3.466639999981866e+000	 8.600030000017849e+000	 1.000645853389020e+001
0	 3.466639999981866e+000	 8.666700000016668e+000	 1.000597338988737e+001
0	 3.533309999982383e+000	 8.000000000000000e+000	 1.001510064818713e+001
0	 3.533309999982383e+000	 8.066670000003315e+000	 1.001403365719351e+001
0	 3.533309999982382e+000	 8.133340000006530e+000	 1.001302507880846e+001
0	 3.533309999982382e+000	 8.200010000009549e+000	 1.001207392493379e+001
0	 3.533309999982382e+000	 8.266680000012267e+000	 1.001117920747132e+001
0	 3.533309999982382e+000	 8.333350000014583e+000	 1.001033993832287e+001
0	 3.533309999982383e+000	 8.400020000016401e+000	 1.000955512939028e+001
0	 3.533309999982382e+000	 8.466690000017616e+000	 1.000882379257539e+001
0	 3.533309999982383e+000	 8.533360000018137e+000	 1.000814493978000e+001
0	 3.533309999982382e+000	 8.600030000017851e+000	 1.000751758290595e+001
0	 3.533309999982382e+000	 8.666700000016668e+000	 1.000694073385506e+001
0	 3.599979999983599e+000	 8.000000000000002e+000	 1.001692661107608e+001
0	 3.599979999983598e+000	 8.066670000003315e+000	 1.001576994360802e+001
0	 3.599979999983598e+000	 8.133340000006532e+000	 1.001467364009120e+001
0	 3.599979999983599e+000	 8.200010000009552e+000	 1.001363608421400e+001
0	 3.599979999983598e+000	 8.266680000012265e+000	 1.001265565966478e+001
0	 3.599979999983599e+000	 8.333350000014587e+000	 1.001173075013196e+001
0	 3.599979999983598e+000	 8.400020000016399e+000	 1.001085973930392e+001
0	 3.599979999983598e+000	 8.466690000017612e+000	 1.001004101086902e+001
0	 3.599979999983598e+000	 8.533360000018135e+000	 1.000927294851570e+001
0	 3.599979999983599e+000	 8.600030000017851e+000	 1.000855393593233e+001
0	 3.599979999983599e+000	 8.666700000016666e+000	 1.000788235680729e+001
0	 3.666649999985414e+000	 7.999999999999998e+000	 1.001868694973584e+001
0	 3.666649999985415e+000	 8.066670000003315e+000	 1.001745143257269e+001
0	 3.666649999985415e+000	 8.133340000006536e+000	 1.001627612312824e+001
0	 3.666649999985416e+000	 8.200010000009552e+000	 1.001515896344991e+001
0	 3.666649999985415e+000	 8.266680000012270e+000	 1.001409789558510e+001
0	 3.666649999985415e+000	 8.333350000014583e+000	 1.001309086158120e+001
0	 3.666649999985416e+000	 8.400020000016403e+000	 1.001213580348567e+001
0	 3.666649999985416e+000	 8.466690000017618e+000	 1.001123066334590e+001
0	 3.666649999985415e+000	 8.533360000018135e+000	 1.001037338320930e+001
0	 3.666649999985416e+000	 8.600030000017851e+000	 1.000956190512327e+001
0	 3.666649999985415e+000	 8.666700000016665e+000	 1.000879417113526e+001
0	 3.733319999987732e+000	 8.000000000000000e+000	 1.002038257554459e+001
0	 3.733319999987732e+000	 8.066670000003317e+000	 1.001907643543101e+001
0	 3.733319999987732e+000	 8.133340000006532e+000	 1.001782870592527e+001
0	 3.733319999987732e+000	 8.200010000009552e+000	 1.001663707400631e+001
0	 3.733319999987732e+000	 8.266680000012267e+000	 1.001549922665300e+001
0	 3.733319999987732e+000	 8.333350000014585e+000	 1.001441285084426e+001
0	 3.733319999987732e+000	 8.400020000016401e+000	 1.001337563355896e+001
0	 3.733319999987732e+000	 8.466690000017616e+000	 1.001238526177601e+001
0	 3.733319999987732e+000	 8.533360000018131e+000	 1.001143942247431e+001
0	 3.733319999987732e+000	 8.600030000017851e+000	 1.001053580263277e+001
0	 3.733319999987732e+000	 8.666700000016668e+000	 1.000967208923028e+001
0	 3.799989999990448e+000	 8.000000000000000e+000	 1.002201439988049e+001
0	 3.799989999990449e+000	 8.066670000003317e+000	 1.002064326352644e+001
0	 3.799989999990449e+000	 8.133340000006534e+000	 1.001932756648799e+001
0	 3.799989999990448e+000	 8.200010000009552e+000	 1.001806492724801e+001
0	 3.799989999990448e+000	 8.266680000012267e+000	 1.001685296428931e+001
0	 3.799989999990449e+000	 8.333350000014585e+000	 1.001568929609475e+001
0	 3.799989999990448e+000	 8.400020000016401e+000	 1.001457154114716e+001
0	 3.799989999990448e+000	 8.466690000017616e+000	 1.001349731792940e+001
0	 3.799989999990449e+000	 8.533360000018135e+000	 1.001246424492431e+001
0	 3.799989999990448e+000	 8.600030000017849e+000	 1.001146994061474e+001
0	 3.799989999990448e+000	 8.666700000016668e+000	 1.001051202348354e+001
0	 3.866659999993465e+000	 8.000000000000000e+000	 1.002358333412171e+001
0	 3.866659999993464e+000	 8.066670000003315e+000	 1.002215022820251e+001
0	 3.866659999993464e+000	 8.133340000006532e+000	 1.002076888282211e+001
0	 3.866659999993464e+000	 8.200010000009550e+000	 1.001943703453977e+001
0	 3.866659999993465e+000	 8.266680000012268e+000	 1.001815241991474e+001
0	 3.866659999993465e+000	 8.333350000014585e+000	 1.001691277550627e+001
0	 3.866659999993466e+000	 8.400020000016401e+000	 1.001571583787363e+001
0	 3.866659999993464e+000	 8.466690000017618e+000	 1.001455934357606e+001
0	 3.866659999993465e+000	 8.533360000018133e+000	 1.001344102917282e+001
0	 3.866659999993464e+000	 8.600030000017849e+000	 1.001235863122314e+001
0	 3.866659999993465e+000	 8.666700000016666e+000	 1.001130988628630e+001
0	 3.933329999996681e+000	 7.999999999999999e+000	 1.002509028964641e+001
0	 3.933329999996682e+000	 8.066670000003317e+000	 1.002359564080267e+001
0	 3.933329999996681e+000	 8.133340000006532e+000	 1.002214883293329e+001
0	 3.933329999996682e+000	 8.200010000009550e+000	 1.002074790724640e+001
0	 3.933329999996682e+000	 8.266680000012268e+000	 1.001939090495009e+001
0	 3.933329999996682e+000	 8.333350000014585e+000	 1.001807586725252e+001
0	 3.933329999996681e+000	 8.400020000016399e+000	 1.001680083536179e+001
0	 3.933329999996682e+000	 8.466690000017616e+000	 1.001556385048605e+001
0	 3.933329999996681e+000	 8.533360000018133e+000	 1.001436295383338e+001
0	 3.933329999996681e+000	 8.600030000017847e+000	 1.001319618661192e+001
0	 3.933329999996682e+000	 8.666700000016666e+000	 1.001206159002983e+001
0	 4.000000000000000e+000	 7.999999999999999e+000	 1.002653617783277e+001
0	 4.000000000000001e+000	 8.066670000003319e+000	 1.002497781267045e+001
0	 4.000000000000001e+000	 8.133340000006536e+000	 1.002346359482726e+001
0	 4.000000000000002e+000	 8.200010000009552e+000	 1.002199205673266e+001
0	 4.000000000000000e+000	 8.266680000012267e+000	 1.002056173081613e+001
0	 4.000000000000000e+000	 8.333350000014585e+000	 1.001917114950709e+001
0	 4.000000000000000e+000	 8.400020000016399e+000	 1.001781884523502e+001
0	 4.000000000000000e+000	 8.466690000017618e+000	 1.001650335042934e+001
0	 4.000000000000001e+000	 8.533360000018135e+000	 1.001522319751954e+001
0	 4.000000000000000e+000	 8.600030000017847e+000	 1.001397691893506e+001
0	 4.000000000000000e+000	 8.666700000016666e+000	 1.001276304710536e+001
0	 3.333299999983334e+000	 8.666700000016668e+000	 1.000397788934060e+001
0	 3.333299999983334e+000	 8.733360002791903e+000	 1.000369041628892e+001
0	 3.333299999983334e+000	 8.800020022230553e+000	 1.000340882528692e+001
0	 3.333299999983334e+000	 8.866680074997039e+000	 1.000313193656533e+001
0	 3.333299999983334e+000	 8.933340177755779e+000	 1.000285857033728e+001
0	 3.333299999983333e+000	 9.000000347171181e+000	 1.000258754679820e+001
0	 3.333299999983334e+000	 9.066660599907667e+000	 1.000231768612589e+001
0	 3.333299999983335e+000	 9.133320952629656e+000	 1.000204780848051e+001
0	 3.333299999983333e+000	 9.199981422001558e+000	 1.000177673400454e+001
0	 3.333299999983334e+000	 9.266642024687796e+000	 1.000150328282281e+001
0	 3.333299999983334e+000	 9.333302777352785e+000	 1.000122627504249e+001
0	 3.399969999982149e+000	 8.666700000016666e+000	 1.000498441251297e+001
0	 3.399969999982150e+000	 8.733360002791905e+000	 1.000461594842598e+001
0	 3.399969999982150e+000	 8.800020022230555e+000	 1.000425273299042e+001
0	 3.399969999982150e+000	 8.866680074997044e+000	 1.000389425106695e+001
0	 3.399969999982150e+000	 8.933340177755776e+000	 1.000353998748837e+001
0	 3.399969999982150e+000	 9.000000347171181e+000	 1.000318942705954e+001
0	 3.399969999982150e+000	 9.066660599907669e+000	 1.000284205455742e+001
0	 3.399969999982150e+000	 9.133320952629656e+000	 1.000249735473105e+001
0	 3.399969999982150e+000	 9.199981422001562e+000	 1.000215481230153e+001
0	 3.399969999982150e+000	 9.266642024687798e+000	 1.000181391196207e+001
0	 3.399969999982149e+000	 9.333302777352783e+000	 1.000147413837790e+001
0	 3.466639999981866e+000	 8.666700000016668e+000	 1.000597338988737e+001
0	 3.466639999981866e+000	 8.733360002791901e+000	 1.000551789101334e+001
0	 3.466639999981866e+000	 8.800020022230555e+000	 1.000506916108848e+001
0	 3.466639999981866e+000	 8.866680074997040e+000	 1.000462720206905e+001
0	 3.466639999981866e+000	 8.933340177755781e+000	 1.000419201587108e+001
0	 3.466639999981866e+000	 9.000000347171181e+000	 1.000376360437032e+001
0	 3.466639999981866e+000	 9.066660599907669e+000	 1.000334196940229e+001
0	 3.466639999981866e+000	 9.133320952629655e+000	 1.000292711276225e+001
0	 3.466639999981866e+000	 9.199981422001557e+000	 1.000251903620521e+001
0	 3.466639999981867e+000	 9.266642024687799e+000	 1.000211774144587e+001
0	 3.466639999981866e+000	 9.333302777352783e+000	 1.000172323015868e+001
0	 3.533309999982382e+000	 8.666700000016668e+000	 1.000694073385506e+001
0	 3.533309999982382e+000	 8.733360002791901e+000	 1.000639383072644e+001
0	 3.533309999982382e+000	 8.800020022230557e+000	 1.000585705248712e+001
0	 3.533309999982382e+000	 8.866680074997042e+000	 1.000533077065392e+001
0	 3.533309999982382e+000	 8.933340177755778e+000	 1.000481535668947e+001
0	 3.533309999982383e+000	 9.000000347171184e+000	 1.000431118200218e+001
0	 3.533309999982382e+000	 9.066660599907669e+000	 1.000381861794632e+001
0	 3.533309999982383e+000	 9.133320952629658e+000	 1.000333803582192e+001
0	 3.533309999982383e+000	 9.199981422001558e+000	 1.000286980687487e+001
0	 3.533309999982382e+000	 9.266642024687796e+000	 1.000241430229680e+001
0	 3.533309999982382e+000	 9.333302777352783e+000	 1.000197189322518e+001
0	 3.599979999983599e+000	 8.666700000016666e+000	 1.000788235680729e+001
0	 3.599979999983598e+000	 8.733360002791899e+000	 1.000724135424075e+001
0	 3.599979999983599e+000	 8.800020022230555e+000	 1.000661535009242e+001
0	 3.599979999983599e+000	 8.866680074997042e+000	 1.000600493790390e+001
0	 3.599979999983599e+000	 8.933340177755779e+000	 1.000541071114763e+001
0	 3.599979999983599e+000	 9.000000347171184e+000	 1.000483326322680e+001
0	 3.599979999983599e+000	 9.066660599907666e+000	 1.000427318747531e+001
0	 3.599979999983599e+000	 9.133320952629655e+000	 1.000373107715786e+001
0	 3.599979999983598e+000	 9.199981422001558e+000	 1.000320752546985e+001
0	 3.599979999983598e+000	 9.266642024687796e+000	 1.000270312553749e+001
0	 3.599979999983598e+000	 9.333302777352783e+000	 1.000221847041765e+001
0	 3.666649999985415e+000	 8.666700000016665e+000	 1.000879417113526e+001
0	 3.666649999985415e+000	 8.733360002791903e+000	 1.000805804823177e+001
0	 3.666649999985415e+000	 8.800020022230557e+000	 1.000734299681040e+001
0	 3.666649999985415e+000	 8.866680074997044e+000	 1.000664968490130e+001
0	 3.666649999985415e+000	 8.933340177755778e+000	 1.000597878044970e+001
0	 3.666649999985416e+000	 9.000000347171184e+000	 1.000533095131585e+001
0	 3.666649999985416e+000	 9.066660599907667e+000	 1.000470686527509e+001
0	 3.666649999985416e+000	 9.133320952629656e+000	 1.000410719001782e+001
0	 3.666649999985415e+000	 9.199981422001560e+000	 1.000353259314946e+001
0	 3.666649999985415e+000	 9.266642024687796e+000	 1.000298374219050e+001
0	 3.666649999985415e+000	 9.333302777352781e+000	 1.000246130457644e+001
0	 3.733319999987732e+000	 8.666700000016668e+000	 1.000967208923028e+001
0	 3.733319999987732e+000	 8.733360002791905e+000	 1.000884149937494e+001
0	 3.733319999987732e+000	 8.800020022230555e+000	 1.000803893554713e+001
0	 3.733319999987731e+000	 8.866680074997040e+000	 1.000726499272843e+001
0	 3.733319999987732e+000	 8.933340177755778e+000	 1.000652026579970e+001
0	 3.733319999987732e+000	 9.000000347171183e+000	 1.000580534954098e+001
0	 3.733319999987732e+000	 9.066660599907669e+000	 1.000512083863148e+001
0	 3.733319999987732e+000	 9.133320952629656e+000	 1.000446732764963e+001
0	 3.733319999987732e+000	 9.199981422001560e+000	 1.000384541107300e+001
0	 3.733319999987733e+000	 9.266642024687796e+000	 1.000325568327841e+001
0	 3.733319999987732e+000	 9.333302777352783e+000	 1.000269873854178e+001
0	 3.799989999990448e+000	 8.666700000016668e+000	 1.001051202348354e+001
0	 3.799989999990448e+000	 8.733360002791905e+000	 1.000958929434577e+001
0	 3.799989999990448e+000	 8.800020022230555e+000	 1.000870210920865e+001
0	 3.799989999990448e+000	 8.866680074997042e+000	 1.000785084246762e+001
0	 3.799989999990448e+000	 8.933340177755779e+000	 1.000703586840178e+001
0	 3.799989999990449e+000	 9.000000347171179e+000	 1.000625756117387e+001
0	 3.799989999990449e+000	 9.066660599907667e+000	 1.000551629483028e+001
0	 3.799989999990449e+000	 9.133320952629658e+000	 1.000481244330106e+001
0	 3.799989999990447e+000	 9.199981422001557e+000	 1.000414638039980e+001
0	 3.799989999990448e+000	 9.266642024687798e+000	 1.000351847982383e+001
0	 3.799989999990448e+000	 9.333302777352783e+000	 1.000292911515404e+001
0	 3.866659999993465e+000	 8.666700000016666e+000	 1.001130988628630e+001
0	 3.866659999993465e+000	 8.733360002791903e+000	 1.001029901981971e+001
0	 3.866659999993464e+000	 8.800020022230553e+000	 1.000933146070101e+001
0	 3.866659999993465e+000	 8.866680074997040e+000	 1.000840721520117e+001
0	 3.866659999993465e+000	 8.933340177755778e+000	 1.000752628945999e+001
0	 3.866659999993465e+000	 9.000000347171183e+000	 1.000668868948619e+001
0	 3.866659999993465e+000	 9.066660599907669e+000	 1.000589442115733e+001
0	 3.866659999993465e+000	 9.133320952629658e+000	 1.000514349021991e+001
0	 3.866659999993465e+000	 9.199981422001558e+000	 1.000443590228917e+001
0	 3.866659999993464e+000	 9.266642024687796e+000	 1.000377166284935e+001
0	 3.866659999993464e+000	 9.333302777352783e+000	 1.000315077725347e+001
0	 3.933329999996682e+000	 8.666700000016666e+000	 1.001206159002984e+001
0	 3.933329999996681e+000	 8.733360002791899e+000	 1.001096826247221e+001
0	 3.933329999996682e+000	 8.800020022230557e+000	 1.000992593293025e+001
0	 3.933329999996682e+000	 8.866680074997040e+000	 1.000893409201139e+001
0	 3.933329999996682e+000	 8.933340177755776e+000	 1.000799223017843e+001
0	 3.933329999996681e+000	 9.000000347171183e+000	 1.000709983774960e+001
0	 3.933329999996681e+000	 9.066660599907669e+000	 1.000625640489845e+001
0	 3.933329999996682e+000	 9.133320952629655e+000	 1.000546142165396e+001
0	 3.933329999996681e+000	 9.199981422001555e+000	 1.000471437790043e+001
0	 3.933329999996682e+000	 9.266642024687799e+000	 1.000401476337756e+001
0	 3.933329999996682e+000	 9.333302777352781e+000	 1.000336206768038e+001
0	 4.000000000000000e+000	 8.666700000016666e+000	 1.001276304710536e+001
0	 4.000000000000000e+000	 8.733360002791901e+000	 1.001159460897880e+001
0	 4.000000000000000e+000	 8.800020022230555e+000	 1.001048446880246e+001
0	 4.000000000000000e+000	 8.866680074997040e+000	 1.000943145398061e+001
0	 4.000000000000000e+000	 8.933340177755778e+000	 1.000843439176121e+001
0	 4.000000000000001e+000	 9.000000347171181e+000	 1.000749210923576e+001
0	 4.000000000000000e+000	 9.066660599907667e+000	 1.000660343333945e+001
0	 4.000000000000001e+000	 9.133320952629656e+000	 1.000576719085102e+001
0	 4.000000000000001e+000	 9.199981422001560e+000	 1.000498220839291e+001
0	 4.000000000000001e+000	 9.266642024687796e+000	 1.000424731243106e+001
0	 4.000000000000000e+000	 9.333302777352783e+000	 1.000356132927509e+001
0	 3.333299999983334e+000	 9.333302777352785e+000	 1.000122627504249e+001
0	 3.333299999983334e+000	 9.399973674588177e+000	 1.000096608418166e+001
0	 3.333299999983334e+000	 9.466644621844619e+000	 1.000074288102610e+001
0	 3.333299999983334e+000	 9.533315502450002e+000	 1.000055505636175e+001
0	 3.333299999983333e+000	 9.599986199732197e+000	 1.000040100155287e+001
0	 3.333299999983334e+000	 9.666656597019093e+000	 1.000027910854172e+001
0	 3.333299999983334e+000	 9.733326577638577e+000	 1.000018776984835e+001
0	 3.333299999983334e+000	 9.799996024918524e+000	 1.000012537857035e+001
0	 3.333299999983334e+000	 9.866664822186822e+000	 1.000009032838267e+001
0	 3.333299999983333e+000	 9.933332852771354e+000	 1.000008101353737e+001
0	 3.333299999983334e+000	 1.000000000000000e+001	 1.000009582886358e+001
0	 3.399969999982149e+000	 9.333302777352783e+000	 1.000147413837789e+001
0	 3.399969999982150e+000	 9.399973674588175e+000	 1.000115901077882e+001
0	 3.399969999982151e+000	 9.466644621844623e+000	 1.000089050988913e+001
0	 3.399969999982150e+000	 9.533315502449995e+000	 1.000066566038998e+001
0	 3.399969999982150e+000	 9.599986199732198e+000	 1.000048148767211e+001
0	 3.399969999982150e+000	 9.666656597019093e+000	 1.000033501783546e+001
0	 3.399969999982149e+000	 9.733326577638572e+000	 1.000022327768913e+001
0	 3.399969999982150e+000	 9.799996024918524e+000	 1.000014329475104e+001
0	 3.399969999982150e+000	 9.866664822186822e+000	 1.000009209724772e+001
0	 3.399969999982150e+000	 9.933332852771354e+000	 1.000006671411415e+001
0	 3.399969999982150e+000	 1.000000000000000e+001	 1.000006417499374e+001
0	 3.466639999981866e+000	 9.333302777352783e+000	 1.000172323015868e+001
0	 3.466639999981866e+000	 9.399973674588175e+000	 1.000136042631705e+001
0	 3.466639999981866e+000	 9.466644621844619e+000	 1.000105162074060e+001
0	 3.466639999981866e+000	 9.533315502449998e+000	 1.000079268993733e+001
0	 3.466639999981866e+000	 9.599986199732197e+000	 1.000057951123578e+001
0	 3.466639999981866e+000	 9.666656597019095e+000	 1.000040796278485e+001
0	 3.466639999981866e+000	 9.733326577638575e+000	 1.000027392355354e+001
0	 3.466639999981866e+000	 9.799996024918523e+000	 1.000017327333070e+001
0	 3.466639999981866e+000	 9.866664822186820e+000	 1.000010189272486e+001
0	 3.466639999981866e+000	 9.933332852771354e+000	 1.000005566316418e+001
0	 3.466639999981865e+000	 1.000000000000000e+001	 1.000003046689614e+001
0	 3.533309999982382e+000	 9.333302777352783e+000	 1.000197189322518e+001
0	 3.533309999982383e+000	 9.399973674588178e+000	 1.000156748436719e+001
0	 3.533309999982383e+000	 9.466644621844623e+000	 1.000122249415046e+001
0	 3.533309999982381e+000	 9.533315502450002e+000	 1.000093186883707e+001
0	 3.533309999982383e+000	 9.599986199732197e+000	 1.000069055560368e+001
0	 3.533309999982382e+000	 9.666656597019092e+000	 1.000049350254138e+001
0	 3.533309999982382e+000	 9.733326577638573e+000	 1.000033565865544e+001
0	 3.533309999982382e+000	 9.799996024918524e+000	 1.000021197386513e+001
0	 3.533309999982382e+000	 9.866664822186825e+000	 1.000011739900361e+001
0	 3.533309999982383e+000	 9.933332852771352e+000	 1.000004688581776e+001
0	 3.533309999982383e+000	 1.000000000000000e+001	 9.999995386967909e+000
0	 3.599979999983598e+000	 9.333302777352783e+000	 1.000221847041765e+001
0	 3.599979999983598e+000	 9.399973674588177e+000	 1.000177733849999e+001
0	 3.599979999983599e+000	 9.466644621844619e+000	 1.000139941068871e+001
0	 3.599979999983599e+000	 9.533315502450003e+000	 1.000107892092258e+001
0	 3.599979999983598e+000	 9.599986199732195e+000	 1.000081010413558e+001
0	 3.599979999983598e+000	 9.666656597019093e+000	 1.000058719625642e+001
0	 3.599979999983598e+000	 9.733326577638575e+000	 1.000040443420863e+001
0	 3.599979999983599e+000	 9.799996024918526e+000	 1.000025605591020e+001
0	 3.599979999983600e+000	 9.866664822186822e+000	 1.000013630027357e+001
0	 3.599979999983598e+000	 9.933332852771352e+000	 1.000003940720523e+001
0	 3.599979999983598e+000	 1.000000000000000e+001	 9.999959617606001e+000
0	 3.666649999985415e+000	 9.333302777352781e+000	 1.000246130457643e+001
0	 3.666649999985415e+000	 9.399973674588177e+000	 1.000198714228625e+001
0	 3.666649999985416e+000	 9.466644621844621e+000	 1.000157865092525e+001
0	 3.666649999985416e+000	 9.533315502450002e+000	 1.000122957002720e+001
0	 3.666649999985415e+000	 9.599986199732197e+000	 1.000093364019122e+001
0	 3.666649999985414e+000	 9.666656597019092e+000	 1.000068460308146e+001
0	 3.666649999985415e+000	 9.733326577638577e+000	 1.000047620142703e+001
0	 3.666649999985415e+000	 9.799996024918523e+000	 1.000030217902179e+001
0	 3.666649999985415e+000	 9.866664822186824e+000	 1.000015628072411e+001
0	 3.666649999985415e+000	 9.933332852771354e+000	 1.000003225245696e+001
0	 3.666649999985415e+000	 9.999999999999998e+000	 9.999923841207677e+000
0	 3.733319999987732e+000	 9.333302777352783e+000	 1.000269873854178e+001
0	 3.733319999987732e+000	 9.399973674588175e+000	 1.000219404929674e+001
0	 3.733319999987732e+000	 9.466644621844621e+000	 1.000175649543007e+001
0	 3.733319999987732e+000	 9.533315502450002e+000	 1.000137953998424e+001
0	 3.733319999987731e+000	 9.599986199732195e+000	 1.000105664713041e+001
0	 3.733319999987732e+000	 9.666656597019093e+000	 1.000078128216795e+001
0	 3.733319999987732e+000	 9.733326577638577e+000	 1.000054691152452e+001
0	 3.733319999987732e+000	 9.799996024918524e+000	 1.000034700275569e+001
0	 3.733319999987731e+000	 9.866664822186820e+000	 1.000017502454488e+001
0	 3.733319999987732e+000	 9.933332852771356e+000	 1.000002444670334e+001
0	 3.733319999987732e+000	 1.000000000000000e+001	 9.999888740169999e+000
0	 3.799989999990448e+000	 9.333302777352783e+000	 1.000292911515404e+001
0	 3.799989999990449e+000	 9.399973674588177e+000	 1.000239521310228e+001
0	 3.799989999990447e+000	 9.466644621844621e+000	 1.000192922477310e+001
0	 3.799989999990449e+000	 9.533315502450000e+000	 1.000152455462703e+001
0	 3.799989999990448e+000	 9.599986199732197e+000	 1.000117460831285e+001
0	 3.799989999990449e+000	 9.666656597019095e+000	 1.000087279266734e+001
0	 3.799989999990448e+000	 9.733326577638575e+000	 1.000061251571495e+001
0	 3.799989999990448e+000	 9.799996024918524e+000	 1.000038718666771e+001
0	 3.799989999990447e+000	 9.866664822186824e+000	 1.000019021592535e+001
0	 3.799989999990449e+000	 9.933332852771352e+000	 1.000001501507469e+001
0	 3.799989999990448e+000	 1.000000000000000e+001	 9.999854996890134e+000
0	 3.866659999993464e+000	 9.333302777352783e+000	 1.000315077725347e+001
0	 3.866659999993465e+000	 9.399973674588177e+000	 1.000258778727368e+001
0	 3.866659999993464e+000	 9.466644621844621e+000	 1.000209311952430e+001
0	 3.866659999993465e+000	 9.533315502450002e+000	 1.000166033778887e+001
0	 3.866659999993466e+000	 9.599986199732198e+000	 1.000128300709839e+001
0	 3.866659999993465e+000	 9.666656597019095e+000	 1.000095469373108e+001
0	 3.866659999993465e+000	 9.733326577638577e+000	 1.000066896521217e+001
0	 3.866659999993465e+000	 9.799996024918524e+000	 1.000041939031384e+001
0	 3.866659999993466e+000	 9.866664822186824e+000	 1.000019953905500e+001
0	 3.866659999993464e+000	 9.933332852771352e+000	 1.000000298270129e+001
0	 3.866659999993465e+000	 1.000000000000000e+001	 9.999823293765143e+000
0	 3.933329999996682e+000	 9.333302777352781e+000	 1.000336206768038e+001
0	 3.933329999996682e+000	 9.399973674588177e+000	 1.000276892538168e+001
0	 3.933329999996682e+000	 9.466644621844619e+000	 1.000224446025362e+001
0	 3.933329999996682e+000	 9.533315502450000e+000	 1.000178261330312e+001
0	 3.933329999996681e+000	 9.599986199732197e+000	 1.000137732684674e+001
0	 3.933329999996682e+000	 9.666656597019093e+000	 1.000102254451058e+001
0	 3.933329999996681e+000	 9.733326577638575e+000	 1.000071221123006e+001
0	 3.933329999996681e+000	 9.799996024918524e+000	 1.000044027324977e+001
0	 3.933329999996682e+000	 9.866664822186824e+000	 1.000020067812339e+001
0	 3.933329999996682e+000	 9.933332852771352e+000	 9.999987374713664e+000
0	 3.933329999996682e+000	 1.000000000000000e+001	 9.999794313192268e+000
0	 4.000000000000000e+000	 9.333302777352783e+000	 1.000356132927509e+001
0	 4.000000000000001e+000	 9.399973674588178e+000	 1.000293578099708e+001
0	 4.000000000000001e+000	 9.466644621844623e+000	 1.000237952753102e+001
0	 4.000000000000000e+000	 9.533315502450000e+000	 1.000188710500309e+001
0	 4.000000000000000e+000	 9.599986199732195e+000	 1.000145305091768e+001
0	 4.000000000000000e+000	 9.666656597019095e+000	 1.000107190415736e+001
0	 4.000000000000001e+000	 9.733326577638577e+000	 1.000073820498250e+001
0	 3.999999999999999e+000	 9.799996024918523e+000	 1.000044649503142e+001
0	 4.000000000000000e+000	 9.866664822186824e+000	 1.000019131732003e+001
0	 4.000000000000000e+000	 9.933332852771352e+000	 9.999967216241936e+000
0	 4.000000000000000e+000	 1.000000000000000e+001	 9.999768737568516e+000
0	 4.000000000000000e+000	 0.000000000000000e+000	 1.031317000919897e+001
0	 4.000000000000001e+000	 6.666714722864757e-002	 1.036116139027713e+001
0	 4.000000000000001e+000	 1.333351778131790e-001	 1.040157078843323e+001
0	 4.000000000000000e+000	 2.000039750814772e-001	 1.043532836858744e+001
0	 4.000000000000001e+000	 2.666734223614255e-001	 1.046336429864816e+001
0	 3.999999999999999e+000	 3.333434029809068e-001	 1.048660874951496e+001
0	 4.000000000000000e+000	 4.000138002678045e-001	 1.050599189508146e+001
0	 4.000000000000000e+000	 4.666844975500011e-001	 1.052244391223836e+001
0	 4.000000000000000e+000	 5.333553781553803e-001	 1.053689498087655e+001
0	 4.000000000000001e+000	 6.000263254118247e-001	 1.055027528389026e+001
0	 4.000000000000000e+000	 6.666972226472175e-001	 1.056351500718036e+001
0	 4.066670000003317e+000	 0.000000000000000e+000	 1.023713255578220e+001
0	 4.066670000003317e+000	 6.666714722864756e-002	 1.028531310240520e+001
0	 4.066670000003317e+000	 1.333351778131789e-001	 1.032787219874090e+001
0	 4.066670000003317e+000	 2.000039750814773e-001	 1.036537297463761e+001
0	 4.066670000003317e+000	 2.666734223614256e-001	 1.039837855185298e+001
0	 4.066670000003317e+000	 3.333434029809069e-001	 1.042745204405870e+001
0	 4.066670000003318e+000	 4.000138002678044e-001	 1.045315655684506e+001
0	 4.066670000003316e+000	 4.666844975500010e-001	 1.047605518772520e+001
0	 4.066670000003317e+000	 5.333553781553803e-001	 1.049671102613926e+001
0	 4.066670000003318e+000	 6.000263254118246e-001	 1.051568715345823e+001
0	 4.066670000003317e+000	 6.666972226472177e-001	 1.053354664298762e+001
0	 4.133340000006534e+000	 0.000000000000000e+000	 1.019380765167622e+001
0	 4.133340000006533e+000	 6.666714722864754e-002	 1.023816187315327e+001
0	 4.133340000006533e+000	 1.333351778131789e-001	 1.027884757786855e+001
0	 4.133340000006534e+000	 2.000039750814772e-001	 1.031611494253373e+001
0	 4.133340000006534e+000	 2.666734223614255e-001	 1.035021412939108e+001
0	 4.133340000006532e+000	 3.333434029809069e-001	 1.038139528621904e+001
0	 4.133340000006534e+000	 4.000138002678043e-001	 1.040990854633759e+001
0	 4.133340000006535e+000	 4.666844975500012e-001	 1.043600402861307e+001
0	 4.133340000006533e+000	 5.333553781553800e-001	 1.045993183746281e+001
0	 4.133340000006534e+000	 6.000263254118247e-001	 1.048194206285919e+001
0	 4.133340000006534e+000	 6.666972226472177e-001	 1.050228478033347e+001
0	 4.200010000009550e+000	 0.000000000000000e+000	 1.017792140105048e+001
0	 4.200010000009549e+000	 6.666714722864756e-002	 1.021536291878020e+001
0	 4.200010000009550e+000	 1.333351778131789e-001	 1.025101262584937e+001
0	 4.200010000009550e+000	 2.000039750814773e-001	 1.028486183483366e+001
0	 4.200010000009550e+000	 2.666734223614256e-001	 1.031690184143983e+001
0	 4.200010000009550e+000	 3.333434029809069e-001	 1.034712392451153e+001
0	 4.200010000009550e+000	 4.000138002678044e-001	 1.037551934603470e+001
0	 4.200010000009550e+000	 4.666844975500010e-001	 1.040207935114247e+001
0	 4.200010000009550e+000	 5.333553781553800e-001	 1.042679516811971e+001
0	 4.200010000009550e+000	 6.000263254118248e-001	 1.044965800840698e+001
0	 4.200010000009550e+000	 6.666972226472178e-001	 1.047065906660426e+001
0	 4.266680000012267e+000	 0.000000000000000e+000	 1.018419990807446e+001
0	 4.266680000012266e+000	 6.666714722864754e-002	 1.021257145554488e+001
0	 4.266680000012267e+000	 1.333351778131790e-001	 1.024088304271663e+001
0	 4.266680000012267e+000	 2.000039750814772e-001	 1.026892121409532e+001
0	 4.266680000012268e+000	 2.666734223614256e-001	 1.029647249817666e+001
0	 4.266680000012268e+000	 3.333434029809068e-001	 1.032332340745179e+001
0	 4.266680000012267e+000	 4.000138002678044e-001	 1.034926043841214e+001
0	 4.266680000012267e+000	 4.666844975500011e-001	 1.037407007155398e+001
0	 4.266680000012267e+000	 5.333553781553803e-001	 1.039753877138250e+001
0	 4.266680000012268e+000	 6.000263254118248e-001	 1.041945298641546e+001
0	 4.266680000012267e+000	 6.666972226472177e-001	 1.043959914918642e+001
0	 4.333350000014584e+000	 0.000000000000000e+000	 1.020736927691764e+001
0	 4.333350000014582e+000	 6.666714722864756e-002	 1.022544269970624e+001
0	 4.333350000014582e+000	 1.333351778131790e-001	 1.024497452850360e+001
0	 4.333350000014583e+000	 2.000039750814773e-001	 1.026560064287667e+001
0	 4.333350000014585e+000	 2.666734223614256e-001	 1.028695690977908e+001
0	 4.333350000014582e+000	 3.333434029809069e-001	 1.030867918355549e+001
0	 4.333350000014584e+000	 4.000138002678044e-001	 1.033040330594567e+001
0	 4.333350000014584e+000	 4.666844975500012e-001	 1.035176510608820e+001
0	 4.333350000014583e+000	 5.333553781553800e-001	 1.037240040052383e+001
0	 4.333350000014583e+000	 6.000263254118247e-001	 1.039194499319856e+001
0	 4.333350000014583e+000	 6.666972226472177e-001	 1.041003467546640e+001
0	 4.400020000016400e+000	 0.000000000000000e+000	 1.024215561174954e+001
0	 4.400020000016400e+000	 6.666714722864754e-002	 1.024963186752322e+001
0	 4.400020000016400e+000	 1.333351778131789e-001	 1.025980278324363e+001
0	 4.400020000016400e+000	 2.000039750814773e-001	 1.027220768373575e+001
0	 4.400020000016401e+000	 2.666734223614256e-001	 1.028638588642460e+001
0	 4.400020000016400e+000	 3.333434029809069e-001	 1.030187670133836e+001
0	 4.400020000016402e+000	 4.000138002678044e-001	 1.031821943111114e+001
0	 4.400020000016398e+000	 4.666844975500011e-001	 1.033495337098579e+001
0	 4.400020000016401e+000	 5.333553781553803e-001	 1.035161780881633e+001
0	 4.400020000016400e+000	 6.000263254118248e-001	 1.036775202507024e+001
0	 4.400020000016399e+000	 6.666972226472175e-001	 1.038289529283064e+001
0	 4.466690000017617e+000	 0.000000000000000e+000	 1.028328501673966e+001
0	 4.466690000017615e+000	 6.666714722864756e-002	 1.028079417525481e+001
0	 4.466690000017616e+000	 1.333351778131790e-001	 1.028188350697007e+001
0	 4.466690000017617e+000	 2.000039750814773e-001	 1.028604989923060e+001
0	 4.466690000017615e+000	 2.666734223614255e-001	 1.029279023829083e+001
0	 4.466690000017616e+000	 3.333434029809069e-001	 1.030160140931615e+001
0	 4.466690000017616e+000	 4.000138002678044e-001	 1.031198029638441e+001
0	 4.466690000017619e+000	 4.666844975500012e-001	 1.032342378248746e+001
0	 4.466690000017617e+000	 5.333553781553801e-001	 1.033542874953270e+001
0	 4.466690000017616e+000	 6.000263254118246e-001	 1.034749207834449e+001
0	 4.466690000017616e+000	 6.666972226472177e-001	 1.035911064866568e+001
0	 4.533360000018132e+000	 0.000000000000000e+000	 1.032548359605755e+001
0	 4.533360000018133e+000	 6.666714722864756e-002	 1.031458483916002e+001
0	 4.533360000018132e+000	 1.333351778131789e-001	 1.030773239971635e+001
0	 4.533360000018133e+000	 2.000039750814773e-001	 1.030443485191934e+001
0	 4.533360000018131e+000	 2.666734223614256e-001	 1.030420077555540e+001
0	 4.533360000018131e+000	 3.333434029809069e-001	 1.030653875600471e+001
0	 4.533360000018132e+000	 4.000138002678044e-001	 1.031095738424141e+001
0	 4.533360000018133e+000	 4.666844975500011e-001	 1.031696525683397e+001
0	 4.533360000018132e+000	 5.333553781553803e-001	 1.032407097594569e+001
0	 4.533360000018133e+000	 6.000263254118248e-001	 1.033178314933535e+001
0	 4.533360000018133e+000	 6.666972226472177e-001	 1.033961039035806e+001
0	 4.600030000017849e+000	 0.000000000000000e+000	 1.036347745387277e+001
0	 4.600030000017847e+000	 6.666714722864754e-002	 1.034665907549789e+001
0	 4.600030000017849e+000	 1.333351778131790e-001	 1.033386516151593e+001
0	 4.600030000017848e+000	 2.000039750814773e-001	 1.032467010436014e+001
0	 4.600030000017848e+000	 2.666734223614254e-001	 1.031864830839600e+001
0	 4.600030000017848e+000	 3.333434029809069e-001	 1.031537418991991e+001
0	 4.600030000017848e+000	 4.000138002678044e-001	 1.031442217715814e+001
0	 4.600030000017849e+000	 4.666844975500011e-001	 1.031536671026613e+001
0	 4.600030000017849e+000	 5.333553781553801e-001	 1.031778224132808e+001
0	 4.600030000017849e+000	 6.000263254118249e-001	 1.032124323435689e+001
0	 4.600030000017848e+000	 6.666972226472175e-001	 1.032532416529434e+001
0	 4.666700000016666e+000	 0.000000000000000e+000	 1.039199269435489e+001
0	 4.666700000016666e+000	 6.666714722864757e-002	 1.037267210052753e+001
0	 4.666700000016667e+000	 1.333351778131790e-001	 1.035679749240230e+001
0	 4.666700000016665e+000	 2.000039750814772e-001	 1.034406321911120e+001
0	 4.666700000016666e+000	 2.666734223614256e-001	 1.033416364699038e+001
0	 4.666700000016668e+000	 3.333434029809070e-001	 1.032679315957767e+001
0	 4.666700000016665e+000	 4.000138002678044e-001	 1.032164615761061e+001
0	 4.666700000016666e+000	 4.666844975500011e-001	 1.031841705902478e+001
0	 4.666700000016667e+000	 5.333553781553803e-001	 1.031680029895271e+001
0	 4.666700000016666e+000	 6.000263254118248e-001	 1.031649032972323e+001
0	 4.666700000016667e+000	 6.666972226472179e-001	 1.031718162086117e+001
0	 4.000000000000000e+000	 6.666972226472175e-001	 1.056351500718036e+001
0	 4.000000000000002e+000	 7.333579753122048e-001	 1.057596448346440e+001
0	 4.000000000000001e+000	 8.000185779984418e-001	 1.058636972376477e+001
0	 4.000000000000000e+000	 8.666790473703454e-001	 1.059474837111125e+001
0	 4.000000000000000e+000	 9.333394000923323e-001	 1.060111807238014e+001
0	 3.999999999999999e+000	 9.999996528288188e-001	 1.060549647829422e+001
0	 4.000000000000001e+000	 1.066659822244222e+000	 1.060790124342303e+001
0	 3.999999999999999e+000	 1.133319925002959e+000	 1.060835002618284e+001
0	 4.000000000000001e+000	 1.199979977769445e+000	 1.060686048883682e+001
0	 4.000000000000000e+000	 1.266639997208098e+000	 1.060345029749511e+001
0	 3.999999999999999e+000	 1.333299999983334e+000	 1.059813712211480e+001
0	 4.066670000003317e+000	 6.666972226472177e-001	 1.053354664298762e+001
0	 4.066670000003317e+000	 7.333579753122046e-001	 1.054972750559237e+001
0	 4.066670000003316e+000	 8.000185779984417e-001	 1.056331153950971e+001
0	 4.066670000003318e+000	 8.666790473703452e-001	 1.057431962664849e+001
0	 4.066670000003317e+000	 9.333394000923323e-001	 1.058277265316485e+001
0	 4.066670000003317e+000	 9.999996528288190e-001	 1.058869150946231e+001
0	 4.066670000003318e+000	 1.066659822244223e+000	 1.059209709019191e+001
0	 4.066670000003317e+000	 1.133319925002959e+000	 1.059301029425231e+001
0	 4.066670000003318e+000	 1.199979977769445e+000	 1.059145202478988e+001
0	 4.066670000003317e+000	 1.266639997208098e+000	 1.058744318919877e+001
0	 4.066670000003317e+000	 1.333299999983333e+000	 1.058100469912097e+001
0	 4.133340000006534e+000	 6.666972226472177e-001	 1.050228478033347e+001
0	 4.133340000006534e+000	 7.333579753122047e-001	 1.052046372419976e+001
0	 4.133340000006532e+000	 8.000185779984416e-001	 1.053583822106979e+001
0	 4.133340000006534e+000	 8.666790473703452e-001	 1.054843291112442e+001
0	 4.133340000006534e+000	 9.333394000923320e-001	 1.055827243872403e+001
0	 4.133340000006535e+000	 9.999996528288191e-001	 1.056538145240858e+001
0	 4.133340000006534e+000	 1.066659822244222e+000	 1.056978460489778e+001
0	 4.133340000006535e+000	 1.133319925002959e+000	 1.057150655309119e+001
0	 4.133340000006534e+000	 1.199979977769445e+000	 1.057057195806825e+001
0	 4.133340000006534e+000	 1.266639997208098e+000	 1.056700548508842e+001
0	 4.133340000006534e+000	 1.333299999983334e+000	 1.056083180359116e+001
0	 4.200010000009550e+000	 6.666972226472178e-001	 1.047065906660427e+001
0	 4.200010000009551e+000	 7.333579753122049e-001	 1.048935065262829e+001
0	 4.200010000009550e+000	 8.000185779984417e-001	 1.050531625130226e+001
0	 4.200010000009550e+000	 8.666790473703452e-001	 1.051858477995486e+001
0	 4.200010000009550e+000	 9.333394000923323e-001	 1.052918515964618e+001
0	 4.200010000009551e+000	 9.999996528288190e-001	 1.053714631516794e+001
0	 4.200010000009550e+000	 1.066659822244222e+000	 1.054249717504350e+001
0	 4.200010000009550e+000	 1.133319925002958e+000	 1.054526667152797e+001
0	 4.200010000009550e+000	 1.199979977769445e+000	 1.054548374060834e+001
0	 4.200010000009550e+000	 1.266639997208098e+000	 1.054317732200349e+001
0	 4.200010000009550e+000	 1.333299999983334e+000	 1.053837635916423e+001
0	 4.266680000012267e+000	 6.666972226472177e-001	 1.043959914918642e+001
0	 4.266680000012267e+000	 7.333579753122047e-001	 1.045756580421972e+001
0	 4.266680000012265e+000	 8.000185779984413e-001	 1.047311211306442e+001
0	 4.266680000012267e+000	 8.666790473703453e-001	 1.048627178855561e+001
0	 4.266680000012268e+000	 9.333394000923322e-001	 1.049707854651985e+001
0	 4.266680000012267e+000	 9.999996528288189e-001	 1.050556610577532e+001
0	 4.266680000012267e+000	 1.066659822244222e+000	 1.051176818813188e+001
0	 4.266680000012266e+000	 1.133319925002959e+000	 1.051571851839114e+001
0	 4.266680000012267e+000	 1.199979977769445e+000	 1.051745082434655e+001
0	 4.266680000012267e+000	 1.266639997208098e+000	 1.051699883678344e+001
0	 4.266680000012265e+000	 1.333299999983333e+000	 1.051439628947907e+001
0	 4.333350000014583e+000	 6.666972226472177e-001	 1.041003467546640e+001
0	 4.333350000014583e+000	 7.333579753122048e-001	 1.042628669231586e+001
0	 4.333350000014583e+000	 8.000185779984417e-001	 1.044059228921360e+001
0	 4.333350000014583e+000	 8.666790473703452e-001	 1.045299049234254e+001
0	 4.333350000014584e+000	 9.333394000923323e-001	 1.046352032993358e+001
0	 4.333350000014582e+000	 9.999996528288190e-001	 1.047222083226565e+001
0	 4.333350000014583e+000	 1.066659822244222e+000	 1.047913103166580e+001
0	 4.333350000014583e+000	 1.133319925002959e+000	 1.048428996250920e+001
0	 4.333350000014582e+000	 1.199979977769445e+000	 1.048773666121929e+001
0	 4.333350000014583e+000	 1.266639997208098e+000	 1.048951016626775e+001
0	 4.333350000014583e+000	 1.333299999983334e+000	 1.048964951817458e+001
0	 4.400020000016399e+000	 6.666972226472175e-001	 1.038289529283064e+001
0	 4.400020000016400e+000	 7.333579753122048e-001	 1.039669083025852e+001
0	 4.400020000016400e+000	 8.000185779984417e-001	 1.040912326260711e+001
0	 4.400020000016399e+000	 8.666790473703453e-001	 1.042023744673150e+001
0	 4.400020000016400e+000	 9.333394000923323e-001	 1.043007824047594e+001
0	 4.400020000016398e+000	 9.999996528288188e-001	 1.043869050267389e+001
0	 4.400020000016401e+000	 1.066659822244222e+000	 1.044611909314810e+001
0	 4.400020000016401e+000	 1.133319925002958e+000	 1.045240887271064e+001
0	 4.400020000016400e+000	 1.199979977769445e+000	 1.045760470316296e+001
0	 4.400020000016400e+000	 1.266639997208098e+000	 1.046175144729587e+001
0	 4.400020000016401e+000	 1.333299999983334e+000	 1.046489396888963e+001
0	 4.466690000017616e+000	 6.666972226472177e-001	 1.035911064866568e+001
0	 4.466690000017617e+000	 7.333579753122048e-001	 1.036995573138956e+001
0	 4.466690000017617e+000	 8.000185779984417e-001	 1.038007151610236e+001
0	 4.466690000017616e+000	 8.666790473703452e-001	 1.038950920713840e+001
0	 4.466690000017616e+000	 9.333394000923321e-001	 1.039832000873551e+001
0	 4.466690000017618e+000	 9.999996528288189e-001	 1.040655512503498e+001
0	 4.466690000017617e+000	 1.066659822244222e+000	 1.041426576008167e+001
0	 4.466690000017614e+000	 1.133319925002958e+000	 1.042150311782400e+001
0	 4.466690000017616e+000	 1.199979977769445e+000	 1.042831840211399e+001
0	 4.466690000017615e+000	 1.266639997208098e+000	 1.043476281670725e+001
0	 4.466690000017615e+000	 1.333299999983334e+000	 1.044088756526311e+001
0	 4.533360000018133e+000	 6.666972226472177e-001	 1.033961039035806e+001
0	 4.533360000018132e+000	 7.333579753122049e-001	 1.034725890905087e+001
0	 4.533360000018132e+000	 8.000185779984417e-001	 1.035480353255672e+001
0	 4.533360000018130e+000	 8.666790473703453e-001	 1.036230232897916e+001
0	 4.533360000018133e+000	 9.333394000923322e-001	 1.036981336530089e+001
0	 4.533360000018132e+000	 9.999996528288191e-001	 1.037739470738391e+001
0	 4.533360000018132e+000	 1.066659822244222e+000	 1.038510441996939e+001
0	 4.533360000018133e+000	 1.133319925002959e+000	 1.039300056667778e+001
0	 4.533360000018133e+000	 1.199979977769445e+000	 1.040114121000880e+001
0	 4.533360000018133e+000	 1.266639997208098e+000	 1.040958441134140e+001
0	 4.533360000018131e+000	 1.333299999983334e+000	 1.041838823093390e+001
0	 4.600030000017848e+000	 6.666972226472175e-001	 1.032532416529434e+001
0	 4.600030000017849e+000	 7.333579753122049e-001	 1.032977787658436e+001
0	 4.600030000017849e+000	 8.000185779984419e-001	 1.033468579482764e+001
0	 4.600030000017848e+000	 8.666790473703451e-001	 1.034011336766969e+001
0	 4.600030000017849e+000	 9.333394000923323e-001	 1.034612604076072e+001
0	 4.600030000017849e+000	 9.999996528288190e-001	 1.035278925775568e+001
0	 4.600030000017849e+000	 1.066659822244222e+000	 1.036016846031416e+001
0	 4.600030000017849e+000	 1.133319925002959e+000	 1.036832908810053e+001
0	 4.600030000017849e+000	 1.199979977769445e+000	 1.037733657878382e+001
0	 4.600030000017847e+000	 1.266639997208098e+000	 1.038725636803776e+001
0	 4.600030000017849e+000	 1.333299999983334e+000	 1.039815388954089e+001
0	 4.666700000016667e+000	 6.666972226472179e-001	 1.031718162086117e+001
0	 4.666700000016665e+000	 7.333579753122046e-001	 1.031869014733197e+001
0	 4.666700000016666e+000	 8.000185779984418e-001	 1.032108478577255e+001
0	 4.666700000016665e+000	 8.666790473703452e-001	 1.032443887862597e+001
0	 4.666700000016666e+000	 9.333394000923320e-001	 1.032882576570364e+001
0	 4.666700000016666e+000	 9.999996528288190e-001	 1.033431878418528e+001
0	 4.666700000016665e+000	 1.066659822244222e+000	 1.034099126861890e+001
0	 4.666700000016667e+000	 1.133319925002959e+000	 1.034891655092078e+001
0	 4.666700000016666e+000	 1.199979977769445e+000	 1.035816796037547e+001
0	 4.666700000016667e+000	 1.266639997208098e+000	 1.036881882363583e+001
0	 4.666700000016666e+000	 1.333299999983334e+000	 1.038094246472297e+001
0	 3.999999999999999e+000	 1.333299999983334e+000	 1.059813712211480e+001
0	 4.000000000000000e+000	 1.399969999982150e+000	 1.059239040954581e+001
0	 4.000000000000002e+000	 1.466639999981866e+000	 1.058767279657300e+001
0	 4.000000000000000e+000	 1.533309999982383e+000	 1.058398892421011e+001
0	 4.000000000000001e+000	 1.599979999983599e+000	 1.058134343347087e+001
0	 4.000000000000001e+000	 1.666649999985416e+000	 1.057974096536901e+001
0	 4.000000000000001e+000	 1.733319999987733e+000	 1.057918616091828e+001
0	 4.000000000000001e+000	 1.799989999990450e+000	 1.057968366113240e+001
0	 4.000000000000000e+000	 1.866659999993467e+000	 1.058123810702516e+001
0	 4.000000000000001e+000	 1.933329999996683e+000	 1.058385413961027e+001
0	 4.000000000000001e+000	 2.000000000000000e+000	 1.058753639990150e+001
0	 4.066670000003317e+000	 1.333299999983333e+000	 1.058100469912097e+001
0	 4.066670000003317e+000	 1.399969999982150e+000	 1.057397214782555e+001
0	 4.066670000003317e+000	 1.466639999981866e+000	 1.056818381340948e+001
0	 4.066670000003316e+000	 1.533309999982383e+000	 1.056366119674278e+001
0	 4.066670000003318e+000	 1.599979999983600e+000	 1.056042579869548e+001
0	 4.066670000003317e+000	 1.666649999985416e+000	 1.055849912013763e+001
0	 4.066670000003317e+000	 1.733319999987733e+000	 1.055790266193926e+001
0	 4.066670000003317e+000	 1.799989999990450e+000	 1.055865792497041e+001
0	 4.066670000003317e+000	 1.866659999993467e+000	 1.056078641010116e+001
0	 4.066670000003316e+000	 1.933329999996683e+000	 1.056430961820155e+001
0	 4.066670000003316e+000	 2.000000000000000e+000	 1.056924905014168e+001
0	 4.133340000006534e+000	 1.333299999983334e+000	 1.056083180359116e+001
0	 4.133340000006534e+000	 1.399969999982151e+000	 1.055396714642949e+001
0	 4.133340000006534e+000	 1.466639999981866e+000	 1.054833740819273e+001
0	 4.133340000006533e+000	 1.533309999982382e+000	 1.054397839264595e+001
0	 4.133340000006534e+000	 1.599979999983600e+000	 1.054092590355427e+001
0	 4.133340000006534e+000	 1.666649999985416e+000	 1.053921574468277e+001
0	 4.133340000006534e+000	 1.733319999987733e+000	 1.053888371979659e+001
0	 4.133340000006534e+000	 1.799989999990450e+000	 1.053996563266085e+001
0	 4.133340000006534e+000	 1.866659999993467e+000	 1.054249728704069e+001
0	 4.133340000006535e+000	 1.933329999996683e+000	 1.054651448670124e+001
0	 4.133340000006533e+000	 2.000000000000000e+000	 1.055205303540766e+001
0	 4.200010000009550e+000	 1.333299999983334e+000	 1.053837635916423e+001
0	 4.200010000009549e+000	 1.399969999982150e+000	 1.053284397242620e+001
0	 4.200010000009550e+000	 1.466639999981866e+000	 1.052835749618147e+001
0	 4.200010000009551e+000	 1.533309999982383e+000	 1.052496448012898e+001
0	 4.200010000009550e+000	 1.599979999983599e+000	 1.052271247396766e+001
0	 4.200010000009549e+000	 1.666649999985416e+000	 1.052164902739649e+001
0	 4.200010000009550e+000	 1.733319999987733e+000	 1.052182169011440e+001
0	 4.200010000009550e+000	 1.799989999990450e+000	 1.052327801182036e+001
0	 4.200010000009550e+000	 1.866659999993466e+000	 1.052606554221337e+001
0	 4.200010000009550e+000	 1.933329999996683e+000	 1.053023183099241e+001
0	 4.200010000009550e+000	 1.999999999999999e+000	 1.053582442785646e+001
0	 4.266680000012265e+000	 1.333299999983333e+000	 1.051439628947907e+001
0	 4.266680000012267e+000	 1.399969999982150e+000	 1.051107119288422e+001
0	 4.266680000012267e+000	 1.466639999981867e+000	 1.050846799263441e+001
0	 4.266680000012266e+000	 1.533309999982383e+000	 1.050664342740120e+001
0	 4.266680000012267e+000	 1.599979999983599e+000	 1.050565423585613e+001
0	 4.266680000012267e+000	 1.666649999985416e+000	 1.050555715667080e+001
0	 4.266680000012268e+000	 1.733319999987733e+000	 1.050640892851674e+001
0	 4.266680000012266e+000	 1.799989999990449e+000	 1.050826629006556e+001
0	 4.266680000012268e+000	 1.866659999993466e+000	 1.051118597998883e+001
0	 4.266680000012267e+000	 1.933329999996683e+000	 1.051522473695815e+001
0	 4.266680000012267e+000	 2.000000000000000e+000	 1.052043929964511e+001
0	 4.333350000014583e+000	 1.333299999983334e+000	 1.048964951817458e+001
0	 4.333350000014585e+000	 1.399969999982150e+000	 1.048911737487211e+001
0	 4.333350000014582e+000	 1.466639999981867e+000	 1.048889281281025e+001
0	 4.333350000014582e+000	 1.533309999982383e+000	 1.048903920267195e+001
0	 4.333350000014584e+000	 1.599979999983599e+000	 1.048961991514013e+001
0	 4.333350000014583e+000	 1.666649999985416e+000	 1.049069832089773e+001
0	 4.333350000014583e+000	 1.733319999987733e+000	 1.049233779062773e+001
0	 4.333350000014583e+000	 1.799989999990449e+000	 1.049460169501306e+001
0	 4.333350000014583e+000	 1.866659999993466e+000	 1.049755340473668e+001
0	 4.333350000014583e+000	 1.933329999996683e+000	 1.050125629048154e+001
0	 4.333350000014584e+000	 2.000000000000000e+000	 1.050577372293063e+001
0	 4.400020000016401e+000	 1.333299999983334e+000	 1.046489396888963e+001
0	 4.400020000016399e+000	 1.399969999982150e+000	 1.046745108545843e+001
0	 4.400020000016400e+000	 1.466639999981867e+000	 1.046985587196772e+001
0	 4.400020000016399e+000	 1.533309999982383e+000	 1.047217577415056e+001
0	 4.400020000016400e+000	 1.599979999983599e+000	 1.047447823774007e+001
0	 4.400020000016400e+000	 1.666649999985416e+000	 1.047683070846933e+001
0	 4.400020000016399e+000	 1.733319999987733e+000	 1.047930063207143e+001
0	 4.400020000016400e+000	 1.799989999990450e+000	 1.048195545427945e+001
0	 4.400020000016399e+000	 1.866659999993466e+000	 1.048486262082650e+001
0	 4.400020000016399e+000	 1.933329999996683e+000	 1.048808957744565e+001
0	 4.400020000016400e+000	 2.000000000000000e+000	 1.049170376987001e+001
0	 4.466690000017615e+000	 1.333299999983334e+000	 1.044088756526311e+001
0	 4.466690000017617e+000	 1.399969999982150e+000	 1.044654089171173e+001
0	 4.466690000017617e+000	 1.466639999981867e+000	 1.045158108536550e+001
0	 4.466690000017618e+000	 1.533309999982383e+000	 1.045607711004640e+001
0	 4.466690000017615e+000	 1.599979999983599e+000	 1.046009792957644e+001
0	 4.466690000017616e+000	 1.666649999985416e+000	 1.046371250777761e+001
0	 4.466690000017616e+000	 1.733319999987733e+000	 1.046698980847193e+001
0	 4.466690000017616e+000	 1.799989999990450e+000	 1.046999879548136e+001
0	 4.466690000017617e+000	 1.866659999993466e+000	 1.047280843262791e+001
0	 4.466690000017617e+000	 1.933329999996683e+000	 1.047548768373355e+001
0	 4.466690000017617e+000	 2.000000000000000e+000	 1.047810551262027e+001
0	 4.533360000018131e+000	 1.333299999983334e+000	 1.041838823093390e+001
0	 4.533360000018131e+000	 1.399969999982150e+000	 1.042685536070057e+001
0	 4.533360000018132e+000	 1.466639999981867e+000	 1.043429236826231e+001
0	 4.533360000018131e+000	 1.533309999982383e+000	 1.044076717856877e+001
0	 4.533360000018132e+000	 1.599979999983600e+000	 1.044634771656965e+001
0	 4.533360000018132e+000	 1.666649999985416e+000	 1.045110190721460e+001
0	 4.533360000018131e+000	 1.733319999987733e+000	 1.045509767545329e+001
0	 4.533360000018132e+000	 1.799989999990450e+000	 1.045840294623538e+001
0	 4.533360000018133e+000	 1.866659999993466e+000	 1.046108564451050e+001
0	 4.533360000018133e+000	 1.933329999996683e+000	 1.046321369522831e+001
0	 4.533360000018131e+000	 2.000000000000000e+000	 1.046485502333842e+001
0	 4.600030000017849e+000	 1.333299999983334e+000	 1.039815388954089e+001
0	 4.600030000017848e+000	 1.399969999982150e+000	 1.040886305949350e+001
0	 4.600030000017847e+000	 1.466639999981866e+000	 1.041821363591683e+001
0	 4.600030000017849e+000	 1.533309999982383e+000	 1.042626994792702e+001
0	 4.600030000017849e+000	 1.599979999983599e+000	 1.043309632464013e+001
0	 4.600030000017848e+000	 1.666649999985416e+000	 1.043875709517230e+001
0	 4.600030000017849e+000	 1.733319999987733e+000	 1.044331658863960e+001
0	 4.600030000017848e+000	 1.799989999990449e+000	 1.044683913415810e+001
0	 4.600030000017849e+000	 1.866659999993466e+000	 1.044938906084388e+001
0	 4.600030000017850e+000	 1.933329999996683e+000	 1.045103069781298e+001
0	 4.600030000017850e+000	 2.000000000000000e+000	 1.045182837418145e+001
0	 4.666700000016666e+000	 1.333299999983334e+000	 1.038094246472297e+001
0	 4.666700000016665e+000	 1.399969999982150e+000	 1.039303255515907e+001
0	 4.666700000016666e+000	 1.466639999981866e+000	 1.040356880358780e+001
0	 4.666700000016667e+000	 1.533309999982383e+000	 1.041260938633045e+001
0	 4.666700000016666e+000	 1.599979999983600e+000	 1.042021247970834e+001
0	 4.666700000016665e+000	 1.666649999985416e+000	 1.042643626004273e+001
0	 4.666700000016666e+000	 1.733319999987733e+000	 1.043133890365491e+001
0	 4.666700000016666e+000	 1.799989999990450e+000	 1.043497858686612e+001
0	 4.666700000016666e+000	 1.866659999993466e+000	 1.043741348599761e+001
0	 4.666700000016666e+000	 1.933329999996683e+000	 1.043870177737062e+001
0	 4.666700000016666e+000	 2.000000000000000e+000	 1.043890163730637e+001
0	 4.000000000000001e+000	 2.000000000000000e+000	 1.058753639990150e+001
0	 4.000000000000001e+000	 2.066670000003317e+000	 1.059100120383029e+001
0	 4.000000000000001e+000	 2.133340000006534e+000	 1.059295452080269e+001
0	 4.000000000000000e+000	 2.200010000009551e+000	 1.059338547204437e+001
0	 4.000000000000001e+000	 2.266680000012268e+000	 1.059228317878096e+001
0	 4.000000000000000e+000	 2.333350000014584e+000	 1.058963676223806e+001
0	 4.000000000000000e+000	 2.400020000016400e+000	 1.058543534364126e+001
0	 4.000000000000001e+000	 2.466690000017617e+000	 1.057966804421616e+001
0	 4.000000000000001e+000	 2.533360000018134e+000	 1.057232398518829e+001
0	 4.000000000000000e+000	 2.600030000017850e+000	 1.056339228778320e+001
0	 4.000000000000000e+000	 2.666700000016667e+000	 1.055286207322638e+001
0	 4.066670000003316e+000	 2.000000000000000e+000	 1.056924905014168e+001
0	 4.066670000003317e+000	 2.066670000003317e+000	 1.057404922855342e+001
0	 4.066670000003317e+000	 2.133340000006534e+000	 1.057714445519642e+001
0	 4.066670000003317e+000	 2.200010000009551e+000	 1.057854089963231e+001
0	 4.066670000003318e+000	 2.266680000012268e+000	 1.057824473142271e+001
0	 4.066670000003317e+000	 2.333350000014583e+000	 1.057626212012923e+001
0	 4.066670000003317e+000	 2.400020000016401e+000	 1.057259923531345e+001
0	 4.066670000003317e+000	 2.466690000017617e+000	 1.056726224653692e+001
0	 4.066670000003318e+000	 2.533360000018134e+000	 1.056025732336121e+001
0	 4.066670000003317e+000	 2.600030000017850e+000	 1.055159063534780e+001
0	 4.066670000003316e+000	 2.666700000016667e+000	 1.054126835205821e+001
0	 4.133340000006533e+000	 2.000000000000000e+000	 1.055205303540766e+001
0	 4.133340000006534e+000	 2.066670000003318e+000	 1.055747301693553e+001
0	 4.133340000006534e+000	 2.133340000006534e+000	 1.056112402492926e+001
0	 4.133340000006533e+000	 2.200010000009550e+000	 1.056302612795717e+001
0	 4.133340000006534e+000	 2.266680000012267e+000	 1.056319939458759e+001
0	 4.133340000006533e+000	 2.333350000014585e+000	 1.056166389338882e+001
0	 4.133340000006535e+000	 2.400020000016401e+000	 1.055843969292914e+001
0	 4.133340000006534e+000	 2.466690000017617e+000	 1.055354686177680e+001
0	 4.133340000006533e+000	 2.533360000018134e+000	 1.054700546850003e+001
0	 4.133340000006534e+000	 2.600030000017851e+000	 1.053883558166705e+001
0	 4.133340000006534e+000	 2.666700000016666e+000	 1.052905726984606e+001
0	 4.200010000009550e+000	 1.999999999999999e+000	 1.053582442785646e+001
0	 4.200010000009550e+000	 2.066670000003318e+000	 1.054127338977756e+001
0	 4.200010000009550e+000	 2.133340000006534e+000	 1.054499761942555e+001
0	 4.200010000009550e+000	 2.200010000009551e+000	 1.054702793504618e+001
0	 4.200010000009550e+000	 2.266680000012268e+000	 1.054739515488517e+001
0	 4.200010000009550e+000	 2.333350000014584e+000	 1.054613009718824e+001
0	 4.200010000009550e+000	 2.400020000016400e+000	 1.054326358020106e+001
0	 4.200010000009551e+000	 2.466690000017618e+000	 1.053882642216929e+001
0	 4.200010000009550e+000	 2.533360000018134e+000	 1.053284944133858e+001
0	 4.200010000009550e+000	 2.600030000017850e+000	 1.052536345595454e+001
0	 4.200010000009550e+000	 2.666700000016667e+000	 1.051639928426278e+001
0	 4.266680000012267e+000	 2.000000000000000e+000	 1.052043929964511e+001
0	 4.266680000012266e+000	 2.066670000003317e+000	 1.052545116788042e+001
0	 4.266680000012268e+000	 2.133340000006534e+000	 1.052886962810961e+001
0	 4.266680000012268e+000	 2.200010000009550e+000	 1.053073309892653e+001
0	 4.266680000012268e+000	 2.266680000012267e+000	 1.053107999892503e+001
0	 4.266680000012268e+000	 2.333350000014584e+000	 1.052994874669890e+001
0	 4.266680000012268e+000	 2.400020000016401e+000	 1.052737776084194e+001
0	 4.266680000012266e+000	 2.466690000017617e+000	 1.052340545994795e+001
0	 4.266680000012267e+000	 2.533360000018134e+000	 1.051807026261066e+001
0	 4.266680000012268e+000	 2.600030000017850e+000	 1.051141058742384e+001
0	 4.266680000012266e+000	 2.666700000016666e+000	 1.050346485298118e+001
0	 4.333350000014584e+000	 2.000000000000000e+000	 1.050577372293063e+001
0	 4.333350000014583e+000	 2.066670000003317e+000	 1.051000717204505e+001
0	 4.333350000014582e+000	 2.133340000006534e+000	 1.051284444040577e+001
0	 4.333350000014584e+000	 2.200010000009550e+000	 1.051432839762543e+001
0	 4.333350000014583e+000	 2.266680000012267e+000	 1.051450191331669e+001
0	 4.333350000014582e+000	 2.333350000014584e+000	 1.051340785709218e+001
0	 4.333350000014584e+000	 2.400020000016401e+000	 1.051108909856451e+001
0	 4.333350000014582e+000	 2.466690000017616e+000	 1.050758850734630e+001
0	 4.333350000014583e+000	 2.533360000018134e+000	 1.050294895305011e+001
0	 4.333350000014584e+000	 2.600030000017851e+000	 1.049721330528853e+001
0	 4.333350000014583e+000	 2.666700000016666e+000	 1.049042443367410e+001
0	 4.400020000016400e+000	 2.000000000000000e+000	 1.049170376987001e+001
0	 4.400020000016400e+000	 2.066670000003317e+000	 1.049494222307239e+001
0	 4.400020000016399e+000	 2.133340000006534e+000	 1.049702644573836e+001
0	 4.400020000016399e+000	 2.200010000009550e+000	 1.049800060917008e+001
0	 4.400020000016399e+000	 2.266680000012267e+000	 1.049790888466973e+001
0	 4.400020000016399e+000	 2.333350000014585e+000	 1.049679544353950e+001
0	 4.400020000016401e+000	 2.400020000016401e+000	 1.049470445708150e+001
0	 4.400020000016400e+000	 2.466690000017617e+000	 1.049168009659788e+001
0	 4.400020000016401e+000	 2.533360000018133e+000	 1.048776653339075e+001
0	 4.400020000016400e+000	 2.600030000017850e+000	 1.048300793876221e+001
0	 4.400020000016400e+000	 2.666700000016666e+000	 1.047744848401436e+001
0	 4.466690000017617e+000	 2.000000000000000e+000	 1.047810551262027e+001
0	 4.466690000017616e+000	 2.066670000003316e+000	 1.048025714176334e+001
0	 4.466690000017616e+000	 2.133340000006533e+000	 1.048152003353168e+001
0	 4.466690000017617e+000	 2.200010000009550e+000	 1.048193651158766e+001
0	 4.466690000017615e+000	 2.266680000012267e+000	 1.048154889959373e+001
0	 4.466690000017616e+000	 2.333350000014585e+000	 1.048039952121225e+001
0	 4.466690000017615e+000	 2.400020000016400e+000	 1.047853070010562e+001
0	 4.466690000017616e+000	 2.466690000017617e+000	 1.047598475993621e+001
0	 4.466690000017618e+000	 2.533360000018134e+000	 1.047280402436637e+001
0	 4.466690000017618e+000	 2.600030000017851e+000	 1.046903081705845e+001
0	 4.466690000017616e+000	 2.666700000016666e+000	 1.046470746167478e+001
0	 4.533360000018131e+000	 2.000000000000000e+000	 1.046485502333842e+001
0	 4.533360000018133e+000	 2.066670000003317e+000	 1.046595274891884e+001
0	 4.533360000018133e+000	 2.133340000006534e+000	 1.046642959321005e+001
0	 4.533360000018131e+000	 2.200010000009550e+000	 1.046632288290539e+001
0	 4.533360000018131e+000	 2.266680000012267e+000	 1.046566994469821e+001
0	 4.533360000018132e+000	 2.333350000014584e+000	 1.046450810528184e+001
0	 4.533360000018132e+000	 2.400020000016400e+000	 1.046287469134960e+001
0	 4.533360000018132e+000	 2.466690000017617e+000	 1.046080702959482e+001
0	 4.533360000018132e+000	 2.533360000018133e+000	 1.045834244671080e+001
0	 4.533360000018132e+000	 2.600030000017850e+000	 1.045551826939082e+001
0	 4.533360000018131e+000	 2.666700000016666e+000	 1.045237182432819e+001
0	 4.600030000017850e+000	 2.000000000000000e+000	 1.045182837418145e+001
0	 4.600030000017848e+000	 2.066670000003317e+000	 1.045202986533979e+001
0	 4.600030000017850e+000	 2.133340000006534e+000	 1.045185951419779e+001
0	 4.600030000017849e+000	 2.200010000009551e+000	 1.045134650115044e+001
0	 4.600030000017848e+000	 2.266680000012267e+000	 1.045052000659274e+001
0	 4.600030000017848e+000	 2.333350000014584e+000	 1.044940921091966e+001
0	 4.600030000017849e+000	 2.400020000016401e+000	 1.044804329452617e+001
0	 4.600030000017850e+000	 2.466690000017617e+000	 1.044645143780725e+001
0	 4.600030000017848e+000	 2.533360000018134e+000	 1.044466282115786e+001
0	 4.600030000017849e+000	 2.600030000017850e+000	 1.044270662497293e+001
0	 4.600030000017850e+000	 2.666700000016666e+000	 1.044061202964743e+001
0	 4.666700000016666e+000	 2.000000000000000e+000	 1.043890163730637e+001
0	 4.666700000016665e+000	 2.066670000003317e+000	 1.043848931182711e+001
0	 4.666700000016666e+000	 2.133340000006534e+000	 1.043791418591921e+001
0	 4.666700000016667e+000	 2.200010000009551e+000	 1.043719414435002e+001
0	 4.666700000016666e+000	 2.266680000012268e+000	 1.043634707188688e+001
0	 4.666700000016667e+000	 2.333350000014584e+000	 1.043539085329711e+001
0	 4.666700000016666e+000	 2.400020000016401e+000	 1.043434337334805e+001
0	 4.666700000016668e+000	 2.466690000017617e+000	 1.043322251680703e+001
0	 4.666700000016667e+000	 2.533360000018134e+000	 1.043204616844136e+001
0	 4.666700000016667e+000	 2.600030000017851e+000	 1.043083221301835e+001
0	 4.666700000016666e+000	 2.666700000016666e+000	 1.042959853530532e+001
0	 4.000000000000000e+000	 2.666700000016667e+000	 1.055286207322639e+001
0	 4.000000000000000e+000	 2.733360000014533e+000	 1.054164387609089e+001
0	 4.000000000000000e+000	 2.800020000011599e+000	 1.053064301667344e+001
0	 4.000000000000001e+000	 2.866680000008067e+000	 1.051984589442480e+001
0	 4.000000000000000e+000	 2.933340000004133e+000	 1.050923890879578e+001
0	 4.000000000000000e+000	 3.000000000000000e+000	 1.049880845923718e+001
0	 4.000000000000000e+000	 3.066659999995867e+000	 1.048854094519978e+001
0	 4.000000000000000e+000	 3.133319999991933e+000	 1.047842276613440e+001
0	 4.000000000000001e+000	 3.199979999988401e+000	 1.046844032149186e+001
0	 4.000000000000001e+000	 3.266639999985467e+000	 1.045858001072299e+001
0	 4.000000000000000e+000	 3.333299999983333e+000	 1.044882823327861e+001
0	 4.066670000003316e+000	 2.666700000016667e+000	 1.054126835205821e+001
0	 4.066670000003318e+000	 2.733360000014534e+000	 1.053031749820419e+001
0	 4.066670000003316e+000	 2.800020000011600e+000	 1.051973580071343e+001
0	 4.066670000003319e+000	 2.866680000008067e+000	 1.050949049883142e+001
0	 4.066670000003317e+000	 2.933340000004133e+000	 1.049954883180366e+001
0	 4.066670000003319e+000	 3.000000000000000e+000	 1.048987803887567e+001
0	 4.066670000003318e+000	 3.066659999995867e+000	 1.048044535929295e+001
0	 4.066670000003318e+000	 3.133319999991933e+000	 1.047121803230104e+001
0	 4.066670000003316e+000	 3.199979999988401e+000	 1.046216329714545e+001
0	 4.066670000003318e+000	 3.266639999985467e+000	 1.045324839307172e+001
0	 4.066670000003317e+000	 3.333299999983334e+000	 1.044444055932539e+001
0	 4.133340000006534e+000	 2.666700000016666e+000	 1.052905726984606e+001
0	 4.133340000006534e+000	 2.733360000014534e+000	 1.051872010922611e+001
0	 4.133340000006531e+000	 2.800020000011599e+000	 1.050882508972264e+001
0	 4.133340000006533e+000	 2.866680000008067e+000	 1.049932415938113e+001
0	 4.133340000006534e+000	 2.933340000004133e+000	 1.049016926624709e+001
0	 4.133340000006534e+000	 3.000000000000000e+000	 1.048131235836600e+001
0	 4.133340000006534e+000	 3.066659999995867e+000	 1.047270538378337e+001
0	 4.133340000006533e+000	 3.133319999991933e+000	 1.046430029054471e+001
0	 4.133340000006533e+000	 3.199979999988401e+000	 1.045604902669552e+001
0	 4.133340000006533e+000	 3.266639999985467e+000	 1.044790354028132e+001
0	 4.133340000006533e+000	 3.333299999983333e+000	 1.043981577934762e+001
0	 4.200010000009550e+000	 2.666700000016667e+000	 1.051639928426278e+001
0	 4.200010000009551e+000	 2.733360000014533e+000	 1.050695147127847e+001
0	 4.200010000009551e+000	 2.800020000011600e+000	 1.049795145933465e+001
0	 4.200010000009550e+000	 2.866680000008067e+000	 1.048933977428204e+001
0	 4.200010000009551e+000	 2.933340000004133e+000	 1.048105694197141e+001
0	 4.200010000009553e+000	 3.000000000000000e+000	 1.047304348825352e+001
0	 4.200010000009550e+000	 3.066659999995866e+000	 1.046523993897911e+001
0	 4.200010000009550e+000	 3.133319999991933e+000	 1.045758681999896e+001
0	 4.200010000009550e+000	 3.199979999988401e+000	 1.045002465716383e+001
0	 4.200010000009550e+000	 3.266639999985467e+000	 1.044249397632451e+001
0	 4.200010000009550e+000	 3.333299999983334e+000	 1.043493530333177e+001
0	 4.266680000012266e+000	 2.666700000016666e+000	 1.050346485298118e+001
0	 4.266680000012268e+000	 2.733360000014534e+000	 1.049511134648313e+001
0	 4.266680000012265e+000	 2.800020000011599e+000	 1.048715548518305e+001
0	 4.266680000012267e+000	 2.866680000008067e+000	 1.047953024174224e+001
0	 4.266680000012267e+000	 2.933340000004133e+000	 1.047216858882198e+001
0	 4.266680000012267e+000	 2.999999999999999e+000	 1.046500349908353e+001
0	 4.266680000012265e+000	 3.066659999995866e+000	 1.045796794518821e+001
0	 4.266680000012267e+000	 3.133319999991934e+000	 1.045099489979732e+001
0	 4.266680000012266e+000	 3.199979999988400e+000	 1.044401733557215e+001
0	 4.266680000012268e+000	 3.266639999985467e+000	 1.043696822517403e+001
0	 4.266680000012266e+000	 3.333299999983333e+000	 1.042978054126427e+001
0	 4.333350000014583e+000	 2.666700000016666e+000	 1.049042443367410e+001
0	 4.333350000014582e+000	 2.733360000014532e+000	 1.048329949696191e+001
0	 4.333350000014582e+000	 2.800020000011599e+000	 1.047647774290145e+001
0	 4.333350000014584e+000	 2.866680000008067e+000	 1.046988845996982e+001
0	 4.333350000014582e+000	 2.933340000004133e+000	 1.046346093664410e+001
0	 4.333350000014583e+000	 3.000000000000000e+000	 1.045712446140137e+001
0	 4.333350000014583e+000	 3.066659999995867e+000	 1.045080832271874e+001
0	 4.333350000014584e+000	 3.133319999991934e+000	 1.044444180907333e+001
0	 4.333350000014582e+000	 3.199979999988400e+000	 1.043795420894224e+001
0	 4.333350000014583e+000	 3.266639999985467e+000	 1.043127481080261e+001
0	 4.333350000014582e+000	 3.333299999983333e+000	 1.042433290313156e+001
0	 4.400020000016400e+000	 2.666700000016666e+000	 1.047744848401437e+001
0	 4.400020000016401e+000	 2.733360000014534e+000	 1.047161568483666e+001
0	 4.400020000016400e+000	 2.800020000011600e+000	 1.046595880812344e+001
0	 4.400020000016399e+000	 2.866680000008066e+000	 1.046040732717288e+001
0	 4.400020000016400e+000	 2.933340000004134e+000	 1.045489071528313e+001
0	 4.400020000016397e+000	 2.999999999999999e+000	 1.044933844575237e+001
0	 4.400020000016401e+000	 3.066659999995867e+000	 1.044367999187877e+001
0	 4.400020000016399e+000	 3.133319999991933e+000	 1.043784482696054e+001
0	 4.400020000016401e+000	 3.199979999988401e+000	 1.043176242429586e+001
0	 4.400020000016401e+000	 3.266639999985468e+000	 1.042536225718297e+001
0	 4.400020000016401e+000	 3.333299999983334e+000	 1.041857379892007e+001
0	 4.466690000017616e+000	 2.666700000016666e+000	 1.046470746167478e+001
0	 4.466690000017616e+000	 2.733360000014533e+000	 1.046015967222921e+001
0	 4.466690000017618e+000	 2.800020000011600e+000	 1.045563925648261e+001
0	 4.466690000017616e+000	 2.866680000008066e+000	 1.045107974155951e+001
0	 4.466690000017616e+000	 2.933340000004134e+000	 1.044641465458441e+001
0	 4.466690000017618e+000	 3.000000000000000e+000	 1.044157752268184e+001
0	 4.466690000017615e+000	 3.066659999995867e+000	 1.043650187297634e+001
0	 4.466690000017616e+000	 3.133319999991933e+000	 1.043112123259246e+001
0	 4.466690000017618e+000	 3.199979999988400e+000	 1.042536912865477e+001
0	 4.466690000017616e+000	 3.266639999985467e+000	 1.041917908828784e+001
0	 4.466690000017616e+000	 3.333299999983334e+000	 1.041248463861626e+001
0	 4.533360000018131e+000	 2.666700000016666e+000	 1.045237182432819e+001
0	 4.533360000018131e+000	 2.733360000014534e+000	 1.044903122126140e+001
0	 4.533360000018133e+000	 2.800020000011601e+000	 1.044555966361256e+001
0	 4.533360000018132e+000	 2.866680000008066e+000	 1.044189860133779e+001
0	 4.533360000018132e+000	 2.933340000004133e+000	 1.043798948439326e+001
0	 4.533360000018131e+000	 3.000000000000000e+000	 1.043377376273511e+001
0	 4.533360000018131e+000	 3.066659999995866e+000	 1.042919288631951e+001
0	 4.533360000018134e+000	 3.133319999991933e+000	 1.042418830510264e+001
0	 4.533360000018133e+000	 3.199979999988401e+000	 1.041870146904072e+001
0	 4.533360000018132e+000	 3.266639999985467e+000	 1.041267382808993e+001
0	 4.533360000018131e+000	 3.333299999983334e+000	 1.040604683220654e+001
0	 4.600030000017850e+000	 2.666700000016666e+000	 1.044061202964743e+001
0	 4.600030000017848e+000	 2.733360000014532e+000	 1.043833009405509e+001
0	 4.600030000017848e+000	 2.800020000011600e+000	 1.043576060514688e+001
0	 4.600030000017849e+000	 2.866680000008067e+000	 1.043285680471584e+001
0	 4.600030000017848e+000	 2.933340000004133e+000	 1.042957193455503e+001
0	 4.600030000017849e+000	 3.000000000000000e+000	 1.042585923645750e+001
0	 4.600030000017848e+000	 3.066659999995867e+000	 1.042167195221633e+001
0	 4.600030000017848e+000	 3.133319999991934e+000	 1.041696332362461e+001
0	 4.600030000017849e+000	 3.199979999988401e+000	 1.041168659247546e+001
0	 4.600030000017848e+000	 3.266639999985467e+000	 1.040579500056199e+001
0	 4.600030000017848e+000	 3.333299999983334e+000	 1.039924178967736e+001
0	 4.666700000016666e+000	 2.666700000016666e+000	 1.042959853530532e+001
0	 4.666700000016666e+000	 2.733360000014533e+000	 1.042815605273209e+001
0	 4.666700000016665e+000	 2.800020000011599e+000	 1.042628265671917e+001
0	 4.666700000016666e+000	 2.866680000008067e+000	 1.042394724990174e+001
0	 4.666700000016667e+000	 2.933340000004133e+000	 1.042111873491505e+001
0	 4.666700000016666e+000	 3.000000000000000e+000	 1.041776601439434e+001
0	 4.666700000016665e+000	 3.066659999995866e+000	 1.041385799097485e+001
0	 4.666700000016666e+000	 3.133319999991934e+000	 1.040936356729189e+001
0	 4.666700000016665e+000	 3.199979999988400e+000	 1.040425164598074e+001
0	 4.666700000016665e+000	 3.266639999985467e+000	 1.039849112967672e+001
0	 4.666700000016666e+000	 3.333299999983334e+000	 1.039205092101515e+001
0	 4.000000000000000e+000	 3.333299999983333e+000	 1.044882823327861e+001
0	 4.000000000000000e+000	 3.399969999982150e+000	 1.043914039490409e+001
0	 4.000000000000001e+000	 3.466639999981866e+000	 1.042945655959614e+001
0	 4.000000000000000e+000	 3.533309999982383e+000	 1.041973574782599e+001
0	 4.000000000000000e+000	 3.599979999983600e+000	 1.040993698006488e+001
0	 4.000000000000001e+000	 3.666649999985417e+000	 1.040001927678404e+001
0	 4.000000000000001e+000	 3.733319999987733e+000	 1.038994165845470e+001
0	 4.000000000000001e+000	 3.799989999990450e+000	 1.037966314554809e+001
0	 4.000000000000000e+000	 3.866659999993467e+000	 1.036914275853542e+001
0	 3.999999999999999e+000	 3.933329999996683e+000	 1.035833951788790e+001
0	 4.000000000000000e+000	 4.000000000000000e+000	 1.034721244407677e+001
0	 4.066670000003317e+000	 3.333299999983334e+000	 1.044444055932538e+001
0	 4.066670000003317e+000	 3.399969999982150e+000	 1.043561155548580e+001
0	 4.066670000003318e+000	 3.466639999981866e+000	 1.042664267299355e+001
0	 4.066670000003315e+000	 3.533309999982382e+000	 1.041751150414304e+001
0	 4.066670000003316e+000	 3.599979999983600e+000	 1.040819564122864e+001
0	 4.066670000003317e+000	 3.666649999985416e+000	 1.039867267654477e+001
0	 4.066670000003318e+000	 3.733319999987734e+000	 1.038892020238581e+001
0	 4.066670000003317e+000	 3.799989999990450e+000	 1.037891581104614e+001
0	 4.066670000003317e+000	 3.866659999993466e+000	 1.036863709482014e+001
0	 4.066670000003317e+000	 3.933329999996684e+000	 1.035806164600219e+001
0	 4.066670000003317e+000	 4.000000000000001e+000	 1.034716705688666e+001
0	 4.133340000006533e+000	 3.333299999983333e+000	 1.043981577934762e+001
0	 4.133340000006534e+000	 3.399969999982150e+000	 1.043162373134123e+001
0	 4.133340000006534e+000	 3.466639999981867e+000	 1.042319514433625e+001
0	 4.133340000006534e+000	 3.533309999982382e+000	 1.041452297324394e+001
0	 4.133340000006533e+000	 3.599979999983600e+000	 1.040560017297549e+001
0	 4.133340000006534e+000	 3.666649999985416e+000	 1.039641969844208e+001
0	 4.133340000006534e+000	 3.733319999987733e+000	 1.038697450455492e+001
0	 4.133340000006534e+000	 3.799989999990451e+000	 1.037725754622520e+001
0	 4.133340000006533e+000	 3.866659999993467e+000	 1.036726177836409e+001
0	 4.133340000006534e+000	 3.933329999996684e+000	 1.035698015588278e+001
0	 4.133340000006533e+000	 4.000000000000001e+000	 1.034640563369246e+001
0	 4.200010000009550e+000	 3.333299999983334e+000	 1.043493530333177e+001
0	 4.200010000009550e+000	 3.399969999982150e+000	 1.042719415415329e+001
0	 4.200010000009551e+000	 3.466639999981867e+000	 1.041916137771325e+001
0	 4.200010000009551e+000	 3.533309999982383e+000	 1.041084208233330e+001
0	 4.200010000009551e+000	 3.599979999983601e+000	 1.040224137633511e+001
0	 4.200010000009550e+000	 3.666649999985415e+000	 1.039336436804032e+001
0	 4.200010000009551e+000	 3.733319999987733e+000	 1.038421616577058e+001
0	 4.200010000009550e+000	 3.799989999990450e+000	 1.037480187784751e+001
0	 4.200010000009550e+000	 3.866659999993467e+000	 1.036512661259279e+001
0	 4.200010000009549e+000	 3.933329999996684e+000	 1.035519547832801e+001
0	 4.200010000009550e+000	 4.000000000000000e+000	 1.034501358337482e+001
0	 4.266680000012266e+000	 3.333299999983333e+000	 1.042978054126427e+001
0	 4.266680000012267e+000	 3.399969999982151e+000	 1.042234005560497e+001
0	 4.266680000012267e+000	 3.466639999981867e+000	 1.041458877721352e+001
0	 4.266680000012266e+000	 3.533309999982384e+000	 1.040654075861568e+001
0	 4.266680000012268e+000	 3.599979999983600e+000	 1.039821005233720e+001
0	 4.266680000012268e+000	 3.666649999985416e+000	 1.038961071090382e+001
0	 4.266680000012268e+000	 3.733319999987733e+000	 1.038075678684130e+001
0	 4.266680000012266e+000	 3.799989999990449e+000	 1.037166233267536e+001
0	 4.266680000012268e+000	 3.866659999993467e+000	 1.036234140093173e+001
0	 4.266680000012267e+000	 3.933329999996684e+000	 1.035280804413616e+001
0	 4.266680000012267e+000	 4.000000000000001e+000	 1.034307631481436e+001
0	 4.333350000014582e+000	 3.333299999983333e+000	 1.042433290313156e+001
0	 4.333350000014584e+000	 3.399969999982150e+000	 1.041707866737921e+001
0	 4.333350000014582e+000	 3.466639999981867e+000	 1.040952474692609e+001
0	 4.333350000014582e+000	 3.533309999982383e+000	 1.040169092929568e+001
0	 4.333350000014584e+000	 3.599979999983600e+000	 1.039359700201147e+001
0	 4.333350000014584e+000	 3.666649999985416e+000	 1.038526275259696e+001
0	 4.333350000014582e+000	 3.733319999987733e+000	 1.037670796857563e+001
0	 4.333350000014583e+000	 3.799989999990450e+000	 1.036795243747096e+001
0	 4.333350000014584e+000	 3.866659999993467e+000	 1.035901594680645e+001
0	 4.333350000014584e+000	 3.933329999996683e+000	 1.034991828410554e+001
0	 4.333350000014585e+000	 4.000000000000000e+000	 1.034067923689171e+001
0	 4.400020000016401e+000	 3.333299999983334e+000	 1.041857379892007e+001
0	 4.400020000016399e+000	 3.399969999982149e+000	 1.041142722115897e+001
0	 4.400020000016400e+000	 3.466639999981866e+000	 1.040401669093995e+001
0	 4.400020000016400e+000	 3.533309999982383e+000	 1.039636452157786e+001
0	 4.400020000016401e+000	 3.599979999983600e+000	 1.038849302638761e+001
0	 4.400020000016399e+000	 3.666649999985415e+000	 1.038042451868406e+001
0	 4.400020000016400e+000	 3.733319999987733e+000	 1.037218131178211e+001
0	 4.400020000016399e+000	 3.799989999990451e+000	 1.036378571899661e+001
0	 4.400020000016399e+000	 3.866659999993466e+000	 1.035526005364243e+001
0	 4.400020000016399e+000	 3.933329999996684e+000	 1.034662662903446e+001
0	 4.400020000016400e+000	 4.000000000000000e+000	 1.033790775848753e+001
0	 4.466690000017616e+000	 3.333299999983334e+000	 1.041248463861625e+001
0	 4.466690000017617e+000	 3.399969999982150e+000	 1.040540294862721e+001
0	 4.466690000017617e+000	 3.466639999981867e+000	 1.039811201334408e+001
0	 4.466690000017617e+000	 3.533309999982383e+000	 1.039063346266681e+001
0	 4.466690000017616e+000	 3.599979999983599e+000	 1.038298892649531e+001
0	 4.466690000017617e+000	 3.666649999985417e+000	 1.037520003472949e+001
0	 4.466690000017615e+000	 3.733319999987733e+000	 1.036728841726926e+001
0	 4.466690000017616e+000	 3.799989999990450e+000	 1.035927570401453e+001
0	 4.466690000017618e+000	 3.866659999993467e+000	 1.035118352486522e+001
0	 4.466690000017615e+000	 3.933329999996683e+000	 1.034303350972122e+001
0	 4.466690000017616e+000	 4.000000000000001e+000	 1.033484728848243e+001
0	 4.533360000018131e+000	 3.333299999983334e+000	 1.040604683220654e+001
0	 4.533360000018132e+000	 3.399969999982150e+000	 1.039902308146685e+001
0	 4.533360000018132e+000	 3.466639999981867e+000	 1.039185811822751e+001
0	 4.533360000018132e+000	 3.533309999982382e+000	 1.038456967976711e+001
0	 4.533360000018132e+000	 3.599979999983599e+000	 1.037717550336427e+001
0	 4.533360000018131e+000	 3.666649999985416e+000	 1.036969332629757e+001
0	 4.533360000018131e+000	 3.733319999987734e+000	 1.036214088584562e+001
0	 4.533360000018133e+000	 3.799989999990450e+000	 1.035453591928702e+001
0	 4.533360000018131e+000	 3.866659999993466e+000	 1.034689616390032e+001
0	 4.533360000018132e+000	 3.933329999996683e+000	 1.033923935696414e+001
0	 4.533360000018131e+000	 4.000000000000001e+000	 1.033158323575706e+001
0	 4.600030000017848e+000	 3.333299999983334e+000	 1.039924178967736e+001
0	 4.600030000017849e+000	 3.399969999982150e+000	 1.039230485136084e+001
0	 4.600030000017848e+000	 3.466639999981866e+000	 1.038530240967920e+001
0	 4.600030000017849e+000	 3.533309999982383e+000	 1.037824510008333e+001
0	 4.600030000017849e+000	 3.599979999983600e+000	 1.037114355802418e+001
0	 4.600030000017848e+000	 3.666649999985416e+000	 1.036400841895267e+001
0	 4.600030000017849e+000	 3.733319999987733e+000	 1.035685031831973e+001
0	 4.600030000017848e+000	 3.799989999990450e+000	 1.034967989157628e+001
0	 4.600030000017849e+000	 3.866659999993467e+000	 1.034250777417325e+001
0	 4.600030000017848e+000	 3.933329999996683e+000	 1.033534460156153e+001
0	 4.600030000017848e+000	 4.000000000000000e+000	 1.032820100919206e+001
0	 4.666700000016666e+000	 3.333299999983334e+000	 1.039205092101515e+001
0	 4.666700000016665e+000	 3.399969999982150e+000	 1.038526548999216e+001
0	 4.666700000016666e+000	 3.466639999981866e+000	 1.037849229178815e+001
0	 4.666700000016666e+000	 3.533309999982382e+000	 1.037173165082004e+001
0	 4.666700000016665e+000	 3.599979999983599e+000	 1.036498389150473e+001
0	 4.666700000016667e+000	 3.666649999985417e+000	 1.035824933825913e+001
0	 4.666700000016667e+000	 3.733319999987733e+000	 1.035152831550013e+001
0	 4.666700000016666e+000	 3.799989999990449e+000	 1.034482114764463e+001
0	 4.666700000016667e+000	 3.866659999993467e+000	 1.033812815910953e+001
0	 4.666700000016666e+000	 3.933329999996684e+000	 1.033144967431171e+001
0	 4.666700000016667e+000	 4.000000000000001e+000	 1.032478601766808e+001
0	 4.000000000000000e+000	 4.000000000000000e+000	 1.034721244407677e+001
0	 4.000000000000000e+000	 4.066670000003317e+000	 1.033606055590795e+001
0	 4.000000000000000e+000	 4.133340000006534e+000	 1.032520652317389e+001
0	 4.000000000000000e+000	 4.200010000009550e+000	 1.031464484282562e+001
0	 4.000000000000001e+000	 4.266680000012268e+000	 1.030437001181412e+001
0	 4.000000000000000e+000	 4.333350000014584e+000	 1.029437652709044e+001
0	 4.000000000000000e+000	 4.400020000016401e+000	 1.028465888560557e+001
0	 4.000000000000000e+000	 4.466690000017617e+000	 1.027521158431054e+001
0	 4.000000000000001e+000	 4.533360000018134e+000	 1.026602912015637e+001
0	 4.000000000000000e+000	 4.600030000017851e+000	 1.025710599009408e+001
0	 4.000000000000000e+000	 4.666700000016666e+000	 1.024843669107469e+001
0	 4.066670000003317e+000	 4.000000000000001e+000	 1.034716705688666e+001
0	 4.066670000003317e+000	 4.066670000003317e+000	 1.033627588131600e+001
0	 4.066670000003317e+000	 4.133340000006534e+000	 1.032571532942059e+001
0	 4.066670000003317e+000	 4.200010000009550e+000	 1.031546997792670e+001
0	 4.066670000003318e+000	 4.266680000012268e+000	 1.030552440356059e+001
0	 4.066670000003318e+000	 4.333350000014584e+000	 1.029586318304851e+001
0	 4.066670000003317e+000	 4.400020000016400e+000	 1.028647089311674e+001
0	 4.066670000003317e+000	 4.466690000017617e+000	 1.027733211049154e+001
0	 4.066670000003316e+000	 4.533360000018134e+000	 1.026843141189918e+001
0	 4.066670000003317e+000	 4.600030000017850e+000	 1.025975337406594e+001
0	 4.066670000003317e+000	 4.666700000016667e+000	 1.025128257371808e+001
0	 4.133340000006533e+000	 4.000000000000001e+000	 1.034640563369246e+001
0	 4.133340000006534e+000	 4.066670000003318e+000	 1.033586233554790e+001
0	 4.133340000006533e+000	 4.133340000006534e+000	 1.032566344636448e+001
0	 4.133340000006533e+000	 4.200010000009550e+000	 1.031578551279419e+001
0	 4.133340000006534e+000	 4.266680000012268e+000	 1.030620508148907e+001
0	 4.133340000006532e+000	 4.333350000014584e+000	 1.029689869910114e+001
0	 4.133340000006534e+000	 4.400020000016402e+000	 1.028784291228242e+001
0	 4.133340000006534e+000	 4.466690000017618e+000	 1.027901426768493e+001
0	 4.133340000006534e+000	 4.533360000018134e+000	 1.027038931196072e+001
0	 4.133340000006534e+000	 4.600030000017851e+000	 1.026194459176177e+001
0	 4.133340000006533e+000	 4.666700000016667e+000	 1.025365665374015e+001
0	 4.200010000009550e+000	 4.000000000000000e+000	 1.034501358337482e+001
0	 4.200010000009550e+000	 4.066670000003317e+000	 1.033488855194606e+001
0	 4.200010000009550e+000	 4.133340000006535e+000	 1.032510487385904e+001
0	 4.200010000009550e+000	 4.200010000009550e+000	 1.031563295584202e+001
0	 4.200010000009550e+000	 4.266680000012268e+000	 1.030644320462330e+001
0	 4.200010000009551e+000	 4.333350000014583e+000	 1.029750602693117e+001
0	 4.200010000009550e+000	 4.400020000016402e+000	 1.028879182949391e+001
0	 4.200010000009551e+000	 4.466690000017619e+000	 1.028027101903982e+001
0	 4.200010000009550e+000	 4.533360000018135e+000	 1.027191400229717e+001
0	 4.200010000009550e+000	 4.600030000017851e+000	 1.026369118599427e+001
0	 4.200010000009550e+000	 4.666700000016666e+000	 1.025557297685940e+001
0	 4.266680000012267e+000	 4.000000000000001e+000	 1.034307631481436e+001
0	 4.266680000012267e+000	 4.066670000003317e+000	 1.033342316385286e+001
0	 4.266680000012268e+000	 4.133340000006534e+000	 1.032409361175777e+001
0	 4.266680000012267e+000	 4.200010000009550e+000	 1.031505381548412e+001
0	 4.266680000012268e+000	 4.266680000012268e+000	 1.030626993198700e+001
0	 4.266680000012268e+000	 4.333350000014583e+000	 1.029770811822143e+001
0	 4.266680000012267e+000	 4.400020000016402e+000	 1.028933453114250e+001
0	 4.266680000012266e+000	 4.466690000017617e+000	 1.028111532770526e+001
0	 4.266680000012266e+000	 4.533360000018133e+000	 1.027301666486478e+001
0	 4.266680000012267e+000	 4.600030000017851e+000	 1.026500469957611e+001
0	 4.266680000012266e+000	 4.666700000016666e+000	 1.025704558879431e+001
0	 4.333350000014585e+000	 4.000000000000000e+000	 1.034067923689171e+001
0	 4.333350000014583e+000	 4.066670000003318e+000	 1.033153480461071e+001
0	 4.333350000014582e+000	 4.133340000006534e+000	 1.032268365991418e+001
0	 4.333350000014584e+000	 4.200010000009550e+000	 1.031408960013444e+001
0	 4.333350000014583e+000	 4.266680000012268e+000	 1.030571642260386e+001
0	 4.333350000014582e+000	 4.333350000014584e+000	 1.029752792465476e+001
0	 4.333350000014583e+000	 4.400020000016401e+000	 1.028948790361947e+001
0	 4.333350000014582e+000	 4.466690000017616e+000	 1.028156015683036e+001
0	 4.333350000014583e+000	 4.533360000018132e+000	 1.027370848161974e+001
0	 4.333350000014583e+000	 4.600030000017850e+000	 1.026589667531997e+001
0	 4.333350000014582e+000	 4.666700000016665e+000	 1.025808853526338e+001
0	 4.400020000016400e+000	 4.000000000000000e+000	 1.033790775848753e+001
0	 4.400020000016399e+000	 4.066670000003317e+000	 1.032929210756201e+001
0	 4.400020000016399e+000	 4.133340000006534e+000	 1.032092901818177e+001
0	 4.400020000016399e+000	 4.200010000009550e+000	 1.031278181820694e+001
0	 4.400020000016399e+000	 4.266680000012268e+000	 1.030481383549763e+001
0	 4.400020000016399e+000	 4.333350000014584e+000	 1.029698839791399e+001
0	 4.400020000016399e+000	 4.400020000016402e+000	 1.028926883331613e+001
0	 4.400020000016399e+000	 4.466690000017615e+000	 1.028161846956419e+001
0	 4.400020000016399e+000	 4.533360000018132e+000	 1.027400063451828e+001
0	 4.400020000016399e+000	 4.600030000017850e+000	 1.026637865603854e+001
0	 4.400020000016400e+000	 4.666700000016666e+000	 1.025871586198507e+001
0	 4.466690000017616e+000	 4.000000000000001e+000	 1.033484728848243e+001
0	 4.466690000017616e+000	 4.066670000003316e+000	 1.032676370604915e+001
0	 4.466690000017616e+000	 4.133340000006534e+000	 1.031888368641404e+001
0	 4.466690000017616e+000	 4.200010000009551e+000	 1.031117197811553e+001
0	 4.466690000017615e+000	 4.266680000012268e+000	 1.030359332969204e+001
0	 4.466690000017618e+000	 4.333350000014584e+000	 1.029611248968197e+001
0	 4.466690000017616e+000	 4.400020000016401e+000	 1.028869420662377e+001
0	 4.466690000017617e+000	 4.466690000017619e+000	 1.028130322905585e+001
0	 4.466690000017618e+000	 4.533360000018133e+000	 1.027390430551661e+001
0	 4.466690000017618e+000	 4.600030000017851e+000	 1.026646218454450e+001
0	 4.466690000017615e+000	 4.666700000016665e+000	 1.025894161467791e+001
0	 4.533360000018131e+000	 4.000000000000001e+000	 1.033158323575706e+001
0	 4.533360000018134e+000	 4.066670000003318e+000	 1.032401823341455e+001
0	 4.533360000018133e+000	 4.133340000006534e+000	 1.031660166446452e+001
0	 4.533360000018130e+000	 4.200010000009550e+000	 1.030930158827419e+001
0	 4.533360000018131e+000	 4.266680000012268e+000	 1.030208606421079e+001
0	 4.533360000018131e+000	 4.333350000014583e+000	 1.029492315164156e+001
0	 4.533360000018132e+000	 4.400020000016402e+000	 1.028778090993368e+001
0	 4.533360000018132e+000	 4.466690000017617e+000	 1.028062739845441e+001
0	 4.533360000018133e+000	 4.533360000018135e+000	 1.027343067657096e+001
0	 4.533360000018133e+000	 4.600030000017851e+000	 1.026615880365054e+001
0	 4.533360000018131e+000	 4.666700000016666e+000	 1.025877983906038e+001
0	 4.600030000017848e+000	 4.000000000000000e+000	 1.032820100919206e+001
0	 4.600030000017849e+000	 4.066670000003318e+000	 1.032112432300061e+001
0	 4.600030000017850e+000	 4.133340000006535e+000	 1.031413695218669e+001
0	 4.600030000017849e+000	 4.200010000009551e+000	 1.030721215709686e+001
0	 4.600030000017848e+000	 4.266680000012267e+000	 1.030032319807763e+001
0	 4.600030000017848e+000	 4.333350000014583e+000	 1.029344333547556e+001
0	 4.600030000017849e+000	 4.400020000016401e+000	 1.028654582963716e+001
0	 4.600030000017849e+000	 4.466690000017617e+000	 1.027960394090898e+001
0	 4.600030000017847e+000	 4.533360000018132e+000	 1.027259092963753e+001
0	 4.600030000017848e+000	 4.600030000017850e+000	 1.026548005616935e+001
0	 4.600030000017850e+000	 4.666700000016668e+000	 1.025824458085096e+001
0	 4.666700000016667e+000	 4.000000000000001e+000	 1.032478601766808e+001
0	 4.666700000016666e+000	 4.066670000003317e+000	 1.031815060814973e+001
0	 4.666700000016666e+000	 4.133340000006535e+000	 1.031154354943409e+001
0	 4.666700000016667e+000	 4.200010000009550e+000	 1.030494519299749e+001
0	 4.666700000016666e+000	 4.266680000012268e+000	 1.029833589031630e+001
0	 4.666700000016665e+000	 4.333350000014583e+000	 1.029169599286686e+001
0	 4.666700000016665e+000	 4.400020000016400e+000	 1.028500585212552e+001
0	 4.666700000016667e+000	 4.466690000017618e+000	 1.027824581956864e+001
0	 4.666700000016666e+000	 4.533360000018134e+000	 1.027139624667256e+001
0	 4.666700000016668e+000	 4.600030000017852e+000	 1.026443748491362e+001
0	 4.666700000016666e+000	 4.666700000016666e+000	 1.025734988576815e+001
0	 4.000000000000000e+000	 4.666700000016666e+000	 1.024843669107469e+001
0	 4.000000000000000e+000	 4.733360000014533e+000	 1.024000293254808e+001
0	 4.000000000000000e+000	 4.800020000011600e+000	 1.023178350491273e+001
0	 4.000000000000001e+000	 4.866680000008067e+000	 1.022377237124844e+001
0	 3.999999999999999e+000	 4.933340000004133e+000	 1.021596349463495e+001
0	 3.999999999999999e+000	 5.000000000000000e+000	 1.020835083815204e+001
0	 4.000000000000000e+000	 5.066659999995866e+000	 1.020092836487946e+001
0	 4.000000000000000e+000	 5.133319999991934e+000	 1.019369003789697e+001
0	 4.000000000000001e+000	 5.199979999988400e+000	 1.018662982028432e+001
0	 4.000000000000000e+000	 5.266639999985467e+000	 1.017974167512126e+001
0	 4.000000000000000e+000	 5.333299999983334e+000	 1.017301956548754e+001
0	 4.066670000003317e+000	 4.666700000016667e+000	 1.025128257371808e+001
0	 4.066670000003317e+000	 4.733360000014532e+000	 1.024300519772431e+001
0	 4.066670000003315e+000	 4.800020000011598e+000	 1.023491383579982e+001
0	 4.066670000003319e+000	 4.866680000008067e+000	 1.022700643629740e+001
0	 4.066670000003318e+000	 4.933340000004133e+000	 1.021928094756989e+001
0	 4.066670000003317e+000	 5.000000000000000e+000	 1.021173531797008e+001
0	 4.066670000003318e+000	 5.066659999995867e+000	 1.020436749585078e+001
0	 4.066670000003318e+000	 5.133319999991933e+000	 1.019717542956478e+001
0	 4.066670000003315e+000	 5.199979999988400e+000	 1.019015706746492e+001
0	 4.066670000003317e+000	 5.266639999985467e+000	 1.018331035790395e+001
0	 4.066670000003316e+000	 5.333299999983332e+000	 1.017663324923470e+001
0	 4.133340000006533e+000	 4.666700000016667e+000	 1.025365665374015e+001
0	 4.133340000006532e+000	 4.733360000014532e+000	 1.024552194365451e+001
0	 4.133340000006533e+000	 4.800020000011599e+000	 1.023755081706849e+001
0	 4.133340000006534e+000	 4.866680000008066e+000	 1.022974438297088e+001
0	 4.133340000006533e+000	 4.933340000004134e+000	 1.022210375035039e+001
0	 4.133340000006535e+000	 5.000000000000002e+000	 1.021463002819583e+001
0	 4.133340000006534e+000	 5.066659999995867e+000	 1.020732432549592e+001
0	 4.133340000006534e+000	 5.133319999991933e+000	 1.020018775123943e+001
0	 4.133340000006534e+000	 5.199979999988401e+000	 1.019322141441507e+001
0	 4.133340000006533e+000	 5.266639999985468e+000	 1.018642642401162e+001
0	 4.133340000006533e+000	 5.333299999983334e+000	 1.017980388901780e+001
0	 4.200010000009550e+000	 4.666700000016666e+000	 1.025557297685941e+001
0	 4.200010000009551e+000	 4.733360000014534e+000	 1.024757057396827e+001
0	 4.200010000009550e+000	 4.800020000011601e+000	 1.023971477929290e+001
0	 4.200010000009550e+000	 4.866680000008064e+000	 1.023200903782093e+001
0	 4.200010000009551e+000	 4.933340000004133e+000	 1.022445679453994e+001
0	 4.200010000009553e+000	 5.000000000000001e+000	 1.021706149443753e+001
0	 4.200010000009550e+000	 5.066659999995866e+000	 1.020982658250131e+001
0	 4.200010000009550e+000	 5.133319999991934e+000	 1.020275550371888e+001
0	 4.200010000009550e+000	 5.199979999988400e+000	 1.019585170307782e+001
0	 4.200010000009550e+000	 5.266639999985467e+000	 1.018911862556569e+001
0	 4.200010000009550e+000	 5.333299999983334e+000	 1.018255971617013e+001
0	 4.266680000012266e+000	 4.666700000016666e+000	 1.025704558879431e+001
0	 4.266680000012268e+000	 4.733360000014534e+000	 1.024916849229520e+001
0	 4.266680000012265e+000	 4.800020000011599e+000	 1.024142605304719e+001
0	 4.266680000012267e+000	 4.866680000008066e+000	 1.023382322739967e+001
0	 4.266680000012266e+000	 4.933340000004134e+000	 1.022636497170196e+001
0	 4.266680000012268e+000	 5.000000000000000e+000	 1.021905624230342e+001
0	 4.266680000012266e+000	 5.066659999995866e+000	 1.021190199555338e+001
0	 4.266680000012266e+000	 5.133319999991935e+000	 1.020490718780118e+001
0	 4.266680000012267e+000	 5.199979999988400e+000	 1.019807677539617e+001
0	 4.266680000012267e+000	 5.266639999985468e+000	 1.019141571468767e+001
0	 4.266680000012265e+000	 5.333299999983333e+000	 1.018492896202501e+001
0	 4.333350000014582e+000	 4.666700000016665e+000	 1.025808853526338e+001
0	 4.333350000014582e+000	 4.733360000014533e+000	 1.025033310226490e+001
0	 4.333350000014582e+000	 4.800020000011600e+000	 1.024270496890550e+001
0	 4.333350000014583e+000	 4.866680000008066e+000	 1.023520977825917e+001
0	 4.333350000014582e+000	 4.933340000004133e+000	 1.022785317339992e+001
0	 4.333350000014582e+000	 4.999999999999998e+000	 1.022064079740169e+001
0	 4.333350000014583e+000	 5.066659999995869e+000	 1.021357829333851e+001
0	 4.333350000014583e+000	 5.133319999991934e+000	 1.020667130428434e+001
0	 4.333350000014583e+000	 5.199979999988401e+000	 1.019992547331317e+001
0	 4.333350000014582e+000	 5.266639999985467e+000	 1.019334644349898e+001
0	 4.333350000014583e+000	 5.333299999983334e+000	 1.018693985791572e+001
0	 4.400020000016400e+000	 4.666700000016666e+000	 1.025871586198508e+001
0	 4.400020000016401e+000	 4.733360000014534e+000	 1.025108180750699e+001
0	 4.400020000016399e+000	 4.800020000011600e+000	 1.024357185744196e+001
0	 4.400020000016399e+000	 4.866680000008065e+000	 1.023619151695153e+001
0	 4.400020000016400e+000	 4.933340000004133e+000	 1.022894629119724e+001
0	 4.400020000016400e+000	 5.000000000000000e+000	 1.022184168534059e+001
0	 4.400020000016400e+000	 5.066659999995867e+000	 1.021488320454313e+001
0	 4.400020000016399e+000	 5.133319999991933e+000	 1.020807635396638e+001
0	 4.400020000016400e+000	 5.199979999988400e+000	 1.020142663877185e+001
0	 4.400020000016401e+000	 5.266639999985467e+000	 1.019493956412109e+001
0	 4.400020000016400e+000	 5.333299999983333e+000	 1.018862063517559e+001
0	 4.466690000017615e+000	 4.666700000016665e+000	 1.025894161467791e+001
0	 4.466690000017615e+000	 4.733360000014532e+000	 1.025143201165109e+001
0	 4.466690000017618e+000	 4.800020000011601e+000	 1.024404704923073e+001
0	 4.466690000017617e+000	 4.866680000008068e+000	 1.023679127002885e+001
0	 4.466690000017615e+000	 4.933340000004133e+000	 1.022966921665739e+001
0	 4.466690000017618e+000	 5.000000000000000e+000	 1.022268543172833e+001
0	 4.466690000017615e+000	 5.066659999995866e+000	 1.021584445785366e+001
0	 4.466690000017616e+000	 5.133319999991935e+000	 1.020915083764531e+001
0	 4.466690000017618e+000	 5.199979999988400e+000	 1.020260911371527e+001
0	 4.466690000017614e+000	 5.266639999985467e+000	 1.019622382867549e+001
0	 4.466690000017616e+000	 5.333299999983335e+000	 1.018999952513792e+001
0	 4.533360000018131e+000	 4.666700000016666e+000	 1.025877983906038e+001
0	 4.533360000018132e+000	 4.733360000014534e+000	 1.025140111832679e+001
0	 4.533360000018133e+000	 4.800020000011601e+000	 1.024415087484596e+001
0	 4.533360000018133e+000	 4.866680000008067e+000	 1.023703186404321e+001
0	 4.533360000018132e+000	 4.933340000004135e+000	 1.023004684134384e+001
0	 4.533360000018132e+000	 5.000000000000001e+000	 1.022319856217316e+001
0	 4.533360000018133e+000	 5.066659999995866e+000	 1.021648978195651e+001
0	 4.533360000018133e+000	 5.133319999991935e+000	 1.020992325611915e+001
0	 4.533360000018132e+000	 5.199979999988401e+000	 1.020350174008641e+001
0	 4.533360000018132e+000	 5.266639999985467e+000	 1.019722798928361e+001
0	 4.533360000018131e+000	 5.333299999983334e+000	 1.019110475913600e+001
0	 4.600030000017850e+000	 4.666700000016668e+000	 1.025824458085096e+001
0	 4.600030000017849e+000	 4.733360000014534e+000	 1.025100653116373e+001
0	 4.600030000017848e+000	 4.800020000011601e+000	 1.024390366486179e+001
0	 4.600030000017848e+000	 4.866680000008065e+000	 1.023693612554670e+001
0	 4.600030000017848e+000	 4.933340000004134e+000	 1.023010405682003e+001
0	 4.600030000017849e+000	 4.999999999999999e+000	 1.022340760228331e+001
0	 4.600030000017848e+000	 5.066659999995866e+000	 1.021684690553809e+001
0	 4.600030000017849e+000	 5.133319999991935e+000	 1.021042211018593e+001
0	 4.600030000017849e+000	 5.199979999988401e+000	 1.020413335982836e+001
0	 4.600030000017848e+000	 5.266639999985468e+000	 1.019798079806693e+001
0	 4.600030000017849e+000	 5.333299999983335e+000	 1.019196456850318e+001
0	 4.666700000016666e+000	 4.666700000016666e+000	 1.025734988576815e+001
0	 4.666700000016666e+000	 4.733360000014534e+000	 1.025026565379149e+001
0	 4.666700000016665e+000	 4.800020000011599e+000	 1.024332574985236e+001
0	 4.666700000016666e+000	 4.866680000008067e+000	 1.023652688109143e+001
0	 4.666700000016667e+000	 4.933340000004135e+000	 1.022986575464941e+001
0	 4.666700000016666e+000	 5.000000000000001e+000	 1.022333907766699e+001
0	 4.666700000016667e+000	 5.066659999995867e+000	 1.021694355728484e+001
0	 4.666700000016666e+000	 5.133319999991935e+000	 1.021067590064366e+001
0	 4.666700000016665e+000	 5.199979999988400e+000	 1.020453281488413e+001
0	 4.666700000016667e+000	 5.266639999985468e+000	 1.019851100714691e+001
0	 4.666700000016667e+000	 5.333299999983335e+000	 1.019260718457272e+001
0	 4.000000000000000e+000	 5.333299999983334e+000	 1.017301956548754e+001
0	 4.000000000000000e+000	 5.399969999982148e+000	 1.016647364412044e+001
0	 4.000000000000002e+000	 5.466639999981868e+000	 1.016011828396328e+001
0	 4.000000000000000e+000	 5.533309999982382e+000	 1.015395078960898e+001
0	 4.000000000000001e+000	 5.599979999983600e+000	 1.014796846565052e+001
0	 4.000000000000001e+000	 5.666649999985416e+000	 1.014216861668087e+001
0	 4.000000000000001e+000	 5.733319999987733e+000	 1.013654854729299e+001
0	 4.000000000000000e+000	 5.799989999990448e+000	 1.013110556207983e+001
0	 4.000000000000001e+000	 5.866659999993468e+000	 1.012583696563440e+001
0	 4.000000000000000e+000	 5.933329999996682e+000	 1.012074006254966e+001
0	 4.000000000000000e+000	 6.000000000000001e+000	 1.011581215741857e+001
0	 4.066670000003316e+000	 5.333299999983332e+000	 1.017663324923469e+001
0	 4.066670000003317e+000	 5.399969999982150e+000	 1.017013237213455e+001
0	 4.066670000003318e+000	 5.466639999981867e+000	 1.016381496991627e+001
0	 4.066670000003317e+000	 5.533309999982384e+000	 1.015767694274246e+001
0	 4.066670000003316e+000	 5.599979999983599e+000	 1.015171419077575e+001
0	 4.066670000003317e+000	 5.666649999985415e+000	 1.014592261417876e+001
0	 4.066670000003318e+000	 5.733319999987733e+000	 1.014029811311413e+001
0	 4.066670000003318e+000	 5.799989999990451e+000	 1.013483658774448e+001
0	 4.066670000003317e+000	 5.866659999993468e+000	 1.012953393823244e+001
0	 4.066670000003316e+000	 5.933329999996683e+000	 1.012438606474063e+001
0	 4.066670000003316e+000	 5.999999999999999e+000	 1.011938886743171e+001
0	 4.133340000006533e+000	 5.333299999983334e+000	 1.017980388901780e+001
0	 4.133340000006534e+000	 5.399969999982150e+000	 1.017335714562557e+001
0	 4.133340000006533e+000	 5.466639999981865e+000	 1.016708727716280e+001
0	 4.133340000006533e+000	 5.533309999982382e+000	 1.016098907185599e+001
0	 4.133340000006534e+000	 5.599979999983601e+000	 1.015505731793165e+001
0	 4.133340000006533e+000	 5.666649999985417e+000	 1.014928680361629e+001
0	 4.133340000006535e+000	 5.733319999987733e+000	 1.014367231713644e+001
0	 4.133340000006532e+000	 5.799989999990449e+000	 1.013820864671856e+001
0	 4.133340000006532e+000	 5.866659999993466e+000	 1.013289058058921e+001
0	 4.133340000006533e+000	 5.933329999996684e+000	 1.012771290697489e+001
0	 4.133340000006532e+000	 6.000000000000000e+000	 1.012267041410211e+001
0	 4.200010000009550e+000	 5.333299999983334e+000	 1.018255971617012e+001
0	 4.200010000009550e+000	 5.399969999982150e+000	 1.017617534465069e+001
0	 4.200010000009550e+000	 5.466639999981865e+000	 1.016996150469557e+001
0	 4.200010000009551e+000	 5.533309999982384e+000	 1.016391216508938e+001
0	 4.200010000009550e+000	 5.599979999983600e+000	 1.015802129461674e+001
0	 4.200010000009549e+000	 5.666649999985416e+000	 1.015228286206228e+001
0	 4.200010000009550e+000	 5.733319999987733e+000	 1.014669083621059e+001
0	 4.200010000009550e+000	 5.799989999990450e+000	 1.014123918584630e+001
0	 4.200010000009550e+000	 5.866659999993467e+000	 1.013592187975403e+001
0	 4.200010000009550e+000	 5.933329999996684e+000	 1.013073288671841e+001
0	 4.200010000009550e+000	 5.999999999999998e+000	 1.012566617552408e+001
0	 4.266680000012265e+000	 5.333299999983333e+000	 1.018492896202500e+001
0	 4.266680000012267e+000	 5.399969999982151e+000	 1.017861434926712e+001
0	 4.266680000012266e+000	 5.466639999981866e+000	 1.017246395150728e+001
0	 4.266680000012267e+000	 5.533309999982383e+000	 1.016647121058242e+001
0	 4.266680000012268e+000	 5.599979999983600e+000	 1.016062956832950e+001
0	 4.266680000012268e+000	 5.666649999985417e+000	 1.015493246658546e+001
0	 4.266680000012268e+000	 5.733319999987733e+000	 1.014937334718726e+001
0	 4.266680000012266e+000	 5.799989999990449e+000	 1.014394565197184e+001
0	 4.266680000012268e+000	 5.866659999993467e+000	 1.013864282277618e+001
0	 4.266680000012267e+000	 5.933329999996683e+000	 1.013345830143719e+001
0	 4.266680000012267e+000	 6.000000000000000e+000	 1.012838552979186e+001
0	 4.333350000014583e+000	 5.333299999983334e+000	 1.018693985791572e+001
0	 4.333350000014583e+000	 5.399969999982149e+000	 1.018070153953206e+001
0	 4.333350000014583e+000	 5.466639999981866e+000	 1.017462091659061e+001
0	 4.333350000014582e+000	 5.533309999982382e+000	 1.016869119647491e+001
0	 4.333350000014583e+000	 5.599979999983598e+000	 1.016290558656841e+001
0	 4.333350000014584e+000	 5.666649999985417e+000	 1.015725729425467e+001
0	 4.333350000014583e+000	 5.733319999987733e+000	 1.015173952691718e+001
0	 4.333350000014583e+000	 5.799989999990449e+000	 1.014634549193943e+001
0	 4.333350000014583e+000	 5.866659999993468e+000	 1.014106839670493e+001
0	 4.333350000014584e+000	 5.933329999996684e+000	 1.013590144859721e+001
0	 4.333350000014585e+000	 6.000000000000001e+000	 1.013083785499976e+001
0	 4.400020000016400e+000	 5.333299999983333e+000	 1.018862063517558e+001
0	 4.400020000016400e+000	 5.399969999982149e+000	 1.018246429550271e+001
0	 4.400020000016401e+000	 5.466639999981866e+000	 1.017645869893828e+001
0	 4.400020000016399e+000	 5.533309999982382e+000	 1.017059711090663e+001
0	 4.400020000016400e+000	 5.599979999983599e+000	 1.016487279683200e+001
0	 4.400020000016399e+000	 5.666649999985414e+000	 1.015927902213871e+001
0	 4.400020000016400e+000	 5.733319999987732e+000	 1.015380905225101e+001
0	 4.400020000016400e+000	 5.799989999990449e+000	 1.014845615259320e+001
0	 4.400020000016401e+000	 5.866659999993468e+000	 1.014321358858959e+001
0	 4.400020000016399e+000	 5.933329999996682e+000	 1.013807462566444e+001
0	 4.400020000016400e+000	 6.000000000000000e+000	 1.013303252924206e+001
0	 4.466690000017616e+000	 5.333299999983335e+000	 1.018999952513792e+001
0	 4.466690000017618e+000	 5.399969999982151e+000	 1.018392999723628e+001
0	 4.466690000017616e+000	 5.466639999981865e+000	 1.017800359754302e+001
0	 4.466690000017615e+000	 5.533309999982382e+000	 1.017221394201741e+001
0	 4.466690000017616e+000	 5.599979999983600e+000	 1.016655464661876e+001
0	 4.466690000017615e+000	 5.666649999985417e+000	 1.016101932730634e+001
0	 4.466690000017614e+000	 5.733319999987733e+000	 1.015560160003945e+001
0	 4.466690000017616e+000	 5.799989999990449e+000	 1.015029508077738e+001
0	 4.466690000017617e+000	 5.866659999993466e+000	 1.014509338547943e+001
0	 4.466690000017616e+000	 5.933329999996682e+000	 1.013999013010487e+001
0	 4.466690000017617e+000	 6.000000000000001e+000	 1.013497893061302e+001
0	 4.533360000018131e+000	 5.333299999983334e+000	 1.019110475913600e+001
0	 4.533360000018133e+000	 5.399969999982151e+000	 1.018512602478996e+001
0	 4.533360000018131e+000	 5.466639999981865e+000	 1.017928191139747e+001
0	 4.533360000018134e+000	 5.533309999982383e+000	 1.017356667794702e+001
0	 4.533360000018132e+000	 5.599979999983599e+000	 1.016797458342716e+001
0	 4.533360000018132e+000	 5.666649999985416e+000	 1.016249988682637e+001
0	 4.533360000018131e+000	 5.733319999987733e+000	 1.015713684713320e+001
0	 4.533360000018132e+000	 5.799989999990448e+000	 1.015187972333615e+001
0	 4.533360000018133e+000	 5.866659999993467e+000	 1.014672277442374e+001
0	 4.533360000018134e+000	 5.933329999996684e+000	 1.014166025938450e+001
0	 4.533360000018132e+000	 6.000000000000000e+000	 1.013668643720694e+001
0	 4.600030000017849e+000	 5.333299999983335e+000	 1.019196456850317e+001
0	 4.600030000017848e+000	 5.399969999982150e+000	 1.018607975822099e+001
0	 4.600030000017849e+000	 5.466639999981867e+000	 1.018031993949438e+001
0	 4.600030000017849e+000	 5.533309999982384e+000	 1.017468030683530e+001
0	 4.600030000017849e+000	 5.599979999983599e+000	 1.016915605475573e+001
0	 4.600030000017848e+000	 5.666649999985417e+000	 1.016374237776762e+001
0	 4.600030000017848e+000	 5.733319999987731e+000	 1.015843447038295e+001
0	 4.600030000017848e+000	 5.799989999990449e+000	 1.015322752711369e+001
0	 4.600030000017849e+000	 5.866659999993467e+000	 1.014811674247181e+001
0	 4.600030000017849e+000	 5.933329999996683e+000	 1.014309731096930e+001
0	 4.600030000017848e+000	 6.000000000000001e+000	 1.013816442711811e+001
0	 4.666700000016667e+000	 5.333299999983335e+000	 1.019260718457272e+001
0	 4.666700000016665e+000	 5.399969999982150e+000	 1.018681857758655e+001
0	 4.666700000016666e+000	 5.466639999981867e+000	 1.018114398082645e+001
0	 4.666700000016665e+000	 5.533309999982382e+000	 1.017557981682203e+001
0	 4.666700000016666e+000	 5.599979999983599e+000	 1.017012250810295e+001
0	 4.666700000016665e+000	 5.666649999985416e+000	 1.016476847719887e+001
0	 4.666700000016666e+000	 5.733319999987732e+000	 1.015951414663940e+001
0	 4.666700000016666e+000	 5.799989999990449e+000	 1.015435593895421e+001
0	 4.666700000016666e+000	 5.866659999993467e+000	 1.014929027667295e+001
0	 4.666700000016667e+000	 5.933329999996684e+000	 1.014431358232526e+001
0	 4.666700000016666e+000	 6.000000000000000e+000	 1.013942227844079e+001
0	 4.000000000000000e+000	 6.000000000000001e+000	 1.011581215741857e+001
0	 4.000000000000000e+000	 6.066670000003314e+000	 1.011103978907755e+001
0	 4.000000000000001e+000	 6.133340000006534e+000	 1.010641337638245e+001
0	 4.000000000000000e+000	 6.200010000009551e+000	 1.010193604395545e+001
0	 4.000000000000001e+000	 6.266680000012268e+000	 1.009761091641870e+001
0	 4.000000000000000e+000	 6.333350000014584e+000	 1.009344111839437e+001
0	 3.999999999999999e+000	 6.400020000016398e+000	 1.008942977450462e+001
0	 4.000000000000000e+000	 6.466690000017617e+000	 1.008558000937164e+001
0	 4.000000000000000e+000	 6.533360000018133e+000	 1.008189494761756e+001
0	 4.000000000000000e+000	 6.600030000017848e+000	 1.007837771386458e+001
0	 4.000000000000000e+000	 6.666700000016665e+000	 1.007503143273486e+001
0	 4.066670000003316e+000	 5.999999999999999e+000	 1.011938886743171e+001
0	 4.066670000003317e+000	 6.066670000003316e+000	 1.011454030044291e+001
0	 4.066670000003316e+000	 6.133340000006532e+000	 1.010984276966371e+001
0	 4.066670000003317e+000	 6.200010000009550e+000	 1.010529885288506e+001
0	 4.066670000003319e+000	 6.266680000012269e+000	 1.010091112789792e+001
0	 4.066670000003316e+000	 6.333350000014583e+000	 1.009668217249323e+001
0	 4.066670000003317e+000	 6.400020000016401e+000	 1.009261456446197e+001
0	 4.066670000003318e+000	 6.466690000017618e+000	 1.008871088159510e+001
0	 4.066670000003317e+000	 6.533360000018134e+000	 1.008497370168358e+001
0	 4.066670000003317e+000	 6.600030000017851e+000	 1.008140560251839e+001
0	 4.066670000003317e+000	 6.666700000016667e+000	 1.007800916189047e+001
0	 4.133340000006532e+000	 6.000000000000000e+000	 1.012267041410211e+001
0	 4.133340000006533e+000	 6.066670000003317e+000	 1.011776953101152e+001
0	 4.133340000006533e+000	 6.133340000006534e+000	 1.011302152225924e+001
0	 4.133340000006533e+000	 6.200010000009551e+000	 1.010842842934495e+001
0	 4.133340000006534e+000	 6.266680000012267e+000	 1.010399229376840e+001
0	 4.133340000006532e+000	 6.333350000014583e+000	 1.009971515702932e+001
0	 4.133340000006535e+000	 6.400020000016401e+000	 1.009559906062743e+001
0	 4.133340000006535e+000	 6.466690000017617e+000	 1.009164604606245e+001
0	 4.133340000006532e+000	 6.533360000018134e+000	 1.008785815483413e+001
0	 4.133340000006533e+000	 6.600030000017849e+000	 1.008423742844219e+001
0	 4.133340000006534e+000	 6.666700000016666e+000	 1.008078590838636e+001
0	 4.200010000009550e+000	 5.999999999999998e+000	 1.012566617552408e+001
0	 4.200010000009548e+000	 6.066670000003315e+000	 1.012073408102086e+001
0	 4.200010000009550e+000	 6.133340000006534e+000	 1.011595396936782e+001
0	 4.200010000009550e+000	 6.200010000009553e+000	 1.011132735631343e+001
0	 4.200010000009551e+000	 6.266680000012268e+000	 1.010685575760615e+001
0	 4.200010000009550e+000	 6.333350000014583e+000	 1.010254068899443e+001
0	 4.200010000009551e+000	 6.400020000016402e+000	 1.009838366622675e+001
0	 4.200010000009550e+000	 6.466690000017617e+000	 1.009438620505158e+001
0	 4.200010000009551e+000	 6.533360000018136e+000	 1.009054982121739e+001
0	 4.200010000009550e+000	 6.600030000017851e+000	 1.008687603047263e+001
0	 4.200010000009549e+000	 6.666700000016665e+000	 1.008336634856580e+001
0	 4.266680000012267e+000	 6.000000000000000e+000	 1.012838552979186e+001
0	 4.266680000012265e+000	 6.066670000003316e+000	 1.012344055070834e+001
0	 4.266680000012268e+000	 6.133340000006534e+000	 1.011864444618825e+001
0	 4.266680000012267e+000	 6.200010000009549e+000	 1.011399821676877e+001
0	 4.266680000012268e+000	 6.266680000012267e+000	 1.010950286298707e+001
0	 4.266680000012268e+000	 6.333350000014584e+000	 1.010515938538031e+001
0	 4.266680000012268e+000	 6.400020000016403e+000	 1.010096878448568e+001
0	 4.266680000012266e+000	 6.466690000017617e+000	 1.009693206084036e+001
0	 4.266680000012266e+000	 6.533360000018135e+000	 1.009305021498154e+001
0	 4.266680000012266e+000	 6.600030000017849e+000	 1.008932424744637e+001
0	 4.266680000012267e+000	 6.666700000016666e+000	 1.008575515877205e+001
0	 4.333350000014585e+000	 6.000000000000001e+000	 1.013083785499976e+001
0	 4.333350000014583e+000	 6.066670000003317e+000	 1.012589554031145e+001
0	 4.333350000014582e+000	 6.133340000006533e+000	 1.012109728791934e+001
0	 4.333350000014582e+000	 6.200010000009551e+000	 1.011644359368926e+001
0	 4.333350000014584e+000	 6.266680000012268e+000	 1.011193495348710e+001
0	 4.333350000014582e+000	 6.333350000014582e+000	 1.010757186317873e+001
0	 4.333350000014584e+000	 6.400020000016401e+000	 1.010335481862996e+001
0	 4.333350000014582e+000	 6.466690000017615e+000	 1.009928431570668e+001
0	 4.333350000014582e+000	 6.533360000018134e+000	 1.009536085027474e+001
0	 4.333350000014584e+000	 6.600030000017850e+000	 1.009158491820001e+001
0	 4.333350000014582e+000	 6.666700000016665e+000	 1.008795701534837e+001
0	 4.400020000016400e+000	 6.000000000000000e+000	 1.013303252924206e+001
0	 4.400020000016399e+000	 6.066670000003317e+000	 1.012810565006764e+001
0	 4.400020000016400e+000	 6.133340000006532e+000	 1.012331682975986e+001
0	 4.400020000016400e+000	 6.200010000009550e+000	 1.011866607005323e+001
0	 4.400020000016399e+000	 6.266680000012267e+000	 1.011415337268226e+001
0	 4.400020000016399e+000	 6.333350000014584e+000	 1.010977873938145e+001
0	 4.400020000016400e+000	 6.400020000016399e+000	 1.010554217188533e+001
0	 4.400020000016398e+000	 6.466690000017617e+000	 1.010144367192840e+001
0	 4.400020000016401e+000	 6.533360000018135e+000	 1.009748324124520e+001
0	 4.400020000016400e+000	 6.600030000017850e+000	 1.009366088157023e+001
0	 4.400020000016401e+000	 6.666700000016666e+000	 1.008997659463801e+001
0	 4.466690000017617e+000	 6.000000000000001e+000	 1.013497893061302e+001
0	 4.466690000017616e+000	 6.066670000003316e+000	 1.013007748021436e+001
0	 4.466690000017617e+000	 6.133340000006532e+000	 1.012530740690863e+001
0	 4.466690000017617e+000	 6.200010000009551e+000	 1.012066822883893e+001
0	 4.466690000017615e+000	 6.266680000012268e+000	 1.011615946414844e+001
0	 4.466690000017616e+000	 6.333350000014584e+000	 1.011178063098025e+001
0	 4.466690000017616e+000	 6.400020000016401e+000	 1.010753124747756e+001
0	 4.466690000017616e+000	 6.466690000017617e+000	 1.010341083178345e+001
0	 4.466690000017616e+000	 6.533360000018133e+000	 1.009941890204111e+001
0	 4.466690000017617e+000	 6.600030000017851e+000	 1.009555497639366e+001
0	 4.466690000017615e+000	 6.666700000016665e+000	 1.009181857298425e+001
0	 4.533360000018132e+000	 6.000000000000000e+000	 1.013668643720694e+001
0	 4.533360000018132e+000	 6.066670000003316e+000	 1.013181763098908e+001
0	 4.533360000018132e+000	 6.133340000006533e+000	 1.012707335456443e+001
0	 4.533360000018130e+000	 6.200010000009550e+000	 1.012245265302468e+001
0	 4.533360000018131e+000	 6.266680000012268e+000	 1.011795457146160e+001
0	 4.533360000018131e+000	 6.333350000014584e+000	 1.011357815496691e+001
0	 4.533360000018133e+000	 6.400020000016402e+000	 1.010932244863237e+001
0	 4.533360000018133e+000	 6.466690000017616e+000	 1.010518649754969e+001
0	 4.533360000018132e+000	 6.533360000018135e+000	 1.010116934681062e+001
0	 4.533360000018134e+000	 6.600030000017852e+000	 1.009727004150693e+001
0	 4.533360000018133e+000	 6.666700000016666e+000	 1.009348762673034e+001
0	 4.600030000017848e+000	 6.000000000000001e+000	 1.013816442711811e+001
0	 4.600030000017849e+000	 6.066670000003317e+000	 1.013333270262928e+001
0	 4.600030000017849e+000	 6.133340000006534e+000	 1.012861900792606e+001
0	 4.600030000017847e+000	 6.200010000009550e+000	 1.012402192558877e+001
0	 4.600030000017848e+000	 6.266680000012268e+000	 1.011954003819772e+001
0	 4.600030000017849e+000	 6.333350000014584e+000	 1.011517192833320e+001
0	 4.600030000017848e+000	 6.400020000016399e+000	 1.011091617857552e+001
0	 4.600030000017848e+000	 6.466690000017617e+000	 1.010677137150501e+001
0	 4.600030000017850e+000	 6.533360000018135e+000	 1.010273608970196e+001
0	 4.600030000017848e+000	 6.600030000017850e+000	 1.009880891574671e+001
0	 4.600030000017849e+000	 6.666700000016666e+000	 1.009498843221955e+001
0	 4.666700000016666e+000	 6.000000000000000e+000	 1.013942227844079e+001
0	 4.666700000016665e+000	 6.066670000003318e+000	 1.013462929537239e+001
0	 4.666700000016667e+000	 6.133340000006533e+000	 1.012994870219234e+001
0	 4.666700000016666e+000	 6.200010000009551e+000	 1.012537862950950e+001
0	 4.666700000016667e+000	 6.266680000012267e+000	 1.012091720793274e+001
0	 4.666700000016667e+000	 6.333350000014587e+000	 1.011656256807087e+001
0	 4.666700000016666e+000	 6.400020000016402e+000	 1.011231284053278e+001
0	 4.666700000016667e+000	 6.466690000017617e+000	 1.010816615592730e+001
0	 4.666700000016666e+000	 6.533360000018133e+000	 1.010412064486329e+001
0	 4.666700000016666e+000	 6.600030000017847e+000	 1.010017443794963e+001
0	 4.666700000016666e+000	 6.666700000016667e+000	 1.009632566579515e+001
0	 4.000000000000000e+000	 6.666700000016665e+000	 1.007503143273486e+001
0	 4.000000000000001e+000	 6.733360000014532e+000	 1.007181690015741e+001
0	 4.000000000000000e+000	 6.800020000011598e+000	 1.006869103892265e+001
0	 4.000000000000000e+000	 6.866680000008068e+000	 1.006565263076507e+001
0	 4.000000000000001e+000	 6.933340000004132e+000	 1.006270045741915e+001
0	 4.000000000000000e+000	 6.999999999999998e+000	 1.005983330061936e+001
0	 4.000000000000000e+000	 7.066659999995868e+000	 1.005704994210018e+001
0	 4.000000000000000e+000	 7.133319999991934e+000	 1.005434916359607e+001
0	 4.000000000000001e+000	 7.199979999988402e+000	 1.005172974684150e+001
0	 4.000000000000001e+000	 7.266639999985467e+000	 1.004919047357095e+001
0	 4.000000000000001e+000	 7.333299999983335e+000	 1.004673012551887e+001
0	 4.066670000003317e+000	 6.666700000016667e+000	 1.007800916189047e+001
0	 4.066670000003318e+000	 6.733360000014534e+000	 1.007474052798153e+001
0	 4.066670000003316e+000	 6.800020000011600e+000	 1.007155273243272e+001
0	 4.066670000003319e+000	 6.866680000008067e+000	 1.006844516753825e+001
0	 4.066670000003318e+000	 6.933340000004136e+000	 1.006541722559225e+001
0	 4.066670000003318e+000	 7.000000000000002e+000	 1.006246829888894e+001
0	 4.066670000003319e+000	 7.066659999995869e+000	 1.005959777972244e+001
0	 4.066670000003319e+000	 7.133319999991935e+000	 1.005680506038695e+001
0	 4.066670000003316e+000	 7.199979999988399e+000	 1.005408953317661e+001
0	 4.066670000003317e+000	 7.266639999985467e+000	 1.005145059038561e+001
0	 4.066670000003317e+000	 7.333299999983334e+000	 1.004888762430810e+001
0	 4.133340000006534e+000	 6.666700000016666e+000	 1.008078590838636e+001
0	 4.133340000006534e+000	 6.733360000014533e+000	 1.007745817295633e+001
0	 4.133340000006533e+000	 6.800020000011598e+000	 1.007420636542948e+001
0	 4.133340000006535e+000	 6.866680000008068e+000	 1.007103038951772e+001
0	 4.133340000006534e+000	 6.933340000004133e+000	 1.006793014893299e+001
0	 4.133340000006534e+000	 6.999999999999997e+000	 1.006490554738716e+001
0	 4.133340000006534e+000	 7.066659999995868e+000	 1.006195648859218e+001
0	 4.133340000006534e+000	 7.133319999991934e+000	 1.005908287625993e+001
0	 4.133340000006533e+000	 7.199979999988399e+000	 1.005628461410236e+001
0	 4.133340000006533e+000	 7.266639999985467e+000	 1.005356160583134e+001
0	 4.133340000006533e+000	 7.333299999983331e+000	 1.005091375515879e+001
0	 4.200010000009549e+000	 6.666700000016665e+000	 1.008336634856580e+001
0	 4.200010000009550e+000	 6.733360000014530e+000	 1.007997638410929e+001
0	 4.200010000009550e+000	 6.800020000011600e+000	 1.007665991778969e+001
0	 4.200010000009551e+000	 6.866680000008067e+000	 1.007341726559472e+001
0	 4.200010000009551e+000	 6.933340000004134e+000	 1.007024874351208e+001
0	 4.200010000009552e+000	 7.000000000000001e+000	 1.006715466752950e+001
0	 4.200010000009552e+000	 7.066659999995866e+000	 1.006413535363464e+001
0	 4.200010000009551e+000	 7.133319999991935e+000	 1.006119111781523e+001
0	 4.200010000009550e+000	 7.199979999988400e+000	 1.005832227605896e+001
0	 4.200010000009550e+000	 7.266639999985467e+000	 1.005552914435352e+001
0	 4.200010000009550e+000	 7.333299999983334e+000	 1.005281203868660e+001
0	 4.266680000012267e+000	 6.666700000016666e+000	 1.008575515877205e+001
0	 4.266680000012267e+000	 6.733360000014534e+000	 1.008230171046783e+001
0	 4.266680000012266e+000	 6.800020000011599e+000	 1.007892136939008e+001
0	 4.266680000012267e+000	 6.866680000008067e+000	 1.007561476466041e+001
0	 4.266680000012266e+000	 6.933340000004132e+000	 1.007238252540032e+001
0	 4.266680000012266e+000	 6.999999999999997e+000	 1.006922528073137e+001
0	 4.266680000012266e+000	 7.066659999995866e+000	 1.006614365977507e+001
0	 4.266680000012268e+000	 7.133319999991934e+000	 1.006313829165299e+001
0	 4.266680000012266e+000	 7.199979999988400e+000	 1.006020980548663e+001
0	 4.266680000012268e+000	 7.266639999985468e+000	 1.005735883039755e+001
0	 4.266680000012265e+000	 7.333299999983333e+000	 1.005458599550726e+001
0	 4.333350000014582e+000	 6.666700000016665e+000	 1.008795701534837e+001
0	 4.333350000014582e+000	 6.733360000014533e+000	 1.008444070105939e+001
0	 4.333350000014582e+000	 6.800020000011600e+000	 1.008099870010746e+001
0	 4.333350000014583e+000	 6.866680000008066e+000	 1.007763185560599e+001
0	 4.333350000014583e+000	 6.933340000004134e+000	 1.007434101066844e+001
0	 4.333350000014583e+000	 7.000000000000000e+000	 1.007112700840820e+001
0	 4.333350000014582e+000	 7.066659999995867e+000	 1.006799069193871e+001
0	 4.333350000014584e+000	 7.133319999991933e+000	 1.006493290437336e+001
0	 4.333350000014582e+000	 7.199979999988400e+000	 1.006195448882559e+001
0	 4.333350000014583e+000	 7.266639999985467e+000	 1.005905628840881e+001
0	 4.333350000014583e+000	 7.333299999983334e+000	 1.005623914623642e+001
0	 4.400020000016401e+000	 6.666700000016666e+000	 1.008997659463801e+001
0	 4.400020000016400e+000	 6.733360000014531e+000	 1.008639990491145e+001
0	 4.400020000016399e+000	 6.800020000011599e+000	 1.008289988981855e+001
0	 4.400020000016398e+000	 6.866680000008064e+000	 1.007947750732270e+001
0	 4.400020000016400e+000	 6.933340000004134e+000	 1.007613371538720e+001
0	 4.400020000016399e+000	 6.999999999999999e+000	 1.007286947197545e+001
0	 4.400020000016400e+000	 7.066659999995868e+000	 1.006968573505077e+001
0	 4.400020000016400e+000	 7.133319999991934e+000	 1.006658346257654e+001
0	 4.400020000016399e+000	 7.199979999988400e+000	 1.006356361251607e+001
0	 4.400020000016401e+000	 7.266639999985467e+000	 1.006062714283271e+001
0	 4.400020000016400e+000	 7.333299999983333e+000	 1.005777501148980e+001
0	 4.466690000017615e+000	 6.666700000016665e+000	 1.009181857298425e+001
0	 4.466690000017616e+000	 6.733360000014533e+000	 1.008818587105145e+001
0	 4.466690000017618e+000	 6.800020000011601e+000	 1.008463291840014e+001
0	 4.466690000017615e+000	 6.866680000008068e+000	 1.008116068870168e+001
0	 4.466690000017615e+000	 6.933340000004133e+000	 1.007777015562738e+001
0	 4.466690000017617e+000	 7.000000000000000e+000	 1.007446229284854e+001
0	 4.466690000017615e+000	 7.066659999995867e+000	 1.007123807403655e+001
0	 4.466690000017616e+000	 7.133319999991935e+000	 1.006809847286268e+001
0	 4.466690000017616e+000	 7.199979999988399e+000	 1.006504446299827e+001
0	 4.466690000017615e+000	 7.266639999985466e+000	 1.006207701811463e+001
0	 4.466690000017616e+000	 7.333299999983335e+000	 1.005919711188307e+001
0	 4.533360000018133e+000	 6.666700000016666e+000	 1.009348762673035e+001
0	 4.533360000018131e+000	 6.733360000014534e+000	 1.008980514850684e+001
0	 4.533360000018134e+000	 6.800020000011600e+000	 1.008620576572900e+001
0	 4.533360000018134e+000	 6.866680000008068e+000	 1.008269036863416e+001
0	 4.533360000018132e+000	 6.933340000004134e+000	 1.007925984745969e+001
0	 4.533360000018132e+000	 6.999999999999998e+000	 1.007591509244294e+001
0	 4.533360000018133e+000	 7.066659999995868e+000	 1.007265699382124e+001
0	 4.533360000018133e+000	 7.133319999991935e+000	 1.006948644183195e+001
0	 4.533360000018132e+000	 7.199979999988400e+000	 1.006640432671241e+001
0	 4.533360000018132e+000	 7.266639999985467e+000	 1.006341153869996e+001
0	 4.533360000018132e+000	 7.333299999983335e+000	 1.006050896803194e+001
0	 4.600030000017849e+000	 6.666700000016666e+000	 1.009498843221956e+001
0	 4.600030000017850e+000	 6.733360000014533e+000	 1.009126428630508e+001
0	 4.600030000017849e+000	 6.800020000011599e+000	 1.008762641168186e+001
0	 4.600030000017849e+000	 6.866680000008067e+000	 1.008407551601135e+001
0	 4.600030000017849e+000	 6.933340000004133e+000	 1.008061230695493e+001
0	 4.600030000017849e+000	 6.999999999999999e+000	 1.007723749217405e+001
0	 4.600030000017848e+000	 7.066659999995867e+000	 1.007395177933011e+001
0	 4.600030000017849e+000	 7.133319999991935e+000	 1.007075587608454e+001
0	 4.600030000017849e+000	 7.199979999988402e+000	 1.006765049009873e+001
0	 4.600030000017848e+000	 7.266639999985467e+000	 1.006463632903411e+001
0	 4.600030000017849e+000	 7.333299999983334e+000	 1.006171410055207e+001
0	 4.666700000016666e+000	 6.666700000016667e+000	 1.009632566579515e+001
0	 4.666700000016666e+000	 6.733360000014533e+000	 1.009256983347362e+001
0	 4.666700000016665e+000	 6.800020000011599e+000	 1.008890283613553e+001
0	 4.666700000016666e+000	 6.866680000008066e+000	 1.008532509972442e+001
0	 4.666700000016666e+000	 6.933340000004132e+000	 1.008183705018385e+001
0	 4.666700000016666e+000	 6.999999999999999e+000	 1.007843911345733e+001
0	 4.666700000016666e+000	 7.066659999995867e+000	 1.007513171548841e+001
0	 4.666700000016667e+000	 7.133319999991935e+000	 1.007191528222061e+001
0	 4.666700000016666e+000	 7.199979999988400e+000	 1.006879023959745e+001
0	 4.666700000016667e+000	 7.266639999985467e+000	 1.006575701356246e+001
0	 4.666700000016665e+000	 7.333299999983333e+000	 1.006281603005917e+001
0	 4.000000000000001e+000	 7.333299999983335e+000	 1.004673012551887e+001
0	 4.000000000000001e+000	 7.399969999982151e+000	 1.004434543814801e+001
0	 4.000000000000000e+000	 7.466639999981866e+000	 1.004203613382880e+001
0	 4.000000000000000e+000	 7.533309999982384e+000	 1.003980438496705e+001
0	 4.000000000000000e+000	 7.599979999983599e+000	 1.003765236396858e+001
0	 4.000000000000001e+000	 7.666649999985416e+000	 1.003558224323920e+001
0	 4.000000000000000e+000	 7.733319999987733e+000	 1.003359619518477e+001
0	 4.000000000000000e+000	 7.799989999990448e+000	 1.003169639221108e+001
0	 4.000000000000000e+000	 7.866659999993465e+000	 1.002988500672397e+001
0	 4.000000000000000e+000	 7.933329999996684e+000	 1.002816421112927e+001
0	 4.000000000000000e+000	 7.999999999999999e+000	 1.002653617783277e+001
0	 4.066670000003317e+000	 7.333299999983334e+000	 1.004888762430810e+001
0	 4.066670000003318e+000	 7.399969999982152e+000	 1.004640302401093e+001
0	 4.066670000003317e+000	 7.466639999981867e+000	 1.004400118661182e+001
0	 4.066670000003317e+000	 7.533309999982385e+000	 1.004168338003639e+001
0	 4.066670000003317e+000	 7.599979999983600e+000	 1.003945087221027e+001
0	 4.066670000003317e+000	 7.666649999985415e+000	 1.003730493105913e+001
0	 4.066670000003318e+000	 7.733319999987733e+000	 1.003524682450858e+001
0	 4.066670000003318e+000	 7.799989999990450e+000	 1.003327782048427e+001
0	 4.066670000003316e+000	 7.866659999993468e+000	 1.003139918691185e+001
0	 4.066670000003318e+000	 7.933329999996684e+000	 1.002961219171696e+001
0	 4.066670000003316e+000	 7.999999999999998e+000	 1.002791810282524e+001
0	 4.133340000006533e+000	 7.333299999983331e+000	 1.005091375515879e+001
0	 4.133340000006533e+000	 7.399969999982151e+000	 1.004834658340221e+001
0	 4.133340000006533e+000	 7.466639999981865e+000	 1.004586678244525e+001
0	 4.133340000006533e+000	 7.533309999982381e+000	 1.004347483709475e+001
0	 4.133340000006533e+000	 7.599979999983600e+000	 1.004117123215751e+001
0	 4.133340000006534e+000	 7.666649999985416e+000	 1.003895645244039e+001
0	 4.133340000006534e+000	 7.733319999987733e+000	 1.003683098275023e+001
0	 4.133340000006532e+000	 7.799989999990447e+000	 1.003479530789385e+001
0	 4.133340000006533e+000	 7.866659999993467e+000	 1.003284991267806e+001
0	 4.133340000006533e+000	 7.933329999996684e+000	 1.003099528190974e+001
0	 4.133340000006533e+000	 7.999999999999998e+000	 1.002923190039572e+001
0	 4.200010000009550e+000	 7.333299999983334e+000	 1.005281203868660e+001
0	 4.200010000009550e+000	 7.399969999982148e+000	 1.005017749923324e+001
0	 4.200010000009551e+000	 7.466639999981867e+000	 1.004763254131949e+001
0	 4.200010000009551e+000	 7.533309999982384e+000	 1.004517698799476e+001
0	 4.200010000009551e+000	 7.599979999983600e+000	 1.004281066230843e+001
0	 4.200010000009550e+000	 7.666649999985415e+000	 1.004053338730992e+001
0	 4.200010000009551e+000	 7.733319999987732e+000	 1.003834498604862e+001
0	 4.200010000009550e+000	 7.799989999990451e+000	 1.003624528157392e+001
0	 4.200010000009550e+000	 7.866659999993466e+000	 1.003423409693525e+001
0	 4.200010000009549e+000	 7.933329999996683e+000	 1.003231125518198e+001
0	 4.200010000009550e+000	 8.000000000000000e+000	 1.003047657936354e+001
0	 4.266680000012265e+000	 7.333299999983333e+000	 1.005458599550726e+001
0	 4.266680000012266e+000	 7.399969999982150e+000	 1.005189715441547e+001
0	 4.266680000012266e+000	 7.466639999981865e+000	 1.004929808322496e+001
0	 4.266680000012267e+000	 7.533309999982383e+000	 1.004678806458908e+001
0	 4.266680000012268e+000	 7.599979999983600e+000	 1.004436638116118e+001
0	 4.266680000012268e+000	 7.666649999985416e+000	 1.004203231559457e+001
0	 4.266680000012267e+000	 7.733319999987732e+000	 1.003978515054259e+001
0	 4.266680000012266e+000	 7.799989999990448e+000	 1.003762416865861e+001
0	 4.266680000012268e+000	 7.866659999993467e+000	 1.003554865259597e+001
0	 4.266680000012267e+000	 7.933329999996684e+000	 1.003355788500802e+001
0	 4.266680000012268e+000	 8.000000000000000e+000	 1.003165114854807e+001
0	 4.333350000014583e+000	 7.333299999983334e+000	 1.005623914623642e+001
0	 4.333350000014583e+000	 7.399969999982148e+000	 1.005350693186031e+001
0	 4.333350000014582e+000	 7.466639999981867e+000	 1.005086302815209e+001
0	 4.333350000014583e+000	 7.533309999982384e+000	 1.004830629873039e+001
0	 4.333350000014584e+000	 7.599979999983599e+000	 1.004583560721387e+001
0	 4.333350000014584e+000	 7.666649999985417e+000	 1.004344981722121e+001
0	 4.333350000014583e+000	 7.733319999987733e+000	 1.004114779237106e+001
0	 4.333350000014582e+000	 7.799989999990448e+000	 1.003892839628205e+001
0	 4.333350000014583e+000	 7.866659999993468e+000	 1.003679049257289e+001
0	 4.333350000014583e+000	 7.933329999996683e+000	 1.003473294486220e+001
0	 4.333350000014584e+000	 8.000000000000000e+000	 1.003275461676867e+001
0	 4.400020000016400e+000	 7.333299999983333e+000	 1.005777501148980e+001
0	 4.400020000016400e+000	 7.399969999982149e+000	 1.005500821447921e+001
0	 4.400020000016401e+000	 7.466639999981867e+000	 1.005232699609126e+001
0	 4.400020000016399e+000	 7.533309999982383e+000	 1.004972992227130e+001
0	 4.400020000016400e+000	 7.599979999983600e+000	 1.004721555896469e+001
0	 4.400020000016399e+000	 7.666649999985414e+000	 1.004478247211677e+001
0	 4.400020000016399e+000	 7.733319999987733e+000	 1.004242922767288e+001
0	 4.400020000016400e+000	 7.799989999990449e+000	 1.004015439157836e+001
0	 4.400020000016401e+000	 7.866659999993468e+000	 1.003795652977861e+001
0	 4.400020000016398e+000	 7.933329999996681e+000	 1.003583420821893e+001
0	 4.400020000016399e+000	 7.999999999999999e+000	 1.003378599284470e+001
0	 4.466690000017616e+000	 7.333299999983335e+000	 1.005919711188307e+001
0	 4.466690000017616e+000	 7.399969999982149e+000	 1.005640238518356e+001
0	 4.466690000017616e+000	 7.466639999981865e+000	 1.005368960703290e+001
0	 4.466690000017615e+000	 7.533309999982382e+000	 1.005105716706449e+001
0	 4.466690000017616e+000	 7.599979999983599e+000	 1.004850345491175e+001
0	 4.466690000017617e+000	 7.666649999985417e+000	 1.004602686020808e+001
0	 4.466690000017615e+000	 7.733319999987733e+000	 1.004362577258692e+001
0	 4.466690000017616e+000	 7.799989999990450e+000	 1.004129858168166e+001
0	 4.466690000017617e+000	 7.866659999993466e+000	 1.003904367712573e+001
0	 4.466690000017616e+000	 7.933329999996684e+000	 1.003685944855254e+001
0	 4.466690000017617e+000	 8.000000000000000e+000	 1.003474428559551e+001
0	 4.533360000018132e+000	 7.333299999983335e+000	 1.006050896803194e+001
0	 4.533360000018132e+000	 7.399969999982149e+000	 1.005769082688482e+001
0	 4.533360000018132e+000	 7.466639999981865e+000	 1.005495048096742e+001
0	 4.533360000018134e+000	 7.533309999982383e+000	 1.005228626496261e+001
0	 4.533360000018132e+000	 7.599979999983598e+000	 1.004969651355320e+001
0	 4.533360000018131e+000	 7.666649999985417e+000	 1.004717956142206e+001
0	 4.533360000018131e+000	 7.733319999987732e+000	 1.004473374325206e+001
0	 4.533360000018131e+000	 7.799989999990449e+000	 1.004235739372606e+001
0	 4.533360000018133e+000	 7.866659999993465e+000	 1.004004884752687e+001
0	 4.533360000018134e+000	 7.933329999996683e+000	 1.003780643933739e+001
0	 4.533360000018131e+000	 8.000000000000000e+000	 1.003562850384046e+001
0	 4.600030000017849e+000	 7.333299999983334e+000	 1.006171410055207e+001
0	 4.600030000017848e+000	 7.399969999982149e+000	 1.005887492249440e+001
0	 4.600030000017851e+000	 7.466639999981866e+000	 1.005610923788525e+001
0	 4.600030000017848e+000	 7.533309999982384e+000	 1.005341544781829e+001
0	 4.600030000017848e+000	 7.599979999983599e+000	 1.005079195338719e+001
0	 4.600030000017848e+000	 7.666649999985416e+000	 1.004823715568560e+001
0	 4.600030000017848e+000	 7.733319999987732e+000	 1.004574945580720e+001
0	 4.600030000017848e+000	 7.799989999990448e+000	 1.004332725484568e+001
0	 4.600030000017849e+000	 7.866659999993466e+000	 1.004096895389467e+001
0	 4.600030000017848e+000	 7.933329999996684e+000	 1.003867295404785e+001
0	 4.600030000017850e+000	 8.000000000000000e+000	 1.003643765639891e+001
0	 4.666700000016665e+000	 7.333299999983333e+000	 1.006281603005917e+001
0	 4.666700000016665e+000	 7.399969999982149e+000	 1.005995605492374e+001
0	 4.666700000016666e+000	 7.466639999981866e+000	 1.005716549777680e+001
0	 4.666700000016665e+000	 7.533309999982382e+000	 1.005444294748422e+001
0	 4.666700000016666e+000	 7.599979999983599e+000	 1.005178699291186e+001
0	 4.666700000016667e+000	 7.666649999985417e+000	 1.004919622292559e+001
0	 4.666700000016667e+000	 7.733319999987733e+000	 1.004666922639122e+001
0	 4.666700000016665e+000	 7.799989999990450e+000	 1.004420459217464e+001
0	 4.666700000016665e+000	 7.866659999993466e+000	 1.004180090914172e+001
0	 4.666700000016666e+000	 7.933329999996682e+000	 1.003945676615829e+001
0	 4.666700000016665e+000	 7.999999999999998e+000	 1.003717075209022e+001
0	 4.000000000000000e+000	 7.999999999999999e+000	 1.002653617783277e+001
0	 4.000000000000001e+000	 8.066670000003319e+000	 1.002497781267045e+001
0	 4.000000000000001e+000	 8.133340000006536e+000	 1.002346359482726e+001
0	 4.000000000000002e+000	 8.200010000009552e+000	 1.002199205673266e+001
0	 4.000000000000000e+000	 8.266680000012267e+000	 1.002056173081613e+001
0	 4.000000000000000e+000	 8.333350000014585e+000	 1.001917114950709e+001
0	 4.000000000000000e+000	 8.400020000016399e+000	 1.001781884523502e+001
0	 4.000000000000000e+000	 8.466690000017618e+000	 1.001650335042934e+001
0	 4.000000000000001e+000	 8.533360000018135e+000	 1.001522319751954e+001
0	 4.000000000000000e+000	 8.600030000017847e+000	 1.001397691893506e+001
0	 4.000000000000000e+000	 8.666700000016666e+000	 1.001276304710536e+001
0	 4.066670000003316e+000	 7.999999999999998e+000	 1.002791810282524e+001
0	 4.066670000003318e+000	 8.066670000003319e+000	 1.002629204493315e+001
0	 4.066670000003316e+000	 8.133340000006532e+000	 1.002470767435149e+001
0	 4.066670000003317e+000	 8.200010000009550e+000	 1.002316405642746e+001
0	 4.066670000003317e+000	 8.266680000012268e+000	 1.002166025650827e+001
0	 4.066670000003318e+000	 8.333350000014583e+000	 1.002019533994116e+001
0	 4.066670000003318e+000	 8.400020000016403e+000	 1.001876837207331e+001
0	 4.066670000003317e+000	 8.466690000017618e+000	 1.001737841825193e+001
0	 4.066670000003316e+000	 8.533360000018135e+000	 1.001602454382425e+001
0	 4.066670000003316e+000	 8.600030000017849e+000	 1.001470581413746e+001
0	 4.066670000003317e+000	 8.666700000016668e+000	 1.001342129453880e+001
0	 4.133340000006533e+000	 7.999999999999998e+000	 1.002923190039572e+001
0	 4.133340000006533e+000	 8.066670000003317e+000	 1.002753496647140e+001
0	 4.133340000006533e+000	 8.133340000006534e+000	 1.002587901865789e+001
0	 4.133340000006533e+000	 8.200010000009549e+000	 1.002426355204054e+001
0	 4.133340000006534e+000	 8.266680000012268e+000	 1.002268806170472e+001
0	 4.133340000006533e+000	 8.333350000014583e+000	 1.002115204273575e+001
0	 4.133340000006534e+000	 8.400020000016401e+000	 1.001965499021904e+001
0	 4.133340000006534e+000	 8.466690000017616e+000	 1.001819639923989e+001
0	 4.133340000006534e+000	 8.533360000018135e+000	 1.001677576488369e+001
0	 4.133340000006533e+000	 8.600030000017847e+000	 1.001539258223578e+001
0	 4.133340000006534e+000	 8.666700000016665e+000	 1.001404634638153e+001
0	 4.200010000009550e+000	 8.000000000000000e+000	 1.003047657936354e+001
0	 4.200010000009548e+000	 8.066670000003319e+000	 1.002870688025860e+001
0	 4.200010000009550e+000	 8.133340000006534e+000	 1.002697896770882e+001
0	 4.200010000009551e+000	 8.200010000009552e+000	 1.002529266335810e+001
0	 4.200010000009550e+000	 8.266680000012265e+000	 1.002364778885031e+001
0	 4.200010000009550e+000	 8.333350000014583e+000	 1.002204416582934e+001
0	 4.200010000009550e+000	 8.400020000016401e+000	 1.002048161593909e+001
0	 4.200010000009552e+000	 8.466690000017620e+000	 1.001895996082345e+001
0	 4.200010000009550e+000	 8.533360000018133e+000	 1.001747902212629e+001
0	 4.200010000009550e+000	 8.600030000017847e+000	 1.001603862149152e+001
0	 4.200010000009550e+000	 8.666700000016666e+000	 1.001463858056303e+001
0	 4.266680000012268e+000	 8.000000000000000e+000	 1.003165114854807e+001
0	 4.266680000012268e+000	 8.066670000003317e+000	 1.002980808926817e+001
0	 4.266680000012268e+000	 8.133340000006534e+000	 1.002800886146665e+001
0	 4.266680000012267e+000	 8.200010000009550e+000	 1.002625351016630e+001
0	 4.266680000012268e+000	 8.266680000012268e+000	 1.002454208038992e+001
0	 4.266680000012268e+000	 8.333350000014582e+000	 1.002287461716034e+001
0	 4.266680000012268e+000	 8.400020000016403e+000	 1.002125116550036e+001
0	 4.266680000012266e+000	 8.466690000017616e+000	 1.001967177043281e+001
0	 4.266680000012268e+000	 8.533360000018137e+000	 1.001813647698048e+001
0	 4.266680000012266e+000	 8.600030000017849e+000	 1.001664533016619e+001
0	 4.266680000012267e+000	 8.666700000016668e+000	 1.001519837501276e+001
0	 4.333350000014584e+000	 8.000000000000000e+000	 1.003275461676867e+001
0	 4.333350000014583e+000	 8.066670000003319e+000	 1.003083889647354e+001
0	 4.333350000014582e+000	 8.133340000006534e+000	 1.002897003989371e+001
0	 4.333350000014582e+000	 8.200010000009550e+000	 1.002714821225129e+001
0	 4.333350000014584e+000	 8.266680000012268e+000	 1.002537357876841e+001
0	 4.333350000014582e+000	 8.333350000014582e+000	 1.002364630466718e+001
0	 4.333350000014584e+000	 8.400020000016401e+000	 1.002196655516974e+001
0	 4.333350000014582e+000	 8.466690000017616e+000	 1.002033449549821e+001
0	 4.333350000014582e+000	 8.533360000018133e+000	 1.001875029087467e+001
0	 4.333350000014583e+000	 8.600030000017849e+000	 1.001721410652129e+001
0	 4.333350000014583e+000	 8.666700000016666e+000	 1.001572610766018e+001
0	 4.400020000016399e+000	 7.999999999999999e+000	 1.003378599284470e+001
0	 4.400020000016399e+000	 8.066670000003317e+000	 1.003179960484813e+001
0	 4.400020000016400e+000	 8.133340000006532e+000	 1.002986384295237e+001
0	 4.400020000016400e+000	 8.200010000009549e+000	 1.002797888939928e+001
0	 4.400020000016400e+000	 8.266680000012267e+000	 1.002614492643068e+001
0	 4.400020000016400e+000	 8.333350000014583e+000	 1.002436213628835e+001
0	 4.400020000016399e+000	 8.400020000016397e+000	 1.002263070121412e+001
0	 4.400020000016399e+000	 8.466690000017618e+000	 1.002095080344983e+001
0	 4.400020000016401e+000	 8.533360000018135e+000	 1.001932262523730e+001
0	 4.400020000016400e+000	 8.600030000017849e+000	 1.001774634881835e+001
0	 4.400020000016401e+000	 8.666700000016666e+000	 1.001622215643479e+001
0	 4.466690000017617e+000	 8.000000000000000e+000	 1.003474428559551e+001
0	 4.466690000017616e+000	 8.066670000003319e+000	 1.003269051736533e+001
0	 4.466690000017617e+000	 8.133340000006534e+000	 1.003069161060502e+001
0	 4.466690000017617e+000	 8.200010000009552e+000	 1.002874766139644e+001
0	 4.466690000017615e+000	 8.266680000012265e+000	 1.002685876582156e+001
0	 4.466690000017617e+000	 8.333350000014587e+000	 1.002502501996223e+001
0	 4.466690000017615e+000	 8.400020000016401e+000	 1.002324651990040e+001
0	 4.466690000017616e+000	 8.466690000017618e+000	 1.002152336171794e+001
0	 4.466690000017616e+000	 8.533360000018135e+000	 1.001985564149679e+001
0	 4.466690000017616e+000	 8.600030000017851e+000	 1.001824345531885e+001
0	 4.466690000017616e+000	 8.666700000016668e+000	 1.001668689926603e+001
0	 4.533360000018131e+000	 8.000000000000000e+000	 1.003562850384046e+001
0	 4.533360000018133e+000	 8.066670000003317e+000	 1.003351193699859e+001
0	 4.533360000018132e+000	 8.133340000006534e+000	 1.003145468281396e+001
0	 4.533360000018130e+000	 8.200010000009549e+000	 1.002945664802895e+001
0	 4.533360000018132e+000	 8.266680000012267e+000	 1.002751773938594e+001
0	 4.533360000018131e+000	 8.333350000014583e+000	 1.002563786362731e+001
0	 4.533360000018133e+000	 8.400020000016399e+000	 1.002381692749544e+001
0	 4.533360000018133e+000	 8.466690000017616e+000	 1.002205483773274e+001
0	 4.533360000018132e+000	 8.533360000018131e+000	 1.002035150108157e+001
0	 4.533360000018133e+000	 8.600030000017849e+000	 1.001870682428431e+001
0	 4.533360000018131e+000	 8.666700000016666e+000	 1.001712071408338e+001
0	 4.600030000017850e+000	 8.000000000000000e+000	 1.003643765639891e+001
0	 4.600030000017848e+000	 8.066670000003315e+000	 1.003426416672133e+001
0	 4.600030000017848e+000	 8.133340000006532e+000	 1.003215439954159e+001
0	 4.600030000017848e+000	 8.200010000009549e+000	 1.003010796908297e+001
0	 4.600030000017849e+000	 8.266680000012267e+000	 1.002812448956868e+001
0	 4.600030000017849e+000	 8.333350000014583e+000	 1.002620357522201e+001
0	 4.600030000017848e+000	 8.400020000016401e+000	 1.002434484026618e+001
0	 4.600030000017850e+000	 8.466690000017618e+000	 1.002254789892444e+001
0	 4.600030000017848e+000	 8.533360000018133e+000	 1.002081236542006e+001
0	 4.600030000017849e+000	 8.600030000017851e+000	 1.001913785397626e+001
0	 4.600030000017849e+000	 8.666700000016668e+000	 1.001752397881630e+001
0	 4.666700000016665e+000	 7.999999999999998e+000	 1.003717075209022e+001
0	 4.666700000016665e+000	 8.066670000003317e+000	 1.003494750950694e+001
0	 4.666700000016666e+000	 8.133340000006532e+000	 1.003279210075027e+001
0	 4.666700000016666e+000	 8.200010000009549e+000	 1.003070374434467e+001
0	 4.666700000016666e+000	 8.266680000012268e+000	 1.002868165881467e+001
0	 4.666700000016667e+000	 8.333350000014585e+000	 1.002672506268479e+001
0	 4.666700000016666e+000	 8.400020000016399e+000	 1.002483317447947e+001
0	 4.666700000016666e+000	 8.466690000017616e+000	 1.002300521272327e+001
0	 4.666700000016666e+000	 8.533360000018133e+000	 1.002124039594068e+001
0	 4.666700000016667e+000	 8.600030000017853e+000	 1.001953794265617e+001
0	 4.666700000016665e+000	 8.666700000016666e+000	 1.001789707139429e+001
0	 4.000000000000000e+000	 8.666700000016666e+000	 1.001276304710536e+001
0	 4.000000000000000e+000	 8.733360002791901e+000	 1.001159460897880e+001
0	 4.000000000000000e+000	 8.800020022230555e+000	 1.001048446880246e+001
0	 4.000000000000000e+000	 8.866680074997040e+000	 1.000943145398061e+001
0	 4.000000000000000e+000	 8.933340177755778e+000	 1.000843439176121e+001
0	 4.000000000000001e+000	 9.000000347171181e+000	 1.000749210923576e+001
0	 4.000000000000000e+000	 9.066660599907667e+000	 1.000660343333945e+001
0	 4.000000000000001e+000	 9.133320952629656e+000	 1.000576719085102e+001
0	 4.000000000000001e+000	 9.199981422001560e+000	 1.000498220839291e+001
0	 4.000000000000001e+000	 9.266642024687796e+000	 1.000424731243106e+001
0	 4.000000000000000e+000	 9.333302777352783e+000	 1.000356132927509e+001
0	 4.066670000003317e+000	 8.666700000016668e+000	 1.001342129453880e+001
0	 4.066670000003318e+000	 8.733360002791907e+000	 1.001218660655798e+001
0	 4.066670000003317e+000	 8.800020022230557e+000	 1.001101637506836e+001
0	 4.066670000003317e+000	 8.866680074997040e+000	 1.000990874075621e+001
0	 4.066670000003319e+000	 8.933340177755778e+000	 1.000886184414182e+001
0	 4.066670000003318e+000	 9.000000347171183e+000	 1.000787382557939e+001
0	 4.066670000003317e+000	 9.066660599907669e+000	 1.000694282525710e+001
0	 4.066670000003317e+000	 9.133320952629655e+000	 1.000606698319708e+001
0	 4.066670000003317e+000	 9.199981422001560e+000	 1.000524443925539e+001
0	 4.066670000003317e+000	 9.266642024687794e+000	 1.000447333312207e+001
0	 4.066670000003317e+000	 9.333302777352783e+000	 1.000375180432108e+001
0	 4.133340000006534e+000	 8.666700000016665e+000	 1.001404634638153e+001
0	 4.133340000006533e+000	 8.733360002791905e+000	 1.001275396216929e+001
0	 4.133340000006533e+000	 8.800020022230553e+000	 1.001153064243747e+001
0	 4.133340000006534e+000	 8.866680074997040e+000	 1.001037394166502e+001
0	 4.133340000006533e+000	 8.933340177755776e+000	 1.000928141415719e+001
0	 4.133340000006534e+000	 9.000000347171183e+000	 1.000825061404547e+001
0	 4.133340000006535e+000	 9.066660599907667e+000	 1.000727909528749e+001
0	 4.133340000006534e+000	 9.133320952629656e+000	 1.000636441166714e+001
0	 4.133340000006533e+000	 9.199981422001560e+000	 1.000550411679454e+001
0	 4.133340000006533e+000	 9.266642024687796e+000	 1.000469576410599e+001
0	 4.133340000006535e+000	 9.333302777352783e+000	 1.000393690686402e+001
0	 4.200010000009550e+000	 8.666700000016666e+000	 1.001463858056303e+001
0	 4.200010000009550e+000	 8.733360002791905e+000	 1.001329600209959e+001
0	 4.200010000009550e+000	 8.800020022230555e+000	 1.001202573975379e+001
0	 4.200010000009550e+000	 8.866680074997040e+000	 1.001082486230844e+001
0	 4.200010000009551e+000	 8.933340177755779e+000	 1.000969043836650e+001
0	 4.200010000009550e+000	 9.000000347171181e+000	 1.000861953635106e+001
0	 4.200010000009551e+000	 9.066660599907671e+000	 1.000760922450532e+001
0	 4.200010000009550e+000	 9.133320952629656e+000	 1.000665657089259e+001
0	 4.200010000009550e+000	 9.199981422001558e+000	 1.000575864339630e+001
0	 4.200010000009550e+000	 9.266642024687796e+000	 1.000491250972001e+001
0	 4.200010000009550e+000	 9.333302777352779e+000	 1.000411523738734e+001
0	 4.266680000012267e+000	 8.666700000016668e+000	 1.001519837501276e+001
0	 4.266680000012268e+000	 8.733360002791903e+000	 1.001381205263576e+001
0	 4.266680000012266e+000	 8.800020022230553e+000	 1.001250013586143e+001
0	 4.266680000012267e+000	 8.866680074997040e+000	 1.001125930828795e+001
0	 4.266680000012266e+000	 8.933340177755779e+000	 1.001008625332892e+001
0	 4.266680000012266e+000	 9.000000347171181e+000	 1.000897765421330e+001
0	 4.266680000012267e+000	 9.066660599907667e+000	 1.000793019398536e+001
0	 4.266680000012266e+000	 9.133320952629655e+000	 1.000694055550481e+001
0	 4.266680000012267e+000	 9.199981422001560e+000	 1.000600542144667e+001
0	 4.266680000012268e+000	 9.266642024687798e+000	 1.000512147430132e+001
0	 4.266680000012267e+000	 9.333302777352785e+000	 1.000428539637451e+001
0	 4.333350000014583e+000	 8.666700000016666e+000	 1.001572610766018e+001
0	 4.333350000014583e+000	 8.733360002791903e+000	 1.001430144006465e+001
0	 4.333350000014582e+000	 8.800020022230555e+000	 1.001295229960441e+001
0	 4.333350000014582e+000	 8.866680074997039e+000	 1.001167508520502e+001
0	 4.333350000014583e+000	 8.933340177755781e+000	 1.001046619560366e+001
0	 4.333350000014583e+000	 9.000000347171181e+000	 1.000932202934926e+001
0	 4.333350000014582e+000	 9.066660599907666e+000	 1.000823898480235e+001
0	 4.333350000014584e+000	 9.133320952629658e+000	 1.000721346013519e+001
0	 4.333350000014582e+000	 9.199981422001557e+000	 1.000624185333162e+001
0	 4.333350000014583e+000	 9.266642024687798e+000	 1.000532056218715e+001
0	 4.333350000014585e+000	 9.333302777352785e+000	 1.000444598430903e+001
0	 4.400020000016401e+000	 8.666700000016666e+000	 1.001622215643479e+001
0	 4.400020000016400e+000	 8.733360002791901e+000	 1.001476349067315e+001
0	 4.400020000016400e+000	 8.800020022230553e+000	 1.001338069982681e+001
0	 4.400020000016401e+000	 8.866680074997042e+000	 1.001206999866104e+001
0	 4.400020000016401e+000	 8.933340177755779e+000	 1.001082760174988e+001
0	 4.400020000016398e+000	 9.000000347171181e+000	 1.000964972347605e+001
0	 4.400020000016399e+000	 9.066660599907667e+000	 1.000853257803106e+001
0	 4.400020000016400e+000	 9.133320952629656e+000	 1.000747237941510e+001
0	 4.400020000016400e+000	 9.199981422001557e+000	 1.000646534143710e+001
0	 4.400020000016400e+000	 9.266642024687796e+000	 1.000550767771473e+001
0	 4.400020000016399e+000	 9.333302777352781e+000	 1.000459560167435e+001
0	 4.466690000017616e+000	 8.666700000016668e+000	 1.001668689926603e+001
0	 4.466690000017615e+000	 8.733360002791899e+000	 1.001519753074813e+001
0	 4.466690000017618e+000	 8.800020022230557e+000	 1.001378380537270e+001
0	 4.466690000017615e+000	 8.866680074997040e+000	 1.001244185425753e+001
0	 4.466690000017616e+000	 8.933340177755776e+000	 1.001116780832677e+001
0	 4.466690000017617e+000	 9.000000347171179e+000	 1.000995779831077e+001
0	 4.466690000017616e+000	 9.066660599907671e+000	 1.000880795474619e+001
0	 4.466690000017617e+000	 9.133320952629656e+000	 1.000771440797592e+001
0	 4.466690000017617e+000	 9.199981422001558e+000	 1.000667328814913e+001
0	 4.466690000017617e+000	 9.266642024687799e+000	 1.000568072522126e+001
0	 4.466690000017616e+000	 9.333302777352783e+000	 1.000473284895393e+001
0	 4.533360000018131e+000	 8.666700000016666e+000	 1.001712071408338e+001
0	 4.533360000018132e+000	 8.733360002791899e+000	 1.001560288657648e+001
0	 4.533360000018134e+000	 8.800020022230559e+000	 1.001416008508612e+001
0	 4.533360000018135e+000	 8.866680074997042e+000	 1.001278845759593e+001
0	 4.533360000018133e+000	 8.933340177755781e+000	 1.001148415189351e+001
0	 4.533360000018134e+000	 9.000000347171181e+000	 1.001024331557053e+001
0	 4.533360000018132e+000	 9.066660599907666e+000	 1.000906209602251e+001
0	 4.533360000018132e+000	 9.133320952629656e+000	 1.000793664044906e+001
0	 4.533360000018132e+000	 9.199981422001558e+000	 1.000686309585368e+001
0	 4.533360000018133e+000	 9.266642024687796e+000	 1.000583760904393e+001
0	 4.533360000018132e+000	 9.333302777352779e+000	 1.000485632663125e+001
0	 4.600030000017849e+000	 8.666700000016668e+000	 1.001752397881630e+001
0	 4.600030000017849e+000	 8.733360002791903e+000	 1.001597888444504e+001
0	 4.600030000017848e+000	 8.800020022230553e+000	 1.001450800781113e+001
0	 4.600030000017848e+000	 8.866680074997042e+000	 1.001310761427766e+001
0	 4.600030000017850e+000	 8.933340177755779e+000	 1.001177396900932e+001
0	 4.600030000017848e+000	 9.000000347171181e+000	 1.001050333697238e+001
0	 4.600030000017849e+000	 9.066660599907667e+000	 1.000929198293474e+001
0	 4.600030000017849e+000	 9.133320952629656e+000	 1.000813617146585e+001
0	 4.600030000017848e+000	 9.199981422001558e+000	 1.000703216693674e+001
0	 4.600030000017848e+000	 9.266642024687796e+000	 1.000597623351998e+001
0	 4.600030000017849e+000	 9.333302777352783e+000	 1.000496463518979e+001
0	 4.666700000016665e+000	 8.666700000016666e+000	 1.001789707139429e+001
0	 4.666700000016665e+000	 8.733360002791901e+000	 1.001632485064071e+001
0	 4.666700000016665e+000	 8.800020022230555e+000	 1.001482604239179e+001
0	 4.666700000016666e+000	 8.866680074997040e+000	 1.001339712990418e+001
0	 4.666700000016666e+000	 8.933340177755778e+000	 1.001203459623333e+001
0	 4.666700000016666e+000	 9.000000347171181e+000	 1.001073492423347e+001
0	 4.666700000016667e+000	 9.066660599907669e+000	 1.000949459655766e+001
0	 4.666700000016666e+000	 9.133320952629655e+000	 1.000831009565773e+001
0	 4.666700000016666e+000	 9.199981422001557e+000	 1.000717790378424e+001
0	 4.666700000016667e+000	 9.266642024687798e+000	 1.000609450298661e+001
0	 4.666700000016665e+000	 9.333302777352781e+000	 1.000505637511301e+001
0	 4.000000000000000e+000	 9.333302777352783e+000	 1.000356132927509e+001
0	 4.000000000000001e+000	 9.399973674588178e+000	 1.000293578099708e+001
0	 4.000000000000001e+000	 9.466644621844623e+000	 1.000237952753102e+001
0	 4.000000000000000e+000	 9.533315502450000e+000	 1.000188710500309e+001
0	 4.000000000000000e+000	 9.599986199732195e+000	 1.000145305091768e+001
0	 4.000000000000000e+000	 9.666656597019095e+000	 1.000107190415736e+001
0	 4.000000000000001e+000	 9.733326577638577e+000	 1.000073820498250e+001
0	 3.999999999999999e+000	 9.799996024918523e+000	 1.000044649503142e+001
0	 4.000000000000000e+000	 9.866664822186824e+000	 1.000019131732003e+001
0	 4.000000000000000e+000	 9.933332852771352e+000	 9.999967216241936e+000
0	 4.000000000000000e+000	 1.000000000000000e+001	 9.999768737568516e+000
0	 4.066670000003317e+000	 9.333302777352783e+000	 1.000375180432108e+001
0	 4.066670000003318e+000	 9.399973674588175e+000	 1.000309136158721e+001
0	 4.066670000003318e+000	 9.466644621844623e+000	 1.000250174594530e+001
0	 4.066670000003317e+000	 9.533315502450000e+000	 1.000197813247818e+001
0	 4.066670000003318e+000	 9.599986199732197e+000	 1.000151569772427e+001
0	 4.066670000003319e+000	 9.666656597019097e+000	 1.000110961967730e+001
0	 4.066670000003317e+000	 9.733326577638575e+000	 1.000075507778628e+001
0	 4.066670000003318e+000	 9.799996024918523e+000	 1.000044725295536e+001
0	 4.066670000003316e+000	 9.866664822186820e+000	 1.000018132754371e+001
0	 4.066670000003316e+000	 9.933332852771352e+000	 9.999952485365499e+000
0	 4.066670000003317e+000	 1.000000000000000e+001	 9.999755911689944e+000
0	 4.133340000006535e+000	 9.333302777352783e+000	 1.000393690686401e+001
0	 4.133340000006534e+000	 9.399973674588178e+000	 1.000324009615678e+001
0	 4.133340000006533e+000	 9.466644621844621e+000	 1.000261685659569e+001
0	 4.133340000006534e+000	 9.533315502450003e+000	 1.000206287200368e+001
0	 4.133340000006533e+000	 9.599986199732195e+000	 1.000157382774391e+001
0	 4.133340000006531e+000	 9.666656597019092e+000	 1.000114541071962e+001
0	 4.133340000006533e+000	 9.733326577638575e+000	 1.000077330937396e+001
0	 4.133340000006532e+000	 9.799996024918521e+000	 1.000045321368986e+001
0	 4.133340000006532e+000	 9.866664822186818e+000	 1.000018081519004e+001
0	 4.133340000006533e+000	 9.933332852771351e+000	 9.999951806936899e+000
0	 4.133340000006534e+000	 1.000000000000000e+001	 9.999761883532731e+000
0	 4.200010000009550e+000	 9.333302777352779e+000	 1.000411523738734e+001
0	 4.200010000009550e+000	 9.399973674588175e+000	 1.000338127058270e+001
0	 4.200010000009551e+000	 9.466644621844621e+000	 1.000272461481785e+001
0	 4.200010000009550e+000	 9.533315502449998e+000	 1.000214133244167e+001
0	 4.200010000009551e+000	 9.599986199732198e+000	 1.000162748743305e+001
0	 4.200010000009550e+000	 9.666656597019090e+000	 1.000117914540069e+001
0	 4.200010000009550e+000	 9.733326577638575e+000	 1.000079237358305e+001
0	 4.200010000009550e+000	 9.799996024918524e+000	 1.000046324084816e+001
0	 4.200010000009550e+000	 9.866664822186822e+000	 1.000018781769359e+001
0	 4.200010000009550e+000	 9.933332852771352e+000	 9.999962176246498e+000
0	 4.200010000009550e+000	 9.999999999999998e+000	 9.999782390263642e+000
0	 4.266680000012267e+000	 9.333302777352785e+000	 1.000428539637451e+001
0	 4.266680000012267e+000	 9.399973674588175e+000	 1.000351417074191e+001
0	 4.266680000012268e+000	 9.466644621844623e+000	 1.000282477594751e+001
0	 4.266680000012266e+000	 9.533315502450000e+000	 1.000221352265435e+001
0	 4.266680000012268e+000	 9.599986199732198e+000	 1.000167672324810e+001
0	 4.266680000012268e+000	 9.666656597019090e+000	 1.000121069183686e+001
0	 4.266680000012268e+000	 9.733326577638575e+000	 1.000081174425108e+001
0	 4.266680000012268e+000	 9.799996024918521e+000	 1.000047619804350e+001
0	 4.266680000012266e+000	 9.866664822186824e+000	 1.000020037248892e+001
0	 4.266680000012268e+000	 9.933332852771356e+000	 9.999980588584565e+000
0	 4.266680000012267e+000	 9.999999999999998e+000	 9.999813169049720e+000
0	 4.333350000014585e+000	 9.333302777352785e+000	 1.000444598430903e+001
0	 4.333350000014583e+000	 9.399973674588175e+000	 1.000363808251133e+001
0	 4.333350000014582e+000	 9.466644621844619e+000	 1.000291709532032e+001
0	 4.333350000014584e+000	 9.533315502450000e+000	 1.000227945150380e+001
0	 4.333350000014584e+000	 9.599986199732198e+000	 1.000172158164546e+001
0	 4.333350000014582e+000	 9.666656597019093e+000	 1.000123991814447e+001
0	 4.333350000014583e+000	 9.733326577638572e+000	 1.000083089521565e+001
0	 4.333350000014583e+000	 9.799996024918523e+000	 1.000049094888918e+001
0	 4.333350000014583e+000	 9.866664822186824e+000	 1.000021651701077e+001
0	 4.333350000014585e+000	 9.933332852771358e+000	 1.000000403924146e+001
0	 4.333350000014584e+000	 1.000000000000000e+001	 9.999849957057966e+000
0	 4.400020000016399e+000	 9.333302777352781e+000	 1.000459560167434e+001
0	 4.400020000016400e+000	 9.399973674588177e+000	 1.000375229176785e+001
0	 4.400020000016400e+000	 9.466644621844621e+000	 1.000300132827198e+001
0	 4.400020000016398e+000	 9.533315502450000e+000	 1.000233912785224e+001
0	 4.400020000016400e+000	 9.599986199732198e+000	 1.000176210908154e+001
0	 4.400020000016400e+000	 9.666656597019092e+000	 1.000126669243985e+001
0	 4.400020000016401e+000	 9.733326577638575e+000	 1.000084930031419e+001
0	 4.400020000016400e+000	 9.799996024918524e+000	 1.000050635699846e+001
0	 4.400020000016400e+000	 9.866664822186820e+000	 1.000023428869366e+001
0	 4.400020000016399e+000	 9.933332852771354e+000	 1.000002952350759e+001
0	 4.400020000016400e+000	 1.000000000000000e+001	 9.999888491455229e+000
0	 4.466690000017616e+000	 9.333302777352783e+000	 1.000473284895392e+001
0	 4.466690000017616e+000	 9.399973674588177e+000	 1.000385608438844e+001
0	 4.466690000017615e+000	 9.466644621844621e+000	 1.000307723013812e+001
0	 4.466690000017617e+000	 9.533315502450000e+000	 1.000239256056175e+001
0	 4.466690000017616e+000	 9.599986199732195e+000	 1.000179835201278e+001
0	 4.466690000017615e+000	 9.666656597019092e+000	 1.000129088283940e+001
0	 4.466690000017616e+000	 9.733326577638577e+000	 1.000086643338428e+001
0	 4.466690000017616e+000	 9.799996024918524e+000	 1.000052128598465e+001
0	 4.466690000017616e+000	 9.866664822186822e+000	 1.000025172497218e+001
0	 4.466690000017616e+000	 9.933332852771354e+000	 1.000005403667318e+001
0	 4.466690000017617e+000	 1.000000000000000e+001	 9.999924509408613e+000
0	 4.533360000018132e+000	 9.333302777352779e+000	 1.000485632663125e+001
0	 4.533360000018131e+000	 9.399973674588173e+000	 1.000394874624996e+001
0	 4.533360000018132e+000	 9.466644621844619e+000	 1.000314455625451e+001
0	 4.533360000018134e+000	 9.533315502450002e+000	 1.000243975849448e+001
0	 4.533360000018131e+000	 9.599986199732197e+000	 1.000183035689559e+001
0	 4.533360000018131e+000	 9.666656597019093e+000	 1.000131235745940e+001
0	 4.533360000018134e+000	 9.733326577638577e+000	 1.000088176826345e+001
0	 4.533360000018132e+000	 9.799996024918528e+000	 1.000053459946094e+001
0	 4.533360000018132e+000	 9.866664822186822e+000	 1.000026686328103e+001
0	 4.533360000018132e+000	 9.933332852771356e+000	 1.000007457402873e+001
0	 4.533360000018132e+000	 1.000000000000000e+001	 9.999953748084977e+000
0	 4.600030000017849e+000	 9.333302777352783e+000	 1.000496463518979e+001
0	 4.600030000017849e+000	 9.399973674588177e+000	 1.000402956322936e+001
0	 4.600030000017849e+000	 9.466644621844619e+000	 1.000320306195677e+001
0	 4.600030000017849e+000	 9.533315502450002e+000	 1.000248073051261e+001
0	 4.600030000017849e+000	 9.599986199732195e+000	 1.000185817018638e+001
0	 4.600030000017847e+000	 9.666656597019092e+000	 1.000133098441627e+001
0	 4.600030000017849e+000	 9.733326577638573e+000	 1.000089477878921e+001
0	 4.600030000017848e+000	 9.799996024918523e+000	 1.000054516104064e+001
0	 4.600030000017849e+000	 9.866664822186822e+000	 1.000027774105475e+001
0	 4.600030000017848e+000	 9.933332852771352e+000	 1.000008813086439e+001
0	 4.600030000017849e+000	 1.000000000000000e+001	 9.999971944651426e+000
0	 4.666700000016665e+000	 9.333302777352781e+000	 1.000505637511301e+001
0	 4.666700000016666e+000	 9.399973674588177e+000	 1.000409782120357e+001
0	 4.666700000016667e+000	 9.466644621844621e+000	 1.000325250258060e+001
0	 4.666700000016667e+000	 9.533315502450000e+000	 1.000251548547825e+001
0	 4.666700000016666e+000	 9.599986199732197e+000	 1.000188183834155e+001
0	 4.666700000016666e+000	 9.666656597019095e+000	 1.000134663182634e+001
0	 4.666700000016666e+000	 9.733326577638573e+000	 1.000090493879911e+001
0	 4.666700000016665e+000	 9.799996024918521e+000	 1.000055183433704e+001
0	 4.666700000016666e+000	 9.866664822186822e+000	 1.000028239572798e+001
0	 4.666700000016666e+000	 9.933332852771352e+000	 1.000009170247063e+001
0	 4.666700000016666e+000	 1.000000000000000e+001	 9.999974836274685e+000
0	 4.666700000016666e+000	 0.000000000000000e+000	 1.039199269435489e+001
0	 4.666700000016666e+000	 6.666714722864757e-002	 1.037267210052753e+001
0	 4.666700000016667e+000	 1.333351778131790e-001	 1.035679749240230e+001
0	 4.666700000016665e+000	 2.000039750814772e-001	 1.034406321911120e+001
0	 4.666700000016666e+000	 2.666734223614256e-001	 1.033416364699038e+001
0	 4.666700000016668e+000	 3.333434029809070e-001	 1.032679315957767e+001
0	 4.666700000016665e+000	 4.000138002678044e-001	 1.032164615761061e+001
0	 4.666700000016666e+000	 4.666844975500011e-001	 1.031841705902478e+001
0	 4.666700000016667e+000	 5.333553781553803e-001	 1.031680029895271e+001
0	 4.666700000016666e+000	 6.000263254118248e-001	 1.031649032972322e+001
0	 4.666700000016667e+000	 6.666972226472179e-001	 1.031718162086117e+001
0	 4.733360000014534e+000	 0.000000000000000e+000	 1.040642169804779e+001
0	 4.733360000014533e+000	 6.666714722864754e-002	 1.038749536853184e+001
0	 4.733360000014533e+000	 1.333351778131789e-001	 1.037114984968813e+001
0	 4.733360000014534e+000	 2.000039750814773e-001	 1.035721629445222e+001
0	 4.733360000014534e+000	 2.666734223614255e-001	 1.034552587660485e+001
0	 4.733360000014533e+000	 3.333434029809068e-001	 1.033590979076874e+001
0	 4.733360000014533e+000	 4.000138002678044e-001	 1.032819925240581e+001
0	 4.733360000014534e+000	 4.666844975500012e-001	 1.032222549781508e+001
0	 4.733360000014533e+000	 5.333553781553801e-001	 1.031781978413101e+001
0	 4.733360000014534e+000	 6.000263254118248e-001	 1.031481338932246e+001
0	 4.733360000014533e+000	 6.666972226472174e-001	 1.031303761219216e+001
0	 4.800020000011600e+000	 0.000000000000000e+000	 1.040726726845770e+001
0	 4.800020000011600e+000	 6.666714722864754e-002	 1.039024200731459e+001
0	 4.800020000011601e+000	 1.333351778131790e-001	 1.037497512337301e+001
0	 4.800020000011601e+000	 2.000039750814772e-001	 1.036141416676448e+001
0	 4.800020000011600e+000	 2.666734223614255e-001	 1.034950671054064e+001
0	 4.800020000011599e+000	 3.333434029809069e-001	 1.033920035066972e+001
0	 4.800020000011599e+000	 4.000138002678044e-001	 1.033044270603334e+001
0	 4.800020000011599e+000	 4.666844975500012e-001	 1.032318141842414e+001
0	 4.800020000011601e+000	 5.333553781553804e-001	 1.031736415254385e+001
0	 4.800020000011601e+000	 6.000263254118247e-001	 1.031293859600210e+001
0	 4.800020000011600e+000	 6.666972226472175e-001	 1.030985245931568e+001
0	 4.866680000008066e+000	 0.000000000000000e+000	 1.039691123660822e+001
0	 4.866680000008067e+000	 6.666714722864757e-002	 1.038292005352936e+001
0	 4.866680000008067e+000	 1.333351778131789e-001	 1.036992858616772e+001
0	 4.866680000008068e+000	 2.000039750814772e-001	 1.035798037261030e+001
0	 4.866680000008065e+000	 2.666734223614256e-001	 1.034711897459411e+001
0	 4.866680000008065e+000	 3.333434029809069e-001	 1.033738797750250e+001
0	 4.866680000008066e+000	 4.000138002678044e-001	 1.032883099036191e+001
0	 4.866680000008067e+000	 4.666844975500011e-001	 1.032149164583935e+001
0	 4.866680000008067e+000	 5.333553781553803e-001	 1.031541360024053e+001
0	 4.866680000008066e+000	 6.000263254118248e-001	 1.031064053350852e+001
0	 4.866680000008067e+000	 6.666972226472177e-001	 1.030721614922309e+001
0	 4.933340000004134e+000	 0.000000000000000e+000	 1.037773543352290e+001
0	 4.933340000004134e+000	 6.666714722864754e-002	 1.036753754382979e+001
0	 4.933340000004133e+000	 1.333351778131789e-001	 1.035766551078307e+001
0	 4.933340000004134e+000	 2.000039750814772e-001	 1.034823844855201e+001
0	 4.933340000004134e+000	 2.666734223614255e-001	 1.033937549456162e+001
0	 4.933340000004134e+000	 3.333434029809070e-001	 1.033119580948898e+001
0	 4.933340000004134e+000	 4.000138002678044e-001	 1.032381857726022e+001
0	 4.933340000004133e+000	 4.666844975500011e-001	 1.031736300504815e+001
0	 4.933340000004133e+000	 5.333553781553803e-001	 1.031194832327038e+001
0	 4.933340000004133e+000	 6.000263254118248e-001	 1.030769378558816e+001
0	 4.933340000004133e+000	 6.666972226472175e-001	 1.030471866890583e+001
0	 5.000000000000000e+000	 0.000000000000000e+000	 1.035212169022531e+001
0	 5.000000000000004e+000	 6.666714722864757e-002	 1.034610251486950e+001
0	 5.000000000000002e+000	 1.333351778131790e-001	 1.033984116992986e+001
0	 5.000000000000001e+000	 2.000039750814772e-001	 1.033351193115199e+001
0	 5.000000000000000e+000	 2.666734223614255e-001	 1.032728909623957e+001
0	 5.000000000000001e+000	 3.333434029809069e-001	 1.032134698485106e+001
0	 5.000000000000001e+000	 4.000138002678044e-001	 1.031585993859705e+001
0	 4.999999999999999e+000	 4.666844975500012e-001	 1.031100232103800e+001
0	 5.000000000000001e+000	 5.333553781553803e-001	 1.030694851768274e+001
0	 4.999999999999999e+000	 6.000263254118246e-001	 1.030387293598748e+001
0	 5.000000000000001e+000	 6.666972226472178e-001	 1.030195000535530e+001
0	 5.066659999995866e+000	 0.000000000000000e+000	 1.032245183773898e+001
0	 5.066659999995868e+000	 6.666714722864757e-002	 1.032062300330211e+001
0	 5.066659999995867e+000	 1.333351778131790e-001	 1.031811083631894e+001
0	 5.066659999995868e+000	 2.000039750814772e-001	 1.031512435697261e+001
0	 5.066659999995867e+000	 2.666734223614256e-001	 1.031187260542437e+001
0	 5.066659999995866e+000	 3.333434029809069e-001	 1.030856464181073e+001
0	 5.066659999995867e+000	 4.000138002678044e-001	 1.030540954624118e+001
0	 5.066659999995866e+000	 4.666844975500011e-001	 1.030261641879640e+001
0	 5.066659999995866e+000	 5.333553781553804e-001	 1.030039437952704e+001
0	 5.066659999995868e+000	 6.000263254118248e-001	 1.029895256845295e+001
0	 5.066659999995868e+000	 6.666972226472178e-001	 1.029850014556301e+001
0	 5.133319999991932e+000	 0.000000000000000e+000	 1.029110770708746e+001
0	 5.133319999991933e+000	 6.666714722864756e-002	 1.029310704578124e+001
0	 5.133319999991933e+000	 1.333351778131789e-001	 1.029412978266114e+001
0	 5.133319999991933e+000	 2.000039750814772e-001	 1.029439926257629e+001
0	 5.133319999991933e+000	 2.666734223614255e-001	 1.029413884791251e+001
0	 5.133319999991933e+000	 3.333434029809069e-001	 1.029357191858998e+001
0	 5.133319999991934e+000	 4.000138002678043e-001	 1.029292187206144e+001
0	 5.133319999991933e+000	 4.666844975500012e-001	 1.029241212331089e+001
0	 5.133319999991935e+000	 5.333553781553804e-001	 1.029226610485268e+001
0	 5.133319999991932e+000	 6.000263254118248e-001	 1.029270726673110e+001
0	 5.133319999991933e+000	 6.666972226472177e-001	 1.029395907652045e+001
0	 5.199979999988400e+000	 0.000000000000000e+000	 1.026047112929424e+001
0	 5.199979999988399e+000	 6.666714722864756e-002	 1.026556267896054e+001
0	 5.199979999988400e+000	 1.333351778131790e-001	 1.026955328166732e+001
0	 5.199979999988400e+000	 2.000039750814773e-001	 1.027266018452547e+001
0	 5.199979999988401e+000	 2.666734223614256e-001	 1.027510064950048e+001
0	 5.199979999988399e+000	 3.333434029809069e-001	 1.027709195341084e+001
0	 5.199979999988399e+000	 4.000138002678044e-001	 1.027885138792671e+001
0	 5.199979999988399e+000	 4.666844975500011e-001	 1.028059625956906e+001
0	 5.199979999988400e+000	 5.333553781553800e-001	 1.028254388970915e+001
0	 5.199979999988400e+000	 6.000263254118249e-001	 1.028491161456853e+001
0	 5.199979999988399e+000	 6.666972226472177e-001	 1.028791678521916e+001
0	 5.266639999985466e+000	 0.000000000000000e+000	 1.023292393538285e+001
0	 5.266639999985466e+000	 6.666714722864756e-002	 1.023999793949364e+001
0	 5.266639999985464e+000	 1.333351778131789e-001	 1.024603660604838e+001
0	 5.266639999985465e+000	 2.000039750814772e-001	 1.025123065938259e+001
0	 5.266639999985465e+000	 2.666734223614255e-001	 1.025577083598479e+001
0	 5.266639999985465e+000	 3.333434029809068e-001	 1.025984788449539e+001
0	 5.266639999985466e+000	 4.000138002678045e-001	 1.026365256570589e+001
0	 5.266639999985465e+000	 4.666844975500011e-001	 1.026737565255850e+001
0	 5.266639999985465e+000	 5.333553781553801e-001	 1.027120793014597e+001
0	 5.266639999985466e+000	 6.000263254118247e-001	 1.027534019571179e+001
0	 5.266639999985466e+000	 6.666972226472178e-001	 1.027996325865073e+001
0	 5.333299999983334e+000	 0.000000000000000e+000	 1.021084795637678e+001
0	 5.333299999983336e+000	 6.666714722864757e-002	 1.021842086403417e+001
0	 5.333299999983333e+000	 1.333351778131789e-001	 1.022523502851519e+001
0	 5.333299999983336e+000	 2.000039750814772e-001	 1.023143422371016e+001
0	 5.333299999983334e+000	 2.666734223614255e-001	 1.023716223316202e+001
0	 5.333299999983334e+000	 3.333434029809068e-001	 1.024256285006572e+001
0	 5.333299999983334e+000	 4.000138002678044e-001	 1.024777987726793e+001
0	 5.333299999983334e+000	 4.666844975500011e-001	 1.025295712726689e+001
0	 5.333299999983333e+000	 5.333553781553803e-001	 1.025823842221266e+001
0	 5.333299999983335e+000	 6.000263254118248e-001	 1.026376759390755e+001
0	 5.333299999983334e+000	 6.666972226472175e-001	 1.026968848380675e+001
0	 4.666700000016667e+000	 6.666972226472179e-001	 1.031718162086117e+001
0	 4.666700000016665e+000	 7.333579753122046e-001	 1.031869014733197e+001
0	 4.666700000016666e+000	 8.000185779984418e-001	 1.032108478577255e+001
0	 4.666700000016665e+000	 8.666790473703452e-001	 1.032443887862597e+001
0	 4.666700000016666e+000	 9.333394000923320e-001	 1.032882576570364e+001
0	 4.666700000016666e+000	 9.999996528288190e-001	 1.033431878418528e+001
0	 4.666700000016665e+000	 1.066659822244222e+000	 1.034099126861890e+001
0	 4.666700000016667e+000	 1.133319925002959e+000	 1.034891655092078e+001
0	 4.666700000016666e+000	 1.199979977769445e+000	 1.035816796037547e+001
0	 4.666700000016667e+000	 1.266639997208098e+000	 1.036881882363583e+001
0	 4.666700000016666e+000	 1.333299999983334e+000	 1.038094246472297e+001
0	 4.733360000014533e+000	 6.666972226472174e-001	 1.031303761219216e+001
0	 4.733360000014534e+000	 7.333579753122049e-001	 1.031236173013130e+001
0	 4.733360000014533e+000	 8.000185779984421e-001	 1.031282068123762e+001
0	 4.733360000014535e+000	 8.666790473703454e-001	 1.031449481626180e+001
0	 4.733360000014532e+000	 9.333394000923320e-001	 1.031746448298996e+001
0	 4.733360000014533e+000	 9.999996528288190e-001	 1.032181002624359e+001
0	 4.733360000014534e+000	 1.066659822244222e+000	 1.032761178787951e+001
0	 4.733360000014534e+000	 1.133319925002959e+000	 1.033495010678985e+001
0	 4.733360000014533e+000	 1.199979977769445e+000	 1.034390531890210e+001
0	 4.733360000014534e+000	 1.266639997208097e+000	 1.035455775717906e+001
0	 4.733360000014534e+000	 1.333299999983334e+000	 1.036698775161883e+001
0	 4.800020000011600e+000	 6.666972226472175e-001	 1.030985245931568e+001
0	 4.800020000011599e+000	 7.333579753122046e-001	 1.030799304254752e+001
0	 4.800020000011600e+000	 8.000185779984415e-001	 1.030733848123163e+001
0	 4.800020000011601e+000	 8.666790473703455e-001	 1.030797384918421e+001
0	 4.800020000011600e+000	 9.333394000923323e-001	 1.030998421720058e+001
0	 4.800020000011599e+000	 9.999996528288186e-001	 1.031345465305512e+001
0	 4.800020000011601e+000	 1.066659822244222e+000	 1.031847022150123e+001
0	 4.800020000011601e+000	 1.133319925002959e+000	 1.032511598427135e+001
0	 4.800020000011601e+000	 1.199979977769445e+000	 1.033347700007686e+001
0	 4.800020000011601e+000	 1.266639997208098e+000	 1.034363832460820e+001
0	 4.800020000011601e+000	 1.333299999983334e+000	 1.035568501053480e+001
0	 4.866680000008067e+000	 6.666972226472177e-001	 1.030721614922310e+001
0	 4.866680000008067e+000	 7.333579753122050e-001	 1.030501658520321e+001
0	 4.866680000008067e+000	 8.000185779984419e-001	 1.030394635385119e+001
0	 4.866680000008067e+000	 8.666790473703453e-001	 1.030409296711127e+001
0	 4.866680000008066e+000	 9.333394000923324e-001	 1.030554393407732e+001
0	 4.866680000008067e+000	 9.999996528288191e-001	 1.030838676099292e+001
0	 4.866680000008066e+000	 1.066659822244222e+000	 1.031270895125119e+001
0	 4.866680000008065e+000	 1.133319925002958e+000	 1.031859800539490e+001
0	 4.866680000008068e+000	 1.199979977769445e+000	 1.032614142111640e+001
0	 4.866680000008066e+000	 1.266639997208098e+000	 1.033542669325762e+001
0	 4.866680000008067e+000	 1.333299999983334e+000	 1.034654131381010e+001
0	 4.933340000004133e+000	 6.666972226472175e-001	 1.030471866890583e+001
0	 4.933340000004135e+000	 7.333579753122049e-001	 1.030286485872098e+001
0	 4.933340000004133e+000	 8.000185779984418e-001	 1.030195246719297e+001
0	 4.933340000004134e+000	 8.666790473703455e-001	 1.030206915976112e+001
0	 4.933340000004133e+000	 9.333394000923323e-001	 1.030330259936211e+001
0	 4.933340000004134e+000	 9.999996528288190e-001	 1.030574044643007e+001
0	 4.933340000004134e+000	 1.066659822244222e+000	 1.030947035889648e+001
0	 4.933340000004135e+000	 1.133319925002959e+000	 1.031457999219018e+001
0	 4.933340000004133e+000	 1.199979977769445e+000	 1.032115699923740e+001
0	 4.933340000004134e+000	 1.266639997208098e+000	 1.032928903046167e+001
0	 4.933340000004134e+000	 1.333299999983334e+000	 1.033906373378394e+001
0	 5.000000000000001e+000	 6.666972226472178e-001	 1.030195000535530e+001
0	 5.000000000000002e+000	 7.333579753122050e-001	 1.030097036372346e+001
0	 5.000000000000002e+000	 8.000185779984418e-001	 1.030066498935365e+001
0	 5.000000000000001e+000	 8.666790473703453e-001	 1.030111941685190e+001
0	 5.000000000000001e+000	 9.333394000923323e-001	 1.030241917879684e+001
0	 5.000000000000000e+000	 9.999996528288190e-001	 1.030464980573969e+001
0	 5.000000000000001e+000	 1.066659822244222e+000	 1.030789682620425e+001
0	 5.000000000000002e+000	 1.133319925002959e+000	 1.031224576668688e+001
0	 5.000000000000001e+000	 1.199979977769445e+000	 1.031778215165653e+001
0	 5.000000000000000e+000	 1.266639997208098e+000	 1.032459150355472e+001
0	 4.999999999999999e+000	 1.333299999983334e+000	 1.033275934279555e+001
0	 5.066659999995868e+000	 6.666972226472178e-001	 1.029850014556301e+001
0	 5.066659999995868e+000	 7.333579753122048e-001	 1.029876560083334e+001
0	 5.066659999995867e+000	 8.000185779984419e-001	 1.029939208842994e+001
0	 5.066659999995865e+000	 8.666790473703453e-001	 1.030046072810181e+001
0	 5.066659999995866e+000	 9.333394000923321e-001	 1.030205263812346e+001
0	 5.066659999995865e+000	 9.999996528288186e-001	 1.030424893529490e+001
0	 5.066659999995867e+000	 1.066659822244222e+000	 1.030713073494164e+001
0	 5.066659999995868e+000	 1.133319925002959e+000	 1.031077915091468e+001
0	 5.066659999995867e+000	 1.199979977769445e+000	 1.031527529559052e+001
0	 5.066659999995866e+000	 1.266639997208098e+000	 1.032070027987117e+001
0	 5.066659999995866e+000	 1.333299999983334e+000	 1.032713521318418e+001
0	 5.133319999991933e+000	 6.666972226472177e-001	 1.029395907652045e+001
0	 5.133319999991933e+000	 7.333579753122048e-001	 1.029568307067333e+001
0	 5.133319999991933e+000	 8.000185779984418e-001	 1.029744193251858e+001
0	 5.133319999991933e+000	 8.666790473703454e-001	 1.029931008322903e+001
0	 5.133319999991933e+000	 9.333394000923322e-001	 1.030136194308392e+001
0	 5.133319999991934e+000	 9.999996528288190e-001	 1.030367193146884e+001
0	 5.133319999991932e+000	 1.066659822244222e+000	 1.030631446687583e+001
0	 5.133319999991933e+000	 1.133319925002959e+000	 1.030936396690329e+001
0	 5.133319999991932e+000	 1.199979977769445e+000	 1.031289484825606e+001
0	 5.133319999991934e+000	 1.266639997208098e+000	 1.031698152674542e+001
0	 5.133319999991933e+000	 1.333299999983334e+000	 1.032169841728907e+001
0	 5.199979999988399e+000	 6.666972226472177e-001	 1.028791678521917e+001
0	 5.199979999988398e+000	 7.333579753122047e-001	 1.029115527386615e+001
0	 5.199979999988399e+000	 8.000185779984419e-001	 1.029412268971633e+001
0	 5.199979999988399e+000	 8.666790473703452e-001	 1.029688447195181e+001
0	 5.199979999988399e+000	 9.333394000923322e-001	 1.029950605942021e+001
0	 5.199979999988399e+000	 9.999996528288189e-001	 1.030205289063469e+001
0	 5.199979999988400e+000	 1.066659822244222e+000	 1.030459040377401e+001
0	 5.199979999988399e+000	 1.133319925002959e+000	 1.030718403668243e+001
0	 5.199979999988399e+000	 1.199979977769445e+000	 1.030989922686989e+001
0	 5.199979999988398e+000	 1.266639997208097e+000	 1.031280141151186e+001
0	 5.199979999988400e+000	 1.333299999983334e+000	 1.031595602744947e+001
0	 5.266639999985466e+000	 6.666972226472178e-001	 1.027996325865073e+001
0	 5.266639999985464e+000	 7.333579753122047e-001	 1.028461471103457e+001
0	 5.266639999985466e+000	 8.000185779984418e-001	 1.028874252811998e+001
0	 5.266639999985464e+000	 8.666790473703451e-001	 1.029240088398837e+001
0	 5.266639999985466e+000	 9.333394000923322e-001	 1.029564395287431e+001
0	 5.266639999985465e+000	 9.999996528288189e-001	 1.029852590916562e+001
0	 5.266639999985464e+000	 1.066659822244222e+000	 1.030110092740336e+001
0	 5.266639999985465e+000	 1.133319925002958e+000	 1.030342318228187e+001
0	 5.266639999985466e+000	 1.199979977769445e+000	 1.030554684864873e+001
0	 5.266639999985465e+000	 1.266639997208098e+000	 1.030752610150492e+001
0	 5.266639999985464e+000	 1.333299999983333e+000	 1.030941511600467e+001
0	 5.333299999983334e+000	 6.666972226472175e-001	 1.026968848380675e+001
0	 5.333299999983334e+000	 7.333579753122048e-001	 1.027549388280138e+001
0	 5.333299999983334e+000	 8.000185779984417e-001	 1.028060961582636e+001
0	 5.333299999983334e+000	 8.666790473703453e-001	 1.028507630905701e+001
0	 5.333299999983335e+000	 9.333394000923322e-001	 1.028893458918828e+001
0	 5.333299999983333e+000	 9.999996528288189e-001	 1.029222508343485e+001
0	 5.333299999983334e+000	 1.066659822244222e+000	 1.029498841953114e+001
0	 5.333299999983335e+000	 1.133319925002959e+000	 1.029726522573132e+001
0	 5.333299999983334e+000	 1.199979977769445e+000	 1.029909613080936e+001
0	 5.333299999983333e+000	 1.266639997208098e+000	 1.030052176405902e+001
0	 5.333299999983335e+000	 1.333299999983334e+000	 1.030158275529392e+001
0	 4.666700000016666e+000	 1.333299999983334e+000	 1.038094246472297e+001
0	 4.666700000016665e+000	 1.399969999982150e+000	 1.039303255515907e+001
0	 4.666700000016666e+000	 1.466639999981866e+000	 1.040356880358780e+001
0	 4.666700000016667e+000	 1.533309999982383e+000	 1.041260938633045e+001
0	 4.666700000016666e+000	 1.599979999983600e+000	 1.042021247970834e+001
0	 4.666700000016665e+000	 1.666649999985416e+000	 1.042643626004273e+001
0	 4.666700000016666e+000	 1.733319999987733e+000	 1.043133890365491e+001
0	 4.666700000016666e+000	 1.799989999990450e+000	 1.043497858686612e+001
0	 4.666700000016666e+000	 1.866659999993466e+000	 1.043741348599761e+001
0	 4.666700000016666e+000	 1.933329999996683e+000	 1.043870177737062e+001
0	 4.666700000016666e+000	 2.000000000000000e+000	 1.043890163730637e+001
0	 4.733360000014534e+000	 1.333299999983334e+000	 1.036698775161883e+001
0	 4.733360000014534e+000	 1.399969999982150e+000	 1.037951497293063e+001
0	 4.733360000014533e+000	 1.466639999981867e+000	 1.039043559846987e+001
0	 4.733360000014533e+000	 1.533309999982383e+000	 1.039980072207795e+001
0	 4.733360000014534e+000	 1.599979999983600e+000	 1.040766143759628e+001
0	 4.733360000014534e+000	 1.666649999985416e+000	 1.041406883886622e+001
0	 4.733360000014533e+000	 1.733319999987733e+000	 1.041907401972915e+001
0	 4.733360000014532e+000	 1.799989999990450e+000	 1.042272807402641e+001
0	 4.733360000014534e+000	 1.866659999993466e+000	 1.042508209559935e+001
0	 4.733360000014534e+000	 1.933329999996683e+000	 1.042618717828928e+001
0	 4.733360000014533e+000	 2.000000000000000e+000	 1.042609441593752e+001
0	 4.800020000011601e+000	 1.333299999983334e+000	 1.035568501053481e+001
0	 4.800020000011600e+000	 1.399969999982150e+000	 1.036791390277268e+001
0	 4.800020000011600e+000	 1.466639999981866e+000	 1.037859104474529e+001
0	 4.800020000011599e+000	 1.533309999982383e+000	 1.038776114317593e+001
0	 4.800020000011599e+000	 1.599979999983599e+000	 1.039546890478789e+001
0	 4.800020000011600e+000	 1.666649999985416e+000	 1.040175903630443e+001
0	 4.800020000011599e+000	 1.733319999987733e+000	 1.040667624444881e+001
0	 4.800020000011599e+000	 1.799989999990449e+000	 1.041026523594428e+001
0	 4.800020000011599e+000	 1.866659999993466e+000	 1.041257071751406e+001
0	 4.800020000011600e+000	 1.933329999996683e+000	 1.041363739588137e+001
0	 4.800020000011601e+000	 2.000000000000000e+000	 1.041350997776941e+001
0	 4.866680000008067e+000	 1.333299999983334e+000	 1.034654131381010e+001
0	 4.866680000008065e+000	 1.399969999982150e+000	 1.035788317555977e+001
0	 4.866680000008065e+000	 1.466639999981866e+000	 1.036781423680216e+001
0	 4.866680000008068e+000	 1.533309999982383e+000	 1.037637351250422e+001
0	 4.866680000008067e+000	 1.599979999983599e+000	 1.038360001763296e+001
0	 4.866680000008066e+000	 1.666649999985416e+000	 1.038953276715532e+001
0	 4.866680000008068e+000	 1.733319999987733e+000	 1.039421077603826e+001
0	 4.866680000008065e+000	 1.799989999990449e+000	 1.039767305924869e+001
0	 4.866680000008067e+000	 1.866659999993467e+000	 1.039995863175354e+001
0	 4.866680000008066e+000	 1.933329999996683e+000	 1.040110650851972e+001
0	 4.866680000008066e+000	 2.000000000000000e+000	 1.040115570451410e+001
0	 4.933340000004134e+000	 1.333299999983334e+000	 1.033906373378394e+001
0	 4.933340000004134e+000	 1.399969999982150e+000	 1.034907662216645e+001
0	 4.933340000004134e+000	 1.466639999981866e+000	 1.035788426902854e+001
0	 4.933340000004133e+000	 1.533309999982383e+000	 1.036552069294267e+001
0	 4.933340000004133e+000	 1.599979999983599e+000	 1.037201991248131e+001
0	 4.933340000004133e+000	 1.666649999985416e+000	 1.037741594621690e+001
0	 4.933340000004133e+000	 1.733319999987733e+000	 1.038174281272185e+001
0	 4.933340000004134e+000	 1.799989999990449e+000	 1.038503453056860e+001
0	 4.933340000004132e+000	 1.866659999993466e+000	 1.038732511832956e+001
0	 4.933340000004134e+000	 1.933329999996684e+000	 1.038864859457712e+001
0	 4.933340000004134e+000	 2.000000000000000e+000	 1.038903897788367e+001
0	 4.999999999999999e+000	 1.333299999983334e+000	 1.033275934279555e+001
0	 5.000000000000001e+000	 1.399969999982150e+000	 1.034114807346729e+001
0	 5.000000000000000e+000	 1.466639999981866e+000	 1.034858023581257e+001
0	 4.999999999999998e+000	 1.533309999982383e+000	 1.035508554737115e+001
0	 5.000000000000000e+000	 1.599979999983600e+000	 1.036069372568276e+001
0	 5.000000000000000e+000	 1.666649999985416e+000	 1.036543448828713e+001
0	 5.000000000000000e+000	 1.733319999987733e+000	 1.036933755272398e+001
0	 5.000000000000002e+000	 1.799989999990450e+000	 1.037243263653301e+001
0	 5.000000000000002e+000	 1.866659999993466e+000	 1.037474945725393e+001
0	 5.000000000000002e+000	 1.933329999996683e+000	 1.037631773242642e+001
0	 5.000000000000001e+000	 2.000000000000000e+000	 1.037716717959016e+001
0	 5.066659999995866e+000	 1.333299999983334e+000	 1.032713521318418e+001
0	 5.066659999995867e+000	 1.399969999982150e+000	 1.033375136033684e+001
0	 5.066659999995868e+000	 1.466639999981866e+000	 1.033968123154234e+001
0	 5.066659999995866e+000	 1.533309999982383e+000	 1.034495093866948e+001
0	 5.066659999995868e+000	 1.599979999983600e+000	 1.034958659358711e+001
0	 5.066659999995866e+000	 1.666649999985416e+000	 1.035361430816402e+001
0	 5.066659999995867e+000	 1.733319999987733e+000	 1.035706019426901e+001
0	 5.066659999995867e+000	 1.799989999990449e+000	 1.035995036377089e+001
0	 5.066659999995868e+000	 1.866659999993466e+000	 1.036231092853844e+001
0	 5.066659999995865e+000	 1.933329999996683e+000	 1.036416800044043e+001
0	 5.066659999995866e+000	 2.000000000000000e+000	 1.036554769134566e+001
0	 5.133319999991933e+000	 1.333299999983334e+000	 1.032169841728907e+001
0	 5.133319999991933e+000	 1.399969999982150e+000	 1.032654031364970e+001
0	 5.133319999991933e+000	 1.466639999981867e+000	 1.033096635060596e+001
0	 5.133319999991933e+000	 1.533309999982383e+000	 1.033499972971755e+001
0	 5.133319999991933e+000	 1.599979999983600e+000	 1.033866365254419e+001
0	 5.133319999991934e+000	 1.666649999985416e+000	 1.034198132064556e+001
0	 5.133319999991933e+000	 1.733319999987733e+000	 1.034497593558134e+001
0	 5.133319999991933e+000	 1.799989999990450e+000	 1.034767069891122e+001
0	 5.133319999991933e+000	 1.866659999993466e+000	 1.035008881219488e+001
0	 5.133319999991933e+000	 1.933329999996683e+000	 1.035225347699200e+001
0	 5.133319999991933e+000	 2.000000000000000e+000	 1.035418789486224e+001
0	 5.199979999988400e+000	 1.333299999983334e+000	 1.031595602744947e+001
0	 5.199979999988398e+000	 1.399969999982150e+000	 1.031916876428044e+001
0	 5.199979999988401e+000	 1.466639999981867e+000	 1.032221468739156e+001
0	 5.199979999988400e+000	 1.533309999982383e+000	 1.032511478339524e+001
0	 5.199979999988399e+000	 1.599979999983599e+000	 1.032789003890383e+001
0	 5.199979999988401e+000	 1.666649999985417e+000	 1.033056144052974e+001
0	 5.199979999988400e+000	 1.733319999987733e+000	 1.033314997488534e+001
0	 5.199979999988400e+000	 1.799989999990450e+000	 1.033567662858298e+001
0	 5.199979999988398e+000	 1.866659999993466e+000	 1.033816238823506e+001
0	 5.199979999988399e+000	 1.933329999996683e+000	 1.034062824045394e+001
0	 5.199979999988400e+000	 2.000000000000000e+000	 1.034309517185198e+001
0	 5.266639999985464e+000	 1.333299999983333e+000	 1.030941511600467e+001
0	 5.266639999985466e+000	 1.399969999982150e+000	 1.031129054310365e+001
0	 5.266639999985465e+000	 1.466639999981866e+000	 1.031320533628726e+001
0	 5.266639999985466e+000	 1.533309999982383e+000	 1.031517896258238e+001
0	 5.266639999985467e+000	 1.599979999983599e+000	 1.031723088901586e+001
0	 5.266639999985467e+000	 1.666649999985417e+000	 1.031938058261458e+001
0	 5.266639999985466e+000	 1.733319999987733e+000	 1.032164751040540e+001
0	 5.266639999985466e+000	 1.799989999990450e+000	 1.032405113941518e+001
0	 5.266639999985466e+000	 1.866659999993466e+000	 1.032661093667080e+001
0	 5.266639999985465e+000	 1.933329999996683e+000	 1.032934636919911e+001
0	 5.266639999985466e+000	 2.000000000000000e+000	 1.033227690402697e+001
0	 5.333299999983335e+000	 1.333299999983334e+000	 1.030158275529392e+001
0	 5.333299999983333e+000	 1.399969999982150e+000	 1.030255948099393e+001
0	 5.333299999983335e+000	 1.466639999981867e+000	 1.030371739168120e+001
0	 5.333299999983333e+000	 1.533309999982383e+000	 1.030507513015888e+001
0	 5.333299999983335e+000	 1.599979999983599e+000	 1.030665133923012e+001
0	 5.333299999983334e+000	 1.666649999985416e+000	 1.030846466169807e+001
0	 5.333299999983334e+000	 1.733319999987733e+000	 1.031053374036592e+001
0	 5.333299999983333e+000	 1.799989999990449e+000	 1.031287721803679e+001
0	 5.333299999983334e+000	 1.866659999993466e+000	 1.031551373751387e+001
0	 5.333299999983334e+000	 1.933329999996684e+000	 1.031846194160031e+001
0	 5.333299999983333e+000	 2.000000000000000e+000	 1.032174047309929e+001
0	 4.666700000016666e+000	 2.000000000000000e+000	 1.043890163730637e+001
0	 4.666700000016665e+000	 2.066670000003317e+000	 1.043848931182711e+001
0	 4.666700000016666e+000	 2.133340000006534e+000	 1.043791418591921e+001
0	 4.666700000016667e+000	 2.200010000009551e+000	 1.043719414435002e+001
0	 4.666700000016666e+000	 2.266680000012268e+000	 1.043634707188688e+001
0	 4.666700000016667e+000	 2.333350000014584e+000	 1.043539085329711e+001
0	 4.666700000016666e+000	 2.400020000016401e+000	 1.043434337334805e+001
0	 4.666700000016668e+000	 2.466690000017617e+000	 1.043322251680703e+001
0	 4.666700000016667e+000	 2.533360000018134e+000	 1.043204616844136e+001
0	 4.666700000016667e+000	 2.600030000017851e+000	 1.043083221301835e+001
0	 4.666700000016666e+000	 2.666700000016666e+000	 1.042959853530532e+001
0	 4.733360000014533e+000	 2.000000000000000e+000	 1.042609441593752e+001
0	 4.733360000014532e+000	 2.066670000003317e+000	 1.042540929879733e+001
0	 4.733360000014533e+000	 2.133340000006534e+000	 1.042470733713500e+001
0	 4.733360000014531e+000	 2.200010000009550e+000	 1.042399465481129e+001
0	 4.733360000014532e+000	 2.266680000012267e+000	 1.042327737568700e+001
0	 4.733360000014534e+000	 2.333350000014585e+000	 1.042256162362292e+001
0	 4.733360000014534e+000	 2.400020000016401e+000	 1.042185352247980e+001
0	 4.733360000014533e+000	 2.466690000017617e+000	 1.042115919611843e+001
0	 4.733360000014534e+000	 2.533360000018134e+000	 1.042048476839958e+001
0	 4.733360000014534e+000	 2.600030000017850e+000	 1.041983636318401e+001
0	 4.733360000014534e+000	 2.666700000016666e+000	 1.041922010433248e+001
0	 4.800020000011601e+000	 2.000000000000000e+000	 1.041350997776941e+001
0	 4.800020000011599e+000	 2.066670000003316e+000	 1.041283342117986e+001
0	 4.800020000011598e+000	 2.133340000006533e+000	 1.041222059820882e+001
0	 4.800020000011600e+000	 2.200010000009550e+000	 1.041166808672111e+001
0	 4.800020000011599e+000	 2.266680000012266e+000	 1.041117246458154e+001
0	 4.800020000011599e+000	 2.333350000014585e+000	 1.041073030965493e+001
0	 4.800020000011599e+000	 2.400020000016400e+000	 1.041033819980607e+001
0	 4.800020000011599e+000	 2.466690000017617e+000	 1.040999271289977e+001
0	 4.800020000011600e+000	 2.533360000018134e+000	 1.040969042680084e+001
0	 4.800020000011601e+000	 2.600030000017851e+000	 1.040942791937407e+001
0	 4.800020000011601e+000	 2.666700000016667e+000	 1.040920176848425e+001
0	 4.866680000008066e+000	 2.000000000000000e+000	 1.040115570451410e+001
0	 4.866680000008067e+000	 2.066670000003316e+000	 1.040071658334623e+001
0	 4.866680000008066e+000	 2.133340000006534e+000	 1.040036632983395e+001
0	 4.866680000008066e+000	 2.200010000009550e+000	 1.040009419075673e+001
0	 4.866680000008066e+000	 2.266680000012267e+000	 1.039988941289395e+001
0	 4.866680000008065e+000	 2.333350000014584e+000	 1.039974124302508e+001
0	 4.866680000008066e+000	 2.400020000016400e+000	 1.039963892792951e+001
0	 4.866680000008067e+000	 2.466690000017617e+000	 1.039957171438666e+001
0	 4.866680000008067e+000	 2.533360000018134e+000	 1.039952884917595e+001
0	 4.866680000008065e+000	 2.600030000017850e+000	 1.039949957907680e+001
0	 4.866680000008069e+000	 2.666700000016667e+000	 1.039947315086861e+001
0	 4.933340000004134e+000	 2.000000000000000e+000	 1.038903897788367e+001
0	 4.933340000004133e+000	 2.066670000003317e+000	 1.038901368966797e+001
0	 4.933340000004133e+000	 2.133340000006534e+000	 1.038905689270367e+001
0	 4.933340000004133e+000	 2.200010000009550e+000	 1.038915271759536e+001
0	 4.933340000004133e+000	 2.266680000012267e+000	 1.038928529494770e+001
0	 4.933340000004134e+000	 2.333350000014584e+000	 1.038943875536528e+001
0	 4.933340000004133e+000	 2.400020000016400e+000	 1.038959722945275e+001
0	 4.933340000004134e+000	 2.466690000017617e+000	 1.038974484781470e+001
0	 4.933340000004133e+000	 2.533360000018133e+000	 1.038986574105574e+001
0	 4.933340000004135e+000	 2.600030000017851e+000	 1.038994403978049e+001
0	 4.933340000004134e+000	 2.666700000016666e+000	 1.038996387459357e+001
0	 5.000000000000001e+000	 2.000000000000000e+000	 1.037716717959016e+001
0	 5.000000000000002e+000	 2.066670000003317e+000	 1.037767964451665e+001
0	 5.000000000000002e+000	 2.133340000006534e+000	 1.037820464751122e+001
0	 5.000000000000002e+000	 2.200010000009550e+000	 1.037872341791428e+001
0	 5.000000000000000e+000	 2.266680000012267e+000	 1.037921718506623e+001
0	 5.000000000000000e+000	 2.333350000014584e+000	 1.037966717830748e+001
0	 5.000000000000000e+000	 2.400020000016401e+000	 1.038005462697844e+001
0	 5.000000000000000e+000	 2.466690000017617e+000	 1.038036076041948e+001
0	 5.000000000000002e+000	 2.533360000018134e+000	 1.038056680797102e+001
0	 5.000000000000000e+000	 2.600030000017850e+000	 1.038065399897344e+001
0	 5.000000000000000e+000	 2.666700000016665e+000	 1.038060356276713e+001
0	 5.066659999995866e+000	 2.000000000000000e+000	 1.036554769134566e+001
0	 5.066659999995867e+000	 2.066670000003317e+000	 1.036666935226380e+001
0	 5.066659999995868e+000	 2.133340000006534e+000	 1.036772195494989e+001
0	 5.066659999995867e+000	 2.200010000009550e+000	 1.036868604239071e+001
0	 5.066659999995867e+000	 2.266680000012268e+000	 1.036954215757302e+001
0	 5.066659999995865e+000	 2.333350000014584e+000	 1.037027084348361e+001
0	 5.066659999995868e+000	 2.400020000016401e+000	 1.037085264310923e+001
0	 5.066659999995866e+000	 2.466690000017617e+000	 1.037126809943666e+001
0	 5.066659999995867e+000	 2.533360000018133e+000	 1.037149775545264e+001
0	 5.066659999995867e+000	 2.600030000017850e+000	 1.037152215414394e+001
0	 5.066659999995867e+000	 2.666700000016666e+000	 1.037132183849730e+001
0	 5.133319999991933e+000	 2.000000000000000e+000	 1.035418789486224e+001
0	 5.133319999991932e+000	 2.066670000003317e+000	 1.035593771728097e+001
0	 5.133319999991933e+000	 2.133340000006534e+000	 1.035752117571295e+001
0	 5.133319999991933e+000	 2.200010000009551e+000	 1.035892034170190e+001
0	 5.133319999991933e+000	 2.266680000012267e+000	 1.036011728679154e+001
0	 5.133319999991933e+000	 2.333350000014584e+000	 1.036109408252561e+001
0	 5.133319999991934e+000	 2.400020000016400e+000	 1.036183280044781e+001
0	 5.133319999991933e+000	 2.466690000017618e+000	 1.036231551210184e+001
0	 5.133319999991930e+000	 2.533360000018133e+000	 1.036252428903145e+001
0	 5.133319999991933e+000	 2.600030000017851e+000	 1.036244120278029e+001
0	 5.133319999991933e+000	 2.666700000016667e+000	 1.036204832489210e+001
0	 5.199979999988400e+000	 2.000000000000000e+000	 1.034309517185198e+001
0	 5.199979999988399e+000	 2.066670000003317e+000	 1.034543964393974e+001
0	 5.199979999988398e+000	 2.133340000006534e+000	 1.034751467049370e+001
0	 5.199979999988400e+000	 2.200010000009550e+000	 1.034930606652513e+001
0	 5.199979999988400e+000	 2.266680000012267e+000	 1.035079964704529e+001
0	 5.199979999988400e+000	 2.333350000014584e+000	 1.035198122706542e+001
0	 5.199979999988399e+000	 2.400020000016401e+000	 1.035283662159681e+001
0	 5.199979999988398e+000	 2.466690000017617e+000	 1.035335164565068e+001
0	 5.199979999988400e+000	 2.533360000018133e+000	 1.035351211423827e+001
0	 5.199979999988398e+000	 2.600030000017850e+000	 1.035330384237082e+001
0	 5.199979999988400e+000	 2.666700000016666e+000	 1.035271264505956e+001
0	 5.266639999985466e+000	 2.000000000000000e+000	 1.033227690402697e+001
0	 5.266639999985465e+000	 2.066670000003317e+000	 1.033513003661166e+001
0	 5.266639999985466e+000	 2.133340000006534e+000	 1.033761479998542e+001
0	 5.266639999985466e+000	 2.200010000009550e+000	 1.033972296753765e+001
0	 5.266639999985467e+000	 2.266680000012267e+000	 1.034144631265773e+001
0	 5.266639999985466e+000	 2.333350000014584e+000	 1.034277660873503e+001
0	 5.266639999985467e+000	 2.400020000016401e+000	 1.034370562915894e+001
0	 5.266639999985466e+000	 2.466690000017617e+000	 1.034422514731880e+001
0	 5.266639999985463e+000	 2.533360000018133e+000	 1.034432693660398e+001
0	 5.266639999985467e+000	 2.600030000017851e+000	 1.034400277040383e+001
0	 5.266639999985465e+000	 2.666700000016666e+000	 1.034324442210771e+001
0	 5.333299999983333e+000	 2.000000000000000e+000	 1.032174047309929e+001
0	 5.333299999983333e+000	 2.066670000003317e+000	 1.032496379966828e+001
0	 5.333299999983333e+000	 2.133340000006534e+000	 1.032773392488139e+001
0	 5.333299999983335e+000	 2.200010000009550e+000	 1.033005079541673e+001
0	 5.333299999983333e+000	 2.266680000012268e+000	 1.033191435795237e+001
0	 5.333299999983335e+000	 2.333350000014584e+000	 1.033332455916638e+001
0	 5.333299999983334e+000	 2.400020000016401e+000	 1.033428134573686e+001
0	 5.333299999983334e+000	 2.466690000017617e+000	 1.033478466434186e+001
0	 5.333299999983335e+000	 2.533360000018134e+000	 1.033483446165944e+001
0	 5.333299999983333e+000	 2.600030000017851e+000	 1.033443068436766e+001
0	 5.333299999983334e+000	 2.666700000016666e+000	 1.033357327914459e+001
0	 4.666700000016666e+000	 2.666700000016666e+000	 1.042959853530532e+001
0	 4.666700000016666e+000	 2.733360000014533e+000	 1.042815605273209e+001
0	 4.666700000016665e+000	 2.800020000011599e+000	 1.042628265671917e+001
0	 4.666700000016666e+000	 2.866680000008067e+000	 1.042394724990174e+001
0	 4.666700000016667e+000	 2.933340000004133e+000	 1.042111873491505e+001
0	 4.666700000016666e+000	 3.000000000000000e+000	 1.041776601439434e+001
0	 4.666700000016665e+000	 3.066659999995866e+000	 1.041385799097485e+001
0	 4.666700000016666e+000	 3.133319999991934e+000	 1.040936356729189e+001
0	 4.666700000016665e+000	 3.199979999988400e+000	 1.040425164598074e+001
0	 4.666700000016665e+000	 3.266639999985467e+000	 1.039849112967671e+001
0	 4.666700000016666e+000	 3.333299999983334e+000	 1.039205092101515e+001
0	 4.733360000014534e+000	 2.666700000016666e+000	 1.041922010433247e+001
0	 4.733360000014534e+000	 2.733360000014534e+000	 1.041835765711922e+001
0	 4.733360000014532e+000	 2.800020000011599e+000	 1.041695652919720e+001
0	 4.733360000014534e+000	 2.866680000008067e+000	 1.041500187714679e+001
0	 4.733360000014534e+000	 2.933340000004133e+000	 1.041247885754839e+001
0	 4.733360000014534e+000	 3.000000000000000e+000	 1.040937262698239e+001
0	 4.733360000014534e+000	 3.066659999995867e+000	 1.040566834202924e+001
0	 4.733360000014534e+000	 3.133319999991934e+000	 1.040135115926940e+001
0	 4.733360000014534e+000	 3.199979999988400e+000	 1.039640623528329e+001
0	 4.733360000014534e+000	 3.266639999985468e+000	 1.039081872665144e+001
0	 4.733360000014534e+000	 3.333299999983334e+000	 1.038457378995430e+001
0	 4.800020000011601e+000	 2.666700000016667e+000	 1.040920176848425e+001
0	 4.800020000011601e+000	 2.733360000014532e+000	 1.040869293497680e+001
0	 4.800020000011600e+000	 2.800020000011599e+000	 1.040758375372614e+001
0	 4.800020000011601e+000	 2.866680000008067e+000	 1.040587295773683e+001
0	 4.800020000011599e+000	 2.933340000004135e+000	 1.040355928001347e+001
0	 4.800020000011600e+000	 3.000000000000000e+000	 1.040064145356067e+001
0	 4.800020000011601e+000	 3.066659999995867e+000	 1.039711821138304e+001
0	 4.800020000011601e+000	 3.133319999991933e+000	 1.039298828648524e+001
0	 4.800020000011600e+000	 3.199979999988401e+000	 1.038825041187193e+001
0	 4.800020000011599e+000	 3.266639999985466e+000	 1.038290332054779e+001
0	 4.800020000011601e+000	 3.333299999983335e+000	 1.037694574551751e+001
0	 4.866680000008069e+000	 2.666700000016667e+000	 1.039947315086861e+001
0	 4.866680000008066e+000	 2.733360000014534e+000	 1.039913029486474e+001
0	 4.866680000008067e+000	 2.800020000011600e+000	 1.039816532288702e+001
0	 4.866680000008065e+000	 2.866680000008066e+000	 1.039658786684330e+001
0	 4.866680000008066e+000	 2.933340000004133e+000	 1.039440755864137e+001
0	 4.866680000008067e+000	 3.000000000000000e+000	 1.039163403018907e+001
0	 4.866680000008066e+000	 3.066659999995866e+000	 1.038827691339427e+001
0	 4.866680000008066e+000	 3.133319999991934e+000	 1.038434584016482e+001
0	 4.866680000008067e+000	 3.199979999988400e+000	 1.037985044240863e+001
0	 4.866680000008066e+000	 3.266639999985467e+000	 1.037480035203359e+001
0	 4.866680000008066e+000	 3.333299999983333e+000	 1.036920520094763e+001
0	 4.933340000004134e+000	 2.666700000016666e+000	 1.038996387459358e+001
0	 4.933340000004135e+000	 2.733360000014533e+000	 1.038963814534292e+001
0	 4.933340000004134e+000	 2.800020000011601e+000	 1.038870222926091e+001
0	 4.933340000004132e+000	 2.866680000008067e+000	 1.038717397963763e+001
0	 4.933340000004133e+000	 2.933340000004133e+000	 1.038507124976315e+001
0	 4.933340000004135e+000	 3.000000000000000e+000	 1.038241189292756e+001
0	 4.933340000004134e+000	 3.066659999995867e+000	 1.037921376242097e+001
0	 4.933340000004134e+000	 3.133319999991934e+000	 1.037549471153352e+001
0	 4.933340000004132e+000	 3.199979999988401e+000	 1.037127259355536e+001
0	 4.933340000004135e+000	 3.266639999985467e+000	 1.036656526177663e+001
0	 4.933340000004134e+000	 3.333299999983334e+000	 1.036139056948752e+001
0	 5.000000000000000e+000	 2.666700000016665e+000	 1.038060356276713e+001
0	 5.000000000000000e+000	 2.733360000014533e+000	 1.038018489497126e+001
0	 5.000000000000000e+000	 2.800020000011600e+000	 1.037919546542886e+001
0	 5.000000000000002e+000	 2.866680000008067e+000	 1.037765867129127e+001
0	 5.000000000000002e+000	 2.933340000004133e+000	 1.037559790970987e+001
0	 5.000000000000000e+000	 3.000000000000000e+000	 1.037303657783605e+001
0	 5.000000000000002e+000	 3.066659999995867e+000	 1.036999807282121e+001
0	 5.000000000000000e+000	 3.133319999991934e+000	 1.036650579181675e+001
0	 5.000000000000002e+000	 3.199979999988401e+000	 1.036258313197409e+001
0	 5.000000000000001e+000	 3.266639999985467e+000	 1.035825349044470e+001
0	 4.999999999999999e+000	 3.333299999983334e+000	 1.035354026438002e+001
0	 5.066659999995867e+000	 2.666700000016666e+000	 1.037132183849731e+001
0	 5.066659999995868e+000	 2.733360000014533e+000	 1.037073895230969e+001
0	 5.066659999995868e+000	 2.800020000011599e+000	 1.036964602397192e+001
0	 5.066659999995866e+000	 2.866680000008067e+000	 1.036806931697567e+001
0	 5.066659999995866e+000	 2.933340000004133e+000	 1.036603509481263e+001
0	 5.066659999995867e+000	 3.000000000000000e+000	 1.036356962097450e+001
0	 5.066659999995866e+000	 3.066659999995866e+000	 1.036069915895299e+001
0	 5.066659999995867e+000	 3.133319999991934e+000	 1.035744997223985e+001
0	 5.066659999995868e+000	 3.199979999988400e+000	 1.035384832432680e+001
0	 5.066659999995868e+000	 3.266639999985467e+000	 1.034992047870560e+001
0	 5.066659999995866e+000	 3.333299999983334e+000	 1.034569269886801e+001
0	 5.133319999991933e+000	 2.666700000016667e+000	 1.036204832489210e+001
0	 5.133319999991935e+000	 2.733360000014533e+000	 1.036126872591812e+001
0	 5.133319999991932e+000	 2.800020000011599e+000	 1.036005489747118e+001
0	 5.133319999991932e+000	 2.866680000008067e+000	 1.035843329186229e+001
0	 5.133319999991933e+000	 2.933340000004133e+000	 1.035643036140250e+001
0	 5.133319999991935e+000	 3.000000000000000e+000	 1.035407255840285e+001
0	 5.133319999991934e+000	 3.066659999995868e+000	 1.035138633517441e+001
0	 5.133319999991932e+000	 3.133319999991933e+000	 1.034839814402826e+001
0	 5.133319999991933e+000	 3.199979999988400e+000	 1.034513443727547e+001
0	 5.133319999991934e+000	 3.266639999985467e+000	 1.034162166722713e+001
0	 5.133319999991931e+000	 3.333299999983333e+000	 1.033788628619435e+001
0	 5.199979999988400e+000	 2.666700000016666e+000	 1.035271264505956e+001
0	 5.199979999988398e+000	 2.733360000014533e+000	 1.035174262435649e+001
0	 5.199979999988401e+000	 2.800020000011600e+000	 1.035042307850770e+001
0	 5.199979999988399e+000	 2.866680000008067e+000	 1.034877797112258e+001
0	 5.199979999988400e+000	 2.933340000004133e+000	 1.034683126581056e+001
0	 5.199979999988399e+000	 3.000000000000000e+000	 1.034460692618106e+001
0	 5.199979999988400e+000	 3.066659999995867e+000	 1.034212891584351e+001
0	 5.199979999988399e+000	 3.133319999991933e+000	 1.033942119840736e+001
0	 5.199979999988400e+000	 3.199979999988401e+000	 1.033650773748206e+001
0	 5.199979999988398e+000	 3.266639999985467e+000	 1.033341249667708e+001
0	 5.199979999988399e+000	 3.333299999983334e+000	 1.033015943960189e+001
0	 5.266639999985465e+000	 2.666700000016666e+000	 1.034324442210771e+001
0	 5.266639999985464e+000	 2.733360000014533e+000	 1.034212905618474e+001
0	 5.266639999985467e+000	 2.800020000011600e+000	 1.034075155966257e+001
0	 5.266639999985466e+000	 2.866680000008066e+000	 1.033913072992802e+001
0	 5.266639999985465e+000	 2.933340000004133e+000	 1.033728536436791e+001
0	 5.266639999985466e+000	 3.000000000000000e+000	 1.033523426036906e+001
0	 5.266639999985466e+000	 3.066659999995868e+000	 1.033299621531833e+001
0	 5.266639999985465e+000	 3.133319999991933e+000	 1.033059002660254e+001
0	 5.266639999985467e+000	 3.199979999988400e+000	 1.032803449160856e+001
0	 5.266639999985465e+000	 3.266639999985467e+000	 1.032534840772325e+001
0	 5.266639999985465e+000	 3.333299999983333e+000	 1.032255057233348e+001
0	 5.333299999983334e+000	 2.666700000016666e+000	 1.033357327914459e+001
0	 5.333299999983334e+000	 2.733360000014532e+000	 1.033239642996280e+001
0	 5.333299999983334e+000	 2.800020000011599e+000	 1.033104133351687e+001
0	 5.333299999983334e+000	 2.866680000008067e+000	 1.032951894345008e+001
0	 5.333299999983335e+000	 2.933340000004133e+000	 1.032784021340564e+001
0	 5.333299999983333e+000	 3.000000000000000e+000	 1.032601609702683e+001
0	 5.333299999983334e+000	 3.066659999995867e+000	 1.032405754795692e+001
0	 5.333299999983334e+000	 3.133319999991934e+000	 1.032197551983921e+001
0	 5.333299999983333e+000	 3.199979999988401e+000	 1.031978096631695e+001
0	 5.333299999983334e+000	 3.266639999985468e+000	 1.031748484103344e+001
0	 5.333299999983335e+000	 3.333299999983334e+000	 1.031509809763198e+001
0	 4.666700000016666e+000	 3.333299999983334e+000	 1.039205092101515e+001
0	 4.666700000016665e+000	 3.399969999982150e+000	 1.038526548999216e+001
0	 4.666700000016666e+000	 3.466639999981866e+000	 1.037849229178815e+001
0	 4.666700000016666e+000	 3.533309999982382e+000	 1.037173165082004e+001
0	 4.666700000016665e+000	 3.599979999983599e+000	 1.036498389150473e+001
0	 4.666700000016667e+000	 3.666649999985417e+000	 1.035824933825913e+001
0	 4.666700000016667e+000	 3.733319999987733e+000	 1.035152831550012e+001
0	 4.666700000016666e+000	 3.799989999990449e+000	 1.034482114764463e+001
0	 4.666700000016667e+000	 3.866659999993467e+000	 1.033812815910953e+001
0	 4.666700000016666e+000	 3.933329999996684e+000	 1.033144967431171e+001
0	 4.666700000016667e+000	 4.000000000000001e+000	 1.032478601766808e+001
0	 4.733360000014534e+000	 3.333299999983334e+000	 1.038457378995430e+001
0	 4.733360000014534e+000	 3.399969999982150e+000	 1.037803511062017e+001
0	 4.733360000014533e+000	 3.466639999981868e+000	 1.037157118972720e+001
0	 4.733360000014533e+000	 3.533309999982383e+000	 1.036517144666534e+001
0	 4.733360000014534e+000	 3.599979999983600e+000	 1.035882530082455e+001
0	 4.733360000014534e+000	 3.666649999985415e+000	 1.035252217159477e+001
0	 4.733360000014534e+000	 3.733319999987733e+000	 1.034625147836598e+001
0	 4.733360000014531e+000	 3.799989999990450e+000	 1.034000264052809e+001
0	 4.733360000014534e+000	 3.866659999993467e+000	 1.033376507747109e+001
0	 4.733360000014534e+000	 3.933329999996684e+000	 1.032752820858491e+001
0	 4.733360000014533e+000	 4.000000000000000e+000	 1.032128145325947e+001
0	 4.800020000011601e+000	 3.333299999983335e+000	 1.037694574551751e+001
0	 4.800020000011601e+000	 3.399969999982150e+000	 1.037074346124842e+001
0	 4.800020000011599e+000	 3.466639999981866e+000	 1.036465198737036e+001
0	 4.800020000011600e+000	 3.533309999982383e+000	 1.035865185589234e+001
0	 4.800020000011598e+000	 3.599979999983599e+000	 1.035272359882335e+001
0	 4.800020000011599e+000	 3.666649999985417e+000	 1.034684774817241e+001
0	 4.800020000011599e+000	 3.733319999987733e+000	 1.034100483594849e+001
0	 4.800020000011600e+000	 3.799989999990451e+000	 1.033517539416057e+001
0	 4.800020000011599e+000	 3.866659999993466e+000	 1.032933995481768e+001
0	 4.800020000011600e+000	 3.933329999996684e+000	 1.032347904992876e+001
0	 4.800020000011600e+000	 4.000000000000000e+000	 1.031757321150284e+001
0	 4.866680000008066e+000	 3.333299999983333e+000	 1.036920520094763e+001
0	 4.866680000008066e+000	 3.399969999982150e+000	 1.036341046289650e+001
0	 4.866680000008066e+000	 3.466639999981866e+000	 1.035773939138720e+001
0	 4.866680000008066e+000	 3.533309999982382e+000	 1.035216564869378e+001
0	 4.866680000008066e+000	 3.599979999983599e+000	 1.034666289709026e+001
0	 4.866680000008067e+000	 3.666649999985417e+000	 1.034120479885067e+001
0	 4.866680000008068e+000	 3.733319999987734e+000	 1.033576501624903e+001
0	 4.866680000008066e+000	 3.799989999990450e+000	 1.033031721155939e+001
0	 4.866680000008066e+000	 3.866659999993467e+000	 1.032483504705576e+001
0	 4.866680000008066e+000	 3.933329999996684e+000	 1.031929218501214e+001
0	 4.866680000008067e+000	 4.000000000000001e+000	 1.031366228770257e+001
0	 4.933340000004134e+000	 3.333299999983334e+000	 1.036139056948752e+001
0	 4.933340000004133e+000	 3.399969999982149e+000	 1.035605603658403e+001
0	 4.933340000004134e+000	 3.466639999981867e+000	 1.035083810844729e+001
0	 4.933340000004134e+000	 3.533309999982384e+000	 1.034570559526237e+001
0	 4.933340000004135e+000	 3.599979999983600e+000	 1.034062730721432e+001
0	 4.933340000004133e+000	 3.666649999985416e+000	 1.033557205448819e+001
0	 4.933340000004134e+000	 3.733319999987733e+000	 1.033050864726903e+001
0	 4.933340000004133e+000	 3.799989999990450e+000	 1.032540589574189e+001
0	 4.933340000004135e+000	 3.866659999993468e+000	 1.032023261009182e+001
0	 4.933340000004135e+000	 3.933329999996684e+000	 1.031495760050386e+001
0	 4.933340000004135e+000	 4.000000000000001e+000	 1.030954967716306e+001
0	 4.999999999999999e+000	 3.333299999983334e+000	 1.035354026438002e+001
0	 5.000000000000000e+000	 3.399969999982150e+000	 1.034870010333063e+001
0	 5.000000000000000e+000	 3.466639999981867e+000	 1.034395284522022e+001
0	 5.000000000000000e+000	 3.533309999982383e+000	 1.033926446579086e+001
0	 5.000000000000001e+000	 3.599979999983600e+000	 1.033460094078465e+001
0	 4.999999999999999e+000	 3.666649999985416e+000	 1.032992824594362e+001
0	 5.000000000000002e+000	 3.733319999987733e+000	 1.032521235700987e+001
0	 5.000000000000002e+000	 3.799989999990450e+000	 1.032041924972544e+001
0	 5.000000000000001e+000	 3.866659999993467e+000	 1.031551489983239e+001
0	 5.000000000000002e+000	 3.933329999996685e+000	 1.031046528307280e+001
0	 5.000000000000000e+000	 4.000000000000001e+000	 1.030523637518871e+001
0	 5.066659999995866e+000	 3.333299999983334e+000	 1.034569269886802e+001
0	 5.066659999995867e+000	 3.399969999982150e+000	 1.034136258415592e+001
0	 5.066659999995867e+000	 3.466639999981866e+000	 1.033708830837556e+001
0	 5.066659999995866e+000	 3.533309999982384e+000	 1.033283503047199e+001
0	 5.066659999995868e+000	 3.599979999983600e+000	 1.032856790939032e+001
0	 5.066659999995867e+000	 3.666649999985416e+000	 1.032425210407561e+001
0	 5.066659999995867e+000	 3.733319999987733e+000	 1.031985277347294e+001
0	 5.066659999995869e+000	 3.799989999990451e+000	 1.031533507652736e+001
0	 5.066659999995866e+000	 3.866659999993466e+000	 1.031066417218396e+001
0	 5.066659999995867e+000	 3.933329999996685e+000	 1.030580521938780e+001
0	 5.066659999995867e+000	 4.000000000000000e+000	 1.030072337708394e+001
0	 5.133319999991931e+000	 3.333299999983333e+000	 1.033788628619435e+001
0	 5.133319999991933e+000	 3.399969999982150e+000	 1.033406340007952e+001
0	 5.133319999991933e+000	 3.466639999981867e+000	 1.033024920458286e+001
0	 5.133319999991932e+000	 3.533309999982383e+000	 1.032641005949848e+001
0	 5.133319999991933e+000	 3.599979999983600e+000	 1.032251232462042e+001
0	 5.133319999991934e+000	 3.666649999985416e+000	 1.031852235974279e+001
0	 5.133319999991934e+000	 3.733319999987733e+000	 1.031440652465963e+001
0	 5.133319999991934e+000	 3.799989999990450e+000	 1.031013117916502e+001
0	 5.133319999991933e+000	 3.866659999993467e+000	 1.030566268305302e+001
0	 5.133319999991932e+000	 3.933329999996683e+000	 1.030096739611772e+001
0	 5.133319999991932e+000	 4.000000000000001e+000	 1.029601167815312e+001
0	 5.199979999988399e+000	 3.333299999983334e+000	 1.033015943960189e+001
0	 5.199979999988398e+000	 3.399969999982150e+000	 1.032682247212103e+001
0	 5.199979999988400e+000	 3.466639999981868e+000	 1.032344024051173e+001
0	 5.199979999988400e+000	 3.533309999982383e+000	 1.031998232306305e+001
0	 5.199979999988400e+000	 3.599979999983599e+000	 1.031641829806404e+001
0	 5.199979999988400e+000	 3.666649999985417e+000	 1.031271774380380e+001
0	 5.199979999988400e+000	 3.733319999987733e+000	 1.030885023857135e+001
0	 5.199979999988400e+000	 3.799989999990451e+000	 1.030478536065577e+001
0	 5.199979999988399e+000	 3.866659999993466e+000	 1.030049268834610e+001
0	 5.199979999988399e+000	 3.933329999996684e+000	 1.029594179993139e+001
0	 5.199979999988400e+000	 4.000000000000001e+000	 1.029110227370067e+001
0	 5.266639999985465e+000	 3.333299999983333e+000	 1.032255057233347e+001
0	 5.266639999985467e+000	 3.399969999982150e+000	 1.031965972130008e+001
0	 5.266639999985465e+000	 3.466639999981867e+000	 1.031666612283172e+001
0	 5.266639999985467e+000	 3.533309999982383e+000	 1.031354459135843e+001
0	 5.266639999985466e+000	 3.599979999983600e+000	 1.031026994131028e+001
0	 5.266639999985466e+000	 3.666649999985417e+000	 1.030681698711729e+001
0	 5.266639999985467e+000	 3.733319999987733e+000	 1.030316054320951e+001
0	 5.266639999985466e+000	 3.799989999990450e+000	 1.029927542401695e+001
0	 5.266639999985466e+000	 3.866659999993467e+000	 1.029513644396967e+001
0	 5.266639999985466e+000	 3.933329999996684e+000	 1.029071841749768e+001
0	 5.266639999985465e+000	 4.000000000000000e+000	 1.028599615903100e+001
0	 5.333299999983335e+000	 3.333299999983334e+000	 1.031509809763198e+001
0	 5.333299999983331e+000	 3.399969999982149e+000	 1.031259506863628e+001
0	 5.333299999983335e+000	 3.466639999981866e+000	 1.030993155821240e+001
0	 5.333299999983334e+000	 3.533309999982383e+000	 1.030708963457737e+001
0	 5.333299999983335e+000	 3.599979999983600e+000	 1.030405136594820e+001
0	 5.333299999983335e+000	 3.666649999985416e+000	 1.030079882054190e+001
0	 5.333299999983334e+000	 3.733319999987733e+000	 1.029731406657548e+001
0	 5.333299999983333e+000	 3.799989999990450e+000	 1.029357917226593e+001
0	 5.333299999983334e+000	 3.866659999993467e+000	 1.028957620583026e+001
0	 5.333299999983335e+000	 3.933329999996684e+000	 1.028528723548546e+001
0	 5.333299999983334e+000	 4.000000000000000e+000	 1.028069432944850e+001
0	 4.666700000016667e+000	 4.000000000000001e+000	 1.032478601766808e+001
0	 4.666700000016666e+000	 4.066670000003317e+000	 1.031815060814973e+001
0	 4.666700000016666e+000	 4.133340000006535e+000	 1.031154354943409e+001
0	 4.666700000016667e+000	 4.200010000009550e+000	 1.030494519299749e+001
0	 4.666700000016666e+000	 4.266680000012268e+000	 1.029833589031630e+001
0	 4.666700000016665e+000	 4.333350000014583e+000	 1.029169599286686e+001
0	 4.666700000016665e+000	 4.400020000016400e+000	 1.028500585212552e+001
0	 4.666700000016667e+000	 4.466690000017618e+000	 1.027824581956864e+001
0	 4.666700000016666e+000	 4.533360000018134e+000	 1.027139624667256e+001
0	 4.666700000016668e+000	 4.600030000017852e+000	 1.026443748491362e+001
0	 4.666700000016666e+000	 4.666700000016666e+000	 1.025734988576815e+001
0	 4.733360000014533e+000	 4.000000000000000e+000	 1.032128145325947e+001
0	 4.733360000014532e+000	 4.066670000003317e+000	 1.031501825916637e+001
0	 4.733360000014533e+000	 4.133340000006534e+000	 1.030873096816696e+001
0	 4.733360000014532e+000	 4.200010000009551e+000	 1.030240734093585e+001
0	 4.733360000014533e+000	 4.266680000012268e+000	 1.029603513814764e+001
0	 4.733360000014534e+000	 4.333350000014584e+000	 1.028960212047694e+001
0	 4.733360000014533e+000	 4.400020000016402e+000	 1.028309604859835e+001
0	 4.733360000014533e+000	 4.466690000017618e+000	 1.027650468318646e+001
0	 4.733360000014533e+000	 4.533360000018131e+000	 1.026981578491589e+001
0	 4.733360000014534e+000	 4.600030000017852e+000	 1.026301711446124e+001
0	 4.733360000014533e+000	 4.666700000016665e+000	 1.025609643249707e+001
0	 4.800020000011600e+000	 4.000000000000000e+000	 1.031757321150284e+001
0	 4.800020000011599e+000	 4.066670000003316e+000	 1.031161026594440e+001
0	 4.800020000011600e+000	 4.133340000006532e+000	 1.030558696383199e+001
0	 4.800020000011601e+000	 4.200010000009550e+000	 1.029949722343555e+001
0	 4.800020000011600e+000	 4.266680000012267e+000	 1.029333496302506e+001
0	 4.800020000011600e+000	 4.333350000014584e+000	 1.028709410087049e+001
0	 4.800020000011600e+000	 4.400020000016401e+000	 1.028076855524178e+001
0	 4.800020000011600e+000	 4.466690000017619e+000	 1.027435224440892e+001
0	 4.800020000011598e+000	 4.533360000018132e+000	 1.026783908664185e+001
0	 4.800020000011601e+000	 4.600030000017850e+000	 1.026122300021054e+001
0	 4.800020000011601e+000	 4.666700000016666e+000	 1.025449790338493e+001
0	 4.866680000008067e+000	 4.000000000000001e+000	 1.031366228770257e+001
0	 4.866680000008067e+000	 4.066670000003319e+000	 1.030793933697579e+001
0	 4.866680000008066e+000	 4.133340000006533e+000	 1.030213408933949e+001
0	 4.866680000008065e+000	 4.200010000009550e+000	 1.029624536905614e+001
0	 4.866680000008066e+000	 4.266680000012268e+000	 1.029027200038811e+001
0	 4.866680000008068e+000	 4.333350000014586e+000	 1.028421280759788e+001
0	 4.866680000008066e+000	 4.400020000016400e+000	 1.027806661494787e+001
0	 4.866680000008068e+000	 4.466690000017619e+000	 1.027183224670050e+001
0	 4.866680000008067e+000	 4.533360000018135e+000	 1.026550852711820e+001
0	 4.866680000008065e+000	 4.600030000017850e+000	 1.025909428046338e+001
0	 4.866680000008067e+000	 4.666700000016666e+000	 1.025258833099850e+001
0	 4.933340000004135e+000	 4.000000000000001e+000	 1.030954967716306e+001
0	 4.933340000004134e+000	 4.066670000003317e+000	 1.030401818075248e+001
0	 4.933340000004133e+000	 4.133340000006534e+000	 1.029839489759982e+001
0	 4.933340000004134e+000	 4.200010000009550e+000	 1.029268230635709e+001
0	 4.933340000004133e+000	 4.266680000012266e+000	 1.028688288567631e+001
0	 4.933340000004133e+000	 4.333350000014583e+000	 1.028099911420948e+001
0	 4.933340000004133e+000	 4.400020000016400e+000	 1.027503347060860e+001
0	 4.933340000004134e+000	 4.466690000017618e+000	 1.026898843352568e+001
0	 4.933340000004134e+000	 4.533360000018133e+000	 1.026286648161270e+001
0	 4.933340000004132e+000	 4.600030000017849e+000	 1.025667009352165e+001
0	 4.933340000004135e+000	 4.666700000016668e+000	 1.025040174790455e+001
0	 5.000000000000000e+000	 4.000000000000001e+000	 1.030523637518871e+001
0	 5.000000000000002e+000	 4.066670000003318e+000	 1.029985950576641e+001
0	 5.000000000000001e+000	 4.133340000006534e+000	 1.029439194152328e+001
0	 5.000000000000002e+000	 4.200010000009551e+000	 1.028883856389797e+001
0	 5.000000000000001e+000	 4.266680000012268e+000	 1.028320425432921e+001
0	 5.000000000000000e+000	 4.333350000014583e+000	 1.027749389425567e+001
0	 5.000000000000001e+000	 4.400020000016402e+000	 1.027171236511601e+001
0	 5.000000000000000e+000	 4.466690000017617e+000	 1.026586454834892e+001
0	 5.000000000000001e+000	 4.533360000018135e+000	 1.025995532539309e+001
0	 4.999999999999999e+000	 4.600030000017849e+000	 1.025398957768719e+001
0	 5.000000000000000e+000	 4.666700000016665e+000	 1.024797218666989e+001
0	 5.066659999995867e+000	 4.000000000000000e+000	 1.030072337708394e+001
0	 5.066659999995867e+000	 4.066670000003318e+000	 1.029547602050957e+001
0	 5.066659999995867e+000	 4.133340000006535e+000	 1.029014777402021e+001
0	 5.066659999995866e+000	 4.200010000009550e+000	 1.028474467023832e+001
0	 5.066659999995867e+000	 4.266680000012268e+000	 1.027927274178636e+001
0	 5.066659999995866e+000	 4.333350000014584e+000	 1.027373802128679e+001
0	 5.066659999995868e+000	 4.400020000016403e+000	 1.026814654136210e+001
0	 5.066659999995866e+000	 4.466690000017617e+000	 1.026250433463474e+001
0	 5.066659999995868e+000	 4.533360000018134e+000	 1.025681743372717e+001
0	 5.066659999995866e+000	 4.600030000017851e+000	 1.025109187126186e+001
0	 5.066659999995866e+000	 4.666700000016666e+000	 1.024533367986127e+001
0	 5.133319999991932e+000	 4.000000000000001e+000	 1.029601167815312e+001
0	 5.133319999991933e+000	 4.066670000003318e+000	 1.029088043347392e+001
0	 5.133319999991933e+000	 4.133340000006535e+000	 1.028568494800097e+001
0	 5.133319999991935e+000	 4.200010000009552e+000	 1.028043115393763e+001
0	 5.133319999991933e+000	 4.266680000012268e+000	 1.027512498348727e+001
0	 5.133319999991934e+000	 4.333350000014585e+000	 1.026977236885323e+001
0	 5.133319999991934e+000	 4.400020000016400e+000	 1.026437924223888e+001
0	 5.133319999991933e+000	 4.466690000017619e+000	 1.025895153584758e+001
0	 5.133319999991932e+000	 4.533360000018133e+000	 1.025349518188268e+001
0	 5.133319999991933e+000	 4.600030000017851e+000	 1.024801611254752e+001
0	 5.133319999991934e+000	 4.666700000016666e+000	 1.024252026004546e+001
0	 5.199979999988400e+000	 4.000000000000001e+000	 1.029110227370067e+001
0	 5.199979999988399e+000	 4.066670000003317e+000	 1.028608545315140e+001
0	 5.199979999988398e+000	 4.133340000006534e+000	 1.028102601637587e+001
0	 5.199979999988399e+000	 4.200010000009550e+000	 1.027592854355545e+001
0	 5.199979999988400e+000	 4.266680000012268e+000	 1.027079761487149e+001
0	 5.199979999988401e+000	 4.333350000014585e+000	 1.026563781050535e+001
0	 5.199979999988400e+000	 4.400020000016402e+000	 1.026045371063838e+001
0	 5.199979999988399e+000	 4.466690000017616e+000	 1.025524989545195e+001
0	 5.199979999988400e+000	 4.533360000018133e+000	 1.025003094512737e+001
0	 5.199979999988399e+000	 4.600030000017850e+000	 1.024480143984602e+001
0	 5.199979999988399e+000	 4.666700000016666e+000	 1.023956595978926e+001
0	 5.266639999985465e+000	 4.000000000000000e+000	 1.028599615903100e+001
0	 5.266639999985466e+000	 4.066670000003318e+000	 1.028110378803399e+001
0	 5.266639999985465e+000	 4.133340000006534e+000	 1.027619353205527e+001
0	 5.266639999985465e+000	 4.200010000009550e+000	 1.027126736765130e+001
0	 5.266639999985466e+000	 4.266680000012267e+000	 1.026632727137858e+001
0	 5.266639999985467e+000	 4.333350000014584e+000	 1.026137521979353e+001
0	 5.266639999985466e+000	 4.400020000016401e+000	 1.025641318945261e+001
0	 5.266639999985466e+000	 4.466690000017618e+000	 1.025144315691228e+001
0	 5.266639999985466e+000	 4.533360000018134e+000	 1.024646709872901e+001
0	 5.266639999985466e+000	 4.600030000017851e+000	 1.024148699145924e+001
0	 5.266639999985466e+000	 4.666700000016667e+000	 1.023650481165942e+001
0	 5.333299999983334e+000	 4.000000000000000e+000	 1.028069432944850e+001
0	 5.333299999983332e+000	 4.066670000003316e+000	 1.027594814661362e+001
0	 5.333299999983334e+000	 4.133340000006534e+000	 1.027121004794948e+001
0	 5.333299999983336e+000	 4.200010000009550e+000	 1.026647815478474e+001
0	 5.333299999983333e+000	 4.266680000012268e+000	 1.026175058844806e+001
0	 5.333299999983335e+000	 4.333350000014584e+000	 1.025702547026812e+001
0	 5.333299999983333e+000	 4.400020000016401e+000	 1.025230092157358e+001
0	 5.333299999983334e+000	 4.466690000017618e+000	 1.024757506369310e+001
0	 5.333299999983334e+000	 4.533360000018134e+000	 1.024284601795537e+001
0	 5.333299999983333e+000	 4.600030000017851e+000	 1.023811190568902e+001
0	 5.333299999983335e+000	 4.666700000016667e+000	 1.023337084822272e+001
0	 4.666700000016666e+000	 4.666700000016666e+000	 1.025734988576815e+001
0	 4.666700000016666e+000	 4.733360000014534e+000	 1.025026565379149e+001
0	 4.666700000016665e+000	 4.800020000011599e+000	 1.024332574985236e+001
0	 4.666700000016666e+000	 4.866680000008067e+000	 1.023652688109143e+001
0	 4.666700000016667e+000	 4.933340000004135e+000	 1.022986575464941e+001
0	 4.666700000016666e+000	 5.000000000000001e+000	 1.022333907766699e+001
0	 4.666700000016667e+000	 5.066659999995867e+000	 1.021694355728484e+001
0	 4.666700000016666e+000	 5.133319999991935e+000	 1.021067590064366e+001
0	 4.666700000016665e+000	 5.199979999988400e+000	 1.020453281488413e+001
0	 4.666700000016667e+000	 5.266639999985468e+000	 1.019851100714691e+001
0	 4.666700000016667e+000	 5.333299999983335e+000	 1.019260718457272e+001
0	 4.733360000014533e+000	 4.666700000016665e+000	 1.025609643249707e+001
0	 4.733360000014534e+000	 4.733360000014534e+000	 1.024918956468459e+001
0	 4.733360000014533e+000	 4.800020000011600e+000	 1.024243386135116e+001
0	 4.733360000014534e+000	 4.866680000008067e+000	 1.023582251360892e+001
0	 4.733360000014534e+000	 4.933340000004135e+000	 1.022934871257000e+001
0	 4.733360000014534e+000	 4.999999999999999e+000	 1.022300564934653e+001
0	 4.733360000014534e+000	 5.066659999995867e+000	 1.021678651505065e+001
0	 4.733360000014534e+000	 5.133319999991935e+000	 1.021068450079446e+001
0	 4.733360000014534e+000	 5.199979999988400e+000	 1.020469279769011e+001
0	 4.733360000014534e+000	 5.266639999985467e+000	 1.019880459684972e+001
0	 4.733360000014534e+000	 5.333299999983335e+000	 1.019301308938540e+001
0	 4.800020000011601e+000	 4.666700000016666e+000	 1.025449790338493e+001
0	 4.800020000011601e+000	 4.733360000014534e+000	 1.024779637552427e+001
0	 4.800020000011601e+000	 4.800020000011601e+000	 1.024124657570790e+001
0	 4.800020000011601e+000	 4.866680000008067e+000	 1.023483884336652e+001
0	 4.800020000011599e+000	 4.933340000004133e+000	 1.022856351793084e+001
0	 4.800020000011601e+000	 5.000000000000001e+000	 1.022241093883155e+001
0	 4.800020000011600e+000	 5.066659999995867e+000	 1.021637144549938e+001
0	 4.800020000011601e+000	 5.133319999991934e+000	 1.021043537736501e+001
0	 4.800020000011600e+000	 5.199979999988400e+000	 1.020459307385913e+001
0	 4.800020000011601e+000	 5.266639999985467e+000	 1.019883487441246e+001
0	 4.800020000011600e+000	 5.333299999983335e+000	 1.019315111845569e+001
0	 4.866680000008067e+000	 4.666700000016666e+000	 1.025258833099850e+001
0	 4.866680000008067e+000	 4.733360000014534e+000	 1.024611444842945e+001
0	 4.866680000008068e+000	 4.800020000011600e+000	 1.023978732212528e+001
0	 4.866680000008065e+000	 4.866680000008067e+000	 1.023359510418238e+001
0	 4.866680000008066e+000	 4.933340000004133e+000	 1.022752594669718e+001
0	 4.866680000008067e+000	 4.999999999999999e+000	 1.022156800176608e+001
0	 4.866680000008066e+000	 5.066659999995866e+000	 1.021570942148549e+001
0	 4.866680000008066e+000	 5.133319999991934e+000	 1.020993835795181e+001
0	 4.866680000008067e+000	 5.199979999988401e+000	 1.020424296326147e+001
0	 4.866680000008067e+000	 5.266639999985467e+000	 1.019861138951085e+001
0	 4.866680000008066e+000	 5.333299999983334e+000	 1.019303178879635e+001
0	 4.933340000004135e+000	 4.666700000016668e+000	 1.025040174790456e+001
0	 4.933340000004135e+000	 4.733360000014533e+000	 1.024417214551903e+001
0	 4.933340000004132e+000	 4.800020000011599e+000	 1.023807952980597e+001
0	 4.933340000004134e+000	 4.866680000008067e+000	 1.023211052987465e+001
0	 4.933340000004135e+000	 4.933340000004134e+000	 1.022625177483428e+001
0	 4.933340000004134e+000	 5.000000000000000e+000	 1.022048989379411e+001
0	 4.933340000004134e+000	 5.066659999995868e+000	 1.021481151586342e+001
0	 4.933340000004134e+000	 5.133319999991934e+000	 1.020920327015143e+001
0	 4.933340000004132e+000	 5.199979999988400e+000	 1.020365178576738e+001
0	 4.933340000004136e+000	 5.266639999985469e+000	 1.019814369182052e+001
0	 4.933340000004134e+000	 5.333299999983335e+000	 1.019266561742012e+001
0	 5.000000000000000e+000	 4.666700000016665e+000	 1.024797218666988e+001
0	 5.000000000000001e+000	 4.733360000014534e+000	 1.024199782891193e+001
0	 5.000000000000001e+000	 4.800020000011600e+000	 1.023614662795271e+001
0	 5.000000000000001e+000	 4.866680000008067e+000	 1.023040435426146e+001
0	 5.000000000000001e+000	 4.933340000004134e+000	 1.022475677830737e+001
0	 5.000000000000001e+000	 5.000000000000000e+000	 1.021918967055969e+001
0	 5.000000000000001e+000	 5.066659999995866e+000	 1.021368880148760e+001
0	 5.000000000000001e+000	 5.133319999991935e+000	 1.020823994156034e+001
0	 5.000000000000001e+000	 5.199979999988400e+000	 1.020282886124713e+001
0	 5.000000000000001e+000	 5.266639999985467e+000	 1.019744133101718e+001
0	 5.000000000000000e+000	 5.333299999983333e+000	 1.019206312133971e+001
0	 5.066659999995866e+000	 4.666700000016666e+000	 1.024533367986127e+001
0	 5.066659999995868e+000	 4.733360000014535e+000	 1.023961986072704e+001
0	 5.066659999995868e+000	 4.800020000011601e+000	 1.023401204576815e+001
0	 5.066659999995866e+000	 4.866680000008067e+000	 1.022849581116094e+001
0	 5.066659999995868e+000	 4.933340000004136e+000	 1.022305673308171e+001
0	 5.066659999995867e+000	 5.000000000000001e+000	 1.021768038770678e+001
0	 5.066659999995867e+000	 5.066659999995867e+000	 1.021235235121247e+001
0	 5.066659999995868e+000	 5.133319999991935e+000	 1.020705819977510e+001
0	 5.066659999995868e+000	 5.199979999988401e+000	 1.020178350957100e+001
0	 5.066659999995868e+000	 5.266639999985467e+000	 1.019651385677647e+001
0	 5.066659999995866e+000	 5.333299999983335e+000	 1.019123481756786e+001
0	 5.133319999991934e+000	 4.666700000016666e+000	 1.024252026004546e+001
0	 5.133319999991934e+000	 4.733360000014534e+000	 1.023706660308327e+001
0	 5.133319999991933e+000	 4.800020000011601e+000	 1.023169921245501e+001
0	 5.133319999991933e+000	 4.866680000008067e+000	 1.022640413439125e+001
0	 5.133319999991934e+000	 4.933340000004135e+000	 1.022116741512253e+001
0	 5.133319999991934e+000	 5.000000000000000e+000	 1.021597510087941e+001
0	 5.133319999991933e+000	 5.066659999995866e+000	 1.021081323789246e+001
0	 5.133319999991933e+000	 5.133319999991934e+000	 1.020566787239220e+001
0	 5.133319999991933e+000	 5.199979999988400e+000	 1.020052505060923e+001
0	 5.133319999991934e+000	 5.266639999985468e+000	 1.019537081877407e+001
0	 5.133319999991933e+000	 5.333299999983334e+000	 1.019019122311731e+001
0	 5.199979999988399e+000	 4.666700000016666e+000	 1.023956595978926e+001
0	 5.199979999988399e+000	 4.733360000014533e+000	 1.023436641809951e+001
0	 5.199979999988399e+000	 4.800020000011600e+000	 1.022923155721595e+001
0	 5.199979999988400e+000	 4.866680000008068e+000	 1.022414855777049e+001
0	 5.199979999988400e+000	 4.933340000004134e+000	 1.021910460039507e+001
0	 5.199979999988400e+000	 5.000000000000000e+000	 1.021408686572159e+001
0	 5.199979999988400e+000	 5.066659999995867e+000	 1.020908253438199e+001
0	 5.199979999988399e+000	 5.133319999991934e+000	 1.020407878700819e+001
0	 5.199979999988400e+000	 5.199979999988401e+000	 1.019906280423209e+001
0	 5.199979999988400e+000	 5.266639999985467e+000	 1.019402176668565e+001
0	 5.199979999988400e+000	 5.333299999983335e+000	 1.018894285500078e+001
0	 5.266639999985466e+000	 4.666700000016667e+000	 1.023650481165942e+001
0	 5.266639999985465e+000	 4.733360000014534e+000	 1.023154766789468e+001
0	 5.266639999985467e+000	 4.800020000011601e+000	 1.022663250925367e+001
0	 5.266639999985467e+000	 4.866680000008067e+000	 1.022174831511684e+001
0	 5.266639999985465e+000	 4.933340000004133e+000	 1.021688406486457e+001
0	 5.266639999985465e+000	 4.999999999999999e+000	 1.021202873787733e+001
0	 5.266639999985465e+000	 5.066659999995867e+000	 1.020717131353551e+001
0	 5.266639999985467e+000	 5.133319999991935e+000	 1.020230077121954e+001
0	 5.266639999985467e+000	 5.199979999988401e+000	 1.019740609030986e+001
0	 5.266639999985466e+000	 5.266639999985468e+000	 1.019247625018687e+001
0	 5.266639999985465e+000	 5.333299999983333e+000	 1.018750023023102e+001
0	 5.333299999983335e+000	 4.666700000016667e+000	 1.023337084822272e+001
0	 5.333299999983333e+000	 4.733360000014533e+000	 1.022863871458765e+001
0	 5.333299999983335e+000	 4.800020000011600e+000	 1.022392549777085e+001
0	 5.333299999983335e+000	 4.866680000008068e+000	 1.021922264024838e+001
0	 5.333299999983335e+000	 4.933340000004134e+000	 1.021452158449628e+001
0	 5.333299999983333e+000	 5.000000000000000e+000	 1.020981377299062e+001
0	 5.333299999983334e+000	 5.066659999995866e+000	 1.020509064820744e+001
0	 5.333299999983335e+000	 5.133319999991934e+000	 1.020034365262281e+001
0	 5.333299999983333e+000	 5.199979999988400e+000	 1.019556422871276e+001
0	 5.333299999983334e+000	 5.266639999985467e+000	 1.019074381895339e+001
0	 5.333299999983333e+000	 5.333299999983333e+000	 1.018587386582074e+001
0	 4.666700000016667e+000	 5.333299999983335e+000	 1.019260718457272e+001
0	 4.666700000016665e+000	 5.399969999982150e+000	 1.018681857758655e+001
0	 4.666700000016666e+000	 5.466639999981867e+000	 1.018114398082645e+001
0	 4.666700000016665e+000	 5.533309999982382e+000	 1.017557981682203e+001
0	 4.666700000016666e+000	 5.599979999983599e+000	 1.017012250810295e+001
0	 4.666700000016665e+000	 5.666649999985416e+000	 1.016476847719887e+001
0	 4.666700000016666e+000	 5.733319999987732e+000	 1.015951414663940e+001
0	 4.666700000016666e+000	 5.799989999990449e+000	 1.015435593895421e+001
0	 4.666700000016666e+000	 5.866659999993467e+000	 1.014929027667295e+001
0	 4.666700000016667e+000	 5.933329999996684e+000	 1.014431358232526e+001
0	 4.666700000016666e+000	 6.000000000000000e+000	 1.013942227844079e+001
0	 4.733360000014534e+000	 5.333299999983335e+000	 1.019301308938539e+001
0	 4.733360000014534e+000	 5.399969999982151e+000	 1.018731926058601e+001
0	 4.733360000014533e+000	 5.466639999981866e+000	 1.018172880262217e+001
0	 4.733360000014532e+000	 5.533309999982382e+000	 1.017623938122647e+001
0	 4.733360000014534e+000	 5.599979999983600e+000	 1.017084866213146e+001
0	 4.733360000014534e+000	 5.666649999985416e+000	 1.016555431106969e+001
0	 4.733360000014534e+000	 5.733319999987733e+000	 1.016035399377373e+001
0	 4.733360000014533e+000	 5.799989999990449e+000	 1.015524537597614e+001
0	 4.733360000014533e+000	 5.866659999993466e+000	 1.015022612340949e+001
0	 4.733360000014533e+000	 5.933329999996683e+000	 1.014529390180635e+001
0	 4.733360000014533e+000	 5.999999999999999e+000	 1.014044637689927e+001
0	 4.800020000011600e+000	 5.333299999983335e+000	 1.019315111845569e+001
0	 4.800020000011600e+000	 5.399969999982150e+000	 1.018754836415273e+001
0	 4.800020000011599e+000	 5.466639999981864e+000	 1.018204040329215e+001
0	 4.800020000011600e+000	 5.533309999982384e+000	 1.017662588309797e+001
0	 4.800020000011600e+000	 5.599979999983599e+000	 1.017130345079418e+001
0	 4.800020000011600e+000	 5.666649999985417e+000	 1.016607175360475e+001
0	 4.800020000011599e+000	 5.733319999987732e+000	 1.016092943875369e+001
0	 4.800020000011600e+000	 5.799989999990451e+000	 1.015587515346502e+001
0	 4.800020000011599e+000	 5.866659999993465e+000	 1.015090754496269e+001
0	 4.800020000011599e+000	 5.933329999996684e+000	 1.014602526047074e+001
0	 4.800020000011601e+000	 6.000000000000000e+000	 1.014122694721314e+001
0	 4.866680000008066e+000	 5.333299999983334e+000	 1.019303178879635e+001
0	 4.866680000008065e+000	 5.399969999982148e+000	 1.018751764898939e+001
0	 4.866680000008066e+000	 5.466639999981866e+000	 1.018209160200213e+001
0	 4.866680000008067e+000	 5.533309999982384e+000	 1.017675301483853e+001
0	 4.866680000008066e+000	 5.599979999983598e+000	 1.017150125450253e+001
0	 4.866680000008066e+000	 5.666649999985416e+000	 1.016633568799806e+001
0	 4.866680000008067e+000	 5.733319999987733e+000	 1.016125568232910e+001
0	 4.866680000008067e+000	 5.799989999990451e+000	 1.015626060449955e+001
0	 4.866680000008065e+000	 5.866659999993467e+000	 1.015134982151339e+001
0	 4.866680000008065e+000	 5.933329999996684e+000	 1.014652270037455e+001
0	 4.866680000008067e+000	 6.000000000000002e+000	 1.014177860808700e+001
0	 4.933340000004134e+000	 5.333299999983335e+000	 1.019266561742012e+001
0	 4.933340000004133e+000	 5.399969999982149e+000	 1.018723887579862e+001
0	 4.933340000004134e+000	 5.466639999981867e+000	 1.018189521791783e+001
0	 4.933340000004134e+000	 5.533309999982382e+000	 1.017663446885012e+001
0	 4.933340000004135e+000	 5.599979999983601e+000	 1.017145645366794e+001
0	 4.933340000004133e+000	 5.666649999985416e+000	 1.016636099744367e+001
0	 4.933340000004133e+000	 5.733319999987733e+000	 1.016134792524971e+001
0	 4.933340000004134e+000	 5.799989999990450e+000	 1.015641706215851e+001
0	 4.933340000004133e+000	 5.866659999993466e+000	 1.015156823324245e+001
0	 4.933340000004134e+000	 5.933329999996683e+000	 1.014680126357396e+001
0	 4.933340000004133e+000	 5.999999999999998e+000	 1.014211597822542e+001
0	 5.000000000000000e+000	 5.333299999983333e+000	 1.019206312133971e+001
0	 5.000000000000000e+000	 5.399969999982149e+000	 1.018672380528309e+001
0	 5.000000000000001e+000	 5.466639999981866e+000	 1.018146407020498e+001
0	 5.000000000000001e+000	 5.533309999982384e+000	 1.017628393753477e+001
0	 5.000000000000000e+000	 5.599979999983601e+000	 1.017118342870183e+001
0	 4.999999999999999e+000	 5.666649999985416e+000	 1.016616256513557e+001
0	 5.000000000000001e+000	 5.733319999987733e+000	 1.016122136826536e+001
0	 5.000000000000001e+000	 5.799989999990450e+000	 1.015635985952062e+001
0	 5.000000000000001e+000	 5.866659999993466e+000	 1.015157806033071e+001
0	 5.000000000000002e+000	 5.933329999996683e+000	 1.014687599212503e+001
0	 5.000000000000001e+000	 6.000000000000000e+000	 1.014225367633300e+001
0	 5.066659999995866e+000	 5.333299999983335e+000	 1.019123481756786e+001
0	 5.066659999995867e+000	 5.399969999982150e+000	 1.018598419814544e+001
0	 5.066659999995867e+000	 5.466639999981866e+000	 1.018081097802933e+001
0	 5.066659999995865e+000	 5.533309999982381e+000	 1.017571511329444e+001
0	 5.066659999995867e+000	 5.599979999983598e+000	 1.017069656001561e+001
0	 5.066659999995866e+000	 5.666649999985416e+000	 1.016575527426777e+001
0	 5.066659999995866e+000	 5.733319999987733e+000	 1.016089121212579e+001
0	 5.066659999995869e+000	 5.799989999990451e+000	 1.015610432966457e+001
0	 5.066659999995866e+000	 5.866659999993466e+000	 1.015139458295899e+001
0	 5.066659999995867e+000	 5.933329999996683e+000	 1.014676192808393e+001
0	 5.066659999995866e+000	 5.999999999999999e+000	 1.014220632111431e+001
0	 5.133319999991933e+000	 5.333299999983334e+000	 1.019019122311731e+001
0	 5.133319999991933e+000	 5.399969999982150e+000	 1.018503181508832e+001
0	 5.133319999991932e+000	 5.466639999981866e+000	 1.017994876055662e+001
0	 5.133319999991933e+000	 5.533309999982383e+000	 1.017494168853113e+001
0	 5.133319999991934e+000	 5.599979999983600e+000	 1.017001022802073e+001
0	 5.133319999991934e+000	 5.666649999985416e+000	 1.016515400803433e+001
0	 5.133319999991934e+000	 5.733319999987732e+000	 1.016037265758084e+001
0	 5.133319999991933e+000	 5.799989999990447e+000	 1.015566580566914e+001
0	 5.133319999991934e+000	 5.866659999993467e+000	 1.015103308130815e+001
0	 5.133319999991933e+000	 5.933329999996683e+000	 1.014647411350678e+001
0	 5.133319999991934e+000	 6.000000000000001e+000	 1.014198853127392e+001
0	 5.199979999988400e+000	 5.333299999983335e+000	 1.018894285500078e+001
0	 5.199979999988400e+000	 5.399969999982149e+000	 1.018387841681436e+001
0	 5.199979999988400e+000	 5.466639999981865e+000	 1.017889023695257e+001
0	 5.199979999988400e+000	 5.533309999982384e+000	 1.017397735564682e+001
0	 5.199979999988398e+000	 5.599979999983598e+000	 1.016913881312857e+001
0	 5.199979999988401e+000	 5.666649999985417e+000	 1.016437364962923e+001
0	 5.199979999988400e+000	 5.733319999987733e+000	 1.015968090538024e+001
0	 5.199979999988399e+000	 5.799989999990449e+000	 1.015505962061303e+001
0	 5.199979999988400e+000	 5.866659999993467e+000	 1.015050883555903e+001
0	 5.199979999988400e+000	 5.933329999996683e+000	 1.014602759044969e+001
0	 5.199979999988400e+000	 6.000000000000002e+000	 1.014161492551642e+001
0	 5.266639999985465e+000	 5.333299999983333e+000	 1.018750023023102e+001
0	 5.266639999985466e+000	 5.399969999982151e+000	 1.018253576402624e+001
0	 5.266639999985467e+000	 5.466639999981866e+000	 1.017764822638291e+001
0	 5.266639999985465e+000	 5.533309999982384e+000	 1.017283580704353e+001
0	 5.266639999985466e+000	 5.599979999983599e+000	 1.016809669575056e+001
0	 5.266639999985466e+000	 5.666649999985417e+000	 1.016342908224649e+001
0	 5.266639999985467e+000	 5.733319999987733e+000	 1.015883115627382e+001
0	 5.266639999985466e+000	 5.799989999990451e+000	 1.015430110757497e+001
0	 5.266639999985466e+000	 5.866659999993466e+000	 1.014983712589248e+001
0	 5.266639999985466e+000	 5.933329999996684e+000	 1.014543740096879e+001
0	 5.266639999985465e+000	 5.999999999999998e+000	 1.014110012254639e+001
0	 5.333299999983333e+000	 5.333299999983333e+000	 1.018587386582074e+001
0	 5.333299999983333e+000	 5.399969999982149e+000	 1.018101561742656e+001
0	 5.333299999983334e+000	 5.466639999981867e+000	 1.017623554801337e+001
0	 5.333299999983334e+000	 5.533309999982384e+000	 1.017153073512322e+001
0	 5.333299999983334e+000	 5.599979999983600e+000	 1.016689825629812e+001
0	 5.333299999983334e+000	 5.666649999985415e+000	 1.016233518908014e+001
0	 5.333299999983335e+000	 5.733319999987733e+000	 1.015783861101133e+001
0	 5.333299999983334e+000	 5.799989999990448e+000	 1.015340559963370e+001
0	 5.333299999983333e+000	 5.866659999993467e+000	 1.014903323248930e+001
0	 5.333299999983335e+000	 5.933329999996684e+000	 1.014471858712019e+001
0	 5.333299999983333e+000	 5.999999999999998e+000	 1.014045874106839e+001
0	 4.666700000016666e+000	 6.000000000000000e+000	 1.013942227844079e+001
0	 4.666700000016665e+000	 6.066670000003318e+000	 1.013462929537239e+001
0	 4.666700000016667e+000	 6.133340000006533e+000	 1.012994870219234e+001
0	 4.666700000016666e+000	 6.200010000009551e+000	 1.012537862950950e+001
0	 4.666700000016667e+000	 6.266680000012267e+000	 1.012091720793274e+001
0	 4.666700000016667e+000	 6.333350000014587e+000	 1.011656256807087e+001
0	 4.666700000016666e+000	 6.400020000016402e+000	 1.011231284053278e+001
0	 4.666700000016667e+000	 6.466690000017617e+000	 1.010816615592730e+001
0	 4.666700000016666e+000	 6.533360000018133e+000	 1.010412064486329e+001
0	 4.666700000016666e+000	 6.600030000017847e+000	 1.010017443794963e+001
0	 4.666700000016666e+000	 6.666700000016667e+000	 1.009632566579515e+001
0	 4.733360000014533e+000	 5.999999999999999e+000	 1.014044637689927e+001
0	 4.733360000014531e+000	 6.066670000003316e+000	 1.013569492298963e+001
0	 4.733360000014533e+000	 6.133340000006532e+000	 1.013105095448263e+001
0	 4.733360000014532e+000	 6.200010000009550e+000	 1.012651219726660e+001
0	 4.733360000014534e+000	 6.266680000012268e+000	 1.012207637722984e+001
0	 4.733360000014533e+000	 6.333350000014584e+000	 1.011774122026067e+001
0	 4.733360000014533e+000	 6.400020000016400e+000	 1.011350445224741e+001
0	 4.733360000014533e+000	 6.466690000017619e+000	 1.010936379907838e+001
0	 4.733360000014533e+000	 6.533360000018132e+000	 1.010531698664189e+001
0	 4.733360000014534e+000	 6.600030000017850e+000	 1.010136174082626e+001
0	 4.733360000014534e+000	 6.666700000016669e+000	 1.009749578751982e+001
0	 4.800020000011601e+000	 6.000000000000000e+000	 1.014122694721314e+001
0	 4.800020000011599e+000	 6.066670000003315e+000	 1.013652243787529e+001
0	 4.800020000011597e+000	 6.133340000006532e+000	 1.013192073699034e+001
0	 4.800020000011599e+000	 6.200010000009551e+000	 1.012741924955392e+001
0	 4.800020000011599e+000	 6.266680000012264e+000	 1.012301538056169e+001
0	 4.800020000011600e+000	 6.333350000014585e+000	 1.011870653500929e+001
0	 4.800020000011601e+000	 6.400020000016402e+000	 1.011449011789239e+001
0	 4.800020000011600e+000	 6.466690000017618e+000	 1.011036353420662e+001
0	 4.800020000011599e+000	 6.533360000018134e+000	 1.010632418894764e+001
0	 4.800020000011601e+000	 6.600030000017850e+000	 1.010236948711109e+001
0	 4.800020000011601e+000	 6.666700000016667e+000	 1.009849683369265e+001
0	 4.866680000008067e+000	 6.000000000000002e+000	 1.014177860808700e+001
0	 4.866680000008066e+000	 6.066670000003316e+000	 1.013712591292917e+001
0	 4.866680000008066e+000	 6.133340000006532e+000	 1.013257151713083e+001
0	 4.866680000008067e+000	 6.200010000009551e+000	 1.012811258862280e+001
0	 4.866680000008067e+000	 6.266680000012268e+000	 1.012374629533594e+001
0	 4.866680000008067e+000	 6.333350000014585e+000	 1.011946980520109e+001
0	 4.866680000008066e+000	 6.400020000016401e+000	 1.011528028614910e+001
0	 4.866680000008068e+000	 6.466690000017618e+000	 1.011117490611085e+001
0	 4.866680000008066e+000	 6.533360000018134e+000	 1.010715083301714e+001
0	 4.866680000008065e+000	 6.600030000017849e+000	 1.010320523479884e+001
0	 4.866680000008068e+000	 6.666700000016667e+000	 1.009933527938685e+001
0	 4.933340000004133e+000	 5.999999999999998e+000	 1.014211597822542e+001
0	 4.933340000004134e+000	 6.066670000003318e+000	 1.013751942105108e+001
0	 4.933340000004133e+000	 6.133340000006531e+000	 1.013301676231951e+001
0	 4.933340000004134e+000	 6.200010000009551e+000	 1.012860501672457e+001
0	 4.933340000004134e+000	 6.266680000012268e+000	 1.012428119896023e+001
0	 4.933340000004135e+000	 6.333350000014584e+000	 1.012004232372039e+001
0	 4.933340000004135e+000	 6.400020000016403e+000	 1.011588540569895e+001
0	 4.933340000004134e+000	 6.466690000017617e+000	 1.011180745958984e+001
0	 4.933340000004133e+000	 6.533360000018134e+000	 1.010780550008696e+001
0	 4.933340000004134e+000	 6.600030000017849e+000	 1.010387654188426e+001
0	 4.933340000004135e+000	 6.666700000016668e+000	 1.010001759967565e+001
0	 5.000000000000001e+000	 6.000000000000000e+000	 1.014225367633300e+001
0	 5.000000000000003e+000	 6.066670000003318e+000	 1.013771703514083e+001
0	 5.000000000000000e+000	 6.133340000006531e+000	 1.013326993997177e+001
0	 5.000000000000002e+000	 6.200010000009551e+000	 1.012890933611062e+001
0	 5.000000000000001e+000	 6.266680000012268e+000	 1.012463216884228e+001
0	 5.000000000000000e+000	 6.333350000014584e+000	 1.012043538345155e+001
0	 5.000000000000001e+000	 6.400020000016401e+000	 1.011631592522332e+001
0	 4.999999999999999e+000	 6.466690000017617e+000	 1.011227073944242e+001
0	 5.000000000000000e+000	 6.533360000018134e+000	 1.010829677139371e+001
0	 4.999999999999998e+000	 6.600030000017848e+000	 1.010439096636205e+001
0	 4.999999999999999e+000	 6.666700000016665e+000	 1.010055026963228e+001
0	 5.066659999995866e+000	 5.999999999999999e+000	 1.014220632111431e+001
0	 5.066659999995866e+000	 6.066670000003317e+000	 1.013773282809822e+001
0	 5.066659999995866e+000	 6.133340000006534e+000	 1.013334451750300e+001
0	 5.066659999995867e+000	 6.200010000009553e+000	 1.012903834903227e+001
0	 5.066659999995867e+000	 6.266680000012268e+000	 1.012481128238968e+001
0	 5.066659999995866e+000	 6.333350000014583e+000	 1.012066027727891e+001
0	 5.066659999995868e+000	 6.400020000016402e+000	 1.011658229340359e+001
0	 5.066659999995866e+000	 6.466690000017616e+000	 1.011257429046738e+001
0	 5.066659999995868e+000	 6.533360000018134e+000	 1.010863322817393e+001
0	 5.066659999995866e+000	 6.600030000017849e+000	 1.010475606622691e+001
0	 5.066659999995866e+000	 6.666700000016666e+000	 1.010093976432997e+001
0	 5.133319999991934e+000	 6.000000000000001e+000	 1.014198853127392e+001
0	 5.133319999991932e+000	 6.066670000003318e+000	 1.013758087282305e+001
0	 5.133319999991935e+000	 6.133340000006536e+000	 1.013325396232859e+001
0	 5.133319999991934e+000	 6.200010000009552e+000	 1.012900485774083e+001
0	 5.133319999991933e+000	 6.266680000012267e+000	 1.012483061701013e+001
0	 5.133319999991933e+000	 6.333350000014583e+000	 1.012072829808680e+001
0	 5.133319999991933e+000	 6.400020000016400e+000	 1.011669495892116e+001
0	 5.133319999991933e+000	 6.466690000017620e+000	 1.011272765746352e+001
0	 5.133319999991932e+000	 6.533360000018132e+000	 1.010882345166423e+001
0	 5.133319999991933e+000	 6.600030000017851e+000	 1.010497939947359e+001
0	 5.133319999991932e+000	 6.666700000016667e+000	 1.010119255884194e+001
0	 5.199979999988400e+000	 6.000000000000002e+000	 1.014161492551642e+001
0	 5.199979999988400e+000	 6.066670000003317e+000	 1.013727524221511e+001
0	 5.199979999988400e+000	 6.133340000006535e+000	 1.013301174186391e+001
0	 5.199979999988400e+000	 6.200010000009552e+000	 1.012882166448769e+001
0	 5.199979999988400e+000	 6.266680000012268e+000	 1.012470225011129e+001
0	 5.199979999988400e+000	 6.333350000014584e+000	 1.012065073875957e+001
0	 5.199979999988400e+000	 6.400020000016402e+000	 1.011666437045740e+001
0	 5.199979999988400e+000	 6.466690000017617e+000	 1.011274038522965e+001
0	 5.199979999988400e+000	 6.533360000018134e+000	 1.010887602310115e+001
0	 5.199979999988398e+000	 6.600030000017849e+000	 1.010506852409679e+001
0	 5.199979999988400e+000	 6.666700000016667e+000	 1.010131512824142e+001
0	 5.266639999985465e+000	 5.999999999999998e+000	 1.014110012254639e+001
0	 5.266639999985466e+000	 6.066670000003317e+000	 1.013683000917422e+001
0	 5.266639999985466e+000	 6.133340000006534e+000	 1.013263132352439e+001
0	 5.266639999985466e+000	 6.200010000009551e+000	 1.012850157152415e+001
0	 5.266639999985467e+000	 6.266680000012267e+000	 1.012443825910079e+001
0	 5.266639999985467e+000	 6.333350000014585e+000	 1.012043889218156e+001
0	 5.266639999985464e+000	 6.400020000016398e+000	 1.011650097669371e+001
0	 5.266639999985466e+000	 6.466690000017616e+000	 1.011262201856454e+001
0	 5.266639999985466e+000	 6.533360000018135e+000	 1.010879952372128e+001
0	 5.266639999985466e+000	 6.600030000017850e+000	 1.010503099809121e+001
0	 5.266639999985466e+000	 6.666700000016667e+000	 1.010131394760160e+001
0	 5.333299999983333e+000	 5.999999999999998e+000	 1.014045874106839e+001
0	 5.333299999983334e+000	 6.066670000003317e+000	 1.013625924660015e+001
0	 5.333299999983333e+000	 6.133340000006530e+000	 1.013212617472537e+001
0	 5.333299999983334e+000	 6.200010000009550e+000	 1.012805738110157e+001
0	 5.333299999983335e+000	 6.266680000012268e+000	 1.012405072138630e+001
0	 5.333299999983334e+000	 6.333350000014584e+000	 1.012010405123709e+001
0	 5.333299999983335e+000	 6.400020000016401e+000	 1.011621522631148e+001
0	 5.333299999983334e+000	 6.466690000017618e+000	 1.011238210226700e+001
0	 5.333299999983333e+000	 6.533360000018132e+000	 1.010860253476120e+001
0	 5.333299999983333e+000	 6.600030000017849e+000	 1.010487437945160e+001
0	 5.333299999983334e+000	 6.666700000016665e+000	 1.010119549199575e+001
0	 4.666700000016666e+000	 6.666700000016667e+000	 1.009632566579515e+001
0	 4.666700000016666e+000	 6.733360000014533e+000	 1.009256983347362e+001
0	 4.666700000016665e+000	 6.800020000011599e+000	 1.008890283613553e+001
0	 4.666700000016666e+000	 6.866680000008066e+000	 1.008532509972442e+001
0	 4.666700000016666e+000	 6.933340000004132e+000	 1.008183705018385e+001
0	 4.666700000016666e+000	 6.999999999999999e+000	 1.007843911345733e+001
0	 4.666700000016666e+000	 7.066659999995867e+000	 1.007513171548841e+001
0	 4.666700000016667e+000	 7.133319999991935e+000	 1.007191528222061e+001
0	 4.666700000016666e+000	 7.199979999988400e+000	 1.006879023959745e+001
0	 4.666700000016667e+000	 7.266639999985467e+000	 1.006575701356246e+001
0	 4.666700000016665e+000	 7.333299999983333e+000	 1.006281603005917e+001
0	 4.733360000014534e+000	 6.666700000016669e+000	 1.009749578751982e+001
0	 4.733360000014534e+000	 6.733360000014533e+000	 1.009371940777235e+001
0	 4.733360000014533e+000	 6.800020000011599e+000	 1.009003332211274e+001
0	 4.733360000014535e+000	 6.866680000008067e+000	 1.008643763549130e+001
0	 4.733360000014534e+000	 6.933340000004134e+000	 1.008293245285835e+001
0	 4.733360000014534e+000	 6.999999999999999e+000	 1.007951787916422e+001
0	 4.733360000014534e+000	 7.066659999995869e+000	 1.007619401935920e+001
0	 4.733360000014534e+000	 7.133319999991936e+000	 1.007296097839361e+001
0	 4.733360000014533e+000	 7.199979999988400e+000	 1.006981886121776e+001
0	 4.733360000014534e+000	 7.266639999985467e+000	 1.006676777278193e+001
0	 4.733360000014534e+000	 7.333299999983334e+000	 1.006380781803645e+001
0	 4.800020000011601e+000	 6.666700000016667e+000	 1.009849683369265e+001
0	 4.800020000011602e+000	 6.733360000014534e+000	 1.009471026298016e+001
0	 4.800020000011601e+000	 6.800020000011601e+000	 1.009101425920633e+001
0	 4.800020000011601e+000	 6.866680000008066e+000	 1.008740862682013e+001
0	 4.800020000011600e+000	 6.933340000004134e+000	 1.008389317027053e+001
0	 4.800020000011601e+000	 7.000000000000001e+000	 1.008046769400658e+001
0	 4.800020000011600e+000	 7.066659999995865e+000	 1.007713200247721e+001
0	 4.800020000011600e+000	 7.133319999991935e+000	 1.007388590013145e+001
0	 4.800020000011601e+000	 7.199979999988401e+000	 1.007072919141828e+001
0	 4.800020000011600e+000	 7.266639999985466e+000	 1.006766168078665e+001
0	 4.800020000011600e+000	 7.333299999983334e+000	 1.006468317268556e+001
0	 4.866680000008068e+000	 6.666700000016667e+000	 1.009933527938685e+001
0	 4.866680000008067e+000	 6.733360000014533e+000	 1.009554784826002e+001
0	 4.866680000008068e+000	 6.800020000011601e+000	 1.009185024403722e+001
0	 4.866680000008068e+000	 6.866680000008069e+000	 1.008824199115801e+001
0	 4.866680000008067e+000	 6.933340000004133e+000	 1.008472261406197e+001
0	 4.866680000008066e+000	 6.999999999999997e+000	 1.008129163718865e+001
0	 4.866680000008066e+000	 7.066659999995866e+000	 1.007794858497762e+001
0	 4.866680000008066e+000	 7.133319999991934e+000	 1.007469298186847e+001
0	 4.866680000008067e+000	 7.199979999988402e+000	 1.007152435230074e+001
0	 4.866680000008068e+000	 7.266639999985467e+000	 1.006844222071400e+001
0	 4.866680000008069e+000	 7.333299999983334e+000	 1.006544611154781e+001
0	 4.933340000004135e+000	 6.666700000016668e+000	 1.010001759967565e+001
0	 4.933340000004136e+000	 6.733360000014533e+000	 1.009623761277486e+001
0	 4.933340000004133e+000	 6.800020000011601e+000	 1.009254587322632e+001
0	 4.933340000004134e+000	 6.866680000008068e+000	 1.008894164595207e+001
0	 4.933340000004133e+000	 6.933340000004134e+000	 1.008542419587416e+001
0	 4.933340000004135e+000	 7.000000000000001e+000	 1.008199278791465e+001
0	 4.933340000004134e+000	 7.066659999995870e+000	 1.007864668699558e+001
0	 4.933340000004133e+000	 7.133319999991933e+000	 1.007538515803898e+001
0	 4.933340000004133e+000	 7.199979999988400e+000	 1.007220746596691e+001
0	 4.933340000004136e+000	 7.266639999985467e+000	 1.006911287570139e+001
0	 4.933340000004134e+000	 7.333299999983335e+000	 1.006610065216445e+001
0	 4.999999999999999e+000	 6.666700000016665e+000	 1.010055026963228e+001
0	 5.000000000000002e+000	 6.733360000014533e+000	 1.009678500568761e+001
0	 5.000000000000001e+000	 6.800020000011600e+000	 1.009310574339451e+001
0	 5.000000000000000e+000	 6.866680000008067e+000	 1.008951150864939e+001
0	 5.000000000000002e+000	 6.933340000004133e+000	 1.008600132734870e+001
0	 5.000000000000000e+000	 7.000000000000000e+000	 1.008257422538885e+001
0	 5.000000000000001e+000	 7.066659999995868e+000	 1.007922922866625e+001
0	 5.000000000000002e+000	 7.133319999991935e+000	 1.007596536307734e+001
0	 5.000000000000001e+000	 7.199979999988400e+000	 1.007278165451852e+001
0	 5.000000000000003e+000	 7.266639999985468e+000	 1.006967712888622e+001
0	 5.000000000000000e+000	 7.333299999983335e+000	 1.006665081207684e+001
0	 5.066659999995866e+000	 6.666700000016666e+000	 1.010093976432997e+001
0	 5.066659999995868e+000	 6.733360000014533e+000	 1.009719547616123e+001
0	 5.066659999995868e+000	 6.800020000011601e+000	 1.009353445116269e+001
0	 5.066659999995868e+000	 6.866680000008066e+000	 1.008995549669708e+001
0	 5.066659999995868e+000	 6.933340000004133e+000	 1.008645742012710e+001
0	 5.066659999995868e+000	 7.000000000000001e+000	 1.008303902881544e+001
0	 5.066659999995867e+000	 7.066659999995867e+000	 1.007969913012479e+001
0	 5.066659999995867e+000	 7.133319999991936e+000	 1.007643653141785e+001
0	 5.066659999995867e+000	 7.199979999988400e+000	 1.007325004005733e+001
0	 5.066659999995867e+000	 7.266639999985467e+000	 1.007013846340587e+001
0	 5.066659999995866e+000	 7.333299999983335e+000	 1.006710060882623e+001
0	 5.133319999991932e+000	 6.666700000016667e+000	 1.010119255884194e+001
0	 5.133319999991935e+000	 6.733360000014533e+000	 1.009747447335863e+001
0	 5.133319999991933e+000	 6.800020000011601e+000	 1.009383659315177e+001
0	 5.133319999991932e+000	 6.866680000008067e+000	 1.009027752754224e+001
0	 5.133319999991933e+000	 6.933340000004133e+000	 1.008679588585091e+001
0	 5.133319999991935e+000	 7.000000000000000e+000	 1.008339027739867e+001
0	 5.133319999991934e+000	 7.066659999995866e+000	 1.008005931150635e+001
0	 5.133319999991933e+000	 7.133319999991934e+000	 1.007680159749486e+001
0	 5.133319999991932e+000	 7.199979999988401e+000	 1.007361574468505e+001
0	 5.133319999991934e+000	 7.266639999985467e+000	 1.007050036239779e+001
0	 5.133319999991932e+000	 7.333299999983334e+000	 1.006745405995394e+001
0	 5.199979999988400e+000	 6.666700000016667e+000	 1.010131512824142e+001
0	 5.199979999988399e+000	 6.733360000014533e+000	 1.009762744644278e+001
0	 5.199979999988400e+000	 6.800020000011601e+000	 1.009401676598264e+001
0	 5.199979999988399e+000	 6.866680000008066e+000	 1.009048151863196e+001
0	 5.199979999988399e+000	 6.933340000004133e+000	 1.008702013616168e+001
0	 5.199979999988399e+000	 6.999999999999998e+000	 1.008363105034274e+001
0	 5.199979999988399e+000	 7.066659999995867e+000	 1.008031269294609e+001
0	 5.199979999988399e+000	 7.133319999991933e+000	 1.007706349574268e+001
0	 5.199979999988400e+000	 7.199979999988400e+000	 1.007388189050344e+001
0	 5.199979999988399e+000	 7.266639999985465e+000	 1.007076630899932e+001
0	 5.199979999988399e+000	 7.333299999983332e+000	 1.006771518300125e+001
0	 5.266639999985466e+000	 6.666700000016667e+000	 1.010131394760161e+001
0	 5.266639999985465e+000	 6.733360000014532e+000	 1.009765984457662e+001
0	 5.266639999985467e+000	 6.800020000011600e+000	 1.009407956627621e+001
0	 5.266639999985466e+000	 6.866680000008068e+000	 1.009057138741335e+001
0	 5.266639999985466e+000	 6.933340000004134e+000	 1.008713358270095e+001
0	 5.266639999985466e+000	 7.000000000000000e+000	 1.008376442685191e+001
0	 5.266639999985467e+000	 7.066659999995866e+000	 1.008046219457917e+001
0	 5.266639999985466e+000	 7.133319999991934e+000	 1.007722516059565e+001
0	 5.266639999985467e+000	 7.199979999988402e+000	 1.007405159961425e+001
0	 5.266639999985466e+000	 7.266639999985467e+000	 1.007093978634789e+001
0	 5.266639999985465e+000	 7.333299999983333e+000	 1.006788799550947e+001
0	 5.333299999983334e+000	 6.666700000016665e+000	 1.010119549199576e+001
0	 5.333299999983335e+000	 6.733360000014533e+000	 1.009757711692305e+001
0	 5.333299999983335e+000	 6.800020000011599e+000	 1.009402959065336e+001
0	 5.333299999983333e+000	 6.866680000008065e+000	 1.009055105133350e+001
0	 5.333299999983336e+000	 6.933340000004135e+000	 1.008713963711024e+001
0	 5.333299999983333e+000	 6.999999999999998e+000	 1.008379348613040e+001
0	 5.333299999983335e+000	 7.066659999995868e+000	 1.008051073654075e+001
0	 5.333299999983334e+000	 7.133319999991935e+000	 1.007728952648808e+001
0	 5.333299999983335e+000	 7.199979999988400e+000	 1.007412799411920e+001
0	 5.333299999983336e+000	 7.266639999985467e+000	 1.007102427758087e+001
0	 5.333299999983334e+000	 7.333299999983334e+000	 1.006797651501989e+001
0	 4.666700000016665e+000	 7.333299999983333e+000	 1.006281603005917e+001
0	 4.666700000016665e+000	 7.399969999982149e+000	 1.005995605492374e+001
0	 4.666700000016666e+000	 7.466639999981866e+000	 1.005716549777680e+001
0	 4.666700000016665e+000	 7.533309999982382e+000	 1.005444294748422e+001
0	 4.666700000016666e+000	 7.599979999983599e+000	 1.005178699291186e+001
0	 4.666700000016667e+000	 7.666649999985417e+000	 1.004919622292559e+001
0	 4.666700000016667e+000	 7.733319999987733e+000	 1.004666922639122e+001
0	 4.666700000016665e+000	 7.799989999990450e+000	 1.004420459217464e+001
0	 4.666700000016665e+000	 7.866659999993466e+000	 1.004180090914172e+001
0	 4.666700000016666e+000	 7.933329999996682e+000	 1.003945676615829e+001
0	 4.666700000016665e+000	 7.999999999999998e+000	 1.003717075209022e+001
0	 4.733360000014534e+000	 7.333299999983334e+000	 1.006380781803645e+001
0	 4.733360000014534e+000	 7.399969999982149e+000	 1.006092650217953e+001
0	 4.733360000014534e+000	 7.466639999981867e+000	 1.005811134562691e+001
0	 4.733360000014533e+000	 7.533309999982382e+000	 1.005536116456522e+001
0	 4.733360000014534e+000	 7.599979999983600e+000	 1.005267477518103e+001
0	 4.733360000014534e+000	 7.666649999985416e+000	 1.005005099366099e+001
0	 4.733360000014534e+000	 7.733319999987734e+000	 1.004748863619168e+001
0	 4.733360000014532e+000	 7.799989999990450e+000	 1.004498651895971e+001
0	 4.733360000014533e+000	 7.866659999993467e+000	 1.004254345815171e+001
0	 4.733360000014532e+000	 7.933329999996682e+000	 1.004015826995431e+001
0	 4.733360000014533e+000	 8.000000000000000e+000	 1.003782977055409e+001
0	 4.800020000011600e+000	 7.333299999983334e+000	 1.006468317268556e+001
0	 4.800020000011601e+000	 7.399969999982149e+000	 1.006178096992322e+001
0	 4.800020000011600e+000	 7.466639999981866e+000	 1.005894272019653e+001
0	 4.800020000011601e+000	 7.533309999982384e+000	 1.005616742482316e+001
0	 4.800020000011599e+000	 7.599979999983602e+000	 1.005345408512076e+001
0	 4.800020000011599e+000	 7.666649999985416e+000	 1.005080170240698e+001
0	 4.800020000011600e+000	 7.733319999987733e+000	 1.004820927799945e+001
0	 4.800020000011601e+000	 7.799989999990450e+000	 1.004567581321582e+001
0	 4.800020000011600e+000	 7.866659999993466e+000	 1.004320030937376e+001
0	 4.800020000011601e+000	 7.933329999996683e+000	 1.004078176779094e+001
0	 4.800020000011601e+000	 8.000000000000002e+000	 1.003841918978498e+001
0	 4.866680000008069e+000	 7.333299999983334e+000	 1.006544611154781e+001
0	 4.866680000008065e+000	 7.399969999982149e+000	 1.006252401902108e+001
0	 4.866680000008067e+000	 7.466639999981865e+000	 1.005966456996461e+001
0	 4.866680000008067e+000	 7.533309999982384e+000	 1.005686690863735e+001
0	 4.866680000008066e+000	 7.599979999983600e+000	 1.005413017929829e+001
0	 4.866680000008067e+000	 7.666649999985417e+000	 1.005145352620639e+001
0	 4.866680000008068e+000	 7.733319999987733e+000	 1.004883609362064e+001
0	 4.866680000008066e+000	 7.799989999990448e+000	 1.004627702579999e+001
0	 4.866680000008066e+000	 7.866659999993466e+000	 1.004377546700344e+001
0	 4.866680000008067e+000	 7.933329999996682e+000	 1.004133056148996e+001
0	 4.866680000008066e+000	 8.000000000000000e+000	 1.003894145351855e+001
0	 4.933340000004134e+000	 7.333299999983335e+000	 1.006610065216445e+001
0	 4.933340000004133e+000	 7.399969999982149e+000	 1.006316021033946e+001
0	 4.933340000004133e+000	 7.466639999981867e+000	 1.006028184341014e+001
0	 4.933340000004134e+000	 7.533309999982383e+000	 1.005746479638708e+001
0	 4.933340000004135e+000	 7.599979999983601e+000	 1.005470831428088e+001
0	 4.933340000004134e+000	 7.666649999985417e+000	 1.005201164210210e+001
0	 4.933340000004134e+000	 7.733319999987733e+000	 1.004937402486135e+001
0	 4.933340000004134e+000	 7.799989999990447e+000	 1.004679470756923e+001
0	 4.933340000004133e+000	 7.866659999993469e+000	 1.004427293523630e+001
0	 4.933340000004135e+000	 7.933329999996683e+000	 1.004180795287316e+001
0	 4.933340000004134e+000	 7.999999999999999e+000	 1.003939900549039e+001
0	 5.000000000000000e+000	 7.333299999983335e+000	 1.006665081207684e+001
0	 5.000000000000001e+000	 7.399969999982150e+000	 1.006369410474465e+001
0	 5.000000000000000e+000	 7.466639999981868e+000	 1.006079948901209e+001
0	 5.000000000000000e+000	 7.533309999982383e+000	 1.005796626845163e+001
0	 5.000000000000000e+000	 7.599979999983600e+000	 1.005519374663576e+001
0	 4.999999999999999e+000	 7.666649999985415e+000	 1.005248122713697e+001
0	 5.000000000000001e+000	 7.733319999987733e+000	 1.004982801352775e+001
0	 5.000000000000000e+000	 7.799989999990450e+000	 1.004723340938056e+001
0	 5.000000000000002e+000	 7.866659999993467e+000	 1.004469671826791e+001
0	 5.000000000000001e+000	 7.933329999996683e+000	 1.004221724376228e+001
0	 5.000000000000001e+000	 8.000000000000000e+000	 1.003979428943616e+001
0	 5.066659999995866e+000	 7.333299999983335e+000	 1.006710060882623e+001
0	 5.066659999995867e+000	 7.399969999982150e+000	 1.006413026310297e+001
0	 5.066659999995867e+000	 7.466639999981866e+000	 1.006122245524945e+001
0	 5.066659999995865e+000	 7.533309999982383e+000	 1.005837650521031e+001
0	 5.066659999995868e+000	 7.599979999983601e+000	 1.005559173293023e+001
0	 5.066659999995867e+000	 7.666649999985416e+000	 1.005286745835386e+001
0	 5.066659999995867e+000	 7.733319999987733e+000	 1.005020300142591e+001
0	 5.066659999995869e+000	 7.799989999990449e+000	 1.004759768209102e+001
0	 5.066659999995867e+000	 7.866659999993466e+000	 1.004505082029388e+001
0	 5.066659999995867e+000	 7.933329999996684e+000	 1.004256173597912e+001
0	 5.066659999995867e+000	 8.000000000000000e+000	 1.004012974909148e+001
0	 5.133319999991932e+000	 7.333299999983334e+000	 1.006745405995394e+001
0	 5.133319999991933e+000	 7.399969999982151e+000	 1.006447324628076e+001
0	 5.133319999991933e+000	 7.466639999981866e+000	 1.006155569060118e+001
0	 5.133319999991933e+000	 7.533309999982384e+000	 1.005870068704238e+001
0	 5.133319999991933e+000	 7.599979999983600e+000	 1.005590752973149e+001
0	 5.133319999991934e+000	 7.666649999985417e+000	 1.005317551279564e+001
0	 5.133319999991933e+000	 7.733319999987732e+000	 1.005050393036196e+001
0	 5.133319999991934e+000	 7.799989999990449e+000	 1.004789207655762e+001
0	 5.133319999991933e+000	 7.866659999993467e+000	 1.004533924550973e+001
0	 5.133319999991933e+000	 7.933329999996683e+000	 1.004284473134547e+001
0	 5.133319999991933e+000	 8.000000000000000e+000	 1.004040782819195e+001
0	 5.199979999988399e+000	 7.333299999983332e+000	 1.006771518300125e+001
0	 5.199979999988399e+000	 7.399969999982150e+000	 1.006472761514428e+001
0	 5.199979999988400e+000	 7.466639999981866e+000	 1.006180414354628e+001
0	 5.199979999988400e+000	 7.533309999982384e+000	 1.005894399432715e+001
0	 5.199979999988399e+000	 7.599979999983598e+000	 1.005614639360680e+001
0	 5.199979999988400e+000	 7.666649999985417e+000	 1.005341056750512e+001
0	 5.199979999988400e+000	 7.733319999987733e+000	 1.005073574214202e+001
0	 5.199979999988399e+000	 7.799989999990448e+000	 1.004812114363736e+001
0	 5.199979999988400e+000	 7.866659999993468e+000	 1.004556599811110e+001
0	 5.199979999988400e+000	 7.933329999996683e+000	 1.004306953168307e+001
0	 5.199979999988399e+000	 7.999999999999999e+000	 1.004063097047320e+001
0	 5.266639999985465e+000	 7.333299999983333e+000	 1.006788799550947e+001
0	 5.266639999985466e+000	 7.399969999982149e+000	 1.006489793055987e+001
0	 5.266639999985466e+000	 7.466639999981866e+000	 1.006197276256370e+001
0	 5.266639999985465e+000	 7.533309999982383e+000	 1.005911160744391e+001
0	 5.266639999985466e+000	 7.599979999983600e+000	 1.005631358112343e+001
0	 5.266639999985466e+000	 7.666649999985416e+000	 1.005357779952521e+001
0	 5.266639999985467e+000	 7.733319999987731e+000	 1.005090337857220e+001
0	 5.266639999985466e+000	 7.799989999990449e+000	 1.004828943418731e+001
0	 5.266639999985466e+000	 7.866659999993467e+000	 1.004573508229349e+001
0	 5.266639999985467e+000	 7.933329999996684e+000	 1.004323943881371e+001
0	 5.266639999985466e+000	 8.000000000000000e+000	 1.004080161967087e+001
0	 5.333299999983334e+000	 7.333299999983334e+000	 1.006797651501989e+001
0	 5.333299999983332e+000	 7.399969999982149e+000	 1.006498875339384e+001
0	 5.333299999983333e+000	 7.466639999981864e+000	 1.006206649613243e+001
0	 5.333299999983333e+000	 7.533309999982383e+000	 1.005920870677193e+001
0	 5.333299999983335e+000	 7.599979999983600e+000	 1.005641434884861e+001
0	 5.333299999983334e+000	 7.666649999985416e+000	 1.005368238589873e+001
0	 5.333299999983334e+000	 7.733319999987733e+000	 1.005101178145858e+001
0	 5.333299999983334e+000	 7.799989999990449e+000	 1.004840149906443e+001
0	 5.333299999983333e+000	 7.866659999993466e+000	 1.004585050225252e+001
0	 5.333299999983335e+000	 7.933329999996684e+000	 1.004335775455914e+001
0	 5.333299999983334e+000	 8.000000000000000e+000	 1.004092221952057e+001
0	 4.666700000016665e+000	 7.999999999999998e+000	 1.003717075209022e+001
0	 4.666700000016665e+000	 8.066670000003317e+000	 1.003494750950694e+001
0	 4.666700000016666e+000	 8.133340000006532e+000	 1.003279210075027e+001
0	 4.666700000016666e+000	 8.200010000009549e+000	 1.003070374434467e+001
0	 4.666700000016666e+000	 8.266680000012268e+000	 1.002868165881467e+001
0	 4.666700000016667e+000	 8.333350000014585e+000	 1.002672506268479e+001
0	 4.666700000016666e+000	 8.400020000016399e+000	 1.002483317447947e+001
0	 4.666700000016666e+000	 8.466690000017616e+000	 1.002300521272327e+001
0	 4.666700000016666e+000	 8.533360000018133e+000	 1.002124039594068e+001
0	 4.666700000016667e+000	 8.600030000017853e+000	 1.001953794265617e+001
0	 4.666700000016665e+000	 8.666700000016666e+000	 1.001789707139429e+001
0	 4.733360000014533e+000	 8.000000000000000e+000	 1.003782977055409e+001
0	 4.733360000014532e+000	 8.066670000003317e+000	 1.003556517265487e+001
0	 4.733360000014532e+000	 8.133340000006532e+000	 1.003337167757976e+001
0	 4.733360000014533e+000	 8.200010000009552e+000	 1.003124808444434e+001
0	 4.733360000014534e+000	 8.266680000012268e+000	 1.002919319236417e+001
0	 4.733360000014533e+000	 8.333350000014582e+000	 1.002720580045483e+001
0	 4.733360000014534e+000	 8.400020000016403e+000	 1.002528470783188e+001
0	 4.733360000014533e+000	 8.466690000017618e+000	 1.002342871361089e+001
0	 4.733360000014533e+000	 8.533360000018133e+000	 1.002163661690746e+001
0	 4.733360000014534e+000	 8.600030000017853e+000	 1.001990721683711e+001
0	 4.733360000014534e+000	 8.666700000016665e+000	 1.001823931251548e+001
0	 4.800020000011601e+000	 8.000000000000002e+000	 1.003841918978498e+001
0	 4.800020000011598e+000	 8.066670000003315e+000	 1.003612140898877e+001
0	 4.800020000011598e+000	 8.133340000006532e+000	 1.003389688171120e+001
0	 4.800020000011601e+000	 8.200010000009552e+000	 1.003174404328401e+001
0	 4.800020000011600e+000	 8.266680000012265e+000	 1.002966132903887e+001
0	 4.800020000011601e+000	 8.333350000014585e+000	 1.002764717430750e+001
0	 4.800020000011599e+000	 8.400020000016397e+000	 1.002570001442163e+001
0	 4.800020000011600e+000	 8.466690000017618e+000	 1.002381828471293e+001
0	 4.800020000011600e+000	 8.533360000018135e+000	 1.002200042051315e+001
0	 4.800020000011601e+000	 8.600030000017851e+000	 1.002024485715398e+001
0	 4.800020000011600e+000	 8.666700000016668e+000	 1.001855002996713e+001
0	 4.866680000008066e+000	 8.000000000000000e+000	 1.003894145351855e+001
0	 4.866680000008067e+000	 8.066670000003320e+000	 1.003661779773293e+001
0	 4.866680000008066e+000	 8.133340000006532e+000	 1.003436857071953e+001
0	 4.866680000008066e+000	 8.200010000009547e+000	 1.003219189965123e+001
0	 4.866680000008067e+000	 8.266680000012265e+000	 1.003008591170095e+001
0	 4.866680000008066e+000	 8.333350000014585e+000	 1.002804873404162e+001
0	 4.866680000008066e+000	 8.400020000016401e+000	 1.002607849384611e+001
0	 4.866680000008069e+000	 8.466690000017620e+000	 1.002417331828736e+001
0	 4.866680000008067e+000	 8.533360000018133e+000	 1.002233133453829e+001
0	 4.866680000008065e+000	 8.600030000017851e+000	 1.002055066977180e+001
0	 4.866680000008067e+000	 8.666700000016663e+000	 1.001882945116082e+001
0	 4.933340000004134e+000	 7.999999999999999e+000	 1.003939900549039e+001
0	 4.933340000004135e+000	 8.066670000003319e+000	 1.003705591811166e+001
0	 4.933340000004133e+000	 8.133340000006534e+000	 1.003478760217968e+001
0	 4.933340000004135e+000	 8.200010000009550e+000	 1.003259193233359e+001
0	 4.933340000004134e+000	 8.266680000012267e+000	 1.003046678321263e+001
0	 4.933340000004135e+000	 8.333350000014585e+000	 1.002841002945593e+001
0	 4.933340000004132e+000	 8.400020000016399e+000	 1.002641954570271e+001
0	 4.933340000004135e+000	 8.466690000017618e+000	 1.002449320659213e+001
0	 4.933340000004134e+000	 8.533360000018133e+000	 1.002262888676337e+001
0	 4.933340000004133e+000	 8.600030000017851e+000	 1.002082446085566e+001
0	 4.933340000004134e+000	 8.666700000016668e+000	 1.001907780350813e+001
0	 5.000000000000001e+000	 8.000000000000000e+000	 1.003979428943616e+001
0	 5.000000000000001e+000	 8.066670000003319e+000	 1.003743734934926e+001
0	 5.000000000000001e+000	 8.133340000006532e+000	 1.003515483366659e+001
0	 5.000000000000001e+000	 8.200010000009552e+000	 1.003294442011869e+001
0	 5.000000000000001e+000	 8.266680000012267e+000	 1.003080378643609e+001
0	 5.000000000000000e+000	 8.333350000014582e+000	 1.002873061034929e+001
0	 5.000000000000002e+000	 8.400020000016403e+000	 1.002672256958882e+001
0	 5.000000000000000e+000	 8.466690000017616e+000	 1.002477734188518e+001
0	 4.999999999999999e+000	 8.533360000018131e+000	 1.002289260496892e+001
0	 4.999999999999999e+000	 8.600030000017847e+000	 1.002106603657056e+001
0	 4.999999999999999e+000	 8.666700000016665e+000	 1.001929531442062e+001
0	 5.066659999995867e+000	 8.000000000000000e+000	 1.004012974909148e+001
0	 5.066659999995866e+000	 8.066670000003319e+000	 1.003776367066998e+001
0	 5.066659999995867e+000	 8.133340000006532e+000	 1.003547112275520e+001
0	 5.066659999995868e+000	 8.200010000009552e+000	 1.003324964179407e+001
0	 5.066659999995866e+000	 8.266680000012268e+000	 1.003109676423351e+001
0	 5.066659999995865e+000	 8.333350000014585e+000	 1.002901002652044e+001
0	 5.066659999995867e+000	 8.400020000016401e+000	 1.002698696510179e+001
0	 5.066659999995866e+000	 8.466690000017618e+000	 1.002502511642447e+001
0	 5.066659999995867e+000	 8.533360000018133e+000	 1.002312201693543e+001
0	 5.066659999995866e+000	 8.600030000017849e+000	 1.002127520308159e+001
0	 5.066659999995866e+000	 8.666700000016666e+000	 1.001948221130988e+001
0	 5.133319999991933e+000	 8.000000000000000e+000	 1.004040782819195e+001
0	 5.133319999991933e+000	 8.066670000003317e+000	 1.003803646129813e+001
0	 5.133319999991933e+000	 8.133340000006534e+000	 1.003573732702045e+001
0	 5.133319999991933e+000	 8.200010000009550e+000	 1.003350787614731e+001
0	 5.133319999991934e+000	 8.266680000012267e+000	 1.003134555946709e+001
0	 5.133319999991933e+000	 8.333350000014583e+000	 1.002924782776819e+001
0	 5.133319999991935e+000	 8.400020000016403e+000	 1.002721213183902e+001
0	 5.133319999991933e+000	 8.466690000017618e+000	 1.002523592246796e+001
0	 5.133319999991932e+000	 8.533360000018131e+000	 1.002331665044342e+001
0	 5.133319999991934e+000	 8.600030000017853e+000	 1.002145176655378e+001
0	 5.133319999991932e+000	 8.666700000016668e+000	 1.001963872158747e+001
0	 5.199979999988399e+000	 7.999999999999999e+000	 1.004063097047320e+001
0	 5.199979999988400e+000	 8.066670000003315e+000	 1.003825730045800e+001
0	 5.199979999988400e+000	 8.133340000006532e+000	 1.003595430403729e+001
0	 5.199979999988399e+000	 8.200010000009552e+000	 1.003371940196599e+001
0	 5.199979999988399e+000	 8.266680000012268e+000	 1.003155001499902e+001
0	 5.199979999988400e+000	 8.333350000014585e+000	 1.002944356389135e+001
0	 5.199979999988399e+000	 8.400020000016401e+000	 1.002739746939790e+001
0	 5.199979999988399e+000	 8.466690000017616e+000	 1.002540915227360e+001
0	 5.199979999988400e+000	 8.533360000018131e+000	 1.002347603327337e+001
0	 5.199979999988399e+000	 8.600030000017849e+000	 1.002159553315218e+001
0	 5.199979999988400e+000	 8.666700000016665e+000	 1.001976507266495e+001
0	 5.266639999985466e+000	 8.000000000000000e+000	 1.004080161967087e+001
0	 5.266639999985466e+000	 8.066670000003319e+000	 1.003842776737388e+001
0	 5.266639999985466e+000	 8.133340000006532e+000	 1.003612291138063e+001
0	 5.266639999985465e+000	 8.200010000009552e+000	 1.003388449803767e+001
0	 5.266639999985467e+000	 8.266680000012270e+000	 1.003170997369150e+001
0	 5.266639999985466e+000	 8.333350000014583e+000	 1.002959678468871e+001
0	 5.266639999985466e+000	 8.400020000016401e+000	 1.002754237737578e+001
0	 5.266639999985466e+000	 8.466690000017618e+000	 1.002554419809932e+001
0	 5.266639999985467e+000	 8.533360000018133e+000	 1.002359969320582e+001
0	 5.266639999985466e+000	 8.600030000017849e+000	 1.002170630904183e+001
0	 5.266639999985465e+000	 8.666700000016665e+000	 1.001986149195392e+001
0	 5.333299999983334e+000	 8.000000000000000e+000	 1.004092221952057e+001
0	 5.333299999983333e+000	 8.066670000003317e+000	 1.003854944127005e+001
0	 5.333299999983333e+000	 8.133340000006532e+000	 1.003624400662543e+001
0	 5.333299999983335e+000	 8.200010000009550e+000	 1.003400344314991e+001
0	 5.333299999983336e+000	 8.266680000012268e+000	 1.003182527840670e+001
0	 5.333299999983334e+000	 8.333350000014585e+000	 1.002970703995901e+001
0	 5.333299999983333e+000	 8.400020000016399e+000	 1.002764625537008e+001
0	 5.333299999983332e+000	 8.466690000017616e+000	 1.002564045220307e+001
0	 5.333299999983334e+000	 8.533360000018135e+000	 1.002368715802125e+001
0	 5.333299999983335e+000	 8.600030000017851e+000	 1.002178390038779e+001
0	 5.333299999983334e+000	 8.666700000016666e+000	 1.001992820686591e+001
0	 4.666700000016665e+000	 8.666700000016666e+000	 1.001789707139429e+001
0	 4.666700000016665e+000	 8.733360002791901e+000	 1.001632485064071e+001
0	 4.666700000016665e+000	 8.800020022230555e+000	 1.001482604239179e+001
0	 4.666700000016666e+000	 8.866680074997040e+000	 1.001339712990418e+001
0	 4.666700000016666e+000	 8.933340177755778e+000	 1.001203459623333e+001
0	 4.666700000016666e+000	 9.000000347171181e+000	 1.001073492423347e+001
0	 4.666700000016667e+000	 9.066660599907669e+000	 1.000949459655766e+001
0	 4.666700000016666e+000	 9.133320952629655e+000	 1.000831009565773e+001
0	 4.666700000016666e+000	 9.199981422001557e+000	 1.000717790378424e+001
0	 4.666700000016667e+000	 9.266642024687798e+000	 1.000609450298661e+001
0	 4.666700000016665e+000	 9.333302777352781e+000	 1.000505637511301e+001
0	 4.733360000014534e+000	 8.666700000016665e+000	 1.001823931251548e+001
0	 4.733360000014534e+000	 8.733360002791903e+000	 1.001663961316315e+001
0	 4.733360000014533e+000	 8.800020022230553e+000	 1.001511295601313e+001
0	 4.733360000014534e+000	 8.866680074997042e+000	 1.001365606890978e+001
0	 4.733360000014534e+000	 8.933340177755778e+000	 1.001226567949282e+001
0	 4.733360000014532e+000	 9.000000347171181e+000	 1.001093851519740e+001
0	 4.733360000014533e+000	 9.066660599907667e+000	 1.000967130325400e+001
0	 4.733360000014534e+000	 9.133320952629655e+000	 1.000846077068847e+001
0	 4.733360000014533e+000	 9.199981422001558e+000	 1.000730364432209e+001
0	 4.733360000014534e+000	 9.266642024687798e+000	 1.000619665077143e+001
0	 4.733360000014534e+000	 9.333302777352785e+000	 1.000513651644849e+001
0	 4.800020000011600e+000	 8.666700000016668e+000	 1.001855002996713e+001
0	 4.800020000011601e+000	 8.733360002791903e+000	 1.001692299275393e+001
0	 4.800020000011601e+000	 8.800020022230557e+000	 1.001536929332049e+001
0	 4.800020000011601e+000	 8.866680074997042e+000	 1.001388585705317e+001
0	 4.800020000011601e+000	 8.933340177755781e+000	 1.001246960912972e+001
0	 4.800020000011601e+000	 9.000000347171183e+000	 1.001111747451934e+001
0	 4.800020000011600e+000	 9.066660599907667e+000	 1.000982637798263e+001
0	 4.800020000011601e+000	 9.133320952629655e+000	 1.000859324407170e+001
0	 4.800020000011601e+000	 9.199981422001558e+000	 1.000741499712998e+001
0	 4.800020000011600e+000	 9.266642024687796e+000	 1.000628856129239e+001
0	 4.800020000011601e+000	 9.333302777352783e+000	 1.000521086048524e+001
0	 4.866680000008067e+000	 8.666700000016663e+000	 1.001882945116082e+001
0	 4.866680000008065e+000	 8.733360002791903e+000	 1.001717565599369e+001
0	 4.866680000008068e+000	 8.800020022230555e+000	 1.001559605319432e+001
0	 4.866680000008066e+000	 8.866680074997040e+000	 1.001408771864514e+001
0	 4.866680000008066e+000	 8.933340177755779e+000	 1.001264772801575e+001
0	 4.866680000008067e+000	 9.000000347171183e+000	 1.001127315676278e+001
0	 4.866680000008068e+000	 9.066660599907669e+000	 1.000996108013004e+001
0	 4.866680000008068e+000	 9.133320952629656e+000	 1.000870857314843e+001
0	 4.866680000008067e+000	 9.199981422001558e+000	 1.000751271063592e+001
0	 4.866680000008066e+000	 9.266642024687796e+000	 1.000637056719758e+001
0	 4.866680000008067e+000	 9.333302777352781e+000	 1.000527921722568e+001
0	 4.933340000004134e+000	 8.666700000016668e+000	 1.001907780350813e+001
0	 4.933340000004135e+000	 8.733360002791905e+000	 1.001739826946306e+001
0	 4.933340000004133e+000	 8.800020022230559e+000	 1.001579423451497e+001
0	 4.933340000004134e+000	 8.866680074997044e+000	 1.001426287799644e+001
0	 4.933340000004133e+000	 8.933340177755776e+000	 1.001280137902262e+001
0	 4.933340000004134e+000	 9.000000347171181e+000	 1.001140691649126e+001
0	 4.933340000004131e+000	 9.066660599907666e+000	 1.001007666908264e+001
0	 4.933340000004132e+000	 9.133320952629653e+000	 1.000880781525970e+001
0	 4.933340000004131e+000	 9.199981422001557e+000	 1.000759753326786e+001
0	 4.933340000004134e+000	 9.266642024687796e+000	 1.000644300113518e+001
0	 4.933340000004134e+000	 9.333302777352783e+000	 1.000534139667224e+001
0	 4.999999999999999e+000	 8.666700000016665e+000	 1.001929531442062e+001
0	 5.000000000000001e+000	 8.733360002791901e+000	 1.001759149974266e+001
0	 5.000000000000001e+000	 8.800020022230555e+000	 1.001596483616289e+001
0	 5.000000000000002e+000	 8.866680074997042e+000	 1.001441255941783e+001
0	 5.000000000000000e+000	 8.933340177755776e+000	 1.001293190502209e+001
0	 4.999999999999999e+000	 9.000000347171181e+000	 1.001152010826827e+001
0	 5.000000000000001e+000	 9.066660599907666e+000	 1.001017440422689e+001
0	 5.000000000000001e+000	 9.133320952629656e+000	 1.000889202774658e+001
0	 5.000000000000001e+000	 9.199981422001558e+000	 1.000767021345386e+001
0	 5.000000000000001e+000	 9.266642024687794e+000	 1.000650619575326e+001
0	 5.000000000000000e+000	 9.333302777352783e+000	 1.000539720882731e+001
0	 5.066659999995866e+000	 8.666700000016666e+000	 1.001948221130988e+001
0	 5.066659999995867e+000	 8.733360002791903e+000	 1.001775601341317e+001
0	 5.066659999995868e+000	 8.800020022230557e+000	 1.001610885701845e+001
0	 5.066659999995868e+000	 8.866680074997040e+000	 1.001453798722006e+001
0	 5.066659999995866e+000	 8.933340177755779e+000	 1.001304064888587e+001
0	 5.066659999995865e+000	 9.000000347171179e+000	 1.001161408665729e+001
0	 5.066659999995866e+000	 9.066660599907666e+000	 1.001025554494923e+001
0	 5.066659999995866e+000	 9.133320952629655e+000	 1.000896226795011e+001
0	 5.066659999995867e+000	 9.199981422001558e+000	 1.000773149962186e+001
0	 5.066659999995867e+000	 9.266642024687796e+000	 1.000656048369994e+001
0	 5.066659999995866e+000	 9.333302777352785e+000	 1.000544646369333e+001
0	 5.133319999991932e+000	 8.666700000016668e+000	 1.001963872158746e+001
0	 5.133319999991934e+000	 8.733360002791903e+000	 1.001789247705516e+001
0	 5.133319999991934e+000	 8.800020022230557e+000	 1.001622729596206e+001
0	 5.133319999991933e+000	 8.866680074997040e+000	 1.001464038571388e+001
0	 5.133319999991933e+000	 8.933340177755778e+000	 1.001312895348569e+001
0	 5.133319999991935e+000	 9.000000347171181e+000	 1.001169020622187e+001
0	 5.133319999991933e+000	 9.066660599907667e+000	 1.001032135063608e+001
0	 5.133319999991934e+000	 9.133320952629656e+000	 1.000901959321131e+001
0	 5.133319999991931e+000	 9.199981422001555e+000	 1.000778214019988e+001
0	 5.133319999991933e+000	 9.266642024687794e+000	 1.000660619762338e+001
0	 5.133319999991933e+000	 9.333302777352785e+000	 1.000548897127271e+001
0	 5.199979999988400e+000	 8.666700000016665e+000	 1.001976507266495e+001
0	 5.199979999988400e+000	 8.733360002791905e+000	 1.001800155724930e+001
0	 5.199979999988400e+000	 8.800020022230555e+000	 1.001632115187413e+001
0	 5.199979999988400e+000	 8.866680074997042e+000	 1.001472097921006e+001
0	 5.199979999988399e+000	 8.933340177755778e+000	 1.001319816169326e+001
0	 5.199979999988400e+000	 9.000000347171183e+000	 1.001174982152547e+001
0	 5.199979999988399e+000	 9.066660599907667e+000	 1.001037308067387e+001
0	 5.199979999988399e+000	 9.133320952629653e+000	 1.000906506087125e+001
0	 5.199979999988400e+000	 9.199981422001560e+000	 1.000782288361591e+001
0	 5.199979999988399e+000	 9.266642024687794e+000	 1.000664367017166e+001
0	 5.199979999988399e+000	 9.333302777352783e+000	 1.000552454156786e+001
0	 5.266639999985465e+000	 8.666700000016665e+000	 1.001986149195392e+001
0	 5.266639999985465e+000	 8.733360002791901e+000	 1.001808392057618e+001
0	 5.266639999985467e+000	 8.800020022230555e+000	 1.001639142363504e+001
0	 5.266639999985465e+000	 8.866680074997042e+000	 1.001478099201934e+001
0	 5.266639999985465e+000	 8.933340177755778e+000	 1.001324961638034e+001
0	 5.266639999985466e+000	 9.000000347171183e+000	 1.001179428713159e+001
0	 5.266639999985465e+000	 9.066660599907667e+000	 1.001041199444906e+001
0	 5.266639999985466e+000	 9.133320952629656e+000	 1.000909972827098e+001
0	 5.266639999985466e+000	 9.199981422001558e+000	 1.000785447829795e+001
0	 5.266639999985466e+000	 9.266642024687796e+000	 1.000667323399293e+001
0	 5.266639999985466e+000	 9.333302777352781e+000	 1.000555298458120e+001
0	 5.333299999983334e+000	 8.666700000016666e+000	 1.001992820686591e+001
0	 5.333299999983334e+000	 8.733360002791903e+000	 1.001814023361646e+001
0	 5.333299999983332e+000	 8.800020022230553e+000	 1.001643911012520e+001
0	 5.333299999983335e+000	 8.866680074997040e+000	 1.001482164845247e+001
0	 5.333299999983334e+000	 8.933340177755779e+000	 1.001328466041860e+001
0	 5.333299999983332e+000	 9.000000347171179e+000	 1.001182495760377e+001
0	 5.333299999983335e+000	 9.066660599907667e+000	 1.001043935134807e+001
0	 5.333299999983334e+000	 9.133320952629655e+000	 1.000912465275149e+001
0	 5.333299999983334e+000	 9.199981422001560e+000	 1.000787767267396e+001
0	 5.333299999983335e+000	 9.266642024687798e+000	 1.000669522173527e+001
0	 5.333299999983335e+000	 9.333302777352785e+000	 1.000557411031512e+001
0	 4.666700000016665e+000	 9.333302777352781e+000	 1.000505637511301e+001
0	 4.666700000016666e+000	 9.399973674588177e+000	 1.000409782120357e+001
0	 4.666700000016667e+000	 9.466644621844621e+000	 1.000325250258060e+001
0	 4.666700000016667e+000	 9.533315502450000e+000	 1.000251548547825e+001
0	 4.666700000016666e+000	 9.599986199732197e+000	 1.000188183834155e+001
0	 4.666700000016666e+000	 9.666656597019095e+000	 1.000134663182634e+001
0	 4.666700000016666e+000	 9.733326577638573e+000	 1.000090493879911e+001
0	 4.666700000016665e+000	 9.799996024918521e+000	 1.000055183433704e+001
0	 4.666700000016666e+000	 9.866664822186822e+000	 1.000028239572798e+001
0	 4.666700000016666e+000	 9.933332852771352e+000	 1.000009170247063e+001
0	 4.666700000016666e+000	 1.000000000000000e+001	 9.999974836274683e+000
0	 4.733360000014534e+000	 9.333302777352785e+000	 1.000513651644849e+001
0	 4.733360000014533e+000	 9.399973674588173e+000	 1.000415887553172e+001
0	 4.733360000014533e+000	 9.466644621844621e+000	 1.000329819899824e+001
0	 4.733360000014532e+000	 9.533315502450000e+000	 1.000254900294487e+001
0	 4.733360000014533e+000	 9.599986199732197e+000	 1.000190580572908e+001
0	 4.733360000014534e+000	 9.666656597019095e+000	 1.000136312796866e+001
0	 4.733360000014534e+000	 9.733326577638577e+000	 1.000091549254172e+001
0	 4.733360000014533e+000	 9.799996024918524e+000	 1.000055742458663e+001
0	 4.733360000014533e+000	 9.866664822186822e+000	 1.000028345150229e+001
0	 4.733360000014534e+000	 9.933332852771356e+000	 1.000008810294774e+001
0	 4.733360000014534e+000	 1.000000000000000e+001	 9.999965910843006e+000
0	 4.800020000011601e+000	 9.333302777352783e+000	 1.000521086048524e+001
0	 4.800020000011600e+000	 9.399973674588173e+000	 1.000421811349897e+001
0	 4.800020000011599e+000	 9.466644621844619e+000	 1.000334494614294e+001
0	 4.800020000011599e+000	 9.533315502450000e+000	 1.000258541993048e+001
0	 4.800020000011600e+000	 9.599986199732195e+000	 1.000193359867357e+001
0	 4.800020000011601e+000	 9.666656597019093e+000	 1.000138354848263e+001
0	 4.800020000011600e+000	 9.733326577638577e+000	 1.000092933776659e+001
0	 4.800020000011601e+000	 9.799996024918523e+000	 1.000056503723269e+001
0	 4.800020000011601e+000	 9.866664822186820e+000	 1.000028471988677e+001
0	 4.800020000011599e+000	 9.933332852771352e+000	 1.000008246103319e+001
0	 4.800020000011600e+000	 1.000000000000000e+001	 9.999952338275113e+000
0	 4.866680000008067e+000	 9.333302777352781e+000	 1.000527921722567e+001
0	 4.866680000008065e+000	 9.399973674588177e+000	 1.000427484108935e+001
0	 4.866680000008066e+000	 9.466644621844619e+000	 1.000339169027102e+001
0	 4.866680000008066e+000	 9.533315502450002e+000	 1.000262346725239e+001
0	 4.866680000008068e+000	 9.599986199732198e+000	 1.000196387684177e+001
0	 4.866680000008067e+000	 9.666656597019093e+000	 1.000140662617423e+001
0	 4.866680000008065e+000	 9.733326577638573e+000	 1.000094542471121e+001
0	 4.866680000008068e+000	 9.799996024918524e+000	 1.000057398424080e+001
0	 4.866680000008066e+000	 9.866664822186824e+000	 1.000028601887764e+001
0	 4.866680000008065e+000	 9.933332852771352e+000	 1.000007524506313e+001
0	 4.866680000008066e+000	 1.000000000000000e+001	 9.999935381565569e+000
0	 4.933340000004134e+000	 9.333302777352783e+000	 1.000534139667224e+001
0	 4.933340000004132e+000	 9.399973674588177e+000	 1.000432836428687e+001
0	 4.933340000004132e+000	 9.466644621844619e+000	 1.000343737763875e+001
0	 4.933340000004132e+000	 9.533315502450002e+000	 1.000266187572789e+001
0	 4.933340000004134e+000	 9.599986199732195e+000	 1.000199529990061e+001
0	 4.933340000004134e+000	 9.666656597019095e+000	 1.000143109384946e+001
0	 4.933340000004133e+000	 9.733326577638575e+000	 1.000096270361315e+001
0	 4.933340000004134e+000	 9.799996024918523e+000	 1.000058357757659e+001
0	 4.933340000004133e+000	 9.866664822186822e+000	 1.000028716647090e+001
0	 4.933340000004134e+000	 9.933332852771354e+000	 1.000006692337364e+001
0	 4.933340000004134e+000	 1.000000000000000e+001	 9.999916303708943e+000
0	 5.000000000000000e+000	 9.333302777352783e+000	 1.000539720882730e+001
0	 5.000000000000001e+000	 9.399973674588180e+000	 1.000437798907563e+001
0	 5.000000000000000e+000	 9.466644621844619e+000	 1.000348095450246e+001
0	 4.999999999999999e+000	 9.533315502450000e+000	 1.000269937617435e+001
0	 5.000000000000001e+000	 9.599986199732198e+000	 1.000202652751683e+001
0	 5.000000000000000e+000	 9.666656597019092e+000	 1.000145568431428e+001
0	 5.000000000000000e+000	 9.733326577638575e+000	 1.000098012470989e+001
0	 5.000000000000000e+000	 9.799996024918523e+000	 1.000059312920572e+001
0	 5.000000000000001e+000	 9.866664822186824e+000	 1.000028798066272e+001
0	 5.000000000000002e+000	 9.933332852771352e+000	 1.000005796430099e+001
0	 5.000000000000000e+000	 1.000000000000000e+001	 9.999896367699687e+000
0	 5.066659999995866e+000	 9.333302777352785e+000	 1.000544646369333e+001
0	 5.066659999995867e+000	 9.399973674588178e+000	 1.000442302143963e+001
0	 5.066659999995866e+000	 9.466644621844619e+000	 1.000352136711840e+001
0	 5.066659999995865e+000	 9.533315502449998e+000	 1.000273469940909e+001
0	 5.066659999995866e+000	 9.599986199732197e+000	 1.000205621935728e+001
0	 5.066659999995866e+000	 9.666656597019095e+000	 1.000147913037464e+001
0	 5.066659999995866e+000	 9.733326577638577e+000	 1.000099663823892e+001
0	 5.066659999995867e+000	 9.799996024918524e+000	 1.000060195109377e+001
0	 5.066659999995867e+000	 9.866664822186824e+000	 1.000028827944917e+001
0	 5.066659999995866e+000	 9.933332852771354e+000	 1.000004883618114e+001
0	 5.066659999995866e+000	 1.000000000000000e+001	 9.999876836532446e+000
0	 5.133319999991933e+000	 9.333302777352785e+000	 1.000548897127270e+001
0	 5.133319999991931e+000	 9.399973674588177e+000	 1.000446276736295e+001
0	 5.133319999991932e+000	 9.466644621844619e+000	 1.000355756174289e+001
0	 5.133319999991932e+000	 9.533315502450002e+000	 1.000276657624941e+001
0	 5.133319999991934e+000	 9.599986199732197e+000	 1.000208303508880e+001
0	 5.133319999991933e+000	 9.666656597019095e+000	 1.000150016483661e+001
0	 5.133319999991932e+000	 9.733326577638575e+000	 1.000101119443774e+001
0	 5.133319999991933e+000	 9.799996024918521e+000	 1.000060935520644e+001
0	 5.133319999991934e+000	 9.866664822186822e+000	 1.000028788082624e+001
0	 5.133319999991933e+000	 9.933332852771358e+000	 1.000004000735042e+001
0	 5.133319999991932e+000	 1.000000000000000e+001	 9.999858973201834e+000
0	 5.199979999988399e+000	 9.333302777352783e+000	 1.000552454156786e+001
0	 5.199979999988400e+000	 9.399973674588175e+000	 1.000449653282959e+001
0	 5.199979999988399e+000	 9.466644621844617e+000	 1.000358848463222e+001
0	 5.199979999988400e+000	 9.533315502450002e+000	 1.000279373751268e+001
0	 5.199979999988397e+000	 9.599986199732193e+000	 1.000210563437815e+001
0	 5.199979999988399e+000	 9.666656597019092e+000	 1.000151752050606e+001
0	 5.199979999988400e+000	 9.733326577638573e+000	 1.000102274354388e+001
0	 5.199979999988400e+000	 9.799996024918523e+000	 1.000061465350926e+001
0	 5.199979999988400e+000	 9.866664822186822e+000	 1.000028660279016e+001
0	 5.199979999988400e+000	 9.933332852771354e+000	 1.000003194614482e+001
0	 5.199979999988400e+000	 1.000000000000000e+001	 9.999844040702307e+000
0	 5.266639999985466e+000	 9.333302777352781e+000	 1.000555298458120e+001
0	 5.266639999985467e+000	 9.399973674588178e+000	 1.000452362382364e+001
0	 5.266639999985467e+000	 9.466644621844619e+000	 1.000361308204267e+001
0	 5.266639999985466e+000	 9.533315502450002e+000	 1.000281491401616e+001
0	 5.266639999985467e+000	 9.599986199732197e+000	 1.000212267689222e+001
0	 5.266639999985465e+000	 9.666656597019097e+000	 1.000152993018905e+001
0	 5.266639999985467e+000	 9.733326577638577e+000	 1.000103023579483e+001
0	 5.266639999985466e+000	 9.799996024918524e+000	 1.000061715796796e+001
0	 5.266639999985466e+000	 9.866664822186822e+000	 1.000028426333691e+001
0	 5.266639999985466e+000	 9.933332852771354e+000	 1.000002512090063e+001
0	 5.266639999985466e+000	 1.000000000000000e+001	 9.999833302028579e+000
0	 5.333299999983335e+000	 9.333302777352785e+000	 1.000557411031513e+001
0	 5.333299999983335e+000	 9.399973674588175e+000	 1.000454334632913e+001
0	 5.333299999983333e+000	 9.466644621844619e+000	 1.000363030023053e+001
0	 5.333299999983335e+000	 9.533315502450002e+000	 1.000282883657722e+001
0	 5.333299999983334e+000	 9.599986199732197e+000	 1.000213282229780e+001
0	 5.333299999983335e+000	 9.666656597019097e+000	 1.000153612669151e+001
0	 5.333299999983334e+000	 9.733326577638577e+000	 1.000103262142812e+001
0	 5.333299999983334e+000	 9.799996024918524e+000	 1.000061618054813e+001
0	 5.333299999983334e+000	 9.866664822186822e+000	 1.000028068046267e+001
0	 5.333299999983334e+000	 9.933332852771354e+000	 1.000001999995386e+001
0	 5.333299999983334e+000	 1.000000000000000e+001	 9.999828020175038e+000
0	 5.333299999983334e+000	 0.000000000000000e+000	 1.021084795637678e+001
0	 5.333299999983336e+000	 6.666714722864757e-002	 1.021842086403418e+001
0	 5.333299999983333e+000	 1.333351778131789e-001	 1.022523502851519e+001
0	 5.333299999983336e+000	 2.000039750814772e-001	 1.023143422371016e+001
0	 5.333299999983334e+000	 2.666734223614255e-001	 1.023716223316202e+001
0	 5.333299999983334e+000	 3.333434029809068e-001	 1.024256285006572e+001
0	 5.333299999983334e+000	 4.000138002678044e-001	 1.024777987726793e+001
0	 5.333299999983334e+000	 4.666844975500011e-001	 1.025295712726689e+001
0	 5.333299999983333e+000	 5.333553781553803e-001	 1.025823842221266e+001
0	 5.333299999983335e+000	 6.000263254118248e-001	 1.026376759390755e+001
0	 5.333299999983334e+000	 6.666972226472175e-001	 1.026968848380675e+001
0	 5.399969999982149e+000	 0.000000000000000e+000	 1.019536629814458e+001
0	 5.399969999982148e+000	 6.666714722864756e-002	 1.020232634452577e+001
0	 5.399969999982151e+000	 1.333351778131789e-001	 1.020889405085232e+001
0	 5.399969999982150e+000	 2.000039750814772e-001	 1.021515988905057e+001
0	 5.399969999982148e+000	 2.666734223614254e-001	 1.022121433857897e+001
0	 5.399969999982150e+000	 3.333434029809069e-001	 1.022714788642777e+001
0	 5.399969999982151e+000	 4.000138002678045e-001	 1.023305102711908e+001
0	 5.399969999982149e+000	 4.666844975500012e-001	 1.023901426270704e+001
0	 5.399969999982152e+000	 5.333553781553801e-001	 1.024512810277827e+001
0	 5.399969999982148e+000	 6.000263254118247e-001	 1.025148306445243e+001
0	 5.399969999982150e+000	 6.666972226472177e-001	 1.025816967238303e+001
0	 5.466639999981866e+000	 0.000000000000000e+000	 1.018536259072181e+001
0	 5.466639999981866e+000	 6.666714722864756e-002	 1.019130190911730e+001
0	 5.466639999981866e+000	 1.333351778131789e-001	 1.019716778061132e+001
0	 5.466639999981866e+000	 2.000039750814772e-001	 1.020300511920368e+001
0	 5.466639999981865e+000	 2.666734223614255e-001	 1.020885884469641e+001
0	 5.466639999981866e+000	 3.333434029809069e-001	 1.021477388269375e+001
0	 5.466639999981865e+000	 4.000138002678044e-001	 1.022079516460248e+001
0	 5.466639999981866e+000	 4.666844975500011e-001	 1.022696762763222e+001
0	 5.466639999981867e+000	 5.333553781553804e-001	 1.023333621479600e+001
0	 5.466639999981865e+000	 6.000263254118247e-001	 1.023994587491098e+001
0	 5.466639999981865e+000	 6.666972226472178e-001	 1.024684156259926e+001
0	 5.533309999982383e+000	 0.000000000000000e+000	 1.017985110465522e+001
0	 5.533309999982382e+000	 6.666714722864757e-002	 1.018448603666496e+001
0	 5.533309999982382e+000	 1.333351778131789e-001	 1.018931589678144e+001
0	 5.533309999982384e+000	 2.000039750814772e-001	 1.019434778586332e+001
0	 5.533309999982381e+000	 2.666734223614256e-001	 1.019958880920069e+001
0	 5.533309999982382e+000	 3.333434029809069e-001	 1.020504607651530e+001
0	 5.533309999982384e+000	 4.000138002678045e-001	 1.021072670196091e+001
0	 5.533309999982382e+000	 4.666844975500011e-001	 1.021663780412382e+001
0	 5.533309999982382e+000	 5.333553781553803e-001	 1.022278650602344e+001
0	 5.533309999982383e+000	 6.000263254118247e-001	 1.022917993511305e+001
0	 5.533309999982381e+000	 6.666972226472175e-001	 1.023582522328059e+001
0	 5.599979999983598e+000	 0.000000000000000e+000	 1.017784611049154e+001
0	 5.599979999983598e+000	 6.666714722864756e-002	 1.018101720602495e+001
0	 5.599979999983597e+000	 1.333351778131789e-001	 1.018459807835193e+001
0	 5.599979999983599e+000	 2.000039750814772e-001	 1.018856576072335e+001
0	 5.599979999983599e+000	 2.666734223614256e-001	 1.019289728977823e+001
0	 5.599979999983599e+000	 3.333434029809068e-001	 1.019756970554403e+001
0	 5.599979999983598e+000	 4.000138002678044e-001	 1.020256005143711e+001
0	 5.599979999983598e+000	 4.666844975500013e-001	 1.020784537426323e+001
0	 5.599979999983598e+000	 5.333553781553804e-001	 1.021340272421819e+001
0	 5.599979999983598e+000	 6.000263254118246e-001	 1.021920915488849e+001
0	 5.599979999983600e+000	 6.666972226472177e-001	 1.022524172325218e+001
0	 5.666649999985415e+000	 0.000000000000000e+000	 1.017836187877753e+001
0	 5.666649999985414e+000	 6.666714722864756e-002	 1.018003389605350e+001
0	 5.666649999985417e+000	 1.333351778131789e-001	 1.018227400431205e+001
0	 5.666649999985416e+000	 2.000039750814772e-001	 1.018503691547763e+001
0	 5.666649999985414e+000	 2.666734223614254e-001	 1.018827734411540e+001
0	 5.666649999985414e+000	 3.333434029809069e-001	 1.019195000743158e+001
0	 5.666649999985414e+000	 4.000138002678043e-001	 1.019600962527384e+001
0	 5.666649999985415e+000	 4.666844975500012e-001	 1.020041092013185e+001
0	 5.666649999985416e+000	 5.333553781553803e-001	 1.020510861713784e+001
0	 5.666649999985415e+000	 6.000263254118247e-001	 1.021005744406721e+001
0	 5.666649999985415e+000	 6.666972226472177e-001	 1.021521213133921e+001
0	 5.733319999987732e+000	 0.000000000000000e+000	 1.018041268005991e+001
0	 5.733319999987730e+000	 6.666714722864754e-002	 1.018067458560681e+001
0	 5.733319999987733e+000	 1.333351778131789e-001	 1.018160335365104e+001
0	 5.733319999987733e+000	 2.000039750814772e-001	 1.018313912182001e+001
0	 5.733319999987731e+000	 2.666734223614255e-001	 1.018522202989861e+001
0	 5.733319999987730e+000	 3.333434029809068e-001	 1.018779221982958e+001
0	 5.733319999987731e+000	 4.000138002678044e-001	 1.019078983571388e+001
0	 5.733319999987732e+000	 4.666844975500011e-001	 1.019415502381110e+001
0	 5.733319999987732e+000	 5.333553781553803e-001	 1.019782793254002e+001
0	 5.733319999987731e+000	 6.000263254118247e-001	 1.020174871247904e+001
0	 5.733319999987732e+000	 6.666972226472178e-001	 1.020585751636687e+001
0	 5.799989999990449e+000	 0.000000000000000e+000	 1.018301278488540e+001
0	 5.799989999990448e+000	 6.666714722864756e-002	 1.018207775354106e+001
0	 5.799989999990449e+000	 1.333351778131790e-001	 1.018184580535818e+001
0	 5.799989999990448e+000	 2.000039750814772e-001	 1.018225025144437e+001
0	 5.799989999990447e+000	 2.666734223614255e-001	 1.018322440481426e+001
0	 5.799989999990451e+000	 3.333434029809069e-001	 1.018470158038968e+001
0	 5.799989999990449e+000	 4.000138002678044e-001	 1.018661509500000e+001
0	 5.799989999990448e+000	 4.666844975500012e-001	 1.018889826738240e+001
0	 5.799989999990448e+000	 5.333553781553804e-001	 1.019148441818233e+001
0	 5.799989999990448e+000	 6.000263254118247e-001	 1.019430686995390e+001
0	 5.799989999990448e+000	 6.666972226472177e-001	 1.019729894716034e+001
0	 5.866659999993464e+000	 0.000000000000000e+000	 1.018517646380073e+001
0	 5.866659999993465e+000	 6.666714722864756e-002	 1.018338187871248e+001
0	 5.866659999993465e+000	 1.333351778131789e-001	 1.018226103842271e+001
0	 5.866659999993463e+000	 2.000039750814772e-001	 1.018174817604458e+001
0	 5.866659999993466e+000	 2.666734223614256e-001	 1.018177752654877e+001
0	 5.866659999993464e+000	 3.333434029809069e-001	 1.018228332676355e+001
0	 5.866659999993465e+000	 4.000138002678045e-001	 1.018319981537499e+001
0	 5.866659999993464e+000	 4.666844975500011e-001	 1.018446123292717e+001
0	 5.866659999993465e+000	 5.333553781553801e-001	 1.018600182182242e+001
0	 5.866659999993465e+000	 6.000263254118248e-001	 1.018775582632167e+001
0	 5.866659999993466e+000	 6.666972226472178e-001	 1.018965749254484e+001
0	 5.933329999996681e+000	 0.000000000000000e+000	 1.018591798735261e+001
0	 5.933329999996681e+000	 6.666714722864756e-002	 1.018372543997725e+001
0	 5.933329999996682e+000	 1.333351778131789e-001	 1.018210873183388e+001
0	 5.933329999996682e+000	 2.000039750814773e-001	 1.018101076731450e+001
0	 5.933329999996681e+000	 2.666734223614256e-001	 1.018037445278854e+001
0	 5.933329999996682e+000	 3.333434029809069e-001	 1.018014269660283e+001
0	 5.933329999996681e+000	 4.000138002678044e-001	 1.018025840908166e+001
0	 5.933329999996681e+000	 4.666844975500012e-001	 1.018066450252684e+001
0	 5.933329999996682e+000	 5.333553781553803e-001	 1.018130389121791e+001
0	 5.933329999996682e+000	 6.000263254118248e-001	 1.018211949141229e+001
0	 5.933329999996681e+000	 6.666972226472175e-001	 1.018305422134556e+001
0	 6.000000000000000e+000	 0.000000000000000e+000	 1.018425162608775e+001
0	 6.000000000000001e+000	 6.666714722864757e-002	 1.018224691619158e+001
0	 6.000000000000000e+000	 1.333351778131789e-001	 1.018064856458096e+001
0	 6.000000000000000e+000	 2.000039750814772e-001	 1.017941589694801e+001
0	 6.000000000000001e+000	 2.666734223614256e-001	 1.017850824122000e+001
0	 6.000000000000000e+000	 3.333434029809069e-001	 1.017788492755921e+001
0	 6.000000000000001e+000	 4.000138002678044e-001	 1.017750528836280e+001
0	 5.999999999999998e+000	 4.666844975500010e-001	 1.017732865826288e+001
0	 6.000000000000000e+000	 5.333553781553804e-001	 1.017731437412646e+001
0	 6.000000000000000e+000	 6.000263254118248e-001	 1.017742177505565e+001
0	 6.000000000000000e+000	 6.666972226472177e-001	 1.017761020238773e+001
0	 5.333299999983334e+000	 6.666972226472175e-001	 1.026968848380675e+001
0	 5.333299999983334e+000	 7.333579753122048e-001	 1.027549388280138e+001
0	 5.333299999983334e+000	 8.000185779984417e-001	 1.028060961582636e+001
0	 5.333299999983334e+000	 8.666790473703453e-001	 1.028507630905701e+001
0	 5.333299999983335e+000	 9.333394000923322e-001	 1.028893458918828e+001
0	 5.333299999983333e+000	 9.999996528288189e-001	 1.029222508343485e+001
0	 5.333299999983334e+000	 1.066659822244222e+000	 1.029498841953114e+001
0	 5.333299999983335e+000	 1.133319925002959e+000	 1.029726522573132e+001
0	 5.333299999983334e+000	 1.199979977769445e+000	 1.029909613080936e+001
0	 5.333299999983333e+000	 1.266639997208098e+000	 1.030052176405902e+001
0	 5.333299999983335e+000	 1.333299999983334e+000	 1.030158275529392e+001
0	 5.399969999982150e+000	 6.666972226472177e-001	 1.025816967238303e+001
0	 5.399969999982149e+000	 7.333579753122046e-001	 1.026466542262804e+001
0	 5.399969999982150e+000	 8.000185779984418e-001	 1.027040754717746e+001
0	 5.399969999982149e+000	 8.666790473703453e-001	 1.027542308376103e+001
0	 5.399969999982148e+000	 9.333394000923320e-001	 1.027973907083630e+001
0	 5.399969999982149e+000	 9.999996528288190e-001	 1.028338254758864e+001
0	 5.399969999982151e+000	 1.066659822244222e+000	 1.028638055393136e+001
0	 5.399969999982148e+000	 1.133319925002958e+000	 1.028876013050561e+001
0	 5.399969999982149e+000	 1.199979977769445e+000	 1.029054831868055e+001
0	 5.399969999982150e+000	 1.266639997208098e+000	 1.029177216055324e+001
0	 5.399969999982150e+000	 1.333299999983334e+000	 1.029245869894875e+001
0	 5.466639999981865e+000	 6.666972226472178e-001	 1.024684156259926e+001
0	 5.466639999981867e+000	 7.333579753122050e-001	 1.025352224470790e+001
0	 5.466639999981864e+000	 8.000185779984415e-001	 1.025946946777625e+001
0	 5.466639999981866e+000	 8.666790473703452e-001	 1.026469888691135e+001
0	 5.466639999981865e+000	 9.333394000923321e-001	 1.026922615801080e+001
0	 5.466639999981866e+000	 9.999996528288188e-001	 1.027306693776301e+001
0	 5.466639999981865e+000	 1.066659822244222e+000	 1.027623688364704e+001
0	 5.466639999981866e+000	 1.133319925002959e+000	 1.027875165393275e+001
0	 5.466639999981867e+000	 1.199979977769445e+000	 1.028062690768077e+001
0	 5.466639999981866e+000	 1.266639997208098e+000	 1.028187830474252e+001
0	 5.466639999981866e+000	 1.333299999983334e+000	 1.028252150576027e+001
0	 5.533309999982381e+000	 6.666972226472175e-001	 1.023582522328059e+001
0	 5.533309999982381e+000	 7.333579753122048e-001	 1.024227250022726e+001
0	 5.533309999982382e+000	 8.000185779984415e-001	 1.024807348921856e+001
0	 5.533309999982384e+000	 8.666790473703456e-001	 1.025323466839999e+001
0	 5.533309999982382e+000	 9.333394000923322e-001	 1.025776251665093e+001
0	 5.533309999982383e+000	 9.999996528288191e-001	 1.026166351358469e+001
0	 5.533309999982382e+000	 1.066659822244222e+000	 1.026494413954857e+001
0	 5.533309999982381e+000	 1.133319925002958e+000	 1.026761087562383e+001
0	 5.533309999982381e+000	 1.199979977769445e+000	 1.026967020362572e+001
0	 5.533309999982383e+000	 1.266639997208098e+000	 1.027112860610356e+001
0	 5.533309999982381e+000	 1.333299999983334e+000	 1.027199256634071e+001
0	 5.599979999983600e+000	 6.666972226472177e-001	 1.022524172325218e+001
0	 5.599979999983598e+000	 7.333579753122048e-001	 1.023112434037243e+001
0	 5.599979999983598e+000	 8.000185779984416e-001	 1.023649772310018e+001
0	 5.599979999983598e+000	 8.666790473703452e-001	 1.024136137811905e+001
0	 5.599979999983597e+000	 9.333394000923319e-001	 1.024571481269579e+001
0	 5.599979999983599e+000	 9.999996528288191e-001	 1.024955753468047e+001
0	 5.599979999983598e+000	 1.066659822244222e+000	 1.025288905250632e+001
0	 5.599979999983600e+000	 1.133319925002959e+000	 1.025570887518992e+001
0	 5.599979999983598e+000	 1.199979977769445e+000	 1.025801651233111e+001
0	 5.599979999983599e+000	 1.266639997208098e+000	 1.025981147411306e+001
0	 5.599979999983598e+000	 1.333299999983334e+000	 1.026109327130227e+001
0	 5.666649999985415e+000	 6.666972226472177e-001	 1.021521213133921e+001
0	 5.666649999985416e+000	 7.333579753122049e-001	 1.022028591632970e+001
0	 5.666649999985413e+000	 8.000185779984415e-001	 1.022502028101694e+001
0	 5.666649999985414e+000	 8.666790473703451e-001	 1.022940996596057e+001
0	 5.666649999985414e+000	 9.333394000923319e-001	 1.023344971208456e+001
0	 5.666649999985416e+000	 9.999996528288189e-001	 1.023713426067709e+001
0	 5.666649999985416e+000	 1.066659822244222e+000	 1.024045835339068e+001
0	 5.666649999985414e+000	 1.133319925002959e+000	 1.024341673224216e+001
0	 5.666649999985418e+000	 1.199979977769445e+000	 1.024600413961267e+001
0	 5.666649999985416e+000	 1.266639997208098e+000	 1.024821531824771e+001
0	 5.666649999985414e+000	 1.333299999983334e+000	 1.025004501125718e+001
0	 5.733319999987732e+000	 6.666972226472178e-001	 1.020585751636687e+001
0	 5.733319999987732e+000	 7.333579753122048e-001	 1.020996537928544e+001
0	 5.733319999987729e+000	 8.000185779984415e-001	 1.021391927456466e+001
0	 5.733319999987730e+000	 8.666790473703452e-001	 1.021771138181667e+001
0	 5.733319999987731e+000	 9.333394000923322e-001	 1.022133388075636e+001
0	 5.733319999987732e+000	 9.999996528288190e-001	 1.022477895120135e+001
0	 5.733319999987732e+000	 1.066659822244222e+000	 1.022803877307205e+001
0	 5.733319999987732e+000	 1.133319925002959e+000	 1.023110552639164e+001
0	 5.733319999987732e+000	 1.199979977769445e+000	 1.023397139128611e+001
0	 5.733319999987731e+000	 1.266639997208098e+000	 1.023662854798425e+001
0	 5.733319999987731e+000	 1.333299999983334e+000	 1.023906917681766e+001
0	 5.799989999990448e+000	 6.666972226472177e-001	 1.019729894716035e+001
0	 5.799989999990448e+000	 7.333579753122048e-001	 1.020037088042595e+001
0	 5.799989999990449e+000	 8.000185779984417e-001	 1.020347281533918e+001
0	 5.799989999990448e+000	 8.666790473703451e-001	 1.020659657557941e+001
0	 5.799989999990448e+000	 9.333394000923323e-001	 1.020973398465034e+001
0	 5.799989999990447e+000	 9.999996528288188e-001	 1.021287686588001e+001
0	 5.799989999990448e+000	 1.066659822244222e+000	 1.021601704242081e+001
0	 5.799989999990448e+000	 1.133319925002958e+000	 1.021914633724949e+001
0	 5.799989999990449e+000	 1.199979977769445e+000	 1.022225657316717e+001
0	 5.799989999990447e+000	 1.266639997208098e+000	 1.022533957279935e+001
0	 5.799989999990449e+000	 1.333299999983334e+000	 1.022838715859594e+001
0	 5.866659999993466e+000	 6.666972226472178e-001	 1.018965749254484e+001
0	 5.866659999993463e+000	 7.333579753122048e-001	 1.019171057093758e+001
0	 5.866659999993465e+000	 8.000185779984417e-001	 1.019395901493635e+001
0	 5.866659999993464e+000	 8.666790473703452e-001	 1.019639649714090e+001
0	 5.866659999993464e+000	 9.333394000923323e-001	 1.019901668970567e+001
0	 5.866659999993464e+000	 9.999996528288189e-001	 1.020181326433987e+001
0	 5.866659999993465e+000	 1.066659822244222e+000	 1.020477989230737e+001
0	 5.866659999993465e+000	 1.133319925002959e+000	 1.020791024442681e+001
0	 5.866659999993466e+000	 1.199979977769445e+000	 1.021119799107157e+001
0	 5.866659999993464e+000	 1.266639997208098e+000	 1.021463680216975e+001
0	 5.866659999993464e+000	 1.333299999983334e+000	 1.021822034720422e+001
0	 5.933329999996681e+000	 6.666972226472175e-001	 1.018305422134556e+001
0	 5.933329999996681e+000	 7.333579753122046e-001	 1.018419260200667e+001
0	 5.933329999996682e+000	 8.000185779984416e-001	 1.018565598495200e+001
0	 5.933329999996682e+000	 8.666790473703454e-001	 1.018744209639322e+001
0	 5.933329999996682e+000	 9.333394000923322e-001	 1.018954866186153e+001
0	 5.933329999996681e+000	 9.999996528288190e-001	 1.019197340620771e+001
0	 5.933329999996681e+000	 1.066659822244222e+000	 1.019471405360213e+001
0	 5.933329999996682e+000	 1.133319925002959e+000	 1.019776832753474e+001
0	 5.933329999996682e+000	 1.199979977769445e+000	 1.020113395081504e+001
0	 5.933329999996682e+000	 1.266639997208098e+000	 1.020480864557214e+001
0	 5.933329999996681e+000	 1.333299999983334e+000	 1.020879013325476e+001
0	 6.000000000000000e+000	 6.666972226472177e-001	 1.017761020238773e+001
0	 6.000000000000000e+000	 7.333579753122046e-001	 1.017802512481958e+001
0	 6.000000000000000e+000	 8.000185779984417e-001	 1.017884183698202e+001
0	 6.000000000000002e+000	 8.666790473703454e-001	 1.018006432322851e+001
0	 6.000000000000000e+000	 9.333394000923323e-001	 1.018169656705708e+001
0	 5.999999999999999e+000	 9.999996528288190e-001	 1.018374255111035e+001
0	 6.000000000000000e+000	 1.066659822244222e+000	 1.018620625717552e+001
0	 6.000000000000001e+000	 1.133319925002959e+000	 1.018909166618439e+001
0	 6.000000000000000e+000	 1.199979977769445e+000	 1.019240275821332e+001
0	 6.000000000000000e+000	 1.266639997208098e+000	 1.019614351248326e+001
0	 6.000000000000000e+000	 1.333299999983334e+000	 1.020031790735976e+001
0	 5.333299999983335e+000	 1.333299999983334e+000	 1.030158275529392e+001
0	 5.333299999983333e+000	 1.399969999982150e+000	 1.030255948099393e+001
0	 5.333299999983335e+000	 1.466639999981867e+000	 1.030371739168120e+001
0	 5.333299999983333e+000	 1.533309999982383e+000	 1.030507513015888e+001
0	 5.333299999983335e+000	 1.599979999983599e+000	 1.030665133923012e+001
0	 5.333299999983334e+000	 1.666649999985416e+000	 1.030846466169807e+001
0	 5.333299999983334e+000	 1.733319999987733e+000	 1.031053374036592e+001
0	 5.333299999983333e+000	 1.799989999990449e+000	 1.031287721803679e+001
0	 5.333299999983334e+000	 1.866659999993466e+000	 1.031551373751387e+001
0	 5.333299999983334e+000	 1.933329999996684e+000	 1.031846194160031e+001
0	 5.333299999983333e+000	 2.000000000000000e+000	 1.032174047309929e+001
0	 5.399969999982150e+000	 1.333299999983334e+000	 1.029245869894875e+001
0	 5.399969999982148e+000	 1.399969999982150e+000	 1.029300614246067e+001
0	 5.399969999982150e+000	 1.466639999981866e+000	 1.029380667465009e+001
0	 5.399969999982149e+000	 1.533309999982383e+000	 1.029487849346399e+001
0	 5.399969999982148e+000	 1.599979999983599e+000	 1.029623979684936e+001
0	 5.399969999982151e+000	 1.666649999985416e+000	 1.029790878275320e+001
0	 5.399969999982149e+000	 1.733319999987733e+000	 1.029990364912251e+001
0	 5.399969999982148e+000	 1.799989999990450e+000	 1.030224259390428e+001
0	 5.399969999982151e+000	 1.866659999993466e+000	 1.030494381504551e+001
0	 5.399969999982151e+000	 1.933329999996683e+000	 1.030802551049322e+001
0	 5.399969999982148e+000	 2.000000000000000e+000	 1.031150587819439e+001
0	 5.466639999981866e+000	 1.333299999983334e+000	 1.028252150576027e+001
0	 5.466639999981865e+000	 1.399969999982150e+000	 1.028299526063660e+001
0	 5.466639999981866e+000	 1.466639999981867e+000	 1.028373965288121e+001
0	 5.466639999981866e+000	 1.533309999982383e+000	 1.028477249910119e+001
0	 5.466639999981867e+000	 1.599979999983599e+000	 1.028611161590362e+001
0	 5.466639999981866e+000	 1.666649999985416e+000	 1.028777481989560e+001
0	 5.466639999981864e+000	 1.733319999987733e+000	 1.028977992768423e+001
0	 5.466639999981867e+000	 1.799989999990450e+000	 1.029214475587660e+001
0	 5.466639999981866e+000	 1.866659999993466e+000	 1.029488712107981e+001
0	 5.466639999981868e+000	 1.933329999996684e+000	 1.029802483990098e+001
0	 5.466639999981868e+000	 2.000000000000000e+000	 1.030157572894721e+001
0	 5.533309999982381e+000	 1.333299999983334e+000	 1.027199256634071e+001
0	 5.533309999982382e+000	 1.399969999982150e+000	 1.027267774612158e+001
0	 5.533309999982381e+000	 1.466639999981866e+000	 1.027360697984308e+001
0	 5.533309999982382e+000	 1.533309999982383e+000	 1.027479776628870e+001
0	 5.533309999982382e+000	 1.599979999983600e+000	 1.027626760424186e+001
0	 5.533309999982382e+000	 1.666649999985416e+000	 1.027803399248603e+001
0	 5.533309999982383e+000	 1.733319999987733e+000	 1.028011442980464e+001
0	 5.533309999982381e+000	 1.799989999990450e+000	 1.028252641498118e+001
0	 5.533309999982381e+000	 1.866659999993466e+000	 1.028528744679911e+001
0	 5.533309999982383e+000	 1.933329999996683e+000	 1.028841502404188e+001
0	 5.533309999982382e+000	 2.000000000000000e+000	 1.029192664549298e+001
0	 5.599979999983598e+000	 1.333299999983334e+000	 1.026109327130227e+001
0	 5.599979999983598e+000	 1.399969999982150e+000	 1.026220450951543e+001
0	 5.599979999983599e+000	 1.466639999981866e+000	 1.026349930900422e+001
0	 5.599979999983599e+000	 1.533309999982383e+000	 1.026499491424473e+001
0	 5.599979999983598e+000	 1.599979999983599e+000	 1.026670856971302e+001
0	 5.599979999983598e+000	 1.666649999985416e+000	 1.026865751988520e+001
0	 5.599979999983598e+000	 1.733319999987733e+000	 1.027085900923731e+001
0	 5.599979999983598e+000	 1.799989999990449e+000	 1.027333028224545e+001
0	 5.599979999983598e+000	 1.866659999993467e+000	 1.027608858338572e+001
0	 5.599979999983598e+000	 1.933329999996683e+000	 1.027915115713418e+001
0	 5.599979999983599e+000	 2.000000000000000e+000	 1.028253524796694e+001
0	 5.666649999985414e+000	 1.333299999983334e+000	 1.025004501125718e+001
0	 5.666649999985417e+000	 1.399969999982150e+000	 1.025172646141800e+001
0	 5.666649999985416e+000	 1.466639999981867e+000	 1.025350729383313e+001
0	 5.666649999985414e+000	 1.533309999982383e+000	 1.025540456218749e+001
0	 5.666649999985414e+000	 1.599979999983599e+000	 1.025743532016609e+001
0	 5.666649999985415e+000	 1.666649999985416e+000	 1.025961662145386e+001
0	 5.666649999985414e+000	 1.733319999987733e+000	 1.026196551973579e+001
0	 5.666649999985415e+000	 1.799989999990449e+000	 1.026449906869682e+001
0	 5.666649999985417e+000	 1.866659999993466e+000	 1.026723432202195e+001
0	 5.666649999985414e+000	 1.933329999996683e+000	 1.027018833339611e+001
0	 5.666649999985415e+000	 2.000000000000000e+000	 1.027337815650431e+001
0	 5.733319999987731e+000	 1.333299999983334e+000	 1.023906917681767e+001
0	 5.733319999987732e+000	 1.399969999982150e+000	 1.024139451242914e+001
0	 5.733319999987733e+000	 1.466639999981866e+000	 1.024372158779829e+001
0	 5.733319999987733e+000	 1.533309999982383e+000	 1.024606732933521e+001
0	 5.733319999987730e+000	 1.599979999983600e+000	 1.024844866345000e+001
0	 5.733319999987731e+000	 1.666649999985416e+000	 1.025088251655277e+001
0	 5.733319999987731e+000	 1.733319999987733e+000	 1.025338581505365e+001
0	 5.733319999987732e+000	 1.799989999990450e+000	 1.025597548536272e+001
0	 5.733319999987731e+000	 1.866659999993466e+000	 1.025866845389012e+001
0	 5.733319999987733e+000	 1.933329999996683e+000	 1.026148164704594e+001
0	 5.733319999987732e+000	 2.000000000000000e+000	 1.026443199124033e+001
0	 5.799989999990449e+000	 1.333299999983334e+000	 1.022838715859594e+001
0	 5.799989999990447e+000	 1.399969999982150e+000	 1.023135957314870e+001
0	 5.799989999990447e+000	 1.466639999981866e+000	 1.023423284436824e+001
0	 5.799989999990448e+000	 1.533309999982383e+000	 1.023702383490607e+001
0	 5.799989999990448e+000	 1.599979999983600e+000	 1.023974940741370e+001
0	 5.799989999990449e+000	 1.666649999985416e+000	 1.024242642454265e+001
0	 5.799989999990448e+000	 1.733319999987733e+000	 1.024507174894443e+001
0	 5.799989999990449e+000	 1.799989999990450e+000	 1.024770224327056e+001
0	 5.799989999990447e+000	 1.866659999993466e+000	 1.025033477017255e+001
0	 5.799989999990449e+000	 1.933329999996683e+000	 1.025298619230193e+001
0	 5.799989999990447e+000	 2.000000000000000e+000	 1.025567337231021e+001
0	 5.866659999993464e+000	 1.333299999983334e+000	 1.021822034720422e+001
0	 5.866659999993464e+000	 1.399969999982150e+000	 1.022177255417651e+001
0	 5.866659999993465e+000	 1.466639999981866e+000	 1.022513171701148e+001
0	 5.866659999993463e+000	 1.533309999982383e+000	 1.022831469811830e+001
0	 5.866659999993464e+000	 1.599979999983599e+000	 1.023133835990616e+001
0	 5.866659999993466e+000	 1.666649999985416e+000	 1.023421956478423e+001
0	 5.866659999993465e+000	 1.733319999987733e+000	 1.023697517516171e+001
0	 5.866659999993464e+000	 1.799989999990449e+000	 1.023962205344775e+001
0	 5.866659999993465e+000	 1.866659999993466e+000	 1.024217706205157e+001
0	 5.866659999993464e+000	 1.933329999996683e+000	 1.024465706338232e+001
0	 5.866659999993463e+000	 2.000000000000000e+000	 1.024707891984919e+001
0	 5.933329999996681e+000	 1.333299999983334e+000	 1.020879013325476e+001
0	 5.933329999996681e+000	 1.399969999982150e+000	 1.021278436611243e+001
0	 5.933329999996682e+000	 1.466639999981866e+000	 1.021650885919653e+001
0	 5.933329999996682e+000	 1.533309999982383e+000	 1.021998053819012e+001
0	 5.933329999996680e+000	 1.599979999983600e+000	 1.022321632877632e+001
0	 5.933329999996681e+000	 1.666649999985416e+000	 1.022623315663827e+001
0	 5.933329999996680e+000	 1.733319999987733e+000	 1.022904794745904e+001
0	 5.933329999996682e+000	 1.799989999990450e+000	 1.023167762692174e+001
0	 5.933329999996682e+000	 1.866659999993466e+000	 1.023413912070948e+001
0	 5.933329999996682e+000	 1.933329999996683e+000	 1.023644935450536e+001
0	 5.933329999996681e+000	 2.000000000000000e+000	 1.023862525399248e+001
0	 6.000000000000000e+000	 1.333299999983334e+000	 1.020031790735976e+001
0	 5.999999999999999e+000	 1.399969999982150e+000	 1.020454591955632e+001
0	 6.000000000000000e+000	 1.466639999981866e+000	 1.020845492439188e+001
0	 6.000000000000000e+000	 1.533309999982383e+000	 1.021206197433972e+001
0	 6.000000000000001e+000	 1.599979999983600e+000	 1.021538412187317e+001
0	 6.000000000000000e+000	 1.666649999985416e+000	 1.021843841946549e+001
0	 6.000000000000002e+000	 1.733319999987733e+000	 1.022124191958997e+001
0	 6.000000000000000e+000	 1.799989999990450e+000	 1.022381167471991e+001
0	 5.999999999999998e+000	 1.866659999993466e+000	 1.022616473732860e+001
0	 6.000000000000000e+000	 1.933329999996683e+000	 1.022831815988930e+001
0	 5.999999999999999e+000	 2.000000000000000e+000	 1.023028899487532e+001
0	 5.333299999983333e+000	 2.000000000000000e+000	 1.032174047309929e+001
0	 5.333299999983333e+000	 2.066670000003317e+000	 1.032496379966828e+001
0	 5.333299999983333e+000	 2.133340000006534e+000	 1.032773392488139e+001
0	 5.333299999983335e+000	 2.200010000009550e+000	 1.033005079541673e+001
0	 5.333299999983333e+000	 2.266680000012268e+000	 1.033191435795237e+001
0	 5.333299999983335e+000	 2.333350000014584e+000	 1.033332455916638e+001
0	 5.333299999983334e+000	 2.400020000016401e+000	 1.033428134573686e+001
0	 5.333299999983334e+000	 2.466690000017617e+000	 1.033478466434186e+001
0	 5.333299999983335e+000	 2.533360000018134e+000	 1.033483446165944e+001
0	 5.333299999983333e+000	 2.600030000017851e+000	 1.033443068436766e+001
0	 5.333299999983334e+000	 2.666700000016666e+000	 1.033357327914459e+001
0	 5.399969999982148e+000	 2.000000000000000e+000	 1.031150587819439e+001
0	 5.399969999982150e+000	 2.066670000003317e+000	 1.031493358382344e+001
0	 5.399969999982151e+000	 2.133340000006534e+000	 1.031785080536058e+001
0	 5.399969999982150e+000	 2.200010000009551e+000	 1.032026600921151e+001
0	 5.399969999982149e+000	 2.266680000012267e+000	 1.032218766178194e+001
0	 5.399969999982151e+000	 2.333350000014584e+000	 1.032362422947758e+001
0	 5.399969999982149e+000	 2.400020000016401e+000	 1.032458417870411e+001
0	 5.399969999982149e+000	 2.466690000017617e+000	 1.032507597586723e+001
0	 5.399969999982150e+000	 2.533360000018133e+000	 1.032510808737262e+001
0	 5.399969999982149e+000	 2.600030000017851e+000	 1.032468897962594e+001
0	 5.399969999982149e+000	 2.666700000016667e+000	 1.032382711903289e+001
0	 5.466639999981868e+000	 2.000000000000000e+000	 1.030157572894721e+001
0	 5.466639999981867e+000	 2.066670000003318e+000	 1.030506580824485e+001
0	 5.466639999981867e+000	 2.133340000006534e+000	 1.030801952762625e+001
0	 5.466639999981867e+000	 2.200010000009550e+000	 1.031045234840749e+001
0	 5.466639999981865e+000	 2.266680000012267e+000	 1.031237973190466e+001
0	 5.466639999981867e+000	 2.333350000014584e+000	 1.031381713943380e+001
0	 5.466639999981866e+000	 2.400020000016401e+000	 1.031478003231098e+001
0	 5.466639999981866e+000	 2.466690000017617e+000	 1.031528387185226e+001
0	 5.466639999981864e+000	 2.533360000018134e+000	 1.031534411937368e+001
0	 5.466639999981865e+000	 2.600030000017849e+000	 1.031497623619130e+001
0	 5.466639999981866e+000	 2.666700000016666e+000	 1.031419568362115e+001
0	 5.533309999982382e+000	 2.000000000000000e+000	 1.029192664549298e+001
0	 5.533309999982382e+000	 2.066670000003316e+000	 1.029536148021732e+001
0	 5.533309999982381e+000	 2.133340000006534e+000	 1.029826098569697e+001
0	 5.533309999982383e+000	 2.200010000009550e+000	 1.030064609334112e+001
0	 5.533309999982383e+000	 2.266680000012267e+000	 1.030253773455898e+001
0	 5.533309999982382e+000	 2.333350000014584e+000	 1.030395684075970e+001
0	 5.533309999982384e+000	 2.400020000016401e+000	 1.030492434335249e+001
0	 5.533309999982381e+000	 2.466690000017617e+000	 1.030546117374649e+001
0	 5.533309999982381e+000	 2.533360000018134e+000	 1.030558826335087e+001
0	 5.533309999982381e+000	 2.600030000017849e+000	 1.030532654357481e+001
0	 5.533309999982382e+000	 2.666700000016666e+000	 1.030469694582744e+001
0	 5.599979999983599e+000	 2.000000000000000e+000	 1.028253524796694e+001
0	 5.599979999983598e+000	 2.066670000003316e+000	 1.028582160702564e+001
0	 5.599979999983598e+000	 2.133340000006534e+000	 1.028859607359125e+001
0	 5.599979999983598e+000	 2.200010000009550e+000	 1.029088352434882e+001
0	 5.599979999983598e+000	 2.266680000012268e+000	 1.029270883598337e+001
0	 5.599979999983599e+000	 2.333350000014584e+000	 1.029409688517998e+001
0	 5.599979999983599e+000	 2.400020000016400e+000	 1.029507254862368e+001
0	 5.599979999983598e+000	 2.466690000017617e+000	 1.029566070299949e+001
0	 5.599979999983598e+000	 2.533360000018133e+000	 1.029588622499244e+001
0	 5.599979999983598e+000	 2.600030000017850e+000	 1.029577399128756e+001
0	 5.599979999983598e+000	 2.666700000016666e+000	 1.029534887856984e+001
0	 5.666649999985415e+000	 2.000000000000000e+000	 1.027337815650431e+001
0	 5.666649999985413e+000	 2.066670000003316e+000	 1.027644719595463e+001
0	 5.666649999985417e+000	 2.133340000006535e+000	 1.027904568532764e+001
0	 5.666649999985415e+000	 2.200010000009550e+000	 1.028120092176698e+001
0	 5.666649999985414e+000	 2.266680000012267e+000	 1.028294020241632e+001
0	 5.666649999985415e+000	 2.333350000014583e+000	 1.028429082441932e+001
0	 5.666649999985416e+000	 2.400020000016401e+000	 1.028528008491960e+001
0	 5.666649999985415e+000	 2.466690000017617e+000	 1.028593528106083e+001
0	 5.666649999985417e+000	 2.533360000018134e+000	 1.028628370998661e+001
0	 5.666649999985416e+000	 2.600030000017851e+000	 1.028635266884061e+001
0	 5.666649999985415e+000	 2.666700000016666e+000	 1.028616945476643e+001
0	 5.733319999987732e+000	 2.000000000000000e+000	 1.026443199124033e+001
0	 5.733319999987732e+000	 2.066670000003317e+000	 1.026723925428908e+001
0	 5.733319999987731e+000	 2.133340000006534e+000	 1.026963071492465e+001
0	 5.733319999987732e+000	 2.200010000009550e+000	 1.027163456593205e+001
0	 5.733319999987730e+000	 2.266680000012267e+000	 1.027327900009629e+001
0	 5.733319999987731e+000	 2.333350000014583e+000	 1.027459221020236e+001
0	 5.733319999987730e+000	 2.400020000016400e+000	 1.027560238903528e+001
0	 5.733319999987733e+000	 2.466690000017617e+000	 1.027633772938004e+001
0	 5.733319999987733e+000	 2.533360000018134e+000	 1.027682642402164e+001
0	 5.733319999987732e+000	 2.600030000017851e+000	 1.027709666574506e+001
0	 5.733319999987732e+000	 2.666700000016666e+000	 1.027717664733529e+001
0	 5.799989999990447e+000	 2.000000000000000e+000	 1.025567337231021e+001
0	 5.799989999990448e+000	 2.066670000003317e+000	 1.025819878931379e+001
0	 5.799989999990448e+000	 2.133340000006534e+000	 1.026037205640083e+001
0	 5.799989999990450e+000	 2.200010000009551e+000	 1.026222073718043e+001
0	 5.799989999990448e+000	 2.266680000012268e+000	 1.026377239526172e+001
0	 5.799989999990449e+000	 2.333350000014584e+000	 1.026505459425379e+001
0	 5.799989999990449e+000	 2.400020000016400e+000	 1.026609489776576e+001
0	 5.799989999990449e+000	 2.466690000017618e+000	 1.026692086940671e+001
0	 5.799989999990448e+000	 2.533360000018134e+000	 1.026756007278575e+001
0	 5.799989999990447e+000	 2.600030000017850e+000	 1.026804007151198e+001
0	 5.799989999990448e+000	 2.666700000016666e+000	 1.026838842919448e+001
0	 5.866659999993463e+000	 2.000000000000000e+000	 1.024707891984919e+001
0	 5.866659999993463e+000	 2.066670000003316e+000	 1.024932680831356e+001
0	 5.866659999993465e+000	 2.133340000006534e+000	 1.025129060377470e+001
0	 5.866659999993464e+000	 2.200010000009550e+000	 1.025299571584855e+001
0	 5.866659999993466e+000	 2.266680000012267e+000	 1.025446755415109e+001
0	 5.866659999993466e+000	 2.333350000014584e+000	 1.025573152829827e+001
0	 5.866659999993464e+000	 2.400020000016400e+000	 1.025681304790606e+001
0	 5.866659999993464e+000	 2.466690000017618e+000	 1.025773752259038e+001
0	 5.866659999993464e+000	 2.533360000018133e+000	 1.025853036196719e+001
0	 5.866659999993465e+000	 2.600030000017850e+000	 1.025921697565245e+001
0	 5.866659999993464e+000	 2.666700000016666e+000	 1.025982277326208e+001
0	 5.933329999996681e+000	 2.000000000000000e+000	 1.023862525399248e+001
0	 5.933329999996682e+000	 2.066670000003318e+000	 1.024062431857318e+001
0	 5.933329999996681e+000	 2.133340000006534e+000	 1.024240725106477e+001
0	 5.933329999996682e+000	 2.200010000009550e+000	 1.024399578227283e+001
0	 5.933329999996681e+000	 2.266680000012267e+000	 1.024541164300288e+001
0	 5.933329999996681e+000	 2.333350000014583e+000	 1.024667656406050e+001
0	 5.933329999996680e+000	 2.400020000016401e+000	 1.024781227625122e+001
0	 5.933329999996681e+000	 2.466690000017616e+000	 1.024884051038061e+001
0	 5.933329999996681e+000	 2.533360000018134e+000	 1.024978299725420e+001
0	 5.933329999996681e+000	 2.600030000017850e+000	 1.025066146767755e+001
0	 5.933329999996681e+000	 2.666700000016666e+000	 1.025149765245618e+001
0	 5.999999999999999e+000	 2.000000000000000e+000	 1.023028899487532e+001
0	 6.000000000000000e+000	 2.066670000003318e+000	 1.023209232737746e+001
0	 5.999999999999999e+000	 2.133340000006534e+000	 1.023374289228960e+001
0	 6.000000000000001e+000	 2.200010000009551e+000	 1.023525721678966e+001
0	 6.000000000000002e+000	 2.266680000012268e+000	 1.023665182805553e+001
0	 6.000000000000000e+000	 2.333350000014584e+000	 1.023794325326511e+001
0	 6.000000000000000e+000	 2.400020000016401e+000	 1.023914801959629e+001
0	 6.000000000000000e+000	 2.466690000017617e+000	 1.024028265422696e+001
0	 6.000000000000001e+000	 2.533360000018133e+000	 1.024136368433501e+001
0	 5.999999999999998e+000	 2.600030000017850e+000	 1.024240763709834e+001
0	 6.000000000000000e+000	 2.666700000016666e+000	 1.024343103969484e+001
0	 5.333299999983334e+000	 2.666700000016666e+000	 1.033357327914459e+001
0	 5.333299999983334e+000	 2.733360000014532e+000	 1.033239642996280e+001
0	 5.333299999983334e+000	 2.800020000011599e+000	 1.033104133351687e+001
0	 5.333299999983334e+000	 2.866680000008067e+000	 1.032951894345008e+001
0	 5.333299999983335e+000	 2.933340000004133e+000	 1.032784021340564e+001
0	 5.333299999983333e+000	 3.000000000000000e+000	 1.032601609702683e+001
0	 5.333299999983334e+000	 3.066659999995867e+000	 1.032405754795692e+001
0	 5.333299999983334e+000	 3.133319999991934e+000	 1.032197551983921e+001
0	 5.333299999983333e+000	 3.199979999988401e+000	 1.031978096631695e+001
0	 5.333299999983334e+000	 3.266639999985468e+000	 1.031748484103344e+001
0	 5.333299999983335e+000	 3.333299999983334e+000	 1.031509809763198e+001
0	 5.399969999982149e+000	 2.666700000016667e+000	 1.032382711903289e+001
0	 5.399969999982151e+000	 2.733360000014533e+000	 1.032269037290917e+001
0	 5.399969999982148e+000	 2.800020000011598e+000	 1.032144231512734e+001
0	 5.399969999982149e+000	 2.866680000008067e+000	 1.032008545809070e+001
0	 5.399969999982151e+000	 2.933340000004134e+000	 1.031862231420260e+001
0	 5.399969999982150e+000	 3.000000000000000e+000	 1.031705539586633e+001
0	 5.399969999982149e+000	 3.066659999995868e+000	 1.031538721548523e+001
0	 5.399969999982148e+000	 3.133319999991934e+000	 1.031362028546263e+001
0	 5.399969999982150e+000	 3.199979999988400e+000	 1.031175711820188e+001
0	 5.399969999982151e+000	 3.266639999985468e+000	 1.030980022610632e+001
0	 5.399969999982149e+000	 3.333299999983333e+000	 1.030775212157931e+001
0	 5.466639999981866e+000	 2.666700000016666e+000	 1.031419568362115e+001
0	 5.466639999981867e+000	 2.733360000014533e+000	 1.031318131359086e+001
0	 5.466639999981864e+000	 2.800020000011599e+000	 1.031209841360981e+001
0	 5.466639999981865e+000	 2.866680000008066e+000	 1.031094254012461e+001
0	 5.466639999981865e+000	 2.933340000004133e+000	 1.030970924958189e+001
0	 5.466639999981864e+000	 2.999999999999999e+000	 1.030839409842830e+001
0	 5.466639999981865e+000	 3.066659999995866e+000	 1.030699264311046e+001
0	 5.466639999981866e+000	 3.133319999991934e+000	 1.030550044007501e+001
0	 5.466639999981865e+000	 3.199979999988400e+000	 1.030391304576862e+001
0	 5.466639999981867e+000	 3.266639999985467e+000	 1.030222601663793e+001
0	 5.466639999981866e+000	 3.333299999983334e+000	 1.030043490912961e+001
0	 5.533309999982382e+000	 2.666700000016666e+000	 1.030469694582744e+001
0	 5.533309999982382e+000	 2.733360000014533e+000	 1.030387045094090e+001
0	 5.533309999982382e+000	 2.800020000011600e+000	 1.030299723403424e+001
0	 5.533309999982384e+000	 2.866680000008067e+000	 1.030206738088063e+001
0	 5.533309999982381e+000	 2.933340000004133e+000	 1.030107097725326e+001
0	 5.533309999982381e+000	 3.000000000000000e+000	 1.029999810892534e+001
0	 5.533309999982382e+000	 3.066659999995867e+000	 1.029883886167005e+001
0	 5.533309999982383e+000	 3.133319999991935e+000	 1.029758332126062e+001
0	 5.533309999982382e+000	 3.199979999988400e+000	 1.029622157347024e+001
0	 5.533309999982382e+000	 3.266639999985468e+000	 1.029474370407213e+001
0	 5.533309999982383e+000	 3.333299999983334e+000	 1.029313979883953e+001
0	 5.599979999983598e+000	 2.666700000016666e+000	 1.029534887856984e+001
0	 5.599979999983598e+000	 2.733360000014533e+000	 1.029475898389232e+001
0	 5.599979999983598e+000	 2.800020000011600e+000	 1.029412638147059e+001
0	 5.599979999983598e+000	 2.866680000008066e+000	 1.029343717168764e+001
0	 5.599979999983598e+000	 2.933340000004133e+000	 1.029267745492646e+001
0	 5.599979999983598e+000	 3.000000000000000e+000	 1.029183333157008e+001
0	 5.599979999983598e+000	 3.066659999995866e+000	 1.029089090200150e+001
0	 5.599979999983598e+000	 3.133319999991934e+000	 1.028983626660375e+001
0	 5.599979999983598e+000	 3.199979999988401e+000	 1.028865552575984e+001
0	 5.599979999983598e+000	 3.266639999985467e+000	 1.028733477985280e+001
0	 5.599979999983598e+000	 3.333299999983334e+000	 1.028586012926568e+001
0	 5.666649999985415e+000	 2.666700000016666e+000	 1.028616945476643e+001
0	 5.666649999985416e+000	 2.733360000014533e+000	 1.028584811137814e+001
0	 5.666649999985415e+000	 2.800020000011600e+000	 1.028547346098880e+001
0	 5.666649999985414e+000	 2.866680000008066e+000	 1.028502910387447e+001
0	 5.666649999985416e+000	 2.933340000004133e+000	 1.028449864031122e+001
0	 5.666649999985417e+000	 3.000000000000000e+000	 1.028386567057511e+001
0	 5.666649999985416e+000	 3.066659999995867e+000	 1.028311379494224e+001
0	 5.666649999985415e+000	 3.133319999991934e+000	 1.028222661368866e+001
0	 5.666649999985415e+000	 3.199979999988401e+000	 1.028118772709050e+001
0	 5.666649999985416e+000	 3.266639999985468e+000	 1.027998073542381e+001
0	 5.666649999985415e+000	 3.333299999983333e+000	 1.027858923896472e+001
0	 5.733319999987732e+000	 2.666700000016666e+000	 1.027717664733529e+001
0	 5.733319999987731e+000	 2.733360000014533e+000	 1.027713903233139e+001
0	 5.733319999987731e+000	 2.800020000011599e+000	 1.027702607765884e+001
0	 5.733319999987731e+000	 2.866680000008067e+000	 1.027682036877001e+001
0	 5.733319999987730e+000	 2.933340000004133e+000	 1.027650449111729e+001
0	 5.733319999987732e+000	 2.999999999999999e+000	 1.027606103015306e+001
0	 5.733319999987732e+000	 3.066659999995868e+000	 1.027547257132972e+001
0	 5.733319999987731e+000	 3.133319999991933e+000	 1.027472170009966e+001
0	 5.733319999987732e+000	 3.199979999988401e+000	 1.027379100191528e+001
0	 5.733319999987732e+000	 3.266639999985467e+000	 1.027266306222901e+001
0	 5.733319999987731e+000	 3.333299999983334e+000	 1.027132046649327e+001
0	 5.799989999990448e+000	 2.666700000016666e+000	 1.026838842919448e+001
0	 5.799989999990447e+000	 2.733360000014533e+000	 1.026863294568509e+001
0	 5.799989999990448e+000	 2.800020000011600e+000	 1.026877183655065e+001
0	 5.799989999990449e+000	 2.866680000008066e+000	 1.026878815770310e+001
0	 5.799989999990449e+000	 2.933340000004134e+000	 1.026866496505441e+001
0	 5.799989999990447e+000	 3.000000000000000e+000	 1.026838531451652e+001
0	 5.799989999990448e+000	 3.066659999995867e+000	 1.026793226200140e+001
0	 5.799989999990449e+000	 3.133319999991934e+000	 1.026728886342099e+001
0	 5.799989999990448e+000	 3.199979999988400e+000	 1.026643817468730e+001
0	 5.799989999990448e+000	 3.266639999985468e+000	 1.026536325171229e+001
0	 5.799989999990448e+000	 3.333299999983334e+000	 1.026404715040794e+001
0	 5.866659999993464e+000	 2.666700000016666e+000	 1.025982277326208e+001
0	 5.866659999993464e+000	 2.733360000014533e+000	 1.026033105037225e+001
0	 5.866659999993467e+000	 2.800020000011601e+000	 1.026069834273416e+001
0	 5.866659999993463e+000	 2.866680000008066e+000	 1.026090966200260e+001
0	 5.866659999993464e+000	 2.933340000004133e+000	 1.026095001983233e+001
0	 5.866659999993466e+000	 3.000000000000000e+000	 1.026080442787811e+001
0	 5.866659999993465e+000	 3.066659999995867e+000	 1.026045789779473e+001
0	 5.866659999993465e+000	 3.133319999991934e+000	 1.025989544123696e+001
0	 5.866659999993464e+000	 3.199979999988400e+000	 1.025910206985962e+001
0	 5.866659999993464e+000	 3.266639999985467e+000	 1.025806279531748e+001
0	 5.866659999993464e+000	 3.333299999983334e+000	 1.025676262926537e+001
0	 5.933329999996681e+000	 2.666700000016666e+000	 1.025149765245618e+001
0	 5.933329999996680e+000	 2.733360000014533e+000	 1.025223454532590e+001
0	 5.933329999996682e+000	 2.800020000011600e+000	 1.025279320127935e+001
0	 5.933329999996683e+000	 2.866680000008067e+000	 1.025316207299737e+001
0	 5.933329999996681e+000	 2.933340000004134e+000	 1.025332961316078e+001
0	 5.933329999996681e+000	 3.000000000000000e+000	 1.025328427445043e+001
0	 5.933329999996680e+000	 3.066659999995866e+000	 1.025301450954716e+001
0	 5.933329999996682e+000	 3.133319999991933e+000	 1.025250877113183e+001
0	 5.933329999996682e+000	 3.199979999988401e+000	 1.025175551188532e+001
0	 5.933329999996682e+000	 3.266639999985468e+000	 1.025074318448848e+001
0	 5.933329999996681e+000	 3.333299999983334e+000	 1.024946024162218e+001
0	 6.000000000000000e+000	 2.666700000016666e+000	 1.024343103969484e+001
0	 6.000000000000000e+000	 2.733360000014533e+000	 1.024434462947907e+001
0	 5.999999999999998e+000	 2.800020000011600e+000	 1.024504401725615e+001
0	 6.000000000000002e+000	 2.866680000008067e+000	 1.024552258201625e+001
0	 5.999999999999998e+000	 2.933340000004133e+000	 1.024577370274950e+001
0	 6.000000000000003e+000	 3.000000000000000e+000	 1.024579075844607e+001
0	 5.999999999999998e+000	 3.066659999995867e+000	 1.024556712809614e+001
0	 6.000000000000001e+000	 3.133319999991934e+000	 1.024509619068988e+001
0	 5.999999999999999e+000	 3.199979999988400e+000	 1.024437132521747e+001
0	 6.000000000000000e+000	 3.266639999985467e+000	 1.024338591066912e+001
0	 6.000000000000000e+000	 3.333299999983334e+000	 1.024213332603501e+001
0	 5.333299999983335e+000	 3.333299999983334e+000	 1.031509809763198e+001
0	 5.333299999983331e+000	 3.399969999982149e+000	 1.031259506863628e+001
0	 5.333299999983335e+000	 3.466639999981866e+000	 1.030993155821240e+001
0	 5.333299999983334e+000	 3.533309999982383e+000	 1.030708963457737e+001
0	 5.333299999983335e+000	 3.599979999983600e+000	 1.030405136594820e+001
0	 5.333299999983335e+000	 3.666649999985416e+000	 1.030079882054190e+001
0	 5.333299999983334e+000	 3.733319999987733e+000	 1.029731406657548e+001
0	 5.333299999983333e+000	 3.799989999990450e+000	 1.029357917226593e+001
0	 5.333299999983334e+000	 3.866659999993467e+000	 1.028957620583026e+001
0	 5.333299999983335e+000	 3.933329999996684e+000	 1.028528723548546e+001
0	 5.333299999983334e+000	 4.000000000000000e+000	 1.028069432944851e+001
0	 5.399969999982149e+000	 3.333299999983333e+000	 1.030775212157931e+001
0	 5.399969999982149e+000	 3.399969999982150e+000	 1.030555846537888e+001
0	 5.399969999982149e+000	 3.466639999981867e+000	 1.030315701633305e+001
0	 5.399969999982150e+000	 3.533309999982384e+000	 1.030053749206301e+001
0	 5.399969999982149e+000	 3.599979999983601e+000	 1.029768961018992e+001
0	 5.399969999982151e+000	 3.666649999985416e+000	 1.029460308833493e+001
0	 5.399969999982150e+000	 3.733319999987733e+000	 1.029126764411921e+001
0	 5.399969999982150e+000	 3.799989999990450e+000	 1.028767299516390e+001
0	 5.399969999982151e+000	 3.866659999993466e+000	 1.028380885909015e+001
0	 5.399969999982150e+000	 3.933329999996684e+000	 1.027966495351914e+001
0	 5.399969999982149e+000	 4.000000000000000e+000	 1.027523099607196e+001
0	 5.466639999981866e+000	 3.333299999983334e+000	 1.030043490912961e+001
0	 5.466639999981866e+000	 3.399969999982150e+000	 1.029847249020120e+001
0	 5.466639999981866e+000	 3.466639999981867e+000	 1.029627246804597e+001
0	 5.466639999981865e+000	 3.533309999982383e+000	 1.029383098079853e+001
0	 5.466639999981867e+000	 3.599979999983600e+000	 1.029114416659361e+001
0	 5.466639999981866e+000	 3.666649999985417e+000	 1.028820816356584e+001
0	 5.466639999981865e+000	 3.733319999987733e+000	 1.028501910984989e+001
0	 5.466639999981866e+000	 3.799989999990451e+000	 1.028157314358039e+001
0	 5.466639999981866e+000	 3.866659999993466e+000	 1.027786640289201e+001
0	 5.466639999981868e+000	 3.933329999996684e+000	 1.027389502591938e+001
0	 5.466639999981867e+000	 4.000000000000001e+000	 1.026965515079714e+001
0	 5.533309999982383e+000	 3.333299999983334e+000	 1.029313979883953e+001
0	 5.533309999982381e+000	 3.399969999982151e+000	 1.029134285091006e+001
0	 5.533309999982382e+000	 3.466639999981867e+000	 1.028929385052938e+001
0	 5.533309999982382e+000	 3.533309999982383e+000	 1.028699412745501e+001
0	 5.533309999982382e+000	 3.599979999983599e+000	 1.028444501144445e+001
0	 5.533309999982381e+000	 3.666649999985415e+000	 1.028164783225520e+001
0	 5.533309999982382e+000	 3.733319999987733e+000	 1.027860391964477e+001
0	 5.533309999982382e+000	 3.799989999990451e+000	 1.027531460337065e+001
0	 5.533309999982382e+000	 3.866659999993467e+000	 1.027178121319033e+001
0	 5.533309999982385e+000	 3.933329999996684e+000	 1.026800507886131e+001
0	 5.533309999982381e+000	 4.000000000000001e+000	 1.026398753014108e+001
0	 5.599979999983598e+000	 3.333299999983334e+000	 1.028586012926568e+001
0	 5.599979999983598e+000	 3.399969999982150e+000	 1.028417525531227e+001
0	 5.599979999983599e+000	 3.466639999981867e+000	 1.028223710096165e+001
0	 5.599979999983598e+000	 3.533309999982383e+000	 1.028005095870353e+001
0	 5.599979999983598e+000	 3.599979999983600e+000	 1.027762212102759e+001
0	 5.599979999983599e+000	 3.666649999985416e+000	 1.027495588042355e+001
0	 5.599979999983598e+000	 3.733319999987733e+000	 1.027205752938109e+001
0	 5.599979999983598e+000	 3.799989999990449e+000	 1.026893236038990e+001
0	 5.599979999983599e+000	 3.866659999993468e+000	 1.026558566593967e+001
0	 5.599979999983598e+000	 3.933329999996684e+000	 1.026202273852007e+001
0	 5.599979999983599e+000	 4.000000000000000e+000	 1.025824887062076e+001
0	 5.666649999985415e+000	 3.333299999983333e+000	 1.027858923896472e+001
0	 5.666649999985417e+000	 3.399969999982150e+000	 1.027697541121464e+001
0	 5.666649999985416e+000	 3.466639999981867e+000	 1.027511815652104e+001
0	 5.666649999985415e+000	 3.533309999982382e+000	 1.027302550121515e+001
0	 5.666649999985416e+000	 3.599979999983600e+000	 1.027070547162821e+001
0	 5.666649999985414e+000	 3.666649999985416e+000	 1.026816609409145e+001
0	 5.666649999985413e+000	 3.733319999987733e+000	 1.026541539493610e+001
0	 5.666649999985415e+000	 3.799989999990450e+000	 1.026246140049339e+001
0	 5.666649999985416e+000	 3.866659999993467e+000	 1.025931213709452e+001
0	 5.666649999985415e+000	 3.933329999996684e+000	 1.025597563107074e+001
0	 5.666649999985415e+000	 4.000000000000001e+000	 1.025245990875324e+001
0	 5.733319999987731e+000	 3.333299999983334e+000	 1.027132046649326e+001
0	 5.733319999987733e+000	 3.399969999982150e+000	 1.026974902642398e+001
0	 5.733319999987733e+000	 3.466639999981867e+000	 1.026795295438584e+001
0	 5.733319999987732e+000	 3.533309999982382e+000	 1.026594178166096e+001
0	 5.733319999987732e+000	 3.599979999983600e+000	 1.026372503953145e+001
0	 5.733319999987730e+000	 3.666649999985416e+000	 1.026131225927944e+001
0	 5.733319999987731e+000	 3.733319999987733e+000	 1.025871297218702e+001
0	 5.733319999987732e+000	 3.799989999990450e+000	 1.025593670953632e+001
0	 5.733319999987731e+000	 3.866659999993465e+000	 1.025299300260944e+001
0	 5.733319999987732e+000	 3.933329999996684e+000	 1.024989138268848e+001
0	 5.733319999987731e+000	 4.000000000000000e+000	 1.024664138105552e+001
0	 5.799989999990448e+000	 3.333299999983334e+000	 1.026404715040794e+001
0	 5.799989999990447e+000	 3.399969999982150e+000	 1.026250180874710e+001
0	 5.799989999990447e+000	 3.466639999981866e+000	 1.026075743173435e+001
0	 5.799989999990448e+000	 3.533309999982383e+000	 1.025882382671203e+001
0	 5.799989999990448e+000	 3.599979999983600e+000	 1.025671080102249e+001
0	 5.799989999990448e+000	 3.666649999985417e+000	 1.025442816200807e+001
0	 5.799989999990447e+000	 3.733319999987733e+000	 1.025198571701111e+001
0	 5.799989999990449e+000	 3.799989999990450e+000	 1.024939327337395e+001
0	 5.799989999990448e+000	 3.866659999993467e+000	 1.024666063843894e+001
0	 5.799989999990449e+000	 3.933329999996684e+000	 1.024379761954839e+001
0	 5.799989999990448e+000	 4.000000000000000e+000	 1.024081402404465e+001
0	 5.866659999993464e+000	 3.333299999983334e+000	 1.025676262926537e+001
0	 5.866659999993465e+000	 3.399969999982150e+000	 1.025523946599081e+001
0	 5.866659999993464e+000	 3.466639999981866e+000	 1.025354752574486e+001
0	 5.866659999993464e+000	 3.533309999982384e+000	 1.025169566303944e+001
0	 5.866659999993466e+000	 3.599979999983601e+000	 1.024969273238647e+001
0	 5.866659999993465e+000	 3.666649999985416e+000	 1.024754758829788e+001
0	 5.866659999993465e+000	 3.733319999987733e+000	 1.024526908528559e+001
0	 5.866659999993464e+000	 3.799989999990450e+000	 1.024286607786150e+001
0	 5.866659999993464e+000	 3.866659999993466e+000	 1.024034742053754e+001
0	 5.866659999993464e+000	 3.933329999996684e+000	 1.023772196782561e+001
0	 5.866659999993464e+000	 4.000000000000001e+000	 1.023499857423762e+001
0	 5.933329999996681e+000	 3.333299999983334e+000	 1.024946024162218e+001
0	 5.933329999996682e+000	 3.399969999982150e+000	 1.024796770596191e+001
0	 5.933329999996681e+000	 3.466639999981867e+000	 1.024633917359565e+001
0	 5.933329999996682e+000	 3.533309999982383e+000	 1.024458131731424e+001
0	 5.933329999996682e+000	 3.599979999983600e+000	 1.024270080990856e+001
0	 5.933329999996681e+000	 3.666649999985416e+000	 1.024070432416943e+001
0	 5.933329999996681e+000	 3.733319999987733e+000	 1.023859853288770e+001
0	 5.933329999996683e+000	 3.799989999990450e+000	 1.023639010885420e+001
0	 5.933329999996681e+000	 3.866659999993466e+000	 1.023408572485977e+001
0	 5.933329999996681e+000	 3.933329999996684e+000	 1.023169205369524e+001
0	 5.933329999996682e+000	 4.000000000000001e+000	 1.022921576815146e+001
0	 6.000000000000000e+000	 3.333299999983334e+000	 1.024213332603501e+001
0	 6.000000000000001e+000	 3.399969999982151e+000	 1.024069223646720e+001
0	 6.000000000000000e+000	 3.466639999981866e+000	 1.023914831246500e+001
0	 6.000000000000000e+000	 3.533309999982383e+000	 1.023750481620754e+001
0	 6.000000000000001e+000	 3.599979999983601e+000	 1.023576500987392e+001
0	 6.000000000000000e+000	 3.666649999985416e+000	 1.023393215564327e+001
0	 6.000000000000000e+000	 3.733319999987733e+000	 1.023200951569468e+001
0	 5.999999999999998e+000	 3.799989999990450e+000	 1.023000035220727e+001
0	 6.000000000000001e+000	 3.866659999993467e+000	 1.022790792736015e+001
0	 6.000000000000000e+000	 3.933329999996683e+000	 1.022573550333243e+001
0	 6.000000000000001e+000	 4.000000000000000e+000	 1.022348634230320e+001
0	 5.333299999983334e+000	 4.000000000000000e+000	 1.028069432944851e+001
0	 5.333299999983332e+000	 4.066670000003316e+000	 1.027594814661362e+001
0	 5.333299999983334e+000	 4.133340000006534e+000	 1.027121004794948e+001
0	 5.333299999983336e+000	 4.200010000009550e+000	 1.026647815478474e+001
0	 5.333299999983333e+000	 4.266680000012268e+000	 1.026175058844806e+001
0	 5.333299999983335e+000	 4.333350000014584e+000	 1.025702547026812e+001
0	 5.333299999983333e+000	 4.400020000016401e+000	 1.025230092157358e+001
0	 5.333299999983334e+000	 4.466690000017618e+000	 1.024757506369310e+001
0	 5.333299999983334e+000	 4.533360000018134e+000	 1.024284601795537e+001
0	 5.333299999983333e+000	 4.600030000017851e+000	 1.023811190568902e+001
0	 5.333299999983335e+000	 4.666700000016667e+000	 1.023337084822272e+001
0	 5.399969999982149e+000	 4.000000000000000e+000	 1.027523099607197e+001
0	 5.399969999982150e+000	 4.066670000003317e+000	 1.027066490453691e+001
0	 5.399969999982150e+000	 4.133340000006534e+000	 1.026612746549616e+001
0	 5.399969999982151e+000	 4.200010000009551e+000	 1.026161269976184e+001
0	 5.399969999982150e+000	 4.266680000012268e+000	 1.025711462814601e+001
0	 5.399969999982150e+000	 4.333350000014584e+000	 1.025262727146078e+001
0	 5.399969999982149e+000	 4.400020000016402e+000	 1.024814465051823e+001
0	 5.399969999982148e+000	 4.466690000017615e+000	 1.024366078613045e+001
0	 5.399969999982148e+000	 4.533360000018132e+000	 1.023916969910953e+001
0	 5.399969999982148e+000	 4.600030000017850e+000	 1.023466541026755e+001
0	 5.399969999982150e+000	 4.666700000016666e+000	 1.023014194041661e+001
0	 5.466639999981867e+000	 4.000000000000001e+000	 1.026965515079714e+001
0	 5.466639999981868e+000	 4.066670000003319e+000	 1.026530248139535e+001
0	 5.466639999981866e+000	 4.133340000006534e+000	 1.026098908460446e+001
0	 5.466639999981866e+000	 4.200010000009551e+000	 1.025670564308975e+001
0	 5.466639999981866e+000	 4.266680000012267e+000	 1.025244283951650e+001
0	 5.466639999981865e+000	 4.333350000014583e+000	 1.024819135655000e+001
0	 5.466639999981866e+000	 4.400020000016403e+000	 1.024394187685551e+001
0	 5.466639999981867e+000	 4.466690000017618e+000	 1.023968508309831e+001
0	 5.466639999981865e+000	 4.533360000018134e+000	 1.023541165794369e+001
0	 5.466639999981866e+000	 4.600030000017851e+000	 1.023111228405690e+001
0	 5.466639999981866e+000	 4.666700000016666e+000	 1.022677764410322e+001
0	 5.533309999982381e+000	 4.000000000000001e+000	 1.026398753014108e+001
0	 5.533309999982383e+000	 4.066670000003317e+000	 1.025987429408562e+001
0	 5.533309999982382e+000	 4.133340000006534e+000	 1.025580228250477e+001
0	 5.533309999982382e+000	 4.200010000009551e+000	 1.025175960228678e+001
0	 5.533309999982382e+000	 4.266680000012267e+000	 1.024773436031988e+001
0	 5.533309999982381e+000	 4.333350000014583e+000	 1.024371466349230e+001
0	 5.533309999982384e+000	 4.400020000016402e+000	 1.023968861869225e+001
0	 5.533309999982382e+000	 4.466690000017616e+000	 1.023564433280798e+001
0	 5.533309999982382e+000	 4.533360000018134e+000	 1.023156991272772e+001
0	 5.533309999982381e+000	 4.600030000017849e+000	 1.022745346533968e+001
0	 5.533309999982381e+000	 4.666700000016666e+000	 1.022328309753209e+001
0	 5.599979999983599e+000	 4.000000000000000e+000	 1.025824887062076e+001
0	 5.599979999983598e+000	 4.066670000003317e+000	 1.025439375950433e+001
0	 5.599979999983600e+000	 4.133340000006534e+000	 1.025057443642750e+001
0	 5.599979999983598e+000	 4.200010000009550e+000	 1.024677719487124e+001
0	 5.599979999983598e+000	 4.266680000012268e+000	 1.024298832831649e+001
0	 5.599979999983599e+000	 4.333350000014583e+000	 1.023919413024419e+001
0	 5.599979999983598e+000	 4.400020000016402e+000	 1.023538089413531e+001
0	 5.599979999983598e+000	 4.466690000017617e+000	 1.023153491347078e+001
0	 5.599979999983598e+000	 4.533360000018133e+000	 1.022764248173154e+001
0	 5.599979999983598e+000	 4.600030000017853e+000	 1.022368989239855e+001
0	 5.599979999983598e+000	 4.666700000016667e+000	 1.021966343895275e+001
0	 5.666649999985415e+000	 4.000000000000001e+000	 1.025245990875324e+001
0	 5.666649999985413e+000	 4.066670000003317e+000	 1.024887429454815e+001
0	 5.666649999985416e+000	 4.133340000006534e+000	 1.024531292360307e+001
0	 5.666649999985415e+000	 4.200010000009551e+000	 1.024176103836143e+001
0	 5.666649999985415e+000	 4.266680000012268e+000	 1.023820388126667e+001
0	 5.666649999985415e+000	 4.333350000014582e+000	 1.023462669476223e+001
0	 5.666649999985415e+000	 4.400020000016400e+000	 1.023101472129153e+001
0	 5.666649999985414e+000	 4.466690000017616e+000	 1.022735320329799e+001
0	 5.666649999985417e+000	 4.533360000018134e+000	 1.022362738322507e+001
0	 5.666649999985416e+000	 4.600030000017851e+000	 1.021982250351616e+001
0	 5.666649999985415e+000	 4.666700000016666e+000	 1.021592380661470e+001
0	 5.733319999987731e+000	 4.000000000000000e+000	 1.024664138105552e+001
0	 5.733319999987732e+000	 4.066670000003318e+000	 1.024332931611371e+001
0	 5.733319999987733e+000	 4.133340000006535e+000	 1.024002512126185e+001
0	 5.733319999987732e+000	 4.200010000009550e+000	 1.023671375027565e+001
0	 5.733319999987731e+000	 4.266680000012268e+000	 1.023338015693077e+001
0	 5.733319999987731e+000	 4.333350000014583e+000	 1.023000929500291e+001
0	 5.733319999987731e+000	 4.400020000016402e+000	 1.022658611826774e+001
0	 5.733319999987733e+000	 4.466690000017617e+000	 1.022309558050094e+001
0	 5.733319999987733e+000	 4.533360000018135e+000	 1.021952263547819e+001
0	 5.733319999987733e+000	 4.600030000017851e+000	 1.021585223697514e+001
0	 5.733319999987732e+000	 4.666700000016667e+000	 1.021206933876749e+001
0	 5.799989999990448e+000	 4.000000000000000e+000	 1.024081402404464e+001
0	 5.799989999990449e+000	 4.066670000003317e+000	 1.023777224109765e+001
0	 5.799989999990448e+000	 4.133340000006534e+000	 1.023471840663427e+001
0	 5.799989999990450e+000	 4.200010000009551e+000	 1.023163794813219e+001
0	 5.799989999990448e+000	 4.266680000012268e+000	 1.022851629306913e+001
0	 5.799989999990448e+000	 4.333350000014583e+000	 1.022533886892277e+001
0	 5.799989999990448e+000	 4.400020000016401e+000	 1.022209110317080e+001
0	 5.799989999990448e+000	 4.466690000017618e+000	 1.021875842329091e+001
0	 5.799989999990448e+000	 4.533360000018133e+000	 1.021532625676081e+001
0	 5.799989999990447e+000	 4.600030000017850e+000	 1.021178003105815e+001
0	 5.799989999990448e+000	 4.666700000016667e+000	 1.020810517366064e+001
0	 5.866659999993464e+000	 4.000000000000001e+000	 1.023499857423762e+001
0	 5.866659999993464e+000	 4.066670000003317e+000	 1.023221648639662e+001
0	 5.866659999993464e+000	 4.133340000006535e+000	 1.022940015695071e+001
0	 5.866659999993464e+000	 4.200010000009551e+000	 1.022653624944938e+001
0	 5.866659999993465e+000	 4.266680000012268e+000	 1.022361142744209e+001
0	 5.866659999993466e+000	 4.333350000014585e+000	 1.022061235447834e+001
0	 5.866659999993464e+000	 4.400020000016401e+000	 1.021752569410755e+001
0	 5.866659999993464e+000	 4.466690000017617e+000	 1.021433810987924e+001
0	 5.866659999993464e+000	 4.533360000018132e+000	 1.021103626534284e+001
0	 5.866659999993463e+000	 4.600030000017850e+000	 1.020760682404783e+001
0	 5.866659999993464e+000	 4.666700000016665e+000	 1.020403644954367e+001
0	 5.933329999996682e+000	 4.000000000000001e+000	 1.022921576815146e+001
0	 5.933329999996681e+000	 4.066670000003317e+000	 1.022667546890726e+001
0	 5.933329999996682e+000	 4.133340000006534e+000	 1.022407774944159e+001
0	 5.933329999996682e+000	 4.200010000009550e+000	 1.022141127174551e+001
0	 5.933329999996681e+000	 4.266680000012268e+000	 1.021866469781002e+001
0	 5.933329999996681e+000	 4.333350000014584e+000	 1.021582668962612e+001
0	 5.933329999996680e+000	 4.400020000016400e+000	 1.021288590918486e+001
0	 5.933329999996682e+000	 4.466690000017618e+000	 1.020983101847721e+001
0	 5.933329999996681e+000	 4.533360000018133e+000	 1.020665067949421e+001
0	 5.933329999996682e+000	 4.600030000017850e+000	 1.020333355422683e+001
0	 5.933329999996681e+000	 4.666700000016667e+000	 1.019986830466612e+001
0	 6.000000000000001e+000	 4.000000000000000e+000	 1.022348634230320e+001
0	 6.000000000000001e+000	 4.066670000003318e+000	 1.022116260552619e+001
0	 6.000000000000000e+000	 4.133340000006534e+000	 1.021875856133731e+001
0	 6.000000000000000e+000	 4.200010000009550e+000	 1.021626563253889e+001
0	 6.000000000000002e+000	 4.266680000012268e+000	 1.021367524193323e+001
0	 6.000000000000000e+000	 4.333350000014584e+000	 1.021097881232267e+001
0	 5.999999999999998e+000	 4.400020000016401e+000	 1.020816776650954e+001
0	 5.999999999999999e+000	 4.466690000017617e+000	 1.020523352729613e+001
0	 6.000000000000001e+000	 4.533360000018134e+000	 1.020216751748478e+001
0	 6.000000000000000e+000	 4.600030000017850e+000	 1.019896115987780e+001
0	 6.000000000000000e+000	 4.666700000016666e+000	 1.019560587727749e+001
0	 5.333299999983335e+000	 4.666700000016667e+000	 1.023337084822272e+001
0	 5.333299999983333e+000	 4.733360000014533e+000	 1.022863871458765e+001
0	 5.333299999983335e+000	 4.800020000011600e+000	 1.022392549777085e+001
0	 5.333299999983335e+000	 4.866680000008068e+000	 1.021922264024838e+001
0	 5.333299999983335e+000	 4.933340000004134e+000	 1.021452158449628e+001
0	 5.333299999983333e+000	 5.000000000000000e+000	 1.020981377299062e+001
0	 5.333299999983334e+000	 5.066659999995866e+000	 1.020509064820744e+001
0	 5.333299999983335e+000	 5.133319999991934e+000	 1.020034365262281e+001
0	 5.333299999983333e+000	 5.199979999988400e+000	 1.019556422871276e+001
0	 5.333299999983334e+000	 5.266639999985467e+000	 1.019074381895339e+001
0	 5.333299999983333e+000	 5.333299999983333e+000	 1.018587386582074e+001
0	 5.399969999982150e+000	 4.666700000016666e+000	 1.023014194041661e+001
0	 5.399969999982150e+000	 4.733360000014534e+000	 1.022560915026165e+001
0	 5.399969999982149e+000	 4.800020000011600e+000	 1.022107553962748e+001
0	 5.399969999982148e+000	 4.866680000008066e+000	 1.021653512867789e+001
0	 5.399969999982149e+000	 4.933340000004132e+000	 1.021198193757670e+001
0	 5.399969999982150e+000	 5.000000000000000e+000	 1.020740998648773e+001
0	 5.399969999982148e+000	 5.066659999995867e+000	 1.020281329557477e+001
0	 5.399969999982150e+000	 5.133319999991936e+000	 1.019818588500166e+001
0	 5.399969999982151e+000	 5.199979999988400e+000	 1.019352177493221e+001
0	 5.399969999982150e+000	 5.266639999985468e+000	 1.018881498553024e+001
0	 5.399969999982150e+000	 5.333299999983332e+000	 1.018405953695956e+001
0	 5.466639999981866e+000	 4.666700000016666e+000	 1.022677764410322e+001
0	 5.466639999981866e+000	 4.733360000014533e+000	 1.022241694965470e+001
0	 5.466639999981865e+000	 4.800020000011599e+000	 1.021804175852486e+001
0	 5.466639999981865e+000	 4.866680000008065e+000	 1.021364823256377e+001
0	 5.466639999981867e+000	 4.933340000004135e+000	 1.020923253362144e+001
0	 5.466639999981863e+000	 4.999999999999999e+000	 1.020479082354788e+001
0	 5.466639999981865e+000	 5.066659999995865e+000	 1.020031926419312e+001
0	 5.466639999981865e+000	 5.133319999991933e+000	 1.019581401740722e+001
0	 5.466639999981866e+000	 5.199979999988402e+000	 1.019127124504017e+001
0	 5.466639999981867e+000	 5.266639999985468e+000	 1.018668710894204e+001
0	 5.466639999981866e+000	 5.333299999983335e+000	 1.018205777096285e+001
0	 5.533309999982381e+000	 4.666700000016666e+000	 1.022328309753210e+001
0	 5.533309999982381e+000	 4.733360000014533e+000	 1.021907172366497e+001
0	 5.533309999982382e+000	 4.800020000011600e+000	 1.021483750487122e+001
0	 5.533309999982383e+000	 4.866680000008068e+000	 1.021057830868557e+001
0	 5.533309999982381e+000	 4.933340000004133e+000	 1.020629200264269e+001
0	 5.533309999982383e+000	 5.000000000000000e+000	 1.020197645427730e+001
0	 5.533309999982381e+000	 5.066659999995867e+000	 1.019762953112408e+001
0	 5.533309999982384e+000	 5.133319999991935e+000	 1.019324910071773e+001
0	 5.533309999982381e+000	 5.199979999988400e+000	 1.018883303059298e+001
0	 5.533309999982382e+000	 5.266639999985468e+000	 1.018437918828449e+001
0	 5.533309999982382e+000	 5.333299999983334e+000	 1.017988544132700e+001
0	 5.599979999983598e+000	 4.666700000016667e+000	 1.021966343895275e+001
0	 5.599979999983598e+000	 4.733360000014533e+000	 1.021558308319064e+001
0	 5.599979999983598e+000	 4.800020000011600e+000	 1.021147612907472e+001
0	 5.599979999983598e+000	 4.866680000008065e+000	 1.020734171382279e+001
0	 5.599979999983598e+000	 4.933340000004134e+000	 1.020317897465269e+001
0	 5.599979999983599e+000	 5.000000000000000e+000	 1.019898704878221e+001
0	 5.599979999983597e+000	 5.066659999995865e+000	 1.019476507342922e+001
0	 5.599979999983598e+000	 5.133319999991935e+000	 1.019051218581151e+001
0	 5.599979999983598e+000	 5.199979999988400e+000	 1.018622752314692e+001
0	 5.599979999983598e+000	 5.266639999985467e+000	 1.018191022265328e+001
0	 5.599979999983598e+000	 5.333299999983333e+000	 1.017755942154841e+001
0	 5.666649999985415e+000	 4.666700000016666e+000	 1.021592380661470e+001
0	 5.666649999985414e+000	 4.733360000014534e+000	 1.021196063912992e+001
0	 5.666649999985416e+000	 4.800020000011601e+000	 1.020797098154356e+001
0	 5.666649999985415e+000	 4.866680000008066e+000	 1.020395480475499e+001
0	 5.666649999985416e+000	 4.933340000004134e+000	 1.019991207966362e+001
0	 5.666649999985416e+000	 5.000000000000001e+000	 1.019584277716887e+001
0	 5.666649999985416e+000	 5.066659999995865e+000	 1.019174686817012e+001
0	 5.666649999985417e+000	 5.133319999991937e+000	 1.018762432356680e+001
0	 5.666649999985415e+000	 5.199979999988400e+000	 1.018347511425831e+001
0	 5.666649999985416e+000	 5.266639999985468e+000	 1.017929921114405e+001
0	 5.666649999985413e+000	 5.333299999983332e+000	 1.017509658512345e+001
0	 5.733319999987732e+000	 4.666700000016667e+000	 1.021206933876749e+001
0	 5.733319999987731e+000	 4.733360000014532e+000	 1.020821400238101e+001
0	 5.733319999987730e+000	 4.800020000011599e+000	 1.020433541268593e+001
0	 5.733319999987731e+000	 4.866680000008066e+000	 1.020043393826168e+001
0	 5.733319999987730e+000	 4.933340000004131e+000	 1.019650994768772e+001
0	 5.733319999987733e+000	 5.000000000000000e+000	 1.019256380954347e+001
0	 5.733319999987731e+000	 5.066659999995867e+000	 1.018859589240838e+001
0	 5.733319999987730e+000	 5.133319999991935e+000	 1.018460656486190e+001
0	 5.733319999987732e+000	 5.199979999988402e+000	 1.018059619548345e+001
0	 5.733319999987732e+000	 5.266639999985467e+000	 1.017656515285251e+001
0	 5.733319999987732e+000	 5.333299999983335e+000	 1.017251380554851e+001
0	 5.799989999990448e+000	 4.666700000016667e+000	 1.020810517366064e+001
0	 5.799989999990448e+000	 4.733360000014532e+000	 1.020435278384207e+001
0	 5.799989999990448e+000	 4.800020000011599e+000	 1.020058277291002e+001
0	 5.799989999990448e+000	 4.866680000008066e+000	 1.019679547112242e+001
0	 5.799989999990450e+000	 4.933340000004135e+000	 1.019299120873719e+001
0	 5.799989999990448e+000	 5.000000000000000e+000	 1.018917031601226e+001
0	 5.799989999990448e+000	 5.066659999995866e+000	 1.018533312320557e+001
0	 5.799989999990448e+000	 5.133319999991935e+000	 1.018147996057506e+001
0	 5.799989999990447e+000	 5.199979999988400e+000	 1.017761115837867e+001
0	 5.799989999990449e+000	 5.266639999985468e+000	 1.017372704687433e+001
0	 5.799989999990448e+000	 5.333299999983334e+000	 1.016982795631998e+001
0	 5.866659999993464e+000	 4.666700000016665e+000	 1.020403644954367e+001
0	 5.866659999993464e+000	 4.733360000014534e+000	 1.020038659441132e+001
0	 5.866659999993465e+000	 4.800020000011601e+000	 1.019672641262404e+001
0	 5.866659999993464e+000	 4.866680000008066e+000	 1.019305576011673e+001
0	 5.866659999993464e+000	 4.933340000004132e+000	 1.018937449282424e+001
0	 5.866659999993465e+000	 4.999999999999999e+000	 1.018568246668146e+001
0	 5.866659999993465e+000	 5.066659999995866e+000	 1.018197953762328e+001
0	 5.866659999993465e+000	 5.133319999991936e+000	 1.017826556158460e+001
0	 5.866659999993465e+000	 5.199979999988400e+000	 1.017454039450026e+001
0	 5.866659999993464e+000	 5.266639999985467e+000	 1.017080389230518e+001
0	 5.866659999993464e+000	 5.333299999983334e+000	 1.016705591093424e+001
0	 5.933329999996681e+000	 4.666700000016667e+000	 1.019986830466612e+001
0	 5.933329999996682e+000	 4.733360000014532e+000	 1.019632504498693e+001
0	 5.933329999996681e+000	 4.800020000011600e+000	 1.019277968223618e+001
0	 5.933329999996682e+000	 4.866680000008066e+000	 1.018923116202413e+001
0	 5.933329999996680e+000	 4.933340000004133e+000	 1.018567842996108e+001
0	 5.933329999996682e+000	 5.000000000000000e+000	 1.018212043165731e+001
0	 5.933329999996681e+000	 5.066659999995866e+000	 1.017855611272310e+001
0	 5.933329999996680e+000	 5.133319999991933e+000	 1.017498441876875e+001
0	 5.933329999996682e+000	 5.199979999988400e+000	 1.017140429540453e+001
0	 5.933329999996682e+000	 5.266639999985468e+000	 1.016781468824074e+001
0	 5.933329999996682e+000	 5.333299999983334e+000	 1.016421454288768e+001
0	 6.000000000000000e+000	 4.666700000016666e+000	 1.019560587727749e+001
0	 5.999999999999998e+000	 4.733360000014531e+000	 1.019217774646709e+001
0	 5.999999999999998e+000	 4.800020000011600e+000	 1.018875593215461e+001
0	 6.000000000000002e+000	 4.866680000008068e+000	 1.018533803362417e+001
0	 5.999999999999998e+000	 4.933340000004132e+000	 1.018192165015993e+001
0	 6.000000000000002e+000	 5.000000000000002e+000	 1.017850438104602e+001
0	 5.999999999999999e+000	 5.066659999995866e+000	 1.017508382556660e+001
0	 6.000000000000000e+000	 5.133319999991934e+000	 1.017165758300581e+001
0	 5.999999999999998e+000	 5.199979999988400e+000	 1.016822325264779e+001
0	 6.000000000000000e+000	 5.266639999985468e+000	 1.016477843377670e+001
0	 6.000000000000000e+000	 5.333299999983334e+000	 1.016132072567668e+001
0	 5.333299999983333e+000	 5.333299999983333e+000	 1.018587386582074e+001
0	 5.333299999983333e+000	 5.399969999982149e+000	 1.018101561742656e+001
0	 5.333299999983334e+000	 5.466639999981867e+000	 1.017623554801337e+001
0	 5.333299999983334e+000	 5.533309999982384e+000	 1.017153073512322e+001
0	 5.333299999983334e+000	 5.599979999983600e+000	 1.016689825629812e+001
0	 5.333299999983334e+000	 5.666649999985415e+000	 1.016233518908014e+001
0	 5.333299999983335e+000	 5.733319999987733e+000	 1.015783861101133e+001
0	 5.333299999983334e+000	 5.799989999990448e+000	 1.015340559963370e+001
0	 5.333299999983333e+000	 5.866659999993467e+000	 1.014903323248930e+001
0	 5.333299999983335e+000	 5.933329999996684e+000	 1.014471858712019e+001
0	 5.333299999983333e+000	 5.999999999999998e+000	 1.014045874106839e+001
0	 5.399969999982150e+000	 5.333299999983332e+000	 1.018405953695956e+001
0	 5.399969999982149e+000	 5.399969999982149e+000	 1.017931760458549e+001
0	 5.399969999982148e+000	 5.466639999981865e+000	 1.017465408202036e+001
0	 5.399969999982151e+000	 5.533309999982383e+000	 1.017006491478615e+001
0	 5.399969999982149e+000	 5.599979999983599e+000	 1.016554604840489e+001
0	 5.399969999982151e+000	 5.666649999985417e+000	 1.016109342839855e+001
0	 5.399969999982152e+000	 5.733319999987733e+000	 1.015670300028915e+001
0	 5.399969999982149e+000	 5.799989999990448e+000	 1.015237070959869e+001
0	 5.399969999982151e+000	 5.866659999993467e+000	 1.014809250184916e+001
0	 5.399969999982149e+000	 5.933329999996683e+000	 1.014386432256258e+001
0	 5.399969999982150e+000	 6.000000000000000e+000	 1.013968211726092e+001
0	 5.466639999981866e+000	 5.333299999983335e+000	 1.018205777096285e+001
0	 5.466639999981866e+000	 5.399969999982149e+000	 1.017744368257196e+001
0	 5.466639999981865e+000	 5.466639999981866e+000	 1.017290594074192e+001
0	 5.466639999981866e+000	 5.533309999982382e+000	 1.016843958141994e+001
0	 5.466639999981865e+000	 5.599979999983598e+000	 1.016403964055321e+001
0	 5.466639999981866e+000	 5.666649999985416e+000	 1.015970115408892e+001
0	 5.466639999981867e+000	 5.733319999987733e+000	 1.015541915797428e+001
0	 5.466639999981866e+000	 5.799989999990450e+000	 1.015118868815647e+001
0	 5.466639999981866e+000	 5.866659999993467e+000	 1.014700478058269e+001
0	 5.466639999981869e+000	 5.933329999996686e+000	 1.014286247120013e+001
0	 5.466639999981868e+000	 6.000000000000002e+000	 1.013875679595600e+001
0	 5.533309999982382e+000	 5.333299999983334e+000	 1.017988544132701e+001
0	 5.533309999982382e+000	 5.399969999982149e+000	 1.017540838402658e+001
0	 5.533309999982382e+000	 5.466639999981866e+000	 1.017100361933638e+001
0	 5.533309999982382e+000	 5.533309999982383e+000	 1.016666549607404e+001
0	 5.533309999982383e+000	 5.599979999983600e+000	 1.016238836305719e+001
0	 5.533309999982383e+000	 5.666649999985417e+000	 1.015816656910343e+001
0	 5.533309999982382e+000	 5.733319999987732e+000	 1.015399446303040e+001
0	 5.533309999982382e+000	 5.799989999990451e+000	 1.014986639365571e+001
0	 5.533309999982382e+000	 5.866659999993466e+000	 1.014577670979700e+001
0	 5.533309999982383e+000	 5.933329999996683e+000	 1.014171976027188e+001
0	 5.533309999982382e+000	 6.000000000000001e+000	 1.013768989389798e+001
0	 5.599979999983598e+000	 5.333299999983333e+000	 1.017755942154841e+001
0	 5.599979999983598e+000	 5.399969999982149e+000	 1.017322624158999e+001
0	 5.599979999983598e+000	 5.466639999981866e+000	 1.016895961296208e+001
0	 5.599979999983598e+000	 5.533309999982382e+000	 1.016475341979796e+001
0	 5.599979999983598e+000	 5.599979999983599e+000	 1.016060154623091e+001
0	 5.599979999983598e+000	 5.666649999985416e+000	 1.015649787639423e+001
0	 5.599979999983597e+000	 5.733319999987733e+000	 1.015243629442119e+001
0	 5.599979999983598e+000	 5.799989999990449e+000	 1.014841068444508e+001
0	 5.599979999983598e+000	 5.866659999993467e+000	 1.014441493059919e+001
0	 5.599979999983598e+000	 5.933329999996684e+000	 1.014044291701681e+001
0	 5.599979999983600e+000	 6.000000000000002e+000	 1.013648852783121e+001
0	 5.666649999985413e+000	 5.333299999983332e+000	 1.017509658512345e+001
0	 5.666649999985417e+000	 5.399969999982151e+000	 1.017091178790282e+001
0	 5.666649999985415e+000	 5.466639999981865e+000	 1.016678641677734e+001
0	 5.666649999985416e+000	 5.533309999982385e+000	 1.016271411364116e+001
0	 5.666649999985415e+000	 5.599979999983600e+000	 1.015868852038849e+001
0	 5.666649999985415e+000	 5.666649999985415e+000	 1.015470327891350e+001
0	 5.666649999985413e+000	 5.733319999987733e+000	 1.015075203111034e+001
0	 5.666649999985415e+000	 5.799989999990450e+000	 1.014682841887325e+001
0	 5.666649999985414e+000	 5.866659999993467e+000	 1.014292608409639e+001
0	 5.666649999985415e+000	 5.933329999996685e+000	 1.013903866867391e+001
0	 5.666649999985415e+000	 5.999999999999998e+000	 1.013515981450004e+001
0	 5.733319999987732e+000	 5.333299999983335e+000	 1.017251380554851e+001
0	 5.733319999987731e+000	 5.399969999982148e+000	 1.016847955560571e+001
0	 5.733319999987733e+000	 5.466639999981866e+000	 1.016449652594047e+001
0	 5.733319999987733e+000	 5.533309999982385e+000	 1.016055833865313e+001
0	 5.733319999987730e+000	 5.599979999983598e+000	 1.015665861584400e+001
0	 5.733319999987731e+000	 5.666649999985414e+000	 1.015279097961336e+001
0	 5.733319999987731e+000	 5.733319999987733e+000	 1.014894905206157e+001
0	 5.733319999987732e+000	 5.799989999990450e+000	 1.014512645528890e+001
0	 5.733319999987731e+000	 5.866659999993467e+000	 1.014131681139568e+001
0	 5.733319999987733e+000	 5.933329999996685e+000	 1.013751374248221e+001
0	 5.733319999987731e+000	 6.000000000000000e+000	 1.013371087064882e+001
0	 5.799989999990448e+000	 5.333299999983334e+000	 1.016982795631998e+001
0	 5.799989999990448e+000	 5.399969999982149e+000	 1.016594407733926e+001
0	 5.799989999990449e+000	 5.466639999981866e+000	 1.016210243560983e+001
0	 5.799989999990448e+000	 5.533309999982382e+000	 1.015829685588336e+001
0	 5.799989999990449e+000	 5.599979999983600e+000	 1.015452116291154e+001
0	 5.799989999990448e+000	 5.666649999985417e+000	 1.015076918144603e+001
0	 5.799989999990447e+000	 5.733319999987733e+000	 1.014703473623852e+001
0	 5.799989999990449e+000	 5.799989999990448e+000	 1.014331165204068e+001
0	 5.799989999990448e+000	 5.866659999993467e+000	 1.013959375360419e+001
0	 5.799989999990450e+000	 5.933329999996684e+000	 1.013587486568070e+001
0	 5.799989999990447e+000	 5.999999999999999e+000	 1.013214881302191e+001
0	 5.866659999993464e+000	 5.333299999983334e+000	 1.016705591093424e+001
0	 5.866659999993465e+000	 5.399969999982149e+000	 1.016331988574411e+001
0	 5.866659999993465e+000	 5.466639999981866e+000	 1.015961664094372e+001
0	 5.866659999993466e+000	 5.533309999982383e+000	 1.015594042638132e+001
0	 5.866659999993465e+000	 5.599979999983599e+000	 1.015228549190521e+001
0	 5.866659999993466e+000	 5.666649999985418e+000	 1.014864608736365e+001
0	 5.866659999993465e+000	 5.733319999987733e+000	 1.014501646260491e+001
0	 5.866659999993463e+000	 5.799989999990449e+000	 1.014139086747727e+001
0	 5.866659999993465e+000	 5.866659999993467e+000	 1.013776355182900e+001
0	 5.866659999993465e+000	 5.933329999996685e+000	 1.013412876550838e+001
0	 5.866659999993464e+000	 6.000000000000000e+000	 1.013048075836366e+001
0	 5.933329999996682e+000	 5.333299999983334e+000	 1.016421454288768e+001
0	 5.933329999996682e+000	 5.399969999982150e+000	 1.016062151346089e+001
0	 5.933329999996681e+000	 5.466639999981866e+000	 1.015705163710047e+001
0	 5.933329999996682e+000	 5.533309999982383e+000	 1.015349981119651e+001
0	 5.933329999996682e+000	 5.599979999983599e+000	 1.014996093313911e+001
0	 5.933329999996681e+000	 5.666649999985418e+000	 1.014642990031838e+001
0	 5.933329999996682e+000	 5.733319999987733e+000	 1.014290161012442e+001
0	 5.933329999996681e+000	 5.799989999990450e+000	 1.013937095994735e+001
0	 5.933329999996682e+000	 5.866659999993467e+000	 1.013583284717726e+001
0	 5.933329999996682e+000	 5.933329999996683e+000	 1.013228216920425e+001
0	 5.933329999996680e+000	 5.999999999999998e+000	 1.012871382341843e+001
0	 6.000000000000000e+000	 5.333299999983334e+000	 1.016132072567668e+001
0	 6.000000000000000e+000	 5.399969999982150e+000	 1.015786349313025e+001
0	 6.000000000000001e+000	 5.466639999981868e+000	 1.015441991923843e+001
0	 6.000000000000000e+000	 5.533309999982383e+000	 1.015098577137840e+001
0	 6.000000000000000e+000	 5.599979999983598e+000	 1.014755681692733e+001
0	 5.999999999999998e+000	 5.666649999985416e+000	 1.014412882326239e+001
0	 5.999999999999998e+000	 5.733319999987732e+000	 1.014069755776075e+001
0	 5.999999999999999e+000	 5.799989999990449e+000	 1.013725878779958e+001
0	 5.999999999999998e+000	 5.866659999993467e+000	 1.013380828075604e+001
0	 6.000000000000000e+000	 5.933329999996683e+000	 1.013034180400731e+001
0	 5.999999999999999e+000	 5.999999999999999e+000	 1.012685512493056e+001
0	 5.333299999983333e+000	 5.999999999999998e+000	 1.014045874106839e+001
0	 5.333299999983334e+000	 6.066670000003317e+000	 1.013625924660015e+001
0	 5.333299999983333e+000	 6.133340000006530e+000	 1.013212617472537e+001
0	 5.333299999983334e+000	 6.200010000009550e+000	 1.012805738110157e+001
0	 5.333299999983335e+000	 6.266680000012268e+000	 1.012405072138630e+001
0	 5.333299999983334e+000	 6.333350000014584e+000	 1.012010405123709e+001
0	 5.333299999983335e+000	 6.400020000016401e+000	 1.011621522631148e+001
0	 5.333299999983334e+000	 6.466690000017618e+000	 1.011238210226700e+001
0	 5.333299999983333e+000	 6.533360000018132e+000	 1.010860253476120e+001
0	 5.333299999983333e+000	 6.600030000017849e+000	 1.010487437945160e+001
0	 5.333299999983334e+000	 6.666700000016665e+000	 1.010119549199575e+001
0	 5.399969999982150e+000	 6.000000000000000e+000	 1.013968211726092e+001
0	 5.399969999982148e+000	 6.066670000003314e+000	 1.013555299668471e+001
0	 5.399969999982149e+000	 6.133340000006533e+000	 1.013148557917829e+001
0	 5.399969999982150e+000	 6.200010000009552e+000	 1.012747807166958e+001
0	 5.399969999982151e+000	 6.266680000012269e+000	 1.012352868108639e+001
0	 5.399969999982150e+000	 6.333350000014584e+000	 1.011963561435662e+001
0	 5.399969999982149e+000	 6.400020000016399e+000	 1.011579707840812e+001
0	 5.399969999982151e+000	 6.466690000017619e+000	 1.011201128016877e+001
0	 5.399969999982148e+000	 6.533360000018132e+000	 1.010827642656643e+001
0	 5.399969999982149e+000	 6.600030000017852e+000	 1.010459072452896e+001
0	 5.399969999982151e+000	 6.666700000016668e+000	 1.010095238098424e+001
0	 5.466639999981868e+000	 6.000000000000002e+000	 1.013875679595600e+001
0	 5.466639999981866e+000	 6.066670000003318e+000	 1.013469718488891e+001
0	 5.466639999981866e+000	 6.133340000006531e+000	 1.013069536229461e+001
0	 5.466639999981867e+000	 6.200010000009551e+000	 1.012674980550605e+001
0	 5.466639999981865e+000	 6.266680000012267e+000	 1.012285899185616e+001
0	 5.466639999981865e+000	 6.333350000014584e+000	 1.011902139867787e+001
0	 5.466639999981866e+000	 6.400020000016399e+000	 1.011523550330414e+001
0	 5.466639999981867e+000	 6.466690000017617e+000	 1.011149978306789e+001
0	 5.466639999981864e+000	 6.533360000018134e+000	 1.010781271530206e+001
0	 5.466639999981865e+000	 6.600030000017852e+000	 1.010417277733959e+001
0	 5.466639999981866e+000	 6.666700000016667e+000	 1.010057844651342e+001
0	 5.533309999982382e+000	 6.000000000000001e+000	 1.013768989389798e+001
0	 5.533309999982383e+000	 6.066670000003317e+000	 1.013369942601178e+001
0	 5.533309999982381e+000	 6.133340000006533e+000	 1.012976355065315e+001
0	 5.533309999982382e+000	 6.200010000009551e+000	 1.012588093469484e+001
0	 5.533309999982383e+000	 6.266680000012268e+000	 1.012205024500962e+001
0	 5.533309999982382e+000	 6.333350000014585e+000	 1.011827014847022e+001
0	 5.533309999982381e+000	 6.400020000016398e+000	 1.011453931194940e+001
0	 5.533309999982381e+000	 6.466690000017614e+000	 1.011085640231991e+001
0	 5.533309999982381e+000	 6.533360000018135e+000	 1.010722008645452e+001
0	 5.533309999982381e+000	 6.600030000017847e+000	 1.010362903122593e+001
0	 5.533309999982382e+000	 6.666700000016665e+000	 1.010008190350694e+001
0	 5.599979999983600e+000	 6.000000000000002e+000	 1.013648852783121e+001
0	 5.599979999983598e+000	 6.066670000003318e+000	 1.013256733485232e+001
0	 5.599979999983598e+000	 6.133340000006532e+000	 1.012869817083277e+001
0	 5.599979999983599e+000	 6.200010000009551e+000	 1.012487981131982e+001
0	 5.599979999983598e+000	 6.266680000012267e+000	 1.012111103186082e+001
0	 5.599979999983599e+000	 6.333350000014585e+000	 1.011739060800305e+001
0	 5.599979999983598e+000	 6.400020000016400e+000	 1.011371731529381e+001
0	 5.599979999983598e+000	 6.466690000017618e+000	 1.011008992928044e+001
0	 5.599979999983598e+000	 6.533360000018133e+000	 1.010650722551022e+001
0	 5.599979999983598e+000	 6.600030000017851e+000	 1.010296797953045e+001
0	 5.599979999983598e+000	 6.666700000016666e+000	 1.009947096688846e+001
0	 5.666649999985415e+000	 5.999999999999998e+000	 1.013515981450004e+001
0	 5.666649999985414e+000	 6.066670000003317e+000	 1.013130852620957e+001
0	 5.666649999985415e+000	 6.133340000006534e+000	 1.012750724941231e+001
0	 5.666649999985414e+000	 6.200010000009551e+000	 1.012375478746485e+001
0	 5.666649999985414e+000	 6.266680000012268e+000	 1.012004994372377e+001
0	 5.666649999985415e+000	 6.333350000014585e+000	 1.011639152154572e+001
0	 5.666649999985415e+000	 6.400020000016399e+000	 1.011277832428726e+001
0	 5.666649999985415e+000	 6.466690000017617e+000	 1.010920915530502e+001
0	 5.666649999985415e+000	 6.533360000018133e+000	 1.010568281795560e+001
0	 5.666649999985415e+000	 6.600030000017850e+000	 1.010219811559559e+001
0	 5.666649999985415e+000	 6.666700000016665e+000	 1.009875385158162e+001
0	 5.733319999987731e+000	 6.000000000000000e+000	 1.013371087064882e+001
0	 5.733319999987733e+000	 6.066670000003317e+000	 1.012993061488254e+001
0	 5.733319999987732e+000	 6.133340000006533e+000	 1.012619881297062e+001
0	 5.733319999987733e+000	 6.200010000009552e+000	 1.012251421521374e+001
0	 5.733319999987731e+000	 6.266680000012267e+000	 1.011887557191252e+001
0	 5.733319999987731e+000	 6.333350000014584e+000	 1.011528163336760e+001
0	 5.733319999987732e+000	 6.400020000016402e+000	 1.011173114987962e+001
0	 5.733319999987733e+000	 6.466690000017618e+000	 1.010822287174924e+001
0	 5.733319999987733e+000	 6.533360000018135e+000	 1.010475554927709e+001
0	 5.733319999987731e+000	 6.600030000017848e+000	 1.010132793276383e+001
0	 5.733319999987732e+000	 6.666700000016666e+000	 1.009793877251009e+001
0	 5.799989999990447e+000	 5.999999999999999e+000	 1.013214881302191e+001
0	 5.799989999990450e+000	 6.066670000003319e+000	 1.012844121567023e+001
0	 5.799989999990447e+000	 6.133340000006533e+000	 1.012478088808659e+001
0	 5.799989999990449e+000	 6.200010000009551e+000	 1.012116644665039e+001
0	 5.799989999990447e+000	 6.266680000012269e+000	 1.011759650774109e+001
0	 5.799989999990449e+000	 6.333350000014585e+000	 1.011406968773808e+001
0	 5.799989999990448e+000	 6.400020000016403e+000	 1.011058460302079e+001
0	 5.799989999990448e+000	 6.466690000017615e+000	 1.010713986996867e+001
0	 5.799989999990449e+000	 6.533360000018136e+000	 1.010373410496113e+001
0	 5.799989999990448e+000	 6.600030000017851e+000	 1.010036592437759e+001
0	 5.799989999990448e+000	 6.666700000016665e+000	 1.009703394459750e+001
0	 5.866659999993464e+000	 6.000000000000000e+000	 1.013048075836366e+001
0	 5.866659999993464e+000	 6.066670000003316e+000	 1.012684794337167e+001
0	 5.866659999993465e+000	 6.133340000006532e+000	 1.012326150133902e+001
0	 5.866659999993465e+000	 6.200010000009550e+000	 1.011971983385864e+001
0	 5.866659999993465e+000	 6.266680000012269e+000	 1.011622134252349e+001
0	 5.866659999993465e+000	 6.333350000014585e+000	 1.011276442892652e+001
0	 5.866659999993465e+000	 6.400020000016402e+000	 1.010934749466066e+001
0	 5.866659999993464e+000	 6.466690000017616e+000	 1.010596894131888e+001
0	 5.866659999993466e+000	 6.533360000018134e+000	 1.010262717049414e+001
0	 5.866659999993464e+000	 6.600030000017848e+000	 1.009932058377936e+001
0	 5.866659999993465e+000	 6.666700000016666e+000	 1.009604758276751e+001
0	 5.933329999996680e+000	 5.999999999999998e+000	 1.012871382341843e+001
0	 5.933329999996682e+000	 6.066670000003318e+000	 1.012515841278589e+001
0	 5.933329999996680e+000	 6.133340000006534e+000	 1.012164867930679e+001
0	 5.933329999996681e+000	 6.200010000009551e+000	 1.011818272892235e+001
0	 5.933329999996682e+000	 6.266680000012268e+000	 1.011475866757378e+001
0	 5.933329999996682e+000	 6.333350000014585e+000	 1.011137460120230e+001
0	 5.933329999996682e+000	 6.400020000016402e+000	 1.010802863574912e+001
0	 5.933329999996682e+000	 6.466690000017616e+000	 1.010471887715546e+001
0	 5.933329999996681e+000	 6.533360000018134e+000	 1.010144343136255e+001
0	 5.933329999996681e+000	 6.600030000017850e+000	 1.009820040431158e+001
0	 5.933329999996682e+000	 6.666700000016665e+000	 1.009498790194377e+001
0	 5.999999999999999e+000	 5.999999999999999e+000	 1.012685512493056e+001
0	 6.000000000000000e+000	 6.066670000003318e+000	 1.012338023871187e+001
0	 6.000000000000000e+000	 6.133340000006533e+000	 1.011995044856874e+001
0	 5.999999999999996e+000	 6.200010000009550e+000	 1.011656348392536e+001
0	 5.999999999999998e+000	 6.266680000012267e+000	 1.011321707420597e+001
0	 6.000000000000000e+000	 6.333350000014585e+000	 1.010990894883480e+001
0	 5.999999999999998e+000	 6.400020000016399e+000	 1.010663683723606e+001
0	 6.000000000000001e+000	 6.466690000017618e+000	 1.010339846883398e+001
0	 6.000000000000002e+000	 6.533360000018136e+000	 1.010019157305279e+001
0	 6.000000000000001e+000	 6.600030000017850e+000	 1.009701387931671e+001
0	 6.000000000000002e+000	 6.666700000016668e+000	 1.009386311704994e+001
0	 5.333299999983334e+000	 6.666700000016665e+000	 1.010119549199576e+001
0	 5.333299999983335e+000	 6.733360000014533e+000	 1.009757711692305e+001
0	 5.333299999983335e+000	 6.800020000011599e+000	 1.009402959065336e+001
0	 5.333299999983333e+000	 6.866680000008065e+000	 1.009055105133350e+001
0	 5.333299999983336e+000	 6.933340000004135e+000	 1.008713963711024e+001
0	 5.333299999983333e+000	 6.999999999999998e+000	 1.008379348613040e+001
0	 5.333299999983335e+000	 7.066659999995868e+000	 1.008051073654075e+001
0	 5.333299999983334e+000	 7.133319999991935e+000	 1.007728952648808e+001
0	 5.333299999983335e+000	 7.199979999988400e+000	 1.007412799411920e+001
0	 5.333299999983336e+000	 7.266639999985467e+000	 1.007102427758087e+001
0	 5.333299999983334e+000	 7.333299999983334e+000	 1.006797651501989e+001
0	 5.399969999982151e+000	 6.666700000016668e+000	 1.010095238098424e+001
0	 5.399969999982152e+000	 6.733360000014532e+000	 1.009737235819118e+001
0	 5.399969999982149e+000	 6.800020000011599e+000	 1.009386041227204e+001
0	 5.399969999982149e+000	 6.866680000008067e+000	 1.009041456773624e+001
0	 5.399969999982148e+000	 6.933340000004132e+000	 1.008703284909322e+001
0	 5.399969999982149e+000	 6.999999999999999e+000	 1.008371328085243e+001
0	 5.399969999982149e+000	 7.066659999995866e+000	 1.008045388752330e+001
0	 5.399969999982148e+000	 7.133319999991933e+000	 1.007725269361525e+001
0	 5.399969999982150e+000	 7.199979999988400e+000	 1.007410772363771e+001
0	 5.399969999982151e+000	 7.266639999985467e+000	 1.007101700210010e+001
0	 5.399969999982150e+000	 7.333299999983335e+000	 1.006797855351188e+001
0	 5.466639999981866e+000	 6.666700000016667e+000	 1.010057844651342e+001
0	 5.466639999981865e+000	 6.733360000014533e+000	 1.009704032912422e+001
0	 5.466639999981865e+000	 6.800020000011599e+000	 1.009356759921091e+001
0	 5.466639999981865e+000	 6.866680000008066e+000	 1.009015819304908e+001
0	 5.466639999981867e+000	 6.933340000004134e+000	 1.008681004691438e+001
0	 5.466639999981865e+000	 6.999999999999997e+000	 1.008352109708240e+001
0	 5.466639999981864e+000	 7.066659999995866e+000	 1.008028927982875e+001
0	 5.466639999981865e+000	 7.133319999991934e+000	 1.007711253142904e+001
0	 5.466639999981865e+000	 7.199979999988400e+000	 1.007398878815889e+001
0	 5.466639999981866e+000	 7.266639999985466e+000	 1.007091598629389e+001
0	 5.466639999981865e+000	 7.333299999983331e+000	 1.006789206210964e+001
0	 5.533309999982382e+000	 6.666700000016665e+000	 1.010008190350694e+001
0	 5.533309999982382e+000	 6.733360000014533e+000	 1.009658891561670e+001
0	 5.533309999982381e+000	 6.800020000011600e+000	 1.009315869329315e+001
0	 5.533309999982383e+000	 6.866680000008068e+000	 1.008978910998160e+001
0	 5.533309999982382e+000	 6.933340000004133e+000	 1.008647803912738e+001
0	 5.533309999982384e+000	 7.000000000000001e+000	 1.008322335417584e+001
0	 5.533309999982381e+000	 7.066659999995866e+000	 1.008002292857228e+001
0	 5.533309999982383e+000	 7.133319999991936e+000	 1.007687463576203e+001
0	 5.533309999982381e+000	 7.199979999988400e+000	 1.007377634919041e+001
0	 5.533309999982381e+000	 7.266639999985467e+000	 1.007072594230275e+001
0	 5.533309999982383e+000	 7.333299999983335e+000	 1.006772128854436e+001
0	 5.599979999983598e+000	 6.666700000016666e+000	 1.009947096688846e+001
0	 5.599979999983598e+000	 6.733360000014533e+000	 1.009602600356318e+001
0	 5.599979999983598e+000	 6.800020000011600e+000	 1.009264123634193e+001
0	 5.599979999983598e+000	 6.866680000008066e+000	 1.008931450124332e+001
0	 5.599979999983595e+000	 6.933340000004131e+000	 1.008604363428593e+001
0	 5.599979999983598e+000	 6.999999999999997e+000	 1.008282647148832e+001
0	 5.599979999983596e+000	 7.066659999995864e+000	 1.007966084886907e+001
0	 5.599979999983599e+000	 7.133319999991935e+000	 1.007654460244678e+001
0	 5.599979999983598e+000	 7.199979999988400e+000	 1.007347556823999e+001
0	 5.599979999983598e+000	 7.266639999985468e+000	 1.007045158226728e+001
0	 5.599979999983599e+000	 7.333299999983335e+000	 1.006747048054725e+001
0	 5.666649999985415e+000	 6.666700000016665e+000	 1.009875385158162e+001
0	 5.666649999985416e+000	 6.733360000014533e+000	 1.009535947885817e+001
0	 5.666649999985417e+000	 6.800020000011601e+000	 1.009202277018043e+001
0	 5.666649999985415e+000	 6.866680000008065e+000	 1.008874154954383e+001
0	 5.666649999985417e+000	 6.933340000004132e+000	 1.008551364094370e+001
0	 5.666649999985416e+000	 6.999999999999998e+000	 1.008233686837541e+001
0	 5.666649999985416e+000	 7.066659999995867e+000	 1.007920905583435e+001
0	 5.666649999985415e+000	 7.133319999991937e+000	 1.007612802731585e+001
0	 5.666649999985417e+000	 7.199979999988401e+000	 1.007309160681530e+001
0	 5.666649999985416e+000	 7.266639999985468e+000	 1.007009761832804e+001
0	 5.666649999985413e+000	 7.333299999983332e+000	 1.006714388584946e+001
0	 5.733319999987732e+000	 6.666700000016666e+000	 1.009793877251009e+001
0	 5.733319999987732e+000	 6.733360000014533e+000	 1.009459722739621e+001
0	 5.733319999987730e+000	 6.800020000011598e+000	 1.009131083663183e+001
0	 5.733319999987731e+000	 6.866680000008068e+000	 1.008807743759265e+001
0	 5.733319999987731e+000	 6.933340000004134e+000	 1.008489486765437e+001
0	 5.733319999987733e+000	 6.999999999999998e+000	 1.008176096419267e+001
0	 5.733319999987733e+000	 7.066659999995868e+000	 1.007867356458326e+001
0	 5.733319999987730e+000	 7.133319999991933e+000	 1.007563050620181e+001
0	 5.733319999987731e+000	 7.199979999988401e+000	 1.007262962642403e+001
0	 5.733319999987731e+000	 7.266639999985466e+000	 1.006966876262559e+001
0	 5.733319999987732e+000	 7.333299999983334e+000	 1.006674575218219e+001
0	 5.799989999990448e+000	 6.666700000016665e+000	 1.009703394459751e+001
0	 5.799989999990449e+000	 6.733360000014534e+000	 1.009374713507186e+001
0	 5.799989999990448e+000	 6.800020000011601e+000	 1.009051297751929e+001
0	 5.799989999990448e+000	 6.866680000008067e+000	 1.008732934809936e+001
0	 5.799989999990449e+000	 6.933340000004134e+000	 1.008419412297165e+001
0	 5.799989999990447e+000	 7.000000000000000e+000	 1.008110517829569e+001
0	 5.799989999990448e+000	 7.066659999995869e+000	 1.007806039023102e+001
0	 5.799989999990450e+000	 7.133319999991936e+000	 1.007505763493725e+001
0	 5.799989999990448e+000	 7.199979999988400e+000	 1.007209478857389e+001
0	 5.799989999990448e+000	 7.266639999985467e+000	 1.006916972730050e+001
0	 5.799989999990449e+000	 7.333299999983336e+000	 1.006628032727664e+001
0	 5.866659999993465e+000	 6.666700000016666e+000	 1.009604758276751e+001
0	 5.866659999993465e+000	 6.733360000014533e+000	 1.009281708777963e+001
0	 5.866659999993465e+000	 6.800020000011599e+000	 1.008963673466597e+001
0	 5.866659999993464e+000	 6.866680000008067e+000	 1.008650446377351e+001
0	 5.866659999993464e+000	 6.933340000004133e+000	 1.008341821544919e+001
0	 5.866659999993465e+000	 6.999999999999999e+000	 1.008037593003998e+001
0	 5.866659999993464e+000	 7.066659999995867e+000	 1.007737554789284e+001
0	 5.866659999993463e+000	 7.133319999991936e+000	 1.007441500935471e+001
0	 5.866659999993465e+000	 7.199979999988400e+000	 1.007149225477255e+001
0	 5.866659999993465e+000	 7.266639999985465e+000	 1.006860522449333e+001
0	 5.866659999993466e+000	 7.333299999983335e+000	 1.006575185886396e+001
0	 5.933329999996682e+000	 6.666700000016665e+000	 1.009498790194377e+001
0	 5.933329999996681e+000	 6.733360000014534e+000	 1.009181497141407e+001
0	 5.933329999996681e+000	 6.800020000011600e+000	 1.008868964989506e+001
0	 5.933329999996682e+000	 6.866680000008067e+000	 1.008560996732465e+001
0	 5.933329999996681e+000	 6.933340000004132e+000	 1.008257395364071e+001
0	 5.933329999996682e+000	 7.000000000000000e+000	 1.007957963878115e+001
0	 5.933329999996680e+000	 7.066659999995866e+000	 1.007662505268388e+001
0	 5.933329999996681e+000	 7.133319999991934e+000	 1.007370822528678e+001
0	 5.933329999996682e+000	 7.199979999988401e+000	 1.007082718652772e+001
0	 5.933329999996683e+000	 7.266639999985467e+000	 1.006797996634463e+001
0	 5.933329999996682e+000	 7.333299999983334e+000	 1.006516459467537e+001
0	 6.000000000000002e+000	 6.666700000016668e+000	 1.009386311704994e+001
0	 6.000000000000000e+000	 6.733360000014532e+000	 1.009074867186973e+001
0	 6.000000000000000e+000	 6.800020000011600e+000	 1.008767926502973e+001
0	 6.000000000000000e+000	 6.866680000008066e+000	 1.008465304146232e+001
0	 6.000000000000001e+000	 6.933340000004134e+000	 1.008166814609987e+001
0	 6.000000000000000e+000	 6.999999999999998e+000	 1.007872272387476e+001
0	 6.000000000000001e+000	 7.066659999995868e+000	 1.007581491971935e+001
0	 6.000000000000000e+000	 7.133319999991935e+000	 1.007294287856601e+001
0	 6.000000000000000e+000	 7.199979999988401e+000	 1.007010474534710e+001
0	 6.000000000000000e+000	 7.266639999985465e+000	 1.006729866499498e+001
0	 6.000000000000000e+000	 7.333299999983332e+000	 1.006452278244204e+001
0	 5.333299999983334e+000	 7.333299999983334e+000	 1.006797651501989e+001
0	 5.333299999983332e+000	 7.399969999982149e+000	 1.006498875339384e+001
0	 5.333299999983333e+000	 7.466639999981864e+000	 1.006206649613243e+001
0	 5.333299999983333e+000	 7.533309999982383e+000	 1.005920870677193e+001
0	 5.333299999983335e+000	 7.599979999983600e+000	 1.005641434884861e+001
0	 5.333299999983334e+000	 7.666649999985416e+000	 1.005368238589873e+001
0	 5.333299999983334e+000	 7.733319999987733e+000	 1.005101178145858e+001
0	 5.333299999983334e+000	 7.799989999990449e+000	 1.004840149906443e+001
0	 5.333299999983333e+000	 7.866659999993466e+000	 1.004585050225252e+001
0	 5.333299999983335e+000	 7.933329999996684e+000	 1.004335775455914e+001
0	 5.333299999983334e+000	 8.000000000000000e+000	 1.004092221952057e+001
0	 5.399969999982150e+000	 7.333299999983335e+000	 1.006797855351188e+001
0	 5.399969999982147e+000	 7.399969999982148e+000	 1.006499838744008e+001
0	 5.399969999982148e+000	 7.466639999981865e+000	 1.006208393243397e+001
0	 5.399969999982152e+000	 7.533309999982385e+000	 1.005923398550385e+001
0	 5.399969999982149e+000	 7.599979999983599e+000	 1.005644734366003e+001
0	 5.399969999982150e+000	 7.666649999985416e+000	 1.005372280391282e+001
0	 5.399969999982150e+000	 7.733319999987732e+000	 1.005105916327253e+001
0	 5.399969999982150e+000	 7.799989999990451e+000	 1.004845521874945e+001
0	 5.399969999982151e+000	 7.866659999993468e+000	 1.004590976735392e+001
0	 5.399969999982149e+000	 7.933329999996682e+000	 1.004342160609621e+001
0	 5.399969999982149e+000	 8.000000000000000e+000	 1.004098953198666e+001
0	 5.466639999981865e+000	 7.333299999983331e+000	 1.006789206210964e+001
0	 5.466639999981865e+000	 7.399969999982149e+000	 1.006492461827562e+001
0	 5.466639999981866e+000	 7.466639999981866e+000	 1.006202262971794e+001
0	 5.466639999981866e+000	 7.533309999982383e+000	 1.005918474088412e+001
0	 5.466639999981866e+000	 7.599979999983600e+000	 1.005640959622167e+001
0	 5.466639999981866e+000	 7.666649999985416e+000	 1.005369584017812e+001
0	 5.466639999981866e+000	 7.733319999987733e+000	 1.005104211720101e+001
0	 5.466639999981868e+000	 7.799989999990451e+000	 1.004844707173784e+001
0	 5.466639999981866e+000	 7.866659999993467e+000	 1.004590934823618e+001
0	 5.466639999981867e+000	 7.933329999996683e+000	 1.004342759114353e+001
0	 5.466639999981868e+000	 8.000000000000000e+000	 1.004100044490744e+001
0	 5.533309999982383e+000	 7.333299999983335e+000	 1.006772128854436e+001
0	 5.533309999982381e+000	 7.399969999982148e+000	 1.006477125311246e+001
0	 5.533309999982381e+000	 7.466639999981865e+000	 1.006188601764128e+001
0	 5.533309999982381e+000	 7.533309999982384e+000	 1.005906408797874e+001
0	 5.533309999982382e+000	 7.599979999983598e+000	 1.005630396997279e+001
0	 5.533309999982382e+000	 7.666649999985417e+000	 1.005360416947133e+001
0	 5.533309999982382e+000	 7.733319999987733e+000	 1.005096319232230e+001
0	 5.533309999982381e+000	 7.799989999990448e+000	 1.004837954437363e+001
0	 5.533309999982382e+000	 7.866659999993467e+000	 1.004585173147327e+001
0	 5.533309999982383e+000	 7.933329999996684e+000	 1.004337825946912e+001
0	 5.533309999982382e+000	 8.000000000000000e+000	 1.004095763420914e+001
0	 5.599979999983599e+000	 7.333299999983335e+000	 1.006747048054724e+001
0	 5.599979999983598e+000	 7.399969999982151e+000	 1.006454209916252e+001
0	 5.599979999983600e+000	 7.466639999981866e+000	 1.006167752586086e+001
0	 5.599979999983599e+000	 7.533309999982384e+000	 1.005887514185371e+001
0	 5.599979999983598e+000	 7.599979999983600e+000	 1.005613332835264e+001
0	 5.599979999983599e+000	 7.666649999985416e+000	 1.005345046656914e+001
0	 5.599979999983598e+000	 7.733319999987733e+000	 1.005082493771471e+001
0	 5.599979999983598e+000	 7.799989999990450e+000	 1.004825512300087e+001
0	 5.599979999983598e+000	 7.866659999993465e+000	 1.004573940363913e+001
0	 5.599979999983598e+000	 7.933329999996682e+000	 1.004327616084100e+001
0	 5.599979999983598e+000	 8.000000000000004e+000	 1.004086377581802e+001
0	 5.666649999985413e+000	 7.333299999983332e+000	 1.006714388584946e+001
0	 5.666649999985415e+000	 7.399969999982151e+000	 1.006424096363780e+001
0	 5.666649999985415e+000	 7.466639999981866e+000	 1.006140058403358e+001
0	 5.666649999985415e+000	 7.533309999982384e+000	 1.005862101757506e+001
0	 5.666649999985415e+000	 7.599979999983599e+000	 1.005590053480051e+001
0	 5.666649999985414e+000	 7.666649999985416e+000	 1.005323740624824e+001
0	 5.666649999985414e+000	 7.733319999987733e+000	 1.005062990245650e+001
0	 5.666649999985415e+000	 7.799989999990449e+000	 1.004807629396356e+001
0	 5.666649999985416e+000	 7.866659999993467e+000	 1.004557485130770e+001
0	 5.666649999985415e+000	 7.933329999996682e+000	 1.004312384502721e+001
0	 5.666649999985415e+000	 7.999999999999998e+000	 1.004072154566035e+001
0	 5.733319999987732e+000	 7.333299999983334e+000	 1.006674575218219e+001
0	 5.733319999987732e+000	 7.399969999982150e+000	 1.006387165375024e+001
0	 5.733319999987732e+000	 7.466639999981866e+000	 1.006105862181635e+001
0	 5.733319999987732e+000	 7.533309999982384e+000	 1.005830483020877e+001
0	 5.733319999987732e+000	 7.599979999983599e+000	 1.005560845275569e+001
0	 5.733319999987731e+000	 7.666649999985417e+000	 1.005296766328535e+001
0	 5.733319999987732e+000	 7.733319999987733e+000	 1.005038063562596e+001
0	 5.733319999987732e+000	 7.799989999990451e+000	 1.004784554360574e+001
0	 5.733319999987731e+000	 7.866659999993466e+000	 1.004536056105292e+001
0	 5.733319999987733e+000	 7.933329999996683e+000	 1.004292386179573e+001
0	 5.733319999987732e+000	 8.000000000000000e+000	 1.004053361966238e+001
0	 5.799989999990449e+000	 7.333299999983336e+000	 1.006628032727663e+001
0	 5.799989999990448e+000	 7.399969999982151e+000	 1.006343797671180e+001
0	 5.799989999990448e+000	 7.466639999981866e+000	 1.006065506886609e+001
0	 5.799989999990449e+000	 7.533309999982384e+000	 1.005792969482086e+001
0	 5.799989999990448e+000	 7.599979999983599e+000	 1.005525994565743e+001
0	 5.799989999990448e+000	 7.666649999985416e+000	 1.005264391245716e+001
0	 5.799989999990447e+000	 7.733319999987733e+000	 1.005007968630139e+001
0	 5.799989999990448e+000	 7.799989999990451e+000	 1.004756535827147e+001
0	 5.799989999990448e+000	 7.866659999993467e+000	 1.004509901944876e+001
0	 5.799989999990449e+000	 7.933329999996683e+000	 1.004267876091461e+001
0	 5.799989999990447e+000	 8.000000000000000e+000	 1.004030267375034e+001
0	 5.866659999993466e+000	 7.333299999983335e+000	 1.006575185886396e+001
0	 5.866659999993464e+000	 7.399969999982149e+000	 1.006294373973447e+001
0	 5.866659999993466e+000	 7.466639999981867e+000	 1.006019335483971e+001
0	 5.866659999993464e+000	 7.533309999982382e+000	 1.005749872647734e+001
0	 5.866659999993466e+000	 7.599979999983601e+000	 1.005485787694500e+001
0	 5.866659999993466e+000	 7.666649999985418e+000	 1.005226882854036e+001
0	 5.866659999993465e+000	 7.733319999987734e+000	 1.004972960356106e+001
0	 5.866659999993463e+000	 7.799989999990448e+000	 1.004723822430477e+001
0	 5.866659999993465e+000	 7.866659999993467e+000	 1.004479271306915e+001
0	 5.866659999993464e+000	 7.933329999996683e+000	 1.004239109215185e+001
0	 5.866659999993464e+000	 8.000000000000002e+000	 1.004003138385050e+001
0	 5.933329999996682e+000	 7.333299999983334e+000	 1.006516459467537e+001
0	 5.933329999996681e+000	 7.399969999982150e+000	 1.006239275003019e+001
0	 5.933329999996681e+000	 7.466639999981865e+000	 1.005967690939409e+001
0	 5.933329999996682e+000	 7.533309999982383e+000	 1.005701504024420e+001
0	 5.933329999996683e+000	 7.599979999983601e+000	 1.005440511005767e+001
0	 5.933329999996681e+000	 7.666649999985416e+000	 1.005184508631165e+001
0	 5.933329999996682e+000	 7.733319999987733e+000	 1.004933293648328e+001
0	 5.933329999996681e+000	 7.799989999990449e+000	 1.004686662804968e+001
0	 5.933329999996681e+000	 7.866659999993468e+000	 1.004444412848803e+001
0	 5.933329999996682e+000	 7.933329999996685e+000	 1.004206340527547e+001
0	 5.933329999996681e+000	 8.000000000000000e+000	 1.003972242588912e+001
0	 6.000000000000000e+000	 7.333299999983332e+000	 1.006452278244204e+001
0	 6.000000000000001e+000	 7.399969999982152e+000	 1.006178881481094e+001
0	 6.000000000000002e+000	 7.466639999981867e+000	 1.005910916218614e+001
0	 6.000000000000001e+000	 7.533309999982384e+000	 1.005648175118747e+001
0	 6.000000000000000e+000	 7.599979999983600e+000	 1.005390450843473e+001
0	 6.000000000000000e+000	 7.666649999985416e+000	 1.005137536054773e+001
0	 6.000000000000000e+000	 7.733319999987733e+000	 1.004889223414629e+001
0	 5.999999999999998e+000	 7.799989999990449e+000	 1.004645305585023e+001
0	 5.999999999999998e+000	 7.866659999993466e+000	 1.004405575227936e+001
0	 6.000000000000000e+000	 7.933329999996684e+000	 1.004169825005350e+001
0	 6.000000000000000e+000	 8.000000000000000e+000	 1.003937847579246e+001
0	 5.333299999983334e+000	 8.000000000000000e+000	 1.004092221952057e+001
0	 5.333299999983333e+000	 8.066670000003317e+000	 1.003854944127005e+001
0	 5.333299999983333e+000	 8.133340000006532e+000	 1.003624400662543e+001
0	 5.333299999983335e+000	 8.200010000009550e+000	 1.003400344314991e+001
0	 5.333299999983336e+000	 8.266680000012268e+000	 1.003182527840670e+001
0	 5.333299999983334e+000	 8.333350000014585e+000	 1.002970703995901e+001
0	 5.333299999983333e+000	 8.400020000016399e+000	 1.002764625537008e+001
0	 5.333299999983332e+000	 8.466690000017616e+000	 1.002564045220307e+001
0	 5.333299999983334e+000	 8.533360000018135e+000	 1.002368715802125e+001
0	 5.333299999983335e+000	 8.600030000017851e+000	 1.002178390038779e+001
0	 5.333299999983334e+000	 8.666700000016666e+000	 1.001992820686591e+001
0	 5.399969999982149e+000	 8.000000000000000e+000	 1.004098953198666e+001
0	 5.399969999982150e+000	 8.066670000003317e+000	 1.003861886757147e+001
0	 5.399969999982149e+000	 8.133340000006530e+000	 1.003631415612045e+001
0	 5.399969999982149e+000	 8.200010000009549e+000	 1.003407302572937e+001
0	 5.399969999982151e+000	 8.266680000012267e+000	 1.003189310449395e+001
0	 5.399969999982150e+000	 8.333350000014583e+000	 1.002977202050994e+001
0	 5.399969999982149e+000	 8.400020000016401e+000	 1.002770740187309e+001
0	 5.399969999982149e+000	 8.466690000017614e+000	 1.002569687667915e+001
0	 5.399969999982149e+000	 8.533360000018133e+000	 1.002373807302389e+001
0	 5.399969999982150e+000	 8.600030000017853e+000	 1.002182861900304e+001
0	 5.399969999982150e+000	 8.666700000016668e+000	 1.001996614271235e+001
0	 5.466639999981868e+000	 8.000000000000000e+000	 1.004100044490744e+001
0	 5.466639999981866e+000	 8.066670000003319e+000	 1.003863337937006e+001
0	 5.466639999981867e+000	 8.133340000006532e+000	 1.003633124247672e+001
0	 5.466639999981867e+000	 8.200010000009554e+000	 1.003409174582966e+001
0	 5.466639999981865e+000	 8.266680000012265e+000	 1.003191260103112e+001
0	 5.466639999981867e+000	 8.333350000014583e+000	 1.002979151968333e+001
0	 5.466639999981865e+000	 8.400020000016401e+000	 1.002772621338851e+001
0	 5.466639999981864e+000	 8.466690000017616e+000	 1.002571439374894e+001
0	 5.466639999981867e+000	 8.533360000018137e+000	 1.002375377236683e+001
0	 5.466639999981865e+000	 8.600030000017849e+000	 1.002184206084444e+001
0	 5.466639999981867e+000	 8.666700000016668e+000	 1.001997697078402e+001
0	 5.533309999982382e+000	 8.000000000000000e+000	 1.004095763420914e+001
0	 5.533309999982385e+000	 8.066670000003317e+000	 1.003859578140663e+001
0	 5.533309999982381e+000	 8.133340000006529e+000	 1.003629814159815e+001
0	 5.533309999982381e+000	 8.200010000009552e+000	 1.003406249286632e+001
0	 5.533309999982382e+000	 8.266680000012267e+000	 1.003188661329388e+001
0	 5.533309999982383e+000	 8.333350000014583e+000	 1.002976828096348e+001
0	 5.533309999982383e+000	 8.400020000016401e+000	 1.002770527395781e+001
0	 5.533309999982383e+000	 8.466690000017616e+000	 1.002569537035956e+001
0	 5.533309999982382e+000	 8.533360000018138e+000	 1.002373634825141e+001
0	 5.533309999982381e+000	 8.600030000017851e+000	 1.002182598571606e+001
0	 5.533309999982382e+000	 8.666700000016668e+000	 1.001996206083618e+001
0	 5.599979999983598e+000	 8.000000000000004e+000	 1.004086377581802e+001
0	 5.599979999983599e+000	 8.066670000003315e+000	 1.003850887842203e+001
0	 5.599979999983598e+000	 8.133340000006534e+000	 1.003621772938863e+001
0	 5.599979999983598e+000	 8.200010000009550e+000	 1.003398815625489e+001
0	 5.599979999983598e+000	 8.266680000012265e+000	 1.003181798655788e+001
0	 5.599979999983599e+000	 8.333350000014587e+000	 1.002970504783471e+001
0	 5.599979999983597e+000	 8.400020000016401e+000	 1.002764716762245e+001
0	 5.599979999983598e+000	 8.466690000017616e+000	 1.002564217345817e+001
0	 5.599979999983599e+000	 8.533360000018133e+000	 1.002368789287896e+001
0	 5.599979999983598e+000	 8.600030000017851e+000	 1.002178215342191e+001
0	 5.599979999983599e+000	 8.666700000016668e+000	 1.001992278262414e+001
0	 5.666649999985415e+000	 7.999999999999998e+000	 1.004072154566035e+001
0	 5.666649999985414e+000	 8.066670000003315e+000	 1.003837547515708e+001
0	 5.666649999985417e+000	 8.133340000006536e+000	 1.003609288175212e+001
0	 5.666649999985415e+000	 8.200010000009550e+000	 1.003387162541088e+001
0	 5.666649999985414e+000	 8.266680000012268e+000	 1.003170956609880e+001
0	 5.666649999985415e+000	 8.333350000014583e+000	 1.002960456378133e+001
0	 5.666649999985415e+000	 8.400020000016403e+000	 1.002755447842388e+001
0	 5.666649999985415e+000	 8.466690000017618e+000	 1.002555716999189e+001
0	 5.666649999985415e+000	 8.533360000018135e+000	 1.002361049845082e+001
0	 5.666649999985416e+000	 8.600030000017851e+000	 1.002171232376608e+001
0	 5.666649999985415e+000	 8.666700000016666e+000	 1.001986050590313e+001
0	 5.733319999987732e+000	 8.000000000000000e+000	 1.004053361966238e+001
0	 5.733319999987732e+000	 8.066670000003317e+000	 1.003819837635260e+001
0	 5.733319999987731e+000	 8.133340000006532e+000	 1.003592647459250e+001
0	 5.733319999987732e+000	 8.200010000009552e+000	 1.003371578974981e+001
0	 5.733319999987731e+000	 8.266680000012268e+000	 1.003156419719226e+001
0	 5.733319999987731e+000	 8.333350000014583e+000	 1.002946957228760e+001
0	 5.733319999987732e+000	 8.400020000016399e+000	 1.002742979040357e+001
0	 5.733319999987732e+000	 8.466690000017616e+000	 1.002544272690789e+001
0	 5.733319999987732e+000	 8.533360000018131e+000	 1.002350625716833e+001
0	 5.733319999987732e+000	 8.600030000017849e+000	 1.002161825655261e+001
0	 5.733319999987731e+000	 8.666700000016666e+000	 1.001977660042848e+001
0	 5.799989999990447e+000	 8.000000000000000e+000	 1.004030267375034e+001
0	 5.799989999990449e+000	 8.066670000003317e+000	 1.003798038674942e+001
0	 5.799989999990448e+000	 8.133340000006534e+000	 1.003572138381372e+001
0	 5.799989999990450e+000	 8.200010000009554e+000	 1.003352353868724e+001
0	 5.799989999990447e+000	 8.266680000012267e+000	 1.003138472511394e+001
0	 5.799989999990449e+000	 8.333350000014585e+000	 1.002930281683786e+001
0	 5.799989999990448e+000	 8.400020000016403e+000	 1.002727568760298e+001
0	 5.799989999990448e+000	 8.466690000017616e+000	 1.002530121115330e+001
0	 5.799989999990448e+000	 8.533360000018133e+000	 1.002337726123282e+001
0	 5.799989999990447e+000	 8.600030000017851e+000	 1.002150171158555e+001
0	 5.799989999990448e+000	 8.666700000016668e+000	 1.001967243595547e+001
0	 5.866659999993464e+000	 8.000000000000002e+000	 1.004003138385050e+001
0	 5.866659999993464e+000	 8.066670000003317e+000	 1.003772431108837e+001
0	 5.866659999993464e+000	 8.133340000006532e+000	 1.003548048531969e+001
0	 5.866659999993465e+000	 8.200010000009550e+000	 1.003329776163866e+001
0	 5.866659999993464e+000	 8.266680000012268e+000	 1.003117399513950e+001
0	 5.866659999993465e+000	 8.333350000014585e+000	 1.002910704091640e+001
0	 5.866659999993465e+000	 8.400020000016401e+000	 1.002709475406358e+001
0	 5.866659999993464e+000	 8.466690000017618e+000	 1.002513498967526e+001
0	 5.866659999993463e+000	 8.533360000018133e+000	 1.002322560284565e+001
0	 5.866659999993464e+000	 8.600030000017851e+000	 1.002136444866894e+001
0	 5.866659999993464e+000	 8.666700000016668e+000	 1.001954938223938e+001
0	 5.933329999996681e+000	 8.000000000000000e+000	 1.003972242588912e+001
0	 5.933329999996682e+000	 8.066670000003317e+000	 1.003743295411027e+001
0	 5.933329999996680e+000	 8.133340000006532e+000	 1.003520665501432e+001
0	 5.933329999996682e+000	 8.200010000009550e+000	 1.003304134801964e+001
0	 5.933329999996681e+000	 8.266680000012267e+000	 1.003093485254455e+001
0	 5.933329999996681e+000	 8.333350000014585e+000	 1.002888498800750e+001
0	 5.933329999996680e+000	 8.400020000016397e+000	 1.002688957382683e+001
0	 5.933329999996682e+000	 8.466690000017616e+000	 1.002494642942091e+001
0	 5.933329999996681e+000	 8.533360000018135e+000	 1.002305337420813e+001
0	 5.933329999996681e+000	 8.600030000017849e+000	 1.002120822760687e+001
0	 5.933329999996682e+000	 8.666700000016666e+000	 1.001940880903549e+001
0	 6.000000000000000e+000	 8.000000000000000e+000	 1.003937847579246e+001
0	 5.999999999999999e+000	 8.066670000003319e+000	 1.003710912055598e+001
0	 6.000000000000001e+000	 8.133340000006534e+000	 1.003490276880156e+001
0	 5.999999999999998e+000	 8.200010000009549e+000	 1.003275718724566e+001
0	 6.000000000000000e+000	 8.266680000012267e+000	 1.003067014260481e+001
0	 6.000000000000001e+000	 8.333350000014583e+000	 1.002863940159548e+001
0	 6.000000000000000e+000	 8.400020000016401e+000	 1.002666273093419e+001
0	 6.000000000000000e+000	 8.466690000017616e+000	 1.002473789733739e+001
0	 6.000000000000000e+000	 8.533360000018133e+000	 1.002286266752161e+001
0	 5.999999999999998e+000	 8.600030000017849e+000	 1.002103480820337e+001
0	 6.000000000000000e+000	 8.666700000016666e+000	 1.001925208609910e+001
0	 5.333299999983334e+000	 8.666700000016666e+000	 1.001992820686591e+001
0	 5.333299999983334e+000	 8.733360002791903e+000	 1.001814023361646e+001
0	 5.333299999983332e+000	 8.800020022230553e+000	 1.001643911012520e+001
0	 5.333299999983335e+000	 8.866680074997040e+000	 1.001482164845247e+001
0	 5.333299999983334e+000	 8.933340177755779e+000	 1.001328466041860e+001
0	 5.333299999983332e+000	 9.000000347171179e+000	 1.001182495760377e+001
0	 5.333299999983335e+000	 9.066660599907667e+000	 1.001043935134807e+001
0	 5.333299999983334e+000	 9.133320952629655e+000	 1.000912465275149e+001
0	 5.333299999983334e+000	 9.199981422001560e+000	 1.000787767267396e+001
0	 5.333299999983335e+000	 9.266642024687798e+000	 1.000669522173527e+001
0	 5.333299999983335e+000	 9.333302777352785e+000	 1.000557411031512e+001
0	 5.399969999982150e+000	 8.666700000016668e+000	 1.001996614271235e+001
0	 5.399969999982150e+000	 8.733360002791905e+000	 1.001817186460789e+001
0	 5.399969999982150e+000	 8.800020022230559e+000	 1.001646578472427e+001
0	 5.399969999982150e+000	 8.866680074997046e+000	 1.001484452820270e+001
0	 5.399969999982150e+000	 8.933340177755778e+000	 1.001330471994270e+001
0	 5.399969999982149e+000	 9.000000347171181e+000	 1.001184298460208e+001
0	 5.399969999982149e+000	 9.066660599907667e+000	 1.001045594659710e+001
0	 5.399969999982148e+000	 9.133320952629653e+000	 1.000914023010223e+001
0	 5.399969999982150e+000	 9.199981422001560e+000	 1.000789245905036e+001
0	 5.399969999982149e+000	 9.266642024687794e+000	 1.000670925713266e+001
0	 5.399969999982151e+000	 9.333302777352785e+000	 1.000558724779863e+001
0	 5.466639999981867e+000	 8.666700000016668e+000	 1.001997697078402e+001
0	 5.466639999981866e+000	 8.733360002791901e+000	 1.001818037988686e+001
0	 5.466639999981866e+000	 8.800020022230552e+000	 1.001647278493781e+001
0	 5.466639999981867e+000	 8.866680074997040e+000	 1.001485065508517e+001
0	 5.466639999981868e+000	 8.933340177755783e+000	 1.001331045923484e+001
0	 5.466639999981866e+000	 9.000000347171183e+000	 1.001184866605023e+001
0	 5.466639999981865e+000	 9.066660599907667e+000	 1.001046174395241e+001
0	 5.466639999981866e+000	 9.133320952629653e+000	 1.000914616111994e+001
0	 5.466639999981864e+000	 9.199981422001557e+000	 1.000789838548906e+001
0	 5.466639999981865e+000	 9.266642024687798e+000	 1.000671488475347e+001
0	 5.466639999981866e+000	 9.333302777352785e+000	 1.000559212636450e+001
0	 5.533309999982382e+000	 8.666700000016668e+000	 1.001996206083619e+001
0	 5.533309999982381e+000	 8.733360002791899e+000	 1.001816676276341e+001
0	 5.533309999982382e+000	 8.800020022230557e+000	 1.001646077236367e+001
0	 5.533309999982382e+000	 8.866680074997042e+000	 1.001484043371884e+001
0	 5.533309999982383e+000	 8.933340177755779e+000	 1.001330209066833e+001
0	 5.533309999982382e+000	 9.000000347171184e+000	 1.001184208680913e+001
0	 5.533309999982382e+000	 9.066660599907669e+000	 1.001045676549572e+001
0	 5.533309999982383e+000	 9.133320952629658e+000	 1.000914246984011e+001
0	 5.533309999982384e+000	 9.199981422001558e+000	 1.000789554271185e+001
0	 5.533309999982381e+000	 9.266642024687794e+000	 1.000671232673803e+001
0	 5.533309999982381e+000	 9.333302777352785e+000	 1.000558916430325e+001
0	 5.599979999983599e+000	 8.666700000016668e+000	 1.001992278262414e+001
0	 5.599979999983598e+000	 8.733360002791901e+000	 1.001813199654761e+001
0	 5.599979999983597e+000	 8.800020022230555e+000	 1.001643040859974e+001
0	 5.599979999983598e+000	 8.866680074997040e+000	 1.001481426872263e+001
0	 5.599979999983597e+000	 8.933340177755779e+000	 1.001327982661652e+001
0	 5.599979999983598e+000	 9.000000347171183e+000	 1.001182333173975e+001
0	 5.599979999983598e+000	 9.066660599907666e+000	 1.001044103330877e+001
0	 5.599979999983599e+000	 9.133320952629658e+000	 1.000912918029814e+001
0	 5.599979999983598e+000	 9.199981422001558e+000	 1.000788402144052e+001
0	 5.599979999983600e+000	 9.266642024687799e+000	 1.000670180522668e+001
0	 5.599979999983599e+000	 9.333302777352785e+000	 1.000557877990549e+001
0	 5.666649999985415e+000	 8.666700000016666e+000	 1.001986050590313e+001
0	 5.666649999985416e+000	 8.733360002791903e+000	 1.001807706454950e+001
0	 5.666649999985416e+000	 8.800020022230557e+000	 1.001638235524391e+001
0	 5.666649999985415e+000	 8.866680074997044e+000	 1.001477256471551e+001
0	 5.666649999985416e+000	 8.933340177755778e+000	 1.001324387945269e+001
0	 5.666649999985416e+000	 9.000000347171183e+000	 1.001179248570301e+001
0	 5.666649999985415e+000	 9.066660599907667e+000	 1.001041456947329e+001
0	 5.666649999985417e+000	 9.133320952629656e+000	 1.000910631652950e+001
0	 5.666649999985414e+000	 9.199981422001560e+000	 1.000786391239685e+001
0	 5.666649999985415e+000	 9.266642024687796e+000	 1.000668354235974e+001
0	 5.666649999985415e+000	 9.333302777352783e+000	 1.000556139146176e+001
0	 5.733319999987731e+000	 8.666700000016666e+000	 1.001977660042848e+001
0	 5.733319999987731e+000	 8.733360002791903e+000	 1.001800295007914e+001
0	 5.733319999987732e+000	 8.800020022230555e+000	 1.001631727389406e+001
0	 5.733319999987732e+000	 8.866680074997042e+000	 1.001471572631641e+001
0	 5.733319999987732e+000	 8.933340177755776e+000	 1.001319446155012e+001
0	 5.733319999987733e+000	 9.000000347171181e+000	 1.001174963355987e+001
0	 5.733319999987732e+000	 9.066660599907671e+000	 1.001037739607101e+001
0	 5.733319999987732e+000	 9.133320952629656e+000	 1.000907390256965e+001
0	 5.733319999987731e+000	 9.199981422001558e+000	 1.000783530630265e+001
0	 5.733319999987732e+000	 9.266642024687796e+000	 1.000665776027755e+001
0	 5.733319999987731e+000	 9.333302777352783e+000	 1.000553741726261e+001
0	 5.799989999990448e+000	 8.666700000016668e+000	 1.001967243595547e+001
0	 5.799989999990447e+000	 8.733360002791901e+000	 1.001791063644659e+001
0	 5.799989999990448e+000	 8.800020022230555e+000	 1.001623582614807e+001
0	 5.799989999990448e+000	 8.866680074997042e+000	 1.001464415814429e+001
0	 5.799989999990448e+000	 8.933340177755779e+000	 1.001313178528218e+001
0	 5.799989999990448e+000	 9.000000347171177e+000	 1.001169486017127e+001
0	 5.799989999990449e+000	 9.066660599907667e+000	 1.001032953518368e+001
0	 5.799989999990448e+000	 9.133320952629656e+000	 1.000903196245406e+001
0	 5.799989999990449e+000	 9.199981422001558e+000	 1.000779829387971e+001
0	 5.799989999990449e+000	 9.266642024687796e+000	 1.000662468112043e+001
0	 5.799989999990448e+000	 9.333302777352783e+000	 1.000550727559864e+001
0	 5.866659999993464e+000	 8.666700000016668e+000	 1.001954938223937e+001
0	 5.866659999993465e+000	 8.733360002791903e+000	 1.001780110696190e+001
0	 5.866659999993465e+000	 8.800020022230553e+000	 1.001613867360384e+001
0	 5.866659999993465e+000	 8.866680074997042e+000	 1.001455826481808e+001
0	 5.866659999993464e+000	 8.933340177755778e+000	 1.001305606302212e+001
0	 5.866659999993465e+000	 9.000000347171184e+000	 1.001162825039815e+001
0	 5.866659999993465e+000	 9.066660599907669e+000	 1.001027100889300e+001
0	 5.866659999993464e+000	 9.133320952629656e+000	 1.000898052021817e+001
0	 5.866659999993465e+000	 9.199981422001558e+000	 1.000775296584981e+001
0	 5.866659999993464e+000	 9.266642024687796e+000	 1.000658452702872e+001
0	 5.866659999993465e+000	 9.333302777352783e+000	 1.000547138476040e+001
0	 5.933329999996682e+000	 8.666700000016666e+000	 1.001940880903549e+001
0	 5.933329999996682e+000	 8.733360002791901e+000	 1.001767534493512e+001
0	 5.933329999996682e+000	 8.800020022230557e+000	 1.001602647785925e+001
0	 5.933329999996681e+000	 8.866680074997040e+000	 1.001445845095673e+001
0	 5.933329999996682e+000	 8.933340177755778e+000	 1.001296750714326e+001
0	 5.933329999996682e+000	 9.000000347171183e+000	 1.001154988910146e+001
0	 5.933329999996681e+000	 9.066660599907667e+000	 1.001020183928073e+001
0	 5.933329999996681e+000	 9.133320952629655e+000	 1.000891959989743e+001
0	 5.933329999996682e+000	 9.199981422001558e+000	 1.000769941293477e+001
0	 5.933329999996682e+000	 9.266642024687796e+000	 1.000653752014277e+001
0	 5.933329999996681e+000	 9.333302777352781e+000	 1.000543016303842e+001
0	 6.000000000000000e+000	 8.666700000016666e+000	 1.001925208609910e+001
0	 6.000000000000000e+000	 8.733360002791903e+000	 1.001753433367630e+001
0	 6.000000000000000e+000	 8.800020022230555e+000	 1.001589990051217e+001
0	 6.000000000000000e+000	 8.866680074997040e+000	 1.001434512117919e+001
0	 6.000000000000000e+000	 8.933340177755781e+000	 1.001286633001893e+001
0	 6.000000000000000e+000	 9.000000347171181e+000	 1.001145986114213e+001
0	 6.000000000000001e+000	 9.066660599907667e+000	 1.001012204842861e+001
0	 5.999999999999998e+000	 9.133320952629655e+000	 1.000884922552733e+001
0	 6.000000000000000e+000	 9.199981422001558e+000	 1.000763772585638e+001
0	 5.999999999999998e+000	 9.266642024687796e+000	 1.000648388260293e+001
0	 6.000000000000000e+000	 9.333302777352783e+000	 1.000538402872331e+001
0	 5.333299999983335e+000	 9.333302777352785e+000	 1.000557411031513e+001
0	 5.333299999983335e+000	 9.399973674588175e+000	 1.000454334632913e+001
0	 5.333299999983333e+000	 9.466644621844619e+000	 1.000363030023053e+001
0	 5.333299999983335e+000	 9.533315502450002e+000	 1.000282883657722e+001
0	 5.333299999983334e+000	 9.599986199732197e+000	 1.000213282229780e+001
0	 5.333299999983335e+000	 9.666656597019097e+000	 1.000153612669151e+001
0	 5.333299999983334e+000	 9.733326577638577e+000	 1.000103262142812e+001
0	 5.333299999983334e+000	 9.799996024918524e+000	 1.000061618054813e+001
0	 5.333299999983334e+000	 9.866664822186822e+000	 1.000028068046267e+001
0	 5.333299999983334e+000	 9.933332852771354e+000	 1.000001999995386e+001
0	 5.333299999983334e+000	 1.000000000000000e+001	 9.999828020175039e+000
0	 5.399969999982151e+000	 9.333302777352785e+000	 1.000558724779863e+001
0	 5.399969999982150e+000	 9.399973674588175e+000	 1.000455492271365e+001
0	 5.399969999982151e+000	 9.466644621844621e+000	 1.000363948462855e+001
0	 5.399969999982151e+000	 9.533315502449996e+000	 1.000283513352816e+001
0	 5.399969999982152e+000	 9.599986199732198e+000	 1.000213607177021e+001
0	 5.399969999982150e+000	 9.666656597019093e+000	 1.000153650408537e+001
0	 5.399969999982148e+000	 9.733326577638573e+000	 1.000103063757715e+001
0	 5.399969999982150e+000	 9.799996024918521e+000	 1.000061268172207e+001
0	 5.399969999982150e+000	 9.866664822186824e+000	 1.000027684836961e+001
0	 5.399969999982150e+000	 9.933332852771352e+000	 1.000001735174239e+001
0	 5.399969999982149e+000	 1.000000000000000e+001	 9.999828408436683e+000
0	 5.466639999981866e+000	 9.333302777352785e+000	 1.000559212636450e+001
0	 5.466639999981865e+000	 9.399973674588175e+000	 1.000455844108370e+001
0	 5.466639999981866e+000	 9.466644621844617e+000	 1.000364116911414e+001
0	 5.466639999981866e+000	 9.533315502449996e+000	 1.000283480151659e+001
0	 5.466639999981865e+000	 9.599986199732198e+000	 1.000213383172858e+001
0	 5.466639999981867e+000	 9.666656597019093e+000	 1.000153275556412e+001
0	 5.466639999981867e+000	 9.733326577638577e+000	 1.000102607121379e+001
0	 5.466639999981867e+000	 9.799996024918523e+000	 1.000060827924479e+001
0	 5.466639999981866e+000	 9.866664822186820e+000	 1.000027388260093e+001
0	 5.466639999981867e+000	 9.933332852771352e+000	 1.000001738660301e+001
0	 5.466639999981866e+000	 1.000000000000000e+001	 9.999833298948929e+000
0	 5.533309999982381e+000	 9.333302777352785e+000	 1.000558916430325e+001
0	 5.533309999982384e+000	 9.399973674588178e+000	 1.000455451314550e+001
0	 5.533309999982383e+000	 9.466644621844624e+000	 1.000363608854083e+001
0	 5.533309999982382e+000	 9.533315502450002e+000	 1.000282862827591e+001
0	 5.533309999982383e+000	 9.599986199732197e+000	 1.000212687251837e+001
0	 5.533309999982381e+000	 9.666656597019092e+000	 1.000152556381667e+001
0	 5.533309999982381e+000	 9.733326577638572e+000	 1.000101944710015e+001
0	 5.533309999982383e+000	 9.799996024918526e+000	 1.000060326967904e+001
0	 5.533309999982384e+000	 9.866664822186825e+000	 1.000027178124465e+001
0	 5.533309999982382e+000	 9.933332852771352e+000	 1.000001973386940e+001
0	 5.533309999982383e+000	 1.000000000000000e+001	 9.999841882007271e+000
0	 5.599979999983599e+000	 9.333302777352785e+000	 1.000557877990549e+001
0	 5.599979999983598e+000	 9.399973674588177e+000	 1.000454375060526e+001
0	 5.599979999983598e+000	 9.466644621844619e+000	 1.000362497776229e+001
0	 5.599979999983598e+000	 9.533315502450002e+000	 1.000281740153950e+001
0	 5.599979999983598e+000	 9.599986199732197e+000	 1.000211596448500e+001
0	 5.599979999983598e+000	 9.666656597019093e+000	 1.000151561153185e+001
0	 5.599979999983599e+000	 9.733326577638577e+000	 1.000101128999831e+001
0	 5.599979999983598e+000	 9.799996024918526e+000	 1.000059794958774e+001
0	 5.599979999983600e+000	 9.866664822186820e+000	 1.000027054238870e+001
0	 5.599979999983598e+000	 9.933332852771351e+000	 1.000002402287533e+001
0	 5.599979999983598e+000	 1.000000000000000e+001	 9.999853347907232e+000
0	 5.666649999985415e+000	 9.333302777352783e+000	 1.000556139146176e+001
0	 5.666649999985416e+000	 9.399973674588177e+000	 1.000452676516918e+001
0	 5.666649999985415e+000	 9.466644621844619e+000	 1.000360857163212e+001
0	 5.666649999985415e+000	 9.533315502450000e+000	 1.000280190904079e+001
0	 5.666649999985414e+000	 9.599986199732197e+000	 1.000210187797385e+001
0	 5.666649999985413e+000	 9.666656597019092e+000	 1.000150358139852e+001
0	 5.666649999985414e+000	 9.733326577638577e+000	 1.000100212467040e+001
0	 5.666649999985416e+000	 9.799996024918523e+000	 1.000059261553361e+001
0	 5.666649999985417e+000	 9.866664822186827e+000	 1.000027016412107e+001
0	 5.666649999985414e+000	 9.933332852771354e+000	 1.000002988295436e+001
0	 5.666649999985415e+000	 1.000000000000000e+001	 9.999866886944265e+000
0	 5.733319999987731e+000	 9.333302777352783e+000	 1.000553741726262e+001
0	 5.733319999987730e+000	 9.399973674588175e+000	 1.000450416854347e+001
0	 5.733319999987733e+000	 9.466644621844621e+000	 1.000358760500395e+001
0	 5.733319999987731e+000	 9.533315502449998e+000	 1.000278293851313e+001
0	 5.733319999987731e+000	 9.599986199732197e+000	 1.000208538333044e+001
0	 5.733319999987731e+000	 9.666656597019093e+000	 1.000149015610555e+001
0	 5.733319999987730e+000	 9.733326577638575e+000	 1.000099247587849e+001
0	 5.733319999987732e+000	 9.799996024918523e+000	 1.000058756407960e+001
0	 5.733319999987732e+000	 9.866664822186822e+000	 1.000027064452969e+001
0	 5.733319999987733e+000	 9.933332852771356e+000	 1.000003694344033e+001
0	 5.733319999987732e+000	 1.000000000000000e+001	 9.999881689413844e+000
0	 5.799989999990448e+000	 9.333302777352783e+000	 1.000550727559864e+001
0	 5.799989999990448e+000	 9.399973674588178e+000	 1.000447657243435e+001
0	 5.799989999990448e+000	 9.466644621844621e+000	 1.000356281273136e+001
0	 5.799989999990449e+000	 9.533315502450002e+000	 1.000276127768992e+001
0	 5.799989999990450e+000	 9.599986199732200e+000	 1.000206725090011e+001
0	 5.799989999990449e+000	 9.666656597019097e+000	 1.000147601834183e+001
0	 5.799989999990448e+000	 9.733326577638575e+000	 1.000098286838474e+001
0	 5.799989999990448e+000	 9.799996024918526e+000	 1.000058309178848e+001
0	 5.799989999990448e+000	 9.866664822186824e+000	 1.000027198170258e+001
0	 5.799989999990448e+000	 9.933332852771352e+000	 1.000004483366685e+001
0	 5.799989999990449e+000	 1.000000000000000e+001	 9.999896945611523e+000
0	 5.866659999993465e+000	 9.333302777352783e+000	 1.000547138476040e+001
0	 5.866659999993463e+000	 9.399973674588175e+000	 1.000444458854804e+001
0	 5.866659999993466e+000	 9.466644621844624e+000	 1.000353492966798e+001
0	 5.866659999993463e+000	 9.533315502450002e+000	 1.000273771430455e+001
0	 5.866659999993465e+000	 9.599986199732197e+000	 1.000204825102832e+001
0	 5.866659999993464e+000	 9.666656597019095e+000	 1.000146185079617e+001
0	 5.866659999993464e+000	 9.733326577638575e+000	 1.000097382695128e+001
0	 5.866659999993464e+000	 9.799996024918523e+000	 1.000057949522310e+001
0	 5.866659999993464e+000	 9.866664822186822e+000	 1.000027417372772e+001
0	 5.866659999993464e+000	 9.933332852771354e+000	 1.000005318296776e+001
0	 5.866659999993464e+000	 1.000000000000000e+001	 9.999911845832770e+000
0	 5.933329999996681e+000	 9.333302777352781e+000	 1.000543016303842e+001
0	 5.933329999996682e+000	 9.399973674588177e+000	 1.000440882859072e+001
0	 5.933329999996681e+000	 9.466644621844619e+000	 1.000350469066744e+001
0	 5.933329999996681e+000	 9.533315502450000e+000	 1.000271303609043e+001
0	 5.933329999996682e+000	 9.599986199732197e+000	 1.000202915406049e+001
0	 5.933329999996682e+000	 9.666656597019093e+000	 1.000144833615751e+001
0	 5.933329999996681e+000	 9.733326577638575e+000	 1.000096587634019e+001
0	 5.933329999996681e+000	 9.799996024918523e+000	 1.000057707094638e+001
0	 5.933329999996682e+000	 9.866664822186820e+000	 1.000027721869301e+001
0	 5.933329999996682e+000	 9.933332852771354e+000	 1.000006162067660e+001
0	 5.933329999996681e+000	 9.999999999999998e+000	 9.999925580373073e+000
0	 6.000000000000000e+000	 9.333302777352783e+000	 1.000538402872331e+001
0	 6.000000000000002e+000	 9.399973674588175e+000	 1.000436990426861e+001
0	 5.999999999999998e+000	 9.466644621844619e+000	 1.000347283058333e+001
0	 6.000000000000001e+000	 9.533315502450000e+000	 1.000268803078091e+001
0	 6.000000000000001e+000	 9.599986199732197e+000	 1.000201073034210e+001
0	 6.000000000000001e+000	 9.666656597019093e+000	 1.000143615711465e+001
0	 6.000000000000002e+000	 9.733326577638577e+000	 1.000095954131358e+001
0	 6.000000000000000e+000	 9.799996024918523e+000	 1.000057611552103e+001
0	 6.000000000000000e+000	 9.866664822186824e+000	 1.000028111468649e+001
0	 6.000000000000000e+000	 9.933332852771352e+000	 1.000006977612717e+001
0	 6.000000000000000e+000	 1.000000000000000e+001	 9.999937339528000e+000
0	 6.000000000000000e+000	 0.000000000000000e+000	 1.018425162608775e+001
0	 6.000000000000001e+000	 6.666714722864757e-002	 1.018224691619158e+001
0	 6.000000000000000e+000	 1.333351778131789e-001	 1.018064856458096e+001
0	 6.000000000000000e+000	 2.000039750814772e-001	 1.017941589694801e+001
0	 6.000000000000001e+000	 2.666734223614256e-001	 1.017850824122000e+001
0	 6.000000000000000e+000	 3.333434029809069e-001	 1.017788492755921e+001
0	 6.000000000000001e+000	 4.000138002678044e-001	 1.017750528836280e+001
0	 5.999999999999998e+000	 4.666844975500010e-001	 1.017732865826288e+001
0	 6.000000000000000e+000	 5.333553781553804e-001	 1.017731437412646e+001
0	 6.000000000000000e+000	 6.000263254118248e-001	 1.017742177505565e+001
0	 6.000000000000000e+000	 6.666972226472177e-001	 1.017761020238773e+001
0	 6.066670000003317e+000	 0.000000000000000e+000	 1.018010102079641e+001
0	 6.066670000003317e+000	 6.666714722864756e-002	 1.017862610283461e+001
0	 6.066670000003318e+000	 1.333351778131789e-001	 1.017737348686343e+001
0	 6.066670000003317e+000	 2.000039750814773e-001	 1.017632138338309e+001
0	 6.066670000003315e+000	 2.666734223614255e-001	 1.017544800549301e+001
0	 6.066670000003317e+000	 3.333434029809069e-001	 1.017473156889152e+001
0	 6.066670000003316e+000	 4.000138002678045e-001	 1.017415029187573e+001
0	 6.066670000003315e+000	 4.666844975500010e-001	 1.017368239534139e+001
0	 6.066670000003319e+000	 5.333553781553804e-001	 1.017330610278285e+001
0	 6.066670000003317e+000	 6.000263254118247e-001	 1.017299964029313e+001
0	 6.066670000003317e+000	 6.666972226472177e-001	 1.017274123656391e+001
0	 6.133340000006534e+000	 0.000000000000000e+000	 1.017427708875328e+001
0	 6.133340000006531e+000	 6.666714722864754e-002	 1.017333103531333e+001
0	 6.133340000006535e+000	 1.333351778131790e-001	 1.017246570852911e+001
0	 6.133340000006532e+000	 2.000039750814772e-001	 1.017167538018179e+001
0	 6.133340000006532e+000	 2.666734223614256e-001	 1.017095432509128e+001
0	 6.133340000006531e+000	 3.333434029809068e-001	 1.017029682111591e+001
0	 6.133340000006532e+000	 4.000138002678043e-001	 1.016969714915208e+001
0	 6.133340000006533e+000	 4.666844975500012e-001	 1.016914959313419e+001
0	 6.133340000006534e+000	 5.333553781553803e-001	 1.016864844003442e+001
0	 6.133340000006532e+000	 6.000263254118246e-001	 1.016818797986274e+001
0	 6.133340000006532e+000	 6.666972226472175e-001	 1.016776250566700e+001
0	 6.200010000009550e+000	 0.000000000000000e+000	 1.016712501523159e+001
0	 6.200010000009550e+000	 6.666714722864758e-002	 1.016668255237573e+001
0	 6.200010000009550e+000	 1.333351778131789e-001	 1.016621879803973e+001
0	 6.200010000009549e+000	 2.000039750814772e-001	 1.016574126172402e+001
0	 6.200010000009550e+000	 2.666734223614256e-001	 1.016525745645204e+001
0	 6.200010000009550e+000	 3.333434029809069e-001	 1.016477489876995e+001
0	 6.200010000009551e+000	 4.000138002678044e-001	 1.016430110874619e+001
0	 6.200010000009549e+000	 4.666844975500010e-001	 1.016384360997126e+001
0	 6.200010000009550e+000	 5.333553781553801e-001	 1.016340992955758e+001
0	 6.200010000009551e+000	 6.000263254118248e-001	 1.016300759813939e+001
0	 6.200010000009549e+000	 6.666972226472177e-001	 1.016264414987282e+001
0	 6.266680000012268e+000	 0.000000000000000e+000	 1.015898998550461e+001
0	 6.266680000012266e+000	 6.666714722864753e-002	 1.015900149276977e+001
0	 6.266680000012265e+000	 1.333351778131789e-001	 1.015892632385707e+001
0	 6.266680000012266e+000	 2.000039750814772e-001	 1.015878240238974e+001
0	 6.266680000012265e+000	 2.666734223614255e-001	 1.015858765601254e+001
0	 6.266680000012265e+000	 3.333434029809068e-001	 1.015836001639128e+001
0	 6.266680000012268e+000	 4.000138002678045e-001	 1.015811741921237e+001
0	 6.266680000012266e+000	 4.666844975500011e-001	 1.015787780418257e+001
0	 6.266680000012268e+000	 5.333553781553803e-001	 1.015765911502878e+001
0	 6.266680000012265e+000	 6.000263254118247e-001	 1.015747929949796e+001
0	 6.266680000012268e+000	 6.666972226472177e-001	 1.015735630935714e+001
0	 6.333350000014583e+000	 0.000000000000000e+000	 1.015021718484560e+001
0	 6.333350000014582e+000	 6.666714722864756e-002	 1.015060869524345e+001
0	 6.333350000014583e+000	 1.333351778131790e-001	 1.015088185444286e+001
0	 6.333350000014582e+000	 2.000039750814773e-001	 1.015106217655888e+001
0	 6.333350000014582e+000	 2.666734223614257e-001	 1.015117518021000e+001
0	 6.333350000014582e+000	 3.333434029809068e-001	 1.015124638851748e+001
0	 6.333350000014582e+000	 4.000138002678044e-001	 1.015130132910495e+001
0	 6.333350000014582e+000	 4.666844975500012e-001	 1.015136553409810e+001
0	 6.333350000014582e+000	 5.333553781553800e-001	 1.015146454012446e+001
0	 6.333350000014583e+000	 6.000263254118248e-001	 1.015162388831333e+001
0	 6.333350000014584e+000	 6.666972226472179e-001	 1.015186912429577e+001
0	 6.400020000016400e+000	 0.000000000000000e+000	 1.014115179852785e+001
0	 6.400020000016401e+000	 6.666714722864756e-002	 1.014182499854477e+001
0	 6.400020000016398e+000	 1.333351778131789e-001	 1.014237895825885e+001
0	 6.400020000016401e+000	 2.000039750814772e-001	 1.014284395861142e+001
0	 6.400020000016400e+000	 2.666734223614256e-001	 1.014325028548167e+001
0	 6.400020000016399e+000	 3.333434029809069e-001	 1.014362822968615e+001
0	 6.400020000016401e+000	 4.000138002678044e-001	 1.014400808697823e+001
0	 6.400020000016400e+000	 4.666844975500012e-001	 1.014442015804780e+001
0	 6.400020000016396e+000	 5.333553781553801e-001	 1.014489474852105e+001
0	 6.400020000016400e+000	 6.000263254118248e-001	 1.014546216896039e+001
0	 6.400020000016400e+000	 6.666972226472179e-001	 1.014615273486449e+001
0	 6.466690000017615e+000	 0.000000000000000e+000	 1.013213901182464e+001
0	 6.466690000017613e+000	 6.666714722864756e-002	 1.013297124142168e+001
0	 6.466690000017615e+000	 1.333351778131790e-001	 1.013371120376680e+001
0	 6.466690000017614e+000	 2.000039750814772e-001	 1.013439112292726e+001
0	 6.466690000017617e+000	 2.666734223614255e-001	 1.013504322826477e+001
0	 6.466690000017617e+000	 3.333434029809070e-001	 1.013569975443488e+001
0	 6.466690000017615e+000	 4.000138002678044e-001	 1.013639294138654e+001
0	 6.466690000017615e+000	 4.666844975500011e-001	 1.013715503436166e+001
0	 6.466690000017615e+000	 5.333553781553801e-001	 1.013801828389498e+001
0	 6.466690000017616e+000	 6.000263254118248e-001	 1.013901494581402e+001
0	 6.466690000017614e+000	 6.666972226472175e-001	 1.014017728123907e+001
0	 6.533360000018132e+000	 0.000000000000000e+000	 1.012352401000924e+001
0	 6.533360000018130e+000	 6.666714722864756e-002	 1.012436826262221e+001
0	 6.533360000018132e+000	 1.333351778131789e-001	 1.012517215942849e+001
0	 6.533360000018132e+000	 2.000039750814772e-001	 1.012596704388638e+001
0	 6.533360000018133e+000	 2.666734223614256e-001	 1.012678426499653e+001
0	 6.533360000018132e+000	 3.333434029809069e-001	 1.012765517730129e+001
0	 6.533360000018131e+000	 4.000138002678044e-001	 1.012861114088418e+001
0	 6.533360000018132e+000	 4.666844975500012e-001	 1.012968352136962e+001
0	 6.533360000018133e+000	 5.333553781553801e-001	 1.013090368992268e+001
0	 6.533360000018131e+000	 6.000263254118248e-001	 1.013230302324909e+001
0	 6.533360000018131e+000	 6.666972226472177e-001	 1.013391290359529e+001
0	 6.600030000017848e+000	 0.000000000000000e+000	 1.011565197835495e+001
0	 6.600030000017849e+000	 6.666714722864757e-002	 1.011633690089438e+001
0	 6.600030000017847e+000	 1.333351778131789e-001	 1.011705539370566e+001
0	 6.600030000017847e+000	 2.000039750814772e-001	 1.011783509586870e+001
0	 6.600030000017848e+000	 2.666734223614255e-001	 1.011870365211419e+001
0	 6.600030000017847e+000	 3.333434029809069e-001	 1.011968871282295e+001
0	 6.600030000017848e+000	 4.000138002678044e-001	 1.012081793402548e+001
0	 6.600030000017848e+000	 4.666844975500012e-001	 1.012211897740165e+001
0	 6.600030000017847e+000	 5.333553781553803e-001	 1.012361951028057e+001
0	 6.600030000017847e+000	 6.000263254118248e-001	 1.012534720564048e+001
0	 6.600030000017847e+000	 6.666972226472178e-001	 1.012732974210895e+001
0	 6.666700000016666e+000	 0.000000000000000e+000	 1.010886810213508e+001
0	 6.666700000016668e+000	 6.666714722864757e-002	 1.010919799498615e+001
0	 6.666700000016666e+000	 1.333351778131790e-001	 1.010965447506008e+001
0	 6.666700000016665e+000	 2.000039750814772e-001	 1.011025865325420e+001
0	 6.666700000016667e+000	 2.666734223614256e-001	 1.011103164605499e+001
0	 6.666700000016667e+000	 3.333434029809069e-001	 1.011199457553745e+001
0	 6.666700000016666e+000	 4.000138002678044e-001	 1.011316856936473e+001
0	 6.666700000016665e+000	 4.666844975500010e-001	 1.011457476078772e+001
0	 6.666700000016668e+000	 5.333553781553803e-001	 1.011623428864507e+001
0	 6.666700000016667e+000	 6.000263254118248e-001	 1.011816829736304e+001
0	 6.666700000016666e+000	 6.666972226472178e-001	 1.012039793695577e+001
0	 6.000000000000000e+000	 6.666972226472177e-001	 1.017761020238773e+001
0	 6.000000000000000e+000	 7.333579753122046e-001	 1.017802512481958e+001
0	 6.000000000000000e+000	 8.000185779984417e-001	 1.017884183698202e+001
0	 6.000000000000002e+000	 8.666790473703454e-001	 1.018006432322851e+001
0	 6.000000000000000e+000	 9.333394000923323e-001	 1.018169656705708e+001
0	 5.999999999999999e+000	 9.999996528288190e-001	 1.018374255111035e+001
0	 6.000000000000000e+000	 1.066659822244222e+000	 1.018620625717552e+001
0	 6.000000000000001e+000	 1.133319925002959e+000	 1.018909166618439e+001
0	 6.000000000000000e+000	 1.199979977769445e+000	 1.019240275821332e+001
0	 6.000000000000000e+000	 1.266639997208098e+000	 1.019614351248326e+001
0	 6.000000000000000e+000	 1.333299999983334e+000	 1.020031790735976e+001
0	 6.066670000003317e+000	 6.666972226472177e-001	 1.017274123656391e+001
0	 6.066670000003316e+000	 7.333579753122046e-001	 1.017270785080481e+001
0	 6.066670000003316e+000	 8.000185779984416e-001	 1.017309803925928e+001
0	 6.066670000003316e+000	 8.666790473703451e-001	 1.017392253613419e+001
0	 6.066670000003317e+000	 9.333394000923321e-001	 1.017519207468537e+001
0	 6.066670000003318e+000	 9.999996528288190e-001	 1.017691738721772e+001
0	 6.066670000003317e+000	 1.066659822244222e+000	 1.017910920508516e+001
0	 6.066670000003319e+000	 1.133319925002959e+000	 1.018177825869060e+001
0	 6.066670000003316e+000	 1.199979977769445e+000	 1.018493527748596e+001
0	 6.066670000003317e+000	 1.266639997208098e+000	 1.018859098997219e+001
0	 6.066670000003319e+000	 1.333299999983334e+000	 1.019275612369925e+001
0	 6.133340000006532e+000	 6.666972226472175e-001	 1.016776250566700e+001
0	 6.133340000006531e+000	 7.333579753122045e-001	 1.016754991345802e+001
0	 6.133340000006534e+000	 8.000185779984415e-001	 1.016774262196856e+001
0	 6.133340000006532e+000	 8.666790473703452e-001	 1.016835689431578e+001
0	 6.133340000006530e+000	 9.333394000923321e-001	 1.016940899264329e+001
0	 6.133340000006535e+000	 9.999996528288190e-001	 1.017091517812126e+001
0	 6.133340000006534e+000	 1.066659822244222e+000	 1.017289171094631e+001
0	 6.133340000006535e+000	 1.133319925002959e+000	 1.017535485034161e+001
0	 6.133340000006535e+000	 1.199979977769445e+000	 1.017832085455676e+001
0	 6.133340000006533e+000	 1.266639997208098e+000	 1.018180598086792e+001
0	 6.133340000006530e+000	 1.333299999983334e+000	 1.018582648557772e+001
0	 6.200010000009549e+000	 6.666972226472177e-001	 1.016264414987282e+001
0	 6.200010000009550e+000	 7.333579753122048e-001	 1.016247359706636e+001
0	 6.200010000009550e+000	 8.000185779984417e-001	 1.016265853963356e+001
0	 6.200010000009550e+000	 8.666790473703455e-001	 1.016321954874255e+001
0	 6.200010000009551e+000	 9.333394000923322e-001	 1.016417719462578e+001
0	 6.200010000009550e+000	 9.999996528288186e-001	 1.016555204657989e+001
0	 6.200010000009550e+000	 1.066659822244222e+000	 1.016736467296582e+001
0	 6.200010000009550e+000	 1.133319925002959e+000	 1.016963564120870e+001
0	 6.200010000009549e+000	 1.199979977769445e+000	 1.017238551779791e+001
0	 6.200010000009551e+000	 1.266639997208098e+000	 1.017563486828710e+001
0	 6.200010000009550e+000	 1.333299999983334e+000	 1.017940425729412e+001
0	 6.266680000012268e+000	 6.666972226472177e-001	 1.015735630935714e+001
0	 6.266680000012268e+000	 7.333579753122048e-001	 1.015740118591696e+001
0	 6.266680000012267e+000	 8.000185779984417e-001	 1.015772874677788e+001
0	 6.266680000012267e+000	 8.666790473703454e-001	 1.015836265038372e+001
0	 6.266680000012265e+000	 9.333394000923319e-001	 1.015932655432772e+001
0	 6.266680000012265e+000	 9.999996528288190e-001	 1.016064411535260e+001
0	 6.266680000012266e+000	 1.066659822244222e+000	 1.016233898935053e+001
0	 6.266680000012266e+000	 1.133319925002959e+000	 1.016443483136316e+001
0	 6.266680000012266e+000	 1.199979977769445e+000	 1.016695529558157e+001
0	 6.266680000012266e+000	 1.266639997208098e+000	 1.016992403534632e+001
0	 6.266680000012264e+000	 1.333299999983334e+000	 1.017336470314743e+001
0	 6.333350000014584e+000	 6.666972226472179e-001	 1.015186912429577e+001
0	 6.333350000014582e+000	 7.333579753122047e-001	 1.015225496429694e+001
0	 6.333350000014582e+000	 8.000185779984416e-001	 1.015283619792525e+001
0	 6.333350000014582e+000	 8.666790473703452e-001	 1.015363835020855e+001
0	 6.333350000014582e+000	 9.333394000923322e-001	 1.015468694544405e+001
0	 6.333350000014582e+000	 9.999996528288190e-001	 1.015600750719832e+001
0	 6.333350000014582e+000	 1.066659822244222e+000	 1.015762555830729e+001
0	 6.333350000014585e+000	 1.133319925002959e+000	 1.015956662087627e+001
0	 6.333350000014584e+000	 1.199979977769445e+000	 1.016185621627990e+001
0	 6.333350000014583e+000	 1.266639997208098e+000	 1.016451986516222e+001
0	 6.333350000014582e+000	 1.333299999983334e+000	 1.016758308743660e+001
0	 6.400020000016400e+000	 6.666972226472179e-001	 1.014615273486449e+001
0	 6.400020000016400e+000	 7.333579753122049e-001	 1.014695721649344e+001
0	 6.400020000016401e+000	 8.000185779984418e-001	 1.014786384759930e+001
0	 6.400020000016400e+000	 8.666790473703454e-001	 1.014889879918626e+001
0	 6.400020000016401e+000	 9.333394000923323e-001	 1.015008824166965e+001
0	 6.400020000016400e+000	 9.999996528288190e-001	 1.015145834487599e+001
0	 6.400020000016400e+000	 1.066659822244222e+000	 1.015303527804294e+001
0	 6.400020000016401e+000	 1.133319925002959e+000	 1.015484520981931e+001
0	 6.400020000016400e+000	 1.199979977769445e+000	 1.015691430826507e+001
0	 6.400020000016399e+000	 1.266639997208098e+000	 1.015926874085139e+001
0	 6.400020000016399e+000	 1.333299999983334e+000	 1.016193467446056e+001
0	 6.466690000017614e+000	 6.666972226472175e-001	 1.014017728123907e+001
0	 6.466690000017617e+000	 7.333579753122049e-001	 1.014143022679359e+001
0	 6.466690000017615e+000	 8.000185779984416e-001	 1.014269465032369e+001
0	 6.466690000017614e+000	 8.666790473703451e-001	 1.014399614828608e+001
0	 6.466690000017615e+000	 9.333394000923321e-001	 1.014536031669944e+001
0	 6.466690000017617e+000	 9.999996528288190e-001	 1.014681275114457e+001
0	 6.466690000017616e+000	 1.066659822244222e+000	 1.014837904676431e+001
0	 6.466690000017616e+000	 1.133319925002959e+000	 1.015008479826353e+001
0	 6.466690000017617e+000	 1.199979977769445e+000	 1.015195559990923e+001
0	 6.466690000017614e+000	 1.266639997208098e+000	 1.015401704553044e+001
0	 6.466690000017616e+000	 1.333299999983334e+000	 1.015629472851828e+001
0	 6.533360000018131e+000	 6.666972226472177e-001	 1.013391290359529e+001
0	 6.533360000018132e+000	 7.333579753122047e-001	 1.013559627948449e+001
0	 6.533360000018133e+000	 8.000185779984416e-001	 1.013721156062210e+001
0	 6.533360000018130e+000	 8.666790473703452e-001	 1.013878254847725e+001
0	 6.533360000018132e+000	 9.333394000923322e-001	 1.014033304422832e+001
0	 6.533360000018133e+000	 9.999996528288193e-001	 1.014188684876300e+001
0	 6.533360000018132e+000	 1.066659822244222e+000	 1.014346776267822e+001
0	 6.533360000018131e+000	 1.133319925002959e+000	 1.014509958628022e+001
0	 6.533360000018132e+000	 1.199979977769445e+000	 1.014680611958454e+001
0	 6.533360000018132e+000	 1.266639997208098e+000	 1.014861116231599e+001
0	 6.533360000018132e+000	 1.333299999983334e+000	 1.015053851390870e+001
0	 6.600030000017847e+000	 6.666972226472178e-001	 1.012732974210895e+001
0	 6.600030000017847e+000	 7.333579753122049e-001	 1.012937765885327e+001
0	 6.600030000017847e+000	 8.000185779984416e-001	 1.013129753301815e+001
0	 6.600030000017847e+000	 8.666790473703452e-001	 1.013311015072898e+001
0	 6.600030000017847e+000	 9.333394000923322e-001	 1.013483629795118e+001
0	 6.600030000017849e+000	 9.999996528288190e-001	 1.013649676049020e+001
0	 6.600030000017849e+000	 1.066659822244222e+000	 1.013811232399152e+001
0	 6.600030000017849e+000	 1.133319925002959e+000	 1.013970377394066e+001
0	 6.600030000017847e+000	 1.199979977769445e+000	 1.014129189566316e+001
0	 6.600030000017848e+000	 1.266639997208098e+000	 1.014289747432464e+001
0	 6.600030000017847e+000	 1.333299999983334e+000	 1.014454129493077e+001
0	 6.666700000016666e+000	 6.666972226472178e-001	 1.012039793695577e+001
0	 6.666700000016667e+000	 7.333579753122047e-001	 1.012269664918706e+001
0	 6.666700000016665e+000	 8.000185779984416e-001	 1.012483552203551e+001
0	 6.666700000016667e+000	 8.666790473703454e-001	 1.012683110601051e+001
0	 6.666700000016666e+000	 9.333394000923321e-001	 1.012869995156293e+001
0	 6.666700000016667e+000	 9.999996528288189e-001	 1.013045860908513e+001
0	 6.666700000016666e+000	 1.066659822244222e+000	 1.013212362891104e+001
0	 6.666700000016666e+000	 1.133319925002959e+000	 1.013371156131608e+001
0	 6.666700000016666e+000	 1.199979977769445e+000	 1.013523895651724e+001
0	 6.666700000016665e+000	 1.266639997208098e+000	 1.013672236467300e+001
0	 6.666700000016665e+000	 1.333299999983334e+000	 1.013817833588345e+001
0	 6.000000000000000e+000	 1.333299999983334e+000	 1.020031790735976e+001
0	 5.999999999999999e+000	 1.399969999982150e+000	 1.020454591955632e+001
0	 6.000000000000000e+000	 1.466639999981866e+000	 1.020845492439188e+001
0	 6.000000000000000e+000	 1.533309999982383e+000	 1.021206197433972e+001
0	 6.000000000000001e+000	 1.599979999983600e+000	 1.021538412187317e+001
0	 6.000000000000000e+000	 1.666649999985416e+000	 1.021843841946549e+001
0	 6.000000000000002e+000	 1.733319999987733e+000	 1.022124191958997e+001
0	 6.000000000000000e+000	 1.799989999990450e+000	 1.022381167471991e+001
0	 5.999999999999998e+000	 1.866659999993466e+000	 1.022616473732860e+001
0	 6.000000000000000e+000	 1.933329999996683e+000	 1.022831815988930e+001
0	 5.999999999999999e+000	 2.000000000000000e+000	 1.023028899487532e+001
0	 6.066670000003319e+000	 1.333299999983334e+000	 1.019275612369925e+001
0	 6.066670000003316e+000	 1.399969999982150e+000	 1.019700554592825e+001
0	 6.066670000003318e+000	 1.466639999981867e+000	 1.020091706041882e+001
0	 6.066670000003318e+000	 1.533309999982383e+000	 1.020450778949351e+001
0	 6.066670000003317e+000	 1.599979999983599e+000	 1.020779485547486e+001
0	 6.066670000003314e+000	 1.666649999985416e+000	 1.021079538068541e+001
0	 6.066670000003318e+000	 1.733319999987733e+000	 1.021352648744770e+001
0	 6.066670000003318e+000	 1.799989999990450e+000	 1.021600529808425e+001
0	 6.066670000003316e+000	 1.866659999993467e+000	 1.021824893491763e+001
0	 6.066670000003319e+000	 1.933329999996683e+000	 1.022027452027035e+001
0	 6.066670000003317e+000	 2.000000000000000e+000	 1.022209917646494e+001
0	 6.133340000006530e+000	 1.333299999983334e+000	 1.018582648557772e+001
0	 6.133340000006534e+000	 1.399969999982150e+000	 1.018994843743709e+001
0	 6.133340000006535e+000	 1.466639999981866e+000	 1.019373712311856e+001
0	 6.133340000006532e+000	 1.533309999982383e+000	 1.019720955739579e+001
0	 6.133340000006532e+000	 1.599979999983599e+000	 1.020038275504246e+001
0	 6.133340000006535e+000	 1.666649999985416e+000	 1.020327373083222e+001
0	 6.133340000006533e+000	 1.733319999987733e+000	 1.020589949953874e+001
0	 6.133340000006532e+000	 1.799989999990450e+000	 1.020827707593567e+001
0	 6.133340000006534e+000	 1.866659999993467e+000	 1.021042347479667e+001
0	 6.133340000006535e+000	 1.933329999996683e+000	 1.021235571089540e+001
0	 6.133340000006534e+000	 2.000000000000000e+000	 1.021409079900550e+001
0	 6.200010000009550e+000	 1.333299999983334e+000	 1.017940425729412e+001
0	 6.200010000009550e+000	 1.399969999982150e+000	 1.018328079586583e+001
0	 6.200010000009550e+000	 1.466639999981866e+000	 1.018684782798948e+001
0	 6.200010000009551e+000	 1.533309999982383e+000	 1.019012208349173e+001
0	 6.200010000009549e+000	 1.599979999983599e+000	 1.019312029219925e+001
0	 6.200010000009550e+000	 1.666649999985416e+000	 1.019585918393868e+001
0	 6.200010000009550e+000	 1.733319999987733e+000	 1.019835548853670e+001
0	 6.200010000009550e+000	 1.799989999990450e+000	 1.020062593581995e+001
0	 6.200010000009550e+000	 1.866659999993467e+000	 1.020268725561507e+001
0	 6.200010000009549e+000	 1.933329999996683e+000	 1.020455617774874e+001
0	 6.200010000009550e+000	 2.000000000000000e+000	 1.020624943204758e+001
0	 6.266680000012264e+000	 1.333299999983334e+000	 1.017336470314743e+001
0	 6.266680000012269e+000	 1.399969999982150e+000	 1.017690882299746e+001
0	 6.266680000012268e+000	 1.466639999981866e+000	 1.018018189052995e+001
0	 6.266680000012267e+000	 1.533309999982383e+000	 1.018320017322645e+001
0	 6.266680000012265e+000	 1.599979999983599e+000	 1.018597993856846e+001
0	 6.266680000012267e+000	 1.666649999985416e+000	 1.018853745403752e+001
0	 6.266680000012267e+000	 1.733319999987733e+000	 1.019088898711515e+001
0	 6.266680000012267e+000	 1.799989999990450e+000	 1.019305080528288e+001
0	 6.266680000012267e+000	 1.866659999993466e+000	 1.019503917602222e+001
0	 6.266680000012268e+000	 1.933329999996683e+000	 1.019687036681468e+001
0	 6.266680000012268e+000	 2.000000000000000e+000	 1.019856064514179e+001
0	 6.333350000014582e+000	 1.333299999983334e+000	 1.016758308743660e+001
0	 6.333350000014584e+000	 1.399969999982150e+000	 1.017073872061497e+001
0	 6.333350000014583e+000	 1.466639999981867e+000	 1.017367202623837e+001
0	 6.333350000014582e+000	 1.533309999982383e+000	 1.017639863204509e+001
0	 6.333350000014583e+000	 1.599979999983599e+000	 1.017893416577338e+001
0	 6.333350000014582e+000	 1.666649999985416e+000	 1.018129425516150e+001
0	 6.333350000014583e+000	 1.733319999987733e+000	 1.018349452794771e+001
0	 6.333350000014583e+000	 1.799989999990449e+000	 1.018555061187027e+001
0	 6.333350000014583e+000	 1.866659999993466e+000	 1.018747813466746e+001
0	 6.333350000014583e+000	 1.933329999996683e+000	 1.018929272407752e+001
0	 6.333350000014583e+000	 2.000000000000000e+000	 1.019101000783872e+001
0	 6.400020000016399e+000	 1.333299999983334e+000	 1.016193467446056e+001
0	 6.400020000016400e+000	 1.399969999982150e+000	 1.016467669050135e+001
0	 6.400020000016400e+000	 1.466639999981866e+000	 1.016725095061314e+001
0	 6.400020000016397e+000	 1.533309999982382e+000	 1.016967226539281e+001
0	 6.400020000016400e+000	 1.599979999983600e+000	 1.017195544543725e+001
0	 6.400020000016399e+000	 1.666649999985416e+000	 1.017411530134333e+001
0	 6.400020000016400e+000	 1.733319999987733e+000	 1.017616664370793e+001
0	 6.400020000016399e+000	 1.799989999990449e+000	 1.017812428312791e+001
0	 6.400020000016399e+000	 1.866659999993466e+000	 1.018000303020017e+001
0	 6.400020000016398e+000	 1.933329999996683e+000	 1.018181769552156e+001
0	 6.400020000016399e+000	 2.000000000000000e+000	 1.018358308968895e+001
0	 6.466690000017616e+000	 1.333299999983334e+000	 1.015629472851828e+001
0	 6.466690000017616e+000	 1.399969999982150e+000	 1.015862893443956e+001
0	 6.466690000017615e+000	 1.466639999981867e+000	 1.016085137915260e+001
0	 6.466690000017616e+000	 1.533309999982383e+000	 1.016297587871473e+001
0	 6.466690000017615e+000	 1.599979999983599e+000	 1.016501624918334e+001
0	 6.466690000017615e+000	 1.666649999985416e+000	 1.016698630661578e+001
0	 6.466690000017618e+000	 1.733319999987733e+000	 1.016889986706942e+001
0	 6.466690000017617e+000	 1.799989999990450e+000	 1.017077074660160e+001
0	 6.466690000017615e+000	 1.866659999993466e+000	 1.017261276126970e+001
0	 6.466690000017616e+000	 1.933329999996683e+000	 1.017443972713107e+001
0	 6.466690000017616e+000	 2.000000000000000e+000	 1.017626546024308e+001
0	 6.533360000018132e+000	 1.333299999983334e+000	 1.015053851390870e+001
0	 6.533360000018130e+000	 1.399969999982150e+000	 1.015250165421263e+001
0	 6.533360000018133e+000	 1.466639999981867e+000	 1.015440602735515e+001
0	 6.533360000018131e+000	 1.533309999982383e+000	 1.015626427745601e+001
0	 6.533360000018132e+000	 1.599979999983600e+000	 1.015808904863492e+001
0	 6.533360000018132e+000	 1.666649999985416e+000	 1.015989298501159e+001
0	 6.533360000018131e+000	 1.733319999987733e+000	 1.016168873070575e+001
0	 6.533360000018131e+000	 1.799989999990449e+000	 1.016348892983712e+001
0	 6.533360000018131e+000	 1.866659999993466e+000	 1.016530622652542e+001
0	 6.533360000018131e+000	 1.933329999996683e+000	 1.016715326489038e+001
0	 6.533360000018132e+000	 2.000000000000000e+000	 1.016904268905170e+001
0	 6.600030000017847e+000	 1.333299999983334e+000	 1.014454129493078e+001
0	 6.600030000017847e+000	 1.399969999982150e+000	 1.014620105160350e+001
0	 6.600030000017849e+000	 1.466639999981867e+000	 1.014784761071918e+001
0	 6.600030000017848e+000	 1.533309999982383e+000	 1.014949226706177e+001
0	 6.600030000017848e+000	 1.599979999983599e+000	 1.015114631541522e+001
0	 6.600030000017847e+000	 1.666649999985416e+000	 1.015282105056349e+001
0	 6.600030000017850e+000	 1.733319999987733e+000	 1.015452776729051e+001
0	 6.600030000017847e+000	 1.799989999990449e+000	 1.015627776038027e+001
0	 6.600030000017849e+000	 1.866659999993467e+000	 1.015808232461670e+001
0	 6.600030000017848e+000	 1.933329999996683e+000	 1.015995275478376e+001
0	 6.600030000017847e+000	 2.000000000000000e+000	 1.016190034566540e+001
0	 6.666700000016665e+000	 1.333299999983334e+000	 1.013817833588345e+001
0	 6.666700000016666e+000	 1.399969999982150e+000	 1.013963332839518e+001
0	 6.666700000016666e+000	 1.466639999981866e+000	 1.014110884474306e+001
0	 6.666700000016667e+000	 1.533309999982383e+000	 1.014261465297715e+001
0	 6.666700000016667e+000	 1.599979999983599e+000	 1.014416052114752e+001
0	 6.666700000016665e+000	 1.666649999985416e+000	 1.014575621730421e+001
0	 6.666700000016667e+000	 1.733319999987733e+000	 1.014741150949731e+001
0	 6.666700000016665e+000	 1.799989999990449e+000	 1.014913616577685e+001
0	 6.666700000016665e+000	 1.866659999993466e+000	 1.015093995419289e+001
0	 6.666700000016666e+000	 1.933329999996683e+000	 1.015283264279551e+001
0	 6.666700000016668e+000	 2.000000000000000e+000	 1.015482399963477e+001
0	 5.999999999999999e+000	 2.000000000000000e+000	 1.023028899487532e+001
0	 6.000000000000000e+000	 2.066670000003318e+000	 1.023209232737746e+001
0	 5.999999999999999e+000	 2.133340000006534e+000	 1.023374289228960e+001
0	 6.000000000000001e+000	 2.200010000009551e+000	 1.023525721678966e+001
0	 6.000000000000002e+000	 2.266680000012268e+000	 1.023665182805553e+001
0	 6.000000000000000e+000	 2.333350000014584e+000	 1.023794325326511e+001
0	 6.000000000000000e+000	 2.400020000016401e+000	 1.023914801959629e+001
0	 6.000000000000000e+000	 2.466690000017617e+000	 1.024028265422696e+001
0	 6.000000000000001e+000	 2.533360000018133e+000	 1.024136368433501e+001
0	 5.999999999999998e+000	 2.600030000017850e+000	 1.024240763709834e+001
0	 6.000000000000000e+000	 2.666700000016666e+000	 1.024343103969484e+001
0	 6.066670000003317e+000	 2.000000000000000e+000	 1.022209917646494e+001
0	 6.066670000003316e+000	 2.066670000003317e+000	 1.022377435080884e+001
0	 6.066670000003318e+000	 2.133340000006534e+000	 1.022534741581960e+001
0	 6.066670000003319e+000	 2.200010000009550e+000	 1.022682938163487e+001
0	 6.066670000003318e+000	 2.266680000012268e+000	 1.022823125839234e+001
0	 6.066670000003313e+000	 2.333350000014583e+000	 1.022956405622968e+001
0	 6.066670000003317e+000	 2.400020000016401e+000	 1.023083878528457e+001
0	 6.066670000003317e+000	 2.466690000017616e+000	 1.023206645569468e+001
0	 6.066670000003316e+000	 2.533360000018133e+000	 1.023325807759768e+001
0	 6.066670000003317e+000	 2.600030000017851e+000	 1.023442466113122e+001
0	 6.066670000003318e+000	 2.666700000016666e+000	 1.023557721643299e+001
0	 6.133340000006534e+000	 2.000000000000000e+000	 1.021409079900550e+001
0	 6.133340000006535e+000	 2.066670000003317e+000	 1.021569693259694e+001
0	 6.133340000006534e+000	 2.133340000006535e+000	 1.021723522268366e+001
0	 6.133340000006531e+000	 2.200010000009551e+000	 1.021871206035523e+001
0	 6.133340000006531e+000	 2.266680000012267e+000	 1.022013383670121e+001
0	 6.133340000006535e+000	 2.333350000014585e+000	 1.022150694281118e+001
0	 6.133340000006533e+000	 2.400020000016401e+000	 1.022283776977472e+001
0	 6.133340000006533e+000	 2.466690000017617e+000	 1.022413270868140e+001
0	 6.133340000006535e+000	 2.533360000018134e+000	 1.022539815062077e+001
0	 6.133340000006532e+000	 2.600030000017850e+000	 1.022664048668243e+001
0	 6.133340000006530e+000	 2.666700000016666e+000	 1.022786610795591e+001
0	 6.200010000009550e+000	 2.000000000000000e+000	 1.020624943204758e+001
0	 6.200010000009549e+000	 2.066670000003317e+000	 1.020783562149727e+001
0	 6.200010000009550e+000	 2.133340000006534e+000	 1.020937397588810e+001
0	 6.200010000009550e+000	 2.200010000009550e+000	 1.021086716525367e+001
0	 6.200010000009550e+000	 2.266680000012268e+000	 1.021231785962758e+001
0	 6.200010000009550e+000	 2.333350000014584e+000	 1.021372872904341e+001
0	 6.200010000009548e+000	 2.400020000016400e+000	 1.021510244353477e+001
0	 6.200010000009550e+000	 2.466690000017618e+000	 1.021644167313524e+001
0	 6.200010000009550e+000	 2.533360000018134e+000	 1.021774908787842e+001
0	 6.200010000009550e+000	 2.600030000017851e+000	 1.021902735779789e+001
0	 6.200010000009550e+000	 2.666700000016666e+000	 1.022027915292725e+001
0	 6.266680000012268e+000	 2.000000000000000e+000	 1.019856064514179e+001
0	 6.266680000012266e+000	 2.066670000003317e+000	 1.020016596626532e+001
0	 6.266680000012266e+000	 2.133340000006534e+000	 1.020173133843918e+001
0	 6.266680000012267e+000	 2.200010000009550e+000	 1.020325660863311e+001
0	 6.266680000012266e+000	 2.266680000012267e+000	 1.020474162381685e+001
0	 6.266680000012267e+000	 2.333350000014584e+000	 1.020618623096015e+001
0	 6.266680000012267e+000	 2.400020000016401e+000	 1.020759027703273e+001
0	 6.266680000012265e+000	 2.466690000017617e+000	 1.020895360900433e+001
0	 6.266680000012268e+000	 2.533360000018133e+000	 1.021027607384469e+001
0	 6.266680000012268e+000	 2.600030000017851e+000	 1.021155751852353e+001
0	 6.266680000012267e+000	 2.666700000016667e+000	 1.021279779001060e+001
0	 6.333350000014583e+000	 2.000000000000000e+000	 1.019101000783872e+001
0	 6.333350000014582e+000	 2.066670000003317e+000	 1.019266351565658e+001
0	 6.333350000014583e+000	 2.133340000006534e+000	 1.019427497334316e+001
0	 6.333350000014583e+000	 2.200010000009551e+000	 1.019584230279645e+001
0	 6.333350000014583e+000	 2.266680000012267e+000	 1.019736342591446e+001
0	 6.333350000014582e+000	 2.333350000014584e+000	 1.019883626459519e+001
0	 6.333350000014583e+000	 2.400020000016401e+000	 1.020025874073663e+001
0	 6.333350000014583e+000	 2.466690000017617e+000	 1.020162877623680e+001
0	 6.333350000014582e+000	 2.533360000018133e+000	 1.020294429299369e+001
0	 6.333350000014584e+000	 2.600030000017851e+000	 1.020420321290528e+001
0	 6.333350000014584e+000	 2.666700000016667e+000	 1.020540345786960e+001
0	 6.400020000016399e+000	 2.000000000000000e+000	 1.018358308968895e+001
0	 6.400020000016398e+000	 2.066670000003317e+000	 1.018530381842658e+001
0	 6.400020000016399e+000	 2.133340000006534e+000	 1.018697254360634e+001
0	 6.400020000016400e+000	 2.200010000009550e+000	 1.018858616004662e+001
0	 6.400020000016399e+000	 2.266680000012267e+000	 1.019014156256582e+001
0	 6.400020000016397e+000	 2.333350000014584e+000	 1.019163564598232e+001
0	 6.400020000016397e+000	 2.400020000016401e+000	 1.019306530511451e+001
0	 6.400020000016400e+000	 2.466690000017618e+000	 1.019442743478077e+001
0	 6.400020000016399e+000	 2.533360000018134e+000	 1.019571892979950e+001
0	 6.400020000016399e+000	 2.600030000017851e+000	 1.019693668498906e+001
0	 6.400020000016399e+000	 2.666700000016666e+000	 1.019807759516786e+001
0	 6.466690000017616e+000	 2.000000000000000e+000	 1.017626546024308e+001
0	 6.466690000017614e+000	 2.066670000003316e+000	 1.017806242333079e+001
0	 6.466690000017615e+000	 2.133340000006533e+000	 1.017979171223498e+001
0	 6.466690000017617e+000	 2.200010000009551e+000	 1.018145009268653e+001
0	 6.466690000017618e+000	 2.266680000012268e+000	 1.018303433041635e+001
0	 6.466690000017616e+000	 2.333350000014585e+000	 1.018454119115533e+001
0	 6.466690000017616e+000	 2.400020000016400e+000	 1.018596744063437e+001
0	 6.466690000017617e+000	 2.466690000017617e+000	 1.018730984458437e+001
0	 6.466690000017615e+000	 2.533360000018134e+000	 1.018856516873622e+001
0	 6.466690000017615e+000	 2.600030000017850e+000	 1.018973017882079e+001
0	 6.466690000017616e+000	 2.666700000016667e+000	 1.019080164056901e+001
0	 6.533360000018132e+000	 2.000000000000000e+000	 1.016904268905170e+001
0	 6.533360000018130e+000	 2.066670000003317e+000	 1.017091487912474e+001
0	 6.533360000018131e+000	 2.133340000006534e+000	 1.017270014223535e+001
0	 6.533360000018130e+000	 2.200010000009550e+000	 1.017439601301909e+001
0	 6.533360000018131e+000	 2.266680000012267e+000	 1.017600002611146e+001
0	 6.533360000018132e+000	 2.333350000014583e+000	 1.017750971614801e+001
0	 6.533360000018133e+000	 2.400020000016401e+000	 1.017892261776425e+001
0	 6.533360000018133e+000	 2.466690000017617e+000	 1.018023626559572e+001
0	 6.533360000018132e+000	 2.533360000018134e+000	 1.018144819427792e+001
0	 6.533360000018133e+000	 2.600030000017850e+000	 1.018255593844639e+001
0	 6.533360000018133e+000	 2.666700000016666e+000	 1.018355703273664e+001
0	 6.600030000017847e+000	 2.000000000000000e+000	 1.016190034566540e+001
0	 6.600030000017847e+000	 2.066670000003317e+000	 1.016383673456389e+001
0	 6.600030000017849e+000	 2.133340000006534e+000	 1.016566549661374e+001
0	 6.600030000017848e+000	 2.200010000009550e+000	 1.016738583334720e+001
0	 6.600030000017849e+000	 2.266680000012268e+000	 1.016899694629658e+001
0	 6.600030000017848e+000	 2.333350000014584e+000	 1.017049803699414e+001
0	 6.600030000017849e+000	 2.400020000016400e+000	 1.017188830697217e+001
0	 6.600030000017847e+000	 2.466690000017618e+000	 1.017316695776293e+001
0	 6.600030000017847e+000	 2.533360000018134e+000	 1.017433319089870e+001
0	 6.600030000017849e+000	 2.600030000017851e+000	 1.017538620791177e+001
0	 6.600030000017847e+000	 2.666700000016666e+000	 1.017632521033439e+001
0	 6.666700000016668e+000	 2.000000000000000e+000	 1.015482399963477e+001
0	 6.666700000016665e+000	 2.066670000003317e+000	 1.015680353840378e+001
0	 6.666700000016665e+000	 2.133340000006534e+000	 1.015865543837641e+001
0	 6.666700000016666e+000	 2.200010000009551e+000	 1.016038146597379e+001
0	 6.666700000016668e+000	 2.266680000012268e+000	 1.016198338761712e+001
0	 6.666700000016666e+000	 2.333350000014584e+000	 1.016346296972751e+001
0	 6.666700000016667e+000	 2.400020000016400e+000	 1.016482197872613e+001
0	 6.666700000016665e+000	 2.466690000017617e+000	 1.016606218103413e+001
0	 6.666700000016667e+000	 2.533360000018134e+000	 1.016718534307265e+001
0	 6.666700000016666e+000	 2.600030000017851e+000	 1.016819323126285e+001
0	 6.666700000016667e+000	 2.666700000016667e+000	 1.016908761202586e+001
0	 6.000000000000000e+000	 2.666700000016666e+000	 1.024343103969484e+001
0	 6.000000000000000e+000	 2.733360000014533e+000	 1.024434462947907e+001
0	 5.999999999999998e+000	 2.800020000011600e+000	 1.024504401725615e+001
0	 6.000000000000002e+000	 2.866680000008067e+000	 1.024552258201625e+001
0	 5.999999999999998e+000	 2.933340000004133e+000	 1.024577370274950e+001
0	 6.000000000000003e+000	 3.000000000000000e+000	 1.024579075844607e+001
0	 5.999999999999998e+000	 3.066659999995867e+000	 1.024556712809614e+001
0	 6.000000000000001e+000	 3.133319999991934e+000	 1.024509619068988e+001
0	 5.999999999999999e+000	 3.199979999988400e+000	 1.024437132521747e+001
0	 6.000000000000000e+000	 3.266639999985467e+000	 1.024338591066912e+001
0	 6.000000000000000e+000	 3.333299999983334e+000	 1.024213332603501e+001
0	 6.066670000003318e+000	 2.666700000016666e+000	 1.023557721643299e+001
0	 6.066670000003317e+000	 2.733360000014534e+000	 1.023660596784452e+001
0	 6.066670000003313e+000	 2.800020000011600e+000	 1.023739322302455e+001
0	 6.066670000003318e+000	 2.866680000008067e+000	 1.023793759996729e+001
0	 6.066670000003319e+000	 2.933340000004133e+000	 1.023823771666699e+001
0	 6.066670000003320e+000	 3.000000000000000e+000	 1.023829219111789e+001
0	 6.066670000003319e+000	 3.066659999995867e+000	 1.023809964131426e+001
0	 6.066670000003319e+000	 3.133319999991934e+000	 1.023765868525034e+001
0	 6.066670000003313e+000	 3.199979999988400e+000	 1.023696794092039e+001
0	 6.066670000003318e+000	 3.266639999985467e+000	 1.023602602631871e+001
0	 6.066670000003317e+000	 3.333299999983333e+000	 1.023483155943956e+001
0	 6.133340000006530e+000	 2.666700000016666e+000	 1.022786610795591e+001
0	 6.133340000006534e+000	 2.733360000014533e+000	 1.022895633394639e+001
0	 6.133340000006532e+000	 2.800020000011599e+000	 1.022979058730232e+001
0	 6.133340000006533e+000	 2.866680000008067e+000	 1.023037186512830e+001
0	 6.133340000006531e+000	 2.933340000004133e+000	 1.023070316452890e+001
0	 6.133340000006533e+000	 3.000000000000000e+000	 1.023078748260873e+001
0	 6.133340000006534e+000	 3.066659999995868e+000	 1.023062781647239e+001
0	 6.133340000006533e+000	 3.133319999991933e+000	 1.023022716322448e+001
0	 6.133340000006533e+000	 3.199979999988400e+000	 1.022958851996963e+001
0	 6.133340000006532e+000	 3.266639999985467e+000	 1.022871488381244e+001
0	 6.133340000006530e+000	 3.333299999983333e+000	 1.022760925185758e+001
0	 6.200010000009550e+000	 2.666700000016666e+000	 1.022027915292725e+001
0	 6.200010000009550e+000	 2.733360000014533e+000	 1.022138658948477e+001
0	 6.200010000009552e+000	 2.800020000011600e+000	 1.022223471969622e+001
0	 6.200010000009550e+000	 2.866680000008067e+000	 1.022283005988281e+001
0	 6.200010000009551e+000	 2.933340000004133e+000	 1.022317912636571e+001
0	 6.200010000009550e+000	 3.000000000000000e+000	 1.022328843546618e+001
0	 6.200010000009550e+000	 3.066659999995867e+000	 1.022316450350542e+001
0	 6.200010000009550e+000	 3.133319999991933e+000	 1.022281384680466e+001
0	 6.200010000009551e+000	 3.199979999988401e+000	 1.022224298168514e+001
0	 6.200010000009550e+000	 3.266639999985467e+000	 1.022145842446809e+001
0	 6.200010000009550e+000	 3.333299999983333e+000	 1.022046669147477e+001
0	 6.266680000012267e+000	 2.666700000016667e+000	 1.021279779001060e+001
0	 6.266680000012268e+000	 2.733360000014533e+000	 1.021388759615975e+001
0	 6.266680000012265e+000	 2.800020000011599e+000	 1.021472422981295e+001
0	 6.266680000012266e+000	 2.866680000008067e+000	 1.021531686661430e+001
0	 6.266680000012265e+000	 2.933340000004133e+000	 1.021567468220790e+001
0	 6.266680000012264e+000	 2.999999999999999e+000	 1.021580685223785e+001
0	 6.266680000012267e+000	 3.066659999995866e+000	 1.021572255234824e+001
0	 6.266680000012267e+000	 3.133319999991934e+000	 1.021543095818321e+001
0	 6.266680000012266e+000	 3.199979999988401e+000	 1.021494124538689e+001
0	 6.266680000012268e+000	 3.266639999985467e+000	 1.021426258960338e+001
0	 6.266680000012265e+000	 3.333299999983333e+000	 1.021340416647683e+001
0	 6.333350000014584e+000	 2.666700000016667e+000	 1.020540345786960e+001
0	 6.333350000014584e+000	 2.733360000014533e+000	 1.020645021567142e+001
0	 6.333350000014582e+000	 2.800020000011599e+000	 1.020725772725924e+001
0	 6.333350000014581e+000	 2.866680000008066e+000	 1.020783696770633e+001
0	 6.333350000014582e+000	 2.933340000004133e+000	 1.020819891208594e+001
0	 6.333350000014582e+000	 3.000000000000000e+000	 1.020835453547132e+001
0	 6.333350000014583e+000	 3.066659999995867e+000	 1.020831481293575e+001
0	 6.333350000014582e+000	 3.133319999991934e+000	 1.020809071955250e+001
0	 6.333350000014582e+000	 3.199979999988400e+000	 1.020769323039484e+001
0	 6.333350000014583e+000	 3.266639999985467e+000	 1.020713332053605e+001
0	 6.333350000014582e+000	 3.333299999983334e+000	 1.020642196504944e+001
0	 6.400020000016399e+000	 2.666700000016666e+000	 1.019807759516786e+001
0	 6.400020000016400e+000	 2.733360000014533e+000	 1.019906530971986e+001
0	 6.400020000016399e+000	 2.800020000011600e+000	 1.019983382164181e+001
0	 6.400020000016400e+000	 2.866680000008067e+000	 1.020039504554241e+001
0	 6.400020000016400e+000	 2.933340000004134e+000	 1.020076089603031e+001
0	 6.400020000016399e+000	 2.999999999999999e+000	 1.020094328771423e+001
0	 6.400020000016399e+000	 3.066659999995868e+000	 1.020095413520284e+001
0	 6.400020000016401e+000	 3.133319999991935e+000	 1.020080535310486e+001
0	 6.400020000016401e+000	 3.199979999988401e+000	 1.020050885602896e+001
0	 6.400020000016401e+000	 3.266639999985467e+000	 1.020007655858386e+001
0	 6.400020000016399e+000	 3.333299999983334e+000	 1.019952037537829e+001
0	 6.466690000017616e+000	 2.666700000016667e+000	 1.019080164056901e+001
0	 6.466690000017616e+000	 2.733360000014533e+000	 1.019172374000515e+001
0	 6.466690000017616e+000	 2.800020000011600e+000	 1.019245112256737e+001
0	 6.466690000017616e+000	 2.866680000008067e+000	 1.019299578250602e+001
0	 6.466690000017616e+000	 2.933340000004134e+000	 1.019336971407150e+001
0	 6.466690000017615e+000	 3.000000000000000e+000	 1.019358491151417e+001
0	 6.466690000017616e+000	 3.066659999995867e+000	 1.019365336908440e+001
0	 6.466690000017617e+000	 3.133319999991933e+000	 1.019358708103262e+001
0	 6.466690000017616e+000	 3.199979999988400e+000	 1.019339804160920e+001
0	 6.466690000017614e+000	 3.266639999985467e+000	 1.019309824506455e+001
0	 6.466690000017617e+000	 3.333299999983334e+000	 1.019269968564906e+001
0	 6.533360000018133e+000	 2.666700000016666e+000	 1.018355703273664e+001
0	 6.533360000018132e+000	 2.733360000014533e+000	 1.018441636822740e+001
0	 6.533360000018133e+000	 2.800020000011600e+000	 1.018510823964265e+001
0	 6.533360000018132e+000	 2.866680000008067e+000	 1.018564386098072e+001
0	 6.533360000018133e+000	 2.933340000004134e+000	 1.018603444623996e+001
0	 6.533360000018132e+000	 3.000000000000000e+000	 1.018629120941871e+001
0	 6.533360000018132e+000	 3.066659999995866e+000	 1.018642536451533e+001
0	 6.533360000018133e+000	 3.133319999991934e+000	 1.018644812552815e+001
0	 6.533360000018130e+000	 3.199979999988400e+000	 1.018637070645554e+001
0	 6.533360000018132e+000	 3.266639999985468e+000	 1.018620432129586e+001
0	 6.533360000018132e+000	 3.333299999983333e+000	 1.018596018404747e+001
0	 6.600030000017847e+000	 2.666700000016666e+000	 1.017632521033439e+001
0	 6.600030000017849e+000	 2.733360000014533e+000	 1.017713405608666e+001
0	 6.600030000017847e+000	 2.800020000011599e+000	 1.017780378247433e+001
0	 6.600030000017847e+000	 2.866680000008066e+000	 1.017834396334999e+001
0	 6.600030000017848e+000	 2.933340000004134e+000	 1.017876417256618e+001
0	 6.600030000017850e+000	 3.000000000000000e+000	 1.017907398397548e+001
0	 6.600030000017848e+000	 3.066659999995868e+000	 1.017928297143049e+001
0	 6.600030000017849e+000	 3.133319999991934e+000	 1.017940070878377e+001
0	 6.600030000017849e+000	 3.199979999988401e+000	 1.017943676988793e+001
0	 6.600030000017848e+000	 3.266639999985468e+000	 1.017940072859553e+001
0	 6.600030000017847e+000	 3.333299999983333e+000	 1.017930215875918e+001
0	 6.666700000016667e+000	 2.666700000016667e+000	 1.016908761202586e+001
0	 6.666700000016668e+000	 2.733360000014533e+000	 1.016986766528303e+001
0	 6.666700000016665e+000	 2.800020000011599e+000	 1.017053636066917e+001
0	 6.666700000016666e+000	 2.866680000008067e+000	 1.017110077199735e+001
0	 6.666700000016667e+000	 2.933340000004133e+000	 1.017156797308061e+001
0	 6.666700000016666e+000	 3.000000000000000e+000	 1.017194503773208e+001
0	 6.666700000016667e+000	 3.066659999995868e+000	 1.017223903976479e+001
0	 6.666700000016665e+000	 3.133319999991933e+000	 1.017245705299184e+001
0	 6.666700000016665e+000	 3.199979999988401e+000	 1.017260615122632e+001
0	 6.666700000016668e+000	 3.266639999985468e+000	 1.017269340828131e+001
0	 6.666700000016665e+000	 3.333299999983333e+000	 1.017272589796989e+001
0	 6.000000000000000e+000	 3.333299999983334e+000	 1.024213332603501e+001
0	 6.000000000000001e+000	 3.399969999982151e+000	 1.024069223646720e+001
0	 6.000000000000000e+000	 3.466639999981866e+000	 1.023914831246500e+001
0	 6.000000000000000e+000	 3.533309999982383e+000	 1.023750481620754e+001
0	 6.000000000000001e+000	 3.599979999983601e+000	 1.023576500987392e+001
0	 6.000000000000000e+000	 3.666649999985416e+000	 1.023393215564327e+001
0	 6.000000000000000e+000	 3.733319999987733e+000	 1.023200951569468e+001
0	 5.999999999999998e+000	 3.799989999990450e+000	 1.023000035220727e+001
0	 6.000000000000001e+000	 3.866659999993467e+000	 1.022790792736015e+001
0	 6.000000000000000e+000	 3.933329999996683e+000	 1.022573550333243e+001
0	 6.000000000000001e+000	 4.000000000000000e+000	 1.022348634230320e+001
0	 6.066670000003317e+000	 3.333299999983333e+000	 1.023483155943956e+001
0	 6.066670000003315e+000	 3.399969999982150e+000	 1.023347256917037e+001
0	 6.066670000003318e+000	 3.466639999981867e+000	 1.023203811050329e+001
0	 6.066670000003316e+000	 3.533309999982382e+000	 1.023052774598849e+001
0	 6.066670000003319e+000	 3.599979999983600e+000	 1.022894103817616e+001
0	 6.066670000003315e+000	 3.666649999985415e+000	 1.022727754961647e+001
0	 6.066670000003318e+000	 3.733319999987733e+000	 1.022553684285962e+001
0	 6.066670000003318e+000	 3.799989999990450e+000	 1.022371848045577e+001
0	 6.066670000003317e+000	 3.866659999993467e+000	 1.022182202495512e+001
0	 6.066670000003318e+000	 3.933329999996685e+000	 1.021984703890782e+001
0	 6.066670000003318e+000	 4.000000000000001e+000	 1.021779308486405e+001
0	 6.133340000006530e+000	 3.333299999983333e+000	 1.022760925185758e+001
0	 6.133340000006534e+000	 3.399969999982150e+000	 1.022636068927456e+001
0	 6.133340000006533e+000	 3.466639999981866e+000	 1.022505430524073e+001
0	 6.133340000006531e+000	 3.533309999982382e+000	 1.022368661353360e+001
0	 6.133340000006531e+000	 3.599979999983600e+000	 1.022225412793068e+001
0	 6.133340000006534e+000	 3.666649999985416e+000	 1.022075336220947e+001
0	 6.133340000006533e+000	 3.733319999987733e+000	 1.021918083014748e+001
0	 6.133340000006531e+000	 3.799989999990449e+000	 1.021753304552221e+001
0	 6.133340000006533e+000	 3.866659999993467e+000	 1.021580652211117e+001
0	 6.133340000006535e+000	 3.933329999996684e+000	 1.021399777369186e+001
0	 6.133340000006534e+000	 4.000000000000001e+000	 1.021210331404177e+001
0	 6.200010000009550e+000	 3.333299999983333e+000	 1.022046669147477e+001
0	 6.200010000009550e+000	 3.399969999982150e+000	 1.021935101489570e+001
0	 6.200010000009550e+000	 3.466639999981867e+000	 1.021818668792537e+001
0	 6.200010000009552e+000	 3.533309999982383e+000	 1.021696782642489e+001
0	 6.200010000009550e+000	 3.599979999983600e+000	 1.021568854625534e+001
0	 6.200010000009550e+000	 3.666649999985416e+000	 1.021434296327779e+001
0	 6.200010000009550e+000	 3.733319999987733e+000	 1.021292519335334e+001
0	 6.200010000009550e+000	 3.799989999990450e+000	 1.021142935234307e+001
0	 6.200010000009550e+000	 3.866659999993467e+000	 1.020984955610807e+001
0	 6.200010000009550e+000	 3.933329999996684e+000	 1.020817992050939e+001
0	 6.200010000009550e+000	 4.000000000000000e+000	 1.020641456140812e+001
0	 6.266680000012265e+000	 3.333299999983333e+000	 1.021340416647683e+001
0	 6.266680000012268e+000	 3.399969999982150e+000	 1.021243796414973e+001
0	 6.266680000012268e+000	 3.466639999981867e+000	 1.021142504980527e+001
0	 6.266680000012268e+000	 3.533309999982383e+000	 1.021035779224438e+001
0	 6.266680000012268e+000	 3.599979999983600e+000	 1.020922856026797e+001
0	 6.266680000012267e+000	 3.666649999985417e+000	 1.020802972267697e+001
0	 6.266680000012268e+000	 3.733319999987733e+000	 1.020675364827228e+001
0	 6.266680000012268e+000	 3.799989999990450e+000	 1.020539270585481e+001
0	 6.266680000012266e+000	 3.866659999993466e+000	 1.020393926422549e+001
0	 6.266680000012267e+000	 3.933329999996684e+000	 1.020238569218523e+001
0	 6.266680000012268e+000	 4.000000000000001e+000	 1.020072435853491e+001
0	 6.333350000014582e+000	 3.333299999983334e+000	 1.020642196504944e+001
0	 6.333350000014582e+000	 3.399969999982149e+000	 1.020561595515261e+001
0	 6.333350000014582e+000	 3.466639999981866e+000	 1.020475918212849e+001
0	 6.333350000014582e+000	 3.533309999982383e+000	 1.020384291857411e+001
0	 6.333350000014582e+000	 3.599979999983599e+000	 1.020285843708645e+001
0	 6.333350000014583e+000	 3.666649999985416e+000	 1.020179701026252e+001
0	 6.333350000014582e+000	 3.733319999987732e+000	 1.020064991069934e+001
0	 6.333350000014585e+000	 3.799989999990451e+000	 1.019940841099389e+001
0	 6.333350000014585e+000	 3.866659999993467e+000	 1.019806378374316e+001
0	 6.333350000014584e+000	 3.933329999996684e+000	 1.019660730154418e+001
0	 6.333350000014583e+000	 4.000000000000001e+000	 1.019503023699391e+001
0	 6.400020000016399e+000	 3.333299999983334e+000	 1.019952037537828e+001
0	 6.400020000016400e+000	 3.399969999982150e+000	 1.019887940602028e+001
0	 6.400020000016400e+000	 3.466639999981867e+000	 1.019817887614310e+001
0	 6.400020000016398e+000	 3.533309999982383e+000	 1.019740961299610e+001
0	 6.400020000016401e+000	 3.599979999983600e+000	 1.019656244382862e+001
0	 6.400020000016398e+000	 3.666649999985415e+000	 1.019562819589002e+001
0	 6.400020000016398e+000	 3.733319999987733e+000	 1.019459769642962e+001
0	 6.400020000016401e+000	 3.799989999990450e+000	 1.019346177269676e+001
0	 6.400020000016398e+000	 3.866659999993467e+000	 1.019221125194081e+001
0	 6.400020000016400e+000	 3.933329999996683e+000	 1.019083696141107e+001
0	 6.400020000016398e+000	 4.000000000000000e+000	 1.018932972835689e+001
0	 6.466690000017617e+000	 3.333299999983334e+000	 1.019269968564906e+001
0	 6.466690000017614e+000	 3.399969999982150e+000	 1.019222273486867e+001
0	 6.466690000017615e+000	 3.466639999981867e+000	 1.019167392309712e+001
0	 6.466690000017614e+000	 3.533309999982382e+000	 1.019104428309235e+001
0	 6.466690000017614e+000	 3.599979999983599e+000	 1.019032484761232e+001
0	 6.466690000017616e+000	 3.666649999985417e+000	 1.018950664941494e+001
0	 6.466690000017617e+000	 3.733319999987733e+000	 1.018858072125815e+001
0	 6.466690000017617e+000	 3.799989999990451e+000	 1.018753809589992e+001
0	 6.466690000017615e+000	 3.866659999993467e+000	 1.018636980609813e+001
0	 6.466690000017617e+000	 3.933329999996683e+000	 1.018506688461073e+001
0	 6.466690000017615e+000	 4.000000000000000e+000	 1.018362036419565e+001
0	 6.533360000018132e+000	 3.333299999983333e+000	 1.018596018404747e+001
0	 6.533360000018129e+000	 3.399969999982149e+000	 1.018564035981374e+001
0	 6.533360000018133e+000	 3.466639999981867e+000	 1.018523411423863e+001
0	 6.533360000018133e+000	 3.533309999982382e+000	 1.018473333644492e+001
0	 6.533360000018132e+000	 3.599979999983600e+000	 1.018412991555539e+001
0	 6.533360000018132e+000	 3.666649999985416e+000	 1.018341574069284e+001
0	 6.533360000018130e+000	 3.733319999987733e+000	 1.018258270098004e+001
0	 6.533360000018132e+000	 3.799989999990450e+000	 1.018162268553978e+001
0	 6.533360000018131e+000	 3.866659999993466e+000	 1.018052758349483e+001
0	 6.533360000018132e+000	 3.933329999996684e+000	 1.017928928396798e+001
0	 6.533360000018133e+000	 4.000000000000001e+000	 1.017789967608197e+001
0	 6.600030000017847e+000	 3.333299999983333e+000	 1.017930215875918e+001
0	 6.600030000017847e+000	 3.399969999982150e+000	 1.017912669897143e+001
0	 6.600030000017848e+000	 3.466639999981867e+000	 1.017884924081568e+001
0	 6.600030000017849e+000	 3.533309999982384e+000	 1.017846318063581e+001
0	 6.600030000017847e+000	 3.599979999983599e+000	 1.017796191477569e+001
0	 6.600030000017847e+000	 3.666649999985415e+000	 1.017733883957924e+001
0	 6.600030000017848e+000	 3.733319999987733e+000	 1.017658735139033e+001
0	 6.600030000017847e+000	 3.799989999990450e+000	 1.017570084655283e+001
0	 6.600030000017847e+000	 3.866659999993466e+000	 1.017467272141063e+001
0	 6.600030000017847e+000	 3.933329999996684e+000	 1.017349637230761e+001
0	 6.600030000017847e+000	 4.000000000000000e+000	 1.017216519558762e+001
0	 6.666700000016665e+000	 3.333299999983333e+000	 1.017272589796990e+001
0	 6.666700000016666e+000	 3.399969999982149e+000	 1.017267617045770e+001
0	 6.666700000016666e+000	 3.466639999981866e+000	 1.017250909407632e+001
0	 6.666700000016665e+000	 3.533309999982383e+000	 1.017222022324704e+001
0	 6.666700000016665e+000	 3.599979999983599e+000	 1.017180511239108e+001
0	 6.666700000016665e+000	 3.666649999985415e+000	 1.017125931592968e+001
0	 6.666700000016666e+000	 3.733319999987733e+000	 1.017057838828408e+001
0	 6.666700000016665e+000	 3.799989999990449e+000	 1.016975788387553e+001
0	 6.666700000016668e+000	 3.866659999993467e+000	 1.016879335712524e+001
0	 6.666700000016665e+000	 3.933329999996683e+000	 1.016768036245445e+001
0	 6.666700000016667e+000	 4.000000000000001e+000	 1.016641445428439e+001
0	 6.000000000000001e+000	 4.000000000000000e+000	 1.022348634230320e+001
0	 6.000000000000001e+000	 4.066670000003318e+000	 1.022116260552619e+001
0	 6.000000000000000e+000	 4.133340000006534e+000	 1.021875856133731e+001
0	 6.000000000000000e+000	 4.200010000009550e+000	 1.021626563253889e+001
0	 6.000000000000002e+000	 4.266680000012268e+000	 1.021367524193323e+001
0	 6.000000000000000e+000	 4.333350000014584e+000	 1.021097881232267e+001
0	 5.999999999999998e+000	 4.400020000016401e+000	 1.020816776650954e+001
0	 5.999999999999999e+000	 4.466690000017617e+000	 1.020523352729613e+001
0	 6.000000000000001e+000	 4.533360000018134e+000	 1.020216751748478e+001
0	 6.000000000000000e+000	 4.600030000017850e+000	 1.019896115987780e+001
0	 6.000000000000000e+000	 4.666700000016666e+000	 1.019560587727749e+001
0	 6.066670000003318e+000	 4.000000000000001e+000	 1.021779308486405e+001
0	 6.066670000003318e+000	 4.066670000003318e+000	 1.021565201714347e+001
0	 6.066670000003317e+000	 4.133340000006533e+000	 1.021341220454696e+001
0	 6.066670000003319e+000	 4.200010000009550e+000	 1.021106798134661e+001
0	 6.066670000003318e+000	 4.266680000012268e+000	 1.020861368181453e+001
0	 6.066670000003317e+000	 4.333350000014584e+000	 1.020604364022275e+001
0	 6.066670000003318e+000	 4.400020000016401e+000	 1.020335219084340e+001
0	 6.066670000003319e+000	 4.466690000017619e+000	 1.020053366794854e+001
0	 6.066670000003318e+000	 4.533360000018135e+000	 1.019758240581021e+001
0	 6.066670000003316e+000	 4.600030000017850e+000	 1.019449273870054e+001
0	 6.066670000003319e+000	 4.666700000016667e+000	 1.019125900089155e+001
0	 6.133340000006534e+000	 4.000000000000001e+000	 1.021210331404177e+001
0	 6.133340000006535e+000	 4.066670000003317e+000	 1.021011088812729e+001
0	 6.133340000006535e+000	 4.133340000006536e+000	 1.020800842152246e+001
0	 6.133340000006531e+000	 4.200010000009550e+000	 1.020579269891625e+001
0	 6.133340000006533e+000	 4.266680000012269e+000	 1.020346050499764e+001
0	 6.133340000006533e+000	 4.333350000014584e+000	 1.020100862445560e+001
0	 6.133340000006532e+000	 4.400020000016402e+000	 1.019843384197910e+001
0	 6.133340000006533e+000	 4.466690000017618e+000	 1.019573294225712e+001
0	 6.133340000006535e+000	 4.533360000018134e+000	 1.019290270997860e+001
0	 6.133340000006534e+000	 4.600030000017852e+000	 1.018993992983254e+001
0	 6.133340000006533e+000	 4.666700000016667e+000	 1.018684138650788e+001
0	 6.200010000009550e+000	 4.000000000000000e+000	 1.020641456140813e+001
0	 6.200010000009549e+000	 4.066670000003317e+000	 1.020454223059162e+001
0	 6.200010000009551e+000	 4.133340000006534e+000	 1.020255478530848e+001
0	 6.200010000009551e+000	 4.200010000009550e+000	 1.020045099961172e+001
0	 6.200010000009550e+000	 4.266680000012268e+000	 1.019822964755432e+001
0	 6.200010000009550e+000	 4.333350000014582e+000	 1.019588950318932e+001
0	 6.200010000009550e+000	 4.400020000016402e+000	 1.019342934056967e+001
0	 6.200010000009550e+000	 4.466690000017619e+000	 1.019084793374841e+001
0	 6.200010000009551e+000	 4.533360000018135e+000	 1.018814405677851e+001
0	 6.200010000009550e+000	 4.600030000017851e+000	 1.018531648371296e+001
0	 6.200010000009550e+000	 4.666700000016666e+000	 1.018236398860475e+001
0	 6.266680000012268e+000	 4.000000000000001e+000	 1.020072435853491e+001
0	 6.266680000012268e+000	 4.066670000003317e+000	 1.019894905665041e+001
0	 6.266680000012265e+000	 4.133340000006533e+000	 1.019705886894969e+001
0	 6.266680000012266e+000	 4.200010000009551e+000	 1.019505409779697e+001
0	 6.266680000012266e+000	 4.266680000012268e+000	 1.019293504555637e+001
0	 6.266680000012267e+000	 4.333350000014584e+000	 1.019070201459205e+001
0	 6.266680000012267e+000	 4.400020000016402e+000	 1.018835530726820e+001
0	 6.266680000012265e+000	 4.466690000017618e+000	 1.018589522594896e+001
0	 6.266680000012268e+000	 4.533360000018134e+000	 1.018332207299848e+001
0	 6.266680000012268e+000	 4.600030000017851e+000	 1.018063615078093e+001
0	 6.266680000012267e+000	 4.666700000016667e+000	 1.017783776166044e+001
0	 6.333350000014583e+000	 4.000000000000001e+000	 1.019503023699391e+001
0	 6.333350000014582e+000	 4.066670000003318e+000	 1.019333437841759e+001
0	 6.333350000014582e+000	 4.133340000006534e+000	 1.019152824549079e+001
0	 6.333350000014584e+000	 4.200010000009551e+000	 1.018961320783593e+001
0	 6.333350000014583e+000	 4.266680000012268e+000	 1.018759063507550e+001
0	 6.333350000014582e+000	 4.333350000014584e+000	 1.018546189683195e+001
0	 6.333350000014582e+000	 4.400020000016402e+000	 1.018322836272774e+001
0	 6.333350000014582e+000	 4.466690000017616e+000	 1.018089140238530e+001
0	 6.333350000014583e+000	 4.533360000018133e+000	 1.017845238542710e+001
0	 6.333350000014582e+000	 4.600030000017850e+000	 1.017591268147559e+001
0	 6.333350000014582e+000	 4.666700000016666e+000	 1.017327366015321e+001
0	 6.400020000016398e+000	 4.000000000000000e+000	 1.018932972835689e+001
0	 6.400020000016399e+000	 4.066670000003317e+000	 1.018770120800714e+001
0	 6.400020000016399e+000	 4.133340000006534e+000	 1.018597048797640e+001
0	 6.400020000016399e+000	 4.200010000009550e+000	 1.018413954409256e+001
0	 6.400020000016398e+000	 4.266680000012267e+000	 1.018221035218352e+001
0	 6.400020000016401e+000	 4.333350000014583e+000	 1.018018488807714e+001
0	 6.400020000016398e+000	 4.400020000016401e+000	 1.017806512760134e+001
0	 6.400020000016399e+000	 4.466690000017618e+000	 1.017585304658396e+001
0	 6.400020000016400e+000	 4.533360000018134e+000	 1.017355062085292e+001
0	 6.400020000016400e+000	 4.600030000017852e+000	 1.017115982623609e+001
0	 6.400020000016399e+000	 4.666700000016666e+000	 1.016868263856134e+001
0	 6.466690000017615e+000	 4.000000000000000e+000	 1.018362036419565e+001
0	 6.466690000017616e+000	 4.066670000003317e+000	 1.018205255753300e+001
0	 6.466690000017616e+000	 4.133340000006535e+000	 1.018039316945122e+001
0	 6.466690000017614e+000	 4.200010000009551e+000	 1.017864432093080e+001
0	 6.466690000017617e+000	 4.266680000012267e+000	 1.017680813295215e+001
0	 6.466690000017614e+000	 4.333350000014582e+000	 1.017488672649575e+001
0	 6.466690000017616e+000	 4.400020000016400e+000	 1.017288222254205e+001
0	 6.466690000017616e+000	 4.466690000017618e+000	 1.017079674207148e+001
0	 6.466690000017615e+000	 4.533360000018133e+000	 1.016863240606452e+001
0	 6.466690000017615e+000	 4.600030000017848e+000	 1.016639133550157e+001
0	 6.466690000017616e+000	 4.666700000016667e+000	 1.016407565136311e+001
0	 6.533360000018133e+000	 4.000000000000001e+000	 1.017789967608197e+001
0	 6.533360000018131e+000	 4.066670000003318e+000	 1.017639143910911e+001
0	 6.533360000018133e+000	 4.133340000006535e+000	 1.017480386295992e+001
0	 6.533360000018130e+000	 4.200010000009551e+000	 1.017313875271456e+001
0	 6.533360000018131e+000	 4.266680000012267e+000	 1.017139791345318e+001
0	 6.533360000018130e+000	 4.333350000014582e+000	 1.016958315025592e+001
0	 6.533360000018132e+000	 4.400020000016402e+000	 1.016769626820295e+001
0	 6.533360000018133e+000	 4.466690000017618e+000	 1.016573907237441e+001
0	 6.533360000018133e+000	 4.533360000018134e+000	 1.016371336785043e+001
0	 6.533360000018131e+000	 4.600030000017850e+000	 1.016162095971117e+001
0	 6.533360000018133e+000	 4.666700000016666e+000	 1.015946365303678e+001
0	 6.600030000017847e+000	 4.000000000000000e+000	 1.017216519558762e+001
0	 6.600030000017848e+000	 4.066670000003318e+000	 1.017072086484943e+001
0	 6.600030000017847e+000	 4.133340000006534e+000	 1.016921014154716e+001
0	 6.600030000017849e+000	 4.200010000009551e+000	 1.016763405380780e+001
0	 6.600030000017849e+000	 4.266680000012268e+000	 1.016599362975837e+001
0	 6.600030000017847e+000	 4.333350000014583e+000	 1.016428989752580e+001
0	 6.600030000017848e+000	 4.400020000016402e+000	 1.016252388523710e+001
0	 6.600030000017849e+000	 4.466690000017619e+000	 1.016069662101926e+001
0	 6.600030000017851e+000	 4.533360000018134e+000	 1.015880913299925e+001
0	 6.600030000017849e+000	 4.600030000017851e+000	 1.015686244930405e+001
0	 6.600030000017847e+000	 4.666700000016665e+000	 1.015485759806064e+001
0	 6.666700000016667e+000	 4.000000000000001e+000	 1.016641445428439e+001
0	 6.666700000016666e+000	 4.066670000003316e+000	 1.016504384686789e+001
0	 6.666700000016667e+000	 4.133340000006536e+000	 1.016361957825760e+001
0	 6.666700000016667e+000	 4.200010000009551e+000	 1.016214143857447e+001
0	 6.666700000016667e+000	 4.266680000012268e+000	 1.016060921793945e+001
0	 6.666700000016665e+000	 4.333350000014583e+000	 1.015902270647349e+001
0	 6.666700000016665e+000	 4.400020000016400e+000	 1.015738169429755e+001
0	 6.666700000016667e+000	 4.466690000017618e+000	 1.015568597153258e+001
0	 6.666700000016667e+000	 4.533360000018134e+000	 1.015393532829953e+001
0	 6.666700000016666e+000	 4.600030000017851e+000	 1.015212955471933e+001
0	 6.666700000016667e+000	 4.666700000016667e+000	 1.015026844091295e+001
0	 6.000000000000000e+000	 4.666700000016666e+000	 1.019560587727749e+001
0	 5.999999999999998e+000	 4.733360000014531e+000	 1.019217774646709e+001
0	 5.999999999999998e+000	 4.800020000011600e+000	 1.018875593215461e+001
0	 6.000000000000002e+000	 4.866680000008068e+000	 1.018533803362417e+001
0	 5.999999999999998e+000	 4.933340000004132e+000	 1.018192165015993e+001
0	 6.000000000000002e+000	 5.000000000000002e+000	 1.017850438104602e+001
0	 5.999999999999999e+000	 5.066659999995866e+000	 1.017508382556660e+001
0	 6.000000000000000e+000	 5.133319999991934e+000	 1.017165758300581e+001
0	 5.999999999999998e+000	 5.199979999988400e+000	 1.016822325264779e+001
0	 6.000000000000000e+000	 5.266639999985468e+000	 1.016477843377670e+001
0	 6.000000000000000e+000	 5.333299999983334e+000	 1.016132072567668e+001
0	 6.066670000003319e+000	 4.666700000016667e+000	 1.019125900089156e+001
0	 6.066670000003315e+000	 4.733360000014533e+000	 1.018795936301305e+001
0	 6.066670000003315e+000	 4.800020000011599e+000	 1.018467222899913e+001
0	 6.066670000003317e+000	 4.866680000008066e+000	 1.018139377145162e+001
0	 6.066670000003319e+000	 4.933340000004134e+000	 1.017812016297247e+001
0	 6.066670000003320e+000	 5.000000000000000e+000	 1.017484757616352e+001
0	 6.066670000003319e+000	 5.066659999995867e+000	 1.017157218362665e+001
0	 6.066670000003319e+000	 5.133319999991934e+000	 1.016829015796377e+001
0	 6.066670000003314e+000	 5.199979999988400e+000	 1.016499767177676e+001
0	 6.066670000003316e+000	 5.266639999985467e+000	 1.016169089766751e+001
0	 6.066670000003317e+000	 5.333299999983335e+000	 1.015836600823790e+001
0	 6.133340000006533e+000	 4.666700000016667e+000	 1.018684138650789e+001
0	 6.133340000006535e+000	 4.733360000014534e+000	 1.018368345811639e+001
0	 6.133340000006534e+000	 4.800020000011599e+000	 1.018054039691496e+001
0	 6.133340000006533e+000	 4.866680000008066e+000	 1.017740722411254e+001
0	 6.133340000006533e+000	 4.933340000004134e+000	 1.017427896091803e+001
0	 6.133340000006535e+000	 5.000000000000002e+000	 1.017115062854039e+001
0	 6.133340000006533e+000	 5.066659999995866e+000	 1.016801724818852e+001
0	 6.133340000006534e+000	 5.133319999991934e+000	 1.016487384107137e+001
0	 6.133340000006533e+000	 5.199979999988400e+000	 1.016171542839787e+001
0	 6.133340000006531e+000	 5.266639999985468e+000	 1.015853703137696e+001
0	 6.133340000006531e+000	 5.333299999983334e+000	 1.015533367121757e+001
0	 6.200010000009550e+000	 4.666700000016666e+000	 1.018236398860475e+001
0	 6.200010000009550e+000	 4.733360000014532e+000	 1.017935799167076e+001
0	 6.200010000009551e+000	 4.800020000011600e+000	 1.017636592259849e+001
0	 6.200010000009550e+000	 4.866680000008065e+000	 1.017338192649324e+001
0	 6.200010000009551e+000	 4.933340000004134e+000	 1.017040014846029e+001
0	 6.200010000009551e+000	 5.000000000000000e+000	 1.016741473360490e+001
0	 6.200010000009550e+000	 5.066659999995867e+000	 1.016441982703237e+001
0	 6.200010000009549e+000	 5.133319999991935e+000	 1.016140957384798e+001
0	 6.200010000009551e+000	 5.199979999988400e+000	 1.015837811915701e+001
0	 6.200010000009550e+000	 5.266639999985468e+000	 1.015531960806476e+001
0	 6.200010000009550e+000	 5.333299999983334e+000	 1.015222818567651e+001
0	 6.266680000012267e+000	 4.666700000016667e+000	 1.017783776166044e+001
0	 6.266680000012268e+000	 4.733360000014534e+000	 1.017499092356984e+001
0	 6.266680000012265e+000	 4.800020000011599e+000	 1.017215429274609e+001
0	 6.266680000012268e+000	 4.866680000008066e+000	 1.016932141348014e+001
0	 6.266680000012266e+000	 4.933340000004133e+000	 1.016648583006291e+001
0	 6.266680000012265e+000	 4.999999999999999e+000	 1.016364108678534e+001
0	 6.266680000012267e+000	 5.066659999995865e+000	 1.016078072793838e+001
0	 6.266680000012267e+000	 5.133319999991934e+000	 1.015789829781298e+001
0	 6.266680000012267e+000	 5.199979999988400e+000	 1.015498734070006e+001
0	 6.266680000012266e+000	 5.266639999985468e+000	 1.015204140089059e+001
0	 6.266680000012265e+000	 5.333299999983333e+000	 1.014905402267552e+001
0	 6.333350000014582e+000	 4.666700000016666e+000	 1.017327366015321e+001
0	 6.333350000014584e+000	 4.733360000014533e+000	 1.017059021370731e+001
0	 6.333350000014582e+000	 4.800020000011600e+000	 1.016791099405412e+001
0	 6.333350000014582e+000	 4.866680000008067e+000	 1.016522921995957e+001
0	 6.333350000014580e+000	 4.933340000004133e+000	 1.016253811018955e+001
0	 6.333350000014582e+000	 4.999999999999999e+000	 1.015983088350998e+001
0	 6.333350000014583e+000	 5.066659999995868e+000	 1.015710075868674e+001
0	 6.333350000014582e+000	 5.133319999991935e+000	 1.015434095448576e+001
0	 6.333350000014582e+000	 5.199979999988400e+000	 1.015154468967293e+001
0	 6.333350000014583e+000	 5.266639999985467e+000	 1.014870518301417e+001
0	 6.333350000014584e+000	 5.333299999983334e+000	 1.014581565327540e+001
0	 6.400020000016399e+000	 4.666700000016666e+000	 1.016868263856135e+001
0	 6.400020000016401e+000	 4.733360000014534e+000	 1.016616382197680e+001
0	 6.400020000016399e+000	 4.800020000011601e+000	 1.016364151321895e+001
0	 6.400020000016401e+000	 4.866680000008067e+000	 1.016110888081792e+001
0	 6.400020000016399e+000	 4.933340000004133e+000	 1.015855909330391e+001
0	 6.400020000016398e+000	 5.000000000000000e+000	 1.015598531920707e+001
0	 6.400020000016399e+000	 5.066659999995868e+000	 1.015338072705761e+001
0	 6.400020000016401e+000	 5.133319999991935e+000	 1.015073848538569e+001
0	 6.400020000016400e+000	 5.199979999988400e+000	 1.014805176272147e+001
0	 6.400020000016401e+000	 5.266639999985467e+000	 1.014531372759518e+001
0	 6.400020000016398e+000	 5.333299999983333e+000	 1.014251754853698e+001
0	 6.466690000017616e+000	 4.666700000016667e+000	 1.016407565136311e+001
0	 6.466690000017616e+000	 4.733360000014533e+000	 1.016171970827205e+001
0	 6.466690000017616e+000	 4.800020000011600e+000	 1.015935133693695e+001
0	 6.466690000017617e+000	 4.866680000008068e+000	 1.015696393094155e+001
0	 6.466690000017615e+000	 4.933340000004133e+000	 1.015455088386963e+001
0	 6.466690000017616e+000	 5.000000000000001e+000	 1.015210558930492e+001
0	 6.466690000017614e+000	 5.066659999995867e+000	 1.014962144083117e+001
0	 6.466690000017617e+000	 5.133319999991934e+000	 1.014709183203216e+001
0	 6.466690000017614e+000	 5.199979999988400e+000	 1.014451015649162e+001
0	 6.466690000017617e+000	 5.266639999985468e+000	 1.014186980779333e+001
0	 6.466690000017616e+000	 5.333299999983333e+000	 1.013916417952104e+001
0	 6.533360000018133e+000	 4.666700000016666e+000	 1.015946365303678e+001
0	 6.533360000018132e+000	 4.733360000014533e+000	 1.015726583248667e+001
0	 6.533360000018134e+000	 4.800020000011601e+000	 1.015504595190448e+001
0	 6.533360000018132e+000	 4.866680000008067e+000	 1.015279790521684e+001
0	 6.533360000018132e+000	 4.933340000004135e+000	 1.015051558635040e+001
0	 6.533360000018133e+000	 5.000000000000001e+000	 1.014819288923178e+001
0	 6.533360000018131e+000	 5.066659999995865e+000	 1.014582370778761e+001
0	 6.533360000018133e+000	 5.133319999991936e+000	 1.014340193594455e+001
0	 6.533360000018130e+000	 5.199979999988400e+000	 1.014092146762922e+001
0	 6.533360000018131e+000	 5.266639999985467e+000	 1.013837619676829e+001
0	 6.533360000018134e+000	 5.333299999983335e+000	 1.013576001728841e+001
0	 6.600030000017847e+000	 4.666700000016665e+000	 1.015485759806064e+001
0	 6.600030000017849e+000	 4.733360000014534e+000	 1.015281015451435e+001
0	 6.600030000017847e+000	 4.800020000011600e+000	 1.015073084481792e+001
0	 6.600030000017848e+000	 4.866680000008065e+000	 1.014861433853014e+001
0	 6.600030000017847e+000	 4.933340000004133e+000	 1.014645530520987e+001
0	 6.600030000017849e+000	 4.999999999999999e+000	 1.014424841441590e+001
0	 6.600030000017847e+000	 5.066659999995868e+000	 1.014198833570709e+001
0	 6.600030000017848e+000	 5.133319999991934e+000	 1.013966973864224e+001
0	 6.600030000017849e+000	 5.199979999988400e+000	 1.013728729278020e+001
0	 6.600030000017848e+000	 5.266639999985467e+000	 1.013483566767979e+001
0	 6.600030000017847e+000	 5.333299999983335e+000	 1.013230953289987e+001
0	 6.666700000016667e+000	 4.666700000016667e+000	 1.015026844091295e+001
0	 6.666700000016668e+000	 4.733360000014534e+000	 1.014836063424877e+001
0	 6.666700000016665e+000	 4.800020000011600e+000	 1.014641150237363e+001
0	 6.666700000016667e+000	 4.866680000008067e+000	 1.014441676576785e+001
0	 6.666700000016669e+000	 4.933340000004135e+000	 1.014237214491173e+001
0	 6.666700000016666e+000	 5.000000000000001e+000	 1.014027336028560e+001
0	 6.666700000016667e+000	 5.066659999995867e+000	 1.013811613236979e+001
0	 6.666700000016666e+000	 5.133319999991935e+000	 1.013589618164461e+001
0	 6.666700000016666e+000	 5.199979999988400e+000	 1.013360922859041e+001
0	 6.666700000016665e+000	 5.266639999985468e+000	 1.013125099368751e+001
0	 6.666700000016665e+000	 5.333299999983334e+000	 1.012881719741624e+001
0	 6.000000000000000e+000	 5.333299999983334e+000	 1.016132072567668e+001
0	 6.000000000000000e+000	 5.399969999982150e+000	 1.015786349313025e+001
0	 6.000000000000001e+000	 5.466639999981868e+000	 1.015441991923843e+001
0	 6.000000000000000e+000	 5.533309999982383e+000	 1.015098577137840e+001
0	 6.000000000000000e+000	 5.599979999983598e+000	 1.014755681692733e+001
0	 5.999999999999998e+000	 5.666649999985416e+000	 1.014412882326239e+001
0	 5.999999999999998e+000	 5.733319999987732e+000	 1.014069755776075e+001
0	 5.999999999999999e+000	 5.799989999990449e+000	 1.013725878779958e+001
0	 5.999999999999998e+000	 5.866659999993467e+000	 1.013380828075604e+001
0	 6.000000000000000e+000	 5.933329999996683e+000	 1.013034180400731e+001
0	 5.999999999999999e+000	 5.999999999999999e+000	 1.012685512493056e+001
0	 6.066670000003317e+000	 5.333299999983335e+000	 1.015836600823790e+001
0	 6.066670000003316e+000	 5.399969999982148e+000	 1.015503419910873e+001
0	 6.066670000003318e+000	 5.466639999981866e+000	 1.015170799978374e+001
0	 6.066670000003319e+000	 5.533309999982384e+000	 1.014838408268883e+001
0	 6.066670000003316e+000	 5.599979999983599e+000	 1.014505912024986e+001
0	 6.066670000003313e+000	 5.666649999985414e+000	 1.014172978489274e+001
0	 6.066670000003316e+000	 5.733319999987732e+000	 1.013839274904332e+001
0	 6.066670000003319e+000	 5.799989999990450e+000	 1.013504468512751e+001
0	 6.066670000003316e+000	 5.866659999993466e+000	 1.013168226557118e+001
0	 6.066670000003319e+000	 5.933329999996684e+000	 1.012830216280024e+001
0	 6.066670000003318e+000	 6.000000000000000e+000	 1.012490104924053e+001
0	 6.133340000006531e+000	 5.333299999983334e+000	 1.015533367121757e+001
0	 6.133340000006536e+000	 5.399969999982150e+000	 1.015211650428293e+001
0	 6.133340000006532e+000	 5.466639999981864e+000	 1.014889925491239e+001
0	 6.133340000006530e+000	 5.533309999982381e+000	 1.014567934825860e+001
0	 6.133340000006533e+000	 5.599979999983601e+000	 1.014245420947422e+001
0	 6.133340000006535e+000	 5.666649999985417e+000	 1.013922126371192e+001
0	 6.133340000006533e+000	 5.733319999987734e+000	 1.013597793612436e+001
0	 6.133340000006533e+000	 5.799989999990449e+000	 1.013272165186421e+001
0	 6.133340000006534e+000	 5.866659999993467e+000	 1.012944983608413e+001
0	 6.133340000006535e+000	 5.933329999996684e+000	 1.012615991393677e+001
0	 6.133340000006534e+000	 6.000000000000000e+000	 1.012284931057482e+001
0	 6.200010000009550e+000	 5.333299999983334e+000	 1.015222818567650e+001
0	 6.200010000009550e+000	 5.399969999982150e+000	 1.014911668908852e+001
0	 6.200010000009551e+000	 5.466639999981866e+000	 1.014600147540739e+001
0	 6.200010000009551e+000	 5.533309999982384e+000	 1.014288057019065e+001
0	 6.200010000009550e+000	 5.599979999983599e+000	 1.013975199899580e+001
0	 6.200010000009550e+000	 5.666649999985416e+000	 1.013661378738035e+001
0	 6.200010000009550e+000	 5.733319999987734e+000	 1.013346396090179e+001
0	 6.200010000009550e+000	 5.799989999990450e+000	 1.013030054511766e+001
0	 6.200010000009551e+000	 5.866659999993467e+000	 1.012712156558545e+001
0	 6.200010000009550e+000	 5.933329999996683e+000	 1.012392504786266e+001
0	 6.200010000009550e+000	 6.000000000000001e+000	 1.012070901750681e+001
0	 6.266680000012265e+000	 5.333299999983333e+000	 1.014905402267551e+001
0	 6.266680000012268e+000	 5.399969999982151e+000	 1.014604103396112e+001
0	 6.266680000012266e+000	 5.466639999981866e+000	 1.014302245205180e+001
0	 6.266680000012264e+000	 5.533309999982383e+000	 1.013999675058796e+001
0	 6.266680000012267e+000	 5.599979999983600e+000	 1.013696240321003e+001
0	 6.266680000012268e+000	 5.666649999985417e+000	 1.013391788355843e+001
0	 6.266680000012268e+000	 5.733319999987733e+000	 1.013086166527357e+001
0	 6.266680000012266e+000	 5.799989999990450e+000	 1.012779222199585e+001
0	 6.266680000012265e+000	 5.866659999993466e+000	 1.012470802736573e+001
0	 6.266680000012268e+000	 5.933329999996684e+000	 1.012160755502360e+001
0	 6.266680000012266e+000	 5.999999999999998e+000	 1.011848927860987e+001
0	 6.333350000014584e+000	 5.333299999983334e+000	 1.014581565327540e+001
0	 6.333350000014582e+000	 5.399969999982148e+000	 1.014289581933640e+001
0	 6.333350000014584e+000	 5.466639999981868e+000	 1.013996997562863e+001
0	 6.333350000014582e+000	 5.533309999982383e+000	 1.013703689155347e+001
0	 6.333350000014582e+000	 5.599979999983598e+000	 1.013409533651231e+001
0	 6.333350000014582e+000	 5.666649999985416e+000	 1.013114407990653e+001
0	 6.333350000014583e+000	 5.733319999987734e+000	 1.012818189113757e+001
0	 6.333350000014585e+000	 5.799989999990450e+000	 1.012520753960677e+001
0	 6.333350000014583e+000	 5.866659999993468e+000	 1.012221979471555e+001
0	 6.333350000014582e+000	 5.933329999996683e+000	 1.011921742586529e+001
0	 6.333350000014583e+000	 6.000000000000000e+000	 1.011619920245738e+001
0	 6.400020000016398e+000	 5.333299999983333e+000	 1.014251754853698e+001
0	 6.400020000016399e+000	 5.399969999982150e+000	 1.013968732565002e+001
0	 6.400020000016398e+000	 5.466639999981866e+000	 1.013685183692092e+001
0	 6.400020000016401e+000	 5.533309999982384e+000	 1.013400999519010e+001
0	 6.400020000016400e+000	 5.599979999983600e+000	 1.013116071329802e+001
0	 6.400020000016397e+000	 5.666649999985414e+000	 1.012830290408508e+001
0	 6.400020000016398e+000	 5.733319999987731e+000	 1.012543548039173e+001
0	 6.400020000016399e+000	 5.799989999990449e+000	 1.012255735505838e+001
0	 6.400020000016399e+000	 5.866659999993467e+000	 1.011966744092549e+001
0	 6.400020000016398e+000	 5.933329999996683e+000	 1.011676465083345e+001
0	 6.400020000016399e+000	 6.000000000000000e+000	 1.011384789762272e+001
0	 6.466690000017616e+000	 5.333299999983333e+000	 1.013916417952104e+001
0	 6.466690000017615e+000	 5.399969999982149e+000	 1.013642183333763e+001
0	 6.466690000017614e+000	 5.466639999981866e+000	 1.013367582671171e+001
0	 6.466690000017616e+000	 5.533309999982383e+000	 1.013092506360087e+001
0	 6.466690000017615e+000	 5.599979999983599e+000	 1.012816844796260e+001
0	 6.466690000017614e+000	 5.666649999985416e+000	 1.012540488375446e+001
0	 6.466690000017617e+000	 5.733319999987733e+000	 1.012263327493397e+001
0	 6.466690000017616e+000	 5.799989999990450e+000	 1.011985252545868e+001
0	 6.466690000017615e+000	 5.866659999993465e+000	 1.011706153928611e+001
0	 6.466690000017618e+000	 5.933329999996684e+000	 1.011425922037379e+001
0	 6.466690000017616e+000	 6.000000000000001e+000	 1.011144447267926e+001
0	 6.533360000018134e+000	 5.333299999983335e+000	 1.013576001728841e+001
0	 6.533360000018129e+000	 5.399969999982148e+000	 1.013310562283485e+001
0	 6.533360000018130e+000	 5.466639999981864e+000	 1.013044973578405e+001
0	 6.533360000018132e+000	 5.533309999982382e+000	 1.012779109888867e+001
0	 6.533360000018130e+000	 5.599979999983598e+000	 1.012512845490145e+001
0	 6.533360000018132e+000	 5.666649999985417e+000	 1.012246054657507e+001
0	 6.533360000018130e+000	 5.733319999987733e+000	 1.011978611666222e+001
0	 6.533360000018131e+000	 5.799989999990448e+000	 1.011710390791563e+001
0	 6.533360000018131e+000	 5.866659999993468e+000	 1.011441266308800e+001
0	 6.533360000018129e+000	 5.933329999996682e+000	 1.011171112493201e+001
0	 6.533360000018134e+000	 6.000000000000001e+000	 1.010899803620039e+001
0	 6.600030000017847e+000	 5.333299999983335e+000	 1.013230953289986e+001
0	 6.600030000017848e+000	 5.399969999982150e+000	 1.012974497457738e+001
0	 6.600030000017849e+000	 5.466639999981868e+000	 1.012718135492094e+001
0	 6.600030000017848e+000	 5.533309999982385e+000	 1.012461710315649e+001
0	 6.600030000017847e+000	 5.599979999983598e+000	 1.012205064850996e+001
0	 6.600030000017847e+000	 5.666649999985416e+000	 1.011948042020728e+001
0	 6.600030000017850e+000	 5.733319999987733e+000	 1.011690484747439e+001
0	 6.600030000017848e+000	 5.799989999990450e+000	 1.011432235953722e+001
0	 6.600030000017848e+000	 5.866659999993467e+000	 1.011173138562173e+001
0	 6.600030000017847e+000	 5.933329999996683e+000	 1.010913035495384e+001
0	 6.600030000017847e+000	 5.999999999999998e+000	 1.010651769675947e+001
0	 6.666700000016665e+000	 5.333299999983334e+000	 1.012881719741624e+001
0	 6.666700000016668e+000	 5.399969999982151e+000	 1.012634616900085e+001
0	 6.666700000016667e+000	 5.466639999981866e+000	 1.012387847490546e+001
0	 6.666700000016667e+000	 5.533309999982384e+000	 1.012141207850727e+001
0	 6.666700000016667e+000	 5.599979999983600e+000	 1.011894494318355e+001
0	 6.666700000016665e+000	 5.666649999985416e+000	 1.011647503231150e+001
0	 6.666700000016665e+000	 5.733319999987732e+000	 1.011400030926840e+001
0	 6.666700000016665e+000	 5.799989999990448e+000	 1.011151873743145e+001
0	 6.666700000016665e+000	 5.866659999993468e+000	 1.010902828017789e+001
0	 6.666700000016665e+000	 5.933329999996682e+000	 1.010652690088495e+001
0	 6.666700000016668e+000	 6.000000000000002e+000	 1.010401256292989e+001
0	 5.999999999999999e+000	 5.999999999999999e+000	 1.012685512493056e+001
0	 6.000000000000000e+000	 6.066670000003318e+000	 1.012338023871187e+001
0	 6.000000000000000e+000	 6.133340000006533e+000	 1.011995044856874e+001
0	 5.999999999999996e+000	 6.200010000009550e+000	 1.011656348392536e+001
0	 5.999999999999998e+000	 6.266680000012267e+000	 1.011321707420597e+001
0	 6.000000000000000e+000	 6.333350000014585e+000	 1.010990894883480e+001
0	 5.999999999999998e+000	 6.400020000016399e+000	 1.010663683723606e+001
0	 6.000000000000001e+000	 6.466690000017618e+000	 1.010339846883398e+001
0	 6.000000000000002e+000	 6.533360000018136e+000	 1.010019157305279e+001
0	 6.000000000000001e+000	 6.600030000017850e+000	 1.009701387931671e+001
0	 6.000000000000002e+000	 6.666700000016668e+000	 1.009386311704994e+001
0	 6.066670000003318e+000	 6.000000000000000e+000	 1.012490104924053e+001
0	 6.066670000003316e+000	 6.066670000003316e+000	 1.012151124423348e+001
0	 6.066670000003316e+000	 6.133340000006532e+000	 1.011816552015221e+001
0	 6.066670000003319e+000	 6.200010000009550e+000	 1.011486122897030e+001
0	 6.066670000003319e+000	 6.266680000012269e+000	 1.011159572266128e+001
0	 6.066670000003316e+000	 6.333350000014583e+000	 1.010836635319868e+001
0	 6.066670000003319e+000	 6.400020000016401e+000	 1.010517047255604e+001
0	 6.066670000003318e+000	 6.466690000017617e+000	 1.010200543270691e+001
0	 6.066670000003316e+000	 6.533360000018132e+000	 1.009886858562483e+001
0	 6.066670000003317e+000	 6.600030000017850e+000	 1.009575728328334e+001
0	 6.066670000003319e+000	 6.666700000016667e+000	 1.009266887765599e+001
0	 6.133340000006534e+000	 6.000000000000000e+000	 1.012284931057482e+001
0	 6.133340000006535e+000	 6.066670000003318e+000	 1.011954960057376e+001
0	 6.133340000006534e+000	 6.133340000006534e+000	 1.011629211075446e+001
0	 6.133340000006533e+000	 6.200010000009551e+000	 1.011307389463769e+001
0	 6.133340000006533e+000	 6.266680000012268e+000	 1.010989200574415e+001
0	 6.133340000006533e+000	 6.333350000014583e+000	 1.010674349759458e+001
0	 6.133340000006533e+000	 6.400020000016401e+000	 1.010362542370973e+001
0	 6.133340000006532e+000	 6.466690000017617e+000	 1.010053483761034e+001
0	 6.133340000006533e+000	 6.533360000018134e+000	 1.009746879281713e+001
0	 6.133340000006534e+000	 6.600030000017851e+000	 1.009442434285084e+001
0	 6.133340000006531e+000	 6.666700000016665e+000	 1.009139854123220e+001
0	 6.200010000009550e+000	 6.000000000000001e+000	 1.012070901750681e+001
0	 6.200010000009550e+000	 6.066670000003318e+000	 1.011750344474066e+001
0	 6.200010000009551e+000	 6.133340000006533e+000	 1.011433750545919e+001
0	 6.200010000009551e+000	 6.200010000009551e+000	 1.011120803372820e+001
0	 6.200010000009550e+000	 6.266680000012268e+000	 1.010811186361351e+001
0	 6.200010000009550e+000	 6.333350000014583e+000	 1.010504582918092e+001
0	 6.200010000009549e+000	 6.400020000016401e+000	 1.010200676449624e+001
0	 6.200010000009552e+000	 6.466690000017619e+000	 1.009899150362527e+001
0	 6.200010000009551e+000	 6.533360000018135e+000	 1.009599688063382e+001
0	 6.200010000009549e+000	 6.600030000017850e+000	 1.009301972958769e+001
0	 6.200010000009550e+000	 6.666700000016667e+000	 1.009005688455269e+001
0	 6.266680000012266e+000	 5.999999999999998e+000	 1.011848927860987e+001
0	 6.266680000012268e+000	 6.066670000003319e+000	 1.011538091374211e+001
0	 6.266680000012265e+000	 6.133340000006531e+000	 1.011230898935009e+001
0	 6.266680000012265e+000	 6.200010000009550e+000	 1.010927019904259e+001
0	 6.266680000012268e+000	 6.266680000012268e+000	 1.010626123642834e+001
0	 6.266680000012267e+000	 6.333350000014585e+000	 1.010327879511611e+001
0	 6.266680000012268e+000	 6.400020000016402e+000	 1.010031956871464e+001
0	 6.266680000012265e+000	 6.466690000017616e+000	 1.009738025083270e+001
0	 6.266680000012266e+000	 6.533360000018133e+000	 1.009445753507904e+001
0	 6.266680000012267e+000	 6.600030000017852e+000	 1.009154811506241e+001
0	 6.266680000012268e+000	 6.666700000016667e+000	 1.008864868439157e+001
0	 6.333350000014583e+000	 6.000000000000000e+000	 1.011619920245738e+001
0	 6.333350000014582e+000	 6.066670000003317e+000	 1.011319014458602e+001
0	 6.333350000014582e+000	 6.133340000006532e+000	 1.011021384751088e+001
0	 6.333350000014584e+000	 6.200010000009550e+000	 1.010726694338153e+001
0	 6.333350000014582e+000	 6.266680000012268e+000	 1.010434606434755e+001
0	 6.333350000014583e+000	 6.333350000014583e+000	 1.010144784255852e+001
0	 6.333350000014584e+000	 6.400020000016402e+000	 1.009856891016403e+001
0	 6.333350000014582e+000	 6.466690000017616e+000	 1.009570589931365e+001
0	 6.333350000014582e+000	 6.533360000018134e+000	 1.009285544215695e+001
0	 6.333350000014582e+000	 6.600030000017848e+000	 1.009001417084353e+001
0	 6.333350000014583e+000	 6.666700000016667e+000	 1.008717871752296e+001
0	 6.400020000016399e+000	 6.000000000000000e+000	 1.011384789762272e+001
0	 6.400020000016399e+000	 6.066670000003318e+000	 1.011093927428034e+001
0	 6.400020000016398e+000	 6.133340000006531e+000	 1.010805936502524e+001
0	 6.400020000016399e+000	 6.200010000009551e+000	 1.010520481954574e+001
0	 6.400020000016400e+000	 6.266680000012267e+000	 1.010237228753008e+001
0	 6.400020000016400e+000	 6.333350000014583e+000	 1.009955841866658e+001
0	 6.400020000016401e+000	 6.400020000016402e+000	 1.009675986264350e+001
0	 6.400020000016401e+000	 6.466690000017618e+000	 1.009397326914910e+001
0	 6.400020000016399e+000	 6.533360000018136e+000	 1.009119528787170e+001
0	 6.400020000016400e+000	 6.600030000017852e+000	 1.008842256849956e+001
0	 6.400020000016401e+000	 6.666700000016666e+000	 1.008565176072097e+001
0	 6.466690000017616e+000	 6.000000000000001e+000	 1.011144447267926e+001
0	 6.466690000017617e+000	 6.066670000003318e+000	 1.010863643983296e+001
0	 6.466690000017616e+000	 6.133340000006533e+000	 1.010585282697691e+001
0	 6.466690000017615e+000	 6.200010000009551e+000	 1.010309038033592e+001
0	 6.466690000017616e+000	 6.266680000012268e+000	 1.010034584613489e+001
0	 6.466690000017617e+000	 6.333350000014584e+000	 1.009761597059865e+001
0	 6.466690000017616e+000	 6.400020000016400e+000	 1.009489749995211e+001
0	 6.466690000017617e+000	 6.466690000017617e+000	 1.009218718042008e+001
0	 6.466690000017615e+000	 6.533360000018134e+000	 1.008948175822743e+001
0	 6.466690000017616e+000	 6.600030000017850e+000	 1.008677797959902e+001
0	 6.466690000017615e+000	 6.666700000016666e+000	 1.008407259075971e+001
0	 6.533360000018134e+000	 6.000000000000001e+000	 1.010899803620039e+001
0	 6.533360000018130e+000	 6.066670000003315e+000	 1.010628977825185e+001
0	 6.533360000018130e+000	 6.133340000006532e+000	 1.010360151844955e+001
0	 6.533360000018132e+000	 6.200010000009550e+000	 1.010093017855279e+001
0	 6.533360000018130e+000	 6.266680000012266e+000	 1.009827268032091e+001
0	 6.533360000018132e+000	 6.333350000014583e+000	 1.009562594551320e+001
0	 6.533360000018132e+000	 6.400020000016400e+000	 1.009298689588898e+001
0	 6.533360000018130e+000	 6.466690000017617e+000	 1.009035245320757e+001
0	 6.533360000018131e+000	 6.533360000018136e+000	 1.008771953922827e+001
0	 6.533360000018131e+000	 6.600030000017850e+000	 1.008508507571042e+001
0	 6.533360000018131e+000	 6.666700000016665e+000	 1.008244598441332e+001
0	 6.600030000017847e+000	 5.999999999999998e+000	 1.010651769675947e+001
0	 6.600030000017847e+000	 6.066670000003319e+000	 1.010390742654491e+001
0	 6.600030000017850e+000	 6.133340000006535e+000	 1.010131272452688e+001
0	 6.600030000017848e+000	 6.200010000009552e+000	 1.009873076699706e+001
0	 6.600030000017848e+000	 6.266680000012269e+000	 1.009615873024707e+001
0	 6.600030000017848e+000	 6.333350000014584e+000	 1.009359379056856e+001
0	 6.600030000017847e+000	 6.400020000016398e+000	 1.009103312425319e+001
0	 6.600030000017849e+000	 6.466690000017618e+000	 1.008847390759258e+001
0	 6.600030000017847e+000	 6.533360000018134e+000	 1.008591331687841e+001
0	 6.600030000017847e+000	 6.600030000017849e+000	 1.008334852840229e+001
0	 6.600030000017847e+000	 6.666700000016665e+000	 1.008077671845588e+001
0	 6.666700000016668e+000	 6.000000000000002e+000	 1.010401256292989e+001
0	 6.666700000016667e+000	 6.066670000003318e+000	 1.010149752172007e+001
0	 6.666700000016665e+000	 6.133340000006532e+000	 1.009899373029264e+001
0	 6.666700000016666e+000	 6.200010000009550e+000	 1.009649869846943e+001
0	 6.666700000016666e+000	 6.266680000012267e+000	 1.009400993607233e+001
0	 6.666700000016667e+000	 6.333350000014586e+000	 1.009152495292317e+001
0	 6.666700000016667e+000	 6.400020000016401e+000	 1.008904125884381e+001
0	 6.666700000016667e+000	 6.466690000017616e+000	 1.008655636365612e+001
0	 6.666700000016666e+000	 6.533360000018132e+000	 1.008406777718194e+001
0	 6.666700000016667e+000	 6.600030000017851e+000	 1.008157300924314e+001
0	 6.666700000016666e+000	 6.666700000016667e+000	 1.007906956966154e+001
0	 6.000000000000002e+000	 6.666700000016668e+000	 1.009386311704994e+001
0	 6.000000000000000e+000	 6.733360000014532e+000	 1.009074867186973e+001
0	 6.000000000000000e+000	 6.800020000011600e+000	 1.008767926502973e+001
0	 6.000000000000000e+000	 6.866680000008066e+000	 1.008465304146232e+001
0	 6.000000000000001e+000	 6.933340000004134e+000	 1.008166814609987e+001
0	 6.000000000000000e+000	 6.999999999999998e+000	 1.007872272387476e+001
0	 6.000000000000001e+000	 7.066659999995868e+000	 1.007581491971935e+001
0	 6.000000000000000e+000	 7.133319999991935e+000	 1.007294287856601e+001
0	 6.000000000000000e+000	 7.199979999988401e+000	 1.007010474534710e+001
0	 6.000000000000000e+000	 7.266639999985465e+000	 1.006729866499498e+001
0	 6.000000000000000e+000	 7.333299999983332e+000	 1.006452278244204e+001
0	 6.066670000003319e+000	 6.666700000016667e+000	 1.009266887765599e+001
0	 6.066670000003317e+000	 6.733360000014534e+000	 1.008961338358733e+001
0	 6.066670000003314e+000	 6.800020000011598e+000	 1.008660049760312e+001
0	 6.066670000003317e+000	 6.866680000008065e+000	 1.008362847915745e+001
0	 6.066670000003320e+000	 6.933340000004136e+000	 1.008069558770440e+001
0	 6.066670000003319e+000	 7.000000000000000e+000	 1.007780008269805e+001
0	 6.066670000003319e+000	 7.066659999995868e+000	 1.007494022359252e+001
0	 6.066670000003319e+000	 7.133319999991935e+000	 1.007211426984184e+001
0	 6.066670000003317e+000	 7.199979999988400e+000	 1.006932048090011e+001
0	 6.066670000003315e+000	 7.266639999985465e+000	 1.006655711622143e+001
0	 6.066670000003317e+000	 7.333299999983333e+000	 1.006382243525986e+001
0	 6.133340000006531e+000	 6.666700000016665e+000	 1.009139854123220e+001
0	 6.133340000006534e+000	 6.733360000014532e+000	 1.008840232658192e+001
0	 6.133340000006533e+000	 6.800020000011599e+000	 1.008544659506535e+001
0	 6.133340000006533e+000	 6.866680000008065e+000	 1.008252969430928e+001
0	 6.133340000006531e+000	 6.933340000004131e+000	 1.007964997194041e+001
0	 6.133340000006532e+000	 6.999999999999997e+000	 1.007680577558551e+001
0	 6.133340000006534e+000	 7.066659999995868e+000	 1.007399545287133e+001
0	 6.133340000006535e+000	 7.133319999991934e+000	 1.007121735142457e+001
0	 6.133340000006535e+000	 7.199979999988401e+000	 1.006846981887200e+001
0	 6.133340000006532e+000	 7.266639999985466e+000	 1.006575120284035e+001
0	 6.133340000006531e+000	 7.333299999983332e+000	 1.006305985095636e+001
0	 6.200010000009550e+000	 6.666700000016667e+000	 1.009005688455269e+001
0	 6.200010000009550e+000	 6.733360000014531e+000	 1.008712042510945e+001
0	 6.200010000009551e+000	 6.800020000011601e+000	 1.008422259411506e+001
0	 6.200010000009551e+000	 6.866680000008067e+000	 1.008136180101988e+001
0	 6.200010000009551e+000	 6.933340000004134e+000	 1.007853645527426e+001
0	 6.200010000009552e+000	 7.000000000000000e+000	 1.007574496632853e+001
0	 6.200010000009551e+000	 7.066659999995867e+000	 1.007298574363303e+001
0	 6.200010000009551e+000	 7.133319999991936e+000	 1.007025719663812e+001
0	 6.200010000009552e+000	 7.199979999988400e+000	 1.006755773479413e+001
0	 6.200010000009550e+000	 7.266639999985466e+000	 1.006488576755139e+001
0	 6.200010000009550e+000	 7.333299999983334e+000	 1.006223970436024e+001
0	 6.266680000012268e+000	 6.666700000016667e+000	 1.008864868439157e+001
0	 6.266680000012267e+000	 6.733360000014534e+000	 1.008577260342591e+001
0	 6.266680000012267e+000	 6.800020000011600e+000	 1.008293353145088e+001
0	 6.266680000012268e+000	 6.866680000008067e+000	 1.008012991339138e+001
0	 6.266680000012267e+000	 6.933340000004133e+000	 1.007736019417228e+001
0	 6.266680000012264e+000	 6.999999999999997e+000	 1.007462281871850e+001
0	 6.266680000012265e+000	 7.066659999995864e+000	 1.007191623195490e+001
0	 6.266680000012267e+000	 7.133319999991935e+000	 1.006923887880640e+001
0	 6.266680000012266e+000	 7.199979999988402e+000	 1.006658920419784e+001
0	 6.266680000012268e+000	 7.266639999985467e+000	 1.006396565305413e+001
0	 6.266680000012266e+000	 7.333299999983333e+000	 1.006136667030015e+001
0	 6.333350000014583e+000	 6.666700000016667e+000	 1.008717871752296e+001
0	 6.333350000014583e+000	 6.733360000014533e+000	 1.008436378578727e+001
0	 6.333350000014582e+000	 6.800020000011598e+000	 1.008158444377143e+001
0	 6.333350000014583e+000	 6.866680000008065e+000	 1.007883914552582e+001
0	 6.333350000014582e+000	 6.933340000004131e+000	 1.007612634510085e+001
0	 6.333350000014583e+000	 7.000000000000000e+000	 1.007344449654684e+001
0	 6.333350000014582e+000	 7.066659999995867e+000	 1.007079205391420e+001
0	 6.333350000014583e+000	 7.133319999991935e+000	 1.006816747125330e+001
0	 6.333350000014583e+000	 7.199979999988400e+000	 1.006556920261452e+001
0	 6.333350000014583e+000	 7.266639999985467e+000	 1.006299570204821e+001
0	 6.333350000014582e+000	 7.333299999983334e+000	 1.006044542360476e+001
0	 6.400020000016401e+000	 6.666700000016666e+000	 1.008565176072097e+001
0	 6.400020000016401e+000	 6.733360000014534e+000	 1.008289889644950e+001
0	 6.400020000016399e+000	 6.800020000011600e+000	 1.008018036777535e+001
0	 6.400020000016398e+000	 6.866680000008065e+000	 1.007749461152534e+001
0	 6.400020000016401e+000	 6.933340000004134e+000	 1.007484006452626e+001
0	 6.400020000016398e+000	 6.999999999999998e+000	 1.007221516360495e+001
0	 6.400020000016400e+000	 7.066659999995867e+000	 1.006961834558817e+001
0	 6.400020000016399e+000	 7.133319999991935e+000	 1.006704804730278e+001
0	 6.400020000016401e+000	 7.199979999988401e+000	 1.006450270557552e+001
0	 6.400020000016401e+000	 7.266639999985468e+000	 1.006198075723324e+001
0	 6.400020000016400e+000	 7.333299999983335e+000	 1.005948063910274e+001
0	 6.466690000017615e+000	 6.666700000016666e+000	 1.008407259075971e+001
0	 6.466690000017616e+000	 6.733360000014533e+000	 1.008138285966859e+001
0	 6.466690000017616e+000	 6.800020000011600e+000	 1.007872634016129e+001
0	 6.466690000017616e+000	 6.866680000008067e+000	 1.007610142549200e+001
0	 6.466690000017615e+000	 6.933340000004134e+000	 1.007350650891492e+001
0	 6.466690000017616e+000	 7.000000000000001e+000	 1.007093998368422e+001
0	 6.466690000017614e+000	 7.066659999995867e+000	 1.006840024305408e+001
0	 6.466690000017618e+000	 7.133319999991935e+000	 1.006588568027869e+001
0	 6.466690000017618e+000	 7.199979999988401e+000	 1.006339468861222e+001
0	 6.466690000017615e+000	 7.266639999985467e+000	 1.006092566130885e+001
0	 6.466690000017615e+000	 7.333299999983335e+000	 1.005847699162276e+001
0	 6.533360000018131e+000	 6.666700000016665e+000	 1.008244598441332e+001
0	 6.533360000018131e+000	 6.733360000014533e+000	 1.007982059970050e+001
0	 6.533360000018133e+000	 6.800020000011599e+000	 1.007722739762784e+001
0	 6.533360000018133e+000	 6.866680000008068e+000	 1.007466470152790e+001
0	 6.533360000018132e+000	 6.933340000004133e+000	 1.007213083473313e+001
0	 6.533360000018133e+000	 7.000000000000001e+000	 1.006962412057606e+001
0	 6.533360000018132e+000	 7.066659999995867e+000	 1.006714288238918e+001
0	 6.533360000018132e+000	 7.133319999991934e+000	 1.006468544350499e+001
0	 6.533360000018132e+000	 7.199979999988400e+000	 1.006225012725597e+001
0	 6.533360000018131e+000	 7.266639999985466e+000	 1.005983525697464e+001
0	 6.533360000018132e+000	 7.333299999983335e+000	 1.005743915599349e+001
0	 6.600030000017847e+000	 6.666700000016665e+000	 1.008077671845589e+001
0	 6.600030000017850e+000	 6.733360000014533e+000	 1.007821704080119e+001
0	 6.600030000017847e+000	 6.800020000011597e+000	 1.007568857687369e+001
0	 6.600030000017847e+000	 6.866680000008067e+000	 1.007318955373513e+001
0	 6.600030000017847e+000	 6.933340000004133e+000	 1.007071819844728e+001
0	 6.600030000017847e+000	 6.999999999999998e+000	 1.006827273807189e+001
0	 6.600030000017849e+000	 7.066659999995868e+000	 1.006585139967074e+001
0	 6.600030000017849e+000	 7.133319999991934e+000	 1.006345241030557e+001
0	 6.600030000017849e+000	 7.199979999988401e+000	 1.006107399703816e+001
0	 6.600030000017849e+000	 7.266639999985467e+000	 1.005871438693024e+001
0	 6.600030000017847e+000	 7.333299999983334e+000	 1.005637180704361e+001
0	 6.666700000016666e+000	 6.666700000016667e+000	 1.007906956966154e+001
0	 6.666700000016667e+000	 6.733360000014533e+000	 1.007657710722668e+001
0	 6.666700000016665e+000	 6.800020000011598e+000	 1.007411491459743e+001
0	 6.666700000016666e+000	 6.866680000008067e+000	 1.007168109621578e+001
0	 6.666700000016667e+000	 6.933340000004133e+000	 1.006927375652368e+001
0	 6.666700000016665e+000	 6.999999999999999e+000	 1.006689099996310e+001
0	 6.666700000016667e+000	 7.066659999995868e+000	 1.006453093097601e+001
0	 6.666700000016665e+000	 7.133319999991936e+000	 1.006219165400436e+001
0	 6.666700000016666e+000	 7.199979999988400e+000	 1.005987127349013e+001
0	 6.666700000016666e+000	 7.266639999985467e+000	 1.005756789387528e+001
0	 6.666700000016665e+000	 7.333299999983333e+000	 1.005527961960176e+001
0	 6.000000000000000e+000	 7.333299999983332e+000	 1.006452278244204e+001
0	 6.000000000000001e+000	 7.399969999982152e+000	 1.006178881481094e+001
0	 6.000000000000002e+000	 7.466639999981867e+000	 1.005910916218614e+001
0	 6.000000000000001e+000	 7.533309999982384e+000	 1.005648175118747e+001
0	 6.000000000000000e+000	 7.599979999983600e+000	 1.005390450843473e+001
0	 6.000000000000000e+000	 7.666649999985416e+000	 1.005137536054773e+001
0	 6.000000000000000e+000	 7.733319999987733e+000	 1.004889223414629e+001
0	 5.999999999999998e+000	 7.799989999990449e+000	 1.004645305585023e+001
0	 5.999999999999998e+000	 7.866659999993466e+000	 1.004405575227936e+001
0	 6.000000000000000e+000	 7.933329999996684e+000	 1.004169825005350e+001
0	 6.000000000000000e+000	 8.000000000000000e+000	 1.003937847579246e+001
0	 6.066670000003317e+000	 7.333299999983333e+000	 1.006382243525986e+001
0	 6.066670000003317e+000	 7.399969999982152e+000	 1.006112814882140e+001
0	 6.066670000003316e+000	 7.466639999981865e+000	 1.005848654282110e+001
0	 6.066670000003319e+000	 7.533309999982385e+000	 1.005589551484045e+001
0	 6.066670000003319e+000	 7.599979999983599e+000	 1.005335296246089e+001
0	 6.066670000003317e+000	 7.666649999985416e+000	 1.005085678326394e+001
0	 6.066670000003318e+000	 7.733319999987733e+000	 1.004840487483106e+001
0	 6.066670000003319e+000	 7.799989999990449e+000	 1.004599513474374e+001
0	 6.066670000003318e+000	 7.866659999993468e+000	 1.004362546058344e+001
0	 6.066670000003319e+000	 7.933329999996684e+000	 1.004129374993167e+001
0	 6.066670000003318e+000	 8.000000000000002e+000	 1.003899790036990e+001
0	 6.133340000006531e+000	 7.333299999983332e+000	 1.006305985095636e+001
0	 6.133340000006534e+000	 7.399969999982149e+000	 1.006040741997841e+001
0	 6.133340000006534e+000	 7.466639999981867e+000	 1.005780605728721e+001
0	 6.133340000006530e+000	 7.533309999982381e+000	 1.005525364110073e+001
0	 6.133340000006533e+000	 7.599979999983598e+000	 1.005274804963689e+001
0	 6.133340000006534e+000	 7.666649999985415e+000	 1.005028716111367e+001
0	 6.133340000006534e+000	 7.733319999987733e+000	 1.004786885374901e+001
0	 6.133340000006533e+000	 7.799989999990449e+000	 1.004549100576088e+001
0	 6.133340000006534e+000	 7.866659999993468e+000	 1.004315149536723e+001
0	 6.133340000006535e+000	 7.933329999996683e+000	 1.004084820078601e+001
0	 6.133340000006534e+000	 7.999999999999999e+000	 1.003857900023518e+001
0	 6.200010000009550e+000	 7.333299999983334e+000	 1.006223970436024e+001
0	 6.200010000009547e+000	 7.399969999982147e+000	 1.005963111525217e+001
0	 6.200010000009551e+000	 7.466639999981868e+000	 1.005707199981593e+001
0	 6.200010000009551e+000	 7.533309999982385e+000	 1.005456022658079e+001
0	 6.200010000009549e+000	 7.599979999983599e+000	 1.005209366407598e+001
0	 6.200010000009550e+000	 7.666649999985415e+000	 1.004967018083071e+001
0	 6.200010000009549e+000	 7.733319999987732e+000	 1.004728764537425e+001
0	 6.200010000009550e+000	 7.799989999990451e+000	 1.004494392623582e+001
0	 6.200010000009550e+000	 7.866659999993466e+000	 1.004263689194465e+001
0	 6.200010000009550e+000	 7.933329999996684e+000	 1.004036441103000e+001
0	 6.200010000009550e+000	 8.000000000000000e+000	 1.003812435202108e+001
0	 6.266680000012266e+000	 7.333299999983333e+000	 1.006136667030015e+001
0	 6.266680000012268e+000	 7.399969999982152e+000	 1.005880372161282e+001
0	 6.266680000012267e+000	 7.466639999981866e+000	 1.005628866463871e+001
0	 6.266680000012265e+000	 7.533309999982382e+000	 1.005381936789313e+001
0	 6.266680000012268e+000	 7.599979999983600e+000	 1.005139369989141e+001
0	 6.266680000012267e+000	 7.666649999985416e+000	 1.004900952914888e+001
0	 6.266680000012268e+000	 7.733319999987733e+000	 1.004666472418085e+001
0	 6.266680000012266e+000	 7.799989999990449e+000	 1.004435715350265e+001
0	 6.266680000012265e+000	 7.866659999993466e+000	 1.004208468562964e+001
0	 6.266680000012268e+000	 7.933329999996685e+000	 1.003984518907710e+001
0	 6.266680000012268e+000	 8.000000000000000e+000	 1.003763653236036e+001
0	 6.333350000014582e+000	 7.333299999983334e+000	 1.006044542360476e+001
0	 6.333350000014582e+000	 7.399969999982148e+000	 1.005792972603060e+001
0	 6.333350000014582e+000	 7.466639999981865e+000	 1.005546034598700e+001
0	 6.333350000014583e+000	 7.533309999982384e+000	 1.005303516165021e+001
0	 6.333350000014582e+000	 7.599979999983599e+000	 1.005065205119645e+001
0	 6.333350000014583e+000	 7.666649999985416e+000	 1.004830889280194e+001
0	 6.333350000014583e+000	 7.733319999987733e+000	 1.004600356464289e+001
0	 6.333350000014584e+000	 7.799989999990449e+000	 1.004373394489552e+001
0	 6.333350000014584e+000	 7.866659999993467e+000	 1.004149791173607e+001
0	 6.333350000014583e+000	 7.933329999996684e+000	 1.003929334334075e+001
0	 6.333350000014584e+000	 8.000000000000000e+000	 1.003711811788581e+001
0	 6.400020000016400e+000	 7.333299999983335e+000	 1.005948063910274e+001
0	 6.400020000016399e+000	 7.399969999982150e+000	 1.005701361547566e+001
0	 6.400020000016399e+000	 7.466639999981867e+000	 1.005459133809227e+001
0	 6.400020000016400e+000	 7.533309999982382e+000	 1.005221170446454e+001
0	 6.400020000016401e+000	 7.599979999983601e+000	 1.004987261210436e+001
0	 6.400020000016400e+000	 7.666649999985417e+000	 1.004757195852369e+001
0	 6.400020000016399e+000	 7.733319999987734e+000	 1.004530764123444e+001
0	 6.400020000016400e+000	 7.799989999990449e+000	 1.004307755774852e+001
0	 6.400020000016398e+000	 7.866659999993465e+000	 1.004087960557790e+001
0	 6.400020000016398e+000	 7.933329999996682e+000	 1.003871168223446e+001
0	 6.400020000016399e+000	 8.000000000000000e+000	 1.003657168523017e+001
0	 6.466690000017615e+000	 7.333299999983335e+000	 1.005847699162276e+001
0	 6.466690000017614e+000	 7.399969999982149e+000	 1.005605987691820e+001
0	 6.466690000017614e+000	 7.466639999981864e+000	 1.005368593518598e+001
0	 6.466690000017617e+000	 7.533309999982384e+000	 1.005135309294857e+001
0	 6.466690000017613e+000	 7.599979999983598e+000	 1.004905927672841e+001
0	 6.466690000017616e+000	 7.666649999985416e+000	 1.004680241304795e+001
0	 6.466690000017616e+000	 7.733319999987733e+000	 1.004458042842959e+001
0	 6.466690000017615e+000	 7.799989999990448e+000	 1.004239124939580e+001
0	 6.466690000017616e+000	 7.866659999993468e+000	 1.004023280246902e+001
0	 6.466690000017618e+000	 7.933329999996683e+000	 1.003810301417169e+001
0	 6.466690000017616e+000	 8.000000000000000e+000	 1.003599981102625e+001
0	 6.533360000018132e+000	 7.333299999983335e+000	 1.005743915599349e+001
0	 6.533360000018130e+000	 7.399969999982148e+000	 1.005507299732839e+001
0	 6.533360000018130e+000	 7.466639999981864e+000	 1.005274843149959e+001
0	 6.533360000018131e+000	 7.533309999982383e+000	 1.005046342371481e+001
0	 6.533360000018132e+000	 7.599979999983599e+000	 1.004821593918186e+001
0	 6.533360000018132e+000	 7.666649999985417e+000	 1.004600394310848e+001
0	 6.533360000018132e+000	 7.733319999987733e+000	 1.004382540070242e+001
0	 6.533360000018131e+000	 7.799989999990448e+000	 1.004167827717147e+001
0	 6.533360000018131e+000	 7.866659999993466e+000	 1.003956053772338e+001
0	 6.533360000018132e+000	 7.933329999996684e+000	 1.003747014756590e+001
0	 6.533360000018131e+000	 7.999999999999999e+000	 1.003540507190680e+001
0	 6.600030000017847e+000	 7.333299999983334e+000	 1.005637180704361e+001
0	 6.600030000017848e+000	 7.399969999982151e+000	 1.005405746367644e+001
0	 6.600030000017848e+000	 7.466639999981866e+000	 1.005178312126453e+001
0	 6.600030000017849e+000	 7.533309999982385e+000	 1.004954679337574e+001
0	 6.600030000017847e+000	 7.599979999983599e+000	 1.004734649357797e+001
0	 6.600030000017847e+000	 7.666649999985415e+000	 1.004518023543911e+001
0	 6.600030000017848e+000	 7.733319999987733e+000	 1.004304603252704e+001
0	 6.600030000017847e+000	 7.799989999990449e+000	 1.004094189840966e+001
0	 6.600030000017847e+000	 7.866659999993465e+000	 1.003886584665487e+001
0	 6.600030000017846e+000	 7.933329999996682e+000	 1.003681589083056e+001
0	 6.600030000017848e+000	 8.000000000000000e+000	 1.003479004450459e+001
0	 6.666700000016665e+000	 7.333299999983333e+000	 1.005527961960176e+001
0	 6.666700000016665e+000	 7.399969999982150e+000	 1.005301776293255e+001
0	 6.666700000016668e+000	 7.466639999981867e+000	 1.005079429871229e+001
0	 6.666700000016667e+000	 7.533309999982384e+000	 1.004860729854382e+001
0	 6.666700000016665e+000	 7.599979999983599e+000	 1.004645483402999e+001
0	 6.666700000016666e+000	 7.666649999985416e+000	 1.004433497677360e+001
0	 6.666700000016665e+000	 7.733319999987731e+000	 1.004224579837749e+001
0	 6.666700000016665e+000	 7.799989999990450e+000	 1.004018537044451e+001
0	 6.666700000016665e+000	 7.866659999993465e+000	 1.003815176457743e+001
0	 6.666700000016666e+000	 7.933329999996684e+000	 1.003614305237913e+001
0	 6.666700000016668e+000	 8.000000000000000e+000	 1.003415730545241e+001
0	 6.000000000000000e+000	 8.000000000000000e+000	 1.003937847579246e+001
0	 5.999999999999999e+000	 8.066670000003319e+000	 1.003710912055598e+001
0	 6.000000000000001e+000	 8.133340000006534e+000	 1.003490276880156e+001
0	 5.999999999999998e+000	 8.200010000009549e+000	 1.003275718724566e+001
0	 6.000000000000000e+000	 8.266680000012267e+000	 1.003067014260481e+001
0	 6.000000000000001e+000	 8.333350000014583e+000	 1.002863940159548e+001
0	 6.000000000000000e+000	 8.400020000016401e+000	 1.002666273093419e+001
0	 6.000000000000000e+000	 8.466690000017616e+000	 1.002473789733739e+001
0	 6.000000000000000e+000	 8.533360000018133e+000	 1.002286266752161e+001
0	 5.999999999999998e+000	 8.600030000017849e+000	 1.002103480820337e+001
0	 6.000000000000000e+000	 8.666700000016666e+000	 1.001925208609910e+001
0	 6.066670000003318e+000	 8.000000000000002e+000	 1.003899790036990e+001
0	 6.066670000003318e+000	 8.066670000003317e+000	 1.003675136934081e+001
0	 6.066670000003315e+000	 8.133340000006532e+000	 1.003456748899479e+001
0	 6.066670000003318e+000	 8.200010000009552e+000	 1.003244396897488e+001
0	 6.066670000003316e+000	 8.266680000012267e+000	 1.003037851892420e+001
0	 6.066670000003314e+000	 8.333350000014582e+000	 1.002836884848580e+001
0	 6.066670000003317e+000	 8.400020000016399e+000	 1.002641266730276e+001
0	 6.066670000003319e+000	 8.466690000017620e+000	 1.002450768501812e+001
0	 6.066670000003316e+000	 8.533360000018133e+000	 1.002265161127498e+001
0	 6.066670000003317e+000	 8.600030000017849e+000	 1.002084215571640e+001
0	 6.066670000003318e+000	 8.666700000016668e+000	 1.001907702798548e+001
0	 6.133340000006534e+000	 7.999999999999999e+000	 1.003857900023518e+001
0	 6.133340000006533e+000	 8.066670000003315e+000	 1.003635796000732e+001
0	 6.133340000006532e+000	 8.133340000006534e+000	 1.003419900148480e+001
0	 6.133340000006533e+000	 8.200010000009549e+000	 1.003209978552020e+001
0	 6.133340000006532e+000	 8.266680000012268e+000	 1.003005797296613e+001
0	 6.133340000006535e+000	 8.333350000014583e+000	 1.002807122467525e+001
0	 6.133340000006534e+000	 8.400020000016401e+000	 1.002613720150011e+001
0	 6.133340000006533e+000	 8.466690000017618e+000	 1.002425356429339e+001
0	 6.133340000006533e+000	 8.533360000018135e+000	 1.002241797390765e+001
0	 6.133340000006536e+000	 8.600030000017849e+000	 1.002062809119554e+001
0	 6.133340000006533e+000	 8.666700000016665e+000	 1.001888157700966e+001
0	 6.200010000009550e+000	 8.000000000000000e+000	 1.003812435202108e+001
0	 6.200010000009549e+000	 8.066670000003319e+000	 1.003593124823719e+001
0	 6.200010000009550e+000	 8.133340000006536e+000	 1.003379946754152e+001
0	 6.200010000009550e+000	 8.200010000009550e+000	 1.003172663027921e+001
0	 6.200010000009550e+000	 8.266680000012267e+000	 1.002971035679534e+001
0	 6.200010000009550e+000	 8.333350000014583e+000	 1.002774826743506e+001
0	 6.200010000009549e+000	 8.400020000016403e+000	 1.002583798254348e+001
0	 6.200010000009550e+000	 8.466690000017618e+000	 1.002397712246571e+001
0	 6.200010000009550e+000	 8.533360000018137e+000	 1.002216330754689e+001
0	 6.200010000009551e+000	 8.600030000017851e+000	 1.002039415813211e+001
0	 6.200010000009551e+000	 8.666700000016666e+000	 1.001866729456653e+001
0	 6.266680000012268e+000	 8.000000000000000e+000	 1.003763653236036e+001
0	 6.266680000012268e+000	 8.066670000003315e+000	 1.003547358971204e+001
0	 6.266680000012265e+000	 8.133340000006532e+000	 1.003337104843491e+001
0	 6.266680000012265e+000	 8.200010000009550e+000	 1.003132649664956e+001
0	 6.266680000012267e+000	 8.266680000012268e+000	 1.002933752247656e+001
0	 6.266680000012267e+000	 8.333350000014582e+000	 1.002740171403650e+001
0	 6.266680000012267e+000	 8.400020000016401e+000	 1.002551665944997e+001
0	 6.266680000012266e+000	 8.466690000017616e+000	 1.002367994683757e+001
0	 6.266680000012268e+000	 8.533360000018135e+000	 1.002188916431988e+001
0	 6.266680000012266e+000	 8.600030000017849e+000	 1.002014190001749e+001
0	 6.266680000012265e+000	 8.666700000016666e+000	 1.001843574205102e+001
0	 6.333350000014584e+000	 8.000000000000000e+000	 1.003711811788581e+001
0	 6.333350000014583e+000	 8.066670000003317e+000	 1.003498734011356e+001
0	 6.333350000014583e+000	 8.133340000006534e+000	 1.003291590543493e+001
0	 6.333350000014583e+000	 8.200010000009552e+000	 1.003090137802891e+001
0	 6.333350000014582e+000	 8.266680000012268e+000	 1.002894132207453e+001
0	 6.333350000014583e+000	 8.333350000014583e+000	 1.002703330175081e+001
0	 6.333350000014582e+000	 8.400020000016401e+000	 1.002517488123678e+001
0	 6.333350000014583e+000	 8.466690000017620e+000	 1.002336362471146e+001
0	 6.333350000014582e+000	 8.533360000018133e+000	 1.002159709635387e+001
0	 6.333350000014584e+000	 8.600030000017851e+000	 1.001987286034304e+001
0	 6.333350000014583e+000	 8.666700000016668e+000	 1.001818848085800e+001
0	 6.400020000016399e+000	 8.000000000000000e+000	 1.003657168523017e+001
0	 6.400020000016400e+000	 8.066670000003319e+000	 1.003447485512340e+001
0	 6.400020000016399e+000	 8.133340000006534e+000	 1.003243619981150e+001
0	 6.400020000016399e+000	 8.200010000009550e+000	 1.003045326781490e+001
0	 6.400020000016399e+000	 8.266680000012267e+000	 1.002852360765401e+001
0	 6.400020000016397e+000	 8.333350000014582e+000	 1.002664476784928e+001
0	 6.400020000016399e+000	 8.400020000016399e+000	 1.002481429692108e+001
0	 6.400020000016399e+000	 8.466690000017618e+000	 1.002302974338988e+001
0	 6.400020000016397e+000	 8.533360000018133e+000	 1.002128865577608e+001
0	 6.400020000016400e+000	 8.600030000017851e+000	 1.001958858260011e+001
0	 6.400020000016399e+000	 8.666700000016666e+000	 1.001792707238239e+001
0	 6.466690000017616e+000	 8.000000000000000e+000	 1.003599981102625e+001
0	 6.466690000017618e+000	 8.066670000003319e+000	 1.003393849042319e+001
0	 6.466690000017615e+000	 8.133340000006532e+000	 1.003193409283457e+001
0	 6.466690000017614e+000	 8.200010000009552e+000	 1.002998415940516e+001
0	 6.466690000017617e+000	 8.266680000012268e+000	 1.002808623127975e+001
0	 6.466690000017615e+000	 8.333350000014587e+000	 1.002623784960311e+001
0	 6.466690000017616e+000	 8.400020000016401e+000	 1.002443655552004e+001
0	 6.466690000017616e+000	 8.466690000017618e+000	 1.002267989017532e+001
0	 6.466690000017614e+000	 8.533360000018133e+000	 1.002096539471371e+001
0	 6.466690000017617e+000	 8.600030000017853e+000	 1.001929061028004e+001
0	 6.466690000017617e+000	 8.666700000016666e+000	 1.001765307801907e+001
0	 6.533360000018131e+000	 7.999999999999999e+000	 1.003540507190680e+001
0	 6.533360000018131e+000	 8.066670000003317e+000	 1.003338060169461e+001
0	 6.533360000018131e+000	 8.133340000006534e+000	 1.003141174577409e+001
0	 6.533360000018131e+000	 8.200010000009549e+000	 1.002949604619735e+001
0	 6.533360000018132e+000	 8.266680000012265e+000	 1.002763104501649e+001
0	 6.533360000018132e+000	 8.333350000014585e+000	 1.002581428428361e+001
0	 6.533360000018132e+000	 8.400020000016399e+000	 1.002404330605084e+001
0	 6.533360000018133e+000	 8.466690000017616e+000	 1.002231565237027e+001
0	 6.533360000018130e+000	 8.533360000018133e+000	 1.002062886529403e+001
0	 6.533360000018130e+000	 8.600030000017849e+000	 1.001898048687422e+001
0	 6.533360000018133e+000	 8.666700000016665e+000	 1.001736805916296e+001
0	 6.600030000017848e+000	 8.000000000000000e+000	 1.003479004450459e+001
0	 6.600030000017848e+000	 8.066670000003317e+000	 1.003280354461932e+001
0	 6.600030000017850e+000	 8.133340000006534e+000	 1.003087131990002e+001
0	 6.600030000017847e+000	 8.200010000009550e+000	 1.002899092158911e+001
0	 6.600030000017848e+000	 8.266680000012267e+000	 1.002715990092897e+001
0	 6.600030000017848e+000	 8.333350000014583e+000	 1.002537580916202e+001
0	 6.600030000017848e+000	 8.400020000016399e+000	 1.002363619753063e+001
0	 6.600030000017849e+000	 8.466690000017620e+000	 1.002193861727724e+001
0	 6.600030000017848e+000	 8.533360000018135e+000	 1.002028061964423e+001
0	 6.600030000017847e+000	 8.600030000017849e+000	 1.001865975587400e+001
0	 6.600030000017849e+000	 8.666700000016666e+000	 1.001707357720897e+001
0	 6.666700000016668e+000	 8.000000000000000e+000	 1.003415730545241e+001
0	 6.666700000016666e+000	 8.066670000003317e+000	 1.003220967487895e+001
0	 6.666700000016665e+000	 8.133340000006532e+000	 1.003031497648230e+001
0	 6.666700000016666e+000	 8.200010000009550e+000	 1.002847077897807e+001
0	 6.666700000016665e+000	 8.266680000012267e+000	 1.002667465108196e+001
0	 6.666700000016666e+000	 8.333350000014583e+000	 1.002492416150958e+001
0	 6.666700000016667e+000	 8.400020000016401e+000	 1.002321687897661e+001
0	 6.666700000016667e+000	 8.466690000017618e+000	 1.002155037219873e+001
0	 6.666700000016665e+000	 8.533360000018133e+000	 1.001992220989154e+001
0	 6.666700000016666e+000	 8.600030000017851e+000	 1.001832996077074e+001
0	 6.666700000016666e+000	 8.666700000016666e+000	 1.001677119355197e+001
0	 6.000000000000000e+000	 8.666700000016666e+000	 1.001925208609910e+001
0	 6.000000000000000e+000	 8.733360002791903e+000	 1.001753433367630e+001
0	 6.000000000000000e+000	 8.800020022230555e+000	 1.001589990051217e+001
0	 6.000000000000000e+000	 8.866680074997040e+000	 1.001434512117919e+001
0	 6.000000000000000e+000	 8.933340177755781e+000	 1.001286633001893e+001
0	 6.000000000000000e+000	 9.000000347171181e+000	 1.001145986114213e+001
0	 6.000000000000001e+000	 9.066660599907667e+000	 1.001012204842861e+001
0	 5.999999999999998e+000	 9.133320952629655e+000	 1.000884922552733e+001
0	 6.000000000000000e+000	 9.199981422001558e+000	 1.000763772585638e+001
0	 5.999999999999998e+000	 9.266642024687796e+000	 1.000648388260293e+001
0	 6.000000000000000e+000	 9.333302777352783e+000	 1.000538402872331e+001
0	 6.066670000003318e+000	 8.666700000016668e+000	 1.001907702798548e+001
0	 6.066670000003316e+000	 8.733360002791903e+000	 1.001737580386453e+001
0	 6.066670000003314e+000	 8.800020022230555e+000	 1.001575668790101e+001
0	 6.066670000003318e+000	 8.866680074997040e+000	 1.001421611735221e+001
0	 6.066670000003318e+000	 8.933340177755778e+000	 1.001275052924674e+001
0	 6.066670000003319e+000	 9.000000347171183e+000	 1.001135636038460e+001
0	 6.066670000003319e+000	 9.066660599907669e+000	 1.001003004733704e+001
0	 6.066670000003317e+000	 9.133320952629656e+000	 1.000876802644670e+001
0	 6.066670000003318e+000	 9.199981422001562e+000	 1.000756673382754e+001
0	 6.066670000003316e+000	 9.266642024687796e+000	 1.000642260536486e+001
0	 6.066670000003316e+000	 9.333302777352783e+000	 1.000533207671524e+001
0	 6.133340000006533e+000	 8.666700000016665e+000	 1.001888157700966e+001
0	 6.133340000006531e+000	 8.733360002791903e+000	 1.001719788530023e+001
0	 6.133340000006533e+000	 8.800020022230553e+000	 1.001559519959645e+001
0	 6.133340000006534e+000	 8.866680074997040e+000	 1.001407005143508e+001
0	 6.133340000006534e+000	 8.933340177755776e+000	 1.001261897212638e+001
0	 6.133340000006535e+000	 9.000000347171183e+000	 1.001123849275417e+001
0	 6.133340000006532e+000	 9.066660599907666e+000	 1.000992514417573e+001
0	 6.133340000006534e+000	 9.133320952629656e+000	 1.000867545702187e+001
0	 6.133340000006534e+000	 9.199981422001560e+000	 1.000748596169692e+001
0	 6.133340000006532e+000	 9.266642024687798e+000	 1.000635318837875e+001
0	 6.133340000006533e+000	 9.333302777352783e+000	 1.000527366701866e+001
0	 6.200010000009551e+000	 8.666700000016666e+000	 1.001866729456653e+001
0	 6.200010000009551e+000	 8.733360002791905e+000	 1.001700215997543e+001
0	 6.200010000009549e+000	 8.800020022230555e+000	 1.001541701704478e+001
0	 6.200010000009550e+000	 8.866680074997042e+000	 1.001390848318554e+001
0	 6.200010000009550e+000	 8.933340177755779e+000	 1.001247317558425e+001
0	 6.200010000009550e+000	 9.000000347171179e+000	 1.001110771120319e+001
0	 6.200010000009551e+000	 9.066660599907669e+000	 1.000980870678037e+001
0	 6.200010000009549e+000	 9.133320952629655e+000	 1.000857277882947e+001
0	 6.200010000009550e+000	 9.199981422001558e+000	 1.000739654363984e+001
0	 6.200010000009550e+000	 9.266642024687799e+000	 1.000627661727658e+001
0	 6.200010000009550e+000	 9.333302777352781e+000	 1.000520961558044e+001
0	 6.266680000012265e+000	 8.666700000016666e+000	 1.001843574205102e+001
0	 6.266680000012266e+000	 8.733360002791901e+000	 1.001679020988214e+001
0	 6.266680000012265e+000	 8.800020022230552e+000	 1.001522372169233e+001
0	 6.266680000012267e+000	 8.866680074997042e+000	 1.001373297236131e+001
0	 6.266680000012268e+000	 8.933340177755781e+000	 1.001231465654669e+001
0	 6.266680000012267e+000	 9.000000347171183e+000	 1.001096546868401e+001
0	 6.266680000012264e+000	 9.066660599907666e+000	 1.000968210298670e+001
0	 6.266680000012266e+000	 9.133320952629656e+000	 1.000846125344615e+001
0	 6.266680000012265e+000	 9.199981422001558e+000	 1.000729961383165e+001
0	 6.266680000012268e+000	 9.266642024687798e+000	 1.000619387769040e+001
0	 6.266680000012267e+000	 9.333302777352783e+000	 1.000514073834746e+001
0	 6.333350000014583e+000	 8.666700000016668e+000	 1.001818848085801e+001
0	 6.333350000014584e+000	 8.733360002791903e+000	 1.001656361701243e+001
0	 6.333350000014582e+000	 8.800020022230555e+000	 1.001501689498542e+001
0	 6.333350000014583e+000	 8.866680074997040e+000	 1.001354507872017e+001
0	 6.333350000014582e+000	 8.933340177755781e+000	 1.001214493194013e+001
0	 6.333350000014583e+000	 9.000000347171183e+000	 1.001081321814893e+001
0	 6.333350000014582e+000	 9.066660599907669e+000	 1.000954670063039e+001
0	 6.333350000014582e+000	 9.133320952629653e+000	 1.000834214244856e+001
0	 6.333350000014582e+000	 9.199981422001558e+000	 1.000719630644767e+001
0	 6.333350000014584e+000	 9.266642024687798e+000	 1.000610595525216e+001
0	 6.333350000014585e+000	 9.333302777352783e+000	 1.000506785126663e+001
0	 6.400020000016399e+000	 8.666700000016666e+000	 1.001792707238239e+001
0	 6.400020000016399e+000	 8.733360002791903e+000	 1.001632396335833e+001
0	 6.400020000016400e+000	 8.800020022230557e+000	 1.001479811837031e+001
0	 6.400020000016401e+000	 8.866680074997042e+000	 1.001334636201981e+001
0	 6.400020000016399e+000	 8.933340177755779e+000	 1.001196551869092e+001
0	 6.400020000016397e+000	 9.000000347171179e+000	 1.001065241255028e+001
0	 6.400020000016400e+000	 9.066660599907669e+000	 1.000940386754712e+001
0	 6.400020000016400e+000	 9.133320952629656e+000	 1.000821670741333e+001
0	 6.400020000016399e+000	 9.199981422001558e+000	 1.000708775566325e+001
0	 6.400020000016398e+000	 9.266642024687796e+000	 1.000601383559389e+001
0	 6.400020000016399e+000	 9.333302777352783e+000	 1.000499177028483e+001
0	 6.466690000017617e+000	 8.666700000016666e+000	 1.001765307801907e+001
0	 6.466690000017616e+000	 8.733360002791899e+000	 1.001607283091188e+001
0	 6.466690000017617e+000	 8.800020022230559e+000	 1.001456897329335e+001
0	 6.466690000017616e+000	 8.866680074997042e+000	 1.001313838201800e+001
0	 6.466690000017613e+000	 8.933340177755776e+000	 1.001177793372546e+001
0	 6.466690000017617e+000	 9.000000347171181e+000	 1.001048450484040e+001
0	 6.466690000017615e+000	 9.066660599907673e+000	 1.000925497157265e+001
0	 6.466690000017614e+000	 9.133320952629656e+000	 1.000808620991709e+001
0	 6.466690000017616e+000	 9.199981422001557e+000	 1.000697509565372e+001
0	 6.466690000017616e+000	 9.266642024687796e+000	 1.000591850434761e+001
0	 6.466690000017616e+000	 9.333302777352783e+000	 1.000491331134894e+001
0	 6.533360000018133e+000	 8.666700000016665e+000	 1.001736805916296e+001
0	 6.533360000018132e+000	 8.733360002791901e+000	 1.001581180166510e+001
0	 6.533360000018132e+000	 8.800020022230555e+000	 1.001433104120084e+001
0	 6.533360000018132e+000	 8.866680074997044e+000	 1.001292269847248e+001
0	 6.533360000018130e+000	 8.933340177755779e+000	 1.001158369397012e+001
0	 6.533360000018133e+000	 9.000000347171184e+000	 1.001031094797163e+001
0	 6.533360000018130e+000	 9.066660599907664e+000	 1.000910138054264e+001
0	 6.533360000018132e+000	 9.133320952629655e+000	 1.000795191153651e+001
0	 6.533360000018130e+000	 9.199981422001557e+000	 1.000685946059442e+001
0	 6.533360000018131e+000	 9.266642024687796e+000	 1.000582094714531e+001
0	 6.533360000018131e+000	 9.333302777352781e+000	 1.000483329040584e+001
0	 6.600030000017849e+000	 8.666700000016666e+000	 1.001707357720896e+001
0	 6.600030000017848e+000	 8.733360002791901e+000	 1.001554245761006e+001
0	 6.600030000017847e+000	 8.800020022230555e+000	 1.001408590353908e+001
0	 6.600030000017849e+000	 8.866680074997040e+000	 1.001270087114097e+001
0	 6.600030000017848e+000	 8.933340177755778e+000	 1.001138431635131e+001
0	 6.600030000017850e+000	 9.000000347171184e+000	 1.001013319489629e+001
0	 6.600030000017849e+000	 9.066660599907669e+000	 1.000894446229278e+001
0	 6.600030000017847e+000	 9.133320952629655e+000	 1.000781507384820e+001
0	 6.600030000017847e+000	 9.199981422001558e+000	 1.000674198466070e+001
0	 6.600030000017847e+000	 9.266642024687796e+000	 1.000572214961898e+001
0	 6.600030000017848e+000	 9.333302777352783e+000	 1.000475252340245e+001
0	 6.666700000016666e+000	 8.666700000016666e+000	 1.001677119355197e+001
0	 6.666700000016665e+000	 8.733360002791899e+000	 1.001526638073876e+001
0	 6.666700000016665e+000	 8.800020022230555e+000	 1.001383514175439e+001
0	 6.666700000016666e+000	 8.866680074997040e+000	 1.001247445978123e+001
0	 6.666700000016667e+000	 8.933340177755779e+000	 1.001118131779539e+001
0	 6.666700000016666e+000	 9.000000347171179e+000	 1.000995269856673e+001
0	 6.666700000016667e+000	 9.066660599907669e+000	 1.000878558465877e+001
0	 6.666700000016666e+000	 9.133320952629658e+000	 1.000767695842882e+001
0	 6.666700000016665e+000	 9.199981422001558e+000	 1.000662380202787e+001
0	 6.666700000016667e+000	 9.266642024687796e+000	 1.000562309740067e+001
0	 6.666700000016665e+000	 9.333302777352781e+000	 1.000467182628563e+001
0	 6.000000000000000e+000	 9.333302777352783e+000	 1.000538402872331e+001
0	 6.000000000000002e+000	 9.399973674588175e+000	 1.000436990426861e+001
0	 5.999999999999998e+000	 9.466644621844619e+000	 1.000347283058333e+001
0	 6.000000000000001e+000	 9.533315502450000e+000	 1.000268803078091e+001
0	 6.000000000000001e+000	 9.599986199732197e+000	 1.000201073034210e+001
0	 6.000000000000001e+000	 9.666656597019093e+000	 1.000143615711465e+001
0	 6.000000000000002e+000	 9.733326577638577e+000	 1.000095954131358e+001
0	 6.000000000000000e+000	 9.799996024918523e+000	 1.000057611552103e+001
0	 6.000000000000000e+000	 9.866664822186824e+000	 1.000028111468649e+001
0	 6.000000000000000e+000	 9.933332852771352e+000	 1.000006977612717e+001
0	 6.000000000000000e+000	 1.000000000000000e+001	 9.999937339528000e+000
0	 6.066670000003316e+000	 9.333302777352783e+000	 1.000533207671523e+001
0	 6.066670000003318e+000	 9.399973674588177e+000	 1.000432689610645e+001
0	 6.066670000003318e+000	 9.466644621844623e+000	 1.000343827387781e+001
0	 6.066670000003317e+000	 9.533315502450000e+000	 1.000266136118412e+001
0	 6.066670000003315e+000	 9.599986199732195e+000	 1.000199131153037e+001
0	 6.066670000003318e+000	 9.666656597019097e+000	 1.000142328077191e+001
0	 6.066670000003316e+000	 9.733326577638573e+000	 1.000095242711427e+001
0	 6.066670000003315e+000	 9.799996024918524e+000	 1.000057391111344e+001
0	 6.066670000003316e+000	 9.866664822186820e+000	 1.000028289567575e+001
0	 6.066670000003318e+000	 9.933332852771354e+000	 1.000007454605843e+001
0	 6.066670000003317e+000	 1.000000000000000e+001	 9.999944029869637e+000
0	 6.133340000006533e+000	 9.333302777352783e+000	 1.000527366701866e+001
0	 6.133340000006534e+000	 9.399973674588177e+000	 1.000427891799601e+001
0	 6.133340000006533e+000	 9.466644621844623e+000	 1.000339982827878e+001
0	 6.133340000006535e+000	 9.533315502450003e+000	 1.000263150490725e+001
0	 6.133340000006533e+000	 9.599986199732195e+000	 1.000196905725037e+001
0	 6.133340000006532e+000	 9.666656597019093e+000	 1.000140759700571e+001
0	 6.133340000006534e+000	 9.733326577638575e+000	 1.000094223819967e+001
0	 6.133340000006531e+000	 9.799996024918521e+000	 1.000056809718724e+001
0	 6.133340000006532e+000	 9.866664822186820e+000	 1.000028029265257e+001
0	 6.133340000006532e+000	 9.933332852771351e+000	 1.000007394560868e+001
0	 6.133340000006534e+000	 1.000000000000000e+001	 9.999944179398332e+000
0	 6.200010000009550e+000	 9.333302777352781e+000	 1.000520961558044e+001
0	 6.200010000009551e+000	 9.399973674588177e+000	 1.000422663169414e+001
0	 6.200010000009549e+000	 9.466644621844621e+000	 1.000335805353835e+001
0	 6.200010000009549e+000	 9.533315502450000e+000	 1.000259897188252e+001
0	 6.200010000009550e+000	 9.599986199732197e+000	 1.000194447979907e+001
0	 6.200010000009551e+000	 9.666656597019095e+000	 1.000138967266336e+001
0	 6.200010000009550e+000	 9.733326577638575e+000	 1.000092964815368e+001
0	 6.200010000009550e+000	 9.799996024918523e+000	 1.000055950625140e+001
0	 6.200010000009550e+000	 9.866664822186822e+000	 1.000027434924106e+001
0	 6.200010000009550e+000	 9.933332852771352e+000	 1.000006928171057e+001
0	 6.200010000009550e+000	 1.000000000000000e+001	 9.999939410551631e+000
0	 6.266680000012267e+000	 9.333302777352783e+000	 1.000514073834746e+001
0	 6.266680000012266e+000	 9.399973674588173e+000	 1.000417069895777e+001
0	 6.266680000012268e+000	 9.466644621844623e+000	 1.000331350940868e+001
0	 6.266680000012266e+000	 9.533315502450000e+000	 1.000256427204211e+001
0	 6.266680000012265e+000	 9.599986199732197e+000	 1.000191809147356e+001
0	 6.266680000012267e+000	 9.666656597019092e+000	 1.000137007459205e+001
0	 6.266680000012268e+000	 9.733326577638573e+000	 1.000091533056033e+001
0	 6.266680000012267e+000	 9.799996024918524e+000	 1.000054897081466e+001
0	 6.266680000012265e+000	 9.866664822186824e+000	 1.000026610906533e+001
0	 6.266680000012268e+000	 9.933332852771356e+000	 1.000006186129661e+001
0	 6.266680000012268e+000	 1.000000000000000e+001	 9.999931345767061e+000
0	 6.333350000014585e+000	 9.333302777352783e+000	 1.000506785126663e+001
0	 6.333350000014582e+000	 9.399973674588177e+000	 1.000411178154375e+001
0	 6.333350000014581e+000	 9.466644621844619e+000	 1.000326675564194e+001
0	 6.333350000014582e+000	 9.533315502449998e+000	 1.000252791531822e+001
0	 6.333350000014584e+000	 9.599986199732195e+000	 1.000189040457080e+001
0	 6.333350000014583e+000	 9.666656597019095e+000	 1.000134936963907e+001
0	 6.333350000014583e+000	 9.733326577638575e+000	 1.000089995900351e+001
0	 6.333350000014583e+000	 9.799996024918524e+000	 1.000053732338599e+001
0	 6.333350000014582e+000	 9.866664822186822e+000	 1.000025661574971e+001
0	 6.333350000014581e+000	 9.933332852771352e+000	 1.000005299129956e+001
0	 6.333350000014583e+000	 1.000000000000000e+001	 9.999921607482431e+000
0	 6.400020000016399e+000	 9.333302777352783e+000	 1.000499177028483e+001
0	 6.400020000016398e+000	 9.399973674588177e+000	 1.000405054120895e+001
0	 6.400020000016398e+000	 9.466644621844623e+000	 1.000321835199023e+001
0	 6.400020000016399e+000	 9.533315502449998e+000	 1.000249041164300e+001
0	 6.400020000016401e+000	 9.599986199732197e+000	 1.000186193138788e+001
0	 6.400020000016398e+000	 9.666656597019092e+000	 1.000132812465158e+001
0	 6.400020000016398e+000	 9.733326577638573e+000	 1.000088420706720e+001
0	 6.400020000016400e+000	 9.799996024918523e+000	 1.000052539647414e+001
0	 6.400020000016398e+000	 9.866664822186820e+000	 1.000024691291824e+001
0	 6.400020000016398e+000	 9.933332852771351e+000	 1.000004397865207e+001
0	 6.400020000016400e+000	 1.000000000000000e+001	 9.999911818135246e+000
0	 6.466690000017616e+000	 9.333302777352783e+000	 1.000491331134893e+001
0	 6.466690000017616e+000	 9.399973674588178e+000	 1.000398763971028e+001
0	 6.466690000017616e+000	 9.466644621844623e+000	 1.000316885820576e+001
0	 6.466690000017616e+000	 9.533315502450002e+000	 1.000245227094869e+001
0	 6.466690000017615e+000	 9.599986199732195e+000	 1.000183318422173e+001
0	 6.466690000017615e+000	 9.666656597019095e+000	 1.000130690647685e+001
0	 6.466690000017617e+000	 9.733326577638577e+000	 1.000086874833535e+001
0	 6.466690000017616e+000	 9.799996024918526e+000	 1.000051402258795e+001
0	 6.466690000017615e+000	 9.866664822186818e+000	 1.000023804419504e+001
0	 6.466690000017617e+000	 9.933332852771354e+000	 1.000003613028672e+001
0	 6.466690000017615e+000	 1.000000000000000e+001	 9.999903600163181e+000
0	 6.533360000018131e+000	 9.333302777352781e+000	 1.000483329040584e+001
0	 6.533360000018132e+000	 9.399973674588177e+000	 1.000392373880459e+001
0	 6.533360000018130e+000	 9.466644621844619e+000	 1.000311883404062e+001
0	 6.533360000018132e+000	 9.533315502450000e+000	 1.000241400316744e+001
0	 6.533360000018130e+000	 9.599986199732195e+000	 1.000180467536948e+001
0	 6.533360000018132e+000	 9.666656597019093e+000	 1.000128628196214e+001
0	 6.533360000018133e+000	 9.733326577638575e+000	 1.000085425639194e+001
0	 6.533360000018131e+000	 9.799996024918521e+000	 1.000050403423639e+001
0	 6.533360000018132e+000	 9.866664822186822e+000	 1.000023105320437e+001
0	 6.533360000018130e+000	 9.933332852771352e+000	 1.000003075313615e+001
0	 6.533360000018132e+000	 1.000000000000000e+001	 9.999898576003808e+000
0	 6.600030000017848e+000	 9.333302777352783e+000	 1.000475252340244e+001
0	 6.600030000017847e+000	 9.399973674588177e+000	 1.000385950024875e+001
0	 6.600030000017848e+000	 9.466644621844621e+000	 1.000306883924700e+001
0	 6.600030000017849e+000	 9.533315502450003e+000	 1.000237611823145e+001
0	 6.600030000017847e+000	 9.599986199732198e+000	 1.000177691712807e+001
0	 6.600030000017849e+000	 9.666656597019093e+000	 1.000126681795466e+001
0	 6.600030000017850e+000	 9.733326577638577e+000	 1.000084140482085e+001
0	 6.600030000017848e+000	 9.799996024918523e+000	 1.000049626392819e+001
0	 6.600030000017848e+000	 9.866664822186824e+000	 1.000022698357029e+001
0	 6.600030000017847e+000	 9.933332852771352e+000	 1.000002915413305e+001
0	 6.600030000017848e+000	 1.000000000000000e+001	 9.999898368094831e+000
0	 6.666700000016665e+000	 9.333302777352781e+000	 1.000467182628563e+001
0	 6.666700000016666e+000	 9.399973674588177e+000	 1.000379558579967e+001
0	 6.666700000016665e+000	 9.466644621844619e+000	 1.000301943357706e+001
0	 6.666700000016667e+000	 9.533315502449998e+000	 1.000233912607293e+001
0	 6.666700000016666e+000	 9.599986199732198e+000	 1.000175042179459e+001
0	 6.666700000016665e+000	 9.666656597019093e+000	 1.000124908130166e+001
0	 6.666700000016666e+000	 9.733326577638575e+000	 1.000083086720614e+001
0	 6.666700000016666e+000	 9.799996024918521e+000	 1.000049154417233e+001
0	 6.666700000016666e+000	 9.866664822186822e+000	 1.000022687891709e+001
0	 6.666700000016665e+000	 9.933332852771352e+000	 1.000003264021006e+001
0	 6.666700000016666e+000	 1.000000000000000e+001	 9.999904598873734e+000
0	 6.666700000016666e+000	 0.000000000000000e+000	 1.010886810213508e+001
0	 6.666700000016668e+000	 6.666714722864757e-002	 1.010919799498615e+001
0	 6.666700000016666e+000	 1.333351778131790e-001	 1.010965447506008e+001
0	 6.666700000016665e+000	 2.000039750814772e-001	 1.011025865325420e+001
0	 6.666700000016667e+000	 2.666734223614256e-001	 1.011103164605499e+001
0	 6.666700000016667e+000	 3.333434029809069e-001	 1.011199457553745e+001
0	 6.666700000016666e+000	 4.000138002678044e-001	 1.011316856936473e+001
0	 6.666700000016665e+000	 4.666844975500010e-001	 1.011457476078772e+001
0	 6.666700000016668e+000	 5.333553781553803e-001	 1.011623428864507e+001
0	 6.666700000016667e+000	 6.000263254118248e-001	 1.011816829736304e+001
0	 6.666700000016666e+000	 6.666972226472178e-001	 1.012039793695577e+001
0	 6.733360000014533e+000	 0.000000000000000e+000	 1.010295787118659e+001
0	 6.733360000014532e+000	 6.666714722864756e-002	 1.010288649302625e+001
0	 6.733360000014533e+000	 1.333351778131789e-001	 1.010302648908030e+001
0	 6.733360000014533e+000	 2.000039750814772e-001	 1.010339157229639e+001
0	 6.733360000014531e+000	 2.666734223614255e-001	 1.010399546096058e+001
0	 6.733360000014531e+000	 3.333434029809069e-001	 1.010485187869677e+001
0	 6.733360000014531e+000	 4.000138002678044e-001	 1.010597455446632e+001
0	 6.733360000014534e+000	 4.666844975500011e-001	 1.010737722256781e+001
0	 6.733360000014532e+000	 5.333553781553803e-001	 1.010907362263692e+001
0	 6.733360000014532e+000	 6.000263254118247e-001	 1.011107749964644e+001
0	 6.733360000014532e+000	 6.666972226472175e-001	 1.011340260390647e+001
0	 6.800020000011600e+000	 0.000000000000000e+000	 1.009741244379917e+001
0	 6.800020000011600e+000	 6.666714722864754e-002	 1.009705323495099e+001
0	 6.800020000011601e+000	 1.333351778131790e-001	 1.009695910214121e+001
0	 6.800020000011600e+000	 2.000039750814772e-001	 1.009713744216880e+001
0	 6.800020000011599e+000	 2.666734223614255e-001	 1.009759565675883e+001
0	 6.800020000011599e+000	 3.333434029809069e-001	 1.009834115256197e+001
0	 6.800020000011600e+000	 4.000138002678044e-001	 1.009938134115419e+001
0	 6.800020000011601e+000	 4.666844975500012e-001	 1.010072363903647e+001
0	 6.800020000011601e+000	 5.333553781553804e-001	 1.010237546763481e+001
0	 6.800020000011600e+000	 6.000263254118249e-001	 1.010434425330024e+001
0	 6.800020000011598e+000	 6.666972226472175e-001	 1.010663742730899e+001
0	 6.866680000008066e+000	 0.000000000000000e+000	 1.009213826391885e+001
0	 6.866680000008066e+000	 6.666714722864754e-002	 1.009159586065089e+001
0	 6.866680000008065e+000	 1.333351778131790e-001	 1.009134487904032e+001
0	 6.866680000008067e+000	 2.000039750814773e-001	 1.009138748137337e+001
0	 6.866680000008067e+000	 2.666734223614256e-001	 1.009172583432766e+001
0	 6.866680000008066e+000	 3.333434029809069e-001	 1.009236210897175e+001
0	 6.866680000008066e+000	 4.000138002678044e-001	 1.009329848076489e+001
0	 6.866680000008067e+000	 4.666844975500010e-001	 1.009453712955686e+001
0	 6.866680000008068e+000	 5.333553781553801e-001	 1.009608023958790e+001
0	 6.866680000008068e+000	 6.000263254118248e-001	 1.009792999948881e+001
0	 6.866680000008065e+000	 6.666972226472177e-001	 1.010008860228110e+001
0	 6.933340000004134e+000	 0.000000000000000e+000	 1.008704177549172e+001
0	 6.933340000004134e+000	 6.666714722864757e-002	 1.008641201001646e+001
0	 6.933340000004135e+000	 1.333351778131790e-001	 1.008607638457512e+001
0	 6.933340000004134e+000	 2.000039750814772e-001	 1.008603290841208e+001
0	 6.933340000004135e+000	 2.666734223614256e-001	 1.008627959454503e+001
0	 6.933340000004135e+000	 3.333434029809069e-001	 1.008681445976480e+001
0	 6.933340000004135e+000	 4.000138002678044e-001	 1.008763552463504e+001
0	 6.933340000004134e+000	 4.666844975500011e-001	 1.008874081349217e+001
0	 6.933340000004135e+000	 5.333553781553804e-001	 1.009012835444534e+001
0	 6.933340000004135e+000	 6.000263254118247e-001	 1.009179617937646e+001
0	 6.933340000004136e+000	 6.666972226472178e-001	 1.009374232394053e+001
0	 7.000000000000002e+000	 0.000000000000000e+000	 1.008202942246382e+001
0	 7.000000000000000e+000	 6.666714722864756e-002	 1.008139932293823e+001
0	 7.000000000000001e+000	 1.333351778131789e-001	 1.008104618354317e+001
0	 7.000000000000003e+000	 2.000039750814773e-001	 1.008096494178687e+001
0	 7.000000000000002e+000	 2.666734223614256e-001	 1.008115053828886e+001
0	 7.000000000000001e+000	 3.333434029809069e-001	 1.008159791677979e+001
0	 7.000000000000003e+000	 4.000138002678044e-001	 1.008230202410121e+001
0	 7.000000000000002e+000	 4.666844975500011e-001	 1.008325781020560e+001
0	 7.000000000000003e+000	 5.333553781553801e-001	 1.008446022815629e+001
0	 7.000000000000001e+000	 6.000263254118248e-001	 1.008590423412760e+001
0	 7.000000000000001e+000	 6.666972226472177e-001	 1.008758478740503e+001
0	 7.066659999995869e+000	 0.000000000000000e+000	 1.007700764878125e+001
0	 7.066659999995870e+000	 6.666714722864757e-002	 1.007645543930673e+001
0	 7.066659999995870e+000	 1.333351778131789e-001	 1.007614684074196e+001
0	 7.066659999995871e+000	 2.000039750814773e-001	 1.007607479999971e+001
0	 7.066659999995869e+000	 2.666734223614255e-001	 1.007623226643710e+001
0	 7.066659999995869e+000	 3.333434029809068e-001	 1.007661219185540e+001
0	 7.066659999995870e+000	 4.000138002678044e-001	 1.007720753049998e+001
0	 7.066659999995869e+000	 4.666844975500011e-001	 1.007801123906030e+001
0	 7.066659999995869e+000	 5.333553781553803e-001	 1.007901627666989e+001
0	 7.066659999995870e+000	 6.000263254118247e-001	 1.008021560490651e+001
0	 7.066659999995869e+000	 6.666972226472177e-001	 1.008160218779232e+001
0	 7.133319999991937e+000	 0.000000000000000e+000	 1.007188289839007e+001
0	 7.133319999991938e+000	 6.666714722864754e-002	 1.007147799901251e+001
0	 7.133319999991937e+000	 1.333351778131790e-001	 1.007127092096902e+001
0	 7.133319999991937e+000	 2.000039750814772e-001	 1.007125370155256e+001
0	 7.133319999991936e+000	 2.666734223614257e-001	 1.007141837986767e+001
0	 7.133319999991937e+000	 3.333434029809069e-001	 1.007175699683030e+001
0	 7.133319999991937e+000	 4.000138002678044e-001	 1.007226159516793e+001
0	 7.133319999991937e+000	 4.666844975500012e-001	 1.007292421941945e+001
0	 7.133319999991937e+000	 5.333553781553801e-001	 1.007373691593529e+001
0	 7.133319999991937e+000	 6.000263254118247e-001	 1.007469173287757e+001
0	 7.133319999991937e+000	 6.666972226472178e-001	 1.007578072022014e+001
0	 7.199979999988405e+000	 0.000000000000000e+000	 1.006656161523638e+001
0	 7.199979999988403e+000	 6.666714722864756e-002	 1.006636464194607e+001
0	 7.199979999988405e+000	 1.333351778131790e-001	 1.006631098902186e+001
0	 7.199979999988403e+000	 2.000039750814772e-001	 1.006639286494740e+001
0	 7.199979999988404e+000	 2.666734223614256e-001	 1.006660247945851e+001
0	 7.199979999988404e+000	 3.333434029809069e-001	 1.006693204354320e+001
0	 7.199979999988404e+000	 4.000138002678045e-001	 1.006737376944163e+001
0	 7.199979999988404e+000	 4.666844975500012e-001	 1.006791987064620e+001
0	 7.199979999988404e+000	 5.333553781553803e-001	 1.006856256190164e+001
0	 7.199979999988405e+000	 6.000263254118248e-001	 1.006929405920508e+001
0	 7.199979999988403e+000	 6.666972226472177e-001	 1.007010657980623e+001
0	 7.266639999985471e+000	 0.000000000000000e+000	 1.006095024326626e+001
0	 7.266639999985472e+000	 6.666714722864757e-002	 1.006101300799798e+001
0	 7.266639999985472e+000	 1.333351778131790e-001	 1.006115960969802e+001
0	 7.266639999985470e+000	 2.000039750814772e-001	 1.006138350868617e+001
0	 7.266639999985472e+000	 2.666734223614256e-001	 1.006167816608757e+001
0	 7.266639999985472e+000	 3.333434029809068e-001	 1.006203704383275e+001
0	 7.266639999985471e+000	 4.000138002678044e-001	 1.006245360465765e+001
0	 7.266639999985472e+000	 4.666844975500011e-001	 1.006292131210374e+001
0	 7.266639999985471e+000	 5.333553781553803e-001	 1.006343363051806e+001
0	 7.266639999985472e+000	 6.000263254118248e-001	 1.006398402505338e+001
0	 7.266639999985470e+000	 6.666972226472175e-001	 1.006456596166830e+001
0	 7.333299999983335e+000	 0.000000000000000e+000	 1.005495522642582e+001
0	 7.333299999983334e+000	 6.666714722864756e-002	 1.005532073705876e+001
0	 7.333299999983334e+000	 1.333351778131789e-001	 1.005570934779501e+001
0	 7.333299999983335e+000	 2.000039750814772e-001	 1.005611685127084e+001
0	 7.333299999983333e+000	 2.666734223614256e-001	 1.005653904063277e+001
0	 7.333299999983336e+000	 3.333434029809069e-001	 1.005697170953762e+001
0	 7.333299999983335e+000	 4.000138002678045e-001	 1.005741065215257e+001
0	 7.333299999983333e+000	 4.666844975500011e-001	 1.005785166315522e+001
0	 7.333299999983335e+000	 5.333553781553803e-001	 1.005829053773371e+001
0	 7.333299999983335e+000	 6.000263254118248e-001	 1.005872307158681e+001
0	 7.333299999983332e+000	 6.666972226472178e-001	 1.005914506092405e+001
0	 6.666700000016666e+000	 6.666972226472178e-001	 1.012039793695577e+001
0	 6.666700000016667e+000	 7.333579753122047e-001	 1.012269664918706e+001
0	 6.666700000016665e+000	 8.000185779984416e-001	 1.012483552203551e+001
0	 6.666700000016667e+000	 8.666790473703454e-001	 1.012683110601051e+001
0	 6.666700000016666e+000	 9.333394000923321e-001	 1.012869995156292e+001
0	 6.666700000016667e+000	 9.999996528288189e-001	 1.013045860908513e+001
0	 6.666700000016666e+000	 1.066659822244222e+000	 1.013212362891104e+001
0	 6.666700000016666e+000	 1.133319925002959e+000	 1.013371156131608e+001
0	 6.666700000016666e+000	 1.199979977769445e+000	 1.013523895651724e+001
0	 6.666700000016665e+000	 1.266639997208098e+000	 1.013672236467300e+001
0	 6.666700000016665e+000	 1.333299999983334e+000	 1.013817833588345e+001
0	 6.733360000014532e+000	 6.666972226472175e-001	 1.011340260390647e+001
0	 6.733360000014534e+000	 7.333579753122049e-001	 1.011580649935408e+001
0	 6.733360000014532e+000	 8.000185779984417e-001	 1.011804634778150e+001
0	 6.733360000014532e+000	 8.666790473703452e-001	 1.012013417970764e+001
0	 6.733360000014532e+000	 9.333394000923321e-001	 1.012208202565548e+001
0	 6.733360000014531e+000	 9.999996528288191e-001	 1.012390191615215e+001
0	 6.733360000014534e+000	 1.066659822244222e+000	 1.012560588172887e+001
0	 6.733360000014533e+000	 1.133319925002959e+000	 1.012720595292097e+001
0	 6.733360000014534e+000	 1.199979977769445e+000	 1.012871416026796e+001
0	 6.733360000014533e+000	 1.266639997208098e+000	 1.013014253431346e+001
0	 6.733360000014534e+000	 1.333299999983334e+000	 1.013150310560522e+001
0	 6.800020000011598e+000	 6.666972226472175e-001	 1.010663742730899e+001
0	 6.800020000011600e+000	 7.333579753122048e-001	 1.010901735682702e+001
0	 6.800020000011600e+000	 8.000185779984418e-001	 1.011124763001817e+001
0	 6.800020000011600e+000	 8.666790473703454e-001	 1.011333640739715e+001
0	 6.800020000011602e+000	 9.333394000923323e-001	 1.011529184950946e+001
0	 6.800020000011599e+000	 9.999996528288190e-001	 1.011712211693142e+001
0	 6.800020000011600e+000	 1.066659822244222e+000	 1.011883537027024e+001
0	 6.800020000011600e+000	 1.133319925002959e+000	 1.012043977016393e+001
0	 6.800020000011600e+000	 1.199979977769445e+000	 1.012194347728140e+001
0	 6.800020000011600e+000	 1.266639997208098e+000	 1.012335465232241e+001
0	 6.800020000011600e+000	 1.333299999983334e+000	 1.012468145601758e+001
0	 6.866680000008065e+000	 6.666972226472177e-001	 1.010008860228110e+001
0	 6.866680000008068e+000	 7.333579753122048e-001	 1.010233997579272e+001
0	 6.866680000008066e+000	 8.000185779984417e-001	 1.010447057135682e+001
0	 6.866680000008067e+000	 8.666790473703454e-001	 1.010648532942857e+001
0	 6.866680000008066e+000	 9.333394000923324e-001	 1.010838919049099e+001
0	 6.866680000008068e+000	 9.999996528288190e-001	 1.011018709505495e+001
0	 6.866680000008066e+000	 1.066659822244222e+000	 1.011188398365920e+001
0	 6.866680000008066e+000	 1.133319925002958e+000	 1.011348479687031e+001
0	 6.866680000008067e+000	 1.199979977769445e+000	 1.011499447528279e+001
0	 6.866680000008067e+000	 1.266639997208098e+000	 1.011641795951900e+001
0	 6.866680000008065e+000	 1.333299999983334e+000	 1.011776019022921e+001
0	 6.933340000004136e+000	 6.666972226472178e-001	 1.009374232394053e+001
0	 6.933340000004135e+000	 7.333579753122047e-001	 1.009578511043804e+001
0	 6.933340000004135e+000	 8.000185779984417e-001	 1.009774637440872e+001
0	 6.933340000004134e+000	 8.666790473703454e-001	 1.009962848615142e+001
0	 6.933340000004134e+000	 9.333394000923324e-001	 1.010143381596629e+001
0	 6.933340000004131e+000	 9.999996528288186e-001	 1.010316473415478e+001
0	 6.933340000004134e+000	 1.066659822244222e+000	 1.010482361101977e+001
0	 6.933340000004136e+000	 1.133319925002959e+000	 1.010641281686544e+001
0	 6.933340000004134e+000	 1.199979977769445e+000	 1.010793472199732e+001
0	 6.933340000004135e+000	 1.266639997208098e+000	 1.010939169672233e+001
0	 6.933340000004135e+000	 1.333299999983334e+000	 1.011078611134878e+001
0	 7.000000000000001e+000	 6.666972226472177e-001	 1.008758478740502e+001
0	 7.000000000000003e+000	 7.333579753122048e-001	 1.008936351494982e+001
0	 7.000000000000003e+000	 8.000185779984418e-001	 1.009110624178518e+001
0	 7.000000000000002e+000	 8.666790473703454e-001	 1.009281341791523e+001
0	 7.000000000000000e+000	 9.333394000923321e-001	 1.009448549330147e+001
0	 7.000000000000003e+000	 9.999996528288190e-001	 1.009612291786292e+001
0	 7.000000000000001e+000	 1.066659822244222e+000	 1.009772614147600e+001
0	 7.000000000000000e+000	 1.133319925002959e+000	 1.009929561397464e+001
0	 7.000000000000003e+000	 1.199979977769445e+000	 1.010083178515020e+001
0	 7.000000000000002e+000	 1.266639997208098e+000	 1.010233510475154e+001
0	 7.000000000000002e+000	 1.333299999983334e+000	 1.010380602248497e+001
0	 7.066659999995869e+000	 6.666972226472177e-001	 1.008160218779232e+001
0	 7.066659999995871e+000	 7.333579753122049e-001	 1.008308594351491e+001
0	 7.066659999995869e+000	 8.000185779984417e-001	 1.008458137609748e+001
0	 7.066659999995869e+000	 8.666790473703454e-001	 1.008608766506949e+001
0	 7.066659999995870e+000	 9.333394000923322e-001	 1.008760398986271e+001
0	 7.066659999995870e+000	 9.999996528288188e-001	 1.008912952981135e+001
0	 7.066659999995870e+000	 1.066659822244222e+000	 1.009066346415190e+001
0	 7.066659999995870e+000	 1.133319925002959e+000	 1.009220497202324e+001
0	 7.066659999995870e+000	 1.199979977769445e+000	 1.009375323246664e+001
0	 7.066659999995869e+000	 1.266639997208098e+000	 1.009530742442570e+001
0	 7.066659999995870e+000	 1.333299999983334e+000	 1.009686672674645e+001
0	 7.133319999991937e+000	 6.666972226472178e-001	 1.007578072022014e+001
0	 7.133319999991937e+000	 7.333579753122049e-001	 1.007696315032017e+001
0	 7.133319999991937e+000	 8.000185779984416e-001	 1.007820297995689e+001
0	 7.133319999991935e+000	 8.666790473703451e-001	 1.007949876796371e+001
0	 7.133319999991937e+000	 9.333394000923323e-001	 1.008084907301618e+001
0	 7.133319999991937e+000	 9.999996528288189e-001	 1.008225245363210e+001
0	 7.133319999991935e+000	 1.066659822244222e+000	 1.008370746817148e+001
0	 7.133319999991937e+000	 1.133319925002959e+000	 1.008521267483658e+001
0	 7.133319999991937e+000	 1.199979977769445e+000	 1.008676663167182e+001
0	 7.133319999991936e+000	 1.266639997208098e+000	 1.008836789656395e+001
0	 7.133319999991937e+000	 1.333299999983334e+000	 1.009001502724189e+001
0	 7.199979999988403e+000	 6.666972226472177e-001	 1.007010657980623e+001
0	 7.199979999988404e+000	 7.333579753122048e-001	 1.007100588955239e+001
0	 7.199979999988403e+000	 8.000185779984418e-001	 1.007200225597470e+001
0	 7.199979999988404e+000	 8.666790473703453e-001	 1.007309426694740e+001
0	 7.199979999988403e+000	 9.333394000923321e-001	 1.007428051012800e+001
0	 7.199979999988403e+000	 9.999996528288186e-001	 1.007555957295716e+001
0	 7.199979999988403e+000	 1.066659822244222e+000	 1.007693004265878e+001
0	 7.199979999988403e+000	 1.133319925002958e+000	 1.007839050623994e+001
0	 7.199979999988404e+000	 1.199979977769445e+000	 1.007993955049097e+001
0	 7.199979999988404e+000	 1.266639997208098e+000	 1.008157576198539e+001
0	 7.199979999988404e+000	 1.333299999983334e+000	 1.008329772707994e+001
0	 7.266639999985470e+000	 6.666972226472175e-001	 1.006456596166829e+001
0	 7.266639999985471e+000	 7.333579753122049e-001	 1.006522491539845e+001
0	 7.266639999985471e+000	 8.000185779984417e-001	 1.006601040676216e+001
0	 7.266639999985471e+000	 8.666790473703456e-001	 1.006692170237008e+001
0	 7.266639999985471e+000	 9.333394000923323e-001	 1.006795806856433e+001
0	 7.266639999985471e+000	 9.999996528288189e-001	 1.006911877141854e+001
0	 7.266639999985469e+000	 1.066659822244222e+000	 1.007040307673779e+001
0	 7.266639999985471e+000	 1.133319925002958e+000	 1.007181025005869e+001
0	 7.266639999985471e+000	 1.199979977769445e+000	 1.007333955664928e+001
0	 7.266639999985470e+000	 1.266639997208098e+000	 1.007499026150913e+001
0	 7.266639999985472e+000	 1.333299999983334e+000	 1.007676162936930e+001
0	 7.333299999983332e+000	 6.666972226472178e-001	 1.005914506092405e+001
0	 7.333299999983334e+000	 7.333579753122048e-001	 1.005963098204515e+001
0	 7.333299999983334e+000	 8.000185779984417e-001	 1.006025863493055e+001
0	 7.333299999983334e+000	 8.666790473703454e-001	 1.006102861458122e+001
0	 7.333299999983335e+000	 9.333394000923323e-001	 1.006194151569130e+001
0	 7.333299999983334e+000	 9.999996528288190e-001	 1.006299793264822e+001
0	 7.333299999983335e+000	 1.066659822244222e+000	 1.006419845953254e+001
0	 7.333299999983335e+000	 1.133319925002959e+000	 1.006554369011810e+001
0	 7.333299999983333e+000	 1.199979977769445e+000	 1.006703421787192e+001
0	 7.333299999983335e+000	 1.266639997208098e+000	 1.006867063595426e+001
0	 7.333299999983335e+000	 1.333299999983334e+000	 1.007045353721861e+001
0	 6.666700000016665e+000	 1.333299999983334e+000	 1.013817833588345e+001
0	 6.666700000016666e+000	 1.399969999982150e+000	 1.013963332839518e+001
0	 6.666700000016666e+000	 1.466639999981866e+000	 1.014110884474306e+001
0	 6.666700000016667e+000	 1.533309999982383e+000	 1.014261465297715e+001
0	 6.666700000016667e+000	 1.599979999983599e+000	 1.014416052114752e+001
0	 6.666700000016665e+000	 1.666649999985416e+000	 1.014575621730421e+001
0	 6.666700000016667e+000	 1.733319999987733e+000	 1.014741150949731e+001
0	 6.666700000016665e+000	 1.799989999990449e+000	 1.014913616577684e+001
0	 6.666700000016665e+000	 1.866659999993466e+000	 1.015093995419289e+001
0	 6.666700000016666e+000	 1.933329999996683e+000	 1.015283264279551e+001
0	 6.666700000016668e+000	 2.000000000000000e+000	 1.015482399963477e+001
0	 6.733360000014534e+000	 1.333299999983334e+000	 1.013150310560522e+001
0	 6.733360000014531e+000	 1.399969999982150e+000	 1.013285156342997e+001
0	 6.733360000014534e+000	 1.466639999981867e+000	 1.013424068790536e+001
0	 6.733360000014534e+000	 1.533309999982383e+000	 1.013567874469461e+001
0	 6.733360000014534e+000	 1.599979999983600e+000	 1.013717399946098e+001
0	 6.733360000014533e+000	 1.666649999985416e+000	 1.013873471786767e+001
0	 6.733360000014533e+000	 1.733319999987733e+000	 1.014036916557794e+001
0	 6.733360000014533e+000	 1.799989999990450e+000	 1.014208560825501e+001
0	 6.733360000014532e+000	 1.866659999993466e+000	 1.014389231156211e+001
0	 6.733360000014534e+000	 1.933329999996684e+000	 1.014579754116250e+001
0	 6.733360000014532e+000	 2.000000000000000e+000	 1.014780956271940e+001
0	 6.800020000011600e+000	 1.333299999983334e+000	 1.012468145601758e+001
0	 6.800020000011600e+000	 1.399969999982150e+000	 1.012599152651446e+001
0	 6.800020000011600e+000	 1.466639999981866e+000	 1.012735133447404e+001
0	 6.800020000011601e+000	 1.533309999982383e+000	 1.012876786878037e+001
0	 6.800020000011600e+000	 1.599979999983599e+000	 1.013024811831753e+001
0	 6.800020000011599e+000	 1.666649999985416e+000	 1.013179907196957e+001
0	 6.800020000011598e+000	 1.733319999987733e+000	 1.013342771862057e+001
0	 6.800020000011601e+000	 1.799989999990450e+000	 1.013514104715458e+001
0	 6.800020000011601e+000	 1.866659999993466e+000	 1.013694604645567e+001
0	 6.800020000011599e+000	 1.933329999996683e+000	 1.013884970540792e+001
0	 6.800020000011601e+000	 2.000000000000000e+000	 1.014085901289540e+001
0	 6.866680000008065e+000	 1.333299999983334e+000	 1.011776019022921e+001
0	 6.866680000008068e+000	 1.399969999982150e+000	 1.011908648537388e+001
0	 6.866680000008068e+000	 1.466639999981866e+000	 1.012046243659340e+001
0	 6.866680000008064e+000	 1.533309999982382e+000	 1.012189398160031e+001
0	 6.866680000008065e+000	 1.599979999983599e+000	 1.012338705810717e+001
0	 6.866680000008067e+000	 1.666649999985416e+000	 1.012494760382654e+001
0	 6.866680000008066e+000	 1.733319999987733e+000	 1.012658155647096e+001
0	 6.866680000008067e+000	 1.799989999990450e+000	 1.012829485375300e+001
0	 6.866680000008068e+000	 1.866659999993466e+000	 1.013009343338521e+001
0	 6.866680000008067e+000	 1.933329999996683e+000	 1.013198323308015e+001
0	 6.866680000008066e+000	 2.000000000000000e+000	 1.013397019055038e+001
0	 6.933340000004135e+000	 1.333299999983334e+000	 1.011078611134878e+001
0	 6.933340000004133e+000	 1.399969999982150e+000	 1.011216970773343e+001
0	 6.933340000004135e+000	 1.466639999981867e+000	 1.011359564640772e+001
0	 6.933340000004135e+000	 1.533309999982383e+000	 1.011506903952029e+001
0	 6.933340000004135e+000	 1.599979999983599e+000	 1.011659499921989e+001
0	 6.933340000004134e+000	 1.666649999985416e+000	 1.011817863765518e+001
0	 6.933340000004134e+000	 1.733319999987733e+000	 1.011982506697490e+001
0	 6.933340000004133e+000	 1.799989999990449e+000	 1.012153939932774e+001
0	 6.933340000004134e+000	 1.866659999993467e+000	 1.012332674686239e+001
0	 6.933340000004135e+000	 1.933329999996683e+000	 1.012519222172757e+001
0	 6.933340000004134e+000	 2.000000000000000e+000	 1.012714093607197e+001
0	 7.000000000000002e+000	 1.333299999983334e+000	 1.010380602248497e+001
0	 7.000000000000001e+000	 1.399969999982150e+000	 1.010527446131835e+001
0	 7.000000000000000e+000	 1.466639999981866e+000	 1.010677261606126e+001
0	 7.000000000000003e+000	 1.533309999982383e+000	 1.010830499890620e+001
0	 7.000000000000002e+000	 1.599979999983599e+000	 1.010987612204565e+001
0	 7.000000000000004e+000	 1.666649999985416e+000	 1.011149049767215e+001
0	 7.000000000000002e+000	 1.733319999987733e+000	 1.011315263797817e+001
0	 7.000000000000004e+000	 1.799989999990450e+000	 1.011486705515623e+001
0	 7.000000000000002e+000	 1.866659999993466e+000	 1.011663826139886e+001
0	 7.000000000000001e+000	 1.933329999996683e+000	 1.011847076889854e+001
0	 7.000000000000003e+000	 2.000000000000000e+000	 1.012036908984780e+001
0	 7.066659999995870e+000	 1.333299999983334e+000	 1.009686672674645e+001
0	 7.066659999995870e+000	 1.399969999982150e+000	 1.009843401385384e+001
0	 7.066659999995870e+000	 1.466639999981866e+000	 1.010001499769834e+001
0	 7.066659999995869e+000	 1.533309999982383e+000	 1.010161381612389e+001
0	 7.066659999995869e+000	 1.599979999983599e+000	 1.010323460697446e+001
0	 7.066659999995869e+000	 1.666649999985416e+000	 1.010488150809401e+001
0	 7.066659999995870e+000	 1.733319999987733e+000	 1.010655865732652e+001
0	 7.066659999995869e+000	 1.799989999990450e+000	 1.010827019251597e+001
0	 7.066659999995870e+000	 1.866659999993466e+000	 1.011002025150629e+001
0	 7.066659999995869e+000	 1.933329999996683e+000	 1.011181297214147e+001
0	 7.066659999995870e+000	 2.000000000000000e+000	 1.011365249226548e+001
0	 7.133319999991937e+000	 1.333299999983334e+000	 1.009001502724189e+001
0	 7.133319999991937e+000	 1.399969999982150e+000	 1.009168163306511e+001
0	 7.133319999991937e+000	 1.466639999981866e+000	 1.009334444346321e+001
0	 7.133319999991937e+000	 1.533309999982383e+000	 1.009500744753923e+001
0	 7.133319999991936e+000	 1.599979999983599e+000	 1.009667463439627e+001
0	 7.133319999991937e+000	 1.666649999985416e+000	 1.009834999313742e+001
0	 7.133319999991937e+000	 1.733319999987733e+000	 1.010003751286576e+001
0	 7.133319999991936e+000	 1.799989999990449e+000	 1.010174118268436e+001
0	 7.133319999991937e+000	 1.866659999993467e+000	 1.010346499169632e+001
0	 7.133319999991937e+000	 1.933329999996683e+000	 1.010521292900473e+001
0	 7.133319999991936e+000	 2.000000000000000e+000	 1.010698898371265e+001
0	 7.199979999988404e+000	 1.333299999983334e+000	 1.008329772707995e+001
0	 7.199979999988403e+000	 1.399969999982150e+000	 1.008505058667739e+001
0	 7.199979999988404e+000	 1.466639999981867e+000	 1.008678260550016e+001
0	 7.199979999988404e+000	 1.533309999982383e+000	 1.008849784951810e+001
0	 7.199979999988405e+000	 1.599979999983600e+000	 1.009020038470110e+001
0	 7.199979999988403e+000	 1.666649999985416e+000	 1.009189427701899e+001
0	 7.199979999988405e+000	 1.733319999987733e+000	 1.009358359244162e+001
0	 7.199979999988403e+000	 1.799989999990449e+000	 1.009527239693888e+001
0	 7.199979999988405e+000	 1.866659999993466e+000	 1.009696475648061e+001
0	 7.199979999988404e+000	 1.933329999996683e+000	 1.009866473703667e+001
0	 7.199979999988403e+000	 2.000000000000000e+000	 1.010037640457694e+001
0	 7.266639999985472e+000	 1.333299999983334e+000	 1.007676162936930e+001
0	 7.266639999985471e+000	 1.399969999982150e+000	 1.007857414241587e+001
0	 7.266639999985469e+000	 1.466639999981866e+000	 1.008035113595347e+001
0	 7.266639999985472e+000	 1.533309999982383e+000	 1.008209697842639e+001
0	 7.266639999985470e+000	 1.599979999983599e+000	 1.008381603827890e+001
0	 7.266639999985471e+000	 1.666649999985416e+000	 1.008551268395531e+001
0	 7.266639999985470e+000	 1.733319999987733e+000	 1.008719128389991e+001
0	 7.266639999985471e+000	 1.799989999990450e+000	 1.008885620655698e+001
0	 7.266639999985470e+000	 1.866659999993466e+000	 1.009051182037082e+001
0	 7.266639999985471e+000	 1.933329999996683e+000	 1.009216249378572e+001
0	 7.266639999985471e+000	 2.000000000000000e+000	 1.009381259524596e+001
0	 7.333299999983335e+000	 1.333299999983334e+000	 1.007045353721861e+001
0	 7.333299999983334e+000	 1.399969999982150e+000	 1.007228556800577e+001
0	 7.333299999983335e+000	 1.466639999981867e+000	 1.007407168696742e+001
0	 7.333299999983334e+000	 1.533309999982383e+000	 1.007581679062992e+001
0	 7.333299999983334e+000	 1.599979999983599e+000	 1.007752577551966e+001
0	 7.333299999983334e+000	 1.666649999985416e+000	 1.007920353816303e+001
0	 7.333299999983335e+000	 1.733319999987733e+000	 1.008085497508639e+001
0	 7.333299999983335e+000	 1.799989999990450e+000	 1.008248498281612e+001
0	 7.333299999983334e+000	 1.866659999993466e+000	 1.008409845787861e+001
0	 7.333299999983335e+000	 1.933329999996683e+000	 1.008570029680023e+001
0	 7.333299999983335e+000	 2.000000000000000e+000	 1.008729539610736e+001
0	 6.666700000016668e+000	 2.000000000000000e+000	 1.015482399963477e+001
0	 6.666700000016665e+000	 2.066670000003317e+000	 1.015680353840378e+001
0	 6.666700000016665e+000	 2.133340000006534e+000	 1.015865543837641e+001
0	 6.666700000016666e+000	 2.200010000009551e+000	 1.016038146597379e+001
0	 6.666700000016668e+000	 2.266680000012268e+000	 1.016198338761712e+001
0	 6.666700000016666e+000	 2.333350000014584e+000	 1.016346296972751e+001
0	 6.666700000016667e+000	 2.400020000016400e+000	 1.016482197872613e+001
0	 6.666700000016665e+000	 2.466690000017617e+000	 1.016606218103413e+001
0	 6.666700000016667e+000	 2.533360000018134e+000	 1.016718534307265e+001
0	 6.666700000016666e+000	 2.600030000017851e+000	 1.016819323126284e+001
0	 6.666700000016667e+000	 2.666700000016667e+000	 1.016908761202586e+001
0	 6.733360000014532e+000	 2.000000000000000e+000	 1.014780956271940e+001
0	 6.733360000014533e+000	 2.066670000003317e+000	 1.014980493300292e+001
0	 6.733360000014532e+000	 2.133340000006534e+000	 1.015165771977679e+001
0	 6.733360000014533e+000	 2.200010000009550e+000	 1.015337245519467e+001
0	 6.733360000014533e+000	 2.266680000012267e+000	 1.015495367141027e+001
0	 6.733360000014531e+000	 2.333350000014584e+000	 1.015640590057724e+001
0	 6.733360000014534e+000	 2.400020000016401e+000	 1.015773367484926e+001
0	 6.733360000014533e+000	 2.466690000017618e+000	 1.015894152638003e+001
0	 6.733360000014532e+000	 2.533360000018134e+000	 1.016003398732319e+001
0	 6.733360000014532e+000	 2.600030000017851e+000	 1.016101558983242e+001
0	 6.733360000014533e+000	 2.666700000016666e+000	 1.016189086606139e+001
0	 6.800020000011601e+000	 2.000000000000000e+000	 1.014085901289540e+001
0	 6.800020000011599e+000	 2.066670000003316e+000	 1.014284613801064e+001
0	 6.800020000011601e+000	 2.133340000006534e+000	 1.014468312558045e+001
0	 6.800020000011599e+000	 2.200010000009550e+000	 1.014637677809035e+001
0	 6.800020000011599e+000	 2.266680000012266e+000	 1.014793389802581e+001
0	 6.800020000011600e+000	 2.333350000014585e+000	 1.014936128787237e+001
0	 6.800020000011601e+000	 2.400020000016400e+000	 1.015066575011548e+001
0	 6.800020000011600e+000	 2.466690000017617e+000	 1.015185408724066e+001
0	 6.800020000011601e+000	 2.533360000018134e+000	 1.015293310173339e+001
0	 6.800020000011601e+000	 2.600030000017851e+000	 1.015390959607917e+001
0	 6.800020000011599e+000	 2.666700000016666e+000	 1.015479037276348e+001
0	 6.866680000008066e+000	 2.000000000000000e+000	 1.013397019055038e+001
0	 6.866680000008067e+000	 2.066670000003316e+000	 1.013592922645326e+001
0	 6.866680000008067e+000	 2.133340000006534e+000	 1.013773702124882e+001
0	 6.866680000008067e+000	 2.200010000009550e+000	 1.013940215235369e+001
0	 6.866680000008067e+000	 2.266680000012267e+000	 1.014093319718448e+001
0	 6.866680000008067e+000	 2.333350000014585e+000	 1.014233873315782e+001
0	 6.866680000008066e+000	 2.400020000016400e+000	 1.014362733769030e+001
0	 6.866680000008067e+000	 2.466690000017617e+000	 1.014480758819855e+001
0	 6.866680000008067e+000	 2.533360000018134e+000	 1.014588806209917e+001
0	 6.866680000008067e+000	 2.600030000017850e+000	 1.014687733680877e+001
0	 6.866680000008067e+000	 2.666700000016666e+000	 1.014778398974396e+001
0	 6.933340000004134e+000	 2.000000000000000e+000	 1.012714093607197e+001
0	 6.933340000004135e+000	 2.066670000003317e+000	 1.012905627135709e+001
0	 6.933340000004133e+000	 2.133340000006534e+000	 1.013082477224328e+001
0	 6.933340000004134e+000	 2.200010000009550e+000	 1.013245629567755e+001
0	 6.933340000004136e+000	 2.266680000012268e+000	 1.013396069860697e+001
0	 6.933340000004134e+000	 2.333350000014584e+000	 1.013534783797855e+001
0	 6.933340000004134e+000	 2.400020000016401e+000	 1.013662757073930e+001
0	 6.933340000004135e+000	 2.466690000017617e+000	 1.013780975383627e+001
0	 6.933340000004135e+000	 2.533360000018134e+000	 1.013890424421646e+001
0	 6.933340000004134e+000	 2.600030000017851e+000	 1.013992089882692e+001
0	 6.933340000004134e+000	 2.666700000016666e+000	 1.014086957461465e+001
0	 7.000000000000003e+000	 2.000000000000000e+000	 1.012036908984780e+001
0	 7.000000000000002e+000	 2.066670000003317e+000	 1.012222934574846e+001
0	 7.000000000000001e+000	 2.133340000006534e+000	 1.012395174402523e+001
0	 7.000000000000003e+000	 2.200010000009551e+000	 1.012554692575482e+001
0	 7.000000000000002e+000	 2.266680000012267e+000	 1.012702553201400e+001
0	 7.000000000000000e+000	 2.333350000014584e+000	 1.012839820387950e+001
0	 7.000000000000003e+000	 2.400020000016401e+000	 1.012967558242803e+001
0	 7.000000000000002e+000	 2.466690000017617e+000	 1.013086830873635e+001
0	 7.000000000000002e+000	 2.533360000018134e+000	 1.013198702388119e+001
0	 7.000000000000002e+000	 2.600030000017851e+000	 1.013304236893929e+001
0	 7.000000000000002e+000	 2.666700000016666e+000	 1.013404498498739e+001
0	 7.066659999995870e+000	 2.000000000000000e+000	 1.011365249226548e+001
0	 7.066659999995870e+000	 2.066670000003317e+000	 1.011545052265372e+001
0	 7.066659999995869e+000	 2.133340000006534e+000	 1.011712330205610e+001
0	 7.066659999995870e+000	 2.200010000009550e+000	 1.011868176027838e+001
0	 7.066659999995871e+000	 2.266680000012267e+000	 1.012013682712630e+001
0	 7.066659999995871e+000	 2.333350000014583e+000	 1.012149943240561e+001
0	 7.066659999995870e+000	 2.400020000016401e+000	 1.012278050592204e+001
0	 7.066659999995870e+000	 2.466690000017617e+000	 1.012399097748137e+001
0	 7.066659999995870e+000	 2.533360000018134e+000	 1.012514177688929e+001
0	 7.066659999995869e+000	 2.600030000017851e+000	 1.012624383395160e+001
0	 7.066659999995871e+000	 2.666700000016666e+000	 1.012730807847399e+001
0	 7.133319999991936e+000	 2.000000000000000e+000	 1.010698898371265e+001
0	 7.133319999991937e+000	 2.066670000003317e+000	 1.010872187509916e+001
0	 7.133319999991937e+000	 2.133340000006534e+000	 1.011034481179728e+001
0	 7.133319999991936e+000	 2.200010000009551e+000	 1.011186851694107e+001
0	 7.133319999991936e+000	 2.266680000012267e+000	 1.011330371366458e+001
0	 7.133319999991937e+000	 2.333350000014584e+000	 1.011466112510183e+001
0	 7.133319999991937e+000	 2.400020000016401e+000	 1.011595147438692e+001
0	 7.133319999991936e+000	 2.466690000017617e+000	 1.011718548465385e+001
0	 7.133319999991937e+000	 2.533360000018133e+000	 1.011837387903669e+001
0	 7.133319999991937e+000	 2.600030000017850e+000	 1.011952738066950e+001
0	 7.133319999991937e+000	 2.666700000016667e+000	 1.012065671268630e+001
0	 7.199979999988403e+000	 2.000000000000000e+000	 1.010037640457694e+001
0	 7.199979999988404e+000	 2.066670000003317e+000	 1.010204547611113e+001
0	 7.199979999988404e+000	 2.133340000006534e+000	 1.010362163871020e+001
0	 7.199979999988404e+000	 2.200010000009550e+000	 1.010511491343579e+001
0	 7.199979999988404e+000	 2.266680000012267e+000	 1.010653532134955e+001
0	 7.199979999988405e+000	 2.333350000014585e+000	 1.010789288351313e+001
0	 7.199979999988405e+000	 2.400020000016401e+000	 1.010919762098819e+001
0	 7.199979999988404e+000	 2.466690000017618e+000	 1.011045955483637e+001
0	 7.199979999988403e+000	 2.533360000018134e+000	 1.011168870611932e+001
0	 7.199979999988405e+000	 2.600030000017851e+000	 1.011289509589870e+001
0	 7.199979999988404e+000	 2.666700000016666e+000	 1.011408874523614e+001
0	 7.266639999985471e+000	 2.000000000000000e+000	 1.009381259524596e+001
0	 7.266639999985470e+000	 2.066670000003317e+000	 1.009542339871596e+001
0	 7.266639999985471e+000	 2.133340000006534e+000	 1.009695914825625e+001
0	 7.266639999985472e+000	 2.200010000009550e+000	 1.009842866745540e+001
0	 7.266639999985470e+000	 2.266680000012267e+000	 1.009984077990194e+001
0	 7.266639999985471e+000	 2.333350000014583e+000	 1.010120430918443e+001
0	 7.266639999985471e+000	 2.400020000016401e+000	 1.010252807889143e+001
0	 7.266639999985471e+000	 2.466690000017617e+000	 1.010382091261148e+001
0	 7.266639999985473e+000	 2.533360000018134e+000	 1.010509163393310e+001
0	 7.266639999985472e+000	 2.600030000017851e+000	 1.010634906644488e+001
0	 7.266639999985470e+000	 2.666700000016666e+000	 1.010760203373533e+001
0	 7.333299999983335e+000	 2.000000000000000e+000	 1.008729539610736e+001
0	 7.333299999983334e+000	 2.066670000003317e+000	 1.008885771593996e+001
0	 7.333299999983335e+000	 2.133340000006534e+000	 1.009036270589684e+001
0	 7.333299999983334e+000	 2.200010000009550e+000	 1.009181749669276e+001
0	 7.333299999983333e+000	 2.266680000012267e+000	 1.009322921904247e+001
0	 7.333299999983335e+000	 2.333350000014584e+000	 1.009460500366070e+001
0	 7.333299999983335e+000	 2.400020000016401e+000	 1.009595198126221e+001
0	 7.333299999983333e+000	 2.466690000017616e+000	 1.009727728256172e+001
0	 7.333299999983334e+000	 2.533360000018134e+000	 1.009858803827397e+001
0	 7.333299999983335e+000	 2.600030000017851e+000	 1.009989137911373e+001
0	 7.333299999983335e+000	 2.666700000016666e+000	 1.010119443579571e+001
0	 6.666700000016667e+000	 2.666700000016667e+000	 1.016908761202586e+001
0	 6.666700000016668e+000	 2.733360000014533e+000	 1.016986766528303e+001
0	 6.666700000016665e+000	 2.800020000011599e+000	 1.017053636066917e+001
0	 6.666700000016666e+000	 2.866680000008067e+000	 1.017110077199735e+001
0	 6.666700000016667e+000	 2.933340000004133e+000	 1.017156797308061e+001
0	 6.666700000016666e+000	 3.000000000000000e+000	 1.017194503773208e+001
0	 6.666700000016667e+000	 3.066659999995868e+000	 1.017223903976479e+001
0	 6.666700000016665e+000	 3.133319999991933e+000	 1.017245705299184e+001
0	 6.666700000016665e+000	 3.199979999988401e+000	 1.017260615122632e+001
0	 6.666700000016668e+000	 3.266639999985468e+000	 1.017269340828131e+001
0	 6.666700000016665e+000	 3.333299999983333e+000	 1.017272589796989e+001
0	 6.733360000014533e+000	 2.666700000016666e+000	 1.016189086606139e+001
0	 6.733360000014532e+000	 2.733360000014533e+000	 1.016266876600755e+001
0	 6.733360000014534e+000	 2.800020000011600e+000	 1.016335837433264e+001
0	 6.733360000014534e+000	 2.866680000008067e+000	 1.016396405457451e+001
0	 6.733360000014532e+000	 2.933340000004133e+000	 1.016449017027108e+001
0	 6.733360000014532e+000	 3.000000000000000e+000	 1.016494108496020e+001
0	 6.733360000014531e+000	 3.066659999995867e+000	 1.016532116217981e+001
0	 6.733360000014533e+000	 3.133319999991935e+000	 1.016563476546777e+001
0	 6.733360000014533e+000	 3.199979999988400e+000	 1.016588625836197e+001
0	 6.733360000014532e+000	 3.266639999985468e+000	 1.016608000440033e+001
0	 6.733360000014533e+000	 3.333299999983333e+000	 1.016622036712076e+001
0	 6.800020000011599e+000	 2.666700000016666e+000	 1.015479037276348e+001
0	 6.800020000011598e+000	 2.733360000014533e+000	 1.015558858597065e+001
0	 6.800020000011598e+000	 2.800020000011599e+000	 1.015631449997516e+001
0	 6.800020000011601e+000	 2.866680000008066e+000	 1.015697020658310e+001
0	 6.800020000011600e+000	 2.933340000004135e+000	 1.015755779760058e+001
0	 6.800020000011600e+000	 3.000000000000000e+000	 1.015807936483372e+001
0	 6.800020000011600e+000	 3.066659999995867e+000	 1.015853700008863e+001
0	 6.800020000011600e+000	 3.133319999991933e+000	 1.015893279517142e+001
0	 6.800020000011600e+000	 3.199979999988401e+000	 1.015926884188821e+001
0	 6.800020000011597e+000	 3.266639999985466e+000	 1.015954723204514e+001
0	 6.800020000011600e+000	 3.333299999983334e+000	 1.015977005744830e+001
0	 6.866680000008067e+000	 2.666700000016666e+000	 1.014778398974396e+001
0	 6.866680000008068e+000	 2.733360000014533e+000	 1.014862074065240e+001
0	 6.866680000008068e+000	 2.800020000011600e+000	 1.014939502386314e+001
0	 6.866680000008065e+000	 2.866680000008066e+000	 1.015010709799395e+001
0	 6.866680000008068e+000	 2.933340000004134e+000	 1.015075722166254e+001
0	 6.866680000008066e+000	 3.000000000000000e+000	 1.015134565348666e+001
0	 6.866680000008067e+000	 3.066659999995867e+000	 1.015187265208407e+001
0	 6.866680000008068e+000	 3.133319999991934e+000	 1.015233847607248e+001
0	 6.866680000008067e+000	 3.199979999988401e+000	 1.015274338406967e+001
0	 6.866680000008069e+000	 3.266639999985468e+000	 1.015308763469338e+001
0	 6.866680000008067e+000	 3.333299999983333e+000	 1.015337148656136e+001
0	 6.933340000004134e+000	 2.666700000016666e+000	 1.014086957461465e+001
0	 6.933340000004135e+000	 2.733360000014533e+000	 1.014175884553284e+001
0	 6.933340000004135e+000	 2.800020000011600e+000	 1.014259023226300e+001
0	 6.933340000004134e+000	 2.866680000008067e+000	 1.014336259877791e+001
0	 6.933340000004133e+000	 2.933340000004133e+000	 1.014407480905035e+001
0	 6.933340000004134e+000	 3.000000000000000e+000	 1.014472572705309e+001
0	 6.933340000004135e+000	 3.066659999995867e+000	 1.014531421675892e+001
0	 6.933340000004134e+000	 3.133319999991934e+000	 1.014583914214060e+001
0	 6.933340000004135e+000	 3.199979999988400e+000	 1.014629936717094e+001
0	 6.933340000004135e+000	 3.266639999985468e+000	 1.014669375582274e+001
0	 6.933340000004135e+000	 3.333299999983334e+000	 1.014702117206877e+001
0	 7.000000000000002e+000	 2.666700000016666e+000	 1.013404498498739e+001
0	 7.000000000000003e+000	 2.733360000014534e+000	 1.013499651609208e+001
0	 7.000000000000002e+000	 2.800020000011599e+000	 1.013589041144116e+001
0	 7.000000000000000e+000	 2.866680000008066e+000	 1.013672457890588e+001
0	 7.000000000000002e+000	 2.933340000004133e+000	 1.013749692635743e+001
0	 7.000000000000003e+000	 3.000000000000000e+000	 1.013820536166707e+001
0	 7.000000000000002e+000	 3.066659999995866e+000	 1.013884779270599e+001
0	 7.000000000000001e+000	 3.133319999991934e+000	 1.013942212734544e+001
0	 7.000000000000003e+000	 3.199979999988400e+000	 1.013992627345666e+001
0	 7.000000000000001e+000	 3.266639999985467e+000	 1.014035813891089e+001
0	 7.000000000000003e+000	 3.333299999983334e+000	 1.014071563157936e+001
0	 7.066659999995871e+000	 2.666700000016666e+000	 1.012730807847400e+001
0	 7.066659999995871e+000	 2.733360000014533e+000	 1.012832736781016e+001
0	 7.066659999995870e+000	 2.800020000011600e+000	 1.012928584766403e+001
0	 7.066659999995869e+000	 2.866680000008066e+000	 1.013018090834867e+001
0	 7.066659999995870e+000	 2.933340000004133e+000	 1.013100994017718e+001
0	 7.066659999995869e+000	 3.000000000000000e+000	 1.013177033346264e+001
0	 7.066659999995869e+000	 3.066659999995866e+000	 1.013245947851810e+001
0	 7.066659999995870e+000	 3.133319999991933e+000	 1.013307476565668e+001
0	 7.066659999995870e+000	 3.199979999988400e+000	 1.013361358519145e+001
0	 7.066659999995870e+000	 3.266639999985467e+000	 1.013407332743551e+001
0	 7.066659999995870e+000	 3.333299999983334e+000	 1.013445138270195e+001
0	 7.133319999991937e+000	 2.666700000016667e+000	 1.012065671268630e+001
0	 7.133319999991937e+000	 2.733360000014533e+000	 1.012174501616716e+001
0	 7.133319999991937e+000	 2.800020000011599e+000	 1.012276682719802e+001
0	 7.133319999991936e+000	 2.866680000008067e+000	 1.012371945707718e+001
0	 7.133319999991936e+000	 2.933340000004133e+000	 1.012460021710301e+001
0	 7.133319999991936e+000	 3.000000000000000e+000	 1.012540641857386e+001
0	 7.133319999991937e+000	 3.066659999995867e+000	 1.012613537278805e+001
0	 7.133319999991937e+000	 3.133319999991934e+000	 1.012678439104395e+001
0	 7.133319999991937e+000	 3.199979999988400e+000	 1.012735078463991e+001
0	 7.133319999991935e+000	 3.266639999985468e+000	 1.012783186487427e+001
0	 7.133319999991937e+000	 3.333299999983333e+000	 1.012822494304540e+001
0	 7.199979999988404e+000	 2.666700000016666e+000	 1.011408874523614e+001
0	 7.199979999988404e+000	 2.733360000014533e+000	 1.011524307664317e+001
0	 7.199979999988403e+000	 2.800020000011599e+000	 1.011632363630954e+001
0	 7.199979999988404e+000	 2.866680000008067e+000	 1.011732809506225e+001
0	 7.199979999988402e+000	 2.933340000004133e+000	 1.011825412372834e+001
0	 7.199979999988404e+000	 3.000000000000000e+000	 1.011909939313481e+001
0	 7.199979999988406e+000	 3.066659999995867e+000	 1.011986157410867e+001
0	 7.199979999988406e+000	 3.133319999991933e+000	 1.012053833747694e+001
0	 7.199979999988405e+000	 3.199979999988401e+000	 1.012112735406666e+001
0	 7.199979999988403e+000	 3.266639999985467e+000	 1.012162629470485e+001
0	 7.199979999988403e+000	 3.333299999983333e+000	 1.012203283021854e+001
0	 7.266639999985470e+000	 2.666700000016666e+000	 1.010760203373533e+001
0	 7.266639999985471e+000	 2.733360000014533e+000	 1.010881516471823e+001
0	 7.266639999985471e+000	 2.800020000011600e+000	 1.010994656126501e+001
0	 7.266639999985470e+000	 2.866680000008067e+000	 1.011099469227477e+001
0	 7.266639999985473e+000	 2.933340000004134e+000	 1.011195802664657e+001
0	 7.266639999985472e+000	 3.000000000000000e+000	 1.011283503327953e+001
0	 7.266639999985471e+000	 3.066659999995866e+000	 1.011362418107275e+001
0	 7.266639999985470e+000	 3.133319999991934e+000	 1.011432393892531e+001
0	 7.266639999985471e+000	 3.199979999988400e+000	 1.011493277573634e+001
0	 7.266639999985470e+000	 3.266639999985468e+000	 1.011544916040493e+001
0	 7.266639999985472e+000	 3.333299999983335e+000	 1.011587156183019e+001
0	 7.333299999983335e+000	 2.666700000016666e+000	 1.010119443579572e+001
0	 7.333299999983334e+000	 2.733360000014533e+000	 1.010245489587244e+001
0	 7.333299999983333e+000	 2.800020000011599e+000	 1.010362588833086e+001
0	 7.333299999983333e+000	 2.866680000008067e+000	 1.010470711868557e+001
0	 7.333299999983334e+000	 2.933340000004133e+000	 1.010569829245111e+001
0	 7.333299999983333e+000	 2.999999999999999e+000	 1.010659911514210e+001
0	 7.333299999983335e+000	 3.066659999995867e+000	 1.010740929227310e+001
0	 7.333299999983335e+000	 3.133319999991934e+000	 1.010812852935874e+001
0	 7.333299999983334e+000	 3.199979999988400e+000	 1.010875653191357e+001
0	 7.333299999983334e+000	 3.266639999985468e+000	 1.010929300545219e+001
0	 7.333299999983335e+000	 3.333299999983335e+000	 1.010973765548923e+001
0	 6.666700000016665e+000	 3.333299999983333e+000	 1.017272589796989e+001
0	 6.666700000016666e+000	 3.399969999982149e+000	 1.017267617045770e+001
0	 6.666700000016666e+000	 3.466639999981866e+000	 1.017250909407632e+001
0	 6.666700000016665e+000	 3.533309999982383e+000	 1.017222022324704e+001
0	 6.666700000016665e+000	 3.599979999983599e+000	 1.017180511239108e+001
0	 6.666700000016665e+000	 3.666649999985415e+000	 1.017125931592968e+001
0	 6.666700000016666e+000	 3.733319999987733e+000	 1.017057838828408e+001
0	 6.666700000016665e+000	 3.799989999990449e+000	 1.016975788387553e+001
0	 6.666700000016668e+000	 3.866659999993467e+000	 1.016879335712524e+001
0	 6.666700000016665e+000	 3.933329999996683e+000	 1.016768036245445e+001
0	 6.666700000016667e+000	 4.000000000000001e+000	 1.016641445428439e+001
0	 6.733360000014533e+000	 3.333299999983333e+000	 1.016622036712076e+001
0	 6.733360000014531e+000	 3.399969999982150e+000	 1.016627168034963e+001
0	 6.733360000014534e+000	 3.466639999981868e+000	 1.016619390407943e+001
0	 6.733360000014531e+000	 3.533309999982382e+000	 1.016598489290880e+001
0	 6.733360000014532e+000	 3.599979999983600e+000	 1.016564250143643e+001
0	 6.733360000014532e+000	 3.666649999985416e+000	 1.016516458426098e+001
0	 6.733360000014533e+000	 3.733319999987733e+000	 1.016454899598116e+001
0	 6.733360000014533e+000	 3.799989999990450e+000	 1.016379359119561e+001
0	 6.733360000014533e+000	 3.866659999993467e+000	 1.016289622450301e+001
0	 6.733360000014529e+000	 3.933329999996683e+000	 1.016185475050200e+001
0	 6.733360000014530e+000	 4.000000000000000e+000	 1.016066702379129e+001
0	 6.800020000011600e+000	 3.333299999983334e+000	 1.015977005744830e+001
0	 6.800020000011599e+000	 3.399969999982150e+000	 1.015989831334077e+001
0	 6.800020000011600e+000	 3.466639999981867e+000	 1.015989140094354e+001
0	 6.800020000011601e+000	 3.533309999982383e+000	 1.015974910912165e+001
0	 6.800020000011600e+000	 3.599979999983600e+000	 1.015947122674013e+001
0	 6.800020000011599e+000	 3.666649999985417e+000	 1.015905754266401e+001
0	 6.800020000011599e+000	 3.733319999987733e+000	 1.015850784575834e+001
0	 6.800020000011601e+000	 3.799989999990451e+000	 1.015782192488809e+001
0	 6.800020000011601e+000	 3.866659999993467e+000	 1.015699956891834e+001
0	 6.800020000011601e+000	 3.933329999996684e+000	 1.015604056671407e+001
0	 6.800020000011598e+000	 4.000000000000000e+000	 1.015494470714032e+001
0	 6.866680000008067e+000	 3.333299999983333e+000	 1.015337148656136e+001
0	 6.866680000008066e+000	 3.399969999982150e+000	 1.015355664469744e+001
0	 6.866680000008067e+000	 3.466639999981866e+000	 1.015360547039790e+001
0	 6.866680000008064e+000	 3.533309999982382e+000	 1.015351932088304e+001
0	 6.866680000008065e+000	 3.599979999983599e+000	 1.015329955337319e+001
0	 6.866680000008068e+000	 3.666649999985417e+000	 1.015294752508863e+001
0	 6.866680000008068e+000	 3.733319999987733e+000	 1.015246459324968e+001
0	 6.866680000008066e+000	 3.799989999990449e+000	 1.015185211507662e+001
0	 6.866680000008067e+000	 3.866659999993467e+000	 1.015111144778976e+001
0	 6.866680000008067e+000	 3.933329999996684e+000	 1.015024394860938e+001
0	 6.866680000008067e+000	 4.000000000000000e+000	 1.014925097475580e+001
0	 6.933340000004135e+000	 3.333299999983334e+000	 1.014702117206877e+001
0	 6.933340000004134e+000	 3.399969999982150e+000	 1.014724724968603e+001
0	 6.933340000004135e+000	 3.466639999981867e+000	 1.014733999817174e+001
0	 6.933340000004136e+000	 3.533309999982383e+000	 1.014730197719043e+001
0	 6.933340000004135e+000	 3.599979999983600e+000	 1.014713574640658e+001
0	 6.933340000004135e+000	 3.666649999985416e+000	 1.014684386548469e+001
0	 6.933340000004134e+000	 3.733319999987733e+000	 1.014642889408926e+001
0	 6.933340000004134e+000	 3.799989999990449e+000	 1.014589339188479e+001
0	 6.933340000004135e+000	 3.866659999993467e+000	 1.014523991853575e+001
0	 6.933340000004134e+000	 3.933329999996683e+000	 1.014447103370666e+001
0	 6.933340000004133e+000	 4.000000000000000e+000	 1.014358929706198e+001
0	 7.000000000000003e+000	 3.333299999983334e+000	 1.014071563157935e+001
0	 7.000000000000002e+000	 3.399969999982150e+000	 1.014097070357288e+001
0	 7.000000000000001e+000	 3.466639999981866e+000	 1.014109886999431e+001
0	 7.000000000000001e+000	 3.533309999982382e+000	 1.014110352704123e+001
0	 7.000000000000003e+000	 3.599979999983601e+000	 1.014098807091128e+001
0	 7.000000000000000e+000	 3.666649999985416e+000	 1.014075589780205e+001
0	 7.000000000000001e+000	 3.733319999987733e+000	 1.014041040391116e+001
0	 7.000000000000001e+000	 3.799989999990450e+000	 1.013995498543623e+001
0	 7.000000000000002e+000	 3.866659999993466e+000	 1.013939303857484e+001
0	 7.000000000000003e+000	 3.933329999996684e+000	 1.013872795952463e+001
0	 7.000000000000001e+000	 4.000000000000000e+000	 1.013796314448318e+001
0	 7.066659999995870e+000	 3.333299999983334e+000	 1.013445138270195e+001
0	 7.066659999995869e+000	 3.399969999982150e+000	 1.013472758162439e+001
0	 7.066659999995869e+000	 3.466639999981866e+000	 1.013488597159482e+001
0	 7.066659999995870e+000	 3.533309999982383e+000	 1.013493041943290e+001
0	 7.066659999995867e+000	 3.599979999983599e+000	 1.013486479195826e+001
0	 7.066659999995870e+000	 3.666649999985417e+000	 1.013469295599057e+001
0	 7.066659999995868e+000	 3.733319999987732e+000	 1.013441877834945e+001
0	 7.066659999995868e+000	 3.799989999990450e+000	 1.013404612585456e+001
0	 7.066659999995869e+000	 3.866659999993466e+000	 1.013357886532554e+001
0	 7.066659999995870e+000	 3.933329999996685e+000	 1.013302086358203e+001
0	 7.066659999995869e+000	 4.000000000000000e+000	 1.013237598744366e+001
0	 7.133319999991937e+000	 3.333299999983333e+000	 1.012822494304540e+001
0	 7.133319999991937e+000	 3.399969999982150e+000	 1.012851845910691e+001
0	 7.133319999991937e+000	 3.466639999981867e+000	 1.012870518870254e+001
0	 7.133319999991935e+000	 3.533309999982383e+000	 1.012878910336286e+001
0	 7.133319999991937e+000	 3.599979999983600e+000	 1.012877417461853e+001
0	 7.133319999991936e+000	 3.666649999985417e+000	 1.012866437400010e+001
0	 7.133319999991936e+000	 3.733319999987733e+000	 1.012846367303820e+001
0	 7.133319999991937e+000	 3.799989999990450e+000	 1.012817604326341e+001
0	 7.133319999991937e+000	 3.866659999993467e+000	 1.012780545620634e+001
0	 7.133319999991937e+000	 3.933329999996684e+000	 1.012735588339758e+001
0	 7.133319999991937e+000	 4.000000000000000e+000	 1.012683129636772e+001
0	 7.199979999988403e+000	 3.333299999983333e+000	 1.012203283021854e+001
0	 7.199979999988402e+000	 3.399969999982149e+000	 1.012234391128682e+001
0	 7.199979999988406e+000	 3.466639999981867e+000	 1.012256040704668e+001
0	 7.199979999988402e+000	 3.533309999982383e+000	 1.012268602782860e+001
0	 7.199979999988403e+000	 3.599979999983599e+000	 1.012272448396306e+001
0	 7.199979999988404e+000	 3.666649999985416e+000	 1.012267948578053e+001
0	 7.199979999988404e+000	 3.733319999987733e+000	 1.012255474361148e+001
0	 7.199979999988401e+000	 3.799989999990448e+000	 1.012235396778640e+001
0	 7.199979999988404e+000	 3.866659999993466e+000	 1.012208086863575e+001
0	 7.199979999988405e+000	 3.933329999996684e+000	 1.012173915649000e+001
0	 7.199979999988402e+000	 4.000000000000000e+000	 1.012133254167963e+001
0	 7.266639999985472e+000	 3.333299999983335e+000	 1.011587156183019e+001
0	 7.266639999985469e+000	 3.399969999982150e+000	 1.011620451343048e+001
0	 7.266639999985470e+000	 3.466639999981866e+000	 1.011645551235650e+001
0	 7.266639999985471e+000	 3.533309999982383e+000	 1.011662764182753e+001
0	 7.266639999985471e+000	 3.599979999983601e+000	 1.011672398506284e+001
0	 7.266639999985471e+000	 3.666649999985415e+000	 1.011674762528170e+001
0	 7.266639999985471e+000	 3.733319999987733e+000	 1.011670164570339e+001
0	 7.266639999985472e+000	 3.799989999990451e+000	 1.011658912954716e+001
0	 7.266639999985470e+000	 3.866659999993466e+000	 1.011641316003229e+001
0	 7.266639999985471e+000	 3.933329999996683e+000	 1.011617682037804e+001
0	 7.266639999985472e+000	 4.000000000000001e+000	 1.011588319380369e+001
0	 7.333299999983335e+000	 3.333299999983335e+000	 1.010973765548923e+001
0	 7.333299999983333e+000	 3.399969999982149e+000	 1.011010084080428e+001
0	 7.333299999983333e+000	 3.466639999981866e+000	 1.011039439036125e+001
0	 7.333299999983333e+000	 3.533309999982382e+000	 1.011062039435712e+001
0	 7.333299999983335e+000	 3.599979999983599e+000	 1.011078094298887e+001
0	 7.333299999983335e+000	 3.666649999985416e+000	 1.011087812645349e+001
0	 7.333299999983335e+000	 3.733319999987733e+000	 1.011091403494798e+001
0	 7.333299999983334e+000	 3.799989999990450e+000	 1.011089075866931e+001
0	 7.333299999983336e+000	 3.866659999993467e+000	 1.011081038781446e+001
0	 7.333299999983332e+000	 3.933329999996682e+000	 1.011067501258043e+001
0	 7.333299999983335e+000	 4.000000000000001e+000	 1.011048672316418e+001
0	 6.666700000016667e+000	 4.000000000000001e+000	 1.016641445428439e+001
0	 6.666700000016666e+000	 4.066670000003316e+000	 1.016504384686789e+001
0	 6.666700000016667e+000	 4.133340000006536e+000	 1.016361957825760e+001
0	 6.666700000016667e+000	 4.200010000009551e+000	 1.016214143857447e+001
0	 6.666700000016667e+000	 4.266680000012268e+000	 1.016060921793945e+001
0	 6.666700000016665e+000	 4.333350000014583e+000	 1.015902270647349e+001
0	 6.666700000016665e+000	 4.400020000016400e+000	 1.015738169429755e+001
0	 6.666700000016667e+000	 4.466690000017618e+000	 1.015568597153258e+001
0	 6.666700000016667e+000	 4.533360000018134e+000	 1.015393532829953e+001
0	 6.666700000016666e+000	 4.600030000017851e+000	 1.015212955471933e+001
0	 6.666700000016667e+000	 4.666700000016667e+000	 1.015026844091295e+001
0	 6.733360000014530e+000	 4.000000000000000e+000	 1.016066702379129e+001
0	 6.733360000014534e+000	 4.066670000003317e+000	 1.015938418834026e+001
0	 6.733360000014532e+000	 4.133340000006534e+000	 1.015805778182335e+001
0	 6.733360000014532e+000	 4.200010000009551e+000	 1.015668624939662e+001
0	 6.733360000014534e+000	 4.266680000012269e+000	 1.015526803621616e+001
0	 6.733360000014532e+000	 4.333350000014584e+000	 1.015380158743807e+001
0	 6.733360000014534e+000	 4.400020000016402e+000	 1.015228534821842e+001
0	 6.733360000014533e+000	 4.466690000017618e+000	 1.015071776371332e+001
0	 6.733360000014533e+000	 4.533360000018133e+000	 1.014909727907883e+001
0	 6.733360000014532e+000	 4.600030000017851e+000	 1.014742233947107e+001
0	 6.733360000014534e+000	 4.666700000016666e+000	 1.014569139004608e+001
0	 6.800020000011598e+000	 4.000000000000000e+000	 1.015494470714032e+001
0	 6.800020000011600e+000	 4.066670000003316e+000	 1.015376245300075e+001
0	 6.800020000011599e+000	 4.133340000006532e+000	 1.015254263911294e+001
0	 6.800020000011601e+000	 4.200010000009550e+000	 1.015128261236279e+001
0	 6.800020000011601e+000	 4.266680000012267e+000	 1.014997971963617e+001
0	 6.800020000011600e+000	 4.333350000014584e+000	 1.014863130781900e+001
0	 6.800020000011601e+000	 4.400020000016401e+000	 1.014723472379716e+001
0	 6.800020000011601e+000	 4.466690000017618e+000	 1.014578731445652e+001
0	 6.800020000011600e+000	 4.533360000018133e+000	 1.014428642668299e+001
0	 6.800020000011598e+000	 4.600030000017850e+000	 1.014272940736243e+001
0	 6.800020000011601e+000	 4.666700000016666e+000	 1.014111360338074e+001
0	 6.866680000008067e+000	 4.000000000000000e+000	 1.014925097475580e+001
0	 6.866680000008068e+000	 4.066670000003318e+000	 1.014817934932932e+001
0	 6.866680000008065e+000	 4.133340000006533e+000	 1.014707265415699e+001
0	 6.866680000008065e+000	 4.200010000009550e+000	 1.014592738454915e+001
0	 6.866680000008067e+000	 4.266680000012268e+000	 1.014474003581619e+001
0	 6.866680000008066e+000	 4.333350000014585e+000	 1.014350710326843e+001
0	 6.866680000008067e+000	 4.400020000016401e+000	 1.014222508221625e+001
0	 6.866680000008065e+000	 4.466690000017615e+000	 1.014089046796999e+001
0	 6.866680000008066e+000	 4.533360000018134e+000	 1.013949975584000e+001
0	 6.866680000008069e+000	 4.600030000017852e+000	 1.013804944113663e+001
0	 6.866680000008066e+000	 4.666700000016666e+000	 1.013653601917024e+001
0	 6.933340000004133e+000	 4.000000000000000e+000	 1.014358929706198e+001
0	 6.933340000004135e+000	 4.066670000003316e+000	 1.014263558580594e+001
0	 6.933340000004135e+000	 4.133340000006534e+000	 1.014164633098608e+001
0	 6.933340000004133e+000	 4.200010000009550e+000	 1.014061742303189e+001
0	 6.933340000004136e+000	 4.266680000012268e+000	 1.013954475237285e+001
0	 6.933340000004135e+000	 4.333350000014584e+000	 1.013842420943844e+001
0	 6.933340000004136e+000	 4.400020000016401e+000	 1.013725168465817e+001
0	 6.933340000004135e+000	 4.466690000017618e+000	 1.013602306846149e+001
0	 6.933340000004135e+000	 4.533360000018134e+000	 1.013473425127790e+001
0	 6.933340000004133e+000	 4.600030000017850e+000	 1.013338112353687e+001
0	 6.933340000004136e+000	 4.666700000016667e+000	 1.013195957566790e+001
0	 7.000000000000001e+000	 4.000000000000000e+000	 1.013796314448318e+001
0	 7.000000000000003e+000	 4.066670000003317e+000	 1.013713187091062e+001
0	 7.000000000000000e+000	 4.133340000006533e+000	 1.013626217363085e+001
0	 7.000000000000001e+000	 4.200010000009551e+000	 1.013534958488716e+001
0	 7.000000000000002e+000	 4.266680000012267e+000	 1.013438963692283e+001
0	 7.000000000000001e+000	 4.333350000014583e+000	 1.013337786198114e+001
0	 7.000000000000004e+000	 4.400020000016402e+000	 1.013230979230537e+001
0	 7.000000000000003e+000	 4.466690000017617e+000	 1.013118096013880e+001
0	 7.000000000000001e+000	 4.533360000018133e+000	 1.012998689772471e+001
0	 7.000000000000001e+000	 4.600030000017851e+000	 1.012872313730635e+001
0	 7.000000000000001e+000	 4.666700000016665e+000	 1.012738521112702e+001
0	 7.066659999995869e+000	 4.000000000000000e+000	 1.013237598744366e+001
0	 7.066659999995870e+000	 4.066670000003318e+000	 1.013166891312330e+001
0	 7.066659999995870e+000	 4.133340000006536e+000	 1.013091868612188e+001
0	 7.066659999995870e+000	 4.200010000009551e+000	 1.013012072719113e+001
0	 7.066659999995870e+000	 4.266680000012267e+000	 1.012927045708280e+001
0	 7.066659999995870e+000	 4.333350000014582e+000	 1.012836329654864e+001
0	 7.066659999995871e+000	 4.400020000016401e+000	 1.012739466634036e+001
0	 7.066659999995868e+000	 4.466690000017617e+000	 1.012635998720972e+001
0	 7.066659999995869e+000	 4.533360000018133e+000	 1.012525467990846e+001
0	 7.066659999995869e+000	 4.600030000017850e+000	 1.012407416518829e+001
0	 7.066659999995868e+000	 4.666700000016665e+000	 1.012281386380095e+001
0	 7.133319999991937e+000	 4.000000000000000e+000	 1.012683129636772e+001
0	 7.133319999991937e+000	 4.066670000003317e+000	 1.012624742092398e+001
0	 7.133319999991935e+000	 4.133340000006533e+000	 1.012561437248978e+001
0	 7.133319999991937e+000	 4.200010000009550e+000	 1.012492770701998e+001
0	 7.133319999991936e+000	 4.266680000012267e+000	 1.012418298046944e+001
0	 7.133319999991936e+000	 4.333350000014584e+000	 1.012337574879303e+001
0	 7.133319999991937e+000	 4.400020000016400e+000	 1.012250156794561e+001
0	 7.133319999991937e+000	 4.466690000017618e+000	 1.012155599388203e+001
0	 7.133319999991936e+000	 4.533360000018132e+000	 1.012053458255716e+001
0	 7.133319999991937e+000	 4.600030000017851e+000	 1.011943288992586e+001
0	 7.133319999991937e+000	 4.666700000016667e+000	 1.011824647194297e+001
0	 7.199979999988402e+000	 4.000000000000000e+000	 1.012133254167963e+001
0	 7.199979999988405e+000	 4.066670000003319e+000	 1.012086810279264e+001
0	 7.199979999988404e+000	 4.133340000006535e+000	 1.012034773676516e+001
0	 7.199979999988403e+000	 4.200010000009551e+000	 1.011976738144988e+001
0	 7.199979999988405e+000	 4.266680000012268e+000	 1.011912297469941e+001
0	 7.199979999988403e+000	 4.333350000014583e+000	 1.011841045436642e+001
0	 7.199979999988403e+000	 4.400020000016400e+000	 1.011762575830357e+001
0	 7.199979999988401e+000	 4.466690000017618e+000	 1.011676482436350e+001
0	 7.199979999988402e+000	 4.533360000018133e+000	 1.011582359039885e+001
0	 7.199979999988404e+000	 4.600030000017850e+000	 1.011479799426228e+001
0	 7.199979999988404e+000	 4.666700000016666e+000	 1.011368397380643e+001
0	 7.266639999985472e+000	 4.000000000000001e+000	 1.011588319380369e+001
0	 7.266639999985472e+000	 4.066670000003318e+000	 1.011553166720924e+001
0	 7.266639999985469e+000	 4.133340000006534e+000	 1.011511728297865e+001
0	 7.266639999985470e+000	 4.200010000009550e+000	 1.011463660755699e+001
0	 7.266639999985470e+000	 4.266680000012267e+000	 1.011408620738939e+001
0	 7.266639999985471e+000	 4.333350000014583e+000	 1.011346264892095e+001
0	 7.266639999985472e+000	 4.400020000016402e+000	 1.011276249859676e+001
0	 7.266639999985471e+000	 4.466690000017617e+000	 1.011198232286193e+001
0	 7.266639999985470e+000	 4.533360000018134e+000	 1.011111868816157e+001
0	 7.266639999985471e+000	 4.600030000017850e+000	 1.011016816094077e+001
0	 7.266639999985471e+000	 4.666700000016665e+000	 1.010912730764462e+001
0	 7.333299999983335e+000	 4.000000000000001e+000	 1.011048672316418e+001
0	 7.333299999983335e+000	 4.066670000003317e+000	 1.011023882265379e+001
0	 7.333299999983334e+000	 4.133340000006534e+000	 1.010992151516082e+001
0	 7.333299999983335e+000	 4.200010000009550e+000	 1.010953224241750e+001
0	 7.333299999983333e+000	 4.266680000012268e+000	 1.010906844615605e+001
0	 7.333299999983333e+000	 4.333350000014583e+000	 1.010852756810868e+001
0	 7.333299999983334e+000	 4.400020000016402e+000	 1.010790705000762e+001
0	 7.333299999983334e+000	 4.466690000017617e+000	 1.010720433358510e+001
0	 7.333299999983334e+000	 4.533360000018134e+000	 1.010641686057332e+001
0	 7.333299999983334e+000	 4.600030000017849e+000	 1.010554207270451e+001
0	 7.333299999983333e+000	 4.666700000016665e+000	 1.010457741171089e+001
0	 6.666700000016667e+000	 4.666700000016667e+000	 1.015026844091295e+001
0	 6.666700000016668e+000	 4.733360000014534e+000	 1.014836063424877e+001
0	 6.666700000016665e+000	 4.800020000011600e+000	 1.014641150237363e+001
0	 6.666700000016667e+000	 4.866680000008067e+000	 1.014441676576785e+001
0	 6.666700000016669e+000	 4.933340000004135e+000	 1.014237214491173e+001
0	 6.666700000016666e+000	 5.000000000000001e+000	 1.014027336028560e+001
0	 6.666700000016667e+000	 5.066659999995867e+000	 1.013811613236978e+001
0	 6.666700000016666e+000	 5.133319999991935e+000	 1.013589618164461e+001
0	 6.666700000016666e+000	 5.199979999988400e+000	 1.013360922859041e+001
0	 6.666700000016665e+000	 5.266639999985468e+000	 1.013125099368751e+001
0	 6.666700000016665e+000	 5.333299999983334e+000	 1.012881719741624e+001
0	 6.733360000014534e+000	 4.666700000016666e+000	 1.014569139004608e+001
0	 6.733360000014531e+000	 4.733360000014534e+000	 1.014390881195146e+001
0	 6.733360000014534e+000	 4.800020000011601e+000	 1.014207737703718e+001
0	 6.733360000014533e+000	 4.866680000008067e+000	 1.014019390823602e+001
0	 6.733360000014532e+000	 4.933340000004134e+000	 1.013825522848081e+001
0	 6.733360000014532e+000	 5.000000000000000e+000	 1.013625816070434e+001
0	 6.733360000014532e+000	 5.066659999995868e+000	 1.013419952783940e+001
0	 6.733360000014533e+000	 5.133319999991935e+000	 1.013207615281880e+001
0	 6.733360000014534e+000	 5.199979999988400e+000	 1.012988485857535e+001
0	 6.733360000014534e+000	 5.266639999985468e+000	 1.012762246804185e+001
0	 6.733360000014532e+000	 5.333299999983334e+000	 1.012528580415114e+001
0	 6.800020000011601e+000	 4.666700000016666e+000	 1.014111360338075e+001
0	 6.800020000011600e+000	 4.733360000014534e+000	 1.013944177355670e+001
0	 6.800020000011599e+000	 4.800020000011600e+000	 1.013771645399530e+001
0	 6.800020000011601e+000	 4.866680000008067e+000	 1.013593539821101e+001
0	 6.800020000011601e+000	 4.933340000004133e+000	 1.013409635971834e+001
0	 6.800020000011601e+000	 5.000000000000001e+000	 1.013219709203178e+001
0	 6.800020000011600e+000	 5.066659999995867e+000	 1.013023534866581e+001
0	 6.800020000011602e+000	 5.133319999991935e+000	 1.012820888313493e+001
0	 6.800020000011599e+000	 5.199979999988400e+000	 1.012611544895363e+001
0	 6.800020000011597e+000	 5.266639999985467e+000	 1.012395279963642e+001
0	 6.800020000011599e+000	 5.333299999983335e+000	 1.012171868869780e+001
0	 6.866680000008066e+000	 4.666700000016666e+000	 1.013653601917024e+001
0	 6.866680000008068e+000	 4.733360000014534e+000	 1.013496279707197e+001
0	 6.866680000008068e+000	 4.800020000011600e+000	 1.013333396276303e+001
0	 6.866680000008068e+000	 4.866680000008068e+000	 1.013164802846882e+001
0	 6.866680000008067e+000	 4.933340000004132e+000	 1.012990350641470e+001
0	 6.866680000008067e+000	 4.999999999999999e+000	 1.012809890882608e+001
0	 6.866680000008067e+000	 5.066659999995867e+000	 1.012623274792837e+001
0	 6.866680000008066e+000	 5.133319999991933e+000	 1.012430353594693e+001
0	 6.866680000008066e+000	 5.199979999988400e+000	 1.012230978510717e+001
0	 6.866680000008068e+000	 5.266639999985467e+000	 1.012025000763449e+001
0	 6.866680000008065e+000	 5.333299999983332e+000	 1.011812271575430e+001
0	 6.933340000004136e+000	 4.666700000016667e+000	 1.013195957566790e+001
0	 6.933340000004135e+000	 4.733360000014534e+000	 1.013047516050476e+001
0	 6.933340000004135e+000	 4.800020000011599e+000	 1.012893513285543e+001
0	 6.933340000004135e+000	 4.866680000008066e+000	 1.012733859178544e+001
0	 6.933340000004132e+000	 4.933340000004131e+000	 1.012568463636027e+001
0	 6.933340000004133e+000	 4.999999999999999e+000	 1.012397236564542e+001
0	 6.933340000004135e+000	 5.066659999995867e+000	 1.012220087870639e+001
0	 6.933340000004135e+000	 5.133319999991935e+000	 1.012036927460870e+001
0	 6.933340000004136e+000	 5.199979999988400e+000	 1.011847665241784e+001
0	 6.933340000004133e+000	 5.266639999985467e+000	 1.011652211119934e+001
0	 6.933340000004134e+000	 5.333299999983333e+000	 1.011450475001870e+001
0	 7.000000000000001e+000	 4.666700000016665e+000	 1.012738521112702e+001
0	 7.000000000000002e+000	 4.733360000014534e+000	 1.012598214186254e+001
0	 7.000000000000002e+000	 4.800020000011600e+000	 1.012452519378757e+001
0	 7.000000000000000e+000	 4.866680000008066e+000	 1.012301388093693e+001
0	 7.000000000000001e+000	 4.933340000004132e+000	 1.012144771734543e+001
0	 7.000000000000002e+000	 4.999999999999999e+000	 1.011982621704792e+001
0	 7.000000000000002e+000	 5.066659999995867e+000	 1.011814889407922e+001
0	 7.000000000000002e+000	 5.133319999991934e+000	 1.011641526247415e+001
0	 7.000000000000003e+000	 5.199979999988400e+000	 1.011462483626754e+001
0	 7.000000000000001e+000	 5.266639999985467e+000	 1.011277712949424e+001
0	 7.000000000000002e+000	 5.333299999983335e+000	 1.011087165618906e+001
0	 7.066659999995868e+000	 4.666700000016665e+000	 1.012281386380095e+001
0	 7.066659999995870e+000	 4.733360000014534e+000	 1.012148701915280e+001
0	 7.066659999995871e+000	 4.800020000011601e+000	 1.012010937507444e+001
0	 7.066659999995870e+000	 4.866680000008066e+000	 1.011868068869926e+001
0	 7.066659999995871e+000	 4.933340000004133e+000	 1.011720071716058e+001
0	 7.066659999995870e+000	 5.000000000000000e+000	 1.011566921759178e+001
0	 7.066659999995869e+000	 5.066659999995866e+000	 1.011408594712620e+001
0	 7.066659999995869e+000	 5.133319999991935e+000	 1.011245066289719e+001
0	 7.066659999995871e+000	 5.199979999988401e+000	 1.011076312203816e+001
0	 7.066659999995870e+000	 5.266639999985467e+000	 1.010902308168245e+001
0	 7.066659999995871e+000	 5.333299999983334e+000	 1.010723029896342e+001
0	 7.133319999991937e+000	 4.666700000016667e+000	 1.011824647194297e+001
0	 7.133319999991937e+000	 4.733360000014534e+000	 1.011699307038301e+001
0	 7.133319999991937e+000	 4.800020000011600e+000	 1.011569290623114e+001
0	 7.133319999991936e+000	 4.866680000008067e+000	 1.011434580784847e+001
0	 7.133319999991937e+000	 4.933340000004133e+000	 1.011295160359609e+001
0	 7.133319999991937e+000	 4.999999999999999e+000	 1.011151012183512e+001
0	 7.133319999991937e+000	 5.066659999995867e+000	 1.011002119092664e+001
0	 7.133319999991937e+000	 5.133319999991935e+000	 1.010848463923177e+001
0	 7.133319999991937e+000	 5.199979999988400e+000	 1.010690029511160e+001
0	 7.133319999991937e+000	 5.266639999985468e+000	 1.010526798692727e+001
0	 7.133319999991937e+000	 5.333299999983334e+000	 1.010358754303985e+001
0	 7.199979999988404e+000	 4.666700000016666e+000	 1.011368397380643e+001
0	 7.199979999988404e+000	 4.733360000014532e+000	 1.011250357356066e+001
0	 7.199979999988403e+000	 4.800020000011600e+000	 1.011128101677269e+001
0	 7.199979999988404e+000	 4.866680000008066e+000	 1.011001603116057e+001
0	 7.199979999988403e+000	 4.933340000004133e+000	 1.010870834444237e+001
0	 7.199979999988403e+000	 4.999999999999999e+000	 1.010735768433613e+001
0	 7.199979999988406e+000	 5.066659999995866e+000	 1.010596377855989e+001
0	 7.199979999988405e+000	 5.133319999991934e+000	 1.010452635483175e+001
0	 7.199979999988405e+000	 5.199979999988401e+000	 1.010304514086974e+001
0	 7.199979999988403e+000	 5.266639999985467e+000	 1.010151986439194e+001
0	 7.199979999988404e+000	 5.333299999983335e+000	 1.009995025311641e+001
0	 7.266639999985471e+000	 4.666700000016665e+000	 1.010912730764462e+001
0	 7.266639999985471e+000	 4.733360000014534e+000	 1.010802180669323e+001
0	 7.266639999985471e+000	 4.800020000011601e+000	 1.010687893621415e+001
0	 7.266639999985471e+000	 4.866680000008067e+000	 1.010569815141159e+001
0	 7.266639999985473e+000	 4.933340000004134e+000	 1.010447890748978e+001
0	 7.266639999985472e+000	 5.000000000000000e+000	 1.010322065965295e+001
0	 7.266639999985472e+000	 5.066659999995866e+000	 1.010192286310530e+001
0	 7.266639999985470e+000	 5.133319999991934e+000	 1.010058497305107e+001
0	 7.266639999985471e+000	 5.199979999988400e+000	 1.009920644469448e+001
0	 7.266639999985471e+000	 5.266639999985467e+000	 1.009778673323977e+001
0	 7.266639999985469e+000	 5.333299999983333e+000	 1.009632529389116e+001
0	 7.333299999983333e+000	 4.666700000016665e+000	 1.010457741171090e+001
0	 7.333299999983334e+000	 4.733360000014534e+000	 1.010355104778821e+001
0	 7.333299999983334e+000	 4.800020000011600e+000	 1.010249189407055e+001
0	 7.333299999983334e+000	 4.866680000008068e+000	 1.010139896137754e+001
0	 7.333299999983335e+000	 4.933340000004134e+000	 1.010027126052873e+001
0	 7.333299999983335e+000	 4.999999999999999e+000	 1.009910780234374e+001
0	 7.333299999983336e+000	 5.066659999995867e+000	 1.009790759764218e+001
0	 7.333299999983335e+000	 5.133319999991935e+000	 1.009666965724363e+001
0	 7.333299999983335e+000	 5.199979999988400e+000	 1.009539299196771e+001
0	 7.333299999983333e+000	 5.266639999985469e+000	 1.009407661263403e+001
0	 7.333299999983334e+000	 5.333299999983333e+000	 1.009271953006216e+001
0	 6.666700000016665e+000	 5.333299999983334e+000	 1.012881719741624e+001
0	 6.666700000016668e+000	 5.399969999982151e+000	 1.012634616900085e+001
0	 6.666700000016667e+000	 5.466639999981866e+000	 1.012387847490545e+001
0	 6.666700000016667e+000	 5.533309999982384e+000	 1.012141207850727e+001
0	 6.666700000016667e+000	 5.599979999983600e+000	 1.011894494318355e+001
0	 6.666700000016665e+000	 5.666649999985416e+000	 1.011647503231150e+001
0	 6.666700000016665e+000	 5.733319999987732e+000	 1.011400030926840e+001
0	 6.666700000016665e+000	 5.799989999990448e+000	 1.011151873743145e+001
0	 6.666700000016665e+000	 5.866659999993468e+000	 1.010902828017789e+001
0	 6.666700000016665e+000	 5.933329999996682e+000	 1.010652690088495e+001
0	 6.666700000016668e+000	 6.000000000000002e+000	 1.010401256292989e+001
0	 6.733360000014532e+000	 5.333299999983334e+000	 1.012528580415114e+001
0	 6.733360000014532e+000	 5.399969999982151e+000	 1.012291383288075e+001
0	 6.733360000014532e+000	 5.466639999981866e+000	 1.012054666575308e+001
0	 6.733360000014530e+000	 5.533309999982382e+000	 1.011818177522444e+001
0	 6.733360000014530e+000	 5.599979999983599e+000	 1.011581663375109e+001
0	 6.733360000014532e+000	 5.666649999985415e+000	 1.011344871378934e+001
0	 6.733360000014531e+000	 5.733319999987733e+000	 1.011107548779551e+001
0	 6.733360000014533e+000	 5.799989999990450e+000	 1.010869442822587e+001
0	 6.733360000014533e+000	 5.866659999993468e+000	 1.010630300753673e+001
0	 6.733360000014532e+000	 5.933329999996683e+000	 1.010389869818439e+001
0	 6.733360000014532e+000	 6.000000000000000e+000	 1.010147897262514e+001
0	 6.800020000011599e+000	 5.333299999983335e+000	 1.012171868869780e+001
0	 6.800020000011599e+000	 5.399969999982150e+000	 1.011945112827403e+001
0	 6.800020000011599e+000	 5.466639999981864e+000	 1.011718836510387e+001
0	 6.800020000011601e+000	 5.533309999982385e+000	 1.011492748273752e+001
0	 6.800020000011601e+000	 5.599979999983599e+000	 1.011266556472523e+001
0	 6.800020000011599e+000	 5.666649999985417e+000	 1.011039969461722e+001
0	 6.800020000011601e+000	 5.733319999987733e+000	 1.010812695596370e+001
0	 6.800020000011600e+000	 5.799989999990451e+000	 1.010584443231493e+001
0	 6.800020000011601e+000	 5.866659999993466e+000	 1.010354920722111e+001
0	 6.800020000011601e+000	 5.933329999996684e+000	 1.010123836423250e+001
0	 6.800020000011599e+000	 6.000000000000000e+000	 1.009890898689929e+001
0	 6.866680000008065e+000	 5.333299999983332e+000	 1.011812271575430e+001
0	 6.866680000008067e+000	 5.399969999982150e+000	 1.011596367556756e+001
0	 6.866680000008067e+000	 5.466639999981866e+000	 1.011380815799264e+001
0	 6.866680000008065e+000	 5.533309999982381e+000	 1.011165295968858e+001
0	 6.866680000008065e+000	 5.599979999983598e+000	 1.010949487731441e+001
0	 6.866680000008067e+000	 5.666649999985416e+000	 1.010733070752917e+001
0	 6.866680000008067e+000	 5.733319999987732e+000	 1.010515724699186e+001
0	 6.866680000008067e+000	 5.799989999990450e+000	 1.010297129236153e+001
0	 6.866680000008065e+000	 5.866659999993467e+000	 1.010076964029721e+001
0	 6.866680000008066e+000	 5.933329999996683e+000	 1.009854908745792e+001
0	 6.866680000008067e+000	 6.000000000000000e+000	 1.009630643050266e+001
0	 6.933340000004134e+000	 5.333299999983333e+000	 1.011450475001870e+001
0	 6.933340000004134e+000	 5.399969999982148e+000	 1.011245709514813e+001
0	 6.933340000004135e+000	 5.466639999981866e+000	 1.011041062945422e+001
0	 6.933340000004135e+000	 5.533309999982381e+000	 1.010836196471963e+001
0	 6.933340000004136e+000	 5.599979999983600e+000	 1.010630771272710e+001
0	 6.933340000004135e+000	 5.666649999985418e+000	 1.010424448525929e+001
0	 6.933340000004135e+000	 5.733319999987732e+000	 1.010216889409892e+001
0	 6.933340000004135e+000	 5.799989999990449e+000	 1.010007755102867e+001
0	 6.933340000004134e+000	 5.866659999993468e+000	 1.009796706783124e+001
0	 6.933340000004136e+000	 5.933329999996682e+000	 1.009583405628934e+001
0	 6.933340000004135e+000	 5.999999999999999e+000	 1.009367512818562e+001
0	 7.000000000000002e+000	 5.333299999983335e+000	 1.011087165618906e+001
0	 7.000000000000003e+000	 5.399969999982150e+000	 1.010893700740262e+001
0	 7.000000000000001e+000	 5.466639999981865e+000	 1.010700036452344e+001
0	 7.000000000000002e+000	 5.533309999982384e+000	 1.010505825647273e+001
0	 7.000000000000002e+000	 5.599979999983599e+000	 1.010310721217173e+001
0	 7.000000000000002e+000	 5.666649999985417e+000	 1.010114376054166e+001
0	 7.000000000000002e+000	 5.733319999987733e+000	 1.009916443050377e+001
0	 7.000000000000003e+000	 5.799989999990449e+000	 1.009716575097928e+001
0	 7.000000000000002e+000	 5.866659999993467e+000	 1.009514425088941e+001
0	 7.000000000000002e+000	 5.933329999996682e+000	 1.009309645915540e+001
0	 7.000000000000002e+000	 6.000000000000000e+000	 1.009101890469849e+001
0	 7.066659999995871e+000	 5.333299999983334e+000	 1.010723029896342e+001
0	 7.066659999995871e+000	 5.399969999982151e+000	 1.010540903271787e+001
0	 7.066659999995870e+000	 5.466639999981867e+000	 1.010358194823515e+001
0	 7.066659999995869e+000	 5.533309999982382e+000	 1.010174559358990e+001
0	 7.066659999995868e+000	 5.599979999983598e+000	 1.009989651685675e+001
0	 7.066659999995871e+000	 5.666649999985417e+000	 1.009803126611034e+001
0	 7.066659999995869e+000	 5.733319999987732e+000	 1.009614638942531e+001
0	 7.066659999995869e+000	 5.799989999990451e+000	 1.009423843487628e+001
0	 7.066659999995870e+000	 5.866659999993467e+000	 1.009230395053790e+001
0	 7.066659999995871e+000	 5.933329999996683e+000	 1.009033948448479e+001
0	 7.066659999995868e+000	 5.999999999999998e+000	 1.008834158479160e+001
0	 7.133319999991937e+000	 5.333299999983334e+000	 1.010358754303985e+001
0	 7.133319999991936e+000	 5.399969999982148e+000	 1.010187879148070e+001
0	 7.133319999991937e+000	 5.466639999981866e+000	 1.010015996562417e+001
0	 7.133319999991937e+000	 5.533309999982383e+000	 1.009842773471318e+001
0	 7.133319999991936e+000	 5.599979999983598e+000	 1.009667876799062e+001
0	 7.133319999991937e+000	 5.666649999985417e+000	 1.009490973469942e+001
0	 7.133319999991935e+000	 5.733319999987732e+000	 1.009311730408246e+001
0	 7.133319999991938e+000	 5.799989999990449e+000	 1.009129814538265e+001
0	 7.133319999991937e+000	 5.866659999993467e+000	 1.008944892784292e+001
0	 7.133319999991937e+000	 5.933329999996683e+000	 1.008756632070616e+001
0	 7.133319999991937e+000	 6.000000000000000e+000	 1.008564699321528e+001
0	 7.199979999988404e+000	 5.333299999983335e+000	 1.009995025311641e+001
0	 7.199979999988404e+000	 5.399969999982150e+000	 1.009835190407797e+001
0	 7.199979999988403e+000	 5.466639999981866e+000	 1.009673900172535e+001
0	 7.199979999988404e+000	 5.533309999982383e+000	 1.009510843848461e+001
0	 7.199979999988405e+000	 5.599979999983601e+000	 1.009345710678179e+001
0	 7.199979999988403e+000	 5.666649999985415e+000	 1.009178189904293e+001
0	 7.199979999988403e+000	 5.733319999987732e+000	 1.009007970769410e+001
0	 7.199979999988404e+000	 5.799989999990449e+000	 1.008834742516133e+001
0	 7.199979999988404e+000	 5.866659999993468e+000	 1.008658194387068e+001
0	 7.199979999988405e+000	 5.933329999996684e+000	 1.008478015624819e+001
0	 7.199979999988402e+000	 6.000000000000000e+000	 1.008293895471989e+001
0	 7.266639999985469e+000	 5.333299999983333e+000	 1.009632529389116e+001
0	 7.266639999985471e+000	 5.399969999982150e+000	 1.009483399089651e+001
0	 7.266639999985472e+000	 5.466639999981868e+000	 1.009332364157351e+001
0	 7.266639999985470e+000	 5.533309999982383e+000	 1.009179146354622e+001
0	 7.266639999985471e+000	 5.599979999983599e+000	 1.009023467443869e+001
0	 7.266639999985472e+000	 5.666649999985416e+000	 1.008865049187499e+001
0	 7.266639999985471e+000	 5.733319999987733e+000	 1.008703613347915e+001
0	 7.266639999985471e+000	 5.799989999990450e+000	 1.008538881687526e+001
0	 7.266639999985471e+000	 5.866659999993466e+000	 1.008370575968736e+001
0	 7.266639999985472e+000	 5.933329999996683e+000	 1.008198417953951e+001
0	 7.266639999985472e+000	 6.000000000000001e+000	 1.008022129405574e+001
0	 7.333299999983334e+000	 5.333299999983333e+000	 1.009271953006216e+001
0	 7.333299999983335e+000	 5.399969999982150e+000	 1.009133067232317e+001
0	 7.333299999983333e+000	 5.466639999981867e+000	 1.008991847020349e+001
0	 7.333299999983334e+000	 5.533309999982385e+000	 1.008848056854005e+001
0	 7.333299999983335e+000	 5.599979999983599e+000	 1.008701461216980e+001
0	 7.333299999983334e+000	 5.666649999985417e+000	 1.008551824592963e+001
0	 7.333299999983336e+000	 5.733319999987733e+000	 1.008398911465652e+001
0	 7.333299999983334e+000	 5.799989999990449e+000	 1.008242486318739e+001
0	 7.333299999983333e+000	 5.866659999993468e+000	 1.008082313635917e+001
0	 7.333299999983334e+000	 5.933329999996684e+000	 1.007918157900880e+001
0	 7.333299999983334e+000	 6.000000000000002e+000	 1.007749783597320e+001
0	 6.666700000016668e+000	 6.000000000000002e+000	 1.010401256292989e+001
0	 6.666700000016667e+000	 6.066670000003318e+000	 1.010149752172007e+001
0	 6.666700000016665e+000	 6.133340000006532e+000	 1.009899373029264e+001
0	 6.666700000016666e+000	 6.200010000009550e+000	 1.009649869846943e+001
0	 6.666700000016666e+000	 6.266680000012267e+000	 1.009400993607233e+001
0	 6.666700000016667e+000	 6.333350000014586e+000	 1.009152495292317e+001
0	 6.666700000016667e+000	 6.400020000016401e+000	 1.008904125884381e+001
0	 6.666700000016667e+000	 6.466690000017616e+000	 1.008655636365612e+001
0	 6.666700000016666e+000	 6.533360000018132e+000	 1.008406777718194e+001
0	 6.666700000016667e+000	 6.600030000017851e+000	 1.008157300924314e+001
0	 6.666700000016666e+000	 6.666700000016667e+000	 1.007906956966154e+001
0	 6.733360000014532e+000	 6.000000000000000e+000	 1.010147897262514e+001
0	 6.733360000014534e+000	 6.066670000003316e+000	 1.009905517387563e+001
0	 6.733360000014533e+000	 6.133340000006534e+000	 1.009663889998828e+001
0	 6.733360000014533e+000	 6.200010000009552e+000	 1.009422800597303e+001
0	 6.733360000014532e+000	 6.266680000012268e+000	 1.009182034683986e+001
0	 6.733360000014531e+000	 6.333350000014582e+000	 1.008941377759872e+001
0	 6.733360000014532e+000	 6.400020000016401e+000	 1.008700615325954e+001
0	 6.733360000014532e+000	 6.466690000017618e+000	 1.008459532883229e+001
0	 6.733360000014531e+000	 6.533360000018131e+000	 1.008217915932692e+001
0	 6.733360000014532e+000	 6.600030000017852e+000	 1.007975549975338e+001
0	 6.733360000014532e+000	 6.666700000016667e+000	 1.007732220512161e+001
0	 6.800020000011599e+000	 6.000000000000000e+000	 1.009890898689929e+001
0	 6.800020000011599e+000	 6.066670000003315e+000	 1.009657234626091e+001
0	 6.800020000011600e+000	 6.133340000006532e+000	 1.009424042074187e+001
0	 6.800020000011601e+000	 6.200010000009552e+000	 1.009191135497000e+001
0	 6.800020000011598e+000	 6.266680000012264e+000	 1.008958329357320e+001
0	 6.800020000011599e+000	 6.333350000014585e+000	 1.008725438117926e+001
0	 6.800020000011601e+000	 6.400020000016402e+000	 1.008492276241609e+001
0	 6.800020000011601e+000	 6.466690000017619e+000	 1.008258658191152e+001
0	 6.800020000011600e+000	 6.533360000018136e+000	 1.008024398429339e+001
0	 6.800020000011600e+000	 6.600030000017851e+000	 1.007789311418959e+001
0	 6.800020000011599e+000	 6.666700000016666e+000	 1.007553211622794e+001
0	 6.866680000008067e+000	 6.000000000000000e+000	 1.009630643050266e+001
0	 6.866680000008066e+000	 6.066670000003317e+000	 1.009405354499202e+001
0	 6.866680000008067e+000	 6.133340000006534e+000	 1.009180336116420e+001
0	 6.866680000008067e+000	 6.200010000009553e+000	 1.008955425769476e+001
0	 6.866680000008067e+000	 6.266680000012267e+000	 1.008730461325928e+001
0	 6.866680000008068e+000	 6.333350000014585e+000	 1.008505280653330e+001
0	 6.866680000008067e+000	 6.400020000016401e+000	 1.008279721619239e+001
0	 6.866680000008068e+000	 6.466690000017618e+000	 1.008053622091211e+001
0	 6.866680000008065e+000	 6.533360000018133e+000	 1.007826819936803e+001
0	 6.866680000008067e+000	 6.600030000017850e+000	 1.007599153023570e+001
0	 6.866680000008066e+000	 6.666700000016666e+000	 1.007370459219068e+001
0	 6.933340000004135e+000	 5.999999999999999e+000	 1.009367512818562e+001
0	 6.933340000004135e+000	 6.066670000003317e+000	 1.009150327618502e+001
0	 6.933340000004134e+000	 6.133340000006533e+000	 1.008933278986602e+001
0	 6.933340000004134e+000	 6.200010000009551e+000	 1.008716222638167e+001
0	 6.933340000004134e+000	 6.266680000012267e+000	 1.008499014288509e+001
0	 6.933340000004135e+000	 6.333350000014587e+000	 1.008281509652930e+001
0	 6.933340000004134e+000	 6.400020000016400e+000	 1.008063564446738e+001
0	 6.933340000004135e+000	 6.466690000017616e+000	 1.007845034385243e+001
0	 6.933340000004133e+000	 6.533360000018133e+000	 1.007625775183749e+001
0	 6.933340000004133e+000	 6.600030000017850e+000	 1.007405642557564e+001
0	 6.933340000004135e+000	 6.666700000016667e+000	 1.007184492221995e+001
0	 7.000000000000002e+000	 6.000000000000000e+000	 1.009101890469849e+001
0	 7.000000000000001e+000	 6.066670000003315e+000	 1.008892604595601e+001
0	 7.000000000000001e+000	 6.133340000006533e+000	 1.008683377545812e+001
0	 7.000000000000002e+000	 6.200010000009550e+000	 1.008474077326519e+001
0	 7.000000000000001e+000	 6.266680000012267e+000	 1.008264571943760e+001
0	 6.999999999999999e+000	 6.333350000014583e+000	 1.008054729403574e+001
0	 7.000000000000003e+000	 6.400020000016401e+000	 1.007844417712000e+001
0	 7.000000000000001e+000	 6.466690000017617e+000	 1.007633504875077e+001
0	 7.000000000000003e+000	 6.533360000018134e+000	 1.007421858898841e+001
0	 6.999999999999999e+000	 6.600030000017848e+000	 1.007209347789332e+001
0	 7.000000000000003e+000	 6.666700000016667e+000	 1.006995839552591e+001
0	 7.066659999995868e+000	 5.999999999999998e+000	 1.008834158479160e+001
0	 7.066659999995870e+000	 6.066670000003318e+000	 1.008632636042108e+001
0	 7.066659999995870e+000	 6.133340000006535e+000	 1.008431138655128e+001
0	 7.066659999995870e+000	 6.200010000009553e+000	 1.008229541057967e+001
0	 7.066659999995871e+000	 6.266680000012268e+000	 1.008027717990379e+001
0	 7.066659999995869e+000	 6.333350000014583e+000	 1.007825544192111e+001
0	 7.066659999995869e+000	 6.400020000016400e+000	 1.007622894402916e+001
0	 7.066659999995870e+000	 6.466690000017619e+000	 1.007419643362545e+001
0	 7.066659999995870e+000	 6.533360000018135e+000	 1.007215665810746e+001
0	 7.066659999995870e+000	 6.600030000017852e+000	 1.007010836487270e+001
0	 7.066659999995870e+000	 6.666700000016668e+000	 1.006805030131869e+001
0	 7.133319999991937e+000	 6.000000000000000e+000	 1.008564699321528e+001
0	 7.133319999991937e+000	 6.066670000003318e+000	 1.008370872569630e+001
0	 7.133319999991937e+000	 6.133340000006534e+000	 1.008177069175625e+001
0	 7.133319999991937e+000	 6.200010000009551e+000	 1.007983165055954e+001
0	 7.133319999991937e+000	 6.266680000012268e+000	 1.007789036127062e+001
0	 7.133319999991937e+000	 6.333350000014583e+000	 1.007594558305391e+001
0	 7.133319999991937e+000	 6.400020000016401e+000	 1.007399607507383e+001
0	 7.133319999991937e+000	 6.466690000017618e+000	 1.007204059649482e+001
0	 7.133319999991936e+000	 6.533360000018134e+000	 1.007007790648130e+001
0	 7.133319999991937e+000	 6.600030000017851e+000	 1.006810676419769e+001
0	 7.133319999991937e+000	 6.666700000016666e+000	 1.006612592880843e+001
0	 7.199979999988402e+000	 6.000000000000000e+000	 1.008293895471989e+001
0	 7.199979999988403e+000	 6.066670000003315e+000	 1.008107764789775e+001
0	 7.199979999988403e+000	 6.133340000006532e+000	 1.007921675968381e+001
0	 7.199979999988404e+000	 6.200010000009550e+000	 1.007735500543919e+001
0	 7.199979999988403e+000	 6.266680000012268e+000	 1.007549110052507e+001
0	 7.199979999988404e+000	 6.333350000014582e+000	 1.007362376030259e+001
0	 7.199979999988403e+000	 6.400020000016398e+000	 1.007175170013291e+001
0	 7.199979999988405e+000	 6.466690000017617e+000	 1.006987363537719e+001
0	 7.199979999988401e+000	 6.533360000018133e+000	 1.006798828139657e+001
0	 7.199979999988405e+000	 6.600030000017851e+000	 1.006609435355223e+001
0	 7.199979999988403e+000	 6.666700000016665e+000	 1.006419056720529e+001
0	 7.266639999985472e+000	 6.000000000000001e+000	 1.008022129405574e+001
0	 7.266639999985472e+000	 6.066670000003317e+000	 1.007843763314154e+001
0	 7.266639999985470e+000	 6.133340000006532e+000	 1.007665465894473e+001
0	 7.266639999985472e+000	 6.200010000009552e+000	 1.007487098745303e+001
0	 7.266639999985471e+000	 6.266680000012268e+000	 1.007308523465411e+001
0	 7.266639999985471e+000	 6.333350000014582e+000	 1.007129601653566e+001
0	 7.266639999985472e+000	 6.400020000016402e+000	 1.006950194908536e+001
0	 7.266639999985471e+000	 6.466690000017617e+000	 1.006770164829089e+001
0	 7.266639999985472e+000	 6.533360000018135e+000	 1.006589373013996e+001
0	 7.266639999985471e+000	 6.600030000017851e+000	 1.006407681062023e+001
0	 7.266639999985470e+000	 6.666700000016665e+000	 1.006224950571938e+001
0	 7.333299999983334e+000	 6.000000000000002e+000	 1.007749783597320e+001
0	 7.333299999983334e+000	 6.066670000003316e+000	 1.007579318754373e+001
0	 7.333299999983332e+000	 6.133340000006531e+000	 1.007408945814982e+001
0	 7.333299999983334e+000	 6.200010000009550e+000	 1.007238510883548e+001
0	 7.333299999983334e+000	 6.266680000012268e+000	 1.007067860064473e+001
0	 7.333299999983335e+000	 6.333350000014586e+000	 1.006896839462159e+001
0	 7.333299999983336e+000	 6.400020000016400e+000	 1.006725295181010e+001
0	 7.333299999983333e+000	 6.466690000017615e+000	 1.006553073325427e+001
0	 7.333299999983334e+000	 6.533360000018135e+000	 1.006380019999810e+001
0	 7.333299999983335e+000	 6.600030000017851e+000	 1.006205981308564e+001
0	 7.333299999983333e+000	 6.666700000016665e+000	 1.006030803356087e+001
0	 6.666700000016666e+000	 6.666700000016667e+000	 1.007906956966154e+001
0	 6.666700000016667e+000	 6.733360000014533e+000	 1.007657710722668e+001
0	 6.666700000016665e+000	 6.800020000011598e+000	 1.007411491459743e+001
0	 6.666700000016666e+000	 6.866680000008067e+000	 1.007168109621578e+001
0	 6.666700000016667e+000	 6.933340000004133e+000	 1.006927375652368e+001
0	 6.666700000016665e+000	 6.999999999999999e+000	 1.006689099996310e+001
0	 6.666700000016667e+000	 7.066659999995868e+000	 1.006453093097601e+001
0	 6.666700000016665e+000	 7.133319999991936e+000	 1.006219165400436e+001
0	 6.666700000016666e+000	 7.199979999988400e+000	 1.005987127349013e+001
0	 6.666700000016666e+000	 7.266639999985467e+000	 1.005756789387528e+001
0	 6.666700000016665e+000	 7.333299999983333e+000	 1.005527961960176e+001
0	 6.733360000014532e+000	 6.666700000016667e+000	 1.007732220512161e+001
0	 6.733360000014534e+000	 6.733360000014534e+000	 1.007489899273310e+001
0	 6.733360000014534e+000	 6.800020000011599e+000	 1.007250493406208e+001
0	 6.733360000014532e+000	 6.866680000008068e+000	 1.007013801279518e+001
0	 6.733360000014532e+000	 6.933340000004133e+000	 1.006779621261893e+001
0	 6.733360000014533e+000	 7.000000000000000e+000	 1.006547751721993e+001
0	 6.733360000014532e+000	 7.066659999995870e+000	 1.006317991028472e+001
0	 6.733360000014534e+000	 7.133319999991937e+000	 1.006090137549990e+001
0	 6.733360000014534e+000	 7.199979999988401e+000	 1.005863989655201e+001
0	 6.733360000014532e+000	 7.266639999985467e+000	 1.005639345712763e+001
0	 6.733360000014532e+000	 7.333299999983334e+000	 1.005416004091334e+001
0	 6.800020000011599e+000	 6.666700000016666e+000	 1.007553211622794e+001
0	 6.800020000011600e+000	 6.733360000014534e+000	 1.007318035415343e+001
0	 6.800020000011600e+000	 6.800020000011601e+000	 1.007085631396935e+001
0	 6.800020000011601e+000	 6.866680000008067e+000	 1.006855788864400e+001
0	 6.800020000011600e+000	 6.933340000004134e+000	 1.006628297114568e+001
0	 6.800020000011599e+000	 7.000000000000001e+000	 1.006402945444269e+001
0	 6.800020000011599e+000	 7.066659999995865e+000	 1.006179523150330e+001
0	 6.800020000011600e+000	 7.133319999991935e+000	 1.005957819529584e+001
0	 6.800020000011601e+000	 7.199979999988401e+000	 1.005737623878858e+001
0	 6.800020000011598e+000	 7.266639999985466e+000	 1.005518725494981e+001
0	 6.800020000011599e+000	 7.333299999983334e+000	 1.005300913674784e+001
0	 6.866680000008066e+000	 6.666700000016666e+000	 1.007370459219068e+001
0	 6.866680000008067e+000	 6.733360000014532e+000	 1.007142605573745e+001
0	 6.866680000008068e+000	 6.800020000011601e+000	 1.006917353937203e+001
0	 6.866680000008065e+000	 6.866680000008065e+000	 1.006694487538158e+001
0	 6.866680000008067e+000	 6.933340000004134e+000	 1.006473789605322e+001
0	 6.866680000008066e+000	 6.999999999999998e+000	 1.006255043367411e+001
0	 6.866680000008067e+000	 7.066659999995866e+000	 1.006038032053138e+001
0	 6.866680000008067e+000	 7.133319999991934e+000	 1.005822538891216e+001
0	 6.866680000008066e+000	 7.199979999988402e+000	 1.005608347110362e+001
0	 6.866680000008068e+000	 7.266639999985467e+000	 1.005395239939287e+001
0	 6.866680000008064e+000	 7.333299999983331e+000	 1.005183000606706e+001
0	 6.933340000004135e+000	 6.666700000016667e+000	 1.007184492221995e+001
0	 6.933340000004135e+000	 6.733360000014533e+000	 1.006964096173486e+001
0	 6.933340000004135e+000	 6.800020000011600e+000	 1.006746109532292e+001
0	 6.933340000004135e+000	 6.866680000008066e+000	 1.006530312462719e+001
0	 6.933340000004134e+000	 6.933340000004133e+000	 1.006316485129083e+001
0	 6.933340000004135e+000	 6.999999999999999e+000	 1.006104407695691e+001
0	 6.933340000004134e+000	 7.066659999995865e+000	 1.005893860326856e+001
0	 6.933340000004136e+000	 7.133319999991936e+000	 1.005684623186885e+001
0	 6.933340000004134e+000	 7.199979999988400e+000	 1.005476476440093e+001
0	 6.933340000004135e+000	 7.266639999985467e+000	 1.005269200250788e+001
0	 6.933340000004135e+000	 7.333299999983335e+000	 1.005062574783281e+001
0	 7.000000000000003e+000	 6.666700000016667e+000	 1.006995839552591e+001
0	 7.000000000000003e+000	 6.733360000014531e+000	 1.006782993639544e+001
0	 7.000000000000002e+000	 6.800020000011599e+000	 1.006572346687480e+001
0	 7.000000000000002e+000	 6.866680000008066e+000	 1.006363678800018e+001
0	 7.000000000000002e+000	 6.933340000004133e+000	 1.006156770080779e+001
0	 7.000000000000004e+000	 7.000000000000000e+000	 1.005951400633381e+001
0	 7.000000000000002e+000	 7.066659999995866e+000	 1.005747350561446e+001
0	 7.000000000000003e+000	 7.133319999991936e+000	 1.005544399968589e+001
0	 7.000000000000001e+000	 7.199979999988400e+000	 1.005342328958431e+001
0	 7.000000000000001e+000	 7.266639999985466e+000	 1.005140917634592e+001
0	 7.000000000000001e+000	 7.333299999983334e+000	 1.004939946100691e+001
0	 7.066659999995870e+000	 6.666700000016668e+000	 1.006805030131869e+001
0	 7.066659999995871e+000	 6.733360000014533e+000	 1.006599784396888e+001
0	 7.066659999995871e+000	 6.800020000011601e+000	 1.006396513908047e+001
0	 7.066659999995869e+000	 6.866680000008066e+000	 1.006195001711985e+001
0	 7.066659999995870e+000	 6.933340000004133e+000	 1.005995030855342e+001
0	 7.066659999995870e+000	 7.000000000000000e+000	 1.005796384384757e+001
0	 7.066659999995870e+000	 7.066659999995866e+000	 1.005598845346870e+001
0	 7.066659999995870e+000	 7.133319999991935e+000	 1.005402196788324e+001
0	 7.066659999995869e+000	 7.199979999988401e+000	 1.005206221755756e+001
0	 7.066659999995869e+000	 7.266639999985467e+000	 1.005010703295806e+001
0	 7.066659999995870e+000	 7.333299999983335e+000	 1.004815424455117e+001
0	 7.133319999991937e+000	 6.666700000016666e+000	 1.006612592880843e+001
0	 7.133319999991937e+000	 6.733360000014534e+000	 1.006414954870496e+001
0	 7.133319999991937e+000	 6.800020000011600e+000	 1.006219059699274e+001
0	 7.133319999991936e+000	 6.866680000008067e+000	 1.006024696360550e+001
0	 7.133319999991937e+000	 6.933340000004133e+000	 1.005831653847697e+001
0	 7.133319999991937e+000	 6.999999999999999e+000	 1.005639721154087e+001
0	 7.133319999991937e+000	 7.066659999995865e+000	 1.005448687273094e+001
0	 7.133319999991937e+000	 7.133319999991935e+000	 1.005258341198089e+001
0	 7.133319999991937e+000	 7.199979999988401e+000	 1.005068471922447e+001
0	 7.133319999991937e+000	 7.266639999985466e+000	 1.004878868439540e+001
0	 7.133319999991937e+000	 7.333299999983333e+000	 1.004689319742739e+001
0	 7.199979999988403e+000	 6.666700000016665e+000	 1.006419056720528e+001
0	 7.199979999988403e+000	 6.733360000014533e+000	 1.006228991485340e+001
0	 7.199979999988404e+000	 6.800020000011600e+000	 1.006040432566438e+001
0	 7.199979999988404e+000	 6.866680000008068e+000	 1.005853177907646e+001
0	 7.199979999988404e+000	 6.933340000004134e+000	 1.005667025452775e+001
0	 7.199979999988402e+000	 6.999999999999997e+000	 1.005481773145645e+001
0	 7.199979999988404e+000	 7.066659999995867e+000	 1.005297218930075e+001
0	 7.199979999988404e+000	 7.133319999991935e+000	 1.005113160749882e+001
0	 7.199979999988404e+000	 7.199979999988401e+000	 1.004929396548883e+001
0	 7.199979999988406e+000	 7.266639999985467e+000	 1.004745724270896e+001
0	 7.199979999988405e+000	 7.333299999983335e+000	 1.004561941859738e+001
0	 7.266639999985470e+000	 6.666700000016665e+000	 1.006224950571938e+001
0	 7.266639999985472e+000	 6.733360000014533e+000	 1.006042380666392e+001
0	 7.266639999985471e+000	 6.800020000011600e+000	 1.005861081014824e+001
0	 7.266639999985471e+000	 6.866680000008067e+000	 1.005680861515202e+001
0	 7.266639999985471e+000	 6.933340000004134e+000	 1.005501532065504e+001
0	 7.266639999985470e+000	 7.000000000000000e+000	 1.005322902563705e+001
0	 7.266639999985470e+000	 7.066659999995866e+000	 1.005144782907779e+001
0	 7.266639999985471e+000	 7.133319999991934e+000	 1.004966982995700e+001
0	 7.266639999985471e+000	 7.199979999988401e+000	 1.004789312725444e+001
0	 7.266639999985470e+000	 7.266639999985465e+000	 1.004611581994984e+001
0	 7.266639999985471e+000	 7.333299999983332e+000	 1.004433600702294e+001
0	 7.333299999983333e+000	 6.666700000016665e+000	 1.006030803356087e+001
0	 7.333299999983335e+000	 6.733360000014533e+000	 1.005855608838630e+001
0	 7.333299999983334e+000	 6.800020000011600e+000	 1.005681453549703e+001
0	 7.333299999983332e+000	 6.866680000008064e+000	 1.005508162345149e+001
0	 7.333299999983334e+000	 6.933340000004134e+000	 1.005335560080813e+001
0	 7.333299999983332e+000	 6.999999999999998e+000	 1.005163471612537e+001
0	 7.333299999983334e+000	 7.066659999995866e+000	 1.004991721796166e+001
0	 7.333299999983333e+000	 7.133319999991934e+000	 1.004820135487542e+001
0	 7.333299999983334e+000	 7.199979999988401e+000	 1.004648537542509e+001
0	 7.333299999983335e+000	 7.266639999985467e+000	 1.004476752816911e+001
0	 7.333299999983336e+000	 7.333299999983336e+000	 1.004304606166591e+001
0	 6.666700000016665e+000	 7.333299999983333e+000	 1.005527961960176e+001
0	 6.666700000016665e+000	 7.399969999982150e+000	 1.005301776293255e+001
0	 6.666700000016668e+000	 7.466639999981867e+000	 1.005079429871229e+001
0	 6.666700000016667e+000	 7.533309999982384e+000	 1.004860729854382e+001
0	 6.666700000016665e+000	 7.599979999983599e+000	 1.004645483402999e+001
0	 6.666700000016666e+000	 7.666649999985416e+000	 1.004433497677360e+001
0	 6.666700000016665e+000	 7.733319999987731e+000	 1.004224579837749e+001
0	 6.666700000016665e+000	 7.799989999990450e+000	 1.004018537044451e+001
0	 6.666700000016665e+000	 7.866659999993465e+000	 1.003815176457743e+001
0	 6.666700000016666e+000	 7.933329999996684e+000	 1.003614305237913e+001
0	 6.666700000016668e+000	 8.000000000000000e+000	 1.003415730545241e+001
0	 6.733360000014532e+000	 7.333299999983334e+000	 1.005416004091334e+001
0	 6.733360000014531e+000	 7.399969999982149e+000	 1.005195116846872e+001
0	 6.733360000014531e+000	 7.466639999981864e+000	 1.004977912634264e+001
0	 6.733360000014533e+000	 7.533309999982383e+000	 1.004764204469594e+001
0	 6.733360000014532e+000	 7.599979999983601e+000	 1.004553805368940e+001
0	 6.733360000014532e+000	 7.666649999985416e+000	 1.004346528348380e+001
0	 6.733360000014533e+000	 7.733319999987734e+000	 1.004142186423995e+001
0	 6.733360000014532e+000	 7.799989999990450e+000	 1.003940592611862e+001
0	 6.733360000014533e+000	 7.866659999993466e+000	 1.003741559928064e+001
0	 6.733360000014531e+000	 7.933329999996682e+000	 1.003544901388675e+001
0	 6.733360000014532e+000	 7.999999999999999e+000	 1.003350430009780e+001
0	 6.800020000011599e+000	 7.333299999983334e+000	 1.005300913674784e+001
0	 6.800020000011598e+000	 7.399969999982149e+000	 1.005085371570875e+001
0	 6.800020000011598e+000	 7.466639999981866e+000	 1.004873366686720e+001
0	 6.800020000011601e+000	 7.533309999982384e+000	 1.004664717033208e+001
0	 6.800020000011600e+000	 7.599979999983600e+000	 1.004459240621222e+001
0	 6.800020000011599e+000	 7.666649999985415e+000	 1.004256755461651e+001
0	 6.800020000011600e+000	 7.733319999987733e+000	 1.004057079565382e+001
0	 6.800020000011601e+000	 7.799989999990449e+000	 1.003860030943301e+001
0	 6.800020000011600e+000	 7.866659999993466e+000	 1.003665427606295e+001
0	 6.800020000011600e+000	 7.933329999996683e+000	 1.003473087565250e+001
0	 6.800020000011600e+000	 8.000000000000000e+000	 1.003282828831055e+001
0	 6.866680000008064e+000	 7.333299999983331e+000	 1.005183000606706e+001
0	 6.866680000008066e+000	 7.399969999982150e+000	 1.004972850730672e+001
0	 6.866680000008066e+000	 7.466639999981864e+000	 1.004766101442892e+001
0	 6.866680000008067e+000	 7.533309999982383e+000	 1.004562574888069e+001
0	 6.866680000008068e+000	 7.599979999983600e+000	 1.004362093210910e+001
0	 6.866680000008068e+000	 7.666649999985416e+000	 1.004164478556118e+001
0	 6.866680000008067e+000	 7.733319999987733e+000	 1.003969553068399e+001
0	 6.866680000008067e+000	 7.799989999990450e+000	 1.003777138892458e+001
0	 6.866680000008065e+000	 7.866659999993466e+000	 1.003587058173001e+001
0	 6.866680000008067e+000	 7.933329999996683e+000	 1.003399133054734e+001
0	 6.866680000008066e+000	 7.999999999999999e+000	 1.003213185682359e+001
0	 6.933340000004135e+000	 7.333299999983335e+000	 1.005062574783281e+001
0	 6.933340000004134e+000	 7.399969999982151e+000	 1.004857864591670e+001
0	 6.933340000004134e+000	 7.466639999981865e+000	 1.004656426317075e+001
0	 6.933340000004135e+000	 7.533309999982382e+000	 1.004458085377028e+001
0	 6.933340000004136e+000	 7.599979999983599e+000	 1.004262667189065e+001
0	 6.933340000004136e+000	 7.666649999985417e+000	 1.004069997170721e+001
0	 6.933340000004135e+000	 7.733319999987733e+000	 1.003879900739530e+001
0	 6.933340000004134e+000	 7.799989999990448e+000	 1.003692203313027e+001
0	 6.933340000004134e+000	 7.866659999993467e+000	 1.003506730308746e+001
0	 6.933340000004135e+000	 7.933329999996683e+000	 1.003323307144221e+001
0	 6.933340000004137e+000	 8.000000000000000e+000	 1.003141759236986e+001
0	 7.000000000000001e+000	 7.333299999983334e+000	 1.004939946100692e+001
0	 7.000000000000003e+000	 7.399969999982150e+000	 1.004740723419274e+001
0	 7.000000000000002e+000	 7.466639999981865e+000	 1.004544650723562e+001
0	 7.000000000000002e+000	 7.533309999982384e+000	 1.004351555842930e+001
0	 7.000000000000003e+000	 7.599979999983599e+000	 1.004161266606754e+001
0	 7.000000000000002e+000	 7.666649999985417e+000	 1.003973610844406e+001
0	 7.000000000000003e+000	 7.733319999987733e+000	 1.003788416385265e+001
0	 7.000000000000002e+000	 7.799989999990450e+000	 1.003605511058701e+001
0	 7.000000000000002e+000	 7.866659999993466e+000	 1.003424722694091e+001
0	 7.000000000000002e+000	 7.933329999996682e+000	 1.003245879120809e+001
0	 7.000000000000002e+000	 8.000000000000000e+000	 1.003068808168231e+001
0	 7.066659999995870e+000	 7.333299999983335e+000	 1.004815424455117e+001
0	 7.066659999995869e+000	 7.399969999982151e+000	 1.004621737478891e+001
0	 7.066659999995868e+000	 7.466639999981865e+000	 1.004431084076651e+001
0	 7.066659999995871e+000	 7.533309999982383e+000	 1.004243293628625e+001
0	 7.066659999995867e+000	 7.599979999983598e+000	 1.004058195515040e+001
0	 7.066659999995870e+000	 7.666649999985416e+000	 1.003875619116118e+001
0	 7.066659999995870e+000	 7.733319999987732e+000	 1.003695393812086e+001
0	 7.066659999995869e+000	 7.799989999990450e+000	 1.003517348983171e+001
0	 7.066659999995868e+000	 7.866659999993466e+000	 1.003341314009599e+001
0	 7.066659999995870e+000	 7.933329999996683e+000	 1.003167118271595e+001
0	 7.066659999995870e+000	 7.999999999999999e+000	 1.002994591149385e+001
0	 7.133319999991937e+000	 7.333299999983333e+000	 1.004689319742739e+001
0	 7.133319999991937e+000	 7.399969999982150e+000	 1.004501217035926e+001
0	 7.133319999991937e+000	 7.466639999981867e+000	 1.004316035790637e+001
0	 7.133319999991937e+000	 7.533309999982383e+000	 1.004133606076960e+001
0	 7.133319999991937e+000	 7.599979999983598e+000	 1.003953757964983e+001
0	 7.133319999991936e+000	 7.666649999985416e+000	 1.003776321524794e+001
0	 7.133319999991937e+000	 7.733319999987733e+000	 1.003601126826482e+001
0	 7.133319999991937e+000	 7.799989999990448e+000	 1.003428003940133e+001
0	 7.133319999991935e+000	 7.866659999993466e+000	 1.003256782935834e+001
0	 7.133319999991937e+000	 7.933329999996682e+000	 1.003087293883676e+001
0	 7.133319999991937e+000	 7.999999999999999e+000	 1.002919366853745e+001
0	 7.199979999988405e+000	 7.333299999983335e+000	 1.004561941859738e+001
0	 7.199979999988402e+000	 7.399969999982148e+000	 1.004379472355785e+001
0	 7.199979999988403e+000	 7.466639999981866e+000	 1.004199815279814e+001
0	 7.199979999988403e+000	 7.533309999982382e+000	 1.004022800530782e+001
0	 7.199979999988403e+000	 7.599979999983599e+000	 1.003848258007652e+001
0	 7.199979999988404e+000	 7.666649999985416e+000	 1.003676017609383e+001
0	 7.199979999988405e+000	 7.733319999987733e+000	 1.003505909234937e+001
0	 7.199979999988404e+000	 7.799989999990448e+000	 1.003337762783275e+001
0	 7.199979999988403e+000	 7.866659999993466e+000	 1.003171408153358e+001
0	 7.199979999988405e+000	 7.933329999996683e+000	 1.003006675244145e+001
0	 7.199979999988405e+000	 8.000000000000000e+000	 1.002843393954601e+001
0	 7.266639999985471e+000	 7.333299999983332e+000	 1.004433600702294e+001
0	 7.266639999985469e+000	 7.399969999982150e+000	 1.004256813703878e+001
0	 7.266639999985471e+000	 7.466639999981865e+000	 1.004082731958478e+001
0	 7.266639999985471e+000	 7.533309999982383e+000	 1.003911184332940e+001
0	 7.266639999985471e+000	 7.599979999983600e+000	 1.003741999694108e+001
0	 7.266639999985471e+000	 7.666649999985413e+000	 1.003575006908826e+001
0	 7.266639999985471e+000	 7.733319999987733e+000	 1.003410034843939e+001
0	 7.266639999985471e+000	 7.799989999990449e+000	 1.003246912366295e+001
0	 7.266639999985472e+000	 7.866659999993468e+000	 1.003085468342734e+001
0	 7.266639999985471e+000	 7.933329999996683e+000	 1.002925531640103e+001
0	 7.266639999985470e+000	 8.000000000000000e+000	 1.002766931125248e+001
0	 7.333299999983336e+000	 7.333299999983336e+000	 1.004304606166591e+001
0	 7.333299999983333e+000	 7.399969999982150e+000	 1.004133551345608e+001
0	 7.333299999983334e+000	 7.466639999981866e+000	 1.003965095240925e+001
0	 7.333299999983335e+000	 7.533309999982384e+000	 1.003799064826280e+001
0	 7.333299999983334e+000	 7.599979999983599e+000	 1.003635287075414e+001
0	 7.333299999983335e+000	 7.666649999985417e+000	 1.003473588962066e+001
0	 7.333299999983335e+000	 7.733319999987733e+000	 1.003313797459974e+001
0	 7.333299999983334e+000	 7.799989999990448e+000	 1.003155739542880e+001
0	 7.333299999983332e+000	 7.866659999993465e+000	 1.002999242184523e+001
0	 7.333299999983333e+000	 7.933329999996682e+000	 1.002844132358643e+001
0	 7.333299999983335e+000	 8.000000000000000e+000	 1.002690237038980e+001
0	 6.666700000016668e+000	 8.000000000000000e+000	 1.003415730545241e+001
0	 6.666700000016666e+000	 8.066670000003317e+000	 1.003220967487895e+001
0	 6.666700000016665e+000	 8.133340000006532e+000	 1.003031497648230e+001
0	 6.666700000016666e+000	 8.200010000009550e+000	 1.002847077897807e+001
0	 6.666700000016665e+000	 8.266680000012267e+000	 1.002667465108196e+001
0	 6.666700000016666e+000	 8.333350000014583e+000	 1.002492416150958e+001
0	 6.666700000016667e+000	 8.400020000016401e+000	 1.002321687897661e+001
0	 6.666700000016667e+000	 8.466690000017618e+000	 1.002155037219873e+001
0	 6.666700000016665e+000	 8.533360000018133e+000	 1.001992220989154e+001
0	 6.666700000016666e+000	 8.600030000017851e+000	 1.001832996077074e+001
0	 6.666700000016666e+000	 8.666700000016666e+000	 1.001677119355197e+001
0	 6.733360000014532e+000	 7.999999999999999e+000	 1.003350430009780e+001
0	 6.733360000014533e+000	 8.066670000003317e+000	 1.003159649740310e+001
0	 6.733360000014531e+000	 8.133340000006530e+000	 1.002974028665152e+001
0	 6.733360000014533e+000	 8.200010000009550e+000	 1.002793326004320e+001
0	 6.733360000014531e+000	 8.266680000012268e+000	 1.002617300977824e+001
0	 6.733360000014533e+000	 8.333350000014582e+000	 1.002445712805679e+001
0	 6.733360000014533e+000	 8.400020000016401e+000	 1.002278320707895e+001
0	 6.733360000014534e+000	 8.466690000017616e+000	 1.002114883904485e+001
0	 6.733360000014533e+000	 8.533360000018133e+000	 1.001955161615461e+001
0	 6.733360000014533e+000	 8.600030000017853e+000	 1.001798913060836e+001
0	 6.733360000014533e+000	 8.666700000016666e+000	 1.001645897460623e+001
0	 6.800020000011600e+000	 8.000000000000000e+000	 1.003282828831055e+001
0	 6.800020000011600e+000	 8.066670000003317e+000	 1.003096141586145e+001
0	 6.800020000011599e+000	 8.133340000006530e+000	 1.002914478634401e+001
0	 6.800020000011601e+000	 8.200010000009554e+000	 1.002737601918878e+001
0	 6.800020000011601e+000	 8.266680000012265e+000	 1.002565273382627e+001
0	 6.800020000011600e+000	 8.333350000014585e+000	 1.002397254968702e+001
0	 6.800020000011599e+000	 8.400020000016397e+000	 1.002233308620158e+001
0	 6.800020000011599e+000	 8.466690000017618e+000	 1.002073196280050e+001
0	 6.800020000011601e+000	 8.533360000018135e+000	 1.001916679891428e+001
0	 6.800020000011600e+000	 8.600030000017853e+000	 1.001763521397347e+001
0	 6.800020000011599e+000	 8.666700000016668e+000	 1.001613482740862e+001
0	 6.866680000008066e+000	 7.999999999999999e+000	 1.003213185682359e+001
0	 6.866680000008068e+000	 8.066670000003319e+000	 1.003030690470325e+001
0	 6.866680000008069e+000	 8.133340000006536e+000	 1.002853083763737e+001
0	 6.866680000008066e+000	 8.200010000009549e+000	 1.002680130603282e+001
0	 6.866680000008067e+000	 8.266680000012268e+000	 1.002511596029650e+001
0	 6.866680000008067e+000	 8.333350000014585e+000	 1.002347245083530e+001
0	 6.866680000008067e+000	 8.400020000016399e+000	 1.002186842805612e+001
0	 6.866680000008066e+000	 8.466690000017614e+000	 1.002030154236586e+001
0	 6.866680000008068e+000	 8.533360000018133e+000	 1.001876944417139e+001
0	 6.866680000008067e+000	 8.600030000017849e+000	 1.001726978387964e+001
0	 6.866680000008068e+000	 8.666700000016668e+000	 1.001580021189747e+001
0	 6.933340000004137e+000	 8.000000000000000e+000	 1.003141759236986e+001
0	 6.933340000004134e+000	 8.066670000003317e+000	 1.002963543837779e+001
0	 6.933340000004132e+000	 8.133340000006532e+000	 1.002790080260922e+001
0	 6.933340000004134e+000	 8.200010000009550e+000	 1.002621137019337e+001
0	 6.933340000004134e+000	 8.266680000012267e+000	 1.002456482625945e+001
0	 6.933340000004133e+000	 8.333350000014583e+000	 1.002295885593663e+001
0	 6.933340000004135e+000	 8.400020000016401e+000	 1.002139114435411e+001
0	 6.933340000004134e+000	 8.466690000017616e+000	 1.001985937664110e+001
0	 6.933340000004134e+000	 8.533360000018133e+000	 1.001836123792681e+001
0	 6.933340000004134e+000	 8.600030000017851e+000	 1.001689441334040e+001
0	 6.933340000004135e+000	 8.666700000016666e+000	 1.001545658801112e+001
0	 7.000000000000002e+000	 8.000000000000000e+000	 1.003068808168231e+001
0	 7.000000000000002e+000	 8.066670000003315e+000	 1.002894949133427e+001
0	 7.000000000000000e+000	 8.133340000006530e+000	 1.002725704333719e+001
0	 7.000000000000002e+000	 8.200010000009554e+000	 1.002560846128846e+001
0	 7.000000000000000e+000	 8.266680000012265e+000	 1.002400146878558e+001
0	 7.000000000000002e+000	 8.333350000014585e+000	 1.002243378942600e+001
0	 7.000000000000003e+000	 8.400020000016401e+000	 1.002090314680712e+001
0	 7.000000000000002e+000	 8.466690000017616e+000	 1.001940726452642e+001
0	 7.000000000000002e+000	 8.533360000018133e+000	 1.001794386618135e+001
0	 7.000000000000000e+000	 8.600030000017851e+000	 1.001651067536935e+001
0	 7.000000000000003e+000	 8.666700000016666e+000	 1.001510541568788e+001
0	 7.066659999995870e+000	 7.999999999999999e+000	 1.002994591149385e+001
0	 7.066659999995869e+000	 8.066670000003317e+000	 1.002825153802198e+001
0	 7.066659999995871e+000	 8.133340000006534e+000	 1.002660192189885e+001
0	 7.066659999995870e+000	 8.200010000009554e+000	 1.002499482893613e+001
0	 7.066659999995870e+000	 8.266680000012267e+000	 1.002342802494544e+001
0	 7.066659999995871e+000	 8.333350000014583e+000	 1.002189927573843e+001
0	 7.066659999995869e+000	 8.400020000016399e+000	 1.002040634712673e+001
0	 7.066659999995870e+000	 8.466690000017618e+000	 1.001894700492200e+001
0	 7.066659999995870e+000	 8.533360000018137e+000	 1.001751901493589e+001
0	 7.066659999995870e+000	 8.600030000017851e+000	 1.001612014298004e+001
0	 7.066659999995869e+000	 8.666700000016668e+000	 1.001474815486609e+001
0	 7.133319999991937e+000	 7.999999999999999e+000	 1.002919366853745e+001
0	 7.133319999991937e+000	 8.066670000003319e+000	 1.002754405289014e+001
0	 7.133319999991937e+000	 8.133340000006534e+000	 1.002593780037185e+001
0	 7.133319999991937e+000	 8.200010000009554e+000	 1.002437272275436e+001
0	 7.133319999991937e+000	 8.266680000012268e+000	 1.002284663180946e+001
0	 7.133319999991937e+000	 8.333350000014583e+000	 1.002135733930890e+001
0	 7.133319999991937e+000	 8.400020000016403e+000	 1.001990265702449e+001
0	 7.133319999991935e+000	 8.466690000017620e+000	 1.001848039672802e+001
0	 7.133319999991937e+000	 8.533360000018135e+000	 1.001708837019127e+001
0	 7.133319999991937e+000	 8.600030000017851e+000	 1.001572438918603e+001
0	 7.133319999991937e+000	 8.666700000016668e+000	 1.001438626548408e+001
0	 7.199979999988405e+000	 8.000000000000000e+000	 1.002843393954601e+001
0	 7.199979999988403e+000	 8.066670000003315e+000	 1.002682951038802e+001
0	 7.199979999988404e+000	 8.133340000006532e+000	 1.002526704083381e+001
0	 7.199979999988405e+000	 8.200010000009550e+000	 1.002374439236122e+001
0	 7.199979999988405e+000	 8.266680000012267e+000	 1.002225942644815e+001
0	 7.199979999988406e+000	 8.333350000014583e+000	 1.002081000457245e+001
0	 7.199979999988403e+000	 8.400020000016399e+000	 1.001939398821200e+001
0	 7.199979999988404e+000	 8.466690000017616e+000	 1.001800923884467e+001
0	 7.199979999988404e+000	 8.533360000018135e+000	 1.001665361794834e+001
0	 7.199979999988404e+000	 8.600030000017851e+000	 1.001532498700087e+001
0	 7.199979999988403e+000	 8.666700000016666e+000	 1.001402120748016e+001
0	 7.266639999985470e+000	 8.000000000000000e+000	 1.002766931125248e+001
0	 7.266639999985472e+000	 8.066670000003319e+000	 1.002611038496486e+001
0	 7.266639999985471e+000	 8.133340000006534e+000	 1.002459200536230e+001
0	 7.266639999985472e+000	 8.200010000009552e+000	 1.002311208737471e+001
0	 7.266639999985472e+000	 8.266680000012267e+000	 1.002166854593199e+001
0	 7.266639999985473e+000	 8.333350000014585e+000	 1.002025929596406e+001
0	 7.266639999985472e+000	 8.400020000016403e+000	 1.001888225240081e+001
0	 7.266639999985472e+000	 8.466690000017618e+000	 1.001753533017211e+001
0	 7.266639999985470e+000	 8.533360000018133e+000	 1.001621644420793e+001
0	 7.266639999985472e+000	 8.600030000017851e+000	 1.001492350943814e+001
0	 7.266639999985471e+000	 8.666700000016668e+000	 1.001365444079266e+001
0	 7.333299999983335e+000	 8.000000000000000e+000	 1.002690237038980e+001
0	 7.333299999983335e+000	 8.066670000003317e+000	 1.002538915106990e+001
0	 7.333299999983332e+000	 8.133340000006532e+000	 1.002391505603497e+001
0	 7.333299999983334e+000	 8.200010000009550e+000	 1.002247805741287e+001
0	 7.333299999983334e+000	 8.266680000012268e+000	 1.002107612733152e+001
0	 7.333299999983335e+000	 8.333350000014585e+000	 1.001970723791875e+001
0	 7.333299999983333e+000	 8.400020000016399e+000	 1.001836936130247e+001
0	 7.333299999983334e+000	 8.466690000017620e+000	 1.001706046961057e+001
0	 7.333299999983332e+000	 8.533360000018135e+000	 1.001577853497090e+001
0	 7.333299999983335e+000	 8.600030000017853e+000	 1.001452152951139e+001
0	 7.333299999983334e+000	 8.666700000016665e+000	 1.001328742535988e+001
0	 6.666700000016666e+000	 8.666700000016666e+000	 1.001677119355197e+001
0	 6.666700000016665e+000	 8.733360002791899e+000	 1.001526638073876e+001
0	 6.666700000016665e+000	 8.800020022230555e+000	 1.001383514175439e+001
0	 6.666700000016666e+000	 8.866680074997040e+000	 1.001247445978123e+001
0	 6.666700000016667e+000	 8.933340177755779e+000	 1.001118131779539e+001
0	 6.666700000016666e+000	 9.000000347171179e+000	 1.000995269856673e+001
0	 6.666700000016667e+000	 9.066660599907669e+000	 1.000878558465877e+001
0	 6.666700000016666e+000	 9.133320952629658e+000	 1.000767695842882e+001
0	 6.666700000016665e+000	 9.199981422001558e+000	 1.000662380202787e+001
0	 6.666700000016667e+000	 9.266642024687796e+000	 1.000562309740067e+001
0	 6.666700000016665e+000	 9.333302777352781e+000	 1.000467182628563e+001
0	 6.733360000014533e+000	 8.666700000016666e+000	 1.001645897460623e+001
0	 6.733360000014534e+000	 8.733360002791903e+000	 1.001498164385873e+001
0	 6.733360000014534e+000	 8.800020022230553e+000	 1.001357679046986e+001
0	 6.733360000014532e+000	 8.866680074997042e+000	 1.001224142270083e+001
0	 6.733360000014532e+000	 8.933340177755776e+000	 1.001097254860995e+001
0	 6.733360000014532e+000	 9.000000347171183e+000	 1.000976717605255e+001
0	 6.733360000014532e+000	 9.066660599907669e+000	 1.000862231268106e+001
0	 6.733360000014533e+000	 9.133320952629656e+000	 1.000753496594497e+001
0	 6.733360000014533e+000	 9.199981422001558e+000	 1.000650214309079e+001
0	 6.733360000014532e+000	 9.266642024687798e+000	 1.000552085116214e+001
0	 6.733360000014532e+000	 9.333302777352783e+000	 1.000458809699966e+001
0	 6.800020000011599e+000	 8.666700000016668e+000	 1.001613482740862e+001
0	 6.800020000011601e+000	 8.733360002791905e+000	 1.001468608433665e+001
0	 6.800020000011600e+000	 8.800020022230557e+000	 1.001330859659180e+001
0	 6.800020000011601e+000	 8.866680074997042e+000	 1.001199940200896e+001
0	 6.800020000011600e+000	 8.933340177755781e+000	 1.001075553822368e+001
0	 6.800020000011600e+000	 9.000000347171183e+000	 1.000957404267212e+001
0	 6.800020000011601e+000	 9.066660599907669e+000	 1.000845195259112e+001
0	 6.800020000011601e+000	 9.133320952629655e+000	 1.000738630501807e+001
0	 6.800020000011601e+000	 9.199981422001558e+000	 1.000637413679107e+001
0	 6.800020000011599e+000	 9.266642024687796e+000	 1.000541248454877e+001
0	 6.800020000011601e+000	 9.333302777352783e+000	 1.000449838473057e+001
0	 6.866680000008068e+000	 8.666700000016668e+000	 1.001580021189747e+001
0	 6.866680000008066e+000	 8.733360002791903e+000	 1.001438105650925e+001
0	 6.866680000008068e+000	 8.800020022230553e+000	 1.001303182385666e+001
0	 6.866680000008067e+000	 8.866680074997044e+000	 1.001174958584317e+001
0	 6.866680000008067e+000	 8.933340177755781e+000	 1.001053141417667e+001
0	 6.866680000008067e+000	 9.000000347171181e+000	 1.000937438036943e+001
0	 6.866680000008067e+000	 9.066660599907667e+000	 1.000827555573819e+001
0	 6.866680000008067e+000	 9.133320952629655e+000	 1.000723201140407e+001
0	 6.866680000008067e+000	 9.199981422001557e+000	 1.000624081829258e+001
0	 6.866680000008068e+000	 9.266642024687796e+000	 1.000529904713369e+001
0	 6.866680000008068e+000	 9.333302777352783e+000	 1.000440376846175e+001
0	 6.933340000004135e+000	 8.666700000016666e+000	 1.001545658801112e+001
0	 6.933340000004134e+000	 8.733360002791901e+000	 1.001406791471324e+001
0	 6.933340000004134e+000	 8.800020022230557e+000	 1.001274773600088e+001
0	 6.933340000004135e+000	 8.866680074997042e+000	 1.001149316234101e+001
0	 6.933340000004134e+000	 8.933340177755776e+000	 1.001030130400894e+001
0	 6.933340000004135e+000	 9.000000347171181e+000	 1.000916927108844e+001
0	 6.933340000004135e+000	 9.066660599907667e+000	 1.000809417347160e+001
0	 6.933340000004135e+000	 9.133320952629655e+000	 1.000707312085893e+001
0	 6.933340000004134e+000	 9.199981422001558e+000	 1.000610322275928e+001
0	 6.933340000004133e+000	 9.266642024687796e+000	 1.000518158848996e+001
0	 6.933340000004136e+000	 9.333302777352786e+000	 1.000430532717661e+001
0	 7.000000000000003e+000	 8.666700000016666e+000	 1.001510541568788e+001
0	 7.000000000000002e+000	 8.733360002791903e+000	 1.001374801328536e+001
0	 7.000000000000003e+000	 8.800020022230557e+000	 1.001245759676091e+001
0	 7.000000000000002e+000	 8.866680074997042e+000	 1.001123131964000e+001
0	 7.000000000000004e+000	 8.933340177755778e+000	 1.001006633526057e+001
0	 7.000000000000003e+000	 9.000000347171181e+000	 1.000895979677311e+001
0	 7.000000000000002e+000	 9.066660599907667e+000	 1.000790885714060e+001
0	 7.000000000000002e+000	 9.133320952629658e+000	 1.000691066913859e+001
0	 7.000000000000002e+000	 9.199981422001558e+000	 1.000596238535510e+001
0	 7.000000000000004e+000	 9.266642024687796e+000	 1.000506115819069e+001
0	 7.000000000000002e+000	 9.333302777352783e+000	 1.000420413985846e+001
0	 7.066659999995869e+000	 8.666700000016668e+000	 1.001474815486609e+001
0	 7.066659999995869e+000	 8.733360002791901e+000	 1.001342270656232e+001
0	 7.066659999995870e+000	 8.800020022230555e+000	 1.001216266987322e+001
0	 7.066659999995870e+000	 8.866680074997042e+000	 1.001096524587773e+001
0	 7.066659999995870e+000	 8.933340177755781e+000	 1.000982763547161e+001
0	 7.066659999995869e+000	 9.000000347171181e+000	 1.000874703936741e+001
0	 7.066659999995871e+000	 9.066660599907667e+000	 1.000772065809450e+001
0	 7.066659999995871e+000	 9.133320952629656e+000	 1.000674569199904e+001
0	 7.066659999995870e+000	 9.199981422001558e+000	 1.000581934124393e+001
0	 7.066659999995869e+000	 9.266642024687794e+000	 1.000493880580897e+001
0	 7.066659999995870e+000	 9.333302777352783e+000	 1.000410128549073e+001
0	 7.133319999991937e+000	 8.666700000016668e+000	 1.001438626548408e+001
0	 7.133319999991937e+000	 8.733360002791903e+000	 1.001309334888084e+001
0	 7.133319999991937e+000	 8.800020022230553e+000	 1.001186421907420e+001
0	 7.133319999991937e+000	 8.866680074997039e+000	 1.001069612919171e+001
0	 7.133319999991936e+000	 8.933340177755776e+000	 1.000958633218210e+001
0	 7.133319999991937e+000	 9.000000347171181e+000	 1.000853208081533e+001
0	 7.133319999991936e+000	 9.066660599907671e+000	 1.000753062768258e+001
0	 7.133319999991936e+000	 9.133320952629656e+000	 1.000657922519617e+001
0	 7.133319999991937e+000	 9.199981422001560e+000	 1.000567512558969e+001
0	 7.133319999991937e+000	 9.266642024687801e+000	 1.000481558091790e+001
0	 7.133319999991937e+000	 9.333302777352781e+000	 1.000399784305678e+001
0	 7.199979999988403e+000	 8.666700000016666e+000	 1.001402120748016e+001
0	 7.199979999988404e+000	 8.733360002791903e+000	 1.001276129457767e+001
0	 7.199979999988405e+000	 8.800020022230557e+000	 1.001156350810035e+001
0	 7.199979999988404e+000	 8.866680074997042e+000	 1.001042515771950e+001
0	 7.199979999988404e+000	 8.933340177755779e+000	 1.000934355293210e+001
0	 7.199979999988405e+000	 9.000000347171183e+000	 1.000831600306083e+001
0	 7.199979999988404e+000	 9.066660599907666e+000	 1.000733981725410e+001
0	 7.199979999988404e+000	 9.133320952629655e+000	 1.000641230448600e+001
0	 7.199979999988404e+000	 9.199981422001560e+000	 1.000553077355632e+001
0	 7.199979999988403e+000	 9.266642024687796e+000	 1.000469253309058e+001
0	 7.199979999988404e+000	 9.333302777352785e+000	 1.000389489153999e+001
0	 7.266639999985471e+000	 8.666700000016668e+000	 1.001365444079265e+001
0	 7.266639999985470e+000	 8.733360002791899e+000	 1.001242789798949e+001
0	 7.266639999985471e+000	 8.800020022230555e+000	 1.001126180068809e+001
0	 7.266639999985473e+000	 8.866680074997042e+000	 1.001015351959864e+001
0	 7.266639999985470e+000	 8.933340177755778e+000	 1.000910042526165e+001
0	 7.266639999985471e+000	 9.000000347171179e+000	 1.000809988804787e+001
0	 7.266639999985472e+000	 9.066660599907667e+000	 1.000714927815836e+001
0	 7.266639999985472e+000	 9.133320952629658e+000	 1.000624596562444e+001
0	 7.266639999985472e+000	 9.199981422001558e+000	 1.000538732030772e+001
0	 7.266639999985473e+000	 9.266642024687798e+000	 1.000457071190009e+001
0	 7.266639999985471e+000	 9.333302777352783e+000	 1.000379350992370e+001
0	 7.333299999983334e+000	 8.666700000016665e+000	 1.001328742535988e+001
0	 7.333299999983335e+000	 8.733360002791903e+000	 1.001209451345305e+001
0	 7.333299999983333e+000	 8.800020022230555e+000	 1.001096036057385e+001
0	 7.333299999983335e+000	 8.866680074997040e+000	 1.000988240296668e+001
0	 7.333299999983334e+000	 8.933340177755779e+000	 1.000885807671081e+001
0	 7.333299999983333e+000	 9.000000347171179e+000	 1.000788481772044e+001
0	 7.333299999983335e+000	 9.066660599907667e+000	 1.000696006174463e+001
0	 7.333299999983334e+000	 9.133320952629655e+000	 1.000608124436745e+001
0	 7.333299999983333e+000	 9.199981422001558e+000	 1.000524580100780e+001
0	 7.333299999983333e+000	 9.266642024687794e+000	 1.000445116691952e+001
0	 7.333299999983334e+000	 9.333302777352781e+000	 1.000369477719134e+001
0	 6.666700000016665e+000	 9.333302777352781e+000	 1.000467182628563e+001
0	 6.666700000016666e+000	 9.399973674588177e+000	 1.000379558579967e+001
0	 6.666700000016665e+000	 9.466644621844619e+000	 1.000301943357706e+001
0	 6.666700000016667e+000	 9.533315502449998e+000	 1.000233912607293e+001
0	 6.666700000016666e+000	 9.599986199732198e+000	 1.000175042179459e+001
0	 6.666700000016665e+000	 9.666656597019093e+000	 1.000124908130166e+001
0	 6.666700000016666e+000	 9.733326577638575e+000	 1.000083086720614e+001
0	 6.666700000016666e+000	 9.799996024918521e+000	 1.000049154417233e+001
0	 6.666700000016666e+000	 9.866664822186822e+000	 1.000022687891709e+001
0	 6.666700000016665e+000	 9.933332852771352e+000	 1.000003264021006e+001
0	 6.666700000016666e+000	 1.000000000000000e+001	 9.999904598873734e+000
0	 6.733360000014532e+000	 9.333302777352783e+000	 1.000458809699966e+001
0	 6.733360000014532e+000	 9.399973674588175e+000	 1.000372876815188e+001
0	 6.733360000014532e+000	 9.466644621844621e+000	 1.000296731505567e+001
0	 6.733360000014534e+000	 9.533315502450002e+000	 1.000229968093330e+001
0	 6.733360000014530e+000	 9.599986199732195e+000	 1.000172181101993e+001
0	 6.733360000014533e+000	 9.666656597019095e+000	 1.000122965256355e+001
0	 6.733360000014531e+000	 9.733326577638575e+000	 1.000081915482508e+001
0	 6.733360000014533e+000	 9.799996024918523e+000	 1.000048626907837e+001
0	 6.733360000014532e+000	 9.866664822186824e+000	 1.000022694861045e+001
0	 6.733360000014534e+000	 9.933332852771352e+000	 1.000003714872177e+001
0	 6.733360000014533e+000	 1.000000000000000e+001	 9.999912826726119e+000
0	 6.800020000011601e+000	 9.333302777352783e+000	 1.000449838473057e+001
0	 6.800020000011597e+000	 9.399973674588173e+000	 1.000365609970913e+001
0	 6.800020000011599e+000	 9.466644621844619e+000	 1.000290954643085e+001
0	 6.800020000011599e+000	 9.533315502450000e+000	 1.000225484339587e+001
0	 6.800020000011599e+000	 9.599986199732195e+000	 1.000168811107780e+001
0	 6.800020000011601e+000	 9.666656597019093e+000	 1.000120547192400e+001
0	 6.800020000011600e+000	 9.733326577638577e+000	 1.000080305035515e+001
0	 6.800020000011601e+000	 9.799996024918523e+000	 1.000047697276582e+001
0	 6.800020000011600e+000	 9.866664822186820e+000	 1.000022336752434e+001
0	 6.800020000011599e+000	 9.933332852771351e+000	 1.000003836497301e+001
0	 6.800020000011600e+000	 1.000000000000000e+001	 9.999918097428505e+000
0	 6.866680000008068e+000	 9.333302777352783e+000	 1.000440376846175e+001
0	 6.866680000008066e+000	 9.399973674588178e+000	 1.000357869038008e+001
0	 6.866680000008066e+000	 9.466644621844617e+000	 1.000284725655446e+001
0	 6.866680000008067e+000	 9.533315502450000e+000	 1.000220574927364e+001
0	 6.866680000008065e+000	 9.599986199732195e+000	 1.000165045276055e+001
0	 6.866680000008066e+000	 9.666656597019095e+000	 1.000117765317239e+001
0	 6.866680000008066e+000	 9.733326577638573e+000	 1.000078363860057e+001
0	 6.866680000008066e+000	 9.799996024918523e+000	 1.000046469907076e+001
0	 6.866680000008066e+000	 9.866664822186824e+000	 1.000021712654330e+001
0	 6.866680000008068e+000	 9.933332852771352e+000	 1.000003721491295e+001
0	 6.866680000008066e+000	 9.999999999999998e+000	 9.999921260009673e+000
0	 6.933340000004136e+000	 9.333302777352786e+000	 1.000430532717660e+001
0	 6.933340000004133e+000	 9.399973674588173e+000	 1.000349765007331e+001
0	 6.933340000004133e+000	 9.466644621844619e+000	 1.000278157427829e+001
0	 6.933340000004132e+000	 9.533315502449998e+000	 1.000215353437973e+001
0	 6.933340000004134e+000	 9.599986199732197e+000	 1.000160996686051e+001
0	 6.933340000004136e+000	 9.666656597019095e+000	 1.000114731009832e+001
0	 6.933340000004136e+000	 9.733326577638575e+000	 1.000076200436550e+001
0	 6.933340000004134e+000	 9.799996024918521e+000	 1.000045049182929e+001
0	 6.933340000004135e+000	 9.866664822186822e+000	 1.000020921655191e+001
0	 6.933340000004135e+000	 9.933332852771352e+000	 1.000003462449072e+001
0	 6.933340000004134e+000	 9.999999999999998e+000	 9.999923163498600e+000
0	 7.000000000000002e+000	 9.333302777352783e+000	 1.000420413985846e+001
0	 7.000000000000002e+000	 9.399973674588177e+000	 1.000341408869748e+001
0	 7.000000000000003e+000	 9.466644621844621e+000	 1.000271362845418e+001
0	 7.000000000000002e+000	 9.533315502449998e+000	 1.000209933452718e+001
0	 7.000000000000000e+000	 9.599986199732197e+000	 1.000156778417002e+001
0	 7.000000000000001e+000	 9.666656597019093e+000	 1.000111555649120e+001
0	 7.000000000000003e+000	 9.733326577638577e+000	 1.000073923245417e+001
0	 7.000000000000001e+000	 9.799996024918524e+000	 1.000043539487747e+001
0	 7.000000000000003e+000	 9.866664822186825e+000	 1.000020062843485e+001
0	 7.000000000000001e+000	 9.933332852771354e+000	 1.000003151965549e+001
0	 7.000000000000002e+000	 1.000000000000000e+001	 9.999924656924074e+000
0	 7.066659999995870e+000	 9.333302777352783e+000	 1.000410128549073e+001
0	 7.066659999995868e+000	 9.399973674588175e+000	 1.000332911616119e+001
0	 7.066659999995871e+000	 9.466644621844621e+000	 1.000264454793395e+001
0	 7.066659999995871e+000	 9.533315502450002e+000	 1.000204428552910e+001
0	 7.066659999995870e+000	 9.599986199732197e+000	 1.000152503548143e+001
0	 7.066659999995869e+000	 9.666656597019095e+000	 1.000108350614051e+001
0	 7.066659999995870e+000	 9.733326577638573e+000	 1.000071640767076e+001
0	 7.066659999995870e+000	 9.799996024918524e+000	 1.000042045205142e+001
0	 7.066659999995870e+000	 9.866664822186824e+000	 1.000019235307673e+001
0	 7.066659999995870e+000	 9.933332852771356e+000	 1.000002882635622e+001
0	 7.066659999995869e+000	 9.999999999999998e+000	 9.999926589314899e+000
0	 7.133319999991937e+000	 9.333302777352781e+000	 1.000399784305679e+001
0	 7.133319999991936e+000	 9.399973674588177e+000	 1.000324384237305e+001
0	 7.133319999991937e+000	 9.466644621844619e+000	 1.000257546156944e+001
0	 7.133319999991936e+000	 9.533315502450002e+000	 1.000198952319852e+001
0	 7.133319999991937e+000	 9.599986199732202e+000	 1.000148285158708e+001
0	 7.133319999991937e+000	 9.666656597019095e+000	 1.000105227283579e+001
0	 7.133319999991936e+000	 9.733326577638577e+000	 1.000069461481950e+001
0	 7.133319999991937e+000	 9.799996024918523e+000	 1.000040670718715e+001
0	 7.133319999991937e+000	 9.866664822186824e+000	 1.000018538136212e+001
0	 7.133319999991937e+000	 9.933332852771354e+000	 1.000002747054218e+001
0	 7.133319999991937e+000	 1.000000000000000e+001	 9.999929809699866e+000
0	 7.199979999988404e+000	 9.333302777352785e+000	 1.000389489153999e+001
0	 7.199979999988403e+000	 9.399973674588175e+000	 1.000315937724172e+001
0	 7.199979999988403e+000	 9.466644621844617e+000	 1.000250749821241e+001
0	 7.199979999988404e+000	 9.533315502450000e+000	 1.000193618334855e+001
0	 7.199979999988403e+000	 9.599986199732197e+000	 1.000144236327931e+001
0	 7.199979999988402e+000	 9.666656597019093e+000	 1.000102297036646e+001
0	 7.199979999988403e+000	 9.733326577638575e+000	 1.000067493870453e+001
0	 7.199979999988405e+000	 9.799996024918523e+000	 1.000039520412083e+001
0	 7.199979999988403e+000	 9.866664822186822e+000	 1.000018070417570e+001
0	 7.199979999988404e+000	 9.933332852771354e+000	 1.000002837816246e+001
0	 7.199979999988405e+000	 1.000000000000000e+001	 9.999935167107848e+000
0	 7.266639999985471e+000	 9.333302777352783e+000	 1.000379350992370e+001
0	 7.266639999985473e+000	 9.399973674588177e+000	 1.000307683067575e+001
0	 7.266639999985470e+000	 9.466644621844619e+000	 1.000244178671473e+001
0	 7.266639999985472e+000	 9.533315502449998e+000	 1.000188540179226e+001
0	 7.266639999985472e+000	 9.599986199732197e+000	 1.000140470135045e+001
0	 7.266639999985471e+000	 9.666656597019095e+000	 1.000099671252200e+001
0	 7.266639999985470e+000	 9.733326577638575e+000	 1.000065846413010e+001
0	 7.266639999985471e+000	 9.799996024918524e+000	 1.000038698668856e+001
0	 7.266639999985471e+000	 9.866664822186822e+000	 1.000017931240203e+001
0	 7.266639999985471e+000	 9.933332852771352e+000	 1.000003247516612e+001
0	 7.266639999985471e+000	 1.000000000000000e+001	 9.999943510567528e+000
0	 7.333299999983334e+000	 9.333302777352781e+000	 1.000369477719134e+001
0	 7.333299999983336e+000	 9.399973674588173e+000	 1.000299731258384e+001
0	 7.333299999983334e+000	 9.466644621844624e+000	 1.000237945592823e+001
0	 7.333299999983333e+000	 9.533315502449998e+000	 1.000183831434269e+001
0	 7.333299999983335e+000	 9.599986199732195e+000	 1.000137099659292e+001
0	 7.333299999983334e+000	 9.666656597019097e+000	 1.000097461309193e+001
0	 7.333299999983333e+000	 9.733326577638573e+000	 1.000064627590036e+001
0	 7.333299999983335e+000	 9.799996024918523e+000	 1.000038309872634e+001
0	 7.333299999983333e+000	 9.866664822186822e+000	 1.000018219692576e+001
0	 7.333299999983333e+000	 9.933332852771354e+000	 1.000004068750233e+001
0	 7.333299999983335e+000	 1.000000000000000e+001	 9.999955689108033e+000
0	 7.333299999983335e+000	 0.000000000000000e+000	 1.005495522642582e+001
0	 7.333299999983334e+000	 6.666714722864756e-002	 1.005532073705876e+001
0	 7.333299999983334e+000	 1.333351778131789e-001	 1.005570934779501e+001
0	 7.333299999983335e+000	 2.000039750814772e-001	 1.005611685127084e+001
0	 7.333299999983333e+000	 2.666734223614256e-001	 1.005653904063277e+001
0	 7.333299999983336e+000	 3.333434029809069e-001	 1.005697170953762e+001
0	 7.333299999983335e+000	 4.000138002678045e-001	 1.005741065215257e+001
0	 7.333299999983333e+000	 4.666844975500011e-001	 1.005785166315522e+001
0	 7.333299999983335e+000	 5.333553781553803e-001	 1.005829053773371e+001
0	 7.333299999983335e+000	 6.000263254118248e-001	 1.005872307158681e+001
0	 7.333299999983332e+000	 6.666972226472178e-001	 1.005914506092405e+001
0	 7.399969999982150e+000	 0.000000000000000e+000	 1.004876846944598e+001
0	 7.399969999982149e+000	 6.666714722864757e-002	 1.004939321851052e+001
0	 7.399969999982151e+000	 1.333351778131789e-001	 1.004999270698253e+001
0	 7.399969999982151e+000	 2.000039750814772e-001	 1.005056538905356e+001
0	 7.399969999982151e+000	 2.666734223614254e-001	 1.005110971930917e+001
0	 7.399969999982149e+000	 3.333434029809069e-001	 1.005162415272910e+001
0	 7.399969999982150e+000	 4.000138002678045e-001	 1.005210714468720e+001
0	 7.399969999982149e+000	 4.666844975500011e-001	 1.005255715095164e+001
0	 7.399969999982151e+000	 5.333553781553801e-001	 1.005297262768488e+001
0	 7.399969999982150e+000	 6.000263254118246e-001	 1.005335203144389e+001
0	 7.399969999982150e+000	 6.666972226472177e-001	 1.005369381918013e+001
0	 7.466639999981865e+000	 0.000000000000000e+000	 1.004264351644762e+001
0	 7.466639999981864e+000	 6.666714722864756e-002	 1.004341351675413e+001
0	 7.466639999981866e+000	 1.333351778131789e-001	 1.004413137755718e+001
0	 7.466639999981867e+000	 2.000039750814773e-001	 1.004479779196825e+001
0	 7.466639999981864e+000	 2.666734223614254e-001	 1.004541345353529e+001
0	 7.466639999981866e+000	 3.333434029809069e-001	 1.004597905624270e+001
0	 7.466639999981865e+000	 4.000138002678043e-001	 1.004649529451137e+001
0	 7.466639999981865e+000	 4.666844975500011e-001	 1.004696286319875e+001
0	 7.466639999981864e+000	 5.333553781553803e-001	 1.004738245759895e+001
0	 7.466639999981865e+000	 6.000263254118248e-001	 1.004775477344281e+001
0	 7.466639999981865e+000	 6.666972226472177e-001	 1.004808050689800e+001
0	 7.533309999982381e+000	 0.000000000000000e+000	 1.003657647207083e+001
0	 7.533309999982382e+000	 6.666714722864756e-002	 1.003739313042375e+001
0	 7.533309999982382e+000	 1.333351778131790e-001	 1.003814916802143e+001
0	 7.533309999982382e+000	 2.000039750814773e-001	 1.003884709443923e+001
0	 7.533309999982383e+000	 2.666734223614256e-001	 1.003948941985744e+001
0	 7.533309999982381e+000	 3.333434029809068e-001	 1.004007865506129e+001
0	 7.533309999982381e+000	 4.000138002678044e-001	 1.004061731144093e+001
0	 7.533309999982382e+000	 4.666844975500011e-001	 1.004110790099150e+001
0	 7.533309999982384e+000	 5.333553781553801e-001	 1.004155293631322e+001
0	 7.533309999982381e+000	 6.000263254118246e-001	 1.004195493061138e+001
0	 7.533309999982381e+000	 6.666972226472175e-001	 1.004231639769652e+001
0	 7.599979999983598e+000	 0.000000000000000e+000	 1.003056344095567e+001
0	 7.599979999983597e+000	 6.666714722864754e-002	 1.003134355815351e+001
0	 7.599979999983598e+000	 1.333351778131789e-001	 1.003206988687782e+001
0	 7.599979999983599e+000	 2.000039750814772e-001	 1.003274633089085e+001
0	 7.599979999983599e+000	 2.666734223614256e-001	 1.003337679482197e+001
0	 7.599979999983598e+000	 3.333434029809069e-001	 1.003396518416771e+001
0	 7.599979999983601e+000	 4.000138002678044e-001	 1.003451540529174e+001
0	 7.599979999983598e+000	 4.666844975500011e-001	 1.003503136542484e+001
0	 7.599979999983599e+000	 5.333553781553801e-001	 1.003551697266500e+001
0	 7.599979999983598e+000	 6.000263254118244e-001	 1.003597613597740e+001
0	 7.599979999983598e+000	 6.666972226472177e-001	 1.003641276519461e+001
0	 7.666649999985414e+000	 0.000000000000000e+000	 1.002460052774221e+001
0	 7.666649999985414e+000	 6.666714722864756e-002	 1.002527629857754e+001
0	 7.666649999985416e+000	 1.333351778131789e-001	 1.002591734262890e+001
0	 7.666649999985417e+000	 2.000039750814773e-001	 1.002652853574745e+001
0	 7.666649999985414e+000	 2.666734223614254e-001	 1.002711475497520e+001
0	 7.666649999985414e+000	 3.333434029809068e-001	 1.002768087854482e+001
0	 7.666649999985417e+000	 4.000138002678044e-001	 1.002823178587965e+001
0	 7.666649999985415e+000	 4.666844975500012e-001	 1.002877235759370e+001
0	 7.666649999985415e+000	 5.333553781553803e-001	 1.002930747549160e+001
0	 7.666649999985413e+000	 6.000263254118246e-001	 1.002984202256870e+001
0	 7.666649999985416e+000	 6.666972226472177e-001	 1.003038088301109e+001
0	 7.733319999987730e+000	 0.000000000000000e+000	 1.001868383707055e+001
0	 7.733319999987733e+000	 6.666714722864756e-002	 1.001920285032999e+001
0	 7.733319999987733e+000	 1.333351778131789e-001	 1.001971534377714e+001
0	 7.733319999987730e+000	 2.000039750814772e-001	 1.002022674343338e+001
0	 7.733319999987731e+000	 2.666734223614256e-001	 1.002074247686348e+001
0	 7.733319999987732e+000	 3.333434029809069e-001	 1.002126797317545e+001
0	 7.733319999987733e+000	 4.000138002678044e-001	 1.002180866302053e+001
0	 7.733319999987730e+000	 4.666844975500011e-001	 1.002236997859302e+001
0	 7.733319999987731e+000	 5.333553781553803e-001	 1.002295735363035e+001
0	 7.733319999987732e+000	 6.000263254118247e-001	 1.002357622341305e+001
0	 7.733319999987733e+000	 6.666972226472177e-001	 1.002423202476489e+001
0	 7.799989999990447e+000	 0.000000000000000e+000	 1.001280947358076e+001
0	 7.799989999990450e+000	 6.666714722864757e-002	 1.001313471204501e+001
0	 7.799989999990449e+000	 1.333351778131790e-001	 1.001348769882510e+001
0	 7.799989999990447e+000	 2.000039750814772e-001	 1.001387398837296e+001
0	 7.799989999990448e+000	 2.666734223614256e-001	 1.001429913703312e+001
0	 7.799989999990450e+000	 3.333434029809069e-001	 1.001476870304247e+001
0	 7.799989999990448e+000	 4.000138002678043e-001	 1.001528824653023e+001
0	 7.799989999990447e+000	 4.666844975500011e-001	 1.001586332951775e+001
0	 7.799989999990449e+000	 5.333553781553804e-001	 1.001649951591853e+001
0	 7.799989999990449e+000	 6.000263254118248e-001	 1.001720237153828e+001
0	 7.799989999990450e+000	 6.666972226472179e-001	 1.001797746407485e+001
0	 7.866659999993463e+000	 0.000000000000000e+000	 1.000697354191292e+001
0	 7.866659999993464e+000	 6.666714722864754e-002	 1.000708338235673e+001
0	 7.866659999993464e+000	 1.333351778131789e-001	 1.000725821627529e+001
0	 7.866659999993465e+000	 2.000039750814773e-001	 1.000750330499055e+001
0	 7.866659999993465e+000	 2.666734223614255e-001	 1.000782391203046e+001
0	 7.866659999993464e+000	 3.333434029809069e-001	 1.000822530312872e+001
0	 7.866659999993463e+000	 4.000138002678044e-001	 1.000871274622459e+001
0	 7.866659999993464e+000	 4.666844975500012e-001	 1.000929151146280e+001
0	 7.866659999993464e+000	 5.333553781553801e-001	 1.000996687119349e+001
0	 7.866659999993465e+000	 6.000263254118247e-001	 1.001074409997217e+001
0	 7.866659999993464e+000	 6.666972226472177e-001	 1.001162847455987e+001
0	 7.933329999996681e+000	 0.000000000000000e+000	 1.000117214670712e+001
0	 7.933329999996681e+000	 6.666714722864756e-002	 1.000106035989932e+001
0	 7.933329999996682e+000	 1.333351778131790e-001	 1.000105070463023e+001
0	 7.933329999996682e+000	 2.000039750814772e-001	 1.000114772771049e+001
0	 7.933329999996683e+000	 2.666734223614256e-001	 1.000135597840185e+001
0	 7.933329999996680e+000	 3.333434029809068e-001	 1.000168000841705e+001
0	 7.933329999996681e+000	 4.000138002678044e-001	 1.000212437191948e+001
0	 7.933329999996680e+000	 4.666844975500011e-001	 1.000269362552314e+001
0	 7.933329999996679e+000	 5.333553781553800e-001	 1.000339232829251e+001
0	 7.933329999996682e+000	 6.000263254118248e-001	 1.000422504174255e+001
0	 7.933329999996682e+000	 6.666972226472177e-001	 1.000519632983880e+001
0	 8.000000000000000e+000	 0.000000000000000e+000	 9.995401392603446e+000
0	 8.000000000000002e+000	 6.666714722864757e-002	 9.995077143306915e+000
0	 8.000000000000000e+000	 1.333351778131789e-001	 9.994888972392467e+000
0	 8.000000000000000e+000	 2.000039750814773e-001	 9.994840290957102e+000
0	 8.000000000000002e+000	 2.666734223614256e-001	 9.994934512693616e+000
0	 8.000000000000000e+000	 3.333434029809069e-001	 9.995175053890307e+000
0	 8.000000000000000e+000	 4.000138002678044e-001	 9.995565333430761e+000
0	 8.000000000000000e+000	 4.666844975500011e-001	 9.996108772793702e+000
0	 7.999999999999999e+000	 5.333553781553803e-001	 9.996808796052910e+000
0	 8.000000000000000e+000	 6.000263254118246e-001	 9.997668829877215e+000
0	 7.999999999999999e+000	 6.666972226472177e-001	 9.998692303530532e+000
0	 7.333299999983332e+000	 6.666972226472178e-001	 1.005914506092405e+001
0	 7.333299999983334e+000	 7.333579753122048e-001	 1.005963098204515e+001
0	 7.333299999983334e+000	 8.000185779984417e-001	 1.006025863493055e+001
0	 7.333299999983334e+000	 8.666790473703454e-001	 1.006102861458122e+001
0	 7.333299999983335e+000	 9.333394000923323e-001	 1.006194151569130e+001
0	 7.333299999983334e+000	 9.999996528288190e-001	 1.006299793264822e+001
0	 7.333299999983335e+000	 1.066659822244222e+000	 1.006419845953255e+001
0	 7.333299999983335e+000	 1.133319925002959e+000	 1.006554369011810e+001
0	 7.333299999983333e+000	 1.199979977769445e+000	 1.006703421787192e+001
0	 7.333299999983335e+000	 1.266639997208098e+000	 1.006867063595426e+001
0	 7.333299999983335e+000	 1.333299999983334e+000	 1.007045353721861e+001
0	 7.399969999982150e+000	 6.666972226472177e-001	 1.005369381918013e+001
0	 7.399969999982151e+000	 7.333579753122047e-001	 1.005408721224345e+001
0	 7.399969999982151e+000	 8.000185779984417e-001	 1.005462397282580e+001
0	 7.399969999982151e+000	 8.666790473703451e-001	 1.005530622409047e+001
0	 7.399969999982150e+000	 9.333394000923321e-001	 1.005613608887380e+001
0	 7.399969999982149e+000	 9.999996528288190e-001	 1.005711568968516e+001
0	 7.399969999982150e+000	 1.066659822244222e+000	 1.005824714870701e+001
0	 7.399969999982148e+000	 1.133319925002958e+000	 1.005953258779481e+001
0	 7.399969999982151e+000	 1.199979977769445e+000	 1.006097412847709e+001
0	 7.399969999982150e+000	 1.266639997208098e+000	 1.006257389195544e+001
0	 7.399969999982149e+000	 1.333299999983334e+000	 1.006433399910452e+001
0	 7.466639999981865e+000	 6.666972226472177e-001	 1.004808050689800e+001
0	 7.466639999981864e+000	 7.333579753122048e-001	 1.004845011400540e+001
0	 7.466639999981866e+000	 8.000185779984416e-001	 1.004895594461287e+001
0	 7.466639999981865e+000	 8.666790473703453e-001	 1.004960139948167e+001
0	 7.466639999981867e+000	 9.333394000923321e-001	 1.005038987904263e+001
0	 7.466639999981865e+000	 9.999996528288189e-001	 1.005132478339612e+001
0	 7.466639999981866e+000	 1.066659822244222e+000	 1.005240951231211e+001
0	 7.466639999981866e+000	 1.133319925002959e+000	 1.005364746523009e+001
0	 7.466639999981865e+000	 1.199979977769445e+000	 1.005504204125912e+001
0	 7.466639999981866e+000	 1.266639997208098e+000	 1.005659663917782e+001
0	 7.466639999981866e+000	 1.333299999983334e+000	 1.005831465743438e+001
0	 7.533309999982381e+000	 6.666972226472175e-001	 1.004231639769652e+001
0	 7.533309999982382e+000	 7.333579753122047e-001	 1.004271804558944e+001
0	 7.533309999982382e+000	 8.000185779984415e-001	 1.004324196077911e+001
0	 7.533309999982384e+000	 8.666790473703456e-001	 1.004389257108119e+001
0	 7.533309999982383e+000	 9.333394000923321e-001	 1.004467430399115e+001
0	 7.533309999982382e+000	 9.999996528288192e-001	 1.004559158668422e+001
0	 7.533309999982381e+000	 1.066659822244222e+000	 1.004664884601542e+001
0	 7.533309999982384e+000	 1.133319925002959e+000	 1.004785050851960e+001
0	 7.533309999982384e+000	 1.199979977769445e+000	 1.004920100041137e+001
0	 7.533309999982383e+000	 1.266639997208098e+000	 1.005070474758516e+001
0	 7.533309999982382e+000	 1.333299999983334e+000	 1.005236617561516e+001
0	 7.599979999983598e+000	 6.666972226472177e-001	 1.003641276519461e+001
0	 7.599979999983600e+000	 7.333579753122048e-001	 1.003688936525396e+001
0	 7.599979999983599e+000	 8.000185779984416e-001	 1.003746943181181e+001
0	 7.599979999983598e+000	 8.666790473703451e-001	 1.003815816921540e+001
0	 7.599979999983598e+000	 9.333394000923319e-001	 1.003896078151271e+001
0	 7.599979999983598e+000	 9.999996528288191e-001	 1.003988247245254e+001
0	 7.599979999983599e+000	 1.066659822244222e+000	 1.004092844548450e+001
0	 7.599979999983598e+000	 1.133319925002959e+000	 1.004210390375901e+001
0	 7.599979999983599e+000	 1.199979977769445e+000	 1.004341405012725e+001
0	 7.599979999983598e+000	 1.266639997208098e+000	 1.004486408714125e+001
0	 7.599979999983598e+000	 1.333299999983334e+000	 1.004645921705380e+001
0	 7.666649999985416e+000	 6.666972226472177e-001	 1.003038088301109e+001
0	 7.666649999985416e+000	 7.333579753122048e-001	 1.003096243125736e+001
0	 7.666649999985414e+000	 8.000185779984416e-001	 1.003162576819832e+001
0	 7.666649999985416e+000	 8.666790473703452e-001	 1.003237662421066e+001
0	 7.666649999985413e+000	 9.333394000923320e-001	 1.003322072940066e+001
0	 7.666649999985415e+000	 9.999996528288189e-001	 1.003416381360423e+001
0	 7.666649999985413e+000	 1.066659822244222e+000	 1.003521160638694e+001
0	 7.666649999985415e+000	 1.133319925002959e+000	 1.003636983704396e+001
0	 7.666649999985416e+000	 1.199979977769445e+000	 1.003764423460013e+001
0	 7.666649999985416e+000	 1.266639997208098e+000	 1.003904052780986e+001
0	 7.666649999985415e+000	 1.333299999983333e+000	 1.004056444515727e+001
0	 7.733319999987733e+000	 6.666972226472177e-001	 1.002423202476489e+001
0	 7.733319999987730e+000	 7.333579753122047e-001	 1.002493560185806e+001
0	 7.733319999987730e+000	 8.000185779984415e-001	 1.002569838042595e+001
0	 7.733319999987731e+000	 8.666790473703452e-001	 1.002652636639335e+001
0	 7.733319999987733e+000	 9.333394000923324e-001	 1.002742556544835e+001
0	 7.733319999987733e+000	 9.999996528288190e-001	 1.002840198304241e+001
0	 7.733319999987731e+000	 1.066659822244222e+000	 1.002946162439030e+001
0	 7.733319999987731e+000	 1.133319925002959e+000	 1.003061049447015e+001
0	 7.733319999987731e+000	 1.199979977769445e+000	 1.003185459802338e+001
0	 7.733319999987731e+000	 1.266639997208098e+000	 1.003319993955479e+001
0	 7.733319999987732e+000	 1.333299999983334e+000	 1.003465252333249e+001
0	 7.799989999990450e+000	 6.666972226472179e-001	 1.001797746407485e+001
0	 7.799989999990447e+000	 7.333579753122047e-001	 1.001880723531448e+001
0	 7.799989999990447e+000	 8.000185779984416e-001	 1.001967467898203e+001
0	 7.799989999990449e+000	 8.666790473703453e-001	 1.002058582608982e+001
0	 7.799989999990447e+000	 9.333394000923323e-001	 1.002154670744913e+001
0	 7.799989999990448e+000	 9.999996528288188e-001	 1.002256335367017e+001
0	 7.799989999990447e+000	 1.066659822244222e+000	 1.002364179516217e+001
0	 7.799989999990448e+000	 1.133319925002959e+000	 1.002478806213320e+001
0	 7.799989999990447e+000	 1.199979977769445e+000	 1.002600818459040e+001
0	 7.799989999990448e+000	 1.266639997208098e+000	 1.002730819233980e+001
0	 7.799989999990448e+000	 1.333299999983334e+000	 1.002869411498642e+001
0	 7.866659999993464e+000	 6.666972226472177e-001	 1.001162847455987e+001
0	 7.866659999993464e+000	 7.333579753122048e-001	 1.001257568988502e+001
0	 7.866659999993465e+000	 8.000185779984416e-001	 1.001354207435385e+001
0	 7.866659999993465e+000	 8.666790473703451e-001	 1.001453343362644e+001
0	 7.866659999993466e+000	 9.333394000923324e-001	 1.001555557319634e+001
0	 7.866659999993465e+000	 9.999996528288190e-001	 1.001661429839067e+001
0	 7.866659999993464e+000	 1.066659822244222e+000	 1.001771541437009e+001
0	 7.866659999993465e+000	 1.133319925002959e+000	 1.001886472612879e+001
0	 7.866659999993465e+000	 1.199979977769445e+000	 1.002006803849456e+001
0	 7.866659999993463e+000	 1.266639997208098e+000	 1.002133115612867e+001
0	 7.866659999993465e+000	 1.333299999983334e+000	 1.002265988352601e+001
0	 7.933329999996682e+000	 6.666972226472177e-001	 1.000519632983880e+001
0	 7.933329999996680e+000	 7.333579753122045e-001	 1.000623932382807e+001
0	 7.933329999996681e+000	 8.000185779984416e-001	 1.000728797702877e+001
0	 7.933329999996682e+000	 8.666790473703456e-001	 1.000834761932959e+001
0	 7.933329999996682e+000	 9.333394000923321e-001	 1.000942358048335e+001
0	 7.933329999996682e+000	 9.999996528288190e-001	 1.001052119010699e+001
0	 7.933329999996682e+000	 1.066659822244222e+000	 1.001164577768165e+001
0	 7.933329999996681e+000	 1.133319925002959e+000	 1.001280267255259e+001
0	 7.933329999996680e+000	 1.199979977769445e+000	 1.001399720392924e+001
0	 7.933329999996682e+000	 1.266639997208098e+000	 1.001523470088520e+001
0	 7.933329999996682e+000	 1.333299999983334e+000	 1.001652049235820e+001
0	 7.999999999999999e+000	 6.666972226472177e-001	 9.998692303530532e+000
0	 8.000000000000000e+000	 7.333579753122049e-001	 9.999796495402052e+000
0	 8.000000000000000e+000	 8.000185779984418e-001	 1.000089979749409e+001
0	 8.000000000000000e+000	 8.666790473703454e-001	 1.000200681352563e+001
0	 8.000000000000000e+000	 9.333394000923323e-001	 1.000312214710348e+001
0	 8.000000000000000e+000	 9.999996528288189e-001	 1.000425040172225e+001
0	 8.000000000000000e+000	 1.066659822244222e+000	 1.000539618076441e+001
0	 8.000000000000000e+000	 1.133319925002959e+000	 1.000656408750023e+001
0	 8.000000000000000e+000	 1.199979977769445e+000	 1.000775872508783e+001
0	 7.999999999999999e+000	 1.266639997208097e+000	 1.000898469657314e+001
0	 8.000000000000000e+000	 1.333299999983334e+000	 1.001024660488994e+001
0	 7.333299999983335e+000	 1.333299999983334e+000	 1.007045353721861e+001
0	 7.333299999983334e+000	 1.399969999982150e+000	 1.007228556800577e+001
0	 7.333299999983335e+000	 1.466639999981867e+000	 1.007407168696742e+001
0	 7.333299999983334e+000	 1.533309999982383e+000	 1.007581679062992e+001
0	 7.333299999983334e+000	 1.599979999983599e+000	 1.007752577551966e+001
0	 7.333299999983334e+000	 1.666649999985416e+000	 1.007920353816303e+001
0	 7.333299999983335e+000	 1.733319999987733e+000	 1.008085497508639e+001
0	 7.333299999983335e+000	 1.799989999990450e+000	 1.008248498281612e+001
0	 7.333299999983334e+000	 1.866659999993466e+000	 1.008409845787861e+001
0	 7.333299999983335e+000	 1.933329999996683e+000	 1.008570029680023e+001
0	 7.333299999983335e+000	 2.000000000000000e+000	 1.008729539610736e+001
0	 7.399969999982149e+000	 1.333299999983334e+000	 1.006433399910452e+001
0	 7.399969999982150e+000	 1.399969999982150e+000	 1.006614796100285e+001
0	 7.399969999982151e+000	 1.466639999981866e+000	 1.006791096524107e+001
0	 7.399969999982149e+000	 1.533309999982383e+000	 1.006962847574321e+001
0	 7.399969999982150e+000	 1.599979999983600e+000	 1.007130595643326e+001
0	 7.399969999982150e+000	 1.666649999985416e+000	 1.007294887123528e+001
0	 7.399969999982149e+000	 1.733319999987733e+000	 1.007456268407324e+001
0	 7.399969999982149e+000	 1.799989999990450e+000	 1.007615285887118e+001
0	 7.399969999982149e+000	 1.866659999993466e+000	 1.007772485955311e+001
0	 7.399969999982151e+000	 1.933329999996683e+000	 1.007928415004306e+001
0	 7.399969999982152e+000	 2.000000000000000e+000	 1.008083619426503e+001
0	 7.466639999981866e+000	 1.333299999983334e+000	 1.005831465743438e+001
0	 7.466639999981865e+000	 1.399969999982150e+000	 1.006008813185839e+001
0	 7.466639999981867e+000	 1.466639999981867e+000	 1.006181021526867e+001
0	 7.466639999981864e+000	 1.533309999982383e+000	 1.006348679181805e+001
0	 7.466639999981866e+000	 1.599979999983599e+000	 1.006512374565933e+001
0	 7.466639999981867e+000	 1.666649999985416e+000	 1.006672696094533e+001
0	 7.466639999981865e+000	 1.733319999987733e+000	 1.006830232182886e+001
0	 7.466639999981867e+000	 1.799989999990450e+000	 1.006985571246273e+001
0	 7.466639999981866e+000	 1.866659999993466e+000	 1.007139301699975e+001
0	 7.466639999981868e+000	 1.933329999996684e+000	 1.007292011959271e+001
0	 7.466639999981866e+000	 2.000000000000000e+000	 1.007444290439447e+001
0	 7.533309999982382e+000	 1.333299999983334e+000	 1.005236617561516e+001
0	 7.533309999982383e+000	 1.399969999982150e+000	 1.005408213476501e+001
0	 7.533309999982383e+000	 1.466639999981866e+000	 1.005575010730879e+001
0	 7.533309999982382e+000	 1.533309999982383e+000	 1.005737625045927e+001
0	 7.533309999982381e+000	 1.599979999983600e+000	 1.005896672142921e+001
0	 7.533309999982382e+000	 1.666649999985415e+000	 1.006052767743138e+001
0	 7.533309999982382e+000	 1.733319999987733e+000	 1.006206527567853e+001
0	 7.533309999982382e+000	 1.799989999990450e+000	 1.006358567338342e+001
0	 7.533309999982382e+000	 1.866659999993466e+000	 1.006509502775882e+001
0	 7.533309999982383e+000	 1.933329999996683e+000	 1.006659949601750e+001
0	 7.533309999982381e+000	 2.000000000000000e+000	 1.006810523537221e+001
0	 7.599979999983598e+000	 1.333299999983334e+000	 1.004645921705380e+001
0	 7.599979999983599e+000	 1.399969999982150e+000	 1.004810602391534e+001
0	 7.599979999983599e+000	 1.466639999981866e+000	 1.004971131162001e+001
0	 7.599979999983599e+000	 1.533309999982383e+000	 1.005128136327170e+001
0	 7.599979999983598e+000	 1.599979999983599e+000	 1.005282246197425e+001
0	 7.599979999983598e+000	 1.666649999985416e+000	 1.005434089083156e+001
0	 7.599979999983598e+000	 1.733319999987733e+000	 1.005584293294749e+001
0	 7.599979999983597e+000	 1.799989999990449e+000	 1.005733487142589e+001
0	 7.599979999983598e+000	 1.866659999993466e+000	 1.005882298937067e+001
0	 7.599979999983600e+000	 1.933329999996683e+000	 1.006031356988568e+001
0	 7.599979999983599e+000	 2.000000000000001e+000	 1.006181289607478e+001
0	 7.666649999985415e+000	 1.333299999983333e+000	 1.004056444515727e+001
0	 7.666649999985414e+000	 1.399969999982150e+000	 1.004213585350200e+001
0	 7.666649999985416e+000	 1.466639999981867e+000	 1.004367449846091e+001
0	 7.666649999985417e+000	 1.533309999982383e+000	 1.004518664186012e+001
0	 7.666649999985416e+000	 1.599979999983600e+000	 1.004667854552578e+001
0	 7.666649999985415e+000	 1.666649999985416e+000	 1.004815647128403e+001
0	 7.666649999985414e+000	 1.733319999987733e+000	 1.004962668096099e+001
0	 7.666649999985416e+000	 1.799989999990449e+000	 1.005109543638281e+001
0	 7.666649999985415e+000	 1.866659999993466e+000	 1.005256899937560e+001
0	 7.666649999985415e+000	 1.933329999996683e+000	 1.005405363176553e+001
0	 7.666649999985416e+000	 2.000000000000000e+000	 1.005555559537870e+001
0	 7.733319999987732e+000	 1.333299999983334e+000	 1.003465252333249e+001
0	 7.733319999987731e+000	 1.399969999982150e+000	 1.003614767771760e+001
0	 7.733319999987732e+000	 1.466639999981867e+000	 1.003762033809005e+001
0	 7.733319999987732e+000	 1.533309999982383e+000	 1.003907659782938e+001
0	 7.733319999987731e+000	 1.599979999983599e+000	 1.004052255031516e+001
0	 7.733319999987731e+000	 1.666649999985416e+000	 1.004196428892696e+001
0	 7.733319999987733e+000	 1.733319999987733e+000	 1.004340790704432e+001
0	 7.733319999987732e+000	 1.799989999990450e+000	 1.004485949804679e+001
0	 7.733319999987732e+000	 1.866659999993466e+000	 1.004632515531395e+001
0	 7.733319999987732e+000	 1.933329999996683e+000	 1.004781097222534e+001
0	 7.733319999987731e+000	 2.000000000000000e+000	 1.004932304216052e+001
0	 7.799989999990448e+000	 1.333299999983334e+000	 1.002869411498643e+001
0	 7.799989999990449e+000	 1.399969999982150e+000	 1.003011755075476e+001
0	 7.799989999990445e+000	 1.466639999981866e+000	 1.003152950076600e+001
0	 7.799989999990447e+000	 1.533309999982383e+000	 1.003293574278429e+001
0	 7.799989999990447e+000	 1.599979999983600e+000	 1.003434205457374e+001
0	 7.799989999990449e+000	 1.666649999985416e+000	 1.003575421389850e+001
0	 7.799989999990449e+000	 1.733319999987733e+000	 1.003717799852271e+001
0	 7.799989999990448e+000	 1.799989999990450e+000	 1.003861918621051e+001
0	 7.799989999990448e+000	 1.866659999993466e+000	 1.004008355472602e+001
0	 7.799989999990448e+000	 1.933329999996683e+000	 1.004157688183338e+001
0	 7.799989999990449e+000	 2.000000000000000e+000	 1.004310494529673e+001
0	 7.866659999993465e+000	 1.333299999983334e+000	 1.002265988352601e+001
0	 7.866659999993465e+000	 1.399969999982150e+000	 1.002402152680610e+001
0	 7.866659999993464e+000	 1.466639999981866e+000	 1.002538265674735e+001
0	 7.866659999993463e+000	 1.533309999982383e+000	 1.002674858832964e+001
0	 7.866659999993463e+000	 1.599979999983599e+000	 1.002812463653284e+001
0	 7.866659999993463e+000	 1.666649999985416e+000	 1.002951611633682e+001
0	 7.866659999993466e+000	 1.733319999987733e+000	 1.003092834272145e+001
0	 7.866659999993464e+000	 1.799989999990449e+000	 1.003236663066660e+001
0	 7.866659999993464e+000	 1.866659999993467e+000	 1.003383629515214e+001
0	 7.866659999993464e+000	 1.933329999996683e+000	 1.003534265115794e+001
0	 7.866659999993465e+000	 2.000000000000000e+000	 1.003689101366389e+001
0	 7.933329999996682e+000	 1.333299999983334e+000	 1.001652049235820e+001
0	 7.933329999996682e+000	 1.399969999982150e+000	 1.001783566006423e+001
0	 7.933329999996681e+000	 1.466639999981866e+000	 1.001916047629267e+001
0	 7.933329999996682e+000	 1.533309999982383e+000	 1.002049964607028e+001
0	 7.933329999996680e+000	 1.599979999983600e+000	 1.002185787442383e+001
0	 7.933329999996682e+000	 1.666649999985416e+000	 1.002323986638007e+001
0	 7.933329999996682e+000	 1.733319999987733e+000	 1.002465032696578e+001
0	 7.933329999996682e+000	 1.799989999990449e+000	 1.002609396120771e+001
0	 7.933329999996680e+000	 1.866659999993466e+000	 1.002757547413263e+001
0	 7.933329999996680e+000	 1.933329999996683e+000	 1.002909957076730e+001
0	 7.933329999996680e+000	 2.000000000000000e+000	 1.003067095613850e+001
0	 8.000000000000000e+000	 1.333299999983334e+000	 1.001024660488994e+001
0	 8.000000000000000e+000	 1.399969999982150e+000	 1.001153600472177e+001
0	 8.000000000000000e+000	 1.466639999981866e+000	 1.001284362966053e+001
0	 8.000000000000000e+000	 1.533309999982383e+000	 1.001417342761101e+001
0	 8.000000000000000e+000	 1.599979999983599e+000	 1.001552934647803e+001
0	 8.000000000000000e+000	 1.666649999985416e+000	 1.001691533416641e+001
0	 7.999999999999999e+000	 1.733319999987733e+000	 1.001833533858095e+001
0	 8.000000000000000e+000	 1.799989999990450e+000	 1.001979330762648e+001
0	 8.000000000000000e+000	 1.866659999993466e+000	 1.002129318920780e+001
0	 8.000000000000000e+000	 1.933329999996683e+000	 1.002283893122974e+001
0	 7.999999999999999e+000	 2.000000000000000e+000	 1.002443448159710e+001
0	 7.333299999983335e+000	 2.000000000000000e+000	 1.008729539610736e+001
0	 7.333299999983334e+000	 2.066670000003317e+000	 1.008885771593996e+001
0	 7.333299999983335e+000	 2.133340000006534e+000	 1.009036270589684e+001
0	 7.333299999983334e+000	 2.200010000009550e+000	 1.009181749669276e+001
0	 7.333299999983333e+000	 2.266680000012267e+000	 1.009322921904247e+001
0	 7.333299999983335e+000	 2.333350000014584e+000	 1.009460500366070e+001
0	 7.333299999983335e+000	 2.400020000016401e+000	 1.009595198126221e+001
0	 7.333299999983333e+000	 2.466690000017616e+000	 1.009727728256172e+001
0	 7.333299999983334e+000	 2.533360000018134e+000	 1.009858803827397e+001
0	 7.333299999983335e+000	 2.600030000017851e+000	 1.009989137911373e+001
0	 7.333299999983335e+000	 2.666700000016666e+000	 1.010119443579571e+001
0	 7.399969999982152e+000	 2.000000000000000e+000	 1.008083619426503e+001
0	 7.399969999982149e+000	 2.066670000003317e+000	 1.008236358981833e+001
0	 7.399969999982150e+000	 2.133340000006534e+000	 1.008384884222573e+001
0	 7.399969999982152e+000	 2.200010000009551e+000	 1.008529727729640e+001
0	 7.399969999982150e+000	 2.266680000012267e+000	 1.008671422083954e+001
0	 7.399969999982150e+000	 2.333350000014584e+000	 1.008810499866433e+001
0	 7.399969999982150e+000	 2.400020000016400e+000	 1.008947493657995e+001
0	 7.399969999982150e+000	 2.466690000017617e+000	 1.009082936039560e+001
0	 7.399969999982149e+000	 2.533360000018133e+000	 1.009217359592045e+001
0	 7.399969999982148e+000	 2.600030000017851e+000	 1.009351296896368e+001
0	 7.399969999982151e+000	 2.666700000016667e+000	 1.009485280533450e+001
0	 7.466639999981866e+000	 2.000000000000000e+000	 1.007444290439447e+001
0	 7.466639999981865e+000	 2.066670000003317e+000	 1.007594874654172e+001
0	 7.466639999981867e+000	 2.133340000006534e+000	 1.007742362695143e+001
0	 7.466639999981867e+000	 2.200010000009550e+000	 1.007887133844663e+001
0	 7.466639999981863e+000	 2.266680000012266e+000	 1.008029567385040e+001
0	 7.466639999981866e+000	 2.333350000014584e+000	 1.008170042598578e+001
0	 7.466639999981866e+000	 2.400020000016401e+000	 1.008308938767586e+001
0	 7.466639999981866e+000	 2.466690000017617e+000	 1.008446635174367e+001
0	 7.466639999981866e+000	 2.533360000018134e+000	 1.008583511101230e+001
0	 7.466639999981865e+000	 2.600030000017849e+000	 1.008719945830481e+001
0	 7.466639999981866e+000	 2.666700000016666e+000	 1.008856318644424e+001
0	 7.533309999982381e+000	 2.000000000000000e+000	 1.006810523537221e+001
0	 7.533309999982384e+000	 2.066670000003317e+000	 1.006960116351794e+001
0	 7.533309999982381e+000	 2.133340000006534e+000	 1.007107378117877e+001
0	 7.533309999982381e+000	 2.200010000009551e+000	 1.007252562011105e+001
0	 7.533309999982384e+000	 2.266680000012267e+000	 1.007395921207117e+001
0	 7.533309999982382e+000	 2.333350000014584e+000	 1.007537708881550e+001
0	 7.533309999982381e+000	 2.400020000016401e+000	 1.007678178210041e+001
0	 7.533309999982381e+000	 2.466690000017617e+000	 1.007817582368226e+001
0	 7.533309999982383e+000	 2.533360000018134e+000	 1.007956174531743e+001
0	 7.533309999982381e+000	 2.600030000017850e+000	 1.008094207876228e+001
0	 7.533309999982381e+000	 2.666700000016666e+000	 1.008231935577320e+001
0	 7.599979999983599e+000	 2.000000000000001e+000	 1.006181289607478e+001
0	 7.599979999983598e+000	 2.066670000003316e+000	 1.006330881815476e+001
0	 7.599979999983598e+000	 2.133340000006534e+000	 1.006478602601255e+001
0	 7.599979999983598e+000	 2.200010000009550e+000	 1.006624606225728e+001
0	 7.599979999983597e+000	 2.266680000012267e+000	 1.006769046949803e+001
0	 7.599979999983598e+000	 2.333350000014584e+000	 1.006912079034394e+001
0	 7.599979999983599e+000	 2.400020000016401e+000	 1.007053856740411e+001
0	 7.599979999983598e+000	 2.466690000017617e+000	 1.007194534328766e+001
0	 7.599979999983598e+000	 2.533360000018134e+000	 1.007334266060370e+001
0	 7.599979999983599e+000	 2.600030000017850e+000	 1.007473206196134e+001
0	 7.599979999983599e+000	 2.666700000016667e+000	 1.007611508996969e+001
0	 7.666649999985416e+000	 2.000000000000000e+000	 1.005555559537870e+001
0	 7.666649999985413e+000	 2.066670000003316e+000	 1.005705968785998e+001
0	 7.666649999985416e+000	 2.133340000006534e+000	 1.005854708255761e+001
0	 7.666649999985416e+000	 2.200010000009550e+000	 1.006001860485288e+001
0	 7.666649999985416e+000	 2.266680000012267e+000	 1.006147508012709e+001
0	 7.666649999985416e+000	 2.333350000014583e+000	 1.006291733376153e+001
0	 7.666649999985417e+000	 2.400020000016400e+000	 1.006434619113746e+001
0	 7.666649999985416e+000	 2.466690000017617e+000	 1.006576247763620e+001
0	 7.666649999985415e+000	 2.533360000018134e+000	 1.006716701863901e+001
0	 7.666649999985414e+000	 2.600030000017851e+000	 1.006856063952718e+001
0	 7.666649999985415e+000	 2.666700000016666e+000	 1.006994416568200e+001
0	 7.733319999987731e+000	 2.000000000000000e+000	 1.004932304216052e+001
0	 7.733319999987733e+000	 2.066670000003317e+000	 1.005084175004139e+001
0	 7.733319999987733e+000	 2.133340000006533e+000	 1.005234367191876e+001
0	 7.733319999987732e+000	 2.200010000009551e+000	 1.005382918786550e+001
0	 7.733319999987733e+000	 2.266680000012267e+000	 1.005529867795452e+001
0	 7.733319999987732e+000	 2.333350000014584e+000	 1.005675252225871e+001
0	 7.733319999987731e+000	 2.400020000016401e+000	 1.005819110085096e+001
0	 7.733319999987732e+000	 2.466690000017617e+000	 1.005961479380416e+001
0	 7.733319999987732e+000	 2.533360000018134e+000	 1.006102398119122e+001
0	 7.733319999987732e+000	 2.600030000017851e+000	 1.006241904308500e+001
0	 7.733319999987731e+000	 2.666700000016666e+000	 1.006380035955842e+001
0	 7.799989999990449e+000	 2.000000000000000e+000	 1.004310494529673e+001
0	 7.799989999990449e+000	 2.066670000003317e+000	 1.004464298210680e+001
0	 7.799989999990448e+000	 2.133340000006534e+000	 1.004616251520081e+001
0	 7.799989999990448e+000	 2.200010000009550e+000	 1.004766375126272e+001
0	 7.799989999990448e+000	 2.266680000012268e+000	 1.004914689697645e+001
0	 7.799989999990449e+000	 2.333350000014584e+000	 1.005061215902592e+001
0	 7.799989999990448e+000	 2.400020000016400e+000	 1.005205974409509e+001
0	 7.799989999990447e+000	 2.466690000017617e+000	 1.005348985886787e+001
0	 7.799989999990449e+000	 2.533360000018133e+000	 1.005490271002821e+001
0	 7.799989999990450e+000	 2.600030000017851e+000	 1.005629850426002e+001
0	 7.799989999990448e+000	 2.666700000016666e+000	 1.005767744824724e+001
0	 7.866659999993465e+000	 2.000000000000000e+000	 1.003689101366389e+001
0	 7.866659999993463e+000	 2.066670000003317e+000	 1.003845136146399e+001
0	 7.866659999993464e+000	 2.133340000006534e+000	 1.003999033350860e+001
0	 7.866659999993465e+000	 2.200010000009550e+000	 1.004150823501213e+001
0	 7.866659999993466e+000	 2.266680000012268e+000	 1.004300537118900e+001
0	 7.866659999993463e+000	 2.333350000014583e+000	 1.004448204725361e+001
0	 7.866659999993465e+000	 2.400020000016401e+000	 1.004593856842035e+001
0	 7.866659999993465e+000	 2.466690000017618e+000	 1.004737523990363e+001
0	 7.866659999993463e+000	 2.533360000018133e+000	 1.004879236691786e+001
0	 7.866659999993465e+000	 2.600030000017850e+000	 1.005019025467743e+001
0	 7.866659999993463e+000	 2.666700000016666e+000	 1.005156920839675e+001
0	 7.933329999996680e+000	 2.000000000000000e+000	 1.003067095613850e+001
0	 7.933329999996682e+000	 2.066670000003318e+000	 1.003225486552075e+001
0	 7.933329999996680e+000	 2.133340000006534e+000	 1.003381384794693e+001
0	 7.933329999996682e+000	 2.200010000009550e+000	 1.003534857908137e+001
0	 7.933329999996682e+000	 2.266680000012267e+000	 1.003685973458835e+001
0	 7.933329999996679e+000	 2.333350000014583e+000	 1.003834799013222e+001
0	 7.933329999996682e+000	 2.400020000016401e+000	 1.003981402137724e+001
0	 7.933329999996681e+000	 2.466690000017617e+000	 1.004125850398776e+001
0	 7.933329999996680e+000	 2.533360000018134e+000	 1.004268211362805e+001
0	 7.933329999996682e+000	 2.600030000017850e+000	 1.004408552596245e+001
0	 7.933329999996682e+000	 2.666700000016666e+000	 1.004546941665526e+001
0	 7.999999999999999e+000	 2.000000000000000e+000	 1.002443448159710e+001
0	 8.000000000000000e+000	 2.066670000003318e+000	 1.002604147168488e+001
0	 8.000000000000000e+000	 2.133340000006534e+000	 1.002761977962063e+001
0	 8.000000000000000e+000	 2.200010000009551e+000	 1.002917072343801e+001
0	 8.000000000000000e+000	 2.266680000012267e+000	 1.003069562117063e+001
0	 7.999999999999999e+000	 2.333350000014584e+000	 1.003219579085216e+001
0	 8.000000000000000e+000	 2.400020000016401e+000	 1.003367255051625e+001
0	 8.000000000000000e+000	 2.466690000017617e+000	 1.003512721819654e+001
0	 8.000000000000000e+000	 2.533360000018134e+000	 1.003656111192667e+001
0	 8.000000000000000e+000	 2.600030000017851e+000	 1.003797554974027e+001
0	 7.999999999999999e+000	 2.666700000016666e+000	 1.003937184967102e+001
0	 7.333299999983335e+000	 2.666700000016666e+000	 1.010119443579572e+001
0	 7.333299999983334e+000	 2.733360000014533e+000	 1.010245489587244e+001
0	 7.333299999983333e+000	 2.800020000011599e+000	 1.010362588833086e+001
0	 7.333299999983333e+000	 2.866680000008067e+000	 1.010470711868557e+001
0	 7.333299999983334e+000	 2.933340000004133e+000	 1.010569829245111e+001
0	 7.333299999983333e+000	 2.999999999999999e+000	 1.010659911514210e+001
0	 7.333299999983335e+000	 3.066659999995867e+000	 1.010740929227310e+001
0	 7.333299999983335e+000	 3.133319999991934e+000	 1.010812852935874e+001
0	 7.333299999983334e+000	 3.199979999988400e+000	 1.010875653191357e+001
0	 7.333299999983334e+000	 3.266639999985468e+000	 1.010929300545219e+001
0	 7.333299999983335e+000	 3.333299999983335e+000	 1.010973765548923e+001
0	 7.399969999982151e+000	 2.666700000016667e+000	 1.009485280533450e+001
0	 7.399969999982150e+000	 2.733360000014533e+000	 1.009614665996676e+001
0	 7.399969999982147e+000	 2.800020000011598e+000	 1.009734563848677e+001
0	 7.399969999982149e+000	 2.866680000008067e+000	 1.009845078894307e+001
0	 7.399969999982150e+000	 2.933340000004134e+000	 1.009946315938418e+001
0	 7.399969999982149e+000	 2.999999999999999e+000	 1.010038379785865e+001
0	 7.399969999982150e+000	 3.066659999995866e+000	 1.010121375241501e+001
0	 7.399969999982149e+000	 3.133319999991933e+000	 1.010195407110183e+001
0	 7.399969999982150e+000	 3.199979999988400e+000	 1.010260580196763e+001
0	 7.399969999982149e+000	 3.266639999985467e+000	 1.010316999306095e+001
0	 7.399969999982150e+000	 3.333299999983333e+000	 1.010364769243037e+001
0	 7.466639999981866e+000	 2.666700000016666e+000	 1.008856318644424e+001
0	 7.466639999981864e+000	 2.733360000014533e+000	 1.008987854719331e+001
0	 7.466639999981865e+000	 2.800020000011599e+000	 1.009109711544322e+001
0	 7.466639999981866e+000	 2.866680000008067e+000	 1.009222105463317e+001
0	 7.466639999981867e+000	 2.933340000004133e+000	 1.009325252820236e+001
0	 7.466639999981863e+000	 2.999999999999999e+000	 1.009419369958999e+001
0	 7.466639999981865e+000	 3.066659999995866e+000	 1.009504673223527e+001
0	 7.466639999981867e+000	 3.133319999991934e+000	 1.009581378957742e+001
0	 7.466639999981867e+000	 3.199979999988400e+000	 1.009649703505566e+001
0	 7.466639999981866e+000	 3.266639999985468e+000	 1.009709863210919e+001
0	 7.466639999981866e+000	 3.333299999983334e+000	 1.009762074417724e+001
0	 7.533309999982381e+000	 2.666700000016666e+000	 1.008231935577321e+001
0	 7.533309999982383e+000	 2.733360000014533e+000	 1.008364687538505e+001
0	 7.533309999982382e+000	 2.800020000011600e+000	 1.008487869621002e+001
0	 7.533309999982384e+000	 2.866680000008067e+000	 1.008601786993471e+001
0	 7.533309999982381e+000	 2.933340000004133e+000	 1.008706744824568e+001
0	 7.533309999982383e+000	 3.000000000000000e+000	 1.008803048282953e+001
0	 7.533309999982383e+000	 3.066659999995867e+000	 1.008891002537286e+001
0	 7.533309999982384e+000	 3.133319999991935e+000	 1.008970912756226e+001
0	 7.533309999982383e+000	 3.199979999988400e+000	 1.009043084108430e+001
0	 7.533309999982383e+000	 3.266639999985467e+000	 1.009107821762561e+001
0	 7.533309999982381e+000	 3.333299999983334e+000	 1.009165430887279e+001
0	 7.599979999983599e+000	 2.666700000016667e+000	 1.007611508996969e+001
0	 7.599979999983599e+000	 2.733360000014533e+000	 1.007744796237495e+001
0	 7.599979999983599e+000	 2.800020000011600e+000	 1.007868875779702e+001
0	 7.599979999983599e+000	 2.866680000008067e+000	 1.007984118902655e+001
0	 7.599979999983598e+000	 2.933340000004133e+000	 1.008090896885422e+001
0	 7.599979999983597e+000	 3.000000000000000e+000	 1.008189581007073e+001
0	 7.599979999983597e+000	 3.066659999995866e+000	 1.008280542546677e+001
0	 7.599979999983598e+000	 3.133319999991933e+000	 1.008364152783302e+001
0	 7.599979999983599e+000	 3.199979999988400e+000	 1.008440782996016e+001
0	 7.599979999983598e+000	 3.266639999985467e+000	 1.008510804463890e+001
0	 7.599979999983598e+000	 3.333299999983333e+000	 1.008574588465992e+001
0	 7.666649999985415e+000	 2.666700000016666e+000	 1.006994416568200e+001
0	 7.666649999985416e+000	 2.733360000014533e+000	 1.007127812599601e+001
0	 7.666649999985414e+000	 2.800020000011600e+000	 1.007252567721402e+001
0	 7.666649999985414e+000	 2.866680000008065e+000	 1.007369096608753e+001
0	 7.666649999985415e+000	 2.933340000004133e+000	 1.007477813936803e+001
0	 7.666649999985414e+000	 3.000000000000000e+000	 1.007579134380702e+001
0	 7.666649999985415e+000	 3.066659999995867e+000	 1.007673472615598e+001
0	 7.666649999985415e+000	 3.133319999991934e+000	 1.007761243316643e+001
0	 7.666649999985416e+000	 3.199979999988401e+000	 1.007842861158984e+001
0	 7.666649999985416e+000	 3.266639999985468e+000	 1.007918740817772e+001
0	 7.666649999985415e+000	 3.333299999983334e+000	 1.007989296968160e+001
0	 7.733319999987731e+000	 2.666700000016666e+000	 1.006380035955842e+001
0	 7.733319999987730e+000	 2.733360000014533e+000	 1.006513368408118e+001
0	 7.733319999987730e+000	 2.800020000011599e+000	 1.006638783147087e+001
0	 7.733319999987732e+000	 2.866680000008066e+000	 1.006756715529654e+001
0	 7.733319999987731e+000	 2.933340000004133e+000	 1.006867600912718e+001
0	 7.733319999987732e+000	 3.000000000000000e+000	 1.006971874653183e+001
0	 7.733319999987733e+000	 3.066659999995868e+000	 1.007069972107950e+001
0	 7.733319999987731e+000	 3.133319999991933e+000	 1.007162328633920e+001
0	 7.733319999987732e+000	 3.199979999988401e+000	 1.007249379587994e+001
0	 7.733319999987732e+000	 3.266639999985467e+000	 1.007331560327078e+001
0	 7.733319999987730e+000	 3.333299999983333e+000	 1.007409306208073e+001
0	 7.799989999990448e+000	 2.666700000016666e+000	 1.005767744824725e+001
0	 7.799989999990447e+000	 2.733360000014533e+000	 1.005901095446342e+001
0	 7.799989999990447e+000	 2.800020000011600e+000	 1.006027359757739e+001
0	 7.799989999990448e+000	 2.866680000008066e+000	 1.006146971083241e+001
0	 7.799989999990446e+000	 2.933340000004133e+000	 1.006260362747173e+001
0	 7.799989999990447e+000	 3.000000000000000e+000	 1.006367968073860e+001
0	 7.799989999990447e+000	 3.066659999995866e+000	 1.006470220387629e+001
0	 7.799989999990449e+000	 3.133319999991934e+000	 1.006567553012804e+001
0	 7.799989999990449e+000	 3.199979999988400e+000	 1.006660399273711e+001
0	 7.799989999990448e+000	 3.266639999985467e+000	 1.006749192494675e+001
0	 7.799989999990447e+000	 3.333299999983334e+000	 1.006834366000025e+001
0	 7.866659999993463e+000	 2.666700000016666e+000	 1.005156920839676e+001
0	 7.866659999993464e+000	 2.733360000014533e+000	 1.005290625497572e+001
0	 7.866659999993466e+000	 2.800020000011601e+000	 1.005418135254341e+001
0	 7.866659999993464e+000	 2.866680000008067e+000	 1.005539858687401e+001
0	 7.866659999993465e+000	 2.933340000004133e+000	 1.005656204374173e+001
0	 7.866659999993466e+000	 3.000000000000000e+000	 1.005767580892078e+001
0	 7.866659999993467e+000	 3.066659999995867e+000	 1.005874396818535e+001
0	 7.866659999993465e+000	 3.133319999991934e+000	 1.005977060730967e+001
0	 7.866659999993463e+000	 3.199979999988400e+000	 1.006075981206791e+001
0	 7.866659999993463e+000	 3.266639999985467e+000	 1.006171566823433e+001
0	 7.866659999993463e+000	 3.333299999983334e+000	 1.006264226158309e+001
0	 7.933329999996682e+000	 2.666700000016666e+000	 1.004546941665526e+001
0	 7.933329999996680e+000	 2.733360000014532e+000	 1.004681590345106e+001
0	 7.933329999996681e+000	 2.800020000011600e+000	 1.004810947337875e+001
0	 7.933329999996682e+000	 2.866680000008067e+000	 1.004935373760018e+001
0	 7.933329999996681e+000	 2.933340000004133e+000	 1.005055230727724e+001
0	 7.933329999996682e+000	 3.000000000000000e+000	 1.005170879357179e+001
0	 7.933329999996682e+000	 3.066659999995867e+000	 1.005282680764567e+001
0	 7.933329999996681e+000	 3.133319999991933e+000	 1.005390996066079e+001
0	 7.933329999996680e+000	 3.199979999988400e+000	 1.005496186377900e+001
0	 7.933329999996682e+000	 3.266639999985468e+000	 1.005598612816218e+001
0	 7.933329999996682e+000	 3.333299999983334e+000	 1.005698636497220e+001
0	 7.999999999999999e+000	 2.666700000016666e+000	 1.003937184967102e+001
0	 8.000000000000000e+000	 2.733360000014533e+000	 1.004073621772240e+001
0	 7.999999999999998e+000	 2.800020000011599e+000	 1.004205633709324e+001
0	 7.999999999999999e+000	 2.866680000008067e+000	 1.004333511718980e+001
0	 8.000000000000000e+000	 2.933340000004133e+000	 1.004457546741832e+001
0	 8.000000000000000e+000	 3.000000000000000e+000	 1.004578029718505e+001
0	 8.000000000000000e+000	 3.066659999995867e+000	 1.004695251589623e+001
0	 7.999999999999999e+000	 3.133319999991933e+000	 1.004809503295812e+001
0	 7.999999999999999e+000	 3.199979999988401e+000	 1.004921075777696e+001
0	 8.000000000000000e+000	 3.266639999985468e+000	 1.005030259975900e+001
0	 7.999999999999999e+000	 3.333299999983334e+000	 1.005137346831049e+001
0	 7.333299999983335e+000	 3.333299999983335e+000	 1.010973765548923e+001
0	 7.333299999983333e+000	 3.399969999982149e+000	 1.011010084080428e+001
0	 7.333299999983333e+000	 3.466639999981866e+000	 1.011039439036125e+001
0	 7.333299999983333e+000	 3.533309999982382e+000	 1.011062039435712e+001
0	 7.333299999983335e+000	 3.599979999983599e+000	 1.011078094298887e+001
0	 7.333299999983335e+000	 3.666649999985416e+000	 1.011087812645350e+001
0	 7.333299999983335e+000	 3.733319999987733e+000	 1.011091403494798e+001
0	 7.333299999983334e+000	 3.799989999990450e+000	 1.011089075866931e+001
0	 7.333299999983336e+000	 3.866659999993467e+000	 1.011081038781446e+001
0	 7.333299999983332e+000	 3.933329999996682e+000	 1.011067501258043e+001
0	 7.333299999983335e+000	 4.000000000000001e+000	 1.011048672316418e+001
0	 7.399969999982150e+000	 3.333299999983333e+000	 1.010364769243037e+001
0	 7.399969999982148e+000	 3.399969999982150e+000	 1.010405248027613e+001
0	 7.399969999982148e+000	 3.466639999981866e+000	 1.010439777761417e+001
0	 7.399969999982150e+000	 3.533309999982384e+000	 1.010468458939741e+001
0	 7.399969999982151e+000	 3.599979999983601e+000	 1.010491392057878e+001
0	 7.399969999982150e+000	 3.666649999985416e+000	 1.010508677611121e+001
0	 7.399969999982150e+000	 3.733319999987733e+000	 1.010520416094761e+001
0	 7.399969999982149e+000	 3.799989999990449e+000	 1.010526708004092e+001
0	 7.399969999982150e+000	 3.866659999993467e+000	 1.010527653834404e+001
0	 7.399969999982152e+000	 3.933329999996683e+000	 1.010523354080992e+001
0	 7.399969999982151e+000	 4.000000000000001e+000	 1.010513909239145e+001
0	 7.466639999981866e+000	 3.333299999983334e+000	 1.009762074417725e+001
0	 7.466639999981866e+000	 3.399969999982150e+000	 1.009807757867488e+001
0	 7.466639999981867e+000	 3.466639999981867e+000	 1.009848182346884e+001
0	 7.466639999981864e+000	 3.533309999982383e+000	 1.009883358008828e+001
0	 7.466639999981867e+000	 3.599979999983600e+000	 1.009913295006249e+001
0	 7.466639999981867e+000	 3.666649999985417e+000	 1.009938003492063e+001
0	 7.466639999981864e+000	 3.733319999987733e+000	 1.009957493619194e+001
0	 7.466639999981865e+000	 3.799989999990450e+000	 1.009971775540566e+001
0	 7.466639999981868e+000	 3.866659999993466e+000	 1.009980859409095e+001
0	 7.466639999981867e+000	 3.933329999996683e+000	 1.009984755377708e+001
0	 7.466639999981866e+000	 4.000000000000000e+000	 1.009983473599321e+001
0	 7.533309999982381e+000	 3.333299999983334e+000	 1.009165430887279e+001
0	 7.533309999982383e+000	 3.399969999982150e+000	 1.009217181240627e+001
0	 7.533309999982381e+000	 3.466639999981866e+000	 1.009264081551004e+001
0	 7.533309999982383e+000	 3.533309999982383e+000	 1.009306069810996e+001
0	 7.533309999982381e+000	 3.599979999983600e+000	 1.009343084013192e+001
0	 7.533309999982381e+000	 3.666649999985415e+000	 1.009375062150174e+001
0	 7.533309999982384e+000	 3.733319999987733e+000	 1.009401942214533e+001
0	 7.533309999982383e+000	 3.799989999990450e+000	 1.009423662198853e+001
0	 7.533309999982383e+000	 3.866659999993467e+000	 1.009440160095719e+001
0	 7.533309999982383e+000	 3.933329999996684e+000	 1.009451373897721e+001
0	 7.533309999982381e+000	 4.000000000000000e+000	 1.009457241597441e+001
0	 7.599979999983598e+000	 3.333299999983333e+000	 1.008574588465992e+001
0	 7.599979999983599e+000	 3.399969999982149e+000	 1.008633085787598e+001
0	 7.599979999983600e+000	 3.466639999981867e+000	 1.008686904132261e+001
0	 7.599979999983598e+000	 3.533309999982383e+000	 1.008735927514266e+001
0	 7.599979999983599e+000	 3.599979999983600e+000	 1.008780039947902e+001
0	 7.599979999983598e+000	 3.666649999985416e+000	 1.008819125447454e+001
0	 7.599979999983599e+000	 3.733319999987733e+000	 1.008853068027210e+001
0	 7.599979999983597e+000	 3.799989999990449e+000	 1.008881751701456e+001
0	 7.599979999983598e+000	 3.866659999993467e+000	 1.008905060484477e+001
0	 7.599979999983600e+000	 3.933329999996684e+000	 1.008922878390560e+001
0	 7.599979999983598e+000	 4.000000000000000e+000	 1.008935089433993e+001
0	 7.666649999985415e+000	 3.333299999983334e+000	 1.007989296968160e+001
0	 7.666649999985414e+000	 3.399969999982150e+000	 1.008055039148974e+001
0	 7.666649999985416e+000	 3.466639999981867e+000	 1.008116078849132e+001
0	 7.666649999985417e+000	 3.533309999982384e+000	 1.008172264286658e+001
0	 7.666649999985416e+000	 3.599979999983600e+000	 1.008223443679573e+001
0	 7.666649999985415e+000	 3.666649999985416e+000	 1.008269465245899e+001
0	 7.666649999985415e+000	 3.733319999987733e+000	 1.008310177203658e+001
0	 7.666649999985414e+000	 3.799989999990450e+000	 1.008345427770873e+001
0	 7.666649999985416e+000	 3.866659999993467e+000	 1.008375065165566e+001
0	 7.666649999985414e+000	 3.933329999996683e+000	 1.008398937605758e+001
0	 7.666649999985416e+000	 4.000000000000000e+000	 1.008416893309470e+001
0	 7.733319999987730e+000	 3.333299999983333e+000	 1.007409306208073e+001
0	 7.733319999987732e+000	 3.399969999982150e+000	 1.007482608965324e+001
0	 7.733319999987733e+000	 3.466639999981866e+000	 1.007551034460101e+001
0	 7.733319999987733e+000	 3.533309999982383e+000	 1.007614413296194e+001
0	 7.733319999987733e+000	 3.599979999983600e+000	 1.007672576077398e+001
0	 7.733319999987732e+000	 3.666649999985416e+000	 1.007725353407506e+001
0	 7.733319999987731e+000	 3.733319999987732e+000	 1.007772575890311e+001
0	 7.733319999987733e+000	 3.799989999990450e+000	 1.007814074129606e+001
0	 7.733319999987732e+000	 3.866659999993466e+000	 1.007849678729185e+001
0	 7.733319999987731e+000	 3.933329999996684e+000	 1.007879220292840e+001
0	 7.733319999987732e+000	 4.000000000000000e+000	 1.007902529424364e+001
0	 7.799989999990447e+000	 3.333299999983334e+000	 1.006834366000025e+001
0	 7.799989999990449e+000	 3.399969999982150e+000	 1.006915362877222e+001
0	 7.799989999990445e+000	 3.466639999981866e+000	 1.006991199723645e+001
0	 7.799989999990447e+000	 3.533309999982383e+000	 1.007061707710894e+001
0	 7.799989999990448e+000	 3.599979999983600e+000	 1.007126718010571e+001
0	 7.799989999990450e+000	 3.666649999985417e+000	 1.007186061794273e+001
0	 7.799989999990446e+000	 3.733319999987732e+000	 1.007239570233602e+001
0	 7.799989999990448e+000	 3.799989999990450e+000	 1.007287074500156e+001
0	 7.799989999990447e+000	 3.866659999993467e+000	 1.007328405765536e+001
0	 7.799989999990448e+000	 3.933329999996683e+000	 1.007363395201339e+001
0	 7.799989999990450e+000	 4.000000000000001e+000	 1.007391873979166e+001
0	 7.866659999993463e+000	 3.333299999983334e+000	 1.006264226158309e+001
0	 7.866659999993464e+000	 3.399969999982150e+000	 1.006352868525235e+001
0	 7.866659999993463e+000	 3.466639999981866e+000	 1.006436003398245e+001
0	 7.866659999993463e+000	 3.533309999982383e+000	 1.006513480698782e+001
0	 7.866659999993462e+000	 3.599979999983600e+000	 1.006585150348286e+001
0	 7.866659999993464e+000	 3.666649999985417e+000	 1.006650862268200e+001
0	 7.866659999993464e+000	 3.733319999987732e+000	 1.006710466379966e+001
0	 7.866659999993464e+000	 3.799989999990450e+000	 1.006763812605023e+001
0	 7.866659999993463e+000	 3.866659999993466e+000	 1.006810750864816e+001
0	 7.866659999993465e+000	 3.933329999996684e+000	 1.006851131080783e+001
0	 7.866659999993466e+000	 4.000000000000001e+000	 1.006884803174367e+001
0	 7.933329999996682e+000	 3.333299999983334e+000	 1.005698636497220e+001
0	 7.933329999996682e+000	 3.399969999982150e+000	 1.005794693549937e+001
0	 7.933329999996681e+000	 3.466639999981867e+000	 1.005884874242383e+001
0	 7.933329999996682e+000	 3.533309999982382e+000	 1.005969065427875e+001
0	 7.933329999996681e+000	 3.599979999983600e+000	 1.006047153959736e+001
0	 7.933329999996682e+000	 3.666649999985416e+000	 1.006119026691282e+001
0	 7.933329999996682e+000	 3.733319999987733e+000	 1.006184570475833e+001
0	 7.933329999996682e+000	 3.799989999990450e+000	 1.006243672166708e+001
0	 7.933329999996682e+000	 3.866659999993467e+000	 1.006296218617225e+001
0	 7.933329999996682e+000	 3.933329999996684e+000	 1.006342096680703e+001
0	 7.933329999996681e+000	 4.000000000000000e+000	 1.006381193210460e+001
0	 7.999999999999999e+000	 3.333299999983334e+000	 1.005137346831049e+001
0	 8.000000000000000e+000	 3.399969999982150e+000	 1.005240405591897e+001
0	 8.000000000000002e+000	 3.466639999981866e+000	 1.005337241014536e+001
0	 8.000000000000000e+000	 3.533309999982383e+000	 1.005427795066198e+001
0	 8.000000000000000e+000	 3.599979999983600e+000	 1.005512009714114e+001
0	 7.999999999999999e+000	 3.666649999985416e+000	 1.005589826925518e+001
0	 7.999999999999999e+000	 3.733319999987733e+000	 1.005661188667639e+001
0	 8.000000000000000e+000	 3.799989999990450e+000	 1.005726036907710e+001
0	 7.999999999999999e+000	 3.866659999993467e+000	 1.005784313612962e+001
0	 8.000000000000000e+000	 3.933329999996683e+000	 1.005835960750627e+001
0	 8.000000000000000e+000	 4.000000000000001e+000	 1.005880920287934e+001
0	 7.333299999983335e+000	 4.000000000000001e+000	 1.011048672316418e+001
0	 7.333299999983335e+000	 4.066670000003317e+000	 1.011023882265379e+001
0	 7.333299999983334e+000	 4.133340000006534e+000	 1.010992151516082e+001
0	 7.333299999983335e+000	 4.200010000009550e+000	 1.010953224241750e+001
0	 7.333299999983333e+000	 4.266680000012268e+000	 1.010906844615605e+001
0	 7.333299999983333e+000	 4.333350000014583e+000	 1.010852756810868e+001
0	 7.333299999983334e+000	 4.400020000016402e+000	 1.010790705000762e+001
0	 7.333299999983334e+000	 4.466690000017617e+000	 1.010720433358510e+001
0	 7.333299999983334e+000	 4.533360000018134e+000	 1.010641686057332e+001
0	 7.333299999983334e+000	 4.600030000017849e+000	 1.010554207270451e+001
0	 7.333299999983333e+000	 4.666700000016665e+000	 1.010457741171089e+001
0	 7.399969999982151e+000	 4.000000000000001e+000	 1.010513909239145e+001
0	 7.399969999982151e+000	 4.066670000003318e+000	 1.010498269322487e+001
0	 7.399969999982150e+000	 4.133340000006534e+000	 1.010475208589819e+001
0	 7.399969999982151e+000	 4.200010000009550e+000	 1.010444563904207e+001
0	 7.399969999982151e+000	 4.266680000012267e+000	 1.010406172128715e+001
0	 7.399969999982149e+000	 4.333350000014584e+000	 1.010359870126405e+001
0	 7.399969999982148e+000	 4.400020000016401e+000	 1.010305494760344e+001
0	 7.399969999982149e+000	 4.466690000017616e+000	 1.010242882893593e+001
0	 7.399969999982149e+000	 4.533360000018132e+000	 1.010171871389217e+001
0	 7.399969999982148e+000	 4.600030000017850e+000	 1.010092297110279e+001
0	 7.399969999982151e+000	 4.666700000016666e+000	 1.010003996919843e+001
0	 7.466639999981866e+000	 4.000000000000000e+000	 1.009983473599321e+001
0	 7.466639999981867e+000	 4.066670000003319e+000	 1.009975809463676e+001
0	 7.466639999981867e+000	 4.133340000006534e+000	 1.009960495042388e+001
0	 7.466639999981865e+000	 4.200010000009550e+000	 1.009937445511192e+001
0	 7.466639999981864e+000	 4.266680000012267e+000	 1.009906576045827e+001
0	 7.466639999981867e+000	 4.333350000014584e+000	 1.009867801822031e+001
0	 7.466639999981866e+000	 4.400020000016403e+000	 1.009821038015539e+001
0	 7.466639999981864e+000	 4.466690000017618e+000	 1.009766199802089e+001
0	 7.466639999981865e+000	 4.533360000018133e+000	 1.009703202357420e+001
0	 7.466639999981865e+000	 4.600030000017849e+000	 1.009631960857266e+001
0	 7.466639999981866e+000	 4.666700000016666e+000	 1.009552390477364e+001
0	 7.533309999982381e+000	 4.000000000000000e+000	 1.009457241597441e+001
0	 7.533309999982384e+000	 4.066670000003318e+000	 1.009456590069006e+001
0	 7.533309999982381e+000	 4.133340000006534e+000	 1.009448273598982e+001
0	 7.533309999982381e+000	 4.200010000009550e+000	 1.009432271298610e+001
0	 7.533309999982384e+000	 4.266680000012267e+000	 1.009408562279132e+001
0	 7.533309999982383e+000	 4.333350000014584e+000	 1.009377125651790e+001
0	 7.533309999982381e+000	 4.400020000016403e+000	 1.009337940527827e+001
0	 7.533309999982381e+000	 4.466690000017615e+000	 1.009290986018483e+001
0	 7.533309999982384e+000	 4.533360000018134e+000	 1.009236241235002e+001
0	 7.533309999982381e+000	 4.600030000017848e+000	 1.009173685288624e+001
0	 7.533309999982381e+000	 4.666700000016665e+000	 1.009103297290589e+001
0	 7.599979999983598e+000	 4.000000000000000e+000	 1.008935089433993e+001
0	 7.599979999983598e+000	 4.066670000003316e+000	 1.008940698518531e+001
0	 7.599979999983598e+000	 4.133340000006532e+000	 1.008938806984796e+001
0	 7.599979999983599e+000	 4.200010000009550e+000	 1.008929443502365e+001
0	 7.599979999983597e+000	 4.266680000012268e+000	 1.008912636740819e+001
0	 7.599979999983598e+000	 4.333350000014583e+000	 1.008888415369733e+001
0	 7.599979999983599e+000	 4.400020000016402e+000	 1.008856808058687e+001
0	 7.599979999983598e+000	 4.466690000017616e+000	 1.008817843477258e+001
0	 7.599979999983598e+000	 4.533360000018133e+000	 1.008771550295025e+001
0	 7.599979999983600e+000	 4.600030000017852e+000	 1.008717957181565e+001
0	 7.599979999983598e+000	 4.666700000016666e+000	 1.008657092806458e+001
0	 7.666649999985416e+000	 4.000000000000000e+000	 1.008416893309470e+001
0	 7.666649999985415e+000	 4.066670000003317e+000	 1.008428222192308e+001
0	 7.666649999985415e+000	 4.133340000006534e+000	 1.008432357925024e+001
0	 7.666649999985417e+000	 4.200010000009551e+000	 1.008429364358364e+001
0	 7.666649999985416e+000	 4.266680000012268e+000	 1.008419305343075e+001
0	 7.666649999985415e+000	 4.333350000014582e+000	 1.008402244729904e+001
0	 7.666649999985417e+000	 4.400020000016401e+000	 1.008378246369596e+001
0	 7.666649999985417e+000	 4.466690000017618e+000	 1.008347374112896e+001
0	 7.666649999985414e+000	 4.533360000018133e+000	 1.008309691810551e+001
0	 7.666649999985416e+000	 4.600030000017850e+000	 1.008265263313305e+001
0	 7.666649999985415e+000	 4.666700000016665e+000	 1.008214152471906e+001
0	 7.733319999987732e+000	 4.000000000000000e+000	 1.007902529424364e+001
0	 7.733319999987733e+000	 4.066670000003318e+000	 1.007919248470392e+001
0	 7.733319999987733e+000	 4.133340000006535e+000	 1.007929189144858e+001
0	 7.733319999987731e+000	 4.200010000009550e+000	 1.007932436102510e+001
0	 7.733319999987732e+000	 4.266680000012267e+000	 1.007929073998093e+001
0	 7.733319999987731e+000	 4.333350000014582e+000	 1.007919187486353e+001
0	 7.733319999987731e+000	 4.400020000016401e+000	 1.007902861222033e+001
0	 7.733319999987733e+000	 4.466690000017618e+000	 1.007880179859881e+001
0	 7.733319999987733e+000	 4.533360000018136e+000	 1.007851228054641e+001
0	 7.733319999987732e+000	 4.600030000017851e+000	 1.007816090461056e+001
0	 7.733319999987733e+000	 4.666700000016667e+000	 1.007774851733873e+001
0	 7.799989999990450e+000	 4.000000000000001e+000	 1.007391873979166e+001
0	 7.799989999990448e+000	 4.066670000003316e+000	 1.007413864732837e+001
0	 7.799989999990448e+000	 4.133340000006534e+000	 1.007429563369493e+001
0	 7.799989999990448e+000	 4.200010000009551e+000	 1.007439060970708e+001
0	 7.799989999990448e+000	 4.266680000012268e+000	 1.007442448618060e+001
0	 7.799989999990449e+000	 4.333350000014583e+000	 1.007439817393126e+001
0	 7.799989999990447e+000	 4.400020000016400e+000	 1.007431258377479e+001
0	 7.799989999990448e+000	 4.466690000017618e+000	 1.007416862652698e+001
0	 7.799989999990446e+000	 4.533360000018133e+000	 1.007396721300356e+001
0	 7.799989999990449e+000	 4.600030000017850e+000	 1.007370925402031e+001
0	 7.799989999990448e+000	 4.666700000016666e+000	 1.007339566039298e+001
0	 7.866659999993466e+000	 4.000000000000001e+000	 1.006884803174367e+001
0	 7.866659999993463e+000	 4.066670000003317e+000	 1.006912158359703e+001
0	 7.866659999993464e+000	 4.133340000006534e+000	 1.006933743324123e+001
0	 7.866659999993464e+000	 4.200010000009551e+000	 1.006949641198863e+001
0	 7.866659999993466e+000	 4.266680000012268e+000	 1.006959935115166e+001
0	 7.866659999993464e+000	 4.333350000014585e+000	 1.006964708204269e+001
0	 7.866659999993465e+000	 4.400020000016402e+000	 1.006964043597409e+001
0	 7.866659999993463e+000	 4.466690000017616e+000	 1.006958024425827e+001
0	 7.866659999993464e+000	 4.533360000018132e+000	 1.006946733820758e+001
0	 7.866659999993463e+000	 4.600030000017849e+000	 1.006930254913442e+001
0	 7.866659999993464e+000	 4.666700000016665e+000	 1.006908670835117e+001
0	 7.933329999996681e+000	 4.000000000000000e+000	 1.006381193210460e+001
0	 7.933329999996682e+000	 4.066670000003316e+000	 1.006414216731042e+001
0	 7.933329999996681e+000	 4.133340000006535e+000	 1.006441991733937e+001
0	 7.933329999996682e+000	 4.200010000009550e+000	 1.006464579022880e+001
0	 7.933329999996682e+000	 4.266680000012268e+000	 1.006482039401599e+001
0	 7.933329999996682e+000	 4.333350000014584e+000	 1.006494433673830e+001
0	 7.933329999996682e+000	 4.400020000016402e+000	 1.006501822643304e+001
0	 7.933329999996681e+000	 4.466690000017618e+000	 1.006504267113753e+001
0	 7.933329999996680e+000	 4.533360000018133e+000	 1.006501827888908e+001
0	 7.933329999996682e+000	 4.600030000017851e+000	 1.006494565772502e+001
0	 7.933329999996681e+000	 4.666700000016665e+000	 1.006482541568269e+001
0	 8.000000000000000e+000	 4.000000000000001e+000	 1.005880920287934e+001
0	 7.999999999999999e+000	 4.066670000003318e+000	 1.005920127226911e+001
0	 8.000000000000000e+000	 4.133340000006534e+000	 1.005954571324135e+001
0	 7.999999999999998e+000	 4.200010000009550e+000	 1.005984276678661e+001
0	 8.000000000000000e+000	 4.266680000012268e+000	 1.006009267389550e+001
0	 7.999999999999998e+000	 4.333350000014583e+000	 1.006029567555857e+001
0	 8.000000000000000e+000	 4.400020000016401e+000	 1.006045201276641e+001
0	 8.000000000000000e+000	 4.466690000017618e+000	 1.006056192650959e+001
0	 8.000000000000000e+000	 4.533360000018135e+000	 1.006062565777868e+001
0	 8.000000000000000e+000	 4.600030000017850e+000	 1.006064344756426e+001
0	 7.999999999999998e+000	 4.666700000016665e+000	 1.006061553685689e+001
0	 7.333299999983333e+000	 4.666700000016665e+000	 1.010457741171090e+001
0	 7.333299999983334e+000	 4.733360000014534e+000	 1.010355104778821e+001
0	 7.333299999983334e+000	 4.800020000011600e+000	 1.010249189407055e+001
0	 7.333299999983334e+000	 4.866680000008068e+000	 1.010139896137754e+001
0	 7.333299999983335e+000	 4.933340000004134e+000	 1.010027126052873e+001
0	 7.333299999983335e+000	 4.999999999999999e+000	 1.009910780234374e+001
0	 7.333299999983336e+000	 5.066659999995867e+000	 1.009790759764218e+001
0	 7.333299999983335e+000	 5.133319999991935e+000	 1.009666965724363e+001
0	 7.333299999983335e+000	 5.199979999988400e+000	 1.009539299196771e+001
0	 7.333299999983333e+000	 5.266639999985469e+000	 1.009407661263403e+001
0	 7.333299999983334e+000	 5.333299999983333e+000	 1.009271953006216e+001
0	 7.399969999982151e+000	 4.666700000016666e+000	 1.010003996919843e+001
0	 7.399969999982150e+000	 4.733360000014534e+000	 1.009909874273301e+001
0	 7.399969999982147e+000	 4.800020000011599e+000	 1.009812815465640e+001
0	 7.399969999982149e+000	 4.866680000008066e+000	 1.009712673340111e+001
0	 7.399969999982149e+000	 4.933340000004132e+000	 1.009609300739966e+001
0	 7.399969999982149e+000	 5.000000000000001e+000	 1.009502550508458e+001
0	 7.399969999982151e+000	 5.066659999995867e+000	 1.009392275488836e+001
0	 7.399969999982150e+000	 5.133319999991935e+000	 1.009278328524356e+001
0	 7.399969999982150e+000	 5.199979999988400e+000	 1.009160562458268e+001
0	 7.399969999982148e+000	 5.266639999985467e+000	 1.009038830133826e+001
0	 7.399969999982149e+000	 5.333299999983333e+000	 1.008912984394282e+001
0	 7.466639999981866e+000	 4.666700000016666e+000	 1.009552390477364e+001
0	 7.466639999981866e+000	 4.733360000014533e+000	 1.009467321087593e+001
0	 7.466639999981867e+000	 4.800020000011599e+000	 1.009379490117702e+001
0	 7.466639999981865e+000	 4.866680000008066e+000	 1.009288711774731e+001
0	 7.466639999981868e+000	 4.933340000004134e+000	 1.009194800265723e+001
0	 7.466639999981863e+000	 4.999999999999999e+000	 1.009097569797723e+001
0	 7.466639999981866e+000	 5.066659999995866e+000	 1.008996834577773e+001
0	 7.466639999981867e+000	 5.133319999991933e+000	 1.008892408812917e+001
0	 7.466639999981867e+000	 5.199979999988400e+000	 1.008784106710198e+001
0	 7.466639999981866e+000	 5.266639999985468e+000	 1.008671742476661e+001
0	 7.466639999981864e+000	 5.333299999983334e+000	 1.008555130319347e+001
0	 7.533309999982381e+000	 4.666700000016665e+000	 1.009103297290589e+001
0	 7.533309999982383e+000	 4.733360000014533e+000	 1.009027703134187e+001
0	 7.533309999982383e+000	 4.800020000011601e+000	 1.008949377128585e+001
0	 7.533309999982384e+000	 4.866680000008067e+000	 1.008868104447117e+001
0	 7.533309999982382e+000	 4.933340000004134e+000	 1.008783670263115e+001
0	 7.533309999982381e+000	 4.999999999999998e+000	 1.008695859749913e+001
0	 7.533309999982382e+000	 5.066659999995867e+000	 1.008604458080845e+001
0	 7.533309999982384e+000	 5.133319999991936e+000	 1.008509250429245e+001
0	 7.533309999982383e+000	 5.199979999988401e+000	 1.008410021968447e+001
0	 7.533309999982383e+000	 5.266639999985468e+000	 1.008306557871783e+001
0	 7.533309999982382e+000	 5.333299999983334e+000	 1.008198643312590e+001
0	 7.599979999983598e+000	 4.666700000016666e+000	 1.008657092806458e+001
0	 7.599979999983599e+000	 4.733360000014533e+000	 1.008591278325569e+001
0	 7.599979999983599e+000	 4.800020000011600e+000	 1.008522640263634e+001
0	 7.599979999983598e+000	 4.866680000008065e+000	 1.008450944362772e+001
0	 7.599979999983598e+000	 4.933340000004134e+000	 1.008375956365111e+001
0	 7.599979999983598e+000	 5.000000000000000e+000	 1.008297442012768e+001
0	 7.599979999983598e+000	 5.066659999995866e+000	 1.008215167047870e+001
0	 7.599979999983598e+000	 5.133319999991934e+000	 1.008128897212539e+001
0	 7.599979999983598e+000	 5.199979999988399e+000	 1.008038398248899e+001
0	 7.599979999983600e+000	 5.266639999985468e+000	 1.007943435899072e+001
0	 7.599979999983598e+000	 5.333299999983333e+000	 1.007843775905183e+001
0	 7.666649999985415e+000	 4.666700000016665e+000	 1.008214152471906e+001
0	 7.666649999985417e+000	 4.733360000014534e+000	 1.008158304574229e+001
0	 7.666649999985415e+000	 4.800020000011601e+000	 1.008099443288191e+001
0	 7.666649999985417e+000	 4.866680000008066e+000	 1.008037324527204e+001
0	 7.666649999985413e+000	 4.933340000004133e+000	 1.007971704204681e+001
0	 7.666649999985414e+000	 5.000000000000001e+000	 1.007902338234030e+001
0	 7.666649999985415e+000	 5.066659999995867e+000	 1.007828982528666e+001
0	 7.666649999985415e+000	 5.133319999991935e+000	 1.007751393001998e+001
0	 7.666649999985416e+000	 5.199979999988400e+000	 1.007669325567439e+001
0	 7.666649999985416e+000	 5.266639999985467e+000	 1.007582536138401e+001
0	 7.666649999985414e+000	 5.333299999983333e+000	 1.007490780628296e+001
0	 7.733319999987733e+000	 4.666700000016667e+000	 1.007774851733873e+001
0	 7.733319999987731e+000	 4.733360000014533e+000	 1.007729039792653e+001
0	 7.733319999987731e+000	 4.800020000011599e+000	 1.007679949967601e+001
0	 7.733319999987729e+000	 4.866680000008065e+000	 1.007627337945916e+001
0	 7.733319999987732e+000	 4.933340000004131e+000	 1.007570959414796e+001
0	 7.733319999987732e+000	 5.000000000000000e+000	 1.007510570061440e+001
0	 7.733319999987733e+000	 5.066659999995868e+000	 1.007445925573049e+001
0	 7.733319999987731e+000	 5.133319999991935e+000	 1.007376781636820e+001
0	 7.733319999987732e+000	 5.199979999988402e+000	 1.007302893939954e+001
0	 7.733319999987733e+000	 5.266639999985467e+000	 1.007224018169649e+001
0	 7.733319999987731e+000	 5.333299999983334e+000	 1.007139910013106e+001
0	 7.799989999990448e+000	 4.666700000016666e+000	 1.007339566039298e+001
0	 7.799989999990449e+000	 4.733360000014533e+000	 1.007303741893333e+001
0	 7.799989999990447e+000	 4.800020000011599e+000	 1.007264324067208e+001
0	 7.799989999990449e+000	 4.866680000008068e+000	 1.007221077624412e+001
0	 7.799989999990446e+000	 4.933340000004133e+000	 1.007173767628428e+001
0	 7.799989999990446e+000	 4.999999999999999e+000	 1.007122159142740e+001
0	 7.799989999990448e+000	 5.066659999995868e+000	 1.007066017230837e+001
0	 7.799989999990449e+000	 5.133319999991935e+000	 1.007005106956203e+001
0	 7.799989999990448e+000	 5.199979999988400e+000	 1.006939193382326e+001
0	 7.799989999990449e+000	 5.266639999985468e+000	 1.006868041572691e+001
0	 7.799989999990448e+000	 5.333299999983334e+000	 1.006791416590784e+001
0	 7.866659999993464e+000	 4.666700000016665e+000	 1.006908670835117e+001
0	 7.866659999993464e+000	 4.733360000014533e+000	 1.006882668788755e+001
0	 7.866659999993465e+000	 4.800020000011601e+000	 1.006852729352356e+001
0	 7.866659999993464e+000	 4.866680000008065e+000	 1.006818636568196e+001
0	 7.866659999993466e+000	 4.933340000004133e+000	 1.006780174478544e+001
0	 7.866659999993465e+000	 5.000000000000000e+000	 1.006737127125669e+001
0	 7.866659999993466e+000	 5.066659999995866e+000	 1.006689278551847e+001
0	 7.866659999993465e+000	 5.133319999991935e+000	 1.006636412799347e+001
0	 7.866659999993464e+000	 5.199979999988399e+000	 1.006578313910442e+001
0	 7.866659999993465e+000	 5.266639999985468e+000	 1.006514765927405e+001
0	 7.866659999993464e+000	 5.333299999983334e+000	 1.006445552892506e+001
0	 7.933329999996681e+000	 4.666700000016665e+000	 1.006482541568269e+001
0	 7.933329999996682e+000	 4.733360000014533e+000	 1.006466078391405e+001
0	 7.933329999996680e+000	 4.800020000011600e+000	 1.006445329588390e+001
0	 7.933329999996682e+000	 4.866680000008067e+000	 1.006420107782774e+001
0	 7.933329999996682e+000	 4.933340000004134e+000	 1.006390225598115e+001
0	 7.933329999996682e+000	 5.000000000000000e+000	 1.006355495657971e+001
0	 7.933329999996679e+000	 5.066659999995866e+000	 1.006315730585896e+001
0	 7.933329999996681e+000	 5.133319999991934e+000	 1.006270743005450e+001
0	 7.933329999996682e+000	 5.199979999988400e+000	 1.006220345540187e+001
0	 7.933329999996682e+000	 5.266639999985468e+000	 1.006164350813666e+001
0	 7.933329999996682e+000	 5.333299999983334e+000	 1.006102571449443e+001
0	 7.999999999999998e+000	 4.666700000016665e+000	 1.006061553685689e+001
0	 8.000000000000000e+000	 4.733360000014532e+000	 1.006054228613777e+001
0	 8.000000000000000e+000	 4.800020000011601e+000	 1.006042288540649e+001
0	 8.000000000000000e+000	 4.866680000008068e+000	 1.006025584273648e+001
0	 7.999999999999998e+000	 4.933340000004133e+000	 1.006003966620112e+001
0	 7.999999999999999e+000	 5.000000000000000e+000	 1.005977286387385e+001
0	 8.000000000000000e+000	 5.066659999995867e+000	 1.005945394382803e+001
0	 8.000000000000000e+000	 5.133319999991934e+000	 1.005908141413710e+001
0	 8.000000000000000e+000	 5.199979999988400e+000	 1.005865378287446e+001
0	 8.000000000000000e+000	 5.266639999985468e+000	 1.005816955811351e+001
0	 8.000000000000000e+000	 5.333299999983333e+000	 1.005762724792768e+001
0	 7.333299999983334e+000	 5.333299999983333e+000	 1.009271953006216e+001
0	 7.333299999983335e+000	 5.399969999982150e+000	 1.009133067232317e+001
0	 7.333299999983333e+000	 5.466639999981867e+000	 1.008991847020349e+001
0	 7.333299999983334e+000	 5.533309999982385e+000	 1.008848056854005e+001
0	 7.333299999983335e+000	 5.599979999983599e+000	 1.008701461216980e+001
0	 7.333299999983334e+000	 5.666649999985417e+000	 1.008551824592963e+001
0	 7.333299999983336e+000	 5.733319999987733e+000	 1.008398911465652e+001
0	 7.333299999983334e+000	 5.799989999990449e+000	 1.008242486318740e+001
0	 7.333299999983333e+000	 5.866659999993468e+000	 1.008082313635917e+001
0	 7.333299999983334e+000	 5.933329999996684e+000	 1.007918157900880e+001
0	 7.333299999983334e+000	 6.000000000000002e+000	 1.007749783597320e+001
0	 7.399969999982149e+000	 5.333299999983333e+000	 1.008912984394281e+001
0	 7.399969999982148e+000	 5.399969999982149e+000	 1.008783735384661e+001
0	 7.399969999982151e+000	 5.466639999981865e+000	 1.008651802400269e+001
0	 7.399969999982149e+000	 5.533309999982383e+000	 1.008516994425835e+001
0	 7.399969999982151e+000	 5.599979999983600e+000	 1.008379120446087e+001
0	 7.399969999982151e+000	 5.666649999985418e+000	 1.008237989445758e+001
0	 7.399969999982151e+000	 5.733319999987733e+000	 1.008093410409575e+001
0	 7.399969999982151e+000	 5.799989999990448e+000	 1.007945192322271e+001
0	 7.399969999982150e+000	 5.866659999993467e+000	 1.007793144168577e+001
0	 7.399969999982151e+000	 5.933329999996684e+000	 1.007637074933220e+001
0	 7.399969999982151e+000	 6.000000000000000e+000	 1.007476793600930e+001
0	 7.466639999981864e+000	 5.333299999983334e+000	 1.008555130319347e+001
0	 7.466639999981866e+000	 5.399969999982150e+000	 1.008434906925384e+001
0	 7.466639999981867e+000	 5.466639999981868e+000	 1.008311766373130e+001
0	 7.466639999981864e+000	 5.533309999982382e+000	 1.008185555492015e+001
0	 7.466639999981867e+000	 5.599979999983601e+000	 1.008056121111472e+001
0	 7.466639999981866e+000	 5.666649999985418e+000	 1.007923310060928e+001
0	 7.466639999981866e+000	 5.733319999987732e+000	 1.007786969169817e+001
0	 7.466639999981867e+000	 5.799989999990450e+000	 1.007646945267568e+001
0	 7.466639999981867e+000	 5.866659999993467e+000	 1.007503085183609e+001
0	 7.466639999981867e+000	 5.933329999996684e+000	 1.007355235747372e+001
0	 7.466639999981866e+000	 6.000000000000001e+000	 1.007203243788288e+001
0	 7.533309999982382e+000	 5.333299999983334e+000	 1.008198643312590e+001
0	 7.533309999982384e+000	 5.399969999982148e+000	 1.008086930885541e+001
0	 7.533309999982382e+000	 5.466639999981865e+000	 1.007972168148346e+001
0	 7.533309999982381e+000	 5.533309999982382e+000	 1.007854233118797e+001
0	 7.533309999982381e+000	 5.599979999983599e+000	 1.007733003814688e+001
0	 7.533309999982383e+000	 5.666649999985416e+000	 1.007608358253814e+001
0	 7.533309999982381e+000	 5.733319999987733e+000	 1.007480174453967e+001
0	 7.533309999982381e+000	 5.799989999990449e+000	 1.007348330432943e+001
0	 7.533309999982383e+000	 5.866659999993466e+000	 1.007212704208533e+001
0	 7.533309999982384e+000	 5.933329999996682e+000	 1.007073173798533e+001
0	 7.533309999982382e+000	 6.000000000000000e+000	 1.006929617220735e+001
0	 7.599979999983598e+000	 5.333299999983333e+000	 1.007843775905182e+001
0	 7.599979999983598e+000	 5.399969999982149e+000	 1.007740156296194e+001
0	 7.599979999983599e+000	 5.466639999981866e+000	 1.007633436935335e+001
0	 7.599979999983599e+000	 5.533309999982384e+000	 1.007523520372428e+001
0	 7.599979999983599e+000	 5.599979999983600e+000	 1.007410309157292e+001
0	 7.599979999983598e+000	 5.666649999985417e+000	 1.007293705839748e+001
0	 7.599979999983599e+000	 5.733319999987733e+000	 1.007173612969616e+001
0	 7.599979999983598e+000	 5.799989999990449e+000	 1.007049933096716e+001
0	 7.599979999983598e+000	 5.866659999993469e+000	 1.006922568770871e+001
0	 7.599979999983599e+000	 5.933329999996683e+000	 1.006791422541899e+001
0	 7.599979999983598e+000	 6.000000000000001e+000	 1.006656396959620e+001
0	 7.666649999985414e+000	 5.333299999983333e+000	 1.007490780628296e+001
0	 7.666649999985414e+000	 5.399969999982151e+000	 1.007394932188398e+001
0	 7.666649999985415e+000	 5.466639999981864e+000	 1.007296001943514e+001
0	 7.666649999985416e+000	 5.533309999982385e+000	 1.007193910319157e+001
0	 7.666649999985417e+000	 5.599979999983601e+000	 1.007088577740838e+001
0	 7.666649999985415e+000	 5.666649999985416e+000	 1.006979924634065e+001
0	 7.666649999985416e+000	 5.733319999987733e+000	 1.006867871424351e+001
0	 7.666649999985416e+000	 5.799989999990450e+000	 1.006752338537206e+001
0	 7.666649999985416e+000	 5.866659999993467e+000	 1.006633246398141e+001
0	 7.666649999985415e+000	 5.933329999996684e+000	 1.006510515432665e+001
0	 7.666649999985416e+000	 6.000000000000000e+000	 1.006384066066289e+001
0	 7.733319999987731e+000	 5.333299999983334e+000	 1.007139910013106e+001
0	 7.733319999987731e+000	 5.399969999982149e+000	 1.007051607593211e+001
0	 7.733319999987730e+000	 5.466639999981866e+000	 1.006960292382298e+001
0	 7.733319999987733e+000	 5.533309999982385e+000	 1.006865896025233e+001
0	 7.733319999987733e+000	 5.599979999983599e+000	 1.006768350166880e+001
0	 7.733319999987731e+000	 5.666649999985415e+000	 1.006667586452101e+001
0	 7.733319999987731e+000	 5.733319999987733e+000	 1.006563536525764e+001
0	 7.733319999987732e+000	 5.799989999990450e+000	 1.006456132032727e+001
0	 7.733319999987732e+000	 5.866659999993466e+000	 1.006345304617861e+001
0	 7.733319999987732e+000	 5.933329999996685e+000	 1.006230985926025e+001
0	 7.733319999987733e+000	 6.000000000000000e+000	 1.006113107602087e+001
0	 7.799989999990448e+000	 5.333299999983334e+000	 1.006791416590784e+001
0	 7.799989999990450e+000	 5.399969999982149e+000	 1.006710531541692e+001
0	 7.799989999990448e+000	 5.466639999981866e+000	 1.006626737461104e+001
0	 7.799989999990447e+000	 5.533309999982382e+000	 1.006539970556905e+001
0	 7.799989999990447e+000	 5.599979999983600e+000	 1.006450167036975e+001
0	 7.799989999990449e+000	 5.666649999985417e+000	 1.006357263109193e+001
0	 7.799989999990448e+000	 5.733319999987732e+000	 1.006261194981443e+001
0	 7.799989999990449e+000	 5.799989999990448e+000	 1.006161898861602e+001
0	 7.799989999990447e+000	 5.866659999993467e+000	 1.006059310957555e+001
0	 7.799989999990449e+000	 5.933329999996684e+000	 1.005953367477178e+001
0	 7.799989999990450e+000	 6.000000000000001e+000	 1.005844004628357e+001
0	 7.866659999993464e+000	 5.333299999983334e+000	 1.006445552892506e+001
0	 7.866659999993464e+000	 5.399969999982150e+000	 1.006372053064897e+001
0	 7.866659999993465e+000	 5.466639999981866e+000	 1.006295766389348e+001
0	 7.866659999993464e+000	 5.533309999982383e+000	 1.006216626980421e+001
0	 7.866659999993463e+000	 5.599979999983600e+000	 1.006134568952676e+001
0	 7.866659999993463e+000	 5.666649999985416e+000	 1.006049526420675e+001
0	 7.866659999993465e+000	 5.733319999987733e+000	 1.005961433498977e+001
0	 7.866659999993464e+000	 5.799989999990450e+000	 1.005870224302144e+001
0	 7.866659999993464e+000	 5.866659999993467e+000	 1.005775832944739e+001
0	 7.866659999993464e+000	 5.933329999996685e+000	 1.005678193541318e+001
0	 7.866659999993464e+000	 6.000000000000000e+000	 1.005577240206447e+001
0	 7.933329999996682e+000	 5.333299999983334e+000	 1.006102571449443e+001
0	 7.933329999996682e+000	 5.399969999982150e+000	 1.006036521193886e+001
0	 7.933329999996680e+000	 5.466639999981867e+000	 1.005967808376448e+001
0	 7.933329999996681e+000	 5.533309999982383e+000	 1.005896358362031e+001
0	 7.933329999996682e+000	 5.599979999983599e+000	 1.005822096515540e+001
0	 7.933329999996682e+000	 5.666649999985417e+000	 1.005744948201882e+001
0	 7.933329999996680e+000	 5.733319999987732e+000	 1.005664838785956e+001
0	 7.933329999996682e+000	 5.799989999990449e+000	 1.005581693632673e+001
0	 7.933329999996682e+000	 5.866659999993467e+000	 1.005495438106933e+001
0	 7.933329999996682e+000	 5.933329999996683e+000	 1.005405997573641e+001
0	 7.933329999996681e+000	 5.999999999999999e+000	 1.005313297397701e+001
0	 8.000000000000000e+000	 5.333299999983333e+000	 1.005762724792768e+001
0	 8.000000000000000e+000	 5.399969999982149e+000	 1.005704284959716e+001
0	 8.000000000000000e+000	 5.466639999981868e+000	 1.005643292631816e+001
0	 8.000000000000000e+000	 5.533309999982382e+000	 1.005579657767981e+001
0	 8.000000000000000e+000	 5.599979999983600e+000	 1.005513290327122e+001
0	 8.000000000000000e+000	 5.666649999985416e+000	 1.005444100268148e+001
0	 7.999999999999999e+000	 5.733319999987732e+000	 1.005371997549973e+001
0	 8.000000000000000e+000	 5.799989999990449e+000	 1.005296892131506e+001
0	 7.999999999999998e+000	 5.866659999993466e+000	 1.005218693971658e+001
0	 8.000000000000000e+000	 5.933329999996682e+000	 1.005137313029342e+001
0	 8.000000000000000e+000	 6.000000000000001e+000	 1.005052659263467e+001
0	 7.333299999983334e+000	 6.000000000000002e+000	 1.007749783597320e+001
0	 7.333299999983334e+000	 6.066670000003316e+000	 1.007579318754373e+001
0	 7.333299999983332e+000	 6.133340000006531e+000	 1.007408945814982e+001
0	 7.333299999983334e+000	 6.200010000009550e+000	 1.007238510883548e+001
0	 7.333299999983334e+000	 6.266680000012268e+000	 1.007067860064473e+001
0	 7.333299999983335e+000	 6.333350000014586e+000	 1.006896839462159e+001
0	 7.333299999983336e+000	 6.400020000016400e+000	 1.006725295181010e+001
0	 7.333299999983333e+000	 6.466690000017615e+000	 1.006553073325427e+001
0	 7.333299999983334e+000	 6.533360000018135e+000	 1.006380019999810e+001
0	 7.333299999983335e+000	 6.600030000017851e+000	 1.006205981308564e+001
0	 7.333299999983333e+000	 6.666700000016665e+000	 1.006030803356087e+001
0	 7.399969999982151e+000	 6.000000000000000e+000	 1.007476793600930e+001
0	 7.399969999982151e+000	 6.066670000003316e+000	 1.007314438293401e+001
0	 7.399969999982148e+000	 6.133340000006533e+000	 1.007152161010162e+001
0	 7.399969999982151e+000	 6.200010000009551e+000	 1.006989791552705e+001
0	 7.399969999982151e+000	 6.266680000012269e+000	 1.006827159722521e+001
0	 7.399969999982151e+000	 6.333350000014585e+000	 1.006664095321099e+001
0	 7.399969999982150e+000	 6.400020000016400e+000	 1.006500428149930e+001
0	 7.399969999982149e+000	 6.466690000017618e+000	 1.006335988010504e+001
0	 7.399969999982149e+000	 6.533360000018133e+000	 1.006170604704313e+001
0	 7.399969999982149e+000	 6.600030000017851e+000	 1.006004108032846e+001
0	 7.399969999982152e+000	 6.666700000016668e+000	 1.005836327797595e+001
0	 7.466639999981866e+000	 6.000000000000001e+000	 1.007203243788288e+001
0	 7.466639999981865e+000	 6.066670000003317e+000	 1.007049193794333e+001
0	 7.466639999981867e+000	 6.133340000006534e+000	 1.006895150663197e+001
0	 7.466639999981867e+000	 6.200010000009551e+000	 1.006740931838868e+001
0	 7.466639999981864e+000	 6.266680000012266e+000	 1.006586354765341e+001
0	 7.466639999981867e+000	 6.333350000014584e+000	 1.006431236886602e+001
0	 7.466639999981866e+000	 6.400020000016401e+000	 1.006275395646643e+001
0	 7.466639999981867e+000	 6.466690000017618e+000	 1.006118648489455e+001
0	 7.466639999981866e+000	 6.533360000018133e+000	 1.005960812859030e+001
0	 7.466639999981867e+000	 6.600030000017850e+000	 1.005801706199357e+001
0	 7.466639999981867e+000	 6.666700000016668e+000	 1.005641145954427e+001
0	 7.533309999982382e+000	 6.000000000000000e+000	 1.006929617220735e+001
0	 7.533309999982384e+000	 6.066670000003317e+000	 1.006784013844913e+001
0	 7.533309999982382e+000	 6.133340000006532e+000	 1.006638297050243e+001
0	 7.533309999982381e+000	 6.200010000009550e+000	 1.006492275868629e+001
0	 7.533309999982384e+000	 6.266680000012268e+000	 1.006345759331975e+001
0	 7.533309999982381e+000	 6.333350000014584e+000	 1.006198556472183e+001
0	 7.533309999982381e+000	 6.400020000016402e+000	 1.006050476321155e+001
0	 7.533309999982381e+000	 6.466690000017616e+000	 1.005901327910796e+001
0	 7.533309999982383e+000	 6.533360000018137e+000	 1.005750920273006e+001
0	 7.533309999982382e+000	 6.600030000017848e+000	 1.005599062439690e+001
0	 7.533309999982381e+000	 6.666700000016665e+000	 1.005445563442748e+001
0	 7.599979999983598e+000	 6.000000000000001e+000	 1.006656396959620e+001
0	 7.599979999983598e+000	 6.066670000003317e+000	 1.006519327032880e+001
0	 7.599979999983597e+000	 6.133340000006532e+000	 1.006381982447457e+001
0	 7.599979999983599e+000	 6.200010000009550e+000	 1.006244167768579e+001
0	 7.599979999983598e+000	 6.266680000012266e+000	 1.006105687561471e+001
0	 7.599979999983599e+000	 6.333350000014585e+000	 1.005966346391363e+001
0	 7.599979999983599e+000	 6.400020000016399e+000	 1.005825948823477e+001
0	 7.599979999983599e+000	 6.466690000017617e+000	 1.005684299423045e+001
0	 7.599979999983598e+000	 6.533360000018133e+000	 1.005541202755288e+001
0	 7.599979999983601e+000	 6.600030000017851e+000	 1.005396463385437e+001
0	 7.599979999983599e+000	 6.666700000016667e+000	 1.005249885878716e+001
0	 7.666649999985416e+000	 6.000000000000000e+000	 1.006384066066289e+001
0	 7.666649999985414e+000	 6.066670000003318e+000	 1.006255561945978e+001
0	 7.666649999985415e+000	 6.133340000006533e+000	 1.006126589130996e+001
0	 7.666649999985415e+000	 6.200010000009550e+000	 1.005996951665308e+001
0	 7.666649999985415e+000	 6.266680000012267e+000	 1.005866453592874e+001
0	 7.666649999985416e+000	 6.333350000014584e+000	 1.005734898957654e+001
0	 7.666649999985417e+000	 6.400020000016401e+000	 1.005602091803616e+001
0	 7.666649999985417e+000	 6.466690000017619e+000	 1.005467836174719e+001
0	 7.666649999985417e+000	 6.533360000018135e+000	 1.005331936114923e+001
0	 7.666649999985414e+000	 6.600030000017851e+000	 1.005194195668196e+001
0	 7.666649999985416e+000	 6.666700000016666e+000	 1.005054418878497e+001
0	 7.733319999987733e+000	 6.000000000000000e+000	 1.006113107602087e+001
0	 7.733319999987733e+000	 6.066670000003317e+000	 1.005993147171948e+001
0	 7.733319999987733e+000	 6.133340000006533e+000	 1.005872499377019e+001
0	 7.733319999987732e+000	 6.200010000009552e+000	 1.005750971685407e+001
0	 7.733319999987732e+000	 6.266680000012268e+000	 1.005628371565224e+001
0	 7.733319999987732e+000	 6.333350000014586e+000	 1.005504506484577e+001
0	 7.733319999987733e+000	 6.400020000016401e+000	 1.005379183911578e+001
0	 7.733319999987733e+000	 6.466690000017619e+000	 1.005252211314336e+001
0	 7.733319999987731e+000	 6.533360000018133e+000	 1.005123396160960e+001
0	 7.733319999987731e+000	 6.600030000017849e+000	 1.004992545919562e+001
0	 7.733319999987732e+000	 6.666700000016666e+000	 1.004859468058249e+001
0	 7.799989999990450e+000	 6.000000000000001e+000	 1.005844004628357e+001
0	 7.799989999990448e+000	 6.066670000003319e+000	 1.005732511298534e+001
0	 7.799989999990447e+000	 6.133340000006533e+000	 1.005620095461682e+001
0	 7.799989999990450e+000	 6.200010000009552e+000	 1.005506571955470e+001
0	 7.799989999990449e+000	 6.266680000012268e+000	 1.005391755617569e+001
0	 7.799989999990449e+000	 6.333350000014584e+000	 1.005275461285648e+001
0	 7.799989999990448e+000	 6.400020000016402e+000	 1.005157503797371e+001
0	 7.799989999990448e+000	 6.466690000017616e+000	 1.005037697990415e+001
0	 7.799989999990449e+000	 6.533360000018136e+000	 1.004915858702444e+001
0	 7.799989999990449e+000	 6.600030000017850e+000	 1.004791800771127e+001
0	 7.799989999990447e+000	 6.666700000016665e+000	 1.004665339034135e+001
0	 7.866659999993464e+000	 6.000000000000000e+000	 1.005577240206447e+001
0	 7.866659999993465e+000	 6.066670000003317e+000	 1.005474082913474e+001
0	 7.866659999993463e+000	 6.133340000006531e+000	 1.005369759661141e+001
0	 7.866659999993464e+000	 6.200010000009551e+000	 1.005264096602087e+001
0	 7.866659999993466e+000	 6.266680000012268e+000	 1.005156919888954e+001
0	 7.866659999993464e+000	 6.333350000014584e+000	 1.005048055674380e+001
0	 7.866659999993464e+000	 6.400020000016402e+000	 1.004937330111006e+001
0	 7.866659999993465e+000	 6.466690000017617e+000	 1.004824569351472e+001
0	 7.866659999993464e+000	 6.533360000018133e+000	 1.004709599548419e+001
0	 7.866659999993463e+000	 6.600030000017848e+000	 1.004592246854488e+001
0	 7.866659999993463e+000	 6.666700000016666e+000	 1.004472337422317e+001
0	 7.933329999996681e+000	 5.999999999999999e+000	 1.005313297397701e+001
0	 7.933329999996682e+000	 6.066670000003318e+000	 1.005218290604514e+001
0	 7.933329999996681e+000	 6.133340000006533e+000	 1.005121874251555e+001
0	 7.933329999996682e+000	 6.200010000009551e+000	 1.005023889751851e+001
0	 7.933329999996681e+000	 6.266680000012267e+000	 1.004924178518422e+001
0	 7.933329999996682e+000	 6.333350000014584e+000	 1.004822581964293e+001
0	 7.933329999996681e+000	 6.400020000016401e+000	 1.004718941502487e+001
0	 7.933329999996681e+000	 6.466690000017616e+000	 1.004613098546027e+001
0	 7.933329999996681e+000	 6.533360000018135e+000	 1.004504894507937e+001
0	 7.933329999996682e+000	 6.600030000017850e+000	 1.004394170801238e+001
0	 7.933329999996682e+000	 6.666700000016667e+000	 1.004280768838955e+001
0	 8.000000000000000e+000	 6.000000000000001e+000	 1.005052659263467e+001
0	 8.000000000000002e+000	 6.066670000003317e+000	 1.004965562959392e+001
0	 7.999999999999999e+000	 6.133340000006534e+000	 1.004876821509079e+001
0	 7.999999999999999e+000	 6.200010000009551e+000	 1.004786295531350e+001
0	 7.999999999999997e+000	 6.266680000012266e+000	 1.004693845645018e+001
0	 7.999999999999999e+000	 6.333350000014583e+000	 1.004599332468903e+001
0	 8.000000000000000e+000	 6.400020000016401e+000	 1.004502616621824e+001
0	 8.000000000000000e+000	 6.466690000017617e+000	 1.004403558722597e+001
0	 8.000000000000000e+000	 6.533360000018136e+000	 1.004302019390040e+001
0	 7.999999999999998e+000	 6.600030000017848e+000	 1.004197859242973e+001
0	 8.000000000000000e+000	 6.666700000016668e+000	 1.004090938900212e+001
0	 7.333299999983333e+000	 6.666700000016665e+000	 1.006030803356087e+001
0	 7.333299999983335e+000	 6.733360000014533e+000	 1.005855608838630e+001
0	 7.333299999983334e+000	 6.800020000011600e+000	 1.005681453549703e+001
0	 7.333299999983332e+000	 6.866680000008064e+000	 1.005508162345149e+001
0	 7.333299999983334e+000	 6.933340000004134e+000	 1.005335560080813e+001
0	 7.333299999983332e+000	 6.999999999999998e+000	 1.005163471612537e+001
0	 7.333299999983334e+000	 7.066659999995866e+000	 1.004991721796166e+001
0	 7.333299999983333e+000	 7.133319999991934e+000	 1.004820135487542e+001
0	 7.333299999983334e+000	 7.199979999988401e+000	 1.004648537542509e+001
0	 7.333299999983335e+000	 7.266639999985467e+000	 1.004476752816911e+001
0	 7.333299999983336e+000	 7.333299999983336e+000	 1.004304606166591e+001
0	 7.399969999982152e+000	 6.666700000016668e+000	 1.005836327797595e+001
0	 7.399969999982149e+000	 6.733360000014531e+000	 1.005668343298582e+001
0	 7.399969999982147e+000	 6.800020000011596e+000	 1.005501190268568e+001
0	 7.399969999982151e+000	 6.866680000008066e+000	 1.005334708969800e+001
0	 7.399969999982150e+000	 6.933340000004133e+000	 1.005168739664526e+001
0	 7.399969999982149e+000	 6.999999999999999e+000	 1.005003122614989e+001
0	 7.399969999982151e+000	 7.066659999995867e+000	 1.004837698083434e+001
0	 7.399969999982149e+000	 7.133319999991933e+000	 1.004672306332110e+001
0	 7.399969999982150e+000	 7.199979999988400e+000	 1.004506787623260e+001
0	 7.399969999982149e+000	 7.266639999985467e+000	 1.004340982219131e+001
0	 7.399969999982149e+000	 7.333299999983334e+000	 1.004174730381967e+001
0	 7.466639999981867e+000	 6.666700000016668e+000	 1.005641145954427e+001
0	 7.466639999981863e+000	 6.733360000014532e+000	 1.005480200650383e+001
0	 7.466639999981866e+000	 6.800020000011599e+000	 1.005319914486802e+001
0	 7.466639999981866e+000	 6.866680000008068e+000	 1.005160141020746e+001
0	 7.466639999981868e+000	 6.933340000004134e+000	 1.005000733809282e+001
0	 7.466639999981863e+000	 6.999999999999998e+000	 1.004841546409473e+001
0	 7.466639999981865e+000	 7.066659999995866e+000	 1.004682432378382e+001
0	 7.466639999981865e+000	 7.133319999991935e+000	 1.004523245273074e+001
0	 7.466639999981868e+000	 7.199979999988401e+000	 1.004363838650615e+001
0	 7.466639999981866e+000	 7.266639999985468e+000	 1.004204066068064e+001
0	 7.466639999981864e+000	 7.333299999983332e+000	 1.004043781082491e+001
0	 7.533309999982381e+000	 6.666700000016665e+000	 1.005445563442748e+001
0	 7.533309999982382e+000	 6.733360000014530e+000	 1.005291507261435e+001
0	 7.533309999982383e+000	 6.800020000011599e+000	 1.005137968701280e+001
0	 7.533309999982383e+000	 6.866680000008068e+000	 1.004984812502583e+001
0	 7.533309999982382e+000	 6.933340000004133e+000	 1.004831903405639e+001
0	 7.533309999982384e+000	 7.000000000000001e+000	 1.004679106150749e+001
0	 7.533309999982381e+000	 7.066659999995867e+000	 1.004526285478211e+001
0	 7.533309999982384e+000	 7.133319999991936e+000	 1.004373306128324e+001
0	 7.533309999982383e+000	 7.199979999988400e+000	 1.004220032841386e+001
0	 7.533309999982384e+000	 7.266639999985466e+000	 1.004066330357695e+001
0	 7.533309999982382e+000	 7.333299999983334e+000	 1.003912063417550e+001
0	 7.599979999983599e+000	 6.666700000016667e+000	 1.005249885878717e+001
0	 7.599979999983599e+000	 6.733360000014532e+000	 1.005102589499136e+001
0	 7.599979999983599e+000	 6.800020000011599e+000	 1.004955695408883e+001
0	 7.599979999983598e+000	 6.866680000008066e+000	 1.004809077419906e+001
0	 7.599979999983598e+000	 6.933340000004133e+000	 1.004662609344156e+001
0	 7.599979999983597e+000	 6.999999999999998e+000	 1.004516164993578e+001
0	 7.599979999983598e+000	 7.066659999995864e+000	 1.004369618180125e+001
0	 7.599979999983599e+000	 7.133319999991936e+000	 1.004222842715745e+001
0	 7.599979999983599e+000	 7.199979999988399e+000	 1.004075712412387e+001
0	 7.599979999983599e+000	 7.266639999985468e+000	 1.003928101082000e+001
0	 7.599979999983598e+000	 7.333299999983333e+000	 1.003779882536533e+001
0	 7.666649999985416e+000	 6.666700000016666e+000	 1.005054418878498e+001
0	 7.666649999985415e+000	 6.733360000014532e+000	 1.004913773730886e+001
0	 7.666649999985415e+000	 6.800020000011600e+000	 1.004773437106486e+001
0	 7.666649999985414e+000	 6.866680000008066e+000	 1.004633289777315e+001
0	 7.666649999985412e+000	 6.933340000004129e+000	 1.004493212515387e+001
0	 7.666649999985414e+000	 6.999999999999999e+000	 1.004353086092720e+001
0	 7.666649999985414e+000	 7.066659999995866e+000	 1.004212791281327e+001
0	 7.666649999985417e+000	 7.133319999991936e+000	 1.004072208853226e+001
0	 7.666649999985416e+000	 7.199979999988400e+000	 1.003931219580432e+001
0	 7.666649999985416e+000	 7.266639999985468e+000	 1.003789704234960e+001
0	 7.666649999985414e+000	 7.333299999983332e+000	 1.003647543588828e+001
0	 7.733319999987732e+000	 6.666700000016666e+000	 1.004859468058250e+001
0	 7.733319999987732e+000	 6.733360000014532e+000	 1.004725386324081e+001
0	 7.733319999987731e+000	 6.800020000011599e+000	 1.004591536290967e+001
0	 7.733319999987731e+000	 6.866680000008067e+000	 1.004457803579405e+001
0	 7.733319999987733e+000	 6.933340000004134e+000	 1.004324073809894e+001
0	 7.733319999987732e+000	 7.000000000000000e+000	 1.004190232602933e+001
0	 7.733319999987733e+000	 7.066659999995867e+000	 1.004056165579019e+001
0	 7.733319999987730e+000	 7.133319999991934e+000	 1.003921758358654e+001
0	 7.733319999987730e+000	 7.199979999988400e+000	 1.003786896562333e+001
0	 7.733319999987732e+000	 7.266639999985467e+000	 1.003651465810555e+001
0	 7.733319999987732e+000	 7.333299999983334e+000	 1.003515351723822e+001
0	 7.799989999990447e+000	 6.666700000016665e+000	 1.004665339034135e+001
0	 7.799989999990448e+000	 6.733360000014533e+000	 1.004537753646122e+001
0	 7.799989999990447e+000	 6.800020000011601e+000	 1.004410335459202e+001
0	 7.799989999990448e+000	 6.866680000008068e+000	 1.004282972830774e+001
0	 7.799989999990447e+000	 6.933340000004134e+000	 1.004155554118232e+001
0	 7.799989999990448e+000	 7.000000000000000e+000	 1.004027967678978e+001
0	 7.799989999990447e+000	 7.066659999995868e+000	 1.003900101870406e+001
0	 7.799989999990448e+000	 7.133319999991935e+000	 1.003771845049915e+001
0	 7.799989999990447e+000	 7.199979999988400e+000	 1.003643085574903e+001
0	 7.799989999990449e+000	 7.266639999985467e+000	 1.003513711802767e+001
0	 7.799989999990448e+000	 7.333299999983335e+000	 1.003383612090905e+001
0	 7.866659999993463e+000	 6.666700000016666e+000	 1.004472337422317e+001
0	 7.866659999993466e+000	 6.733360000014533e+000	 1.004351202064408e+001
0	 7.866659999993466e+000	 6.800020000011601e+000	 1.004230177108070e+001
0	 7.866659999993463e+000	 6.866680000008066e+000	 1.004109151536017e+001
0	 7.866659999993465e+000	 6.933340000004134e+000	 1.003988014330961e+001
0	 7.866659999993464e+000	 6.999999999999999e+000	 1.003866654475615e+001
0	 7.866659999993464e+000	 7.066659999995867e+000	 1.003744960952690e+001
0	 7.866659999993463e+000	 7.133319999991933e+000	 1.003622822744901e+001
0	 7.866659999993464e+000	 7.199979999988400e+000	 1.003500128834958e+001
0	 7.866659999993463e+000	 7.266639999985466e+000	 1.003376768205575e+001
0	 7.866659999993464e+000	 7.333299999983334e+000	 1.003252629839463e+001
0	 7.933329999996682e+000	 6.666700000016667e+000	 1.004280768838955e+001
0	 7.933329999996681e+000	 6.733360000014533e+000	 1.004166057946336e+001
0	 7.933329999996680e+000	 6.800020000011600e+000	 1.004051403734448e+001
0	 7.933329999996682e+000	 6.866680000008068e+000	 1.003936693699734e+001
0	 7.933329999996681e+000	 6.933340000004133e+000	 1.003821815338638e+001
0	 7.933329999996682e+000	 7.000000000000000e+000	 1.003706656147604e+001
0	 7.933329999996681e+000	 7.066659999995865e+000	 1.003591103623074e+001
0	 7.933329999996682e+000	 7.133319999991935e+000	 1.003475045261494e+001
0	 7.933329999996681e+000	 7.199979999988401e+000	 1.003358368559307e+001
0	 7.933329999996681e+000	 7.266639999985467e+000	 1.003240961012957e+001
0	 7.933329999996682e+000	 7.333299999983334e+000	 1.003122710118887e+001
0	 8.000000000000000e+000	 6.666700000016668e+000	 1.004090938900212e+001
0	 7.999999999999999e+000	 6.733360000014532e+000	 1.003982647659306e+001
0	 8.000000000000000e+000	 6.800020000011601e+000	 1.003874357835212e+001
0	 7.999999999999999e+000	 6.866680000008068e+000	 1.003765953326520e+001
0	 8.000000000000000e+000	 6.933340000004133e+000	 1.003657318031819e+001
0	 8.000000000000000e+000	 7.000000000000000e+000	 1.003548335849702e+001
0	 7.999999999999999e+000	 7.066659999995867e+000	 1.003438890678761e+001
0	 8.000000000000000e+000	 7.133319999991934e+000	 1.003328866417586e+001
0	 8.000000000000000e+000	 7.199979999988400e+000	 1.003218146964766e+001
0	 8.000000000000000e+000	 7.266639999985467e+000	 1.003106616218894e+001
0	 8.000000000000000e+000	 7.333299999983335e+000	 1.002994158078563e+001
0	 7.333299999983336e+000	 7.333299999983336e+000	 1.004304606166591e+001
0	 7.333299999983333e+000	 7.399969999982150e+000	 1.004133551345608e+001
0	 7.333299999983334e+000	 7.466639999981866e+000	 1.003965095240925e+001
0	 7.333299999983335e+000	 7.533309999982384e+000	 1.003799064826280e+001
0	 7.333299999983334e+000	 7.599979999983599e+000	 1.003635287075414e+001
0	 7.333299999983335e+000	 7.666649999985417e+000	 1.003473588962066e+001
0	 7.333299999983335e+000	 7.733319999987733e+000	 1.003313797459974e+001
0	 7.333299999983334e+000	 7.799989999990448e+000	 1.003155739542880e+001
0	 7.333299999983332e+000	 7.866659999993465e+000	 1.002999242184523e+001
0	 7.333299999983333e+000	 7.933329999996682e+000	 1.002844132358643e+001
0	 7.333299999983335e+000	 8.000000000000000e+000	 1.002690237038980e+001
0	 7.399969999982149e+000	 7.333299999983334e+000	 1.004174730381967e+001
0	 7.399969999982149e+000	 7.399969999982149e+000	 1.004009478015759e+001
0	 7.399969999982149e+000	 7.466639999981866e+000	 1.003846710967339e+001
0	 7.399969999982149e+000	 7.533309999982385e+000	 1.003686254467992e+001
0	 7.399969999982151e+000	 7.599979999983598e+000	 1.003527933749004e+001
0	 7.399969999982151e+000	 7.666649999985417e+000	 1.003371574041658e+001
0	 7.399969999982150e+000	 7.733319999987732e+000	 1.003217000577238e+001
0	 7.399969999982150e+000	 7.799989999990451e+000	 1.003064038587029e+001
0	 7.399969999982150e+000	 7.866659999993467e+000	 1.002912513302317e+001
0	 7.399969999982151e+000	 7.933329999996683e+000	 1.002762249954385e+001
0	 7.399969999982150e+000	 8.000000000000000e+000	 1.002613073774519e+001
0	 7.466639999981864e+000	 7.333299999983332e+000	 1.004043781082491e+001
0	 7.466639999981866e+000	 7.399969999982149e+000	 1.003884405296633e+001
0	 7.466639999981866e+000	 7.466639999981866e+000	 1.003727389224886e+001
0	 7.466639999981864e+000	 7.533309999982383e+000	 1.003572557519066e+001
0	 7.466639999981866e+000	 7.599979999983601e+000	 1.003419734830986e+001
0	 7.466639999981867e+000	 7.666649999985418e+000	 1.003268745812463e+001
0	 7.466639999981866e+000	 7.733319999987733e+000	 1.003119415115313e+001
0	 7.466639999981867e+000	 7.799989999990451e+000	 1.002971567391351e+001
0	 7.466639999981867e+000	 7.866659999993466e+000	 1.002825027292393e+001
0	 7.466639999981868e+000	 7.933329999996684e+000	 1.002679619470253e+001
0	 7.466639999981866e+000	 8.000000000000000e+000	 1.002535168576748e+001
0	 7.533309999982382e+000	 7.333299999983334e+000	 1.003912063417550e+001
0	 7.533309999982382e+000	 7.399969999982148e+000	 1.003758616162011e+001
0	 7.533309999982383e+000	 7.466639999981866e+000	 1.003607392778407e+001
0	 7.533309999982382e+000	 7.533309999982384e+000	 1.003458218502072e+001
0	 7.533309999982381e+000	 7.599979999983600e+000	 1.003310918568338e+001
0	 7.533309999982382e+000	 7.666649999985416e+000	 1.003165318212536e+001
0	 7.533309999982383e+000	 7.733319999987733e+000	 1.003021242670002e+001
0	 7.533309999982382e+000	 7.799989999990448e+000	 1.002878517176065e+001
0	 7.533309999982383e+000	 7.866659999993468e+000	 1.002736966966060e+001
0	 7.533309999982383e+000	 7.933329999996684e+000	 1.002596417275317e+001
0	 7.533309999982381e+000	 8.000000000000000e+000	 1.002456693339172e+001
0	 7.599979999983598e+000	 7.333299999983333e+000	 1.003779882536533e+001
0	 7.599979999983599e+000	 7.399969999982149e+000	 1.003632393585670e+001
0	 7.599979999983599e+000	 7.466639999981867e+000	 1.003486984392744e+001
0	 7.599979999983599e+000	 7.533309999982382e+000	 1.003343481939588e+001
0	 7.599979999983599e+000	 7.599979999983599e+000	 1.003201713208040e+001
0	 7.599979999983598e+000	 7.666649999985414e+000	 1.003061505179934e+001
0	 7.599979999983599e+000	 7.733319999987732e+000	 1.002922684837107e+001
0	 7.599979999983597e+000	 7.799989999990448e+000	 1.002785079161395e+001
0	 7.599979999983597e+000	 7.866659999993466e+000	 1.002648515134631e+001
0	 7.599979999983599e+000	 7.933329999996683e+000	 1.002512819738654e+001
0	 7.599979999983599e+000	 8.000000000000002e+000	 1.002377819955298e+001
0	 7.666649999985414e+000	 7.333299999983332e+000	 1.003647543588828e+001
0	 7.666649999985414e+000	 7.399969999982150e+000	 1.003506020541392e+001
0	 7.666649999985416e+000	 7.466639999981868e+000	 1.003366426832736e+001
0	 7.666649999985416e+000	 7.533309999982385e+000	 1.003228592354189e+001
0	 7.666649999985416e+000	 7.599979999983599e+000	 1.003092346997071e+001
0	 7.666649999985414e+000	 7.666649999985416e+000	 1.002957520652710e+001
0	 7.666649999985415e+000	 7.733319999987731e+000	 1.002823943212432e+001
0	 7.666649999985415e+000	 7.799989999990449e+000	 1.002691444567560e+001
0	 7.666649999985415e+000	 7.866659999993464e+000	 1.002559854609420e+001
0	 7.666649999985415e+000	 7.933329999996682e+000	 1.002429003229338e+001
0	 7.666649999985416e+000	 8.000000000000000e+000	 1.002298720318636e+001
0	 7.733319999987732e+000	 7.333299999983334e+000	 1.003515351723822e+001
0	 7.733319999987732e+000	 7.399969999982149e+000	 1.003379780002951e+001
0	 7.733319999987731e+000	 7.466639999981865e+000	 1.003245982863226e+001
0	 7.733319999987733e+000	 7.533309999982383e+000	 1.003113794268446e+001
0	 7.733319999987733e+000	 7.599979999983600e+000	 1.002983048182409e+001
0	 7.733319999987731e+000	 7.666649999985416e+000	 1.002853578568922e+001
0	 7.733319999987733e+000	 7.733319999987733e+000	 1.002725219391780e+001
0	 7.733319999987732e+000	 7.799989999990451e+000	 1.002597804614786e+001
0	 7.733319999987731e+000	 7.866659999993465e+000	 1.002471168201738e+001
0	 7.733319999987732e+000	 7.933329999996683e+000	 1.002345144116440e+001
0	 7.733319999987733e+000	 8.000000000000000e+000	 1.002219566322690e+001
0	 7.799989999990448e+000	 7.333299999983335e+000	 1.003383612090904e+001
0	 7.799989999990448e+000	 7.399969999982151e+000	 1.003253954944130e+001
0	 7.799989999990449e+000	 7.466639999981866e+000	 1.003125915249053e+001
0	 7.799989999990447e+000	 7.533309999982383e+000	 1.002999332204935e+001
0	 7.799989999990448e+000	 7.599979999983599e+000	 1.002874045011037e+001
0	 7.799989999990450e+000	 7.666649999985416e+000	 1.002749892866622e+001
0	 7.799989999990449e+000	 7.733319999987733e+000	 1.002626714970953e+001
0	 7.799989999990450e+000	 7.799989999990451e+000	 1.002504350523291e+001
0	 7.799989999990447e+000	 7.866659999993467e+000	 1.002382638722897e+001
0	 7.799989999990449e+000	 7.933329999996683e+000	 1.002261418769037e+001
0	 7.799989999990449e+000	 8.000000000000000e+000	 1.002140529860970e+001
0	 7.866659999993464e+000	 7.333299999983334e+000	 1.003252629839463e+001
0	 7.866659999993463e+000	 7.399969999982149e+000	 1.003128828338707e+001
0	 7.866659999993464e+000	 7.466639999981867e+000	 1.003006486755059e+001
0	 7.866659999993465e+000	 7.533309999982383e+000	 1.002885450686229e+001
0	 7.866659999993463e+000	 7.599979999983600e+000	 1.002765565729930e+001
0	 7.866659999993464e+000	 7.666649999985419e+000	 1.002646677483867e+001
0	 7.866659999993466e+000	 7.733319999987733e+000	 1.002528631545754e+001
0	 7.866659999993465e+000	 7.799989999990449e+000	 1.002411273513299e+001
0	 7.866659999993465e+000	 7.866659999993468e+000	 1.002294448984211e+001
0	 7.866659999993465e+000	 7.933329999996684e+000	 1.002178003556201e+001
0	 7.866659999993464e+000	 8.000000000000000e+000	 1.002061782826980e+001
0	 7.933329999996682e+000	 7.333299999983334e+000	 1.003122710118887e+001
0	 7.933329999996682e+000	 7.399969999982150e+000	 1.003004683160459e+001
0	 7.933329999996682e+000	 7.466639999981866e+000	 1.002887960146084e+001
0	 7.933329999996681e+000	 7.533309999982383e+000	 1.002772394234907e+001
0	 7.933329999996681e+000	 7.599979999983600e+000	 1.002657838586069e+001
0	 7.933329999996682e+000	 7.666649999985416e+000	 1.002544146358715e+001
0	 7.933329999996682e+000	 7.733319999987733e+000	 1.002431170711987e+001
0	 7.933329999996682e+000	 7.799989999990450e+000	 1.002318764805032e+001
0	 7.933329999996681e+000	 7.866659999993467e+000	 1.002206781796990e+001
0	 7.933329999996682e+000	 7.933329999996685e+000	 1.002095074847008e+001
0	 7.933329999996680e+000	 8.000000000000000e+000	 1.001983497114226e+001
0	 8.000000000000000e+000	 7.333299999983335e+000	 1.002994158078563e+001
0	 8.000000000000000e+000	 7.399969999982151e+000	 1.002881802383166e+001
0	 8.000000000000000e+000	 7.466639999981867e+000	 1.002770598186970e+001
0	 8.000000000000000e+000	 7.533309999982385e+000	 1.002660407373537e+001
0	 8.000000000000000e+000	 7.599979999983599e+000	 1.002551091826432e+001
0	 7.999999999999999e+000	 7.666649999985416e+000	 1.002442513429216e+001
0	 7.999999999999999e+000	 7.733319999987732e+000	 1.002334534065455e+001
0	 7.999999999999999e+000	 7.799989999990448e+000	 1.002227015618711e+001
0	 7.999999999999998e+000	 7.866659999993465e+000	 1.002119819972547e+001
0	 8.000000000000000e+000	 7.933329999996684e+000	 1.002012809010529e+001
0	 7.999999999999999e+000	 7.999999999999999e+000	 1.001905844616221e+001
0	 7.333299999983335e+000	 8.000000000000000e+000	 1.002690237038980e+001
0	 7.333299999983335e+000	 8.066670000003317e+000	 1.002538915106990e+001
0	 7.333299999983332e+000	 8.133340000006532e+000	 1.002391505603497e+001
0	 7.333299999983334e+000	 8.200010000009550e+000	 1.002247805741287e+001
0	 7.333299999983334e+000	 8.266680000012268e+000	 1.002107612733152e+001
0	 7.333299999983335e+000	 8.333350000014585e+000	 1.001970723791875e+001
0	 7.333299999983333e+000	 8.400020000016399e+000	 1.001836936130247e+001
0	 7.333299999983334e+000	 8.466690000017620e+000	 1.001706046961057e+001
0	 7.333299999983332e+000	 8.533360000018135e+000	 1.001577853497090e+001
0	 7.333299999983335e+000	 8.600030000017853e+000	 1.001452152951139e+001
0	 7.333299999983334e+000	 8.666700000016665e+000	 1.001328742535989e+001
0	 7.399969999982150e+000	 8.000000000000000e+000	 1.002613073774519e+001
0	 7.399969999982151e+000	 8.066670000003315e+000	 1.002466334187494e+001
0	 7.399969999982150e+000	 8.133340000006532e+000	 1.002323365788209e+001
0	 7.399969999982151e+000	 8.200010000009549e+000	 1.002183971563126e+001
0	 7.399969999982152e+000	 8.266680000012268e+000	 1.002047954498713e+001
0	 7.399969999982150e+000	 8.333350000014583e+000	 1.001915117581437e+001
0	 7.399969999982150e+000	 8.400020000016399e+000	 1.001785263797763e+001
0	 7.399969999982149e+000	 8.466690000017612e+000	 1.001658196134156e+001
0	 7.399969999982150e+000	 8.533360000018133e+000	 1.001533717577084e+001
0	 7.399969999982149e+000	 8.600030000017851e+000	 1.001411631113010e+001
0	 7.399969999982150e+000	 8.666700000016668e+000	 1.001291739728402e+001
0	 7.466639999981866e+000	 8.000000000000000e+000	 1.002535168576748e+001
0	 7.466639999981865e+000	 8.066670000003317e+000	 1.002393017972812e+001
0	 7.466639999981867e+000	 8.133340000006532e+000	 1.002254500245862e+001
0	 7.466639999981867e+000	 8.200010000009552e+000	 1.002119423887434e+001
0	 7.466639999981864e+000	 8.266680000012267e+000	 1.001987597389067e+001
0	 7.466639999981866e+000	 8.333350000014583e+000	 1.001858829242290e+001
0	 7.466639999981867e+000	 8.400020000016401e+000	 1.001732927938644e+001
0	 7.466639999981865e+000	 8.466690000017618e+000	 1.001609701969666e+001
0	 7.466639999981866e+000	 8.533360000018135e+000	 1.001488959826891e+001
0	 7.466639999981865e+000	 8.600030000017849e+000	 1.001370510001854e+001
0	 7.466639999981866e+000	 8.666700000016668e+000	 1.001254160986094e+001
0	 7.533309999982381e+000	 8.000000000000000e+000	 1.002456693339172e+001
0	 7.533309999982383e+000	 8.066670000003311e+000	 1.002319134815227e+001
0	 7.533309999982381e+000	 8.133340000006529e+000	 1.002185073689533e+001
0	 7.533309999982382e+000	 8.200010000009550e+000	 1.002054323690088e+001
0	 7.533309999982383e+000	 8.266680000012267e+000	 1.001926698544894e+001
0	 7.533309999982383e+000	 8.333350000014583e+000	 1.001802011981946e+001
0	 7.533309999982381e+000	 8.400020000016401e+000	 1.001680077729247e+001
0	 7.533309999982381e+000	 8.466690000017614e+000	 1.001560709514796e+001
0	 7.533309999982384e+000	 8.533360000018137e+000	 1.001443721066592e+001
0	 7.533309999982381e+000	 8.600030000017851e+000	 1.001328926112635e+001
0	 7.533309999982382e+000	 8.666700000016668e+000	 1.001216138380924e+001
0	 7.599979999983599e+000	 8.000000000000002e+000	 1.002377819955298e+001
0	 7.599979999983598e+000	 8.066670000003315e+000	 1.002244853067020e+001
0	 7.599979999983598e+000	 8.133340000006532e+000	 1.002115250832289e+001
0	 7.599979999983599e+000	 8.200010000009552e+000	 1.001988831946959e+001
0	 7.599979999983597e+000	 8.266680000012265e+000	 1.001865415106885e+001
0	 7.599979999983600e+000	 8.333350000014585e+000	 1.001744819007923e+001
0	 7.599979999983599e+000	 8.400020000016401e+000	 1.001626862345930e+001
0	 7.599979999983598e+000	 8.466690000017614e+000	 1.001511363816758e+001
0	 7.599979999983598e+000	 8.533360000018133e+000	 1.001398142116267e+001
0	 7.599979999983599e+000	 8.600030000017849e+000	 1.001287015940308e+001
0	 7.599979999983598e+000	 8.666700000016666e+000	 1.001177803984743e+001
0	 7.666649999985416e+000	 8.000000000000000e+000	 1.002298720318636e+001
0	 7.666649999985414e+000	 8.066670000003315e+000	 1.002170341080476e+001
0	 7.666649999985416e+000	 8.133340000006538e+000	 1.002045196387203e+001
0	 7.666649999985417e+000	 8.200010000009550e+000	 1.001923109633918e+001
0	 7.666649999985415e+000	 8.266680000012270e+000	 1.001803904215728e+001
0	 7.666649999985416e+000	 8.333350000014583e+000	 1.001687403527735e+001
0	 7.666649999985417e+000	 8.400020000016403e+000	 1.001573430965048e+001
0	 7.666649999985417e+000	 8.466690000017618e+000	 1.001461809922765e+001
0	 7.666649999985415e+000	 8.533360000018135e+000	 1.001352363795995e+001
0	 7.666649999985415e+000	 8.600030000017851e+000	 1.001244915979839e+001
0	 7.666649999985416e+000	 8.666700000016666e+000	 1.001139289869406e+001
0	 7.733319999987733e+000	 8.000000000000000e+000	 1.002219566322690e+001
0	 7.733319999987732e+000	 8.066670000003317e+000	 1.002095767207875e+001
0	 7.733319999987733e+000	 8.133340000006534e+000	 1.001975075067343e+001
0	 7.733319999987732e+000	 8.200010000009552e+000	 1.001857317726840e+001
0	 7.733319999987731e+000	 8.266680000012267e+000	 1.001742323012110e+001
0	 7.733319999987732e+000	 8.333350000014585e+000	 1.001629918748903e+001
0	 7.733319999987732e+000	 8.400020000016399e+000	 1.001519932762960e+001
0	 7.733319999987732e+000	 8.466690000017616e+000	 1.001412192880030e+001
0	 7.733319999987731e+000	 8.533360000018131e+000	 1.001306526925857e+001
0	 7.733319999987731e+000	 8.600030000017851e+000	 1.001202762726188e+001
0	 7.733319999987731e+000	 8.666700000016666e+000	 1.001100728106769e+001
0	 7.799989999990449e+000	 8.000000000000000e+000	 1.002140529860970e+001
0	 7.799989999990448e+000	 8.066670000003317e+000	 1.002021299801502e+001
0	 7.799989999990447e+000	 8.133340000006534e+000	 1.001905051585784e+001
0	 7.799989999990449e+000	 8.200010000009554e+000	 1.001791617201596e+001
0	 7.799989999990448e+000	 8.266680000012267e+000	 1.001680828636721e+001
0	 7.799989999990448e+000	 8.333350000014583e+000	 1.001572517878936e+001
0	 7.799989999990448e+000	 8.400020000016403e+000	 1.001466516916024e+001
0	 7.799989999990447e+000	 8.466690000017618e+000	 1.001362657735762e+001
0	 7.799989999990449e+000	 8.533360000018135e+000	 1.001260772325932e+001
0	 7.799989999990450e+000	 8.600030000017851e+000	 1.001160692674315e+001
0	 7.799989999990448e+000	 8.666700000016668e+000	 1.001062250768690e+001
0	 7.866659999993464e+000	 8.000000000000000e+000	 1.002061782826980e+001
0	 7.866659999993463e+000	 8.066670000003315e+000	 1.001947107213637e+001
0	 7.866659999993464e+000	 8.133340000006532e+000	 1.001835290655595e+001
0	 7.866659999993466e+000	 8.200010000009550e+000	 1.001726169034062e+001
0	 7.866659999993466e+000	 8.266680000012268e+000	 1.001619578230246e+001
0	 7.866659999993464e+000	 8.333350000014585e+000	 1.001515354125356e+001
0	 7.866659999993465e+000	 8.400020000016401e+000	 1.001413332600596e+001
0	 7.866659999993463e+000	 8.466690000017618e+000	 1.001313349537176e+001
0	 7.866659999993466e+000	 8.533360000018133e+000	 1.001215240816300e+001
0	 7.866659999993464e+000	 8.600030000017851e+000	 1.001118842319178e+001
0	 7.866659999993464e+000	 8.666700000016666e+000	 1.001023989927018e+001
0	 7.933329999996680e+000	 8.000000000000000e+000	 1.001983497114226e+001
0	 7.933329999996682e+000	 8.066670000003317e+000	 1.001873357796560e+001
0	 7.933329999996682e+000	 8.133340000006534e+000	 1.001765956989846e+001
0	 7.933329999996682e+000	 8.200010000009552e+000	 1.001661134200109e+001
0	 7.933329999996682e+000	 8.266680000012268e+000	 1.001558728933376e+001
0	 7.933329999996681e+000	 8.333350000014583e+000	 1.001458580695676e+001
0	 7.933329999996680e+000	 8.400020000016399e+000	 1.001360528993035e+001
0	 7.933329999996681e+000	 8.466690000017616e+000	 1.001264413331481e+001
0	 7.933329999996680e+000	 8.533360000018133e+000	 1.001170073217043e+001
0	 7.933329999996681e+000	 8.600030000017849e+000	 1.001077348155744e+001
0	 7.933329999996682e+000	 8.666700000016668e+000	 1.000986077653617e+001
0	 7.999999999999999e+000	 7.999999999999999e+000	 1.001905844616221e+001
0	 7.999999999999998e+000	 8.066670000003319e+000	 1.001800219902562e+001
0	 8.000000000000000e+000	 8.133340000006534e+000	 1.001697215301610e+001
0	 7.999999999999999e+000	 8.200010000009550e+000	 1.001596673675609e+001
0	 7.999999999999999e+000	 8.266680000012268e+000	 1.001498437886796e+001
0	 8.000000000000000e+000	 8.333350000014585e+000	 1.001402350797413e+001
0	 7.999999999999998e+000	 8.400020000016397e+000	 1.001308255269697e+001
0	 8.000000000000000e+000	 8.466690000017618e+000	 1.001215994165893e+001
0	 7.999999999999998e+000	 8.533360000018131e+000	 1.001125410348236e+001
0	 8.000000000000000e+000	 8.600030000017851e+000	 1.001036346678970e+001
0	 8.000000000000000e+000	 8.666700000016666e+000	 1.000948646020334e+001
0	 7.333299999983334e+000	 8.666700000016665e+000	 1.001328742535988e+001
0	 7.333299999983335e+000	 8.733360002791903e+000	 1.001209451345305e+001
0	 7.333299999983333e+000	 8.800020022230555e+000	 1.001096036057385e+001
0	 7.333299999983335e+000	 8.866680074997040e+000	 1.000988240296668e+001
0	 7.333299999983334e+000	 8.933340177755779e+000	 1.000885807671081e+001
0	 7.333299999983333e+000	 9.000000347171179e+000	 1.000788481772044e+001
0	 7.333299999983335e+000	 9.066660599907667e+000	 1.000696006174463e+001
0	 7.333299999983334e+000	 9.133320952629655e+000	 1.000608124436745e+001
0	 7.333299999983333e+000	 9.199981422001558e+000	 1.000524580100780e+001
0	 7.333299999983333e+000	 9.266642024687794e+000	 1.000445116691952e+001
0	 7.333299999983334e+000	 9.333302777352781e+000	 1.000369477719134e+001
0	 7.399969999982150e+000	 8.666700000016668e+000	 1.001291739728402e+001
0	 7.399969999982152e+000	 8.733360002791905e+000	 1.001175834656388e+001
0	 7.399969999982151e+000	 8.800020022230557e+000	 1.001065636442811e+001
0	 7.399969999982150e+000	 8.866680074997044e+000	 1.000960895515289e+001
0	 7.399969999982151e+000	 8.933340177755779e+000	 1.000861362285397e+001
0	 7.399969999982149e+000	 9.000000347171181e+000	 1.000766787148668e+001
0	 7.399969999982152e+000	 9.066660599907667e+000	 1.000676920484594e+001
0	 7.399969999982149e+000	 9.133320952629655e+000	 1.000591512656622e+001
0	 7.399969999982152e+000	 9.199981422001560e+000	 1.000510314012158e+001
0	 7.399969999982149e+000	 9.266642024687798e+000	 1.000433074882567e+001
0	 7.399969999982149e+000	 9.333302777352783e+000	 1.000359545583170e+001
0	 7.466639999981866e+000	 8.666700000016668e+000	 1.001254160986094e+001
0	 7.466639999981866e+000	 8.733360002791901e+000	 1.001141665130498e+001
0	 7.466639999981867e+000	 8.800020022230555e+000	 1.001034706044883e+001
0	 7.466639999981867e+000	 8.866680074997042e+000	 1.000933041008023e+001
0	 7.466639999981868e+000	 8.933340177755783e+000	 1.000836427283111e+001
0	 7.466639999981867e+000	 9.000000347171183e+000	 1.000744622117769e+001
0	 7.466639999981866e+000	 9.066660599907666e+000	 1.000657382744048e+001
0	 7.466639999981865e+000	 9.133320952629653e+000	 1.000574466378425e+001
0	 7.466639999981867e+000	 9.199981422001560e+000	 1.000495630221803e+001
0	 7.466639999981866e+000	 9.266642024687799e+000	 1.000420631459514e+001
0	 7.466639999981866e+000	 9.333302777352785e+000	 1.000349227261312e+001
0	 7.533309999982382e+000	 8.666700000016668e+000	 1.001216138380924e+001
0	 7.533309999982383e+000	 8.733360002791901e+000	 1.001107070476208e+001
0	 7.533309999982384e+000	 8.800020022230555e+000	 1.001003368425194e+001
0	 7.533309999982383e+000	 8.866680074997040e+000	 1.000904796405775e+001
0	 7.533309999982381e+000	 8.933340177755778e+000	 1.000811118580742e+001
0	 7.533309999982383e+000	 9.000000347171184e+000	 1.000722099097785e+001
0	 7.533309999982382e+000	 9.066660599907669e+000	 1.000637502089491e+001
0	 7.533309999982384e+000	 9.133320952629660e+000	 1.000557091673352e+001
0	 7.533309999982383e+000	 9.199981422001558e+000	 1.000480631951753e+001
0	 7.533309999982383e+000	 9.266642024687794e+000	 1.000407887011977e+001
0	 7.533309999982382e+000	 9.333302777352783e+000	 1.000338620926212e+001
0	 7.599979999983598e+000	 8.666700000016666e+000	 1.001177803984743e+001
0	 7.599979999983599e+000	 8.733360002791901e+000	 1.001072178402091e+001
0	 7.599979999983599e+000	 8.800020022230555e+000	 1.000971747145329e+001
0	 7.599979999983599e+000	 8.866680074997040e+000	 1.000876281339446e+001
0	 7.599979999983599e+000	 8.933340177755781e+000	 1.000785552094807e+001
0	 7.599979999983598e+000	 9.000000347171183e+000	 1.000699330507152e+001
0	 7.599979999983599e+000	 9.066660599907667e+000	 1.000617387657586e+001
0	 7.599979999983598e+000	 9.133320952629656e+000	 1.000539494612598e+001
0	 7.599979999983598e+000	 9.199981422001558e+000	 1.000465422424041e+001
0	 7.599979999983599e+000	 9.266642024687798e+000	 1.000394942129144e+001
0	 7.599979999983600e+000	 9.333302777352783e+000	 1.000327824750512e+001
0	 7.666649999985416e+000	 8.666700000016666e+000	 1.001139289869406e+001
0	 7.666649999985416e+000	 8.733360002791903e+000	 1.001037116616725e+001
0	 7.666649999985416e+000	 8.800020022230557e+000	 1.000939965766879e+001
0	 7.666649999985414e+000	 8.866680074997042e+000	 1.000847615439939e+001
0	 7.666649999985414e+000	 8.933340177755778e+000	 1.000759843741826e+001
0	 7.666649999985416e+000	 9.000000347171184e+000	 1.000676428764306e+001
0	 7.666649999985416e+000	 9.066660599907667e+000	 1.000597148584993e+001
0	 7.666649999985417e+000	 9.133320952629656e+000	 1.000521781267356e+001
0	 7.666649999985415e+000	 9.199981422001560e+000	 1.000450104860704e+001
0	 7.666649999985415e+000	 9.266642024687796e+000	 1.000381897400201e+001
0	 7.666649999985414e+000	 9.333302777352781e+000	 1.000316936906858e+001
0	 7.733319999987731e+000	 8.666700000016666e+000	 1.001100728106769e+001
0	 7.733319999987732e+000	 8.733360002791903e+000	 1.001002012828676e+001
0	 7.733319999987732e+000	 8.800020022230553e+000	 1.000908147851430e+001
0	 7.733319999987728e+000	 8.866680074997039e+000	 1.000818918338158e+001
0	 7.733319999987732e+000	 8.933340177755776e+000	 1.000734109438315e+001
0	 7.733319999987731e+000	 9.000000347171181e+000	 1.000653506287686e+001
0	 7.733319999987733e+000	 9.066660599907671e+000	 1.000576894008377e+001
0	 7.733319999987730e+000	 9.133320952629655e+000	 1.000504057708819e+001
0	 7.733319999987730e+000	 9.199981422001558e+000	 1.000434782483776e+001
0	 7.733319999987730e+000	 9.266642024687796e+000	 1.000368853414331e+001
0	 7.733319999987732e+000	 9.333302777352783e+000	 1.000306055567894e+001
0	 7.799989999990448e+000	 8.666700000016668e+000	 1.001062250768690e+001
0	 7.799989999990449e+000	 8.733360002791901e+000	 1.000966994746525e+001
0	 7.799989999990448e+000	 8.800020022230555e+000	 1.000876416960572e+001
0	 7.799989999990448e+000	 8.866680074997042e+000	 1.000790309665003e+001
0	 7.799989999990448e+000	 8.933340177755778e+000	 1.000708465100795e+001
0	 7.799989999990448e+000	 9.000000347171177e+000	 1.000630675495731e+001
0	 7.799989999990449e+000	 9.066660599907667e+000	 1.000556733064397e+001
0	 7.799989999990448e+000	 9.133320952629656e+000	 1.000486430008186e+001
0	 7.799989999990447e+000	 9.199981422001557e+000	 1.000419558515295e+001
0	 7.799989999990448e+000	 9.266642024687796e+000	 1.000355910760721e+001
0	 7.799989999990449e+000	 9.333302777352783e+000	 1.000295278906270e+001
0	 7.866659999993464e+000	 8.666700000016666e+000	 1.001023989927018e+001
0	 7.866659999993465e+000	 8.733360002791903e+000	 1.000932190078844e+001
0	 7.866659999993463e+000	 8.800020022230555e+000	 1.000844896655894e+001
0	 7.866659999993464e+000	 8.866680074997042e+000	 1.000761909051377e+001
0	 7.866659999993463e+000	 8.933340177755778e+000	 1.000683026645779e+001
0	 7.866659999993466e+000	 9.000000347171183e+000	 1.000608048806875e+001
0	 7.866659999993466e+000	 9.066660599907667e+000	 1.000536774889717e+001
0	 7.866659999993464e+000	 9.133320952629655e+000	 1.000469004236650e+001
0	 7.866659999993464e+000	 9.199981422001558e+000	 1.000404536177291e+001
0	 7.866659999993464e+000	 9.266642024687796e+000	 1.000343170028556e+001
0	 7.866659999993464e+000	 9.333302777352783e+000	 1.000284705094631e+001
0	 7.933329999996682e+000	 8.666700000016668e+000	 1.000986077653616e+001
0	 7.933329999996679e+000	 8.733360002791898e+000	 1.000897726534205e+001
0	 7.933329999996682e+000	 8.800020022230557e+000	 1.000813710498986e+001
0	 7.933329999996681e+000	 8.866680074997040e+000	 1.000733836128186e+001
0	 7.933329999996681e+000	 8.933340177755778e+000	 1.000657909989791e+001
0	 7.933329999996682e+000	 9.000000347171183e+000	 1.000585738639557e+001
0	 7.933329999996679e+000	 9.066660599907664e+000	 1.000517128621001e+001
0	 7.933329999996680e+000	 9.133320952629655e+000	 1.000451886465404e+001
0	 7.933329999996682e+000	 9.199981422001557e+000	 1.000389818691809e+001
0	 7.933329999996682e+000	 9.266642024687796e+000	 1.000330731807025e+001
0	 7.933329999996682e+000	 9.333302777352783e+000	 1.000274432305622e+001
0	 8.000000000000000e+000	 8.666700000016666e+000	 1.000948646020334e+001
0	 8.000000000000000e+000	 8.733360002791905e+000	 1.000863731821183e+001
0	 7.999999999999999e+000	 8.800020022230555e+000	 1.000782982051435e+001
0	 8.000000000000002e+000	 8.866680074997042e+000	 1.000706210526326e+001
0	 8.000000000000002e+000	 8.933340177755778e+000	 1.000633231049345e+001
0	 8.000000000000002e+000	 9.000000347171184e+000	 1.000563857412215e+001
0	 8.000000000000000e+000	 9.066660599907667e+000	 1.000497903394910e+001
0	 8.000000000000000e+000	 9.133320952629655e+000	 1.000435182765642e+001
0	 7.999999999999999e+000	 9.199981422001558e+000	 1.000375509280875e+001
0	 8.000000000000000e+000	 9.266642024687796e+000	 1.000318696685310e+001
0	 7.999999999999999e+000	 9.333302777352781e+000	 1.000264558711890e+001
0	 7.333299999983334e+000	 9.333302777352781e+000	 1.000369477719134e+001
0	 7.333299999983336e+000	 9.399973674588173e+000	 1.000299731258384e+001
0	 7.333299999983334e+000	 9.466644621844624e+000	 1.000237945592823e+001
0	 7.333299999983333e+000	 9.533315502449998e+000	 1.000183831434269e+001
0	 7.333299999983335e+000	 9.599986199732195e+000	 1.000137099659292e+001
0	 7.333299999983334e+000	 9.666656597019097e+000	 1.000097461309193e+001
0	 7.333299999983333e+000	 9.733326577638573e+000	 1.000064627590036e+001
0	 7.333299999983335e+000	 9.799996024918523e+000	 1.000038309872634e+001
0	 7.333299999983333e+000	 9.866664822186822e+000	 1.000018219692576e+001
0	 7.333299999983333e+000	 9.933332852771354e+000	 1.000004068750233e+001
0	 7.333299999983335e+000	 1.000000000000000e+001	 9.999955689108033e+000
0	 7.399969999982149e+000	 9.333302777352783e+000	 1.000359545583170e+001
0	 7.399969999982149e+000	 9.399973674588175e+000	 1.000291747168655e+001
0	 7.399969999982151e+000	 9.466644621844621e+000	 1.000231700907772e+001
0	 7.399969999982150e+000	 9.533315502449998e+000	 1.000179125251008e+001
0	 7.399969999982151e+000	 9.599986199732200e+000	 1.000133738809183e+001
0	 7.399969999982150e+000	 9.666656597019095e+000	 1.000095260353454e+001
0	 7.399969999982149e+000	 9.733326577638572e+000	 1.000063408815331e+001
0	 7.399969999982151e+000	 9.799996024918524e+000	 1.000037903286664e+001
0	 7.399969999982151e+000	 9.866664822186824e+000	 1.000018463019674e+001
0	 7.399969999982149e+000	 9.933332852771351e+000	 1.000004807426962e+001
0	 7.399969999982150e+000	 1.000000000000000e+001	 9.999966560815272e+000
0	 7.466639999981866e+000	 9.333302777352785e+000	 1.000349227261313e+001
0	 7.466639999981864e+000	 9.399973674588175e+000	 1.000283388352161e+001
0	 7.466639999981864e+000	 9.466644621844617e+000	 1.000225085608606e+001
0	 7.466639999981866e+000	 9.533315502449998e+000	 1.000174045170341e+001
0	 7.466639999981864e+000	 9.599986199732195e+000	 1.000129993332886e+001
0	 7.466639999981867e+000	 9.666656597019093e+000	 1.000092656547616e+001
0	 7.466639999981865e+000	 9.733326577638575e+000	 1.000061761421740e+001
0	 7.466639999981867e+000	 9.799996024918523e+000	 1.000037034718333e+001
0	 7.466639999981867e+000	 9.866664822186822e+000	 1.000018203356335e+001
0	 7.466639999981866e+000	 9.933332852771354e+000	 1.000004994410568e+001
0	 7.466639999981865e+000	 1.000000000000000e+001	 9.999971351117596e+000
0	 7.533309999982382e+000	 9.333302777352783e+000	 1.000338620926212e+001
0	 7.533309999982383e+000	 9.399973674588177e+000	 1.000274751328450e+001
0	 7.533309999982384e+000	 9.466644621844623e+000	 1.000218195873044e+001
0	 7.533309999982381e+000	 9.533315502450003e+000	 1.000168688339415e+001
0	 7.533309999982382e+000	 9.599986199732195e+000	 1.000125962658259e+001
0	 7.533309999982382e+000	 9.666656597019092e+000	 1.000089752911528e+001
0	 7.533309999982382e+000	 9.733326577638575e+000	 1.000059793332464e+001
0	 7.533309999982382e+000	 9.799996024918523e+000	 1.000035818305576e+001
0	 7.533309999982383e+000	 9.866664822186824e+000	 1.000017562366689e+001
0	 7.533309999982383e+000	 9.933332852771351e+000	 1.000004760202929e+001
0	 7.533309999982381e+000	 1.000000000000000e+001	 9.999971466527459e+000
0	 7.599979999983600e+000	 9.333302777352783e+000	 1.000327824750511e+001
0	 7.599979999983598e+000	 9.399973674588177e+000	 1.000265932617077e+001
0	 7.599979999983600e+000	 9.466644621844619e+000	 1.000211127878802e+001
0	 7.599979999983599e+000	 9.533315502450002e+000	 1.000163151905381e+001
0	 7.599979999983599e+000	 9.599986199732197e+000	 1.000121746213144e+001
0	 7.599979999983598e+000	 9.666656597019093e+000	 1.000086652465045e+001
0	 7.599979999983598e+000	 9.733326577638575e+000	 1.000057612470688e+001
0	 7.599979999983598e+000	 9.799996024918524e+000	 1.000034368186332e+001
0	 7.599979999983598e+000	 9.866664822186820e+000	 1.000016661714878e+001
0	 7.599979999983598e+000	 9.933332852771352e+000	 1.000004235305922e+001
0	 7.599979999983598e+000	 1.000000000000000e+001	 9.999968313557409e+000
0	 7.666649999985414e+000	 9.333302777352781e+000	 1.000316936906857e+001
0	 7.666649999985415e+000	 9.399973674588175e+000	 1.000257028737587e+001
0	 7.666649999985416e+000	 9.466644621844621e+000	 1.000203977803599e+001
0	 7.666649999985415e+000	 9.533315502450000e+000	 1.000157533015384e+001
0	 7.666649999985416e+000	 9.599986199732197e+000	 1.000117443425392e+001
0	 7.666649999985413e+000	 9.666656597019092e+000	 1.000083458228022e+001
0	 7.666649999985415e+000	 9.733326577638577e+000	 1.000055326759626e+001
0	 7.666649999985416e+000	 9.799996024918523e+000	 1.000032798498532e+001
0	 7.666649999985416e+000	 9.866664822186825e+000	 1.000015623065029e+001
0	 7.666649999985415e+000	 9.933332852771354e+000	 1.000003550221421e+001
0	 7.666649999985414e+000	 9.999999999999998e+000	 9.999963298720072e+000
0	 7.733319999987732e+000	 9.333302777352783e+000	 1.000306055567894e+001
0	 7.733319999987731e+000	 9.399973674588173e+000	 1.000248136209534e+001
0	 7.733319999987732e+000	 9.466644621844621e+000	 1.000196841825150e+001
0	 7.733319999987730e+000	 9.533315502450000e+000	 1.000151928816570e+001
0	 7.733319999987731e+000	 9.599986199732197e+000	 1.000113153722857e+001
0	 7.733319999987732e+000	 9.666656597019093e+000	 1.000080273220308e+001
0	 7.733319999987730e+000	 9.733326577638575e+000	 1.000053044122463e+001
0	 7.733319999987732e+000	 9.799996024918523e+000	 1.000031223380105e+001
0	 7.733319999987733e+000	 9.866664822186822e+000	 1.000014568081283e+001
0	 7.733319999987733e+000	 9.933332852771356e+000	 1.000002835451307e+001
0	 7.733319999987730e+000	 9.999999999999998e+000	 9.999957828527968e+000
0	 7.799989999990449e+000	 9.333302777352783e+000	 1.000295278906270e+001
0	 7.799989999990450e+000	 9.399973674588177e+000	 1.000239351552468e+001
0	 7.799989999990447e+000	 9.466644621844619e+000	 1.000189816121177e+001
0	 7.799989999990448e+000	 9.533315502450002e+000	 1.000146436456084e+001
0	 7.799989999990447e+000	 9.599986199732198e+000	 1.000108976533385e+001
0	 7.799989999990448e+000	 9.666656597019095e+000	 1.000077200461762e+001
0	 7.799989999990448e+000	 9.733326577638575e+000	 1.000050872482400e+001
0	 7.799989999990449e+000	 9.799996024918524e+000	 1.000029756968999e+001
0	 7.799989999990447e+000	 9.866664822186824e+000	 1.000013618427768e+001
0	 7.799989999990449e+000	 9.933332852771354e+000	 1.000002221497456e+001
0	 7.799989999990447e+000	 9.999999999999998e+000	 9.999953309493703e+000
0	 7.866659999993464e+000	 9.333302777352783e+000	 1.000284705094631e+001
0	 7.866659999993463e+000	 9.399973674588175e+000	 1.000230771285938e+001
0	 7.866659999993465e+000	 9.466644621844623e+000	 1.000182996869390e+001
0	 7.866659999993464e+000	 9.533315502450002e+000	 1.000141153081076e+001
0	 7.866659999993463e+000	 9.599986199732197e+000	 1.000105011284826e+001
0	 7.866659999993463e+000	 9.666656597019093e+000	 1.000074342972232e+001
0	 7.866659999993464e+000	 9.733326577638573e+000	 1.000048919762637e+001
0	 7.866659999993464e+000	 9.799996024918523e+000	 1.000028513403139e+001
0	 7.866659999993463e+000	 9.866664822186820e+000	 1.000012895768618e+001
0	 7.866659999993463e+000	 9.933332852771352e+000	 1.000001838861746e+001
0	 7.866659999993463e+000	 1.000000000000000e+001	 9.999951148129906e+000
0	 7.933329999996682e+000	 9.333302777352783e+000	 1.000274432305622e+001
0	 7.933329999996681e+000	 9.399973674588175e+000	 1.000222491929497e+001
0	 7.933329999996682e+000	 9.466644621844621e+000	 1.000176480247515e+001
0	 7.933329999996682e+000	 9.533315502449998e+000	 1.000136175838691e+001
0	 7.933329999996682e+000	 9.599986199732197e+000	 1.000101357405034e+001
0	 7.933329999996682e+000	 9.666656597019095e+000	 1.000071803771578e+001
0	 7.933329999996682e+000	 9.733326577638577e+000	 1.000047293886364e+001
0	 7.933329999996682e+000	 9.799996024918523e+000	 1.000027606820462e+001
0	 7.933329999996681e+000	 9.866664822186824e+000	 1.000012521767980e+001
0	 7.933329999996682e+000	 9.933332852771354e+000	 1.000001818046050e+001
0	 7.933329999996681e+000	 1.000000000000000e+001	 9.999952750949040e+000
0	 7.999999999999999e+000	 9.333302777352781e+000	 1.000264558711890e+001
0	 8.000000000000000e+000	 9.399973674588175e+000	 1.000214610002690e+001
0	 8.000000000000000e+000	 9.466644621844621e+000	 1.000170362433269e+001
0	 8.000000000000000e+000	 9.533315502449998e+000	 1.000131601876075e+001
0	 8.000000000000000e+000	 9.599986199732197e+000	 1.000098114321855e+001
0	 8.000000000000000e+000	 9.666656597019093e+000	 1.000069685879647e+001
0	 8.000000000000000e+000	 9.733326577638575e+000	 1.000046102776787e+001
0	 8.000000000000000e+000	 9.799996024918524e+000	 1.000027151358910e+001
0	 7.999999999999997e+000	 9.866664822186822e+000	 1.000012618089973e+001
0	 8.000000000000000e+000	 9.933332852771352e+000	 1.000002289552252e+001
0	 8.000000000000000e+000	 1.000000000000000e+001	 9.999959524463787e+000
0	 8.000000000000000e+000	 0.000000000000000e+000	 9.995401392603446e+000
0	 8.000000000000002e+000	 6.666714722864757e-002	 9.995077143306915e+000
0	 8.000000000000000e+000	 1.333351778131789e-001	 9.994888972392467e+000
0	 8.000000000000000e+000	 2.000039750814773e-001	 9.994840290957102e+000
0	 8.000000000000002e+000	 2.666734223614256e-001	 9.994934512693616e+000
0	 8.000000000000000e+000	 3.333434029809069e-001	 9.995175053890307e+000
0	 8.000000000000000e+000	 4.000138002678044e-001	 9.995565333430761e+000
0	 8.000000000000000e+000	 4.666844975500011e-001	 9.996108772793702e+000
0	 7.999999999999999e+000	 5.333553781553803e-001	 9.996808796052910e+000
0	 8.000000000000000e+000	 6.000263254118246e-001	 9.997668829877215e+000
0	 7.999999999999999e+000	 6.666972226472177e-001	 9.998692303530532e+000
0	 8.066670000003317e+000	 0.000000000000000e+000	 9.989523164004494e+000
0	 8.066670000003313e+000	 6.666714722864754e-002	 9.989043816606868e+000
0	 8.066670000003317e+000	 1.333351778131789e-001	 9.988724396270184e+000
0	 8.066670000003317e+000	 2.000039750814772e-001	 9.988567065777422e+000
0	 8.066670000003315e+000	 2.666734223614256e-001	 9.988573990528286e+000
0	 8.066670000003319e+000	 3.333434029809069e-001	 9.988747338538870e+000
0	 8.066670000003315e+000	 4.000138002678044e-001	 9.989089280441533e+000
0	 8.066670000003317e+000	 4.666844975500010e-001	 9.989601989484626e+000
0	 8.066670000003320e+000	 5.333553781553803e-001	 9.990287641532468e+000
0	 8.066670000003317e+000	 6.000263254118247e-001	 9.991148415065394e+000
0	 8.066670000003317e+000	 6.666972226472177e-001	 9.992186491179686e+000
0	 8.133340000006534e+000	 0.000000000000000e+000	 9.983412817251981e+000
0	 8.133340000006532e+000	 6.666714722864753e-002	 9.982864537224751e+000
0	 8.133340000006534e+000	 1.333351778131789e-001	 9.982486560546045e+000
0	 8.133340000006534e+000	 2.000039750814772e-001	 9.982279997471865e+000
0	 8.133340000006530e+000	 2.666734223614255e-001	 9.982245960786107e+000
0	 8.133340000006534e+000	 3.333434029809068e-001	 9.982385565800334e+000
0	 8.133340000006532e+000	 4.000138002678044e-001	 9.982699930353512e+000
0	 8.133340000006538e+000	 4.666844975500012e-001	 9.983190174811950e+000
0	 8.133340000006534e+000	 5.333553781553803e-001	 9.983857422069109e+000
0	 8.133340000006534e+000	 6.000263254118247e-001	 9.984702797545717e+000
0	 8.133340000006532e+000	 6.666972226472178e-001	 9.985727429189712e+000
0	 8.200010000009550e+000	 0.000000000000000e+000	 9.977086664894699e+000
0	 8.200010000009552e+000	 6.666714722864757e-002	 9.976541913892016e+000
0	 8.200010000009550e+000	 1.333351778131790e-001	 9.976166585084270e+000
0	 8.200010000009550e+000	 2.000039750814773e-001	 9.975960931844897e+000
0	 8.200010000009547e+000	 2.666734223614256e-001	 9.975925209900066e+000
0	 8.200010000009549e+000	 3.333434029809069e-001	 9.976059677328319e+000
0	 8.200010000009550e+000	 4.000138002678044e-001	 9.976364594560486e+000
0	 8.200010000009549e+000	 4.666844975500011e-001	 9.976840224379496e+000
0	 8.200010000009550e+000	 5.333553781553800e-001	 9.977486831920336e+000
0	 8.200010000009549e+000	 6.000263254118246e-001	 9.978304684670031e+000
0	 8.200010000009550e+000	 6.666972226472175e-001	 9.979294052467717e+000
0	 8.266680000012267e+000	 0.000000000000000e+000	 9.970561019481428e+000
0	 8.266680000012267e+000	 6.666714722864753e-002	 9.970078555340150e+000
0	 8.266680000012268e+000	 1.333351778131790e-001	 9.969755589749063e+000
0	 8.266680000012263e+000	 2.000039750814772e-001	 9.969591714701005e+000
0	 8.266680000012267e+000	 2.666734223614256e-001	 9.969586524303095e+000
0	 8.266680000012265e+000	 3.333434029809068e-001	 9.969739614776486e+000
0	 8.266680000012265e+000	 4.000138002678043e-001	 9.970050584456217e+000
0	 8.266680000012267e+000	 4.666844975500011e-001	 9.970519033791106e+000
0	 8.266680000012268e+000	 5.333553781553803e-001	 9.971144565343682e+000
0	 8.266680000012265e+000	 6.000263254118247e-001	 9.971926783790218e+000
0	 8.266680000012265e+000	 6.666972226472178e-001	 9.972865295920803e+000
0	 8.333350000014583e+000	 0.000000000000000e+000	 9.963852193560957e+000
0	 8.333350000014583e+000	 6.666714722864756e-002	 9.963477070300618e+000
0	 8.333350000014582e+000	 1.333351778131790e-001	 9.963244694404644e+000
0	 8.333350000014582e+000	 2.000039750814773e-001	 9.963154191844646e+000
0	 8.333350000014582e+000	 2.666734223614256e-001	 9.963204690428171e+000
0	 8.333350000014585e+000	 3.333434029809069e-001	 9.963395319798492e+000
0	 8.333350000014582e+000	 4.000138002678043e-001	 9.963725211434490e+000
0	 8.333350000014582e+000	 4.666844975500012e-001	 9.964193498650579e+000
0	 8.333350000014583e+000	 5.333553781553800e-001	 9.964799316596658e+000
0	 8.333350000014582e+000	 6.000263254118247e-001	 9.965541802258151e+000
0	 8.333350000014583e+000	 6.666972226472178e-001	 9.966420094456082e+000
0	 8.400020000016399e+000	 0.000000000000000e+000	 9.956976499682076e+000
0	 8.400020000016397e+000	 6.666714722864754e-002	 9.956740067504892e+000
0	 8.400020000016399e+000	 1.333351778131789e-001	 9.956625018915219e+000
0	 8.400020000016401e+000	 2.000039750814772e-001	 9.956630209080286e+000
0	 8.400020000016401e+000	 2.666734223614255e-001	 9.956754494708232e+000
0	 8.400020000016399e+000	 3.333434029809069e-001	 9.956996734047964e+000
0	 8.400020000016399e+000	 4.000138002678044e-001	 9.957355786889059e+000
0	 8.400020000016401e+000	 4.666844975500011e-001	 9.957830514561737e+000
0	 8.400020000016399e+000	 5.333553781553803e-001	 9.958419779936799e+000
0	 8.400020000016399e+000	 6.000263254118247e-001	 9.959122447425713e+000
0	 8.400020000016399e+000	 6.666972226472177e-001	 9.959937382980645e+000
0	 8.466690000017616e+000	 0.000000000000000e+000	 9.949950250393567e+000
0	 8.466690000017616e+000	 6.666714722864756e-002	 9.949870155684430e+000
0	 8.466690000017616e+000	 1.333351778131790e-001	 9.949887683145017e+000
0	 8.466690000017616e+000	 2.000039750814772e-001	 9.950001612212409e+000
0	 8.466690000017614e+000	 2.666734223614254e-001	 9.950210723576253e+000
0	 8.466690000017616e+000	 3.333434029809069e-001	 9.950513799178568e+000
0	 8.466690000017616e+000	 4.000138002678044e-001	 9.950909622213718e+000
0	 8.466690000017616e+000	 4.666844975500011e-001	 9.951396977128400e+000
0	 8.466690000017618e+000	 5.333553781553803e-001	 9.951974649621624e+000
0	 8.466690000017618e+000	 6.000263254118248e-001	 9.952641426644757e+000
0	 8.466690000017614e+000	 6.666972226472175e-001	 9.953396096401614e+000
0	 8.533360000018131e+000	 0.000000000000000e+000	 9.942789758244217e+000
0	 8.533360000018131e+000	 6.666714722864756e-002	 9.942869943570726e+000
0	 8.533360000018131e+000	 1.333351778131789e-001	 9.943023806958225e+000
0	 8.533360000018131e+000	 2.000039750814772e-001	 9.943250247045473e+000
0	 8.533360000018131e+000	 2.666734223614256e-001	 9.943548163465175e+000
0	 8.533360000018131e+000	 3.333434029809069e-001	 9.943916456843933e+000
0	 8.533360000018135e+000	 4.000138002678044e-001	 9.944354028802238e+000
0	 8.533360000018130e+000	 4.666844975500010e-001	 9.944859781954397e+000
0	 8.533360000018131e+000	 5.333553781553803e-001	 9.945432619908658e+000
0	 8.533360000018133e+000	 6.000263254118247e-001	 9.946071447267171e+000
0	 8.533360000018133e+000	 6.666972226472177e-001	 9.946775169626074e+000
0	 8.600030000017849e+000	 0.000000000000000e+000	 9.935511335782806e+000
0	 8.600030000017847e+000	 6.666714722864754e-002	 9.935742039895214e+000
0	 8.600030000017849e+000	 1.333351778131790e-001	 9.936024510219076e+000
0	 8.600030000017851e+000	 2.000039750814772e-001	 9.936357959383956e+000
0	 8.600030000017849e+000	 2.666734223614255e-001	 9.936741600807974e+000
0	 8.600030000017849e+000	 3.333434029809069e-001	 9.937174648697738e+000
0	 8.600030000017847e+000	 4.000138002678044e-001	 9.937656318048392e+000
0	 8.600030000017851e+000	 4.666844975500012e-001	 9.938185824643561e+000
0	 8.600030000017849e+000	 5.333553781553803e-001	 9.938762385055442e+000
0	 8.600030000017849e+000	 6.000263254118248e-001	 9.939385216644816e+000
0	 8.600030000017851e+000	 6.666972226472178e-001	 9.940053537561161e+000
0	 8.666700000016666e+000	 0.000000000000000e+000	 9.928131295558124e+000
0	 8.666700000016668e+000	 6.666714722864757e-002	 9.928489053389395e+000
0	 8.666700000016665e+000	 1.333351778131789e-001	 9.928880912791774e+000
0	 8.666700000016668e+000	 2.000039750814772e-001	 9.929306595032333e+000
0	 8.666700000016666e+000	 2.666734223614256e-001	 9.929765822037590e+000
0	 8.666700000016666e+000	 3.333434029809069e-001	 9.930258316393612e+000
0	 8.666700000016668e+000	 4.000138002678044e-001	 9.930783801345966e+000
0	 8.666700000016665e+000	 4.666844975500011e-001	 9.931342000799692e+000
0	 8.666700000016666e+000	 5.333553781553801e-001	 9.931932639319479e+000
0	 8.666700000016666e+000	 6.000263254118248e-001	 9.932555442129582e+000
0	 8.666700000016668e+000	 6.666972226472177e-001	 9.933210135113967e+000
0	 7.999999999999999e+000	 6.666972226472177e-001	 9.998692303530532e+000
0	 8.000000000000000e+000	 7.333579753122049e-001	 9.999796495402052e+000
0	 8.000000000000000e+000	 8.000185779984418e-001	 1.000089979749409e+001
0	 8.000000000000000e+000	 8.666790473703454e-001	 1.000200681352563e+001
0	 8.000000000000000e+000	 9.333394000923323e-001	 1.000312214710348e+001
0	 8.000000000000000e+000	 9.999996528288189e-001	 1.000425040172225e+001
0	 8.000000000000000e+000	 1.066659822244222e+000	 1.000539618076441e+001
0	 8.000000000000000e+000	 1.133319925002959e+000	 1.000656408750023e+001
0	 8.000000000000000e+000	 1.199979977769445e+000	 1.000775872508783e+001
0	 7.999999999999999e+000	 1.266639997208097e+000	 1.000898469657314e+001
0	 8.000000000000000e+000	 1.333299999983334e+000	 1.001024660488994e+001
0	 8.066670000003317e+000	 6.666972226472177e-001	 9.992186491179687e+000
0	 8.066670000003317e+000	 7.333579753122047e-001	 9.993312132378261e+000
0	 8.066670000003317e+000	 8.000185779984416e-001	 9.994437016388535e+000
0	 8.066670000003317e+000	 8.666790473703450e-001	 9.995564941702911e+000
0	 8.066670000003317e+000	 9.333394000923323e-001	 9.996699706716163e+000
0	 8.066670000003319e+000	 9.999996528288189e-001	 9.997845109725402e+000
0	 8.066670000003317e+000	 1.066659822244222e+000	 9.999004948930111e+000
0	 8.066670000003317e+000	 1.133319925002959e+000	 1.000018302243208e+001
0	 8.066670000003317e+000	 1.199979977769445e+000	 1.000138312823549e+001
0	 8.066670000003319e+000	 1.266639997208098e+000	 1.000260906424683e+001
0	 8.066670000003317e+000	 1.333299999983334e+000	 1.000386462827501e+001
0	 8.133340000006532e+000	 6.666972226472178e-001	 9.985727429189712e+000
0	 8.133340000006532e+000	 7.333579753122046e-001	 9.986842780338833e+000
0	 8.133340000006532e+000	 8.000185779984416e-001	 9.987961952541442e+000
0	 8.133340000006536e+000	 8.666790473703453e-001	 9.989088031327153e+000
0	 8.133340000006532e+000	 9.333394000923319e-001	 9.990224102133908e+000
0	 8.133340000006534e+000	 9.999996528288190e-001	 9.991373250308177e+000
0	 8.133340000006532e+000	 1.066659822244222e+000	 9.992538561104801e+000
0	 8.133340000006532e+000	 1.133319925002959e+000	 9.993723119687113e+000
0	 8.133340000006530e+000	 1.199979977769445e+000	 9.994930011126820e+000
0	 8.133340000006534e+000	 1.266639997208098e+000	 9.996162320404146e+000
0	 8.133340000006532e+000	 1.333299999983334e+000	 9.997423132407695e+000
0	 8.200010000009550e+000	 6.666972226472175e-001	 9.979294052467717e+000
0	 8.200010000009552e+000	 7.333579753122049e-001	 9.980374224258361e+000
0	 8.200010000009550e+000	 8.000185779984418e-001	 9.981466273726099e+000
0	 8.200010000009552e+000	 8.666790473703453e-001	 9.982572665690761e+000
0	 8.200010000009550e+000	 9.333394000923322e-001	 9.983695864879728e+000
0	 8.200010000009549e+000	 9.999996528288189e-001	 9.984838335927861e+000
0	 8.200010000009549e+000	 1.066659822244222e+000	 9.986002543377625e+000
0	 8.200010000009552e+000	 1.133319925002958e+000	 9.987190951678981e+000
0	 8.200010000009550e+000	 1.199979977769445e+000	 9.988406025189470e+000
0	 8.200010000009550e+000	 1.266639997208098e+000	 9.989650228174153e+000
0	 8.200010000009549e+000	 1.333299999983334e+000	 9.990926024805669e+000
0	 8.266680000012265e+000	 6.666972226472178e-001	 9.972865295920805e+000
0	 8.266680000012268e+000	 7.333579753122048e-001	 9.973892249111472e+000
0	 8.266680000012268e+000	 8.000185779984418e-001	 9.974941647715717e+000
0	 8.266680000012265e+000	 8.666790473703452e-001	 9.976015428086164e+000
0	 8.266680000012265e+000	 9.333394000923319e-001	 9.977115526476576e+000
0	 8.266680000012267e+000	 9.999996528288188e-001	 9.978243879041742e+000
0	 8.266680000012265e+000	 1.066659822244222e+000	 9.979402421837650e+000
0	 8.266680000012265e+000	 1.133319925002959e+000	 9.980593090821332e+000
0	 8.266680000012265e+000	 1.199979977769445e+000	 9.981817821851006e+000
0	 8.266680000012268e+000	 1.266639997208098e+000	 9.983078550685962e+000
0	 8.266680000012265e+000	 1.333299999983334e+000	 9.984377212986614e+000
0	 8.333350000014583e+000	 6.666972226472178e-001	 9.966420094456082e+000
0	 8.333350000014583e+000	 7.333579753122048e-001	 9.967382639872794e+000
0	 8.333350000014583e+000	 8.000185779984418e-001	 9.968379742283567e+000
0	 8.333350000014582e+000	 8.666790473703451e-001	 9.969412901805791e+000
0	 8.333350000014582e+000	 9.333394000923323e-001	 9.970483618447450e+000
0	 8.333350000014583e+000	 9.999996528288189e-001	 9.971593392107122e+000
0	 8.333350000014583e+000	 1.066659822244222e+000	 9.972743722573989e+000
0	 8.333350000014582e+000	 1.133319925002959e+000	 9.973936109527829e+000
0	 8.333350000014583e+000	 1.199979977769445e+000	 9.975172052539046e+000
0	 8.333350000014583e+000	 1.266639997208098e+000	 9.976453051068646e+000
0	 8.333350000014585e+000	 1.333299999983334e+000	 9.977780604468213e+000
0	 8.400020000016399e+000	 6.666972226472177e-001	 9.959937382980645e+000
0	 8.400020000016401e+000	 7.333579753122049e-001	 9.960831181516937e+000
0	 8.400020000016401e+000	 8.000185779984418e-001	 9.961772225202886e+000
0	 8.400020000016399e+000	 8.666790473703454e-001	 9.962761670142042e+000
0	 8.400020000016403e+000	 9.333394000923324e-001	 9.963800672315363e+000
0	 8.400020000016401e+000	 9.999996528288190e-001	 9.964890387581299e+000
0	 8.400020000016401e+000	 1.066659822244222e+000	 9.966031971675767e+000
0	 8.400020000016401e+000	 1.133319925002959e+000	 9.967226580212106e+000
0	 8.400020000016401e+000	 1.199979977769445e+000	 9.968475368681178e+000
0	 8.400020000016397e+000	 1.266639997208098e+000	 9.969779492451282e+000
0	 8.400020000016399e+000	 1.333299999983334e+000	 9.971140106768157e+000
0	 8.466690000017614e+000	 6.666972226472175e-001	 9.953396096401612e+000
0	 8.466690000017618e+000	 7.333579753122048e-001	 9.954223659018538e+000
0	 8.466690000017614e+000	 8.000185779984416e-001	 9.955110764246943e+000
0	 8.466690000017616e+000	 8.666790473703455e-001	 9.956058316387319e+000
0	 8.466690000017614e+000	 9.333394000923322e-001	 9.957067219603280e+000
0	 8.466690000017614e+000	 9.999996528288188e-001	 9.958138377921568e+000
0	 8.466690000017614e+000	 1.066659822244222e+000	 9.959272695232071e+000
0	 8.466690000017614e+000	 1.133319925002958e+000	 9.960471075287829e+000
0	 8.466690000017616e+000	 1.199979977769445e+000	 9.961734421705012e+000
0	 8.466690000017616e+000	 1.266639997208098e+000	 9.963063637962964e+000
0	 8.466690000017614e+000	 1.333299999983334e+000	 9.964459627404130e+000
0	 8.533360000018133e+000	 6.666972226472177e-001	 9.946775169626074e+000
0	 8.533360000018130e+000	 7.333579753122048e-001	 9.947545857352207e+000
0	 8.533360000018131e+000	 8.000185779984416e-001	 9.948387027188984e+000
0	 8.533360000018131e+000	 8.666790473703453e-001	 9.949299423834074e+000
0	 8.533360000018133e+000	 9.333394000923322e-001	 9.950283791834211e+000
0	 8.533360000018130e+000	 9.999996528288189e-001	 9.951340875585215e+000
0	 8.533360000018133e+000	 1.066659822244223e+000	 9.952471419332017e+000
0	 8.533360000018133e+000	 1.133319925002959e+000	 9.953676167168633e+000
0	 8.533360000018131e+000	 1.199979977769445e+000	 9.954955863038144e+000
0	 8.533360000018130e+000	 1.266639997208098e+000	 9.956311250732780e+000
0	 8.533360000018131e+000	 1.333299999983334e+000	 9.957743073893822e+000
0	 8.600030000017851e+000	 6.666972226472178e-001	 9.940053537561159e+000
0	 8.600030000017849e+000	 7.333579753122049e-001	 9.940783561492587e+000
0	 8.600030000017851e+000	 8.000185779984420e-001	 9.941592681802270e+000
0	 8.600030000017847e+000	 8.666790473703452e-001	 9.942481575774703e+000
0	 8.600030000017847e+000	 9.333394000923322e-001	 9.943450920531131e+000
0	 8.600030000017847e+000	 9.999996528288190e-001	 9.944501393029549e+000
0	 8.600030000017847e+000	 1.066659822244222e+000	 9.945633670064721e+000
0	 8.600030000017851e+000	 1.133319925002959e+000	 9.946848428268170e+000
0	 8.600030000017846e+000	 1.199979977769445e+000	 9.948146344108180e+000
0	 8.600030000017847e+000	 1.266639997208098e+000	 9.949528093889823e+000
0	 8.600030000017849e+000	 1.333299999983334e+000	 9.950994353754917e+000
0	 8.666700000016668e+000	 6.666972226472177e-001	 9.933210135113967e+000
0	 8.666700000016666e+000	 7.333579753122049e-001	 9.933922556414281e+000
0	 8.666700000016668e+000	 8.000185779984418e-001	 9.934719395860045e+000
0	 8.666700000016666e+000	 8.666790473703454e-001	 9.935601355501641e+000
0	 8.666700000016666e+000	 9.333394000923322e-001	 9.936569137217052e+000
0	 8.666700000016665e+000	 9.999996528288188e-001	 9.937623442711871e+000
0	 8.666700000016665e+000	 1.066659822244222e+000	 9.938764973519282e+000
0	 8.666700000016668e+000	 1.133319925002959e+000	 9.939994431000098e+000
0	 8.666700000016666e+000	 1.199979977769445e+000	 9.941312516342727e+000
0	 8.666700000016666e+000	 1.266639997208098e+000	 9.942719930563184e+000
0	 8.666700000016668e+000	 1.333299999983334e+000	 9.944217374505099e+000
0	 8.000000000000000e+000	 1.333299999983334e+000	 1.001024660488994e+001
0	 8.000000000000000e+000	 1.399969999982150e+000	 1.001153600472177e+001
0	 8.000000000000000e+000	 1.466639999981866e+000	 1.001284362966053e+001
0	 8.000000000000000e+000	 1.533309999982383e+000	 1.001417342761101e+001
0	 8.000000000000000e+000	 1.599979999983599e+000	 1.001552934647803e+001
0	 8.000000000000000e+000	 1.666649999985416e+000	 1.001691533416641e+001
0	 7.999999999999999e+000	 1.733319999987733e+000	 1.001833533858095e+001
0	 8.000000000000000e+000	 1.799989999990450e+000	 1.001979330762648e+001
0	 8.000000000000000e+000	 1.866659999993466e+000	 1.002129318920780e+001
0	 8.000000000000000e+000	 1.933329999996683e+000	 1.002283893122974e+001
0	 7.999999999999999e+000	 2.000000000000000e+000	 1.002443448159710e+001
0	 8.066670000003317e+000	 1.333299999983334e+000	 1.000386462827502e+001
0	 8.066670000003317e+000	 1.399969999982150e+000	 1.000514767654618e+001
0	 8.066670000003317e+000	 1.466639999981867e+000	 1.000645526854823e+001
0	 8.066670000003315e+000	 1.533309999982383e+000	 1.000779057920643e+001
0	 8.066670000003319e+000	 1.599979999983599e+000	 1.000915678344599e+001
0	 8.066670000003319e+000	 1.666649999985416e+000	 1.001055705619222e+001
0	 8.066670000003319e+000	 1.733319999987733e+000	 1.001199457237036e+001
0	 8.066670000003317e+000	 1.799989999990450e+000	 1.001347250690566e+001
0	 8.066670000003317e+000	 1.866659999993467e+000	 1.001499403472341e+001
0	 8.066670000003317e+000	 1.933329999996683e+000	 1.001656233074885e+001
0	 8.066670000003319e+000	 2.000000000000000e+000	 1.001818056990725e+001
0	 8.133340000006532e+000	 1.333299999983334e+000	 9.997423132407695e+000
0	 8.133340000006530e+000	 1.399969999982150e+000	 9.998712915526152e+000
0	 8.133340000006534e+000	 1.466639999981866e+000	 1.000003137700195e+001
0	 8.133340000006530e+000	 1.533309999982382e+000	 1.000138103423444e+001
0	 8.133340000006530e+000	 1.599979999983599e+000	 1.000276440462298e+001
0	 8.133340000006532e+000	 1.666649999985416e+000	 1.000418400556688e+001
0	 8.133340000006534e+000	 1.733319999987733e+000	 1.000564235446552e+001
0	 8.133340000006532e+000	 1.799989999990449e+000	 1.000714196871823e+001
0	 8.133340000006536e+000	 1.866659999993467e+000	 1.000868536572435e+001
0	 8.133340000006534e+000	 1.933329999996683e+000	 1.001027506288323e+001
0	 8.133340000006532e+000	 2.000000000000000e+000	 1.001191357759424e+001
0	 8.200010000009549e+000	 1.333299999983334e+000	 9.990926024805670e+000
0	 8.200010000009549e+000	 1.399969999982150e+000	 9.992233462186098e+000
0	 8.200010000009552e+000	 1.466639999981866e+000	 9.993571873803479e+000
0	 8.200010000009550e+000	 1.533309999982383e+000	 9.994943234984904e+000
0	 8.200010000009545e+000	 1.599979999983599e+000	 9.996349521057407e+000
0	 8.200010000009549e+000	 1.666649999985416e+000	 9.997792707348074e+000
0	 8.200010000009550e+000	 1.733319999987733e+000	 9.999274769183980e+000
0	 8.200010000009552e+000	 1.799989999990450e+000	 1.000079768189215e+001
0	 8.200010000009550e+000	 1.866659999993466e+000	 1.000236342079972e+001
0	 8.200010000009549e+000	 1.933329999996683e+000	 1.000397396123370e+001
0	 8.200010000009550e+000	 2.000000000000000e+000	 1.000563127852119e+001
0	 8.266680000012265e+000	 1.333299999983334e+000	 9.984377212986614e+000
0	 8.266680000012265e+000	 1.399969999982150e+000	 9.985711057050477e+000
0	 8.266680000012263e+000	 1.466639999981866e+000	 9.987076677734670e+000
0	 8.266680000012267e+000	 1.533309999982383e+000	 9.988475623747611e+000
0	 8.266680000012265e+000	 1.599979999983599e+000	 9.989909443797743e+000
0	 8.266680000012267e+000	 1.666649999985416e+000	 9.991379686593477e+000
0	 8.266680000012267e+000	 1.733319999987733e+000	 9.992887900843247e+000
0	 8.266680000012263e+000	 1.799989999990449e+000	 9.994435635255481e+000
0	 8.266680000012267e+000	 1.866659999993466e+000	 9.996024438538612e+000
0	 8.266680000012263e+000	 1.933329999996683e+000	 9.997655859401057e+000
0	 8.266680000012267e+000	 2.000000000000000e+000	 9.999331446551244e+000
0	 8.333350000014585e+000	 1.333299999983334e+000	 9.977780604468213e+000
0	 8.333350000014582e+000	 1.399969999982150e+000	 9.979147440643736e+000
0	 8.333350000014582e+000	 1.466639999981866e+000	 9.980545707577321e+000
0	 8.333350000014585e+000	 1.533309999982383e+000	 9.981976642812411e+000
0	 8.333350000014582e+000	 1.599979999983599e+000	 9.983441483892413e+000
0	 8.333350000014583e+000	 1.666649999985416e+000	 9.984941468360763e+000
0	 8.333350000014582e+000	 1.733319999987733e+000	 9.986477833760882e+000
0	 8.333350000014582e+000	 1.799989999990450e+000	 9.988051817636185e+000
0	 8.333350000014583e+000	 1.866659999993466e+000	 9.989664657530110e+000
0	 8.333350000014585e+000	 1.933329999996683e+000	 9.991317590986078e+000
0	 8.333350000014582e+000	 2.000000000000000e+000	 9.993011855547517e+000
0	 8.400020000016399e+000	 1.333299999983334e+000	 9.971140106768161e+000
0	 8.400020000016397e+000	 1.399969999982150e+000	 9.972544353490322e+000
0	 8.400020000016401e+000	 1.466639999981866e+000	 9.973978882113286e+000
0	 8.400020000016401e+000	 1.533309999982383e+000	 9.975444734469120e+000
0	 8.400020000016399e+000	 1.599979999983599e+000	 9.976942952389868e+000
0	 8.400020000016397e+000	 1.666649999985415e+000	 9.978474577707612e+000
0	 8.400020000016401e+000	 1.733319999987733e+000	 9.980040652254390e+000
0	 8.400020000016397e+000	 1.799989999990449e+000	 9.981642217862271e+000
0	 8.400020000016395e+000	 1.866659999993466e+000	 9.983280316363313e+000
0	 8.400020000016399e+000	 1.933329999996683e+000	 9.984955989589585e+000
0	 8.400020000016399e+000	 2.000000000000000e+000	 9.986670279373135e+000
0	 8.466690000017614e+000	 1.333299999983334e+000	 9.964459627404134e+000
0	 8.466690000017616e+000	 1.399969999982150e+000	 9.965903536114670e+000
0	 8.466690000017614e+000	 1.466639999981867e+000	 9.967376120124373e+000
0	 8.466690000017618e+000	 1.533309999982383e+000	 9.968878341007555e+000
0	 8.466690000017614e+000	 1.599979999983600e+000	 9.970411160338555e+000
0	 8.466690000017616e+000	 1.666649999985416e+000	 9.971975539691693e+000
0	 8.466690000017614e+000	 1.733319999987733e+000	 9.973572440641309e+000
0	 8.466690000017614e+000	 1.799989999990450e+000	 9.975202824761750e+000
0	 8.466690000017616e+000	 1.866659999993466e+000	 9.976867653627313e+000
0	 8.466690000017614e+000	 1.933329999996683e+000	 9.978567888812371e+000
0	 8.466690000017618e+000	 2.000000000000000e+000	 9.980304491891223e+000
0	 8.533360000018131e+000	 1.333299999983334e+000	 9.957743073893822e+000
0	 8.533360000018130e+000	 1.399969999982150e+000	 9.959226729041257e+000
0	 8.533360000018131e+000	 1.466639999981867e+000	 9.960737340392425e+000
0	 8.533360000018131e+000	 1.533309999982383e+000	 9.962275904717563e+000
0	 8.533360000018133e+000	 1.599979999983599e+000	 9.963843418786901e+000
0	 8.533360000018135e+000	 1.666649999985417e+000	 9.965440879370693e+000
0	 8.533360000018133e+000	 1.733319999987733e+000	 9.967069283239178e+000
0	 8.533360000018133e+000	 1.799989999990449e+000	 9.968729627162610e+000
0	 8.533360000018131e+000	 1.866659999993466e+000	 9.970422907911205e+000
0	 8.533360000018131e+000	 1.933329999996683e+000	 9.972150122255220e+000
0	 8.533360000018131e+000	 2.000000000000000e+000	 9.973912266964918e+000
0	 8.600030000017849e+000	 1.333299999983334e+000	 9.950994353754917e+000
0	 8.600030000017846e+000	 1.399969999982150e+000	 9.952515672794515e+000
0	 8.600030000017847e+000	 1.466639999981866e+000	 9.954062461699259e+000
0	 8.600030000017849e+000	 1.533309999982383e+000	 9.955635867888946e+000
0	 8.600030000017849e+000	 1.599979999983599e+000	 9.957237038783353e+000
0	 8.600030000017847e+000	 1.666649999985416e+000	 9.958867121802278e+000
0	 8.600030000017847e+000	 1.733319999987733e+000	 9.960527264365521e+000
0	 8.600030000017847e+000	 1.799989999990449e+000	 9.962218613892844e+000
0	 8.600030000017847e+000	 1.866659999993466e+000	 9.963942317804065e+000
0	 8.600030000017847e+000	 1.933329999996683e+000	 9.965699523518964e+000
0	 8.600030000017847e+000	 2.000000000000000e+000	 9.967491378457336e+000
0	 8.666700000016668e+000	 1.333299999983334e+000	 9.944217374505099e+000
0	 8.666700000016668e+000	 1.399969999982150e+000	 9.945772107898883e+000
0	 8.666700000016666e+000	 1.466639999981866e+000	 9.947351402826710e+000
0	 8.666700000016666e+000	 1.533309999982383e+000	 9.948956672811544e+000
0	 8.666700000016665e+000	 1.599979999983599e+000	 9.950589331376365e+000
0	 8.666700000016665e+000	 1.666649999985416e+000	 9.952250792044140e+000
0	 8.666700000016666e+000	 1.733319999987733e+000	 9.953942468337861e+000
0	 8.666700000016665e+000	 1.799989999990450e+000	 9.955665773780490e+000
0	 8.666700000016666e+000	 1.866659999993466e+000	 9.957422121895002e+000
0	 8.666700000016665e+000	 1.933329999996683e+000	 9.959212926204385e+000
0	 8.666700000016668e+000	 2.000000000000000e+000	 9.961039600231606e+000
0	 7.999999999999999e+000	 2.000000000000000e+000	 1.002443448159710e+001
0	 8.000000000000000e+000	 2.066670000003318e+000	 1.002604147168488e+001
0	 8.000000000000000e+000	 2.133340000006534e+000	 1.002761977962063e+001
0	 8.000000000000000e+000	 2.200010000009551e+000	 1.002917072343801e+001
0	 8.000000000000000e+000	 2.266680000012267e+000	 1.003069562117063e+001
0	 7.999999999999999e+000	 2.333350000014584e+000	 1.003219579085216e+001
0	 8.000000000000000e+000	 2.400020000016401e+000	 1.003367255051625e+001
0	 8.000000000000000e+000	 2.466690000017617e+000	 1.003512721819654e+001
0	 8.000000000000000e+000	 2.533360000018134e+000	 1.003656111192667e+001
0	 8.000000000000000e+000	 2.600030000017851e+000	 1.003797554974027e+001
0	 7.999999999999999e+000	 2.666700000016666e+000	 1.003937184967102e+001
0	 8.066670000003319e+000	 2.000000000000000e+000	 1.001818056990725e+001
0	 8.066670000003317e+000	 2.066670000003317e+000	 1.001980846751638e+001
0	 8.066670000003317e+000	 2.133340000006534e+000	 1.002140497508733e+001
0	 8.066670000003315e+000	 2.200010000009551e+000	 1.002297212183535e+001
0	 8.066670000003319e+000	 2.266680000012268e+000	 1.002451193697569e+001
0	 8.066670000003317e+000	 2.333350000014584e+000	 1.002602644972357e+001
0	 8.066670000003317e+000	 2.400020000016401e+000	 1.002751768929426e+001
0	 8.066670000003315e+000	 2.466690000017617e+000	 1.002898768490297e+001
0	 8.066670000003319e+000	 2.533360000018134e+000	 1.003043846576497e+001
0	 8.066670000003317e+000	 2.600030000017850e+000	 1.003187206109548e+001
0	 8.066670000003315e+000	 2.666700000016666e+000	 1.003329050010975e+001
0	 8.133340000006532e+000	 2.000000000000000e+000	 1.001191357759424e+001
0	 8.133340000006536e+000	 2.066670000003317e+000	 1.001356033600170e+001
0	 8.133340000006536e+000	 2.133340000006534e+000	 1.001517482338506e+001
0	 8.133340000006532e+000	 2.200010000009550e+000	 1.001675964584622e+001
0	 8.133340000006534e+000	 2.266680000012267e+000	 1.001831740948711e+001
0	 8.133340000006532e+000	 2.333350000014585e+000	 1.001985072040965e+001
0	 8.133340000006530e+000	 2.400020000016401e+000	 1.002136218471578e+001
0	 8.133340000006532e+000	 2.466690000017616e+000	 1.002285440850744e+001
0	 8.133340000006532e+000	 2.533360000018134e+000	 1.002432999788652e+001
0	 8.133340000006534e+000	 2.600030000017851e+000	 1.002579155895497e+001
0	 8.133340000006532e+000	 2.666700000016665e+000	 1.002724169781470e+001
0	 8.200010000009550e+000	 2.000000000000000e+000	 1.000563127852119e+001
0	 8.200010000009550e+000	 2.066670000003318e+000	 1.000729584768837e+001
0	 8.200010000009549e+000	 2.133340000006534e+000	 1.000892885933920e+001
0	 8.200010000009550e+000	 2.200010000009551e+000	 1.001053336216736e+001
0	 8.200010000009549e+000	 2.266680000012268e+000	 1.001211240486656e+001
0	 8.200010000009547e+000	 2.333350000014584e+000	 1.001366903613049e+001
0	 8.200010000009549e+000	 2.400020000016401e+000	 1.001520630465285e+001
0	 8.200010000009549e+000	 2.466690000017617e+000	 1.001672725912734e+001
0	 8.200010000009550e+000	 2.533360000018134e+000	 1.001823494824766e+001
0	 8.200010000009549e+000	 2.600030000017850e+000	 1.001973242070749e+001
0	 8.200010000009549e+000	 2.666700000016666e+000	 1.002122272520055e+001
0	 8.266680000012267e+000	 2.000000000000000e+000	 9.999331446551244e+000
0	 8.266680000012265e+000	 2.066670000003317e+000	 1.000101377312391e+001
0	 8.266680000012267e+000	 2.133340000006534e+000	 1.000266661777518e+001
0	 8.266680000012265e+000	 2.200010000009550e+000	 1.000429333749561e+001
0	 8.266680000012265e+000	 2.266680000012267e+000	 1.000589728927577e+001
0	 8.266680000012263e+000	 2.333350000014583e+000	 1.000748183010619e+001
0	 8.266680000012268e+000	 2.400020000016401e+000	 1.000905031697744e+001
0	 8.266680000012265e+000	 2.466690000017617e+000	 1.001060610688010e+001
0	 8.266680000012268e+000	 2.533360000018134e+000	 1.001215255680468e+001
0	 8.266680000012267e+000	 2.600030000017851e+000	 1.001369302374177e+001
0	 8.266680000012267e+000	 2.666700000016667e+000	 1.001523086468190e+001
0	 8.333350000014582e+000	 2.000000000000000e+000	 9.993011855547517e+000
0	 8.333350000014583e+000	 2.066670000003317e+000	 9.994712882855806e+000
0	 8.333350000014583e+000	 2.133340000006534e+000	 9.996387633518383e+000
0	 8.333350000014583e+000	 2.200010000009550e+000	 9.998039638527736e+000
0	 8.333350000014582e+000	 2.266680000012267e+000	 9.999672428876400e+000
0	 8.333350000014583e+000	 2.333350000014584e+000	 1.000128953555683e+001
0	 8.333350000014583e+000	 2.400020000016401e+000	 1.000289448956158e+001
0	 8.333350000014585e+000	 2.466690000017617e+000	 1.000449082188310e+001
0	 8.333350000014583e+000	 2.533360000018133e+000	 1.000608206351392e+001
0	 8.333350000014582e+000	 2.600030000017850e+000	 1.000767174544653e+001
0	 8.333350000014583e+000	 2.666700000016667e+000	 1.000926339867344e+001
0	 8.400020000016399e+000	 2.000000000000000e+000	 9.986670279373135e+000
0	 8.400020000016397e+000	 2.066670000003317e+000	 9.988391947431587e+000
0	 8.400020000016395e+000	 2.133340000006534e+000	 9.990091441394231e+000
0	 8.400020000016399e+000	 2.200010000009550e+000	 9.991772331960585e+000
0	 8.400020000016401e+000	 2.266680000012267e+000	 9.993438189830171e+000
0	 8.400020000016399e+000	 2.333350000014584e+000	 9.995092585702555e+000
0	 8.400020000016397e+000	 2.400020000016401e+000	 9.996739090277236e+000
0	 8.400020000016401e+000	 2.466690000017617e+000	 9.998381274253772e+000
0	 8.400020000016399e+000	 2.533360000018133e+000	 1.000002270833169e+001
0	 8.400020000016399e+000	 2.600030000017851e+000	 1.000166696321053e+001
0	 8.400020000016399e+000	 2.666700000016666e+000	 1.000331760958981e+001
0	 8.466690000017618e+000	 2.000000000000000e+000	 9.980304491891223e+000
0	 8.466690000017614e+000	 2.066670000003316e+000	 9.982049737398778e+000
0	 8.466690000017614e+000	 2.133340000006533e+000	 9.983777576228119e+000
0	 8.466690000017614e+000	 2.200010000009550e+000	 9.985491484490899e+000
0	 8.466690000017616e+000	 2.266680000012267e+000	 9.987194938298780e+000
0	 8.466690000017618e+000	 2.333350000014584e+000	 9.988891413763406e+000
0	 8.466690000017618e+000	 2.400020000016401e+000	 9.990584386996432e+000
0	 8.466690000017616e+000	 2.466690000017618e+000	 9.992277334109515e+000
0	 8.466690000017616e+000	 2.533360000018133e+000	 9.993973731214307e+000
0	 8.466690000017616e+000	 2.600030000017851e+000	 9.995677054422465e+000
0	 8.466690000017618e+000	 2.666700000016667e+000	 9.997390779845643e+000
0	 8.533360000018131e+000	 2.000000000000000e+000	 9.973912266964918e+000
0	 8.533360000018131e+000	 2.066670000003317e+000	 9.975685023304886e+000
0	 8.533360000018133e+000	 2.133340000006534e+000	 9.977445572845461e+000
0	 8.533360000018131e+000	 2.200010000009550e+000	 9.979197162815517e+000
0	 8.533360000018131e+000	 2.266680000012267e+000	 9.980943040443913e+000
0	 8.533360000018131e+000	 2.333350000014584e+000	 9.982686452959506e+000
0	 8.533360000018133e+000	 2.400020000016401e+000	 9.984430647591164e+000
0	 8.533360000018131e+000	 2.466690000017617e+000	 9.986178871567740e+000
0	 8.533360000018131e+000	 2.533360000018134e+000	 9.987934372118104e+000
0	 8.533360000018133e+000	 2.600030000017850e+000	 9.989700396471100e+000
0	 8.533360000018131e+000	 2.666700000016666e+000	 9.991480191855608e+000
0	 8.600030000017847e+000	 2.000000000000000e+000	 9.967491378457336e+000
0	 8.600030000017847e+000	 2.066670000003317e+000	 9.969296575697410e+000
0	 8.600030000017849e+000	 2.133340000006534e+000	 9.971094966071643e+000
0	 8.600030000017847e+000	 2.200010000009550e+000	 9.972889433631222e+000
0	 8.600030000017847e+000	 2.266680000012267e+000	 9.974682862427276e+000
0	 8.600030000017847e+000	 2.333350000014584e+000	 9.976478136510961e+000
0	 8.600030000017847e+000	 2.400020000016401e+000	 9.978278139933442e+000
0	 8.600030000017846e+000	 2.466690000017617e+000	 9.980085756745860e+000
0	 8.600030000017849e+000	 2.533360000018134e+000	 9.981903870999378e+000
0	 8.600030000017847e+000	 2.600030000017851e+000	 9.983735366745158e+000
0	 8.600030000017849e+000	 2.666700000016666e+000	 9.985583128034348e+000
0	 8.666700000016668e+000	 2.000000000000000e+000	 9.961039600231606e+000
0	 8.666700000016665e+000	 2.066670000003317e+000	 9.962883165123875e+000
0	 8.666700000016666e+000	 2.133340000006534e+000	 9.964725290732099e+000
0	 8.666700000016666e+000	 2.200010000009550e+000	 9.966568363634814e+000
0	 8.666700000016666e+000	 2.266680000012268e+000	 9.968414770410552e+000
0	 8.666700000016665e+000	 2.333350000014584e+000	 9.970266897637853e+000
0	 8.666700000016666e+000	 2.400020000016401e+000	 9.972127131895242e+000
0	 8.666700000016666e+000	 2.466690000017618e+000	 9.973997859761269e+000
0	 8.666700000016668e+000	 2.533360000018134e+000	 9.975881467814469e+000
0	 8.666700000016666e+000	 2.600030000017850e+000	 9.977780342633368e+000
0	 8.666700000016668e+000	 2.666700000016667e+000	 9.979696870796515e+000
0	 7.999999999999999e+000	 2.666700000016666e+000	 1.003937184967102e+001
0	 8.000000000000000e+000	 2.733360000014533e+000	 1.004073621772240e+001
0	 7.999999999999998e+000	 2.800020000011599e+000	 1.004205633709324e+001
0	 7.999999999999999e+000	 2.866680000008067e+000	 1.004333511718980e+001
0	 8.000000000000000e+000	 2.933340000004133e+000	 1.004457546741832e+001
0	 8.000000000000000e+000	 3.000000000000000e+000	 1.004578029718505e+001
0	 8.000000000000000e+000	 3.066659999995867e+000	 1.004695251589623e+001
0	 7.999999999999999e+000	 3.133319999991933e+000	 1.004809503295812e+001
0	 7.999999999999999e+000	 3.199979999988401e+000	 1.004921075777696e+001
0	 8.000000000000000e+000	 3.266639999985468e+000	 1.005030259975900e+001
0	 7.999999999999999e+000	 3.333299999983334e+000	 1.005137346831049e+001
0	 8.066670000003315e+000	 2.666700000016666e+000	 1.003329050010975e+001
0	 8.066670000003320e+000	 2.733360000014534e+000	 1.003468257764184e+001
0	 8.066670000003317e+000	 2.800020000011600e+000	 1.003603759389906e+001
0	 8.066670000003319e+000	 2.866680000008066e+000	 1.003735770099657e+001
0	 8.066670000003317e+000	 2.933340000004133e+000	 1.003864505104949e+001
0	 8.066670000003319e+000	 3.000000000000000e+000	 1.003990179617300e+001
0	 8.066670000003319e+000	 3.066659999995867e+000	 1.004113008848222e+001
0	 8.066670000003319e+000	 3.133319999991933e+000	 1.004233208009230e+001
0	 8.066670000003317e+000	 3.199979999988401e+000	 1.004350992311840e+001
0	 8.066670000003320e+000	 3.266639999985468e+000	 1.004466576967567e+001
0	 8.066670000003315e+000	 3.333299999983334e+000	 1.004580177187925e+001
0	 8.133340000006532e+000	 2.666700000016665e+000	 1.002724169781470e+001
0	 8.133340000006536e+000	 2.733360000014534e+000	 1.002867029249610e+001
0	 8.133340000006530e+000	 2.800020000011600e+000	 1.003006692445972e+001
0	 8.133340000006534e+000	 2.866680000008066e+000	 1.003143310460194e+001
0	 8.133340000006534e+000	 2.933340000004133e+000	 1.003277034381915e+001
0	 8.133340000006534e+000	 3.000000000000000e+000	 1.003408015300771e+001
0	 8.133340000006532e+000	 3.066659999995867e+000	 1.003536404306402e+001
0	 8.133340000006536e+000	 3.133319999991934e+000	 1.003662352488444e+001
0	 8.133340000006532e+000	 3.199979999988401e+000	 1.003786010936534e+001
0	 8.133340000006536e+000	 3.266639999985467e+000	 1.003907530740313e+001
0	 8.133340000006532e+000	 3.333299999983333e+000	 1.004027062989417e+001
0	 8.200010000009549e+000	 2.666700000016666e+000	 1.002122272520055e+001
0	 8.200010000009550e+000	 2.733360000014532e+000	 1.002269557427001e+001
0	 8.200010000009552e+000	 2.800020000011600e+000	 1.002413975146197e+001
0	 8.200010000009550e+000	 2.866680000008066e+000	 1.002555624252637e+001
0	 8.200010000009549e+000	 2.933340000004133e+000	 1.002694603321311e+001
0	 8.200010000009550e+000	 3.000000000000000e+000	 1.002831010927216e+001
0	 8.200010000009549e+000	 3.066659999995867e+000	 1.002964945645345e+001
0	 8.200010000009550e+000	 3.133319999991933e+000	 1.003096506050692e+001
0	 8.200010000009552e+000	 3.199979999988400e+000	 1.003225790718251e+001
0	 8.200010000009550e+000	 3.266639999985467e+000	 1.003352898223015e+001
0	 8.200010000009550e+000	 3.333299999983334e+000	 1.003477927139981e+001
0	 8.266680000012267e+000	 2.666700000016667e+000	 1.001523086468190e+001
0	 8.266680000012270e+000	 2.733360000014533e+000	 1.001675463494845e+001
0	 8.266680000012265e+000	 2.800020000011599e+000	 1.001825149759263e+001
0	 8.266680000012267e+000	 2.866680000008067e+000	 1.001972202929028e+001
0	 8.266680000012263e+000	 2.933340000004133e+000	 1.002116680671723e+001
0	 8.266680000012263e+000	 2.999999999999999e+000	 1.002258640654931e+001
0	 8.266680000012265e+000	 3.066659999995866e+000	 1.002398140546234e+001
0	 8.266680000012267e+000	 3.133319999991934e+000	 1.002535238013216e+001
0	 8.266680000012265e+000	 3.199979999988401e+000	 1.002669990723461e+001
0	 8.266680000012270e+000	 3.266639999985468e+000	 1.002802456344549e+001
0	 8.266680000012265e+000	 3.333299999983333e+000	 1.002932692544069e+001
0	 8.333350000014583e+000	 2.666700000016667e+000	 1.000926339867344e+001
0	 8.333350000014583e+000	 2.733360000014533e+000	 1.001084368651625e+001
0	 8.333350000014582e+000	 2.800020000011600e+000	 1.001239758553848e+001
0	 8.333350000014583e+000	 2.866680000008067e+000	 1.001392537941416e+001
0	 8.333350000014580e+000	 2.933340000004133e+000	 1.001542735181735e+001
0	 8.333350000014582e+000	 3.000000000000000e+000	 1.001690378642212e+001
0	 8.333350000014583e+000	 3.066659999995867e+000	 1.001835496690249e+001
0	 8.333350000014583e+000	 3.133319999991935e+000	 1.001978117693256e+001
0	 8.333350000014582e+000	 3.199979999988400e+000	 1.002118270018634e+001
0	 8.333350000014585e+000	 3.266639999985468e+000	 1.002255982033792e+001
0	 8.333350000014585e+000	 3.333299999983335e+000	 1.002391282106134e+001
0	 8.400020000016399e+000	 2.666700000016666e+000	 1.000331760958981e+001
0	 8.400020000016401e+000	 2.733360000014533e+000	 1.000495894095827e+001
0	 8.400020000016399e+000	 2.800020000011600e+000	 1.000657343798627e+001
0	 8.400020000016399e+000	 2.866680000008067e+000	 1.000816120741842e+001
0	 8.400020000016401e+000	 2.933340000004133e+000	 1.000972235599931e+001
0	 8.400020000016399e+000	 2.999999999999999e+000	 1.001125699047354e+001
0	 8.400020000016403e+000	 3.066659999995867e+000	 1.001276521758574e+001
0	 8.400020000016401e+000	 3.133319999991934e+000	 1.001424714408051e+001
0	 8.400020000016397e+000	 3.199979999988401e+000	 1.001570287670246e+001
0	 8.400020000016401e+000	 3.266639999985467e+000	 1.001713252219619e+001
0	 8.400020000016399e+000	 3.333299999983334e+000	 1.001853618730632e+001
0	 8.466690000017618e+000	 2.666700000016667e+000	 9.997390779845643e+000
0	 8.466690000017618e+000	 2.733360000014533e+000	 9.999096610259359e+000
0	 8.466690000017614e+000	 2.800020000011600e+000	 1.000077447762282e+001
0	 8.466690000017616e+000	 2.866680000008066e+000	 1.000242442782352e+001
0	 8.466690000017614e+000	 2.933340000004133e+000	 1.000404650674893e+001
0	 8.466690000017616e+000	 3.000000000000000e+000	 1.000564076028655e+001
0	 8.466690000017616e+000	 3.066659999995868e+000	 1.000720723432388e+001
0	 8.466690000017612e+000	 3.133319999991933e+000	 1.000874597474842e+001
0	 8.466690000017614e+000	 3.199979999988400e+000	 1.001025702744764e+001
0	 8.466690000017618e+000	 3.266639999985468e+000	 1.001174043830906e+001
0	 8.466690000017616e+000	 3.333299999983334e+000	 1.001319625322017e+001
0	 8.533360000018131e+000	 2.666700000016666e+000	 9.991480191855608e+000
0	 8.533360000018131e+000	 2.733360000014533e+000	 9.993252906404370e+000
0	 8.533360000018131e+000	 2.800020000011600e+000	 9.994996127134886e+000
0	 8.533360000018131e+000	 2.866680000008067e+000	 9.996709955149887e+000
0	 8.533360000018130e+000	 2.933340000004133e+000	 9.998394491552059e+000
0	 8.533360000018131e+000	 3.000000000000000e+000	 1.000004983744411e+001
0	 8.533360000018131e+000	 3.066659999995867e+000	 1.000167609392875e+001
0	 8.533360000018131e+000	 3.133319999991934e+000	 1.000327336210868e+001
0	 8.533360000018130e+000	 3.199979999988400e+000	 1.000484174308663e+001
0	 8.533360000018131e+000	 3.266639999985467e+000	 1.000638133796529e+001
0	 8.533360000018131e+000	 3.333299999983334e+000	 1.000789224784739e+001
0	 8.600030000017849e+000	 2.666700000016666e+000	 9.985583128034348e+000
0	 8.600030000017851e+000	 2.733360000014533e+000	 9.987424041378153e+000
0	 8.600030000017847e+000	 2.800020000011599e+000	 9.989233809209281e+000
0	 8.600030000017847e+000	 2.866680000008066e+000	 9.991012703917994e+000
0	 8.600030000017847e+000	 2.933340000004133e+000	 9.992760997894536e+000
0	 8.600030000017849e+000	 3.000000000000000e+000	 9.994478963529174e+000
0	 8.600030000017846e+000	 3.066659999995866e+000	 9.996166873212143e+000
0	 8.600030000017849e+000	 3.133319999991933e+000	 9.997824999333707e+000
0	 8.600030000017849e+000	 3.199979999988400e+000	 9.999453614284130e+000
0	 8.600030000017847e+000	 3.266639999985467e+000	 1.000105299045365e+001
0	 8.600030000017847e+000	 3.333299999983333e+000	 1.000262340023254e+001
0	 8.666700000016668e+000	 2.666700000016667e+000	 9.979696870796515e+000
0	 8.666700000016666e+000	 2.733360000014533e+000	 9.981606227165559e+000
0	 8.666700000016668e+000	 2.800020000011600e+000	 9.983482946532766e+000
0	 8.666700000016665e+000	 2.866680000008067e+000	 9.985327588648273e+000
0	 8.666700000016665e+000	 2.933340000004133e+000	 9.987140713262214e+000
0	 8.666700000016666e+000	 3.000000000000000e+000	 9.988922880124704e+000
0	 8.666700000016666e+000	 3.066659999995867e+000	 9.990674648985886e+000
0	 8.666700000016666e+000	 3.133319999991933e+000	 9.992396579595891e+000
0	 8.666700000016668e+000	 3.199979999988400e+000	 9.994089231704853e+000
0	 8.666700000016666e+000	 3.266639999985468e+000	 9.995753165062901e+000
0	 8.666700000016668e+000	 3.333299999983334e+000	 9.997388939420166e+000
0	 7.999999999999999e+000	 3.333299999983334e+000	 1.005137346831049e+001
0	 8.000000000000000e+000	 3.399969999982150e+000	 1.005240405591897e+001
0	 8.000000000000002e+000	 3.466639999981866e+000	 1.005337241014536e+001
0	 8.000000000000000e+000	 3.533309999982383e+000	 1.005427795066198e+001
0	 8.000000000000000e+000	 3.599979999983600e+000	 1.005512009714114e+001
0	 7.999999999999999e+000	 3.666649999985416e+000	 1.005589826925518e+001
0	 7.999999999999999e+000	 3.733319999987733e+000	 1.005661188667639e+001
0	 8.000000000000000e+000	 3.799989999990450e+000	 1.005726036907710e+001
0	 7.999999999999999e+000	 3.866659999993467e+000	 1.005784313612962e+001
0	 8.000000000000000e+000	 3.933329999996683e+000	 1.005835960750627e+001
0	 8.000000000000000e+000	 4.000000000000001e+000	 1.005880920287934e+001
0	 8.066670000003315e+000	 3.333299999983334e+000	 1.004580177187925e+001
0	 8.066670000003319e+000	 3.399969999982150e+000	 1.004689647198056e+001
0	 8.066670000003319e+000	 3.466639999981866e+000	 1.004792664807130e+001
0	 8.066670000003313e+000	 3.533309999982382e+000	 1.004889231313663e+001
0	 8.066670000003319e+000	 3.599979999983600e+000	 1.004979348016167e+001
0	 8.066670000003317e+000	 3.666649999985416e+000	 1.005063016213156e+001
0	 8.066670000003317e+000	 3.733319999987733e+000	 1.005140237203143e+001
0	 8.066670000003317e+000	 3.799989999990450e+000	 1.005211012284643e+001
0	 8.066670000003319e+000	 3.866659999993467e+000	 1.005275342756169e+001
0	 8.066670000003319e+000	 3.933329999996684e+000	 1.005333229916232e+001
0	 8.066670000003319e+000	 4.000000000000001e+000	 1.005384675063345e+001
0	 8.133340000006532e+000	 3.333299999983333e+000	 1.004027062989417e+001
0	 8.133340000006532e+000	 3.399969999982150e+000	 1.004142395752692e+001
0	 8.133340000006534e+000	 3.466639999981867e+000	 1.004251214714016e+001
0	 8.133340000006530e+000	 3.533309999982381e+000	 1.004353570755886e+001
0	 8.133340000006530e+000	 3.599979999983600e+000	 1.004449514760800e+001
0	 8.133340000006532e+000	 3.666649999985416e+000	 1.004539097611257e+001
0	 8.133340000006534e+000	 3.733319999987732e+000	 1.004622370189756e+001
0	 8.133340000006536e+000	 3.799989999990451e+000	 1.004699383378792e+001
0	 8.133340000006532e+000	 3.866659999993467e+000	 1.004770188060865e+001
0	 8.133340000006534e+000	 3.933329999996684e+000	 1.004834835118472e+001
0	 8.133340000006536e+000	 4.000000000000001e+000	 1.004893375434111e+001
0	 8.200010000009550e+000	 3.333299999983334e+000	 1.003477927139981e+001
0	 8.200010000009547e+000	 3.399969999982150e+000	 1.003598721152389e+001
0	 8.200010000009552e+000	 3.466639999981867e+000	 1.003713081495814e+001
0	 8.200010000009550e+000	 3.533309999982383e+000	 1.003821098889440e+001
0	 8.200010000009549e+000	 3.599979999983601e+000	 1.003922864052453e+001
0	 8.200010000009549e+000	 3.666649999985416e+000	 1.004018467704036e+001
0	 8.200010000009552e+000	 3.733319999987733e+000	 1.004108000563379e+001
0	 8.200010000009550e+000	 3.799989999990450e+000	 1.004191553349662e+001
0	 8.200010000009550e+000	 3.866659999993467e+000	 1.004269216782074e+001
0	 8.200010000009550e+000	 3.933329999996683e+000	 1.004341081579798e+001
0	 8.200010000009550e+000	 4.000000000000000e+000	 1.004407238462018e+001
0	 8.266680000012265e+000	 3.333299999983333e+000	 1.002932692544069e+001
0	 8.266680000012265e+000	 3.399969999982150e+000	 1.003058693293728e+001
0	 8.266680000012263e+000	 3.466639999981866e+000	 1.003178455913146e+001
0	 8.266680000012267e+000	 3.533309999982382e+000	 1.003292101210899e+001
0	 8.266680000012268e+000	 3.599979999983600e+000	 1.003399749995562e+001
0	 8.266680000012265e+000	 3.666649999985416e+000	 1.003501523075711e+001
0	 8.266680000012267e+000	 3.733319999987733e+000	 1.003597541259918e+001
0	 8.266680000012265e+000	 3.799989999990450e+000	 1.003687925356761e+001
0	 8.266680000012267e+000	 3.866659999993466e+000	 1.003772796174816e+001
0	 8.266680000012265e+000	 3.933329999996684e+000	 1.003852274522655e+001
0	 8.266680000012265e+000	 3.999999999999999e+000	 1.003926481208854e+001
0	 8.333350000014585e+000	 3.333299999983335e+000	 1.002391282106134e+001
0	 8.333350000014582e+000	 3.399969999982150e+000	 1.002522382073289e+001
0	 8.333350000014582e+000	 3.466639999981866e+000	 1.002647528726634e+001
0	 8.333350000014583e+000	 3.533309999982383e+000	 1.002766863216838e+001
0	 8.333350000014582e+000	 3.599979999983599e+000	 1.002880526694568e+001
0	 8.333350000014582e+000	 3.666649999985416e+000	 1.002988660310493e+001
0	 8.333350000014583e+000	 3.733319999987733e+000	 1.003091405215280e+001
0	 8.333350000014583e+000	 3.799989999990450e+000	 1.003188902559597e+001
0	 8.333350000014583e+000	 3.866659999993467e+000	 1.003281293494112e+001
0	 8.333350000014585e+000	 3.933329999996683e+000	 1.003368719169493e+001
0	 8.333350000014582e+000	 4.000000000000000e+000	 1.003451320736406e+001
0	 8.400020000016399e+000	 3.333299999983334e+000	 1.001853618730632e+001
0	 8.400020000016397e+000	 3.399969999982150e+000	 1.001989857387654e+001
0	 8.400020000016397e+000	 3.466639999981866e+000	 1.002120490696898e+001
0	 8.400020000016401e+000	 3.533309999982383e+000	 1.002245670403827e+001
0	 8.400020000016401e+000	 3.599979999983600e+000	 1.002365548253907e+001
0	 8.400020000016397e+000	 3.666649999985415e+000	 1.002480275992600e+001
0	 8.400020000016399e+000	 3.733319999987732e+000	 1.002590005365367e+001
0	 8.400020000016399e+000	 3.799989999990450e+000	 1.002694888117674e+001
0	 8.400020000016401e+000	 3.866659999993467e+000	 1.002795075994984e+001
0	 8.400020000016399e+000	 3.933329999996684e+000	 1.002890720742758e+001
0	 8.400020000016399e+000	 4.000000000000000e+000	 1.002981974106460e+001
0	 8.466690000017616e+000	 3.333299999983334e+000	 1.001319625322016e+001
0	 8.466690000017616e+000	 3.399969999982150e+000	 1.001461189133404e+001
0	 8.466690000017614e+000	 3.466639999981867e+000	 1.001597532584559e+001
0	 8.466690000017618e+000	 3.533309999982383e+000	 1.001728808268444e+001
0	 8.466690000017614e+000	 3.599979999983599e+000	 1.001855168778019e+001
0	 8.466690000017616e+000	 3.666649999985417e+000	 1.001976766706246e+001
0	 8.466690000017616e+000	 3.733319999987733e+000	 1.002093754646087e+001
0	 8.466690000017616e+000	 3.799989999990451e+000	 1.002206285190502e+001
0	 8.466690000017616e+000	 3.866659999993467e+000	 1.002314510932452e+001
0	 8.466690000017616e+000	 3.933329999996684e+000	 1.002418584464899e+001
0	 8.466690000017618e+000	 4.000000000000001e+000	 1.002518658380804e+001
0	 8.533360000018131e+000	 3.333299999983334e+000	 1.000789224784739e+001
0	 8.533360000018130e+000	 3.399969999982149e+000	 1.000936447207120e+001
0	 8.533360000018131e+000	 3.466639999981866e+000	 1.001078845150239e+001
0	 8.533360000018131e+000	 3.533309999982382e+000	 1.001216562307259e+001
0	 8.533360000018131e+000	 3.599979999983599e+000	 1.001349742371341e+001
0	 8.533360000018133e+000	 3.666649999985417e+000	 1.001478529035649e+001
0	 8.533360000018131e+000	 3.733319999987733e+000	 1.001603065993342e+001
0	 8.533360000018133e+000	 3.799989999990450e+000	 1.001723496937585e+001
0	 8.533360000018131e+000	 3.866659999993467e+000	 1.001839965561538e+001
0	 8.533360000018131e+000	 3.933329999996683e+000	 1.001952615558364e+001
0	 8.533360000018131e+000	 4.000000000000001e+000	 1.002061590621223e+001
0	 8.600030000017847e+000	 3.333299999983333e+000	 1.000262340023254e+001
0	 8.600030000017847e+000	 3.399969999982150e+000	 1.000415701505384e+001
0	 8.600030000017847e+000	 3.466639999981866e+000	 1.000564619154560e+001
0	 8.600030000017849e+000	 3.533309999982383e+000	 1.000709218016847e+001
0	 8.600030000017847e+000	 3.599979999983600e+000	 1.000849623138312e+001
0	 8.600030000017847e+000	 3.666649999985415e+000	 1.000985959565021e+001
0	 8.600030000017846e+000	 3.733319999987732e+000	 1.001118352343038e+001
0	 8.600030000017847e+000	 3.799989999990450e+000	 1.001246926518430e+001
0	 8.600030000017849e+000	 3.866659999993467e+000	 1.001371807137263e+001
0	 8.600030000017847e+000	 3.933329999996684e+000	 1.001493119245599e+001
0	 8.600030000017846e+000	 3.999999999999999e+000	 1.001610987889507e+001
0	 8.666700000016668e+000	 3.333299999983334e+000	 9.997388939420166e+000
0	 8.666700000016665e+000	 3.399969999982149e+000	 9.998990219247757e+000
0	 8.666700000016665e+000	 3.466639999981867e+000	 1.000055045358140e+001
0	 8.666700000016666e+000	 3.533309999982384e+000	 1.000207060893780e+001
0	 8.666700000016666e+000	 3.599979999983600e+000	 1.000355165183369e+001
0	 8.666700000016665e+000	 3.666649999985415e+000	 1.000499454878579e+001
0	 8.666700000016666e+000	 3.733319999987733e+000	 1.000640026631081e+001
0	 8.666700000016665e+000	 3.799989999990450e+000	 1.000776977092546e+001
0	 8.666700000016668e+000	 3.866659999993467e+000	 1.000910402914646e+001
0	 8.666700000016666e+000	 3.933329999996683e+000	 1.001040400749055e+001
0	 8.666700000016668e+000	 4.000000000000000e+000	 1.001167067247440e+001
0	 8.000000000000000e+000	 4.000000000000001e+000	 1.005880920287934e+001
0	 7.999999999999999e+000	 4.066670000003318e+000	 1.005920127226911e+001
0	 8.000000000000000e+000	 4.133340000006534e+000	 1.005954571324135e+001
0	 7.999999999999998e+000	 4.200010000009550e+000	 1.005984276678661e+001
0	 8.000000000000000e+000	 4.266680000012268e+000	 1.006009267389550e+001
0	 7.999999999999998e+000	 4.333350000014583e+000	 1.006029567555857e+001
0	 8.000000000000000e+000	 4.400020000016401e+000	 1.006045201276641e+001
0	 8.000000000000000e+000	 4.466690000017618e+000	 1.006056192650959e+001
0	 8.000000000000000e+000	 4.533360000018135e+000	 1.006062565777868e+001
0	 8.000000000000000e+000	 4.600030000017850e+000	 1.006064344756426e+001
0	 7.999999999999998e+000	 4.666700000016665e+000	 1.006061553685689e+001
0	 8.066670000003319e+000	 4.000000000000001e+000	 1.005384675063345e+001
0	 8.066670000003319e+000	 4.066670000003319e+000	 1.005430709962336e+001
0	 8.066670000003315e+000	 4.133340000006533e+000	 1.005472354788881e+001
0	 8.066670000003313e+000	 4.200010000009549e+000	 1.005509593457784e+001
0	 8.066670000003319e+000	 4.266680000012268e+000	 1.005542409883839e+001
0	 8.066670000003317e+000	 4.333350000014583e+000	 1.005570787981848e+001
0	 8.066670000003317e+000	 4.400020000016401e+000	 1.005594711666606e+001
0	 8.066670000003313e+000	 4.466690000017617e+000	 1.005614164852914e+001
0	 8.066670000003319e+000	 4.533360000018134e+000	 1.005629131455570e+001
0	 8.066670000003317e+000	 4.600030000017849e+000	 1.005639595389371e+001
0	 8.066670000003315e+000	 4.666700000016666e+000	 1.005645540569117e+001
0	 8.133340000006536e+000	 4.000000000000001e+000	 1.004893375434111e+001
0	 8.133340000006536e+000	 4.066670000003317e+000	 1.004946810947921e+001
0	 8.133340000006534e+000	 4.133340000006534e+000	 1.004996077110734e+001
0	 8.133340000006534e+000	 4.200010000009550e+000	 1.005041125071091e+001
0	 8.133340000006534e+000	 4.266680000012268e+000	 1.005081905977530e+001
0	 8.133340000006532e+000	 4.333350000014584e+000	 1.005118370978589e+001
0	 8.133340000006532e+000	 4.400020000016403e+000	 1.005150471222809e+001
0	 8.133340000006532e+000	 4.466690000017618e+000	 1.005178157858729e+001
0	 8.133340000006532e+000	 4.533360000018134e+000	 1.005201382034887e+001
0	 8.133340000006532e+000	 4.600030000017851e+000	 1.005220094899822e+001
0	 8.133340000006534e+000	 4.666700000016668e+000	 1.005234247602073e+001
0	 8.200010000009550e+000	 4.000000000000000e+000	 1.004407238462018e+001
0	 8.200010000009550e+000	 4.066670000003317e+000	 1.004468556407099e+001
0	 8.200010000009550e+000	 4.133340000006535e+000	 1.004525794447465e+001
0	 8.200010000009550e+000	 4.200010000009550e+000	 1.004578878383395e+001
0	 8.200010000009550e+000	 4.266680000012268e+000	 1.004627734015169e+001
0	 8.200010000009547e+000	 4.333350000014582e+000	 1.004672287143068e+001
0	 8.200010000009547e+000	 4.400020000016402e+000	 1.004712463567368e+001
0	 8.200010000009550e+000	 4.466690000017619e+000	 1.004748189088351e+001
0	 8.200010000009550e+000	 4.533360000018134e+000	 1.004779389506294e+001
0	 8.200010000009549e+000	 4.600030000017851e+000	 1.004805990621476e+001
0	 8.200010000009550e+000	 4.666700000016667e+000	 1.004827918234179e+001
0	 8.266680000012265e+000	 3.999999999999999e+000	 1.003926481208854e+001
0	 8.266680000012267e+000	 4.066670000003318e+000	 1.003996072563302e+001
0	 8.266680000012268e+000	 4.133340000006534e+000	 1.004061562956847e+001
0	 8.266680000012265e+000	 4.200010000009550e+000	 1.004122860259510e+001
0	 8.266680000012265e+000	 4.266680000012268e+000	 1.004179872341311e+001
0	 8.266680000012265e+000	 4.333350000014584e+000	 1.004232507072266e+001
0	 8.266680000012267e+000	 4.400020000016401e+000	 1.004280672322398e+001
0	 8.266680000012267e+000	 4.466690000017618e+000	 1.004324275961724e+001
0	 8.266680000012265e+000	 4.533360000018133e+000	 1.004363225860264e+001
0	 8.266680000012267e+000	 4.600030000017851e+000	 1.004397429888035e+001
0	 8.266680000012267e+000	 4.666700000016667e+000	 1.004426795915059e+001
0	 8.333350000014582e+000	 4.000000000000000e+000	 1.003451320736406e+001
0	 8.333350000014583e+000	 4.066670000003319e+000	 1.003529485639959e+001
0	 8.333350000014582e+000	 4.133340000006534e+000	 1.003603438796653e+001
0	 8.333350000014583e+000	 4.200010000009550e+000	 1.003673077564246e+001
0	 8.333350000014582e+000	 4.266680000012268e+000	 1.003738299300500e+001
0	 8.333350000014583e+000	 4.333350000014584e+000	 1.003799001363169e+001
0	 8.333350000014582e+000	 4.400020000016401e+000	 1.003855081110015e+001
0	 8.333350000014585e+000	 4.466690000017616e+000	 1.003906435898795e+001
0	 8.333350000014583e+000	 4.533360000018132e+000	 1.003952963087270e+001
0	 8.333350000014582e+000	 4.600030000017849e+000	 1.003994560033196e+001
0	 8.333350000014585e+000	 4.666700000016668e+000	 1.004031124094333e+001
0	 8.400020000016399e+000	 4.000000000000000e+000	 1.002981974106461e+001
0	 8.400020000016399e+000	 4.066670000003316e+000	 1.003068921860502e+001
0	 8.400020000016397e+000	 4.133340000006535e+000	 1.003151478124655e+001
0	 8.400020000016399e+000	 4.200010000009550e+000	 1.003229537162418e+001
0	 8.400020000016401e+000	 4.266680000012267e+000	 1.003302993237286e+001
0	 8.400020000016401e+000	 4.333350000014584e+000	 1.003371740612759e+001
0	 8.400020000016397e+000	 4.400020000016402e+000	 1.003435673552335e+001
0	 8.400020000016401e+000	 4.466690000017616e+000	 1.003494686319512e+001
0	 8.400020000016395e+000	 4.533360000018133e+000	 1.003548673177787e+001
0	 8.400020000016399e+000	 4.600030000017850e+000	 1.003597528390657e+001
0	 8.400020000016399e+000	 4.666700000016666e+000	 1.003641146221623e+001
0	 8.466690000017618e+000	 4.000000000000001e+000	 1.002518658380804e+001
0	 8.466690000017614e+000	 4.066670000003316e+000	 1.002614507448364e+001
0	 8.466690000017614e+000	 4.133340000006533e+000	 1.002705737098629e+001
0	 8.466690000017614e+000	 4.200010000009550e+000	 1.002792245918836e+001
0	 8.466690000017616e+000	 4.266680000012268e+000	 1.002873932496221e+001
0	 8.466690000017616e+000	 4.333350000014582e+000	 1.002950695418022e+001
0	 8.466690000017618e+000	 4.400020000016401e+000	 1.003022433271474e+001
0	 8.466690000017618e+000	 4.466690000017619e+000	 1.003089044643818e+001
0	 8.466690000017614e+000	 4.533360000018133e+000	 1.003150428122286e+001
0	 8.466690000017618e+000	 4.600030000017850e+000	 1.003206482294118e+001
0	 8.466690000017616e+000	 4.666700000016666e+000	 1.003257105746548e+001
0	 8.533360000018131e+000	 4.000000000000001e+000	 1.002061590621224e+001
0	 8.533360000018131e+000	 4.066670000003317e+000	 1.002166368626974e+001
0	 8.533360000018133e+000	 4.133340000006534e+000	 1.002266271876345e+001
0	 8.533360000018131e+000	 4.200010000009550e+000	 1.002361210698312e+001
0	 8.533360000018131e+000	 4.266680000012268e+000	 1.002451095421852e+001
0	 8.533360000018131e+000	 4.333350000014583e+000	 1.002535836375941e+001
0	 8.533360000018131e+000	 4.400020000016402e+000	 1.002615343889550e+001
0	 8.533360000018131e+000	 4.466690000017617e+000	 1.002689528291661e+001
0	 8.533360000018133e+000	 4.533360000018134e+000	 1.002758299911244e+001
0	 8.533360000018133e+000	 4.600030000017851e+000	 1.002821569077276e+001
0	 8.533360000018131e+000	 4.666700000016666e+000	 1.002879246118733e+001
0	 8.600030000017846e+000	 3.999999999999999e+000	 1.001610987889507e+001
0	 8.600030000017849e+000	 4.066670000003319e+000	 1.001724631619762e+001
0	 8.600030000017849e+000	 4.133340000006535e+000	 1.001833138615576e+001
0	 8.600030000017847e+000	 4.200010000009550e+000	 1.001936438365660e+001
0	 8.600030000017847e+000	 4.266680000012268e+000	 1.002034460358728e+001
0	 8.600030000017847e+000	 4.333350000014583e+000	 1.002127134083498e+001
0	 8.600030000017847e+000	 4.400020000016401e+000	 1.002214389028679e+001
0	 8.600030000017846e+000	 4.466690000017617e+000	 1.002296154682985e+001
0	 8.600030000017849e+000	 4.533360000018132e+000	 1.002372360535132e+001
0	 8.600030000017849e+000	 4.600030000017850e+000	 1.002442936073831e+001
0	 8.600030000017847e+000	 4.666700000016666e+000	 1.002507810787796e+001
0	 8.666700000016668e+000	 4.000000000000000e+000	 1.001167067247440e+001
0	 8.666700000016666e+000	 4.066670000003317e+000	 1.001289422650162e+001
0	 8.666700000016666e+000	 4.133340000006535e+000	 1.001406393474094e+001
0	 8.666700000016668e+000	 4.200010000009551e+000	 1.001517935785690e+001
0	 8.666700000016666e+000	 4.266680000012268e+000	 1.001624005651401e+001
0	 8.666700000016666e+000	 4.333350000014585e+000	 1.001724559137678e+001
0	 8.666700000016666e+000	 4.400020000016401e+000	 1.001819552310974e+001
0	 8.666700000016666e+000	 4.466690000017618e+000	 1.001908941237738e+001
0	 8.666700000016668e+000	 4.533360000018134e+000	 1.001992681984424e+001
0	 8.666700000016666e+000	 4.600030000017851e+000	 1.002070730617481e+001
0	 8.666700000016668e+000	 4.666700000016666e+000	 1.002143043203362e+001
0	 7.999999999999998e+000	 4.666700000016665e+000	 1.006061553685689e+001
0	 8.000000000000000e+000	 4.733360000014532e+000	 1.006054228613777e+001
0	 8.000000000000000e+000	 4.800020000011601e+000	 1.006042288540649e+001
0	 8.000000000000000e+000	 4.866680000008068e+000	 1.006025584273648e+001
0	 7.999999999999998e+000	 4.933340000004133e+000	 1.006003966620112e+001
0	 7.999999999999999e+000	 5.000000000000000e+000	 1.005977286387385e+001
0	 8.000000000000000e+000	 5.066659999995867e+000	 1.005945394382803e+001
0	 8.000000000000000e+000	 5.133319999991934e+000	 1.005908141413710e+001
0	 8.000000000000000e+000	 5.199979999988400e+000	 1.005865378287446e+001
0	 8.000000000000000e+000	 5.266639999985468e+000	 1.005816955811351e+001
0	 8.000000000000000e+000	 5.333299999983333e+000	 1.005762724792768e+001
0	 8.066670000003315e+000	 4.666700000016666e+000	 1.005645540569117e+001
0	 8.066670000003319e+000	 4.733360000014533e+000	 1.005646822339136e+001
0	 8.066670000003313e+000	 4.800020000011598e+000	 1.005643235056181e+001
0	 8.066670000003320e+000	 4.866680000008067e+000	 1.005634669497567e+001
0	 8.066670000003319e+000	 4.933340000004134e+000	 1.005621016440612e+001
0	 8.066670000003320e+000	 5.000000000000001e+000	 1.005602166662633e+001
0	 8.066670000003319e+000	 5.066659999995867e+000	 1.005578010940945e+001
0	 8.066670000003319e+000	 5.133319999991934e+000	 1.005548440052867e+001
0	 8.066670000003317e+000	 5.199979999988400e+000	 1.005513344775714e+001
0	 8.066670000003319e+000	 5.266639999985468e+000	 1.005472615886806e+001
0	 8.066670000003313e+000	 5.333299999983333e+000	 1.005426144163459e+001
0	 8.133340000006534e+000	 4.666700000016668e+000	 1.005234247602073e+001
0	 8.133340000006536e+000	 4.733360000014532e+000	 1.005243618208834e+001
0	 8.133340000006530e+000	 4.800020000011599e+000	 1.005247970723117e+001
0	 8.133340000006534e+000	 4.866680000008065e+000	 1.005247229862098e+001
0	 8.133340000006534e+000	 4.933340000004134e+000	 1.005241320342957e+001
0	 8.133340000006536e+000	 5.000000000000002e+000	 1.005230166882870e+001
0	 8.133340000006532e+000	 5.066659999995866e+000	 1.005213694199020e+001
0	 8.133340000006536e+000	 5.133319999991933e+000	 1.005191827008583e+001
0	 8.133340000006530e+000	 5.199979999988400e+000	 1.005164490028737e+001
0	 8.133340000006534e+000	 5.266639999985468e+000	 1.005131607976661e+001
0	 8.133340000006532e+000	 5.333299999983334e+000	 1.005093105569536e+001
0	 8.200010000009550e+000	 4.666700000016667e+000	 1.004827918234179e+001
0	 8.200010000009550e+000	 4.733360000014533e+000	 1.004844957772482e+001
0	 8.200010000009554e+000	 4.800020000011601e+000	 1.004856918418439e+001
0	 8.200010000009550e+000	 4.866680000008065e+000	 1.004863752798977e+001
0	 8.200010000009550e+000	 4.933340000004133e+000	 1.004865413541021e+001
0	 8.200010000009550e+000	 5.000000000000001e+000	 1.004861853271495e+001
0	 8.200010000009549e+000	 5.066659999995867e+000	 1.004853024617327e+001
0	 8.200010000009550e+000	 5.133319999991934e+000	 1.004838880205442e+001
0	 8.200010000009552e+000	 5.199979999988400e+000	 1.004819372662766e+001
0	 8.200010000009550e+000	 5.266639999985467e+000	 1.004794454616225e+001
0	 8.200010000009550e+000	 5.333299999983333e+000	 1.004764078692745e+001
0	 8.266680000012267e+000	 4.666700000016667e+000	 1.004426795915059e+001
0	 8.266680000012268e+000	 4.733360000014534e+000	 1.004451182579689e+001
0	 8.266680000012263e+000	 4.800020000011599e+000	 1.004470501019131e+001
0	 8.266680000012265e+000	 4.866680000008066e+000	 1.004484725739941e+001
0	 8.266680000012265e+000	 4.933340000004133e+000	 1.004493831248678e+001
0	 8.266680000012265e+000	 5.000000000000000e+000	 1.004497792051900e+001
0	 8.266680000012267e+000	 5.066659999995867e+000	 1.004496582656165e+001
0	 8.266680000012267e+000	 5.133319999991935e+000	 1.004490177568031e+001
0	 8.266680000012265e+000	 5.199979999988400e+000	 1.004478551294059e+001
0	 8.266680000012268e+000	 5.266639999985468e+000	 1.004461678340804e+001
0	 8.266680000012265e+000	 5.333299999983334e+000	 1.004439533214827e+001
0	 8.333350000014585e+000	 4.666700000016668e+000	 1.004031124094333e+001
0	 8.333350000014585e+000	 4.733360000014534e+000	 1.004062634180067e+001
0	 8.333350000014580e+000	 4.800020000011601e+000	 1.004089141402172e+001
0	 8.333350000014580e+000	 4.866680000008065e+000	 1.004110636116725e+001
0	 8.333350000014578e+000	 4.933340000004132e+000	 1.004127108679801e+001
0	 8.333350000014582e+000	 4.999999999999998e+000	 1.004138549447477e+001
0	 8.333350000014582e+000	 5.066659999995868e+000	 1.004144948775831e+001
0	 8.333350000014580e+000	 5.133319999991934e+000	 1.004146297020934e+001
0	 8.333350000014580e+000	 5.199979999988400e+000	 1.004142584538867e+001
0	 8.333350000014583e+000	 5.266639999985467e+000	 1.004133801685704e+001
0	 8.333350000014585e+000	 5.333299999983336e+000	 1.004119938817524e+001
0	 8.400020000016399e+000	 4.666700000016666e+000	 1.003641146221623e+001
0	 8.400020000016401e+000	 4.733360000014534e+000	 1.003679654123224e+001
0	 8.400020000016399e+000	 4.800020000011600e+000	 1.003713262444544e+001
0	 8.400020000016399e+000	 4.866680000008065e+000	 1.003741971361066e+001
0	 8.400020000016401e+000	 4.933340000004133e+000	 1.003765781048267e+001
0	 8.400020000016401e+000	 4.999999999999999e+000	 1.003784691681625e+001
0	 8.400020000016403e+000	 5.066659999995867e+000	 1.003798703436622e+001
0	 8.400020000016399e+000	 5.133319999991934e+000	 1.003807816488735e+001
0	 8.400020000016397e+000	 5.199979999988400e+000	 1.003812031013446e+001
0	 8.400020000016401e+000	 5.266639999985468e+000	 1.003811347186234e+001
0	 8.400020000016397e+000	 5.333299999983332e+000	 1.003805765182579e+001
0	 8.466690000017616e+000	 4.666700000016666e+000	 1.003257105746548e+001
0	 8.466690000017618e+000	 4.733360000014533e+000	 1.003302583958769e+001
0	 8.466690000017614e+000	 4.800020000011601e+000	 1.003343287023232e+001
0	 8.466690000017618e+000	 4.866680000008068e+000	 1.003379218904701e+001
0	 8.466690000017616e+000	 4.933340000004134e+000	 1.003410383567946e+001
0	 8.466690000017618e+000	 5.000000000000000e+000	 1.003436784977735e+001
0	 8.466690000017614e+000	 5.066659999995866e+000	 1.003458427098836e+001
0	 8.466690000017616e+000	 5.133319999991934e+000	 1.003475313896019e+001
0	 8.466690000017612e+000	 5.199979999988399e+000	 1.003487449334050e+001
0	 8.466690000017616e+000	 5.266639999985467e+000	 1.003494837377698e+001
0	 8.466690000017618e+000	 5.333299999983334e+000	 1.003497481991734e+001
0	 8.533360000018131e+000	 4.666700000016666e+000	 1.002879246118733e+001
0	 8.533360000018130e+000	 4.733360000014534e+000	 1.002931765236316e+001
0	 8.533360000018135e+000	 4.800020000011601e+000	 1.002979638015213e+001
0	 8.533360000018131e+000	 4.866680000008066e+000	 1.003022866179364e+001
0	 8.533360000018133e+000	 4.933340000004134e+000	 1.003061451452714e+001
0	 8.533360000018133e+000	 5.000000000000001e+000	 1.003095395559202e+001
0	 8.533360000018133e+000	 5.066659999995866e+000	 1.003124700222773e+001
0	 8.533360000018131e+000	 5.133319999991934e+000	 1.003149367167369e+001
0	 8.533360000018131e+000	 5.199979999988400e+000	 1.003169398116932e+001
0	 8.533360000018133e+000	 5.266639999985468e+000	 1.003184794795406e+001
0	 8.533360000018131e+000	 5.333299999983332e+000	 1.003195558926733e+001
0	 8.600030000017847e+000	 4.666700000016666e+000	 1.002507810787796e+001
0	 8.600030000017849e+000	 4.733360000014534e+000	 1.002567539505473e+001
0	 8.600030000017849e+000	 4.800020000011600e+000	 1.002622738297472e+001
0	 8.600030000017846e+000	 4.866680000008065e+000	 1.002673400616794e+001
0	 8.600030000017846e+000	 4.933340000004134e+000	 1.002719519916444e+001
0	 8.600030000017849e+000	 4.999999999999999e+000	 1.002761089649422e+001
0	 8.600030000017847e+000	 5.066659999995866e+000	 1.002798103268730e+001
0	 8.600030000017849e+000	 5.133319999991934e+000	 1.002830554227372e+001
0	 8.600030000017849e+000	 5.199979999988401e+000	 1.002858435978349e+001
0	 8.600030000017846e+000	 5.266639999985467e+000	 1.002881741974663e+001
0	 8.600030000017849e+000	 5.333299999983334e+000	 1.002900465669318e+001
0	 8.666700000016668e+000	 4.666700000016666e+000	 1.002143043203362e+001
0	 8.666700000016666e+000	 4.733360000014534e+000	 1.002210248315848e+001
0	 8.666700000016668e+000	 4.800020000011600e+000	 1.002273010746987e+001
0	 8.666700000016665e+000	 4.866680000008067e+000	 1.002331309648724e+001
0	 8.666700000016666e+000	 4.933340000004133e+000	 1.002385124173009e+001
0	 8.666700000016666e+000	 5.000000000000000e+000	 1.002434433471786e+001
0	 8.666700000016666e+000	 5.066659999995867e+000	 1.002479216697004e+001
0	 8.666700000016666e+000	 5.133319999991934e+000	 1.002519453000610e+001
0	 8.666700000016666e+000	 5.199979999988400e+000	 1.002555121534552e+001
0	 8.666700000016666e+000	 5.266639999985468e+000	 1.002586201450776e+001
0	 8.666700000016668e+000	 5.333299999983335e+000	 1.002612671901231e+001
0	 8.000000000000000e+000	 5.333299999983333e+000	 1.005762724792768e+001
0	 8.000000000000000e+000	 5.399969999982149e+000	 1.005704284959716e+001
0	 8.000000000000000e+000	 5.466639999981868e+000	 1.005643292631816e+001
0	 8.000000000000000e+000	 5.533309999982382e+000	 1.005579657767981e+001
0	 8.000000000000000e+000	 5.599979999983600e+000	 1.005513290327122e+001
0	 8.000000000000000e+000	 5.666649999985416e+000	 1.005444100268148e+001
0	 7.999999999999999e+000	 5.733319999987732e+000	 1.005371997549973e+001
0	 8.000000000000000e+000	 5.799989999990449e+000	 1.005296892131506e+001
0	 7.999999999999998e+000	 5.866659999993466e+000	 1.005218693971658e+001
0	 8.000000000000000e+000	 5.933329999996682e+000	 1.005137313029342e+001
0	 8.000000000000000e+000	 6.000000000000001e+000	 1.005052659263467e+001
0	 8.066670000003313e+000	 5.333299999983333e+000	 1.005426144163459e+001
0	 8.066670000003319e+000	 5.399969999982149e+000	 1.005375545841982e+001
0	 8.066670000003317e+000	 5.466639999981866e+000	 1.005322453560685e+001
0	 8.066670000003315e+000	 5.533309999982384e+000	 1.005266760476859e+001
0	 8.066670000003317e+000	 5.599979999983599e+000	 1.005208359747797e+001
0	 8.066670000003319e+000	 5.666649999985415e+000	 1.005147144530793e+001
0	 8.066670000003319e+000	 5.733319999987732e+000	 1.005083007983140e+001
0	 8.066670000003315e+000	 5.799989999990451e+000	 1.005015843262132e+001
0	 8.066670000003315e+000	 5.866659999993466e+000	 1.004945543525060e+001
0	 8.066670000003317e+000	 5.933329999996684e+000	 1.004872001929219e+001
0	 8.066670000003319e+000	 5.999999999999999e+000	 1.004795111631900e+001
0	 8.133340000006532e+000	 5.333299999983334e+000	 1.005093105569536e+001
0	 8.133340000006530e+000	 5.399969999982149e+000	 1.005050548151877e+001
0	 8.133340000006532e+000	 5.466639999981865e+000	 1.005005483806461e+001
0	 8.133340000006530e+000	 5.533309999982382e+000	 1.004957792754056e+001
0	 8.133340000006532e+000	 5.599979999983600e+000	 1.004907355215419e+001
0	 8.133340000006532e+000	 5.666649999985416e+000	 1.004854051411317e+001
0	 8.133340000006534e+000	 5.733319999987733e+000	 1.004797761562509e+001
0	 8.133340000006532e+000	 5.799989999990447e+000	 1.004738365889757e+001
0	 8.133340000006534e+000	 5.866659999993466e+000	 1.004675744613826e+001
0	 8.133340000006532e+000	 5.933329999996683e+000	 1.004609777955476e+001
0	 8.133340000006532e+000	 5.999999999999998e+000	 1.004540346135468e+001
0	 8.200010000009550e+000	 5.333299999983333e+000	 1.004764078692745e+001
0	 8.200010000009547e+000	 5.399969999982151e+000	 1.004729705167847e+001
0	 8.200010000009554e+000	 5.466639999981866e+000	 1.004692749935838e+001
0	 8.200010000009550e+000	 5.533309999982383e+000	 1.004653084146037e+001
0	 8.200010000009547e+000	 5.599979999983600e+000	 1.004610578947760e+001
0	 8.200010000009547e+000	 5.666649999985416e+000	 1.004565105490328e+001
0	 8.200010000009552e+000	 5.733319999987733e+000	 1.004516534923060e+001
0	 8.200010000009550e+000	 5.799989999990449e+000	 1.004464738395270e+001
0	 8.200010000009552e+000	 5.866659999993468e+000	 1.004409587056283e+001
0	 8.200010000009550e+000	 5.933329999996684e+000	 1.004350952055413e+001
0	 8.200010000009552e+000	 6.000000000000000e+000	 1.004288704541979e+001
0	 8.266680000012265e+000	 5.333299999983334e+000	 1.004439533214827e+001
0	 8.266680000012265e+000	 5.399969999982150e+000	 1.004413430168345e+001
0	 8.266680000012265e+000	 5.466639999981866e+000	 1.004384618515504e+001
0	 8.266680000012267e+000	 5.533309999982383e+000	 1.004352964199264e+001
0	 8.266680000012270e+000	 5.599979999983600e+000	 1.004318333162586e+001
0	 8.266680000012267e+000	 5.666649999985417e+000	 1.004280591348436e+001
0	 8.266680000012268e+000	 5.733319999987733e+000	 1.004239604699773e+001
0	 8.266680000012263e+000	 5.799989999990449e+000	 1.004195239159561e+001
0	 8.266680000012267e+000	 5.866659999993467e+000	 1.004147360670761e+001
0	 8.266680000012265e+000	 5.933329999996683e+000	 1.004095835176334e+001
0	 8.266680000012267e+000	 6.000000000000001e+000	 1.004040528619240e+001
0	 8.333350000014585e+000	 5.333299999983336e+000	 1.004119938817524e+001
0	 8.333350000014583e+000	 5.399969999982149e+000	 1.004102136431818e+001
0	 8.333350000014582e+000	 5.466639999981867e+000	 1.004081456112145e+001
0	 8.333350000014583e+000	 5.533309999982384e+000	 1.004057762460199e+001
0	 8.333350000014582e+000	 5.599979999983598e+000	 1.004030920077670e+001
0	 8.333350000014583e+000	 5.666649999985417e+000	 1.004000793566251e+001
0	 8.333350000014580e+000	 5.733319999987733e+000	 1.003967247527637e+001
0	 8.333350000014582e+000	 5.799989999990449e+000	 1.003930146563518e+001
0	 8.333350000014583e+000	 5.866659999993468e+000	 1.003889355275587e+001
0	 8.333350000014585e+000	 5.933329999996683e+000	 1.003844738265537e+001
0	 8.333350000014582e+000	 6.000000000000001e+000	 1.003796160135060e+001
0	 8.400020000016397e+000	 5.333299999983332e+000	 1.003805765182579e+001
0	 8.400020000016401e+000	 5.399969999982150e+000	 1.003796237236717e+001
0	 8.400020000016399e+000	 5.466639999981866e+000	 1.003783629292458e+001
0	 8.400020000016399e+000	 5.533309999982381e+000	 1.003767808475308e+001
0	 8.400020000016399e+000	 5.599979999983600e+000	 1.003748641910779e+001
0	 8.400020000016397e+000	 5.666649999985415e+000	 1.003725996724384e+001
0	 8.400020000016401e+000	 5.733319999987732e+000	 1.003699740041630e+001
0	 8.400020000016401e+000	 5.799989999990450e+000	 1.003669738988030e+001
0	 8.400020000016399e+000	 5.866659999993468e+000	 1.003635860689092e+001
0	 8.400020000016399e+000	 5.933329999996684e+000	 1.003597972270327e+001
0	 8.400020000016399e+000	 6.000000000000001e+000	 1.003555940857246e+001
0	 8.466690000017618e+000	 5.333299999983334e+000	 1.003497481991734e+001
0	 8.466690000017616e+000	 5.399969999982151e+000	 1.003496145861490e+001
0	 8.466690000017614e+000	 5.466639999981866e+000	 1.003491504623125e+001
0	 8.466690000017616e+000	 5.533309999982383e+000	 1.003483431791051e+001
0	 8.466690000017614e+000	 5.599979999983598e+000	 1.003471800879685e+001
0	 8.466690000017616e+000	 5.666649999985417e+000	 1.003456485403442e+001
0	 8.466690000017616e+000	 5.733319999987733e+000	 1.003437358876738e+001
0	 8.466690000017616e+000	 5.799989999990450e+000	 1.003414294813987e+001
0	 8.466690000017614e+000	 5.866659999993465e+000	 1.003387166729604e+001
0	 8.466690000017614e+000	 5.933329999996682e+000	 1.003355848138005e+001
0	 8.466690000017618e+000	 6.000000000000000e+000	 1.003320212553604e+001
0	 8.533360000018131e+000	 5.333299999983332e+000	 1.003195558926733e+001
0	 8.533360000018131e+000	 5.399969999982149e+000	 1.003202275584589e+001
0	 8.533360000018131e+000	 5.466639999981866e+000	 1.003205448670839e+001
0	 8.533360000018133e+000	 5.533309999982382e+000	 1.003204961953894e+001
0	 8.533360000018131e+000	 5.599979999983598e+000	 1.003200699202156e+001
0	 8.533360000018135e+000	 5.666649999985418e+000	 1.003192544184037e+001
0	 8.533360000018131e+000	 5.733319999987733e+000	 1.003180380667942e+001
0	 8.533360000018133e+000	 5.799989999990448e+000	 1.003164092422276e+001
0	 8.533360000018131e+000	 5.866659999993468e+000	 1.003143563215452e+001
0	 8.533360000018131e+000	 5.933329999996682e+000	 1.003118676815872e+001
0	 8.533360000018130e+000	 5.999999999999998e+000	 1.003089316991945e+001
0	 8.600030000017849e+000	 5.333299999983334e+000	 1.002900465669318e+001
0	 8.600030000017846e+000	 5.399969999982150e+000	 1.002915039684461e+001
0	 8.600030000017849e+000	 5.466639999981867e+000	 1.002925828002290e+001
0	 8.600030000017849e+000	 5.533309999982384e+000	 1.002932728510296e+001
0	 8.600030000017847e+000	 5.599979999983599e+000	 1.002935639095961e+001
0	 8.600030000017847e+000	 5.666649999985416e+000	 1.002934457646774e+001
0	 8.600030000017846e+000	 5.733319999987732e+000	 1.002929082050222e+001
0	 8.600030000017849e+000	 5.799989999990449e+000	 1.002919410193789e+001
0	 8.600030000017851e+000	 5.866659999993467e+000	 1.002905339964964e+001
0	 8.600030000017847e+000	 5.933329999996682e+000	 1.002886769251230e+001
0	 8.600030000017847e+000	 6.000000000000000e+000	 1.002863595940075e+001
0	 8.666700000016668e+000	 5.333299999983335e+000	 1.002612671901231e+001
0	 8.666700000016668e+000	 5.399969999982151e+000	 1.002634851439554e+001
0	 8.666700000016668e+000	 5.466639999981867e+000	 1.002653009184168e+001
0	 8.666700000016668e+000	 5.533309999982384e+000	 1.002667061006722e+001
0	 8.666700000016668e+000	 5.599979999983600e+000	 1.002676922778872e+001
0	 8.666700000016665e+000	 5.666649999985414e+000	 1.002682510372268e+001
0	 8.666700000016666e+000	 5.733319999987733e+000	 1.002683739658564e+001
0	 8.666700000016666e+000	 5.799989999990448e+000	 1.002680526509413e+001
0	 8.666700000016665e+000	 5.866659999993467e+000	 1.002672786796468e+001
0	 8.666700000016665e+000	 5.933329999996682e+000	 1.002660436391380e+001
0	 8.666700000016666e+000	 6.000000000000001e+000	 1.002643391165802e+001
0	 8.000000000000000e+000	 6.000000000000001e+000	 1.005052659263467e+001
0	 8.000000000000002e+000	 6.066670000003317e+000	 1.004965562959392e+001
0	 7.999999999999999e+000	 6.133340000006534e+000	 1.004876821509079e+001
0	 7.999999999999999e+000	 6.200010000009551e+000	 1.004786295531350e+001
0	 7.999999999999997e+000	 6.266680000012266e+000	 1.004693845645018e+001
0	 7.999999999999999e+000	 6.333350000014583e+000	 1.004599332468903e+001
0	 8.000000000000000e+000	 6.400020000016401e+000	 1.004502616621824e+001
0	 8.000000000000000e+000	 6.466690000017617e+000	 1.004403558722597e+001
0	 8.000000000000000e+000	 6.533360000018136e+000	 1.004302019390040e+001
0	 7.999999999999998e+000	 6.600030000017848e+000	 1.004197859242973e+001
0	 8.000000000000000e+000	 6.666700000016668e+000	 1.004090938900212e+001
0	 8.066670000003319e+000	 5.999999999999999e+000	 1.004795111631900e+001
0	 8.066670000003317e+000	 6.066670000003317e+000	 1.004715627018085e+001
0	 8.066670000003315e+000	 6.133340000006531e+000	 1.004634293972132e+001
0	 8.066670000003317e+000	 6.200010000009550e+000	 1.004550992900403e+001
0	 8.066670000003317e+000	 6.266680000012268e+000	 1.004465604209261e+001
0	 8.066670000003317e+000	 6.333350000014583e+000	 1.004378008305064e+001
0	 8.066670000003317e+000	 6.400020000016400e+000	 1.004288085594175e+001
0	 8.066670000003317e+000	 6.466690000017618e+000	 1.004195716482957e+001
0	 8.066670000003315e+000	 6.533360000018133e+000	 1.004100781377770e+001
0	 8.066670000003317e+000	 6.600030000017851e+000	 1.004003160684976e+001
0	 8.066670000003315e+000	 6.666700000016666e+000	 1.003902734810936e+001
0	 8.133340000006532e+000	 5.999999999999998e+000	 1.004540346135468e+001
0	 8.133340000006532e+000	 6.066670000003315e+000	 1.004468173376465e+001
0	 8.133340000006534e+000	 6.133340000006532e+000	 1.004393995361941e+001
0	 8.133340000006532e+000	 6.200010000009550e+000	 1.004317709503892e+001
0	 8.133340000006536e+000	 6.266680000012268e+000	 1.004239213214304e+001
0	 8.133340000006532e+000	 6.333350000014582e+000	 1.004158403905171e+001
0	 8.133340000006532e+000	 6.400020000016401e+000	 1.004075178988482e+001
0	 8.133340000006532e+000	 6.466690000017616e+000	 1.003989435876230e+001
0	 8.133340000006534e+000	 6.533360000018134e+000	 1.003901071980403e+001
0	 8.133340000006534e+000	 6.600030000017848e+000	 1.003809984712993e+001
0	 8.133340000006532e+000	 6.666700000016665e+000	 1.003716071485991e+001
0	 8.200010000009552e+000	 6.000000000000000e+000	 1.004288704541979e+001
0	 8.200010000009550e+000	 6.066670000003316e+000	 1.004223575956118e+001
0	 8.200010000009550e+000	 6.133340000006533e+000	 1.004156324728889e+001
0	 8.200010000009549e+000	 6.200010000009551e+000	 1.004086862496000e+001
0	 8.200010000009552e+000	 6.266680000012268e+000	 1.004015100893155e+001
0	 8.200010000009547e+000	 6.333350000014582e+000	 1.003940951556060e+001
0	 8.200010000009549e+000	 6.400020000016402e+000	 1.003864326120424e+001
0	 8.200010000009552e+000	 6.466690000017618e+000	 1.003785136221951e+001
0	 8.200010000009552e+000	 6.533360000018135e+000	 1.003703293496346e+001
0	 8.200010000009549e+000	 6.600030000017852e+000	 1.003618709579316e+001
0	 8.200010000009550e+000	 6.666700000016667e+000	 1.003531296106567e+001
0	 8.266680000012267e+000	 6.000000000000001e+000	 1.004040528619240e+001
0	 8.266680000012267e+000	 6.066670000003319e+000	 1.003982208678633e+001
0	 8.266680000012270e+000	 6.133340000006534e+000	 1.003921681123354e+001
0	 8.266680000012265e+000	 6.200010000009550e+000	 1.003858869030912e+001
0	 8.266680000012268e+000	 6.266680000012268e+000	 1.003793695478815e+001
0	 8.266680000012265e+000	 6.333350000014584e+000	 1.003726083544568e+001
0	 8.266680000012268e+000	 6.400020000016401e+000	 1.003655956305679e+001
0	 8.266680000012265e+000	 6.466690000017615e+000	 1.003583236839656e+001
0	 8.266680000012267e+000	 6.533360000018136e+000	 1.003507848224005e+001
0	 8.266680000012265e+000	 6.600030000017849e+000	 1.003429713536234e+001
0	 8.266680000012267e+000	 6.666700000016666e+000	 1.003348755853848e+001
0	 8.333350000014582e+000	 6.000000000000001e+000	 1.003796160135060e+001
0	 8.333350000014583e+000	 6.066670000003317e+000	 1.003744445465595e+001
0	 8.333350000014583e+000	 6.133340000006533e+000	 1.003690463595715e+001
0	 8.333350000014582e+000	 6.200010000009551e+000	 1.003634146262814e+001
0	 8.333350000014580e+000	 6.266680000012267e+000	 1.003575425204287e+001
0	 8.333350000014583e+000	 6.333350000014583e+000	 1.003514232157526e+001
0	 8.333350000014583e+000	 6.400020000016401e+000	 1.003450498859927e+001
0	 8.333350000014582e+000	 6.466690000017616e+000	 1.003384157048883e+001
0	 8.333350000014583e+000	 6.533360000018131e+000	 1.003315138461788e+001
0	 8.333350000014582e+000	 6.600030000017849e+000	 1.003243374836035e+001
0	 8.333350000014585e+000	 6.666700000016668e+000	 1.003168797909020e+001
0	 8.400020000016399e+000	 6.000000000000001e+000	 1.003555940857246e+001
0	 8.400020000016399e+000	 6.066670000003318e+000	 1.003510660238592e+001
0	 8.400020000016399e+000	 6.133340000006534e+000	 1.003463071196352e+001
0	 8.400020000016401e+000	 6.200010000009551e+000	 1.003413111345889e+001
0	 8.400020000016399e+000	 6.266680000012268e+000	 1.003360718302573e+001
0	 8.400020000016399e+000	 6.333350000014584e+000	 1.003305829681769e+001
0	 8.400020000016401e+000	 6.400020000016401e+000	 1.003248383098844e+001
0	 8.400020000016401e+000	 6.466690000017617e+000	 1.003188316169165e+001
0	 8.400020000016397e+000	 6.533360000018134e+000	 1.003125566508099e+001
0	 8.400020000016399e+000	 6.600030000017850e+000	 1.003060071731012e+001
0	 8.400020000016399e+000	 6.666700000016666e+000	 1.002991769453269e+001
0	 8.466690000017618e+000	 6.000000000000000e+000	 1.003320212553604e+001
0	 8.466690000017614e+000	 6.066670000003315e+000	 1.003281226919212e+001
0	 8.466690000017616e+000	 6.133340000006535e+000	 1.003239902975643e+001
0	 8.466690000017616e+000	 6.200010000009552e+000	 1.003196181434322e+001
0	 8.466690000017618e+000	 6.266680000012268e+000	 1.003150003006677e+001
0	 8.466690000017616e+000	 6.333350000014583e+000	 1.003101308404132e+001
0	 8.466690000017616e+000	 6.400020000016399e+000	 1.003050038338111e+001
0	 8.466690000017616e+000	 6.466690000017615e+000	 1.002996133520042e+001
0	 8.466690000017616e+000	 6.533360000018133e+000	 1.002939534661347e+001
0	 8.466690000017616e+000	 6.600030000017851e+000	 1.002880182473453e+001
0	 8.466690000017614e+000	 6.666700000016665e+000	 1.002818017667784e+001
0	 8.533360000018130e+000	 5.999999999999998e+000	 1.003089316991945e+001
0	 8.533360000018131e+000	 6.066670000003316e+000	 1.003056519429039e+001
0	 8.533360000018133e+000	 6.133340000006533e+000	 1.003021357983969e+001
0	 8.533360000018131e+000	 6.200010000009550e+000	 1.002983773682300e+001
0	 8.533360000018131e+000	 6.266680000012267e+000	 1.002943707549603e+001
0	 8.533360000018133e+000	 6.333350000014584e+000	 1.002901100611449e+001
0	 8.533360000018131e+000	 6.400020000016400e+000	 1.002855893893408e+001
0	 8.533360000018130e+000	 6.466690000017616e+000	 1.002808028421047e+001
0	 8.533360000018135e+000	 6.533360000018137e+000	 1.002757445219936e+001
0	 8.533360000018133e+000	 6.600030000017853e+000	 1.002704085315646e+001
0	 8.533360000018130e+000	 6.666700000016665e+000	 1.002647889733748e+001
0	 8.600030000017847e+000	 6.000000000000000e+000	 1.002863595940075e+001
0	 8.600030000017847e+000	 6.066670000003317e+000	 1.002836911689665e+001
0	 8.600030000017847e+000	 6.133340000006535e+000	 1.002807835271707e+001
0	 8.600030000017849e+000	 6.200010000009550e+000	 1.002776305244004e+001
0	 8.600030000017849e+000	 6.266680000012268e+000	 1.002742260164352e+001
0	 8.600030000017847e+000	 6.333350000014583e+000	 1.002705638590555e+001
0	 8.600030000017847e+000	 6.400020000016401e+000	 1.002666379080409e+001
0	 8.600030000017849e+000	 6.466690000017617e+000	 1.002624420191715e+001
0	 8.600030000017849e+000	 6.533360000018135e+000	 1.002579700482275e+001
0	 8.600030000017849e+000	 6.600030000017851e+000	 1.002532158509886e+001
0	 8.600030000017847e+000	 6.666700000016666e+000	 1.002481732832347e+001
0	 8.666700000016666e+000	 6.000000000000001e+000	 1.002643391165802e+001
0	 8.666700000016666e+000	 6.066670000003318e+000	 1.002622777622673e+001
0	 8.666700000016666e+000	 6.133340000006533e+000	 1.002599733889240e+001
0	 8.666700000016666e+000	 6.200010000009550e+000	 1.002574193273621e+001
0	 8.666700000016666e+000	 6.266680000012268e+000	 1.002546089083930e+001
0	 8.666700000016666e+000	 6.333350000014585e+000	 1.002515354628283e+001
0	 8.666700000016668e+000	 6.400020000016401e+000	 1.002481923214796e+001
0	 8.666700000016668e+000	 6.466690000017617e+000	 1.002445728151586e+001
0	 8.666700000016668e+000	 6.533360000018135e+000	 1.002406702746767e+001
0	 8.666700000016666e+000	 6.600030000017850e+000	 1.002364780308457e+001
0	 8.666700000016666e+000	 6.666700000016665e+000	 1.002319894144769e+001
0	 8.000000000000000e+000	 6.666700000016668e+000	 1.004090938900212e+001
0	 7.999999999999999e+000	 6.733360000014532e+000	 1.003982647659306e+001
0	 8.000000000000000e+000	 6.800020000011601e+000	 1.003874357835212e+001
0	 7.999999999999999e+000	 6.866680000008068e+000	 1.003765953326520e+001
0	 8.000000000000000e+000	 6.933340000004133e+000	 1.003657318031819e+001
0	 8.000000000000000e+000	 7.000000000000000e+000	 1.003548335849702e+001
0	 7.999999999999999e+000	 7.066659999995867e+000	 1.003438890678761e+001
0	 8.000000000000000e+000	 7.133319999991934e+000	 1.003328866417586e+001
0	 8.000000000000000e+000	 7.199979999988400e+000	 1.003218146964766e+001
0	 8.000000000000000e+000	 7.266639999985467e+000	 1.003106616218894e+001
0	 8.000000000000000e+000	 7.333299999983335e+000	 1.002994158078563e+001
0	 8.066670000003315e+000	 6.666700000016666e+000	 1.003902734810936e+001
0	 8.066670000003317e+000	 6.733360000014533e+000	 1.003800887533654e+001
0	 8.066670000003315e+000	 6.800020000011600e+000	 1.003698971800925e+001
0	 8.066670000003320e+000	 6.866680000008067e+000	 1.003596867612248e+001
0	 8.066670000003317e+000	 6.933340000004135e+000	 1.003494454967121e+001
0	 8.066670000003319e+000	 7.000000000000001e+000	 1.003391613865042e+001
0	 8.066670000003319e+000	 7.066659999995868e+000	 1.003288224305511e+001
0	 8.066670000003320e+000	 7.133319999991935e+000	 1.003184166288026e+001
0	 8.066670000003317e+000	 7.199979999988400e+000	 1.003079319812087e+001
0	 8.066670000003319e+000	 7.266639999985467e+000	 1.002973564877190e+001
0	 8.066670000003315e+000	 7.333299999983334e+000	 1.002866781482834e+001
0	 8.133340000006532e+000	 6.666700000016665e+000	 1.003716071485991e+001
0	 8.133340000006532e+000	 6.733360000014531e+000	 1.003620685902442e+001
0	 8.133340000006530e+000	 6.800020000011598e+000	 1.003525139757046e+001
0	 8.133340000006538e+000	 6.866680000008069e+000	 1.003429310659315e+001
0	 8.133340000006532e+000	 6.933340000004131e+000	 1.003333076218759e+001
0	 8.133340000006532e+000	 6.999999999999998e+000	 1.003236314044891e+001
0	 8.133340000006534e+000	 7.066659999995868e+000	 1.003138901747220e+001
0	 8.133340000006538e+000	 7.133319999991936e+000	 1.003040716935259e+001
0	 8.133340000006530e+000	 7.199979999988400e+000	 1.002941637218517e+001
0	 8.133340000006534e+000	 7.266639999985466e+000	 1.002841540206507e+001
0	 8.133340000006534e+000	 7.333299999983332e+000	 1.002740303508739e+001
0	 8.200010000009550e+000	 6.666700000016667e+000	 1.003531296106567e+001
0	 8.200010000009550e+000	 6.733360000014532e+000	 1.003442357137161e+001
0	 8.200010000009554e+000	 6.800020000011600e+000	 1.003353146802795e+001
0	 8.200010000009550e+000	 6.866680000008068e+000	 1.003263541832096e+001
0	 8.200010000009550e+000	 6.933340000004135e+000	 1.003173418953695e+001
0	 8.200010000009550e+000	 7.000000000000001e+000	 1.003082654896220e+001
0	 8.200010000009549e+000	 7.066659999995867e+000	 1.002991126388296e+001
0	 8.200010000009550e+000	 7.133319999991934e+000	 1.002898710158553e+001
0	 8.200010000009552e+000	 7.199979999988400e+000	 1.002805282935621e+001
0	 8.200010000009549e+000	 7.266639999985465e+000	 1.002710721448124e+001
0	 8.200010000009549e+000	 7.333299999983334e+000	 1.002614902424696e+001
0	 8.266680000012267e+000	 6.666700000016666e+000	 1.003348755853848e+001
0	 8.266680000012268e+000	 6.733360000014533e+000	 1.003266215609299e+001
0	 8.266680000012263e+000	 6.800020000011598e+000	 1.003183278037391e+001
0	 8.266680000012263e+000	 6.866680000008066e+000	 1.003099820494970e+001
0	 8.266680000012267e+000	 6.933340000004133e+000	 1.003015720338889e+001
0	 8.266680000012265e+000	 6.999999999999997e+000	 1.002930854925997e+001
0	 8.266680000012263e+000	 7.066659999995864e+000	 1.002845101613144e+001
0	 8.266680000012263e+000	 7.133319999991934e+000	 1.002758337757181e+001
0	 8.266680000012263e+000	 7.199979999988400e+000	 1.002670440714956e+001
0	 8.266680000012270e+000	 7.266639999985468e+000	 1.002581287843320e+001
0	 8.266680000012265e+000	 7.333299999983333e+000	 1.002490756499124e+001
0	 8.333350000014585e+000	 6.666700000016668e+000	 1.003168797909020e+001
0	 8.333350000014583e+000	 6.733360000014532e+000	 1.003092575690348e+001
0	 8.333350000014582e+000	 6.800020000011600e+000	 1.003015818560052e+001
0	 8.333350000014582e+000	 6.866680000008068e+000	 1.002938406012311e+001
0	 8.333350000014582e+000	 6.933340000004134e+000	 1.002860217541300e+001
0	 8.333350000014582e+000	 6.999999999999999e+000	 1.002781132641195e+001
0	 8.333350000014582e+000	 7.066659999995867e+000	 1.002701030806174e+001
0	 8.333350000014580e+000	 7.133319999991932e+000	 1.002619791530412e+001
0	 8.333350000014583e+000	 7.199979999988400e+000	 1.002537294308086e+001
0	 8.333350000014583e+000	 7.266639999985467e+000	 1.002453418633373e+001
0	 8.333350000014585e+000	 7.333299999983335e+000	 1.002368044000448e+001
0	 8.400020000016399e+000	 6.666700000016666e+000	 1.002991769453269e+001
0	 8.400020000016399e+000	 6.733360000014533e+000	 1.002921751751795e+001
0	 8.400020000016399e+000	 6.800020000011600e+000	 1.002851053470002e+001
0	 8.400020000016401e+000	 6.866680000008066e+000	 1.002779557748497e+001
0	 8.400020000016403e+000	 6.933340000004135e+000	 1.002707147727888e+001
0	 8.400020000016399e+000	 6.999999999999998e+000	 1.002633706548784e+001
0	 8.400020000016399e+000	 7.066659999995868e+000	 1.002559117351790e+001
0	 8.400020000016401e+000	 7.133319999991935e+000	 1.002483263277517e+001
0	 8.400020000016399e+000	 7.199979999988401e+000	 1.002406027466570e+001
0	 8.400020000016399e+000	 7.266639999985467e+000	 1.002327293059559e+001
0	 8.400020000016397e+000	 7.333299999983333e+000	 1.002246943197089e+001
0	 8.466690000017614e+000	 6.666700000016665e+000	 1.002818017667784e+001
0	 8.466690000017618e+000	 6.733360000014533e+000	 1.002754058165133e+001
0	 8.466690000017614e+000	 6.800020000011599e+000	 1.002689267866458e+001
0	 8.466690000017616e+000	 6.866680000008067e+000	 1.002623535067904e+001
0	 8.466690000017616e+000	 6.933340000004133e+000	 1.002556748065615e+001
0	 8.466690000017614e+000	 6.999999999999999e+000	 1.002488795155733e+001
0	 8.466690000017616e+000	 7.066659999995867e+000	 1.002419564634403e+001
0	 8.466690000017616e+000	 7.133319999991935e+000	 1.002348944797768e+001
0	 8.466690000017614e+000	 7.199979999988400e+000	 1.002276823941971e+001
0	 8.466690000017618e+000	 7.266639999985467e+000	 1.002203090363156e+001
0	 8.466690000017616e+000	 7.333299999983335e+000	 1.002127632357468e+001
0	 8.533360000018130e+000	 6.666700000016665e+000	 1.002647889733748e+001
0	 8.533360000018133e+000	 6.733360000014534e+000	 1.002589809301848e+001
0	 8.533360000018133e+000	 6.800020000011600e+000	 1.002530746848640e+001
0	 8.533360000018130e+000	 6.866680000008066e+000	 1.002470597334909e+001
0	 8.533360000018131e+000	 6.933340000004133e+000	 1.002409255721440e+001
0	 8.533360000018131e+000	 6.999999999999998e+000	 1.002346616969014e+001
0	 8.533360000018133e+000	 7.066659999995868e+000	 1.002282576038418e+001
0	 8.533360000018133e+000	 7.133319999991935e+000	 1.002217027890435e+001
0	 8.533360000018130e+000	 7.199979999988400e+000	 1.002149867485849e+001
0	 8.533360000018131e+000	 7.266639999985467e+000	 1.002080989785444e+001
0	 8.533360000018133e+000	 7.333299999983334e+000	 1.002010289750006e+001
0	 8.600030000017847e+000	 6.666700000016666e+000	 1.002481732832347e+001
0	 8.600030000017849e+000	 6.733360000014533e+000	 1.002429319533430e+001
0	 8.600030000017849e+000	 6.800020000011600e+000	 1.002375775515770e+001
0	 8.600030000017847e+000	 6.866680000008065e+000	 1.002321003913889e+001
0	 8.600030000017849e+000	 6.933340000004136e+000	 1.002264907862323e+001
0	 8.600030000017849e+000	 7.000000000000001e+000	 1.002207390495597e+001
0	 8.600030000017849e+000	 7.066659999995869e+000	 1.002148354948242e+001
0	 8.600030000017849e+000	 7.133319999991936e+000	 1.002087704354789e+001
0	 8.600030000017847e+000	 7.199979999988400e+000	 1.002025341849765e+001
0	 8.600030000017849e+000	 7.266639999985468e+000	 1.001961170567700e+001
0	 8.600030000017849e+000	 7.333299999983335e+000	 1.001895093643126e+001
0	 8.666700000016666e+000	 6.666700000016665e+000	 1.002319894144769e+001
0	 8.666700000016666e+000	 6.733360000014533e+000	 1.002272903231372e+001
0	 8.666700000016668e+000	 6.800020000011599e+000	 1.002224638967063e+001
0	 8.666700000016668e+000	 6.866680000008068e+000	 1.002175014169220e+001
0	 8.666700000016666e+000	 6.933340000004133e+000	 1.002123941655224e+001
0	 8.666700000016666e+000	 7.000000000000001e+000	 1.002071334242452e+001
0	 8.666700000016665e+000	 7.066659999995867e+000	 1.002017104748284e+001
0	 8.666700000016665e+000	 7.133319999991934e+000	 1.001961165990100e+001
0	 8.666700000016668e+000	 7.199979999988400e+000	 1.001903430785279e+001
0	 8.666700000016666e+000	 7.266639999985467e+000	 1.001843811951202e+001
0	 8.666700000016665e+000	 7.333299999983335e+000	 1.001782222305247e+001
0	 8.000000000000000e+000	 7.333299999983335e+000	 1.002994158078563e+001
0	 8.000000000000000e+000	 7.399969999982151e+000	 1.002881802383166e+001
0	 8.000000000000000e+000	 7.466639999981867e+000	 1.002770598186970e+001
0	 8.000000000000000e+000	 7.533309999982385e+000	 1.002660407373537e+001
0	 8.000000000000000e+000	 7.599979999983599e+000	 1.002551091826432e+001
0	 7.999999999999999e+000	 7.666649999985416e+000	 1.002442513429216e+001
0	 7.999999999999999e+000	 7.733319999987732e+000	 1.002334534065455e+001
0	 7.999999999999999e+000	 7.799989999990448e+000	 1.002227015618711e+001
0	 7.999999999999998e+000	 7.866659999993465e+000	 1.002119819972547e+001
0	 8.000000000000000e+000	 7.933329999996684e+000	 1.002012809010529e+001
0	 7.999999999999999e+000	 7.999999999999999e+000	 1.001905844616221e+001
0	 8.066670000003315e+000	 7.333299999983334e+000	 1.002866781482834e+001
0	 8.066670000003315e+000	 7.399969999982151e+000	 1.002759975569708e+001
0	 8.066670000003315e+000	 7.466639999981865e+000	 1.002654179129437e+001
0	 8.066670000003315e+000	 7.533309999982385e+000	 1.002549262931171e+001
0	 8.066670000003319e+000	 7.599979999983599e+000	 1.002445097744057e+001
0	 8.066670000003317e+000	 7.666649999985415e+000	 1.002341554337245e+001
0	 8.066670000003319e+000	 7.733319999987733e+000	 1.002238503479885e+001
0	 8.066670000003315e+000	 7.799989999990450e+000	 1.002135815941126e+001
0	 8.066670000003317e+000	 7.866659999993467e+000	 1.002033362490116e+001
0	 8.066670000003317e+000	 7.933329999996682e+000	 1.001931013896004e+001
0	 8.066670000003319e+000	 7.999999999999998e+000	 1.001828640927942e+001
0	 8.133340000006534e+000	 7.333299999983332e+000	 1.002740303508739e+001
0	 8.133340000006532e+000	 7.399969999982148e+000	 1.002638922533150e+001
0	 8.133340000006530e+000	 7.466639999981864e+000	 1.002538424047981e+001
0	 8.133340000006532e+000	 7.533309999982381e+000	 1.002438686867313e+001
0	 8.133340000006532e+000	 7.599979999983599e+000	 1.002339589805223e+001
0	 8.133340000006532e+000	 7.666649999985415e+000	 1.002241011675792e+001
0	 8.133340000006536e+000	 7.733319999987734e+000	 1.002142831293100e+001
0	 8.133340000006532e+000	 7.799989999990449e+000	 1.002044927471228e+001
0	 8.133340000006532e+000	 7.866659999993466e+000	 1.001947179024253e+001
0	 8.133340000006532e+000	 7.933329999996682e+000	 1.001849464766256e+001
0	 8.133340000006532e+000	 7.999999999999997e+000	 1.001751663511318e+001
0	 8.200010000009549e+000	 7.333299999983334e+000	 1.002614902424696e+001
0	 8.200010000009547e+000	 7.399969999982149e+000	 1.002518821622546e+001
0	 8.200010000009552e+000	 7.466639999981867e+000	 1.002423509941607e+001
0	 8.200010000009550e+000	 7.533309999982384e+000	 1.002328853400231e+001
0	 8.200010000009549e+000	 7.599979999983600e+000	 1.002234738016777e+001
0	 8.200010000009549e+000	 7.666649999985415e+000	 1.002141049809596e+001
0	 8.200010000009552e+000	 7.733319999987732e+000	 1.002047674797047e+001
0	 8.200010000009549e+000	 7.799989999990451e+000	 1.001954498997484e+001
0	 8.200010000009550e+000	 7.866659999993467e+000	 1.001861408429265e+001
0	 8.200010000009550e+000	 7.933329999996683e+000	 1.001768289110741e+001
0	 8.200010000009550e+000	 8.000000000000002e+000	 1.001675027060273e+001
0	 8.266680000012265e+000	 7.333299999983333e+000	 1.002490756499124e+001
0	 8.266680000012265e+000	 7.399969999982149e+000	 1.002399851186951e+001
0	 8.266680000012265e+000	 7.466639999981865e+000	 1.002309613809316e+001
0	 8.266680000012267e+000	 7.533309999982384e+000	 1.002219936748193e+001
0	 8.266680000012268e+000	 7.599979999983600e+000	 1.002130712385561e+001
0	 8.266680000012265e+000	 7.666649999985415e+000	 1.002041833103394e+001
0	 8.266680000012267e+000	 7.733319999987733e+000	 1.001953191283669e+001
0	 8.266680000012263e+000	 7.799989999990447e+000	 1.001864679308362e+001
0	 8.266680000012268e+000	 7.866659999993467e+000	 1.001776189559452e+001
0	 8.266680000012265e+000	 7.933329999996682e+000	 1.001687614418914e+001
0	 8.266680000012265e+000	 8.000000000000002e+000	 1.001598846268724e+001
0	 8.333350000014585e+000	 7.333299999983335e+000	 1.002368044000448e+001
0	 8.333350000014582e+000	 7.399969999982149e+000	 1.002282189575422e+001
0	 8.333350000014583e+000	 7.466639999981867e+000	 1.002196912650112e+001
0	 8.333350000014583e+000	 7.533309999982384e+000	 1.002112111129464e+001
0	 8.333350000014582e+000	 7.599979999983598e+000	 1.002027682918420e+001
0	 8.333350000014582e+000	 7.666649999985415e+000	 1.001943525921922e+001
0	 8.333350000014582e+000	 7.733319999987732e+000	 1.001859538044912e+001
0	 8.333350000014582e+000	 7.799989999990450e+000	 1.001775617192331e+001
0	 8.333350000014583e+000	 7.866659999993467e+000	 1.001691661269123e+001
0	 8.333350000014585e+000	 7.933329999996684e+000	 1.001607568180232e+001
0	 8.333350000014580e+000	 7.999999999999999e+000	 1.001523235830597e+001
0	 8.400020000016397e+000	 7.333299999983333e+000	 1.002246943197089e+001
0	 8.400020000016397e+000	 7.399969999982148e+000	 1.002166015137010e+001
0	 8.400020000016399e+000	 7.466639999981867e+000	 1.002085583463000e+001
0	 8.400020000016399e+000	 7.533309999982381e+000	 1.002005550762313e+001
0	 8.400020000016401e+000	 7.599979999983600e+000	 1.001925819622201e+001
0	 8.400020000016397e+000	 7.666649999985414e+000	 1.001846292629919e+001
0	 8.400020000016401e+000	 7.733319999987733e+000	 1.001766872372719e+001
0	 8.400020000016399e+000	 7.799989999990449e+000	 1.001687461437854e+001
0	 8.400020000016399e+000	 7.866659999993467e+000	 1.001607962412580e+001
0	 8.400020000016397e+000	 7.933329999996681e+000	 1.001528277884149e+001
0	 8.400020000016399e+000	 7.999999999999999e+000	 1.001448310439813e+001
0	 8.466690000017616e+000	 7.333299999983335e+000	 1.002127632357468e+001
0	 8.466690000017614e+000	 7.399969999982150e+000	 1.002051506220774e+001
0	 8.466690000017614e+000	 7.466639999981866e+000	 1.001975803246983e+001
0	 8.466690000017616e+000	 7.533309999982383e+000	 1.001900429865004e+001
0	 8.466690000017614e+000	 7.599979999983599e+000	 1.001825292503748e+001
0	 8.466690000017616e+000	 7.666649999985416e+000	 1.001750297592121e+001
0	 8.466690000017614e+000	 7.733319999987732e+000	 1.001675351559036e+001
0	 8.466690000017614e+000	 7.799989999990449e+000	 1.001600360833401e+001
0	 8.466690000017616e+000	 7.866659999993467e+000	 1.001525231844126e+001
0	 8.466690000017612e+000	 7.933329999996682e+000	 1.001449871020121e+001
0	 8.466690000017618e+000	 8.000000000000000e+000	 1.001374184790296e+001
0	 8.533360000018133e+000	 7.333299999983334e+000	 1.002010289750006e+001
0	 8.533360000018130e+000	 7.399969999982149e+000	 1.001938841175768e+001
0	 8.533360000018131e+000	 7.466639999981865e+000	 1.001867749001063e+001
0	 8.533360000018133e+000	 7.533309999982383e+000	 1.001796922655805e+001
0	 8.533360000018131e+000	 7.599979999983598e+000	 1.001726271569902e+001
0	 8.533360000018133e+000	 7.666649999985419e+000	 1.001655705173267e+001
0	 8.533360000018131e+000	 7.733319999987732e+000	 1.001585132895808e+001
0	 8.533360000018135e+000	 7.799989999990450e+000	 1.001514464167437e+001
0	 8.533360000018131e+000	 7.866659999993466e+000	 1.001443608418066e+001
0	 8.533360000018131e+000	 7.933329999996683e+000	 1.001372475077606e+001
0	 8.533360000018131e+000	 8.000000000000000e+000	 1.001300973575967e+001
0	 8.600030000017849e+000	 7.333299999983335e+000	 1.001895093643126e+001
0	 8.600030000017847e+000	 7.399969999982150e+000	 1.001828198351046e+001
0	 8.600030000017847e+000	 7.466639999981864e+000	 1.001761597724247e+001
0	 8.600030000017849e+000	 7.533309999982384e+000	 1.001695203352984e+001
0	 8.600030000017847e+000	 7.599979999983599e+000	 1.001628926827513e+001
0	 8.600030000017847e+000	 7.666649999985414e+000	 1.001562679738093e+001
0	 8.600030000017847e+000	 7.733319999987733e+000	 1.001496373674979e+001
0	 8.600030000017849e+000	 7.799989999990448e+000	 1.001429920228432e+001
0	 8.600030000017851e+000	 7.866659999993467e+000	 1.001363230988705e+001
0	 8.600030000017846e+000	 7.933329999996683e+000	 1.001296217546057e+001
0	 8.600030000017847e+000	 8.000000000000000e+000	 1.001228791490746e+001
0	 8.666700000016665e+000	 7.333299999983335e+000	 1.001782222305247e+001
0	 8.666700000016666e+000	 7.399969999982151e+000	 1.001719756095665e+001
0	 8.666700000016668e+000	 7.466639999981867e+000	 1.001657526415536e+001
0	 8.666700000016668e+000	 7.533309999982383e+000	 1.001595446174805e+001
0	 8.666700000016668e+000	 7.599979999983599e+000	 1.001533428283422e+001
0	 8.666700000016666e+000	 7.666649999985415e+000	 1.001471385651337e+001
0	 8.666700000016666e+000	 7.733319999987733e+000	 1.001409231188496e+001
0	 8.666700000016666e+000	 7.799989999990450e+000	 1.001346877804849e+001
0	 8.666700000016663e+000	 7.866659999993464e+000	 1.001284238410345e+001
0	 8.666700000016666e+000	 7.933329999996683e+000	 1.001221225914933e+001
0	 8.666700000016666e+000	 7.999999999999999e+000	 1.001157753228559e+001
0	 7.999999999999999e+000	 7.999999999999999e+000	 1.001905844616221e+001
0	 7.999999999999998e+000	 8.066670000003319e+000	 1.001800219902562e+001
0	 8.000000000000000e+000	 8.133340000006534e+000	 1.001697215301610e+001
0	 7.999999999999999e+000	 8.200010000009550e+000	 1.001596673675609e+001
0	 7.999999999999999e+000	 8.266680000012268e+000	 1.001498437886796e+001
0	 8.000000000000000e+000	 8.333350000014585e+000	 1.001402350797413e+001
0	 7.999999999999998e+000	 8.400020000016397e+000	 1.001308255269697e+001
0	 8.000000000000000e+000	 8.466690000017618e+000	 1.001215994165893e+001
0	 7.999999999999998e+000	 8.533360000018131e+000	 1.001125410348236e+001
0	 8.000000000000000e+000	 8.600030000017851e+000	 1.001036346678970e+001
0	 8.000000000000000e+000	 8.666700000016666e+000	 1.000948646020334e+001
0	 8.066670000003319e+000	 7.999999999999998e+000	 1.001828640927942e+001
0	 8.066670000003319e+000	 8.066670000003319e+000	 1.001727514329701e+001
0	 8.066670000003315e+000	 8.133340000006532e+000	 1.001628888507078e+001
0	 8.066670000003317e+000	 8.200010000009550e+000	 1.001532609722251e+001
0	 8.066670000003317e+000	 8.266680000012270e+000	 1.001438524237403e+001
0	 8.066670000003315e+000	 8.333350000014583e+000	 1.001346478314713e+001
0	 8.066670000003317e+000	 8.400020000016401e+000	 1.001256318216363e+001
0	 8.066670000003317e+000	 8.466690000017618e+000	 1.001167890204534e+001
0	 8.066670000003317e+000	 8.533360000018133e+000	 1.001081040541406e+001
0	 8.066670000003315e+000	 8.600030000017851e+000	 1.000995615489162e+001
0	 8.066670000003313e+000	 8.666700000016666e+000	 1.000911461309982e+001
0	 8.133340000006532e+000	 7.999999999999997e+000	 1.001751663511318e+001
0	 8.133340000006532e+000	 8.066670000003315e+000	 1.001655017518328e+001
0	 8.133340000006534e+000	 8.133340000006534e+000	 1.001560749848906e+001
0	 8.133340000006532e+000	 8.200010000009549e+000	 1.001468710521241e+001
0	 8.133340000006534e+000	 8.266680000012267e+000	 1.001378749553518e+001
0	 8.133340000006532e+000	 8.333350000014583e+000	 1.001290716963920e+001
0	 8.133340000006530e+000	 8.400020000016401e+000	 1.001204462770633e+001
0	 8.133340000006534e+000	 8.466690000017616e+000	 1.001119836991842e+001
0	 8.133340000006534e+000	 8.533360000018135e+000	 1.001036689645734e+001
0	 8.133340000006534e+000	 8.600030000017849e+000	 1.000954870750492e+001
0	 8.133340000006532e+000	 8.666700000016665e+000	 1.000874230324301e+001
0	 8.200010000009550e+000	 8.000000000000002e+000	 1.001675027060273e+001
0	 8.200010000009550e+000	 8.066670000003319e+000	 1.001582831284134e+001
0	 8.200010000009549e+000	 8.133340000006534e+000	 1.001492889529871e+001
0	 8.200010000009552e+000	 8.200010000009552e+000	 1.001405055927733e+001
0	 8.200010000009552e+000	 8.266680000012267e+000	 1.001319184607976e+001
0	 8.200010000009547e+000	 8.333350000014583e+000	 1.001235129700849e+001
0	 8.200010000009549e+000	 8.400020000016403e+000	 1.001152745336609e+001
0	 8.200010000009550e+000	 8.466690000017618e+000	 1.001071885645505e+001
0	 8.200010000009552e+000	 8.533360000018137e+000	 1.000992404757792e+001
0	 8.200010000009549e+000	 8.600030000017851e+000	 1.000914156803720e+001
0	 8.200010000009550e+000	 8.666700000016666e+000	 1.000836995913544e+001
0	 8.266680000012265e+000	 8.000000000000002e+000	 1.001598846268724e+001
0	 8.266680000012267e+000	 8.066670000003317e+000	 1.001511057442819e+001
0	 8.266680000012267e+000	 8.133340000006534e+000	 1.001425397752743e+001
0	 8.266680000012267e+000	 8.200010000009550e+000	 1.001341725796878e+001
0	 8.266680000012267e+000	 8.266680000012268e+000	 1.001259900173606e+001
0	 8.266680000012265e+000	 8.333350000014582e+000	 1.001179779481317e+001
0	 8.266680000012267e+000	 8.400020000016401e+000	 1.001101222318387e+001
0	 8.266680000012267e+000	 8.466690000017616e+000	 1.001024087283204e+001
0	 8.266680000012263e+000	 8.533360000018133e+000	 1.000948232974150e+001
0	 8.266680000012267e+000	 8.600030000017851e+000	 1.000873517989609e+001
0	 8.266680000012265e+000	 8.666700000016668e+000	 1.000799800927965e+001
0	 8.333350000014580e+000	 7.999999999999999e+000	 1.001523235830597e+001
0	 8.333350000014583e+000	 8.066670000003319e+000	 1.001439797810080e+001
0	 8.333350000014583e+000	 8.133340000006534e+000	 1.001358364720298e+001
0	 8.333350000014582e+000	 8.200010000009552e+000	 1.001278799983827e+001
0	 8.333350000014583e+000	 8.266680000012270e+000	 1.001200967023247e+001
0	 8.333350000014583e+000	 8.333350000014583e+000	 1.001124729261134e+001
0	 8.333350000014582e+000	 8.400020000016397e+000	 1.001049950120068e+001
0	 8.333350000014585e+000	 8.466690000017618e+000	 1.000976493022623e+001
0	 8.333350000014583e+000	 8.533360000018133e+000	 1.000904221391380e+001
0	 8.333350000014580e+000	 8.600030000017851e+000	 1.000832998648919e+001
0	 8.333350000014583e+000	 8.666700000016668e+000	 1.000762688217815e+001
0	 8.400020000016399e+000	 7.999999999999999e+000	 1.001448310439813e+001
0	 8.400020000016397e+000	 8.066670000003317e+000	 1.001369154201614e+001
0	 8.400020000016397e+000	 8.133340000006532e+000	 1.001291880635309e+001
0	 8.400020000016401e+000	 8.200010000009552e+000	 1.001216358343735e+001
0	 8.400020000016399e+000	 8.266680000012267e+000	 1.001142455929726e+001
0	 8.400020000016399e+000	 8.333350000014582e+000	 1.001070041996117e+001
0	 8.400020000016397e+000	 8.400020000016399e+000	 1.000998985145746e+001
0	 8.400020000016403e+000	 8.466690000017620e+000	 1.000929153981448e+001
0	 8.400020000016397e+000	 8.533360000018133e+000	 1.000860417106057e+001
0	 8.400020000016403e+000	 8.600030000017851e+000	 1.000792643122412e+001
0	 8.400020000016401e+000	 8.666700000016666e+000	 1.000725700633344e+001
0	 8.466690000017618e+000	 8.000000000000000e+000	 1.001374184790296e+001
0	 8.466690000017614e+000	 8.066670000003317e+000	 1.001299228433117e+001
0	 8.466690000017618e+000	 8.133340000006536e+000	 1.001226035700550e+001
0	 8.466690000017616e+000	 8.200010000009552e+000	 1.001154480731750e+001
0	 8.466690000017616e+000	 8.266680000012268e+000	 1.001084437665875e+001
0	 8.466690000017618e+000	 8.333350000014585e+000	 1.001015780642081e+001
0	 8.466690000017616e+000	 8.400020000016401e+000	 1.000948383799525e+001
0	 8.466690000017616e+000	 8.466690000017618e+000	 1.000882121277362e+001
0	 8.466690000017614e+000	 8.533360000018133e+000	 1.000816867214752e+001
0	 8.466690000017614e+000	 8.600030000017849e+000	 1.000752495750848e+001
0	 8.466690000017616e+000	 8.666700000016668e+000	 1.000688881024809e+001
0	 8.533360000018131e+000	 8.000000000000000e+000	 1.001300973575967e+001
0	 8.533360000018131e+000	 8.066670000003317e+000	 1.001230122320287e+001
0	 8.533360000018133e+000	 8.133340000006532e+000	 1.001160920118794e+001
0	 8.533360000018130e+000	 8.200010000009549e+000	 1.001093247003027e+001
0	 8.533360000018130e+000	 8.266680000012267e+000	 1.001026983004528e+001
0	 8.533360000018133e+000	 8.333350000014585e+000	 1.000962008154838e+001
0	 8.533360000018131e+000	 8.400020000016403e+000	 1.000898202485499e+001
0	 8.533360000018131e+000	 8.466690000017616e+000	 1.000835446028049e+001
0	 8.533360000018131e+000	 8.533360000018131e+000	 1.000773618814034e+001
0	 8.533360000018133e+000	 8.600030000017849e+000	 1.000712600874990e+001
0	 8.533360000018131e+000	 8.666700000016665e+000	 1.000652272242460e+001
0	 8.600030000017847e+000	 8.000000000000000e+000	 1.001228791490746e+001
0	 8.600030000017847e+000	 8.066670000003315e+000	 1.001161937678821e+001
0	 8.600030000017847e+000	 8.133340000006534e+000	 1.001096624092814e+001
0	 8.600030000017847e+000	 8.200010000009550e+000	 1.001032737012718e+001
0	 8.600030000017851e+000	 8.266680000012268e+000	 1.000970162718518e+001
0	 8.600030000017847e+000	 8.333350000014583e+000	 1.000908787490206e+001
0	 8.600030000017847e+000	 8.400020000016399e+000	 1.000848497607767e+001
0	 8.600030000017851e+000	 8.466690000017620e+000	 1.000789179351194e+001
0	 8.600030000017847e+000	 8.533360000018135e+000	 1.000730719000475e+001
0	 8.600030000017847e+000	 8.600030000017847e+000	 1.000673002835598e+001
0	 8.600030000017847e+000	 8.666700000016668e+000	 1.000615917136550e+001
0	 8.666700000016666e+000	 7.999999999999999e+000	 1.001157753228559e+001
0	 8.666700000016666e+000	 8.066670000003317e+000	 1.001094776324416e+001
0	 8.666700000016666e+000	 8.133340000006534e+000	 1.001033237825386e+001
0	 8.666700000016666e+000	 8.200010000009550e+000	 1.000973030615974e+001
0	 8.666700000016666e+000	 8.266680000012268e+000	 1.000914047580677e+001
0	 8.666700000016666e+000	 8.333350000014585e+000	 1.000856181603996e+001
0	 8.666700000016668e+000	 8.400020000016401e+000	 1.000799325570431e+001
0	 8.666700000016666e+000	 8.466690000017618e+000	 1.000743372364482e+001
0	 8.666700000016665e+000	 8.533360000018133e+000	 1.000688214870649e+001
0	 8.666700000016666e+000	 8.600030000017851e+000	 1.000633745973433e+001
0	 8.666700000016666e+000	 8.666700000016666e+000	 1.000579858557331e+001
0	 8.000000000000000e+000	 8.666700000016666e+000	 1.000948646020334e+001
0	 8.000000000000000e+000	 8.733360002791905e+000	 1.000863731821183e+001
0	 7.999999999999999e+000	 8.800020022230555e+000	 1.000782982051435e+001
0	 8.000000000000002e+000	 8.866680074997042e+000	 1.000706210526326e+001
0	 8.000000000000002e+000	 8.933340177755778e+000	 1.000633231049345e+001
0	 8.000000000000002e+000	 9.000000347171184e+000	 1.000563857412215e+001
0	 8.000000000000000e+000	 9.066660599907667e+000	 1.000497903394910e+001
0	 8.000000000000000e+000	 9.133320952629655e+000	 1.000435182765642e+001
0	 7.999999999999999e+000	 9.199981422001558e+000	 1.000375509280875e+001
0	 8.000000000000000e+000	 9.266642024687796e+000	 1.000318696685310e+001
0	 7.999999999999999e+000	 9.333302777352781e+000	 1.000264558711890e+001
0	 8.066670000003313e+000	 8.666700000016666e+000	 1.000911461309982e+001
0	 8.066670000003317e+000	 8.733360002791903e+000	 1.000829960672502e+001
0	 8.066670000003317e+000	 8.800020022230557e+000	 1.000752454375398e+001
0	 8.066670000003317e+000	 8.866680074997042e+000	 1.000678763472073e+001
0	 8.066670000003317e+000	 8.933340177755778e+000	 1.000608709004649e+001
0	 8.066670000003319e+000	 9.000000347171184e+000	 1.000542112003973e+001
0	 8.066670000003317e+000	 9.066660599907669e+000	 1.000478793489615e+001
0	 8.066670000003319e+000	 9.133320952629656e+000	 1.000418574469870e+001
0	 8.066670000003319e+000	 9.199981422001562e+000	 1.000361275941755e+001
0	 8.066670000003317e+000	 9.266642024687796e+000	 1.000306718891014e+001
0	 8.066670000003317e+000	 9.333302777352781e+000	 1.000254724292108e+001
0	 8.133340000006532e+000	 8.666700000016665e+000	 1.000874230324301e+001
0	 8.133340000006532e+000	 8.733360002791903e+000	 1.000796110971199e+001
0	 8.133340000006530e+000	 8.800020022230552e+000	 1.000721816759247e+001
0	 8.133340000006534e+000	 8.866680074997040e+000	 1.000651175938299e+001
0	 8.133340000006534e+000	 8.933340177755776e+000	 1.000584016747414e+001
0	 8.133340000006534e+000	 9.000000347171183e+000	 1.000520167414850e+001
0	 8.133340000006534e+000	 9.066660599907667e+000	 1.000459456158067e+001
0	 8.133340000006534e+000	 9.133320952629655e+000	 1.000401711183730e+001
0	 8.133340000006532e+000	 9.199981422001560e+000	 1.000346760687702e+001
0	 8.133340000006534e+000	 9.266642024687798e+000	 1.000294432855050e+001
0	 8.133340000006532e+000	 9.333302777352783e+000	 1.000244555860041e+001
0	 8.200010000009550e+000	 8.666700000016666e+000	 1.000836995913544e+001
0	 8.200010000009549e+000	 8.733360002791905e+000	 1.000762225151328e+001
0	 8.200010000009549e+000	 8.800020022230557e+000	 1.000691112103884e+001
0	 8.200010000009554e+000	 8.866680074997042e+000	 1.000623492175816e+001
0	 8.200010000009552e+000	 8.933340177755779e+000	 1.000559200761410e+001
0	 8.200010000009550e+000	 9.000000347171181e+000	 1.000498073244623e+001
0	 8.200010000009549e+000	 9.066660599907669e+000	 1.000439944999091e+001
0	 8.200010000009550e+000	 9.133320952629656e+000	 1.000384651388130e+001
0	 8.200010000009552e+000	 9.199981422001558e+000	 1.000332027764732e+001
0	 8.200010000009547e+000	 9.266642024687796e+000	 1.000281909471564e+001
0	 8.200010000009550e+000	 9.333302777352781e+000	 1.000234131840975e+001
0	 8.266680000012265e+000	 8.666700000016668e+000	 1.000799800927965e+001
0	 8.266680000012267e+000	 8.733360002791901e+000	 1.000728345646941e+001
0	 8.266680000012267e+000	 8.800020022230553e+000	 1.000660383310216e+001
0	 8.266680000012267e+000	 8.866680074997042e+000	 1.000595756435440e+001
0	 8.266680000012268e+000	 8.933340177755783e+000	 1.000534307530410e+001
0	 8.266680000012267e+000	 9.000000347171183e+000	 1.000475879093071e+001
0	 8.266680000012265e+000	 9.066660599907666e+000	 1.000420313611514e+001
0	 8.266680000012265e+000	 9.133320952629655e+000	 1.000367453563983e+001
0	 8.266680000012265e+000	 9.199981422001560e+000	 1.000317141418869e+001
0	 8.266680000012268e+000	 9.266642024687798e+000	 1.000269219634710e+001
0	 8.266680000012265e+000	 9.333302777352779e+000	 1.000223530660201e+001
0	 8.333350000014583e+000	 8.666700000016668e+000	 1.000762688217814e+001
0	 8.333350000014583e+000	 8.733360002791903e+000	 1.000694514892083e+001
0	 8.333350000014585e+000	 8.800020022230557e+000	 1.000629673279146e+001
0	 8.333350000014580e+000	 8.866680074997040e+000	 1.000568012967982e+001
0	 8.333350000014582e+000	 8.933340177755781e+000	 1.000509383538187e+001
0	 8.333350000014582e+000	 9.000000347171181e+000	 1.000453634559973e+001
0	 8.333350000014582e+000	 9.066660599907667e+000	 1.000400615594162e+001
0	 8.333350000014585e+000	 9.133320952629660e+000	 1.000350176192197e+001
0	 8.333350000014582e+000	 9.199981422001557e+000	 1.000302165896133e+001
0	 8.333350000014585e+000	 9.266642024687798e+000	 1.000256434238639e+001
0	 8.333350000014583e+000	 9.333302777352783e+000	 1.000212830743001e+001
0	 8.400020000016401e+000	 8.666700000016666e+000	 1.000725700633344e+001
0	 8.400020000016397e+000	 8.733360002791903e+000	 1.000660775320812e+001
0	 8.400020000016401e+000	 8.800020022230555e+000	 1.000599024911581e+001
0	 8.400020000016399e+000	 8.866680074997042e+000	 1.000540306024254e+001
0	 8.400020000016401e+000	 8.933340177755779e+000	 1.000484475268510e+001
0	 8.400020000016399e+000	 9.000000347171179e+000	 1.000431389245103e+001
0	 8.400020000016401e+000	 9.066660599907667e+000	 1.000380904545861e+001
0	 8.400020000016401e+000	 9.133320952629656e+000	 1.000332877753682e+001
0	 8.400020000016401e+000	 9.199981422001558e+000	 1.000287165442546e+001
0	 8.400020000016401e+000	 9.266642024687794e+000	 1.000243624177495e+001
0	 8.400020000016401e+000	 9.333302777352785e+000	 1.000202110514661e+001
0	 8.466690000017616e+000	 8.666700000016668e+000	 1.000688881024809e+001
0	 8.466690000017616e+000	 8.733360002791903e+000	 1.000627169367176e+001
0	 8.466690000017616e+000	 8.800020022230559e+000	 1.000568481108424e+001
0	 8.466690000017618e+000	 8.866680074997040e+000	 1.000512679855068e+001
0	 8.466690000017618e+000	 8.933340177755779e+000	 1.000459629205153e+001
0	 8.466690000017614e+000	 9.000000347171177e+000	 1.000409192748246e+001
0	 8.466690000017618e+000	 9.066660599907669e+000	 1.000361234065438e+001
0	 8.466690000017616e+000	 9.133320952629656e+000	 1.000315616729350e+001
0	 8.466690000017616e+000	 9.199981422001557e+000	 1.000272204304125e+001
0	 8.466690000017616e+000	 9.266642024687799e+000	 1.000230860345434e+001
0	 8.466690000017616e+000	 9.333302777352785e+000	 1.000191448400470e+001
0	 8.533360000018131e+000	 8.666700000016665e+000	 1.000652272242460e+001
0	 8.533360000018131e+000	 8.733360002791899e+000	 1.000593739465227e+001
0	 8.533360000018131e+000	 8.800020022230557e+000	 1.000538084770581e+001
0	 8.533360000018133e+000	 8.866680074997042e+000	 1.000485178711239e+001
0	 8.533360000018133e+000	 8.933340177755781e+000	 1.000434891831886e+001
0	 8.533360000018131e+000	 9.000000347171181e+000	 1.000387094669173e+001
0	 8.533360000018131e+000	 9.066660599907666e+000	 1.000341657751720e+001
0	 8.533360000018131e+000	 9.133320952629658e+000	 1.000298451600110e+001
0	 8.533360000018131e+000	 9.199981422001558e+000	 1.000257346726898e+001
0	 8.533360000018131e+000	 9.266642024687798e+000	 1.000218213636602e+001
0	 8.533360000018133e+000	 9.333302777352781e+000	 1.000180922825712e+001
0	 8.600030000017847e+000	 8.666700000016668e+000	 1.000615917136550e+001
0	 8.600030000017851e+000	 8.733360002791905e+000	 1.000560528049014e+001
0	 8.600030000017849e+000	 8.800020022230555e+000	 1.000507878798958e+001
0	 8.600030000017849e+000	 8.866680074997042e+000	 1.000457846843579e+001
0	 8.600030000017849e+000	 8.933340177755779e+000	 1.000410309632483e+001
0	 8.600030000017847e+000	 9.000000347171183e+000	 1.000365144607668e+001
0	 8.600030000017846e+000	 9.066660599907667e+000	 1.000322229203533e+001
0	 8.600030000017849e+000	 9.133320952629656e+000	 1.000281440846872e+001
0	 8.600030000017847e+000	 9.199981422001558e+000	 1.000242656956881e+001
0	 8.600030000017847e+000	 9.266642024687796e+000	 1.000205754945152e+001
0	 8.600030000017849e+000	 9.333302777352783e+000	 1.000170612215677e+001
0	 8.666700000016666e+000	 8.666700000016666e+000	 1.000579858557331e+001
0	 8.666700000016666e+000	 8.733360002791901e+000	 1.000527577552591e+001
0	 8.666700000016665e+000	 8.800020022230553e+000	 1.000477906094457e+001
0	 8.666700000016666e+000	 8.866680074997039e+000	 1.000430728502900e+001
0	 8.666700000016665e+000	 8.933340177755778e+000	 1.000385929090714e+001
0	 8.666700000016665e+000	 9.000000347171181e+000	 1.000343392163506e+001
0	 8.666700000016666e+000	 9.066660599907667e+000	 1.000303002019703e+001
0	 8.666700000016666e+000	 9.133320952629655e+000	 1.000264642950543e+001
0	 8.666700000016668e+000	 9.199981422001558e+000	 1.000228199240095e+001
0	 8.666700000016668e+000	 9.266642024687798e+000	 1.000193555165231e+001
0	 8.666700000016666e+000	 9.333302777352783e+000	 1.000160594995649e+001
0	 7.999999999999999e+000	 9.333302777352781e+000	 1.000264558711890e+001
0	 8.000000000000000e+000	 9.399973674588175e+000	 1.000214610002690e+001
0	 8.000000000000000e+000	 9.466644621844621e+000	 1.000170362433269e+001
0	 8.000000000000000e+000	 9.533315502449998e+000	 1.000131601876075e+001
0	 8.000000000000000e+000	 9.599986199732197e+000	 1.000098114321855e+001
0	 8.000000000000000e+000	 9.666656597019093e+000	 1.000069685879647e+001
0	 8.000000000000000e+000	 9.733326577638575e+000	 1.000046102776787e+001
0	 8.000000000000000e+000	 9.799996024918524e+000	 1.000027151358910e+001
0	 7.999999999999997e+000	 9.866664822186822e+000	 1.000012618089973e+001
0	 8.000000000000000e+000	 9.933332852771352e+000	 1.000002289552252e+001
0	 8.000000000000000e+000	 1.000000000000000e+001	 9.999959524463787e+000
0	 8.066670000003317e+000	 9.333302777352781e+000	 1.000254724292107e+001
0	 8.066670000003319e+000	 9.399973674588175e+000	 1.000206751064996e+001
0	 8.066670000003319e+000	 9.466644621844621e+000	 1.000164254882559e+001
0	 8.066670000003317e+000	 9.533315502449998e+000	 1.000127029075226e+001
0	 8.066670000003317e+000	 9.599986199732198e+000	 1.000094867087034e+001
0	 8.066670000003319e+000	 9.666656597019097e+000	 1.000067562475618e+001
0	 8.066670000003315e+000	 9.733326577638573e+000	 1.000044908912225e+001
0	 8.066670000003319e+000	 9.799996024918523e+000	 1.000026700181718e+001
0	 8.066670000003315e+000	 9.866664822186820e+000	 1.000012730182583e+001
0	 8.066670000003313e+000	 9.933332852771352e+000	 1.000002792926946e+001
0	 8.066670000003317e+000	 1.000000000000000e+001	 9.999966825405876e+000
0	 8.133340000006532e+000	 9.333302777352783e+000	 1.000244555860041e+001
0	 8.133340000006536e+000	 9.399973674588177e+000	 1.000198533650364e+001
0	 8.133340000006532e+000	 9.466644621844621e+000	 1.000157766733886e+001
0	 8.133340000006538e+000	 9.533315502450003e+000	 1.000122056277578e+001
0	 8.133340000006530e+000	 9.599986199732193e+000	 1.000091203557344e+001
0	 8.133340000006530e+000	 9.666656597019093e+000	 1.000065009958033e+001
0	 8.133340000006530e+000	 9.733326577638573e+000	 1.000043276973447e+001
0	 8.133340000006532e+000	 9.799996024918523e+000	 1.000025806206326e+001
0	 8.133340000006532e+000	 9.866664822186820e+000	 1.000012399368378e+001
0	 8.133340000006532e+000	 9.933332852771351e+000	 1.000002858280287e+001
0	 8.133340000006534e+000	 1.000000000000000e+001	 9.999969848717146e+000
0	 8.200010000009550e+000	 9.333302777352781e+000	 1.000234131840975e+001
0	 8.200010000009549e+000	 9.399973674588175e+000	 1.000190043740067e+001
0	 8.200010000009550e+000	 9.466644621844621e+000	 1.000150990688851e+001
0	 8.200010000009550e+000	 9.533315502450000e+000	 1.000116782069427e+001
0	 8.200010000009550e+000	 9.599986199732198e+000	 1.000087227368189e+001
0	 8.200010000009549e+000	 9.666656597019093e+000	 1.000062136175822e+001
0	 8.200010000009550e+000	 9.733326577638573e+000	 1.000041318187320e+001
0	 8.200010000009550e+000	 9.799996024918524e+000	 1.000024583201971e+001
0	 8.200010000009550e+000	 9.866664822186824e+000	 1.000011741123381e+001
0	 8.200010000009549e+000	 9.933332852771352e+000	 1.000002601959478e+001
0	 8.200010000009550e+000	 1.000000000000000e+001	 9.999969758225404e+000
0	 8.266680000012265e+000	 9.333302777352779e+000	 1.000223530660201e+001
0	 8.266680000012265e+000	 9.399973674588175e+000	 1.000181367315383e+001
0	 8.266680000012270e+000	 9.466644621844624e+000	 1.000144019449057e+001
0	 8.266680000012268e+000	 9.533315502450002e+000	 1.000111305037080e+001
0	 8.266680000012268e+000	 9.599986199732197e+000	 1.000083042154972e+001
0	 8.266680000012265e+000	 9.666656597019090e+000	 1.000059048977904e+001
0	 8.266680000012267e+000	 9.733326577638577e+000	 1.000039143780711e+001
0	 8.266680000012265e+000	 9.799996024918521e+000	 1.000023144937887e+001
0	 8.266680000012267e+000	 9.866664822186824e+000	 1.000010870923609e+001
0	 8.266680000012268e+000	 9.933332852771356e+000	 1.000002140311730e+001
0	 8.266680000012267e+000	 1.000000000000000e+001	 9.999967717758203e+000
0	 8.333350000014583e+000	 9.333302777352783e+000	 1.000212830743001e+001
0	 8.333350000014582e+000	 9.399973674588175e+000	 1.000172590357586e+001
0	 8.333350000014582e+000	 9.466644621844619e+000	 1.000136945716102e+001
0	 8.333350000014583e+000	 9.533315502449998e+000	 1.000105723766838e+001
0	 8.333350000014582e+000	 9.599986199732195e+000	 1.000078751553095e+001
0	 8.333350000014585e+000	 9.666656597019093e+000	 1.000055856213195e+001
0	 8.333350000014582e+000	 9.733326577638572e+000	 1.000036864980481e+001
0	 8.333350000014583e+000	 9.799996024918523e+000	 1.000021605183315e+001
0	 8.333350000014582e+000	 9.866664822186824e+000	 1.000009904245095e+001
0	 8.333350000014583e+000	 9.933332852771356e+000	 1.000001589684266e+001
0	 8.333350000014583e+000	 1.000000000000000e+001	 9.999964891143350e+000
0	 8.400020000016401e+000	 9.333302777352785e+000	 1.000202110514661e+001
0	 8.400020000016401e+000	 9.399973674588177e+000	 1.000163798847946e+001
0	 8.400020000016399e+000	 9.466644621844623e+000	 1.000129862191587e+001
0	 8.400020000016401e+000	 9.533315502450000e+000	 1.000100136844999e+001
0	 8.400020000016397e+000	 9.599986199732197e+000	 1.000074459197960e+001
0	 8.400020000016401e+000	 9.666656597019093e+000	 1.000052665730624e+001
0	 8.400020000016399e+000	 9.733326577638575e+000	 1.000034593013499e+001
0	 8.400020000016401e+000	 9.799996024918524e+000	 1.000020077707483e+001
0	 8.400020000016399e+000	 9.866664822186820e+000	 1.000008956563858e+001
0	 8.400020000016399e+000	 9.933332852771351e+000	 1.000001066424285e+001
0	 8.400020000016399e+000	 1.000000000000000e+001	 9.999962442208519e+000
0	 8.466690000017616e+000	 9.333302777352785e+000	 1.000191448400470e+001
0	 8.466690000017620e+000	 9.399973674588177e+000	 1.000155078767741e+001
0	 8.466690000017616e+000	 9.466644621844623e+000	 1.000122861577116e+001
0	 8.466690000017614e+000	 9.533315502450002e+000	 1.000094642857866e+001
0	 8.466690000017612e+000	 9.599986199732195e+000	 1.000070268724972e+001
0	 8.466690000017614e+000	 9.666656597019093e+000	 1.000049585379098e+001
0	 8.466690000017616e+000	 9.733326577638575e+000	 1.000032439106627e+001
0	 8.466690000017616e+000	 9.799996024918524e+000	 1.000018676279633e+001
0	 8.466690000017612e+000	 9.866664822186820e+000	 1.000008143355920e+001
0	 8.466690000017616e+000	 9.933332852771352e+000	 1.000000686879001e+001
0	 8.466690000017616e+000	 1.000000000000000e+001	 9.999961534781406e+000
0	 8.533360000018133e+000	 9.333302777352781e+000	 1.000180922825712e+001
0	 8.533360000018131e+000	 9.399973674588177e+000	 1.000146516098245e+001
0	 8.533360000018131e+000	 9.466644621844617e+000	 1.000116036574287e+001
0	 8.533360000018131e+000	 9.533315502450000e+000	 1.000089340391745e+001
0	 8.533360000018131e+000	 9.599986199732197e+000	 1.000066283769529e+001
0	 8.533360000018131e+000	 9.666656597019093e+000	 1.000046723007551e+001
0	 8.533360000018135e+000	 9.733326577638573e+000	 1.000030514486733e+001
0	 8.533360000018133e+000	 9.799996024918524e+000	 1.000017514669001e+001
0	 8.533360000018130e+000	 9.866664822186822e+000	 1.000007580097307e+001
0	 8.533360000018131e+000	 9.933332852771356e+000	 1.000000567395625e+001
0	 8.533360000018131e+000	 1.000000000000000e+001	 9.999963332689781e+000
0	 8.600030000017849e+000	 9.333302777352783e+000	 1.000170612215677e+001
0	 8.600030000017847e+000	 9.399973674588178e+000	 1.000138196820731e+001
0	 8.600030000017849e+000	 9.466644621844621e+000	 1.000109479884703e+001
0	 8.600030000017849e+000	 9.533315502450003e+000	 1.000084328032933e+001
0	 8.600030000017849e+000	 9.599986199732197e+000	 1.000062607967038e+001
0	 8.600030000017847e+000	 9.666656597019093e+000	 1.000044186464903e+001
0	 8.600030000017847e+000	 9.733326577638575e+000	 1.000028930380679e+001
0	 8.600030000017849e+000	 9.799996024918521e+000	 1.000016706644820e+001
0	 8.600030000017849e+000	 9.866664822186822e+000	 1.000007382264042e+001
0	 8.600030000017846e+000	 9.933332852771352e+000	 1.000000824321364e+001
0	 8.600030000017849e+000	 1.000000000000000e+001	 9.999968999761276e+000
0	 8.666700000016666e+000	 9.333302777352783e+000	 1.000160594995649e+001
0	 8.666700000016668e+000	 9.399973674588178e+000	 1.000130206916473e+001
0	 8.666700000016666e+000	 9.466644621844619e+000	 1.000103284209964e+001
0	 8.666700000016668e+000	 9.533315502450000e+000	 1.000079704367735e+001
0	 8.666700000016665e+000	 9.599986199732197e+000	 1.000059344952901e+001
0	 8.666700000016666e+000	 9.666656597019095e+000	 1.000042083600064e+001
0	 8.666700000016668e+000	 9.733326577638577e+000	 1.000027798015338e+001
0	 8.666700000016668e+000	 9.799996024918521e+000	 1.000016365976324e+001
0	 8.666700000016666e+000	 9.866664822186822e+000	 1.000007665332143e+001
0	 8.666700000016666e+000	 9.933332852771352e+000	 1.000001574003438e+001
0	 8.666700000016666e+000	 1.000000000000000e+001	 9.999979699823545e+000
0	 8.666700000016666e+000	 0.000000000000000e+000	 9.928131295558124e+000
0	 8.666700000016668e+000	 6.666714722864757e-002	 9.928489053389395e+000
0	 8.666700000016665e+000	 1.333351778131789e-001	 9.928880912791774e+000
0	 8.666700000016668e+000	 2.000039750814772e-001	 9.929306595032333e+000
0	 8.666700000016666e+000	 2.666734223614256e-001	 9.929765822037590e+000
0	 8.666700000016666e+000	 3.333434029809069e-001	 9.930258316393612e+000
0	 8.666700000016668e+000	 4.000138002678044e-001	 9.930783801345966e+000
0	 8.666700000016665e+000	 4.666844975500011e-001	 9.931342000799692e+000
0	 8.666700000016666e+000	 5.333553781553801e-001	 9.931932639319479e+000
0	 8.666700000016666e+000	 6.000263254118248e-001	 9.932555442129582e+000
0	 8.666700000016668e+000	 6.666972226472177e-001	 9.933210135113967e+000
0	 8.733360002791903e+000	 0.000000000000000e+000	 9.920738696415569e+000
0	 8.733360002791903e+000	 6.666714722864754e-002	 9.921173417638416e+000
0	 8.733360002791905e+000	 1.333351778131790e-001	 9.921632506508376e+000
0	 8.733360002791903e+000	 2.000039750814772e-001	 9.922116238513429e+000
0	 8.733360002791899e+000	 2.666734223614254e-001	 9.922624889764881e+000
0	 8.733360002791903e+000	 3.333434029809069e-001	 9.923158736997364e+000
0	 8.733360002791901e+000	 4.000138002678044e-001	 9.923718057568838e+000
0	 8.733360002791903e+000	 4.666844975500011e-001	 9.924303129460643e+000
0	 8.733360002791903e+000	 5.333553781553803e-001	 9.924914231277473e+000
0	 8.733360002791903e+000	 6.000263254118247e-001	 9.925551642247504e+000
0	 8.733360002791901e+000	 6.666972226472175e-001	 9.926215642222466e+000
0	 8.800020022230555e+000	 0.000000000000000e+000	 9.913383033242152e+000
0	 8.800020022230559e+000	 6.666714722864756e-002	 9.913834832041044e+000
0	 8.800020022230555e+000	 1.333351778131790e-001	 9.914310286652730e+000
0	 8.800020022230553e+000	 2.000039750814773e-001	 9.914810123658622e+000
0	 8.800020022230553e+000	 2.666734223614256e-001	 9.915335070309373e+000
0	 8.800020022230555e+000	 3.333434029809069e-001	 9.915885854524882e+000
0	 8.800020022230555e+000	 4.000138002678044e-001	 9.916463204894297e+000
0	 8.800020022230553e+000	 4.666844975500011e-001	 9.917067850676087e+000
0	 8.800020022230555e+000	 5.333553781553803e-001	 9.917700521797993e+000
0	 8.800020022230557e+000	 6.000263254118248e-001	 9.918361948857127e+000
0	 8.800020022230555e+000	 6.666972226472178e-001	 9.919052863120072e+000
0	 8.866680074997039e+000	 0.000000000000000e+000	 9.906024613770461e+000
0	 8.866680074997042e+000	 6.666714722864756e-002	 9.906445095346385e+000
0	 8.866680074997039e+000	 1.333351778131790e-001	 9.906895876399471e+000
0	 8.866680074997039e+000	 2.000039750814772e-001	 9.907378031590202e+000
0	 8.866680074997042e+000	 2.666734223614256e-001	 9.907892636358909e+000
0	 8.866680074997037e+000	 3.333434029809068e-001	 9.908440766925688e+000
0	 8.866680074997040e+000	 4.000138002678043e-001	 9.909023500290450e+000
0	 8.866680074997037e+000	 4.666844975500011e-001	 9.909641914232827e+000
0	 8.866680074997040e+000	 5.333553781553804e-001	 9.910297087312303e+000
0	 8.866680074997040e+000	 6.000263254118248e-001	 9.910990098868242e+000
0	 8.866680074997040e+000	 6.666972226472177e-001	 9.911722029019908e+000
0	 8.933340177755776e+000	 0.000000000000000e+000	 9.898623745537460e+000
0	 8.933340177755774e+000	 6.666714722864754e-002	 9.898976006124327e+000
0	 8.933340177755776e+000	 1.333351778131789e-001	 9.899370898758502e+000
0	 8.933340177755778e+000	 2.000039750814772e-001	 9.899809743278675e+000
0	 8.933340177755778e+000	 2.666734223614256e-001	 9.900293860461039e+000
0	 8.933340177755776e+000	 3.333434029809069e-001	 9.900824572019184e+000
0	 8.933340177755779e+000	 4.000138002678044e-001	 9.901403200604117e+000
0	 8.933340177755776e+000	 4.666844975500011e-001	 9.902031069804211e+000
0	 8.933340177755774e+000	 5.333553781553801e-001	 9.902709504145253e+000
0	 8.933340177755778e+000	 6.000263254118247e-001	 9.903439829090475e+000
0	 8.933340177755774e+000	 6.666972226472175e-001	 9.904223371040635e+000
0	 9.000000347171181e+000	 0.000000000000000e+000	 9.891140735884454e+000
0	 9.000000347171181e+000	 6.666714722864757e-002	 9.891399362765480e+000
0	 9.000000347171179e+000	 1.333351778131790e-001	 9.891716976575108e+000
0	 9.000000347171177e+000	 2.000039750814772e-001	 9.892095039542873e+000
0	 9.000000347171177e+000	 2.666734223614256e-001	 9.892535015023041e+000
0	 9.000000347171181e+000	 3.333434029809069e-001	 9.893038367494528e+000
0	 9.000000347171177e+000	 4.000138002678043e-001	 9.893606562560880e+000
0	 9.000000347171177e+000	 4.666844975500010e-001	 9.894241066950215e+000
0	 9.000000347171181e+000	 5.333553781553801e-001	 9.894943348515248e+000
0	 9.000000347171179e+000	 6.000263254118249e-001	 9.895714876233319e+000
0	 9.000000347171181e+000	 6.666972226472179e-001	 9.896557120206460e+000
0	 9.066660599907666e+000	 0.000000000000000e+000	 9.883535891957129e+000
0	 9.066660599907666e+000	 6.666714722864754e-002	 9.883686963481210e+000
0	 9.066660599907666e+000	 1.333351778131789e-001	 9.883915732529914e+000
0	 9.066660599907667e+000	 2.000039750814773e-001	 9.884223701049885e+000
0	 9.066660599907667e+000	 2.666734223614256e-001	 9.884612372311894e+000
0	 9.066660599907666e+000	 3.333434029809069e-001	 9.885083250910704e+000
0	 9.066660599907666e+000	 4.000138002678044e-001	 9.885637842765009e+000
0	 9.066660599907666e+000	 4.666844975500011e-001	 9.886277655117391e+000
0	 9.066660599907666e+000	 5.333553781553800e-001	 9.887004196534299e+000
0	 9.066660599907667e+000	 6.000263254118249e-001	 9.887818976906099e+000
0	 9.066660599907666e+000	 6.666972226472179e-001	 9.888723507447102e+000
0	 9.133320952629653e+000	 0.000000000000000e+000	 9.875769520705521e+000
0	 9.133320952629653e+000	 6.666714722864756e-002	 9.875810606303649e+000
0	 9.133320952629653e+000	 1.333351778131790e-001	 9.875948789138857e+000
0	 9.133320952629653e+000	 2.000039750814772e-001	 9.876185508315075e+000
0	 9.133320952629651e+000	 2.666734223614255e-001	 9.876522204454307e+000
0	 9.133320952629653e+000	 3.333434029809069e-001	 9.876960319696515e+000
0	 9.133320952629655e+000	 4.000138002678045e-001	 9.877501297699510e+000
0	 9.133320952629655e+000	 4.666844975500011e-001	 9.878146583638882e+000
0	 9.133320952629653e+000	 5.333553781553803e-001	 9.878897624207989e+000
0	 9.133320952629653e+000	 6.000263254118247e-001	 9.879755867617968e+000
0	 9.133320952629653e+000	 6.666972226472175e-001	 9.880722763597822e+000
0	 9.199981422001557e+000	 0.000000000000000e+000	 9.867801928884061e+000
0	 9.199981422001557e+000	 6.666714722864754e-002	 9.867742089085706e+000
0	 9.199981422001555e+000	 1.333351778131789e-001	 9.867797768753274e+000
0	 9.199981422001557e+000	 2.000039750814773e-001	 9.867970241702091e+000
0	 9.199981422001557e+000	 2.666734223614256e-001	 9.868260783436698e+000
0	 9.199981422001553e+000	 3.333434029809068e-001	 9.868670671150577e+000
0	 9.199981422001555e+000	 4.000138002678044e-001	 9.869201183726100e+000
0	 9.199981422001553e+000	 4.666844975500012e-001	 9.869853601734430e+000
0	 9.199981422001557e+000	 5.333553781553803e-001	 9.870629207435485e+000
0	 9.199981422001553e+000	 6.000263254118247e-001	 9.871529284777980e+000
0	 9.199981422001555e+000	 6.666972226472177e-001	 9.872555119399433e+000
0	 9.266642024687792e+000	 0.000000000000000e+000	 9.859593423051525e+000
0	 9.266642024687792e+000	 6.666714722864757e-002	 9.859453209501039e+000
0	 9.266642024687791e+000	 1.333351778131789e-001	 9.859444293559806e+000
0	 9.266642024687792e+000	 2.000039750814772e-001	 9.859567681422893e+000
0	 9.266642024687792e+000	 2.666734223614256e-001	 9.859824381105231e+000
0	 9.266642024687791e+000	 3.333434029809069e-001	 9.860215402441330e+000
0	 9.266642024687792e+000	 4.000138002678044e-001	 9.860741757085242e+000
0	 9.266642024687792e+000	 4.666844975500012e-001	 9.861404458510377e+000
0	 9.266642024687791e+000	 5.333553781553803e-001	 9.862204522009561e+000
0	 9.266642024687792e+000	 6.000263254118247e-001	 9.863142964694985e+000
0	 9.266642024687791e+000	 6.666972226472177e-001	 9.864220805498286e+000
0	 9.333302777352781e+000	 0.000000000000000e+000	 9.851104309571092e+000
0	 9.333302777352785e+000	 6.666714722864757e-002	 9.850915765044077e+000
0	 9.333302777352785e+000	 1.333351778131789e-001	 9.850869985580465e+000
0	 9.333302777352783e+000	 2.000039750814772e-001	 9.850967607537710e+000
0	 9.333302777352779e+000	 2.666734223614256e-001	 9.851209269165789e+000
0	 9.333302777352783e+000	 3.333434029809070e-001	 9.851595610607060e+000
0	 9.333302777352783e+000	 4.000138002678045e-001	 9.852127273896112e+000
0	 9.333302777352783e+000	 4.666844975500011e-001	 9.852804902959672e+000
0	 9.333302777352781e+000	 5.333553781553801e-001	 9.853629143616567e+000
0	 9.333302777352785e+000	 6.000263254118248e-001	 9.854600643577737e+000
0	 9.333302777352783e+000	 6.666972226472177e-001	 9.855720052446289e+000
0	 8.666700000016668e+000	 6.666972226472177e-001	 9.933210135113967e+000
0	 8.666700000016666e+000	 7.333579753122049e-001	 9.933922556414281e+000
0	 8.666700000016668e+000	 8.000185779984418e-001	 9.934719395860045e+000
0	 8.666700000016666e+000	 8.666790473703454e-001	 9.935601355501641e+000
0	 8.666700000016666e+000	 9.333394000923322e-001	 9.936569137217052e+000
0	 8.666700000016665e+000	 9.999996528288188e-001	 9.937623442711869e+000
0	 8.666700000016665e+000	 1.066659822244222e+000	 9.938764973519282e+000
0	 8.666700000016668e+000	 1.133319925002959e+000	 9.939994431000098e+000
0	 8.666700000016666e+000	 1.199979977769445e+000	 9.941312516342727e+000
0	 8.666700000016666e+000	 1.266639997208098e+000	 9.942719930563184e+000
0	 8.666700000016668e+000	 1.333299999983334e+000	 9.944217374505099e+000
0	 8.733360002791901e+000	 6.666972226472175e-001	 9.926215642222470e+000
0	 8.733360002791901e+000	 7.333579753122047e-001	 9.926935903805310e+000
0	 8.733360002791903e+000	 8.000185779984418e-001	 9.927742629018230e+000
0	 8.733360002791901e+000	 8.666790473703453e-001	 9.928636587367262e+000
0	 8.733360002791901e+000	 9.333394000923322e-001	 9.929618548181084e+000
0	 8.733360002791901e+000	 9.999996528288190e-001	 9.930689280611116e+000
0	 8.733360002791901e+000	 1.066659822244222e+000	 9.931849553631405e+000
0	 8.733360002791899e+000	 1.133319925002958e+000	 9.933100136038705e+000
0	 8.733360002791903e+000	 1.199979977769445e+000	 9.934441796452475e+000
0	 8.733360002791901e+000	 1.266639997208098e+000	 9.935875303314861e+000
0	 8.733360002791901e+000	 1.333299999983334e+000	 9.937401424890663e+000
0	 8.800020022230555e+000	 6.666972226472178e-001	 9.919052863120074e+000
0	 8.800020022230553e+000	 7.333579753122048e-001	 9.919801524079308e+000
0	 8.800020022230557e+000	 8.000185779984420e-001	 9.920636468693740e+000
0	 8.800020022230553e+000	 8.666790473703454e-001	 9.921558527157904e+000
0	 8.800020022230559e+000	 9.333394000923323e-001	 9.922568529487863e+000
0	 8.800020022230557e+000	 9.999996528288190e-001	 9.923667305521168e+000
0	 8.800020022230553e+000	 1.066659822244222e+000	 9.924855684916905e+000
0	 8.800020022230553e+000	 1.133319925002959e+000	 9.926134497155674e+000
0	 8.800020022230555e+000	 1.199979977769445e+000	 9.927504571539581e+000
0	 8.800020022230555e+000	 1.266639997208098e+000	 9.928966737192249e+000
0	 8.800020022230553e+000	 1.333299999983334e+000	 9.930521823058813e+000
0	 8.866680074997040e+000	 6.666972226472177e-001	 9.911722029019908e+000
0	 8.866680074997040e+000	 7.333579753122049e-001	 9.912515601871014e+000
0	 8.866680074997040e+000	 8.000185779984416e-001	 9.913393636072586e+000
0	 8.866680074997040e+000	 8.666790473703453e-001	 9.914357015746854e+000
0	 8.866680074997044e+000	 9.333394000923324e-001	 9.915406624839246e+000
0	 8.866680074997040e+000	 9.999996528288191e-001	 9.916543347118436e+000
0	 8.866680074997039e+000	 1.066659822244222e+000	 9.917768066176290e+000
0	 8.866680074997040e+000	 1.133319925002959e+000	 9.919081665427884e+000
0	 8.866680074997040e+000	 1.199979977769445e+000	 9.920485028111528e+000
0	 8.866680074997040e+000	 1.266639997208098e+000	 9.921979037288740e+000
0	 8.866680074997042e+000	 1.333299999983334e+000	 9.923564575844241e+000
0	 8.933340177755774e+000	 6.666972226472175e-001	 9.904223371040635e+000
0	 8.933340177755776e+000	 7.333579753122049e-001	 9.905074321725936e+000
0	 8.933340177755776e+000	 8.000185779984416e-001	 9.906006852256390e+000
0	 8.933340177755776e+000	 8.666790473703450e-001	 9.907021893927407e+000
0	 8.933340177755776e+000	 9.333394000923323e-001	 9.908120377861239e+000
0	 8.933340177755774e+000	 9.999996528288190e-001	 9.909303235007092e+000
0	 8.933340177755778e+000	 1.066659822244222e+000	 9.910571396141075e+000
0	 8.933340177755778e+000	 1.133319925002959e+000	 9.911925791866219e+000
0	 8.933340177755776e+000	 1.199979977769445e+000	 9.913367352612431e+000
0	 8.933340177755778e+000	 1.266639997208098e+000	 9.914897008636572e+000
0	 8.933340177755778e+000	 1.333299999983334e+000	 9.916515690022411e+000
0	 9.000000347171181e+000	 6.666972226472179e-001	 9.896557120206461e+000
0	 9.000000347171177e+000	 7.333579753122046e-001	 9.897473868100335e+000
0	 9.000000347171181e+000	 8.000185779984416e-001	 9.898468838262401e+000
0	 9.000000347171179e+000	 8.666790473703456e-001	 9.899543002412932e+000
0	 9.000000347171177e+000	 9.333394000923322e-001	 9.900697332103919e+000
0	 9.000000347171179e+000	 9.999996528288189e-001	 9.901932798719082e+000
0	 9.000000347171179e+000	 1.066659822244222e+000	 9.903250373473902e+000
0	 9.000000347171181e+000	 1.133319925002959e+000	 9.904651027415559e+000
0	 9.000000347171175e+000	 1.199979977769445e+000	 9.906135731422987e+000
0	 9.000000347171181e+000	 1.266639997208098e+000	 9.907705456206870e+000
0	 9.000000347171179e+000	 1.333299999983334e+000	 9.909361172309602e+000
0	 9.066660599907666e+000	 6.666972226472179e-001	 9.888723507447102e+000
0	 9.066660599907667e+000	 7.333579753122049e-001	 9.889710425361292e+000
0	 9.066660599907667e+000	 8.000185779984419e-001	 9.890772315023474e+000
0	 9.066660599907667e+000	 8.666790473703456e-001	 9.891910181836860e+000
0	 9.066660599907664e+000	 9.333394000923322e-001	 9.893125031041473e+000
0	 9.066660599907666e+000	 9.999996528288190e-001	 9.894417867714122e+000
0	 9.066660599907667e+000	 1.066659822244222e+000	 9.895789696768430e+000
0	 9.066660599907664e+000	 1.133319925002959e+000	 9.897241522954827e+000
0	 9.066660599907667e+000	 1.199979977769445e+000	 9.898774350860535e+000
0	 9.066660599907666e+000	 1.266639997208098e+000	 9.900389184909598e+000
0	 9.066660599907666e+000	 1.333299999983334e+000	 9.902087029362859e+000
0	 9.133320952629653e+000	 6.666972226472175e-001	 9.880722763597822e+000
0	 9.133320952629651e+000	 7.333579753122048e-001	 9.881780177786631e+000
0	 9.133320952629651e+000	 8.000185779984417e-001	 9.882910003388068e+000
0	 9.133320952629649e+000	 8.666790473703453e-001	 9.884113272752664e+000
0	 9.133320952629655e+000	 9.333394000923322e-001	 9.885391018072200e+000
0	 9.133320952629653e+000	 9.999996528288191e-001	 9.886744271379696e+000
0	 9.133320952629649e+000	 1.066659822244222e+000	 9.888174064549448e+000
0	 9.133320952629653e+000	 1.133319925002959e+000	 9.889681429296958e+000
0	 9.133320952629651e+000	 1.199979977769445e+000	 9.891267397179002e+000
0	 9.133320952629651e+000	 1.266639997208098e+000	 9.892932999593599e+000
0	 9.133320952629653e+000	 1.333299999983334e+000	 9.894679267780045e+000
0	 9.199981422001555e+000	 6.666972226472177e-001	 9.872555119399431e+000
0	 9.199981422001560e+000	 7.333579753122049e-001	 9.873679309565009e+000
0	 9.199981422001557e+000	 8.000185779984418e-001	 9.874874624120302e+000
0	 9.199981422001553e+000	 8.666790473703452e-001	 9.876142115633893e+000
0	 9.199981422001557e+000	 9.333394000923324e-001	 9.877482836518514e+000
0	 9.199981422001555e+000	 9.999996528288189e-001	 9.878897839031094e+000
0	 9.199981422001555e+000	 1.066659822244222e+000	 9.880388175272790e+000
0	 9.199981422001557e+000	 1.133319925002959e+000	 9.881954897188884e+000
0	 9.199981422001557e+000	 1.199979977769445e+000	 9.883599056568919e+000
0	 9.199981422001553e+000	 1.266639997208097e+000	 9.885321705046595e+000
0	 9.199981422001555e+000	 1.333299999983334e+000	 9.887123894099799e+000
0	 9.266642024687791e+000	 6.666972226472177e-001	 9.864220805498286e+000
0	 9.266642024687791e+000	 7.333579753122047e-001	 9.865404004795824e+000
0	 9.266642024687792e+000	 8.000185779984417e-001	 9.866658897899903e+000
0	 9.266642024687791e+000	 8.666790473703453e-001	 9.867986550874132e+000
0	 9.266642024687792e+000	 9.333394000923320e-001	 9.869388029626899e+000
0	 9.266642024687792e+000	 9.999996528288190e-001	 9.870864399911360e+000
0	 9.266642024687794e+000	 1.066659822244222e+000	 9.872416727325369e+000
0	 9.266642024687789e+000	 1.133319925002959e+000	 9.874046077311601e+000
0	 9.266642024687791e+000	 1.199979977769445e+000	 9.875753515157459e+000
0	 9.266642024687794e+000	 1.266639997208098e+000	 9.877540105995138e+000
0	 9.266642024687792e+000	 1.333299999983334e+000	 9.879406914801571e+000
0	 9.333302777352783e+000	 6.666972226472177e-001	 9.855720052446289e+000
0	 9.333302777352783e+000	 7.333579753122046e-001	 9.856950447489304e+000
0	 9.333302777352783e+000	 8.000185779984417e-001	 9.858255545322214e+000
0	 9.333302777352781e+000	 8.666790473703453e-001	 9.859636418787076e+000
0	 9.333302777352781e+000	 9.333394000923320e-001	 9.861094140568033e+000
0	 9.333302777352783e+000	 9.999996528288190e-001	 9.862629783191327e+000
0	 9.333302777352785e+000	 1.066659822244222e+000	 9.864244419025217e+000
0	 9.333302777352785e+000	 1.133319925002959e+000	 9.865939120280101e+000
0	 9.333302777352785e+000	 1.199979977769445e+000	 9.867714959008426e+000
0	 9.333302777352785e+000	 1.266639997208098e+000	 9.869573007104718e+000
0	 9.333302777352785e+000	 1.333299999983334e+000	 9.871514336305602e+000
0	 8.666700000016668e+000	 1.333299999983334e+000	 9.944217374505099e+000
0	 8.666700000016668e+000	 1.399969999982150e+000	 9.945772107898883e+000
0	 8.666700000016666e+000	 1.466639999981866e+000	 9.947351402826710e+000
0	 8.666700000016666e+000	 1.533309999982383e+000	 9.948956672811544e+000
0	 8.666700000016665e+000	 1.599979999983599e+000	 9.950589331376365e+000
0	 8.666700000016665e+000	 1.666649999985416e+000	 9.952250792044140e+000
0	 8.666700000016666e+000	 1.733319999987733e+000	 9.953942468337861e+000
0	 8.666700000016665e+000	 1.799989999990450e+000	 9.955665773780490e+000
0	 8.666700000016666e+000	 1.866659999993466e+000	 9.957422121895002e+000
0	 8.666700000016665e+000	 1.933329999996683e+000	 9.959212926204385e+000
0	 8.666700000016668e+000	 2.000000000000000e+000	 9.961039600231606e+000
0	 8.733360002791901e+000	 1.333299999983334e+000	 9.937401424890664e+000
0	 8.733360002791901e+000	 1.399969999982150e+000	 9.938986117293190e+000
0	 8.733360002791901e+000	 1.466639999981867e+000	 9.940595488591761e+000
0	 8.733360002791901e+000	 1.533309999982383e+000	 9.942231242631340e+000
0	 8.733360002791901e+000	 1.599979999983600e+000	 9.943895083256882e+000
0	 8.733360002791905e+000	 1.666649999985416e+000	 9.945588714313331e+000
0	 8.733360002791901e+000	 1.733319999987733e+000	 9.947313839645640e+000
0	 8.733360002791905e+000	 1.799989999990450e+000	 9.949072163098792e+000
0	 8.733360002791903e+000	 1.866659999993466e+000	 9.950865388517713e+000
0	 8.733360002791903e+000	 1.933329999996684e+000	 9.952695219747374e+000
0	 8.733360002791905e+000	 2.000000000000000e+000	 9.954563360632729e+000
0	 8.800020022230553e+000	 1.333299999983334e+000	 9.930521823058816e+000
0	 8.800020022230555e+000	 1.399969999982150e+000	 9.932136205418672e+000
0	 8.800020022230555e+000	 1.466639999981866e+000	 9.933776512247508e+000
0	 8.800020022230555e+000	 1.533309999982383e+000	 9.935444670793270e+000
0	 8.800020022230557e+000	 1.599979999983600e+000	 9.937142608303855e+000
0	 8.800020022230555e+000	 1.666649999985416e+000	 9.938872252027192e+000
0	 8.800020022230557e+000	 1.733319999987733e+000	 9.940635529211201e+000
0	 8.800020022230553e+000	 1.799989999990450e+000	 9.942434367103806e+000
0	 8.800020022230553e+000	 1.866659999993466e+000	 9.944270692952911e+000
0	 8.800020022230555e+000	 1.933329999996683e+000	 9.946146434006460e+000
0	 8.800020022230555e+000	 2.000000000000000e+000	 9.948063517512354e+000
0	 8.866680074997042e+000	 1.333299999983334e+000	 9.923564575844241e+000
0	 8.866680074997042e+000	 1.399969999982150e+000	 9.925209786515683e+000
0	 8.866680074997040e+000	 1.466639999981867e+000	 9.926883123165576e+000
0	 8.866680074997040e+000	 1.533309999982383e+000	 9.928586669525684e+000
0	 8.866680074997042e+000	 1.599979999983599e+000	 9.930322509327787e+000
0	 8.866680074997040e+000	 1.666649999985416e+000	 9.932092726303671e+000
0	 8.866680074997042e+000	 1.733319999987733e+000	 9.933899404185098e+000
0	 8.866680074997044e+000	 1.799989999990450e+000	 9.935744626703849e+000
0	 8.866680074997042e+000	 1.866659999993466e+000	 9.937630477591698e+000
0	 8.866680074997040e+000	 1.933329999996683e+000	 9.939559040580429e+000
0	 8.866680074997044e+000	 2.000000000000000e+000	 9.941532399401808e+000
0	 8.933340177755778e+000	 1.333299999983334e+000	 9.916515690022415e+000
0	 8.933340177755774e+000	 1.399969999982150e+000	 9.918194274767023e+000
0	 8.933340177755776e+000	 1.466639999981867e+000	 9.919903970661402e+000
0	 8.933340177755776e+000	 1.533309999982383e+000	 9.921646951002067e+000
0	 8.933340177755778e+000	 1.599979999983600e+000	 9.923425389085566e+000
0	 8.933340177755778e+000	 1.666649999985416e+000	 9.925241458208420e+000
0	 8.933340177755776e+000	 1.733319999987733e+000	 9.927097331667161e+000
0	 8.933340177755776e+000	 1.799989999990450e+000	 9.928995182758328e+000
0	 8.933340177755772e+000	 1.866659999993466e+000	 9.930937184778449e+000
0	 8.933340177755774e+000	 1.933329999996683e+000	 9.932925511024051e+000
0	 8.933340177755776e+000	 2.000000000000000e+000	 9.934962334791681e+000
0	 9.000000347171179e+000	 1.333299999983334e+000	 9.909361172309598e+000
0	 9.000000347171181e+000	 1.399969999982150e+000	 9.911077084297883e+000
0	 9.000000347171179e+000	 1.466639999981866e+000	 9.912827703994248e+000
0	 9.000000347171181e+000	 1.533309999982383e+000	 9.914615227341006e+000
0	 9.000000347171179e+000	 1.599979999983600e+000	 9.916441850280435e+000
0	 9.000000347171175e+000	 1.666649999985416e+000	 9.918309768754837e+000
0	 9.000000347171181e+000	 1.733319999987733e+000	 9.920221178706502e+000
0	 9.000000347171177e+000	 1.799989999990449e+000	 9.922178276077736e+000
0	 9.000000347171177e+000	 1.866659999993466e+000	 9.924183256810832e+000
0	 9.000000347171179e+000	 1.933329999996683e+000	 9.926238316848089e+000
0	 9.000000347171177e+000	 2.000000000000000e+000	 9.928345652131805e+000
0	 9.066660599907666e+000	 1.333299999983334e+000	 9.902087029362859e+000
0	 9.066660599907664e+000	 1.399969999982150e+000	 9.903845629175873e+000
0	 9.066660599907664e+000	 1.466639999981866e+000	 9.905642972367220e+000
0	 9.066660599907667e+000	 1.533309999982383e+000	 9.907481210606173e+000
0	 9.066660599907664e+000	 1.599979999983599e+000	 9.909362495562014e+000
0	 9.066660599907666e+000	 1.666649999985416e+000	 9.911288978904025e+000
0	 9.066660599907666e+000	 1.733319999987733e+000	 9.913262812301475e+000
0	 9.066660599907666e+000	 1.799989999990450e+000	 9.915286147423652e+000
0	 9.066660599907667e+000	 1.866659999993466e+000	 9.917361135939821e+000
0	 9.066660599907666e+000	 1.933329999996683e+000	 9.919489929519274e+000
0	 9.066660599907667e+000	 2.000000000000000e+000	 9.921674679831291e+000
0	 9.133320952629653e+000	 1.333299999983334e+000	 9.894679267780045e+000
0	 9.133320952629651e+000	 1.399969999982150e+000	 9.896487323411019e+000
0	 9.133320952629651e+000	 1.466639999981867e+000	 9.898338424927200e+000
0	 9.133320952629653e+000	 1.533309999982383e+000	 9.900234612806379e+000
0	 9.133320952629655e+000	 1.599979999983600e+000	 9.902177927526337e+000
0	 9.133320952629651e+000	 1.666649999985416e+000	 9.904170409564859e+000
0	 9.133320952629655e+000	 1.733319999987733e+000	 9.906214099399728e+000
0	 9.133320952629651e+000	 1.799989999990450e+000	 9.908311037508742e+000
0	 9.133320952629655e+000	 1.866659999993466e+000	 9.910463264369685e+000
0	 9.133320952629653e+000	 1.933329999996683e+000	 9.912672820460331e+000
0	 9.133320952629653e+000	 2.000000000000000e+000	 9.914941746258490e+000
0	 9.199981422001555e+000	 1.333299999983334e+000	 9.887123894099798e+000
0	 9.199981422001555e+000	 1.399969999982150e+000	 9.888989580955762e+000
0	 9.199981422001557e+000	 1.466639999981867e+000	 9.890902710764932e+000
0	 9.199981422001555e+000	 1.533309999982383e+000	 9.892865145895520e+000
0	 9.199981422001557e+000	 1.599979999983600e+000	 9.894878748715776e+000
0	 9.199981422001553e+000	 1.666649999985416e+000	 9.896945381593916e+000
0	 9.199981422001557e+000	 1.733319999987733e+000	 9.899066906898169e+000
0	 9.199981422001558e+000	 1.799989999990450e+000	 9.901245186996787e+000
0	 9.199981422001555e+000	 1.866659999993466e+000	 9.903482084257982e+000
0	 9.199981422001555e+000	 1.933329999996683e+000	 9.905779461049987e+000
0	 9.199981422001553e+000	 2.000000000000000e+000	 9.908139179741056e+000
0	 9.266642024687792e+000	 1.333299999983334e+000	 9.879406914801571e+000
0	 9.266642024687792e+000	 1.399969999982150e+000	 9.881339815704987e+000
0	 9.266642024687792e+000	 1.466639999981866e+000	 9.883324478914970e+000
0	 9.266642024687791e+000	 1.533309999982383e+000	 9.885362521772638e+000
0	 9.266642024687794e+000	 1.599979999983600e+000	 9.887455561619118e+000
0	 9.266642024687791e+000	 1.666649999985416e+000	 9.889605215795537e+000
0	 9.266642024687792e+000	 1.733319999987733e+000	 9.891813101642995e+000
0	 9.266642024687789e+000	 1.799989999990449e+000	 9.894080836502649e+000
0	 9.266642024687792e+000	 1.866659999993466e+000	 9.896410037715583e+000
0	 9.266642024687789e+000	 1.933329999996683e+000	 9.898802322622947e+000
0	 9.266642024687794e+000	 2.000000000000000e+000	 9.901259308565866e+000
0	 9.333302777352785e+000	 1.333299999983334e+000	 9.871514336305602e+000
0	 9.333302777352783e+000	 1.399969999982150e+000	 9.873525441495961e+000
0	 9.333302777352785e+000	 1.466639999981866e+000	 9.875592378355684e+000
0	 9.333302777352783e+000	 1.533309999982383e+000	 9.877716452281863e+000
0	 9.333302777352783e+000	 1.599979999983600e+000	 9.879898968671544e+000
0	 9.333302777352783e+000	 1.666649999985416e+000	 9.882141232921786e+000
0	 9.333302777352783e+000	 1.733319999987733e+000	 9.884444550429677e+000
0	 9.333302777352781e+000	 1.799989999990450e+000	 9.886810226592283e+000
0	 9.333302777352783e+000	 1.866659999993466e+000	 9.889239566806674e+000
0	 9.333302777352783e+000	 1.933329999996683e+000	 9.891733876469921e+000
0	 9.333302777352783e+000	 2.000000000000000e+000	 9.894294460979085e+000
0	 8.666700000016668e+000	 2.000000000000000e+000	 9.961039600231606e+000
0	 8.666700000016665e+000	 2.066670000003317e+000	 9.962883165123875e+000
0	 8.666700000016666e+000	 2.133340000006534e+000	 9.964725290732099e+000
0	 8.666700000016666e+000	 2.200010000009550e+000	 9.966568363634814e+000
0	 8.666700000016666e+000	 2.266680000012268e+000	 9.968414770410551e+000
0	 8.666700000016665e+000	 2.333350000014584e+000	 9.970266897637853e+000
0	 8.666700000016666e+000	 2.400020000016401e+000	 9.972127131895242e+000
0	 8.666700000016666e+000	 2.466690000017618e+000	 9.973997859761269e+000
0	 8.666700000016668e+000	 2.533360000018134e+000	 9.975881467814471e+000
0	 8.666700000016666e+000	 2.600030000017850e+000	 9.977780342633368e+000
0	 8.666700000016668e+000	 2.666700000016667e+000	 9.979696870796515e+000
0	 8.733360002791905e+000	 2.000000000000000e+000	 9.954563360632729e+000
0	 8.733360002791903e+000	 2.066670000003317e+000	 9.956452205297524e+000
0	 8.733360002791901e+000	 2.133340000006534e+000	 9.958344254566024e+000
0	 8.733360002791905e+000	 2.200010000009550e+000	 9.960241372333945e+000
0	 8.733360002791901e+000	 2.266680000012268e+000	 9.962145422497081e+000
0	 8.733360002791905e+000	 2.333350000014584e+000	 9.964058268951122e+000
0	 8.733360002791901e+000	 2.400020000016400e+000	 9.965981775591827e+000
0	 8.733360002791899e+000	 2.466690000017616e+000	 9.967917806314937e+000
0	 8.733360002791898e+000	 2.533360000018133e+000	 9.969868225016201e+000
0	 8.733360002791901e+000	 2.600030000017850e+000	 9.971834895591357e+000
0	 8.733360002791903e+000	 2.666700000016666e+000	 9.973819681936137e+000
0	 8.800020022230555e+000	 2.000000000000000e+000	 9.948063517512354e+000
0	 8.800020022230557e+000	 2.066670000003317e+000	 9.950004786414336e+000
0	 8.800020022230552e+000	 2.133340000006534e+000	 9.951952748769729e+000
0	 8.800020022230553e+000	 2.200010000009550e+000	 9.953908829496898e+000
0	 8.800020022230557e+000	 2.266680000012268e+000	 9.955874453514191e+000
0	 8.800020022230552e+000	 2.333350000014584e+000	 9.957851045739952e+000
0	 8.800020022230557e+000	 2.400020000016401e+000	 9.959840031092535e+000
0	 8.800020022230553e+000	 2.466690000017618e+000	 9.961842834490284e+000
0	 8.800020022230553e+000	 2.533360000018134e+000	 9.963860880851563e+000
0	 8.800020022230555e+000	 2.600030000017851e+000	 9.965895595094706e+000
0	 8.800020022230557e+000	 2.666700000016667e+000	 9.967948402138074e+000
0	 8.866680074997044e+000	 2.000000000000000e+000	 9.941532399401808e+000
0	 8.866680074997042e+000	 2.066670000003318e+000	 9.943533085409561e+000
0	 8.866680074997042e+000	 2.133340000006534e+000	 9.945542953900608e+000
0	 8.866680074997042e+000	 2.200010000009551e+000	 9.947563074521549e+000
0	 8.866680074997042e+000	 2.266680000012267e+000	 9.949594516918985e+000
0	 8.866680074997039e+000	 2.333350000014582e+000	 9.951638350739501e+000
0	 8.866680074997042e+000	 2.400020000016402e+000	 9.953695645629695e+000
0	 8.866680074997040e+000	 2.466690000017617e+000	 9.955767471236173e+000
0	 8.866680074997039e+000	 2.533360000018133e+000	 9.957854897205525e+000
0	 8.866680074997040e+000	 2.600030000017850e+000	 9.959958993184349e+000
0	 8.866680074997040e+000	 2.666700000016667e+000	 9.962080828819245e+000
0	 8.933340177755776e+000	 2.000000000000000e+000	 9.934962334791681e+000
0	 8.933340177755776e+000	 2.066670000003317e+000	 9.937029279181658e+000
0	 8.933340177755774e+000	 2.133340000006533e+000	 9.939107050483708e+000
0	 8.933340177755774e+000	 2.200010000009550e+000	 9.941196446778397e+000
0	 8.933340177755776e+000	 2.266680000012267e+000	 9.943298266146339e+000
0	 8.933340177755779e+000	 2.333350000014585e+000	 9.945413306668117e+000
0	 8.933340177755778e+000	 2.400020000016401e+000	 9.947542366424321e+000
0	 8.933340177755776e+000	 2.466690000017617e+000	 9.949686243495528e+000
0	 8.933340177755774e+000	 2.533360000018134e+000	 9.951845735962351e+000
0	 8.933340177755774e+000	 2.600030000017850e+000	 9.954021641905376e+000
0	 8.933340177755776e+000	 2.666700000016666e+000	 9.956214759405185e+000
0	 9.000000347171177e+000	 2.000000000000000e+000	 9.928345652131805e+000
0	 9.000000347171179e+000	 2.066670000003316e+000	 9.930485544592255e+000
0	 9.000000347171177e+000	 2.133340000006534e+000	 9.932637219011713e+000
0	 9.000000347171179e+000	 2.200010000009550e+000	 9.934801285610513e+000
0	 9.000000347171179e+000	 2.266680000012268e+000	 9.936978354608955e+000
0	 9.000000347171175e+000	 2.333350000014584e+000	 9.939169036227364e+000
0	 9.000000347171179e+000	 2.400020000016401e+000	 9.941373940686072e+000
0	 9.000000347171181e+000	 2.466690000017618e+000	 9.943593678205357e+000
0	 9.000000347171179e+000	 2.533360000018133e+000	 9.945828859005580e+000
0	 9.000000347171181e+000	 2.600030000017850e+000	 9.948080093307027e+000
0	 9.000000347171183e+000	 2.666700000016666e+000	 9.950347991330027e+000
0	 9.066660599907667e+000	 2.000000000000000e+000	 9.921674679831291e+000
0	 9.066660599907666e+000	 2.066670000003317e+000	 9.923894058466145e+000
0	 9.066660599907667e+000	 2.133340000006534e+000	 9.926125639945008e+000
0	 9.066660599907666e+000	 2.200010000009551e+000	 9.928369930333522e+000
0	 9.066660599907666e+000	 2.266680000012267e+000	 9.930627435697323e+000
0	 9.066660599907667e+000	 2.333350000014585e+000	 9.932898662102046e+000
0	 9.066660599907664e+000	 2.400020000016400e+000	 9.935184115613314e+000
0	 9.066660599907667e+000	 2.466690000017617e+000	 9.937484302296763e+000
0	 9.066660599907666e+000	 2.533360000018133e+000	 9.939799728218029e+000
0	 9.066660599907666e+000	 2.600030000017851e+000	 9.942130899442732e+000
0	 9.066660599907666e+000	 2.666700000016667e+000	 9.944478322036533e+000
0	 9.133320952629653e+000	 2.000000000000000e+000	 9.914941746258490e+000
0	 9.133320952629653e+000	 2.066670000003317e+000	 9.917246997591315e+000
0	 9.133320952629653e+000	 2.133340000006534e+000	 9.919564493711629e+000
0	 9.133320952629653e+000	 2.200010000009550e+000	 9.921894720235676e+000
0	 9.133320952629653e+000	 2.266680000012268e+000	 9.924238162779757e+000
0	 9.133320952629651e+000	 2.333350000014584e+000	 9.926595306960140e+000
0	 9.133320952629655e+000	 2.400020000016400e+000	 9.928966638393099e+000
0	 9.133320952629653e+000	 2.466690000017617e+000	 9.931352642694890e+000
0	 9.133320952629651e+000	 2.533360000018134e+000	 9.933753805481805e+000
0	 9.133320952629651e+000	 2.600030000017851e+000	 9.936170612370091e+000
0	 9.133320952629653e+000	 2.666700000016667e+000	 9.938603548976049e+000
0	 9.199981422001553e+000	 2.000000000000000e+000	 9.908139179741056e+000
0	 9.199981422001553e+000	 2.066670000003317e+000	 9.910536538718960e+000
0	 9.199981422001557e+000	 2.133340000006534e+000	 9.912945960707258e+000
0	 9.199981422001555e+000	 2.200010000009551e+000	 9.915367994577787e+000
0	 9.199981422001557e+000	 2.266680000012267e+000	 9.917803189202379e+000
0	 9.199981422001555e+000	 2.333350000014584e+000	 9.920252093452890e+000
0	 9.199981422001557e+000	 2.400020000016401e+000	 9.922715256201155e+000
0	 9.199981422001553e+000	 2.466690000017617e+000	 9.925193226319006e+000
0	 9.199981422001557e+000	 2.533360000018134e+000	 9.927686552678301e+000
0	 9.199981422001558e+000	 2.600030000017851e+000	 9.930195784150866e+000
0	 9.199981422001555e+000	 2.666700000016667e+000	 9.932721469608548e+000
0	 9.266642024687794e+000	 2.000000000000000e+000	 9.901259308565866e+000
0	 9.266642024687792e+000	 2.066670000003317e+000	 9.903754858563445e+000
0	 9.266642024687791e+000	 2.133340000006534e+000	 9.906262221295306e+000
0	 9.266642024687792e+000	 2.200010000009550e+000	 9.908782092593263e+000
0	 9.266642024687792e+000	 2.266680000012267e+000	 9.911315168289118e+000
0	 9.266642024687791e+000	 2.333350000014584e+000	 9.913862144214733e+000
0	 9.266642024687792e+000	 2.400020000016401e+000	 9.916423716201891e+000
0	 9.266642024687792e+000	 2.466690000017618e+000	 9.919000580082440e+000
0	 9.266642024687791e+000	 2.533360000018133e+000	 9.921593431688194e+000
0	 9.266642024687791e+000	 2.600030000017850e+000	 9.924202966850977e+000
0	 9.266642024687791e+000	 2.666700000016666e+000	 9.926829881402615e+000
0	 9.333302777352783e+000	 2.000000000000000e+000	 9.894294460979085e+000
0	 9.333302777352783e+000	 2.066670000003318e+000	 9.896894133802327e+000
0	 9.333302777352783e+000	 2.133340000006534e+000	 9.899505455806803e+000
0	 9.333302777352785e+000	 2.200010000009550e+000	 9.902129353488085e+000
0	 9.333302777352781e+000	 2.266680000012267e+000	 9.904766753341731e+000
0	 9.333302777352783e+000	 2.333350000014584e+000	 9.907418581863324e+000
0	 9.333302777352781e+000	 2.400020000016401e+000	 9.910085765548429e+000
0	 9.333302777352785e+000	 2.466690000017617e+000	 9.912769230892630e+000
0	 9.333302777352781e+000	 2.533360000018134e+000	 9.915469904391484e+000
0	 9.333302777352783e+000	 2.600030000017850e+000	 9.918188712540573e+000
0	 9.333302777352785e+000	 2.666700000016666e+000	 9.920926581835474e+000
0	 8.666700000016668e+000	 2.666700000016667e+000	 9.979696870796515e+000
0	 8.666700000016666e+000	 2.733360000014533e+000	 9.981606227165559e+000
0	 8.666700000016668e+000	 2.800020000011600e+000	 9.983482946532767e+000
0	 8.666700000016665e+000	 2.866680000008067e+000	 9.985327588648273e+000
0	 8.666700000016665e+000	 2.933340000004133e+000	 9.987140713262214e+000
0	 8.666700000016666e+000	 3.000000000000000e+000	 9.988922880124704e+000
0	 8.666700000016666e+000	 3.066659999995867e+000	 9.990674648985886e+000
0	 8.666700000016666e+000	 3.133319999991933e+000	 9.992396579595891e+000
0	 8.666700000016668e+000	 3.199979999988400e+000	 9.994089231704853e+000
0	 8.666700000016666e+000	 3.266639999985468e+000	 9.995753165062901e+000
0	 8.666700000016668e+000	 3.333299999983334e+000	 9.997388939420166e+000
0	 8.733360002791903e+000	 2.666700000016666e+000	 9.973819681936137e+000
0	 8.733360002791901e+000	 2.733360000014534e+000	 9.975796858950300e+000
0	 8.733360002791905e+000	 2.800020000011600e+000	 9.977740641134744e+000
0	 8.733360002791901e+000	 2.866680000008066e+000	 9.979651904322351e+000
0	 8.733360002791903e+000	 2.933340000004133e+000	 9.981531524345972e+000
0	 8.733360002791905e+000	 3.000000000000001e+000	 9.983380377038479e+000
0	 8.733360002791901e+000	 3.066659999995867e+000	 9.985199338232755e+000
0	 8.733360002791905e+000	 3.133319999991934e+000	 9.986989283761654e+000
0	 8.733360002791903e+000	 3.199979999988400e+000	 9.988751089458056e+000
0	 8.733360002791903e+000	 3.266639999985467e+000	 9.990485631154835e+000
0	 8.733360002791901e+000	 3.333299999983334e+000	 9.992193784684853e+000
0	 8.800020022230557e+000	 2.666700000016667e+000	 9.967948402138074e+000
0	 8.800020022230552e+000	 2.733360000014533e+000	 9.969993463615715e+000
0	 8.800020022230555e+000	 2.800020000011599e+000	 9.972005365478713e+000
0	 8.800020022230553e+000	 2.866680000008067e+000	 9.973985241119541e+000
0	 8.800020022230557e+000	 2.933340000004133e+000	 9.975934223930686e+000
0	 8.800020022230557e+000	 3.000000000000000e+000	 9.977853447304630e+000
0	 8.800020022230557e+000	 3.066659999995867e+000	 9.979744044633851e+000
0	 8.800020022230552e+000	 3.133319999991933e+000	 9.981607149310834e+000
0	 8.800020022230555e+000	 3.199979999988401e+000	 9.983443894728065e+000
0	 8.800020022230555e+000	 3.266639999985467e+000	 9.985255414278036e+000
0	 8.800020022230555e+000	 3.333299999983333e+000	 9.987042841353208e+000
0	 8.866680074997040e+000	 2.666700000016667e+000	 9.962080828819245e+000
0	 8.866680074997040e+000	 2.733360000014533e+000	 9.964195066672847e+000
0	 8.866680074997040e+000	 2.800020000011600e+000	 9.966277183782605e+000
0	 8.866680074997039e+000	 2.866680000008066e+000	 9.968328512577378e+000
0	 8.866680074997040e+000	 2.933340000004133e+000	 9.970350385485990e+000
0	 8.866680074997040e+000	 3.000000000000000e+000	 9.972344134937298e+000
0	 8.866680074997042e+000	 3.066659999995867e+000	 9.974311093360141e+000
0	 8.866680074997040e+000	 3.133319999991934e+000	 9.976252593183368e+000
0	 8.866680074997039e+000	 3.199979999988400e+000	 9.978169966835811e+000
0	 8.866680074997042e+000	 3.266639999985468e+000	 9.980064546746347e+000
0	 8.866680074997040e+000	 3.333299999983334e+000	 9.981937665343791e+000
0	 8.933340177755776e+000	 2.666700000016666e+000	 9.956214759405185e+000
0	 8.933340177755778e+000	 2.733360000014533e+000	 9.958400693645245e+000
0	 8.933340177755778e+000	 2.800020000011599e+000	 9.960556160280328e+000
0	 8.933340177755778e+000	 2.866680000008067e+000	 9.962682632252344e+000
0	 8.933340177755776e+000	 2.933340000004133e+000	 9.964781582503219e+000
0	 8.933340177755774e+000	 3.000000000000000e+000	 9.966854483974851e+000
0	 8.933340177755778e+000	 3.066659999995867e+000	 9.968902809609174e+000
0	 8.933340177755776e+000	 3.133319999991933e+000	 9.970928032348093e+000
0	 8.933340177755778e+000	 3.199979999988401e+000	 9.972931625133517e+000
0	 8.933340177755776e+000	 3.266639999985468e+000	 9.974915060907396e+000
0	 8.933340177755778e+000	 3.333299999983335e+000	 9.976879812611625e+000
0	 9.000000347171183e+000	 2.666700000016666e+000	 9.950347991330027e+000
0	 9.000000347171181e+000	 2.733360000014533e+000	 9.952609370068966e+000
0	 9.000000347171177e+000	 2.800020000011600e+000	 9.954842359221672e+000
0	 9.000000347171179e+000	 2.866680000008067e+000	 9.957048513719883e+000
0	 9.000000347171177e+000	 2.933340000004133e+000	 9.959229388495359e+000
0	 9.000000347171177e+000	 3.000000000000000e+000	 9.961386538479832e+000
0	 9.000000347171179e+000	 3.066659999995866e+000	 9.963521518605043e+000
0	 9.000000347171179e+000	 3.133319999991934e+000	 9.965635883802740e+000
0	 9.000000347171179e+000	 3.199979999988401e+000	 9.967731189004677e+000
0	 9.000000347171181e+000	 3.266639999985467e+000	 9.969808989142583e+000
0	 9.000000347171181e+000	 3.333299999983333e+000	 9.971870839148233e+000
0	 9.066660599907666e+000	 2.666700000016667e+000	 9.944478322036533e+000
0	 9.066660599907667e+000	 2.733360000014533e+000	 9.946820121492598e+000
0	 9.066660599907666e+000	 2.800020000011601e+000	 9.949135844872398e+000
0	 9.066660599907667e+000	 2.866680000008067e+000	 9.951427070574425e+000
0	 9.066660599907666e+000	 2.933340000004133e+000	 9.953695376997125e+000
0	 9.066660599907669e+000	 3.000000000000000e+000	 9.955942342538950e+000
0	 9.066660599907664e+000	 3.066659999995866e+000	 9.958169545598414e+000
0	 9.066660599907667e+000	 3.133319999991934e+000	 9.960378564573936e+000
0	 9.066660599907667e+000	 3.199979999988401e+000	 9.962570977864003e+000
0	 9.066660599907667e+000	 3.266639999985468e+000	 9.964748363867088e+000
0	 9.066660599907666e+000	 3.333299999983334e+000	 9.966912300981651e+000
0	 9.133320952629653e+000	 2.666700000016667e+000	 9.938603548976046e+000
0	 9.133320952629653e+000	 2.733360000014534e+000	 9.941031973477220e+000
0	 9.133320952629651e+000	 2.800020000011600e+000	 9.943436681514205e+000
0	 9.133320952629651e+000	 2.866680000008067e+000	 9.945819216429324e+000
0	 9.133320952629653e+000	 2.933340000004133e+000	 9.948181121564883e+000
0	 9.133320952629651e+000	 2.999999999999999e+000	 9.950523940263174e+000
0	 9.133320952629653e+000	 3.066659999995867e+000	 9.952849215866518e+000
0	 9.133320952629651e+000	 3.133319999991934e+000	 9.955158491717199e+000
0	 9.133320952629651e+000	 3.199979999988401e+000	 9.957453311157527e+000
0	 9.133320952629651e+000	 3.266639999985467e+000	 9.959735217529831e+000
0	 9.133320952629651e+000	 3.333299999983334e+000	 9.962005754176383e+000
0	 9.199981422001555e+000	 2.666700000016667e+000	 9.932721469608550e+000
0	 9.199981422001558e+000	 2.733360000014533e+000	 9.935243951596441e+000
0	 9.199981422001555e+000	 2.800020000011599e+000	 9.937744933444721e+000
0	 9.199981422001555e+000	 2.866680000008067e+000	 9.940225864916966e+000
0	 9.199981422001555e+000	 2.933340000004133e+000	 9.942688195776732e+000
0	 9.199981422001553e+000	 3.000000000000000e+000	 9.945133375787602e+000
0	 9.199981422001555e+000	 3.066659999995866e+000	 9.947562854713148e+000
0	 9.199981422001553e+000	 3.133319999991933e+000	 9.949978082316935e+000
0	 9.199981422001553e+000	 3.199979999988400e+000	 9.952380508362539e+000
0	 9.199981422001557e+000	 3.266639999985467e+000	 9.954771582613528e+000
0	 9.199981422001555e+000	 3.333299999983333e+000	 9.957152754833484e+000
0	 9.266642024687791e+000	 2.666700000016666e+000	 9.926829881402615e+000
0	 9.266642024687791e+000	 2.733360000014533e+000	 9.929455081436403e+000
0	 9.266642024687791e+000	 2.800020000011599e+000	 9.932060664977540e+000
0	 9.266642024687789e+000	 2.866680000008066e+000	 9.934647929688669e+000
0	 9.266642024687792e+000	 2.933340000004134e+000	 9.937218173232457e+000
0	 9.266642024687791e+000	 3.000000000000000e+000	 9.939772693271582e+000
0	 9.266642024687792e+000	 3.066659999995866e+000	 9.942312787468707e+000
0	 9.266642024687794e+000	 3.133319999991934e+000	 9.944839753486471e+000
0	 9.266642024687794e+000	 3.199979999988401e+000	 9.947354888987597e+000
0	 9.266642024687792e+000	 3.266639999985467e+000	 9.949859491634705e+000
0	 9.266642024687794e+000	 3.333299999983335e+000	 9.952354859090473e+000
0	 9.333302777352785e+000	 2.666700000016666e+000	 9.920926581835472e+000
0	 9.333302777352783e+000	 2.733360000014533e+000	 9.923664388595784e+000
0	 9.333302777352781e+000	 2.800020000011600e+000	 9.926383940442170e+000
0	 9.333302777352783e+000	 2.866680000008067e+000	 9.929086324414726e+000
0	 9.333302777352781e+000	 2.933340000004133e+000	 9.931772627553519e+000
0	 9.333302777352785e+000	 3.000000000000000e+000	 9.934443936898619e+000
0	 9.333302777352783e+000	 3.066659999995867e+000	 9.937101339490106e+000
0	 9.333302777352781e+000	 3.133319999991933e+000	 9.939745922368044e+000
0	 9.333302777352783e+000	 3.199979999988400e+000	 9.942378772572520e+000
0	 9.333302777352783e+000	 3.266639999985467e+000	 9.945000977143614e+000
0	 9.333302777352785e+000	 3.333299999983334e+000	 9.947613623121406e+000
0	 8.666700000016668e+000	 3.333299999983334e+000	 9.997388939420166e+000
0	 8.666700000016665e+000	 3.399969999982149e+000	 9.998990219247757e+000
0	 8.666700000016665e+000	 3.466639999981867e+000	 1.000055045358140e+001
0	 8.666700000016666e+000	 3.533309999982384e+000	 1.000207060893780e+001
0	 8.666700000016666e+000	 3.599979999983600e+000	 1.000355165183369e+001
0	 8.666700000016665e+000	 3.666649999985415e+000	 1.000499454878579e+001
0	 8.666700000016666e+000	 3.733319999987733e+000	 1.000640026631081e+001
0	 8.666700000016665e+000	 3.799989999990450e+000	 1.000776977092546e+001
0	 8.666700000016668e+000	 3.866659999993467e+000	 1.000910402914646e+001
0	 8.666700000016666e+000	 3.933329999996683e+000	 1.001040400749055e+001
0	 8.666700000016668e+000	 4.000000000000000e+000	 1.001167067247440e+001
0	 8.733360002791901e+000	 3.333299999983334e+000	 9.992193784684851e+000
0	 8.733360002791899e+000	 3.399969999982150e+000	 9.993869771863691e+000
0	 8.733360002791901e+000	 3.466639999981867e+000	 9.995507162981976e+000
0	 8.733360002791901e+000	 3.533309999982384e+000	 9.997106619524560e+000
0	 8.733360002791901e+000	 3.599979999983600e+000	 9.998668802976308e+000
0	 8.733360002791905e+000	 3.666649999985417e+000	 1.000019437482205e+001
0	 8.733360002791899e+000	 3.733319999987733e+000	 1.000168399654667e+001
0	 8.733360002791901e+000	 3.799989999990450e+000	 1.000313832963499e+001
0	 8.733360002791905e+000	 3.866659999993467e+000	 1.000455803557188e+001
0	 8.733360002791903e+000	 3.933329999996684e+000	 1.000594377584219e+001
0	 8.733360002791901e+000	 4.000000000000000e+000	 1.000729621193076e+001
0	 8.800020022230555e+000	 3.333299999983333e+000	 9.987042841353208e+000
0	 8.800020022230555e+000	 3.399969999982150e+000	 9.988800060891306e+000
0	 8.800020022230555e+000	 3.466639999981866e+000	 9.990519943887781e+000
0	 8.800020022230557e+000	 3.533309999982383e+000	 9.992202901993075e+000
0	 8.800020022230557e+000	 3.599979999983600e+000	 9.993849346857603e+000
0	 8.800020022230553e+000	 3.666649999985417e+000	 9.995459690131821e+000
0	 8.800020022230553e+000	 3.733319999987733e+000	 9.997034343466162e+000
0	 8.800020022230553e+000	 3.799989999990449e+000	 9.998573718511045e+000
0	 8.800020022230552e+000	 3.866659999993466e+000	 1.000007822691692e+001
0	 8.800020022230555e+000	 3.933329999996684e+000	 1.000154828033421e+001
0	 8.800020022230553e+000	 4.000000000000000e+000	 1.000298429041336e+001
0	 8.866680074997040e+000	 3.333299999983334e+000	 9.981937665343789e+000
0	 8.866680074997044e+000	 3.399969999982150e+000	 9.983782152183194e+000
0	 8.866680074997040e+000	 3.466639999981867e+000	 9.985589534303891e+000
0	 8.866680074997039e+000	 3.533309999982382e+000	 9.987360028719460e+000
0	 8.866680074997042e+000	 3.599979999983600e+000	 9.989093852443515e+000
0	 8.866680074997044e+000	 3.666649999985417e+000	 9.990791222489625e+000
0	 8.866680074997042e+000	 3.733319999987733e+000	 9.992452355871379e+000
0	 8.866680074997044e+000	 3.799989999990451e+000	 9.994077469602361e+000
0	 8.866680074997042e+000	 3.866659999993467e+000	 9.995666780696180e+000
0	 8.866680074997039e+000	 3.933329999996683e+000	 9.997220506166405e+000
0	 8.866680074997040e+000	 4.000000000000000e+000	 9.998738863026620e+000
0	 8.933340177755778e+000	 3.333299999983335e+000	 9.976879812611625e+000
0	 8.933340177755774e+000	 3.399969999982150e+000	 9.978817111631418e+000
0	 8.933340177755778e+000	 3.466639999981867e+000	 9.980716672278099e+000
0	 8.933340177755776e+000	 3.533309999982384e+000	 9.982578572126009e+000
0	 8.933340177755774e+000	 3.599979999983600e+000	 9.984402888749504e+000
0	 8.933340177755779e+000	 3.666649999985416e+000	 9.986189699722933e+000
0	 8.933340177755778e+000	 3.733319999987733e+000	 9.987939082620679e+000
0	 8.933340177755778e+000	 3.799989999990450e+000	 9.989651115017066e+000
0	 8.933340177755774e+000	 3.866659999993466e+000	 9.991325874486462e+000
0	 8.933340177755776e+000	 3.933329999996685e+000	 9.992963438603223e+000
0	 8.933340177755772e+000	 4.000000000000000e+000	 9.994563884941696e+000
0	 9.000000347171181e+000	 3.333299999983333e+000	 9.971870839148231e+000
0	 9.000000347171179e+000	 3.399969999982150e+000	 9.973906005167574e+000
0	 9.000000347171179e+000	 3.466639999981867e+000	 9.975902095900942e+000
0	 9.000000347171179e+000	 3.533309999982383e+000	 9.977859104681043e+000
0	 9.000000347171177e+000	 3.599979999983600e+000	 9.979777024840564e+000
0	 9.000000347171177e+000	 3.666649999985416e+000	 9.981655849712194e+000
0	 9.000000347171177e+000	 3.733319999987732e+000	 9.983495572628648e+000
0	 9.000000347171177e+000	 3.799989999990450e+000	 9.985296186922614e+000
0	 9.000000347171179e+000	 3.866659999993467e+000	 9.987057685926786e+000
0	 9.000000347171177e+000	 3.933329999996683e+000	 9.988780062973850e+000
0	 9.000000347171179e+000	 4.000000000000000e+000	 9.990463311396510e+000
0	 9.066660599907666e+000	 3.333299999983334e+000	 9.966912300981649e+000
0	 9.066660599907666e+000	 3.399969999982150e+000	 9.969049898762725e+000
0	 9.066660599907666e+000	 3.466639999981866e+000	 9.971146543305698e+000
0	 9.066660599907666e+000	 3.533309999982382e+000	 9.973202198899037e+000
0	 9.066660599907667e+000	 3.599979999983600e+000	 9.975216829831247e+000
0	 9.066660599907666e+000	 3.666649999985416e+000	 9.977190400390789e+000
0	 9.066660599907664e+000	 3.733319999987733e+000	 9.979122874866173e+000
0	 9.066660599907664e+000	 3.799989999990450e+000	 9.981014217545864e+000
0	 9.066660599907667e+000	 3.866659999993467e+000	 9.982864392718367e+000
0	 9.066660599907664e+000	 3.933329999996684e+000	 9.984673364672153e+000
0	 9.066660599907666e+000	 4.000000000000001e+000	 9.986441097695725e+000
0	 9.133320952629651e+000	 3.333299999983334e+000	 9.962005754176383e+000
0	 9.133320952629649e+000	 3.399969999982149e+000	 9.964249858427484e+000
0	 9.133320952629653e+000	 3.466639999981867e+000	 9.966450752668367e+000
0	 9.133320952629653e+000	 3.533309999982383e+000	 9.968608427340580e+000
0	 9.133320952629648e+000	 3.599979999983599e+000	 9.970722872885624e+000
0	 9.133320952629651e+000	 3.666649999985416e+000	 9.972794079745027e+000
0	 9.133320952629653e+000	 3.733319999987732e+000	 9.974822038360330e+000
0	 9.133320952629651e+000	 3.799989999990450e+000	 9.976806739173016e+000
0	 9.133320952629653e+000	 3.866659999993467e+000	 9.978748172624638e+000
0	 9.133320952629651e+000	 3.933329999996683e+000	 9.980646329156713e+000
0	 9.133320952629651e+000	 3.999999999999999e+000	 9.982501199210748e+000
0	 9.199981422001555e+000	 3.333299999983333e+000	 9.957152754833485e+000
0	 9.199981422001557e+000	 3.399969999982150e+000	 9.959506950211926e+000
0	 9.199981422001555e+000	 3.466639999981866e+000	 9.961815462207710e+000
0	 9.199981422001557e+000	 3.533309999982383e+000	 9.964078362612332e+000
0	 9.199981422001553e+000	 3.599979999983600e+000	 9.966295723217327e+000
0	 9.199981422001555e+000	 3.666649999985417e+000	 9.968467615814204e+000
0	 9.199981422001555e+000	 3.733319999987733e+000	 9.970594112194474e+000
0	 9.199981422001557e+000	 3.799989999990451e+000	 9.972675284149652e+000
0	 9.199981422001555e+000	 3.866659999993466e+000	 9.974711203471241e+000
0	 9.199981422001557e+000	 3.933329999996684e+000	 9.976701941950765e+000
0	 9.199981422001557e+000	 4.000000000000000e+000	 9.978647571379739e+000
0	 9.266642024687794e+000	 3.333299999983335e+000	 9.952354859090477e+000
0	 9.266642024687792e+000	 3.399969999982150e+000	 9.954822240205676e+000
0	 9.266642024687791e+000	 3.466639999981866e+000	 9.957241410185189e+000
0	 9.266642024687789e+000	 3.533309999982383e+000	 9.959612577367107e+000
0	 9.266642024687792e+000	 3.599979999983601e+000	 9.961935950089529e+000
0	 9.266642024687792e+000	 3.666649999985417e+000	 9.964211736690551e+000
0	 9.266642024687791e+000	 3.733319999987733e+000	 9.966440145508242e+000
0	 9.266642024687791e+000	 3.799989999990450e+000	 9.968621384880716e+000
0	 9.266642024687794e+000	 3.866659999993467e+000	 9.970755663146033e+000
0	 9.266642024687791e+000	 3.933329999996684e+000	 9.972843188642294e+000
0	 9.266642024687791e+000	 4.000000000000000e+000	 9.974884169707597e+000
0	 9.333302777352785e+000	 3.333299999983334e+000	 9.947613623121409e+000
0	 9.333302777352781e+000	 3.399969999982149e+000	 9.950196794537838e+000
0	 9.333302777352785e+000	 3.466639999981867e+000	 9.952729334905033e+000
0	 9.333302777352783e+000	 3.533309999982383e+000	 9.955211644303818e+000
0	 9.333302777352785e+000	 3.599979999983600e+000	 9.957644122814950e+000
0	 9.333302777352783e+000	 3.666649999985417e+000	 9.960027170519263e+000
0	 9.333302777352783e+000	 3.733319999987733e+000	 9.962361187497509e+000
0	 9.333302777352783e+000	 3.799989999990450e+000	 9.964646573830532e+000
0	 9.333302777352783e+000	 3.866659999993466e+000	 9.966883729599083e+000
0	 9.333302777352783e+000	 3.933329999996683e+000	 9.969073054883976e+000
0	 9.333302777352785e+000	 4.000000000000000e+000	 9.971214949766011e+000
0	 8.666700000016668e+000	 4.000000000000000e+000	 1.001167067247440e+001
0	 8.666700000016666e+000	 4.066670000003317e+000	 1.001289422650162e+001
0	 8.666700000016666e+000	 4.133340000006535e+000	 1.001406393474094e+001
0	 8.666700000016668e+000	 4.200010000009551e+000	 1.001517935785690e+001
0	 8.666700000016666e+000	 4.266680000012268e+000	 1.001624005651401e+001
0	 8.666700000016666e+000	 4.333350000014585e+000	 1.001724559137678e+001
0	 8.666700000016666e+000	 4.400020000016401e+000	 1.001819552310974e+001
0	 8.666700000016666e+000	 4.466690000017618e+000	 1.001908941237738e+001
0	 8.666700000016668e+000	 4.533360000018134e+000	 1.001992681984424e+001
0	 8.666700000016666e+000	 4.600030000017851e+000	 1.002070730617481e+001
0	 8.666700000016668e+000	 4.666700000016666e+000	 1.002143043203362e+001
0	 8.733360002791901e+000	 4.000000000000000e+000	 1.000729621193077e+001
0	 8.733360002791905e+000	 4.066670000003317e+000	 1.000860439531524e+001
0	 8.733360002791903e+000	 4.133340000006535e+000	 1.000985682997872e+001
0	 8.733360002791907e+000	 4.200010000009552e+000	 1.001105335616440e+001
0	 8.733360002791901e+000	 4.266680000012268e+000	 1.001219381411543e+001
0	 8.733360002791903e+000	 4.333350000014583e+000	 1.001327804407496e+001
0	 8.733360002791901e+000	 4.400020000016400e+000	 1.001430588628611e+001
0	 8.733360002791903e+000	 4.466690000017617e+000	 1.001527718099206e+001
0	 8.733360002791899e+000	 4.533360000018133e+000	 1.001619176843595e+001
0	 8.733360002791901e+000	 4.600030000017850e+000	 1.001704948886094e+001
0	 8.733360002791901e+000	 4.666700000016666e+000	 1.001785018251016e+001
0	 8.800020022230553e+000	 4.000000000000000e+000	 1.000298429041336e+001
0	 8.800020022230557e+000	 4.066670000003318e+000	 1.000437494685708e+001
0	 8.800020022230555e+000	 4.133340000006535e+000	 1.000570871382447e+001
0	 8.800020022230555e+000	 4.200010000009550e+000	 1.000698566465059e+001
0	 8.800020022230557e+000	 4.266680000012268e+000	 1.000820587267049e+001
0	 8.800020022230550e+000	 4.333350000014582e+000	 1.000936941121921e+001
0	 8.800020022230557e+000	 4.400020000016401e+000	 1.001047635363180e+001
0	 8.800020022230557e+000	 4.466690000017618e+000	 1.001152677324328e+001
0	 8.800020022230553e+000	 4.533360000018134e+000	 1.001252074338873e+001
0	 8.800020022230555e+000	 4.600030000017849e+000	 1.001345833740317e+001
0	 8.800020022230555e+000	 4.666700000016666e+000	 1.001433962862164e+001
0	 8.866680074997040e+000	 4.000000000000000e+000	 9.998738863026620e+000
0	 8.866680074997040e+000	 4.066670000003317e+000	 1.000021080600610e+001
0	 8.866680074997040e+000	 4.133340000006534e+000	 1.000162531845180e+001
0	 8.866680074997042e+000	 4.200010000009551e+000	 1.000298266030378e+001
0	 8.866680074997044e+000	 4.266680000012267e+000	 1.000428309150211e+001
0	 8.866680074997040e+000	 4.333350000014582e+000	 1.000552687198686e+001
0	 8.866680074997044e+000	 4.400020000016403e+000	 1.000671426169811e+001
0	 8.866680074997040e+000	 4.466690000017617e+000	 1.000784552057594e+001
0	 8.866680074997040e+000	 4.533360000018134e+000	 1.000892090856041e+001
0	 8.866680074997039e+000	 4.600030000017850e+000	 1.000994068559158e+001
0	 8.866680074997040e+000	 4.666700000016667e+000	 1.001090511160955e+001
0	 8.933340177755772e+000	 4.000000000000000e+000	 9.994563884941695e+000
0	 8.933340177755776e+000	 4.066670000003318e+000	 9.996116897709559e+000
0	 8.933340177755774e+000	 4.133340000006534e+000	 9.997612376103730e+000
0	 8.933340177755776e+000	 4.200010000009550e+000	 9.999050720182391e+000
0	 8.933340177755778e+000	 4.266680000012268e+000	 1.000043233000370e+001
0	 8.933340177755778e+000	 4.333350000014584e+000	 1.000175760562589e+001
0	 8.933340177755778e+000	 4.400020000016402e+000	 1.000302694710708e+001
0	 8.933340177755778e+000	 4.466690000017618e+000	 1.000424075450549e+001
0	 8.933340177755778e+000	 4.533360000018132e+000	 1.000539942787928e+001
0	 8.933340177755774e+000	 4.600030000017851e+000	 1.000650336728666e+001
0	 8.933340177755776e+000	 4.666700000016665e+000	 1.000755297278580e+001
0	 9.000000347171179e+000	 4.000000000000000e+000	 9.990463311396510e+000
0	 9.000000347171181e+000	 4.066670000003316e+000	 9.992098146983016e+000
0	 9.000000347171177e+000	 4.133340000006533e+000	 9.993675619092695e+000
0	 9.000000347171179e+000	 4.200010000009550e+000	 9.995196221415005e+000
0	 9.000000347171179e+000	 4.266680000012268e+000	 9.996660447639291e+000
0	 9.000000347171177e+000	 4.333350000014584e+000	 9.998068791454948e+000
0	 9.000000347171177e+000	 4.400020000016402e+000	 9.999421746551406e+000
0	 9.000000347171179e+000	 4.466690000017617e+000	 1.000071980661801e+001
0	 9.000000347171177e+000	 4.533360000018133e+000	 1.000196346534416e+001
0	 9.000000347171181e+000	 4.600030000017850e+000	 1.000315321641926e+001
0	 9.000000347171181e+000	 4.666700000016666e+000	 1.000428955353269e+001
0	 9.066660599907666e+000	 4.000000000000001e+000	 9.986441097695725e+000
0	 9.066660599907666e+000	 4.066670000003317e+000	 9.988159478910278e+000
0	 9.066660599907666e+000	 4.133340000006535e+000	 9.989820779800546e+000
0	 9.066660599907667e+000	 4.200010000009551e+000	 9.991425541200318e+000
0	 9.066660599907664e+000	 4.266680000012268e+000	 9.992974303943388e+000
0	 9.066660599907666e+000	 4.333350000014584e+000	 9.994467608863545e+000
0	 9.066660599907667e+000	 4.400020000016403e+000	 9.995905996794564e+000
0	 9.066660599907669e+000	 4.466690000017618e+000	 9.997290008570241e+000
0	 9.066660599907664e+000	 4.533360000018132e+000	 9.998620185024336e+000
0	 9.066660599907666e+000	 4.600030000017850e+000	 9.999897066990654e+000
0	 9.066660599907664e+000	 4.666700000016666e+000	 1.000112119530297e+001
0	 9.133320952629651e+000	 3.999999999999999e+000	 9.982501199210748e+000
0	 9.133320952629653e+000	 4.066670000003317e+000	 9.984305818643524e+000
0	 9.133320952629656e+000	 4.133340000006536e+000	 9.986053590678498e+000
0	 9.133320952629653e+000	 4.200010000009550e+000	 9.987745056807196e+000
0	 9.133320952629653e+000	 4.266680000012268e+000	 9.989380758521120e+000
0	 9.133320952629653e+000	 4.333350000014585e+000	 9.990961237311796e+000
0	 9.133320952629653e+000	 4.400020000016401e+000	 9.992487034670766e+000
0	 9.133320952629651e+000	 4.466690000017618e+000	 9.993958692089512e+000
0	 9.133320952629653e+000	 4.533360000018133e+000	 9.995376751059585e+000
0	 9.133320952629651e+000	 4.600030000017850e+000	 9.996741753072509e+000
0	 9.133320952629655e+000	 4.666700000016668e+000	 9.998054239619764e+000
0	 9.199981422001557e+000	 4.000000000000000e+000	 9.978647571379737e+000
0	 9.199981422001555e+000	 4.066670000003317e+000	 9.980542091403240e+000
0	 9.199981422001555e+000	 4.133340000006534e+000	 9.982379784247254e+000
0	 9.199981422001555e+000	 4.200010000009550e+000	 9.984161145574591e+000
0	 9.199981422001557e+000	 4.266680000012267e+000	 9.985886671048098e+000
0	 9.199981422001553e+000	 4.333350000014583e+000	 9.987556856330587e+000
0	 9.199981422001553e+000	 4.400020000016400e+000	 9.989172197084880e+000
0	 9.199981422001553e+000	 4.466690000017617e+000	 9.990733188973820e+000
0	 9.199981422001555e+000	 4.533360000018133e+000	 9.992240327660211e+000
0	 9.199981422001555e+000	 4.600030000017850e+000	 9.993694108806874e+000
0	 9.199981422001555e+000	 4.666700000016666e+000	 9.995095028076641e+000
0	 9.266642024687791e+000	 4.000000000000000e+000	 9.974884169707597e+000
0	 9.266642024687791e+000	 4.066670000003318e+000	 9.976873222478165e+000
0	 9.266642024687791e+000	 4.133340000006534e+000	 9.978805093096851e+000
0	 9.266642024687794e+000	 4.200010000009551e+000	 9.980680184911652e+000
0	 9.266642024687791e+000	 4.266680000012268e+000	 9.982498901270525e+000
0	 9.266642024687792e+000	 4.333350000014584e+000	 9.984261645521524e+000
0	 9.266642024687792e+000	 4.400020000016402e+000	 9.985968821012591e+000
0	 9.266642024687794e+000	 4.466690000017618e+000	 9.987620831091739e+000
0	 9.266642024687791e+000	 4.533360000018134e+000	 9.989218079106964e+000
0	 9.266642024687794e+000	 4.600030000017851e+000	 9.990760968406239e+000
0	 9.266642024687791e+000	 4.666700000016667e+000	 9.992249902337568e+000
0	 9.333302777352785e+000	 4.000000000000000e+000	 9.971214949766011e+000
0	 9.333302777352783e+000	 4.066670000003317e+000	 9.973304137225407e+000
0	 9.333302777352783e+000	 4.133340000006534e+000	 9.975335249886809e+000
0	 9.333302777352783e+000	 4.200010000009550e+000	 9.977308552297608e+000
0	 9.333302777352779e+000	 4.266680000012268e+000	 9.979224309005186e+000
0	 9.333302777352783e+000	 4.333350000014584e+000	 9.981082784556937e+000
0	 9.333302777352783e+000	 4.400020000016402e+000	 9.982884243500253e+000
0	 9.333302777352783e+000	 4.466690000017617e+000	 9.984628950382522e+000
0	 9.333302777352785e+000	 4.533360000018134e+000	 9.986317169751130e+000
0	 9.333302777352783e+000	 4.600030000017850e+000	 9.987949166153483e+000
0	 9.333302777352785e+000	 4.666700000016667e+000	 9.989525204136934e+000
0	 8.666700000016668e+000	 4.666700000016666e+000	 1.002143043203362e+001
0	 8.666700000016666e+000	 4.733360000014534e+000	 1.002210248315848e+001
0	 8.666700000016668e+000	 4.800020000011600e+000	 1.002273010746987e+001
0	 8.666700000016665e+000	 4.866680000008067e+000	 1.002331309648724e+001
0	 8.666700000016666e+000	 4.933340000004133e+000	 1.002385124173009e+001
0	 8.666700000016666e+000	 5.000000000000000e+000	 1.002434433471786e+001
0	 8.666700000016666e+000	 5.066659999995867e+000	 1.002479216697004e+001
0	 8.666700000016666e+000	 5.133319999991934e+000	 1.002519453000610e+001
0	 8.666700000016666e+000	 5.199979999988400e+000	 1.002555121534552e+001
0	 8.666700000016666e+000	 5.266639999985468e+000	 1.002586201450776e+001
0	 8.666700000016668e+000	 5.333299999983335e+000	 1.002612671901231e+001
0	 8.733360002791901e+000	 4.666700000016666e+000	 1.001785018251016e+001
0	 8.733360002791903e+000	 4.733360000014534e+000	 1.001860022677055e+001
0	 8.733360002791905e+000	 4.800020000011601e+000	 1.001930609413881e+001
0	 8.733360002791903e+000	 4.866680000008066e+000	 1.001996742008298e+001
0	 8.733360002791901e+000	 4.933340000004134e+000	 1.002058384007111e+001
0	 8.733360002791905e+000	 5.000000000000000e+000	 1.002115498957125e+001
0	 8.733360002791901e+000	 5.066659999995867e+000	 1.002168050405144e+001
0	 8.733360002791903e+000	 5.133319999991935e+000	 1.002216001897973e+001
0	 8.733360002791903e+000	 5.199979999988400e+000	 1.002259316982418e+001
0	 8.733360002791903e+000	 5.266639999985468e+000	 1.002297959205283e+001
0	 8.733360002791903e+000	 5.333299999983334e+000	 1.002331892113373e+001
0	 8.800020022230555e+000	 4.666700000016666e+000	 1.001433962862164e+001
0	 8.800020022230553e+000	 4.733360000014534e+000	 1.001517047633715e+001
0	 8.800020022230553e+000	 4.800020000011600e+000	 1.001595662261189e+001
0	 8.800020022230553e+000	 4.866680000008068e+000	 1.001669758103001e+001
0	 8.800020022230557e+000	 4.933340000004133e+000	 1.001739286517562e+001
0	 8.800020022230559e+000	 5.000000000000000e+000	 1.001804198863290e+001
0	 8.800020022230557e+000	 5.066659999995866e+000	 1.001864446498592e+001
0	 8.800020022230553e+000	 5.133319999991935e+000	 1.001919980781886e+001
0	 8.800020022230555e+000	 5.199979999988400e+000	 1.001970753071584e+001
0	 8.800020022230553e+000	 5.266639999985467e+000	 1.002016714726099e+001
0	 8.800020022230555e+000	 5.333299999983335e+000	 1.002057817103846e+001
0	 8.866680074997040e+000	 4.666700000016667e+000	 1.001090511160956e+001
0	 8.866680074997039e+000	 4.733360000014534e+000	 1.001181904954818e+001
0	 8.866680074997042e+000	 4.800020000011601e+000	 1.001268708733026e+001
0	 8.866680074997039e+000	 4.866680000008067e+000	 1.001350865082360e+001
0	 8.866680074997044e+000	 4.933340000004133e+000	 1.001428316589594e+001
0	 8.866680074997039e+000	 5.000000000000000e+000	 1.001501005841509e+001
0	 8.866680074997042e+000	 5.066659999995866e+000	 1.001568875424882e+001
0	 8.866680074997039e+000	 5.133319999991935e+000	 1.001631867926493e+001
0	 8.866680074997039e+000	 5.199979999988399e+000	 1.001689925933119e+001
0	 8.866680074997042e+000	 5.266639999985469e+000	 1.001742992031540e+001
0	 8.866680074997040e+000	 5.333299999983334e+000	 1.001791008808532e+001
0	 8.933340177755776e+000	 4.666700000016665e+000	 1.000755297278580e+001
0	 8.933340177755778e+000	 4.733360000014533e+000	 1.000855176416414e+001
0	 8.933340177755776e+000	 4.800020000011599e+000	 1.000950288280595e+001
0	 8.933340177755778e+000	 4.866680000008067e+000	 1.001040570103023e+001
0	 8.933340177755776e+000	 4.933340000004134e+000	 1.001125959115596e+001
0	 8.933340177755776e+000	 5.000000000000001e+000	 1.001206392550213e+001
0	 8.933340177755778e+000	 5.066659999995866e+000	 1.001281807638776e+001
0	 8.933340177755778e+000	 5.133319999991936e+000	 1.001352141613184e+001
0	 8.933340177755779e+000	 5.199979999988400e+000	 1.001417331705336e+001
0	 8.933340177755778e+000	 5.266639999985468e+000	 1.001477315147135e+001
0	 8.933340177755776e+000	 5.333299999983334e+000	 1.001532029170478e+001
0	 9.000000347171181e+000	 4.666700000016666e+000	 1.000428955353270e+001
0	 9.000000347171181e+000	 4.733360000014534e+000	 1.000537443801611e+001
0	 9.000000347171179e+000	 4.800020000011601e+000	 1.000640940362187e+001
0	 9.000000347171181e+000	 4.866680000008067e+000	 1.000739380328767e+001
0	 9.000000347171179e+000	 4.933340000004135e+000	 1.000832698995125e+001
0	 9.000000347171175e+000	 5.000000000000000e+000	 1.000920831655034e+001
0	 9.000000347171179e+000	 5.066659999995867e+000	 1.001003713602266e+001
0	 9.000000347171181e+000	 5.133319999991935e+000	 1.001081280130594e+001
0	 9.000000347171179e+000	 5.199979999988401e+000	 1.001153466533792e+001
0	 9.000000347171183e+000	 5.266639999985468e+000	 1.001220208105634e+001
0	 9.000000347171179e+000	 5.333299999983334e+000	 1.001281440139891e+001
0	 9.066660599907664e+000	 4.666700000016666e+000	 1.000112119530297e+001
0	 9.066660599907667e+000	 4.733360000014533e+000	 1.000229288900575e+001
0	 9.066660599907667e+000	 4.800020000011600e+000	 1.000341204443180e+001
0	 9.066660599907666e+000	 4.866680000008067e+000	 1.000447802930493e+001
0	 9.066660599907666e+000	 4.933340000004132e+000	 1.000549021134905e+001
0	 9.066660599907669e+000	 5.000000000000001e+000	 1.000644795828803e+001
0	 9.066660599907664e+000	 5.066659999995865e+000	 1.000735063784574e+001
0	 9.066660599907666e+000	 5.133319999991935e+000	 1.000819761774605e+001
0	 9.066660599907667e+000	 5.199979999988401e+000	 1.000898826571287e+001
0	 9.066660599907664e+000	 5.266639999985467e+000	 1.000972194947003e+001
0	 9.066660599907666e+000	 5.333299999983335e+000	 1.001039803674145e+001
0	 9.133320952629655e+000	 4.666700000016668e+000	 9.998054239619766e+000
0	 9.133320952629653e+000	 4.733360000014533e+000	 9.999312935105303e+000
0	 9.133320952629649e+000	 4.800020000011599e+000	 1.000051619996036e+001
0	 9.133320952629651e+000	 4.866680000008066e+000	 1.000166345086224e+001
0	 9.133320952629653e+000	 4.933340000004134e+000	 1.000275410448820e+001
0	 9.133320952629651e+000	 4.999999999999999e+000	 1.000378757751553e+001
0	 9.133320952629651e+000	 5.066659999995867e+000	 1.000476328662152e+001
0	 9.133320952629653e+000	 5.133319999991934e+000	 1.000568064848345e+001
0	 9.133320952629653e+000	 5.199979999988401e+000	 1.000653907977861e+001
0	 9.133320952629651e+000	 5.266639999985467e+000	 1.000733799718429e+001
0	 9.133320952629653e+000	 5.333299999983335e+000	 1.000807681737777e+001
0	 9.199981422001555e+000	 4.666700000016666e+000	 9.995095028076644e+000
0	 9.199981422001557e+000	 4.733360000014533e+000	 9.996440394357579e+000
0	 9.199981422001553e+000	 4.800020000011599e+000	 9.997727265003158e+000
0	 9.199981422001557e+000	 4.866680000008066e+000	 9.998955139811114e+000
0	 9.199981422001553e+000	 4.933340000004133e+000	 1.000012351857922e+001
0	 9.199981422001555e+000	 4.999999999999999e+000	 1.000123190110521e+001
0	 9.199981422001558e+000	 5.066659999995867e+000	 1.000227978718683e+001
0	 9.199981422001557e+000	 5.133319999991934e+000	 1.000326667662185e+001
0	 9.199981422001555e+000	 5.199979999988400e+000	 1.000419206920803e+001
0	 9.199981422001555e+000	 5.266639999985469e+000	 1.000505546474310e+001
0	 9.199981422001555e+000	 5.333299999983333e+000	 1.000585636302485e+001
0	 9.266642024687791e+000	 4.666700000016667e+000	 9.992249902337569e+000
0	 9.266642024687792e+000	 4.733360000014534e+000	 9.993681084876002e+000
0	 9.266642024687791e+000	 4.800020000011601e+000	 9.995050634426598e+000
0	 9.266642024687791e+000	 4.866680000008067e+000	 9.996358168074332e+000
0	 9.266642024687792e+000	 4.933340000004133e+000	 9.997603302904269e+000
0	 9.266642024687791e+000	 4.999999999999999e+000	 9.998785656001415e+000
0	 9.266642024687792e+000	 5.066659999995867e+000	 9.999904844450798e+000
0	 9.266642024687791e+000	 5.133319999991934e+000	 1.000096048533745e+001
0	 9.266642024687792e+000	 5.199979999988401e+000	 1.000195219574642e+001
0	 9.266642024687792e+000	 5.266639999985468e+000	 1.000287959276270e+001
0	 9.266642024687792e+000	 5.333299999983334e+000	 1.000374229347135e+001
0	 9.333302777352785e+000	 4.666700000016667e+000	 9.989525204136934e+000
0	 9.333302777352783e+000	 4.733360000014533e+000	 9.991040824844587e+000
0	 9.333302777352783e+000	 4.800020000011600e+000	 9.992491703167962e+000
0	 9.333302777352781e+000	 4.866680000008067e+000	 9.993877607645901e+000
0	 9.333302777352781e+000	 4.933340000004134e+000	 9.995198306817157e+000
0	 9.333302777352783e+000	 5.000000000000000e+000	 9.996453569220536e+000
0	 9.333302777352785e+000	 5.066659999995867e+000	 9.997643163394860e+000
0	 9.333302777352783e+000	 5.133319999991935e+000	 9.998766857878918e+000
0	 9.333302777352783e+000	 5.199979999988400e+000	 9.999824421211503e+000
0	 9.333302777352781e+000	 5.266639999985467e+000	 1.000081562193144e+001
0	 9.333302777352785e+000	 5.333299999983335e+000	 1.000174022857752e+001
0	 8.666700000016668e+000	 5.333299999983335e+000	 1.002612671901231e+001
0	 8.666700000016668e+000	 5.399969999982151e+000	 1.002634851439554e+001
0	 8.666700000016668e+000	 5.466639999981867e+000	 1.002653009184168e+001
0	 8.666700000016668e+000	 5.533309999982384e+000	 1.002667061006722e+001
0	 8.666700000016668e+000	 5.599979999983600e+000	 1.002676922778872e+001
0	 8.666700000016665e+000	 5.666649999985414e+000	 1.002682510372268e+001
0	 8.666700000016666e+000	 5.733319999987733e+000	 1.002683739658564e+001
0	 8.666700000016666e+000	 5.799989999990448e+000	 1.002680526509413e+001
0	 8.666700000016665e+000	 5.866659999993467e+000	 1.002672786796468e+001
0	 8.666700000016665e+000	 5.933329999996682e+000	 1.002660436391380e+001
0	 8.666700000016666e+000	 6.000000000000001e+000	 1.002643391165802e+001
0	 8.733360002791903e+000	 5.333299999983334e+000	 1.002331892113373e+001
0	 8.733360002791901e+000	 5.399969999982150e+000	 1.002361371372824e+001
0	 8.733360002791901e+000	 5.466639999981867e+000	 1.002386623675547e+001
0	 8.733360002791898e+000	 5.533309999982383e+000	 1.002407583313173e+001
0	 8.733360002791901e+000	 5.599979999983601e+000	 1.002424184577336e+001
0	 8.733360002791905e+000	 5.666649999985417e+000	 1.002436361759670e+001
0	 8.733360002791901e+000	 5.733319999987733e+000	 1.002444049151805e+001
0	 8.733360002791903e+000	 5.799989999990450e+000	 1.002447181045378e+001
0	 8.733360002791903e+000	 5.866659999993467e+000	 1.002445691732018e+001
0	 8.733360002791903e+000	 5.933329999996683e+000	 1.002439515503361e+001
0	 8.733360002791903e+000	 6.000000000000001e+000	 1.002428586651037e+001
0	 8.800020022230555e+000	 5.333299999983335e+000	 1.002057817103846e+001
0	 8.800020022230553e+000	 5.399969999982150e+000	 1.002094301754947e+001
0	 8.800020022230555e+000	 5.466639999981866e+000	 1.002126397541876e+001
0	 8.800020022230555e+000	 5.533309999982383e+000	 1.002154054188757e+001
0	 8.800020022230557e+000	 5.599979999983599e+000	 1.002177221419707e+001
0	 8.800020022230553e+000	 5.666649999985416e+000	 1.002195848958851e+001
0	 8.800020022230555e+000	 5.733319999987733e+000	 1.002209886530306e+001
0	 8.800020022230555e+000	 5.799989999990449e+000	 1.002219283858196e+001
0	 8.800020022230557e+000	 5.866659999993468e+000	 1.002223990666639e+001
0	 8.800020022230553e+000	 5.933329999996682e+000	 1.002223956679757e+001
0	 8.800020022230555e+000	 6.000000000000001e+000	 1.002219131621672e+001
0	 8.866680074997040e+000	 5.333299999983334e+000	 1.001791008808532e+001
0	 8.866680074997042e+000	 5.399969999982152e+000	 1.001834242922041e+001
0	 8.866680074997039e+000	 5.466639999981867e+000	 1.001872960441635e+001
0	 8.866680074997040e+000	 5.533309999982382e+000	 1.001907123536424e+001
0	 8.866680074997042e+000	 5.599979999983600e+000	 1.001936694375513e+001
0	 8.866680074997042e+000	 5.666649999985416e+000	 1.001961635128015e+001
0	 8.866680074997044e+000	 5.733319999987733e+000	 1.001981907963033e+001
0	 8.866680074997042e+000	 5.799989999990451e+000	 1.001997475049681e+001
0	 8.866680074997042e+000	 5.866659999993469e+000	 1.002008298557064e+001
0	 8.866680074997040e+000	 5.933329999996684e+000	 1.002014340654289e+001
0	 8.866680074997040e+000	 6.000000000000000e+000	 1.002015563510465e+001
0	 8.933340177755776e+000	 5.333299999983334e+000	 1.001532029170477e+001
0	 8.933340177755772e+000	 5.399969999982149e+000	 1.001581795217303e+001
0	 8.933340177755778e+000	 5.466639999981867e+000	 1.001626942040262e+001
0	 8.933340177755776e+000	 5.533309999982383e+000	 1.001667441265947e+001
0	 8.933340177755778e+000	 5.599979999983600e+000	 1.001703264520947e+001
0	 8.933340177755778e+000	 5.666649999985417e+000	 1.001734383431855e+001
0	 8.933340177755774e+000	 5.733319999987733e+000	 1.001760769625262e+001
0	 8.933340177755778e+000	 5.799989999990450e+000	 1.001782394727760e+001
0	 8.933340177755774e+000	 5.866659999993467e+000	 1.001799230365939e+001
0	 8.933340177755778e+000	 5.933329999996684e+000	 1.001811248166391e+001
0	 8.933340177755772e+000	 6.000000000000000e+000	 1.001818419755708e+001
0	 9.000000347171179e+000	 5.333299999983334e+000	 1.001281440139891e+001
0	 9.000000347171179e+000	 5.399969999982150e+000	 1.001337558991008e+001
0	 9.000000347171177e+000	 5.466639999981867e+000	 1.001388972010161e+001
0	 9.000000347171179e+000	 5.533309999982383e+000	 1.001435657293921e+001
0	 9.000000347171177e+000	 5.599979999983599e+000	 1.001477592938860e+001
0	 9.000000347171175e+000	 5.666649999985416e+000	 1.001514757041550e+001
0	 9.000000347171181e+000	 5.733319999987733e+000	 1.001547127698560e+001
0	 9.000000347171177e+000	 5.799989999990448e+000	 1.001574683006461e+001
0	 9.000000347171179e+000	 5.866659999993467e+000	 1.001597401061825e+001
0	 9.000000347171179e+000	 5.933329999996683e+000	 1.001615259961223e+001
0	 9.000000347171179e+000	 6.000000000000002e+000	 1.001628237801225e+001
0	 9.066660599907666e+000	 5.333299999983335e+000	 1.001039803674145e+001
0	 9.066660599907666e+000	 5.399969999982150e+000	 1.001102134600505e+001
0	 9.066660599907669e+000	 5.466639999981866e+000	 1.001159680030694e+001
0	 9.066660599907667e+000	 5.533309999982383e+000	 1.001212421543765e+001
0	 9.066660599907667e+000	 5.599979999983600e+000	 1.001260340718771e+001
0	 9.066660599907667e+000	 5.666649999985417e+000	 1.001303419134767e+001
0	 9.066660599907666e+000	 5.733319999987734e+000	 1.001341638370799e+001
0	 9.066660599907667e+000	 5.799989999990450e+000	 1.001374980005924e+001
0	 9.066660599907666e+000	 5.866659999993467e+000	 1.001403425619194e+001
0	 9.066660599907664e+000	 5.933329999996684e+000	 1.001426956789660e+001
0	 9.066660599907664e+000	 5.999999999999998e+000	 1.001445555096373e+001
0	 9.133320952629653e+000	 5.333299999983335e+000	 1.000807681737777e+001
0	 9.133320952629651e+000	 5.399969999982150e+000	 1.000876122410223e+001
0	 9.133320952629651e+000	 5.466639999981865e+000	 1.000939695788190e+001
0	 9.133320952629653e+000	 5.533309999982384e+000	 1.000998383945720e+001
0	 9.133320952629649e+000	 5.599979999983599e+000	 1.001052168956862e+001
0	 9.133320952629653e+000	 5.666649999985417e+000	 1.001101032895658e+001
0	 9.133320952629653e+000	 5.733319999987733e+000	 1.001144957836155e+001
0	 9.133320952629651e+000	 5.799989999990450e+000	 1.001183925852398e+001
0	 9.133320952629653e+000	 5.866659999993467e+000	 1.001217919018430e+001
0	 9.133320952629651e+000	 5.933329999996684e+000	 1.001246919408296e+001
0	 9.133320952629653e+000	 5.999999999999999e+000	 1.001270909096044e+001
0	 9.199981422001555e+000	 5.333299999983333e+000	 1.000585636302485e+001
0	 9.199981422001557e+000	 5.399969999982150e+000	 1.000660122791670e+001
0	 9.199981422001555e+000	 5.466639999981865e+000	 1.000729648975937e+001
0	 9.199981422001553e+000	 5.533309999982383e+000	 1.000794194436850e+001
0	 9.199981422001553e+000	 5.599979999983601e+000	 1.000853738755972e+001
0	 9.199981422001555e+000	 5.666649999985418e+000	 1.000908261514869e+001
0	 9.199981422001557e+000	 5.733319999987733e+000	 1.000957742295101e+001
0	 9.199981422001555e+000	 5.799989999990449e+000	 1.001002160678232e+001
0	 9.199981422001553e+000	 5.866659999993467e+000	 1.001041496245828e+001
0	 9.199981422001557e+000	 5.933329999996684e+000	 1.001075728579450e+001
0	 9.199981422001555e+000	 6.000000000000000e+000	 1.001104837260662e+001
0	 9.266642024687792e+000	 5.333299999983334e+000	 1.000374229347135e+001
0	 9.266642024687794e+000	 5.399969999982150e+000	 1.000454736123430e+001
0	 9.266642024687791e+000	 5.466639999981865e+000	 1.000530169294189e+001
0	 9.266642024687789e+000	 5.533309999982384e+000	 1.000600502961040e+001
0	 9.266642024687789e+000	 5.599979999983599e+000	 1.000665711225611e+001
0	 9.266642024687791e+000	 5.666649999985417e+000	 1.000725768189526e+001
0	 9.266642024687792e+000	 5.733319999987733e+000	 1.000780647954412e+001
0	 9.266642024687791e+000	 5.799989999990449e+000	 1.000830324621894e+001
0	 9.266642024687794e+000	 5.866659999993468e+000	 1.000874772293600e+001
0	 9.266642024687791e+000	 5.933329999996684e+000	 1.000913965071154e+001
0	 9.266642024687791e+000	 6.000000000000000e+000	 1.000947877056184e+001
0	 9.333302777352785e+000	 5.333299999983335e+000	 1.000174022857752e+001
0	 9.333302777352783e+000	 5.399969999982150e+000	 1.000260562791162e+001
0	 9.333302777352785e+000	 5.466639999981866e+000	 1.000341886450160e+001
0	 9.333302777352781e+000	 5.533309999982382e+000	 1.000417959469003e+001
0	 9.333302777352783e+000	 5.599979999983600e+000	 1.000488747481948e+001
0	 9.333302777352781e+000	 5.666649999985415e+000	 1.000554216123251e+001
0	 9.333302777352783e+000	 5.733319999987732e+000	 1.000614331027167e+001
0	 9.333302777352783e+000	 5.799989999990450e+000	 1.000669057827955e+001
0	 9.333302777352781e+000	 5.866659999993467e+000	 1.000718362159868e+001
0	 9.333302777352783e+000	 5.933329999996682e+000	 1.000762209657165e+001
0	 9.333302777352785e+000	 6.000000000000001e+000	 1.000800565954101e+001
0	 8.666700000016666e+000	 6.000000000000001e+000	 1.002643391165802e+001
0	 8.666700000016666e+000	 6.066670000003318e+000	 1.002622777622673e+001
0	 8.666700000016666e+000	 6.133340000006533e+000	 1.002599733889240e+001
0	 8.666700000016666e+000	 6.200010000009550e+000	 1.002574193273621e+001
0	 8.666700000016666e+000	 6.266680000012268e+000	 1.002546089083930e+001
0	 8.666700000016666e+000	 6.333350000014585e+000	 1.002515354628283e+001
0	 8.666700000016668e+000	 6.400020000016401e+000	 1.002481923214796e+001
0	 8.666700000016668e+000	 6.466690000017617e+000	 1.002445728151586e+001
0	 8.666700000016668e+000	 6.533360000018135e+000	 1.002406702746767e+001
0	 8.666700000016666e+000	 6.600030000017850e+000	 1.002364780308457e+001
0	 8.666700000016666e+000	 6.666700000016665e+000	 1.002319894144769e+001
0	 8.733360002791903e+000	 6.000000000000001e+000	 1.002428586651037e+001
0	 8.733360002791901e+000	 6.066670000003316e+000	 1.002414037085281e+001
0	 8.733360002791903e+000	 6.133340000006531e+000	 1.002396994160728e+001
0	 8.733360002791905e+000	 6.200010000009552e+000	 1.002377385335617e+001
0	 8.733360002791899e+000	 6.266680000012267e+000	 1.002355138068184e+001
0	 8.733360002791903e+000	 6.333350000014586e+000	 1.002330179816669e+001
0	 8.733360002791901e+000	 6.400020000016400e+000	 1.002302438039312e+001
0	 8.733360002791901e+000	 6.466690000017617e+000	 1.002271840194345e+001
0	 8.733360002791899e+000	 6.533360000018134e+000	 1.002238313740009e+001
0	 8.733360002791899e+000	 6.600030000017851e+000	 1.002201786134543e+001
0	 8.733360002791901e+000	 6.666700000016667e+000	 1.002162184836182e+001
0	 8.800020022230555e+000	 6.000000000000001e+000	 1.002219131621672e+001
0	 8.800020022230555e+000	 6.066670000003318e+000	 1.002210625225329e+001
0	 8.800020022230555e+000	 6.133340000006534e+000	 1.002199529532858e+001
0	 8.800020022230553e+000	 6.200010000009550e+000	 1.002185767732157e+001
0	 8.800020022230555e+000	 6.266680000012268e+000	 1.002169263011122e+001
0	 8.800020022230553e+000	 6.333350000014582e+000	 1.002149938557648e+001
0	 8.800020022230555e+000	 6.400020000016401e+000	 1.002127717559630e+001
0	 8.800020022230553e+000	 6.466690000017617e+000	 1.002102523204964e+001
0	 8.800020022230553e+000	 6.533360000018133e+000	 1.002074278681546e+001
0	 8.800020022230557e+000	 6.600030000017851e+000	 1.002042907177273e+001
0	 8.800020022230555e+000	 6.666700000016666e+000	 1.002008331880041e+001
0	 8.866680074997040e+000	 6.000000000000000e+000	 1.002015563510465e+001
0	 8.866680074997040e+000	 6.066670000003319e+000	 1.002013033972273e+001
0	 8.866680074997040e+000	 6.133340000006534e+000	 1.002007791105048e+001
0	 8.866680074997042e+000	 6.200010000009552e+000	 1.001999755405879e+001
0	 8.866680074997046e+000	 6.266680000012268e+000	 1.001988847371861e+001
0	 8.866680074997040e+000	 6.333350000014583e+000	 1.001974987500085e+001
0	 8.866680074997042e+000	 6.400020000016400e+000	 1.001958096287642e+001
0	 8.866680074997040e+000	 6.466690000017616e+000	 1.001938094231620e+001
0	 8.866680074997039e+000	 6.533360000018133e+000	 1.001914901829115e+001
0	 8.866680074997042e+000	 6.600030000017850e+000	 1.001888439577216e+001
0	 8.866680074997042e+000	 6.666700000016669e+000	 1.001858627973014e+001
0	 8.933340177755772e+000	 6.000000000000000e+000	 1.001818419755708e+001
0	 8.933340177755776e+000	 6.066670000003318e+000	 1.001821755260923e+001
0	 8.933340177755774e+000	 6.133340000006532e+000	 1.001822229981893e+001
0	 8.933340177755776e+000	 6.200010000009550e+000	 1.001819763304442e+001
0	 8.933340177755774e+000	 6.266680000012266e+000	 1.001814274614394e+001
0	 8.933340177755778e+000	 6.333350000014584e+000	 1.001805683297571e+001
0	 8.933340177755774e+000	 6.400020000016401e+000	 1.001793908739797e+001
0	 8.933340177755779e+000	 6.466690000017618e+000	 1.001778870326895e+001
0	 8.933340177755774e+000	 6.533360000018132e+000	 1.001760487444689e+001
0	 8.933340177755776e+000	 6.600030000017850e+000	 1.001738679479002e+001
0	 8.933340177755774e+000	 6.666700000016665e+000	 1.001713365815657e+001
0	 9.000000347171179e+000	 6.000000000000002e+000	 1.001628237801225e+001
0	 9.000000347171181e+000	 6.066670000003318e+000	 1.001637281031448e+001
0	 9.000000347171177e+000	 6.133340000006533e+000	 1.001643297273189e+001
0	 9.000000347171174e+000	 6.200010000009550e+000	 1.001646206380539e+001
0	 9.000000347171179e+000	 6.266680000012268e+000	 1.001645928207582e+001
0	 9.000000347171175e+000	 6.333350000014583e+000	 1.001642382608410e+001
0	 9.000000347171177e+000	 6.400020000016401e+000	 1.001635489437111e+001
0	 9.000000347171179e+000	 6.466690000017616e+000	 1.001625168547774e+001
0	 9.000000347171179e+000	 6.533360000018135e+000	 1.001611339794487e+001
0	 9.000000347171179e+000	 6.600030000017849e+000	 1.001593923031340e+001
0	 9.000000347171181e+000	 6.666700000016665e+000	 1.001572838112419e+001
0	 9.066660599907664e+000	 5.999999999999998e+000	 1.001445555096373e+001
0	 9.066660599907664e+000	 6.066670000003315e+000	 1.001460103229374e+001
0	 9.066660599907666e+000	 6.133340000006532e+000	 1.001471444093918e+001
0	 9.066660599907667e+000	 6.200010000009553e+000	 1.001479499591886e+001
0	 9.066660599907666e+000	 6.266680000012268e+000	 1.001484191625162e+001
0	 9.066660599907664e+000	 6.333350000014582e+000	 1.001485442095627e+001
0	 9.066660599907666e+000	 6.400020000016402e+000	 1.001483172905162e+001
0	 9.066660599907666e+000	 6.466690000017617e+000	 1.001477305955648e+001
0	 9.066660599907666e+000	 6.533360000018134e+000	 1.001467763148967e+001
0	 9.066660599907666e+000	 6.600030000017851e+000	 1.001454466387001e+001
0	 9.066660599907664e+000	 6.666700000016666e+000	 1.001437337571630e+001
0	 9.133320952629653e+000	 5.999999999999999e+000	 1.001270909096044e+001
0	 9.133320952629651e+000	 6.066670000003315e+000	 1.001290713805581e+001
0	 9.133320952629651e+000	 6.133340000006532e+000	 1.001307121564246e+001
0	 9.133320952629651e+000	 6.200010000009550e+000	 1.001320057901236e+001
0	 9.133320952629655e+000	 6.266680000012268e+000	 1.001329448345744e+001
0	 9.133320952629651e+000	 6.333350000014585e+000	 1.001335218426963e+001
0	 9.133320952629649e+000	 6.400020000016400e+000	 1.001337293674088e+001
0	 9.133320952629655e+000	 6.466690000017618e+000	 1.001335599616312e+001
0	 9.133320952629653e+000	 6.533360000018135e+000	 1.001330061782828e+001
0	 9.133320952629649e+000	 6.600030000017851e+000	 1.001320605702831e+001
0	 9.133320952629653e+000	 6.666700000016665e+000	 1.001307156905515e+001
0	 9.199981422001555e+000	 6.000000000000000e+000	 1.001104837260662e+001
0	 9.199981422001555e+000	 6.066670000003318e+000	 1.001129604716308e+001
0	 9.199981422001551e+000	 6.133340000006533e+000	 1.001150780809538e+001
0	 9.199981422001557e+000	 6.200010000009553e+000	 1.001168296276366e+001
0	 9.199981422001557e+000	 6.266680000012268e+000	 1.001182081852808e+001
0	 9.199981422001555e+000	 6.333350000014585e+000	 1.001192068274877e+001
0	 9.199981422001558e+000	 6.400020000016402e+000	 1.001198186278590e+001
0	 9.199981422001555e+000	 6.466690000017617e+000	 1.001200366599963e+001
0	 9.199981422001555e+000	 6.533360000018134e+000	 1.001198539975008e+001
0	 9.199981422001555e+000	 6.600030000017848e+000	 1.001192637139744e+001
0	 9.199981422001555e+000	 6.666700000016665e+000	 1.001182588830181e+001
0	 9.266642024687791e+000	 6.000000000000000e+000	 1.000947877056184e+001
0	 9.266642024687792e+000	 6.066670000003316e+000	 1.000977267923155e+001
0	 9.266642024687792e+000	 6.133340000006531e+000	 1.001002872960346e+001
0	 9.266642024687791e+000	 6.200010000009550e+000	 1.001024629690085e+001
0	 9.266642024687789e+000	 6.266680000012267e+000	 1.001042475634708e+001
0	 9.266642024687792e+000	 6.333350000014586e+000	 1.001056348316547e+001
0	 9.266642024687791e+000	 6.400020000016402e+000	 1.001066185257935e+001
0	 9.266642024687791e+000	 6.466690000017617e+000	 1.001071923981205e+001
0	 9.266642024687791e+000	 6.533360000018133e+000	 1.001073502008689e+001
0	 9.266642024687796e+000	 6.600030000017851e+000	 1.001070856862719e+001
0	 9.266642024687791e+000	 6.666700000016667e+000	 1.001063926065629e+001
0	 9.333302777352785e+000	 6.000000000000001e+000	 1.000800565954101e+001
0	 9.333302777352781e+000	 6.066670000003315e+000	 1.000834195393074e+001
0	 9.333302777352783e+000	 6.133340000006534e+000	 1.000863849152407e+001
0	 9.333302777352783e+000	 6.200010000009552e+000	 1.000889473120230e+001
0	 9.333302777352781e+000	 6.266680000012266e+000	 1.000911013184672e+001
0	 9.333302777352783e+000	 6.333350000014586e+000	 1.000928415233869e+001
0	 9.333302777352783e+000	 6.400020000016400e+000	 1.000941625155948e+001
0	 9.333302777352783e+000	 6.466690000017617e+000	 1.000950588839045e+001
0	 9.333302777352785e+000	 6.533360000018136e+000	 1.000955252171289e+001
0	 9.333302777352783e+000	 6.600030000017850e+000	 1.000955561040811e+001
0	 9.333302777352783e+000	 6.666700000016666e+000	 1.000951461335744e+001
0	 8.666700000016666e+000	 6.666700000016665e+000	 1.002319894144769e+001
0	 8.666700000016666e+000	 6.733360000014533e+000	 1.002272903231372e+001
0	 8.666700000016668e+000	 6.800020000011599e+000	 1.002224638967063e+001
0	 8.666700000016668e+000	 6.866680000008068e+000	 1.002175014169220e+001
0	 8.666700000016666e+000	 6.933340000004133e+000	 1.002123941655224e+001
0	 8.666700000016666e+000	 7.000000000000001e+000	 1.002071334242452e+001
0	 8.666700000016665e+000	 7.066659999995867e+000	 1.002017104748284e+001
0	 8.666700000016665e+000	 7.133319999991934e+000	 1.001961165990100e+001
0	 8.666700000016668e+000	 7.199979999988400e+000	 1.001903430785279e+001
0	 8.666700000016666e+000	 7.266639999985467e+000	 1.001843811951202e+001
0	 8.666700000016665e+000	 7.333299999983335e+000	 1.001782222305246e+001
0	 8.733360002791901e+000	 6.666700000016667e+000	 1.002162184836183e+001
0	 8.733360002791903e+000	 6.733360000014534e+000	 1.002120354661427e+001
0	 8.733360002791905e+000	 6.800020000011600e+000	 1.002077124788069e+001
0	 8.733360002791903e+000	 6.866680000008067e+000	 1.002032417738409e+001
0	 8.733360002791901e+000	 6.933340000004133e+000	 1.001986156034749e+001
0	 8.733360002791903e+000	 6.999999999999999e+000	 1.001938262199388e+001
0	 8.733360002791899e+000	 7.066659999995866e+000	 1.001888658754626e+001
0	 8.733360002791905e+000	 7.133319999991935e+000	 1.001837268222766e+001
0	 8.733360002791905e+000	 7.199979999988400e+000	 1.001784013126109e+001
0	 8.733360002791901e+000	 7.266639999985468e+000	 1.001728815986951e+001
0	 8.733360002791903e+000	 7.333299999983335e+000	 1.001671599327598e+001
0	 8.800020022230555e+000	 6.666700000016666e+000	 1.002008331880041e+001
0	 8.800020022230555e+000	 6.733360000014533e+000	 1.001971405538785e+001
0	 8.800020022230555e+000	 6.800020000011600e+000	 1.001932975093810e+001
0	 8.800020022230553e+000	 6.866680000008066e+000	 1.001892971310503e+001
0	 8.800020022230559e+000	 6.933340000004135e+000	 1.001851324954249e+001
0	 8.800020022230557e+000	 7.000000000000001e+000	 1.001807966790433e+001
0	 8.800020022230557e+000	 7.066659999995866e+000	 1.001762827584445e+001
0	 8.800020022230553e+000	 7.133319999991935e+000	 1.001715838101670e+001
0	 8.800020022230555e+000	 7.199979999988401e+000	 1.001666929107493e+001
0	 8.800020022230553e+000	 7.266639999985467e+000	 1.001616031367301e+001
0	 8.800020022230557e+000	 7.333299999983335e+000	 1.001563075646484e+001
0	 8.866680074997042e+000	 6.666700000016669e+000	 1.001858627973014e+001
0	 8.866680074997040e+000	 6.733360000014534e+000	 1.001826345832048e+001
0	 8.866680074997042e+000	 6.800020000011601e+000	 1.001792473882854e+001
0	 8.866680074997040e+000	 6.866680000008069e+000	 1.001756949672067e+001
0	 8.866680074997044e+000	 6.933340000004134e+000	 1.001719710746317e+001
0	 8.866680074997042e+000	 7.000000000000002e+000	 1.001680694652238e+001
0	 8.866680074997042e+000	 7.066659999995867e+000	 1.001639838936461e+001
0	 8.866680074997042e+000	 7.133319999991934e+000	 1.001597081145620e+001
0	 8.866680074997042e+000	 7.199979999988402e+000	 1.001552358826347e+001
0	 8.866680074997042e+000	 7.266639999985468e+000	 1.001505609525275e+001
0	 8.866680074997042e+000	 7.333299999983335e+000	 1.001456770789035e+001
0	 8.933340177755774e+000	 6.666700000016665e+000	 1.001713365815657e+001
0	 8.933340177755776e+000	 6.733360000014533e+000	 1.001685465513502e+001
0	 8.933340177755774e+000	 6.800020000011598e+000	 1.001655905157251e+001
0	 8.933340177755776e+000	 6.866680000008067e+000	 1.001624627612942e+001
0	 8.933340177755776e+000	 6.933340000004134e+000	 1.001591575746608e+001
0	 8.933340177755774e+000	 6.999999999999998e+000	 1.001556692424287e+001
0	 8.933340177755776e+000	 7.066659999995867e+000	 1.001519920512016e+001
0	 8.933340177755778e+000	 7.133319999991936e+000	 1.001481202875830e+001
0	 8.933340177755778e+000	 7.199979999988400e+000	 1.001440482381766e+001
0	 8.933340177755778e+000	 7.266639999985468e+000	 1.001397701895860e+001
0	 8.933340177755776e+000	 7.333299999983334e+000	 1.001352804284148e+001
0	 9.000000347171181e+000	 6.666700000016665e+000	 1.001572838112419e+001
0	 9.000000347171183e+000	 6.733360000014532e+000	 1.001549054559139e+001
0	 9.000000347171177e+000	 6.800020000011598e+000	 1.001523552922551e+001
0	 9.000000347171177e+000	 6.866680000008066e+000	 1.001496279926252e+001
0	 9.000000347171181e+000	 6.933340000004135e+000	 1.001467182293842e+001
0	 9.000000347171177e+000	 6.999999999999999e+000	 1.001436206748915e+001
0	 9.000000347171181e+000	 7.066659999995868e+000	 1.001403300015072e+001
0	 9.000000347171181e+000	 7.133319999991935e+000	 1.001368408815910e+001
0	 9.000000347171179e+000	 7.199979999988400e+000	 1.001331479875023e+001
0	 9.000000347171183e+000	 7.266639999985467e+000	 1.001292459916015e+001
0	 9.000000347171181e+000	 7.333299999983333e+000	 1.001251295662481e+001
0	 9.066660599907664e+000	 6.666700000016666e+000	 1.001437337571630e+001
0	 9.066660599907666e+000	 6.733360000014534e+000	 1.001417402948637e+001
0	 9.066660599907667e+000	 6.800020000011601e+000	 1.001395701187790e+001
0	 9.066660599907666e+000	 6.866680000008066e+000	 1.001372181408405e+001
0	 9.066660599907666e+000	 6.933340000004134e+000	 1.001346792729801e+001
0	 9.066660599907669e+000	 6.999999999999999e+000	 1.001319484271299e+001
0	 9.066660599907667e+000	 7.066659999995868e+000	 1.001290205152214e+001
0	 9.066660599907666e+000	 7.133319999991934e+000	 1.001258904491870e+001
0	 9.066660599907667e+000	 7.199979999988400e+000	 1.001225531409579e+001
0	 9.066660599907666e+000	 7.266639999985467e+000	 1.001190035024666e+001
0	 9.066660599907664e+000	 7.333299999983335e+000	 1.001152364456448e+001
0	 9.133320952629653e+000	 6.666700000016665e+000	 1.001307156905515e+001
0	 9.133320952629653e+000	 6.733360000014534e+000	 1.001290800665378e+001
0	 9.133320952629649e+000	 6.800020000011600e+000	 1.001272633965500e+001
0	 9.133320952629653e+000	 6.866680000008066e+000	 1.001252606859083e+001
0	 9.133320952629651e+000	 6.933340000004134e+000	 1.001230669399333e+001
0	 9.133320952629651e+000	 6.999999999999999e+000	 1.001206771639452e+001
0	 9.133320952629651e+000	 7.066659999995866e+000	 1.001180863632646e+001
0	 9.133320952629653e+000	 7.133319999991934e+000	 1.001152895432115e+001
0	 9.133320952629651e+000	 7.199979999988401e+000	 1.001122817091067e+001
0	 9.133320952629653e+000	 7.266639999985467e+000	 1.001090578662704e+001
0	 9.133320952629655e+000	 7.333299999983335e+000	 1.001056130200229e+001
0	 9.199981422001555e+000	 6.666700000016665e+000	 1.001182588830181e+001
0	 9.199981422001558e+000	 6.733360000014534e+000	 1.001169537696431e+001
0	 9.199981422001553e+000	 6.800020000011599e+000	 1.001154635271702e+001
0	 9.199981422001555e+000	 6.866680000008067e+000	 1.001137831081255e+001
0	 9.199981422001555e+000	 6.933340000004133e+000	 1.001119074650348e+001
0	 9.199981422001555e+000	 7.000000000000000e+000	 1.001098315504241e+001
0	 9.199981422001557e+000	 7.066659999995869e+000	 1.001075503168192e+001
0	 9.199981422001555e+000	 7.133319999991935e+000	 1.001050587167460e+001
0	 9.199981422001553e+000	 7.199979999988400e+000	 1.001023517027306e+001
0	 9.199981422001555e+000	 7.266639999985466e+000	 1.000994242272989e+001
0	 9.199981422001555e+000	 7.333299999983335e+000	 1.000962712429767e+001
0	 9.266642024687791e+000	 6.666700000016667e+000	 1.001063926065629e+001
0	 9.266642024687791e+000	 6.733360000014530e+000	 1.001053904032564e+001
0	 9.266642024687791e+000	 6.800020000011600e+000	 1.001041989125915e+001
0	 9.266642024687794e+000	 6.866680000008067e+000	 1.001028128881168e+001
0	 9.266642024687794e+000	 6.933340000004134e+000	 1.001012270833820e+001
0	 9.266642024687789e+000	 6.999999999999998e+000	 1.000994362519367e+001
0	 9.266642024687792e+000	 7.066659999995867e+000	 1.000974351473300e+001
0	 9.266642024687794e+000	 7.133319999991936e+000	 1.000952185231111e+001
0	 9.266642024687792e+000	 7.199979999988400e+000	 1.000927811328297e+001
0	 9.266642024687792e+000	 7.266639999985467e+000	 1.000901177300350e+001
0	 9.266642024687791e+000	 7.333299999983332e+000	 1.000872230682763e+001
0	 9.333302777352783e+000	 6.666700000016666e+000	 1.000951461335744e+001
0	 9.333302777352783e+000	 6.733360000014532e+000	 1.000944189668243e+001
0	 9.333302777352783e+000	 6.800020000011600e+000	 1.000934979551139e+001
0	 9.333302777352783e+000	 6.866680000008068e+000	 1.000923775068348e+001
0	 9.333302777352781e+000	 6.933340000004135e+000	 1.000910520303789e+001
0	 9.333302777352781e+000	 6.999999999999999e+000	 1.000895159341378e+001
0	 9.333302777352783e+000	 7.066659999995867e+000	 1.000877636265036e+001
0	 9.333302777352783e+000	 7.133319999991934e+000	 1.000857895158677e+001
0	 9.333302777352783e+000	 7.199979999988400e+000	 1.000835880106220e+001
0	 9.333302777352783e+000	 7.266639999985467e+000	 1.000811535191583e+001
0	 9.333302777352785e+000	 7.333299999983335e+000	 1.000784804498682e+001
0	 8.666700000016665e+000	 7.333299999983335e+000	 1.001782222305246e+001
0	 8.666700000016666e+000	 7.399969999982151e+000	 1.001719756095665e+001
0	 8.666700000016668e+000	 7.466639999981867e+000	 1.001657526415536e+001
0	 8.666700000016668e+000	 7.533309999982383e+000	 1.001595446174805e+001
0	 8.666700000016668e+000	 7.599979999983599e+000	 1.001533428283422e+001
0	 8.666700000016666e+000	 7.666649999985415e+000	 1.001471385651337e+001
0	 8.666700000016666e+000	 7.733319999987733e+000	 1.001409231188496e+001
0	 8.666700000016666e+000	 7.799989999990450e+000	 1.001346877804849e+001
0	 8.666700000016663e+000	 7.866659999993464e+000	 1.001284238410345e+001
0	 8.666700000016666e+000	 7.933329999996683e+000	 1.001221225914933e+001
0	 8.666700000016666e+000	 7.999999999999999e+000	 1.001157753228560e+001
0	 8.733360002791903e+000	 7.333299999983335e+000	 1.001671599327598e+001
0	 8.733360002791899e+000	 7.399969999982149e+000	 1.001613455157378e+001
0	 8.733360002791899e+000	 7.466639999981866e+000	 1.001555487298488e+001
0	 8.733360002791898e+000	 7.533309999982383e+000	 1.001497609776402e+001
0	 8.733360002791901e+000	 7.599979999983598e+000	 1.001439736616590e+001
0	 8.733360002791905e+000	 7.666649999985416e+000	 1.001381781844524e+001
0	 8.733360002791901e+000	 7.733319999987733e+000	 1.001323659485673e+001
0	 8.733360002791905e+000	 7.799989999990449e+000	 1.001265283565510e+001
0	 8.733360002791903e+000	 7.866659999993466e+000	 1.001206568109509e+001
0	 8.733360002791903e+000	 7.933329999996683e+000	 1.001147427143138e+001
0	 8.733360002791903e+000	 7.999999999999999e+000	 1.001087774691867e+001
0	 8.800020022230557e+000	 7.333299999983335e+000	 1.001563075646484e+001
0	 8.800020022230555e+000	 7.399969999982151e+000	 1.001509143417406e+001
0	 8.800020022230555e+000	 7.466639999981867e+000	 1.001455322228521e+001
0	 8.800020022230553e+000	 7.533309999982382e+000	 1.001401527653412e+001
0	 8.800020022230557e+000	 7.599979999983601e+000	 1.001347675265661e+001
0	 8.800020022230553e+000	 7.666649999985416e+000	 1.001293680638844e+001
0	 8.800020022230555e+000	 7.733319999987734e+000	 1.001239459346543e+001
0	 8.800020022230555e+000	 7.799989999990451e+000	 1.001184926962339e+001
0	 8.800020022230555e+000	 7.866659999993468e+000	 1.001129999059814e+001
0	 8.800020022230555e+000	 7.933329999996682e+000	 1.001074591212548e+001
0	 8.800020022230557e+000	 8.000000000000004e+000	 1.001018618994120e+001
0	 8.866680074997042e+000	 7.333299999983335e+000	 1.001456770789035e+001
0	 8.866680074997042e+000	 7.399969999982151e+000	 1.001406908200901e+001
0	 8.866680074997040e+000	 7.466639999981867e+000	 1.001357088988683e+001
0	 8.866680074997039e+000	 7.533309999982383e+000	 1.001307230706657e+001
0	 8.866680074997040e+000	 7.599979999983600e+000	 1.001257250909095e+001
0	 8.866680074997044e+000	 7.666649999985416e+000	 1.001207067150275e+001
0	 8.866680074997044e+000	 7.733319999987732e+000	 1.001156596984467e+001
0	 8.866680074997042e+000	 7.799989999990450e+000	 1.001105757965949e+001
0	 8.866680074997040e+000	 7.866659999993467e+000	 1.001054467648995e+001
0	 8.866680074997039e+000	 7.933329999996683e+000	 1.001002643587878e+001
0	 8.866680074997044e+000	 8.000000000000002e+000	 1.000950203336877e+001
0	 8.933340177755776e+000	 7.333299999983334e+000	 1.001352804284148e+001
0	 8.933340177755774e+000	 7.399969999982150e+000	 1.001306836834582e+001
0	 8.933340177755778e+000	 7.466639999981866e+000	 1.001260845363398e+001
0	 8.933340177755778e+000	 7.533309999982384e+000	 1.001214749838147e+001
0	 8.933340177755774e+000	 7.599979999983599e+000	 1.001168470226379e+001
0	 8.933340177755779e+000	 7.666649999985416e+000	 1.001121926495648e+001
0	 8.933340177755776e+000	 7.733319999987733e+000	 1.001075038613504e+001
0	 8.933340177755778e+000	 7.799989999990448e+000	 1.001027726547496e+001
0	 8.933340177755774e+000	 7.866659999993465e+000	 1.000979910265177e+001
0	 8.933340177755776e+000	 7.933329999996684e+000	 1.000931509734096e+001
0	 8.933340177755776e+000	 8.000000000000000e+000	 1.000882444921807e+001
0	 9.000000347171181e+000	 7.333299999983333e+000	 1.001251295662480e+001
0	 9.000000347171177e+000	 7.399969999982148e+000	 1.001209016646732e+001
0	 9.000000347171181e+000	 7.466639999981867e+000	 1.001166649138468e+001
0	 9.000000347171183e+000	 7.533309999982383e+000	 1.001124115951096e+001
0	 9.000000347171179e+000	 7.599979999983600e+000	 1.001081339898027e+001
0	 9.000000347171175e+000	 7.666649999985415e+000	 1.001038243792662e+001
0	 9.000000347171179e+000	 7.733319999987732e+000	 1.000994750448411e+001
0	 9.000000347171177e+000	 7.799989999990450e+000	 1.000950782678683e+001
0	 9.000000347171179e+000	 7.866659999993466e+000	 1.000906263296882e+001
0	 9.000000347171179e+000	 7.933329999996682e+000	 1.000861115116416e+001
0	 9.000000347171179e+000	 8.000000000000000e+000	 1.000815260950691e+001
0	 9.066660599907664e+000	 7.333299999983335e+000	 1.001152364456448e+001
0	 9.066660599907664e+000	 7.399969999982150e+000	 1.001113534967193e+001
0	 9.066660599907667e+000	 7.466639999981867e+000	 1.001074558101069e+001
0	 9.066660599907667e+000	 7.533309999982382e+000	 1.001035359949913e+001
0	 9.066660599907667e+000	 7.599979999983600e+000	 1.000995866605566e+001
0	 9.066660599907666e+000	 7.666649999985417e+000	 1.000956004159865e+001
0	 9.066660599907666e+000	 7.733319999987734e+000	 1.000915698704648e+001
0	 9.066660599907667e+000	 7.799989999990448e+000	 1.000874876331759e+001
0	 9.066660599907666e+000	 7.866659999993467e+000	 1.000833463133033e+001
0	 9.066660599907664e+000	 7.933329999996683e+000	 1.000791385200310e+001
0	 9.066660599907669e+000	 8.000000000000000e+000	 1.000748568625431e+001
0	 9.133320952629655e+000	 7.333299999983335e+000	 1.001056130200229e+001
0	 9.133320952629649e+000	 7.399969999982150e+000	 1.001020479127381e+001
0	 9.133320952629649e+000	 7.466639999981865e+000	 1.000984630039756e+001
0	 9.133320952629655e+000	 7.533309999982383e+000	 1.000948512740201e+001
0	 9.133320952629649e+000	 7.599979999983599e+000	 1.000912057031556e+001
0	 9.133320952629653e+000	 7.666649999985417e+000	 1.000875192716666e+001
0	 9.133320952629653e+000	 7.733319999987733e+000	 1.000837849598373e+001
0	 9.133320952629651e+000	 7.799989999990449e+000	 1.000799957479520e+001
0	 9.133320952629653e+000	 7.866659999993467e+000	 1.000761446162950e+001
0	 9.133320952629651e+000	 7.933329999996684e+000	 1.000722245451505e+001
0	 9.133320952629651e+000	 8.000000000000000e+000	 1.000682285148028e+001
0	 9.199981422001555e+000	 7.333299999983335e+000	 1.000962712429767e+001
0	 9.199981422001557e+000	 7.399969999982152e+000	 1.000929936460266e+001
0	 9.199981422001555e+000	 7.466639999981866e+000	 1.000896922744460e+001
0	 9.199981422001555e+000	 7.533309999982385e+000	 1.000863605228760e+001
0	 9.199981422001553e+000	 7.599979999983598e+000	 1.000829917859582e+001
0	 9.199981422001555e+000	 7.666649999985417e+000	 1.000795794583338e+001
0	 9.199981422001555e+000	 7.733319999987733e+000	 1.000761169346441e+001
0	 9.199981422001555e+000	 7.799989999990450e+000	 1.000725976095307e+001
0	 9.199981422001553e+000	 7.866659999993467e+000	 1.000690148776346e+001
0	 9.199981422001555e+000	 7.933329999996682e+000	 1.000653621335974e+001
0	 9.199981422001553e+000	 8.000000000000000e+000	 1.000616327720605e+001
0	 9.266642024687791e+000	 7.333299999983332e+000	 1.000872230682763e+001
0	 9.266642024687792e+000	 7.399969999982150e+000	 1.000841994300393e+001
0	 9.266642024687791e+000	 7.466639999981865e+000	 1.000811494006486e+001
0	 9.266642024687791e+000	 7.533309999982384e+000	 1.000780668323590e+001
0	 9.266642024687792e+000	 7.599979999983600e+000	 1.000749455774248e+001
0	 9.266642024687794e+000	 7.666649999985417e+000	 1.000717794881006e+001
0	 9.266642024687791e+000	 7.733319999987732e+000	 1.000685624166410e+001
0	 9.266642024687792e+000	 7.799989999990449e+000	 1.000652882153005e+001
0	 9.266642024687792e+000	 7.866659999993466e+000	 1.000619507363335e+001
0	 9.266642024687792e+000	 7.933329999996682e+000	 1.000585438319949e+001
0	 9.266642024687792e+000	 8.000000000000000e+000	 1.000550613545389e+001
0	 9.333302777352785e+000	 7.333299999983335e+000	 1.000784804498682e+001
0	 9.333302777352781e+000	 7.399969999982150e+000	 1.000756739983864e+001
0	 9.333302777352783e+000	 7.466639999981866e+000	 1.000728401618520e+001
0	 9.333302777352783e+000	 7.533309999982383e+000	 1.000699732933882e+001
0	 9.333302777352785e+000	 7.599979999983600e+000	 1.000670677461183e+001
0	 9.333302777352783e+000	 7.666649999985418e+000	 1.000641178731656e+001
0	 9.333302777352783e+000	 7.733319999987732e+000	 1.000611180276533e+001
0	 9.333302777352783e+000	 7.799989999990449e+000	 1.000580625627047e+001
0	 9.333302777352781e+000	 7.866659999993466e+000	 1.000549458314428e+001
0	 9.333302777352781e+000	 7.933329999996683e+000	 1.000517621869911e+001
0	 9.333302777352783e+000	 8.000000000000000e+000	 1.000485059824726e+001
0	 8.666700000016666e+000	 7.999999999999999e+000	 1.001157753228560e+001
0	 8.666700000016666e+000	 8.066670000003317e+000	 1.001094776324416e+001
0	 8.666700000016666e+000	 8.133340000006534e+000	 1.001033237825386e+001
0	 8.666700000016666e+000	 8.200010000009550e+000	 1.000973030615974e+001
0	 8.666700000016666e+000	 8.266680000012268e+000	 1.000914047580677e+001
0	 8.666700000016666e+000	 8.333350000014585e+000	 1.000856181603996e+001
0	 8.666700000016668e+000	 8.400020000016401e+000	 1.000799325570431e+001
0	 8.666700000016666e+000	 8.466690000017618e+000	 1.000743372364482e+001
0	 8.666700000016665e+000	 8.533360000018133e+000	 1.000688214870649e+001
0	 8.666700000016666e+000	 8.600030000017851e+000	 1.000633745973433e+001
0	 8.666700000016666e+000	 8.666700000016666e+000	 1.000579858557331e+001
0	 8.733360002791903e+000	 7.999999999999999e+000	 1.001087774691867e+001
0	 8.733360002791899e+000	 8.066670000003315e+000	 1.001028543971196e+001
0	 8.733360002791903e+000	 8.133340000006530e+000	 1.000970658554052e+001
0	 8.733360002791903e+000	 8.200010000009552e+000	 1.000914018002058e+001
0	 8.733360002791901e+000	 8.266680000012267e+000	 1.000858521876836e+001
0	 8.733360002791903e+000	 8.333350000014583e+000	 1.000804069740006e+001
0	 8.733360002791901e+000	 8.400020000016399e+000	 1.000750561153191e+001
0	 8.733360002791901e+000	 8.466690000017618e+000	 1.000697895678013e+001
0	 8.733360002791899e+000	 8.533360000018131e+000	 1.000645972876093e+001
0	 8.733360002791899e+000	 8.600030000017851e+000	 1.000594692309053e+001
0	 8.733360002791903e+000	 8.666700000016666e+000	 1.000543953538516e+001
0	 8.800020022230557e+000	 8.000000000000004e+000	 1.001018618994120e+001
0	 8.800020022230557e+000	 8.066670000003315e+000	 1.000962998926945e+001
0	 8.800020022230555e+000	 8.133340000006536e+000	 1.000908641171004e+001
0	 8.800020022230553e+000	 8.200010000009547e+000	 1.000855451756232e+001
0	 8.800020022230555e+000	 8.266680000012268e+000	 1.000803336712562e+001
0	 8.800020022230552e+000	 8.333350000014582e+000	 1.000752202069927e+001
0	 8.800020022230555e+000	 8.400020000016401e+000	 1.000701953858258e+001
0	 8.800020022230557e+000	 8.466690000017618e+000	 1.000652498107492e+001
0	 8.800020022230557e+000	 8.533360000018135e+000	 1.000603740847560e+001
0	 8.800020022230553e+000	 8.600030000017849e+000	 1.000555588108394e+001
0	 8.800020022230553e+000	 8.666700000016666e+000	 1.000507945919929e+001
0	 8.866680074997044e+000	 8.000000000000002e+000	 1.000950203336877e+001
0	 8.866680074997039e+000	 8.066670000003317e+000	 1.000898051873419e+001
0	 8.866680074997042e+000	 8.133340000006534e+000	 1.000847090665046e+001
0	 8.866680074997040e+000	 8.200010000009550e+000	 1.000797232001185e+001
0	 8.866680074997044e+000	 8.266680000012270e+000	 1.000748388171267e+001
0	 8.866680074997039e+000	 8.333350000014582e+000	 1.000700471464721e+001
0	 8.866680074997040e+000	 8.400020000016401e+000	 1.000653394170974e+001
0	 8.866680074997040e+000	 8.466690000017618e+000	 1.000607068579459e+001
0	 8.866680074997037e+000	 8.533360000018131e+000	 1.000561406979604e+001
0	 8.866680074997040e+000	 8.600030000017851e+000	 1.000516321660837e+001
0	 8.866680074997042e+000	 8.666700000016670e+000	 1.000471724912588e+001
0	 8.933340177755776e+000	 8.000000000000000e+000	 1.000882444921807e+001
0	 8.933340177755778e+000	 8.066670000003319e+000	 1.000833613492352e+001
0	 8.933340177755774e+000	 8.133340000006532e+000	 1.000785912024822e+001
0	 8.933340177755778e+000	 8.200010000009550e+000	 1.000739258859317e+001
0	 8.933340177755776e+000	 8.266680000012267e+000	 1.000693572335944e+001
0	 8.933340177755778e+000	 8.333350000014585e+000	 1.000648770794810e+001
0	 8.933340177755776e+000	 8.400020000016403e+000	 1.000604772576021e+001
0	 8.933340177755778e+000	 8.466690000017618e+000	 1.000561496019683e+001
0	 8.933340177755776e+000	 8.533360000018133e+000	 1.000518859465904e+001
0	 8.933340177755774e+000	 8.600030000017849e+000	 1.000476781254785e+001
0	 8.933340177755776e+000	 8.666700000016665e+000	 1.000435179726436e+001
0	 9.000000347171179e+000	 8.000000000000000e+000	 1.000815260950691e+001
0	 9.000000347171179e+000	 8.066670000003315e+000	 1.000769594465455e+001
0	 9.000000347171179e+000	 8.133340000006534e+000	 1.000725010238816e+001
0	 9.000000347171175e+000	 8.200010000009549e+000	 1.000681432452734e+001
0	 9.000000347171179e+000	 8.266680000012267e+000	 1.000638785289169e+001
0	 9.000000347171175e+000	 8.333350000014583e+000	 1.000596992930080e+001
0	 9.000000347171175e+000	 8.400020000016401e+000	 1.000555979557426e+001
0	 9.000000347171181e+000	 8.466690000017618e+000	 1.000515669353166e+001
0	 9.000000347171177e+000	 8.533360000018133e+000	 1.000475986499258e+001
0	 9.000000347171179e+000	 8.600030000017851e+000	 1.000436855177665e+001
0	 9.000000347171181e+000	 8.666700000016665e+000	 1.000398199570344e+001
0	 9.066660599907669e+000	 8.000000000000000e+000	 1.000748568625431e+001
0	 9.066660599907666e+000	 8.066670000003315e+000	 1.000705905474410e+001
0	 9.066660599907667e+000	 8.133340000006534e+000	 1.000664290295356e+001
0	 9.066660599907667e+000	 8.200010000009552e+000	 1.000623652903260e+001
0	 9.066660599907666e+000	 8.266680000012268e+000	 1.000583923113103e+001
0	 9.066660599907667e+000	 8.333350000014585e+000	 1.000545030739873e+001
0	 9.066660599907667e+000	 8.400020000016399e+000	 1.000506905598554e+001
0	 9.066660599907666e+000	 8.466690000017618e+000	 1.000469477504134e+001
0	 9.066660599907667e+000	 8.533360000018135e+000	 1.000432676271595e+001
0	 9.066660599907664e+000	 8.600030000017849e+000	 1.000396431715924e+001
0	 9.066660599907666e+000	 8.666700000016668e+000	 1.000360673652107e+001
0	 9.133320952629651e+000	 8.000000000000000e+000	 1.000682285148028e+001
0	 9.133320952629651e+000	 8.066670000003317e+000	 1.000642457200871e+001
0	 9.133320952629653e+000	 8.133340000006532e+000	 1.000603657182608e+001
0	 9.133320952629651e+000	 8.200010000009550e+000	 1.000565820332422e+001
0	 9.133320952629653e+000	 8.266680000012268e+000	 1.000528881889491e+001
0	 9.133320952629649e+000	 8.333350000014585e+000	 1.000492777092999e+001
0	 9.133320952629651e+000	 8.400020000016401e+000	 1.000457441182125e+001
0	 9.133320952629653e+000	 8.466690000017618e+000	 1.000422809396053e+001
0	 9.133320952629653e+000	 8.533360000018137e+000	 1.000388816973960e+001
0	 9.133320952629651e+000	 8.600030000017849e+000	 1.000355399155031e+001
0	 9.133320952629653e+000	 8.666700000016666e+000	 1.000322491178446e+001
0	 9.199981422001553e+000	 8.000000000000000e+000	 1.000616327720605e+001
0	 9.199981422001555e+000	 8.066670000003317e+000	 1.000579160326474e+001
0	 9.199981422001555e+000	 8.133340000006532e+000	 1.000543015888579e+001
0	 9.199981422001555e+000	 8.200010000009550e+000	 1.000507834861461e+001
0	 9.199981422001557e+000	 8.266680000012268e+000	 1.000473557699661e+001
0	 9.199981422001553e+000	 8.333350000014583e+000	 1.000440124857725e+001
0	 9.199981422001555e+000	 8.400020000016399e+000	 1.000407476790194e+001
0	 9.199981422001553e+000	 8.466690000017616e+000	 1.000375553951614e+001
0	 9.199981422001555e+000	 8.533360000018135e+000	 1.000344296796526e+001
0	 9.199981422001555e+000	 8.600030000017849e+000	 1.000313645779476e+001
0	 9.199981422001557e+000	 8.666700000016666e+000	 1.000283541355003e+001
0	 9.266642024687792e+000	 8.000000000000000e+000	 1.000550613545389e+001
0	 9.266642024687792e+000	 8.066670000003317e+000	 1.000515925532827e+001
0	 9.266642024687792e+000	 8.133340000006534e+000	 1.000482271401116e+001
0	 9.266642024687791e+000	 8.200010000009550e+000	 1.000449596611325e+001
0	 9.266642024687791e+000	 8.266680000012267e+000	 1.000417846624523e+001
0	 9.266642024687792e+000	 8.333350000014583e+000	 1.000386966901779e+001
0	 9.266642024687794e+000	 8.400020000016403e+000	 1.000356902904162e+001
0	 9.266642024687792e+000	 8.466690000017616e+000	 1.000327600092743e+001
0	 9.266642024687791e+000	 8.533360000018131e+000	 1.000299003928590e+001
0	 9.266642024687791e+000	 8.600030000017851e+000	 1.000271059872771e+001
0	 9.266642024687794e+000	 8.666700000016668e+000	 1.000243713386355e+001
0	 9.333302777352783e+000	 8.000000000000000e+000	 1.000485059824726e+001
0	 9.333302777352783e+000	 8.066670000003319e+000	 1.000452663501510e+001
0	 9.333302777352783e+000	 8.133340000006532e+000	 1.000421328707908e+001
0	 9.333302777352783e+000	 8.200010000009552e+000	 1.000391005702676e+001
0	 9.333302777352783e+000	 8.266680000012267e+000	 1.000361644744574e+001
0	 9.333302777352783e+000	 8.333350000014585e+000	 1.000333196092356e+001
0	 9.333302777352785e+000	 8.400020000016403e+000	 1.000305610004778e+001
0	 9.333302777352785e+000	 8.466690000017618e+000	 1.000278836740596e+001
0	 9.333302777352783e+000	 8.533360000018135e+000	 1.000252826558568e+001
0	 9.333302777352783e+000	 8.600030000017849e+000	 1.000227529717449e+001
0	 9.333302777352783e+000	 8.666700000016666e+000	 1.000202896475995e+001
0	 8.666700000016666e+000	 8.666700000016666e+000	 1.000579858557331e+001
0	 8.666700000016666e+000	 8.733360002791901e+000	 1.000527577552591e+001
0	 8.666700000016665e+000	 8.800020022230553e+000	 1.000477906094457e+001
0	 8.666700000016666e+000	 8.866680074997039e+000	 1.000430728502900e+001
0	 8.666700000016665e+000	 8.933340177755778e+000	 1.000385929090714e+001
0	 8.666700000016665e+000	 9.000000347171181e+000	 1.000343392163506e+001
0	 8.666700000016666e+000	 9.066660599907667e+000	 1.000303002019703e+001
0	 8.666700000016666e+000	 9.133320952629655e+000	 1.000264642950543e+001
0	 8.666700000016668e+000	 9.199981422001558e+000	 1.000228199240095e+001
0	 8.666700000016668e+000	 9.266642024687798e+000	 1.000193555165231e+001
0	 8.666700000016666e+000	 9.333302777352783e+000	 1.000160594995649e+001
0	 8.733360002791903e+000	 8.666700000016666e+000	 1.000543953538516e+001
0	 8.733360002791903e+000	 8.733360002791901e+000	 1.000494739073210e+001
0	 8.733360002791905e+000	 8.800020022230559e+000	 1.000448010616308e+001
0	 8.733360002791901e+000	 8.866680074997040e+000	 1.000403659240489e+001
0	 8.733360002791903e+000	 8.933340177755776e+000	 1.000361576011654e+001
0	 8.733360002791903e+000	 9.000000347171183e+000	 1.000321651988931e+001
0	 8.733360002791901e+000	 9.066660599907667e+000	 1.000283778224664e+001
0	 8.733360002791901e+000	 9.133320952629655e+000	 1.000247845764425e+001
0	 8.733360002791901e+000	 9.199981422001557e+000	 1.000213745647007e+001
0	 8.733360002791901e+000	 9.266642024687796e+000	 1.000181368904431e+001
0	 8.733360002791899e+000	 9.333302777352781e+000	 1.000150606561933e+001
0	 8.800020022230553e+000	 8.666700000016666e+000	 1.000507945919929e+001
0	 8.800020022230555e+000	 8.733360002791903e+000	 1.000461752902715e+001
0	 8.800020022230553e+000	 8.800020022230553e+000	 1.000417927868462e+001
0	 8.800020022230553e+000	 8.866680074997040e+000	 1.000376368466184e+001
0	 8.800020022230552e+000	 8.933340177755778e+000	 1.000336972338510e+001
0	 8.800020022230555e+000	 9.000000347171181e+000	 1.000299637121685e+001
0	 8.800020022230557e+000	 9.066660599907671e+000	 1.000264260445569e+001
0	 8.800020022230553e+000	 9.133320952629656e+000	 1.000230739933631e+001
0	 8.800020022230555e+000	 9.199981422001558e+000	 1.000198973202960e+001
0	 8.800020022230553e+000	 9.266642024687796e+000	 1.000168857864251e+001
0	 8.800020022230553e+000	 9.333302777352781e+000	 1.000140291521823e+001
0	 8.866680074997042e+000	 8.666700000016670e+000	 1.000471724912588e+001
0	 8.866680074997039e+000	 8.733360002791899e+000	 1.000428510028090e+001
0	 8.866680074997040e+000	 8.800020022230555e+000	 1.000387551496102e+001
0	 8.866680074997040e+000	 8.866680074997044e+000	 1.000348753365602e+001
0	 8.866680074997042e+000	 8.933340177755781e+000	 1.000312019679557e+001
0	 8.866680074997039e+000	 9.000000347171181e+000	 1.000277254474922e+001
0	 8.866680074997040e+000	 9.066660599907667e+000	 1.000244361782644e+001
0	 8.866680074997039e+000	 9.133320952629656e+000	 1.000213245627653e+001
0	 8.866680074997039e+000	 9.199981422001557e+000	 1.000183810028873e+001
0	 8.866680074997040e+000	 9.266642024687794e+000	 1.000155958999216e+001
0	 8.866680074997042e+000	 9.333302777352785e+000	 1.000129596545581e+001
0	 8.933340177755776e+000	 8.666700000016665e+000	 1.000435179726436e+001
0	 8.933340177755778e+000	 8.733360002791903e+000	 1.000394901435145e+001
0	 8.933340177755774e+000	 8.800020022230553e+000	 1.000356775143158e+001
0	 8.933340177755778e+000	 8.866680074997044e+000	 1.000320711123034e+001
0	 8.933340177755776e+000	 8.933340177755779e+000	 1.000286619641675e+001
0	 8.933340177755774e+000	 9.000000347171181e+000	 1.000254410960331e+001
0	 8.933340177755778e+000	 9.066660599907667e+000	 1.000223995334598e+001
0	 8.933340177755778e+000	 9.133320952629656e+000	 1.000195283014416e+001
0	 8.933340177755779e+000	 9.199981422001560e+000	 1.000168184244079e+001
0	 8.933340177755776e+000	 9.266642024687796e+000	 1.000142609262219e+001
0	 8.933340177755776e+000	 9.333302777352781e+000	 1.000118468301819e+001
0	 9.000000347171181e+000	 8.666700000016665e+000	 1.000398199570344e+001
0	 9.000000347171183e+000	 8.733360002791901e+000	 1.000360818108532e+001
0	 9.000000347171177e+000	 8.800020022230553e+000	 1.000325492452320e+001
0	 9.000000347171183e+000	 8.866680074997042e+000	 1.000292138921450e+001
0	 9.000000347171181e+000	 8.933340177755779e+000	 1.000260673830352e+001
0	 9.000000347171177e+000	 9.000000347171183e+000	 1.000231013488146e+001
0	 9.000000347171179e+000	 9.066660599907666e+000	 1.000203074198629e+001
0	 9.000000347171181e+000	 9.133320952629653e+000	 1.000176772260292e+001
0	 9.000000347171181e+000	 9.199981422001560e+000	 1.000152023966302e+001
0	 9.000000347171181e+000	 9.266642024687796e+000	 1.000128745604524e+001
0	 9.000000347171181e+000	 9.333302777352785e+000	 1.000106853457498e+001
0	 9.066660599907666e+000	 8.666700000016668e+000	 1.000360673652107e+001
0	 9.066660599907666e+000	 8.733360002791903e+000	 1.000326151031741e+001
0	 9.066660599907667e+000	 8.800020022230555e+000	 1.000293597065021e+001
0	 9.066660599907664e+000	 8.866680074997044e+000	 1.000262933942488e+001
0	 9.066660599907666e+000	 8.933340177755779e+000	 1.000234083849679e+001
0	 9.066660599907667e+000	 9.000000347171183e+000	 1.000206968967140e+001
0	 9.066660599907664e+000	 9.066660599907666e+000	 1.000181511470423e+001
0	 9.066660599907666e+000	 9.133320952629656e+000	 1.000157633530083e+001
0	 9.066660599907666e+000	 9.199981422001558e+000	 1.000135257311675e+001
0	 9.066660599907664e+000	 9.266642024687794e+000	 1.000114304975763e+001
0	 9.066660599907667e+000	 9.333302777352783e+000	 1.000094698677918e+001
0	 9.133320952629653e+000	 8.666700000016666e+000	 1.000322491178446e+001
0	 9.133320952629651e+000	 8.733360002791903e+000	 1.000290791187089e+001
0	 9.133320952629653e+000	 8.800020022230555e+000	 1.000260982621454e+001
0	 9.133320952629653e+000	 8.866680074997042e+000	 1.000232993366466e+001
0	 9.133320952629653e+000	 8.933340177755779e+000	 1.000206751302351e+001
0	 9.133320952629655e+000	 9.000000347171181e+000	 1.000182184304637e+001
0	 9.133320952629653e+000	 9.066660599907671e+000	 1.000159220244157e+001
0	 9.133320952629651e+000	 9.133320952629655e+000	 1.000137786987037e+001
0	 9.133320952629651e+000	 9.199981422001560e+000	 1.000117812394721e+001
0	 9.133320952629653e+000	 9.266642024687796e+000	 1.000099224323939e+001
0	 9.133320952629651e+000	 9.333302777352785e+000	 1.000081950626732e+001
0	 9.199981422001557e+000	 8.666700000016666e+000	 1.000283541355003e+001
0	 9.199981422001553e+000	 8.733360002791901e+000	 1.000254629555733e+001
0	 9.199981422001553e+000	 8.800020022230555e+000	 1.000227542760558e+001
0	 9.199981422001555e+000	 8.866680074997040e+000	 1.000202214372377e+001
0	 9.199981422001558e+000	 8.933340177755781e+000	 1.000178577789670e+001
0	 9.199981422001557e+000	 9.000000347171183e+000	 1.000156566406496e+001
0	 9.199981422001555e+000	 9.066660599907667e+000	 1.000136113612483e+001
0	 9.199981422001557e+000	 9.133320952629653e+000	 1.000117152792845e+001
0	 9.199981422001557e+000	 9.199981422001558e+000	 1.000099617328369e+001
0	 9.199981422001555e+000	 9.266642024687798e+000	 1.000083440595418e+001
0	 9.199981422001553e+000	 9.333302777352779e+000	 1.000068555965937e+001
0	 9.266642024687794e+000	 8.666700000016668e+000	 1.000243713386355e+001
0	 9.266642024687791e+000	 8.733360002791901e+000	 1.000217557117669e+001
0	 9.266642024687791e+000	 8.800020022230555e+000	 1.000193171120025e+001
0	 9.266642024687791e+000	 8.866680074997042e+000	 1.000170494137886e+001
0	 9.266642024687791e+000	 8.933340177755778e+000	 1.000149464911542e+001
0	 9.266642024687792e+000	 9.000000347171181e+000	 1.000130022177117e+001
0	 9.266642024687794e+000	 9.066660599907669e+000	 1.000112104666554e+001
0	 9.266642024687792e+000	 9.133320952629655e+000	 1.000095651107628e+001
0	 9.266642024687794e+000	 9.199981422001558e+000	 1.000080600223948e+001
0	 9.266642024687794e+000	 9.266642024687798e+000	 1.000066890734942e+001
0	 9.266642024687792e+000	 9.333302777352785e+000	 1.000054461355873e+001
0	 9.333302777352783e+000	 8.666700000016666e+000	 1.000202896475995e+001
0	 9.333302777352781e+000	 8.733360002791901e+000	 1.000179464851722e+001
0	 9.333302777352783e+000	 8.800020022230557e+000	 1.000157761336301e+001
0	 9.333302777352781e+000	 8.866680074997039e+000	 1.000137729839335e+001
0	 9.333302777352781e+000	 8.933340177755778e+000	 1.000119314266480e+001
0	 9.333302777352783e+000	 9.000000347171181e+000	 1.000102458519448e+001
0	 9.333302777352785e+000	 9.066660599907667e+000	 1.000087106495999e+001
0	 9.333302777352781e+000	 9.133320952629655e+000	 1.000073202089953e+001
0	 9.333302777352781e+000	 9.199981422001558e+000	 1.000060689191185e+001
0	 9.333302777352781e+000	 9.266642024687794e+000	 1.000049511685617e+001
0	 9.333302777352785e+000	 9.333302777352785e+000	 1.000039613455231e+001
0	 8.666700000016666e+000	 9.333302777352783e+000	 1.000160594995649e+001
0	 8.666700000016668e+000	 9.399973674588178e+000	 1.000130206916473e+001
0	 8.666700000016666e+000	 9.466644621844619e+000	 1.000103284209964e+001
0	 8.666700000016668e+000	 9.533315502450000e+000	 1.000079704367735e+001
0	 8.666700000016665e+000	 9.599986199732197e+000	 1.000059344952901e+001
0	 8.666700000016666e+000	 9.666656597019095e+000	 1.000042083600064e+001
0	 8.666700000016668e+000	 9.733326577638577e+000	 1.000027798015338e+001
0	 8.666700000016668e+000	 9.799996024918521e+000	 1.000016365976324e+001
0	 8.666700000016666e+000	 9.866664822186822e+000	 1.000007665332143e+001
0	 8.666700000016666e+000	 9.933332852771352e+000	 1.000001574003438e+001
0	 8.666700000016666e+000	 1.000000000000000e+001	 9.999979699823545e+000
0	 8.733360002791899e+000	 9.333302777352781e+000	 1.000150606561933e+001
0	 8.733360002791905e+000	 9.399973674588177e+000	 1.000122260270329e+001
0	 8.733360002791903e+000	 9.466644621844621e+000	 1.000097139675601e+001
0	 8.733360002791903e+000	 9.533315502450002e+000	 1.000075134343156e+001
0	 8.733360002791901e+000	 9.599986199732197e+000	 1.000056133905073e+001
0	 8.733360002791905e+000	 9.666656597019095e+000	 1.000040028060098e+001
0	 8.733360002791899e+000	 9.733326577638575e+000	 1.000026706573655e+001
0	 8.733360002791905e+000	 9.799996024918524e+000	 1.000016059277841e+001
0	 8.733360002791903e+000	 9.866664822186824e+000	 1.000007976071438e+001
0	 8.733360002791903e+000	 9.933332852771354e+000	 1.000002346919926e+001
0	 8.733360002791903e+000	 1.000000000000000e+001	 9.999990618554802e+000
0	 8.800020022230553e+000	 9.333302777352781e+000	 1.000140291521822e+001
0	 8.800020022230555e+000	 9.399973674588175e+000	 1.000113982909101e+001
0	 8.800020022230555e+000	 9.466644621844623e+000	 1.000090653130033e+001
0	 8.800020022230553e+000	 9.533315502450000e+000	 1.000070205863338e+001
0	 8.800020022230555e+000	 9.599986199732195e+000	 1.000052544849541e+001
0	 8.800020022230557e+000	 9.666656597019097e+000	 1.000037573890983e+001
0	 8.800020022230552e+000	 9.733326577638577e+000	 1.000025196851813e+001
0	 8.800020022230553e+000	 9.799996024918524e+000	 1.000015317658009e+001
0	 8.800020022230555e+000	 9.866664822186822e+000	 1.000007840297360e+001
0	 8.800020022230557e+000	 9.933332852771356e+000	 1.000002668819495e+001
0	 8.800020022230555e+000	 1.000000000000000e+001	 9.999997073358648e+000
0	 8.866680074997042e+000	 9.333302777352785e+000	 1.000129596545581e+001
0	 8.866680074997042e+000	 9.399973674588178e+000	 1.000105332534015e+001
0	 8.866680074997039e+000	 9.466644621844617e+000	 1.000083795050728e+001
0	 8.866680074997039e+000	 9.533315502449998e+000	 1.000064903927319e+001
0	 8.866680074997042e+000	 9.599986199732197e+000	 1.000048579052332e+001
0	 8.866680074997037e+000	 9.666656597019092e+000	 1.000034740371239e+001
0	 8.866680074997040e+000	 9.733326577638575e+000	 1.000023307886446e+001
0	 8.866680074997037e+000	 9.799996024918519e+000	 1.000014201657312e+001
0	 8.866680074997039e+000	 9.866664822186820e+000	 1.000007341800117e+001
0	 8.866680074997040e+000	 9.933332852771352e+000	 1.000002648488128e+001
0	 8.866680074997039e+000	 1.000000000000000e+001	 1.000000041951542e+001
0	 8.933340177755776e+000	 9.333302777352781e+000	 1.000118468301819e+001
0	 8.933340177755778e+000	 9.399973674588175e+000	 1.000096266844624e+001
0	 8.933340177755776e+000	 9.466644621844619e+000	 1.000076535913465e+001
0	 8.933340177755778e+000	 9.533315502450002e+000	 1.000059213532461e+001
0	 8.933340177755779e+000	 9.599986199732198e+000	 1.000044237777792e+001
0	 8.933340177755776e+000	 9.666656597019092e+000	 1.000031546777694e+001
0	 8.933340177755776e+000	 9.733326577638570e+000	 1.000021078712468e+001
0	 8.933340177755778e+000	 9.799996024918524e+000	 1.000012771814476e+001
0	 8.933340177755776e+000	 9.866664822186822e+000	 1.000006564368152e+001
0	 8.933340177755778e+000	 9.933332852771354e+000	 1.000002394710005e+001
0	 8.933340177755776e+000	 1.000000000000000e+001	 1.000000201228619e+001
0	 9.000000347171181e+000	 9.333302777352785e+000	 1.000106853457498e+001
0	 9.000000347171181e+000	 9.399973674588178e+000	 1.000086743538815e+001
0	 9.000000347171179e+000	 9.466644621844619e+000	 1.000068846192358e+001
0	 9.000000347171179e+000	 9.533315502450000e+000	 1.000053119674437e+001
0	 9.000000347171181e+000	 9.599986199732200e+000	 1.000039522288570e+001
0	 9.000000347171179e+000	 9.666656597019093e+000	 1.000028012385477e+001
0	 9.000000347171181e+000	 9.733326577638575e+000	 1.000018548363078e+001
0	 9.000000347171177e+000	 9.799996024918521e+000	 1.000011088666508e+001
0	 9.000000347171179e+000	 9.866664822186824e+000	 1.000005591788112e+001
0	 9.000000347171181e+000	 9.933332852771352e+000	 1.000002016267451e+001
0	 9.000000347171181e+000	 1.000000000000000e+001	 1.000000320691319e+001
0	 9.066660599907667e+000	 9.333302777352783e+000	 1.000094698677918e+001
0	 9.066660599907666e+000	 9.399973674588175e+000	 1.000076720312803e+001
0	 9.066660599907666e+000	 9.466644621844619e+000	 1.000060696359835e+001
0	 9.066660599907664e+000	 9.533315502449998e+000	 1.000046607347241e+001
0	 9.066660599907666e+000	 9.599986199732195e+000	 1.000034433845633e+001
0	 9.066660599907664e+000	 9.666656597019095e+000	 1.000024156468014e+001
0	 9.066660599907666e+000	 9.733326577638577e+000	 1.000015755869761e+001
0	 9.066660599907664e+000	 9.799996024918521e+000	 1.000009212748659e+001
0	 9.066660599907666e+000	 9.866664822186824e+000	 1.000004507844872e+001
0	 9.066660599907662e+000	 9.933332852771352e+000	 1.000001621940969e+001
0	 9.066660599907666e+000	 1.000000000000000e+001	 1.000000535861932e+001
0	 9.133320952629651e+000	 9.333302777352785e+000	 1.000081950626732e+001
0	 9.133320952629649e+000	 9.399973674588173e+000	 1.000066154861141e+001
0	 9.133320952629653e+000	 9.466644621844623e+000	 1.000052056886656e+001
0	 9.133320952629651e+000	 9.533315502450002e+000	 1.000039661543183e+001
0	 9.133320952629653e+000	 9.599986199732197e+000	 1.000028973708258e+001
0	 9.133320952629653e+000	 9.666656597019093e+000	 1.000019998297032e+001
0	 9.133320952629653e+000	 9.733326577638573e+000	 1.000012740262288e+001
0	 9.133320952629651e+000	 9.799996024918526e+000	 1.000007204594439e+001
0	 9.133320952629651e+000	 9.866664822186822e+000	 1.000003396321527e+001
0	 9.133320952629649e+000	 9.933332852771351e+000	 1.000001320509226e+001
0	 9.133320952629653e+000	 1.000000000000000e+001	 1.000000982260859e+001
0	 9.199981422001553e+000	 9.333302777352779e+000	 1.000068555965937e+001
0	 9.199981422001555e+000	 9.399973674588175e+000	 1.000055004876709e+001
0	 9.199981422001555e+000	 9.466644621844619e+000	 1.000042898241896e+001
0	 9.199981422001555e+000	 9.533315502450002e+000	 1.000032267252890e+001
0	 9.199981422001555e+000	 9.599986199732198e+000	 1.000023143134023e+001
0	 9.199981422001555e+000	 9.666656597019095e+000	 1.000015557142563e+001
0	 9.199981422001557e+000	 9.733326577638577e+000	 1.000009540568714e+001
0	 9.199981422001555e+000	 9.799996024918524e+000	 1.000005124735627e+001
0	 9.199981422001551e+000	 9.866664822186820e+000	 1.000002340999391e+001
0	 9.199981422001555e+000	 9.933332852771352e+000	 1.000001220749045e+001
0	 9.199981422001557e+000	 1.000000000000000e+001	 1.000001795406593e+001
0	 9.266642024687792e+000	 9.333302777352785e+000	 1.000054461355873e+001
0	 9.266642024687792e+000	 9.399973674588177e+000	 1.000043228050717e+001
0	 9.266642024687792e+000	 9.466644621844623e+000	 1.000033190892957e+001
0	 9.266642024687791e+000	 9.533315502450000e+000	 1.000024409465306e+001
0	 9.266642024687792e+000	 9.599986199732195e+000	 1.000016943378830e+001
0	 9.266642024687792e+000	 9.666656597019093e+000	 1.000010852272935e+001
0	 9.266642024687792e+000	 9.733326577638575e+000	 1.000006195815376e+001
0	 9.266642024687794e+000	 9.799996024918526e+000	 1.000003033702243e+001
0	 9.266642024687792e+000	 9.866664822186820e+000	 1.000001425657996e+001
0	 9.266642024687791e+000	 9.933332852771352e+000	 1.000001431435431e+001
0	 9.266642024687792e+000	 1.000000000000000e+001	 1.000003110815710e+001
0	 9.333302777352785e+000	 9.333302777352785e+000	 1.000039613455231e+001
0	 9.333302777352781e+000	 9.399973674588177e+000	 1.000030782072716e+001
0	 9.333302777352785e+000	 9.466644621844621e+000	 1.000022905305562e+001
0	 9.333302777352783e+000	 9.533315502450002e+000	 1.000016073167694e+001
0	 9.333302777352783e+000	 9.599986199732197e+000	 1.000010375696886e+001
0	 9.333302777352781e+000	 9.666656597019095e+000	 1.000005902954785e+001
0	 9.333302777352783e+000	 9.733326577638573e+000	 1.000002745026894e+001
0	 9.333302777352779e+000	 9.799996024918521e+000	 1.000000992022587e+001
0	 9.333302777352783e+000	 9.866664822186822e+000	 1.000000734075100e+001
0	 9.333302777352783e+000	 9.933332852771356e+000	 1.000002061341543e+001
0	 9.333302777352781e+000	 9.999999999999998e+000	 1.000005064002890e+001
0	 9.333302777352781e+000	 0.000000000000000e+000	 9.851104309571092e+000
0	 9.333302777352785e+000	 6.666714722864757e-002	 9.850915765044077e+000
0	 9.333302777352785e+000	 1.333351778131789e-001	 9.850869985580465e+000
0	 9.333302777352783e+000	 2.000039750814772e-001	 9.850967607537710e+000
0	 9.333302777352779e+000	 2.666734223614256e-001	 9.851209269165789e+000
0	 9.333302777352783e+000	 3.333434029809070e-001	 9.851595610607060e+000
0	 9.333302777352783e+000	 4.000138002678045e-001	 9.852127273896112e+000
0	 9.333302777352783e+000	 4.666844975500011e-001	 9.852804902959672e+000
0	 9.333302777352781e+000	 5.333553781553801e-001	 9.853629143616567e+000
0	 9.333302777352785e+000	 6.000263254118248e-001	 9.854600643577737e+000
0	 9.333302777352783e+000	 6.666972226472177e-001	 9.855720052446289e+000
0	 9.399973674588175e+000	 0.000000000000000e+000	 9.842288100663712e+000
0	 9.399973674588173e+000	 6.666714722864754e-002	 9.842099021063643e+000
0	 9.399973674588175e+000	 1.333351778131789e-001	 9.842057705623791e+000
0	 9.399973674588175e+000	 2.000039750814772e-001	 9.842164410761750e+000
0	 9.399973674588175e+000	 2.666734223614256e-001	 9.842419394791806e+000
0	 9.399973674588173e+000	 3.333434029809069e-001	 9.842822917924840e+000
0	 9.399973674588177e+000	 4.000138002678044e-001	 9.843375242268154e+000
0	 9.399973674588175e+000	 4.666844975500012e-001	 9.844076631825343e+000
0	 9.399973674588175e+000	 5.333553781553803e-001	 9.844927352496363e+000
0	 9.399973674588177e+000	 6.000263254118246e-001	 9.845927672077449e+000
0	 9.399973674588177e+000	 6.666972226472175e-001	 9.847077860261216e+000
0	 9.466644621844621e+000	 0.000000000000000e+000	 9.833143131475136e+000
0	 9.466644621844621e+000	 6.666714722864757e-002	 9.832998897345565e+000
0	 9.466644621844623e+000	 1.333351778131789e-001	 9.833001410225302e+000
0	 9.466644621844623e+000	 2.000039750814773e-001	 9.833150628550525e+000
0	 9.466644621844619e+000	 2.666734223614255e-001	 9.833446512606550e+000
0	 9.466644621844621e+000	 3.333434029809069e-001	 9.833889024527659e+000
0	 9.466644621844621e+000	 4.000138002678044e-001	 9.834478128297004e+000
0	 9.466644621844617e+000	 4.666844975500012e-001	 9.835213789746470e+000
0	 9.466644621844623e+000	 5.333553781553805e-001	 9.836095976556738e+000
0	 9.466644621844621e+000	 6.000263254118248e-001	 9.837124658257192e+000
0	 9.466644621844619e+000	 6.666972226472178e-001	 9.838299806226072e+000
0	 9.533315502450000e+000	 0.000000000000000e+000	 9.823693053803529e+000
0	 9.533315502450000e+000	 6.666714722864757e-002	 9.823623271335539e+000
0	 9.533315502450002e+000	 1.333351778131790e-001	 9.823695454472180e+000
0	 9.533315502449998e+000	 2.000039750814772e-001	 9.823909345470577e+000
0	 9.533315502450002e+000	 2.666734223614256e-001	 9.824264688361263e+000
0	 9.533315502449995e+000	 3.333434029809068e-001	 9.824761228948034e+000
0	 9.533315502449998e+000	 4.000138002678043e-001	 9.825398714807854e+000
0	 9.533315502449998e+000	 4.666844975500012e-001	 9.826176895290715e+000
0	 9.533315502450000e+000	 5.333553781553803e-001	 9.827095521519684e+000
0	 9.533315502449996e+000	 6.000263254118247e-001	 9.828154346390969e+000
0	 9.533315502449996e+000	 6.666972226472177e-001	 9.829353124573858e+000
0	 9.599986199732195e+000	 0.000000000000000e+000	 9.813961520480975e+000
0	 9.599986199732195e+000	 6.666714722864756e-002	 9.813980021583207e+000
0	 9.599986199732193e+000	 1.333351778131789e-001	 9.814134194614253e+000
0	 9.599986199732197e+000	 2.000039750814773e-001	 9.814423647299257e+000
0	 9.599986199732198e+000	 2.666734223614256e-001	 9.814847989056528e+000
0	 9.599986199732195e+000	 3.333434029809068e-001	 9.815406830997489e+000
0	 9.599986199732197e+000	 4.000138002678044e-001	 9.816099785926507e+000
0	 9.599986199732197e+000	 4.666844975500011e-001	 9.816926468340867e+000
0	 9.599986199732195e+000	 5.333553781553804e-001	 9.817886494430727e+000
0	 9.599986199732197e+000	 6.000263254118247e-001	 9.818979482079174e+000
0	 9.599986199732195e+000	 6.666972226472177e-001	 9.820205050862377e+000
0	 9.666656597019093e+000	 0.000000000000000e+000	 9.803972185373588e+000
0	 9.666656597019095e+000	 6.666714722864757e-002	 9.804077027742403e+000
0	 9.666656597019090e+000	 1.333351778131789e-001	 9.804311988064242e+000
0	 9.666656597019093e+000	 2.000039750814772e-001	 9.804676621024933e+000
0	 9.666656597019093e+000	 2.666734223614256e-001	 9.805170482942417e+000
0	 9.666656597019093e+000	 3.333434029809069e-001	 9.805793131766674e+000
0	 9.666656597019092e+000	 4.000138002678044e-001	 9.806544127079656e+000
0	 9.666656597019092e+000	 4.666844975500011e-001	 9.807423030095187e+000
0	 9.666656597019092e+000	 5.333553781553803e-001	 9.808429403659034e+000
0	 9.666656597019092e+000	 6.000263254118247e-001	 9.809562812248860e+000
0	 9.666656597019092e+000	 6.666972226472177e-001	 9.810822821974382e+000
0	 9.733326577638573e+000	 0.000000000000000e+000	 9.793748703381743e+000
0	 9.733326577638575e+000	 6.666714722864754e-002	 9.793922170571277e+000
0	 9.733326577638575e+000	 1.333351778131790e-001	 9.794223193397938e+000
0	 9.733326577638575e+000	 2.000039750814773e-001	 9.794651354847238e+000
0	 9.733326577638573e+000	 2.666734223614256e-001	 9.795206239518707e+000
0	 9.733326577638572e+000	 3.333434029809069e-001	 9.795887433625593e+000
0	 9.733326577638573e+000	 4.000138002678044e-001	 9.796694524994964e+000
0	 9.733326577638575e+000	 4.666844975500012e-001	 9.797627103067523e+000
0	 9.733326577638572e+000	 5.333553781553801e-001	 9.798684758897736e+000
0	 9.733326577638575e+000	 6.000263254118249e-001	 9.799867085153821e+000
0	 9.733326577638573e+000	 6.666972226472175e-001	 9.801173676117802e+000
0	 9.799996024918521e+000	 0.000000000000000e+000	 9.783314730440285e+000
0	 9.799996024918521e+000	 6.666714722864756e-002	 9.783523331932592e+000
0	 9.799996024918524e+000	 1.333351778131790e-001	 9.783862170354377e+000
0	 9.799996024918523e+000	 2.000039750814772e-001	 9.784330938177254e+000
0	 9.799996024918521e+000	 2.666734223614255e-001	 9.784929329535112e+000
0	 9.799996024918521e+000	 3.333434029809069e-001	 9.785657040223835e+000
0	 9.799996024918524e+000	 4.000138002678044e-001	 9.786513767701351e+000
0	 9.799996024918521e+000	 4.666844975500012e-001	 9.787499211087498e+000
0	 9.799996024918523e+000	 5.333553781553803e-001	 9.788613071164081e+000
0	 9.799996024918523e+000	 6.000263254118248e-001	 9.789855050374928e+000
0	 9.799996024918523e+000	 6.666972226472177e-001	 9.791224852825943e+000
0	 9.866664822186820e+000	 0.000000000000000e+000	 9.772693923518768e+000
0	 9.866664822186818e+000	 6.666714722864756e-002	 9.772888394793935e+000
0	 9.866664822186818e+000	 1.333351778131789e-001	 9.773223279836168e+000
0	 9.866664822186818e+000	 2.000039750814772e-001	 9.773698461637730e+000
0	 9.866664822186822e+000	 2.666734223614256e-001	 9.774313824991513e+000
0	 9.866664822186820e+000	 3.333434029809069e-001	 9.775069256490824e+000
0	 9.866664822186818e+000	 4.000138002678044e-001	 9.775964644529296e+000
0	 9.866664822186820e+000	 4.666844975500011e-001	 9.776999879300858e+000
0	 9.866664822186820e+000	 5.333553781553803e-001	 9.778174852799678e+000
0	 9.866664822186818e+000	 6.000263254118247e-001	 9.779489458820310e+000
0	 9.866664822186820e+000	 6.666972226472175e-001	 9.780943592957767e+000
0	 9.933332852771351e+000	 0.000000000000000e+000	 9.761909940621729e+000
0	 9.933332852771354e+000	 6.666714722864757e-002	 9.762025243227980e+000
0	 9.933332852771352e+000	 1.333351778131790e-001	 9.762300883909715e+000
0	 9.933332852771351e+000	 2.000039750814772e-001	 9.762737017063410e+000
0	 9.933332852771351e+000	 2.666734223614256e-001	 9.763333799138335e+000
0	 9.933332852771352e+000	 3.333434029809069e-001	 9.764091388636144e+000
0	 9.933332852771351e+000	 4.000138002678044e-001	 9.765009946111125e+000
0	 9.933332852771352e+000	 4.666844975500012e-001	 9.766089634169731e+000
0	 9.933332852771351e+000	 5.333553781553803e-001	 9.767330617470842e+000
0	 9.933332852771352e+000	 6.000263254118247e-001	 9.768733062725751e+000
0	 9.933332852771351e+000	 6.666972226472177e-001	 9.770297138698199e+000
0	 1.000000000000000e+001	 0.000000000000000e+000	 9.750986440789038e+000
0	 1.000000000000000e+001	 6.666714722864756e-002	 9.750941762412857e+000
0	 9.999999999999998e+000	 1.333351778131789e-001	 9.751089345805593e+000
0	 1.000000000000000e+001	 2.000039750814772e-001	 9.751429697501427e+000
0	 1.000000000000000e+001	 2.666734223614256e-001	 9.751963326476696e+000
0	 1.000000000000000e+001	 3.333434029809069e-001	 9.752690744149842e+000
0	 1.000000000000000e+001	 4.000138002678044e-001	 9.753612464381208e+000
0	 1.000000000000000e+001	 4.666844975500011e-001	 9.754729003472930e+000
0	 1.000000000000000e+001	 5.333553781553803e-001	 9.756040880168916e+000
0	 1.000000000000000e+001	 6.000263254118248e-001	 9.757548615654889e+000
0	 1.000000000000000e+001	 6.666972226472175e-001	 9.759252733558443e+000
0	 9.333302777352783e+000	 6.666972226472177e-001	 9.855720052446289e+000
0	 9.333302777352783e+000	 7.333579753122046e-001	 9.856950447489302e+000
0	 9.333302777352783e+000	 8.000185779984417e-001	 9.858255545322214e+000
0	 9.333302777352781e+000	 8.666790473703453e-001	 9.859636418787076e+000
0	 9.333302777352781e+000	 9.333394000923320e-001	 9.861094140568033e+000
0	 9.333302777352783e+000	 9.999996528288190e-001	 9.862629783191327e+000
0	 9.333302777352785e+000	 1.066659822244222e+000	 9.864244419025217e+000
0	 9.333302777352785e+000	 1.133319925002959e+000	 9.865939120280101e+000
0	 9.333302777352785e+000	 1.199979977769445e+000	 9.867714959008426e+000
0	 9.333302777352785e+000	 1.266639997208098e+000	 9.869573007104718e+000
0	 9.333302777352785e+000	 1.333299999983334e+000	 9.871514336305600e+000
0	 9.399973674588177e+000	 6.666972226472175e-001	 9.847077860261214e+000
0	 9.399973674588173e+000	 7.333579753122048e-001	 9.848342639381684e+000
0	 9.399973674588175e+000	 8.000185779984415e-001	 9.849687631435620e+000
0	 9.399973674588178e+000	 8.666790473703453e-001	 9.851113905590532e+000
0	 9.399973674588178e+000	 9.333394000923323e-001	 9.852622530849526e+000
0	 9.399973674588178e+000	 9.999996528288191e-001	 9.854214576051277e+000
0	 9.399973674588173e+000	 1.066659822244222e+000	 9.855891109870026e+000
0	 9.399973674588177e+000	 1.133319925002959e+000	 9.857653200815582e+000
0	 9.399973674588177e+000	 1.199979977769445e+000	 9.859501917233345e+000
0	 9.399973674588173e+000	 1.266639997208098e+000	 9.861438327304288e+000
0	 9.399973674588177e+000	 1.333299999983334e+000	 9.863463499044965e+000
0	 9.466644621844619e+000	 6.666972226472178e-001	 9.838299806226074e+000
0	 9.466644621844619e+000	 7.333579753122046e-001	 9.839591375695395e+000
0	 9.466644621844621e+000	 8.000185779984417e-001	 9.840970415496038e+000
0	 9.466644621844619e+000	 8.666790473703452e-001	 9.842437976921321e+000
0	 9.466644621844619e+000	 9.333394000923322e-001	 9.843995111090482e+000
0	 9.466644621844619e+000	 9.999996528288189e-001	 9.845642868948607e+000
0	 9.466644621844621e+000	 1.066659822244223e+000	 9.847382301266748e+000
0	 9.466644621844621e+000	 1.133319925002958e+000	 9.849214458641793e+000
0	 9.466644621844619e+000	 1.199979977769445e+000	 9.851140391496603e+000
0	 9.466644621844623e+000	 1.266639997208098e+000	 9.853161150079908e+000
0	 9.466644621844617e+000	 1.333299999983334e+000	 9.855277784466338e+000
0	 9.533315502449996e+000	 6.666972226472177e-001	 9.829353124573862e+000
0	 9.533315502450000e+000	 7.333579753122048e-001	 9.830669186427883e+000
0	 9.533315502450002e+000	 8.000185779984417e-001	 9.832081085130223e+000
0	 9.533315502450002e+000	 8.666790473703454e-001	 9.833589839892696e+000
0	 9.533315502450000e+000	 9.333394000923322e-001	 9.835196469741076e+000
0	 9.533315502449998e+000	 9.999996528288190e-001	 9.836901993515193e+000
0	 9.533315502449996e+000	 1.066659822244222e+000	 9.838707429868872e+000
0	 9.533315502450000e+000	 1.133319925002959e+000	 9.840613797270006e+000
0	 9.533315502449998e+000	 1.199979977769445e+000	 9.842622114000436e+000
0	 9.533315502450000e+000	 1.266639997208098e+000	 9.844733398156080e+000
0	 9.533315502450002e+000	 1.333299999983334e+000	 9.846948667646862e+000
0	 9.599986199732195e+000	 6.666972226472177e-001	 9.820205050862377e+000
0	 9.599986199732195e+000	 7.333579753122048e-001	 9.821548602895918e+000
0	 9.599986199732195e+000	 8.000185779984415e-001	 9.822996829274940e+000
0	 9.599986199732195e+000	 8.666790473703452e-001	 9.824550702914541e+000
0	 9.599986199732197e+000	 9.333394000923321e-001	 9.826211196530730e+000
0	 9.599986199732195e+000	 9.999996528288190e-001	 9.827979282640388e+000
0	 9.599986199732195e+000	 1.066659822244222e+000	 9.829855933561264e+000
0	 9.599986199732193e+000	 1.133319925002958e+000	 9.831842121411993e+000
0	 9.599986199732197e+000	 1.199979977769445e+000	 9.833938818112124e+000
0	 9.599986199732195e+000	 1.266639997208098e+000	 9.836146995382030e+000
0	 9.599986199732197e+000	 1.333299999983334e+000	 9.838467624743030e+000
0	 9.666656597019092e+000	 6.666972226472177e-001	 9.810822821974385e+000
0	 9.666656597019092e+000	 7.333579753122046e-001	 9.812202157735747e+000
0	 9.666656597019092e+000	 8.000185779984415e-001	 9.813694838177048e+000
0	 9.666656597019095e+000	 8.666790473703454e-001	 9.815301775693612e+000
0	 9.666656597019093e+000	 9.333394000923323e-001	 9.817023882468247e+000
0	 9.666656597019088e+000	 9.999996528288189e-001	 9.818862070471216e+000
0	 9.666656597019093e+000	 1.066659822244222e+000	 9.820817251460197e+000
0	 9.666656597019093e+000	 1.133319925002959e+000	 9.822890336980349e+000
0	 9.666656597019093e+000	 1.199979977769445e+000	 9.825082238364233e+000
0	 9.666656597019092e+000	 1.266639997208098e+000	 9.827393866731919e+000
0	 9.666656597019092e+000	 1.333299999983334e+000	 9.829826132990860e+000
0	 9.733326577638573e+000	 6.666972226472175e-001	 9.801173676117799e+000
0	 9.733326577638575e+000	 7.333579753122048e-001	 9.802602384903279e+000
0	 9.733326577638575e+000	 8.000185779984417e-001	 9.804152303393739e+000
0	 9.733326577638573e+000	 8.666790473703451e-001	 9.805824269233654e+000
0	 9.733326577638575e+000	 9.333394000923323e-001	 9.807619119841975e+000
0	 9.733326577638573e+000	 9.999996528288189e-001	 9.809537692412535e+000
0	 9.733326577638573e+000	 1.066659822244222e+000	 9.811580823913696e+000
0	 9.733326577638572e+000	 1.133319925002959e+000	 9.813749351088521e+000
0	 9.733326577638573e+000	 1.199979977769445e+000	 9.816044110454792e+000
0	 9.733326577638575e+000	 1.266639997208098e+000	 9.818465938304923e+000
0	 9.733326577638575e+000	 1.333299999983334e+000	 9.821015670706025e+000
0	 9.799996024918523e+000	 6.666972226472177e-001	 9.791224852825945e+000
0	 9.799996024918521e+000	 7.333579753122048e-001	 9.792721819674291e+000
0	 9.799996024918521e+000	 8.000185779984413e-001	 9.794346417792863e+000
0	 9.799996024918523e+000	 8.666790473703451e-001	 9.796099395835634e+000
0	 9.799996024918521e+000	 9.333394000923320e-001	 9.797981502220088e+000
0	 9.799996024918523e+000	 9.999996528288189e-001	 9.799993485127230e+000
0	 9.799996024918521e+000	 1.066659822244222e+000	 9.802136092501574e+000
0	 9.799996024918519e+000	 1.133319925002958e+000	 9.804410072051127e+000
0	 9.799996024918523e+000	 1.199979977769445e+000	 9.806816171247444e+000
0	 9.799996024918523e+000	 1.266639997208098e+000	 9.809355137325582e+000
0	 9.799996024918523e+000	 1.333299999983334e+000	 9.812027717284103e+000
0	 9.866664822186820e+000	 6.666972226472175e-001	 9.780943592957767e+000
0	 9.866664822186820e+000	 7.333579753122048e-001	 9.782532998644742e+000
0	 9.866664822186820e+000	 8.000185779984417e-001	 9.784254375552942e+000
0	 9.866664822186818e+000	 8.666790473703451e-001	 9.786108369098098e+000
0	 9.866664822186818e+000	 9.333394000923320e-001	 9.788095624450806e+000
0	 9.866664822186820e+000	 9.999996528288190e-001	 9.790216786536540e+000
0	 9.866664822186820e+000	 1.066659822244222e+000	 9.792472500035888e+000
0	 9.866664822186820e+000	 1.133319925002959e+000	 9.794863409384160e+000
0	 9.866664822186820e+000	 1.199979977769445e+000	 9.797390158771787e+000
0	 9.866664822186820e+000	 1.266639997208098e+000	 9.800053392143914e+000
0	 9.866664822186818e+000	 1.333299999983334e+000	 9.802853753200830e+000
0	 9.933332852771351e+000	 6.666972226472177e-001	 9.770297138698195e+000
0	 9.933332852771352e+000	 7.333579753122047e-001	 9.772008459731035e+000
0	 9.933332852771351e+000	 8.000185779984418e-001	 9.773853372163774e+000
0	 9.933332852771352e+000	 8.666790473703454e-001	 9.775832403917356e+000
0	 9.933332852771352e+000	 9.333394000923323e-001	 9.777946082662623e+000
0	 9.933332852771351e+000	 9.999996528288190e-001	 9.780194935820340e+000
0	 9.933332852771349e+000	 1.066659822244222e+000	 9.782579490561089e+000
0	 9.933332852771351e+000	 1.133319925002958e+000	 9.785100273805348e+000
0	 9.933332852771352e+000	 1.199979977769445e+000	 9.787757812223504e+000
0	 9.933332852771352e+000	 1.266639997208098e+000	 9.790552632235782e+000
0	 9.933332852771351e+000	 1.333299999983334e+000	 9.793485260012366e+000
0	 1.000000000000000e+001	 6.666972226472175e-001	 9.759252733558443e+000
0	 1.000000000000000e+001	 7.333579753122049e-001	 9.761120742170432e+000
0	 1.000000000000000e+001	 8.000185779984417e-001	 9.763120604426495e+000
0	 1.000000000000000e+001	 8.666790473703454e-001	 9.765252716487854e+000
0	 1.000000000000000e+001	 9.333394000923322e-001	 9.767517474264849e+000
0	 1.000000000000000e+001	 9.999996528288191e-001	 9.769915273417336e+000
0	 1.000000000000000e+001	 1.066659822244222e+000	 9.772446509354353e+000
0	 1.000000000000000e+001	 1.133319925002959e+000	 9.775111577234293e+000
0	 1.000000000000000e+001	 1.199979977769445e+000	 9.777910871964894e+000
0	 1.000000000000000e+001	 1.266639997208098e+000	 9.780844788203176e+000
0	 1.000000000000000e+001	 1.333299999983334e+000	 9.783913720355494e+000
0	 9.333302777352785e+000	 1.333299999983334e+000	 9.871514336305600e+000
0	 9.333302777352783e+000	 1.399969999982150e+000	 9.873525441495961e+000
0	 9.333302777352785e+000	 1.466639999981866e+000	 9.875592378355684e+000
0	 9.333302777352783e+000	 1.533309999982383e+000	 9.877716452281863e+000
0	 9.333302777352783e+000	 1.599979999983600e+000	 9.879898968671542e+000
0	 9.333302777352783e+000	 1.666649999985416e+000	 9.882141232921786e+000
0	 9.333302777352783e+000	 1.733319999987733e+000	 9.884444550429677e+000
0	 9.333302777352781e+000	 1.799989999990450e+000	 9.886810226592283e+000
0	 9.333302777352783e+000	 1.866659999993466e+000	 9.889239566806674e+000
0	 9.333302777352783e+000	 1.933329999996683e+000	 9.891733876469921e+000
0	 9.333302777352783e+000	 2.000000000000000e+000	 9.894294460979085e+000
0	 9.399973674588177e+000	 1.333299999983334e+000	 9.863463499044968e+000
0	 9.399973674588177e+000	 1.399969999982150e+000	 9.865563019026151e+000
0	 9.399973674588177e+000	 1.466639999981866e+000	 9.867721810181182e+000
0	 9.399973674588177e+000	 1.533309999982383e+000	 9.869940876499097e+000
0	 9.399973674588175e+000	 1.599979999983600e+000	 9.872221221968953e+000
0	 9.399973674588175e+000	 1.666649999985416e+000	 9.874563850579811e+000
0	 9.399973674588175e+000	 1.733319999987733e+000	 9.876969766320727e+000
0	 9.399973674588180e+000	 1.799989999990450e+000	 9.879439973180743e+000
0	 9.399973674588175e+000	 1.866659999993466e+000	 9.881975475148906e+000
0	 9.399973674588180e+000	 1.933329999996684e+000	 9.884577276214289e+000
0	 9.399973674588177e+000	 2.000000000000000e+000	 9.887246380365946e+000
0	 9.466644621844617e+000	 1.333299999983334e+000	 9.855277784466338e+000
0	 9.466644621844623e+000	 1.399969999982150e+000	 9.857473752333979e+000
0	 9.466644621844619e+000	 1.466639999981867e+000	 9.859731688971277e+000
0	 9.466644621844623e+000	 1.533309999982383e+000	 9.862052385050248e+000
0	 9.466644621844619e+000	 1.599979999983599e+000	 9.864436631242946e+000
0	 9.466644621844619e+000	 1.666649999985416e+000	 9.866885218221416e+000
0	 9.466644621844621e+000	 1.733319999987733e+000	 9.869398936657692e+000
0	 9.466644621844621e+000	 1.799989999990450e+000	 9.871978577223839e+000
0	 9.466644621844621e+000	 1.866659999993466e+000	 9.874624930591885e+000
0	 9.466644621844621e+000	 1.933329999996683e+000	 9.877338787433903e+000
0	 9.466644621844623e+000	 2.000000000000000e+000	 9.880120938421896e+000
0	 9.533315502450002e+000	 1.333299999983334e+000	 9.846948667646865e+000
0	 9.533315502449998e+000	 1.399969999982150e+000	 9.849248465247744e+000
0	 9.533315502449996e+000	 1.466639999981866e+000	 9.851612418501553e+000
0	 9.533315502450002e+000	 1.533309999982383e+000	 9.854041192853249e+000
0	 9.533315502450000e+000	 1.599979999983600e+000	 9.856535453747757e+000
0	 9.533315502449998e+000	 1.666649999985416e+000	 9.859095866630053e+000
0	 9.533315502449998e+000	 1.733319999987733e+000	 9.861723096945079e+000
0	 9.533315502450000e+000	 1.799989999990450e+000	 9.864417810137798e+000
0	 9.533315502450000e+000	 1.866659999993466e+000	 9.867180671653159e+000
0	 9.533315502449998e+000	 1.933329999996683e+000	 9.870012346936109e+000
0	 9.533315502450000e+000	 2.000000000000000e+000	 9.872913501431613e+000
0	 9.599986199732197e+000	 1.333299999983334e+000	 9.838467624743034e+000
0	 9.599986199732193e+000	 1.399969999982150e+000	 9.840877982624706e+000
0	 9.599986199732198e+000	 1.466639999981867e+000	 9.843354403521930e+000
0	 9.599986199732198e+000	 1.533309999982383e+000	 9.845897515742372e+000
0	 9.599986199732193e+000	 1.599979999983599e+000	 9.848507947593616e+000
0	 9.599986199732195e+000	 1.666649999985416e+000	 9.851186327383280e+000
0	 9.599986199732197e+000	 1.733319999987733e+000	 9.853933283418998e+000
0	 9.599986199732195e+000	 1.799989999990449e+000	 9.856749444008361e+000
0	 9.599986199732197e+000	 1.866659999993466e+000	 9.859635437459014e+000
0	 9.599986199732197e+000	 1.933329999996683e+000	 9.862591892078578e+000
0	 9.599986199732198e+000	 2.000000000000000e+000	 9.865619436174667e+000
0	 9.666656597019092e+000	 1.333299999983334e+000	 9.829826132990858e+000
0	 9.666656597019092e+000	 1.399969999982150e+000	 9.832353130351198e+000
0	 9.666656597019093e+000	 1.466639999981867e+000	 9.834948049756781e+000
0	 9.666656597019090e+000	 1.533309999982383e+000	 9.837611570468377e+000
0	 9.666656597019095e+000	 1.599979999983600e+000	 9.840344371746795e+000
0	 9.666656597019092e+000	 1.666649999985416e+000	 9.843147132852845e+000
0	 9.666656597019092e+000	 1.733319999987733e+000	 9.846020533047321e+000
0	 9.666656597019092e+000	 1.799989999990450e+000	 9.848965251591041e+000
0	 9.666656597019095e+000	 1.866659999993466e+000	 9.851981967744781e+000
0	 9.666656597019093e+000	 1.933329999996684e+000	 9.855071360769383e+000
0	 9.666656597019092e+000	 2.000000000000000e+000	 9.858234109925615e+000
0	 9.733326577638575e+000	 1.333299999983334e+000	 9.821015670706025e+000
0	 9.733326577638570e+000	 1.399969999982150e+000	 9.823664735342918e+000
0	 9.733326577638575e+000	 1.466639999981866e+000	 9.826383763905051e+000
0	 9.733326577638572e+000	 1.533309999982383e+000	 9.829173574698626e+000
0	 9.733326577638573e+000	 1.599979999983599e+000	 9.832034986029816e+000
0	 9.733326577638573e+000	 1.666649999985416e+000	 9.834968816204848e+000
0	 9.733326577638575e+000	 1.733319999987733e+000	 9.837975883529911e+000
0	 9.733326577638572e+000	 1.799989999990450e+000	 9.841057006311182e+000
0	 9.733326577638573e+000	 1.866659999993466e+000	 9.844213002854847e+000
0	 9.733326577638572e+000	 1.933329999996683e+000	 9.847444691467121e+000
0	 9.733326577638573e+000	 2.000000000000000e+000	 9.850752890454213e+000
0	 9.799996024918523e+000	 1.333299999983334e+000	 9.812027717284106e+000
0	 9.799996024918524e+000	 1.399969999982150e+000	 9.814803625544972e+000
0	 9.799996024918519e+000	 1.466639999981866e+000	 9.817651953640587e+000
0	 9.799996024918523e+000	 1.533309999982383e+000	 9.820573747017363e+000
0	 9.799996024918521e+000	 1.599979999983599e+000	 9.823570051121704e+000
0	 9.799996024918521e+000	 1.666649999985416e+000	 9.826641911400030e+000
0	 9.799996024918523e+000	 1.733319999987733e+000	 9.829790373298730e+000
0	 9.799996024918523e+000	 1.799989999990450e+000	 9.833016482264219e+000
0	 9.799996024918519e+000	 1.866659999993466e+000	 9.836321283742906e+000
0	 9.799996024918521e+000	 1.933329999996683e+000	 9.839705823181211e+000
0	 9.799996024918524e+000	 2.000000000000000e+000	 9.843171146025521e+000
0	 9.866664822186818e+000	 1.333299999983334e+000	 9.802853753200832e+000
0	 9.866664822186822e+000	 1.399969999982150e+000	 9.805760629932237e+000
0	 9.866664822186817e+000	 1.466639999981866e+000	 9.808743027612273e+000
0	 9.866664822186820e+000	 1.533309999982383e+000	 9.811802306925877e+000
0	 9.866664822186818e+000	 1.599979999983599e+000	 9.814939828558083e+000
0	 9.866664822186820e+000	 1.666649999985416e+000	 9.818156953193808e+000
0	 9.866664822186820e+000	 1.733319999987733e+000	 9.821455041518112e+000
0	 9.866664822186820e+000	 1.799989999990450e+000	 9.824835454215886e+000
0	 9.866664822186820e+000	 1.866659999993466e+000	 9.828299551972146e+000
0	 9.866664822186820e+000	 1.933329999996683e+000	 9.831848695471900e+000
0	 9.866664822186820e+000	 2.000000000000000e+000	 9.835484245400092e+000
0	 9.933332852771351e+000	 1.333299999983334e+000	 9.793485260012366e+000
0	 9.933332852771351e+000	 1.399969999982150e+000	 9.796526578509603e+000
0	 9.933332852771351e+000	 1.466639999981866e+000	 9.799647395444298e+000
0	 9.933332852771352e+000	 1.533309999982383e+000	 9.802849474842791e+000
0	 9.933332852771351e+000	 1.599979999983599e+000	 9.806134580731484e+000
0	 9.933332852771351e+000	 1.666649999985416e+000	 9.809504477136727e+000
0	 9.933332852771352e+000	 1.733319999987733e+000	 9.812960928084898e+000
0	 9.933332852771351e+000	 1.799989999990450e+000	 9.816505697602358e+000
0	 9.933332852771351e+000	 1.866659999993466e+000	 9.820140549715465e+000
0	 9.933332852771351e+000	 1.933329999996683e+000	 9.823867248450624e+000
0	 9.933332852771352e+000	 2.000000000000000e+000	 9.827687557834196e+000
0	 1.000000000000000e+001	 1.333299999983334e+000	 9.783913720355494e+000
0	 1.000000000000000e+001	 1.399969999982150e+000	 9.787092302312198e+000
0	 1.000000000000000e+001	 1.466639999981866e+000	 9.790355467736447e+000
0	 1.000000000000000e+001	 1.533309999982383e+000	 9.793705472104294e+000
0	 9.999999999999998e+000	 1.599979999983599e+000	 9.797144570891634e+000
0	 1.000000000000000e+001	 1.666649999985416e+000	 9.800675019574459e+000
0	 1.000000000000000e+001	 1.733319999987733e+000	 9.804299073628757e+000
0	 1.000000000000000e+001	 1.799989999990450e+000	 9.808018988530506e+000
0	 1.000000000000000e+001	 1.866659999993466e+000	 9.811837019755611e+000
0	 1.000000000000000e+001	 1.933329999996683e+000	 9.815755422780129e+000
0	 1.000000000000000e+001	 2.000000000000000e+000	 9.819776453079996e+000
0	 9.333302777352783e+000	 2.000000000000000e+000	 9.894294460979085e+000
0	 9.333302777352783e+000	 2.066670000003318e+000	 9.896894133802327e+000
0	 9.333302777352783e+000	 2.133340000006534e+000	 9.899505455806803e+000
0	 9.333302777352785e+000	 2.200010000009550e+000	 9.902129353488085e+000
0	 9.333302777352781e+000	 2.266680000012267e+000	 9.904766753341731e+000
0	 9.333302777352783e+000	 2.333350000014584e+000	 9.907418581863324e+000
0	 9.333302777352781e+000	 2.400020000016401e+000	 9.910085765548427e+000
0	 9.333302777352785e+000	 2.466690000017617e+000	 9.912769230892630e+000
0	 9.333302777352781e+000	 2.533360000018134e+000	 9.915469904391486e+000
0	 9.333302777352783e+000	 2.600030000017850e+000	 9.918188712540573e+000
0	 9.333302777352785e+000	 2.666700000016666e+000	 9.920926581835474e+000
0	 9.399973674588177e+000	 2.000000000000000e+000	 9.887246380365946e+000
0	 9.399973674588180e+000	 2.066670000003318e+000	 9.889955090301388e+000
0	 9.399973674588177e+000	 2.133340000006534e+000	 9.892675818767053e+000
0	 9.399973674588177e+000	 2.200010000009550e+000	 9.895409734825424e+000
0	 9.399973674588177e+000	 2.266680000012267e+000	 9.898158007538950e+000
0	 9.399973674588173e+000	 2.333350000014584e+000	 9.900921805970112e+000
0	 9.399973674588173e+000	 2.400020000016400e+000	 9.903702299181367e+000
0	 9.399973674588175e+000	 2.466690000017618e+000	 9.906500656235179e+000
0	 9.399973674588178e+000	 2.533360000018134e+000	 9.909318046194006e+000
0	 9.399973674588177e+000	 2.600030000017851e+000	 9.912155638120341e+000
0	 9.399973674588178e+000	 2.666700000016666e+000	 9.915014601076635e+000
0	 9.466644621844623e+000	 2.000000000000000e+000	 9.880120938421896e+000
0	 9.466644621844621e+000	 2.066670000003317e+000	 9.882943614000839e+000
0	 9.466644621844621e+000	 2.133340000006534e+000	 9.885779418602011e+000
0	 9.466644621844621e+000	 2.200010000009550e+000	 9.888629703876973e+000
0	 9.466644621844621e+000	 2.266680000012267e+000	 9.891495821477252e+000
0	 9.466644621844621e+000	 2.333350000014584e+000	 9.894379123054405e+000
0	 9.466644621844621e+000	 2.400020000016400e+000	 9.897280960259996e+000
0	 9.466644621844621e+000	 2.466690000017617e+000	 9.900202684745548e+000
0	 9.466644621844619e+000	 2.533360000018134e+000	 9.903145648162621e+000
0	 9.466644621844621e+000	 2.600030000017851e+000	 9.906111202162791e+000
0	 9.466644621844617e+000	 2.666700000016666e+000	 9.909100698397568e+000
0	 9.533315502450000e+000	 2.000000000000000e+000	 9.872913501431613e+000
0	 9.533315502450000e+000	 2.066670000003318e+000	 9.875856515399367e+000
0	 9.533315502450002e+000	 2.133340000006534e+000	 9.878814308311625e+000
0	 9.533315502449998e+000	 2.200010000009550e+000	 9.881788354432130e+000
0	 9.533315502450000e+000	 2.266680000012267e+000	 9.884780128024621e+000
0	 9.533315502449998e+000	 2.333350000014585e+000	 9.887791103352885e+000
0	 9.533315502450000e+000	 2.400020000016401e+000	 9.890822754680656e+000
0	 9.533315502450002e+000	 2.466690000017618e+000	 9.893876556271721e+000
0	 9.533315502449998e+000	 2.533360000018134e+000	 9.896953982389817e+000
0	 9.533315502449998e+000	 2.600030000017851e+000	 9.900056507298688e+000
0	 9.533315502450000e+000	 2.666700000016667e+000	 9.903185605262115e+000
0	 9.599986199732198e+000	 2.000000000000000e+000	 9.865619436174667e+000
0	 9.599986199732198e+000	 2.066670000003318e+000	 9.868690605438943e+000
0	 9.599986199732197e+000	 2.133340000006534e+000	 9.871778541290942e+000
0	 9.599986199732197e+000	 2.200010000009550e+000	 9.874884780630048e+000
0	 9.599986199732197e+000	 2.266680000012267e+000	 9.878010860355671e+000
0	 9.599986199732195e+000	 2.333350000014584e+000	 9.881158317367193e+000
0	 9.599986199732193e+000	 2.400020000016400e+000	 9.884328688564027e+000
0	 9.599986199732195e+000	 2.466690000017617e+000	 9.887523510845540e+000
0	 9.599986199732197e+000	 2.533360000018134e+000	 9.890744321111182e+000
0	 9.599986199732195e+000	 2.600030000017850e+000	 9.893992656260281e+000
0	 9.599986199732198e+000	 2.666700000016667e+000	 9.897270053192296e+000
0	 9.666656597019092e+000	 2.000000000000000e+000	 9.858234109925615e+000
0	 9.666656597019093e+000	 2.066670000003317e+000	 9.861442695504943e+000
0	 9.666656597019093e+000	 2.133340000006534e+000	 9.864670171330298e+000
0	 9.666656597019090e+000	 2.200010000009550e+000	 9.867918076959874e+000
0	 9.666656597019093e+000	 2.266680000012267e+000	 9.871187951951763e+000
0	 9.666656597019092e+000	 2.333350000014585e+000	 9.874481335864147e+000
0	 9.666656597019092e+000	 2.400020000016401e+000	 9.877799768255153e+000
0	 9.666656597019092e+000	 2.466690000017617e+000	 9.881144788682931e+000
0	 9.666656597019092e+000	 2.533360000018133e+000	 9.884517936705624e+000
0	 9.666656597019090e+000	 2.600030000017851e+000	 9.887920751881380e+000
0	 9.666656597019093e+000	 2.666700000016666e+000	 9.891354773768343e+000
0	 9.733326577638573e+000	 2.000000000000000e+000	 9.850752890454213e+000
0	 9.733326577638577e+000	 2.066670000003318e+000	 9.854109597426293e+000
0	 9.733326577638575e+000	 2.133340000006534e+000	 9.857487252615465e+000
0	 9.733326577638575e+000	 2.200010000009550e+000	 9.860887338260717e+000
0	 9.733326577638573e+000	 2.266680000012267e+000	 9.864311336601162e+000
0	 9.733326577638575e+000	 2.333350000014584e+000	 9.867760729875808e+000
0	 9.733326577638575e+000	 2.400020000016401e+000	 9.871237000323715e+000
0	 9.733326577638575e+000	 2.466690000017617e+000	 9.874741630183928e+000
0	 9.733326577638573e+000	 2.533360000018134e+000	 9.878276101695501e+000
0	 9.733326577638577e+000	 2.600030000017851e+000	 9.881841897097472e+000
0	 9.733326577638575e+000	 2.666700000016667e+000	 9.885440498628904e+000
0	 9.799996024918524e+000	 2.000000000000000e+000	 9.843171146025521e+000
0	 9.799996024918519e+000	 2.066670000003317e+000	 9.846688123475706e+000
0	 9.799996024918524e+000	 2.133340000006534e+000	 9.850227839727696e+000
0	 9.799996024918524e+000	 2.200010000009551e+000	 9.853791659722003e+000
0	 9.799996024918521e+000	 2.266680000012267e+000	 9.857380948399161e+000
0	 9.799996024918523e+000	 2.333350000014584e+000	 9.860997070699682e+000
0	 9.799996024918521e+000	 2.400020000016401e+000	 9.864641391564083e+000
0	 9.799996024918523e+000	 2.466690000017617e+000	 9.868315275932920e+000
0	 9.799996024918523e+000	 2.533360000018134e+000	 9.872020088746691e+000
0	 9.799996024918523e+000	 2.600030000017850e+000	 9.875757194945891e+000
0	 9.799996024918523e+000	 2.666700000016667e+000	 9.879527959471085e+000
0	 9.866664822186820e+000	 2.000000000000000e+000	 9.835484245400092e+000
0	 9.866664822186820e+000	 2.066670000003317e+000	 9.839175086369718e+000
0	 9.866664822186820e+000	 2.133340000006534e+000	 9.842889987644064e+000
0	 9.866664822186820e+000	 2.200010000009550e+000	 9.846630136883439e+000
0	 9.866664822186822e+000	 2.266680000012267e+000	 9.850396721748252e+000
0	 9.866664822186820e+000	 2.333350000014584e+000	 9.854190929898822e+000
0	 9.866664822186820e+000	 2.400020000016400e+000	 9.858013948995515e+000
0	 9.866664822186820e+000	 2.466690000017617e+000	 9.861866966698697e+000
0	 9.866664822186822e+000	 2.533360000018134e+000	 9.865751170668698e+000
0	 9.866664822186820e+000	 2.600030000017851e+000	 9.869667748565892e+000
0	 9.866664822186820e+000	 2.666700000016666e+000	 9.873617888050658e+000
0	 9.933332852771352e+000	 2.000000000000000e+000	 9.827687557834196e+000
0	 9.933332852771352e+000	 2.066670000003317e+000	 9.831567299269013e+000
0	 9.933332852771351e+000	 2.133340000006534e+000	 9.835471751737488e+000
0	 9.933332852771351e+000	 2.200010000009550e+000	 9.839401865635361e+000
0	 9.933332852771349e+000	 2.266680000012267e+000	 9.843358591358292e+000
0	 9.933332852771351e+000	 2.333350000014584e+000	 9.847342879302021e+000
0	 9.933332852771351e+000	 2.400020000016401e+000	 9.851355679862250e+000
0	 9.933332852771351e+000	 2.466690000017617e+000	 9.855397943434639e+000
0	 9.933332852771352e+000	 2.533360000018134e+000	 9.859470620414976e+000
0	 9.933332852771351e+000	 2.600030000017851e+000	 9.863574661198896e+000
0	 9.933332852771352e+000	 2.666700000016666e+000	 9.867711016182147e+000
0	 1.000000000000000e+001	 2.000000000000000e+000	 9.819776453079996e+000
0	 9.999999999999998e+000	 2.066670000003316e+000	 9.823861575778540e+000
0	 1.000000000000000e+001	 2.133340000006534e+000	 9.827971187777077e+000
0	 9.999999999999998e+000	 2.200010000009550e+000	 9.832105942218778e+000
0	 1.000000000000000e+001	 2.266680000012268e+000	 9.836266492246701e+000
0	 1.000000000000000e+001	 2.333350000014584e+000	 9.840453491003979e+000
0	 1.000000000000000e+001	 2.400020000016401e+000	 9.844667591633680e+000
0	 1.000000000000000e+001	 2.466690000017617e+000	 9.848909447278912e+000
0	 1.000000000000000e+001	 2.533360000018134e+000	 9.853179711082838e+000
0	 1.000000000000000e+001	 2.600030000017850e+000	 9.857479036188458e+000
0	 1.000000000000000e+001	 2.666700000016666e+000	 9.861808075738999e+000
0	 9.333302777352785e+000	 2.666700000016666e+000	 9.920926581835472e+000
0	 9.333302777352783e+000	 2.733360000014533e+000	 9.923664388595784e+000
0	 9.333302777352781e+000	 2.800020000011600e+000	 9.926383940442170e+000
0	 9.333302777352783e+000	 2.866680000008067e+000	 9.929086324414726e+000
0	 9.333302777352781e+000	 2.933340000004133e+000	 9.931772627553519e+000
0	 9.333302777352785e+000	 3.000000000000000e+000	 9.934443936898621e+000
0	 9.333302777352783e+000	 3.066659999995867e+000	 9.937101339490106e+000
0	 9.333302777352781e+000	 3.133319999991933e+000	 9.939745922368044e+000
0	 9.333302777352783e+000	 3.199979999988400e+000	 9.942378772572520e+000
0	 9.333302777352783e+000	 3.266639999985467e+000	 9.945000977143616e+000
0	 9.333302777352785e+000	 3.333299999983334e+000	 9.947613623121406e+000
0	 9.399973674588178e+000	 2.666700000016666e+000	 9.915014601076631e+000
0	 9.399973674588177e+000	 2.733360000014532e+000	 9.917875028180024e+000
0	 9.399973674588175e+000	 2.800020000011600e+000	 9.920717678984081e+000
0	 9.399973674588178e+000	 2.866680000008067e+000	 9.923543430753357e+000
0	 9.399973674588180e+000	 2.933340000004134e+000	 9.926353160752409e+000
0	 9.399973674588180e+000	 3.000000000000000e+000	 9.929147746245782e+000
0	 9.399973674588178e+000	 3.066659999995867e+000	 9.931928064498031e+000
0	 9.399973674588177e+000	 3.133319999991933e+000	 9.934694992773693e+000
0	 9.399973674588175e+000	 3.199979999988400e+000	 9.937449408337326e+000
0	 9.399973674588175e+000	 3.266639999985467e+000	 9.940192188453485e+000
0	 9.399973674588178e+000	 3.333299999983334e+000	 9.942924210386703e+000
0	 9.466644621844617e+000	 2.666700000016666e+000	 9.909100698397571e+000
0	 9.466644621844617e+000	 2.733360000014533e+000	 9.912092782929147e+000
0	 9.466644621844617e+000	 2.800020000011600e+000	 9.915066586432815e+000
0	 9.466644621844621e+000	 2.866680000008067e+000	 9.918022836684152e+000
0	 9.466644621844617e+000	 2.933340000004133e+000	 9.920962261458785e+000
0	 9.466644621844623e+000	 3.000000000000000e+000	 9.923885588532302e+000
0	 9.466644621844621e+000	 3.066659999995868e+000	 9.926793545680361e+000
0	 9.466644621844619e+000	 3.133319999991933e+000	 9.929686860678551e+000
0	 9.466644621844621e+000	 3.199979999988400e+000	 9.932566261302467e+000
0	 9.466644621844619e+000	 3.266639999985467e+000	 9.935432475327765e+000
0	 9.466644621844619e+000	 3.333299999983334e+000	 9.938286230530036e+000
0	 9.533315502450000e+000	 2.666700000016667e+000	 9.903185605262115e+000
0	 9.533315502450000e+000	 2.733360000014533e+000	 9.906318013283944e+000
0	 9.533315502449998e+000	 2.800020000011599e+000	 9.909430854056133e+000
0	 9.533315502450002e+000	 2.866680000008067e+000	 9.912524766151201e+000
0	 9.533315502450000e+000	 2.933340000004133e+000	 9.915600388141668e+000
0	 9.533315502449998e+000	 3.000000000000000e+000	 9.918658358600020e+000
0	 9.533315502449996e+000	 3.066659999995867e+000	 9.921699316098778e+000
0	 9.533315502450000e+000	 3.133319999991933e+000	 9.924723899210452e+000
0	 9.533315502450000e+000	 3.199979999988401e+000	 9.927732746507550e+000
0	 9.533315502449998e+000	 3.266639999985467e+000	 9.930726496562572e+000
0	 9.533315502450000e+000	 3.333299999983334e+000	 9.933705787948043e+000
0	 9.599986199732198e+000	 2.666700000016667e+000	 9.897270053192299e+000
0	 9.599986199732197e+000	 2.733360000014533e+000	 9.900551079697923e+000
0	 9.599986199732195e+000	 2.800020000011600e+000	 9.903810673087660e+000
0	 9.599986199732197e+000	 2.866680000008067e+000	 9.907049443016636e+000
0	 9.599986199732195e+000	 2.933340000004133e+000	 9.910267999139942e+000
0	 9.599986199732195e+000	 3.000000000000000e+000	 9.913466951112682e+000
0	 9.599986199732195e+000	 3.066659999995868e+000	 9.916646908589945e+000
0	 9.599986199732193e+000	 3.133319999991933e+000	 9.919808481226838e+000
0	 9.599986199732193e+000	 3.199979999988400e+000	 9.922952278678476e+000
0	 9.599986199732193e+000	 3.266639999985467e+000	 9.926078910599959e+000
0	 9.599986199732197e+000	 3.333299999983334e+000	 9.929188986646384e+000
0	 9.666656597019093e+000	 2.666700000016666e+000	 9.891354773768343e+000
0	 9.666656597019093e+000	 2.733360000014534e+000	 9.894792342637560e+000
0	 9.666656597019090e+000	 2.800020000011600e+000	 9.898206234727041e+000
0	 9.666656597019093e+000	 2.866680000008067e+000	 9.901597091060669e+000
0	 9.666656597019092e+000	 2.933340000004133e+000	 9.904965552662356e+000
0	 9.666656597019093e+000	 3.000000000000000e+000	 9.908312260555984e+000
0	 9.666656597019095e+000	 3.066659999995866e+000	 9.911637855765466e+000
0	 9.666656597019093e+000	 3.133319999991933e+000	 9.914942979314704e+000
0	 9.666656597019092e+000	 3.199979999988400e+000	 9.918228272227596e+000
0	 9.666656597019093e+000	 3.266639999985468e+000	 9.921494375528036e+000
0	 9.666656597019092e+000	 3.333299999983333e+000	 9.924741930239923e+000
0	 9.733326577638575e+000	 2.666700000016667e+000	 9.885440498628904e+000
0	 9.733326577638575e+000	 2.733360000014533e+000	 9.889042162582403e+000
0	 9.733326577638575e+000	 2.800020000011600e+000	 9.892617730140019e+000
0	 9.733326577638572e+000	 2.866680000008066e+000	 9.896167933981765e+000
0	 9.733326577638575e+000	 2.933340000004133e+000	 9.899693506787672e+000
0	 9.733326577638577e+000	 3.000000000000000e+000	 9.903195181237793e+000
0	 9.733326577638575e+000	 3.066659999995866e+000	 9.906673690012143e+000
0	 9.733326577638572e+000	 3.133319999991933e+000	 9.910129765790781e+000
0	 9.733326577638575e+000	 3.199979999988400e+000	 9.913564141253742e+000
0	 9.733326577638573e+000	 3.266639999985468e+000	 9.916977549081055e+000
0	 9.733326577638575e+000	 3.333299999983335e+000	 9.920370721952763e+000
0	 9.799996024918523e+000	 2.666700000016667e+000	 9.879527959471085e+000
0	 9.799996024918521e+000	 2.733360000014533e+000	 9.883300900025152e+000
0	 9.799996024918521e+000	 2.800020000011599e+000	 9.887045350458607e+000
0	 9.799996024918521e+000	 2.866680000008066e+000	 9.890762195396732e+000
0	 9.799996024918523e+000	 2.933340000004133e+000	 9.894452319464810e+000
0	 9.799996024918519e+000	 3.000000000000000e+000	 9.898116607288131e+000
0	 9.799996024918523e+000	 3.066659999995867e+000	 9.901755943491985e+000
0	 9.799996024918521e+000	 3.133319999991933e+000	 9.905371212701626e+000
0	 9.799996024918524e+000	 3.199979999988401e+000	 9.908963299542378e+000
0	 9.799996024918521e+000	 3.266639999985468e+000	 9.912533088639536e+000
0	 9.799996024918523e+000	 3.333299999983334e+000	 9.916081464618340e+000
0	 9.866664822186820e+000	 2.666700000016666e+000	 9.873617888050662e+000
0	 9.866664822186820e+000	 2.733360000014533e+000	 9.877568915471777e+000
0	 9.866664822186818e+000	 2.800020000011599e+000	 9.881489286781143e+000
0	 9.866664822186820e+000	 2.866680000008067e+000	 9.885380098840855e+000
0	 9.866664822186820e+000	 2.933340000004133e+000	 9.889242448512922e+000
0	 9.866664822186818e+000	 2.999999999999999e+000	 9.893077432659368e+000
0	 9.866664822186820e+000	 3.066659999995868e+000	 9.896886148142295e+000
0	 9.866664822186822e+000	 3.133319999991933e+000	 9.900669691823728e+000
0	 9.866664822186820e+000	 3.199979999988400e+000	 9.904429160565705e+000
0	 9.866664822186818e+000	 3.266639999985467e+000	 9.908165651230283e+000
0	 9.866664822186818e+000	 3.333299999983333e+000	 9.911880260679494e+000
0	 9.933332852771352e+000	 2.666700000016666e+000	 9.867711016182147e+000
0	 9.933332852771352e+000	 2.733360000014533e+000	 9.871846569441651e+000
0	 9.933332852771349e+000	 2.800020000011600e+000	 9.875949730172467e+000
0	 9.933332852771352e+000	 2.866680000008067e+000	 9.880021867767939e+000
0	 9.933332852771352e+000	 2.933340000004133e+000	 9.884064351621408e+000
0	 9.933332852771349e+000	 2.999999999999999e+000	 9.888078551126267e+000
0	 9.933332852771351e+000	 3.066659999995866e+000	 9.892065835675826e+000
0	 9.933332852771351e+000	 3.133319999991934e+000	 9.896027574663517e+000
0	 9.933332852771352e+000	 3.199979999988400e+000	 9.899965137482605e+000
0	 9.933332852771351e+000	 3.266639999985467e+000	 9.903879893526476e+000
0	 9.933332852771351e+000	 3.333299999983334e+000	 9.907773212188541e+000
0	 1.000000000000000e+001	 2.666700000016666e+000	 9.861808075738999e+000
0	 1.000000000000000e+001	 2.733360000014533e+000	 9.866134222467780e+000
0	 1.000000000000000e+001	 2.800020000011600e+000	 9.870426871664010e+000
0	 1.000000000000000e+001	 2.866680000008067e+000	 9.874687725550514e+000
0	 1.000000000000000e+001	 2.933340000004133e+000	 9.878918486350266e+000
0	 1.000000000000000e+001	 3.000000000000000e+000	 9.883120856286073e+000
0	 1.000000000000000e+001	 3.066659999995867e+000	 9.887296537580840e+000
0	 9.999999999999998e+000	 3.133319999991933e+000	 9.891447232457470e+000
0	 1.000000000000000e+001	 3.199979999988401e+000	 9.895574643138842e+000
0	 1.000000000000000e+001	 3.266639999985467e+000	 9.899680471847828e+000
0	 1.000000000000000e+001	 3.333299999983334e+000	 9.903766420807331e+000
0	 9.333302777352785e+000	 3.333299999983334e+000	 9.947613623121407e+000
0	 9.333302777352781e+000	 3.399969999982149e+000	 9.950196794537838e+000
0	 9.333302777352785e+000	 3.466639999981867e+000	 9.952729334905033e+000
0	 9.333302777352783e+000	 3.533309999982383e+000	 9.955211644303818e+000
0	 9.333302777352785e+000	 3.599979999983600e+000	 9.957644122814950e+000
0	 9.333302777352783e+000	 3.666649999985417e+000	 9.960027170519263e+000
0	 9.333302777352783e+000	 3.733319999987733e+000	 9.962361187497509e+000
0	 9.333302777352783e+000	 3.799989999990450e+000	 9.964646573830533e+000
0	 9.333302777352783e+000	 3.866659999993466e+000	 9.966883729599083e+000
0	 9.333302777352783e+000	 3.933329999996683e+000	 9.969073054883976e+000
0	 9.333302777352785e+000	 4.000000000000000e+000	 9.971214949766011e+000
0	 9.399973674588178e+000	 3.333299999983334e+000	 9.942924210386707e+000
0	 9.399973674588177e+000	 3.399969999982150e+000	 9.945625056229238e+000
0	 9.399973674588177e+000	 3.466639999981866e+000	 9.948273302331693e+000
0	 9.399973674588178e+000	 3.533309999982383e+000	 9.950869544589788e+000
0	 9.399973674588175e+000	 3.599979999983600e+000	 9.953414378899225e+000
0	 9.399973674588175e+000	 3.666649999985416e+000	 9.955908401155714e+000
0	 9.399973674588175e+000	 3.733319999987732e+000	 9.958352207254972e+000
0	 9.399973674588178e+000	 3.799989999990450e+000	 9.960746393092689e+000
0	 9.399973674588177e+000	 3.866659999993467e+000	 9.963091554564581e+000
0	 9.399973674588177e+000	 3.933329999996684e+000	 9.965388287566352e+000
0	 9.399973674588175e+000	 4.000000000000000e+000	 9.967637187993717e+000
0	 9.466644621844619e+000	 3.333299999983334e+000	 9.938286230530036e+000
0	 9.466644621844623e+000	 3.399969999982150e+000	 9.941107160529738e+000
0	 9.466644621844619e+000	 3.466639999981867e+000	 9.943874055743732e+000
0	 9.466644621844623e+000	 3.533309999982383e+000	 9.946587660766234e+000
0	 9.466644621844617e+000	 3.599979999983598e+000	 9.949248720191427e+000
0	 9.466644621844619e+000	 3.666649999985417e+000	 9.951857978613504e+000
0	 9.466644621844621e+000	 3.733319999987733e+000	 9.954416180626680e+000
0	 9.466644621844621e+000	 3.799989999990450e+000	 9.956924070825123e+000
0	 9.466644621844621e+000	 3.866659999993467e+000	 9.959382393803065e+000
0	 9.466644621844619e+000	 3.933329999996684e+000	 9.961791894154672e+000
0	 9.466644621844621e+000	 4.000000000000000e+000	 9.964153316474125e+000
0	 9.533315502450000e+000	 3.333299999983334e+000	 9.933705787948043e+000
0	 9.533315502449996e+000	 3.399969999982150e+000	 9.936650643460677e+000
0	 9.533315502449998e+000	 3.466639999981866e+000	 9.939540332528601e+000
0	 9.533315502450003e+000	 3.533309999982384e+000	 9.942375701328846e+000
0	 9.533315502450002e+000	 3.599979999983600e+000	 9.945157596038408e+000
0	 9.533315502450000e+000	 3.666649999985416e+000	 9.947886862834325e+000
0	 9.533315502450000e+000	 3.733319999987733e+000	 9.950564347893620e+000
0	 9.533315502449996e+000	 3.799989999990449e+000	 9.953190897393307e+000
0	 9.533315502449998e+000	 3.866659999993467e+000	 9.955767357510421e+000
0	 9.533315502449998e+000	 3.933329999996684e+000	 9.958294574421959e+000
0	 9.533315502450000e+000	 4.000000000000001e+000	 9.960773394304974e+000
0	 9.599986199732197e+000	 3.333299999983334e+000	 9.929188986646384e+000
0	 9.599986199732195e+000	 3.399969999982149e+000	 9.932263040619496e+000
0	 9.599986199732195e+000	 3.466639999981866e+000	 9.935280869620463e+000
0	 9.599986199732198e+000	 3.533309999982384e+000	 9.938243374293760e+000
0	 9.599986199732193e+000	 3.599979999983599e+000	 9.941151455283846e+000
0	 9.599986199732195e+000	 3.666649999985415e+000	 9.944006013235150e+000
0	 9.599986199732195e+000	 3.733319999987732e+000	 9.946807948792156e+000
0	 9.599986199732197e+000	 3.799989999990450e+000	 9.949558162599285e+000
0	 9.599986199732197e+000	 3.866659999993467e+000	 9.952257555301028e+000
0	 9.599986199732197e+000	 3.933329999996684e+000	 9.954907027541811e+000
0	 9.599986199732198e+000	 4.000000000000001e+000	 9.957507479966111e+000
0	 9.666656597019092e+000	 3.333299999983333e+000	 9.924741930239923e+000
0	 9.666656597019092e+000	 3.399969999982151e+000	 9.927951887179777e+000
0	 9.666656597019093e+000	 3.466639999981867e+000	 9.931104403500276e+000
0	 9.666656597019092e+000	 3.533309999982383e+000	 9.934200387197686e+000
0	 9.666656597019095e+000	 3.599979999983600e+000	 9.937240746268280e+000
0	 9.666656597019088e+000	 3.666649999985415e+000	 9.940226388708338e+000
0	 9.666656597019093e+000	 3.733319999987733e+000	 9.943158222514100e+000
0	 9.666656597019090e+000	 3.799989999990450e+000	 9.946037155681864e+000
0	 9.666656597019092e+000	 3.866659999993467e+000	 9.948864096207878e+000
0	 9.666656597019093e+000	 3.933329999996684e+000	 9.951639952088410e+000
0	 9.666656597019092e+000	 4.000000000000001e+000	 9.954365631319746e+000
0	 9.733326577638575e+000	 3.333299999983335e+000	 9.920370721952763e+000
0	 9.733326577638575e+000	 3.399969999982150e+000	 9.923724717891389e+000
0	 9.733326577638575e+000	 3.466639999981867e+000	 9.927019670195849e+000
0	 9.733326577638575e+000	 3.533309999982383e+000	 9.930256447097877e+000
0	 9.733326577638573e+000	 3.599979999983600e+000	 9.933435916829231e+000
0	 9.733326577638573e+000	 3.666649999985416e+000	 9.936558947621622e+000
0	 9.733326577638573e+000	 3.733319999987732e+000	 9.939626407706841e+000
0	 9.733326577638573e+000	 3.799989999990450e+000	 9.942639165316582e+000
0	 9.733326577638575e+000	 3.866659999993467e+000	 9.945598088682607e+000
0	 9.733326577638573e+000	 3.933329999996684e+000	 9.948504046036641e+000
0	 9.733326577638573e+000	 4.000000000000000e+000	 9.951357905610422e+000
0	 9.799996024918523e+000	 3.333299999983334e+000	 9.916081464618342e+000
0	 9.799996024918521e+000	 3.399969999982150e+000	 9.919589067080540e+000
0	 9.799996024918519e+000	 3.466639999981865e+000	 9.923035405281988e+000
0	 9.799996024918519e+000	 3.533309999982382e+000	 9.926421260572321e+000
0	 9.799996024918523e+000	 3.599979999983601e+000	 9.929747414301227e+000
0	 9.799996024918521e+000	 3.666649999985417e+000	 9.933014647818355e+000
0	 9.799996024918524e+000	 3.733319999987733e+000	 9.936223742473363e+000
0	 9.799996024918523e+000	 3.799989999990450e+000	 9.939375479615869e+000
0	 9.799996024918523e+000	 3.866659999993467e+000	 9.942470640595568e+000
0	 9.799996024918523e+000	 3.933329999996684e+000	 9.945510006762120e+000
0	 9.799996024918521e+000	 4.000000000000000e+000	 9.948494359465151e+000
0	 9.866664822186818e+000	 3.333299999983333e+000	 9.911880260679494e+000
0	 9.866664822186820e+000	 3.399969999982150e+000	 9.915552468649844e+000
0	 9.866664822186818e+000	 3.466639999981866e+000	 9.919160343880515e+000
0	 9.866664822186822e+000	 3.533309999982383e+000	 9.922704533719763e+000
0	 9.866664822186820e+000	 3.599979999983600e+000	 9.926185685515943e+000
0	 9.866664822186822e+000	 3.666649999985416e+000	 9.929604446617349e+000
0	 9.866664822186820e+000	 3.733319999987733e+000	 9.932961464372278e+000
0	 9.866664822186818e+000	 3.799989999990450e+000	 9.936257386129030e+000
0	 9.866664822186820e+000	 3.866659999993466e+000	 9.939492859235916e+000
0	 9.866664822186818e+000	 3.933329999996683e+000	 9.942668531041258e+000
0	 9.866664822186820e+000	 4.000000000000001e+000	 9.945785048893312e+000
0	 9.933332852771351e+000	 3.333299999983334e+000	 9.907773212188545e+000
0	 9.933332852771354e+000	 3.399969999982150e+000	 9.911622456078399e+000
0	 9.933332852771351e+000	 3.466639999981867e+000	 9.915403220660268e+000
0	 9.933332852771352e+000	 3.533309999982383e+000	 9.919115972159675e+000
0	 9.933332852771352e+000	 3.599979999983600e+000	 9.922761176802121e+000
0	 9.933332852771352e+000	 3.666649999985416e+000	 9.926339300813035e+000
0	 9.933332852771349e+000	 3.733319999987733e+000	 9.929850810417932e+000
0	 9.933332852771351e+000	 3.799989999990450e+000	 9.933296171842306e+000
0	 9.933332852771351e+000	 3.866659999993466e+000	 9.936675851311577e+000
0	 9.933332852771351e+000	 3.933329999996684e+000	 9.939990315051245e+000
0	 9.933332852771351e+000	 4.000000000000000e+000	 9.943240029286802e+000
0	 1.000000000000000e+001	 3.333299999983334e+000	 9.903766420807331e+000
0	 1.000000000000000e+001	 3.399969999982150e+000	 9.907806562421740e+000
0	 1.000000000000000e+001	 3.466639999981866e+000	 9.911772769837270e+000
0	 1.000000000000000e+001	 3.533309999982383e+000	 9.915665281032441e+000
0	 1.000000000000000e+001	 3.599979999983600e+000	 9.919484333985682e+000
0	 1.000000000000000e+001	 3.666649999985416e+000	 9.923230166675511e+000
0	 1.000000000000000e+001	 3.733319999987733e+000	 9.926903017080376e+000
0	 1.000000000000000e+001	 3.799989999990449e+000	 9.930503123178776e+000
0	 1.000000000000000e+001	 3.866659999993467e+000	 9.934030722949188e+000
0	 1.000000000000000e+001	 3.933329999996684e+000	 9.937486054370091e+000
0	 1.000000000000000e+001	 4.000000000000000e+000	 9.940869355419988e+000
0	 9.333302777352785e+000	 4.000000000000000e+000	 9.971214949766011e+000
0	 9.333302777352783e+000	 4.066670000003317e+000	 9.973304137225407e+000
0	 9.333302777352783e+000	 4.133340000006534e+000	 9.975335249886809e+000
0	 9.333302777352783e+000	 4.200010000009550e+000	 9.977308552297608e+000
0	 9.333302777352779e+000	 4.266680000012268e+000	 9.979224309005186e+000
0	 9.333302777352783e+000	 4.333350000014584e+000	 9.981082784556937e+000
0	 9.333302777352783e+000	 4.400020000016402e+000	 9.982884243500253e+000
0	 9.333302777352783e+000	 4.466690000017617e+000	 9.984628950382522e+000
0	 9.333302777352785e+000	 4.533360000018134e+000	 9.986317169751130e+000
0	 9.333302777352783e+000	 4.600030000017850e+000	 9.987949166153483e+000
0	 9.333302777352785e+000	 4.666700000016667e+000	 9.989525204136934e+000
0	 9.399973674588175e+000	 4.000000000000000e+000	 9.967637187993717e+000
0	 9.399973674588178e+000	 4.066670000003318e+000	 9.969832437644717e+000
0	 9.399973674588177e+000	 4.133340000006535e+000	 9.971967903459538e+000
0	 9.399973674588177e+000	 4.200010000009550e+000	 9.974043709047043e+000
0	 9.399973674588177e+000	 4.266680000012267e+000	 9.976059978016078e+000
0	 9.399973674588175e+000	 4.333350000014584e+000	 9.978016833975502e+000
0	 9.399973674588175e+000	 4.400020000016400e+000	 9.979914400534169e+000
0	 9.399973674588177e+000	 4.466690000017619e+000	 9.981752801300956e+000
0	 9.399973674588178e+000	 4.533360000018135e+000	 9.983532159884692e+000
0	 9.399973674588177e+000	 4.600030000017850e+000	 9.985252599894251e+000
0	 9.399973674588175e+000	 4.666700000016666e+000	 9.986914244938475e+000
0	 9.466644621844621e+000	 4.000000000000000e+000	 9.964153316474125e+000
0	 9.466644621844621e+000	 4.066670000003317e+000	 9.966459752404935e+000
0	 9.466644621844621e+000	 4.133340000006535e+000	 9.968703813813104e+000
0	 9.466644621844621e+000	 4.200010000009550e+000	 9.970885525626626e+000
0	 9.466644621844621e+000	 4.266680000012267e+000	 9.973004912773561e+000
0	 9.466644621844619e+000	 4.333350000014583e+000	 9.975062000181909e+000
0	 9.466644621844621e+000	 4.400020000016401e+000	 9.977056812779711e+000
0	 9.466644621844623e+000	 4.466690000017619e+000	 9.978989375494942e+000
0	 9.466644621844619e+000	 4.533360000018133e+000	 9.980859713255645e+000
0	 9.466644621844623e+000	 4.600030000017850e+000	 9.982667850989868e+000
0	 9.466644621844619e+000	 4.666700000016665e+000	 9.984413813625572e+000
0	 9.533315502450000e+000	 4.000000000000001e+000	 9.960773394304976e+000
0	 9.533315502450000e+000	 4.066670000003318e+000	 9.963195463383824e+000
0	 9.533315502450002e+000	 4.133340000006534e+000	 9.965551842767777e+000
0	 9.533315502449998e+000	 4.200010000009551e+000	 9.967842500961234e+000
0	 9.533315502449998e+000	 4.266680000012266e+000	 9.970067406468569e+000
0	 9.533315502449996e+000	 4.333350000014584e+000	 9.972226527794147e+000
0	 9.533315502450000e+000	 4.400020000016401e+000	 9.974319833442351e+000
0	 9.533315502450000e+000	 4.466690000017619e+000	 9.976347291917545e+000
0	 9.533315502450000e+000	 4.533360000018133e+000	 9.978308871724098e+000
0	 9.533315502449996e+000	 4.600030000017851e+000	 9.980204541366406e+000
0	 9.533315502450000e+000	 4.666700000016667e+000	 9.982034269348812e+000
0	 9.599986199732198e+000	 4.000000000000001e+000	 9.957507479966111e+000
0	 9.599986199732198e+000	 4.066670000003319e+000	 9.960048951822289e+000
0	 9.599986199732193e+000	 4.133340000006534e+000	 9.962520851487684e+000
0	 9.599986199732198e+000	 4.200010000009551e+000	 9.964923133300149e+000
0	 9.599986199732197e+000	 4.266680000012268e+000	 9.967255751597561e+000
0	 9.599986199732197e+000	 4.333350000014584e+000	 9.969518660717775e+000
0	 9.599986199732197e+000	 4.400020000016402e+000	 9.971711814998663e+000
0	 9.599986199732197e+000	 4.466690000017617e+000	 9.973835168778059e+000
0	 9.599986199732198e+000	 4.533360000018133e+000	 9.975888676393877e+000
0	 9.599986199732197e+000	 4.600030000017851e+000	 9.977872292183932e+000
0	 9.599986199732193e+000	 4.666700000016665e+000	 9.979785970486097e+000
0	 9.666656597019092e+000	 4.000000000000001e+000	 9.954365631319746e+000
0	 9.666656597019095e+000	 4.066670000003319e+000	 9.957029598324596e+000
0	 9.666656597019092e+000	 4.133340000006534e+000	 9.959619700480779e+000
0	 9.666656597019092e+000	 4.200010000009552e+000	 9.962135920217193e+000
0	 9.666656597019093e+000	 4.266680000012268e+000	 9.964578239962654e+000
0	 9.666656597019090e+000	 4.333350000014583e+000	 9.966946642146079e+000
0	 9.666656597019093e+000	 4.400020000016402e+000	 9.969241109196315e+000
0	 9.666656597019090e+000	 4.466690000017617e+000	 9.971461623542229e+000
0	 9.666656597019092e+000	 4.533360000018133e+000	 9.973608167612719e+000
0	 9.666656597019092e+000	 4.600030000017851e+000	 9.975680723836600e+000
0	 9.666656597019092e+000	 4.666700000016665e+000	 9.977679274642775e+000
0	 9.733326577638573e+000	 4.000000000000000e+000	 9.951357905610426e+000
0	 9.733326577638577e+000	 4.066670000003318e+000	 9.954146782858322e+000
0	 9.733326577638575e+000	 4.133340000006535e+000	 9.956857249599004e+000
0	 9.733326577638575e+000	 4.200010000009550e+000	 9.959489358610702e+000
0	 9.733326577638575e+000	 4.266680000012268e+000	 9.962043162671627e+000
0	 9.733326577638573e+000	 4.333350000014585e+000	 9.964518714560002e+000
0	 9.733326577638573e+000	 4.400020000016402e+000	 9.966916067054097e+000
0	 9.733326577638575e+000	 4.466690000017617e+000	 9.969235272932073e+000
0	 9.733326577638573e+000	 4.533360000018134e+000	 9.971476384972178e+000
0	 9.733326577638577e+000	 4.600030000017851e+000	 9.973639455952636e+000
0	 9.733326577638575e+000	 4.666700000016666e+000	 9.975724538651679e+000
0	 9.799996024918521e+000	 4.000000000000000e+000	 9.948494359465151e+000
0	 9.799996024918523e+000	 4.066670000003319e+000	 9.951409884754460e+000
0	 9.799996024918523e+000	 4.133340000006534e+000	 9.954242358038254e+000
0	 9.799996024918523e+000	 4.200010000009551e+000	 9.956991944703701e+000
0	 9.799996024918521e+000	 4.266680000012268e+000	 9.959658810138000e+000
0	 9.799996024918521e+000	 4.333350000014583e+000	 9.962243119728369e+000
0	 9.799996024918523e+000	 4.400020000016402e+000	 9.964745038861999e+000
0	 9.799996024918523e+000	 4.466690000017618e+000	 9.967164732926095e+000
0	 9.799996024918523e+000	 4.533360000018134e+000	 9.969502367307850e+000
0	 9.799996024918523e+000	 4.600030000017851e+000	 9.971758107394441e+000
0	 9.799996024918523e+000	 4.666700000016666e+000	 9.973932118573091e+000
0	 9.866664822186820e+000	 4.000000000000001e+000	 9.945785048893312e+000
0	 9.866664822186820e+000	 4.066670000003317e+000	 9.948828282707442e+000
0	 9.866664822186820e+000	 4.133340000006534e+000	 9.951783884338422e+000
0	 9.866664822186818e+000	 4.200010000009550e+000	 9.954652174043789e+000
0	 9.866664822186822e+000	 4.266680000012268e+000	 9.957433472081045e+000
0	 9.866664822186818e+000	 4.333350000014583e+000	 9.960128098707699e+000
0	 9.866664822186818e+000	 4.400020000016401e+000	 9.962736374181240e+000
0	 9.866664822186820e+000	 4.466690000017617e+000	 9.965258618759243e+000
0	 9.866664822186820e+000	 4.533360000018134e+000	 9.967695152699154e+000
0	 9.866664822186818e+000	 4.600030000017850e+000	 9.970046296258509e+000
0	 9.866664822186822e+000	 4.666700000016667e+000	 9.972312369694796e+000
0	 9.933332852771351e+000	 4.000000000000000e+000	 9.943240029286802e+000
0	 9.933332852771352e+000	 4.066670000003317e+000	 9.946411354775094e+000
0	 9.933332852771352e+000	 4.133340000006534e+000	 9.949490686383436e+000
0	 9.933332852771349e+000	 4.200010000009551e+000	 9.952478541503240e+000
0	 9.933332852771349e+000	 4.266680000012266e+000	 9.955375437525735e+000
0	 9.933332852771351e+000	 4.333350000014583e+000	 9.958181891842305e+000
0	 9.933332852771351e+000	 4.400020000016402e+000	 9.960898421844247e+000
0	 9.933332852771351e+000	 4.466690000017617e+000	 9.963525544922861e+000
0	 9.933332852771351e+000	 4.533360000018134e+000	 9.966063778469508e+000
0	 9.933332852771351e+000	 4.600030000017850e+000	 9.968513639875466e+000
0	 9.933332852771351e+000	 4.666700000016666e+000	 9.970875646532075e+000
0	 1.000000000000000e+001	 4.000000000000000e+000	 9.940869355419988e+000
0	 1.000000000000000e+001	 4.066670000003317e+000	 9.944168478378712e+000
0	 1.000000000000000e+001	 4.133340000006535e+000	 9.947371621401269e+000
0	 9.999999999999998e+000	 4.200010000009550e+000	 9.950479541278895e+000
0	 1.000000000000000e+001	 4.266680000012268e+000	 9.953492994802829e+000
0	 1.000000000000000e+001	 4.333350000014584e+000	 9.956412738764300e+000
0	 1.000000000000000e+001	 4.400020000016401e+000	 9.959239529954544e+000
0	 1.000000000000000e+001	 4.466690000017617e+000	 9.961974125164739e+000
0	 1.000000000000000e+001	 4.533360000018134e+000	 9.964617281186188e+000
0	 9.999999999999998e+000	 4.600030000017850e+000	 9.967169754810026e+000
0	 1.000000000000000e+001	 4.666700000016666e+000	 9.969632302827595e+000
0	 9.333302777352785e+000	 4.666700000016667e+000	 9.989525204136934e+000
0	 9.333302777352783e+000	 4.733360000014533e+000	 9.991040824844587e+000
0	 9.333302777352783e+000	 4.800020000011600e+000	 9.992491703167962e+000
0	 9.333302777352781e+000	 4.866680000008067e+000	 9.993877607645899e+000
0	 9.333302777352781e+000	 4.933340000004134e+000	 9.995198306817157e+000
0	 9.333302777352783e+000	 5.000000000000000e+000	 9.996453569220536e+000
0	 9.333302777352785e+000	 5.066659999995867e+000	 9.997643163394860e+000
0	 9.333302777352783e+000	 5.133319999991935e+000	 9.998766857878918e+000
0	 9.333302777352783e+000	 5.199979999988400e+000	 9.999824421211503e+000
0	 9.333302777352781e+000	 5.266639999985467e+000	 1.000081562193144e+001
0	 9.333302777352785e+000	 5.333299999983335e+000	 1.000174022857752e+001
0	 9.399973674588175e+000	 4.666700000016666e+000	 9.986914244938477e+000
0	 9.399973674588171e+000	 4.733360000014533e+000	 9.988512529170029e+000
0	 9.399973674588175e+000	 4.800020000011601e+000	 9.990043238817647e+000
0	 9.399973674588180e+000	 4.866680000008066e+000	 9.991506291111119e+000
0	 9.399973674588180e+000	 4.933340000004133e+000	 9.992901603280210e+000
0	 9.399973674588180e+000	 5.000000000000001e+000	 9.994229092554715e+000
0	 9.399973674588178e+000	 5.066659999995868e+000	 9.995488676164406e+000
0	 9.399973674588178e+000	 5.133319999991933e+000	 9.996680271339068e+000
0	 9.399973674588175e+000	 5.199979999988400e+000	 9.997803795308506e+000
0	 9.399973674588177e+000	 5.266639999985467e+000	 9.998859165302495e+000
0	 9.399973674588177e+000	 5.333299999983334e+000	 9.999846298550814e+000
0	 9.466644621844619e+000	 4.666700000016665e+000	 9.984413813625572e+000
0	 9.466644621844619e+000	 4.733360000014534e+000	 9.986093403796224e+000
0	 9.466644621844617e+000	 4.800020000011598e+000	 9.987702939408422e+000
0	 9.466644621844619e+000	 4.866680000008067e+000	 9.989242446641130e+000
0	 9.466644621844619e+000	 4.933340000004132e+000	 9.990711951673230e+000
0	 9.466644621844621e+000	 5.000000000000000e+000	 9.992111480683693e+000
0	 9.466644621844621e+000	 5.066659999995867e+000	 9.993441059851413e+000
0	 9.466644621844621e+000	 5.133319999991936e+000	 9.994700715355355e+000
0	 9.466644621844619e+000	 5.199979999988400e+000	 9.995890473374409e+000
0	 9.466644621844619e+000	 5.266639999985467e+000	 9.997010360087527e+000
0	 9.466644621844617e+000	 5.333299999983333e+000	 9.998060401673650e+000
0	 9.533315502450000e+000	 4.666700000016667e+000	 9.982034269348812e+000
0	 9.533315502449998e+000	 4.733360000014534e+000	 9.983794542359666e+000
0	 9.533315502450000e+000	 4.800020000011601e+000	 9.985482470672594e+000
0	 9.533315502450000e+000	 4.866680000008066e+000	 9.987098149674401e+000
0	 9.533315502449998e+000	 4.933340000004134e+000	 9.988641674751879e+000
0	 9.533315502449998e+000	 5.000000000000000e+000	 9.990113141291804e+000
0	 9.533315502449996e+000	 5.066659999995867e+000	 9.991512644680984e+000
0	 9.533315502450003e+000	 5.133319999991934e+000	 9.992840280306204e+000
0	 9.533315502450000e+000	 5.199979999988401e+000	 9.994096143554247e+000
0	 9.533315502450002e+000	 5.266639999985467e+000	 9.995280329811926e+000
0	 9.533315502450000e+000	 5.333299999983334e+000	 9.996392934466039e+000
0	 9.599986199732193e+000	 4.666700000016665e+000	 9.979785970486097e+000
0	 9.599986199732197e+000	 4.733360000014533e+000	 9.981627037721022e+000
0	 9.599986199732197e+000	 4.800020000011600e+000	 9.983393497566599e+000
0	 9.599986199732197e+000	 4.866680000008067e+000	 9.985085474876344e+000
0	 9.599986199732195e+000	 4.933340000004134e+000	 9.986703094503756e+000
0	 9.599986199732195e+000	 5.000000000000000e+000	 9.988246481302351e+000
0	 9.599986199732193e+000	 5.066659999995867e+000	 9.989715760125664e+000
0	 9.599986199732195e+000	 5.133319999991934e+000	 9.991111055827172e+000
0	 9.599986199732195e+000	 5.199979999988400e+000	 9.992432493260438e+000
0	 9.599986199732197e+000	 5.266639999985468e+000	 9.993680197278936e+000
0	 9.599986199732197e+000	 5.333299999983335e+000	 9.994854292736209e+000
0	 9.666656597019092e+000	 4.666700000016665e+000	 9.977679274642776e+000
0	 9.666656597019093e+000	 4.733360000014534e+000	 9.979601981965216e+000
0	 9.666656597019092e+000	 4.800020000011599e+000	 9.981447684271110e+000
0	 9.666656597019092e+000	 4.866680000008065e+000	 9.983216496139278e+000
0	 9.666656597019093e+000	 4.933340000004134e+000	 9.984908532148529e+000
0	 9.666656597019095e+000	 5.000000000000001e+000	 9.986523906877689e+000
0	 9.666656597019095e+000	 5.066659999995866e+000	 9.988062734905549e+000
0	 9.666656597019093e+000	 5.133319999991934e+000	 9.989525130810964e+000
0	 9.666656597019092e+000	 5.199979999988400e+000	 9.990911209172751e+000
0	 9.666656597019093e+000	 5.266639999985467e+000	 9.992221084569730e+000
0	 9.666656597019092e+000	 5.333299999983335e+000	 9.993454871580708e+000
0	 9.733326577638575e+000	 4.666700000016666e+000	 9.975724538651679e+000
0	 9.733326577638575e+000	 4.733360000014533e+000	 9.977730466401431e+000
0	 9.733326577638573e+000	 4.800020000011599e+000	 9.979656694191037e+000
0	 9.733326577638573e+000	 4.866680000008066e+000	 9.981503286582544e+000
0	 9.733326577638575e+000	 4.933340000004135e+000	 9.983270308137938e+000
0	 9.733326577638573e+000	 5.000000000000000e+000	 9.984957823419205e+000
0	 9.733326577638575e+000	 5.066659999995866e+000	 9.986565896988367e+000
0	 9.733326577638572e+000	 5.133319999991933e+000	 9.988094593407459e+000
0	 9.733326577638575e+000	 5.199979999988400e+000	 9.989543977238474e+000
0	 9.733326577638575e+000	 5.266639999985469e+000	 9.990914113043427e+000
0	 9.733326577638575e+000	 5.333299999983334e+000	 9.992205065384347e+000
0	 9.799996024918523e+000	 4.666700000016666e+000	 9.973932118573091e+000
0	 9.799996024918519e+000	 4.733360000014532e+000	 9.976023581563119e+000
0	 9.799996024918521e+000	 4.800020000011600e+000	 9.978032189955583e+000
0	 9.799996024918523e+000	 4.866680000008067e+000	 9.979957918552463e+000
0	 9.799996024918521e+000	 4.933340000004134e+000	 9.981800742155750e+000
0	 9.799996024918521e+000	 5.000000000000000e+000	 9.983560635567399e+000
0	 9.799996024918523e+000	 5.066659999995867e+000	 9.985237573589382e+000
0	 9.799996024918523e+000	 5.133319999991935e+000	 9.986831531023682e+000
0	 9.799996024918523e+000	 5.199979999988400e+000	 9.988342482672270e+000
0	 9.799996024918523e+000	 5.266639999985467e+000	 9.989770403337147e+000
0	 9.799996024918523e+000	 5.333299999983334e+000	 9.991115267820286e+000
0	 9.866664822186822e+000	 4.666700000016667e+000	 9.972312369694796e+000
0	 9.866664822186822e+000	 4.733360000014533e+000	 9.974492417208031e+000
0	 9.866664822186822e+000	 4.800020000011601e+000	 9.976585833418172e+000
0	 9.866664822186820e+000	 4.866680000008067e+000	 9.978592463622389e+000
0	 9.866664822186818e+000	 4.933340000004133e+000	 9.980512153117909e+000
0	 9.866664822186820e+000	 4.999999999999999e+000	 9.982344747201831e+000
0	 9.866664822186820e+000	 5.066659999995866e+000	 9.984090091171423e+000
0	 9.866664822186820e+000	 5.133319999991935e+000	 9.985748030323837e+000
0	 9.866664822186822e+000	 5.199979999988400e+000	 9.987318409956282e+000
0	 9.866664822186822e+000	 5.266639999985468e+000	 9.988801075365940e+000
0	 9.866664822186820e+000	 5.333299999983334e+000	 9.990195871849997e+000
0	 9.933332852771351e+000	 4.666700000016666e+000	 9.970875646532075e+000
0	 9.933332852771351e+000	 4.733360000014533e+000	 9.973148062318227e+000
0	 9.933332852771349e+000	 4.800020000011599e+000	 9.975329285656503e+000
0	 9.933332852771352e+000	 4.866680000008067e+000	 9.977418992592654e+000
0	 9.933332852771351e+000	 4.933340000004133e+000	 9.979416859172307e+000
0	 9.933332852771351e+000	 5.000000000000000e+000	 9.981322561441161e+000
0	 9.933332852771351e+000	 5.066659999995868e+000	 9.983135775444966e+000
0	 9.933332852771352e+000	 5.133319999991934e+000	 9.984856177229354e+000
0	 9.933332852771351e+000	 5.199979999988401e+000	 9.986483442840079e+000
0	 9.933332852771351e+000	 5.266639999985467e+000	 9.988017248322791e+000
0	 9.933332852771351e+000	 5.333299999983335e+000	 9.989457269723259e+000
0	 1.000000000000000e+001	 4.666700000016666e+000	 9.969632302827595e+000
0	 1.000000000000000e+001	 4.733360000014534e+000	 9.972001605099951e+000
0	 1.000000000000000e+001	 4.800020000011600e+000	 9.974274206972538e+000
0	 1.000000000000000e+001	 4.866680000008066e+000	 9.976449575490502e+000
0	 1.000000000000000e+001	 4.933340000004134e+000	 9.978527177698918e+000
0	 1.000000000000000e+001	 5.000000000000000e+000	 9.980506480643035e+000
0	 1.000000000000000e+001	 5.066659999995866e+000	 9.982386951367896e+000
0	 9.999999999999998e+000	 5.133319999991934e+000	 9.984168056918682e+000
0	 1.000000000000000e+001	 5.199979999988400e+000	 9.985849264340544e+000
0	 1.000000000000000e+001	 5.266639999985467e+000	 9.987430040678612e+000
0	 1.000000000000000e+001	 5.333299999983334e+000	 9.988909852978058e+000
0	 9.333302777352785e+000	 5.333299999983335e+000	 1.000174022857752e+001
0	 9.333302777352783e+000	 5.399969999982150e+000	 1.000260562791162e+001
0	 9.333302777352785e+000	 5.466639999981866e+000	 1.000341886450160e+001
0	 9.333302777352781e+000	 5.533309999982382e+000	 1.000417959469003e+001
0	 9.333302777352783e+000	 5.599979999983600e+000	 1.000488747481947e+001
0	 9.333302777352781e+000	 5.666649999985415e+000	 1.000554216123251e+001
0	 9.333302777352783e+000	 5.733319999987732e+000	 1.000614331027167e+001
0	 9.333302777352783e+000	 5.799989999990450e+000	 1.000669057827955e+001
0	 9.333302777352781e+000	 5.866659999993467e+000	 1.000718362159868e+001
0	 9.333302777352783e+000	 5.933329999996682e+000	 1.000762209657165e+001
0	 9.333302777352785e+000	 6.000000000000001e+000	 1.000800565954101e+001
0	 9.399973674588177e+000	 5.333299999983334e+000	 9.999846298550814e+000
0	 9.399973674588177e+000	 5.399969999982148e+000	 1.000077254460628e+001
0	 9.399973674588177e+000	 5.466639999981865e+000	 1.000164473495738e+001
0	 9.399973674588175e+000	 5.533309999982382e+000	 1.000246243862457e+001
0	 9.399973674588175e+000	 5.599979999983599e+000	 1.000322522462838e+001
0	 9.399973674588175e+000	 5.666649999985416e+000	 1.000393266198927e+001
0	 9.399973674588175e+000	 5.733319999987733e+000	 1.000458431972772e+001
0	 9.399973674588177e+000	 5.799989999990449e+000	 1.000517976686423e+001
0	 9.399973674588175e+000	 5.866659999993465e+000	 1.000571857241928e+001
0	 9.399973674588177e+000	 5.933329999996684e+000	 1.000620030541333e+001
0	 9.399973674588177e+000	 6.000000000000002e+000	 1.000662453486688e+001
0	 9.466644621844617e+000	 5.333299999983333e+000	 9.998060401673648e+000
0	 9.466644621844621e+000	 5.399969999982151e+000	 9.999047614276716e+000
0	 9.466644621844619e+000	 5.466639999981867e+000	 9.999978362889490e+000
0	 9.466644621844621e+000	 5.533309999982384e+000	 1.000085215381732e+001
0	 9.466644621844619e+000	 5.599979999983598e+000	 1.000166849336553e+001
0	 9.466644621844623e+000	 5.666649999985418e+000	 1.000242688783949e+001
0	 9.466644621844619e+000	 5.733319999987733e+000	 1.000312684354451e+001
0	 9.466644621844621e+000	 5.799989999990449e+000	 1.000376786678594e+001
0	 9.466644621844619e+000	 5.866659999993467e+000	 1.000434946386911e+001
0	 9.466644621844617e+000	 5.933329999996683e+000	 1.000487114109936e+001
0	 9.466644621844619e+000	 5.999999999999998e+000	 1.000533240478203e+001
0	 9.533315502450000e+000	 5.333299999983334e+000	 9.996392934466039e+000
0	 9.533315502449996e+000	 5.399969999982149e+000	 9.997440472023264e+000
0	 9.533315502449998e+000	 5.466639999981865e+000	 9.998428715777679e+000
0	 9.533315502450003e+000	 5.533309999982383e+000	 9.999357133926070e+000
0	 9.533315502450000e+000	 5.599979999983599e+000	 1.000022519466525e+001
0	 9.533315502449998e+000	 5.666649999985416e+000	 1.000103236619202e+001
0	 9.533315502449998e+000	 5.733319999987733e+000	 1.000177811670319e+001
0	 9.533315502450002e+000	 5.799989999990449e+000	 1.000246191439557e+001
0	 9.533315502450002e+000	 5.866659999993469e+000	 1.000308322746594e+001
0	 9.533315502449998e+000	 5.933329999996682e+000	 1.000364152411113e+001
0	 9.533315502450000e+000	 6.000000000000000e+000	 1.000413627252796e+001
0	 9.599986199732197e+000	 5.333299999983335e+000	 9.994854292736207e+000
0	 9.599986199732195e+000	 5.399969999982151e+000	 9.995960752244448e+000
0	 9.599986199732197e+000	 5.466639999981865e+000	 9.997004760409382e+000
0	 9.599986199732197e+000	 5.533309999982383e+000	 9.997985771925876e+000
0	 9.599986199732193e+000	 5.599979999983598e+000	 9.998903241488721e+000
0	 9.599986199732195e+000	 5.666649999985415e+000	 9.999756623792770e+000
0	 9.599986199732195e+000	 5.733319999987731e+000	 1.000054537353284e+001
0	 9.599986199732198e+000	 5.799989999990449e+000	 1.000126894540375e+001
0	 9.599986199732195e+000	 5.866659999993466e+000	 1.000192679410031e+001
0	 9.599986199732195e+000	 5.933329999996682e+000	 1.000251837431737e+001
0	 9.599986199732197e+000	 5.999999999999998e+000	 1.000304314074972e+001
0	 9.666656597019092e+000	 5.333299999983335e+000	 9.993454871580704e+000
0	 9.666656597019093e+000	 5.399969999982152e+000	 9.994618088636875e+000
0	 9.666656597019095e+000	 5.466639999981866e+000	 9.995715462879781e+000
0	 9.666656597019093e+000	 5.533309999982384e+000	 9.996746460109002e+000
0	 9.666656597019095e+000	 5.599979999983598e+000	 9.997710546124146e+000
0	 9.666656597019090e+000	 5.666649999985415e+000	 9.998607186724764e+000
0	 9.666656597019093e+000	 5.733319999987732e+000	 9.999435847710483e+000
0	 9.666656597019092e+000	 5.799989999990450e+000	 1.000019599488089e+001
0	 9.666656597019095e+000	 5.866659999993467e+000	 1.000088709403556e+001
0	 9.666656597019093e+000	 5.933329999996684e+000	 1.000150861097410e+001
0	 9.666656597019092e+000	 6.000000000000001e+000	 1.000206001149608e+001
0	 9.733326577638575e+000	 5.333299999983334e+000	 9.992205065384344e+000
0	 9.733326577638577e+000	 5.399969999982150e+000	 9.993422114195429e+000
0	 9.733326577638575e+000	 5.466639999981868e+000	 9.994569788591797e+000
0	 9.733326577638575e+000	 5.533309999982384e+000	 9.995647590084985e+000
0	 9.733326577638572e+000	 5.599979999983598e+000	 9.996655020186559e+000
0	 9.733326577638573e+000	 5.666649999985416e+000	 9.997591580408068e+000
0	 9.733326577638575e+000	 5.733319999987732e+000	 9.998456772261109e+000
0	 9.733326577638572e+000	 5.799989999990449e+000	 9.999250097257201e+000
0	 9.733326577638573e+000	 5.866659999993466e+000	 9.999971056907929e+000
0	 9.733326577638573e+000	 5.933329999996683e+000	 1.000061915272484e+001
0	 9.733326577638575e+000	 6.000000000000001e+000	 1.000119388621950e+001
0	 9.799996024918523e+000	 5.333299999983334e+000	 9.991115267820282e+000
0	 9.799996024918523e+000	 5.399969999982150e+000	 9.992382461213193e+000
0	 9.799996024918519e+000	 5.466639999981864e+000	 9.993576702256149e+000
0	 9.799996024918521e+000	 5.533309999982383e+000	 9.994697552780634e+000
0	 9.799996024918523e+000	 5.599979999983600e+000	 9.995744574618080e+000
0	 9.799996024918521e+000	 5.666649999985416e+000	 9.996717329599953e+000
0	 9.799996024918521e+000	 5.733319999987734e+000	 9.997615379557644e+000
0	 9.799996024918523e+000	 5.799989999990450e+000	 9.998438286322683e+000
0	 9.799996024918523e+000	 5.866659999993468e+000	 9.999185611726476e+000
0	 9.799996024918521e+000	 5.933329999996682e+000	 9.999856917600445e+000
0	 9.799996024918521e+000	 6.000000000000000e+000	 1.000045176577607e+001
0	 9.866664822186820e+000	 5.333299999983334e+000	 9.990195871849997e+000
0	 9.866664822186820e+000	 5.399969999982150e+000	 9.991508761281384e+000
0	 9.866664822186822e+000	 5.466639999981866e+000	 9.992745167891318e+000
0	 9.866664822186820e+000	 5.533309999982383e+000	 9.993904738439994e+000
0	 9.866664822186820e+000	 5.599979999983600e+000	 9.994987119687737e+000
0	 9.866664822186822e+000	 5.666649999985417e+000	 9.995991958394656e+000
0	 9.866664822186820e+000	 5.733319999987732e+000	 9.996918901321054e+000
0	 9.866664822186820e+000	 5.799989999990449e+000	 9.997767595227124e+000
0	 9.866664822186820e+000	 5.866659999993466e+000	 9.998537686873098e+000
0	 9.866664822186822e+000	 5.933329999996684e+000	 9.999228823019138e+000
0	 9.866664822186820e+000	 5.999999999999998e+000	 9.999840650425528e+000
0	 9.933332852771351e+000	 5.333299999983335e+000	 9.989457269723259e+000
0	 9.933332852771351e+000	 5.399969999982150e+000	 9.990810645289471e+000
0	 9.933332852771351e+000	 5.466639999981866e+000	 9.992084148823473e+000
0	 9.933332852771351e+000	 5.533309999982383e+000	 9.993277536624451e+000
0	 9.933332852771351e+000	 5.599979999983599e+000	 9.994390564991491e+000
0	 9.933332852771352e+000	 5.666649999985417e+000	 9.995422990223705e+000
0	 9.933332852771351e+000	 5.733319999987733e+000	 9.996374568620194e+000
0	 9.933332852771352e+000	 5.799989999990449e+000	 9.997245056480104e+000
0	 9.933332852771351e+000	 5.866659999993467e+000	 9.998034210102526e+000
0	 9.933332852771352e+000	 5.933329999996684e+000	 9.998741785786550e+000
0	 9.933332852771349e+000	 5.999999999999998e+000	 9.999367539831336e+000
0	 1.000000000000000e+001	 5.333299999983334e+000	 9.988909852978054e+000
0	 1.000000000000000e+001	 5.399969999982149e+000	 9.990297743425041e+000
0	 1.000000000000000e+001	 5.466639999981866e+000	 9.991602607686598e+000
0	 9.999999999999998e+000	 5.533309999982383e+000	 9.992824336212459e+000
0	 1.000000000000000e+001	 5.599979999983600e+000	 9.993962819452216e+000
0	 1.000000000000000e+001	 5.666649999985417e+000	 9.995017947855434e+000
0	 1.000000000000000e+001	 5.733319999987733e+000	 9.995989611871785e+000
0	 1.000000000000000e+001	 5.799989999990450e+000	 9.996877701950842e+000
0	 1.000000000000000e+001	 5.866659999993467e+000	 9.997682108542223e+000
0	 1.000000000000000e+001	 5.933329999996683e+000	 9.998402722095580e+000
0	 1.000000000000000e+001	 6.000000000000000e+000	 9.999039433060474e+000
0	 9.333302777352785e+000	 6.000000000000001e+000	 1.000800565954101e+001
0	 9.333302777352781e+000	 6.066670000003315e+000	 1.000834195393074e+001
0	 9.333302777352783e+000	 6.133340000006534e+000	 1.000863849152407e+001
0	 9.333302777352783e+000	 6.200010000009552e+000	 1.000889473120230e+001
0	 9.333302777352781e+000	 6.266680000012266e+000	 1.000911013184672e+001
0	 9.333302777352783e+000	 6.333350000014586e+000	 1.000928415233869e+001
0	 9.333302777352783e+000	 6.400020000016400e+000	 1.000941625155948e+001
0	 9.333302777352783e+000	 6.466690000017617e+000	 1.000950588839045e+001
0	 9.333302777352785e+000	 6.533360000018136e+000	 1.000955252171289e+001
0	 9.333302777352783e+000	 6.600030000017850e+000	 1.000955561040811e+001
0	 9.333302777352783e+000	 6.666700000016666e+000	 1.000951461335744e+001
0	 9.399973674588177e+000	 6.000000000000002e+000	 1.000662453486688e+001
0	 9.399973674588178e+000	 6.066670000003318e+000	 1.000699928685025e+001
0	 9.399973674588177e+000	 6.133340000006533e+000	 1.000733256649903e+001
0	 9.399973674588177e+000	 6.200010000009551e+000	 1.000762391143159e+001
0	 9.399973674588175e+000	 6.266680000012268e+000	 1.000787285926634e+001
0	 9.399973674588173e+000	 6.333350000014582e+000	 1.000807894762166e+001
0	 9.399973674588175e+000	 6.400020000016401e+000	 1.000824171411596e+001
0	 9.399973674588178e+000	 6.466690000017617e+000	 1.000836069636760e+001
0	 9.399973674588177e+000	 6.533360000018133e+000	 1.000843543199498e+001
0	 9.399973674588177e+000	 6.600030000017849e+000	 1.000846545861649e+001
0	 9.399973674588177e+000	 6.666700000016666e+000	 1.000845031385052e+001
0	 9.466644621844619e+000	 5.999999999999998e+000	 1.000533240478203e+001
0	 9.466644621844619e+000	 6.066670000003318e+000	 1.000574195600707e+001
0	 9.466644621844621e+000	 6.133340000006534e+000	 1.000610855212208e+001
0	 9.466644621844621e+000	 6.200010000009551e+000	 1.000643178381879e+001
0	 9.466644621844619e+000	 6.266680000012267e+000	 1.000671124178904e+001
0	 9.466644621844621e+000	 6.333350000014584e+000	 1.000694651672455e+001
0	 9.466644621844619e+000	 6.400020000016399e+000	 1.000713719931716e+001
0	 9.466644621844623e+000	 6.466690000017619e+000	 1.000728288025862e+001
0	 9.466644621844619e+000	 6.533360000018135e+000	 1.000738315024072e+001
0	 9.466644621844621e+000	 6.600030000017852e+000	 1.000743759995522e+001
0	 9.466644621844617e+000	 6.666700000016665e+000	 1.000744582009394e+001
0	 9.533315502450000e+000	 6.000000000000000e+000	 1.000413627252796e+001
0	 9.533315502449998e+000	 6.066670000003316e+000	 1.000457705201236e+001
0	 9.533315502450003e+000	 6.133340000006533e+000	 1.000497354179699e+001
0	 9.533315502449998e+000	 6.200010000009551e+000	 1.000532535998359e+001
0	 9.533315502450000e+000	 6.266680000012266e+000	 1.000563212467395e+001
0	 9.533315502449996e+000	 6.333350000014583e+000	 1.000589345396979e+001
0	 9.533315502450000e+000	 6.400020000016399e+000	 1.000610896597290e+001
0	 9.533315502450002e+000	 6.466690000017616e+000	 1.000627827878501e+001
0	 9.533315502450000e+000	 6.533360000018135e+000	 1.000640101050790e+001
0	 9.533315502449998e+000	 6.600030000017851e+000	 1.000647677924334e+001
0	 9.533315502449998e+000	 6.666700000016666e+000	 1.000650520309304e+001
0	 9.599986199732197e+000	 5.999999999999998e+000	 1.000304314074972e+001
0	 9.599986199732195e+000	 6.066670000003315e+000	 1.000351166489904e+001
0	 9.599986199732193e+000	 6.133340000006532e+000	 1.000393462836930e+001
0	 9.599986199732197e+000	 6.200010000009550e+000	 1.000431165100884e+001
0	 9.599986199732195e+000	 6.266680000012268e+000	 1.000464235266600e+001
0	 9.599986199732195e+000	 6.333350000014583e+000	 1.000492635318906e+001
0	 9.599986199732195e+000	 6.400020000016402e+000	 1.000516327242636e+001
0	 9.599986199732195e+000	 6.466690000017614e+000	 1.000535273022624e+001
0	 9.599986199732197e+000	 6.533360000018133e+000	 1.000549434643700e+001
0	 9.599986199732195e+000	 6.600030000017851e+000	 1.000558774090698e+001
0	 9.599986199732197e+000	 6.666700000016666e+000	 1.000563253348450e+001
0	 9.666656597019092e+000	 6.000000000000001e+000	 1.000206001149608e+001
0	 9.666656597019092e+000	 6.066670000003316e+000	 1.000255288412190e+001
0	 9.666656597019093e+000	 6.133340000006532e+000	 1.000299890412632e+001
0	 9.666656597019092e+000	 6.200010000009553e+000	 1.000339766744058e+001
0	 9.666656597019093e+000	 6.266680000012268e+000	 1.000374876999582e+001
0	 9.666656597019092e+000	 6.333350000014583e+000	 1.000405180772330e+001
0	 9.666656597019092e+000	 6.400020000016398e+000	 1.000430637655422e+001
0	 9.666656597019093e+000	 6.466690000017618e+000	 1.000451207241977e+001
0	 9.666656597019095e+000	 6.533360000018133e+000	 1.000466849125114e+001
0	 9.666656597019092e+000	 6.600030000017852e+000	 1.000477522897958e+001
0	 9.666656597019092e+000	 6.666700000016666e+000	 1.000483188153626e+001
0	 9.733326577638575e+000	 6.000000000000001e+000	 1.000119388621950e+001
0	 9.733326577638573e+000	 6.066670000003315e+000	 1.000170779855763e+001
0	 9.733326577638573e+000	 6.133340000006532e+000	 1.000217346079717e+001
0	 9.733326577638573e+000	 6.200010000009551e+000	 1.000259041928798e+001
0	 9.733326577638575e+000	 6.266680000012268e+000	 1.000295822037991e+001
0	 9.733326577638573e+000	 6.333350000014583e+000	 1.000327641042285e+001
0	 9.733326577638575e+000	 6.400020000016400e+000	 1.000354453576664e+001
0	 9.733326577638572e+000	 6.466690000017618e+000	 1.000376214276114e+001
0	 9.733326577638573e+000	 6.533360000018132e+000	 1.000392877775621e+001
0	 9.733326577638573e+000	 6.600030000017850e+000	 1.000404398710175e+001
0	 9.733326577638573e+000	 6.666700000016666e+000	 1.000410731714758e+001
0	 9.799996024918521e+000	 6.000000000000000e+000	 1.000045176577607e+001
0	 9.799996024918521e+000	 6.066670000003315e+000	 1.000098349650478e+001
0	 9.799996024918523e+000	 6.133340000006534e+000	 1.000146538955277e+001
0	 9.799996024918523e+000	 6.200010000009552e+000	 1.000189691602351e+001
0	 9.799996024918523e+000	 6.266680000012268e+000	 1.000227754702052e+001
0	 9.799996024918523e+000	 6.333350000014585e+000	 1.000260675364724e+001
0	 9.799996024918524e+000	 6.400020000016402e+000	 1.000288400700721e+001
0	 9.799996024918524e+000	 6.466690000017619e+000	 1.000310877820389e+001
0	 9.799996024918521e+000	 6.533360000018133e+000	 1.000328053834075e+001
0	 9.799996024918523e+000	 6.600030000017851e+000	 1.000339875852133e+001
0	 9.799996024918523e+000	 6.666700000016667e+000	 1.000346290984906e+001
0	 9.866664822186820e+000	 5.999999999999998e+000	 9.999840650425528e+000
0	 9.866664822186820e+000	 6.066670000003317e+000	 1.000038706568376e+001
0	 9.866664822186820e+000	 6.133340000006533e+000	 1.000088178100585e+001
0	 9.866664822186820e+000	 6.200010000009551e+000	 1.000132416658281e+001
0	 9.866664822186818e+000	 6.266680000012266e+000	 1.000171359260568e+001
0	 9.866664822186822e+000	 6.333350000014584e+000	 1.000204942926540e+001
0	 9.866664822186820e+000	 6.400020000016402e+000	 1.000233104675304e+001
0	 9.866664822186820e+000	 6.466690000017616e+000	 1.000255781525957e+001
0	 9.866664822186822e+000	 6.533360000018135e+000	 1.000272910497601e+001
0	 9.866664822186818e+000	 6.600030000017849e+000	 1.000284428609335e+001
0	 9.866664822186820e+000	 6.666700000016667e+000	 1.000290272880263e+001
0	 9.933332852771349e+000	 5.999999999999998e+000	 9.999367539831336e+000
0	 9.933332852771352e+000	 6.066670000003317e+000	 9.999925593236814e+000
0	 9.933332852771352e+000	 6.133340000006535e+000	 1.000042972521088e+001
0	 9.933332852771351e+000	 6.200010000009550e+000	 1.000087917936467e+001
0	 9.933332852771351e+000	 6.266680000012268e+000	 1.000127319930918e+001
0	 9.933332852771351e+000	 6.333350000014584e+000	 1.000161102865551e+001
0	 9.933332852771352e+000	 6.400020000016401e+000	 1.000189191101471e+001
0	 9.933332852771352e+000	 6.466690000017617e+000	 1.000211508999785e+001
0	 9.933332852771351e+000	 6.533360000018134e+000	 1.000227980921597e+001
0	 9.933332852771352e+000	 6.600030000017851e+000	 1.000238531228015e+001
0	 9.933332852771351e+000	 6.666700000016665e+000	 1.000243084280147e+001
0	 1.000000000000000e+001	 6.000000000000000e+000	 9.999039433060474e+000
0	 1.000000000000000e+001	 6.066670000003317e+000	 9.999606165728016e+000
0	 1.000000000000000e+001	 6.133340000006534e+000	 1.000011631166416e+001
0	 1.000000000000000e+001	 6.200010000009551e+000	 1.000056896223104e+001
0	 1.000000000000000e+001	 6.266680000012268e+000	 1.000096320879060e+001
0	 1.000000000000000e+001	 6.333350000014584e+000	 1.000129814270497e+001
0	 1.000000000000000e+001	 6.400020000016401e+000	 1.000157285533616e+001
0	 1.000000000000000e+001	 6.466690000017618e+000	 1.000178643804622e+001
0	 1.000000000000000e+001	 6.533360000018134e+000	 1.000193798219722e+001
0	 1.000000000000000e+001	 6.600030000017850e+000	 1.000202657915117e+001
0	 1.000000000000000e+001	 6.666700000016666e+000	 1.000205132027010e+001
0	 9.333302777352783e+000	 6.666700000016666e+000	 1.000951461335744e+001
0	 9.333302777352783e+000	 6.733360000014532e+000	 1.000944189668243e+001
0	 9.333302777352783e+000	 6.800020000011600e+000	 1.000934979551139e+001
0	 9.333302777352783e+000	 6.866680000008068e+000	 1.000923775068348e+001
0	 9.333302777352781e+000	 6.933340000004135e+000	 1.000910520303789e+001
0	 9.333302777352781e+000	 6.999999999999999e+000	 1.000895159341378e+001
0	 9.333302777352783e+000	 7.066659999995867e+000	 1.000877636265036e+001
0	 9.333302777352783e+000	 7.133319999991934e+000	 1.000857895158677e+001
0	 9.333302777352783e+000	 7.199979999988400e+000	 1.000835880106220e+001
0	 9.333302777352783e+000	 7.266639999985467e+000	 1.000811535191583e+001
0	 9.333302777352785e+000	 7.333299999983335e+000	 1.000784804498682e+001
0	 9.399973674588177e+000	 6.666700000016666e+000	 1.000845031385052e+001
0	 9.399973674588177e+000	 6.733360000014532e+000	 1.000840265312836e+001
0	 9.399973674588175e+000	 6.800020000011598e+000	 1.000833503114647e+001
0	 9.399973674588178e+000	 6.866680000008066e+000	 1.000824685146820e+001
0	 9.399973674588177e+000	 6.933340000004134e+000	 1.000813751765687e+001
0	 9.399973674588178e+000	 6.999999999999999e+000	 1.000800643327584e+001
0	 9.399973674588177e+000	 7.066659999995868e+000	 1.000785300188849e+001
0	 9.399973674588178e+000	 7.133319999991935e+000	 1.000767662705812e+001
0	 9.399973674588175e+000	 7.199979999988399e+000	 1.000747671234811e+001
0	 9.399973674588177e+000	 7.266639999985468e+000	 1.000725266132179e+001
0	 9.399973674588177e+000	 7.333299999983336e+000	 1.000700387754253e+001
0	 9.466644621844617e+000	 6.666700000016665e+000	 1.000744582009394e+001
0	 9.466644621844619e+000	 6.733360000014531e+000	 1.000742065734777e+001
0	 9.466644621844617e+000	 6.800020000011599e+000	 1.000737481036930e+001
0	 9.466644621844619e+000	 6.866680000008065e+000	 1.000730765455631e+001
0	 9.466644621844621e+000	 6.933340000004134e+000	 1.000721856530660e+001
0	 9.466644621844623e+000	 7.000000000000001e+000	 1.000710691801799e+001
0	 9.466644621844619e+000	 7.066659999995867e+000	 1.000697208808827e+001
0	 9.466644621844619e+000	 7.133319999991933e+000	 1.000681345091526e+001
0	 9.466644621844617e+000	 7.199979999988400e+000	 1.000663038189679e+001
0	 9.466644621844619e+000	 7.266639999985466e+000	 1.000642225643064e+001
0	 9.466644621844619e+000	 7.333299999983332e+000	 1.000618844991462e+001
0	 9.533315502449998e+000	 6.666700000016666e+000	 1.000650520309304e+001
0	 9.533315502450000e+000	 6.733360000014534e+000	 1.000649928993073e+001
0	 9.533315502449998e+000	 6.800020000011600e+000	 1.000647187451099e+001
0	 9.533315502449998e+000	 6.866680000008068e+000	 1.000642231317627e+001
0	 9.533315502450000e+000	 6.933340000004133e+000	 1.000634996226897e+001
0	 9.533315502450000e+000	 7.000000000000000e+000	 1.000625417813145e+001
0	 9.533315502449995e+000	 7.066659999995866e+000	 1.000613431710618e+001
0	 9.533315502450002e+000	 7.133319999991934e+000	 1.000598973553555e+001
0	 9.533315502450000e+000	 7.199979999988401e+000	 1.000581978976197e+001
0	 9.533315502449998e+000	 7.266639999985468e+000	 1.000562383612787e+001
0	 9.533315502450000e+000	 7.333299999983334e+000	 1.000540123097562e+001
0	 9.599986199732197e+000	 6.666700000016666e+000	 1.000563253348450e+001
0	 9.599986199732198e+000	 6.733360000014532e+000	 1.000564193112199e+001
0	 9.599986199732197e+000	 6.800020000011600e+000	 1.000562896458030e+001
0	 9.599986199732197e+000	 6.866680000008067e+000	 1.000559298025653e+001
0	 9.599986199732195e+000	 6.933340000004133e+000	 1.000553332454776e+001
0	 9.599986199732197e+000	 7.000000000000000e+000	 1.000544934385111e+001
0	 9.599986199732198e+000	 7.066659999995867e+000	 1.000534038456370e+001
0	 9.599986199732197e+000	 7.133319999991935e+000	 1.000520579308264e+001
0	 9.599986199732198e+000	 7.199979999988402e+000	 1.000504491580501e+001
0	 9.599986199732195e+000	 7.266639999985467e+000	 1.000485709912797e+001
0	 9.599986199732195e+000	 7.333299999983333e+000	 1.000464168944857e+001
0	 9.666656597019092e+000	 6.666700000016666e+000	 1.000483188153626e+001
0	 9.666656597019092e+000	 6.733360000014531e+000	 1.000485196082117e+001
0	 9.666656597019090e+000	 6.800020000011601e+000	 1.000484882126360e+001
0	 9.666656597019090e+000	 6.866680000008066e+000	 1.000482180842549e+001
0	 9.666656597019095e+000	 6.933340000004134e+000	 1.000477026786878e+001
0	 9.666656597019093e+000	 6.999999999999998e+000	 1.000469354515542e+001
0	 9.666656597019093e+000	 7.066659999995867e+000	 1.000459098584737e+001
0	 9.666656597019095e+000	 7.133319999991933e+000	 1.000446193550655e+001
0	 9.666656597019092e+000	 7.199979999988401e+000	 1.000430573969493e+001
0	 9.666656597019093e+000	 7.266639999985467e+000	 1.000412174397445e+001
0	 9.666656597019093e+000	 7.333299999983336e+000	 1.000390929390706e+001
0	 9.733326577638573e+000	 6.666700000016666e+000	 1.000410731714758e+001
0	 9.733326577638575e+000	 6.733360000014534e+000	 1.000413275858257e+001
0	 9.733326577638575e+000	 6.800020000011601e+000	 1.000413418492487e+001
0	 9.733326577638570e+000	 6.866680000008064e+000	 1.000411095001158e+001
0	 9.733326577638573e+000	 6.933340000004133e+000	 1.000406240767974e+001
0	 9.733326577638573e+000	 6.999999999999998e+000	 1.000398791176643e+001
0	 9.733326577638573e+000	 7.066659999995866e+000	 1.000388681610873e+001
0	 9.733326577638573e+000	 7.133319999991934e+000	 1.000375847454370e+001
0	 9.733326577638573e+000	 7.199979999988399e+000	 1.000360224090839e+001
0	 9.733326577638577e+000	 7.266639999985469e+000	 1.000341746903989e+001
0	 9.733326577638575e+000	 7.333299999983334e+000	 1.000320351277528e+001
0	 9.799996024918523e+000	 6.666700000016667e+000	 1.000346290984906e+001
0	 9.799996024918523e+000	 6.733360000014534e+000	 1.000348770361531e+001
0	 9.799996024918523e+000	 6.800020000011600e+000	 1.000348779560580e+001
0	 9.799996024918523e+000	 6.866680000008066e+000	 1.000346255704323e+001
0	 9.799996024918523e+000	 6.933340000004132e+000	 1.000341135915034e+001
0	 9.799996024918523e+000	 7.000000000000001e+000	 1.000333357314984e+001
0	 9.799996024918523e+000	 7.066659999995867e+000	 1.000322857026442e+001
0	 9.799996024918523e+000	 7.133319999991935e+000	 1.000309572171681e+001
0	 9.799996024918521e+000	 7.199979999988400e+000	 1.000293439872973e+001
0	 9.799996024918523e+000	 7.266639999985467e+000	 1.000274397252586e+001
0	 9.799996024918523e+000	 7.333299999983336e+000	 1.000252381432797e+001
0	 9.866664822186820e+000	 6.666700000016667e+000	 1.000290272880263e+001
0	 9.866664822186822e+000	 6.733360000014534e+000	 1.000292017478330e+001
0	 9.866664822186818e+000	 6.800020000011598e+000	 1.000291239302564e+001
0	 9.866664822186818e+000	 6.866680000008067e+000	 1.000287878124892e+001
0	 9.866664822186820e+000	 6.933340000004133e+000	 1.000281873717227e+001
0	 9.866664822186822e+000	 7.000000000000000e+000	 1.000273165851494e+001
0	 9.866664822186818e+000	 7.066659999995866e+000	 1.000261694299615e+001
0	 9.866664822186818e+000	 7.133319999991934e+000	 1.000247398833507e+001
0	 9.866664822186820e+000	 7.199979999988400e+000	 1.000230219225097e+001
0	 9.866664822186818e+000	 7.266639999985466e+000	 1.000210095246305e+001
0	 9.866664822186820e+000	 7.333299999983333e+000	 1.000186966669049e+001
0	 9.933332852771351e+000	 6.666700000016665e+000	 1.000243084280147e+001
0	 9.933332852771351e+000	 6.733360000014533e+000	 1.000243355060521e+001
0	 9.933332852771349e+000	 6.800020000011599e+000	 1.000241071658141e+001
0	 9.933332852771351e+000	 6.866680000008066e+000	 1.000236177405709e+001
0	 9.933332852771351e+000	 6.933340000004132e+000	 1.000228615635914e+001
0	 9.933332852771351e+000	 6.999999999999998e+000	 1.000218329681466e+001
0	 9.933332852771351e+000	 7.066659999995867e+000	 1.000205262875064e+001
0	 9.933332852771351e+000	 7.133319999991935e+000	 1.000189358549402e+001
0	 9.933332852771352e+000	 7.199979999988401e+000	 1.000170560037183e+001
0	 9.933332852771352e+000	 7.266639999985467e+000	 1.000148810671108e+001
0	 9.933332852771352e+000	 7.333299999983335e+000	 1.000124053783875e+001
0	 1.000000000000000e+001	 6.666700000016666e+000	 1.000205132027010e+001
0	 1.000000000000000e+001	 6.733360000014533e+000	 1.000203120925451e+001
0	 1.000000000000000e+001	 6.800020000011600e+000	 1.000198550534766e+001
0	 9.999999999999998e+000	 6.866680000008066e+000	 1.000191368659614e+001
0	 1.000000000000000e+001	 6.933340000004133e+000	 1.000181523104662e+001
0	 1.000000000000000e+001	 7.000000000000000e+000	 1.000168961674556e+001
0	 9.999999999999998e+000	 7.066659999995865e+000	 1.000153632173969e+001
0	 9.999999999999998e+000	 7.133319999991934e+000	 1.000135482407550e+001
0	 1.000000000000000e+001	 7.199979999988400e+000	 1.000114460179965e+001
0	 1.000000000000000e+001	 7.266639999985467e+000	 1.000090513295871e+001
0	 1.000000000000000e+001	 7.333299999983335e+000	 1.000063589559931e+001
0	 9.333302777352785e+000	 7.333299999983335e+000	 1.000784804498682e+001
0	 9.333302777352781e+000	 7.399969999982150e+000	 1.000756739983864e+001
0	 9.333302777352783e+000	 7.466639999981866e+000	 1.000728401618520e+001
0	 9.333302777352783e+000	 7.533309999982383e+000	 1.000699732933882e+001
0	 9.333302777352785e+000	 7.599979999983600e+000	 1.000670677461183e+001
0	 9.333302777352783e+000	 7.666649999985418e+000	 1.000641178731656e+001
0	 9.333302777352783e+000	 7.733319999987732e+000	 1.000611180276533e+001
0	 9.333302777352783e+000	 7.799989999990449e+000	 1.000580625627047e+001
0	 9.333302777352781e+000	 7.866659999993466e+000	 1.000549458314428e+001
0	 9.333302777352781e+000	 7.933329999996683e+000	 1.000517621869911e+001
0	 9.333302777352783e+000	 8.000000000000000e+000	 1.000485059824726e+001
0	 9.399973674588177e+000	 7.333299999983336e+000	 1.000700387754253e+001
0	 9.399973674588177e+000	 7.399969999982148e+000	 1.000674135083346e+001
0	 9.399973674588177e+000	 7.466639999981865e+000	 1.000647620045359e+001
0	 9.399973674588177e+000	 7.533309999982385e+000	 1.000620790650128e+001
0	 9.399973674588175e+000	 7.599979999983599e+000	 1.000593594907488e+001
0	 9.399973674588175e+000	 7.666649999985417e+000	 1.000565980827273e+001
0	 9.399973674588175e+000	 7.733319999987731e+000	 1.000537896419320e+001
0	 9.399973674588177e+000	 7.799989999990449e+000	 1.000509289693462e+001
0	 9.399973674588173e+000	 7.866659999993465e+000	 1.000480108659535e+001
0	 9.399973674588178e+000	 7.933329999996685e+000	 1.000450301327374e+001
0	 9.399973674588175e+000	 8.000000000000000e+000	 1.000419815706813e+001
0	 9.466644621844619e+000	 7.333299999983332e+000	 1.000618844991462e+001
0	 9.466644621844623e+000	 7.399969999982151e+000	 1.000594058097821e+001
0	 9.466644621844619e+000	 7.466639999981865e+000	 1.000569043201074e+001
0	 9.466644621844624e+000	 7.533309999982385e+000	 1.000543751295391e+001
0	 9.466644621844619e+000	 7.599979999983599e+000	 1.000518133374940e+001
0	 9.466644621844619e+000	 7.666649999985416e+000	 1.000492140433889e+001
0	 9.466644621844619e+000	 7.733319999987729e+000	 1.000465723466409e+001
0	 9.466644621844621e+000	 7.799989999990450e+000	 1.000438833466665e+001
0	 9.466644621844619e+000	 7.866659999993466e+000	 1.000411421428829e+001
0	 9.466644621844617e+000	 7.933329999996682e+000	 1.000383438347068e+001
0	 9.466644621844623e+000	 8.000000000000000e+000	 1.000354835215548e+001
0	 9.533315502450000e+000	 7.333299999983334e+000	 1.000540123097562e+001
0	 9.533315502449995e+000	 7.399969999982148e+000	 1.000516433994112e+001
0	 9.533315502449998e+000	 7.466639999981865e+000	 1.000492571184434e+001
0	 9.533315502450000e+000	 7.533309999982383e+000	 1.000468487152776e+001
0	 9.533315502450002e+000	 7.599979999983598e+000	 1.000444134383385e+001
0	 9.533315502450000e+000	 7.666649999985416e+000	 1.000419465360509e+001
0	 9.533315502449998e+000	 7.733319999987731e+000	 1.000394432568397e+001
0	 9.533315502449998e+000	 7.799989999990450e+000	 1.000368988491297e+001
0	 9.533315502450000e+000	 7.866659999993467e+000	 1.000343085613454e+001
0	 9.533315502449998e+000	 7.933329999996683e+000	 1.000316676419119e+001
0	 9.533315502450000e+000	 8.000000000000000e+000	 1.000289713392539e+001
0	 9.599986199732195e+000	 7.333299999983333e+000	 1.000464168944857e+001
0	 9.599986199732195e+000	 7.399969999982148e+000	 1.000441187726275e+001
0	 9.599986199732195e+000	 7.466639999981865e+000	 1.000418104083628e+001
0	 9.599986199732198e+000	 7.533309999982382e+000	 1.000394870496989e+001
0	 9.599986199732193e+000	 7.599979999983598e+000	 1.000371439446428e+001
0	 9.599986199732195e+000	 7.666649999985415e+000	 1.000347763412021e+001
0	 9.599986199732195e+000	 7.733319999987733e+000	 1.000323794873838e+001
0	 9.599986199732198e+000	 7.799989999990449e+000	 1.000299486311953e+001
0	 9.599986199732195e+000	 7.866659999993467e+000	 1.000274790206441e+001
0	 9.599986199732197e+000	 7.933329999996682e+000	 1.000249659037371e+001
0	 9.599986199732198e+000	 8.000000000000000e+000	 1.000224045284817e+001
0	 9.666656597019093e+000	 7.333299999983336e+000	 1.000390929390706e+001
0	 9.666656597019092e+000	 7.399969999982150e+000	 1.000368244235595e+001
0	 9.666656597019093e+000	 7.466639999981865e+000	 1.000345541976263e+001
0	 9.666656597019092e+000	 7.533309999982384e+000	 1.000322773594335e+001
0	 9.666656597019095e+000	 7.599979999983599e+000	 1.000299890071441e+001
0	 9.666656597019088e+000	 7.666649999985415e+000	 1.000276842389204e+001
0	 9.666656597019092e+000	 7.733319999987733e+000	 1.000253581529251e+001
0	 9.666656597019093e+000	 7.799989999990451e+000	 1.000230058473211e+001
0	 9.666656597019095e+000	 7.866659999993466e+000	 1.000206224202711e+001
0	 9.666656597019093e+000	 7.933329999996684e+000	 1.000182029699376e+001
0	 9.666656597019092e+000	 8.000000000000002e+000	 1.000157425944833e+001
0	 9.733326577638575e+000	 7.333299999983334e+000	 1.000320351277528e+001
0	 9.733326577638573e+000	 7.399969999982149e+000	 1.000297528450590e+001
0	 9.733326577638573e+000	 7.466639999981865e+000	 1.000274784929364e+001
0	 9.733326577638573e+000	 7.533309999982383e+000	 1.000252068702725e+001
0	 9.733326577638573e+000	 7.599979999983600e+000	 1.000229327759553e+001
0	 9.733326577638573e+000	 7.666649999985415e+000	 1.000206510088721e+001
0	 9.733326577638573e+000	 7.733319999987731e+000	 1.000183563679116e+001
0	 9.733326577638572e+000	 7.799989999990449e+000	 1.000160436519608e+001
0	 9.733326577638573e+000	 7.866659999993466e+000	 1.000137076599077e+001
0	 9.733326577638575e+000	 7.933329999996683e+000	 1.000113431906402e+001
0	 9.733326577638573e+000	 8.000000000000000e+000	 1.000089450430458e+001
0	 9.799996024918523e+000	 7.333299999983336e+000	 1.000252381432797e+001
0	 9.799996024918523e+000	 7.399969999982151e+000	 1.000228965287015e+001
0	 9.799996024918521e+000	 7.466639999981865e+000	 1.000205732999381e+001
0	 9.799996024918524e+000	 7.533309999982384e+000	 1.000182628071671e+001
0	 9.799996024918523e+000	 7.599979999983601e+000	 1.000159594005665e+001
0	 9.799996024918521e+000	 7.666649999985417e+000	 1.000136574303141e+001
0	 9.799996024918521e+000	 7.733319999987733e+000	 1.000113512465877e+001
0	 9.799996024918524e+000	 7.799989999990450e+000	 1.000090351995653e+001
0	 9.799996024918523e+000	 7.866659999993467e+000	 1.000067036394244e+001
0	 9.799996024918523e+000	 7.933329999996683e+000	 1.000043509163431e+001
0	 9.799996024918521e+000	 8.000000000000002e+000	 1.000019713804992e+001
0	 9.866664822186820e+000	 7.333299999983333e+000	 1.000186966669049e+001
0	 9.866664822186818e+000	 7.399969999982149e+000	 1.000162479647859e+001
0	 9.866664822186822e+000	 7.466639999981867e+000	 1.000138286232188e+001
0	 9.866664822186818e+000	 7.533309999982384e+000	 1.000114323942291e+001
0	 9.866664822186820e+000	 7.599979999983600e+000	 1.000090530298443e+001
0	 9.866664822186820e+000	 7.666649999985417e+000	 1.000066842820909e+001
0	 9.866664822186820e+000	 7.733319999987733e+000	 1.000043199029946e+001
0	 9.866664822186820e+000	 7.799989999990449e+000	 1.000019536445825e+001
0	 9.866664822186818e+000	 7.866659999993466e+000	 9.999957925888086e+000
0	 9.866664822186820e+000	 7.933329999996683e+000	 9.999719049791654e+000
0	 9.866664822186820e+000	 8.000000000000000e+000	 9.999478111371555e+000
0	 9.933332852771352e+000	 7.333299999983335e+000	 1.000124053783875e+001
0	 9.933332852771352e+000	 7.399969999982150e+000	 1.000097996423350e+001
0	 9.933332852771351e+000	 7.466639999981866e+000	 1.000072344663072e+001
0	 9.933332852771352e+000	 7.533309999982384e+000	 1.000047028547312e+001
0	 9.933332852771352e+000	 7.599979999983600e+000	 1.000021978120324e+001
0	 9.933332852771352e+000	 7.666649999985416e+000	 9.999971234263672e+000
0	 9.933332852771349e+000	 7.733319999987732e+000	 9.999723945096996e+000
0	 9.933332852771351e+000	 7.799989999990449e+000	 9.999477214145793e+000
0	 9.933332852771351e+000	 7.866659999993466e+000	 9.999230341852657e+000
0	 9.933332852771352e+000	 7.933329999996684e+000	 9.998982628660230e+000
0	 9.933332852771352e+000	 8.000000000000000e+000	 9.998733375011019e+000
0	 1.000000000000000e+001	 7.333299999983335e+000	 1.000063589559930e+001
0	 1.000000000000000e+001	 7.399969999982150e+000	 1.000035440490940e+001
0	 1.000000000000000e+001	 7.466639999981865e+000	 1.000007808316762e+001
0	 1.000000000000000e+001	 7.533309999982385e+000	 9.999806141110625e+000
0	 1.000000000000000e+001	 7.599979999983599e+000	 9.999537789475058e+000
0	 1.000000000000000e+001	 7.666649999985417e+000	 9.999272238997568e+000
0	 1.000000000000000e+001	 7.733319999987733e+000	 9.999008700414807e+000
0	 1.000000000000000e+001	 7.799989999990449e+000	 9.998746384463416e+000
0	 1.000000000000000e+001	 7.866659999993465e+000	 9.998484501880066e+000
0	 1.000000000000000e+001	 7.933329999996683e+000	 9.998222263401429e+000
0	 1.000000000000000e+001	 8.000000000000000e+000	 9.997958879764120e+000
0	 9.333302777352783e+000	 8.000000000000000e+000	 1.000485059824726e+001
0	 9.333302777352783e+000	 8.066670000003319e+000	 1.000452663501510e+001
0	 9.333302777352783e+000	 8.133340000006532e+000	 1.000421328707908e+001
0	 9.333302777352783e+000	 8.200010000009552e+000	 1.000391005702676e+001
0	 9.333302777352783e+000	 8.266680000012267e+000	 1.000361644744574e+001
0	 9.333302777352783e+000	 8.333350000014585e+000	 1.000333196092356e+001
0	 9.333302777352785e+000	 8.400020000016403e+000	 1.000305610004777e+001
0	 9.333302777352785e+000	 8.466690000017618e+000	 1.000278836740596e+001
0	 9.333302777352783e+000	 8.533360000018135e+000	 1.000252826558568e+001
0	 9.333302777352783e+000	 8.600030000017849e+000	 1.000227529717449e+001
0	 9.333302777352783e+000	 8.666700000016666e+000	 1.000202896475995e+001
0	 9.399973674588175e+000	 8.000000000000000e+000	 1.000419815706813e+001
0	 9.399973674588177e+000	 8.066670000003319e+000	 1.000389539892428e+001
0	 9.399973674588177e+000	 8.133340000006538e+000	 1.000360366475201e+001
0	 9.399973674588178e+000	 8.200010000009552e+000	 1.000332250209580e+001
0	 9.399973674588175e+000	 8.266680000012267e+000	 1.000305145850011e+001
0	 9.399973674588173e+000	 8.333350000014583e+000	 1.000279008150948e+001
0	 9.399973674588175e+000	 8.400020000016399e+000	 1.000253791866833e+001
0	 9.399973674588177e+000	 8.466690000017618e+000	 1.000229451752117e+001
0	 9.399973674588178e+000	 8.533360000018137e+000	 1.000205942561249e+001
0	 9.399973674588175e+000	 8.600030000017849e+000	 1.000183219048675e+001
0	 9.399973674588177e+000	 8.666700000016668e+000	 1.000161235968845e+001
0	 9.466644621844623e+000	 8.000000000000000e+000	 1.000354835215548e+001
0	 9.466644621844619e+000	 8.066670000003317e+000	 1.000326497836442e+001
0	 9.466644621844621e+000	 8.133340000006532e+000	 1.000299317251537e+001
0	 9.466644621844623e+000	 8.200010000009552e+000	 1.000273252314432e+001
0	 9.466644621844619e+000	 8.266680000012267e+000	 1.000248261878723e+001
0	 9.466644621844621e+000	 8.333350000014585e+000	 1.000224304798011e+001
0	 9.466644621844621e+000	 8.400020000016399e+000	 1.000201339925891e+001
0	 9.466644621844623e+000	 8.466690000017621e+000	 1.000179326115962e+001
0	 9.466644621844619e+000	 8.533360000018133e+000	 1.000158222221820e+001
0	 9.466644621844621e+000	 8.600030000017851e+000	 1.000137987097065e+001
0	 9.466644621844619e+000	 8.666700000016665e+000	 1.000118579595294e+001
0	 9.533315502450000e+000	 8.000000000000000e+000	 1.000289713392539e+001
0	 9.533315502450000e+000	 8.066670000003319e+000	 1.000263085736503e+001
0	 9.533315502450000e+000	 8.133340000006532e+000	 1.000237689368451e+001
0	 9.533315502450000e+000	 8.200010000009550e+000	 1.000213486844609e+001
0	 9.533315502450002e+000	 8.266680000012268e+000	 1.000190440721203e+001
0	 9.533315502449996e+000	 8.333350000014583e+000	 1.000168513554460e+001
0	 9.533315502450000e+000	 8.400020000016399e+000	 1.000147667900609e+001
0	 9.533315502450000e+000	 8.466690000017618e+000	 1.000127866315874e+001
0	 9.533315502450000e+000	 8.533360000018135e+000	 1.000109071356481e+001
0	 9.533315502449998e+000	 8.600030000017849e+000	 1.000091245578660e+001
0	 9.533315502450000e+000	 8.666700000016666e+000	 1.000074351538632e+001
0	 9.599986199732198e+000	 8.000000000000000e+000	 1.000224045284817e+001
0	 9.599986199732197e+000	 8.066670000003315e+000	 1.000198852002566e+001
0	 9.599986199732193e+000	 8.133340000006532e+000	 1.000174991165924e+001
0	 9.599986199732197e+000	 8.200010000009549e+000	 1.000152428637235e+001
0	 9.599986199732197e+000	 8.266680000012270e+000	 1.000131130278861e+001
0	 9.599986199732195e+000	 8.333350000014583e+000	 1.000111061953146e+001
0	 9.599986199732195e+000	 8.400020000016399e+000	 1.000092189522446e+001
0	 9.599986199732200e+000	 8.466690000017618e+000	 1.000074478849110e+001
0	 9.599986199732197e+000	 8.533360000018133e+000	 1.000057895795491e+001
0	 9.599986199732195e+000	 8.600030000017851e+000	 1.000042406223943e+001
0	 9.599986199732197e+000	 8.666700000016666e+000	 1.000027975996813e+001
0	 9.666656597019092e+000	 8.000000000000002e+000	 1.000157425944833e+001
0	 9.666656597019093e+000	 8.066670000003317e+000	 1.000133345051585e+001
0	 9.666656597019092e+000	 8.133340000006532e+000	 1.000110730992375e+001
0	 9.666656597019092e+000	 8.200010000009550e+000	 1.000089552539193e+001
0	 9.666656597019092e+000	 8.266680000012268e+000	 1.000069778464022e+001
0	 9.666656597019095e+000	 8.333350000014587e+000	 1.000051377538847e+001
0	 9.666656597019093e+000	 8.400020000016399e+000	 1.000034318535657e+001
0	 9.666656597019092e+000	 8.466690000017614e+000	 1.000018570226435e+001
0	 9.666656597019093e+000	 8.533360000018135e+000	 1.000004101383171e+001
0	 9.666656597019090e+000	 8.600030000017849e+000	 9.999908807778482e+000
0	 9.666656597019093e+000	 8.666700000016666e+000	 9.999788771824557e+000
0	 9.733326577638573e+000	 8.000000000000000e+000	 1.000089450430458e+001
0	 9.733326577638575e+000	 8.066670000003320e+000	 1.000066113307518e+001
0	 9.733326577638573e+000	 8.133340000006532e+000	 1.000044417204692e+001
0	 9.733326577638573e+000	 8.200010000009552e+000	 1.000024333407117e+001
0	 9.733326577638575e+000	 8.266680000012270e+000	 1.000005833199935e+001
0	 9.733326577638575e+000	 8.333350000014583e+000	 9.999888878682818e+000
0	 9.733326577638573e+000	 8.400020000016403e+000	 9.999734686972998e+000
0	 9.733326577638575e+000	 8.466690000017620e+000	 9.999595469721262e+000
0	 9.733326577638573e+000	 8.533360000018135e+000	 9.999470939778970e+000
0	 9.733326577638573e+000	 8.600030000017851e+000	 9.999360809997576e+000
0	 9.733326577638575e+000	 8.666700000016668e+000	 9.999264793228436e+000
0	 9.799996024918521e+000	 8.000000000000002e+000	 1.000019713804992e+001
0	 9.799996024918523e+000	 8.066670000003319e+000	 9.999967052013231e+000
0	 9.799996024918523e+000	 8.133340000006532e+000	 9.999755581681896e+000
0	 9.799996024918523e+000	 8.200010000009552e+000	 9.999562461073957e+000
0	 9.799996024918523e+000	 8.266680000012268e+000	 9.999387424207640e+000
0	 9.799996024918524e+000	 8.333350000014585e+000	 9.999230205101036e+000
0	 9.799996024918524e+000	 8.400020000016403e+000	 9.999090537772329e+000
0	 9.799996024918524e+000	 8.466690000017616e+000	 9.998968156239638e+000
0	 9.799996024918521e+000	 8.533360000018133e+000	 9.998862794521154e+000
0	 9.799996024918521e+000	 8.600030000017851e+000	 9.998774186634970e+000
0	 9.799996024918521e+000	 8.666700000016666e+000	 9.998702066599297e+000
0	 9.866664822186820e+000	 8.000000000000000e+000	 9.999478111371555e+000
0	 9.866664822186818e+000	 8.066670000003315e+000	 9.999246691709770e+000
0	 9.866664822186820e+000	 8.133340000006532e+000	 9.999036622566459e+000
0	 9.866664822186818e+000	 8.200010000009552e+000	 9.998847655161809e+000
0	 9.866664822186820e+000	 8.266680000012270e+000	 9.998679540715967e+000
0	 9.866664822186820e+000	 8.333350000014583e+000	 9.998532030449026e+000
0	 9.866664822186818e+000	 8.400020000016401e+000	 9.998404875581183e+000
0	 9.866664822186818e+000	 8.466690000017616e+000	 9.998297827332552e+000
0	 9.866664822186822e+000	 8.533360000018133e+000	 9.998210636923288e+000
0	 9.866664822186820e+000	 8.600030000017849e+000	 9.998143055573488e+000
0	 9.866664822186818e+000	 8.666700000016666e+000	 9.998094834503359e+000
0	 9.933332852771352e+000	 8.000000000000000e+000	 9.998733375011019e+000
0	 9.933332852771351e+000	 8.066670000003317e+000	 9.998495536614419e+000
0	 9.933332852771351e+000	 8.133340000006532e+000	 9.998282378522895e+000
0	 9.933332852771351e+000	 8.200010000009550e+000	 9.998093665193800e+000
0	 9.933332852771352e+000	 8.266680000012267e+000	 9.997929161084436e+000
0	 9.933332852771349e+000	 8.333350000014582e+000	 9.997788630652121e+000
0	 9.933332852771352e+000	 8.400020000016401e+000	 9.997671838354236e+000
0	 9.933332852771351e+000	 8.466690000017616e+000	 9.997578548648125e+000
0	 9.933332852771351e+000	 8.533360000018135e+000	 9.997508525991083e+000
0	 9.933332852771351e+000	 8.600030000017849e+000	 9.997461534840443e+000
0	 9.933332852771352e+000	 8.666700000016668e+000	 9.997437339653562e+000
0	 1.000000000000000e+001	 8.000000000000000e+000	 9.997958879764120e+000
0	 1.000000000000000e+001	 8.066670000003317e+000	 9.997709071247108e+000
0	 1.000000000000000e+001	 8.133340000006534e+000	 9.997487933458055e+000
0	 9.999999999999998e+000	 8.200010000009550e+000	 9.997295240126601e+000
0	 1.000000000000000e+001	 8.266680000012267e+000	 9.997130764982403e+000
0	 1.000000000000000e+001	 8.333350000014583e+000	 9.996994281755089e+000
0	 1.000000000000000e+001	 8.400020000016401e+000	 9.996885564174290e+000
0	 1.000000000000000e+001	 8.466690000017616e+000	 9.996804385969721e+000
0	 1.000000000000000e+001	 8.533360000018133e+000	 9.996750520870949e+000
0	 1.000000000000000e+001	 8.600030000017851e+000	 9.996723742607674e+000
0	 1.000000000000000e+001	 8.666700000016666e+000	 9.996723824909523e+000
0	 9.333302777352783e+000	 8.666700000016666e+000	 1.000202896475995e+001
0	 9.333302777352781e+000	 8.733360002791901e+000	 1.000179464851722e+001
0	 9.333302777352783e+000	 8.800020022230557e+000	 1.000157761336301e+001
0	 9.333302777352781e+000	 8.866680074997039e+000	 1.000137729839335e+001
0	 9.333302777352781e+000	 8.933340177755778e+000	 1.000119314266480e+001
0	 9.333302777352783e+000	 9.000000347171181e+000	 1.000102458519448e+001
0	 9.333302777352785e+000	 9.066660599907667e+000	 1.000087106496000e+001
0	 9.333302777352781e+000	 9.133320952629655e+000	 1.000073202089954e+001
0	 9.333302777352781e+000	 9.199981422001558e+000	 1.000060689191185e+001
0	 9.333302777352781e+000	 9.266642024687794e+000	 1.000049511685617e+001
0	 9.333302777352785e+000	 9.333302777352785e+000	 1.000039613455231e+001
0	 9.399973674588177e+000	 8.666700000016668e+000	 1.000161235968845e+001
0	 9.399973674588177e+000	 8.733360002791901e+000	 1.000140475604903e+001
0	 9.399973674588175e+000	 8.800020022230557e+000	 1.000121410117061e+001
0	 9.399973674588177e+000	 8.866680074997040e+000	 1.000103988804633e+001
0	 9.399973674588175e+000	 8.933340177755779e+000	 1.000088160963193e+001
0	 9.399973674588177e+000	 9.000000347171181e+000	 1.000073875884563e+001
0	 9.399973674588178e+000	 9.066660599907671e+000	 1.000061082856814e+001
0	 9.399973674588180e+000	 9.133320952629655e+000	 1.000049731164274e+001
0	 9.399973674588173e+000	 9.199981422001558e+000	 1.000039770087517e+001
0	 9.399973674588177e+000	 9.266642024687796e+000	 1.000031148903371e+001
0	 9.399973674588175e+000	 9.333302777352783e+000	 1.000023816884920e+001
0	 9.466644621844619e+000	 8.666700000016665e+000	 1.000118579595294e+001
0	 9.466644621844621e+000	 8.733360002791905e+000	 1.000100425844328e+001
0	 9.466644621844621e+000	 8.800020022230555e+000	 1.000083943911504e+001
0	 9.466644621844623e+000	 8.866680074997044e+000	 1.000069089109919e+001
0	 9.466644621844619e+000	 8.933340177755778e+000	 1.000055816749075e+001
0	 9.466644621844617e+000	 9.000000347171179e+000	 1.000044082134885e+001
0	 9.466644621844624e+000	 9.066660599907671e+000	 1.000033840569673e+001
0	 9.466644621844621e+000	 9.133320952629656e+000	 1.000025047352172e+001
0	 9.466644621844623e+000	 9.199981422001560e+000	 1.000017657777528e+001
0	 9.466644621844619e+000	 9.266642024687794e+000	 1.000011627137291e+001
0	 9.466644621844619e+000	 9.333302777352785e+000	 1.000006910719429e+001
0	 9.533315502450000e+000	 8.666700000016666e+000	 1.000074351538632e+001
0	 9.533315502449998e+000	 8.733360002791905e+000	 1.000058759600048e+001
0	 9.533315502449995e+000	 8.800020022230552e+000	 1.000044834792811e+001
0	 9.533315502450002e+000	 8.866680074997042e+000	 1.000032539067847e+001
0	 9.533315502449996e+000	 8.933340177755778e+000	 1.000021834372598e+001
0	 9.533315502450000e+000	 9.000000347171184e+000	 1.000012682651029e+001
0	 9.533315502450000e+000	 9.066660599907667e+000	 1.000005045843614e+001
0	 9.533315502450000e+000	 9.133320952629653e+000	 9.999988858873538e+000
0	 9.533315502450003e+000	 9.199981422001562e+000	 9.999941647157602e+000
0	 9.533315502450000e+000	 9.266642024687792e+000	 9.999908442588632e+000
0	 9.533315502449996e+000	 9.333302777352783e+000	 9.999888864432119e+000
0	 9.599986199732197e+000	 8.666700000016666e+000	 1.000027975996813e+001
0	 9.599986199732195e+000	 8.733360002791901e+000	 1.000014920916841e+001
0	 9.599986199732197e+000	 8.800020022230557e+000	 1.000003554848760e+001
0	 9.599986199732195e+000	 8.866680074997042e+000	 9.999938470053950e+000
0	 9.599986199732197e+000	 8.933340177755779e+000	 9.999857665961367e+000
0	 9.599986199732195e+000	 9.000000347171181e+000	 9.999792828269312e+000
0	 9.599986199732197e+000	 9.066660599907669e+000	 9.999743649002884e+000
0	 9.599986199732195e+000	 9.133320952629655e+000	 9.999709820152841e+000
0	 9.599986199732197e+000	 9.199981422001558e+000	 9.999691033675459e+000
0	 9.599986199732198e+000	 9.266642024687798e+000	 9.999686981492696e+000
0	 9.599986199732197e+000	 9.333302777352785e+000	 9.999697355492117e+000
0	 9.666656597019093e+000	 8.666700000016666e+000	 9.999788771824557e+000
0	 9.666656597019092e+000	 8.733360002791903e+000	 9.999683538541882e+000
0	 9.666656597019093e+000	 8.800020022230557e+000	 9.999595761817242e+000
0	 9.666656597019093e+000	 8.866680074997042e+000	 9.999525212638645e+000
0	 9.666656597019095e+000	 8.933340177755779e+000	 9.999471661959495e+000
0	 9.666656597019092e+000	 9.000000347171181e+000	 9.999434880698457e+000
0	 9.666656597019092e+000	 9.066660599907666e+000	 9.999414639739477e+000
0	 9.666656597019093e+000	 9.133320952629655e+000	 9.999410709931825e+000
0	 9.666656597019093e+000	 9.199981422001558e+000	 9.999422862090022e+000
0	 9.666656597019093e+000	 9.266642024687798e+000	 9.999450866993966e+000
0	 9.666656597019093e+000	 9.333302777352783e+000	 9.999494495388705e+000
0	 9.733326577638575e+000	 8.666700000016668e+000	 9.999264793228436e+000
0	 9.733326577638573e+000	 8.733360002791901e+000	 9.999185024862968e+000
0	 9.733326577638575e+000	 8.800020022230557e+000	 9.999123709086751e+000
0	 9.733326577638573e+000	 8.866680074997039e+000	 9.999080701988742e+000
0	 9.733326577638575e+000	 8.933340177755778e+000	 9.999055859621949e+000
0	 9.733326577638575e+000	 9.000000347171183e+000	 9.999049038003477e+000
0	 9.733326577638573e+000	 9.066660599907667e+000	 9.999060093114498e+000
0	 9.733326577638575e+000	 9.133320952629655e+000	 9.999088880900347e+000
0	 9.733326577638575e+000	 9.199981422001558e+000	 9.999135257270387e+000
0	 9.733326577638573e+000	 9.266642024687796e+000	 9.999199078098098e+000
0	 9.733326577638575e+000	 9.333302777352783e+000	 9.999280199221087e+000
0	 9.799996024918521e+000	 8.666700000016666e+000	 9.998702066599297e+000
0	 9.799996024918524e+000	 8.733360002791903e+000	 9.998648109020733e+000
0	 9.799996024918523e+000	 8.800020022230555e+000	 9.998614111611857e+000
0	 9.799996024918521e+000	 8.866680074997040e+000	 9.998600021803675e+000
0	 9.799996024918521e+000	 8.933340177755776e+000	 9.998605786989209e+000
0	 9.799996024918521e+000	 9.000000347171181e+000	 9.998631354523271e+000
0	 9.799996024918523e+000	 9.066660599907667e+000	 9.998676671722608e+000
0	 9.799996024918524e+000	 9.133320952629655e+000	 9.998741685865841e+000
0	 9.799996024918521e+000	 9.199981422001557e+000	 9.998826344193470e+000
0	 9.799996024918523e+000	 9.266642024687798e+000	 9.998930593907929e+000
0	 9.799996024918519e+000	 9.333302777352781e+000	 9.999054382173510e+000
0	 9.866664822186818e+000	 8.666700000016666e+000	 9.998094834503359e+000
0	 9.866664822186818e+000	 8.733360002791901e+000	 9.998067232051598e+000
0	 9.866664822186818e+000	 8.800020022230555e+000	 9.998061690854259e+000
0	 9.866664822186820e+000	 8.866680074997040e+000	 9.998078255926149e+000
0	 9.866664822186820e+000	 8.933340177755779e+000	 9.998116972240750e+000
0	 9.866664822186820e+000	 9.000000347171183e+000	 9.998177884730044e+000
0	 9.866664822186820e+000	 9.066660599907667e+000	 9.998261038284532e+000
0	 9.866664822186822e+000	 9.133320952629656e+000	 9.998366477753347e+000
0	 9.866664822186820e+000	 9.199981422001558e+000	 9.998494247944151e+000
0	 9.866664822186818e+000	 9.266642024687796e+000	 9.998644393623126e+000
0	 9.866664822186820e+000	 9.333302777352781e+000	 9.998816959515098e+000
0	 9.933332852771352e+000	 8.666700000016668e+000	 9.997437339653562e+000
0	 9.933332852771351e+000	 8.733360002791903e+000	 9.997436835139034e+000
0	 9.933332852771352e+000	 8.800020022230555e+000	 9.997461168421641e+000
0	 9.933332852771351e+000	 8.866680074997040e+000	 9.997510488342083e+000
0	 9.933332852771351e+000	 8.933340177755778e+000	 9.997584943695017e+000
0	 9.933332852771349e+000	 9.000000347171179e+000	 9.997684683229132e+000
0	 9.933332852771351e+000	 9.066660599907667e+000	 9.997809855647148e+000
0	 9.933332852771351e+000	 9.133320952629656e+000	 9.997960609605594e+000
0	 9.933332852771352e+000	 9.199981422001558e+000	 9.998137093715153e+000
0	 9.933332852771352e+000	 9.266642024687798e+000	 9.998339456540405e+000
0	 9.933332852771351e+000	 9.333302777352783e+000	 9.998567846599920e+000
0	 1.000000000000000e+001	 8.666700000016666e+000	 9.996723824909523e+000
0	 1.000000000000000e+001	 8.733360002791903e+000	 9.996751359613864e+000
0	 1.000000000000000e+001	 8.800020022230555e+000	 9.996807266067858e+000
0	 1.000000000000000e+001	 8.866680074997042e+000	 9.996891803180668e+000
0	 1.000000000000000e+001	 8.933340177755779e+000	 9.997005229809441e+000
0	 1.000000000000000e+001	 9.000000347171183e+000	 9.997147804759260e+000
0	 1.000000000000000e+001	 9.066660599907667e+000	 9.997319786783368e+000
0	 1.000000000000000e+001	 9.133320952629655e+000	 9.997521434582946e+000
0	 1.000000000000000e+001	 9.199981422001557e+000	 9.997753006807221e+000
0	 1.000000000000000e+001	 9.266642024687796e+000	 9.998014762053513e+000
0	 9.999999999999998e+000	 9.333302777352781e+000	 9.998306958867090e+000
0	 9.333302777352785e+000	 9.333302777352785e+000	 1.000039613455231e+001
0	 9.333302777352781e+000	 9.399973674588177e+000	 1.000030782072716e+001
0	 9.333302777352785e+000	 9.466644621844621e+000	 1.000022905305562e+001
0	 9.333302777352783e+000	 9.533315502450002e+000	 1.000016073167694e+001
0	 9.333302777352783e+000	 9.599986199732197e+000	 1.000010375696886e+001
0	 9.333302777352781e+000	 9.666656597019095e+000	 1.000005902954785e+001
0	 9.333302777352783e+000	 9.733326577638573e+000	 1.000002745026894e+001
0	 9.333302777352779e+000	 9.799996024918521e+000	 1.000000992022587e+001
0	 9.333302777352783e+000	 9.866664822186822e+000	 1.000000734075100e+001
0	 9.333302777352783e+000	 9.933332852771356e+000	 1.000002061341543e+001
0	 9.333302777352781e+000	 9.999999999999998e+000	 1.000005064002890e+001
0	 9.399973674588175e+000	 9.333302777352783e+000	 1.000023816884920e+001
0	 9.399973674588175e+000	 9.399973674588173e+000	 1.000017429183110e+001
0	 9.399973674588175e+000	 9.466644621844619e+000	 1.000011756750801e+001
0	 9.399973674588177e+000	 9.533315502450002e+000	 1.000006919558490e+001
0	 9.399973674588177e+000	 9.599986199732197e+000	 1.000003037596158e+001
0	 9.399973674588175e+000	 9.666656597019095e+000	 1.000000230873288e+001
0	 9.399973674588175e+000	 9.733326577638572e+000	 9.999986194188436e+000
0	 9.399973674588177e+000	 9.799996024918524e+000	 9.999983232812982e+000
0	 9.399973674588175e+000	 9.866664822186820e+000	 9.999994625285993e+000
0	 9.399973674588177e+000	 9.933332852771354e+000	 1.000002157248215e+001
0	 9.399973674588175e+000	 1.000000000000000e+001	 1.000006527547101e+001
0	 9.466644621844619e+000	 9.333302777352785e+000	 1.000006910719429e+001
0	 9.466644621844623e+000	 9.399973674588175e+000	 1.000003020435271e+001
0	 9.466644621844623e+000	 9.466644621844624e+000	 9.999995971733707e+000
0	 9.466644621844617e+000	 9.533315502449998e+000	 9.999967878626197e+000
0	 9.466644621844617e+000	 9.599986199732193e+000	 9.999947394470805e+000
0	 9.466644621844621e+000	 9.666656597019093e+000	 9.999935988859699e+000
0	 9.466644621844619e+000	 9.733326577638573e+000	 9.999935131536875e+000
0	 9.466644621844623e+000	 9.799996024918524e+000	 9.999946292397880e+000
0	 9.466644621844621e+000	 9.866664822186822e+000	 9.999970941490050e+000
0	 9.466644621844621e+000	 9.933332852771354e+000	 1.000001054901238e+001
0	 9.466644621844621e+000	 1.000000000000000e+001	 1.000006658531557e+001
0	 9.533315502449996e+000	 9.333302777352783e+000	 9.999888864432117e+000
0	 9.533315502449995e+000	 9.399973674588173e+000	 9.999876409841496e+000
0	 9.533315502449998e+000	 9.466644621844617e+000	 9.999865972889271e+000
0	 9.533315502449996e+000	 9.533315502449998e+000	 9.999859262472482e+000
0	 9.533315502450000e+000	 9.599986199732197e+000	 9.999857987596121e+000
0	 9.533315502450000e+000	 9.666656597019095e+000	 9.999863857373274e+000
0	 9.533315502450000e+000	 9.733326577638573e+000	 9.999878581024886e+000
0	 9.533315502450000e+000	 9.799996024918524e+000	 9.999903867880073e+000
0	 9.533315502450002e+000	 9.866664822186822e+000	 9.999941427375825e+000
0	 9.533315502449998e+000	 9.933332852771352e+000	 9.999992969057269e+000
0	 9.533315502450000e+000	 1.000000000000000e+001	 1.000006020257758e+001
0	 9.599986199732197e+000	 9.333302777352785e+000	 9.999697355492119e+000
0	 9.599986199732197e+000	 9.399973674588175e+000	 9.999713759918622e+000
0	 9.599986199732197e+000	 9.466644621844623e+000	 9.999729278188411e+000
0	 9.599986199732197e+000	 9.533315502449998e+000	 9.999745828836236e+000
0	 9.599986199732198e+000	 9.599986199732198e+000	 9.999765330459995e+000
0	 9.599986199732195e+000	 9.666656597019093e+000	 9.999789701720609e+000
0	 9.599986199732198e+000	 9.733326577638577e+000	 9.999820861342085e+000
0	 9.599986199732197e+000	 9.799996024918521e+000	 9.999860728111489e+000
0	 9.599986199732193e+000	 9.866664822186822e+000	 9.999911220879090e+000
0	 9.599986199732197e+000	 9.933332852771352e+000	 9.999974258558183e+000
0	 9.599986199732195e+000	 1.000000000000000e+001	 1.000005176012525e+001
0	 9.666656597019093e+000	 9.333302777352783e+000	 9.999494495388705e+000
0	 9.666656597019092e+000	 9.399973674588175e+000	 9.999543106277057e+000
0	 9.666656597019093e+000	 9.466644621844621e+000	 9.999587594901975e+000
0	 9.666656597019090e+000	 9.533315502449998e+000	 9.999630059470922e+000
0	 9.666656597019093e+000	 9.599986199732198e+000	 9.999672598207365e+000
0	 9.666656597019093e+000	 9.666656597019092e+000	 9.999717309350785e+000
0	 9.666656597019092e+000	 9.733326577638577e+000	 9.999766291156792e+000
0	 9.666656597019090e+000	 9.799996024918519e+000	 9.999821641896956e+000
0	 9.666656597019093e+000	 9.866664822186822e+000	 9.999885459859028e+000
0	 9.666656597019095e+000	 9.933332852771356e+000	 9.999959843346796e+000
0	 9.666656597019093e+000	 1.000000000000000e+001	 1.000004689068004e+001
0	 9.733326577638575e+000	 9.333302777352783e+000	 9.999280199221087e+000
0	 9.733326577638575e+000	 9.399973674588177e+000	 9.999365300681422e+000
0	 9.733326577638573e+000	 9.466644621844621e+000	 9.999442630358075e+000
0	 9.733326577638577e+000	 9.533315502450002e+000	 9.999514436170935e+000
0	 9.733326577638575e+000	 9.599986199732197e+000	 9.999582966005930e+000
0	 9.733326577638575e+000	 9.666656597019095e+000	 9.999650467715023e+000
0	 9.733326577638573e+000	 9.733326577638575e+000	 9.999719189116314e+000
0	 9.733326577638573e+000	 9.799996024918523e+000	 9.999791377993850e+000
0	 9.733326577638573e+000	 9.866664822186822e+000	 9.999869282097901e+000
0	 9.733326577638573e+000	 9.933332852771352e+000	 9.999955149144759e+000
0	 9.733326577638573e+000	 1.000000000000000e+001	 1.000005122681674e+001
0	 9.799996024918519e+000	 9.333302777352781e+000	 9.999054382173510e+000
0	 9.799996024918519e+000	 9.399973674588173e+000	 9.999181194968212e+000
0	 9.799996024918519e+000	 9.466644621844617e+000	 9.999296091941973e+000
0	 9.799996024918523e+000	 9.533315502450002e+000	 9.999401440771582e+000
0	 9.799996024918524e+000	 9.599986199732198e+000	 9.999499609046028e+000
0	 9.799996024918523e+000	 9.666656597019093e+000	 9.999592964266572e+000
0	 9.799996024918523e+000	 9.733326577638575e+000	 9.999683873846726e+000
0	 9.799996024918521e+000	 9.799996024918523e+000	 9.999774705112268e+000
0	 9.799996024918521e+000	 9.866664822186822e+000	 9.999867825301283e+000
0	 9.799996024918521e+000	 9.933332852771352e+000	 9.999965601564146e+000
0	 9.799996024918521e+000	 1.000000000000000e+001	 1.000007040096343e+001
0	 9.866664822186820e+000	 9.333302777352781e+000	 9.998816959515102e+000
0	 9.866664822186818e+000	 9.399973674588175e+000	 9.998991641045555e+000
0	 9.866664822186818e+000	 9.466644621844619e+000	 9.999149687096120e+000
0	 9.866664822186820e+000	 9.533315502450000e+000	 9.999293555149173e+000
0	 9.866664822186818e+000	 9.599986199732195e+000	 9.999425702540732e+000
0	 9.866664822186820e+000	 9.666656597019093e+000	 9.999548586460806e+000
0	 9.866664822186820e+000	 9.733326577638575e+000	 9.999664663953052e+000
0	 9.866664822186820e+000	 9.799996024918524e+000	 9.999776391915001e+000
0	 9.866664822186820e+000	 9.866664822186822e+000	 9.999886227097935e+000
0	 9.866664822186820e+000	 9.933332852771354e+000	 9.999996626107050e+000
0	 9.866664822186820e+000	 1.000000000000000e+001	 1.000011004540120e+001
0	 9.933332852771351e+000	 9.333302777352783e+000	 9.998567846599924e+000
0	 9.933332852771349e+000	 9.399973674588175e+000	 9.998797490893454e+000
0	 9.933332852771351e+000	 9.466644621844619e+000	 9.999005123320208e+000
0	 9.933332852771352e+000	 9.533315502450000e+000	 9.999193261220839e+000
0	 9.933332852771351e+000	 9.599986199732197e+000	 9.999364421725787e+000
0	 9.933332852771351e+000	 9.666656597019093e+000	 9.999521121755201e+000
0	 9.933332852771349e+000	 9.733326577638573e+000	 9.999665878019151e+000
0	 9.933332852771351e+000	 9.799996024918523e+000	 9.999801207017507e+000
0	 9.933332852771351e+000	 9.866664822186822e+000	 9.999929625039895e+000
0	 9.933332852771352e+000	 9.933332852771354e+000	 1.000005364816592e+001
0	 9.933332852771351e+000	 1.000000000000000e+001	 1.000017579226478e+001
0	 9.999999999999998e+000	 9.333302777352781e+000	 9.998306958867094e+000
0	 1.000000000000000e+001	 9.399973674588175e+000	 9.998599596563542e+000
0	 1.000000000000000e+001	 9.466644621844621e+000	 9.998864108171036e+000
0	 1.000000000000000e+001	 9.533315502450000e+000	 9.999103040944842e+000
0	 1.000000000000000e+001	 9.599986199732198e+000	 9.999318941859592e+000
0	 1.000000000000000e+001	 9.666656597019093e+000	 9.999514357609366e+000
0	 1.000000000000000e+001	 9.733326577638575e+000	 9.999691834607816e+000
0	 1.000000000000000e+001	 9.799996024918523e+000	 9.999853918987954e+000
0	 1.000000000000000e+001	 9.866664822186824e+000	 1.000000315660251e+001
0	 1.000000000000000e+001	 9.933332852771354e+000	 1.000014209302330e+001
0	 1.000000000000000e+001	 1.000000000000000e+001	 1.000027327354205e+001
1	 1.000000000000000e+000	 0.000000000000000e+000	 2.773631578656154e+001
1	 9.999553790721549e-001	 9.446392261750536e-003	 2.779370450038248e+001
1	 9.998208276644109e-001	 1.892867080636967e-002	 2.783634125189494e+001
1	 9.995953221430520e-001	 2.844573836262591e-002	 2.786341412430233e+001
1	 9.992778519071311e-001	 3.799646941872217e-002	 2.787412522868748e+001
1	 9.988674201817245e-001	 4.757971027342477e-002	 2.786769204240394e+001
1	 9.983630448185402e-001	 5.719427911104237e-002	 2.784334876404623e+001
1	 9.977637591031844e-001	 6.683896610081597e-002	 2.780034768316116e+001
1	 9.970686125683426e-001	 7.651253352126189e-002	 2.773796056276537e+001
1	 9.962766718121099e-001	 8.621371590998764e-002	 2.765548003263792e+001
1	 9.953870213206724e-001	 9.594122023947824e-002	 2.755222099125988e+001
1	 1.006666714718147e+000	 0.000000000000000e+000	 2.751617843519545e+001
1	 1.006621796315063e+000	 9.509368658941884e-003	 2.755889039902355e+001
1	 1.006486347890802e+000	 1.905486284632304e-002	 2.758750242035678e+001
1	 1.006259338987468e+000	 2.863537797544583e-002	 2.760118843880812e+001
1	 1.005939752266822e+000	 3.824978103077062e-002	 2.759913697871914e+001
1	 1.005526584308822e+000	 4.789691061938552e-002	 2.758055252683725e+001
1	 1.005018846417574e+000	 5.757557704648521e-002	 2.754465692667596e+001
1	 1.004415565433973e+000	 6.728456241542383e-002	 2.749069078764827e+001
1	 1.003715784554311e+000	 7.702262075288682e-002	 2.741791490696211e+001
1	 1.002918564154065e+000	 8.678847815970558e-002	 2.732561170216724e+001
1	 1.002022982616054e+000	 9.658083298781608e-002	 2.721308665214432e+001
1	 1.013333517774178e+000	 0.000000000000000e+000	 2.731099681202988e+001
1	 1.013288301891951e+000	 9.572345891894315e-003	 2.733871525356115e+001
1	 1.013151956439392e+000	 1.918105656049421e-002	 2.735298565777029e+001
1	 1.012923444134316e+000	 2.882502010360371e-002	 2.735296904331435e+001
1	 1.012601740901085e+000	 3.850309600190692e-002	 2.733784154693754e+001
1	 1.012185836674435e+000	 4.821411517077869e-002	 2.730679583815810e+001
1	 1.011674736210762e+000	 5.795688003626346e-002	 2.725904255071612e+001
1	 1.011067459906151e+000	 6.773016463579061e-002	 2.719381172880257e+001
1	 1.010363044620398e+000	 7.753271474417553e-002	 2.711035428598542e+001
1	 1.009560544506255e+000	 8.736324802543302e-002	 2.700794347464765e+001
1	 1.008659031843079e+000	 9.722045421090780e-002	 2.688587636365044e+001
1	 1.020000397500475e+000	 0.000000000000000e+000	 2.711986683684593e+001
1	 1.019954884135722e+000	 9.635323850220517e-003	 2.713229588430203e+001
1	 1.019817641644647e+000	 1.930725172774984e-002	 2.713192776869151e+001
1	 1.019587625920686e+000	 2.901466441486622e-002	 2.711791178667037e+001
1	 1.019263806150706e+000	 3.875641388844888e-002	 2.708941286323840e+001
1	 1.018845165624130e+000	 4.853132337212968e-002	 2.704561300118870e+001
1	 1.018330702549552e+000	 5.833818741277172e-002	 2.698571274736952e+001
1	 1.017719430878155e+000	 6.817577198184759e-002	 2.690893267371184e+001
1	 1.017010381133149e+000	 7.804281460226907e-002	 2.681451487086927e+001
1	 1.016202601244475e+000	 8.793802450119986e-002	 2.670172445221323e+001
1	 1.015295157387938e+000	 9.786008278935780e-002	 2.656985106582398e+001
1	 1.026667342229423e+000	 0.000000000000000e+000	 2.694190786567424e+001
1	 1.026621531379276e+000	 9.698302423533175e-003	 2.693877200489361e+001
1	 1.026483391841034e+000	 1.943344812695657e-002	 2.692348793179806e+001
1	 1.026251872683667e+000	 2.920431057700003e-002	 2.689519439693867e+001
1	 1.025925936356472e+000	 3.900973424671438e-002	 2.685304626674393e+001
1	 1.025504559503475e+000	 4.884853466796383e-002	 2.679621600551309e+001
1	 1.024986733785391e+000	 5.871949850840467e-002	 2.672389517424688e+001
1	 1.024371466708420e+000	 6.862138367352595e-002	 2.663529594420492e+001
1	 1.023657782459113e+000	 7.855291943430853e-002	 2.652965262297122e+001
1	 1.022844722744521e+000	 8.851280658103622e-002	 2.640622319070223e+001
1	 1.021931347636820e+000	 9.849971760377023e-002	 2.626429084412830e+001
1	 1.033334340293404e+000	 0.000000000000000e+000	 2.677626193575112e+001
1	 1.033288231955517e+000	 9.761281501444974e-003	 2.675730548475682e+001
1	 1.033149195363019e+000	 1.955964553698102e-002	 2.672684697903107e+001
1	 1.032916172760352e+000	 2.939395825777185e-002	 2.668401577645934e+001
1	 1.032588119859170e+000	 3.926305663302126e-002	 2.662795781598386e+001
1	 1.032164006658038e+000	 4.916574850280653e-002	 2.655783712994979e+001
1	 1.031642818269726e+000	 5.910081265555693e-002	 2.647283737328693e+001
1	 1.031023555755385e+000	 6.906699893075709e-002	 2.637216336735681e+001
1	 1.030305236964838e+000	 7.906302834743491e-002	 2.625504265618303e+001
1	 1.029486897382186e+000	 8.908759325897196e-002	 2.612072707267642e+001
1	 1.028567590975912e+000	 9.913935753474935e-002	 2.596849431235770e+001
1	 1.040001380024802e+000	 0.000000000000000e+000	 2.662209303929836e+001
1	 1.039954974197345e+000	 9.824260973568614e-003	 2.658707963967502e+001
1	 1.039815040545070e+000	 1.968584373668984e-002	 2.654120670225592e+001
1	 1.039580514487830e+000	 2.958360712494832e-002	 2.648359532382552e+001
1	 1.039250344999587e+000	 3.951638060368735e-002	 2.641338362541027e+001
1	 1.038823495433387e+000	 4.948296432118314e-002	 2.632972829281218e+001
1	 1.038298944354002e+000	 5.948212918662312e-002	 2.623180613395133e+001
1	 1.037675686377483e+000	 6.951261697347216e-002	 2.611881565078871e+001
1	 1.036952733016872e+000	 7.957314044878933e-002	 2.598997862348947e+001
1	 1.036129113533266e+000	 8.966238352903715e-002	 2.584454170437532e+001
1	 1.035203875791404e+000	 9.977900146289946e-002	 2.568177801910801e+001
1	 1.046668449755999e+000	 0.000000000000000e+000	 2.647858642485110e+001
1	 1.046621746437663e+000	 9.887240729516774e-003	 2.642729854929391e+001
1	 1.046480915721652e+000	 1.981204250494965e-002	 2.636578918622379e+001
1	 1.046244886203193e+000	 2.977325684629616e-002	 2.629317228157923e+001
1	 1.045912600118508e+000	 3.976970571503054e-002	 2.620857922708136e+001
1	 1.045483014175089e+000	 4.980018156761900e-002	 2.611116042681671e+001
1	 1.044955100389667e+000	 5.986344743399788e-002	 2.600008688057582e+001
1	 1.044327846933152e+000	 6.995823702160246e-002	 2.587455178166528e+001
1	 1.043600258981764e+000	 8.008325484551283e-002	 2.573377212679700e+001
1	 1.042771359573555e+000	 9.023717638526170e-002	 2.557699033554638e+001
1	 1.041840190469484e+000	 1.004186482688248e-001	 2.540347587676225e+001
1	 1.053335537819379e+000	 0.000000000000000e+000	 2.634494792492201e+001
1	 1.053288537009373e+000	 9.950220658902142e-003	 2.627718640034793e+001
1	 1.053146809227233e+000	 1.993824162062711e-002	 2.619983616667766e+001
1	 1.052909276243529e+000	 2.996290708958202e-002	 2.611200510849551e+001
1	 1.052574873556721e+000	 4.002303152336866e-002	 2.601281895640625e+001
1	 1.052142551228714e+000	 5.011739968663951e-002	 2.590142287755358e+001
1	 1.051611274728169e+000	 6.024476673007589e-002	 2.577698308281605e+001
1	 1.050980025780828e+000	 7.040385829507928e-002	 2.563868844834695e+001
1	 1.050247803226061e+000	 8.059337064474641e-002	 2.548575214900951e+001
1	 1.049413623878850e+000	 9.081197082167569e-002	 2.531741330114501e+001
1	 1.048476523396341e+000	 1.010582968331297e-001	 2.513293861200064e+001
1	 1.060002632547326e+000	 0.000000000000000e+000	 2.622040330885107e+001
1	 1.059955334245377e+000	 1.001320065133741e-002	 2.613598685448959e+001
1	 1.059812709396278e+000	 2.006444086258883e-002	 2.604260841250337e+001
1	 1.059573672945931e+000	 3.015255752257260e-002	 2.593937087538128e+001
1	 1.059237153655013e+000	 4.027635758501955e-002	 2.582539536090039e+001
1	 1.058802094939828e+000	 5.043461812277002e-002	 2.569982282449139e+001
1	 1.058267455720954e+000	 6.062608640725171e-002	 2.556181568817768e+001
1	 1.057632211278946e+000	 7.084948001383387e-002	 2.541055948370720e+001
1	 1.056895354116312e+000	 8.110348695363115e-002	 2.524526450737850e+001
1	 1.056055894824945e+000	 9.138676583230908e-002	 2.506516748394824e+001
1	 1.055112862958165e+000	 1.016979460364183e-001	 2.486953323689455e+001
1	 1.066669722272222e+000	 0.000000000000000e+000	 2.610419765974680e+001
1	 1.066622126478576e+000	 1.007618059643527e-002	 2.600296243965264e+001
1	 1.066478604563255e+000	 2.019064000970146e-002	 2.589338513088158e+001
1	 1.066238064647488e+000	 3.034220781303457e-002	 2.577456468336665e+001
1	 1.065899428754169e+000	 4.052968345630110e-002	 2.564561863095115e+001
1	 1.065461633653999e+000	 5.075183632053588e-002	 2.550568472353590e+001
1	 1.064923631719468e+000	 6.100740579792002e-002	 2.535392257567223e+001
1	 1.064284391785943e+000	 7.129510139779750e-002	 2.518951532917385e+001
1	 1.063542900019065e+000	 8.161360287930811e-002	 2.501167132720356e+001
1	 1.062698160787635e+000	 9.196156041119183e-002	 2.481962579717420e+001
1	 1.061749197541144e+000	 1.023375947592949e-001	 2.461264253969019e+001
1	 9.953870213206724e-001	 9.594122023947824e-002	 2.755222099125987e+001
1	 9.943989199946589e-001	 1.056922649420928e-001	 2.743174854564887e+001
1	 9.933113650226917e-001	 1.154669775827053e-001	 2.729764683588633e+001
1	 9.921235000424145e-001	 1.252640057452699e-001	 2.714935693278659e+001
1	 9.908344898374512e-001	 1.350819710464206e-001	 2.698635973364422e+001
1	 9.894435211587168e-001	 1.449194694473043e-001	 2.680817766824497e+001
1	 9.879498035443918e-001	 1.547750715930050e-001	 2.661437638388482e+001
1	 9.863525701375676e-001	 1.646473231798204e-001	 2.640456640558589e+001
1	 9.846510785005697e-001	 1.745347453506194e-001	 2.617840476762934e+001
1	 9.828446114249161e-001	 1.844358351184653e-001	 2.593559661247236e+001
1	 9.809324777358747e-001	 1.943490658186562e-001	 2.567589675306626e+001
1	 1.002022982616054e+000	 9.658083298781608e-002	 2.721308665214432e+001
1	 1.001028293900284e+000	 1.063968851254138e-001	 2.708401241612012e+001
1	 9.999334885098822e-001	 1.162367629878134e-001	 2.694207984720718e+001
1	 9.987377043732976e-001	 1.260991051428620e-001	 2.678672337191320e+001
1	 9.974401007059353e-001	 1.359825240179707e-001	 2.661741639815555e+001
1	 9.960398588369379e-001	 1.458856062140271e-001	 2.643367301453107e+001
1	 9.945361830346290e-001	 1.558069128470813e-001	 2.623504966959139e+001
1	 9.929283013296116e-001	 1.657449799180722e-001	 2.602114682734772e+001
1	 9.912154663345143e-001	 1.756983187108201e-001	 2.579161059516062e+001
1	 9.893969560593560e-001	 1.856654162184739e-001	 2.554613432011459e+001
1	 9.874720747214626e-001	 1.956447355985657e-001	 2.528446014992673e+001
1	 1.008659031843079e+000	 9.722045421090780e-002	 2.688587636365044e+001
1	 1.007657755650177e+000	 1.071015146444449e-001	 2.674791970286810e+001
1	 1.006555699745095e+000	 1.170065585918117e-001	 2.659785716174580e+001
1	 1.005351996347030e+000	 1.269342156046145e-001	 2.643511702437188e+001
1	 1.004045799103106e+000	 1.368830889209057e-001	 2.625916578201130e+001
1	 1.002636283920639e+000	 1.468517557811748e-001	 2.606950982664269e+001
1	 1.001122649798042e+000	 1.568387677722974e-001	 2.586569712541353e+001
1	 9.995041196533726e-001	 1.668426511997103e-001	 2.564731887226925e+001
1	 9.977799411495166e-001	 1.768619074880391e-001	 2.541401111294272e+001
1	 9.959493875149438e-001	 1.868950136103707e-001	 2.516545633943229e+001
1	 9.940117583589938e-001	 1.969404225463201e-001	 2.490138505004621e+001
1	 1.015295157387938e+000	 9.786008278935780e-002	 2.656985106582398e+001
1	 1.014287293642074e+000	 1.078061522660752e-001	 2.642274317181657e+001
1	 1.013177987138785e+000	 1.177763630475826e-001	 2.626426445470014e+001
1	 1.011966364387960e+000	 1.277693356691293e-001	 2.609383755377911e+001
1	 1.010651573468392e+000	 1.377836641792906e-001	 2.591092261120744e+001
1	 1.009232784865521e+000	 1.478179164580372e-001	 2.571501896078724e+001
1	 1.007709192307800e+000	 1.578706345629476e-001	 2.550566679851534e+001
1	 1.006080013600701e+000	 1.679403351038314e-001	 2.528244883115979e+001
1	 1.004344491457322e+000	 1.780255096459928e-001	 2.504499189908007e+001
1	 1.002501894324542e+000	 1.881246251423275e-001	 2.479296856944505e+001
1	 1.000551517203678e+000	 1.982361243944031e-001	 2.452609869594854e+001
1	 1.021931347636820e+000	 9.849971760377023e-002	 2.626429084412830e+001
1	 1.020916896273717e+000	 1.085107967571939e-001	 2.610777442628666e+001
1	 1.019800339101411e+000	 1.185461750080089e-001	 2.594060590247413e+001
1	 1.018580796920438e+000	 1.286044638750086e-001	 2.576220276070674e+001
1	 1.017257412241222e+000	 1.386842482171906e-001	 2.557201935652291e+001
1	 1.015829350127281e+000	 1.487840865539039e-001	 2.536954859802462e+001
1	 1.014295799037075e+000	 1.589025114133256e-001	 2.515432361341307e+001
1	 1.012655971663448e+000	 1.690380297095317e-001	 2.492591939732400e+001
1	 1.010909105769675e+000	 1.791891231483971e-001	 2.468395443220011e+001
1	 1.009054465021016e+000	 1.893542486625163e-001	 2.442809228087316e+001
1	 1.007091339810726e+000	 1.995318388752979e-001	 2.415804314647867e+001
1	 1.028567590975912e+000	 9.913935753474935e-002	 2.596849431235770e+001
1	 1.027546551942844e+000	 1.092154468846899e-001	 2.580232329979421e+001
1	 1.026422744043427e+000	 1.193159931259729e-001	 2.562620358626178e+001
1	 1.025195282368815e+000	 1.294395987608545e-001	 2.543954799795431e+001
1	 1.023863303861022e+000	 1.395848394586707e-001	 2.524180566137799e+001
1	 1.022425968161620e+000	 1.497502643780647e-001	 2.503246368560282e+001
1	 1.020882458459035e+000	 1.599343965177254e-001	 2.481104882767314e+001
1	 1.019231982333462e+000	 1.701357330959077e-001	 2.457712913750244e+001
1	 1.017473772598322e+000	 1.803527459589680e-001	 2.433031557850663e+001
1	 1.015607088137226e+000	 1.905838820191090e-001	 2.407026362016752e+001
1	 1.013631214735347e+000	 2.008275637214883e-001	 2.379667479866430e+001
1	 1.035203875791404e+000	 9.977900146289946e-002	 2.568177801910801e+001
1	 1.034176249047193e+000	 1.099201014154522e-001	 2.550571727202577e+001
1	 1.033045190375292e+000	 1.200858160543573e-001	 2.532039691839989e+001
1	 1.031809809157440e+000	 1.302747388652690e-001	 2.512522560814455e+001
1	 1.030469236767222e+000	 1.404854363277962e-001	 2.491964779153415e+001
1	 1.029022627424234e+000	 1.507164482398093e-001	 2.470314539961989e+001
1	 1.027469159046853e+000	 1.609662880704411e-001	 2.447523950838900e+001
1	 1.025808034102595e+000	 1.712334433420562e-001	 2.423549198300762e+001
1	 1.024038480455009e+000	 1.815163760414218e-001	 2.398350709841485e+001
1	 1.022159752206037e+000	 1.918135230602776e-001	 2.371893313247387e+001
1	 1.020171130532752e+000	 2.021232966654573e-001	 2.344146392782994e+001
1	 1.041840190469484e+000	 1.004186482688248e-001	 2.540347587676226e+001
1	 1.040805975984504e+000	 1.106247591163699e-001	 2.521730090696996e+001
1	 1.039667666507461e+000	 1.208556424460447e-001	 2.502254209048100e+001
1	 1.038424365710664e+000	 1.311098827268542e-001	 2.481860438265194e+001
1	 1.037075199399251e+000	 1.413860372486323e-001	 2.460492810566845e+001
1	 1.035619316370825e+000	 1.516826364484275e-001	 2.438099062806924e+001
1	 1.034055889273698e+000	 1.619981842657667e-001	 2.414630802851634e+001
1	 1.032384115462696e+000	 1.723311585270733e-001	 2.390043674016355e+001
1	 1.030603217851480e+000	 1.826800113594744e-001	 2.364297517190103e+001
1	 1.028712445760311e+000	 1.930431696341938e-001	 2.337356530269146e+001
1	 1.026711075758151e+000	 2.034190354396886e-001	 2.309189424515557e+001
1	 1.048476523396341e+000	 1.010582968331297e-001	 2.513293861200064e+001
1	 1.047435721152516e+000	 1.113294187543320e-001	 2.493643531222771e+001
1	 1.046290160850391e+000	 1.216254709539176e-001	 2.473201154226979e+001
1	 1.045038940452837e+000	 1.319450288842121e-001	 2.451906904092737e+001
1	 1.043681180196535e+000	 1.422866406452441e-001	 2.429704454590472e+001
1	 1.042216023457091e+000	 1.526488273132089e-001	 2.406541147337137e+001
1	 1.040642637612742e+000	 1.630300832979962e-001	 2.382368158219421e+001
1	 1.038960214905615e+000	 1.734288767300559e-001	 2.357140661919874e+001
1	 1.037167973299481e+000	 1.838436498768420e-001	 2.330817994174394e+001
1	 1.035265157332913e+000	 1.942728195890297e-001	 2.303363811383156e+001
1	 1.033251038966754e+000	 2.047147777766657e-001	 2.274746247191308e+001
1	 1.055112862958165e+000	 1.016979460364183e-001	 2.486953323689455e+001
1	 1.054065472948968e+000	 1.120340790962277e-001	 2.466249761857709e+001
1	 1.052912661814538e+000	 1.223953002308586e-001	 2.444819345051379e+001
1	 1.051653521808309e+000	 1.327801758759450e-001	 2.422601972932704e+001
1	 1.050287167598504e+000	 1.431872449416968e-001	 2.399541014742914e+001
1	 1.048812737138730e+000	 1.536150191434434e-001	 2.375583477354024e+001
1	 1.047229392537153e+000	 1.640619833614233e-001	 2.350680171822160e+001
1	 1.045536320923203e+000	 1.745265960301002e-001	 2.324785878078655e+001
1	 1.043732735310758e+000	 1.850072895572407e-001	 2.297859507387575e+001
1	 1.041817875456705e+000	 1.955024707729572e-001	 2.269864262191937e+001
1	 1.039791008713771e+000	 2.060105214088719e-001	 2.240767792965070e+001
1	 1.061749197541144e+000	 1.023375947592949e-001	 2.461264253969019e+001
1	 1.060695219771598e+000	 1.127387389089459e-001	 2.439488047891240e+001
1	 1.059535157810359e+000	 1.231651289297503e-001	 2.417049123678434e+001
1	 1.058268098201429e+000	 1.336153222406547e-001	 2.393887153859836e+001
1	 1.056893150044585e+000	 1.440878485620556e-001	 2.369945256636133e+001
1	 1.055409445871443e+000	 1.545812102484205e-001	 2.345170164117530e+001
1	 1.053816142520104e+000	 1.650938826503425e-001	 2.319512389090126e+001
1	 1.052112422007309e+000	 1.756243145063028e-001	 2.292926389946621e+001
1	 1.050297492397054e+000	 1.861709283643864e-001	 2.265370733409973e+001
1	 1.048370588664549e+000	 1.967321210341483e-001	 2.236808254672037e+001
1	 1.046330973554413e+000	 2.073062640687906e-001	 2.207206214563360e+001
1	 9.809324777358747e-001	 1.943490658186562e-001	 2.567589675306625e+001
1	 9.789137024229728e-001	 2.042743766435053e-001	 2.540083314796476e+001
1	 9.767879280981021e-001	 2.142087061355223e-001	 2.511203947275448e+001
1	 9.745545470450379e-001	 2.241504565049763e-001	 2.480938113202955e+001
1	 9.722129807570792e-001	 2.340980083161345e-001	 2.449277063171659e+001
1	 9.697626806991601e-001	 2.440497210832210e-001	 2.416216882652737e+001
1	 9.672031290579123e-001	 2.540039338948809e-001	 2.381758611834349e+001
1	 9.645338394785437e-001	 2.639589660669880e-001	 2.345908360190894e+001
1	 9.617543577873684e-001	 2.739131178235835e-001	 2.308677415423475e+001
1	 9.588642626988490e-001	 2.838646710056856e-001	 2.270082346414826e+001
1	 9.558631665059840e-001	 2.938118898076575e-001	 2.230145099846974e+001
1	 9.874720747214626e-001	 1.956447355985657e-001	 2.528446014992673e+001
1	 9.854398408101847e-001	 2.056362156380845e-001	 2.500806011510057e+001
1	 9.832998945548197e-001	 2.156367744697044e-001	 2.471852138137134e+001
1	 9.810516241876994e-001	 2.256448036517056e-001	 2.441571004866579e+001
1	 9.786944473454123e-001	 2.356586729520586e-001	 2.409954015786414e+001
1	 9.762278118359934e-001	 2.456767309483562e-001	 2.376997495280239e+001
1	 9.736511963939907e-001	 2.556973056564411e-001	 2.342702809183887e+001
1	 9.709641114222510e-001	 2.657187051875656e-001	 2.307076480529964e+001
1	 9.681660997192730e-001	 2.757392184338694e-001	 2.270130299514214e+001
1	 9.652567371909584e-001	 2.857571157819153e-001	 2.231881427321039e+001
1	 9.622356335456043e-001	 2.957706498539660e-001	 2.192352493450396e+001
1	 9.940117583589938e-001	 1.969404225463201e-001	 2.490138505004621e+001
1	 9.919660656707667e-001	 2.069980726775335e-001	 2.462322573757247e+001
1	 9.898119472969315e-001	 2.170648617265721e-001	 2.433253085995106e+001
1	 9.875487874183183e-001	 2.271391705995806e-001	 2.402916713008152e+001
1	 9.851759998147479e-001	 2.372193582680847e-001	 2.371304993353471e+001
1	 9.826930286373037e-001	 2.473037623728963e-001	 2.338414460329841e+001
1	 9.800993491683967e-001	 2.573906998569036e-001	 2.304246764286640e+001
1	 9.773944685684665e-001	 2.674784676265835e-001	 2.268808789392701e+001
1	 9.745779266081486e-001	 2.775653432420189e-001	 2.232112764493424e+001
1	 9.716492963847405e-001	 2.876495856351601e-001	 2.194176367688160e+001
1	 9.686081850217988e-001	 2.977294358560106e-001	 2.155022824264648e+001
1	 1.000551517203678e+000	 1.982361243944031e-001	 2.452609869594853e+001
1	 9.984923655835141e-001	 2.083599453785053e-001	 2.424577820551751e+001
1	 9.963240749280635e-001	 2.184929654068420e-001	 2.395353523454313e+001
1	 9.940460253666025e-001	 2.286335547332959e-001	 2.364923702972487e+001
1	 9.916576268221343e-001	 2.387800615328193e-001	 2.333280013577785e+001
1	 9.891583197887445e-001	 2.489308125093127e-001	 2.300419168113882e+001
1	 9.865475760966603e-001	 2.590841135325783e-001	 2.266343061093812e+001
1	 9.838248996638738e-001	 2.692382503041847e-001	 2.231058886344079e+001
1	 9.809898272331150e-001	 2.793914890520229e-001	 2.194579248619120e+001
1	 9.780419290930430e-001	 2.895420772532947e-001	 2.156922268813307e+001
1	 9.749808097824353e-001	 2.996882443856060e-001	 2.118111682402762e+001
1	 1.007091339810726e+000	 1.995318388752979e-001	 2.415804314647867e+001
1	 1.005018729127225e+000	 2.097218313576529e-001	 2.387517998030156e+001
1	 1.002836266051844e+000	 2.199210830112311e-001	 2.358101560439097e+001
1	 1.000543326662260e+000	 2.301279534375461e-001	 2.327541772317747e+001
1	 9.981393170246207e-001	 2.403407800148683e-001	 2.295830385956647e+001
1	 9.956236739759681e-001	 2.505578785100767e-001	 2.262964264984574e+001
1	 9.929958658943127e-001	 2.607775437197760e-001	 2.228945508491889e+001
1	 9.902553934551569e-001	 2.709980501405126e-001	 2.193781569402769e+001
1	 9.874017903732961e-001	 2.812176526678726e-001	 2.157485366715273e+001
1	 9.844346241287140e-001	 2.914345873241931e-001	 2.120075391232286e+001
1	 9.813534966753822e-001	 3.016470720145669e-001	 2.081575804411725e+001
1	 1.013631214735347e+000	 2.008275637214883e-001	 2.379667479866430e+001
1	 1.011545144880695e+000	 2.110837282316288e-001	 2.351090733388001e+001
1	 1.009348509271898e+000	 2.213492120404561e-001	 2.321446639727636e+001
1	 1.007040679935001e+000	 2.316223640970262e-001	 2.290722007796796e+001
1	 1.004621059079254e+000	 2.419015109828384e-001	 2.258908670057087e+001
1	 1.002089079884629e+000	 2.521849575276599e-001	 2.226003612756979e+001
1	 9.994442072768819e-001	 2.624709874548062e-001	 2.192009100721443e+001
1	 9.966859386889999e-001	 2.727578640557103e-001	 2.156932796306804e+001
1	 9.938138048078121e-001	 2.830438308935586e-001	 2.120787872136306e+001
1	 9.908273703046020e-001	 2.933271125357299e-001	 2.083593117235837e+001
1	 9.877262345485073e-001	 3.036059153147078e-001	 2.045373036194839e+001
1	 1.020171130532752e+000	 2.021232966654573e-001	 2.344146392782994e+001
1	 1.018071601422721e+000	 2.124456336170861e-001	 2.315244990574314e+001
1	 1.015860793191854e+000	 2.227773499952338e-001	 2.285339494183687e+001
1	 1.013538073814532e+000	 2.331167840964309e-001	 2.254416743980768e+001
1	 1.011102841643083e+000	 2.434622517053356e-001	 2.222468635385912e+001
1	 1.008554526200379e+000	 2.538120467145333e-001	 2.189492249680957e+001
1	 1.005892588959899e+000	 2.641644417739796e-001	 2.155489979306921e+001
1	 1.003116524112088e+000	 2.745176889699211e-001	 2.120469647257886e+001
1	 1.000225859315786e+000	 2.848700205330724e-001	 2.084444620183508e+001
1	 9.972201564335541e-001	 2.952196495757795e-001	 2.047433914816797e+001
1	 9.940990122496792e-001	 3.055647708578432e-001	 2.009462297349310e+001
1	 1.026711075758151e+000	 2.034190354396886e-001	 2.309189424515557e+001
1	 1.024598087332100e+000	 2.138075451306776e-001	 2.279931027666728e+001
1	 1.022373106415339e+000	 2.242054943762812e-001	 2.249732105610708e+001
1	 1.020035496930563e+000	 2.346112108204547e-001	 2.218579523452055e+001
1	 1.017584653373157e+000	 2.450229994509663e-001	 2.186465222782035e+001
1	 1.015020001608872e+000	 2.554391432231687e-001	 2.153386352893513e+001
1	 1.012340999658894e+000	 2.658579037136064e-001	 2.119345396430447e+001
1	 1.009547138471104e+000	 2.762775218032881e-001	 2.084350289078809e+001
1	 1.006637942676339e+000	 2.866962183904045e-001	 2.048414532909092e+001
1	 1.003612971328419e+000	 2.971121951322163e-001	 2.011557302984754e+001
1	 1.000471818626765e+000	 3.075236352157878e-001	 1.973803546856605e+001
1	 1.033251038966754e+000	 2.047147777766657e-001	 2.274746247191307e+001
1	 1.031124591187629e+000	 2.151694603890563e-001	 2.245100355853311e+001
1	 1.028885437545980e+000	 2.256336426843151e-001	 2.214577665156907e+001
1	 1.026532937912801e+000	 2.361056416537927e-001	 2.183165058497816e+001
1	 1.024066482926523e+000	 2.465837514883368e-001	 2.150854507263966e+001
1	 1.021485494795763e+000	 2.570662442060374e-001	 2.117643202286435e+001
1	 1.018789428089395e+000	 2.675513703099967e-001	 2.083533679686224e+001
1	 1.015977770512732e+000	 2.780373594759547e-001	 2.048533940721956e+001
1	 1.013050043668591e+000	 2.885224212695462e-001	 2.012657565246909e+001
1	 1.010005803802045e+000	 2.990047458929148e-001	 1.975923818388119e+001
1	 1.006844642527633e+000	 3.094825049603561e-001	 1.938357750066000e+001
1	 1.039791008713771e+000	 2.060105214088719e-001	 2.240767792965070e+001
1	 1.037651101568104e+000	 2.165313770088748e-001	 2.210705699950875e+001
1	 1.035397775187402e+000	 2.270617924200521e-001	 2.179830535203426e+001
1	 1.033030385390956e+000	 2.376000739811393e-001	 2.148129194238364e+001
1	 1.030548318960230e+000	 2.481445050860533e-001	 2.115593662269039e+001
1	 1.027950994446703e+000	 2.586933468156106e-001	 2.082221145727365e+001
1	 1.025237862966934e+000	 2.692448385994607e-001	 2.048014198155110e+001
1	 1.022408408983657e+000	 2.797971989080638e-001	 2.012980840069708e+001
1	 1.019462151071667e+000	 2.903486259744882e-001	 1.977134672411819e+001
1	 1.016398642667280e+000	 3.008972985457494e-001	 1.940494983186420e+001
1	 1.013217472800151e+000	 3.114413766633629e-001	 1.903086846914876e+001
1	 1.046330973554413e+000	 2.073062640687906e-001	 2.207206214563360e+001
1	 1.044177607052323e+000	 2.178932926067863e-001	 2.176700960393016e+001
1	 1.041910107943235e+000	 2.284899410842093e-001	 2.145446212671291e+001
1	 1.039527827994735e+000	 2.390945051871895e-001	 2.113428873128097e+001
1	 1.037030150131326e+000	 2.497052575127223e-001	 2.080640925223790e+001
1	 1.034416489247346e+000	 2.603204482043598e-001	 2.047079565575526e+001
1	 1.031686293007040e+000	 2.709383056183087e-001	 2.012747329742104e+001
1	 1.028839042630563e+000	 2.815570370197589e-001	 1.977652211970723e+001
1	 1.025874253664687e+000	 2.921748293092218e-001	 1.941807778512581e+001
1	 1.022791476736971e+000	 3.027898497785945e-001	 1.905233274118515e+001
1	 1.019590298292188e+000	 3.134002468966224e-001	 1.867953721331896e+001
1	 9.558631665059840e-001	 2.938118898076575e-001	 2.230145099846974e+001
1	 9.527507155138414e-001	 3.037530213952426e-001	 2.188793113036900e+001
1	 9.495265899749483e-001	 3.136862962449286e-001	 2.145951030919512e+001
1	 9.461905054388915e-001	 3.236099293720238e-001	 2.101644149752044e+001
1	 9.427422136050960e-001	 3.335221213151299e-001	 2.055902419842029e+001
1	 9.391815029145866e-001	 3.434210590039753e-001	 2.008760507745939e+001
1	 9.355081991183116e-001	 3.533049166519174e-001	 1.960257852097882e+001
1	 9.317221658209343e-001	 3.631718566724364e-001	 1.910438712814430e+001
1	 9.278233049990163e-001	 3.730200306188906e-001	 1.859352213431605e+001
1	 9.238115574925392e-001	 3.828475801467559e-001	 1.807052376340660e+001
1	 9.196869034687286e-001	 3.926526379975133e-001	 1.753598150700971e+001
1	 9.622356335456043e-001	 2.957706498539660e-001	 2.192352493450396e+001
1	 9.591024327303189e-001	 3.057780561301271e-001	 2.151462493367559e+001
1	 9.558568128659656e-001	 3.157775532899376e-001	 2.109125784325807e+001
1	 9.524984876057723e-001	 3.257673444486690e-001	 2.065365503918735e+001
1	 9.490272069938092e-001	 3.357456181483736e-001	 2.020209255904505e+001
1	 9.454427580606901e-001	 3.457105492315030e-001	 1.973689172749976e+001
1	 9.417449653956882e-001	 3.556602997393610e-001	 1.925841972120673e+001
1	 9.379336916941496e-001	 3.655930198347079e-001	 1.876709007067806e+001
1	 9.340088382791362e-001	 3.755068487477795e-001	 1.826336309673119e+001
1	 9.299703455962171e-001	 3.853999157449426e-001	 1.774774627921899e+001
1	 9.258181936803928e-001	 3.952703411191423e-001	 1.722079455586043e+001
1	 9.686081850217988e-001	 2.977294358560106e-001	 2.155022824264648e+001
1	 9.654542341084373e-001	 3.078031176988808e-001	 2.114560841246037e+001
1	 9.621871196338280e-001	 3.178688380462120e-001	 2.072692872364735e+001
1	 9.588065533548229e-001	 3.279247881130916e-001	 2.029440163214816e+001
1	 9.553122836601184e-001	 3.379691444448736e-001	 1.984828259445583e+001
1	 9.517040961699055e-001	 3.480000697965839e-001	 1.938887069587221e+001
1	 9.479818143117708e-001	 3.580157140373226e-001	 1.891650922099707e+001
1	 9.441452998717375e-001	 3.680142150789771e-001	 1.843158616401324e+001
1	 9.401944535193617e-001	 3.779936998285092e-001	 1.793453467641064e+001
1	 9.361292153058038e-001	 3.879522851630236e-001	 1.742583344989222e+001
1	 9.319495651338405e-001	 3.978880789267743e-001	 1.690600703230688e+001
1	 9.749808097824353e-001	 2.996882443856060e-001	 2.118111682402762e+001
1	 9.718061085323820e-001	 3.098282025573360e-001	 2.078044301252266e+001
1	 9.685174992003410e-001	 3.199601468536991e-001	 2.036609295800053e+001
1	 9.651146916467712e-001	 3.300822565894713e-001	 1.993826281918562e+001
1	 9.615974326049813e-001	 3.401926963131793e-001	 1.949719030898666e+001
1	 9.579655062847260e-001	 3.502896166922934e-001	 1.904315532492784e+001
1	 9.542187349518960e-001	 3.603711554235786e-001	 1.857648052421396e+001
1	 9.503569794831879e-001	 3.704354381679196e-001	 1.809753184102792e+001
1	 9.463801398946493e-001	 3.804805795088713e-001	 1.760671894374578e+001
1	 9.422881558430289e-001	 3.905046839341429e-001	 1.710449562983688e+001
1	 9.380810070988840e-001	 4.005058468391652e-001	 1.659136015632369e+001
1	 9.813534966753822e-001	 3.016470720145669e-001	 2.081575804411725e+001
1	 9.781580448863387e-001	 3.118533071613252e-001	 2.041870149887400e+001
1	 9.748479404873103e-001	 3.220514760523472e-001	 2.000833164965754e+001
1	 9.714228914423455e-001	 3.322397461019881e-001	 1.958483093805156e+001
1	 9.678826428293532e-001	 3.424162698618393e-001	 1.914842212522246e+001
1	 9.642269774476433e-001	 3.525791859117053e-001	 1.869936892388874e+001
1	 9.604557164014028e-001	 3.627266197759061e-001	 1.823797657694854e+001
1	 9.565687196579936e-001	 3.728566848642112e-001	 1.776459238040263e+001
1	 9.525658865799538e-001	 3.829674834366572e-001	 1.727960614828412e+001
1	 9.484471564296216e-001	 3.930571075914456e-001	 1.678345061739205e+001
1	 9.442125088453363e-001	 4.031236402750706e-001	 1.627660178972339e+001
1	 9.877262345485073e-001	 3.036059153147078e-001	 2.045373036194839e+001
1	 9.845100320544938e-001	 3.138784279666811e-001	 2.005996758956962e+001
1	 9.811784324165394e-001	 3.241428219821035e-001	 1.965323663862336e+001
1	 9.777311417022726e-001	 3.343972528748221e-001	 1.923370877204778e+001
1	 9.741679033341915e-001	 3.446398611994029e-001	 1.880159454664841e+001
1	 9.704884987011498e-001	 3.548687734478948e-001	 1.835714444596875e+001
1	 9.666927477456269e-001	 3.650821029720818e-001	 1.790064946147576e+001
1	 9.627805095256464e-001	 3.752779509305276e-001	 1.743244161972632e+001
1	 9.587516827502318e-001	 3.854544072596586e-001	 1.695289445325176e+001
1	 9.546062062873116e-001	 3.956095516680766e-001	 1.646242341297934e+001
1	 9.503440596430083e-001	 4.057414546532461e-001	 1.596148622010234e+001
1	 9.940990122496792e-001	 3.055647708578432e-001	 2.009462297349310e+001
1	 9.908620589210329e-001	 3.159035614292358e-001	 1.970383560351720e+001
1	 9.875089639098348e-001	 3.262341809829162e-001	 1.930041015623657e+001
1	 9.840394313872813e-001	 3.365547731321533e-001	 1.888450921394633e+001
1	 9.804532031204518e-001	 3.468634664344191e-001	 1.845633383317464e+001
1	 9.767500590877388e-001	 3.571583752939361e-001	 1.801612417781946e+001
1	 9.729298180699066e-001	 3.674376008898821e-001	 1.756416010189175e+001
1	 9.689923382156371e-001	 3.776992321295443e-001	 1.710076167955393e+001
1	 9.649375175804382e-001	 3.879413466256668e-001	 1.662628968021029e+001
1	 9.607652946378278e-001	 3.981620116971803e-001	 1.614114598648802e+001
1	 9.564756487617137e-001	 4.083592853924475e-001	 1.564577395303336e+001
1	 1.000471818626765e+000	 3.075236352157878e-001	 1.973803546856605e+001
1	 9.972141143701416e-001	 3.179287040048216e-001	 1.934991012164431e+001
1	 9.938395238890007e-001	 3.283255493947325e-001	 1.894946449293624e+001
1	 9.903477494580995e-001	 3.387123030981618e-001	 1.853685494265702e+001
1	 9.867385311890909e-001	 3.490870816754367e-001	 1.811227568896973e+001
1	 9.830116476499022e-001	 3.594479874429040e-001	 1.767595944075515e+001
1	 9.791669164595792e-001	 3.697931094070844e-001	 1.722817798091716e+001
1	 9.752041948574574e-001	 3.801205242239372e-001	 1.676924269792937e+001
1	 9.711233802455291e-001	 3.904282971824736e-001	 1.629950506339691e+001
1	 9.669244107029007e-001	 4.007144832119016e-001	 1.581935705348315e+001
1	 9.626072654712645e-001	 4.109771279114304e-001	 1.532923151213949e+001
1	 1.006844642527633e+000	 3.094825049603561e-001	 1.938357750066000e+001
1	 1.003566187286006e+000	 3.199538521492713e-001	 1.899780566083783e+001
1	 1.000170101275842e+000	 3.304169235575005e-001	 1.860002167855187e+001
1	 9.966560848754543e-001	 3.408698389970276e-001	 1.819037811208196e+001
1	 9.930238765410655e-001	 3.513107030310049e-001	 1.776906496205997e+001
1	 9.892732534301330e-001	 3.617376058878730e-001	 1.733631030323964e+001
1	 9.854040319999809e-001	 3.721486244014648e-001	 1.689238086737399e+001
1	 9.814160685805994e-001	 3.825418229763818e-001	 1.643758257491555e+001
1	 9.773092599204598e-001	 3.929152545778704e-001	 1.597226101332506e+001
1	 9.730835437042585e-001	 4.032669617453852e-001	 1.549680185984764e+001
1	 9.687388990414729e-001	 4.135949776289505e-001	 1.501163124670282e+001
1	 1.013217472800151e+000	 3.114413766633629e-001	 1.903086846914876e+001
1	 1.009918266552814e+000	 3.219790023184175e-001	 1.864714636009632e+001
1	 1.006500684992165e+000	 3.325082998111676e-001	 1.825171317456791e+001
1	 1.002964426600074e+000	 3.430273770529304e-001	 1.784472005162453e+001
1	 9.993092281773319e-001	 3.535343266096725e-001	 1.742635535518023e+001
1	 9.955348654709232e-001	 3.640272266219177e-001	 1.699684530414149e+001
1	 9.916411537764502e-001	 3.745041417508007e-001	 1.655645455387029e+001
1	 9.876279485145537e-001	 3.849631241495538e-001	 1.610548672669184e+001
1	 9.834951457801870e-001	 3.954022144596490e-001	 1.564428488923779e+001
1	 9.792426828636313e-001	 4.058194428307757e-001	 1.517323197449056e+001
1	 9.748705387421515e-001	 4.162128299637636e-001	 1.469275114647869e+001
1	 1.019590298292188e+000	 3.134002468966224e-001	 1.867953721331896e+001
1	 1.016270341054748e+000	 3.240041509680922e-001	 1.829756567836482e+001
1	 1.012831263959774e+000	 3.345996744956820e-001	 1.790417957784403e+001
1	 1.009272763592686e+000	 3.451849134900504e-001	 1.749953097784656e+001
1	 1.005594575098846e+000	 3.557579485199885e-001	 1.708380914738823e+001
1	 1.001796472814765e+000	 3.663168456381125e-001	 1.665724118629075e+001
1	 9.978782708743237e-001	 3.768596573328684e-001	 1.622009260424843e+001
1	 9.938398237888124e-001	 3.873844235061286e-001	 1.577266784880514e+001
1	 9.896810269996652e-001	 3.978891724756004e-001	 1.531531078003158e+001
1	 9.854018174027490e-001	 4.083719220012180e-001	 1.484840508977049e+001
1	 9.810021738431126e-001	 4.188306803346251e-001	 1.437237466340172e+001
1	 9.196869034687286e-001	 3.926526379975133e-001	 1.753598150700971e+001
1	 9.154500070382964e-001	 4.024318639757796e-001	 1.698656288410637e+001
1	 9.111003186645378e-001	 4.121848497096857e-001	 1.641876747413051e+001
1	 9.066379396471510e-001	 4.219097086716465e-001	 1.583324173645025e+001
1	 9.020630121438826e-001	 4.316045495771123e-001	 1.523067043006434e+001
1	 8.973757194803052e-001	 4.412674774614075e-001	 1.461177650363055e+001
1	 8.925762864264074e-001	 4.508965947721493e-001	 1.397732092556001e+001
1	 8.876649794392210e-001	 4.604900024760815e-001	 1.332810245340158e+001
1	 8.826421068707412e-001	 4.700458011791232e-001	 1.266495734187094e+001
1	 8.775080191404553e-001	 4.795620922583880e-001	 1.198875898900652e+001
1	 8.722631088718381e-001	 4.890369790048946e-001	 1.130041752007645e+001
1	 9.258181936803928e-001	 3.952703411191423e-001	 1.722079455586043e+001
1	 9.215530510698096e-001	 4.051147624068305e-001	 1.667905280689917e+001
1	 9.171743645641777e-001	 4.149327685136948e-001	 1.611893476935804e+001
1	 9.126822361385569e-001	 4.247224603352865e-001	 1.554110394198150e+001
1	 9.080768088984456e-001	 4.344819339784805e-001	 1.494626370969275e+001
1	 9.033582673916205e-001	 4.442092818454914e-001	 1.433515721442466e+001
1	 8.985268378865744e-001	 4.539025937335760e-001	 1.370856716280799e+001
1	 8.935827886167579e-001	 4.635599579492457e-001	 1.306731556994291e+001
1	 8.885264299898883e-001	 4.731794624357821e-001	 1.241226343860613e+001
1	 8.833581147616244e-001	 4.827591959128024e-001	 1.174431037339431e+001
1	 8.780782381729780e-001	 4.922972490265903e-001	 1.106439412944648e+001
1	 9.319495651338405e-001	 3.978880789267743e-001	 1.690600703230688e+001
1	 9.276561759691135e-001	 4.077976963877616e-001	 1.637150022904585e+001
1	 9.232484909476880e-001	 4.176807237291812e-001	 1.581865741828355e+001
1	 9.187266127199797e-001	 4.275352492695397e-001	 1.524815425006596e+001
1	 9.140906853392351e-001	 4.373593565069526e-001	 1.466070745723764e+001
1	 9.093408945754364e-001	 4.471511252103419e-001	 1.405707471100142e+001
1	 9.044774681955854e-001	 4.569086325264201e-001	 1.343805441087252e+001
1	 8.995006762095589e-001	 4.666299541012819e-001	 1.280448540824556e+001
1	 8.944108310808061e-001	 4.763131652153874e-001	 1.215724666293740e+001
1	 8.892082879011765e-001	 4.859563419306749e-001	 1.149725683221419e+001
1	 8.838934445292345e-001	 4.955575622485071e-001	 1.082547379196524e+001
1	 9.380810070988840e-001	 4.005058468391652e-001	 1.659136015632369e+001
1	 9.337593710554044e-001	 4.104806612232351e-001	 1.606367585170544e+001
1	 9.293226871849585e-001	 4.204287105470165e-001	 1.551773036904167e+001
1	 9.247710588133131e-001	 4.303480705518117e-001	 1.495420671811082e+001
1	 9.201046309414599e-001	 4.402368121268190e-001	 1.437382980347435e+001
1	 9.153235905615894e-001	 4.500930024075074e-001	 1.377736626865497e+001
1	 9.104281669392149e-001	 4.599147058898858e-001	 1.316562427297537e+001
1	 9.054186318606474e-001	 4.696999855594728e-001	 1.253945320027851e+001
1	 9.002952998450807e-001	 4.794469040337470e-001	 1.189974329889508e+001
1	 8.950585283205648e-001	 4.891535247168061e-001	 1.124742525238045e+001
1	 8.897087177632357e-001	 4.988179129649336e-001	 1.058346968069481e+001
1	 9.442125088453363e-001	 4.031236402750706e-001	 1.627660178972339e+001
1	 9.398626256478790e-001	 4.131636522179138e-001	 1.575535625194579e+001
1	 9.353969426458797e-001	 4.231767241580723e-001	 1.521595381587136e+001
1	 9.308155638404507e-001	 4.331609192595093e-001	 1.465908015339764e+001
1	 9.261186351803299e-001	 4.431142958023703e-001	 1.408546326371048e+001
1	 9.213063448799165e-001	 4.530349082885372e-001	 1.349587330992832e+001
1	 9.163789237032390e-001	 4.629208085631790e-001	 1.289112238739855e+001
1	 9.113366452130506e-001	 4.727700469511017e-001	 1.227206422287086e+001
1	 9.061798259842969e-001	 4.825806734066670e-001	 1.163959380391930e+001
1	 9.009088257812431e-001	 4.923507386759969e-001	 1.099464693814399e+001
1	 8.955240476976102e-001	 5.020782954701593e-001	 1.033819974183799e+001
1	 9.503440596430083e-001	 4.057414546532461e-001	 1.596148622010235e+001
1	 9.459659290657336e-001	 4.158466646764603e-001	 1.544632369132411e+001
1	 9.414712467003406e-001	 4.259247597532196e-001	 1.491313302794965e+001
1	 9.368601172232867e-001	 4.359737904700382e-001	 1.436259795787252e+001
1	 9.321326875310547e-001	 4.459918024978973e-001	 1.379544459431872e+001
1	 9.272891470602537e-001	 4.559768377049800e-001	 1.321244126876523e+001
1	 9.223297280734327e-001	 4.659269352855038e-001	 1.261439829522172e+001
1	 9.172547059097932e-001	 4.758401329034516e-001	 1.200216766510335e+001
1	 9.120643992000406e-001	 4.857144678499548e-001	 1.137664267207640e+001
1	 9.067591700446656e-001	 4.955479782130488e-001	 1.073875746641157e+001
1	 9.013394241549871e-001	 5.053387040584731e-001	 1.008948653854251e+001
1	 9.564756487617137e-001	 4.083592853924475e-001	 1.564577395303336e+001
1	 9.520692706281645e-001	 4.185296939035369e-001	 1.513636593177271e+001
1	 9.475455887182311e-001	 4.286728125233301e-001	 1.460907818475966e+001
1	 9.429047083837147e-001	 4.387866792608043e-001	 1.406458797886129e+001
1	 9.381467774688427e-001	 4.488693271776905e-001	 1.350361465474564e+001
1	 9.332719866324373e-001	 4.589187855083843e-001	 1.292691945984615e+001
1	 9.282805696355722e-001	 4.689330807960657e-001	 1.233530531310945e+001
1	 9.231728035939003e-001	 4.789102380438052e-001	 1.172961650076404e+001
1	 9.179490091938974e-001	 4.888482818794177e-001	 1.111073830249771e+001
1	 9.126095508722855e-001	 4.987452377327623e-001	 1.047959654758510e+001
1	 9.071548369579945e-001	 5.085991330241642e-001	 9.837157100668025e+000
1	 9.626072654712645e-001	 4.109771279114304e-001	 1.532923151213949e+001
1	 9.581726396543679e-001	 4.212127352038064e-001	 1.482527605846788e+001
1	 9.536199580694413e-001	 4.314208776592749e-001	 1.430360421770182e+001
1	 9.489493267436280e-001	 4.415995807092140e-001	 1.376488236544487e+001
1	 9.441608944689036e-001	 4.517468648060403e-001	 1.320981827475324e+001
1	 9.392548531263044e-001	 4.618607465502997e-001	 1.263916095287854e+001
1	 9.342314379754318e-001	 4.719392398340696e-001	 1.205370041092095e+001
1	 9.290909279083981e-001	 4.819803569994457e-001	 1.145426736563816e+001
1	 9.238336456674515e-001	 4.919821100108620e-001	 1.084173287280625e+001
1	 9.184599580255566e-001	 5.019425116399385e-001	 1.021700789167875e+001
1	 9.129702759292612e-001	 5.118595766615219e-001	 9.581042780249431e+000
1	 9.687388990414729e-001	 4.135949776289505e-001	 1.501163124670282e+001
1	 9.642760254635409e-001	 4.238957838819312e-001	 1.451285230937384e+001
1	 9.596943441238608e-001	 4.341689503519257e-001	 1.399653065767366e+001
1	 9.549939617249218e-001	 4.444124898926737e-001	 1.346331743024810e+001
1	 9.501750280064466e-001	 4.546244103472374e-001	 1.291390412666307e+001
1	 9.452377360716914e-001	 4.648027156822747e-001	 1.234902245162490e+001
1	 9.401823226787878e-001	 4.749454071387204e-001	 1.176944409393263e+001
1	 9.350090684963112e-001	 4.850504843976559e-001	 1.117598043942360e+001
1	 9.297182983222886e-001	 4.951159467600947e-001	 1.056948221731345e+001
1	 9.243103812659330e-001	 5.051397943393786e-001	 9.950839079481845e+000
1	 9.187857308914157e-001	 5.151200292648354e-001	 9.320979112407905e+000
1	 9.748705387421515e-001	 4.162128299637636e-001	 1.469275114647869e+001
1	 9.703794173748791e-001	 4.265788352425738e-001	 1.419889791117084e+001
1	 9.657687362513791e-001	 4.369170257921535e-001	 1.368768148835814e+001
1	 9.610386027494882e-001	 4.472254018885887e-001	 1.315973351640299e+001
1	 9.561891675566809e-001	 4.575019587655727e-001	 1.261572460238495e+001
1	 9.512206249984339e-001	 4.677446877558579e-001	 1.205636417746057e+001
1	 9.461332133314153e-001	 4.779515774492232e-001	 1.148240028947038e+001
1	 9.409272150006648e-001	 4.881206148657190e-001	 1.089461933206725e+001
1	 9.356029568599945e-001	 4.982497866429231e-001	 1.029384570977703e+001
1	 9.301608103548680e-001	 5.083370802358833e-001	 9.680941438545441e+000
1	 9.246011916670868e-001	 5.183804851283934e-001	 9.056805681469545e+000
1	 9.810021738431126e-001	 4.188306803346251e-001	 1.437237466340172e+001
1	 9.764828047075795e-001	 4.292618845903969e-001	 1.388322092128904e+001
1	 9.718431238218865e-001	 4.396650991708302e-001	 1.337688500497165e+001
1	 9.670832392392218e-001	 4.500383117743657e-001	 1.285397486946411e+001
1	 9.622033025948158e-001	 4.603795050253364e-001	 1.231513569502082e+001
1	 9.572035094363700e-001	 4.706866576225989e-001	 1.176104975726455e+001
1	 9.520840995190897e-001	 4.809577455047829e-001	 1.119243623776092e+001
1	 9.468453570644847e-001	 4.911907430309179e-001	 1.061005097433092e+001
1	 9.414876109821542e-001	 5.013836241751539e-001	 1.001468615052084e+001
1	 9.360112350538159e-001	 5.115343637342538e-001	 9.407169923784061e+000
1	 9.304166480789026e-001	 5.216409385464856e-001	 8.788365992067051e+000
1	 8.722631088718381e-001	 4.890369790048946e-001	 1.130041752007645e+001
1	 8.669069994773564e-001	 4.984699794031350e-001	 1.059844261405615e+001
1	 8.614409475685219e-001	 5.078577791162043e-001	 9.881157489771063e+000
1	 8.558654737743154e-001	 5.171984938406529e-001	 9.148895995980427e+000
1	 8.501811411206635e-001	 5.264902458615942e-001	 8.401976623800417e+000
1	 8.443885549780590e-001	 5.357311652289508e-001	 7.640702463931348e+000
1	 8.384883629704415e-001	 5.449193909360232e-001	 6.865361200616851e+000
1	 8.324812548450976e-001	 5.540530720989082e-001	 6.076225142534667e+000
1	 8.263679623034136e-001	 5.631303691352767e-001	 5.273551290717745e+000
1	 8.201492587923700e-001	 5.721494549410070e-001	 4.457581443500536e+000
1	 8.138259592567364e-001	 5.811085160631598e-001	 3.628542338385868e+000
1	 8.780782381729780e-001	 4.922972490265903e-001	 1.106439412944648e+001
1	 8.726864211258274e-001	 5.017931365482344e-001	 1.037066928430038e+001
1	 8.671839286091180e-001	 5.112435220450455e-001	 9.661036876075825e+000
1	 8.615712847226640e-001	 5.206465086513883e-001	 8.935759459404121e+000
1	 8.558490562458758e-001	 5.300002061341147e-001	 8.195080050383014e+000
1	 8.500178525850264e-001	 5.393027320766500e-001	 7.439222175656322e+000
1	 8.440783256815294e-001	 5.485522130654223e-001	 6.668389966868991e+000
1	 8.380311698809672e-001	 5.577467858771381e-001	 5.882768300585639e+000
1	 8.318771217627186e-001	 5.668845986654242e-001	 5.082522983635752e+000
1	 8.256169599300632e-001	 5.759638121453027e-001	 4.267800983725419e+000
1	 8.192515047607230e-001	 5.849826007739867e-001	 3.438730705026689e+000
1	 8.838934445292345e-001	 4.955575622485071e-001	 1.082547379196524e+001
1	 8.784659193562274e-001	 5.051163377265163e-001	 1.013965995824340e+001
1	 8.729269857486570e-001	 5.146293098359489e-001	 9.437270365145292e+000
1	 8.672771712772374e-001	 5.240945691488353e-001	 8.718508804300997e+000
1	 8.615170464749264e-001	 5.335102129136186e-001	 7.983556111921192e+000
1	 8.556472247838540e-001	 5.428743462470813e-001	 7.232570294376393e+000
1	 8.496683624629794e-001	 5.521850833286301e-001	 6.465686706299108e+000
1	 8.435811584562621e-001	 5.614405485954395e-001	 5.683018281206517e+000
1	 8.373863542211578e-001	 5.706388779369471e-001	 4.884655814490167e+000
1	 8.310847335173305e-001	 5.797782198871765e-001	 4.070668298488050e+000
1	 8.246771221555452e-001	 5.888567368133510e-001	 3.241103309192536e+000
1	 8.897087177632357e-001	 4.988179129649336e-001	 1.058346968069481e+001
1	 8.842454840536721e-001	 5.084395771222589e-001	 9.905217113195533e+000
1	 8.786701089360395e-001	 5.180151365637197e-001	 9.209659852291505e+000
1	 8.729831234520048e-001	 5.275426692988843e-001	 8.496955219960382e+000
1	 8.671851018881376e-001	 5.370202600576582e-001	 7.767234919364316e+000
1	 8.612766617224811e-001	 5.464460014900537e-001	 7.020605221743495e+000
1	 8.552584635316092e-001	 5.558179953683310e-001	 6.257147211499098e+000
1	 8.491312108579270e-001	 5.651343537900048e-001	 5.476917089392899e+000
1	 8.428956500370379e-001	 5.743932003802005e-001	 4.679946533618463e+000
1	 8.365525699850671e-001	 5.835926714918182e-001	 3.866243118353337e+000
1	 8.301028019459008e-001	 5.927309174019697e-001	 3.035790789225755e+000
1	 8.955240476976102e-001	 5.020782954701593e-001	 1.033819974183798e+001
1	 8.900251051032770e-001	 5.117628489197402e-001	 9.667148276718127e+000
1	 8.844132881201637e-001	 5.214009963031629e-001	 8.978012297249888e+000
1	 8.786891312609382e-001	 5.309908030674250e-001	 8.270914717602746e+000
1	 8.728532125658290e-001	 5.405303414237858e-001	 7.545950912991549e+000
1	 8.669061535488470e-001	 5.500176915553779e-001	 6.803188952858166e+000
1	 8.608486191042365e-001	 5.594509428272086e-001	 6.042669896448196e+000
1	 8.546813173729051e-001	 5.688281949970272e-001	 5.264408150652569e+000
1	 8.484049995686658e-001	 5.781475594255391e-001	 4.468391889803141e+000
1	 8.420204597641682e-001	 5.874071602844178e-001	 3.654583536948123e+000
1	 8.355285346364872e-001	 5.966051357605590e-001	 2.822920305953300e+000
1	 9.013394241549871e-001	 5.053387040584731e-001	 1.008948653854251e+001
1	 8.958047723901594e-001	 5.150861473032389e-001	 9.425265861441188e+000
1	 8.901565132499305e-001	 5.247868831290851e-001	 8.742139558471925e+000
1	 8.843951847180088e-001	 5.344389644203480e-001	 8.040207972414775e+000
1	 8.785213685883219e-001	 5.440404508695520e-001	 7.319542720248262e+000
1	 8.725356904108920e-001	 5.535894101928635e-001	 6.580186957750885e+000
1	 8.664388193976783e-001	 5.630839193479467e-001	 5.822155709258195e+000
1	 8.602314682881397e-001	 5.725220657526985e-001	 5.045436262398886e+000
1	 8.539143931743478e-001	 5.819019485033186e-001	 4.249988627458704e+000
1	 8.474883932855289e-001	 5.912216795901660e-001	 3.435746060839307e+000
1	 8.409543107320018e-001	 6.004793851098359e-001	 2.602615651900308e+000
1	 9.071548369579945e-001	 5.085991330241642e-001	 9.837157100668026e+000
1	 9.015844757994344e-001	 5.184094664570330e-001	 9.179387006185005e+000
1	 8.958997742742388e-001	 5.281727911162905e-001	 8.501858233744144e+000
1	 8.901012738371871e-001	 5.378871473235432e-001	 7.804660171615475e+000
1	 8.841895600359369e-001	 5.475505822525097e-001	 7.087853019009117e+000
1	 8.781652624565559e-001	 5.571611511523207e-001	 6.351468067386129e+000
1	 8.720290546287524e-001	 5.667169185732297e-001	 5.595508048246788e+000
1	 8.657816538905742e-001	 5.762159595932119e-001	 4.819947547198337e+000
1	 8.594238212123907e-001	 5.856563610438935e-001	 4.024733483926775e+000
1	 8.529563609800457e-001	 5.950362227342529e-001	 3.209785657510792e+000
1	 8.463801207371424e-001	 6.043536586705171e-001	 2.374997356331934e+000
1	 9.129702759292612e-001	 5.118595766615219e-001	 9.581042780249431e+000
1	 9.073642052162175e-001	 5.217328005654008e-001	 8.929333423106929e+000
1	 9.016430611419890e-001	 5.315587143395855e-001	 8.256989506850209e+000
1	 8.958073886324436e-001	 5.413353457429005e-001	 7.564100868281667e+000
1	 8.898577769889952e-001	 5.510607294302107e-001	 6.850728406026068e+000
1	 8.837948598337780e-001	 5.607329081835595e-001	 6.116904363989365e+000
1	 8.776193150142760e-001	 5.703499341457411e-001	 5.362632681193178e+000
1	 8.713318644671524e-001	 5.799098700547596e-001	 4.587889407789390e+000
1	 8.649332740411011e-001	 5.894107904776190e-001	 3.792623186870790e+000
1	 8.584243532786128e-001	 5.988507830418685e-001	 2.976755801514495e+000
1	 8.518059551566063e-001	 6.082279496633187e-001	 2.140182786309345e+000
1	 9.187857308914157e-001	 5.151200292648354e-001	 9.320979112407905e+000
1	 9.131439505256258e-001	 5.250561438126209e-001	 8.674931250608680e+000
1	 9.073863638020802e-001	 5.349446468737750e-001	 8.007359000012000e+000
1	 9.015135191177502e-001	 5.447835536443103e-001	 7.318363840683400e+000
1	 8.955260095278167e-001	 5.545708862602062e-001	 6.608019270333537e+000
1	 8.894244726904979e-001	 5.643046750363900e-001	 5.876371075505780e+000
1	 8.832095907710671e-001	 5.739829597081649e-001	 5.123437667635242e+000
1	 8.768820903048176e-001	 5.836037906735344e-001	 4.349210483795355e+000
1	 8.704427420187855e-001	 5.931652302348501e-001	 3.553654451766155e+000
1	 8.638923606121264e-001	 6.026653538382029e-001	 2.736708518881491e+000
1	 8.572318044950911e-001	 6.121022513089577e-001	 1.898286243932466e+000
1	 9.246011916670868e-001	 5.183804851283934e-001	 9.056805681469543e+000
1	 9.189237016127740e-001	 5.283794903829712e-001	 8.416010911751812e+000
1	 9.131296722034114e-001	 5.383305827936643e-001	 7.752796631856083e+000
1	 9.072196553070769e-001	 5.482317649936626e-001	 7.067286956887072e+000
1	 9.011942477327234e-001	 5.580810466000489e-001	 6.359579671393720e+000
1	 8.950540911746555e-001	 5.678764454606223e-001	 5.629746474011169e+000
1	 8.887998721159427e-001	 5.776159889031850e-001	 4.877833284075403e+000
1	 8.824323216905130e-001	 5.872977149857288e-001	 4.103860610056247e+000
1	 8.759522155037509e-001	 5.969196737459424e-001	 3.307823979483491e+000
1	 8.693603734114814e-001	 6.064799284484465e-001	 2.489694429866589e+000
1	 8.626576592572942e-001	 6.159765568281508e-001	 1.649419059939441e+000
1	 9.304166480789026e-001	 5.216409385464856e-001	 8.788365992067050e+000
1	 9.247034483627793e-001	 5.317028344607302e-001	 8.152406977942533e+000
1	 9.188729762948830e-001	 5.417165161740593e-001	 7.493136480666303e+000
1	 9.129257872143954e-001	 5.516799737568476e-001	 6.810712044395548e+000
1	 9.068624816840354e-001	 5.615912043072900e-001	 6.105267221776306e+000
1	 9.006837054341905e-001	 5.714482132060662e-001	 5.376911777902596e+000
1	 8.943901492657200e-001	 5.812490153734854e-001	 4.625731951968853e+000
1	 8.879825489111826e-001	 5.909916365275353e-001	 3.851790776509648e+000
1	 8.814616848543042e-001	 6.006741144412503e-001	 3.055128453958888e+000
1	 8.748283821075730e-001	 6.102945001977893e-001	 2.235762790099509e+000
1	 8.680835099479130e-001	 6.198508594416141e-001	 1.393689683818013e+000
1	 8.138259592567364e-001	 5.811085160631598e-001	 3.628542338385866e+000
1	 8.073989196223579e-001	 5.900057536711100e-001	 2.786459028645112e+000
1	 8.008690357874088e-001	 5.988393841156299e-001	 1.932126819204338e+000
1	 7.942372439580684e-001	 6.076076406512598e-001	 1.066952984540925e+000
1	 7.875045204774031e-001	 6.163087747742401e-001	 1.923919560787392e-001
1	 7.806718813845675e-001	 6.249410573556360e-001	-6.900563921518721e-001
1	 7.737403819358265e-001	 6.335027797617577e-001	-1.578848544815662e+000
1	 7.667111160878265e-001	 6.419922549603809e-001	-2.472399230515783e+000
1	 7.595852159436007e-001	 6.504078186112841e-001	-3.369083387714362e+000
1	 7.523638511618763e-001	 6.587478301396494e-001	-4.267238207853511e+000
1	 7.450482283302942e-001	 6.670106737908847e-001	-5.165165251989971e+000
1	 8.192515047607230e-001	 5.849826007739867e-001	 3.438730705026684e+000
1	 8.127816178867238e-001	 5.939391537284960e-001	 2.595726033673774e+000
1	 8.062082011789851e-001	 6.028316754685040e-001	 1.740121368327771e+000
1	 7.995321970851740e-001	 6.116583874701552e-001	 8.734538468140699e-001
1	 7.927545884574261e-001	 6.204175295729068e-001	-2.685283327047300e-003
1	 7.858763981086077e-001	 6.291073611202075e-001	-8.866526136730264e-001
1	 7.788986883301446e-001	 6.377261620873864e-001	-1.776754624464564e+000
1	 7.718225603718486e-001	 6.462722341952493e-001	-2.671249831374098e+000
1	 7.646491538842304e-001	 6.547439020078860e-001	-3.568351025754566e+000
1	 7.573796463238672e-001	 6.631395140132278e-001	-4.466227604361849e+000
1	 7.500152523224444e-001	 6.714574436849000e-001	-5.363007984303077e+000
1	 8.246771221555452e-001	 5.888567368133510e-001	 3.241103309192536e+000
1	 8.181643874740975e-001	 5.978726058999938e-001	 2.396838445991695e+000
1	 8.115474373167191e-001	 6.068240197155238e-001	 1.539800119854022e+000
1	 8.048272203726287e-001	 6.157091879575350e-001	 6.716396683490206e-001
1	 7.980047260030980e-001	 6.245263388085474e-001	-2.059314226116492e-001
1	 7.910809837947762e-001	 6.332737200842387e-001	-1.091143677984756e+000
1	 7.840570630743251e-001	 6.419496003688086e-001	-1.982171905550786e+000
1	 7.769340723847995e-001	 6.505522701359425e-001	-2.877137576720459e+000
1	 7.697131589242690e-001	 6.590800428538964e-001	-3.774111312001771e+000
1	 7.623955079472442e-001	 6.675312560732037e-001	-4.671115466652649e+000
1	 7.549823421295439e-001	 6.759042724955662e-001	-5.566126811762221e+000
1	 8.301028019459008e-001	 5.927309174019697e-001	 3.035790789225752e+000
1	 8.235472189641807e-001	 6.018061033025565e-001	 2.189995334264302e+000
1	 8.168867348565085e-001	 6.108164098706105e-001	 1.331418110171364e+000
1	 8.101223045537096e-001	 6.197600350250394e-001	 4.618093157296208e-001
1	 8.032549239262515e-001	 6.286351952912920e-001	-4.170155650792476e-001
1	 7.962856293346265e-001	 6.374401269571446e-001	-1.303178108833374e+000
1	 7.892154971407974e-001	 6.461730872155351e-001	-2.194739421517574e+000
1	 7.820456431811288e-001	 6.548323552929016e-001	-3.089702726196628e+000
1	 7.747772222013190e-001	 6.634162335615358e-001	-3.986016064934225e+000
1	 7.674114272538861e-001	 6.719230486344507e-001	-4.881575110059001e+000
1	 7.599494890588572e-001	 6.803511524413004e-001	-5.774226079577036e+000
1	 8.355285346364872e-001	 5.966051357605590e-001	 2.822920305953301e+000
1	 8.289301029366748e-001	 6.057396390531373e-001	 1.975390514245222e+000
1	 8.222260844542511e-001	 6.148088389476848e-001	 1.115223671839724e+000
1	 8.154174403616957e-001	 6.238109215843080e-001	 2.442538167286793e-001
1	 8.085051730387201e-001	 6.327440918312718e-001	-6.356154807696025e-001
1	 8.014903256197122e-001	 6.416065744483401e-001	-1.522413626770997e+000
1	 7.943739815019897e-001	 6.503966152370774e-001	-2.414105644336313e+000
1	 7.871572638152846e-001	 6.591124821765653e-001	-3.308594941162144e+000
1	 7.798413348529827e-001	 6.677524665430258e-001	-4.203726199512284e+000
1	 7.724273954656712e-001	 6.763148840118431e-001	-5.097288383132939e+000
1	 7.649166844176492e-001	 6.847980757405193e-001	-5.987017855552158e+000
1	 8.409543107320018e-001	 6.004793851098359e-001	 2.602615651900305e+000
1	 8.343130299712810e-001	 6.096732062686902e-001	 1.753212715256685e+000
1	 8.275654767658445e-001	 6.188012999606668e-001	 8.914586469195195e-001
1	 8.207126185298644e-001	 6.278618405469804e-001	 1.925661033566210e-002
1	 8.137554641523362e-001	 6.368530212386180e-001	-8.614173296041819e-001
1	 8.066950635415870e-001	 6.457730552672397e-001	-1.748516855046282e+000
1	 7.995325071303310e-001	 6.546201770429464e-001	-2.639928182419814e+000
1	 7.922689253417158e-001	 6.633926432973745e-001	-3.533472983594072e+000
1	 7.849054880168624e-001	 6.720887342105870e-001	-4.426911435713123e+000
1	 7.774434038044777e-001	 6.807067545202551e-001	-5.317945394128431e+000
1	 7.698839195131854e-001	 6.892450346116411e-001	-6.204221682498975e+000
1	 8.463801207371424e-001	 6.043536586705171e-001	 2.374997356331934e+000
1	 8.396959906477002e-001	 6.136067980661675e-001	 1.523645740312642e+000
1	 8.329049024471865e-001	 6.227937859234779e-001	 6.603585921555244e-001
1	 8.260078297914940e-001	 6.319127848246963e-001	-2.129062127633753e-001
1	 8.190057880789340e-001	 6.409619763234614e-001	-1.094115395098116e+000
1	 8.118998339918037e-001	 6.499395621232577e-001	-1.981163036723772e+000
1	 8.046910649982507e-001	 6.588437652426532e-001	-2.871873490067702e+000
1	 7.973806188148718e-001	 6.676728311657690e-001	-3.764004426483763e+000
1	 7.899696728305611e-001	 6.764250289764414e-001	-4.655250018191518e+000
1	 7.824594434921843e-001	 6.850986524745598e-001	-5.543244247926442e+000
1	 7.748511856527302e-001	 6.936920212730822e-001	-6.425564340099636e+000
1	 8.518059551566063e-001	 6.082279496633187e-001	 2.140182786309344e+000
1	 8.450789755456339e-001	 6.175404075625227e-001	 1.286868620167812e+000
1	 8.382443521541747e-001	 6.267862898500387e-001	 4.221529763731706e-001
1	 8.313030648798628e-001	 6.359637473290957e-001	-4.519656788302727e-001
1	 8.242561356303462e-001	 6.450709498959332e-001	-1.333411828178407e+000
1	 8.171046278619158e-001	 6.541060877258093e-001	-2.220035762536387e+000
1	 8.098496460781764e-001	 6.630673724457090e-001	-3.109616587938203e+000
1	 8.024923352892005e-001	 6.719530382921890e-001	-3.999865375221922e+000
1	 7.950338804316810e-001	 6.807613432528102e-001	-4.888428446578160e+000
1	 7.874755057506695e-001	 6.894905701896319e-001	-5.772890792943599e+000
1	 7.798184741435482e-001	 6.981390279432600e-001	-6.650779615807802e+000
1	 8.572318044950911e-001	 6.121022513089577e-001	 1.898286243932465e+000
1	 8.504619752447837e-001	 6.214740278747093e-001	 1.043055761554531e+000
1	 8.435838165427069e-001	 6.307788047542697e-001	 1.770653704329248e-001
1	 8.365983145282484e-001	 6.400147209718181e-001	-6.976597084426310e-001
1	 8.295064976184053e-001	 6.491799347661639e-001	-1.579016400661136e+000
1	 8.223094360434770e-001	 6.582726247843088e-001	-2.464826708998661e+000
1	 8.150082413425385e-001	 6.672909912616248e-001	-3.352840794057233e+000
1	 8.076040658191516e-001	 6.762332571870745e-001	-4.240740199486220e+000
1	 8.000981019578242e-001	 6.850976694519142e-001	-5.126141215946518e+000
1	 7.924915818018116e-001	 6.938824999803447e-001	-6.006598377579827e+000
1	 7.847857762929047e-001	 7.025860468405919e-001	-6.879608084384703e+000
1	 8.626576592572942e-001	 6.159765568281508e-001	 1.649419059939443e+000
1	 8.558449803248511e-001	 6.254076521196812e-001	 7.923770898660711e-001
1	 8.489232862686810e-001	 6.347713236500919e-001	-7.468636993367250e-002
1	 8.418935694699284e-001	 6.440656986645033e-001	-9.497329022030170e-001
1	 8.347568648549454e-001	 6.532889237442848e-001	-1.830646267964348e+000
1	 8.275142494280406e-001	 6.624391660081712e-001	-2.715235386332795e+000
1	 8.201668417637648e-001	 6.715146142999121e-001	-3.601237464906439e+000
1	 8.127158014591731e-001	 6.805134803608659e-001	-4.486321275176782e+000
1	 8.051623285465938e-001	 6.894339999859750e-001	-5.368090567002184e+000
1	 7.975076628674882e-001	 6.982744341615723e-001	-6.244087615794141e+000
1	 7.897530834080641e-001	 7.070330701834948e-001	-7.111796895696192e+000
1	 8.680835099479130e-001	 6.198508594416141e-001	 1.393689683818012e+000
1	 8.612279813655368e-001	 6.293412734143905e-001	 5.349981865254585e-001
1	 8.542627519879941e-001	 6.387638395514256e-001	-3.328899280979753e-001
1	 8.471888204381821e-001	 6.481166733187914e-001	-1.207936334430364e+000
1	 8.400072281517993e-001	 6.573979096404267e-001	-2.088025740658828e+000
1	 8.327190589071605e-001	 6.666057041068111e-001	-2.970968895780582e+000
1	 8.253254383142842e-001	 6.757382341700818e-001	-3.854505746152128e+000
1	 8.178275332637144e-001	 6.847937003240027e-001	-4.736308735958747e+000
1	 8.102265513355921e-001	 6.937703272672137e-001	-5.613986245575762e+000
1	 8.025237401695791e-001	 7.026663650481889e-001	-6.485086161406390e+000
1	 7.947203867962918e-001	 7.114800901903866e-001	-7.347099570411197e+000
1	 7.450482283302942e-001	 6.670106737908847e-001	-5.165165251989974e+000
1	 7.376407085647760e-001	 6.751935382033578e-001	-6.048574667315791e+000
1	 7.301414800067997e-001	 6.832961067697868e-001	-6.903972945478319e+000
1	 7.225518559652614e-001	 6.913168456532408e-001	-7.730434103368098e+000
1	 7.148731837902085e-001	 6.992542498395045e-001	-8.527042892042523e+000
1	 7.071068440770070e-001	 7.071068440770069e-001	-9.292896385610678e+000
1	 6.992542498395046e-001	 7.148731837902086e-001	-1.002710556070939e+001
1	 6.913168456532407e-001	 7.225518559652614e-001	-1.072879686321394e+001
1	 6.832961067697868e-001	 7.301414800067997e-001	-1.139711375887792e+001
1	 6.751935382033579e-001	 7.376407085647760e-001	-1.203121826461123e+001
1	 6.670106737908847e-001	 7.450482283302943e-001	-1.263029245714739e+001
1	 7.500152523224444e-001	 6.714574436849000e-001	-5.363007984303077e+000
1	 7.425583487368150e-001	 6.796948609187311e-001	-6.244478480513825e+000
1	 7.350091249626953e-001	 6.878514469967676e-001	-7.097414107271970e+000
1	 7.273689030643643e-001	 6.959256578564965e-001	-7.921004138346154e+000
1	 7.196390393741970e-001	 7.039159784502747e-001	-8.714452363363355e+000
1	 7.118209236915217e-001	 7.118209236915217e-001	-9.476978468050168e+000
1	 7.039159784502745e-001	 7.196390393741969e-001	-1.020781939842802e+001
1	 6.959256578564965e-001	 7.273689030643643e-001	-1.090623070606675e+001
1	 6.878514469967673e-001	 7.350091249626949e-001	-1.157148787155160e+001
1	 6.796948609187310e-001	 7.425583487368149e-001	-1.220288760335360e+001
1	 6.714574436848999e-001	 7.500152523224445e-001	-1.279974910935709e+001
1	 7.549823421295439e-001	 6.759042724955662e-001	-5.566126811762221e+000
1	 7.474760540691479e-001	 6.841962432740210e-001	-6.445080483447701e+000
1	 7.398768344160392e-001	 6.924068475798988e-001	-7.295074447778976e+000
1	 7.321860139900158e-001	 7.005345311249522e-001	-8.115408021542637e+000
1	 7.244049581059168e-001	 7.085777688279572e-001	-8.905398563243194e+000
1	 7.165350657671743e-001	 7.165350657671743e-001	-9.664382653607820e+000
1	 7.085777688279572e-001	 7.244049581059169e-001	-1.039171725383300e+001
1	 7.005345311249522e-001	 7.321860139900160e-001	-1.108678083912131e+001
1	 6.924068475798989e-001	 7.398768344160395e-001	-1.174897450509496e+001
1	 6.841962432740211e-001	 7.474760540691480e-001	-1.237772304475905e+001
1	 6.759042724955661e-001	 7.549823421295439e-001	-1.297247599371773e+001
1	 7.599494890588572e-001	 6.803511524413004e-001	-5.774226079577035e+000
1	 7.523938159555098e-001	 6.886976773921116e-001	-6.650118749725235e+000
1	 7.447445998481189e-001	 6.969623005474628e-001	-7.496721997672052e+000
1	 7.370031803121179e-001	 7.051434573932359e-001	-8.313440090401302e+000
1	 7.291709316449299e-001	 7.132396128144953e-001	-9.099698610117299e+000
1	 7.212492620542139e-001	 7.212492620542138e-001	-9.854945443790765e+000
1	 7.132396128144953e-001	 7.291709316449299e-001	-1.057865174466507e+001
1	 7.051434573932358e-001	 7.370031803121178e-001	-1.127031286367439e+001
1	 6.969623005474627e-001	 7.447445998481187e-001	-1.192944924880380e+001
1	 6.886976773921116e-001	 7.523938159555098e-001	-1.255560731048193e+001
1	 6.803511524413002e-001	 7.599494890588570e-001	-1.314836025118394e+001
1	 7.649166844176492e-001	 6.847980757405193e-001	-5.987017855552153e+000
1	 7.573116257896370e-001	 6.931991553958878e-001	-6.859338195208997e+000
1	 7.496124127402216e-001	 7.015177979277401e-001	-7.702130847879226e+000
1	 7.418203936005725e-001	 7.097524285959757e-001	-8.514900055808212e+000
1	 7.339369516507991e-001	 7.179015022518339e-001	-9.297174400984408e+000
1	 7.259635043028904e-001	 7.259635043028903e-001	-1.004850761239013e+001
1	 7.179015022518338e-001	 7.339369516507991e-001	-1.076847933984198e+001
1	 7.097524285959757e-001	 7.418203936005726e-001	-1.145669589277170e+001
1	 7.015177979277402e-001	 7.496124127402213e-001	-1.211279094237911e+001
1	 6.931991553958877e-001	 7.573116257896371e-001	-1.273642618567452e+001
1	 6.847980757405193e-001	 7.649166844176492e-001	-1.332729197001016e+001
1	 7.698839195131854e-001	 6.892450346116411e-001	-6.204221682498972e+000
1	 7.622294749652648e-001	 6.977006694082336e-001	-7.072490358620041e+000
1	 7.544802645736347e-001	 7.060733317490129e-001	-7.911080955232123e+000
1	 7.466376454252821e-001	 7.143614366677993e-001	-8.719592829733459e+000
1	 7.387030097830855e-001	 7.225634289819166e-001	-9.497652458100495e+000
1	 7.306777842634514e-001	 7.306777842634512e-001	-1.024491406838665e+001
1	 7.225634289819166e-001	 7.387030097830855e-001	-1.096106023585364e+001
1	 7.143614366677991e-001	 7.466376454252820e-001	-1.164580243846281e+001
1	 7.060733317490127e-001	 7.544802645736344e-001	-1.229888157154796e+001
1	 6.977006694082334e-001	 7.622294749652647e-001	-1.292006842058185e+001
1	 6.892450346116412e-001	 7.698839195131856e-001	-1.350916409104811e+001
1	 7.748511856527302e-001	 6.936920212730822e-001	-6.425564340099638e+000
1	 7.671473548761287e-001	 7.022022115520339e-001	-7.289333190517037e+000
1	 7.593481468296452e-001	 7.106288940395611e-001	-8.123357955532951e+000
1	 7.514549273561479e-001	 7.189704735433338e-001	-8.927328359456388e+000
1	 7.434690977013519e-001	 7.272253848466873e-001	-9.700963781527996e+000
1	 7.353920936861466e-001	 7.353920936861461e-001	-1.044401372409515e+001
1	 7.272253848466873e-001	 7.434690977013521e-001	-1.115625823787152e+001
1	 7.189704735433342e-001	 7.514549273561483e-001	-1.183750830336523e+001
1	 7.106288940395612e-001	 7.593481468296451e-001	-1.248760616766750e+001
1	 7.022022115520336e-001	 7.671473548761286e-001	-1.310642563589233e+001
1	 6.936920212730819e-001	 7.748511856527302e-001	-1.369387231666289e+001
1	 7.798184741435482e-001	 6.981390279432600e-001	-6.650779615807803e+000
1	 7.720652569159653e-001	 7.067037739501728e-001	-7.509630850284354e+000
1	 7.642160509895408e-001	 7.151844768276672e-001	-8.338752983714970e+000
1	 7.562722309630735e-001	 7.235795311572085e-001	-9.137921468078098e+000
1	 7.482352070651606e-001	 7.318873616880898e-001	-9.906943707276890e+000
1	 7.401064243212243e-001	 7.401064243212244e-001	-1.064565936830833e+001
1	 7.318873616880895e-001	 7.482352070651605e-001	-1.135394064537126e+001
1	 7.235795311572083e-001	 7.562722309630734e-001	-1.203169247633981e+001
1	 7.151844768276674e-001	 7.642160509895410e-001	-1.267885271113978e+001
1	 7.067037739501727e-001	 7.720652569159652e-001	-1.329539223168039e+001
1	 6.981390279432600e-001	 7.798184741435483e-001	-1.388131502310227e+001
1	 7.847857762929047e-001	 7.025860468405919e-001	-6.879608084384702e+000
1	 7.769831724785091e-001	 7.112053487255350e-001	-7.733153510770889e+000
1	 7.690839685346087e-001	 7.197400721416120e-001	-8.557062500782457e+000
1	 7.610895478159594e-001	 7.281886014440498e-001	-9.351191701047888e+000
1	 7.530013295340728e-001	 7.365493513480671e-001	-1.011543177079516e+001
1	 7.448207679189339e-001	 7.448207679189339e-001	-1.084970754422307e+001
1	 7.365493513480673e-001	 7.530013295340731e-001	-1.155397814206564e+001
1	 7.281886014440500e-001	 7.610895478159596e-001	-1.222823703210069e+001
1	 7.197400721416120e-001	 7.690839685346088e-001	-1.287251203846630e+001
1	 7.112053487255350e-001	 7.769831724785092e-001	-1.348686529978096e+001
1	 7.025860468405920e-001	 7.847857762929047e-001	-1.407139317617123e+001
1	 7.897530834080641e-001	 7.070330701834948e-001	-7.111796895696193e+000
1	 7.819010929574963e-001	 7.157069280010050e-001	-7.959677170250764e+000
1	 7.739518909461362e-001	 7.242956720096766e-001	-8.778088127234881e+000
1	 7.659068694847088e-001	 7.327976763384864e-001	-9.566963178439586e+000
1	 7.577674567676516e-001	 7.412113456685648e-001	-1.032627157557418e+001
1	 7.495351162295243e-001	 7.495351162295242e-001	-1.105601843194277e+001
1	 7.412113456685647e-001	 7.577674567676513e-001	-1.175624468996317e+001
1	 7.327976763384864e-001	 7.659068694847089e-001	-1.242702703458572e+001
1	 7.242956720096769e-001	 7.739518909461362e-001	-1.306847775278609e+001
1	 7.157069280010052e-001	 7.819010929574967e-001	-1.368074453944773e+001
1	 7.070330701834953e-001	 7.897530834080643e-001	-1.426401025006470e+001
1	 7.947203867962918e-001	 7.114800901903866e-001	-7.347099570411196e+000
1	 7.868190097466631e-001	 7.202085038994671e-001	-8.188983471384558e+000
1	 7.788198097054105e-001	 7.288512684601431e-001	-9.001636482693623e+000
1	 7.707241875392233e-001	 7.374067477751456e-001	-9.785064452727754e+000
1	 7.625335804254584e-001	 7.458733364915255e-001	-1.053931066664536e+001
1	 7.542494610032443e-001	 7.542494610032443e-001	-1.126445573535240e+001
1	 7.458733364915253e-001	 7.625335804254582e-001	-1.196061742736989e+001
1	 7.374067477751457e-001	 7.707241875392235e-001	-1.262795044392497e+001
1	 7.288512684601429e-001	 7.788198097054103e-001	-1.326664613774407e+001
1	 7.202085038994671e-001	 7.868190097466631e-001	-1.387693217615216e+001
1	 7.114800901903867e-001	 7.947203867962918e-001	-1.445907214922369e+001
1	 6.670106737908847e-001	 7.450482283302943e-001	-1.263029245714739e+001
1	 6.587478301396494e-001	 7.523638511618765e-001	-1.319097507023608e+001
1	 6.504078186112842e-001	 7.595852159436007e-001	-1.371032254525663e+001
1	 6.419922549603809e-001	 7.667111160878266e-001	-1.418845467151112e+001
1	 6.335027797617576e-001	 7.737403819358266e-001	-1.462553585713419e+001
1	 6.249410573556360e-001	 7.806718813845673e-001	-1.502177483815134e+001
1	 6.163087747742402e-001	 7.875045204774029e-001	-1.537742432344061e+001
1	 6.076076406512597e-001	 7.942372439580682e-001	-1.569278057653031e+001
1	 5.988393841156297e-001	 8.008690357874089e-001	-1.596818293528176e+001
1	 5.900057536711102e-001	 8.073989196223580e-001	-1.620401327067118e+001
1	 5.811085160631598e-001	 8.138259592567366e-001	-1.640069538599823e+001
1	 6.714574436848999e-001	 7.500152523224445e-001	-1.279974910935709e+001
1	 6.631395140132276e-001	 7.573796463238672e-001	-1.335893838984024e+001
1	 6.547439020078864e-001	 7.646491538842305e-001	-1.387759576638572e+001
1	 6.462722341952490e-001	 7.718225603718485e-001	-1.435576252111884e+001
1	 6.377261620873863e-001	 7.788986883301445e-001	-1.479352283515010e+001
1	 6.291073611202073e-001	 7.858763981086074e-001	-1.519100364949991e+001
1	 6.204175295729066e-001	 7.927545884574260e-001	-1.554837446395848e+001
1	 6.116583874701552e-001	 7.995321970851738e-001	-1.586584707447109e+001
1	 6.028316754685039e-001	 8.062082011789852e-001	-1.614367524977068e+001
1	 5.939391537284960e-001	 8.127816178867238e-001	-1.638215434812464e+001
1	 5.849826007739867e-001	 8.192515047607228e-001	-1.658162087518989e+001
1	 6.759042724955661e-001	 7.549823421295439e-001	-1.297247599371772e+001
1	 6.675312560732037e-001	 7.623955079472441e-001	-1.353029254797921e+001
1	 6.590800428538963e-001	 7.697131589242686e-001	-1.404836844733597e+001
1	 6.505522701359425e-001	 7.769340723847997e-001	-1.452666789690588e+001
1	 6.419496003688086e-001	 7.840570630743252e-001	-1.496519615223762e+001
1	 6.332737200842384e-001	 7.910809837947759e-001	-1.536399953167651e+001
1	 6.245263388085474e-001	 7.980047260030978e-001	-1.572316536893775e+001
1	 6.157091879575354e-001	 8.048272203726286e-001	-1.604282190613544e+001
1	 6.068240197155237e-001	 8.115474373167191e-001	-1.632313812765340e+001
1	 5.978726058999935e-001	 8.181643874740976e-001	-1.656432353538227e+001
1	 5.888567368133509e-001	 8.246771221555452e-001	-1.676662786597616e+001
1	 6.803511524413002e-001	 7.599494890588570e-001	-1.314836025118394e+001
1	 6.719230486344507e-001	 7.674114272538863e-001	-1.370492707322760e+001
1	 6.634162335615358e-001	 7.747772222013188e-001	-1.422253104053984e+001
1	 6.548323552929011e-001	 7.820456431811288e-001	-1.470106068819005e+001
1	 6.461730872155351e-001	 7.892154971407974e-001	-1.514044362587441e+001
1	 6.374401269571447e-001	 7.962856293346265e-001	-1.554064670131743e+001
1	 6.286351952912920e-001	 8.032549239262516e-001	-1.590167610638763e+001
1	 6.197600350250395e-001	 8.101223045537095e-001	-1.622357742584193e+001
1	 6.108164098706105e-001	 8.168867348565088e-001	-1.650643562873718e+001
1	 6.018061033025566e-001	 8.235472189641807e-001	-1.675037500269075e+001
1	 5.927309174019697e-001	 8.301028019459008e-001	-1.695555903130143e+001
1	 6.847980757405193e-001	 7.649166844176492e-001	-1.332729197001016e+001
1	 6.763148840118433e-001	 7.724273954656711e-001	-1.388273437826284e+001
1	 6.677524665430258e-001	 7.798413348529821e-001	-1.439997685759235e+001
1	 6.591124821765653e-001	 7.871572638152848e-001	-1.487883365735757e+001
1	 6.503966152370773e-001	 7.943739815019895e-001	-1.531915599990848e+001
1	 6.416065744483402e-001	 8.014903256197123e-001	-1.572083239463563e+001
1	 6.327440918312718e-001	 8.085051730387199e-001	-1.608378889747819e+001
1	 6.238109215843082e-001	 8.154174403616956e-001	-1.640798931546210e+001
1	 6.148088389476848e-001	 8.222260844542513e-001	-1.669343535596817e+001
1	 6.057396390531372e-001	 8.289301029366746e-001	-1.694016672056343e+001
1	 5.966051357605590e-001	 8.355285346364872e-001	-1.714826114335711e+001
1	 6.892450346116412e-001	 7.698839195131856e-001	-1.350916409104811e+001
1	 6.807067545202548e-001	 7.774434038044776e-001	-1.406360966716687e+001
1	 6.720887342105870e-001	 7.849054880168623e-001	-1.458060197732306e+001
1	 6.633926432973741e-001	 7.922689253417159e-001	-1.505988234745436e+001
1	 6.546201770429464e-001	 7.995325071303310e-001	-1.550122685040145e+001
1	 6.457730552672396e-001	 8.066950635415869e-001	-1.590444677023627e+001
1	 6.368530212386180e-001	 8.137554641523362e-001	-1.626938901502515e+001
1	 6.278618405469804e-001	 8.207126185298643e-001	-1.659593647725835e+001
1	 6.188012999606667e-001	 8.275654767658446e-001	-1.688400834130060e+001
1	 6.096732062686899e-001	 8.343130299712809e-001	-1.713356033734552e+001
1	 6.004793851098360e-001	 8.409543107320019e-001	-1.734458494148683e+001
1	 6.936920212730819e-001	 7.748511856527302e-001	-1.369387231666289e+001
1	 6.850986524745599e-001	 7.824594434921843e-001	-1.424745084626571e+001
1	 6.764250289764416e-001	 7.899696728305611e-001	-1.476430515737727e+001
1	 6.676728311657691e-001	 7.973806188148717e-001	-1.524410499330645e+001
1	 6.588437652426532e-001	 8.046910649982508e-001	-1.568655249506815e+001
1	 6.499395621232578e-001	 8.118998339918039e-001	-1.609138281563692e+001
1	 6.409619763234614e-001	 8.190057880789339e-001	-1.645836468584605e+001
1	 6.319127848246962e-001	 8.260078297914941e-001	-1.678730093081551e+001
1	 6.227937859234779e-001	 8.329049024471866e-001	-1.707802893592362e+001
1	 6.136067980661671e-001	 8.396959906477001e-001	-1.733042106144815e+001
1	 6.043536586705171e-001	 8.463801207371422e-001	-1.754438500513956e+001
1	 6.981390279432600e-001	 7.798184741435483e-001	-1.388131502310226e+001
1	 6.894905701896319e-001	 7.874755057506694e-001	-1.443415843835168e+001
1	 6.807613432528102e-001	 7.950338804316809e-001	-1.495098774915142e+001
1	 6.719530382921890e-001	 8.024923352892006e-001	-1.543140243601173e+001
1	 6.630673724457090e-001	 8.098496460781767e-001	-1.587503190615135e+001
1	 6.541060877258093e-001	 8.171046278619158e-001	-1.628153625734010e+001
1	 6.450709498959331e-001	 8.242561356303459e-001	-1.665060699682448e+001
1	 6.359637473290956e-001	 8.313030648798628e-001	-1.698196771388023e+001
1	 6.267862898500388e-001	 8.382443521541750e-001	-1.727537470465163e+001
1	 6.175404075625226e-001	 8.450789755456339e-001	-1.753061754805373e+001
1	 6.082279496633188e-001	 8.518059551566065e-001	-1.774751963163891e+001
1	 7.025860468405920e-001	 7.847857762929047e-001	-1.407139317617123e+001
1	 6.938824999803446e-001	 7.924915818018115e-001	-1.462363550014061e+001
1	 6.850976694519144e-001	 8.000981019578244e-001	-1.514055361593466e+001
1	 6.762332571870746e-001	 8.076040658191518e-001	-1.562167804065478e+001
1	 6.672909912616249e-001	 8.150082413425387e-001	-1.606656662658275e+001
1	 6.582726247843088e-001	 8.223094360434772e-001	-1.647480547429248e+001
1	 6.491799347661639e-001	 8.295064976184055e-001	-1.684600980451374e+001
1	 6.400147209718181e-001	 8.365983145282481e-001	-1.717982478693989e+001
1	 6.307788047542696e-001	 8.435838165427070e-001	-1.747592632429772e+001
1	 6.214740278747095e-001	 8.504619752447837e-001	-1.773402179009109e+001
1	 6.121022513089578e-001	 8.572318044950912e-001	-1.795385071856286e+001
1	 7.070330701834953e-001	 7.897530834080643e-001	-1.426401025006470e+001
1	 6.982744341615721e-001	 7.975076628674882e-001	-1.481578754281937e+001
1	 6.894339999859754e-001	 8.051623285465941e-001	-1.533290905411904e+001
1	 6.805134803608659e-001	 8.127158014591731e-001	-1.581483761710572e+001
1	 6.715146142999120e-001	 8.201668417637646e-001	-1.626106068928162e+001
1	 6.624391660081714e-001	 8.275142494280411e-001	-1.667109141458850e+001
1	 6.532889237442850e-001	 8.347568648549454e-001	-1.704446964812758e+001
1	 6.440656986645036e-001	 8.418935694699287e-001	-1.738076294137611e+001
1	 6.347713236500917e-001	 8.489232862686806e-001	-1.767956748585281e+001
1	 6.254076521196810e-001	 8.558449803248510e-001	-1.794050901329597e+001
1	 6.159765568281506e-001	 8.626576592572943e-001	-1.816324365052835e+001
1	 7.114800901903867e-001	 7.947203867962918e-001	-1.445907214922369e+001
1	 7.026663650481888e-001	 8.025237401695792e-001	-1.501052245555353e+001
1	 6.937703272672139e-001	 8.102265513355922e-001	-1.552796271734175e+001
1	 6.847937003240027e-001	 8.178275332637143e-001	-1.601078934376662e+001
1	 6.757382341700814e-001	 8.253254383142840e-001	-1.645842053946199e+001
1	 6.666057041068113e-001	 8.327190589071603e-001	-1.687029751527275e+001
1	 6.573979096404270e-001	 8.400072281517993e-001	-1.724588566577142e+001
1	 6.481166733187913e-001	 8.471888204381821e-001	-1.758467571103807e+001
1	 6.387638395514258e-001	 8.542627519879944e-001	-1.788618480030713e+001
1	 6.293412734143902e-001	 8.612279813655365e-001	-1.814995757517695e+001
1	 6.198508594416140e-001	 8.680835099479131e-001	-1.837556719019205e+001
1	 5.811085160631598e-001	 8.138259592567366e-001	-1.640069538599823e+001
1	 5.721494549410069e-001	 8.201492587923700e-001	-1.656217422441457e+001
1	 5.631303691352768e-001	 8.263679623034137e-001	-1.669198929913289e+001
1	 5.540530720989082e-001	 8.324812548450976e-001	-1.679001283164738e+001
1	 5.449193909360233e-001	 8.384883629704416e-001	-1.685615108218466e+001
1	 5.357311652289508e-001	 8.443885549780590e-001	-1.689034435012154e+001
1	 5.264902458615941e-001	 8.501811411206632e-001	-1.689256692410677e+001
1	 5.171984938406530e-001	 8.558654737743153e-001	-1.686282698237235e+001
1	 5.078577791162044e-001	 8.614409475685220e-001	-1.680116644381748e+001
1	 4.984699794031350e-001	 8.669069994773565e-001	-1.670766077054849e+001
1	 4.890369790048946e-001	 8.722631088718381e-001	-1.658241872270102e+001
1	 5.849826007739867e-001	 8.192515047607228e-001	-1.658162087518989e+001
1	 5.759638121453027e-001	 8.256169599300633e-001	-1.674590910033040e+001
1	 5.668845986654242e-001	 8.318771217627184e-001	-1.687850877046701e+001
1	 5.577467858771380e-001	 8.380311698809669e-001	-1.697929482911962e+001
1	 5.485522130654222e-001	 8.440783256815294e-001	-1.704817513040812e+001
1	 5.393027320766501e-001	 8.500178525850265e-001	-1.708509044473672e+001
1	 5.300002061341147e-001	 8.558490562458756e-001	-1.709001441616693e+001
1	 5.206465086513883e-001	 8.615712847226639e-001	-1.706295347192479e+001
1	 5.112435220450454e-001	 8.671839286091179e-001	-1.700394668458799e+001
1	 5.017931365482345e-001	 8.726864211258275e-001	-1.691306558760485e+001
1	 4.922972490265902e-001	 8.780782381729779e-001	-1.679041394490286e+001
1	 5.888567368133509e-001	 8.246771221555452e-001	-1.676662786597616e+001
1	 5.797782198871765e-001	 8.310847335173304e-001	-1.693377337852132e+001
1	 5.706388779369471e-001	 8.373863542211578e-001	-1.706919773535309e+001
1	 5.614405485954396e-001	 8.435811584562625e-001	-1.717277764416744e+001
1	 5.521850833286301e-001	 8.496683624629792e-001	-1.724442170418478e+001
1	 5.428743462470814e-001	 8.556472247838542e-001	-1.728407041755522e+001
1	 5.335102129136188e-001	 8.615170464749266e-001	-1.729169615424378e+001
1	 5.240945691488355e-001	 8.672771712772370e-001	-1.726730307079935e+001
1	 5.146293098359489e-001	 8.729269857486570e-001	-1.721092698352281e+001
1	 5.051163377265164e-001	 8.784659193562274e-001	-1.712263519664233e+001
1	 4.955575622485071e-001	 8.838934445292345e-001	-1.700252628621378e+001
1	 5.927309174019697e-001	 8.301028019459008e-001	-1.695555903130143e+001
1	 5.835926714918183e-001	 8.365525699850670e-001	-1.712559818377431e+001
1	 5.743932003802006e-001	 8.428956500370379e-001	-1.726387729391349e+001
1	 5.651343537900048e-001	 8.491312108579269e-001	-1.737027388923398e+001
1	 5.558179953683311e-001	 8.552584635316093e-001	-1.744469647718612e+001
1	 5.464460014900537e-001	 8.612766617224811e-001	-1.748708456273909e+001
1	 5.370202600576584e-001	 8.671851018881377e-001	-1.749740862103449e+001
1	 5.275426692988844e-001	 8.729831234520049e-001	-1.747567002548925e+001
1	 5.180151365637197e-001	 8.786701089360396e-001	-1.742190093181992e+001
1	 5.084395771222590e-001	 8.842454840536720e-001	-1.733616411856850e+001
1	 4.988179129649336e-001	 8.897087177632357e-001	-1.721855278479367e+001
1	 5.966051357605590e-001	 8.355285346364872e-001	-1.714826114335711e+001
1	 5.874071602844180e-001	 8.420204597641681e-001	-1.732121904048532e+001
1	 5.781475594255391e-001	 8.484049995686656e-001	-1.746237320672143e+001
1	 5.688281949970270e-001	 8.546813173729051e-001	-1.757160105817356e+001
1	 5.594509428272085e-001	 8.608486191042365e-001	-1.764881018525804e+001
1	 5.500176915553778e-001	 8.669061535488472e-001	-1.769393837691197e+001
1	 5.405303414237858e-001	 8.728532125658290e-001	-1.770695360127762e+001
1	 5.309908030674251e-001	 8.786891312609383e-001	-1.768785394320521e+001
1	 5.214009963031628e-001	 8.844132881201636e-001	-1.763666749902114e+001
1	 5.117628489197403e-001	 8.900251051032773e-001	-1.755345222909429e+001
1	 5.020782954701594e-001	 8.955240476976104e-001	-1.743829576883613e+001
1	 6.004793851098360e-001	 8.409543107320019e-001	-1.734458494148683e+001
1	 5.912216795901660e-001	 8.474883932855289e-001	-1.752047573086929e+001
1	 5.819019485033184e-001	 8.539143931743477e-001	-1.766451574458780e+001
1	 5.725220657526984e-001	 8.602314682881397e-001	-1.777658136890270e+001
1	 5.630839193479468e-001	 8.664388193976782e-001	-1.785657846323094e+001
1	 5.535894101928633e-001	 8.725356904108920e-001	-1.790444239143657e+001
1	 5.440404508695519e-001	 8.785213685883219e-001	-1.792013801080681e+001
1	 5.344389644203482e-001	 8.843951847180088e-001	-1.790365961902769e+001
1	 5.247868831290850e-001	 8.901565132499307e-001	-1.785503085957954e+001
1	 5.150861473032390e-001	 8.958047723901597e-001	-1.777430458604888e+001
1	 5.053387040584731e-001	 9.013394241549870e-001	-1.766156268595483e+001
1	 6.043536586705171e-001	 8.463801207371422e-001	-1.754438500513956e+001
1	 5.950362227342531e-001	 8.529563609800457e-001	-1.772321215858322e+001
1	 5.856563610438934e-001	 8.594238212123906e-001	-1.787013954408360e+001
1	 5.762159595932116e-001	 8.657816538905742e-001	-1.798504161205906e+001
1	 5.667169185732297e-001	 8.720290546287525e-001	-1.806782168796147e+001
1	 5.571611511523206e-001	 8.781652624565558e-001	-1.811841201109315e+001
1	 5.475505822525099e-001	 8.841895600359370e-001	-1.813677373213115e+001
1	 5.378871473235433e-001	 8.901012738371870e-001	-1.812289686965391e+001
1	 5.281727911162906e-001	 8.958997742742390e-001	-1.807680022605042e+001
1	 5.184094664570329e-001	 9.015844757994342e-001	-1.799853126328622e+001
1	 5.085991330241642e-001	 9.071548369579943e-001	-1.788816593908571e+001
1	 6.082279496633188e-001	 8.518059551566065e-001	-1.774751963163891e+001
1	 5.988507830418682e-001	 8.584243532786130e-001	-1.792927621752386e+001
1	 5.894107904776190e-001	 8.649332740411009e-001	-1.807908346854371e+001
1	 5.799098700547595e-001	 8.713318644671525e-001	-1.819681300540156e+001
1	 5.703499341457410e-001	 8.776193150142760e-001	-1.828236482733045e+001
1	 5.607329081835595e-001	 8.837948598337780e-001	-1.833566735888038e+001
1	 5.510607294302107e-001	 8.898577769889952e-001	-1.835667745625361e+001
1	 5.413353457429005e-001	 8.958073886324438e-001	-1.834538037345462e+001
1	 5.315587143395855e-001	 9.016430611419892e-001	-1.830178968860877e+001
1	 5.217328005654008e-001	 9.073642052162174e-001	-1.822594719089398e+001
1	 5.118595766615219e-001	 9.129702759292612e-001	-1.811792272861370e+001
1	 6.121022513089578e-001	 8.572318044950912e-001	-1.795385071856286e+001
1	 6.026653538382030e-001	 8.638923606121265e-001	-1.813851966557139e+001
1	 5.931652302348504e-001	 8.704427420187856e-001	-1.829119047431106e+001
1	 5.836037906735343e-001	 8.768820903048177e-001	-1.841173105370032e+001
1	 5.739829597081649e-001	 8.832095907710672e-001	-1.850003729493059e+001
1	 5.643046750363899e-001	 8.894244726904979e-001	-1.855603312666673e+001
1	 5.545708862602061e-001	 8.955260095278166e-001	-1.857967053045229e+001
1	 5.447835536443102e-001	 9.015135191177501e-001	-1.857092951656068e+001
1	 5.349446468737750e-001	 9.073863638020803e-001	-1.852981806061890e+001
1	 5.250561438126208e-001	 9.131439505256256e-001	-1.845637200142459e+001
1	 5.151200292648354e-001	 9.187857308914156e-001	-1.835065490045237e+001
1	 6.159765568281506e-001	 8.626576592572943e-001	-1.816324365052835e+001
1	 6.064799284484463e-001	 8.693603734114813e-001	-1.835079800306309e+001
1	 5.969196737459425e-001	 8.759522155037509e-001	-1.850630748199082e+001
1	 5.872977149857287e-001	 8.824323216905132e-001	-1.862963541387450e+001
1	 5.776159889031851e-001	 8.887998721159425e-001	-1.872067281020074e+001
1	 5.678764454606222e-001	 8.950540911746555e-001	-1.877933843143685e+001
1	 5.580810466000488e-001	 9.011942477327233e-001	-1.880557881176542e+001
1	 5.482317649936626e-001	 9.072196553070767e-001	-1.879936824471385e+001
1	 5.383305827936644e-001	 9.131296722034117e-001	-1.876070872998688e+001
1	 5.283794903829712e-001	 9.189237016127739e-001	-1.868962988188889e+001
1	 5.183804851283935e-001	 9.246011916670867e-001	-1.858618879981456e+001
1	 6.198508594416140e-001	 8.680835099479131e-001	-1.837556719019205e+001
1	 6.102945001977892e-001	 8.748283821075730e-001	-1.856597035579100e+001
1	 6.006741144412503e-001	 8.814616848543038e-001	-1.872428525249939e+001
1	 5.909916365275354e-001	 8.879825489111826e-001	-1.885036976515219e+001
1	 5.812490153734854e-001	 8.943901492657203e-001	-1.894410926376579e+001
1	 5.714482132060661e-001	 9.006837054341905e-001	-1.900541667688978e+001
1	 5.615912043072900e-001	 9.068624816840354e-001	-1.903423252592947e+001
1	 5.516799737568477e-001	 9.129257872143953e-001	-1.903052492063652e+001
1	 5.417165161740594e-001	 9.188729762948832e-001	-1.899428951605108e+001
1	 5.317028344607302e-001	 9.247034483627792e-001	-1.892554943126017e+001
1	 5.216409385464856e-001	 9.304166480789027e-001	-1.882435513042766e+001
1	 4.890369790048946e-001	 8.722631088718381e-001	-1.658241872270102e+001
1	 4.795620922583881e-001	 8.775080191404551e-001	-1.643170611513837e+001
1	 4.700458011791232e-001	 8.826421068707412e-001	-1.626211717162857e+001
1	 4.604900024760815e-001	 8.876649794392211e-001	-1.607437189744540e+001
1	 4.508965947721494e-001	 8.925762864264075e-001	-1.586922908886963e+001
1	 4.412674774614076e-001	 8.973757194803049e-001	-1.564748420583399e+001
1	 4.316045495771122e-001	 9.020630121438827e-001	-1.540996721439439e+001
1	 4.219097086716463e-001	 9.066379396471509e-001	-1.515754040401403e+001
1	 4.121848497096857e-001	 9.111003186645378e-001	-1.489109618458456e+001
1	 4.024318639757797e-001	 9.154500070382965e-001	-1.461155486808653e+001
1	 3.926526379975132e-001	 9.196869034687285e-001	-1.431986243973437e+001
1	 4.922972490265902e-001	 8.780782381729779e-001	-1.679041394490286e+001
1	 4.827591959128025e-001	 8.833581147616243e-001	-1.664238903668142e+001
1	 4.731794624357821e-001	 8.885264299898883e-001	-1.647569445050650e+001
1	 4.635599579492457e-001	 8.935827886167581e-001	-1.629101017198776e+001
1	 4.539025937335760e-001	 8.985268378865744e-001	-1.608905511929957e+001
1	 4.442092818454916e-001	 9.033582673916204e-001	-1.587058506403481e+001
1	 4.344819339784806e-001	 9.080768088984459e-001	-1.563639052095967e+001
1	 4.247224603352865e-001	 9.126822361385573e-001	-1.538729461156274e+001
1	 4.149327685136948e-001	 9.171743645641776e-001	-1.512415090626677e+001
1	 4.051147624068305e-001	 9.215530510698091e-001	-1.484784125012504e+001
1	 3.952703411191423e-001	 9.258181936803929e-001	-1.455927357679455e+001
1	 4.955575622485071e-001	 8.838934445292345e-001	-1.700252628621378e+001
1	 4.859563419306749e-001	 8.892082879011765e-001	-1.685713494001861e+001
1	 4.763131652153874e-001	 8.944108310808059e-001	-1.669328085669081e+001
1	 4.666299541012818e-001	 8.995006762095590e-001	-1.651160509397503e+001
1	 4.569086325264199e-001	 9.044774681955849e-001	-1.631278774352453e+001
1	 4.471511252103419e-001	 9.093408945754362e-001	-1.609754589907854e+001
1	 4.373593565069525e-001	 9.140906853392351e-001	-1.586663159270026e+001
1	 4.275352492695396e-001	 9.187266127199799e-001	-1.562082970387782e+001
1	 4.176807237291812e-001	 9.232484909476880e-001	-1.536095584628800e+001
1	 4.077976963877617e-001	 9.276561759691135e-001	-1.508785423698124e+001
1	 3.978880789267743e-001	 9.319495651338405e-001	-1.480239555270452e+001
1	 4.988179129649336e-001	 8.897087177632357e-001	-1.721855278479367e+001
1	 4.891535247168062e-001	 8.950585283205647e-001	-1.707574396064270e+001
1	 4.794469040337467e-001	 9.002952998450805e-001	-1.691467918240848e+001
1	 4.696999855594727e-001	 9.054186318606475e-001	-1.673596165223546e+001
1	 4.599147058898860e-001	 9.104281669392148e-001	-1.654023366780638e+001
1	 4.500930024075077e-001	 9.153235905615896e-001	-1.632817463698663e+001
1	 4.402368121268189e-001	 9.201046309414599e-001	-1.610049905975490e+001
1	 4.303480705518117e-001	 9.247710588133132e-001	-1.585795448215164e+001
1	 4.204287105470165e-001	 9.293226871849586e-001	-1.560131942697293e+001
1	 4.104806612232351e-001	 9.337593710554043e-001	-1.533140130589872e+001
1	 4.005058468391652e-001	 9.380810070988839e-001	-1.504903431770890e+001
1	 5.020782954701594e-001	 8.955240476976104e-001	-1.743829576883613e+001
1	 4.923507386759972e-001	 9.009088257812433e-001	-1.729802144424522e+001
1	 4.825806734066672e-001	 9.061798259842970e-001	-1.713969736171100e+001
1	 4.727700469511016e-001	 9.113366452130507e-001	-1.696388992100685e+001
1	 4.629208085631789e-001	 9.163789237032390e-001	-1.677120463986433e+001
1	 4.530349082885371e-001	 9.213063448799161e-001	-1.656228421422852e+001
1	 4.431142958023703e-001	 9.261186351803302e-001	-1.633780654510846e+001
1	 4.331609192595093e-001	 9.308155638404513e-001	-1.609848273668234e+001
1	 4.231767241580722e-001	 9.353969426458795e-001	-1.584505507030777e+001
1	 4.131636522179139e-001	 9.398626256478790e-001	-1.557829495906138e+001
1	 4.031236402750705e-001	 9.442125088453360e-001	-1.529900088739521e+001
1	 5.053387040584731e-001	 9.013394241549870e-001	-1.766156268595483e+001
1	 4.955479782130489e-001	 9.067591700446656e-001	-1.752377777866526e+001
1	 4.857144678499549e-001	 9.120643992000406e-001	-1.736814830460990e+001
1	 4.758401329034515e-001	 9.172547059097932e-001	-1.719520489588314e+001
1	 4.659269352855038e-001	 9.223297280734328e-001	-1.700551728622739e+001
1	 4.559768377049800e-001	 9.272891470602538e-001	-1.679969241606206e+001
1	 4.459918024978971e-001	 9.321326875310545e-001	-1.657837250349215e+001
1	 4.359737904700380e-001	 9.368601172232868e-001	-1.634223308588793e+001
1	 4.259247597532195e-001	 9.414712467003407e-001	-1.609198103661157e+001
1	 4.158466646764604e-001	 9.459659290657336e-001	-1.582835256144734e+001
1	 4.057414546532461e-001	 9.503440596430081e-001	-1.555211117925119e+001
1	 5.085991330241642e-001	 9.071548369579943e-001	-1.788816593908571e+001
1	 4.987452377327623e-001	 9.126095508722854e-001	-1.775282823225220e+001
1	 4.888482818794178e-001	 9.179490091938971e-001	-1.759984973754927e+001
1	 4.789102380438053e-001	 9.231728035939005e-001	-1.742972633602131e+001
1	 4.689330807960657e-001	 9.282805696355722e-001	-1.724299295579509e+001
1	 4.589187855083844e-001	 9.332719866324375e-001	-1.704022172104904e+001
1	 4.488693271776904e-001	 9.381467774688427e-001	-1.682202006643693e+001
1	 4.387866792608043e-001	 9.429047083837145e-001	-1.658902882147025e+001
1	 4.286728125233300e-001	 9.475455887182309e-001	-1.634192026937139e+001
1	 4.185296939035370e-001	 9.520692706281645e-001	-1.608139618487872e+001
1	 4.083592853924475e-001	 9.564756487617137e-001	-1.580818585546120e+001
1	 5.118595766615219e-001	 9.129702759292612e-001	-1.811792272861370e+001
1	 5.019425116399385e-001	 9.184599580255562e-001	-1.798499279836161e+001
1	 4.919821100108620e-001	 9.238336456674511e-001	-1.783462404992773e+001
1	 4.819803569994456e-001	 9.290909279083980e-001	-1.766727861233871e+001
1	 4.719392398340696e-001	 9.342314379754317e-001	-1.748345756933389e+001
1	 4.618607465502998e-001	 9.392548531263044e-001	-1.728369915146745e+001
1	 4.517468648060402e-001	 9.441608944689036e-001	-1.706857689320492e+001
1	 4.415995807092140e-001	 9.489493267436284e-001	-1.683869775945390e+001
1	 4.314208776592748e-001	 9.536199580694414e-001	-1.659470024596035e+001
1	 4.212127352038066e-001	 9.581726396543681e-001	-1.633725245798669e+001
1	 4.109771279114304e-001	 9.626072654712644e-001	-1.606705017166540e+001
1	 5.151200292648354e-001	 9.187857308914156e-001	-1.835065490045237e+001
1	 5.051397943393787e-001	 9.243103812659328e-001	-1.822009604571368e+001
1	 4.951159467600947e-001	 9.297182983222888e-001	-1.807229814641018e+001
1	 4.850504843976560e-001	 9.350090684963112e-001	-1.790769056142938e+001
1	 4.749454071387204e-001	 9.401823226787877e-001	-1.772674147464830e+001
1	 4.648027156822748e-001	 9.452377360716912e-001	-1.752995612936410e+001
1	 4.546244103472374e-001	 9.501750280064465e-001	-1.731787502734083e+001
1	 4.444124898926736e-001	 9.549939617249218e-001	-1.709107209683934e+001
1	 4.341689503519256e-001	 9.596943441238608e-001	-1.685015283398543e+001
1	 4.238957838819312e-001	 9.642760254635410e-001	-1.659575242183098e+001
1	 4.135949776289506e-001	 9.687388990414730e-001	-1.632853383142334e+001
1	 5.183804851283935e-001	 9.246011916670867e-001	-1.858618879981456e+001
1	 5.083370802358834e-001	 9.301608103548681e-001	-1.845796697435831e+001
1	 4.982497866429231e-001	 9.356029568599945e-001	-1.831270330476880e+001
1	 4.881206148657190e-001	 9.409272150006649e-001	-1.815079534495678e+001
1	 4.779515774492233e-001	 9.461332133314151e-001	-1.797267930717694e+001
1	 4.677446877558582e-001	 9.512206249984340e-001	-1.777882833800042e+001
1	 4.575019587655727e-001	 9.561891675566812e-001	-1.756975075859759e+001
1	 4.472254018885886e-001	 9.610386027494881e-001	-1.734598827362727e+001
1	 4.369170257921534e-001	 9.657687362513792e-001	-1.710811415301976e+001
1	 4.265788352425740e-001	 9.703794173748794e-001	-1.685673139093216e+001
1	 4.162128299637635e-001	 9.748705387421515e-001	-1.659247084612919e+001
1	 5.216409385464856e-001	 9.304166480789027e-001	-1.882435513042766e+001
1	 5.115343637342540e-001	 9.360112350538160e-001	-1.869843887700191e+001
1	 5.013836241751540e-001	 9.414876109821543e-001	-1.855567503902012e+001
1	 4.911907430309177e-001	 9.468453570644847e-001	-1.839643031427930e+001
1	 4.809577455047829e-001	 9.520840995190897e-001	-1.822110985577972e+001
1	 4.706866576225989e-001	 9.572035094363699e-001	-1.803015558845764e+001
1	 4.603795050253364e-001	 9.622033025948157e-001	-1.782404449000295e+001
1	 4.500383117743657e-001	 9.670832392392221e-001	-1.760328683998083e+001
1	 4.396650991708301e-001	 9.718431238218864e-001	-1.736842444147796e+001
1	 4.292618845903969e-001	 9.764828047075796e-001	-1.712002881947603e+001
1	 4.188306803346252e-001	 9.810021738431126e-001	-1.685869940014224e+001
1	 3.926526379975132e-001	 9.196869034687285e-001	-1.431986243973437e+001
1	 3.828475801467559e-001	 9.238115574925391e-001	-1.401997852738064e+001
1	 3.730200306188907e-001	 9.278233049990166e-001	-1.371601524061424e+001
1	 3.631718566724362e-001	 9.317221658209343e-001	-1.340905144152462e+001
1	 3.533049166519174e-001	 9.355081991183117e-001	-1.310019048145480e+001
1	 3.434210590039752e-001	 9.391815029145867e-001	-1.279055731545703e+001
1	 3.335221213151299e-001	 9.427422136050959e-001	-1.248129563368554e+001
1	 3.236099293720238e-001	 9.461905054388913e-001	-1.217356501541161e+001
1	 3.136862962449284e-001	 9.495265899749484e-001	-1.186853811110786e+001
1	 3.037530213952426e-001	 9.527507155138413e-001	-1.156739785789297e+001
1	 2.938118898076575e-001	 9.558631665059840e-001	-1.127133473341448e+001
1	 3.952703411191423e-001	 9.258181936803929e-001	-1.455927357679455e+001
1	 3.853999157449427e-001	 9.299703455962171e-001	-1.426246961806851e+001
1	 3.755068487477795e-001	 9.340088382791361e-001	-1.396162162477839e+001
1	 3.655930198347078e-001	 9.379336916941498e-001	-1.365779910401063e+001
1	 3.556602997393610e-001	 9.417449653956880e-001	-1.335209594908356e+001
1	 3.457105492315029e-001	 9.454427580606899e-001	-1.304562754651861e+001
1	 3.357456181483737e-001	 9.490272069938094e-001	-1.273952790041842e+001
1	 3.257673444486692e-001	 9.524984876057723e-001	-1.243494677993848e+001
1	 3.157775532899376e-001	 9.558568128659655e-001	-1.213304689531731e+001
1	 3.057780561301270e-001	 9.591024327303190e-001	-1.183500110777312e+001
1	 2.957706498539659e-001	 9.622356335456042e-001	-1.154198967834243e+001
1	 3.978880789267743e-001	 9.319495651338405e-001	-1.480239555270452e+001
1	 3.879522851630236e-001	 9.361292153058038e-001	-1.450866193974086e+001
1	 3.779936998285092e-001	 9.401944535193617e-001	-1.421092325033892e+001
1	 3.680142150789770e-001	 9.441452998717373e-001	-1.391023914118459e+001
1	 3.580157140373226e-001	 9.479818143117705e-001	-1.360769358459727e+001
1	 3.480000697965839e-001	 9.517040961699057e-001	-1.330439196820560e+001
1	 3.379691444448735e-001	 9.553122836601184e-001	-1.300145821243794e+001
1	 3.279247881130917e-001	 9.588065533548228e-001	-1.270003191151550e+001
1	 3.178688380462120e-001	 9.621871196338281e-001	-1.240126550345098e+001
1	 3.078031176988808e-001	 9.654542341084373e-001	-1.210632147434544e+001
1	 2.977294358560106e-001	 9.686081850217986e-001	-1.181636960208706e+001
1	 4.005058468391652e-001	 9.380810070988839e-001	-1.504903431770890e+001
1	 3.905046839341429e-001	 9.422881558430289e-001	-1.475835982079948e+001
1	 3.804805795088713e-001	 9.463801398946492e-001	-1.446372323220706e+001
1	 3.704354381679195e-001	 9.503569794831879e-001	-1.416617387054776e+001
1	 3.603711554235785e-001	 9.542187349518962e-001	-1.386678533141810e+001
1	 3.502896166922933e-001	 9.579655062847261e-001	-1.356665257995899e+001
1	 3.401926963131793e-001	 9.615974326049814e-001	-1.326688906158527e+001
1	 3.300822565894714e-001	 9.651146916467712e-001	-1.296862383657837e+001
1	 3.199601468536990e-001	 9.685174992003410e-001	-1.267299874405530e+001
1	 3.098282025573360e-001	 9.718061085323820e-001	-1.238116560063449e+001
1	 2.996882443856060e-001	 9.749808097824353e-001	-1.209428343889056e+001
1	 4.031236402750705e-001	 9.442125088453360e-001	-1.529900088739521e+001
1	 3.930571075914455e-001	 9.484471564296215e-001	-1.501137269787517e+001
1	 3.829674834366572e-001	 9.525658865799537e-001	-1.471982982581966e+001
1	 3.728566848642111e-001	 9.565687196579940e-001	-1.442541077163281e+001
1	 3.627266197759061e-001	 9.604557164014029e-001	-1.412917830551919e+001
1	 3.525791859117053e-001	 9.642269774476432e-001	-1.383221655312855e+001
1	 3.424162698618394e-001	 9.678826428293534e-001	-1.353562809964748e+001
1	 3.322397461019883e-001	 9.714228914423454e-001	-1.324053111806154e+001
1	 3.220514760523470e-001	 9.748479404873101e-001	-1.294805652711533e+001
1	 3.118533071613252e-001	 9.781580448863387e-001	-1.265934518429528e+001
1	 3.016470720145669e-001	 9.813534966753823e-001	-1.237554511895891e+001
1	 4.057414546532461e-001	 9.503440596430081e-001	-1.555211117925119e+001
1	 3.956095516680765e-001	 9.546062062873115e-001	-1.526751495100338e+001
1	 3.854544072596587e-001	 9.587516827502316e-001	-1.497905626127963e+001
1	 3.752779509305275e-001	 9.627805095256463e-001	-1.468776231945465e+001
1	 3.650821029720817e-001	 9.666927477456272e-001	-1.439468462854793e+001
1	 3.548687734478946e-001	 9.704884987011498e-001	-1.410089606413035e+001
1	 3.446398611994030e-001	 9.741679033341915e-001	-1.380748797190770e+001
1	 3.343972528748223e-001	 9.777311417022727e-001	-1.351556728972246e+001
1	 3.241428219821034e-001	 9.811784324165394e-001	-1.322625369951747e+001
1	 3.138784279666810e-001	 9.845100320544937e-001	-1.294067681460214e+001
1	 3.036059153147077e-001	 9.877262345485073e-001	-1.265997340735641e+001
1	 4.083592853924475e-001	 9.564756487617137e-001	-1.580818585546120e+001
1	 3.981620116971802e-001	 9.607652946378276e-001	-1.552660574509669e+001
1	 3.879413466256668e-001	 9.649375175804381e-001	-1.524122058382982e+001
1	 3.776992321295443e-001	 9.689923382156370e-001	-1.495304582432644e+001
1	 3.674376008898820e-001	 9.729298180699069e-001	-1.466312126732173e+001
1	 3.571583752939361e-001	 9.767500590877388e-001	-1.437250813397095e+001
1	 3.468634664344191e-001	 9.804532031204520e-001	-1.408228615705334e+001
1	 3.365547731321534e-001	 9.840394313872817e-001	-1.379355069678446e+001
1	 3.262341809829161e-001	 9.875089639098348e-001	-1.350740988679791e+001
1	 3.159035614292355e-001	 9.908620589210325e-001	-1.322498181565873e+001
1	 3.055647708578432e-001	 9.940990122496792e-001	-1.294739174905102e+001
1	 4.109771279114304e-001	 9.626072654712644e-001	-1.606705017166540e+001
1	 4.007144832119015e-001	 9.669244107029007e-001	-1.578846887742640e+001
1	 3.904282971824738e-001	 9.711233802455289e-001	-1.550614550037816e+001
1	 3.801205242239372e-001	 9.752041948574575e-001	-1.522108327774963e+001
1	 3.697931094070843e-001	 9.791669164595790e-001	-1.493430987941235e+001
1	 3.594479874429040e-001	 9.830116476499022e-001	-1.464687447385988e+001
1	 3.490870816754368e-001	 9.867385311890911e-001	-1.435984481315591e+001
1	 3.387123030981619e-001	 9.903477494580995e-001	-1.407430434262881e+001
1	 3.283255493947325e-001	 9.938395238890009e-001	-1.379134934089082e+001
1	 3.179287040048215e-001	 9.972141143701416e-001	-1.351208609555886e+001
1	 3.075236352157878e-001	 1.000471818626765e+000	-1.323762811983940e+001
1	 4.135949776289506e-001	 9.687388990414730e-001	-1.632853383142334e+001
1	 4.032669617453852e-001	 9.730835437042587e-001	-1.605293263085878e+001
1	 3.929152545778705e-001	 9.773092599204601e-001	-1.577365823181055e+001
1	 3.825418229763816e-001	 9.814160685805988e-001	-1.549170120411500e+001
1	 3.721486244014648e-001	 9.854040319999809e-001	-1.520807666455467e+001
1	 3.617376058878729e-001	 9.892732534301327e-001	-1.492382133664573e+001
1	 3.513107030310049e-001	 9.930238765410654e-001	-1.463999062945931e+001
1	 3.408698389970276e-001	 9.966560848754543e-001	-1.435765574126824e+001
1	 3.304169235575002e-001	 1.000170101275843e+000	-1.407790079362073e+001
1	 3.199538521492713e-001	 1.003566187286006e+000	-1.380182000123430e+001
1	 3.094825049603561e-001	 1.006844642527633e+000	-1.353051488289116e+001
1	 4.162128299637635e-001	 9.748705387421515e-001	-1.659247084612919e+001
1	 4.058194428307755e-001	 9.792426828636313e-001	-1.631982963258855e+001
1	 3.954022144596490e-001	 9.834951457801872e-001	-1.604359037083619e+001
1	 3.849631241495536e-001	 9.876279485145534e-001	-1.576473051796031e+001
1	 3.745041417508007e-001	 9.916411537764501e-001	-1.548425222161839e+001
1	 3.640272266219177e-001	 9.955348654709233e-001	-1.520317937381494e+001
1	 3.535343266096725e-001	 9.993092281773317e-001	-1.492255468372034e+001
1	 3.430273770529304e-001	 1.002964426600074e+000	-1.464343677534472e+001
1	 3.325082998111676e-001	 1.006500684992165e+000	-1.436689731568086e+001
1	 3.219790023184175e-001	 1.009918266552814e+000	-1.409401817874025e+001
1	 3.114413766633628e-001	 1.013217472800151e+000	-1.382588865067093e+001
1	 4.188306803346252e-001	 9.810021738431126e-001	-1.685869940014224e+001
1	 4.083719220012180e-001	 9.854018174027490e-001	-1.658899671813009e+001
1	 3.978891724756005e-001	 9.896810269996651e-001	-1.631577774512582e+001
1	 3.873844235061284e-001	 9.938398237888120e-001	-1.604000638654321e+001
1	 3.768596573328685e-001	 9.978782708743236e-001	-1.576267141091001e+001
1	 3.663168456381126e-001	 1.001796472814765e+000	-1.548478349781725e+001
1	 3.557579485199885e-001	 1.005594575098846e+000	-1.520737230486253e+001
1	 3.451849134900506e-001	 1.009272763592686e+000	-1.493148355941750e+001
1	 3.345996744956820e-001	 1.012831263959774e+000	-1.465817618086602e+001
1	 3.240041509680921e-001	 1.016270341054748e+000	-1.438851943874350e+001
1	 3.134002468966224e-001	 1.019590298292188e+000	-1.412359015199808e+001
1	 2.938118898076575e-001	 9.558631665059840e-001	-1.127133473341448e+001
1	 2.838646710056857e-001	 9.588642626988490e-001	-1.098265522992093e+001
1	 2.739131178235836e-001	 9.617543577873683e-001	-1.070369270647947e+001
1	 2.639589660669879e-001	 9.645338394785438e-001	-1.043567950189055e+001
1	 2.540039338948808e-001	 9.672031290579124e-001	-1.017984248942664e+001
1	 2.440497210832210e-001	 9.697626806991601e-001	-9.937400416507149e+000
1	 2.340980083161345e-001	 9.722129807570793e-001	-9.709561317359471e+000
1	 2.241504565049763e-001	 9.745545470450379e-001	-9.497520002269877e+000
1	 2.142087061355221e-001	 9.767879280981019e-001	-9.302455626746482e+000
1	 2.042743766435053e-001	 9.789137024229727e-001	-9.125529343630513e+000
1	 1.943490658186562e-001	 9.809324777358748e-001	-8.967882040914002e+000
1	 2.957706498539659e-001	 9.622356335456042e-001	-1.154198967834243e+001
1	 2.857571157819154e-001	 9.652567371909585e-001	-1.125630900514896e+001
1	 2.757392184338695e-001	 9.681660997192729e-001	-1.098028364294820e+001
1	 2.657187051875654e-001	 9.709641114222508e-001	-1.071513793344994e+001
1	 2.556973056564410e-001	 9.736511963939908e-001	-1.046209125833641e+001
1	 2.456767309483562e-001	 9.762278118359934e-001	-1.022235535553283e+001
1	 2.356586729520586e-001	 9.786944473454122e-001	-9.997131708378486e+000
1	 2.256448036517056e-001	 9.810516241876995e-001	-9.787609011352949e+000
1	 2.156367744697043e-001	 9.832998945548199e-001	-9.594960715730595e+000
1	 2.056362156380844e-001	 9.854398408101844e-001	-9.420342658260321e+000
1	 1.956447355985657e-001	 9.874720747214627e-001	-9.264890775672354e+000
1	 2.977294358560106e-001	 9.686081850217986e-001	-1.181636960208706e+001
1	 2.876495856351602e-001	 9.716492963847403e-001	-1.153370091569557e+001
1	 2.775653432420190e-001	 9.745779266081482e-001	-1.126063475999048e+001
1	 2.674784676265833e-001	 9.773944685684661e-001	-1.099838552341495e+001
1	 2.573906998569036e-001	 9.800993491683967e-001	-1.074816311874317e+001
1	 2.473037623728963e-001	 9.826930286373037e-001	-1.051117027964355e+001
1	 2.372193582680847e-001	 9.851759998147480e-001	-1.028859992999747e+001
1	 2.271391705995806e-001	 9.875487874183182e-001	-1.008163262968130e+001
1	 2.170648617265720e-001	 9.898119472969311e-001	-9.891434100239504e+000
1	 2.069980726775334e-001	 9.919660656707664e-001	-9.719152833578781e+000
1	 1.969404225463201e-001	 9.940117583589936e-001	-9.565917786547654e+000
1	 2.996882443856060e-001	 9.749808097824353e-001	-1.209428343889056e+001
1	 2.895420772532948e-001	 9.780419290930430e-001	-1.181464202812875e+001
1	 2.793914890520229e-001	 9.809898272331150e-001	-1.154455850597049e+001
1	 2.692382503041846e-001	 9.838248996638738e-001	-1.128523539162727e+001
1	 2.590841135325783e-001	 9.865475760966606e-001	-1.103787119209779e+001
1	 2.489308125093126e-001	 9.891583197887439e-001	-1.080365768266826e+001
1	 2.387800615328193e-001	 9.916576268221344e-001	-1.058377725997936e+001
1	 2.286335547332959e-001	 9.940460253666024e-001	-1.037940037140940e+001
1	 2.184929654068420e-001	 9.963240749280637e-001	-1.019168302424141e+001
1	 2.083599453785053e-001	 9.984923655835142e-001	-1.002176437779291e+001
1	 1.982361243944031e-001	 1.000551517203678e+000	-9.870764421402100e+000
1	 3.016470720145669e-001	 9.813534966753823e-001	-1.237554511895891e+001
1	 2.914345873241932e-001	 9.844346241287142e-001	-1.209894835043831e+001
1	 2.812176526678725e-001	 9.874017903732959e-001	-1.183187223561267e+001
1	 2.709980501405125e-001	 9.902553934551568e-001	-1.157550554764946e+001
1	 2.607775437197758e-001	 9.929958658943122e-001	-1.133103349028155e+001
1	 2.505578785100766e-001	 9.956236739759679e-001	-1.109963496585578e+001
1	 2.403407800148684e-001	 9.981393170246208e-001	-1.088247991570302e+001
1	 2.301279534375462e-001	 1.000543326662260e+000	-1.068072673662793e+001
1	 2.199210830112309e-001	 1.002836266051843e+000	-1.049551977701210e+001
1	 2.097218313576528e-001	 1.005018729127225e+000	-1.032798691575246e+001
1	 1.995318388752979e-001	 1.007091339810725e+000	-1.017923722696011e+001
1	 3.036059153147077e-001	 9.877262345485073e-001	-1.265997340735641e+001
1	 2.933271125357299e-001	 9.908273703046017e-001	-1.238644067270790e+001
1	 2.830438308935587e-001	 9.938138048078122e-001	-1.212239805182179e+001
1	 2.727578640557102e-001	 9.966859386890001e-001	-1.186901873313531e+001
1	 2.624709874548061e-001	 9.994442072768820e-001	-1.162747275797415e+001
1	 2.521849575276598e-001	 1.002089079884629e+000	-1.139892427971426e+001
1	 2.419015109828384e-001	 1.004621059079254e+000	-1.118452889498174e+001
1	 2.316223640970263e-001	 1.007040679935001e+000	-1.098543105070746e+001
1	 2.213492120404560e-001	 1.009348509271898e+000	-1.080276153057383e+001
1	 2.110837282316287e-001	 1.011545144880695e+000	-1.063763502409845e+001
1	 2.008275637214882e-001	 1.013631214735347e+000	-1.049114778131231e+001
1	 3.055647708578432e-001	 9.940990122496792e-001	-1.294739174905102e+001
1	 2.952196495757796e-001	 9.972201564335543e-001	-1.267694441386563e+001
1	 2.848700205330725e-001	 1.000225859315786e+000	-1.241596265353969e+001
1	 2.745176889699210e-001	 1.003116524112087e+000	-1.216560227022429e+001
1	 2.641644417739796e-001	 1.005892588959899e+000	-1.192701632104051e+001
1	 2.538120467145333e-001	 1.008554526200379e+000	-1.170135237189005e+001
1	 2.434622517053356e-001	 1.011102841643083e+000	-1.148974982295933e+001
1	 2.331167840964309e-001	 1.013538073814532e+000	-1.129333730977182e+001
1	 2.227773499952337e-001	 1.015860793191854e+000	-1.111323018334144e+001
1	 2.124456336170860e-001	 1.018071601422721e+000	-1.095052807270499e+001
1	 2.021232966654573e-001	 1.020171130532752e+000	-1.080631253281192e+001
1	 3.075236352157878e-001	 1.000471818626765e+000	-1.323762811983940e+001
1	 2.971121951322163e-001	 1.003612971328419e+000	-1.297028947425348e+001
1	 2.866962183904045e-001	 1.006637942676338e+000	-1.271239718937562e+001
1	 2.762775218032881e-001	 1.009547138471104e+000	-1.246508791568225e+001
1	 2.658579037136064e-001	 1.012340999658894e+000	-1.222949594067250e+001
1	 2.554391432231687e-001	 1.015020001608872e+000	-1.200675044081723e+001
1	 2.450229994509663e-001	 1.017584653373157e+000	-1.179797280481609e+001
1	 2.346112108204548e-001	 1.020035496930563e+000	-1.160427403203524e+001
1	 2.242054943762811e-001	 1.022373106415339e+000	-1.142675220969966e+001
1	 2.138075451306775e-001	 1.024598087332100e+000	-1.126649007213884e+001
1	 2.034190354396886e-001	 1.026711075758151e+000	-1.112455264508787e+001
1	 3.094825049603561e-001	 1.006844642527633e+000	-1.353051488289116e+001
1	 2.990047458929149e-001	 1.010005803802045e+000	-1.326631009375124e+001
1	 2.885224212695463e-001	 1.013050043668592e+000	-1.301153711675380e+001
1	 2.780373594759547e-001	 1.015977770512732e+000	-1.276731172054688e+001
1	 2.675513703099966e-001	 1.018789428089395e+000	-1.253474767302700e+001
1	 2.570662442060374e-001	 1.021485494795763e+000	-1.231495399488579e+001
1	 2.465837514883368e-001	 1.024066482926523e+000	-1.210903228402773e+001
1	 2.361056416537927e-001	 1.026532937912801e+000	-1.191807411474611e+001
1	 2.256336426843149e-001	 1.028885437545979e+000	-1.174315851525306e+001
1	 2.151694603890562e-001	 1.031124591187629e+000	-1.158534952686913e+001
1	 2.047147777766657e-001	 1.033251038966754e+000	-1.144569384789825e+001
1	 3.114413766633628e-001	 1.013217472800151e+000	-1.382588865067093e+001
1	 3.008972985457494e-001	 1.016398642667280e+000	-1.356484471521954e+001
1	 2.903486259744884e-001	 1.019462151071667e+000	-1.331322206634129e+001
1	 2.797971989080638e-001	 1.022408408983658e+000	-1.307211389502902e+001
1	 2.692448385994606e-001	 1.025237862966934e+000	-1.284261173412592e+001
1	 2.586933468156106e-001	 1.027950994446703e+000	-1.262580271688763e+001
1	 2.481445050860534e-001	 1.030548318960231e+000	-1.242276690593488e+001
1	 2.376000739811394e-001	 1.033030385390956e+000	-1.223457469648903e+001
1	 2.270617924200520e-001	 1.035397775187402e+000	-1.206228429749913e+001
1	 2.165313770088748e-001	 1.037651101568105e+000	-1.190693929397702e+001
1	 2.060105214088719e-001	 1.039791008713771e+000	-1.176956629357244e+001
1	 3.134002468966224e-001	 1.019590298292188e+000	-1.412359015199808e+001
1	 3.027898497785945e-001	 1.022791476736971e+000	-1.386573585302614e+001
1	 2.921748293092217e-001	 1.025874253664687e+000	-1.361729571152090e+001
1	 2.815570370197590e-001	 1.028839042630564e+000	-1.337933867844579e+001
1	 2.709383056183087e-001	 1.031686293007040e+000	-1.315293236978479e+001
1	 2.603204482043598e-001	 1.034416489247346e+000	-1.293914033350738e+001
1	 2.497052575127223e-001	 1.037030150131326e+000	-1.273901938639334e+001
1	 2.390945051871896e-001	 1.039527827994735e+000	-1.255361702461504e+001
1	 2.284899410842091e-001	 1.041910107943235e+000	-1.238396891169031e+001
1	 2.178932926067863e-001	 1.044177607052323e+000	-1.223109644712709e+001
1	 2.073062640687906e-001	 1.046330973554413e+000	-1.209600441880081e+001
1	 1.943490658186562e-001	 9.809324777358748e-001	-8.967882040914002e+000
1	 1.844358351184653e-001	 9.828446114249160e-001	-8.830059526288022e+000
1	 1.745347453506193e-001	 9.846510785005697e-001	-8.712580303634280e+000
1	 1.646473231798204e-001	 9.863525701375676e-001	-8.616576379561309e+000
1	 1.547750715930049e-001	 9.879498035443917e-001	-8.543154441574426e+000
1	 1.449194694473043e-001	 9.894435211587169e-001	-8.493394026086591e+000
1	 1.350819710464206e-001	 9.908344898374509e-001	-8.468345777352743e+000
1	 1.252640057452698e-001	 9.921235000424143e-001	-8.469029798379449e+000
1	 1.154669775827054e-001	 9.933113650226918e-001	-8.496434094582011e+000
1	 1.056922649420928e-001	 9.943989199946589e-001	-8.551513110748539e+000
1	 9.594122023947826e-002	 9.953870213206723e-001	-8.635186361609144e+000
1	 1.956447355985657e-001	 9.874720747214627e-001	-9.264890775672354e+000
1	 1.856654162184739e-001	 9.893969560593556e-001	-9.129168308035052e+000
1	 1.756983187108200e-001	 9.912154663345144e-001	-9.013713220194887e+000
1	 1.657449799180722e-001	 9.929283013296114e-001	-8.919654827402402e+000
1	 1.558069128470812e-001	 9.945361830346293e-001	-8.848097006452276e+000
1	 1.458856062140271e-001	 9.960398588369379e-001	-8.800116349938929e+000
1	 1.359825240179708e-001	 9.974401007059351e-001	-8.776760412231134e+000
1	 1.260991051428619e-001	 9.987377043732978e-001	-8.779046048195001e+000
1	 1.162367629878135e-001	 9.999334885098822e-001	-8.807957845470058e+000
1	 1.063968851254137e-001	 1.001028293900284e+000	-8.864446650839460e+000
1	 9.658083298781611e-002	 1.002022982616054e+000	-8.949428191006868e+000
1	 1.969404225463201e-001	 9.940117583589936e-001	-9.565917786547654e+000
1	 1.868950136103707e-001	 9.959493875149437e-001	-9.432304906014320e+000
1	 1.768619074880390e-001	 9.977799411495164e-001	-9.318868067652135e+000
1	 1.668426511997103e-001	 9.995041196533726e-001	-9.226733640335560e+000
1	 1.568387677722974e-001	 1.001122649798042e+000	-9.157002456470483e+000
1	 1.468517557811748e-001	 1.002636283920640e+000	-9.110747952366655e+000
1	 1.368830889209058e-001	 1.004045799103106e+000	-9.089014401081776e+000
1	 1.269342156046144e-001	 1.005351996347030e+000	-9.092815238776478e+000
1	 1.170065585918118e-001	 1.006555699745095e+000	-9.123131485391831e+000
1	 1.071015146444448e-001	 1.007657755650177e+000	-9.180910260189462e+000
1	 9.722045421090786e-002	 1.008659031843079e+000	-9.267063392480827e+000
1	 1.982361243944031e-001	 1.000551517203678e+000	-9.870764421402100e+000
1	 1.881246251423275e-001	 1.002501894324542e+000	-9.739267427084499e+000
1	 1.780255096459927e-001	 1.004344491457321e+000	-9.627839950224715e+000
1	 1.679403351038314e-001	 1.006080013600702e+000	-9.537605163243686e+000
1	 1.578706345629475e-001	 1.007709192307800e+000	-9.469660625190178e+000
1	 1.478179164580372e-001	 1.009232784865521e+000	-9.425076408094659e+000
1	 1.377836641792907e-001	 1.010651573468392e+000	-9.404893316518553e+000
1	 1.277693356691293e-001	 1.011966364387960e+000	-9.410121201356182e+000
1	 1.177763630475827e-001	 1.013177987138785e+000	-9.441737368696435e+000
1	 1.078061522660752e-001	 1.014287293642074e+000	-9.500685084304633e+000
1	 9.786008278935783e-002	 1.015295157387938e+000	-9.587872174036752e+000
1	 1.995318388752979e-001	 1.007091339810725e+000	-1.017923722696011e+001
1	 1.893542486625164e-001	 1.009054465021015e+000	-1.004985926112691e+001
1	 1.791891231483970e-001	 1.010909105769675e+000	-9.940429332968469e+000
1	 1.690380297095316e-001	 1.012655971663448e+000	-9.852067173190118e+000
1	 1.589025114133255e-001	 1.014295799037075e+000	-9.785866843103525e+000
1	 1.487840865539039e-001	 1.015829350127281e+000	-9.742894846822836e+000
1	 1.386842482171906e-001	 1.017257412241222e+000	-9.724188337358509e+000
1	 1.286044638750086e-001	 1.018580796920438e+000	-9.730753417678143e+000
1	 1.185461750080089e-001	 1.019800339101411e+000	-9.763563537543773e+000
1	 1.085107967571939e-001	 1.020916896273717e+000	-9.823557986694780e+000
1	 9.849971760377026e-002	 1.021931347636820e+000	-9.911640484694130e+000
1	 2.008275637214882e-001	 1.013631214735347e+000	-1.049114778131231e+001
1	 1.905838820191091e-001	 1.015607088137226e+000	-1.036388891083634e+001
1	 1.803527459589679e-001	 1.017473772598322e+000	-1.025644186905354e+001
1	 1.701357330959078e-001	 1.019231982333462e+000	-1.016992270438679e+001
1	 1.599343965177253e-001	 1.020882458459035e+000	-1.010542176049836e+001
1	 1.497502643780647e-001	 1.022425968161619e+000	-1.006400177419668e+001
1	 1.395848394586707e-001	 1.023863303861022e+000	-1.004669606791430e+001
1	 1.294395987608545e-001	 1.025195282368815e+000	-1.005450683783478e+001
1	 1.193159931259730e-001	 1.026422744043428e+000	-1.008840353849849e+001
1	 1.092154468846898e-001	 1.027546551942844e+000	-1.014932136445287e+001
1	 9.913935753474938e-002	 1.028567590975912e+000	-1.023815982927510e+001
1	 2.021232966654573e-001	 1.020171130532752e+000	-1.080631253281192e+001
1	 1.918135230602776e-001	 1.022159752206037e+000	-1.068116982800929e+001
1	 1.815163760414217e-001	 1.024038480455009e+000	-1.057568823363840e+001
1	 1.712334433420562e-001	 1.025808034102595e+000	-1.049097987984324e+001
1	 1.609662880704411e-001	 1.027469159046853e+000	-1.042813117708457e+001
1	 1.507164482398093e-001	 1.029022627424234e+000	-1.038820089961736e+001
1	 1.404854363277963e-001	 1.030469236767222e+000	-1.037221836418965e+001
1	 1.302747388652690e-001	 1.031809809157441e+000	-1.038118170505395e+001
1	 1.200858160543574e-001	 1.033045190375292e+000	-1.041605624612712e+001
1	 1.099201014154522e-001	 1.034176249047193e+000	-1.047777297087602e+001
1	 9.977900146289952e-002	 1.035203875791404e+000	-1.056722709026256e+001
1	 2.034190354396886e-001	 1.026711075758151e+000	-1.112455264508787e+001
1	 1.930431696341939e-001	 1.028712445760311e+000	-1.100152025604646e+001
1	 1.826800113594743e-001	 1.030603217851480e+000	-1.089798396404206e+001
1	 1.723311585270733e-001	 1.032384115462696e+000	-1.081505174940453e+001
1	 1.619981842657667e-001	 1.034055889273698e+000	-1.075380587808736e+001
1	 1.516826364484275e-001	 1.035619316370825e+000	-1.071530097058047e+001
1	 1.413860372486324e-001	 1.037075199399251e+000	-1.070056216666804e+001
1	 1.311098827268542e-001	 1.038424365710664e+000	-1.071058338713849e+001
1	 1.208556424460448e-001	 1.039667666507461e+000	-1.074632569328885e+001
1	 1.106247591163698e-001	 1.040805975984504e+000	-1.080871574481479e+001
1	 1.004186482688248e-001	 1.041840190469484e+000	-1.089864435642146e+001
1	 2.047147777766657e-001	 1.033251038966754e+000	-1.144569384789825e+001
1	 1.942728195890298e-001	 1.035265157332913e+000	-1.132476307839028e+001
1	 1.838436498768419e-001	 1.037167973299481e+000	-1.122314930594733e+001
1	 1.734288767300559e-001	 1.038960214905615e+000	-1.114195613389585e+001
1	 1.630300832979960e-001	 1.040642637612742e+000	-1.108226147651815e+001
1	 1.526488273132089e-001	 1.042216023457091e+000	-1.104511561326332e+001
1	 1.422866406452442e-001	 1.043681180196535e+000	-1.103153933940386e+001
1	 1.319450288842121e-001	 1.045038940452837e+000	-1.104252221425672e+001
1	 1.216254709539177e-001	 1.046290160850391e+000	-1.107902090782453e+001
1	 1.113294187543320e-001	 1.047435721152516e+000	-1.114195764645652e+001
1	 1.010582968331297e-001	 1.048476523396341e+000	-1.123221875787798e+001
1	 2.060105214088719e-001	 1.039791008713771e+000	-1.176956629357244e+001
1	 1.955024707729572e-001	 1.041817875456704e+000	-1.165072567264385e+001
1	 1.850072895572406e-001	 1.043732735310757e+000	-1.155100906536351e+001
1	 1.745265960301002e-001	 1.045536320923203e+000	-1.147151547510556e+001
1	 1.640619833614233e-001	 1.047229392537153e+000	-1.141331826135590e+001
1	 1.536150191434434e-001	 1.048812737138731e+000	-1.137746317908576e+001
1	 1.431872449416969e-001	 1.050287167598504e+000	-1.136496651514650e+001
1	 1.327801758759449e-001	 1.051653521808309e+000	-1.137681332281452e+001
1	 1.223953002308587e-001	 1.052912661814538e+000	-1.141395575536291e+001
1	 1.120340790962277e-001	 1.054065472948967e+000	-1.147731149926326e+001
1	 1.016979460364183e-001	 1.055112862958165e+000	-1.156776230737938e+001
1	 2.073062640687906e-001	 1.046330973554413e+000	-1.209600441880081e+001
1	 1.967321210341483e-001	 1.048370588664549e+000	-1.197923977011981e+001
1	 1.861709283643863e-001	 1.050297492397054e+000	-1.188139246610272e+001
1	 1.756243145063029e-001	 1.052112422007309e+000	-1.180355669135545e+001
1	 1.650938826503424e-001	 1.053816142520104e+000	-1.174680105138168e+001
1	 1.545812102484206e-001	 1.055409445871443e+000	-1.171216659698258e+001
1	 1.440878485620557e-001	 1.056893150044585e+000	-1.170066494622678e+001
1	 1.336153222406547e-001	 1.058268098201429e+000	-1.171327650513719e+001
1	 1.231651289297503e-001	 1.059535157810359e+000	-1.175094878798264e+001
1	 1.127387389089458e-001	 1.060695219771598e+000	-1.181459483779274e+001
1	 1.023375947592949e-001	 1.061749197541143e+000	-1.190509174746447e+001
1	 9.594122023947826e-002	 9.953870213206723e-001	-8.635186361609144e+000
1	 8.621371590998771e-002	 9.962766718121099e-001	-8.747876054363736e+000
1	 7.651253352126196e-002	 9.970686125683425e-001	-8.889897655115636e+000
1	 6.683896610081594e-002	 9.977637591031844e-001	-9.061998964374377e+000
1	 5.719427911104236e-002	 9.983630448185401e-001	-9.264888840659047e+000
1	 4.757971027342479e-002	 9.988674201817246e-001	-9.499236678282342e+000
1	 3.799646941872222e-002	 9.992778519071311e-001	-9.765671959991320e+000
1	 2.844573836262598e-002	 9.995953221430518e-001	-1.006478388309643e+001
1	 1.892867080636962e-002	 9.998208276644112e-001	-1.039712105761282e+001
1	 9.446392261750505e-003	 9.999553790721549e-001	-1.076319127481661e+001
1	 0.000000000000000e+000	 1.000000000000000e+000	-1.116346134454320e+001
1	 9.658083298781611e-002	 1.002022982616054e+000	-8.949428191006870e+000
1	 8.678847815970567e-002	 1.002918564154065e+000	-9.063306586814829e+000
1	 7.702262075288691e-002	 1.003715784554311e+000	-9.206399265502112e+000
1	 6.728456241542379e-002	 1.004415565433972e+000	-9.379480443854060e+000
1	 5.757557704648520e-002	 1.005018846417574e+000	-9.583284980081865e+000
1	 4.789691061938552e-002	 1.005526584308822e+000	-9.818507806558753e+000
1	 3.824978103077066e-002	 1.005939752266822e+000	-1.008580343961080e+001
1	 2.863537797544591e-002	 1.006259338987468e+000	-1.038578556500789e+001
1	 1.905486284632297e-002	 1.006486347890802e+000	-1.071902669767421e+001
1	 9.509368658941853e-003	 1.006621796315063e+000	-1.108605791404183e+001
1	 0.000000000000000e+000	 1.006666714718147e+000	-1.148736865534709e+001
1	 9.722045421090786e-002	 1.008659031843079e+000	-9.267063392480827e+000
1	 8.736324802543309e-002	 1.009560544506255e+000	-9.381979135959078e+000
1	 7.753271474417561e-002	 1.010363044620398e+000	-9.525978115405094e+000
1	 6.773016463579058e-002	 1.011067459906151e+000	-9.699859349593570e+000
1	 5.795688003626343e-002	 1.011674736210762e+000	-9.904382109649319e+000
1	 4.821411517077870e-002	 1.012185836674435e+000	-1.014026530823326e+001
1	 3.850309600190694e-002	 1.012601740901085e+000	-1.040818696790312e+001
1	 2.882502010360377e-002	 1.012923444134316e+000	-1.070878376730010e+001
1	 1.918105656049415e-002	 1.013151956439392e+000	-1.104265066369571e+001
1	 9.572345891894282e-003	 1.013288301891951e+000	-1.141034059030602e+001
1	 0.000000000000000e+000	 1.013333517774178e+000	-1.181236422668033e+001
1	 9.786008278935783e-002	 1.015295157387938e+000	-9.587872174036752e+000
1	 8.793802450119995e-002	 1.016202601244475e+000	-9.703673098519257e+000
1	 7.804281460226917e-002	 1.017010381133149e+000	-9.848412792419000e+000
1	 6.817577198184753e-002	 1.017719430878154e+000	-1.002291349631049e+001
1	 5.833818741277171e-002	 1.018330702549552e+000	-1.022795734114507e+001
1	 4.853132337212969e-002	 1.018845165624130e+000	-1.046428569536699e+001
1	 3.875641388844892e-002	 1.019263806150706e+000	-1.073259859324433e+001
1	 2.901466441486628e-002	 1.019587625920686e+000	-1.103355424307203e+001
1	 1.930725172774978e-002	 1.019817641644647e+000	-1.136776861378852e+001
1	 9.635323850220484e-003	 1.019954884135722e+000	-1.173581509841046e+001
1	 0.000000000000000e+000	 1.020000397500475e+000	-1.213822425259340e+001
1	 9.849971760377026e-002	 1.021931347636820e+000	-9.911640484694130e+000
1	 8.851280658103630e-002	 1.022844722744521e+000	-1.002817363182213e+001
1	 7.855291943430862e-002	 1.023657782459112e+000	-1.017348766413273e+001
1	 6.862138367352591e-002	 1.024371466708420e+000	-1.034842649701799e+001
1	 5.871949850840465e-002	 1.024986733785391e+000	-1.055379360098202e+001
1	 4.884853466796384e-002	 1.025504559503475e+000	-1.079035130815188e+001
1	 3.900973424671441e-002	 1.025925936356472e+000	-1.105882020195488e+001
1	 2.920431057700011e-002	 1.026251872683667e+000	-1.135987858864304e+001
1	 1.943344812695650e-002	 1.026483391841034e+000	-1.169416204919585e+001
1	 9.698302423533143e-003	 1.026621531379276e+000	-1.206226307002154e+001
1	 0.000000000000000e+000	 1.026667342229423e+000	-1.246473075074360e+001
1	 9.913935753474938e-002	 1.028567590975912e+000	-1.023815982927510e+001
1	 8.908759325897205e-002	 1.029486897382186e+000	-1.035527146790065e+001
1	 7.906302834743502e-002	 1.030305236964838e+000	-1.050099269154942e+001
1	 6.906699893075705e-002	 1.031023555755385e+000	-1.067618757579183e+001
1	 5.910081265555691e-002	 1.031642818269725e+000	-1.088167944237550e+001
1	 4.916574850280654e-002	 1.032164006658038e+000	-1.111825012656954e+001
1	 3.926305663302130e-002	 1.032588119859170e+000	-1.138663932955523e+001
1	 2.939395825777192e-002	 1.032916172760352e+000	-1.168754405454803e+001
1	 1.955964553698095e-002	 1.033149195363019e+000	-1.202161812519555e+001
1	 9.761281501444945e-003	 1.033288231955517e+000	-1.238947178466372e+001
1	 0.000000000000000e+000	 1.033334340293404e+000	-1.279167137370553e+001
1	 9.977900146289952e-002	 1.035203875791404e+000	-1.056722709026256e+001
1	 8.966238352903722e-002	 1.036129113533266e+000	-1.068476273469791e+001
1	 7.957314044878942e-002	 1.036952733016872e+000	-1.083072324963133e+001
1	 6.951261697347209e-002	 1.037675686377483e+000	-1.100599138768438e+001
1	 5.948212918662311e-002	 1.038298944354002e+000	-1.121140886467920e+001
1	 4.948296432118315e-002	 1.038823495433387e+000	-1.144777558923788e+001
1	 3.951638060368740e-002	 1.039250344999587e+000	-1.171584897922847e+001
1	 2.958360712494840e-002	 1.039580514487830e+000	-1.201634336375189e+001
1	 1.968584373668977e-002	 1.039815040545070e+000	-1.234992946921945e+001
1	 9.824260973568581e-003	 1.039954974197345e+000	-1.271723398793790e+001
1	 0.000000000000000e+000	 1.040001380024802e+000	-1.311883922748606e+001
1	 1.004186482688248e-001	 1.041840190469484e+000	-1.089864435642146e+001
1	 9.023717638526180e-002	 1.042771359573556e+000	-1.101644878405033e+001
1	 8.008325484551290e-002	 1.043600258981764e+000	-1.116247995465032e+001
1	 6.995823702160242e-002	 1.044327846933152e+000	-1.133763784547108e+001
1	 5.986344743399787e-002	 1.044955100389668e+000	-1.154278113958266e+001
1	 4.980018156761901e-002	 1.045483014175090e+000	-1.177872641913262e+001
1	 3.976970571503059e-002	 1.045912600118508e+000	-1.204624744717195e+001
1	 2.977325684629623e-002	 1.046244886203193e+000	-1.234607453675667e+001
1	 1.981204250494958e-002	 1.046480915721652e+000	-1.267889400587584e+001
1	 9.887240729516742e-003	 1.046621746437664e+000	-1.304534771662725e+001
1	 0.000000000000000e+000	 1.046668449755999e+000	-1.344603269692393e+001
1	 1.010582968331297e-001	 1.048476523396341e+000	-1.123221875787798e+001
1	 9.081197082167578e-002	 1.049413623878850e+000	-1.135013602615898e+001
1	 8.059337064474650e-002	 1.050247803226061e+000	-1.149606849805039e+001
1	 7.040385829507924e-002	 1.050980025780828e+000	-1.167093195292947e+001
1	 6.024476673007587e-002	 1.051611274728169e+000	-1.187560064385706e+001
1	 5.011739968663952e-002	 1.052142551228714e+000	-1.211090645587696e+001
1	 4.002303152336871e-002	 1.052574873556721e+000	-1.237763815453110e+001
1	 2.996290708958209e-002	 1.052909276243529e+000	-1.267654072330557e+001
1	 1.993824162062704e-002	 1.053146809227233e+000	-1.300831478856530e+001
1	 9.950220658902111e-003	 1.053288537009374e+000	-1.337361613040224e+001
1	 0.000000000000000e+000	 1.053335537819379e+000	-1.377305527767138e+001
1	 1.016979460364183e-001	 1.055112862958165e+000	-1.156776230737938e+001
1	 9.138676583230913e-002	 1.056055894824945e+000	-1.168563577026165e+001
1	 8.110348695363123e-002	 1.056895354116312e+000	-1.183129948653363e+001
1	 7.084948001383383e-002	 1.057632211278946e+000	-1.200568364436415e+001
1	 6.062608640725169e-002	 1.058267455720954e+000	-1.220967669836857e+001
1	 5.043461812277002e-002	 1.058802094939827e+000	-1.244412449431715e+001
1	 4.027635758501962e-002	 1.059237153655013e+000	-1.270982948563159e+001
1	 3.015255752257267e-002	 1.059573672945931e+000	-1.300755004038955e+001
1	 2.006444086258876e-002	 1.059812709396278e+000	-1.333799983740865e+001
1	 1.001320065133738e-002	 1.059955334245377e+000	-1.370184734982834e+001
1	 0.000000000000000e+000	 1.060002632547326e+000	-1.409971541447034e+001
1	 1.023375947592949e-001	 1.061749197541143e+000	-1.190509174746447e+001
1	 9.196156041119188e-002	 1.062698160787635e+000	-1.202276407123743e+001
1	 8.161360287930819e-002	 1.063542900019065e+000	-1.216798828810082e+001
1	 7.129510139779745e-002	 1.064284391785943e+000	-1.234170763010748e+001
1	 6.100740579791999e-002	 1.064923631719467e+000	-1.254482341308583e+001
1	 5.075183632053588e-002	 1.065461633653999e+000	-1.277819412910683e+001
1	 4.052968345630113e-002	 1.065899428754169e+000	-1.304263463223340e+001
1	 3.034220781303463e-002	 1.066238064647488e+000	-1.333891541628716e+001
1	 2.019064000970140e-002	 1.066478604563256e+000	-1.366776198320428e+001
1	 1.007618059643524e-002	 1.066622126478576e+000	-1.402985430040377e+001
1	 0.000000000000000e+000	 1.066669722272222e+000	-1.442582634544923e+001
1	 1.066669722272222e+000	 0.000000000000000e+000	 2.610419765974680e+001
1	 1.066622126478576e+000	 1.007618059643527e-002	 2.600296243965264e+001
1	 1.066478604563255e+000	 2.019064000970146e-002	 2.589338513088158e+001
1	 1.066238064647488e+000	 3.034220781303457e-002	 2.577456468336665e+001
1	 1.065899428754169e+000	 4.052968345630110e-002	 2.564561863095115e+001
1	 1.065461633653999e+000	 5.075183632053588e-002	 2.550568472353590e+001
1	 1.064923631719468e+000	 6.100740579792002e-002	 2.535392257567223e+001
1	 1.064284391785943e+000	 7.129510139779750e-002	 2.518951532917385e+001
1	 1.063542900019065e+000	 8.161360287930811e-002	 2.501167132720356e+001
1	 1.062698160787635e+000	 9.196156041119183e-002	 2.481962579717420e+001
1	 1.061749197541144e+000	 1.023375947592949e-001	 2.461264253969019e+001
1	 1.073335797538833e+000	 0.000000000000000e+000	 2.599661933208907e+001
1	 1.073287904298776e+000	 1.013915095835200e-002	 2.587841209077503e+001
1	 1.073143485453786e+000	 2.031681995409998e-002	 2.575247782785793e+001
1	 1.072901442301451e+000	 3.053182924600520e-002	 2.561791220791894e+001
1	 1.072560690127902e+000	 4.078297078120603e-002	 2.547382981200150e+001
1	 1.072120159059240e+000	 5.106900625009653e-002	 2.531936578798130e+001
1	 1.071578794920858e+000	 6.138866716680425e-002	 2.515367751725212e+001
1	 1.070935560103909e+000	 7.174065497586930e-002	 2.497594629525877e+001
1	 1.070189434438125e+000	 8.212364118570634e-002	 2.478537902329000e+001
1	 1.069339416070155e+000	 9.253626752940733e-002	 2.458120990882582e+001
1	 1.068384522346582e+000	 1.029771461534198e-001	 2.436270217162073e+001
1	 1.080001857806444e+000	 0.000000000000000e+000	 2.589799927073844e+001
1	 1.079953667120661e+000	 1.020212117838585e-002	 2.576267299517771e+001
1	 1.079808351348064e+000	 2.044299961424785e-002	 2.562023212667654e+001
1	 1.079564804962612e+000	 3.072145025188314e-002	 2.546976931911388e+001
1	 1.079221936513682e+000	 4.103625753571282e-002	 2.531039644410014e+001
1	 1.078778669482785e+000	 5.138617546550140e-002	 2.514124625851432e+001
1	 1.078233943148229e+000	 6.176992767733444e-002	 2.496147408824929e+001
1	 1.077586713456961e+000	 7.218620755096013e-002	 2.477025952565713e+001
1	 1.076835953902812e+000	 8.263367834407996e-002	 2.456680813806661e+001
1	 1.075980656410289e+000	 9.311097335415063e-002	 2.435035318462625e+001
1	 1.075019832223076e+000	 1.036166961082335e-001	 2.412015733861080e+001
1	 1.086667904741722e+000	 0.000000000000000e+000	 2.580772262257469e+001
1	 1.086619416610818e+000	 1.026509127233136e-002	 2.565514817755120e+001
1	 1.086473203912440e+000	 2.056917902178213e-002	 2.549606821878345e+001
1	 1.086228154296925e+000	 3.091107087819520e-002	 2.532957266102488e+001
1	 1.085883169576908e+000	 4.128954378328465e-002	 2.515477090721641e+001
1	 1.085437166589321e+000	 5.170334404619591e-002	 2.497079353214783e+001
1	 1.084889078065393e+000	 6.215118742498332e-002	 2.477679398224149e+001
1	 1.084237853507879e+000	 7.263175923461419e-002	 2.457195028891356e+001
1	 1.083482460074717e+000	 8.314371448208835e-002	 2.435546679284698e+001
1	 1.082621883468280e+000	 9.368567802923872e-002	 2.412657587639041e+001
1	 1.081655128829361e+000	 1.042562447837526e-001	 2.388453970118147e+001
1	 1.093333940011333e+000	 0.000000000000000e+000	 2.572518953311638e+001
1	 1.093285154435836e+000	 1.032806125598307e-002	 2.555525522526310e+001
1	 1.093138044813263e+000	 2.069535820833983e-002	 2.537942043969100e+001
1	 1.092891491970343e+000	 3.110069117246819e-002	 2.519677262060683e+001
1	 1.092544390982978e+000	 4.154282958738464e-002	 2.500641894050570e+001
1	 1.092095652043531e+000	 5.202051207162540e-002	 2.480748799892634e+001
1	 1.091544201336163e+000	 6.253244650522354e-002	 2.459913153726434e+001
1	 1.090888981919444e+000	 7.307731013837575e-002	 2.438052616706501e+001
1	 1.090128954615429e+000	 8.365374972739088e-002	 2.415087510909400e+001
1	 1.089263098904368e+000	 9.426038169848881e-002	 2.390940994036411e+001
1	 1.088290413824173e+000	 1.048957923399939e-001	 2.365539234617951e+001
1	 1.099999965281944e+000	 0.000000000000000e+000	 2.564981469196687e+001
1	 1.099950882262301e+000	 1.039103114513552e-002	 2.546242584701676e+001
1	 1.099802875716884e+000	 2.082153720555801e-002	 2.526973684032403e+001
1	 1.099554819648821e+000	 3.129031118222894e-002	 2.507083291120195e+001
1	 1.099205602397292e+000	 4.179611501147604e-002	 2.486481923744519e+001
1	 1.098754127510101e+000	 5.233767962123527e-002	 2.465082264816034e+001
1	 1.098199314624351e+000	 6.291370501352776e-002	 2.442799335261205e+001
1	 1.097540100354437e+000	 7.352286037378919e-002	 2.419550668247431e+001
1	 1.096775439186540e+000	 8.416378420764692e-002	 2.395256484475269e+001
1	 1.095904304378798e+000	 9.483508450571800e-002	 2.369839868252224e+001
1	 1.094925688866247e+000	 1.055353389369740e-001	 2.343226944050727e+001
1	 1.106665982220223e+000	 0.000000000000000e+000	 2.558102689470853e+001
1	 1.106616601756801e+000	 1.045400095558323e-002	 2.537610544748049e+001
1	 1.106467698289651e+000	 2.094771604507368e-002	 2.516647877387702e+001
1	 1.106218138998312e+000	 3.147993095500426e-002	 2.495123017111648e+001
1	 1.105866805485248e+000	 4.204940011902197e-002	 2.472946305561966e+001
1	 1.105412594653715e+000	 5.265484677447090e-002	 2.450030268890938e+001
1	 1.104854419593770e+000	 6.329496304536868e-002	 2.426289791950418e+001
1	 1.104191210475639e+000	 7.396841005239865e-002	 2.401642293816668e+001
1	 1.103421915449642e+000	 8.467381805051580e-002	 2.376007904374228e+001
1	 1.102545501551810e+000	 9.540978659474335e-002	 2.349309641670181e+001
1	 1.101560955614317e+000	 1.061748847347095e-001	 2.321473589738277e+001
1	 1.113331992492834e+000	 0.000000000000000e+000	 2.551826862055522e+001
1	 1.113282314585924e+000	 1.051697070312077e-002	 2.529575271721633e+001
1	 1.113132514197916e+000	 2.107389475852392e-002	 2.506912049753171e+001
1	 1.112881451684768e+000	 3.166955053832096e-002	 2.483745357663636e+001
1	 1.112528001912243e+000	 4.230268497348567e-002	 2.459985384054302e+001
1	 1.112071055139059e+000	 5.297201361077765e-002	 2.435544518411563e+001
1	 1.111509517908231e+000	 6.367622069621895e-002	 2.410337526503691e+001
1	 1.110842313945830e+000	 7.441395928574848e-002	 2.384281727110324e+001
1	 1.110068385066324e+000	 8.518385138365692e-002	 2.357297169805564e+001
1	 1.109186692083648e+000	 9.598448810938200e-002	 2.329306813503164e+001
1	 1.108196215727121e+000	 1.068144298932171e-001	 2.300236705460379e+001
1	 1.119997997766445e+000	 0.000000000000000e+000	 2.546099562510547e+001
1	 1.119948022416257e+000	 1.057994040354264e-002	 2.522083923727121e+001
1	 1.119797325108027e+000	 2.120007337754572e-002	 2.497714878841477e+001
1	 1.119544759374145e+000	 3.185916997970588e-002	 2.472900446887904e+001
1	 1.119189193343679e+000	 4.255596963833025e-002	 2.447550686292962e+001
1	 1.118729510630817e+000	 5.328918020960095e-002	 2.421577869781897e+001
1	 1.118164611231547e+000	 6.405747806155128e-002	 2.394896660886458e+001
1	 1.117493412427794e+000	 7.485950818538292e-002	 2.367424291785116e+001
1	 1.116714849698179e+000	 8.569388433472962e-002	 2.339080742194009e+001
1	 1.115827877634553e+000	 9.655918919345111e-002	 2.309788919014549e+001
1	 1.114831470863391e+000	 1.074539745725134e-001	 2.279474836431550e+001
1	 1.126663999707723e+000	 0.000000000000000e+000	 2.540867654757032e+001
1	 1.126613726914387e+000	 1.064291007264340e-002	 2.515084909782154e+001
1	 1.126462132686335e+000	 2.132625193377614e-002	 2.489006257320553e+001
1	 1.126208063732395e+000	 3.204878932668583e-002	 2.462539599390789e+001
1	 1.125850381444952e+000	 4.280925417701895e-002	 2.435594886885799e+001
1	 1.125387962793674e+000	 5.360634665038612e-002	 2.408084295491071e+001
1	 1.124819701227530e+000	 6.443873523683831e-002	 2.379922403208351e+001
1	 1.124144507584308e+000	 7.530505686284626e-002	 2.351026369213681e+001
1	 1.123361311006796e+000	 8.620391703139331e-002	 2.321316113765872e+001
1	 1.122469059864767e+000	 9.713388999076773e-002	 2.290714498869007e+001
1	 1.121466722681864e+000	 1.080935189326152e-001	 2.259147509380430e+001
1	 1.133329999983334e+000	 0.000000000000000e+000	 2.536079253187901e+001
1	 1.133279429746903e+000	 1.070587972621758e-002	 2.508527853029257e+001
1	 1.133126938599190e+000	 2.145243045885220e-002	 2.480737257083068e+001
1	 1.132871366425473e+000	 3.223840862678761e-002	 2.452615275556278e+001
1	 1.132511567881462e+000	 4.306253865301489e-002	 2.424071774229537e+001
1	 1.132046413292315e+000	 5.392351301257858e-002	 2.395018851290953e+001
1	 1.131474789559993e+000	 6.481999231755271e-002	 2.365371015781534e+001
1	 1.130795601078155e+000	 7.575060542968279e-002	 2.335045367379200e+001
1	 1.130007770653767e+000	 8.671394960130725e-002	 2.303961777235451e+001
1	 1.129110240434534e+000	 9.770859064514900e-002	 2.272043069566251e+001
1	 1.128101972841275e+000	 1.087330631335390e-001	 2.239215203686381e+001
1	 1.061749197541144e+000	 1.023375947592949e-001	 2.461264253969019e+001
1	 1.060695219771598e+000	 1.127387389089459e-001	 2.439488047891240e+001
1	 1.059535157810359e+000	 1.231651289297503e-001	 2.417049123678434e+001
1	 1.058268098201429e+000	 1.336153222406547e-001	 2.393887153859836e+001
1	 1.056893150044585e+000	 1.440878485620556e-001	 2.369945256636133e+001
1	 1.055409445871443e+000	 1.545812102484205e-001	 2.345170164117530e+001
1	 1.053816142520104e+000	 1.650938826503425e-001	 2.319512389090126e+001
1	 1.052112422007309e+000	 1.756243145063028e-001	 2.292926389946621e+001
1	 1.050297492397054e+000	 1.861709283643864e-001	 2.265370733409973e+001
1	 1.048370588664549e+000	 1.967321210341483e-001	 2.236808254672037e+001
1	 1.046330973554413e+000	 2.073062640687906e-001	 2.207206214563360e+001
1	 1.068384522346582e+000	 1.029771461534198e-001	 2.436270217162073e+001
1	 1.067323957819170e+000	 1.134432915009483e-001	 2.413403281471507e+001
1	 1.066156646134477e+000	 1.239348404919512e-001	 2.389936742683094e+001
1	 1.064881668127946e+000	 1.344503415300592e-001	 2.365810123748830e+001
1	 1.063498127331754e+000	 1.449883151472519e-001	 2.340966375157641e+001
1	 1.062005150856359e+000	 1.555472543385594e-001	 2.315352043386995e+001
1	 1.060401890270602e+000	 1.661256249263772e-001	 2.288917437901117e+001
1	 1.058687522479315e+000	 1.767218659546793e-001	 2.261616796331474e+001
1	 1.056861250597369e+000	 1.873343901133681e-001	 2.233408447467752e+001
1	 1.054922304819027e+000	 1.979615841929645e-001	 2.204254971680880e+001
1	 1.052869943281504e+000	 2.086018095697990e-001	 2.174123358393750e+001
1	 1.075019832223076e+000	 1.036166961082335e-001	 2.412015733861080e+001
1	 1.073952680952703e+000	 1.141478425074454e-001	 2.388041109537453e+001
1	 1.072778119560937e+000	 1.247045503220942e-001	 2.363529005953398e+001
1	 1.071495223174678e+000	 1.352853589405142e-001	 2.338418903696907e+001
1	 1.070103089758523e+000	 1.458887797062889e-001	 2.312653697903922e+001
1	 1.068600841001780e+000	 1.565132962550305e-001	 2.286179866888174e+001
1	 1.066987623204044e+000	 1.671573648809591e-001	 2.258947639326969e+001
1	 1.065262608158258e+000	 1.778194149335622e-001	 2.230911159638028e+001
1	 1.063424994030176e+000	 1.884978492445813e-001	 2.202028651175074e+001
1	 1.061474006233129e+000	 1.991910445855254e-001	 2.172262576863012e+001
1	 1.059408898296942e+000	 2.098973521558755e-001	 2.141579796887821e+001
1	 1.081655128829361e+000	 1.042562447837526e-001	 2.388453970118147e+001
1	 1.080581390829266e+000	 1.148523921046916e-001	 2.363355830673767e+001
1	 1.079399579744983e+000	 1.254742586127104e-001	 2.337781399447672e+001
1	 1.078108764994883e+000	 1.361203746808647e-001	 2.311670220429551e+001
1	 1.076708038975992e+000	 1.467892424643597e-001	 2.284965244253075e+001
1	 1.075196517956486e+000	 1.574793362394091e-001	 2.257612996968842e+001
1	 1.073573342966726e+000	 1.681891027720756e-001	 2.229563747373709e+001
1	 1.071837680687771e+000	 1.789169617173799e-001	 2.200771672530901e+001
1	 1.069988724336277e+000	 1.896613060489216e-001	 2.171195021107845e+001
1	 1.068025694544651e+000	 2.004205025192179e-001	 2.140796274151840e+001
1	 1.065947840235338e+000	 2.111928921509209e-001	 2.109542302917880e+001
1	 1.088290413824173e+000	 1.048957923399939e-001	 2.365539234617950e+001
1	 1.087210089105928e+000	 1.155569404689416e-001	 2.339302858491460e+001
1	 1.086021028341859e+000	 1.262439655563311e-001	 2.312650495207678e+001
1	 1.084722295241816e+000	 1.369553889599556e-001	 2.285521856511299e+001
1	 1.083312976635267e+000	 1.476897036466583e-001	 2.257860057913032e+001
1	 1.081792183369263e+000	 1.584453745332703e-001	 2.229611787570664e+001
1	 1.080159051204942e+000	 1.692208388577142e-001	 2.200727473718147e+001
1	 1.078412741711491e+000	 1.800145065805603e-001	 2.171161450276212e+001
1	 1.076552443156474e+000	 1.908247608172845e-001	 2.140872120270505e+001
1	 1.074577371391386e+000	 2.016499583014293e-001	 2.109822116676526e+001
1	 1.072486770731300e+000	 2.124884298788353e-001	 2.077978460304727e+001
1	 1.094925688866247e+000	 1.055353389369740e-001	 2.343226944050727e+001
1	 1.093838777439760e+000	 1.162614877764497e-001	 2.315838687837910e+001
1	 1.092642467006809e+000	 1.270136713454877e-001	 2.288093918446239e+001
1	 1.091335815568734e+000	 1.377904019866320e-001	 2.259932618350445e+001
1	 1.089917904387451e+000	 1.485901634783783e-001	 2.231298175881684e+001
1	 1.088387838888894e+000	 1.594114113781895e-001	 2.202137554181928e+001
1	 1.086744749564987e+000	 1.702525733958623e-001	 2.172401458689219e+001
1	 1.084987792873053e+000	 1.811120497975321e-001	 2.142044502786308e+001
1	 1.083116152131570e+000	 1.919882138405656e-001	 2.111025371237580e+001
1	 1.081129038411128e+000	 2.028794122395463e-001	 2.079306981032476e+001
1	 1.079025691419437e+000	 2.137839656635191e-001	 2.046856639247771e+001
1	 1.101560955614317e+000	 1.061748847347095e-001	 2.321473589738277e+001
1	 1.100467457487831e+000	 1.169660342034704e-001	 2.292920862229616e+001
1	 1.099263897395078e+000	 1.277833761727112e-001	 2.264070315825823e+001
1	 1.097949327628892e+000	 1.386254139697389e-001	 2.234862305361481e+001
1	 1.096522823883646e+000	 1.494906221847133e-001	 2.205240598530196e+001
1	 1.094983486164163e+000	 1.603774470157416e-001	 2.175152544877579e+001
1	 1.093330439693156e+000	 1.712843066445071e-001	 2.144549243299398e+001
1	 1.091562835816092e+000	 1.822095916427233e-001	 2.113385707676049e+001
1	 1.089679852902367e+000	 1.931516654096603e-001	 2.081621030267079e+001
1	 1.087680697241672e+000	 2.041088646409560e-001	 2.049218542482824e+001
1	 1.085564603934357e+000	 2.150794998288730e-001	 2.016145972644251e+001
1	 1.108196215727121e+000	 1.068144298932171e-001	 2.300236705460380e+001
1	 1.107096130907212e+000	 1.176705799262584e-001	 2.270507942456350e+001
1	 1.105885321161910e+000	 1.285530802305332e-001	 2.240539324878101e+001
1	 1.104562833075548e+000	 1.394604251181213e-001	 2.210271680236771e+001
1	 1.103127736774956e+000	 1.503910799908570e-001	 2.179649260762366e+001
1	 1.101579126843853e+000	 1.613434816875018e-001	 2.148619912400867e+001
1	 1.099916123235745e+000	 1.723160388616364e-001	 2.117135242282105e+001
1	 1.098137872184243e+000	 1.833071323905622e-001	 2.085150784288226e+001
1	 1.096243547109668e+000	 1.943151158154643e-001	 2.052626162345030e+001
1	 1.094232349520812e+000	 2.053383158130456e-001	 2.019525251051895e+001
1	 1.092103509910670e+000	 2.163750326987972e-001	 1.985816333260195e+001
1	 1.114831470863391e+000	 1.074539745725134e-001	 2.279474836431550e+001
1	 1.113724799354973e+000	 1.183751251210680e-001	 2.248559476307834e+001
1	 1.112506739962550e+000	 1.293227837114847e-001	 2.217461544516887e+001
1	 1.111176333561957e+000	 1.402954356406242e-001	 2.186122440281081e+001
1	 1.109732644712486e+000	 1.512915371220031e-001	 2.154487004205186e+001
1	 1.108174762576749e+000	 1.623095156350454e-001	 2.122503687243204e+001
1	 1.106501801839048e+000	 1.733477703052374e-001	 2.090124718093113e+001
1	 1.104712903621141e+000	 1.844046723154772e-001	 2.057306268647696e+001
1	 1.102807236394275e+000	 1.954785653488730e-001	 2.024008617122258e+001
1	 1.100783996886342e+000	 2.065677660632019e-001	 1.990196308473444e+001
1	 1.098642410982984e+000	 2.176705645971922e-001	 1.955838311717636e+001
1	 1.121466722681864e+000	 1.080935189326152e-001	 2.259147509380430e+001
1	 1.120353464488183e+000	 1.190796699641537e-001	 2.227035969376411e+001
1	 1.119128155452241e+000	 1.300924868080971e-001	 2.194798506599111e+001
1	 1.117789830741375e+000	 1.411304457460927e-001	 2.162377189764990e+001
1	 1.116337549347337e+000	 1.521919938033452e-001	 2.129717550387787e+001
1	 1.114770395011633e+000	 1.632755490999475e-001	 2.096768751680847e+001
1	 1.113087477149361e+000	 1.743795012332977e-001	 2.063483755836045e+001
1	 1.111287931770423e+000	 1.855022116918965e-001	 2.029819489305672e+001
1	 1.109370922396989e+000	 1.966420143007822e-001	 1.995737005706441e+001
1	 1.107335640976057e+000	 2.077972156988120e-001	 1.961201645958183e+001
1	 1.105181308785909e+000	 2.189660958479585e-001	 1.926183195264186e+001
1	 1.128101972841275e+000	 1.087330631335390e-001	 2.239215203686382e+001
1	 1.126982127963913e+000	 1.197842146317701e-001	 2.205898856891353e+001
1	 1.125749569286228e+000	 1.308621897129018e-001	 2.172512648490643e+001
1	 1.124403326267059e+000	 1.419654556433717e-001	 2.138999413255127e+001
1	 1.122942452330613e+000	 1.530924502600770e-001	 2.105305474868081e+001
1	 1.121366025797290e+000	 1.642415823237833e-001	 2.071380814728921e+001
1	 1.119673150812978e+000	 1.754112319038044e-001	 2.037179239073799e+001
1	 1.117862958275722e+000	 1.865997507942483e-001	 2.002658544037537e+001
1	 1.115934606758614e+000	 1.978054629620873e-001	 1.967780678274160e+001
1	 1.113887283427750e+000	 2.090266650272629e-001	 1.932511902746871e+001
1	 1.111720204954052e+000	 2.202616267749964e-001	 1.896822947292778e+001
1	 1.046330973554413e+000	 2.073062640687906e-001	 2.207206214563361e+001
1	 1.044177607052323e+000	 2.178932926067863e-001	 2.176700960393016e+001
1	 1.041910107943235e+000	 2.284899410842093e-001	 2.145446212671291e+001
1	 1.039527827994735e+000	 2.390945051871895e-001	 2.113428873128097e+001
1	 1.037030150131326e+000	 2.497052575127223e-001	 2.080640925223790e+001
1	 1.034416489247346e+000	 2.603204482043598e-001	 2.047079565575526e+001
1	 1.031686293007040e+000	 2.709383056183087e-001	 2.012747329742104e+001
1	 1.028839042630563e+000	 2.815570370197589e-001	 1.977652211970723e+001
1	 1.025874253664687e+000	 2.921748293092218e-001	 1.941807778512581e+001
1	 1.022791476736971e+000	 3.027898497785945e-001	 1.905233274118515e+001
1	 1.019590298292188e+000	 3.134002468966224e-001	 1.867953721331896e+001
1	 1.052869943281504e+000	 2.086018095697990e-001	 2.174123358393750e+001
1	 1.050703119470998e+000	 2.192550009769878e-001	 2.143150811282627e+001
1	 1.048421449790088e+000	 2.299178724427004e-001	 2.111492248371896e+001
1	 1.046024281955267e+000	 2.405887090020831e-001	 2.079134562226267e+001
1	 1.043510995034660e+000	 2.512657724568544e-001	 2.046069710057265e+001
1	 1.040881000266023e+000	 2.619473020149687e-001	 2.012294844918955e+001
1	 1.038133741861805e+000	 2.726315149608756e-001	 1.977812441263011e+001
1	 1.035268697800079e+000	 2.833166073562020e-001	 1.942630414456753e+001
1	 1.032285380600047e+000	 2.940007547706283e-001	 1.906762233871105e+001
1	 1.029183338080940e+000	 3.046821130426786e-001	 1.870227029149883e+001
1	 1.025962154103039e+000	 3.153588190700910e-001	 1.833049689277649e+001
1	 1.059408898296942e+000	 2.098973521558755e-001	 2.141579796887821e+001
1	 1.057228617208352e+000	 2.206167062833925e-001	 2.110118410167596e+001
1	 1.054932776987560e+000	 2.313458005883875e-001	 2.078034468291002e+001
1	 1.052520721299978e+000	 2.420829094550495e-001	 2.045314830080567e+001
1	 1.049991825357360e+000	 2.528262838898459e-001	 2.011951393347554e+001
1	 1.047345496740881e+000	 2.635741521651587e-001	 1.977941225748423e+001
1	 1.044581176211209e+000	 2.743247204937079e-001	 1.943286690014193e+001
1	 1.041698338504331e+000	 2.850761737335841e-001	 1.907995563156954e+001
1	 1.038696493111893e+000	 2.958266761236637e-001	 1.872081149261048e+001
1	 1.035575185044799e+000	 3.065743720491249e-001	 1.835562385470931e+001
1	 1.032333995578839e+000	 3.173173868367261e-001	 1.798463940793569e+001
1	 1.065947840235338e+000	 2.111928921509209e-001	 2.109542302917880e+001
1	 1.063754101895628e+000	 2.219784088664360e-001	 2.077572057475395e+001
1	 1.061444091163351e+000	 2.327737258782584e-001	 2.045042577245746e+001
1	 1.059017147652842e+000	 2.435771069196422e-001	 2.011940663393527e+001
1	 1.056472642719491e+000	 2.543867922018260e-001	 1.978258121946073e+001
1	 1.053809980287900e+000	 2.652009990616432e-001	 1.943991894203178e+001
1	 1.051028597666957e+000	 2.760179226401070e-001	 1.909144181545815e+001
1	 1.048127966350573e+000	 2.868357365917952e-001	 1.873722564249182e+001
1	 1.045107592802839e+000	 2.976525938248044e-001	 1.837740113908721e+001
1	 1.041967019226337e+000	 3.084666272709911e-001	 1.801215499092194e+001
1	 1.038705824312371e+000	 3.192759506861582e-001	 1.764173083836655e+001
1	 1.072486770731300e+000	 2.124884298788353e-001	 2.077978460304727e+001
1	 1.070279575164070e+000	 2.233401090665541e-001	 2.045480827343395e+001
1	 1.067955393945159e+000	 2.342016486693012e-001	 2.012487019527650e+001
1	 1.065513562637833e+000	 2.450713017694148e-001	 1.978983757093581e+001
1	 1.062953448741119e+000	 2.559472977829249e-001	 1.944962722650020e+001
1	 1.060274452523056e+000	 2.668278431111357e-001	 1.910420691035201e+001
1	 1.057476007840754e+000	 2.777111218233742e-001	 1.875359653610834e+001
1	 1.054557582946055e+000	 2.885952963707256e-001	 1.839786936600659e+001
1	 1.051518681275496e+000	 2.994785083305274e-001	 1.803715313083665e+001
1	 1.048358842223344e+000	 3.103588791813349e-001	 1.767163108256603e+001
1	 1.045077641896419e+000	 3.212345111080174e-001	 1.730154297586106e+001
1	 1.079025691419437e+000	 2.137839656635191e-001	 2.046856639247771e+001
1	 1.076805038644923e+000	 2.247018072241827e-001	 2.013814544178036e+001
1	 1.074466686960685e+000	 2.356295693185038e-001	 1.980338956499914e+001
1	 1.072009967878922e+000	 2.465654943779209e-001	 1.946416492879916e+001
1	 1.069434245042312e+000	 2.575078010232722e-001	 1.912038681604828e+001
1	 1.066738915062326e+000	 2.684546847203496e-001	 1.877202091779921e+001
1	 1.063923408344307e+000	 2.794043184668105e-001	 1.841908457015416e+001
1	 1.060987189898027e+000	 2.903548535102650e-001	 1.806164793210346e+001
1	 1.057929760132478e+000	 3.013044200973088e-001	 1.769983510046067e+001
1	 1.054750655633610e+000	 3.122511282532140e-001	 1.733382515806029e+001
1	 1.051449449923766e+000	 3.231930685919333e-001	 1.696385315144117e+001
1	 1.085564603934357e+000	 2.150794998288730e-001	 2.016145972644251e+001
1	 1.083330493969430e+000	 2.260635036797578e-001	 1.982543760062315e+001
1	 1.080977971837627e+000	 2.370574881828541e-001	 1.948570245005373e+001
1	 1.078506365000086e+000	 2.480596851187143e-001	 1.914211918543722e+001
1	 1.075915033243134e+000	 2.590683023129977e-001	 1.879460124451965e+001
1	 1.073203369521688e+000	 2.700815242959982e-001	 1.844311187644504e+001
1	 1.070370800789320e+000	 2.810975129937173e-001	 1.808766537162336e+001
1	 1.067416788813741e+000	 2.921144084503037e-001	 1.772832823322839e+001
1	 1.064340830976396e+000	 3.031303295816257e-001	 1.736522028647396e+001
1	 1.061142461054927e+000	 3.141433749596863e-001	 1.699851572185878e+001
1	 1.057821249987196e+000	 3.251516236275364e-001	 1.662844406862662e+001
1	 1.092103509910670e+000	 2.163750326987972e-001	 1.985816333260195e+001
1	 1.089855942768836e+000	 2.274251987737151e-001	 1.951639732975824e+001
1	 1.087489250203683e+000	 2.384854056193400e-001	 1.917153416551090e+001
1	 1.085002755625295e+000	 2.495538743653484e-001	 1.882343728033182e+001
1	 1.082395814963654e+000	 2.606288020422316e-001	 1.847201797190762e+001
1	 1.079667817517119e+000	 2.717083622447951e-001	 1.811723667083533e+001
1	 1.076818186787501e+000	 2.827907058273957e-001	 1.775910416258184e+001
1	 1.073846381300447e+000	 2.938739616307315e-001	 1.739768275185570e+001
1	 1.070751895409864e+000	 3.049562372399547e-001	 1.703308736556907e+001
1	 1.067534260085082e+000	 3.160356197738095e-001	 1.666548659061003e+001
1	 1.064193043679492e+000	 3.271101767044565e-001	 1.629510364269978e+001
1	 1.098642410982984e+000	 2.176705645971922e-001	 1.955838311717637e+001
1	 1.096381386674383e+000	 2.287868928464906e-001	 1.921074405793551e+001
1	 1.094000523686553e+000	 2.399133219849495e-001	 1.886061657237194e+001
1	 1.091499141378525e+000	 2.510480624913769e-001	 1.850786242231244e+001
1	 1.088876591823937e+000	 2.621893006011032e-001	 1.815239047724534e+001
1	 1.086132260664596e+000	 2.733351989734535e-001	 1.779415798033453e+001
1	 1.083265567950552e+000	 2.844838973911467e-001	 1.743317176156797e+001
1	 1.080275968965396e+000	 2.956335134914386e-001	 1.706948939422536e+001
1	 1.077162955035492e+000	 3.067821435287720e-001	 1.670322029087797e+001
1	 1.073926054321867e+000	 3.179278631686413e-001	 1.633452673517419e+001
1	 1.070564832593438e+000	 3.290687283123238e-001	 1.596362484571760e+001
1	 1.105181308785909e+000	 2.189660958479585e-001	 1.926183195264186e+001
1	 1.102906827317317e+000	 2.301485862385200e-001	 1.890820386031095e+001
1	 1.100511793913937e+000	 2.413412376366705e-001	 1.855268788399087e+001
1	 1.097995523883749e+000	 2.525422498703536e-001	 1.819514390416596e+001
1	 1.095357365444049e+000	 2.637497983797427e-001	 1.783547808062578e+001
1	 1.092596700580097e+000	 2.749620348886868e-001	 1.747364410778436e+001
1	 1.089712945890182e+000	 2.861770881082720e-001	 1.710964441812414e+001
1	 1.086705553415838e+000	 2.973930644723152e-001	 1.674353132998958e+001
1	 1.083574011455895e+000	 3.086080489045548e-001	 1.637540813598298e+001
1	 1.080317845363071e+000	 3.198201056172396e-001	 1.600543012825495e+001
1	 1.076936618321817e+000	 3.310272789407683e-001	 1.563380555703205e+001
1	 1.111720204954052e+000	 2.202616267749964e-001	 1.896822947292778e+001
1	 1.109432266328881e+000	 2.315102792902392e-001	 1.860850926305554e+001
1	 1.107023062513533e+000	 2.427691529314909e-001	 1.824749247933611e+001
1	 1.104491904764940e+000	 2.540364368758318e-001	 1.788503692379683e+001
1	 1.101838137444058e+000	 2.653102957682796e-001	 1.752104577151043e+001
1	 1.099061138879598e+000	 2.765888703972085e-001	 1.715546881421648e+001
1	 1.096160322218095e+000	 2.878702784020723e-001	 1.678830365317537e+001
1	 1.093135136259025e+000	 2.991526150132511e-001	 1.641959683752513e+001
1	 1.089985066273683e+000	 3.104339538237795e-001	 1.604944494443870e+001
1	 1.086709634806486e+000	 3.217123475926619e-001	 1.567799559741556e+001
1	 1.083308402457412e+000	 3.329858290794202e-001	 1.530544841909216e+001
1	 1.019590298292188e+000	 3.134002468966224e-001	 1.867953721331896e+001
1	 1.016270341054748e+000	 3.240041509680922e-001	 1.829756567836482e+001
1	 1.012831263959774e+000	 3.345996744956820e-001	 1.790417957784403e+001
1	 1.009272763592686e+000	 3.451849134900504e-001	 1.749953097784656e+001
1	 1.005594575098846e+000	 3.557579485199885e-001	 1.708380914738823e+001
1	 1.001796472814765e+000	 3.663168456381125e-001	 1.665724118629075e+001
1	 9.978782708743237e-001	 3.768596573328684e-001	 1.622009260424843e+001
1	 9.938398237888124e-001	 3.873844235061286e-001	 1.577266784880514e+001
1	 9.896810269996652e-001	 3.978891724756004e-001	 1.531531078003158e+001
1	 9.854018174027490e-001	 4.083719220012180e-001	 1.484840508977049e+001
1	 9.810021738431126e-001	 4.188306803346251e-001	 1.437237466340172e+001
1	 1.025962154103039e+000	 3.153588190700910e-001	 1.833049689277649e+001
1	 1.022621449032989e+000	 3.260289914731288e-001	 1.795000823993134e+001
1	 1.019160879674458e+000	 3.366907309586894e-001	 1.755840024352643e+001
1	 1.015580140716707e+000	 3.473421216385829e-001	 1.715582786827036e+001
1	 1.011878965649917e+000	 3.579812320862496e-001	 1.674248341463724e+001
1	 1.008057127400339e+000	 3.686061162682363e-001	 1.631859714378363e+001
1	 1.004114438940307e+000	 3.792148145021522e-001	 1.588443785323432e+001
1	 1.000050753871896e+000	 3.898053544403731e-001	 1.544031340105472e+001
1	 9.958659669831210e-001	 4.003757520787162e-001	 1.498657117629976e+001
1	 9.915600147754914e-001	 4.109240127892444e-001	 1.452359851360367e+001
1	 9.871328759618585e-001	 4.214481323763099e-001	 1.405182304986284e+001
1	 1.032333995578839e+000	 3.173173868367261e-001	 1.798463940793569e+001
1	 1.028972542722899e+000	 3.280538274222357e-001	 1.760539802470039e+001
1	 1.025490481149196e+000	 3.387817827167959e-001	 1.721533387288809e+001
1	 1.021887503650834e+000	 3.494993249333950e-001	 1.681460642084403e+001
1	 1.018163342062814e+000	 3.602045106501481e-001	 1.640341272019068e+001
1	 1.014317767901132e+000	 3.708953817475604e-001	 1.598198802700739e+001
1	 1.010350592976570e+000	 3.815699663724302e-001	 1.555060637314420e+001
1	 1.006261669981995e+000	 3.922262799276644e-001	 1.510958108538354e+001
1	 1.002050893051997e+000	 4.028623260872160e-001	 1.465926525023274e+001
1	 9.977181982937291e-001	 4.134760978353049e-001	 1.420005212221000e+001
1	 9.932635642878445e-001	 4.240655785290188e-001	 1.373237547357457e+001
1	 1.038705824312371e+000	 3.192759506861582e-001	 1.764173083836655e+001
1	 1.035323623712072e+000	 3.300786593216034e-001	 1.726350575824035e+001
1	 1.031820069966206e+000	 3.408728302927376e-001	 1.687475721349714e+001
1	 1.028194853971724e+000	 3.516565239137509e-001	 1.647565075701020e+001
1	 1.024447705908449e+000	 3.624277847674573e-001	 1.606638988569776e+001
1	 1.020578395882120e+000	 3.731846426483437e-001	 1.564721665719412e+001
1	 1.016586734541975e+000	 3.839251135324219e-001	 1.521841225580874e+001
1	 1.012472573671668e+000	 3.946472005731540e-001	 1.478029750547723e+001
1	 1.008235806752366e+000	 4.053488951226541e-001	 1.433323332748040e+001
1	 1.003876369496865e+000	 4.160281777773232e-001	 1.387762114079076e+001
1	 9.993942403536174e-001	 4.266830194470083e-001	 1.341390320299187e+001
1	 1.045077641896419e+000	 3.212345111080174e-001	 1.730154297586106e+001
1	 1.041674693588099e+000	 3.321034876774224e-001	 1.692410776515557e+001
1	 1.038149647707703e+000	 3.429638742092506e-001	 1.653645246521498e+001
1	 1.034502193256031e+000	 3.538137191189148e-001	 1.613875027079195e+001
1	 1.030732058757729e+000	 3.646510549939495e-001	 1.573121279332500e+001
1	 1.026839012908283e+000	 3.754738995428443e-001	 1.531409067233562e+001
1	 1.022822865195384e+000	 3.862802565708465e-001	 1.488767413505412e+001
1	 1.018683466493476e+000	 3.970681169819943e-001	 1.445229350196887e+001
1	 1.014420709630302e+000	 4.078354598065851e-001	 1.400831963606544e+001
1	 1.010034529924301e+000	 4.185802532532225e-001	 1.355616433360737e+001
1	 1.005524905691725e+000	 4.293004557845356e-001	 1.309628065440306e+001
1	 1.051449449923766e+000	 3.231930685919333e-001	 1.696385315144117e+001
1	 1.048025753938572e+000	 3.341283129958826e-001	 1.658698579953018e+001
1	 1.044479215955903e+000	 3.450549149890706e-001	 1.620020711509367e+001
1	 1.040809523080410e+000	 3.559709110881510e-001	 1.580369946914217e+001
1	 1.037016402181564e+000	 3.668743218853973e-001	 1.539768423253867e+001
1	 1.033099620544599e+000	 3.777631530033208e-001	 1.498242238135779e+001
1	 1.029058986495659e+000	 3.886353960764227e-001	 1.455821504920800e+001
1	 1.024894349999979e+000	 3.994890297593372e-001	 1.412540402419479e+001
1	 1.020605603231880e+000	 4.103220207605629e-001	 1.368437218828178e+001
1	 1.016192681115441e+000	 4.211323249009262e-001	 1.323554389689411e+001
1	 1.011655561834714e+000	 4.319178881958571e-001	 1.277938529670161e+001
1	 1.057821249987196e+000	 3.251516236275364e-001	 1.662844406862662e+001
1	 1.054376806351084e+000	 3.361531357831747e-001	 1.625192688150834e+001
1	 1.050808776293023e+000	 3.471459531549336e-001	 1.586581377824751e+001
1	 1.047116845021517e+000	 3.581281003607237e-001	 1.547029781807048e+001
1	 1.043300737750864e+000	 3.690975859975734e-001	 1.506561175243054e+001
1	 1.039360220356044e+000	 3.800524036020316e-001	 1.465202862357194e+001
1	 1.035295100001661e+000	 3.909905326378698e-001	 1.422986230858157e+001
1	 1.031105225743738e+000	 4.019099395103344e-001	 1.379946800659011e+001
1	 1.026790489103172e+000	 4.128085786061421e-001	 1.336124266686736e+001
1	 1.022350824609688e+000	 4.236843933583578e-001	 1.291562535564554e+001
1	 1.017786210315132e+000	 4.345353173352295e-001	 1.246309755960306e+001
1	 1.064193043679492e+000	 3.271101767044565e-001	 1.629510364269978e+001
1	 1.060727852413227e+000	 3.381779565454890e-001	 1.591872313975143e+001
1	 1.057138330301280e+000	 3.492369892295757e-001	 1.553307004444842e+001
1	 1.053424160656007e+000	 3.602852874758972e-001	 1.513834959430388e+001
1	 1.049585067036537e+000	 3.713208478862503e-001	 1.473480751935582e+001
1	 1.045620813907598e+000	 3.823416519112352e-001	 1.432273063318140e+001
1	 1.041531207272252e+000	 3.933456668439073e-001	 1.390244736771736e+001
1	 1.037316095277311e+000	 4.043308468401382e-001	 1.347432824953108e+001
1	 1.032975368790253e+000	 4.152951339648769e-001	 1.303878631527042e+001
1	 1.028508961946442e+000	 4.262364592634404e-001	 1.259627746411639e+001
1	 1.023916852665525e+000	 4.371527438569092e-001	 1.214730074516331e+001
1	 1.070564832593438e+000	 3.290687283123238e-001	 1.596362484571760e+001
1	 1.067078893712593e+000	 3.402027757890157e-001	 1.558717165952876e+001
1	 1.063467879562889e+000	 3.513280237357326e-001	 1.520177833020605e+001
1	 1.059731471560536e+000	 3.624424729729358e-001	 1.480766374225195e+001
1	 1.055869391609492e+000	 3.735441081072007e-001	 1.440508817966082e+001
1	 1.051881402764239e+000	 3.846308985031900e-001	 1.399435390863211e+001
1	 1.047767309866292e+000	 3.957007992832538e-001	 1.357580570220493e+001
1	 1.043526960153260e+000	 4.067517523539003e-001	 1.314983130443696e+001
1	 1.039160243839196e+000	 4.177816874583215e-001	 1.271686183183956e+001
1	 1.034667094665108e+000	 4.287885232540981e-001	 1.227737210987874e+001
1	 1.030047490418440e+000	 4.397701684151531e-001	 1.183188094246065e+001
1	 1.076936618321817e+000	 3.310272789407683e-001	 1.563380555703205e+001
1	 1.073429931836776e+000	 3.422275940199455e-001	 1.525707433620723e+001
1	 1.069797425660067e+000	 3.534190571961404e-001	 1.487174573610522e+001
1	 1.066038779311758e+000	 3.645996573911034e-001	 1.447805373605548e+001
1	 1.062153713040640e+000	 3.757673672161970e-001	 1.407627472728994e+001
1	 1.058141988490943e+000	 3.869201439501546e-001	 1.366672808660778e+001
1	 1.054003409342645e+000	 3.980559305446286e-001	 1.324977668987494e+001
1	 1.049737821924144e+000	 4.091726566567728e-001	 1.282582736295642e+001
1	 1.045345115796075e+000	 4.202682397080301e-001	 1.239533126777455e+001
1	 1.040825224305087e+000	 4.313405859682537e-001	 1.195878422128936e+001
1	 1.036178125106425e+000	 4.423875916642178e-001	 1.151672694531006e+001
1	 1.083308402457412e+000	 3.329858290794202e-001	 1.530544841909216e+001
1	 1.079780968373366e+000	 3.442524117444685e-001	 1.492823773391754e+001
1	 1.076126970175029e+000	 3.555100901335350e-001	 1.454278390918428e+001
1	 1.072346085486329e+000	 3.667568412696645e-001	 1.414933744650935e+001
1	 1.068438032900888e+000	 3.779906257690122e-001	 1.374819237606984e+001
1	 1.064402572652689e+000	 3.892093888243871e-001	 1.333968682047599e+001
1	 1.060239507260171e+000	 4.004110612167509e-001	 1.292420349619082e+001
1	 1.055948682142524e+000	 4.115935603539074e-001	 1.250217015006840e+001
1	 1.051529986206963e+000	 4.227547913355571e-001	 1.207405992868256e+001
1	 1.046983352405783e+000	 4.338926480438310e-001	 1.164039167822685e+001
1	 1.042308758262027e+000	 4.450050142583599e-001	 1.120173017288477e+001
1	 9.810021738431126e-001	 4.188306803346251e-001	 1.437237466340172e+001
1	 9.764828047075795e-001	 4.292618845903969e-001	 1.388322092128903e+001
1	 9.718431238218865e-001	 4.396650991708302e-001	 1.337688500497165e+001
1	 9.670832392392218e-001	 4.500383117743657e-001	 1.285397486946411e+001
1	 9.622033025948158e-001	 4.603795050253364e-001	 1.231513569502082e+001
1	 9.572035094363700e-001	 4.706866576225989e-001	 1.176104975726455e+001
1	 9.520840995190897e-001	 4.809577455047829e-001	 1.119243623776091e+001
1	 9.468453570644847e-001	 4.911907430309179e-001	 1.061005097433092e+001
1	 9.414876109821542e-001	 5.013836241751539e-001	 1.001468615052084e+001
1	 9.360112350538159e-001	 5.115343637342538e-001	 9.407169923784062e+000
1	 9.304166480789026e-001	 5.216409385464856e-001	 8.788365992067050e+000
1	 9.871328759618585e-001	 4.214481323763099e-001	 1.405182304986284e+001
1	 9.825852633560629e-001	 4.319445256884886e-001	 1.356718237566394e+001
1	 9.779165871205763e-001	 4.424127544058430e-001	 1.306553584714184e+001
1	 9.731269559838418e-001	 4.528507936510823e-001	 1.254746482703804e+001
1	 9.682165225287075e-001	 4.632566134410979e-001	 1.201358591354867e+001
1	 9.631854835249192e-001	 4.736281798427740e-001	 1.146455082791758e+001
1	 9.580340802259996e-001	 4.839634561455170e-001	 1.090104624616277e+001
1	 9.527625986296655e-001	 4.942604040492620e-001	 1.032379357424350e+001
1	 9.473713697009942e-001	 5.045169848666595e-001	 9.733548666098203e+000
1	 9.418607695576092e-001	 5.147311607381127e-001	 9.131101484106747e+000
1	 9.362312196161845e-001	 5.249008958582897e-001	 8.517275701660681e+000
1	 9.932635642878445e-001	 4.240655785290188e-001	 1.373237547357457e+001
1	 9.886877082751898e-001	 4.346271607509846e-001	 1.325209723023955e+001
1	 9.839900367549843e-001	 4.451604034590352e-001	 1.275498039983267e+001
1	 9.791706591309307e-001	 4.556632692001785e-001	 1.224157808048476e+001
1	 9.742297289334985e-001	 4.661337153838935e-001	 1.171247647229747e+001
1	 9.691674441544828e-001	 4.765696954451200e-001	 1.116829478418324e+001
1	 9.639840475457245e-001	 4.869691600240705e-001	 1.060968508881558e+001
1	 9.586798268811472e-001	 4.973300581616141e-001	 1.003733212501636e+001
1	 9.532551151813121e-001	 5.076503385089313e-001	 9.451953047017627e+000
1	 9.477102908997493e-001	 5.179279505500952e-001	 8.854297120151117e+000
1	 9.420457780703714e-001	 5.281608458362019e-001	 8.245145362636665e+000
1	 9.993942403536174e-001	 4.266830194470083e-001	 1.341390320299187e+001
1	 9.947901409904685e-001	 4.373097904484328e-001	 1.293785254086877e+001
1	 9.900634742433956e-001	 4.479080470172055e-001	 1.244511990055119e+001
1	 9.852143501913654e-001	 4.584757391246574e-001	 1.193622847657466e+001
1	 9.802429233124705e-001	 4.690108115728803e-001	 1.141173228987462e+001
1	 9.751493928205582e-001	 4.795112051648953e-001	 1.087221611563798e+001
1	 9.699340029657909e-001	 4.899748578917460e-001	 1.031829536353168e+001
1	 9.645970432983018e-001	 5.003997061352615e-001	 9.750615909653453e+000
1	 9.591388488941353e-001	 5.107836858851768e-001	 9.169853879650498e+000
1	 9.535598005427274e-001	 5.211247339692603e-001	 8.576715382556495e+000
1	 9.478603248952329e-001	 5.314207892950618e-001	 7.971936195005779e+000
1	 1.005524905691725e+000	 4.293004557845356e-001	 1.309628065440306e+001
1	 1.000892563027408e+000	 4.399924154513824e-001	 1.262433812622647e+001
1	 9.961369011040955e-001	 4.506556857671526e-001	 1.213585800375212e+001
1	 9.912580306760201e-001	 4.612882041275213e-001	 1.163133197147901e+001
1	 9.862561071689030e-001	 4.718879027272156e-001	 1.111128012421985e+001
1	 9.811313310186437e-001	 4.824527097373583e-001	 1.057625091771287e+001
1	 9.758839479737284e-001	 4.929805504998467e-001	 1.002682107616469e+001
1	 9.705142493605007e-001	 5.034693487374914e-001	 9.463595456087539e+000
1	 9.650225723104889e-001	 5.139170277786029e-001	 8.887206865884599e+000
1	 9.594092999490360e-001	 5.243215117946671e-001	 8.298315840730282e+000
1	 9.536748615445378e-001	 5.346807270497089e-001	 7.697610372388712e+000
1	 1.011655561834714e+000	 4.319178881958571e-001	 1.277938529670160e+001
1	 1.006994975911515e+000	 4.426750364303818e-001	 1.231144648425083e+001
1	 1.002210318855367e+000	 4.534033203956745e-001	 1.182710070776270e+001
1	 9.973017020957710e-001	 4.641006649117728e-001	 1.132680656701644e+001
1	 9.922692820060759e-001	 4.747649895660558e-001	 1.081104851703724e+001
1	 9.871132602442367e-001	 4.853942098977674e-001	 1.028033684320191e+001
1	 9.818338840570650e-001	 4.959862385996756e-001	 9.735207598113712e+000
1	 9.764314465471150e-001	 5.065389867355905e-001	 9.176222499629191e+000
1	 9.709062869013992e-001	 5.170503649724165e-001	 8.603968789497642e+000
1	 9.652587905811674e-001	 5.275182848253748e-001	 8.019059052155154e+000
1	 9.594893894720562e-001	 5.379406599149837e-001	 7.422130993300595e+000
1	 1.017786210315132e+000	 4.345353173352295e-001	 1.246309755960306e+001
1	 1.013097381168299e+000	 4.453576540559800e-001	 1.199907271160764e+001
1	 1.008283729015496e+000	 4.561509515895701e-001	 1.151875628435096e+001
1	 1.003345365961493e+000	 4.669131221804144e-001	 1.102257224920554e+001
1	 9.982824493272693e-001	 4.776420728085586e-001	 1.051096774023764e+001
1	 9.930951819928362e-001	 4.883357063813811e-001	 9.984413055525387e+000
1	 9.877838127033295e-001	 4.989919229425355e-001	 9.443401625365897e+000
1	 9.823486363375157e-001	 5.096086208968456e-001	 8.888449946774994e+000
1	 9.767899941378910e-001	 5.201836982498246e-001	 8.320097483746135e+000
1	 9.711082739016134e-001	 5.307150538604427e-001	 7.738906532806134e+000
1	 9.653039101315574e-001	 5.412005887057253e-001	 7.145462053474087e+000
1	 1.023916852665525e+000	 4.371527438569092e-001	 1.214730074516331e+001
1	 1.019199780323268e+000	 4.480402689987253e-001	 1.168711442605172e+001
1	 1.014357133102766e+000	 4.588985800356378e-001	 1.121073521082802e+001
1	 1.009389023784061e+000	 4.697255766364484e-001	 1.071855092902817e+001
1	 1.004295610635763e+000	 4.805191531738802e-001	 1.021096974430751e+001
1	 9.990770977599388e-001	 4.912771999234576e-001	 9.688420183674015e+000
1	 9.937337354000502e-001	 5.019976042797296e-001	 9.151351139011645e+000
1	 9.882658202110743e-001	 5.126782519885444e-001	 8.600231840316699e+000
1	 9.826736954909916e-001	 5.233170283940343e-001	 8.035551800121123e+000
1	 9.769577513728665e-001	 5.339118196989298e-001	 7.457820728632573e+000
1	 9.711184249768111e-001	 5.444605142367740e-001	 6.867568419177961e+000
1	 1.030047490418440e+000	 4.397701684151531e-001	 1.183188094246065e+001
1	 1.025302174901930e+000	 4.507228819291669e-001	 1.137547169156419e+001
1	 1.020430532635463e+000	 4.616462064206762e-001	 1.090295010457743e+001
1	 1.015432677074352e+000	 4.725380289828776e-001	 1.041466638531055e+001
1	 1.010308767434837e+000	 4.833962313811783e-001	 9.910988108523723e+000
1	 1.005059009041043e+000	 4.942186912592553e-001	 9.392300278764081e+000
1	 9.996836536347549e-001	 5.050032833625604e-001	 8.859005367171724e+000
1	 9.941829996471617e-001	 5.157478807779733e-001	 8.311523325698655e+000
1	 9.885573924317267e-001	 5.264503561882526e-001	 7.750291578219955e+000
1	 9.828072244574182e-001	 5.371085831398950e-001	 7.175764988058823e+000
1	 9.769329354615869e-001	 5.477204373229693e-001	 6.588415801490182e+000
1	 1.036178125106425e+000	 4.423875916642178e-001	 1.151672694531006e+001
1	 1.031404566429793e+000	 4.534054935178529e-001	 1.106404694615043e+001
1	 1.026503929131870e+000	 4.643938314314838e-001	 1.059531565991169e+001
1	 1.021476327343239e+000	 4.753504799227044e-001	 1.011084420963440e+001
1	 1.016321921227772e+000	 4.862733081496097e-001	 9.610957992938124e+000
1	 1.011040917331646e+000	 4.971601811240325e-001	 9.095996772136607e+000
1	 1.005633568894973e+000	 5.080089609423314e-001	 8.566314748277527e+000
1	 1.000100176125150e+000	 5.188175080324198e-001	 8.022280618570596e+000
1	 9.944410864311213e-001	 5.295836824156863e-001	 7.464277616690047e+000
1	 9.886566946177605e-001	 5.403053449823977e-001	 6.892703535462894e+000
1	 9.827474430396535e-001	 5.509803587791509e-001	 6.307970731484801e+000
1	 1.042308758262027e+000	 4.450050142583599e-001	 1.120173017288477e+001
1	 1.037506956432366e+000	 4.560881044353323e-001	 1.075274493218904e+001
1	 1.032577324110273e+000	 4.671414557548592e-001	 1.028774858715989e+001
1	 1.027519976101599e+000	 4.781629301589312e-001	 9.807011753194464e+000
1	 1.022335073517847e+000	 4.891503841983316e-001	 9.310816092057964e+000
1	 1.017022824127247e+000	 5.001016702530479e-001	 8.799454434937182e+000
1	 1.011583482668233e+000	 5.110146377703450e-001	 8.273230895648911e+000
1	 1.006017351124410e+000	 5.218871345191709e-001	 7.732460973486858e+000
1	 1.000324778960203e+000	 5.327170078595428e-001	 7.177471645198072e+000
1	 9.945061633163868e-001	 5.435021060254974e-001	 6.608601445592093e+000
1	 9.885619491647814e-001	 5.542402794201590e-001	 6.026200536295637e+000
1	 9.304166480789026e-001	 5.216409385464856e-001	 8.788365992067050e+000
1	 9.247034483627793e-001	 5.317028344607302e-001	 8.152406977942535e+000
1	 9.188729762948830e-001	 5.417165161740593e-001	 7.493136480666302e+000
1	 9.129257872143954e-001	 5.516799737568476e-001	 6.810712044395546e+000
1	 9.068624816840354e-001	 5.615912043072900e-001	 6.105267221776307e+000
1	 9.006837054341905e-001	 5.714482132060662e-001	 5.376911777902595e+000
1	 8.943901492657200e-001	 5.812490153734854e-001	 4.625731951968854e+000
1	 8.879825489111826e-001	 5.909916365275353e-001	 3.851790776509647e+000
1	 8.814616848543042e-001	 6.006741144412503e-001	 3.055128453958886e+000
1	 8.748283821075730e-001	 6.102945001977893e-001	 2.235762790099508e+000
1	 8.680835099479130e-001	 6.198508594416141e-001	 1.393689683818014e+000
1	 9.362312196161845e-001	 5.249008958582897e-001	 8.517275701660681e+000
1	 9.304823156717123e-001	 5.350256728629237e-001	 7.885787510001125e+000
1	 9.246154064903093e-001	 5.451019343554696e-001	 7.230116708263512e+000
1	 9.186310508817270e-001	 5.551276578453964e-001	 6.550462786733101e+000
1	 9.125298531618775e-001	 5.651008279139121e-001	 5.847004084318517e+000
1	 9.063124630966118e-001	 5.750194374764717e-001	 5.119897940200437e+000
1	 8.999795758039179e-001	 5.848814890477754e-001	 4.369280897867538e+000
1	 8.935319316142809e-001	 5.946849960076830e-001	 3.595268961495192e+000
1	 8.869703158890229e-001	 6.044279838664362e-001	 2.797957904477088e+000
1	 8.802955587965075e-001	 6.141084915275836e-001	 1.977423629773301e+000
1	 8.735085350461601e-001	 6.237245725469760e-001	 1.133722581589277e+000
1	 9.420457780703714e-001	 5.281608458362019e-001	 8.245145362636665e+000
1	 9.362611699778098e-001	 5.383485037898442e-001	 7.617825310636943e+000
1	 9.303578237648393e-001	 5.484873449209083e-001	 6.965486693233784e+000
1	 9.243363017117704e-001	 5.585753341779821e-001	 6.288377253643164e+000
1	 9.181972118876943e-001	 5.686104436253139e-001	 5.586726742696623e+000
1	 9.119412080939141e-001	 5.785906537131572e-001	 4.860747009012158e+000
1	 9.055689897655316e-001	 5.885139545506302e-001	 4.110632135566056e+000
1	 8.990813018309456e-001	 5.983783471794885e-001	 3.336558622698919e+000
1	 8.924789345290570e-001	 6.081818448472069e-001	 2.538685617457632e+000
1	 8.857627231840892e-001	 6.179224742777476e-001	 1.717155189043607e+000
1	 8.789335479379550e-001	 6.275982769383739e-001	 8.720926500064529e-001
1	 9.478603248952329e-001	 5.314207892950618e-001	 7.971936195005780e+000
1	 9.420400127259289e-001	 5.416713280720396e-001	 7.348485450794477e+000
1	 9.361002295542299e-001	 5.518727487165535e-001	 6.699218913700250e+000
1	 9.300415411309952e-001	 5.620230036163344e-001	 6.024438777308150e+000
1	 9.238645592784844e-001	 5.721200523186920e-001	 5.324432716855422e+000
1	 9.175699418334398e-001	 5.821618628087035e-001	 4.599473908838820e+000
1	 9.111583925480667e-001	 5.921464127899264e-001	 3.849821090365514e+000
1	 9.046306609486619e-001	 6.020716909660352e-001	 3.075718658369349e+000
1	 8.979875421516954e-001	 6.119356983217603e-001	 2.277396808700523e+000
1	 8.912298766372340e-001	 6.217364494015001e-001	 1.455071714985095e+000
1	 8.843585499796631e-001	 6.314719735839530e-001	 6.089457470319971e-001
1	 9.536748615445378e-001	 5.346807270497089e-001	 7.697610372388713e+000
1	 9.478188453609252e-001	 5.449941465400575e-001	 7.077733861072004e+000
1	 9.418426252942369e-001	 5.552581465885836e-001	 6.431286526767835e+000
1	 9.357467705658704e-001	 5.654706670221815e-001	 5.758631104162472e+000
1	 9.295318967512446e-001	 5.756296548712437e-001	 5.060119594952316e+000
1	 9.231986657225305e-001	 5.857330656556907e-001	 4.336093207885227e+000
1	 9.167477855490266e-001	 5.957788646735407e-001	 3.586882331220195e+000
1	 9.101800103549163e-001	 6.057650282904066e-001	 2.812806537829292e+000
1	 9.034961401342255e-001	 6.156895452282952e-001	 2.014174623072004e+000
1	 8.966970205228557e-001	 6.255504178520606e-001	 1.191284675477865e+000
1	 8.897835425276497e-001	 6.353456634518566e-001	 3.444241801781419e-001
1	 9.594893894720562e-001	 5.379406599149837e-001	 7.422130993300595e+000
1	 9.535976693276570e-001	 5.483169600244462e-001	 6.805537305855506e+000
1	 9.475850124206173e-001	 5.586435393831772e-001	 6.161663348135456e+000
1	 9.414519914428656e-001	 5.689183252572523e-001	 5.490938382528346e+000
1	 9.351992257229722e-001	 5.791392521601656e-001	 4.793785031480170e+000
1	 9.288273811685280e-001	 5.893042631466993e-001	 4.070619129046050e+000
1	 9.223371701659145e-001	 5.994113111093489e-001	 3.321849596874172e+000
1	 9.157293514371939e-001	 6.094583600756858e-001	 2.547878344959614e+000
1	 9.090047298539377e-001	 6.194433865050097e-001	 1.749100197434636e+000
1	 9.021641562078695e-001	 6.293643805826485e-001	 9.259028435909337e-001
1	 8.952085269382796e-001	 6.392193475102295e-001	 7.866681424838144e-002
1	 9.653039101315574e-001	 5.412005887057253e-001	 7.145462053474085e+000
1	 9.593764860709807e-001	 5.516397693557534e-001	 6.531863358389519e+000
1	 9.533273923691268e-001	 5.620289279465123e-001	 5.890323832445611e+000
1	 9.471572051884509e-001	 5.723659791832759e-001	 5.221345150699525e+000
1	 9.408665476106650e-001	 5.826488450626549e-001	 4.525426745458018e+000
1	 9.344560895787747e-001	 5.928754561743090e-001	 3.803065560494238e+000
1	 9.279265477962357e-001	 6.030437530052284e-001	 3.054755821052418e+000
1	 9.212786855829814e-001	 6.131516872449564e-001	 2.280988820108107e+000
1	 9.145133126881202e-001	 6.231972230901023e-001	 1.482252721301932e+000
1	 9.076312850591891e-001	 6.331783385464836e-001	 6.590323789114947e-001
1	 9.006335045679182e-001	 6.430930267272152e-001	-1.881908248199910e-001
1	 9.711184249768111e-001	 5.444605142367740e-001	 6.867568419177959e+000
1	 9.651552970357530e-001	 5.549625753645266e-001	 6.256680376743904e+000
1	 9.590697665755227e-001	 5.654143131247673e-001	 5.617243054341107e+000
1	 9.528624132290952e-001	 5.758136296619807e-001	 4.949836325452651e+000
1	 9.465338638313204e-001	 5.861584344559083e-001	 4.255042518687087e+000
1	 9.400847923606115e-001	 5.964466456311005e-001	 3.533446065889235e+000
1	 9.335159198374937e-001	 6.066761912690550e-001	 2.785633156745815e+000
1	 9.268280141797645e-001	 6.168450107213014e-001	 2.012191400493041e+000
1	 9.200218900140618e-001	 6.269510559217716e-001	 1.213709495309751e+000
1	 9.130984084437296e-001	 6.369922926967850e-001	 3.907769059507371e-001
1	 9.060584767729306e-001	 6.469667020709586e-001	-4.560164498475118e-001
1	 9.769329354615869e-001	 5.477204373229693e-001	 6.588415801490185e+000
1	 9.709341036668303e-001	 5.582853788813141e-001	 5.979957480640353e+000
1	 9.648121364755610e-001	 5.687996957641206e-001	 5.342396690198376e+000
1	 9.585676169912680e-001	 5.792612775550958e-001	 4.676397190970587e+000
1	 9.522011758019360e-001	 5.896680212171226e-001	 3.982630194068715e+000
1	 9.457134909213811e-001	 6.000178324096539e-001	 3.261773894219227e+000
1	 9.391052876871932e-001	 6.103086268087055e-001	 2.514512999627810e+000
1	 9.323773386150284e-001	 6.205383314278041e-001	 1.741538259159837e+000
1	 9.255304632090506e-001	 6.307048859382155e-001	 9.435459875985308e-001
1	 9.185655277284058e-001	 6.408062439867723e-001	 1.212375897440742e-001
1	 9.114834449096819e-001	 6.508403745096034e-001	-7.246809158847432e-001
1	 9.827474430396535e-001	 5.509803587791509e-001	 6.307970731484800e+000
1	 9.767129074090700e-001	 5.616081807366634e-001	 5.701664529101966e+000
1	 9.705545035049973e-001	 5.721850767107506e-001	 5.065761000510904e+000
1	 9.642728179014387e-001	 5.827089237243498e-001	 4.401013388158520e+000
1	 9.578684849395088e-001	 5.931776062234953e-001	 3.708187673982482e+000
1	 9.513421866684246e-001	 6.035890174025493e-001	 2.988061989294360e+000
1	 9.446946527428373e-001	 6.139410605320561e-001	 2.241426010638894e+000
1	 9.379266602762590e-001	 6.242316502875478e-001	 1.469080342554376e+000
1	 9.310390336503758e-001	 6.344587140776324e-001	 6.718358881901668e-001
1	 9.240326442801321e-001	 6.446201933696649e-001	-1.494867912339827e-001
1	 9.169084103345374e-001	 6.547140450112940e-001	-9.940581271144036e-001
1	 9.885619491647814e-001	 5.542402794201590e-001	 6.026200536295640e+000
1	 9.824917097073290e-001	 5.649309817611228e-001	 5.421772098893401e+000
1	 9.762968690995890e-001	 5.755704568108352e-001	 4.787312812894295e+000
1	 9.699780173860767e-001	 5.861565690314716e-001	 4.123670904337859e+000
1	 9.635357926610374e-001	 5.966871903522223e-001	 3.431712918721345e+000
1	 9.569708810090841e-001	 6.071602015023673e-001	 2.712322998904073e+000
1	 9.502840164019309e-001	 6.175734933469834e-001	 1.966402137772770e+000
1	 9.434759805509428e-001	 6.279249682236161e-001	 1.194867406769091e+000
1	 9.365476027153261e-001	 6.382125412782214e-001	 3.986511614448104e-001
1	 9.294997594658225e-001	 6.484341417986819e-001	-4.212997747321067e-001
1	 9.223333744038621e-001	 6.585877145441748e-001	-1.264024947043309e+000
1	 8.680835099479130e-001	 6.198508594416141e-001	 1.393689683818013e+000
1	 8.612279813655368e-001	 6.293412734143905e-001	 5.349981865254596e-001
1	 8.542627519879941e-001	 6.387638395514256e-001	-3.328899280979748e-001
1	 8.471888204381821e-001	 6.481166733187914e-001	-1.207936334430363e+000
1	 8.400072281517993e-001	 6.573979096404267e-001	-2.088025740658826e+000
1	 8.327190589071605e-001	 6.666057041068111e-001	-2.970968895780587e+000
1	 8.253254383142842e-001	 6.757382341700818e-001	-3.854505746152125e+000
1	 8.178275332637144e-001	 6.847937003240027e-001	-4.736308735958744e+000
1	 8.102265513355921e-001	 6.937703272672137e-001	-5.613986245575761e+000
1	 8.025237401695791e-001	 7.026663650481889e-001	-6.485086161406390e+000
1	 7.947203867962918e-001	 7.114800901903866e-001	-7.347099570411197e+000
1	 8.735085350461601e-001	 6.237245725469760e-001	 1.133722581589271e+000
1	 8.666101633338729e-001	 6.332742961751409e-001	 2.736415556108484e-001
1	 8.596014052593092e-001	 6.427557479574492e-001	-5.947491928330940e-001
1	 8.524832656861682e-001	 6.521670315827175e-001	-1.469424068811094e+000
1	 8.452567925585081e-001	 6.615062703192322e-001	-2.348282076171991e+000
1	 8.379230764276171e-001	 6.707716082309716e-001	-3.229149830621922e+000
1	 8.304832499379156e-001	 6.799612113801955e-001	-4.109784719948459e+000
1	 8.229384872723257e-001	 6.890732690147887e-001	-4.987878205729806e+000
1	 8.152900035576537e-001	 6.981059947387768e-001	-5.861059260476200e+000
1	 8.075390542305773e-001	 7.070576276644425e-001	-6.726897933768848e+000
1	 7.996869343648978e-001	 7.159264335445058e-001	-7.582909040595090e+000
1	 8.789335479379550e-001	 6.275982769383739e-001	 8.720926500064498e-001
1	 8.719923331922083e-001	 6.372073100885021e-001	 1.096215218968684e-002
1	 8.649400465186129e-001	 6.467476473835925e-001	-8.575513300379940e-001
1	 8.577776990216597e-001	 6.562173807352369e-001	-1.731446947955834e+000
1	 8.505063451537499e-001	 6.656146217560931e-001	-2.608650613930113e+000
1	 8.431270822391361e-001	 6.749375029836685e-001	-3.487018000348637e+000
1	 8.356410499566216e-001	 6.841841790903721e-001	-4.364337682126500e+000
1	 8.280494297814941e-001	 6.933528280782360e-001	-5.238334417130560e+000
1	 8.203534443872105e-001	 7.024416524566974e-001	-6.106672558484950e+000
1	 8.125543570074461e-001	 7.114488804018744e-001	-6.966959592346621e+000
1	 8.046534707591729e-001	 7.203727668957749e-001	-7.816749794383974e+000
1	 8.843585499796631e-001	 6.314719735839530e-001	 6.089457470319928e-001
1	 8.773744922861855e-001	 6.411403161374444e-001	-2.528649241671184e-001
1	 8.702786771006543e-001	 6.507395388275513e-001	-1.121099078555412e+000
1	 8.630721217683391e-001	 6.602677217886619e-001	-1.993792402944794e+000
1	 8.557558872499758e-001	 6.697229649778331e-001	-2.868910097787390e+000
1	 8.483310776427658e-001	 6.791033894061228e-001	-3.744349841951336e+000
1	 8.407988396598859e-001	 6.884071383561142e-001	-4.617944896332045e+000
1	 8.331603620689753e-001	 6.976323785840092e-001	-5.487467340692418e+000
1	 8.254168750901276e-001	 7.067773015046820e-001	-6.350631437750991e+000
1	 8.175696497540029e-001	 7.158401243581070e-001	-7.205097118174685e+000
1	 8.096199972207286e-001	 7.248190913556027e-001	-8.048473579794065e+000
1	 8.897835425276497e-001	 6.353456634518566e-001	 3.444241801781454e-001
1	 8.827566419614469e-001	 6.450733153049384e-001	-5.176688379110290e-001
1	 8.756172983401800e-001	 6.547314232870192e-001	-1.385199982248590e+000
1	 8.683665352498886e-001	 6.643180557553057e-001	-2.256253043804166e+000
1	 8.610054201596336e-001	 6.738313010112742e-001	-3.128844663067351e+000
1	 8.535350639395547e-001	 6.832692685395544e-001	-4.000927240850872e+000
1	 8.459566203371921e-001	 6.926300902329239e-001	-4.870391982040679e+000
1	 8.382712854125242e-001	 7.019119216017750e-001	-5.735072066772089e+000
1	 8.304802969322704e-001	 7.111129429664369e-001	-6.592745943147812e+000
1	 8.225849337240644e-001	 7.202313606307627e-001	-7.441140735270164e+000
1	 8.145865149911749e-001	 7.292654080353987e-001	-8.277935760028573e+000
1	 8.952085269382796e-001	 6.392193475102295e-001	 7.866681424838240e-002
1	 8.881387835636345e-001	 6.490063085739545e-001	-7.832828881677885e-001
1	 8.809559115719381e-001	 6.587233017596905e-001	-1.649666244279770e+000
1	 8.736609407899915e-001	 6.683683836474812e-001	-2.518626502473813e+000
1	 8.662549451951725e-001	 6.779396308832394e-001	-3.388243673113334e+000
1	 8.587390424305520e-001	 6.874351414251838e-001	-4.256537365746898e+000
1	 8.511143932780236e-001	 6.968530357763036e-001	-5.121469752236670e+000
1	 8.433822010898957e-001	 7.061914582011980e-001	-5.980948650405571e+000
1	 8.355437111795052e-001	 7.154485779256691e-001	-6.832830722457534e+000
1	 8.276002101714470e-001	 7.246225903174626e-001	-7.674924782100627e+000
1	 8.195530253121230e-001	 7.337117180465720e-001	-8.504995203988866e+000
1	 9.006335045679182e-001	 6.430930267272152e-001	-1.881908248199916e-001
1	 8.935209184383905e-001	 6.529392969274620e-001	-1.049544384069667e+000
1	 8.862945181306751e-001	 6.627151752432591e-001	-1.914314586658837e+000
1	 8.789553397123300e-001	 6.724187064775015e-001	-2.780715281456820e+000
1	 8.715044636690420e-001	 6.820479556205513e-001	-3.646901561753261e+000
1	 8.639430144168067e-001	 6.916010091042313e-001	-4.510972509441680e+000
1	 8.562721597718637e-001	 7.010759760417556e-001	-5.370974056964914e+000
1	 8.484931103788458e-001	 7.104709894519441e-001	-6.224901961776717e+000
1	 8.406071190976969e-001	 7.197842074660846e-001	-7.070704887756870e+000
1	 8.326154803499684e-001	 7.290138145158300e-001	-7.906287587703841e+000
1	 8.245195294251837e-001	 7.381580225005316e-001	-8.729514180747810e+000
1	 9.060584767729306e-001	 6.469667020709586e-001	-4.560164498475123e-001
1	 8.989030479313578e-001	 6.568722813484320e-001	-1.316294524571796e+000
1	 8.916331193511397e-001	 6.667070447354198e-001	-2.178966114846807e+000
1	 8.842497333405870e-001	 6.764690252576789e-001	-3.042326607913887e+000
1	 8.767539768936911e-001	 6.861562762500328e-001	-3.904617681431597e+000
1	 8.691469811993678e-001	 6.957668726179176e-001	-4.764029935390764e+000
1	 8.614299211081966e-001	 7.052989120847824e-001	-5.618705632510287e+000
1	 8.536040145571291e-001	 7.147505164236784e-001	-6.466741542063539e+000
1	 8.456705219527116e-001	 7.241198326713901e-001	-7.306191881790425e+000
1	 8.376307455134441e-001	 7.334050343234865e-001	-8.135071352264122e+000
1	 8.294860285719685e-001	 7.426043225086872e-001	-8.951358257819095e+000
1	 9.114834449096819e-001	 6.508403745096034e-001	-7.246809158847396e-001
1	 9.042851733881780e-001	 6.608052628198342e-001	-1.583378282566091e+000
1	 8.969717165680791e-001	 6.706989112338671e-001	-2.443446187198203e+000
1	 8.895441229984449e-001	 6.805193410003271e-001	-3.303272292973320e+000
1	 8.820034861815690e-001	 6.902645937985061e-001	-4.161196156770079e+000
1	 8.743509440792836e-001	 6.999327330074622e-001	-5.015511729738535e+000
1	 8.665876785765052e-001	 7.095218449608861e-001	-5.864469955970417e+000
1	 8.587149149025006e-001	 7.190300401860672e-001	-6.706281464438878e+000
1	 8.507339210104147e-001	 7.284554546252924e-001	-7.539119349121074e+000
1	 8.426460069156920e-001	 7.377962508380541e-001	-8.361122031957045e+000
1	 8.344525239940882e-001	 7.470506191824476e-001	-9.170396203063302e+000
1	 9.169084103345374e-001	 6.547140450112940e-001	-9.940581271143988e-001
1	 9.096672961544936e-001	 6.647382423246392e-001	-1.850644293112884e+000
1	 9.023103111162404e-001	 6.746907757362944e-001	-2.707584289044629e+000
1	 8.948385100095865e-001	 6.845696547177584e-001	-3.563368596042164e+000
1	 8.872529928451248e-001	 6.943729092927946e-001	-4.416445743334217e+000
1	 8.795549043576029e-001	 7.040985913140858e-001	-5.265224658613998e+000
1	 8.717454334662736e-001	 7.137447757255694e-001	-6.108077104995699e+000
1	 8.638258126927161e-001	 7.233095618087753e-001	-6.943340200011804e+000
1	 8.557973175366715e-001	 7.327910744114978e-001	-7.769319011860458e+000
1	 8.476612658105285e-001	 7.421874651571557e-001	-8.584289227888485e+000
1	 8.394190169331532e-001	 7.514969136332221e-001	-9.386499890080627e+000
1	 9.223333744038621e-001	 6.585877145441748e-001	-1.264024947043309e+000
1	 9.150494175759466e-001	 6.686712208458169e-001	-2.117944745623472e+000
1	 9.076489043303718e-001	 6.786826392403966e-001	-2.971213911227722e+000
1	 9.001328956976941e-001	 6.886199674222856e-001	-3.822436093912166e+000
1	 8.925024981968082e-001	 6.984812237597207e-001	-4.670179691389582e+000
1	 8.847588633353754e-001	 7.082644485790088e-001	-5.512980030468019e+000
1	 8.769031870669851e-001	 7.179677054343339e-001	-6.349341622486900e+000
1	 8.689367092055303e-001	 7.275890823614685e-001	-7.177740488505187e+000
1	 8.608607127973482e-001	 7.371266931137128e-001	-7.996626549789276e+000
1	 8.526765234517708e-001	 7.465786783784127e-001	-8.804426078956936e+000
1	 8.443855086307747e-001	 7.559432069724200e-001	-9.599544206946703e+000
1	 7.947203867962918e-001	 7.114800901903866e-001	-7.347099570411193e+000
1	 7.868190097466631e-001	 7.202085038994671e-001	-8.188983471384558e+000
1	 7.788198097054105e-001	 7.288512684601431e-001	-9.001636482693622e+000
1	 7.707241875392233e-001	 7.374067477751456e-001	-9.785064452727752e+000
1	 7.625335804254584e-001	 7.458733364915255e-001	-1.053931066664537e+001
1	 7.542494610032443e-001	 7.542494610032443e-001	-1.126445573535240e+001
1	 7.458733364915253e-001	 7.625335804254582e-001	-1.196061742736989e+001
1	 7.374067477751457e-001	 7.707241875392235e-001	-1.262795044392497e+001
1	 7.288512684601429e-001	 7.788198097054103e-001	-1.326664613774407e+001
1	 7.202085038994671e-001	 7.868190097466631e-001	-1.387693217615215e+001
1	 7.114800901903867e-001	 7.947203867962918e-001	-1.445907214922369e+001
1	 7.996869343648978e-001	 7.159264335445058e-001	-7.582909040595091e+000
1	 7.917361782309124e-001	 7.247093948438794e-001	-8.418563407881058e+000
1	 7.836869877675128e-001	 7.334061717367356e-001	-9.225297924004220e+000
1	 7.755407725960195e-001	 7.420151179011197e-001	-1.000318389807873e+001
1	 7.672989788753402e-001	 7.505346179515288e-001	-1.075233136499605e+001
1	 7.589630884477717e-001	 7.589630884477715e-001	-1.147288885460439e+001
1	 7.505346179515285e-001	 7.672989788753400e-001	-1.216504310135011e+001
1	 7.420151179011199e-001	 7.755407725960197e-001	-1.282901869497331e+001
1	 7.334061717367358e-001	 7.836869877675127e-001	-1.346507767300167e+001
1	 7.247093948438793e-001	 7.917361782309127e-001	-1.407351905591480e+001
1	 7.159264335445058e-001	 7.996869343648978e-001	-1.465467832599916e+001
1	 8.046534707591729e-001	 7.203727668957749e-001	-7.816749794383974e+000
1	 7.966533356520170e-001	 7.292102756626065e-001	-8.646036733711187e+000
1	 7.885541548790407e-001	 7.379610647660093e-001	-9.446787561515224e+000
1	 7.803573468161730e-001	 7.466234776593648e-001	-1.021912950885553e+001
1	 7.720643666038530e-001	 7.551958889246426e-001	-1.096322943803791e+001
1	 7.636767052875213e-001	 7.636767052875213e-001	-1.167929350968658e+001
1	 7.551958889246425e-001	 7.720643666038529e-001	-1.236756678851607e+001
1	 7.466234776593649e-001	 7.803573468161731e-001	-1.302833278862213e+001
1	 7.379610647660093e-001	 7.885541548790407e-001	-1.366191295924824e+001
1	 7.292102756626064e-001	 7.966533356520171e-001	-1.426866611214165e+001
1	 7.203727668957749e-001	 8.046534707591729e-001	-1.484898779173530e+001
1	 8.096199972207286e-001	 7.248190913556027e-001	-8.048473579794065e+000
1	 8.015704832392284e-001	 7.337111474807115e-001	-8.871280881354409e+000
1	 7.934213122567331e-001	 7.425159486865454e-001	-9.666003579615509e+000
1	 7.851739114037614e-001	 7.512318282018451e-001	-1.043281547922670e+001
1	 7.768297448022624e-001	 7.598571505760740e-001	-1.117193054260355e+001
1	 7.683903127008027e-001	 7.683903127008027e-001	-1.188360247238945e+001
1	 7.598571505760737e-001	 7.768297448022624e-001	-1.256812423151859e+001
1	 7.512318282018452e-001	 7.851739114037617e-001	-1.322582750187949e+001
1	 7.425159486865454e-001	 7.934213122567329e-001	-1.385708208272422e+001
1	 7.337111474807111e-001	 8.015704832392283e-001	-1.446229523011606e+001
1	 7.248190913556026e-001	 8.096199972207284e-001	-1.504191093884812e+001
1	 8.145865149911749e-001	 7.292654080353987e-001	-8.277935760028571e+000
1	 8.064876222217989e-001	 7.382120114232562e-001	-9.094176272612874e+000
1	 7.982884611173302e-001	 7.470708246369249e-001	-9.882846646368023e+000
1	 7.899904675628616e-001	 7.558401706805250e-001	-1.064415809696702e+001
1	 7.815951146618347e-001	 7.645184040710302e-001	-1.137836214989869e+001
1	 7.731039118659235e-001	 7.731039118659235e-001	-1.208575015562766e+001
1	 7.645184040710302e-001	 7.815951146618348e-001	-1.276665274191123e+001
1	 7.558401706805247e-001	 7.899904675628617e-001	-1.342143920441629e+001
1	 7.470708246369250e-001	 7.982884611173302e-001	-1.405051683692648e+001
1	 7.382120114232562e-001	 8.064876222217989e-001	-1.465433020257974e+001
1	 7.292654080353987e-001	 8.145865149911749e-001	-1.523336034771005e+001
1	 8.195530253121230e-001	 7.337117180465720e-001	-8.504995203988866e+000
1	 8.114047538289799e-001	 7.427128686153039e-001	-9.314606228104481e+000
1	 8.031556026775721e-001	 7.516256937557304e-001	-1.009721983833739e+001
1	 7.948070164975510e-001	 7.604485062473675e-001	-1.085307568011361e+001
1	 7.863604773738363e-001	 7.691796505747182e-001	-1.158245349062763e+001
1	 7.778175039611932e-001	 7.778175039611930e-001	-1.228567256382140e+001
1	 7.691796505747182e-001	 7.863604773738364e-001	-1.296309115272764e+001
1	 7.604485062473674e-001	 7.948070164975511e-001	-1.361510581042479e+001
1	 7.516256937557302e-001	 8.031556026775720e-001	-1.424215067099979e+001
1	 7.427128686153038e-001	 8.114047538289799e-001	-1.484469667206037e+001
1	 7.337117180465720e-001	 8.195530253121230e-001	-1.542325072048178e+001
1	 8.245195294251837e-001	 7.381580225005316e-001	-8.729514180747810e+000
1	 8.163218792900235e-001	 7.472137201819169e-001	-9.532456880029885e+000
1	 8.080227381541983e-001	 7.561805571815429e-001	-1.030902856813639e+001
1	 7.996235594119070e-001	 7.650568360543371e-001	-1.105948851591682e+001
1	 7.911258341295326e-001	 7.738408912523456e-001	-1.178413550210757e+001
1	 7.825310901649194e-001	 7.825310901649194e-001	-1.248330724507535e+001
1	 7.738408912523455e-001	 7.911258341295328e-001	-1.315737977277249e+001
1	 7.650568360543371e-001	 7.996235594119072e-001	-1.380676673222187e+001
1	 7.561805571815429e-001	 8.080227381541985e-001	-1.443191863999468e+001
1	 7.472137201819169e-001	 8.163218792900235e-001	-1.503332207528639e+001
1	 7.381580225005318e-001	 8.245195294251837e-001	-1.561149881733851e+001
1	 8.294860285719685e-001	 7.426043225086872e-001	-8.951358257819095e+000
1	 8.212389998341815e-001	 7.517145672481576e-001	-9.747617088077373e+000
1	 8.128898687639495e-001	 7.607354160529445e-001	-1.051818051458100e+001
1	 8.044400975100068e-001	 7.696651612533977e-001	-1.126331880198481e+001
1	 7.958911861201905e-001	 7.785021272691188e-001	-1.198334077728170e+001
1	 7.872446716554119e-001	 7.872446716554118e-001	-1.267859324507641e+001
1	 7.785021272691187e-001	 7.958911861201904e-001	-1.334946034255751e+001
1	 7.696651612533977e-001	 8.044400975100069e-001	-1.399636283551786e+001
1	 7.607354160529446e-001	 8.128898687639495e-001	-1.461975735691486e+001
1	 7.517145672481576e-001	 8.212389998341815e-001	-1.522013558960096e+001
1	 7.426043225086871e-001	 8.294860285719686e-001	-1.579802339499175e+001
1	 8.344525239940882e-001	 7.470506191824476e-001	-9.170396203063302e+000
1	 8.261561166907057e-001	 7.562154109390886e-001	-9.959978358335070e+000
1	 8.177569957235656e-001	 7.652902715085167e-001	-1.072458555534020e+001
1	 8.092566319959278e-001	 7.742734829965139e-001	-1.146449058953364e+001
1	 8.006565345370750e-001	 7.831633597902451e-001	-1.218000351555757e+001
1	 7.919582496109785e-001	 7.919582496109784e-001	-1.287147106264047e+001
1	 7.831633597902452e-001	 8.006565345370749e-001	-1.353927599181321e+001
1	 7.742734829965138e-001	 8.092566319959280e-001	-1.418383639628751e+001
1	 7.652902715085169e-001	 8.177569957235658e-001	-1.480560494647940e+001
1	 7.562154109390885e-001	 8.261561166907058e-001	-1.540506808129192e+001
1	 7.470506191824476e-001	 8.344525239940881e-001	-1.598274514740674e+001
1	 8.394190169331532e-001	 7.514969136332221e-001	-9.386499890080623e+000
1	 8.310732310888485e-001	 7.607162523797725e-001	-1.016943476508483e+001
1	 8.226241202497858e-001	 7.698451246868412e-001	-1.092815570198129e+001
1	 8.140731640737471e-001	 7.788818024356486e-001	-1.166292972865398e+001
1	 8.054218805714530e-001	 7.878245899809319e-001	-1.237405947539149e+001
1	 7.966718252099275e-001	 7.966718252099274e-001	-1.306188260683866e+001
1	 7.878245899809320e-001	 8.054218805714529e-001	-1.372677119851026e+001
1	 7.788818024356486e-001	 8.140731640737469e-001	-1.436913105917272e+001
1	 7.698451246868411e-001	 8.226241202497859e-001	-1.498940100052758e+001
1	 7.607162523797726e-001	 8.310732310888486e-001	-1.558805205575859e+001
1	 7.514969136332225e-001	 8.394190169331534e-001	-1.616558664862840e+001
1	 8.443855086307747e-001	 7.559432069724200e-001	-9.599544206946703e+000
1	 8.359903442578607e-001	 7.652170926952719e-001	-1.037588287535922e+001
1	 8.274912435593508e-001	 7.743999767264992e-001	-1.112880503730968e+001
1	 8.188896949475417e-001	 7.834901207227666e-001	-1.185856381551225e+001
1	 8.101872254145905e-001	 7.924858190063862e-001	-1.256544592854969e+001
1	 8.013853996305682e-001	 8.013853996305679e-001	-1.324977115563888e+001
1	 7.924858190063862e-001	 8.101872254145907e-001	-1.391189174932883e+001
1	 7.834901207227666e-001	 8.188896949475419e-001	-1.455219179735492e+001
1	 7.743999767264997e-001	 8.274912435593509e-001	-1.517108653500057e+001
1	 7.652170926952719e-001	 8.359903442578606e-001	-1.576902160943805e+001
1	 7.559432069724201e-001	 8.443855086307748e-001	-1.634647229762751e+001
1	 7.114800901903867e-001	 7.947203867962918e-001	-1.445907214922369e+001
1	 7.026663650481888e-001	 8.025237401695792e-001	-1.501052245555354e+001
1	 6.937703272672139e-001	 8.102265513355922e-001	-1.552796271734176e+001
1	 6.847937003240027e-001	 8.178275332637143e-001	-1.601078934376662e+001
1	 6.757382341700814e-001	 8.253254383142840e-001	-1.645842053946199e+001
1	 6.666057041068113e-001	 8.327190589071603e-001	-1.687029751527275e+001
1	 6.573979096404270e-001	 8.400072281517993e-001	-1.724588566577142e+001
1	 6.481166733187913e-001	 8.471888204381821e-001	-1.758467571103807e+001
1	 6.387638395514258e-001	 8.542627519879944e-001	-1.788618480030713e+001
1	 6.293412734143902e-001	 8.612279813655365e-001	-1.814995757517695e+001
1	 6.198508594416140e-001	 8.680835099479131e-001	-1.837556719019205e+001
1	 7.159264335445058e-001	 7.996869343648978e-001	-1.465467832599916e+001
1	 7.070576276644425e-001	 8.075390542305772e-001	-1.520592559139527e+001
1	 6.981059947387769e-001	 8.152900035576537e-001	-1.572376711879632e+001
1	 6.890732690147887e-001	 8.229384872723257e-001	-1.620753853298373e+001
1	 6.799612113801955e-001	 8.304832499379156e-001	-1.665659447074532e+001
1	 6.707716082309714e-001	 8.379230764276171e-001	-1.707030993107407e+001
1	 6.615062703192322e-001	 8.452567925585079e-001	-1.744808159622416e+001
1	 6.521670315827175e-001	 8.524832656861682e-001	-1.778932912080307e+001
1	 6.427557479574488e-001	 8.596014052593093e-001	-1.809349638616275e+001
1	 6.332742961751408e-001	 8.666101633338729e-001	-1.836005271744600e+001
1	 6.237245725469760e-001	 8.735085350461599e-001	-1.858849406074754e+001
1	 7.203727668957749e-001	 8.046534707591729e-001	-1.484898779173530e+001
1	 7.114488804018746e-001	 8.125543570074461e-001	-1.540013274070676e+001
1	 7.024416524566977e-001	 8.203534443872104e-001	-1.591841924987237e+001
1	 6.933528280782358e-001	 8.280494297814942e-001	-1.640313204743897e+001
1	 6.841841790903720e-001	 8.356410499566217e-001	-1.685357229574608e+001
1	 6.749375029836684e-001	 8.431270822391361e-001	-1.726905906289003e+001
1	 6.656146217560932e-001	 8.505063451537500e-001	-1.764893076904555e+001
1	 6.562173807352369e-001	 8.577776990216597e-001	-1.799254660437740e+001
1	 6.467476473835925e-001	 8.649400465186132e-001	-1.829928791550380e+001
1	 6.372073100885021e-001	 8.719923331922082e-001	-1.856855955757125e+001
1	 6.275982769383739e-001	 8.789335479379549e-001	-1.879979120908456e+001
1	 7.248190913556026e-001	 8.096199972207284e-001	-1.504191093884812e+001
1	 7.158401243581071e-001	 8.175696497540029e-001	-1.559304288967451e+001
1	 7.067773015046822e-001	 8.254168750901275e-001	-1.611180989189197e+001
1	 6.976323785840093e-001	 8.331603620689752e-001	-1.659745548192262e+001
1	 6.884071383561142e-001	 8.407988396598859e-001	-1.704923725541303e+001
1	 6.791033894061229e-001	 8.483310776427658e-001	-1.746642844246243e+001
1	 6.697229649778332e-001	 8.557558872499758e-001	-1.784831946113395e+001
1	 6.602677217886620e-001	 8.630721217683390e-001	-1.819421944589116e+001
1	 6.507395388275513e-001	 8.702786771006544e-001	-1.850345774766662e+001
1	 6.411403161374443e-001	 8.773744922861855e-001	-1.877538540235545e+001
1	 6.314719735839529e-001	 8.843585499796630e-001	-1.900937656461479e+001
1	 7.292654080353987e-001	 8.145865149911749e-001	-1.523336034771005e+001
1	 7.202313606307628e-001	 8.225849337240645e-001	-1.578455749084840e+001
1	 7.111129429664369e-001	 8.304802969322704e-001	-1.630383249289001e+001
1	 7.019119216017749e-001	 8.382712854125243e-001	-1.679039722468074e+001
1	 6.926300902329238e-001	 8.459566203371922e-001	-1.724347544180508e+001
1	 6.832692685395544e-001	 8.535350639395548e-001	-1.766230444578488e+001
1	 6.738313010112741e-001	 8.610054201596330e-001	-1.804613672689667e+001
1	 6.643180557553057e-001	 8.683665352498885e-001	-1.839424158503553e+001
1	 6.547314232870189e-001	 8.756172983401799e-001	-1.870590672511607e+001
1	 6.450733153049383e-001	 8.827566419614467e-001	-1.898043982357800e+001
1	 6.353456634518566e-001	 8.897835425276497e-001	-1.921717006264828e+001
1	 7.337117180465720e-001	 8.195530253121230e-001	-1.542325072048178e+001
1	 7.246225903174626e-001	 8.276002101714469e-001	-1.597458038854376e+001
1	 7.154485779256692e-001	 8.355437111795050e-001	-1.649438308695071e+001
1	 7.061914582011981e-001	 8.433822010898959e-001	-1.698184837292041e+001
1	 6.968530357763038e-001	 8.511143932780237e-001	-1.743617571185903e+001
1	 6.874351414251840e-001	 8.587390424305522e-001	-1.785657620708707e+001
1	 6.779396308832392e-001	 8.662549451951724e-001	-1.824227431426611e+001
1	 6.683683836474814e-001	 8.736609407899914e-001	-1.859250953678266e+001
1	 6.587233017596903e-001	 8.809559115719380e-001	-1.890653809840104e+001
1	 6.490063085739543e-001	 8.881387835636344e-001	-1.918363458956635e+001
1	 6.392193475102294e-001	 8.952085269382795e-001	-1.942309358382117e+001
1	 7.381580225005318e-001	 8.245195294251837e-001	-1.561149881733852e+001
1	 7.290138145158300e-001	 8.326154803499682e-001	-1.616301774694189e+001
1	 7.197842074660847e-001	 8.406071190976967e-001	-1.668336021646609e+001
1	 7.104709894519440e-001	 8.484931103788458e-001	-1.717170265137327e+001
1	 7.010759760417558e-001	 8.562721597718638e-001	-1.762722960427802e+001
1	 6.916010091042315e-001	 8.639430144168068e-001	-1.804913553593351e+001
1	 6.820479556205514e-001	 8.715044636690420e-001	-1.843662658375727e+001
1	 6.724187064775016e-001	 8.789553397123299e-001	-1.878892231401325e+001
1	 6.627151752432593e-001	 8.862945181306753e-001	-1.910525745382349e+001
1	 6.529392969274620e-001	 8.935209184383905e-001	-1.938488359924311e+001
1	 6.430930267272152e-001	 9.006335045679181e-001	-1.962707089571327e+001
1	 7.426043225086871e-001	 8.294860285719686e-001	-1.579802339499175e+001
1	 7.334050343234865e-001	 8.376307455134441e-001	-1.634977798077764e+001
1	 7.241198326713906e-001	 8.456705219527118e-001	-1.687066485718729e+001
1	 7.147505164236784e-001	 8.536040145571291e-001	-1.735985633378814e+001
1	 7.052989120847824e-001	 8.614299211081965e-001	-1.781653125940892e+001
1	 6.957668726179176e-001	 8.691469811993680e-001	-1.823987683730253e+001
1	 6.861562762500327e-001	 8.767539768936908e-001	-1.862909043043463e+001
1	 6.764690252576791e-001	 8.842497333405870e-001	-1.898338135292569e+001
1	 6.667070447354196e-001	 8.916331193511397e-001	-1.930197264371070e+001
1	 6.568722813484319e-001	 8.989030479313579e-001	-1.958410281854697e+001
1	 6.469667020709586e-001	 9.060584767729307e-001	-1.982902759656676e+001
1	 7.470506191824476e-001	 8.344525239940881e-001	-1.598274514740673e+001
1	 7.377962508380542e-001	 8.426460069156919e-001	-1.653477168850447e+001
1	 7.284554546252926e-001	 8.507339210104146e-001	-1.705620034595902e+001
1	 7.190300401860670e-001	 8.587149149025005e-001	-1.754620816722989e+001
1	 7.095218449608864e-001	 8.665876785765055e-001	-1.800397734198565e+001
1	 6.999327330074622e-001	 8.743509440792833e-001	-1.842869703452396e+001
1	 6.902645937985066e-001	 8.820034861815691e-001	-1.881956520867015e+001
1	 6.805193410003267e-001	 8.895441229984450e-001	-1.917579044111216e+001
1	 6.706989112338667e-001	 8.969717165680790e-001	-1.949659371917994e+001
1	 6.608052628198341e-001	 9.042851733881780e-001	-1.978121021912395e+001
1	 6.508403745096036e-001	 9.114834449096820e-001	-2.002889106101631e+001
1	 7.514969136332225e-001	 8.394190169331534e-001	-1.616558664862840e+001
1	 7.421874651571556e-001	 8.476612658105285e-001	-1.671791158783574e+001
1	 7.327910744114982e-001	 8.557973175366717e-001	-1.723987231101921e+001
1	 7.233095618087753e-001	 8.638258126927162e-001	-1.773065929907022e+001
1	 7.137447757255693e-001	 8.717454334662735e-001	-1.818946696661618e+001
1	 7.040985913140859e-001	 8.795549043576028e-001	-1.861549549495546e+001
1	 6.943729092927947e-001	 8.872529928451250e-001	-1.900795265957503e+001
1	 6.845696547177584e-001	 8.948385100095866e-001	-1.936605564819180e+001
1	 6.746907757362943e-001	 9.023103111162405e-001	-1.968903286529272e+001
1	 6.647382423246390e-001	 9.096672961544934e-001	-1.997612571920101e+001
1	 6.547140450112942e-001	 9.169084103345376e-001	-2.022659038774917e+001
1	 7.559432069724201e-001	 8.443855086307748e-001	-1.634647229762751e+001
1	 7.465786783784130e-001	 8.526765234517706e-001	-1.689911245356206e+001
1	 7.371266931137132e-001	 8.608607127973481e-001	-1.742158860476392e+001
1	 7.275890823614686e-001	 8.689367092055303e-001	-1.791311320655631e+001
1	 7.179677054343341e-001	 8.769031870669852e-001	-1.837290162590502e+001
1	 7.082644485790089e-001	 8.847588633353752e-001	-1.880017395828449e+001
1	 6.984812237597208e-001	 8.925024981968079e-001	-1.919415684099622e+001
1	 6.886199674222857e-001	 9.001328956976938e-001	-1.955408525889397e+001
1	 6.786826392403964e-001	 9.076489043303717e-001	-1.987920433850060e+001
1	 6.686712208458168e-001	 9.150494175759467e-001	-2.016877112654634e+001
1	 6.585877145441748e-001	 9.223333744038623e-001	-2.042205634901347e+001
1	 6.198508594416140e-001	 8.680835099479131e-001	-1.837556719019205e+001
1	 6.102945001977892e-001	 8.748283821075730e-001	-1.856597035579100e+001
1	 6.006741144412503e-001	 8.814616848543038e-001	-1.872428525249939e+001
1	 5.909916365275354e-001	 8.879825489111826e-001	-1.885036976515219e+001
1	 5.812490153734854e-001	 8.943901492657203e-001	-1.894410926376579e+001
1	 5.714482132060661e-001	 9.006837054341905e-001	-1.900541667688978e+001
1	 5.615912043072900e-001	 9.068624816840354e-001	-1.903423252592948e+001
1	 5.516799737568477e-001	 9.129257872143953e-001	-1.903052492063652e+001
1	 5.417165161740594e-001	 9.188729762948832e-001	-1.899428951605108e+001
1	 5.317028344607302e-001	 9.247034483627792e-001	-1.892554943126017e+001
1	 5.216409385464856e-001	 9.304166480789027e-001	-1.882435513042766e+001
1	 6.237245725469760e-001	 8.735085350461599e-001	-1.858849406074754e+001
1	 6.141084915275836e-001	 8.802955587965073e-001	-1.878172196760512e+001
1	 6.044279838664363e-001	 8.869703158890229e-001	-1.894284546243863e+001
1	 5.946849960076828e-001	 8.935319316142810e-001	-1.907171271844622e+001
1	 5.848814890477754e-001	 8.999795758039180e-001	-1.916819916292898e+001
1	 5.750194374764714e-001	 9.063124630966117e-001	-1.923220756795365e+001
1	 5.651008279139121e-001	 9.125298531618775e-001	-1.926366810225044e+001
1	 5.551276578453964e-001	 9.186310508817268e-001	-1.926253834450225e+001
1	 5.451019343554694e-001	 9.246154064903092e-001	-1.922880325826610e+001
1	 5.350256728629237e-001	 9.304823156717120e-001	-1.916247512886048e+001
1	 5.249008958582897e-001	 9.362312196161844e-001	-1.906359346262687e+001
1	 6.275982769383739e-001	 8.789335479379549e-001	-1.879979120908456e+001
1	 6.179224742777475e-001	 8.857627231840893e-001	-1.899584632875726e+001
1	 6.081818448472067e-001	 8.924789345290568e-001	-1.915982954219953e+001
1	 5.983783471794885e-001	 8.990813018309455e-001	-1.929157172006503e+001
1	 5.885139545506301e-001	 9.055689897655318e-001	-1.939093059763496e+001
1	 5.785906537131572e-001	 9.119412080939141e-001	-1.945779089829016e+001
1	 5.686104436253139e-001	 9.181972118876943e-001	-1.949206441859266e+001
1	 5.585753341779823e-001	 9.243363017117704e-001	-1.949369007505894e+001
1	 5.484873449209083e-001	 9.303578237648394e-001	-1.946263391279689e+001
1	 5.383485037898443e-001	 9.362611699778098e-001	-1.939888907626389e+001
1	 5.281608458362018e-001	 9.420457780703714e-001	-1.930247574248599e+001
1	 6.314719735839529e-001	 8.843585499796630e-001	-1.900937656461479e+001
1	 6.217364494015000e-001	 8.912298766372340e-001	-1.920827148477794e+001
1	 6.119356983217604e-001	 8.979875421516952e-001	-1.937517319329411e+001
1	 6.020716909660351e-001	 9.046306609486617e-001	-1.950988781257517e+001
1	 5.921464127899266e-001	 9.111583925480667e-001	-1.961224778338021e+001
1	 5.821618628087035e-001	 9.175699418334399e-001	-1.968211203643618e+001
1	 5.721200523186919e-001	 9.238645592784844e-001	-1.971936612615365e+001
1	 5.620230036163345e-001	 9.300415411309952e-001	-1.972392232641361e+001
1	 5.518727487165536e-001	 9.361002295542299e-001	-1.969571968849483e+001
1	 5.416713280720397e-001	 9.420400127259289e-001	-1.963472406128888e+001
1	 5.314207892950618e-001	 9.478603248952329e-001	-1.954092807404170e+001
1	 6.353456634518566e-001	 8.897835425276497e-001	-1.921717006264828e+001
1	 6.255504178520606e-001	 8.966970205228557e-001	-1.941892724029204e+001
1	 6.156895452282952e-001	 9.034961401342254e-001	-1.958881368944990e+001
1	 6.057650282904062e-001	 9.101800103549161e-001	-1.972660348027574e+001
1	 5.957788646735406e-001	 9.167477855490265e-001	-1.983209629973696e+001
1	 5.857330656556907e-001	 9.231986657225304e-001	-1.990511768656951e+001
1	 5.756296548712436e-001	 9.295318967512446e-001	-1.994551922892437e+001
1	 5.654706670221815e-001	 9.357467705658702e-001	-1.995317872454516e+001
1	 5.552581465885836e-001	 9.418426252942370e-001	-1.992800030340280e+001
1	 5.449941465400575e-001	 9.478188453609254e-001	-1.986991451280018e+001
1	 5.346807270497090e-001	 9.536748615445378e-001	-1.977887836504797e+001
1	 6.392193475102294e-001	 8.952085269382795e-001	-1.942309358382117e+001
1	 6.293643805826487e-001	 9.021641562078695e-001	-1.962774510592620e+001
1	 6.194433865050100e-001	 9.090047298539378e-001	-1.980068982918014e+001
1	 6.094583600756856e-001	 9.157293514371939e-001	-1.994166260571912e+001
1	 5.994113111093491e-001	 9.223371701659147e-001	-2.005042304922189e+001
1	 5.893042631466994e-001	 9.288273811685280e-001	-2.012675584823323e+001
1	 5.791392521601658e-001	 9.351992257229723e-001	-2.017047104288871e+001
1	 5.689183252572525e-001	 9.414519914428657e-001	-2.018140426470620e+001
1	 5.586435393831772e-001	 9.475850124206171e-001	-2.015941693919843e+001
1	 5.483169600244462e-001	 9.535976693276570e-001	-2.010439645114915e+001
1	 5.379406599149837e-001	 9.594893894720561e-001	-2.001625627248083e+001
1	 6.430930267272152e-001	 9.006335045679181e-001	-1.962707089571327e+001
1	 6.331783385464839e-001	 9.076312850591893e-001	-1.983465824713668e+001
1	 6.231972230901024e-001	 9.145133126881201e-001	-2.001074189006825e+001
1	 6.131516872449562e-001	 9.212786855829814e-001	-2.015501042780528e+001
1	 6.030437530052285e-001	 9.279265477962356e-001	-2.026717621765539e+001
1	 5.928754561743090e-001	 9.344560895787746e-001	-2.034697577751983e+001
1	 5.826488450626549e-001	 9.408665476106651e-001	-2.039417015669708e+001
1	 5.723659791832758e-001	 9.471572051884507e-001	-2.040854527036391e+001
1	 5.620289279465123e-001	 9.533273923691270e-001	-2.038991219728871e+001
1	 5.516397693557534e-001	 9.593764860709807e-001	-2.033810744041067e+001
1	 5.412005887057253e-001	 9.653039101315575e-001	-2.025299315001612e+001
1	 6.469667020709586e-001	 9.060584767729307e-001	-1.982902759656676e+001
1	 6.369922926967850e-001	 9.130984084437299e-001	-2.003960143487976e+001
1	 6.269510559217715e-001	 9.200218900140613e-001	-2.021891158470028e+001
1	 6.168450107213012e-001	 9.268280141797644e-001	-2.036659350138294e+001
1	 6.066761912690550e-001	 9.335159198374937e-001	-2.048230523594360e+001
1	 5.964466456311005e-001	 9.400847923606116e-001	-2.056572794964982e+001
1	 5.861584344559083e-001	 9.465338638313203e-001	-2.061656639375801e+001
1	 5.758136296619807e-001	 9.528624132290949e-001	-2.063454935362184e+001
1	 5.654143131247674e-001	 9.590697665755228e-001	-2.061943005648069e+001
1	 5.549625753645266e-001	 9.651552970357530e-001	-2.057098654233377e+001
1	 5.444605142367740e-001	 9.711184249768110e-001	-2.048902199739440e+001
1	 6.508403745096036e-001	 9.114834449096820e-001	-2.002889106101631e+001
1	 6.408062439867722e-001	 9.185655277284057e-001	-2.024251099804259e+001
1	 6.307048859382156e-001	 9.255304632090503e-001	-2.042514201816809e+001
1	 6.205383314278040e-001	 9.323773386150284e-001	-2.057635965829544e+001
1	 6.103086268087054e-001	 9.391052876871932e-001	-2.069576074323054e+001
1	 6.000178324096538e-001	 9.457134909213810e-001	-2.078296402288773e+001
1	 5.896680212171227e-001	 9.522011758019360e-001	-2.083761077568227e+001
1	 5.792612775550958e-001	 9.585676169912677e-001	-2.085936537705304e+001
1	 5.687996957641206e-001	 9.648121364755609e-001	-2.084791583216803e+001
1	 5.582853788813139e-001	 9.709341036668302e-001	-2.080297427194202e+001
1	 5.477204373229693e-001	 9.769329354615868e-001	-2.072427741159888e+001
1	 6.547140450112942e-001	 9.169084103345376e-001	-2.022659038774917e+001
1	 6.446201933696649e-001	 9.240326442801321e-001	-2.044332477756814e+001
1	 6.344587140776327e-001	 9.310390336503757e-001	-2.062937764708773e+001
1	 6.242316502875476e-001	 9.379266602762590e-001	-2.078425796981185e+001
1	 6.139410605320561e-001	 9.446946527428373e-001	-2.090749455135590e+001
1	 6.035890174025493e-001	 9.513421866684246e-001	-2.099863680374325e+001
1	 5.931776062234950e-001	 9.578684849395088e-001	-2.105725548702700e+001
1	 5.827089237243497e-001	 9.642728179014383e-001	-2.108294341689060e+001
1	 5.721850767107503e-001	 9.705545035049972e-001	-2.107531613696629e+001
1	 5.616081807366634e-001	 9.767129074090700e-001	-2.103401255470994e+001
1	 5.509803587791511e-001	 9.827474430396538e-001	-2.095869553976564e+001
1	 6.585877145441748e-001	 9.223333744038623e-001	-2.042205634901347e+001
1	 6.484341417986819e-001	 9.294997594658224e-001	-2.064198208219851e+001
1	 6.382125412782213e-001	 9.365476027153264e-001	-2.083156424006215e+001
1	 6.279249682236161e-001	 9.434759805509431e-001	-2.099023871038329e+001
1	 6.175734933469836e-001	 9.502840164019311e-001	-2.111745961057297e+001
1	 6.071602015023673e-001	 9.569708810090842e-001	-2.121270021339850e+001
1	 5.966871903522223e-001	 9.635357926610373e-001	-2.127545384128666e+001
1	 5.861565690314716e-001	 9.699780173860766e-001	-2.130523472752075e+001
1	 5.755704568108352e-001	 9.762968690995890e-001	-2.130157884274075e+001
1	 5.649309817611228e-001	 9.824917097073289e-001	-2.126404468525367e+001
1	 5.542402794201589e-001	 9.885619491647812e-001	-2.119221403376040e+001
1	 5.216409385464856e-001	 9.304166480789027e-001	-1.882435513042766e+001
1	 5.115343637342540e-001	 9.360112350538160e-001	-1.869843887700191e+001
1	 5.013836241751540e-001	 9.414876109821543e-001	-1.855567503902012e+001
1	 4.911907430309177e-001	 9.468453570644847e-001	-1.839643031427930e+001
1	 4.809577455047829e-001	 9.520840995190897e-001	-1.822110985577972e+001
1	 4.706866576225989e-001	 9.572035094363699e-001	-1.803015558845764e+001
1	 4.603795050253364e-001	 9.622033025948157e-001	-1.782404449000295e+001
1	 4.500383117743657e-001	 9.670832392392221e-001	-1.760328683998083e+001
1	 4.396650991708301e-001	 9.718431238218864e-001	-1.736842444147796e+001
1	 4.292618845903969e-001	 9.764828047075796e-001	-1.712002881947603e+001
1	 4.188306803346252e-001	 9.810021738431126e-001	-1.685869940014224e+001
1	 5.249008958582897e-001	 9.362312196161844e-001	-1.906359346262687e+001
1	 5.147311607381130e-001	 9.418607695576093e-001	-1.894003613249905e+001
1	 5.045169848666595e-001	 9.473713697009941e-001	-1.879981250289703e+001
1	 4.942604040492619e-001	 9.527625986296653e-001	-1.864326113139301e+001
1	 4.839634561455170e-001	 9.580340802259997e-001	-1.847075884094050e+001
1	 4.736281798427740e-001	 9.631854835249191e-001	-1.828271907265030e+001
1	 4.632566134410979e-001	 9.682165225287074e-001	-1.807959020247666e+001
1	 4.528507936510820e-001	 9.731269559838415e-001	-1.786185382596321e+001
1	 4.424127544058427e-001	 9.779165871205759e-001	-1.763002301520791e+001
1	 4.319445256884888e-001	 9.825852633560630e-001	-1.738464055218586e+001
1	 4.214481323763099e-001	 9.871328759618585e-001	-1.712627714256536e+001
1	 5.281608458362018e-001	 9.420457780703714e-001	-1.930247574248599e+001
1	 5.179279505500952e-001	 9.477102908997490e-001	-1.918141001194502e+001
1	 5.076503385089314e-001	 9.532551151813122e-001	-1.904383743013801e+001
1	 4.973300581616141e-001	 9.586798268811473e-001	-1.889007284061653e+001
1	 4.869691600240704e-001	 9.639840475457242e-001	-1.872046922484950e+001
1	 4.765696954451202e-001	 9.691674441544828e-001	-1.853541608245667e+001
1	 4.661337153838935e-001	 9.742297289334986e-001	-1.833533777519749e+001
1	 4.556632692001782e-001	 9.791706591309306e-001	-1.812069183881864e+001
1	 4.451604034590352e-001	 9.839900367549844e-001	-1.789196726686618e+001
1	 4.346271607509846e-001	 9.886877082751896e-001	-1.764968277056783e+001
1	 4.240655785290188e-001	 9.932635642878446e-001	-1.739438501886243e+001
1	 5.314207892950618e-001	 9.478603248952329e-001	-1.954092807404170e+001
1	 5.211247339692603e-001	 9.535598005427273e-001	-1.942248002754048e+001
1	 5.107836858851766e-001	 9.591388488941353e-001	-1.928766402646082e+001
1	 5.003997061352616e-001	 9.645970432983022e-001	-1.913677554076218e+001
1	 4.899748578917461e-001	 9.699340029657910e-001	-1.897014811257765e+001
1	 4.795112051648955e-001	 9.751493928205582e-001	-1.878815175541229e+001
1	 4.690108115728802e-001	 9.802429233124703e-001	-1.859119131695981e+001
1	 4.584757391246573e-001	 9.852143501913654e-001	-1.837970480961578e+001
1	 4.479080470172056e-001	 9.900634742433959e-001	-1.815416171276387e+001
1	 4.373097904484329e-001	 9.947901409904684e-001	-1.791506125090549e+001
1	 4.266830194470083e-001	 9.993942403536176e-001	-1.766293065169020e+001
1	 5.346807270497090e-001	 9.536748615445378e-001	-1.977887836504797e+001
1	 5.243215117946672e-001	 9.594092999490357e-001	-1.966316765566018e+001
1	 5.139170277786029e-001	 9.650225723104889e-001	-1.953120859089262e+001
1	 5.034693487374913e-001	 9.705142493605009e-001	-1.938328152385033e+001
1	 4.929805504998467e-001	 9.758839479737282e-001	-1.921970487517037e+001
1	 4.824527097373583e-001	 9.811313310186434e-001	-1.904083354277520e+001
1	 4.718879027272155e-001	 9.862561071689028e-001	-1.884705727513513e+001
1	 4.612882041275210e-001	 9.912580306760200e-001	-1.863879901210140e+001
1	 4.506556857671525e-001	 9.961369011040955e-001	-1.841651319737388e+001
1	 4.399924154513824e-001	 1.000892563027408e+000	-1.818068406666098e+001
1	 4.293004557845356e-001	 1.005524905691726e+000	-1.793182391557973e+001
1	 5.379406599149837e-001	 9.594893894720561e-001	-2.001625627248083e+001
1	 5.275182848253749e-001	 9.652587905811673e-001	-1.990339627749028e+001
1	 5.170503649724166e-001	 9.709062869013991e-001	-1.977438945248756e+001
1	 5.065389867355904e-001	 9.764314465471149e-001	-1.962950520879668e+001
1	 4.959862385996757e-001	 9.818338840570652e-001	-1.946905108112445e+001
1	 4.853942098977676e-001	 9.871132602442370e-001	-1.929337113955165e+001
1	 4.747649895660557e-001	 9.922692820060759e-001	-1.910284436494316e+001
1	 4.641006649117726e-001	 9.973017020957711e-001	-1.889788299184061e+001
1	 4.534033203956744e-001	 1.002210318855367e+000	-1.867893082290730e+001
1	 4.426750364303818e-001	 1.006994975911515e+000	-1.844646151898530e+001
1	 4.319178881958571e-001	 1.011655561834715e+000	-1.820097686881468e+001
1	 5.412005887057253e-001	 9.653039101315575e-001	-2.025299315001612e+001
1	 5.307150538604427e-001	 9.711082739016135e-001	-2.014309112181197e+001
1	 5.201836982498246e-001	 9.767899941378910e-001	-2.001712690933574e+001
1	 5.096086208968456e-001	 9.823486363375157e-001	-1.987536307749776e+001
1	 4.989919229425358e-001	 9.877838127033294e-001	-1.971810043034495e+001
1	 4.883357063813812e-001	 9.930951819928359e-001	-1.954567641705478e+001
1	 4.776420728085585e-001	 9.982824493272691e-001	-1.935846350127924e+001
1	 4.669131221804141e-001	 1.003345365961493e+000	-1.915686749792216e+001
1	 4.561509515895700e-001	 1.008283729015496e+000	-1.894132588143975e+001
1	 4.453576540559800e-001	 1.013097381168299e+000	-1.871230606974352e+001
1	 4.345353173352294e-001	 1.017786210315132e+000	-1.847030368777404e+001
1	 5.444605142367740e-001	 9.711184249768110e-001	-2.048902199739440e+001
1	 5.339118196989298e-001	 9.769577513728662e-001	-2.038217920984541e+001
1	 5.233170283940343e-001	 9.826736954909918e-001	-2.025934316976469e+001
1	 5.126782519885442e-001	 9.882658202110742e-001	-2.012077361321581e+001
1	 5.019976042797296e-001	 9.937337354000498e-001	-1.996676869047780e+001
1	 4.912771999234578e-001	 9.990770977599387e-001	-1.979766335788959e+001
1	 4.805191531738802e-001	 1.004295610635763e+000	-1.961382773299660e+001
1	 4.697255766364483e-001	 1.009389023784061e+000	-1.941566541712095e+001
1	 4.588985800356379e-001	 1.014357133102767e+000	-1.920361178947668e+001
1	 4.480402689987254e-001	 1.019199780323268e+000	-1.897813227694946e+001
1	 4.371527438569091e-001	 1.023916852665525e+000	-1.873972060363752e+001
1	 5.477204373229693e-001	 9.769329354615868e-001	-2.072427741159888e+001
1	 5.371085831398952e-001	 9.828072244574182e-001	-2.062058930206374e+001
1	 5.264503561882525e-001	 9.885573924317266e-001	-2.050096229564327e+001
1	 5.157478807779733e-001	 9.941829996471618e-001	-2.036565724116683e+001
1	 5.050032833625604e-001	 9.996836536347546e-001	-2.021497363551852e+001
1	 4.942186912592554e-001	 1.005059009041043e+000	-2.004924799326093e+001
1	 4.833962313811783e-001	 1.010308767434837e+000	-1.986885217953607e+001
1	 4.725380289828776e-001	 1.015432677074351e+000	-1.967419171041347e+001
1	 4.616462064206762e-001	 1.020430532635463e+000	-1.946570402486082e+001
1	 4.507228819291668e-001	 1.025302174901930e+000	-1.924385673250863e+001
1	 4.397701684151532e-001	 1.030047490418441e+000	-1.900914584135221e+001
1	 5.509803587791511e-001	 9.827474430396538e-001	-2.095869553976564e+001
1	 5.403053449823979e-001	 9.886566946177607e-001	-2.085825184689836e+001
1	 5.295836824156864e-001	 9.944410864311215e-001	-2.074191014770160e+001
1	 5.188175080324198e-001	 1.000100176125149e+000	-2.060993627122042e+001
1	 5.080089609423314e-001	 1.005633568894973e+000	-2.046263498660222e+001
1	 4.971601811240327e-001	 1.011040917331647e+000	-2.030034834251124e+001
1	 4.862733081496097e-001	 1.016321921227772e+000	-2.012345396980970e+001
1	 4.753504799227042e-001	 1.021476327343239e+000	-1.993236335174979e+001
1	 4.643938314314838e-001	 1.026503929131870e+000	-1.972752006591898e+001
1	 4.534054935178530e-001	 1.031404566429793e+000	-1.950939800217333e+001
1	 4.423875916642177e-001	 1.036178125106425e+000	-1.927849956077079e+001
1	 5.542402794201589e-001	 9.885619491647812e-001	-2.119221403376040e+001
1	 5.435021060254973e-001	 9.945061633163864e-001	-2.109509893125620e+001
1	 5.327170078595428e-001	 1.000324778960203e+000	-2.098211433278217e+001
1	 5.218871345191708e-001	 1.006017351124409e+000	-2.085353484262310e+001
1	 5.110146377703451e-001	 1.011583482668233e+000	-2.070967435488723e+001
1	 5.001016702530481e-001	 1.017022824127247e+000	-2.055088435479396e+001
1	 4.891503841983314e-001	 1.022335073517847e+000	-2.037755218324280e+001
1	 4.781629301589312e-001	 1.027519976101599e+000	-2.019009926899014e+001
1	 4.671414557548592e-001	 1.032577324110273e+000	-1.998897933276243e+001
1	 4.560881044353323e-001	 1.037506956432366e+000	-1.977467656762097e+001
1	 4.450050142583599e-001	 1.042308758262027e+000	-1.954770379986775e+001
1	 4.188306803346252e-001	 9.810021738431126e-001	-1.685869940014224e+001
1	 4.083719220012180e-001	 9.854018174027490e-001	-1.658899671813009e+001
1	 3.978891724756005e-001	 9.896810269996651e-001	-1.631577774512582e+001
1	 3.873844235061284e-001	 9.938398237888120e-001	-1.604000638654321e+001
1	 3.768596573328685e-001	 9.978782708743236e-001	-1.576267141091001e+001
1	 3.663168456381126e-001	 1.001796472814765e+000	-1.548478349781725e+001
1	 3.557579485199885e-001	 1.005594575098846e+000	-1.520737230486253e+001
1	 3.451849134900506e-001	 1.009272763592686e+000	-1.493148355941750e+001
1	 3.345996744956820e-001	 1.012831263959774e+000	-1.465817618086603e+001
1	 3.240041509680921e-001	 1.016270341054748e+000	-1.438851943874350e+001
1	 3.134002468966224e-001	 1.019590298292188e+000	-1.412359015199808e+001
1	 4.214481323763099e-001	 9.871328759618585e-001	-1.712627714256536e+001
1	 4.109240127892444e-001	 9.915600147754914e-001	-1.685956036995663e+001
1	 4.003757520787162e-001	 9.958659669831210e-001	-1.658942229814515e+001
1	 3.898053544403731e-001	 1.000050753871897e+000	-1.631681166811000e+001
1	 3.792148145021522e-001	 1.004114438940307e+000	-1.604270226025673e+001
1	 3.686061162682363e-001	 1.008057127400339e+000	-1.576808993920344e+001
1	 3.579812320862494e-001	 1.011878965649916e+000	-1.549398971745281e+001
1	 3.473421216385829e-001	 1.015580140716707e+000	-1.522143284379674e+001
1	 3.366907309586892e-001	 1.019160879674458e+000	-1.495146392211923e+001
1	 3.260289914731288e-001	 1.022621449032989e+000	-1.468513806604479e+001
1	 3.153588190700908e-001	 1.025962154103038e+000	-1.442351809466556e+001
1	 4.240655785290188e-001	 9.932635642878446e-001	-1.739438501886243e+001
1	 4.134760978353049e-001	 9.977181982937292e-001	-1.713077332993224e+001
1	 4.028623260872159e-001	 1.002050893051997e+000	-1.686385455986181e+001
1	 3.922262799276642e-001	 1.006261669981995e+000	-1.659455952459140e+001
1	 3.815699663724302e-001	 1.010350592976570e+000	-1.632384423480713e+001
1	 3.708953817475604e-001	 1.014317767901131e+000	-1.605268694267858e+001
1	 3.602045106501483e-001	 1.018163342062815e+000	-1.578208520730737e+001
1	 3.494993249333951e-001	 1.021887503650835e+000	-1.551305298474743e+001
1	 3.387817827167959e-001	 1.025490481149196e+000	-1.524661774826189e+001
1	 3.280538274222357e-001	 1.028972542722900e+000	-1.498381764428090e+001
1	 3.173173868367261e-001	 1.032333995578839e+000	-1.472569868929925e+001
1	 4.266830194470083e-001	 9.993942403536176e-001	-1.766293065169021e+001
1	 4.160281777773232e-001	 1.003876369496865e+000	-1.740254499159665e+001
1	 4.053488951226542e-001	 1.008235806752366e+000	-1.713898504920709e+001
1	 3.946472005731538e-001	 1.012472573671668e+000	-1.687316100536432e+001
1	 3.839251135324219e-001	 1.016586734541975e+000	-1.660600837009487e+001
1	 3.731846426483436e-001	 1.020578395882120e+000	-1.633848503636310e+001
1	 3.624277847674572e-001	 1.024447705908449e+000	-1.607156835229750e+001
1	 3.516565239137509e-001	 1.028194853971724e+000	-1.580625221775005e+001
1	 3.408728302927376e-001	 1.031820069966206e+000	-1.554354421085317e+001
1	 3.300786593216035e-001	 1.035323623712072e+000	-1.528446275004050e+001
1	 3.192759506861582e-001	 1.038705824312371e+000	-1.503003429676981e+001
1	 4.293004557845356e-001	 1.005524905691726e+000	-1.793182391557973e+001
1	 4.185802532532224e-001	 1.010034529924301e+000	-1.767478695687839e+001
1	 4.078354598065852e-001	 1.014420709630302e+000	-1.741472646573590e+001
1	 3.970681169819942e-001	 1.018683466493476e+000	-1.715252932715524e+001
1	 3.862802565708464e-001	 1.022822865195385e+000	-1.688910786898932e+001
1	 3.754738995428442e-001	 1.026839012908283e+000	-1.662539692772706e+001
1	 3.646510549939495e-001	 1.030732058757729e+000	-1.636235093245021e+001
1	 3.538137191189149e-001	 1.034502193256031e+000	-1.610094101280799e+001
1	 3.429638742092505e-001	 1.038149647707703e+000	-1.584215213667394e+001
1	 3.321034876774223e-001	 1.041674693588099e+000	-1.558698028293444e+001
1	 3.212345111080173e-001	 1.045077641896419e+000	-1.533642965464977e+001
1	 4.319178881958571e-001	 1.011655561834715e+000	-1.820097686881468e+001
1	 4.211323249009261e-001	 1.016192681115441e+000	-1.794741296928315e+001
1	 4.103220207605630e-001	 1.020605603231880e+000	-1.769099362364899e+001
1	 3.994890297593371e-001	 1.024894349999979e+000	-1.743257980845730e+001
1	 3.886353960764227e-001	 1.029058986495659e+000	-1.717305803610430e+001
1	 3.777631530033208e-001	 1.033099620544599e+000	-1.691333743762488e+001
1	 3.668743218853973e-001	 1.037016402181564e+000	-1.665434686328189e+001
1	 3.559709110881511e-001	 1.040809523080410e+000	-1.639703200679089e+001
1	 3.450549149890705e-001	 1.044479215955903e+000	-1.614235255882460e+001
1	 3.341283129958824e-001	 1.048025753938572e+000	-1.589127939523504e+001
1	 3.231930685919333e-001	 1.051449449923766e+000	-1.564479180521762e+001
1	 4.345353173352294e-001	 1.017786210315132e+000	-1.847030368777404e+001
1	 4.236843933583577e-001	 1.022350824609688e+000	-1.822033884950159e+001
1	 4.128085786061422e-001	 1.026790489103172e+000	-1.796770338820446e+001
1	 4.019099395103344e-001	 1.031105225743738e+000	-1.771322980632021e+001
1	 3.909905326378698e-001	 1.035295100001661e+000	-1.745777621457997e+001
1	 3.800524036020315e-001	 1.039360220356044e+000	-1.720222343671643e+001
1	 3.690975859975734e-001	 1.043300737750864e+000	-1.694747213154565e+001
1	 3.581281003607238e-001	 1.047116845021517e+000	-1.669443993822625e+001
1	 3.471459531549336e-001	 1.050808776293024e+000	-1.644405865032006e+001
1	 3.361531357831746e-001	 1.054376806351084e+000	-1.619727142406579e+001
1	 3.251516236275363e-001	 1.057821249987196e+000	-1.595503002606919e+001
1	 4.371527438569091e-001	 1.023916852665525e+000	-1.873972060363752e+001
1	 4.262364592634405e-001	 1.028508961946442e+000	-1.849348243333142e+001
1	 4.152951339648769e-001	 1.032975368790253e+000	-1.824477461441414e+001
1	 4.043308468401381e-001	 1.037316095277311e+000	-1.799439865541477e+001
1	 3.933456668439073e-001	 1.041531207272252e+000	-1.774318172513933e+001
1	 3.823416519112351e-001	 1.045620813907598e+000	-1.749197378417803e+001
1	 3.713208478862504e-001	 1.049585067036537e+000	-1.724164473328896e+001
1	 3.602852874758973e-001	 1.053424160656007e+000	-1.699308158443676e+001
1	 3.492369892295755e-001	 1.057138330301280e+000	-1.674718566007077e+001
1	 3.381779565454889e-001	 1.060727852413227e+000	-1.650486982602606e+001
1	 3.271101767044565e-001	 1.064193043679492e+000	-1.626705576322235e+001
1	 4.397701684151532e-001	 1.030047490418441e+000	-1.900914584135221e+001
1	 4.287885232540980e-001	 1.034667094665108e+000	-1.876676351182087e+001
1	 4.177816874583216e-001	 1.039160243839196e+000	-1.852212808793520e+001
1	 4.067517523539002e-001	 1.043526960153260e+000	-1.827600760927461e+001
1	 3.957007992832537e-001	 1.047767309866293e+000	-1.802919580732283e+001
1	 3.846308985031899e-001	 1.051881402764238e+000	-1.778250926860089e+001
1	 3.735441081072007e-001	 1.055869391609492e+000	-1.753678461412583e+001
1	 3.624424729729358e-001	 1.059731471560536e+000	-1.729287570092530e+001
1	 3.513280237357326e-001	 1.063467879562889e+000	-1.705165085115360e+001
1	 3.402027757890156e-001	 1.067078893712594e+000	-1.681399011415604e+001
1	 3.290687283123237e-001	 1.070564832593438e+000	-1.658078256661544e+001
1	 4.423875916642177e-001	 1.036178125106425e+000	-1.927849956077079e+001
1	 4.313405859682536e-001	 1.040825224305087e+000	-1.904010377353765e+001
1	 4.202682397080302e-001	 1.045345115796075e+000	-1.879968646805853e+001
1	 4.091726566567727e-001	 1.049737821924144e+000	-1.855797978362812e+001
1	 3.980559305446286e-001	 1.054003409342645e+000	-1.831574156281188e+001
1	 3.869201439501546e-001	 1.058141988490943e+000	-1.807375255099365e+001
1	 3.757673672161970e-001	 1.062153713040640e+000	-1.783281361163294e+001
1	 3.645996573911035e-001	 1.066038779311758e+000	-1.759374296291368e+001
1	 3.534190571961403e-001	 1.069797425660067e+000	-1.735737344127712e+001
1	 3.422275940199455e-001	 1.073429931836776e+000	-1.712454979714065e+001
1	 3.310272789407683e-001	 1.076936618321817e+000	-1.689612602789670e+001
1	 4.450050142583599e-001	 1.042308758262027e+000	-1.954770379986775e+001
1	 4.338926480438308e-001	 1.046983352405783e+000	-1.931342674887963e+001
1	 4.227547913355574e-001	 1.051529986206963e+000	-1.907737423271505e+001
1	 4.115935603539075e-001	 1.055948682142524e+000	-1.884024010173093e+001
1	 4.004110612167509e-001	 1.060239507260171e+000	-1.860274390075568e+001
1	 3.892093888243872e-001	 1.064402572652689e+000	-1.836562810979616e+001
1	 3.779906257690123e-001	 1.068438032900888e+000	-1.812965539977930e+001
1	 3.667568412696644e-001	 1.072346085486329e+000	-1.789560590894789e+001
1	 3.555100901335350e-001	 1.076126970175029e+000	-1.766427454534903e+001
1	 3.442524117444684e-001	 1.079780968373366e+000	-1.743646832066322e+001
1	 3.329858290794200e-001	 1.083308402457412e+000	-1.721300372041350e+001
1	 3.134002468966224e-001	 1.019590298292188e+000	-1.412359015199808e+001
1	 3.027898497785945e-001	 1.022791476736971e+000	-1.386573585302614e+001
1	 2.921748293092217e-001	 1.025874253664687e+000	-1.361729571152091e+001
1	 2.815570370197590e-001	 1.028839042630564e+000	-1.337933867844578e+001
1	 2.709383056183087e-001	 1.031686293007040e+000	-1.315293236978479e+001
1	 2.603204482043598e-001	 1.034416489247346e+000	-1.293914033350738e+001
1	 2.497052575127223e-001	 1.037030150131326e+000	-1.273901938639335e+001
1	 2.390945051871896e-001	 1.039527827994735e+000	-1.255361702461504e+001
1	 2.284899410842091e-001	 1.041910107943235e+000	-1.238396891169031e+001
1	 2.178932926067863e-001	 1.044177607052323e+000	-1.223109644712709e+001
1	 2.073062640687906e-001	 1.046330973554413e+000	-1.209600441880081e+001
1	 3.153588190700908e-001	 1.025962154103038e+000	-1.442351809466556e+001
1	 3.046821130426786e-001	 1.029183338080941e+000	-1.416896194517492e+001
1	 2.940007547706283e-001	 1.032285380600046e+000	-1.392381159460810e+001
1	 2.833166073562019e-001	 1.035268697800079e+000	-1.368911094202047e+001
1	 2.726315149608755e-001	 1.038133741861805e+000	-1.346590286557525e+001
1	 2.619473020149687e-001	 1.040881000266023e+000	-1.325522649961983e+001
1	 2.512657724568546e-001	 1.043510995034661e+000	-1.305811458106772e+001
1	 2.405887090020832e-001	 1.046024281955267e+000	-1.287559086898366e+001
1	 2.299178724427003e-001	 1.048421449790087e+000	-1.270866764098989e+001
1	 2.192550009769878e-001	 1.050703119470998e+000	-1.255834326981517e+001
1	 2.086018095697990e-001	 1.052869943281504e+000	-1.242559988303146e+001
1	 3.173173868367261e-001	 1.032333995578839e+000	-1.472569868929925e+001
1	 3.065743720491249e-001	 1.035575185044799e+000	-1.447462714227339e+001
1	 2.958266761236638e-001	 1.038696493111893e+000	-1.423294757168029e+001
1	 2.850761737335840e-001	 1.041698338504331e+000	-1.400167883270951e+001
1	 2.743247204937078e-001	 1.044581176211209e+000	-1.378183907500199e+001
1	 2.635741521651586e-001	 1.047345496740881e+000	-1.357444302989539e+001
1	 2.528262838898459e-001	 1.049991825357360e+000	-1.338049936641808e+001
1	 2.420829094550495e-001	 1.052520721299978e+000	-1.320100811993110e+001
1	 2.313458005883873e-001	 1.054932776987559e+000	-1.303695819703635e+001
1	 2.206167062833924e-001	 1.057228617208352e+000	-1.288932496007827e+001
1	 2.098973521558755e-001	 1.059408898296943e+000	-1.275906789428688e+001
1	 3.192759506861582e-001	 1.038705824312371e+000	-1.503003429676981e+001
1	 3.084666272709912e-001	 1.041967019226337e+000	-1.478263147405227e+001
1	 2.976525938248045e-001	 1.045107592802839e+000	-1.454460131662894e+001
1	 2.868357365917950e-001	 1.048127966350573e+000	-1.431693764212331e+001
1	 2.760179226401069e-001	 1.051028597666957e+000	-1.410063387924405e+001
1	 2.652009990616432e-001	 1.053809980287900e+000	-1.389668036525940e+001
1	 2.543867922018261e-001	 1.056472642719491e+000	-1.370606171165728e+001
1	 2.435771069196422e-001	 1.059017147652842e+000	-1.352975424189982e+001
1	 2.327737258782583e-001	 1.061444091163351e+000	-1.336872350488363e+001
1	 2.219784088664359e-001	 1.063754101895628e+000	-1.322392186744257e+001
1	 2.111928921509208e-001	 1.065947840235338e+000	-1.309628618894277e+001
1	 3.212345111080173e-001	 1.045077641896419e+000	-1.533642965464977e+001
1	 3.103588791813350e-001	 1.048358842223344e+000	-1.509287740345150e+001
1	 2.994785083305274e-001	 1.051518681275496e+000	-1.485867299367680e+001
1	 2.885952963707255e-001	 1.054557582946055e+000	-1.463478520998242e+001
1	 2.777111218233742e-001	 1.057476007840754e+000	-1.442218276607052e+001
1	 2.668278431111357e-001	 1.060274452523056e+000	-1.422183161244701e+001
1	 2.559472977829249e-001	 1.062953448741120e+000	-1.403469231180945e+001
1	 2.450713017694148e-001	 1.065513562637832e+000	-1.386171748596558e+001
1	 2.342016486693010e-001	 1.067955393945159e+000	-1.370384933789900e+001
1	 2.233401090665539e-001	 1.070279575164070e+000	-1.356201725232320e+001
1	 2.124884298788351e-001	 1.072486770731300e+000	-1.343713547777290e+001
1	 3.231930685919333e-001	 1.051449449923766e+000	-1.564479180521762e+001
1	 3.122511282532141e-001	 1.054750655633610e+000	-1.540526975290275e+001
1	 3.013044200973088e-001	 1.057929760132478e+000	-1.517506518191957e+001
1	 2.903548535102650e-001	 1.060987189898027e+000	-1.495512184690148e+001
1	 2.794043184668104e-001	 1.063923408344307e+000	-1.474638375084219e+001
1	 2.684546847203496e-001	 1.066738915062326e+000	-1.454979246320212e+001
1	 2.575078010232722e-001	 1.069434245042312e+000	-1.436628450508164e+001
1	 2.465654943779210e-001	 1.072009967878922e+000	-1.419678880535688e+001
1	 2.356295693185036e-001	 1.074466686960685e+000	-1.404222423140648e+001
1	 2.247018072241827e-001	 1.076805038644923e+000	-1.390349719776454e+001
1	 2.137839656635190e-001	 1.079025691419437e+000	-1.378149935575710e+001
1	 3.251516236275363e-001	 1.057821249987196e+000	-1.595503002606919e+001
1	 3.141433749596864e-001	 1.061142461054926e+000	-1.571971563328012e+001
1	 3.031303295816258e-001	 1.064340830976396e+000	-1.549368280259989e+001
1	 2.921144084503036e-001	 1.067416788813741e+000	-1.527785025996352e+001
1	 2.810975129937172e-001	 1.070370800789321e+000	-1.507313730037015e+001
1	 2.700815242959982e-001	 1.073203369521688e+000	-1.488046111639921e+001
1	 2.590683023129978e-001	 1.075915033243134e+000	-1.470073419322566e+001
1	 2.480596851187144e-001	 1.078506365000086e+000	-1.453486177403365e+001
1	 2.370574881828540e-001	 1.080977971837627e+000	-1.438373939945554e+001
1	 2.260635036797577e-001	 1.083330493969430e+000	-1.424825052437476e+001
1	 2.150794998288730e-001	 1.085564603934357e+000	-1.412926421515551e+001
1	 3.271101767044565e-001	 1.064193043679492e+000	-1.626705576322235e+001
1	 3.160356197738095e-001	 1.067534260085082e+000	-1.603612437540481e+001
1	 3.049562372399546e-001	 1.070751895409864e+000	-1.581443304899442e+001
1	 2.938739616307314e-001	 1.073846381300447e+000	-1.560287548097493e+001
1	 2.827907058273956e-001	 1.076818186787501e+000	-1.540234625951655e+001
1	 2.717083622447951e-001	 1.079667817517119e+000	-1.521373820296620e+001
1	 2.606288020422317e-001	 1.082395814963654e+000	-1.503793976476425e+001
1	 2.495538743653485e-001	 1.085002755625296e+000	-1.487583250819353e+001
1	 2.384854056193399e-001	 1.087489250203683e+000	-1.472828865458434e+001
1	 2.274251987737151e-001	 1.089855942768836e+000	-1.459616870831983e+001
1	 2.163750326987971e-001	 1.092103509910670e+000	-1.448031916170656e+001
1	 3.290687283123237e-001	 1.070564832593438e+000	-1.658078256661544e+001
1	 3.179278631686414e-001	 1.073926054321867e+000	-1.635440746400096e+001
1	 3.067821435287722e-001	 1.077162955035492e+000	-1.613722531881101e+001
1	 2.956335134914387e-001	 1.080275968965396e+000	-1.593010479728345e+001
1	 2.844838973911467e-001	 1.083265567950552e+000	-1.573391578041605e+001
1	 2.733351989734535e-001	 1.086132260664596e+000	-1.554952671349224e+001
1	 2.621893006011032e-001	 1.088876591823937e+000	-1.537780202096230e+001
1	 2.510480624913770e-001	 1.091499141378525e+000	-1.521959959058454e+001
1	 2.399133219849494e-001	 1.094000523686553e+000	-1.507576833045125e+001
1	 2.287868928464905e-001	 1.096381386674383e+000	-1.494714580224997e+001
1	 2.176705645971922e-001	 1.098642410982984e+000	-1.483455593382328e+001
1	 3.310272789407683e-001	 1.076936618321817e+000	-1.689612602789670e+001
1	 3.198201056172395e-001	 1.080317845363071e+000	-1.667447847399775e+001
1	 3.086080489045549e-001	 1.083574011455895e+000	-1.646197114898596e+001
1	 2.973930644723152e-001	 1.086705553415838e+000	-1.625944768505607e+001
1	 2.861770881082719e-001	 1.089712945890182e+000	-1.606775325421501e+001
1	 2.749620348886869e-001	 1.092596700580097e+000	-1.588773192840898e+001
1	 2.637497983797427e-001	 1.095357365444050e+000	-1.572022410442999e+001
1	 2.525422498703536e-001	 1.097995523883749e+000	-1.556606399750790e+001
1	 2.413412376366703e-001	 1.100511793913938e+000	-1.542607720721547e+001
1	 2.301485862385199e-001	 1.102906827317317e+000	-1.530107835903531e+001
1	 2.189660958479585e-001	 1.105181308785909e+000	-1.519186882466125e+001
1	 3.329858290794200e-001	 1.083308402457412e+000	-1.721300372041350e+001
1	 3.217123475926619e-001	 1.086709634806486e+000	-1.699625300908197e+001
1	 3.104339538237796e-001	 1.089985066273683e+000	-1.678858415278667e+001
1	 2.991526150132510e-001	 1.093135136259025e+000	-1.659081574491367e+001
1	 2.878702784020723e-001	 1.096160322218095e+000	-1.640376824522212e+001
1	 2.765888703972086e-001	 1.099061138879599e+000	-1.622826135063752e+001
1	 2.653102957682797e-001	 1.101838137444058e+000	-1.606511143024683e+001
1	 2.540364368758318e-001	 1.104491904764940e+000	-1.591512902840133e+001
1	 2.427691529314908e-001	 1.107023062513534e+000	-1.577911643955596e+001
1	 2.315102792902392e-001	 1.109432266328881e+000	-1.565786535819840e+001
1	 2.202616267749964e-001	 1.111720204954052e+000	-1.555215460693945e+001
1	 2.073062640687906e-001	 1.046330973554413e+000	-1.209600441880081e+001
1	 1.967321210341483e-001	 1.048370588664549e+000	-1.197923977011981e+001
1	 1.861709283643863e-001	 1.050297492397054e+000	-1.188139246610272e+001
1	 1.756243145063029e-001	 1.052112422007309e+000	-1.180355669135545e+001
1	 1.650938826503424e-001	 1.053816142520104e+000	-1.174680105138168e+001
1	 1.545812102484206e-001	 1.055409445871443e+000	-1.171216659698258e+001
1	 1.440878485620557e-001	 1.056893150044585e+000	-1.170066494622678e+001
1	 1.336153222406547e-001	 1.058268098201429e+000	-1.171327650513719e+001
1	 1.231651289297503e-001	 1.059535157810359e+000	-1.175094878798264e+001
1	 1.127387389089458e-001	 1.060695219771598e+000	-1.181459483779274e+001
1	 1.023375947592949e-001	 1.061749197541143e+000	-1.190509174746447e+001
1	 2.086018095697990e-001	 1.052869943281504e+000	-1.242559988303146e+001
1	 1.979615841929645e-001	 1.054922304819027e+000	-1.231096952257916e+001
1	 1.873343901133681e-001	 1.056861250597369e+000	-1.221503862273642e+001
1	 1.767218659546793e-001	 1.058687522479315e+000	-1.213889511606600e+001
1	 1.661256249263771e-001	 1.060401890270602e+000	-1.208360145397972e+001
1	 1.555472543385593e-001	 1.062005150856360e+000	-1.205019261767217e+001
1	 1.449883151472520e-001	 1.063498127331754e+000	-1.203967422708138e+001
1	 1.344503415300592e-001	 1.064881668127946e+000	-1.205302074904289e+001
1	 1.239348404919513e-001	 1.066156646134478e+000	-1.209117380553453e+001
1	 1.134432915009482e-001	 1.067323957819171e+000	-1.215504058264703e+001
1	 1.029771461534198e-001	 1.068384522346582e+000	-1.224549234065508e+001
1	 2.098973521558755e-001	 1.059408898296943e+000	-1.275906789428688e+001
1	 1.991910445855255e-001	 1.061474006233129e+000	-1.264670325459500e+001
1	 1.884978492445812e-001	 1.063424994030176e+000	-1.255281131826076e+001
1	 1.778194149335623e-001	 1.065262608158258e+000	-1.247847114597746e+001
1	 1.671573648809590e-001	 1.066987623204044e+000	-1.242473646168022e+001
1	 1.565132962550305e-001	 1.068600841001780e+000	-1.239263365313817e+001
1	 1.458887797062889e-001	 1.070103089758522e+000	-1.238315987087453e+001
1	 1.352853589405142e-001	 1.071495223174678e+000	-1.239728122659803e+001
1	 1.247045503220943e-001	 1.072778119560937e+000	-1.243593109205469e+001
1	 1.141478425074453e-001	 1.073952680952703e+000	-1.250000849894516e+001
1	 1.036166961082335e-001	 1.075019832223076e+000	-1.259037664029478e+001
1	 2.111928921509208e-001	 1.065947840235338e+000	-1.309628618894277e+001
1	 2.004205025192180e-001	 1.068025694544651e+000	-1.298631610227821e+001
1	 1.896613060489215e-001	 1.069988724336277e+000	-1.289458318388319e+001
1	 1.789169617173798e-001	 1.071837680687771e+000	-1.282215505001135e+001
1	 1.681891027720755e-001	 1.073573342966726e+000	-1.277007417038578e+001
1	 1.574793362394091e-001	 1.075196517956486e+000	-1.273935586154448e+001
1	 1.467892424643598e-001	 1.076708038975992e+000	-1.273098637865945e+001
1	 1.361203746808647e-001	 1.078108764994883e+000	-1.274592110702767e+001
1	 1.254742586127105e-001	 1.079399579744983e+000	-1.278508285415415e+001
1	 1.148523921046915e-001	 1.080581390829265e+000	-1.284936024308399e+001
1	 1.042562447837527e-001	 1.081655128829361e+000	-1.293960620738080e+001
1	 2.124884298788351e-001	 1.072486770731300e+000	-1.343713547777290e+001
1	 2.016499583014293e-001	 1.074577371391386e+000	-1.332968623934739e+001
1	 1.908247608172844e-001	 1.076552443156474e+000	-1.324022994932257e+001
1	 1.800145065805603e-001	 1.078412741711491e+000	-1.316982025304644e+001
1	 1.692208388577141e-001	 1.080159051204941e+000	-1.311948588481097e+001
1	 1.584453745332703e-001	 1.081792183369263e+000	-1.309022865701207e+001
1	 1.476897036466583e-001	 1.083312976635267e+000	-1.308302154777912e+001
1	 1.369553889599555e-001	 1.084722295241816e+000	-1.309880688827923e+001
1	 1.262439655563312e-001	 1.086021028341859e+000	-1.313849465063101e+001
1	 1.155569404689415e-001	 1.087210089105928e+000	-1.320296083709443e+001
1	 1.048957923399940e-001	 1.088290413824173e+000	-1.329304597094139e+001
1	 2.137839656635190e-001	 1.079025691419437e+000	-1.378149935575710e+001
1	 2.028794122395463e-001	 1.081129038411128e+000	-1.367669478501580e+001
1	 1.919882138405655e-001	 1.083116152131570e+000	-1.358963034884333e+001
1	 1.811120497975321e-001	 1.084987792873053e+000	-1.352134324020780e+001
1	 1.702525733958621e-001	 1.086744749564987e+000	-1.347284602116543e+001
1	 1.594114113781895e-001	 1.088387838888894e+000	-1.344512461086971e+001
1	 1.485901634783784e-001	 1.089917904387450e+000	-1.343913637189066e+001
1	 1.377904019866320e-001	 1.091335815568734e+000	-1.345580829606193e+001
1	 1.270136713454877e-001	 1.092642467006809e+000	-1.349603529079889e+001
1	 1.162614877764496e-001	 1.093838777439760e+000	-1.356067856656184e+001
1	 1.055353389369740e-001	 1.094925688866247e+000	-1.365056412588516e+001
1	 2.150794998288730e-001	 1.085564603934357e+000	-1.412926421515551e+001
1	 2.041088646409562e-001	 1.087680697241672e+000	-1.402722571521210e+001
1	 1.931516654096602e-001	 1.089679852902368e+000	-1.394266603069195e+001
1	 1.822095916427233e-001	 1.091562835816092e+000	-1.387660346461938e+001
1	 1.712843066445071e-001	 1.093330439693156e+000	-1.383003201335855e+001
1	 1.603774470157416e-001	 1.094983486164163e+000	-1.380391935647690e+001
1	 1.494906221847134e-001	 1.096522823883646e+000	-1.379920494460771e+001
1	 1.386254139697389e-001	 1.097949327628892e+000	-1.381679818654117e+001
1	 1.277833761727113e-001	 1.099263897395078e+000	-1.385757673649325e+001
1	 1.169660342034704e-001	 1.100467457487831e+000	-1.392238488224143e+001
1	 1.061748847347095e-001	 1.101560955614318e+000	-1.401203203454818e+001
1	 2.163750326987971e-001	 1.092103509910670e+000	-1.448031916170656e+001
1	 2.053383158130456e-001	 1.094232349520812e+000	-1.438116577699343e+001
1	 1.943151158154642e-001	 1.096243547109668e+000	-1.429922146978972e+001
1	 1.833071323905622e-001	 1.098137872184242e+000	-1.423548325847392e+001
1	 1.723160388616364e-001	 1.099916123235746e+000	-1.419092422257622e+001
1	 1.613434816875018e-001	 1.101579126843854e+000	-1.416649149747093e+001
1	 1.503910799908571e-001	 1.103127736774956e+000	-1.416310436660953e+001
1	 1.394604251181213e-001	 1.104562833075548e+000	-1.418165245253026e+001
1	 1.285530802305333e-001	 1.105885321161910e+000	-1.422299400760470e+001
1	 1.176705799262583e-001	 1.107096130907213e+000	-1.428795430521192e+001
1	 1.068144298932171e-001	 1.108196215727121e+000	-1.437732413178151e+001
1	 2.176705645971922e-001	 1.098642410982984e+000	-1.483455593382328e+001
1	 2.065677660632019e-001	 1.100783996886342e+000	-1.473840440601938e+001
1	 1.954785653488730e-001	 1.102807236394275e+000	-1.465918388354732e+001
1	 1.844046723154772e-001	 1.104712903621141e+000	-1.459786774728396e+001
1	 1.733477703052373e-001	 1.106501801839048e+000	-1.455540585009283e+001
1	 1.623095156350454e-001	 1.108174762576749e+000	-1.453272251929448e+001
1	 1.512915371220032e-001	 1.109732644712485e+000	-1.453071465606968e+001
1	 1.402954356406242e-001	 1.111176333561957e+000	-1.455024993303963e+001
1	 1.293227837114848e-001	 1.112506739962549e+000	-1.459216509098639e+001
1	 1.183751251210679e-001	 1.113724799354973e+000	-1.465726433542009e+001
1	 1.074539745725135e-001	 1.114831470863391e+000	-1.474631783343297e+001
1	 2.189660958479585e-001	 1.105181308785909e+000	-1.519186882466125e+001
1	 2.077972156988120e-001	 1.107335640976057e+000	-1.509883364695908e+001
1	 1.966420143007822e-001	 1.109370922396989e+000	-1.502244315067288e+001
1	 1.855022116918965e-001	 1.111287931770422e+000	-1.496364476717957e+001
1	 1.743795012332975e-001	 1.113087477149361e+000	-1.492336285318041e+001
1	 1.632755490999475e-001	 1.114770395011633e+000	-1.490249670386647e+001
1	 1.521919938033452e-001	 1.116337549347337e+000	-1.490191866227010e+001
1	 1.411304457460926e-001	 1.117789830741375e+000	-1.492247232603746e+001
1	 1.300924868080972e-001	 1.119128155452241e+000	-1.496497085260350e+001
1	 1.190796699641537e-001	 1.120353464488183e+000	-1.503019536347591e+001
1	 1.080935189326152e-001	 1.121466722681864e+000	-1.511889344808037e+001
1	 2.202616267749964e-001	 1.111720204954052e+000	-1.555215460693945e+001
1	 2.090266650272629e-001	 1.113887283427750e+000	-1.546234807670973e+001
1	 1.978054629620872e-001	 1.115934606758614e+000	-1.538889173284561e+001
1	 1.865997507942484e-001	 1.117862958275722e+000	-1.533270478512834e+001
1	 1.754112319038042e-001	 1.119673150812978e+000	-1.529468386398931e+001
1	 1.642415823237833e-001	 1.121366025797290e+000	-1.527570104727050e+001
1	 1.530924502600770e-001	 1.122942452330613e+000	-1.527660198226613e+001
1	 1.419654556433717e-001	 1.124403326267059e+000	-1.529820410429537e+001
1	 1.308621897129018e-001	 1.125749569286229e+000	-1.534129495278262e+001
1	 1.197842146317700e-001	 1.126982127963913e+000	-1.540663058556492e+001
1	 1.087330631335390e-001	 1.128101972841276e+000	-1.549493409188484e+001
1	 1.023375947592949e-001	 1.061749197541143e+000	-1.190509174746447e+001
1	 9.196156041119188e-002	 1.062698160787635e+000	-1.202276407123743e+001
1	 8.161360287930819e-002	 1.063542900019065e+000	-1.216798828810082e+001
1	 7.129510139779745e-002	 1.064284391785943e+000	-1.234170763010749e+001
1	 6.100740579791999e-002	 1.064923631719467e+000	-1.254482341308583e+001
1	 5.075183632053588e-002	 1.065461633653999e+000	-1.277819412910682e+001
1	 4.052968345630113e-002	 1.065899428754169e+000	-1.304263463223340e+001
1	 3.034220781303463e-002	 1.066238064647488e+000	-1.333891541628716e+001
1	 2.019064000970140e-002	 1.066478604563256e+000	-1.366776198320428e+001
1	 1.007618059643524e-002	 1.066622126478576e+000	-1.402985430040377e+001
1	 0.000000000000000e+000	 1.066669722272222e+000	-1.442582634544923e+001
1	 1.029771461534198e-001	 1.068384522346582e+000	-1.224549234065508e+001
1	 9.253626752940741e-002	 1.069339416070155e+000	-1.236285077872006e+001
1	 8.212364118570643e-002	 1.070189434438125e+000	-1.250750147966829e+001
1	 7.174065497586926e-002	 1.070935560103909e+000	-1.268039961458697e+001
1	 6.138866716680423e-002	 1.071578794920858e+000	-1.288245828227706e+001
1	 5.106900625009653e-002	 1.072120159059240e+000	-1.311454757044474e+001
1	 4.078297078120607e-002	 1.072560690127902e+000	-1.337749371160636e+001
1	 3.053182924600528e-002	 1.072901442301451e+000	-1.367207833244982e+001
1	 2.031681995409991e-002	 1.073143485453786e+000	-1.399903779523454e+001
1	 1.013915095835196e-002	 1.073287904298776e+000	-1.435906262965208e+001
1	 0.000000000000000e+000	 1.073335797538833e+000	-1.475279705343308e+001
1	 1.036166961082335e-001	 1.075019832223076e+000	-1.259037664029478e+001
1	 9.311097335415065e-002	 1.075980656410289e+000	-1.270735354851460e+001
1	 8.263367834408004e-002	 1.076835953902812e+000	-1.285133399346534e+001
1	 7.218620755096009e-002	 1.077586713456961e+000	-1.302328423844853e+001
1	 6.176992767733443e-002	 1.078233943148229e+000	-1.322412834703625e+001
1	 5.138617546550141e-002	 1.078778669482785e+000	-1.345474721356533e+001
1	 4.103625753571286e-002	 1.079221936513682e+000	-1.371597768971783e+001
1	 3.072145025188322e-002	 1.079564804962612e+000	-1.400861180594639e+001
1	 2.044299961424778e-002	 1.079808351348064e+000	-1.433339608632784e+001
1	 1.020212117838581e-002	 1.079953667120660e+000	-1.469103095527598e+001
1	 0.000000000000000e+000	 1.080001857806444e+000	-1.508217023439595e+001
1	 1.042562447837527e-001	 1.081655128829361e+000	-1.293960620738080e+001
1	 9.368567802923879e-002	 1.082621883468279e+000	-1.305613416053309e+001
1	 8.314371448208845e-002	 1.083482460074716e+000	-1.319934798697337e+001
1	 7.263175923461414e-002	 1.084237853507879e+000	-1.337022421432977e+001
1	 6.215118742498331e-002	 1.084889078065393e+000	-1.356969707137644e+001
1	 5.170334404619593e-002	 1.085437166589321e+000	-1.379865748839833e+001
1	 4.128954378328468e-002	 1.085883169576908e+000	-1.405795219496133e+001
1	 3.091107087819527e-002	 1.086228154296925e+000	-1.434838291385780e+001
1	 2.056917902178206e-002	 1.086473203912440e+000	-1.467070564981838e+001
1	 1.026509127233133e-002	 1.086619416610818e+000	-1.502563007142681e+001
1	 0.000000000000000e+000	 1.086667904741722e+000	-1.541381898452228e+001
1	 1.048957923399940e-001	 1.088290413824173e+000	-1.329304597094139e+001
1	 9.426038169848888e-002	 1.089263098904368e+000	-1.340905775749397e+001
1	 8.365374972739097e-002	 1.090128954615429e+000	-1.355140897143185e+001
1	 7.307731013837572e-002	 1.090888981919444e+000	-1.372108559529190e+001
1	 6.253244650522352e-002	 1.091544201336163e+000	-1.391903124165917e+001
1	 5.202051207162541e-002	 1.092095652043531e+000	-1.414614612396063e+001
1	 4.154282958738469e-002	 1.092544390982978e+000	-1.440328612592960e+001
1	 3.110069117246825e-002	 1.092891491970343e+000	-1.469126196851879e+001
1	 2.069535820833976e-002	 1.093138044813263e+000	-1.501083847286765e+001
1	 1.032806125598304e-002	 1.093285154435836e+000	-1.536273391776397e+001
1	 0.000000000000000e+000	 1.093333940011333e+000	-1.574761948988310e+001
1	 1.055353389369740e-001	 1.094925688866247e+000	-1.365056412588516e+001
1	 9.483508450571804e-002	 1.095904304378798e+000	-1.376599274293374e+001
1	 8.416378420764699e-002	 1.096775439186540e+000	-1.390738571012869e+001
1	 7.352286037378912e-002	 1.097540100354437e+000	-1.407573767352006e+001
1	 6.291370501352775e-002	 1.098199314624351e+000	-1.427200086585058e+001
1	 5.233767962123528e-002	 1.098754127510101e+000	-1.449708404832664e+001
1	 4.179611501147609e-002	 1.099205602397292e+000	-1.475185155227054e+001
1	 3.129031118222901e-002	 1.099554819648821e+000	-1.503712241944478e+001
1	 2.082153720555794e-002	 1.099802875716884e+000	-1.535366963966272e+001
1	 1.039103114513548e-002	 1.099950882262301e+000	-1.570221948413107e+001
1	 0.000000000000000e+000	 1.099999965281944e+000	-1.608345093281445e+001
1	 1.061748847347095e-001	 1.101560955614318e+000	-1.401203203454818e+001
1	 9.540978659474342e-002	 1.102545501551810e+000	-1.412681068290909e+001
1	 8.467381805051592e-002	 1.103421915449642e+000	-1.426715012037033e+001
1	 7.396841005239860e-002	 1.104191210475638e+000	-1.443405288268953e+001
1	 6.329496304536866e-002	 1.104854419593770e+000	-1.462847907642300e+001
1	 5.265484677447090e-002	 1.105412594653715e+000	-1.485134529221626e+001
1	 4.204940011902202e-002	 1.105866805485247e+000	-1.510352361912994e+001
1	 3.147993095500434e-002	 1.106218138998311e+000	-1.538584075880842e+001
1	 2.094771604507362e-002	 1.106467698289651e+000	-1.569907723811364e+001
1	 1.045400095558320e-002	 1.106616601756801e+000	-1.604396671868022e+001
1	 0.000000000000000e+000	 1.106665982220223e+000	-1.642119540168277e+001
1	 1.068144298932171e-001	 1.108196215727121e+000	-1.437732413178151e+001
1	 9.598448810938207e-002	 1.109186692083648e+000	-1.449138621123473e+001
1	 8.518385138365703e-002	 1.110068385066325e+000	-1.463057717898000e+001
1	 7.441395928574844e-002	 1.110842313945830e+000	-1.479590670384356e+001
1	 6.367622069621895e-002	 1.111509517908231e+000	-1.498834203674831e+001
1	 5.297201361077766e-002	 1.112071055139059e+000	-1.520880689605339e+001
1	 4.230268497348572e-002	 1.112528001912243e+000	-1.545818045503282e+001
1	 3.166955053832104e-002	 1.112881451684768e+000	-1.573729643031409e+001
1	 2.107389475852384e-002	 1.113132514197915e+000	-1.604694226990878e+001
1	 1.051697070312073e-002	 1.113282314585924e+000	-1.638785843930226e+001
1	 0.000000000000000e+000	 1.113331992492834e+000	-1.676073780389684e+001
1	 1.074539745725135e-001	 1.114831470863391e+000	-1.474631783343297e+001
1	 9.655918919345116e-002	 1.115827877634553e+000	-1.485959693810871e+001
1	 8.569388433472970e-002	 1.116714849698179e+000	-1.499754483117190e+001
1	 7.485950818538288e-002	 1.117493412427793e+000	-1.516117757463721e+001
1	 6.405747806155128e-002	 1.118164611231547e+000	-1.535146885083935e+001
1	 5.328918020960095e-002	 1.118729510630817e+000	-1.556934882034560e+001
1	 4.255596963833032e-002	 1.119189193343679e+000	-1.581570308305736e+001
1	 3.185916997970596e-002	 1.119544759374145e+000	-1.609137174133299e+001
1	 2.120007337754564e-002	 1.119797325108027e+000	-1.639714856378562e+001
1	 1.057994040354261e-002	 1.119948022416257e+000	-1.673378024822221e+001
1	 0.000000000000000e+000	 1.119997997766445e+000	-1.710196578202939e+001
1	 1.080935189326152e-001	 1.121466722681864e+000	-1.511889344808037e+001
1	 9.713388999076779e-002	 1.122469059864768e+000	-1.523132336198733e+001
1	 8.620391703139338e-002	 1.123361311006796e+000	-1.536793390266712e+001
1	 7.530505686284622e-002	 1.124144507584308e+000	-1.552974680180488e+001
1	 6.443873523683828e-002	 1.124819701227530e+000	-1.571774147629727e+001
1	 5.360634665038613e-002	 1.125387962793674e+000	-1.593285385925065e+001
1	 4.280925417701900e-002	 1.125850381444952e+000	-1.617597533516559e+001
1	 3.204878932668590e-002	 1.126208063732395e+000	-1.644795177815875e+001
1	 2.132625193377607e-002	 1.126462132686335e+000	-1.674958269188467e+001
1	 1.064291007264337e-002	 1.126613726914388e+000	-1.708162044963287e+001
1	 0.000000000000000e+000	 1.126663999707723e+000	-1.744476963292016e+001
1	 1.087330631335390e-001	 1.128101972841276e+000	-1.549493409188484e+001
1	 9.770859064514910e-002	 1.129110240434535e+000	-1.560644878457148e+001
1	 8.671394960130736e-002	 1.130007770653767e+000	-1.574162801491218e+001
1	 7.575060542968273e-002	 1.130795601078155e+000	-1.590149847672347e+001
1	 6.481999231755271e-002	 1.131474789559993e+000	-1.608704464033802e+001
1	 5.392351301257860e-002	 1.132046413292315e+000	-1.629920755719499e+001
1	 4.306253865301493e-002	 1.132511567881462e+000	-1.653888376956246e+001
1	 3.223840862678768e-002	 1.132871366425472e+000	-1.680692432426013e+001
1	 2.145243045885214e-002	 1.133126938599190e+000	-1.710413388905753e+001
1	 1.070587972621754e-002	 1.133279429746903e+000	-1.743126997023579e+001
1	 0.000000000000000e+000	 1.133329999983334e+000	-1.778904222963732e+001
1	 1.133329999983334e+000	 0.000000000000000e+000	 2.536079253187901e+001
1	 1.133279429746903e+000	 1.070587972621758e-002	 2.508527853029257e+001
1	 1.133126938599190e+000	 2.145243045885220e-002	 2.480737257083068e+001
1	 1.132871366425473e+000	 3.223840862678761e-002	 2.452615275556278e+001
1	 1.132511567881462e+000	 4.306253865301489e-002	 2.424071774229537e+001
1	 1.132046413292315e+000	 5.392351301257858e-002	 2.395018851290953e+001
1	 1.131474789559993e+000	 6.481999231755271e-002	 2.365371015781534e+001
1	 1.130795601078155e+000	 7.575060542968279e-002	 2.335045367379200e+001
1	 1.130007770653767e+000	 8.671394960130725e-002	 2.303961777235451e+001
1	 1.129110240434534e+000	 9.770859064514900e-002	 2.272043069566251e+001
1	 1.128101972841275e+000	 1.087330631335390e-001	 2.239215203686381e+001
1	 1.139996999982150e+000	 0.000000000000000e+000	 2.531749743525580e+001
1	 1.139946132257989e+000	 1.076885882381071e-002	 2.502429969287451e+001
1	 1.139792744056029e+000	 2.157862790779298e-002	 2.472926707260778e+001
1	 1.139535668436983e+000	 3.242805636533384e-002	 2.443147728689099e+001
1	 1.139173753318885e+000	 4.331586111564802e-002	 2.413002866657403e+001
1	 1.138705862381395e+000	 5.424072694206489e-002	 2.382404193768178e+001
1	 1.138130875978492e+000	 6.520130657750443e-002	 2.351266201434378e+001
1	 1.137447692058752e+000	 7.619622081778177e-002	 2.319505980514384e+001
1	 1.136655227092373e+000	 8.722405866335779e-002	 2.287043403001160e+001
1	 1.135752417004075e+000	 9.828337749012923e-002	 2.253801304465205e+001
1	 1.134738218110943e+000	 1.093727032498246e-001	 2.219705666938534e+001
1	 1.146663999981866e+000	 0.000000000000000e+000	 2.527899167173342e+001
1	 1.146612834769953e+000	 1.083183792161826e-002	 2.496813793247539e+001
1	 1.146458549513681e+000	 2.170482535712002e-002	 2.465599443153907e+001
1	 1.146199970449207e+000	 3.261770410439917e-002	 2.434163929259196e+001
1	 1.145835938756898e+000	 4.356918357889769e-002	 2.402417133922203e+001
1	 1.145365311470925e+000	 5.455794087223355e-002	 2.370271187961098e+001
1	 1.144786962397290e+000	 6.558262083817644e-002	 2.337640650739034e+001
1	 1.144099783039497e+000	 7.664183620661490e-002	 2.304442691591286e+001
1	 1.143302683530987e+000	 8.773416772613631e-002	 2.270597272304224e+001
1	 1.142394593573496e+000	 9.885816433581510e-002	 2.236027330343748e+001
1	 1.141374463380391e+000	 1.100123433667813e-001	 2.200658962518397e+001
1	 1.153330999982383e+000	 0.000000000000000e+000	 2.524482273572601e+001
1	 1.153279537282697e+000	 1.089481701958664e-002	 2.491635726018830e+001
1	 1.153124354972060e+000	 2.183102280673677e-002	 2.458713520051037e+001
1	 1.152864272462079e+000	 3.280735184385381e-002	 2.425623588362337e+001
1	 1.152498124195458e+000	 4.382250604260977e-002	 2.392275943657793e+001
1	 1.152024760560884e+000	 5.487515480291397e-002	 2.358582857862492e+001
1	 1.151443048816397e+000	 6.596393509938862e-002	 2.324459042945394e+001
1	 1.150751874020427e+000	 7.708745159599871e-002	 2.289821833080418e+001
1	 1.149950139969669e+000	 8.824427678946076e-002	 2.254591367853110e+001
1	 1.149036770142885e+000	 9.943295118203023e-002	 2.218690776208560e+001
1	 1.148010708649726e+000	 1.106519834842415e-001	 2.182046360823728e+001
1	 1.159997999983599e+000	 0.000000000000000e+000	 2.521454852460863e+001
1	 1.159946239796127e+000	 1.095779611766225e-002	 2.486853171035425e+001
1	 1.159790160431083e+000	 2.195722025654666e-002	 2.452227957536529e+001
1	 1.159528574475531e+000	 3.299699958356802e-002	 2.417487343323617e+001
1	 1.159160309634518e+000	 4.407582850663016e-002	 2.382541551644106e+001
1	 1.158684209651256e+000	 5.519236873393559e-002	 2.347303077532077e+001
1	 1.158099135235820e+000	 6.634524936096096e-002	 2.311686869316485e+001
1	 1.157403965001579e+000	 7.753306698574963e-002	 2.275610511458444e+001
1	 1.156597596408484e+000	 8.875438585314925e-002	 2.238994408424023e+001
1	 1.155678946712328e+000	 1.000077380285982e-001	 2.201761969286208e+001
1	 1.154646953919056e+000	 1.112916236020372e-001	 2.163839792737144e+001
1	 1.166664999985416e+000	 0.000000000000000e+000	 2.518773704147473e+001
1	 1.166612942310144e+000	 1.102077521579147e-002	 2.482424505416941e+001
1	 1.166455965890665e+000	 2.208341770645313e-002	 2.446102711937813e+001
1	 1.166192876489496e+000	 3.318664732341201e-002	 2.409716731232417e+001
1	 1.165822495074035e+000	 4.432915097080469e-002	 2.373177076430257e+001
1	 1.165343658742019e+000	 5.550958266512781e-002	 2.336396546807654e+001
1	 1.164755221655566e+000	 6.672656362271340e-002	 2.299290409926915e+001
1	 1.164056055982987e+000	 7.797868237568409e-002	 2.261776585092589e+001
1	 1.163245052847492e+000	 8.926449491701972e-002	 2.223775827829322e+001
1	 1.162321123281912e+000	 1.005825248753425e-001	 2.185211915072989e+001
1	 1.161283199188487e+000	 1.119312637200008e-001	 2.146011830754152e+001
1	 1.173331999987733e+000	 0.000000000000000e+000	 2.516396610802771e+001
1	 1.173279644824657e+000	 1.108375431392070e-002	 2.478309052305583e+001
1	 1.173121771350721e+000	 2.220961515635962e-002	 2.440298649712038e+001
1	 1.172857178503908e+000	 3.337629506325602e-002	 2.402274163379646e+001
1	 1.172484680513963e+000	 4.458247343497926e-002	 2.364146474822820e+001
1	 1.172003107833153e+000	 5.582679659632004e-002	 2.325828767844310e+001
1	 1.171411308075644e+000	 6.710787788446590e-002	 2.287236711252327e+001
1	 1.170708146964687e+000	 7.842429776561866e-002	 2.248288642879033e+001
1	 1.169892509286757e+000	 8.977460398089025e-002	 2.208905754602958e+001
1	 1.168963299851724e+000	 1.011573117220869e-001	 2.169012278064924e+001
1	 1.167919444458127e+000	 1.125709038379644e-001	 2.128535670754578e+001
1	 1.179998999990450e+000	 0.000000000000000e+000	 2.514282308720513e+001
1	 1.179946347339565e+000	 1.114673341199633e-002	 2.474467054141013e+001
1	 1.179787576811167e+000	 2.233581260616957e-002	 2.434777521734906e+001
1	 1.179521480518698e+000	 3.356594280297030e-002	 2.395122900561523e+001
1	 1.179146865954258e+000	 4.483579589899971e-002	 2.355414518205050e+001
1	 1.178662556924642e+000	 5.614401052734176e-002	 2.315566022448956e+001
1	 1.178067394496061e+000	 6.748919214603832e-002	 2.275493564518545e+001
1	 1.177360237946715e+000	 7.886991315536962e-002	 2.235115983605461e+001
1	 1.176539965726342e+000	 9.028471304457887e-002	 2.194354992374586e+001
1	 1.175605476421850e+000	 1.017320985686549e-001	 2.153135363140998e+001
1	 1.174555689728082e+000	 1.132105439557603e-001	 2.111385114391949e+001
1	 1.186665999993467e+000	 0.000000000000000e+000	 2.512390461515323e+001
1	 1.186613049854775e+000	 1.120971250996477e-002	 2.470859646836107e+001
1	 1.186453382271919e+000	 2.246201005578640e-002	 2.429501938456206e+001
1	 1.186185782533802e+000	 3.375559054242507e-002	 2.388227029215883e+001
1	 1.185809051394874e+000	 4.508911836271194e-002	 2.346946769654372e+001
1	 1.185322006016463e+000	 5.646122445802235e-002	 2.305575350178886e+001
1	 1.184723480916826e+000	 6.787050640725066e-002	 2.264029484780592e+001
1	 1.184012328929106e+000	 7.931552854475363e-002	 2.222228596009277e+001
1	 1.183187422166308e+000	 9.079482210790350e-002	 2.180095000905248e+001
1	 1.182247652992378e+000	 1.023068854148702e-001	 2.137554097573976e+001
1	 1.181191934998460e+000	 1.138501840732206e-001	 2.094534552076529e+001
1	 1.193332999996683e+000	 0.000000000000000e+000	 2.510681634218588e+001
1	 1.193279752370191e+000	 1.127269160777239e-002	 2.467448834818359e+001
1	 1.193119187732893e+000	 2.258820750511357e-002	 2.424435345888173e+001
1	 1.192850084549151e+000	 3.394523828149056e-002	 2.381551438358425e+001
1	 1.192471236835767e+000	 4.534244082596181e-002	 2.338709561826915e+001
1	 1.191981455108598e+000	 5.677843838819120e-002	 2.295824527174534e+001
1	 1.191379567337946e+000	 6.825182066792290e-002	 2.252813690702985e+001
1	 1.190664419911896e+000	 7.976114393358699e-002	 2.209597139504328e+001
1	 1.189834878606717e+000	 9.130493117068225e-002	 2.166097877758760e+001
1	 1.188889829563394e+000	 1.028816722605563e-001	 2.122242013644235e+001
1	 1.187828180269368e+000	 1.144898241901776e-001	 2.077958946528761e+001
1	 1.200000000000000e+000	 0.000000000000000e+000	 2.509117268237874e+001
1	 1.199946454885717e+000	 1.133567070536561e-002	 2.464197466903283e+001
1	 1.199784993194003e+000	 2.271440495405450e-002	 2.419542002394289e+001
1	 1.199514386564678e+000	 3.413488602003700e-002	 2.375061797287768e+001
1	 1.199133422276893e+000	 4.559576328859522e-002	 2.330669975579268e+001
1	 1.198640904201028e+000	 5.709565231767782e-002	 2.286282045697788e+001
1	 1.198035653759429e+000	 6.863313492787491e-002	 2.241816085014059e+001
1	 1.197316510895122e+000	 8.020675932168629e-002	 2.197192925550052e+001
1	 1.196482335047633e+000	 9.181504023273307e-002	 2.152336340584100e+001
1	 1.195532006134985e+000	 1.034564591055369e-001	 2.107173231833160e+001
1	 1.194464425540913e+000	 1.151294643064634e-001	 2.061633816880983e+001
1	 1.128101972841275e+000	 1.087330631335390e-001	 2.239215203686382e+001
1	 1.126982127963913e+000	 1.197842146317701e-001	 2.205898856891353e+001
1	 1.125749569286228e+000	 1.308621897129018e-001	 2.172512648490643e+001
1	 1.124403326267059e+000	 1.419654556433717e-001	 2.138999413255127e+001
1	 1.122942452330613e+000	 1.530924502600770e-001	 2.105305474868081e+001
1	 1.121366025797290e+000	 1.642415823237833e-001	 2.071380814728921e+001
1	 1.119673150812978e+000	 1.754112319038044e-001	 2.037179239073799e+001
1	 1.117862958275722e+000	 1.865997507942483e-001	 2.002658544037537e+001
1	 1.115934606758614e+000	 1.978054629620873e-001	 1.967780678274160e+001
1	 1.113887283427750e+000	 2.090266650272629e-001	 1.932511902746871e+001
1	 1.111720204954052e+000	 2.202616267749964e-001	 1.896822947292778e+001
1	 1.134738218110943e+000	 1.093727032498246e-001	 2.219705666938534e+001
1	 1.133611785561993e+000	 1.204888649630348e-001	 2.185177106332992e+001
1	 1.132371976155270e+000	 1.316320080532949e-001	 2.150634336548387e+001
1	 1.131017813640246e+000	 1.428005907704828e-001	 2.116021035904623e+001
1	 1.129548345872747e+000	 1.539930417618116e-001	 2.081284398034523e+001
1	 1.127962645751250e+000	 1.652077604273181e-001	 2.046375300486077e+001
1	 1.126259812151637e+000	 1.764431173068045e-001	 2.011248471578996e+001
1	 1.124438970859326e+000	 1.876974544985343e-001	 1.975862655138320e+001
1	 1.122499275497582e+000	 1.989690861099370e-001	 1.940180772720566e+001
1	 1.120439908450877e+000	 2.102562987405380e-001	 1.904170082941737e+001
1	 1.118260081782081e+000	 2.215573519972832e-001	 1.867802337510875e+001
1	 1.141374463380391e+000	 1.100123433667813e-001	 2.200658962518396e+001
1	 1.140241443159786e+000	 1.211935152949279e-001	 2.164912823010281e+001
1	 1.138994383023984e+000	 1.324018263942670e-001	 2.129207797303477e+001
1	 1.137632301013091e+000	 1.436357258981184e-001	 2.093488465814239e+001
1	 1.136154239414550e+000	 1.548936332640130e-001	 2.057702946603808e+001
1	 1.134559265704902e+000	 1.661739385312600e-001	 2.021803063608403e+001
1	 1.132846473490027e+000	 1.774750027101520e-001	 1.985744513063822e+001
1	 1.131014983442705e+000	 1.887951582031090e-001	 1.949487027745921e+001
1	 1.129063944236374e+000	 2.001327092580198e-001	 1.912994538641280e+001
1	 1.126992533473878e+000	 2.114859324539956e-001	 1.876235333656022e+001
1	 1.124799958610022e+000	 2.228530772197078e-001	 1.839182212965561e+001
1	 1.148010708649726e+000	 1.106519834842415e-001	 2.182046360823728e+001
1	 1.146871100757412e+000	 1.218981656272922e-001	 2.145078877120345e+001
1	 1.145616789892503e+000	 1.331716447356734e-001	 2.108207423161110e+001
1	 1.144246788385735e+000	 1.444708610261476e-001	 2.071377539360246e+001
1	 1.142760132956160e+000	 1.557942247665646e-001	 2.034538322093649e+001
1	 1.141155885658386e+000	 1.671401166355072e-001	 1.997642591387509e+001
1	 1.139433134828280e+000	 1.785068881137599e-001	 1.960647056744549e+001
1	 1.137590996025985e+000	 1.898928619079004e-001	 1.923512480728199e+001
1	 1.135628612975103e+000	 2.012963324062776e-001	 1.886203839918064e+001
1	 1.133545158496847e+000	 2.127155661675897e-001	 1.848690482843939e+001
1	 1.131339835437960e+000	 2.241488024422355e-001	 1.810946284500428e+001
1	 1.154646953919056e+000	 1.112916236020372e-001	 2.163839792737144e+001
1	 1.153500758354994e+000	 1.226028159599707e-001	 2.125648762566307e+001
1	 1.152239196760960e+000	 1.339414630773691e-001	 2.087608195237418e+001
1	 1.150861275758315e+000	 1.453059961544390e-001	 2.049664648433428e+001
1	 1.149366026497716e+000	 1.566948162693496e-001	 2.011768250152126e+001
1	 1.147752505611837e+000	 1.681062947399582e-001	 1.973872865685842e+001
1	 1.146019796166525e+000	 1.795387735175415e-001	 1.935936262684474e+001
1	 1.144167008609286e+000	 1.909905656128361e-001	 1.897920273921642e+001
1	 1.142193281713881e+000	 2.024599555546521e-001	 1.859790957376777e+001
1	 1.140097783519889e+000	 2.139451998812751e-001	 1.821518753240061e+001
1	 1.137879712265981e+000	 2.254445276648321e-001	 1.783078637442039e+001
1	 1.161283199188487e+000	 1.119312637200008e-001	 2.146011830754151e+001
1	 1.160130415952655e+000	 1.233074662928062e-001	 2.106596579136197e+001
1	 1.158861603629487e+000	 1.347112814192096e-001	 2.067385666538294e+001
1	 1.157475763130969e+000	 1.461411312828616e-001	 2.028326724566422e+001
1	 1.155971920039361e+000	 1.575954077722513e-001	 1.989370965581753e+001
1	 1.154349125565392e+000	 1.690724728445110e-001	 1.950473348805357e+001
1	 1.152606457504896e+000	 1.805706589214098e-001	 1.911592744454725e+001
1	 1.150743021192733e+000	 1.920882693178441e-001	 1.872692095531621e+001
1	 1.148757950452820e+000	 2.036235787030848e-001	 1.833738576874046e+001
1	 1.146650408543099e+000	 2.151748335950061e-001	 1.794703751079267e+001
1	 1.144419589094169e+000	 2.267402528874632e-001	 1.755563720899849e+001
1	 1.167919444458127e+000	 1.125709038379644e-001	 2.128535670754578e+001
1	 1.166760073550517e+000	 1.240121166256418e-001	 2.087897015289438e+001
1	 1.165484010498218e+000	 1.354810997610502e-001	 2.047515945711687e+001
1	 1.164090250503835e+000	 1.469762664112842e-001	 2.007341223602207e+001
1	 1.162577813581231e+000	 1.584959992751530e-001	 1.967325197874118e+001
1	 1.160945745519189e+000	 1.700386509490637e-001	 1.927423969837966e+001
1	 1.159193118843525e+000	 1.816025443252784e-001	 1.887597556249855e+001
1	 1.157319033776447e+000	 1.931859730228520e-001	 1.847810049962176e+001
1	 1.155322619192032e+000	 2.047872018515176e-001	 1.808029777790124e+001
1	 1.153203033566577e+000	 2.164044673087370e-001	 1.768229455201290e+001
1	 1.150959465922610e+000	 2.280359781100943e-001	 1.728386337430927e+001
1	 1.174555689728082e+000	 1.132105439557603e-001	 2.111385114391949e+001
1	 1.173389731148702e+000	 1.247167669583204e-001	 2.069525331526864e+001
1	 1.172106417367284e+000	 1.362509181027461e-001	 2.027975681350699e+001
1	 1.170704737877052e+000	 1.478114015395757e-001	 1.986686110882300e+001
1	 1.169183707123466e+000	 1.593965907779380e-001	 1.945610157234895e+001
1	 1.167542365473366e+000	 1.710048290535147e-001	 1.904705111478699e+001
1	 1.165779780182542e+000	 1.826344297290600e-001	 1.863932180440195e+001
1	 1.163895046360552e+000	 1.942836767277877e-001	 1.823256646058385e+001
1	 1.161887287931629e+000	 2.059508249998921e-001	 1.782648021911812e+001
1	 1.159755658590425e+000	 2.176341010224225e-001	 1.742080206524607e+001
1	 1.157499342751388e+000	 2.293317033326910e-001	 1.701531633055030e+001
1	 1.181191934998460e+000	 1.138501840732206e-001	 2.094534552076529e+001
1	 1.180019388747333e+000	 1.254214172906848e-001	 2.051457344321324e+001
1	 1.178728824236818e+000	 1.370207364441525e-001	 2.008742046825816e+001
1	 1.177319225250758e+000	 1.486465366676050e-001	 1.966339846934287e+001
1	 1.175789600666207e+000	 1.602971822804898e-001	 1.924205521079957e+001
1	 1.174138985428059e+000	 1.719710071577622e-001	 1.882297597283381e+001
1	 1.172366441522077e+000	 1.836663151326680e-001	 1.840578515543848e+001
1	 1.170471058945171e+000	 1.953813804325792e-001	 1.799014785745079e+001
1	 1.168451956671723e+000	 2.071144481481499e-001	 1.757577142690161e+001
1	 1.166308283614738e+000	 2.188637347360168e-001	 1.716240697875156e+001
1	 1.164039219580586e+000	 2.306274285552188e-001	 1.674985087606289e+001
1	 1.187828180269368e+000	 1.144898241901776e-001	 2.077958946528761e+001
1	 1.186649046346531e+000	 1.261260676225780e-001	 2.033669410586959e+001
1	 1.185351231106953e+000	 1.377905547851248e-001	 1.989792725625587e+001
1	 1.183933712625089e+000	 1.494816717952408e-001	 1.946281373639101e+001
1	 1.182395494209592e+000	 1.611977737826913e-001	 1.903091420984142e+001
1	 1.180735605383405e+000	 1.729371852617042e-001	 1.860182679353476e+001
1	 1.178953102862265e+000	 1.846982005360155e-001	 1.817518864601836e+001
1	 1.177047071530428e+000	 1.964790841371540e-001	 1.775067753046393e+001
1	 1.175016625412426e+000	 2.082780712962329e-001	 1.732801334858243e+001
1	 1.172860908639617e+000	 2.200933684494743e-001	 1.690695964156021e+001
1	 1.170579096410293e+000	 2.319231537776434e-001	 1.648732505408298e+001
1	 1.194464425540913e+000	 1.151294643064634e-001	 2.061633816880983e+001
1	 1.193278703946419e+000	 1.268307179538431e-001	 2.016138412666201e+001
1	 1.191973637977820e+000	 1.385603731255182e-001	 1.971105897185971e+001
1	 1.190548200000185e+000	 1.503168069223521e-001	 1.926490100859433e+001
1	 1.189001387753761e+000	 1.620983652844261e-001	 1.882248430065101e+001
1	 1.187332225339542e+000	 1.739033633652391e-001	 1.838342026431428e+001
1	 1.185539764203236e+000	 1.857300859390158e-001	 1.794735923940796e+001
1	 1.183623084116445e+000	 1.975767878414401e-001	 1.751399203471357e+001
1	 1.181581294153850e+000	 2.094416944440826e-001	 1.708305144395034e+001
1	 1.179413533665163e+000	 2.213230021627496e-001	 1.665431372844795e+001
1	 1.177118973240590e+000	 2.332188789999303e-001	 1.622760006260049e+001
1	 1.111720204954052e+000	 2.202616267749964e-001	 1.896822947292778e+001
1	 1.109432266328881e+000	 2.315102792902392e-001	 1.860850926305554e+001
1	 1.107023062513533e+000	 2.427691529314909e-001	 1.824749247933611e+001
1	 1.104491904764940e+000	 2.540364368758318e-001	 1.788503692379683e+001
1	 1.101838137444058e+000	 2.653102957682796e-001	 1.752104577151043e+001
1	 1.099061138879598e+000	 2.765888703972085e-001	 1.715546881421648e+001
1	 1.096160322218095e+000	 2.878702784020723e-001	 1.678830365317537e+001
1	 1.093135136259025e+000	 2.991526150132511e-001	 1.641959683752512e+001
1	 1.089985066273683e+000	 3.104339538237795e-001	 1.604944494443869e+001
1	 1.086709634806486e+000	 3.217123475926619e-001	 1.567799559741556e+001
1	 1.083308402457412e+000	 3.329858290794202e-001	 1.530544841909216e+001
1	 1.118260081782081e+000	 2.215573519972832e-001	 1.867802337510875e+001
1	 1.115958683982159e+000	 2.328721765597173e-001	 1.831212376134463e+001
1	 1.113535307629694e+000	 2.441972823756040e-001	 1.794550774820293e+001
1	 1.110989259929962e+000	 2.555308479695610e-001	 1.757803156275781e+001
1	 1.108319881387002e+000	 2.668710271898299e-001	 1.720959586231367e+001
1	 1.105526546672431e+000	 2.782159498876675e-001	 1.684014696496000e+001
1	 1.102608665480506e+000	 2.895637226292336e-001	 1.646967803050539e+001
1	 1.099565683368168e+000	 3.009124294397891e-001	 1.609823018811112e+001
1	 1.096397082578721e+000	 3.122601325799638e-001	 1.572589360696949e+001
1	 1.093102382847858e+000	 3.236048733537980e-001	 1.535280850640671e+001
1	 1.089681142190702e+000	 3.349446729481994e-001	 1.497916610183989e+001
1	 1.124799958610022e+000	 2.228530772197078e-001	 1.839182212965561e+001
1	 1.122485101635380e+000	 2.342340738292960e-001	 1.801967072198008e+001
1	 1.120047552745821e+000	 2.456254118197871e-001	 1.764737051658551e+001
1	 1.117486615094961e+000	 2.570252590633344e-001	 1.727477735500968e+001
1	 1.114801625329930e+000	 2.684317586114020e-001	 1.690179057060568e+001
1	 1.111991954465246e+000	 2.798430293781279e-001	 1.652835420430216e+001
1	 1.109057008742898e+000	 2.912571668563763e-001	 1.615445817185138e+001
1	 1.105996230477284e+000	 3.026722438662866e-001	 1.578013937893675e+001
1	 1.102809098883724e+000	 3.140863113360828e-001	 1.540548278053509e+001
1	 1.099495130889186e+000	 3.254973991148397e-001	 1.503062238096402e+001
1	 1.096053881923943e+000	 3.369035168168484e-001	 1.465574217108997e+001
1	 1.131339835437960e+000	 2.241488024422355e-001	 1.810946284500428e+001
1	 1.129011519288615e+000	 2.355959710989502e-001	 1.773099565435327e+001
1	 1.126559797861965e+000	 2.470535412640225e-001	 1.735293463812262e+001
1	 1.123983970259976e+000	 2.585196701571410e-001	 1.697513642448228e+001
1	 1.121283369272862e+000	 2.699924900329905e-001	 1.659750019927462e+001
1	 1.118457362258052e+000	 2.814701088685894e-001	 1.621996890526707e+001
1	 1.115505352005261e+000	 2.929506110835045e-001	 1.584253039396209e+001
1	 1.112426777586352e+000	 3.044320582927537e-001	 1.546521852639080e+001
1	 1.109221115188658e+000	 3.159124900921532e-001	 1.508811421933825e+001
1	 1.105887878930430e+000	 3.273899248758108e-001	 1.471134643348338e+001
1	 1.102426621657084e+000	 3.388623606853999e-001	 1.433509309997902e+001
1	 1.137879712265981e+000	 2.254445276648321e-001	 1.783078637442039e+001
1	 1.135537936941932e+000	 2.369578683686545e-001	 1.744594761954960e+001
1	 1.133072042978181e+000	 2.484816707082929e-001	 1.706205732631525e+001
1	 1.130481325425043e+000	 2.600140812509698e-001	 1.667897406483599e+001
1	 1.127765113215821e+000	 2.715532214545899e-001	 1.629659803290740e+001
1	 1.124922770050853e+000	 2.830971883590515e-001	 1.591487223704750e+001
1	 1.121953695267586e+000	 2.946440553106234e-001	 1.553378362713098e+001
1	 1.118857324695349e+000	 3.061918727192005e-001	 1.515336418109546e+001
1	 1.115633131493490e+000	 3.177386688481909e-001	 1.477369193622415e+001
1	 1.112280626971544e+000	 3.292824506367341e-001	 1.439489196354160e+001
1	 1.108799361390078e+000	 3.408212045538863e-001	 1.401713728190245e+001
1	 1.144419589094169e+000	 2.267402528874632e-001	 1.755563720899849e+001
1	 1.142064354595402e+000	 2.383197656383841e-001	 1.716437912886625e+001
1	 1.139584288094523e+000	 2.499098001525808e-001	 1.677459905852536e+001
1	 1.136978680590200e+000	 2.615084923448095e-001	 1.638615864889315e+001
1	 1.134246857158827e+000	 2.731139528761949e-001	 1.599896025259367e+001
1	 1.131388177843655e+000	 2.847242678495141e-001	 1.561294808511009e+001
1	 1.128402038529864e+000	 2.963374995377376e-001	 1.522810934051958e+001
1	 1.125287871804252e+000	 3.079516871456371e-001	 1.484447525835323e+001
1	 1.122045147798187e+000	 3.195648476042122e-001	 1.446212213814445e+001
1	 1.118673375012487e+000	 3.311749763976341e-001	 1.408117229825953e+001
1	 1.115172101122873e+000	 3.427800484223402e-001	 1.370179497564723e+001
1	 1.150959465922610e+000	 2.280359781100943e-001	 1.728386337430927e+001
1	 1.148590772249093e+000	 2.396816629081137e-001	 1.688614604578956e+001
1	 1.146096533211043e+000	 2.513379295968686e-001	 1.649042348324782e+001
1	 1.143476035755483e+000	 2.630029034386492e-001	 1.609656154115742e+001
1	 1.140728601101902e+000	 2.746746842977998e-001	 1.570446585363450e+001
1	 1.137853585636464e+000	 2.863513473399765e-001	 1.531408297402445e+001
1	 1.134850381792088e+000	 2.980309437648520e-001	 1.492540147002689e+001
1	 1.131718418913041e+000	 3.097115015720739e-001	 1.453845297096487e+001
1	 1.128457164102715e+000	 3.213910263602336e-001	 1.415331316382131e+001
1	 1.125066123053217e+000	 3.330675021585340e-001	 1.377010273469837e+001
1	 1.121544840855421e+000	 3.447388922907940e-001	 1.338898825239470e+001
1	 1.157499342751388e+000	 2.293317033326910e-001	 1.701531633055030e+001
1	 1.155117189903074e+000	 2.410435601778181e-001	 1.661110749129566e+001
1	 1.152608778327796e+000	 2.527660590411391e-001	 1.620939733052568e+001
1	 1.149973390920931e+000	 2.644973145324779e-001	 1.581005701329848e+001
1	 1.147210345045066e+000	 2.762354157193993e-001	 1.541299656604083e+001
1	 1.144318993429285e+000	 2.879784268304386e-001	 1.501816599290825e+001
1	 1.141298725054246e+000	 2.997243879919708e-001	 1.462555634860386e+001
1	 1.138148966021693e+000	 3.114713159985207e-001	 1.423520076432489e+001
1	 1.134869180407041e+000	 3.232172051162712e-001	 1.384717542352478e+001
1	 1.131458871093689e+000	 3.349600279194575e-001	 1.346160048420874e+001
1	 1.127917580587672e+000	 3.466977361592805e-001	 1.307864094452061e+001
1	 1.164039219580586e+000	 2.306274285552188e-001	 1.674985087606290e+001
1	 1.161643607557417e+000	 2.424054574474723e-001	 1.633912575234298e+001
1	 1.159121023444835e+000	 2.541941884853745e-001	 1.593139032538520e+001
1	 1.156470746086581e+000	 2.659917256262845e-001	 1.552652216248588e+001
1	 1.153692088988342e+000	 2.777961471409877e-001	 1.512443677771161e+001
1	 1.150784401222125e+000	 2.896055063209001e-001	 1.472508872338568e+001
1	 1.147747068316332e+000	 3.014178322190992e-001	 1.432847263891680e+001
1	 1.144579513130186e+000	 3.132311304249878e-001	 1.393462425370508e+001
1	 1.141281196711131e+000	 3.250433838723414e-001	 1.354362134088028e+001
1	 1.137851619133862e+000	 3.368525536804284e-001	 1.315558461865570e+001
1	 1.134290320319577e+000	 3.486565800278318e-001	 1.277067859612068e+001
1	 1.170579096410293e+000	 2.319231537776434e-001	 1.648732505408298e+001
1	 1.168170025212190e+000	 2.437673547170510e-001	 1.607006619343266e+001
1	 1.165633268562213e+000	 2.556223179295575e-001	 1.565627510417300e+001
1	 1.162968101252469e+000	 2.674861367200581e-001	 1.524583683246039e+001
1	 1.160173832931750e+000	 2.793568785625599e-001	 1.483867346018741e+001
1	 1.157249809014989e+000	 2.912325858113606e-001	 1.443474516996078e+001
1	 1.154195411578337e+000	 3.031112764462416e-001	 1.403405126826841e+001
1	 1.151010060238497e+000	 3.149909448514852e-001	 1.363663116364026e+001
1	 1.147693213014952e+000	 3.268695626284606e-001	 1.324256529662667e+001
1	 1.144244367173692e+000	 3.387450794414700e-001	 1.285197601844636e+001
1	 1.140663060051086e+000	 3.506154238964809e-001	 1.246502841519466e+001
1	 1.177118973240590e+000	 2.332188789999303e-001	 1.622760006260049e+001
1	 1.174696442867462e+000	 2.451292519865292e-001	 1.580379717111668e+001
1	 1.172145513679984e+000	 2.570504473736707e-001	 1.538392713368175e+001
1	 1.169465456418633e+000	 2.689805478137872e-001	 1.496788353723639e+001
1	 1.166655576875310e+000	 2.809176099841100e-001	 1.455559609687893e+001
1	 1.163715216807882e+000	 2.928596653018195e-001	 1.414703169271171e+001
1	 1.160643754840250e+000	 3.048047206734029e-001	 1.374219536568777e+001
1	 1.157440607346606e+000	 3.167507592780232e-001	 1.334113126933453e+001
1	 1.154105229318469e+000	 3.286957413846448e-001	 1.294392357424920e+001
1	 1.150637115213138e+000	 3.406376052026062e-001	 1.255069732229003e+001
1	 1.147035799782149e+000	 3.525742677652601e-001	 1.216161922742456e+001
1	 1.083308402457412e+000	 3.329858290794202e-001	 1.530544841909216e+001
1	 1.079780968373366e+000	 3.442524117444685e-001	 1.492823773391754e+001
1	 1.076126970175029e+000	 3.555100901335350e-001	 1.454278390918428e+001
1	 1.072346085486329e+000	 3.667568412696645e-001	 1.414933744650935e+001
1	 1.068438032900888e+000	 3.779906257690122e-001	 1.374819237606984e+001
1	 1.064402572652689e+000	 3.892093888243871e-001	 1.333968682047599e+001
1	 1.060239507260171e+000	 4.004110612167509e-001	 1.292420349619082e+001
1	 1.055948682142524e+000	 4.115935603539074e-001	 1.250217015006840e+001
1	 1.051529986206963e+000	 4.227547913355571e-001	 1.207405992868256e+001
1	 1.046983352405783e+000	 4.338926480438310e-001	 1.164039167822685e+001
1	 1.042308758262027e+000	 4.450050142583599e-001	 1.120173017288477e+001
1	 1.089681142190702e+000	 3.349446729481994e-001	 1.497916610183989e+001
1	 1.086132957396064e+000	 3.462775331374385e-001	 1.460130803991493e+001
1	 1.082457463952872e+000	 3.576014366698349e-001	 1.421557851856370e+001
1	 1.078654337588626e+000	 3.689143486679464e-001	 1.382224447927503e+001
1	 1.074723295241534e+000	 3.802142177509245e-001	 1.342161750601441e+001
1	 1.070664095735121e+000	 3.914989770238443e-001	 1.301405437937782e+001
1	 1.066476540426113e+000	 4.027665450951535e-001	 1.259995756600406e+001
1	 1.062160473824358e+000	 4.140148271214729e-001	 1.217977564079116e+001
1	 1.057715784183553e+000	 4.252417158789146e-001	 1.175400363956770e+001
1	 1.053142404061580e+000	 4.364450928600323e-001	 1.132318333998367e+001
1	 1.048440310849263e+000	 4.476228293954507e-001	 1.088790346850961e+001
1	 1.096053881923943e+000	 3.369035168168484e-001	 1.465574217108997e+001
1	 1.092484946418709e+000	 3.483026545302352e-001	 1.427710434757084e+001
1	 1.088787957730661e+000	 3.596927832059129e-001	 1.389098839296957e+001
1	 1.084962589690872e+000	 3.710718560659539e-001	 1.349767612283335e+001
1	 1.081008557582138e+000	 3.824378097325087e-001	 1.309749500071097e+001
1	 1.076925618817523e+000	 3.937885652229204e-001	 1.269081868347172e+001
1	 1.072713573592043e+000	 4.051220289731259e-001	 1.227806749979311e+001
1	 1.068372265506201e+000	 4.164360938885641e-001	 1.185970885933995e+001
1	 1.063901582160182e+000	 4.277286404217616e-001	 1.143625759026492e+001
1	 1.059301455717451e+000	 4.389975376756976e-001	 1.100827620278128e+001
1	 1.054571863436613e+000	 4.502406445319922e-001	 1.057637507668610e+001
1	 1.102426621657084e+000	 3.388623606853999e-001	 1.433509309997902e+001
1	 1.098836935441248e+000	 3.503277759229020e-001	 1.395554962287232e+001
1	 1.095118451508342e+000	 3.617841297418243e-001	 1.356894168212537e+001
1	 1.091270841793014e+000	 3.732293634637550e-001	 1.317556442850586e+001
1	 1.087293819922646e+000	 3.846614017138453e-001	 1.277575955925073e+001
1	 1.083187141899845e+000	 3.960781534217086e-001	 1.236991585542485e+001
1	 1.078950606757912e+000	 4.074775128507713e-001	 1.195846965055806e+001
1	 1.074584057188009e+000	 4.188573606552926e-001	 1.154190522805848e+001
1	 1.070087380136804e+000	 4.302155649642157e-001	 1.112075514501616e+001
1	 1.065460507373347e+000	 4.415499824909460e-001	 1.069560048013209e+001
1	 1.060703416024027e+000	 4.528584596681014e-001	 1.026707100364351e+001
1	 1.108799361390078e+000	 3.408212045538863e-001	 1.401713728190245e+001
1	 1.105188924463627e+000	 3.523528973154823e-001	 1.363656860279680e+001
1	 1.101448945285859e+000	 3.638754762776243e-001	 1.324936818757226e+001
1	 1.097579093894998e+000	 3.753868708614180e-001	 1.285584300973539e+001
1	 1.093579082263007e+000	 3.868849936950154e-001	 1.245634738197447e+001
1	 1.089448664982036e+000	 3.983677416203010e-001	 1.205128348642637e+001
1	 1.085187639923671e+000	 4.098329967281923e-001	 1.164110183452539e+001
1	 1.080795848869734e+000	 4.212786274217700e-001	 1.122630165391222e+001
1	 1.076273178113373e+000	 4.327024895063936e-001	 1.080743119999990e+001
1	 1.071619559029224e+000	 4.441024273058965e-001	 1.038508798991918e+001
1	 1.066834968611455e+000	 4.554762748038950e-001	 9.959918956705716e+000
1	 1.115172101122873e+000	 3.427800484223402e-001	 1.370179497564723e+001
1	 1.111540913485793e+000	 3.543780187080192e-001	 1.332008774470952e+001
1	 1.107779439063159e+000	 3.659668228133682e-001	 1.293219931547198e+001
1	 1.103887345996768e+000	 3.775443782590106e-001	 1.253844699745155e+001
1	 1.099864344603168e+000	 3.891085856760994e-001	 1.213919612757779e+001
1	 1.095710188064046e+000	 4.006573298187909e-001	 1.173486059422749e+001
1	 1.091424673089274e+000	 4.121884806054927e-001	 1.132590328933945e+001
1	 1.087007640551330e+000	 4.236998941881077e-001	 1.091283648606835e+001
1	 1.082458976089844e+000	 4.351894140484124e-001	 1.049622213955933e+001
1	 1.077778610685035e+000	 4.466548721206683e-001	 1.007667210855450e+001
1	 1.072966521198848e+000	 4.580940899394900e-001	 9.654848295685554e+000
1	 1.121544840855421e+000	 3.447388922907940e-001	 1.338898825239470e+001
1	 1.117892902507692e+000	 3.564031401005560e-001	 1.300603517748647e+001
1	 1.114109932840187e+000	 3.680581693491115e-001	 1.261736803101860e+001
1	 1.110195598098271e+000	 3.797018856566009e-001	 1.222331299695823e+001
1	 1.106149606943075e+000	 3.913321776571785e-001	 1.182424487167808e+001
1	 1.101971711145824e+000	 4.029469180172705e-001	 1.142058758261194e+001
1	 1.097661706254673e+000	 4.145439644827758e-001	 1.101281463367923e+001
1	 1.093219432232752e+000	 4.261211609544177e-001	 1.060144947492219e+001
1	 1.088644774066171e+000	 4.376763385903897e-001	 1.018706579392286e+001
1	 1.083937662340732e+000	 4.492073169353807e-001	 9.770287726700577e+000
1	 1.079098073786155e+000	 4.607119050750032e-001	 9.351789985937025e+000
1	 1.127917580587672e+000	 3.466977361592805e-001	 1.307864094452061e+001
1	 1.124244891529271e+000	 3.584282614931360e-001	 1.269434065429396e+001
1	 1.120440426616887e+000	 3.701495158849096e-001	 1.230480881439578e+001
1	 1.116503850199452e+000	 3.818593930542572e-001	 1.191037904628217e+001
1	 1.112434869282676e+000	 3.935557696383331e-001	 1.151143406678662e+001
1	 1.108233234227320e+000	 4.052365062158326e-001	 1.110840620224067e+001
1	 1.103898739419819e+000	 4.168994483601445e-001	 1.070177782824398e+001
1	 1.099431223913954e+000	 4.285424277208114e-001	 1.029208173251233e+001
1	 1.094830572042310e+000	 4.401632631324423e-001	 9.879901398357642e+000
1	 1.090096713996271e+000	 4.517597617501527e-001	 9.465871206492619e+000
1	 1.085229626373328e+000	 4.633297202105512e-001	 9.050676552998571e+000
1	 1.134290320319577e+000	 3.486565800278318e-001	 1.277067859612068e+001
1	 1.130596880550478e+000	 3.604533828858025e-001	 1.238493550696030e+001
1	 1.126770920393204e+000	 3.722408624208176e-001	 1.199445761821863e+001
1	 1.122812102300257e+000	 3.840169004520475e-001	 1.159958457592616e+001
1	 1.118720131621920e+000	 3.957793616196440e-001	 1.120070550362968e+001
1	 1.114494757308485e+000	 4.075260944145701e-001	 1.079825951281604e+001
1	 1.110135772584664e+000	 4.192549322377019e-001	 1.039273613805418e+001
1	 1.105643015594889e+000	 4.309636944874003e-001	 9.984675694270315e+000
1	 1.101016370018216e+000	 4.426501876746876e-001	 9.574669553700424e+000
1	 1.096255765651604e+000	 4.543122065651033e-001	 9.163360340203012e+000
1	 1.091361178960316e+000	 4.659475353462514e-001	 8.751442038765504e+000
1	 1.140663060051086e+000	 3.506154238964809e-001	 1.246502841519466e+001
1	 1.136948869571257e+000	 3.624785042785987e-001	 1.207775260187667e+001
1	 1.133101414169086e+000	 3.743322089568911e-001	 1.168625182640230e+001
1	 1.129120354400631e+000	 3.861744078500397e-001	 1.129087036997093e+001
1	 1.125005393960751e+000	 3.980029536011917e-001	 1.089200227376638e+001
1	 1.120756280389266e+000	 4.098156826135754e-001	 1.049009184651480e+001
1	 1.116372805749162e+000	 4.216104161155515e-001	 1.008563409601598e+001
1	 1.111854807275511e+000	 4.333849612542963e-001	 9.679175082052465e+000
1	 1.107202167993842e+000	 4.451371122172426e-001	 9.271312188210905e+000
1	 1.102414817306685e+000	 4.568646513803520e-001	 8.862694310291367e+000
1	 1.097492731547069e+000	 4.685653504822201e-001	 8.454021959131456e+000
1	 1.147035799782149e+000	 3.525742677652601e-001	 1.216161922742456e+001
1	 1.143300858591557e+000	 3.645036256715679e-001	 1.177272629736830e+001
1	 1.139431907944475e+000	 3.764235554931851e-001	 1.138013021440161e+001
1	 1.135428606500522e+000	 3.883319152483018e-001	 1.098417852847381e+001
1	 1.131290656299120e+000	 4.002265455830573e-001	 1.058526873345260e+001
1	 1.127017803469615e+000	 4.121052708129412e-001	 1.018384877263967e+001
1	 1.122609838913262e+000	 4.239658999937964e-001	 9.780417467700548e+000
1	 1.118066598955774e+000	 4.358062280216105e-001	 9.375524868403996e+000
1	 1.113387965969144e+000	 4.476240367602244e-001	 8.969772520697260e+000
1	 1.108573868961468e+000	 4.594170961960175e-001	 8.563813650786118e+000
1	 1.103624284133538e+000	 4.711831656185747e-001	 8.158353263041903e+000
1	 1.042308758262027e+000	 4.450050142583599e-001	 1.120173017288477e+001
1	 1.037506956432366e+000	 4.560881044353323e-001	 1.075274493218904e+001
1	 1.032577324110273e+000	 4.671414557548592e-001	 1.028774858715989e+001
1	 1.027519976101599e+000	 4.781629301589312e-001	 9.807011753194464e+000
1	 1.022335073517847e+000	 4.891503841983316e-001	 9.310816092057964e+000
1	 1.017022824127247e+000	 5.001016702530479e-001	 8.799454434937180e+000
1	 1.011583482668233e+000	 5.110146377703450e-001	 8.273230895648911e+000
1	 1.006017351124410e+000	 5.218871345191709e-001	 7.732460973486858e+000
1	 1.000324778960203e+000	 5.327170078595428e-001	 7.177471645198073e+000
1	 9.945061633163868e-001	 5.435021060254974e-001	 6.608601445592093e+000
1	 9.885619491647814e-001	 5.542402794201590e-001	 6.026200536295638e+000
1	 1.048440310849263e+000	 4.476228293954507e-001	 1.088790346850962e+001
1	 1.043610261630902e+000	 4.587711176722781e-001	 1.044259141914909e+001
1	 1.038651629936216e+000	 4.698894921480004e-001	 9.981278044949100e+000
1	 1.033564531246422e+000	 4.809758021871166e-001	 9.504195179289342e+000
1	 1.028349127620793e+000	 4.920278917312020e-001	 9.011582574276831e+000
1	 1.023005628049796e+000	 5.030436005265029e-001	 8.503688055632642e+000
1	 1.017534288770408e+000	 5.140207653692878e-001	 7.980767673785549e+000
1	 1.011935413542708e+000	 5.249572213676379e-001	 7.443085850675724e+000
1	 1.006209353886907e+000	 5.358508032182960e-001	 6.890915521766855e+000
1	 1.000356509280032e+000	 5.466993464971669e-001	 6.324538272756790e+000
1	 9.943773273115255e-001	 5.575006889620030e-001	 5.744244470478926e+000
1	 1.054571863436613e+000	 4.502406445319922e-001	 1.057637507668610e+001
1	 1.049713566829601e+000	 4.614541309086755e-001	 1.013471590868141e+001
1	 1.044725935762374e+000	 4.726375285406066e-001	 9.677028830571279e+000
1	 1.039609086391518e+000	 4.837886742147888e-001	 9.203511713690840e+000
1	 1.034363181724073e+000	 4.949053992635883e-001	 8.714367550756695e+000
1	 1.028988431972739e+000	 5.059855307995048e-001	 8.209804638737218e+000
1	 1.023485094873038e+000	 5.170268929678101e-001	 7.690036763354598e+000
1	 1.017853475961520e+000	 5.280273082157136e-001	 7.155283384742600e+000
1	 1.012093928814182e+000	 5.389845985766819e-001	 6.605769823762175e+000
1	 1.006206855244298e+000	 5.498965869684839e-001	 6.041727448460064e+000
1	 1.000192705458934e+000	 5.607610985034969e-001	 5.463393860137108e+000
1	 1.060703416024027e+000	 4.528584596681014e-001	 1.026707100364350e+001
1	 1.055816872028405e+000	 4.641371441446345e-001	 9.829041696498155e+000
1	 1.050800241588682e+000	 4.753855649327762e-001	 9.374925504118847e+000
1	 1.045653641536810e+000	 4.866015462420331e-001	 8.904891079023416e+000
1	 1.040377235827597e+000	 4.977829067955587e-001	 8.419109723958755e+000
1	 1.034971235895975e+000	 5.089274610721060e-001	 7.917755598937812e+000
1	 1.029435900976008e+000	 5.200330205659460e-001	 7.401005934714370e+000
1	 1.023771538380718e+000	 5.310973950634157e-001	 6.869041252235773e+000
1	 1.017978503741883e+000	 5.421183939347025e-001	 6.322045587583490e+000
1	 1.012057201209029e+000	 5.530938274394391e-001	 5.760206721880152e+000
1	 1.006008083606842e+000	 5.640215080446243e-001	 5.183716415612399e+000
1	 1.066834968611455e+000	 4.554762748038950e-001	 9.959918956705716e+000
1	 1.061920177227259e+000	 4.668201573802651e-001	 9.525493841719618e+000
1	 1.056874547415076e+000	 4.781336013246085e-001	 9.074894360024219e+000
1	 1.051698196682225e+000	 4.894144182689340e-001	 8.608264613566442e+000
1	 1.046391289931278e+000	 5.006604143271819e-001	 8.125749205555076e+000
1	 1.040954039819402e+000	 5.118693913443565e-001	 7.627493467882302e+000
1	 1.035386707079203e+000	 5.230391481637290e-001	 7.113643699172235e+000
1	 1.029689600800171e+000	 5.341674819107614e-001	 6.584347413015700e+000
1	 1.023863078669870e+000	 5.452521892923616e-001	 6.039753595906259e+000
1	 1.017907547174069e+000	 5.562910679100237e-001	 5.480012974353441e+000
1	 1.011823461755081e+000	 5.672819175853689e-001	 4.905278290606938e+000
1	 1.072966521198848e+000	 4.580940899394900e-001	 9.654848295685554e+000
1	 1.068023482426107e+000	 4.695031706156769e-001	 9.223999116488466e+000
1	 1.062948853241491e+000	 4.808816377162019e-001	 8.776863377504984e+000
1	 1.057742751827686e+000	 4.922272902955759e-001	 8.313565225090246e+000
1	 1.052405344035029e+000	 5.035379218585261e-001	 7.834227476163781e+000
1	 1.046936843742920e+000	 5.148113216163086e-001	 7.338971862264608e+000
1	 1.041337513182507e+000	 5.260452757611932e-001	 6.827919287813582e+000
1	 1.035607663219751e+000	 5.372375687577683e-001	 6.301190102159773e+000
1	 1.029747653597997e+000	 5.483859846496617e-001	 5.758904384932150e+000
1	 1.023757893139265e+000	 5.594883083802296e-001	 5.201182244170744e+000
1	 1.017638839903487e+000	 5.705423271257143e-001	 4.628144126661075e+000
1	 1.079098073786155e+000	 4.607119050750032e-001	 9.351789985937026e+000
1	 1.074126787624893e+000	 4.721861838509798e-001	 8.924485957301581e+000
1	 1.069023159067862e+000	 4.836296741076556e-001	 8.480762172697899e+000
1	 1.063787306973117e+000	 4.950401623220437e-001	 8.020727346265964e+000
1	 1.058419398138762e+000	 5.064154293896602e-001	 7.544487346456330e+000
1	 1.052919647666428e+000	 5.177532518880130e-001	 7.052145452997957e+000
1	 1.047288319285806e+000	 5.290514033583722e-001	 6.543802631052493e+000
1	 1.041525725639328e+000	 5.403076556044535e-001	 6.019557822143224e+000
1	 1.035632228526125e+000	 5.515197800066057e-001	 5.479508251390980e+000
1	 1.029608239104461e+000	 5.626855488500476e-001	 4.923749750528944e+000
1	 1.023454218051892e+000	 5.738027366656446e-001	 4.352377096114041e+000
1	 1.085229626373328e+000	 4.633297202105512e-001	 9.050676552998571e+000
1	 1.080230092823559e+000	 4.748691970862835e-001	 8.626884417992521e+000
1	 1.075097464894125e+000	 4.863777104990679e-001	 8.186521952415944e+000
1	 1.069831862118444e+000	 4.978530343484223e-001	 7.729686891587170e+000
1	 1.064433452242387e+000	 5.092929369206523e-001	 7.256472919583324e+000
1	 1.058902451589823e+000	 5.206951821595209e-001	 6.766969935433247e+000
1	 1.053239125388985e+000	 5.320575309553004e-001	 6.261264338875574e+000
1	 1.047443788058774e+000	 5.433777424508345e-001	 5.739439335284922e+000
1	 1.041516803454109e+000	 5.546535753631967e-001	 5.201575259305918e+000
1	 1.035458585069502e+000	 5.658827893194696e-001	 4.647749916670162e+000
1	 1.029269596200132e+000	 5.770631462051433e-001	 4.078038943609324e+000
1	 1.091361178960316e+000	 4.659475353462514e-001	 8.751442038765502e+000
1	 1.086333398022053e+000	 4.775522103216983e-001	 8.331126124297828e+000
1	 1.081171770720215e+000	 4.891257468905380e-001	 7.894075469464249e+000
1	 1.075876417263589e+000	 5.006659063747960e-001	 7.440381215743299e+000
1	 1.070447506345819e+000	 5.121704444515712e-001	 6.970129554867318e+000
1	 1.064885255513005e+000	 5.236371124308838e-001	 6.483402000581071e+000
1	 1.059189931491927e+000	 5.350636585520109e-001	 5.980275681752127e+000
1	 1.053361850477960e+000	 5.464478292969290e-001	 5.460823656448237e+000
1	 1.047401378381807e+000	 5.577873707194374e-001	 4.925115246530510e+000
1	 1.041308931034233e+000	 5.690800297884865e-001	 4.373216392241405e+000
1	 1.035084974348039e+000	 5.803235557441941e-001	 3.805190026200034e+000
1	 1.097492731547069e+000	 4.685653504822201e-001	 8.454021959131454e+000
1	 1.092436703220316e+000	 4.802352235573337e-001	 8.037144229947353e+000
1	 1.087246076546066e+000	 4.918737832821646e-001	 7.603356979453534e+000
1	 1.081920972408479e+000	 5.034787784012498e-001	 7.152749073388783e+000
1	 1.076461560448969e+000	 5.150479519824853e-001	 6.685403832712192e+000
1	 1.070868059435873e+000	 5.265790427021526e-001	 6.201399307298544e+000
1	 1.065140737594519e+000	 5.380697861485382e-001	 5.700808572183497e+000
1	 1.059279912896756e+000	 5.495179161427544e-001	 5.183700045986086e+000
1	 1.053285953309077e+000	 5.609211660753308e-001	 4.650137831066566e+000
1	 1.047159276998498e+000	 5.722772702570897e-001	 4.100182074904136e+000
1	 1.040900352495448e+000	 5.835839652827812e-001	 3.533889352110839e+000
1	 1.103624284133538e+000	 4.711831656185747e-001	 8.158353263041903e+000
1	 1.098540008418292e+000	 4.829182367932998e-001	 7.744873374217516e+000
1	 1.093320382371615e+000	 4.946218196740462e-001	 7.314302199053610e+000
1	 1.087965527553038e+000	 5.062916504278682e-001	 6.866730580253176e+000
1	 1.082475614551749e+000	 5.179254595134631e-001	 6.402243520682689e+000
1	 1.076850863358325e+000	 5.295209729733790e-001	 5.920920455403531e+000
1	 1.071091543696644e+000	 5.410759137449159e-001	 5.422835546868298e+000
1	 1.065197975315034e+000	 5.525880029883279e-001	 4.908058002921708e+000
1	 1.059170528235776e+000	 5.640549614308797e-001	 4.376652417171322e+000
1	 1.053009622962143e+000	 5.754745107252708e-001	 3.828679131223804e+000
1	 1.046715730642193e+000	 5.868443748208878e-001	 3.264194618206669e+000
1	 9.885619491647814e-001	 5.542402794201590e-001	 6.026200536295641e+000
1	 9.824917097073290e-001	 5.649309817611228e-001	 5.421772098893403e+000
1	 9.762968690995890e-001	 5.755704568108352e-001	 4.787312812894296e+000
1	 9.699780173860767e-001	 5.861565690314716e-001	 4.123670904337860e+000
1	 9.635357926610374e-001	 5.966871903522223e-001	 3.431712918721344e+000
1	 9.569708810090841e-001	 6.071602015023673e-001	 2.712322998904075e+000
1	 9.502840164019309e-001	 6.175734933469834e-001	 1.966402137772769e+000
1	 9.434759805509428e-001	 6.279249682236161e-001	 1.194867406769091e+000
1	 9.365476027153261e-001	 6.382125412782214e-001	 3.986511614448109e-001
1	 9.294997594658225e-001	 6.484341417986819e-001	-4.212997747321072e-001
1	 9.223333744038621e-001	 6.585877145441748e-001	-1.264024947043309e+000
1	 9.943773273115255e-001	 5.575006889620030e-001	 5.744244470478926e+000
1	 9.882713786726242e-001	 5.682542811167918e-001	 5.141505204837983e+000
1	 9.820400958967170e-001	 5.789563446273001e-001	 4.508386000328699e+000
1	 9.756840724993499e-001	 5.896047313930605e-001	 3.845829624510604e+000
1	 9.692039503284609e-001	 6.001973008245471e-001	 3.154802629561345e+000
1	 9.626004195046681e-001	 6.107319211840904e-001	 2.436294497142552e+000
1	 9.558742183173916e-001	 6.212064709294447e-001	 1.691316746973415e+000
1	 9.490261330765412e-001	 6.316188400583206e-001	 9.209020103932188e-001
1	 9.420569979195745e-001	 6.419669314521876e-001	 1.261030702924598e-001
1	 9.349676945738025e-001	 6.522486622176337e-001	-6.920081311262430e-001
1	 9.277591520738917e-001	 6.624619650235540e-001	-1.532341515206858e+000
1	 1.000192705458934e+000	 5.607610985034969e-001	 5.463393860137109e+000
1	 9.940510476386210e-001	 5.715775804720994e-001	 4.862257536777204e+000
1	 9.877833226945743e-001	 5.823422324433805e-001	 4.230493611431173e+000
1	 9.813901276133723e-001	 5.930528937542327e-001	 3.569133114340569e+000
1	 9.748721079966469e-001	 6.037074112964166e-001	 2.879235809769716e+000
1	 9.682299580010183e-001	 6.143036408653173e-001	 2.161889214215532e+000
1	 9.614644202336151e-001	 6.248394485113694e-001	 1.418207568223193e+000
1	 9.545762856028904e-001	 6.353127118924513e-001	 6.493307632693041e-001
1	 9.475663931245540e-001	 6.457213216255494e-001	-1.435767747066183e-001
1	 9.404356296824864e-001	 6.560631826359605e-001	-9.593272434272639e-001
1	 9.331849297445891e-001	 6.663362155023007e-001	-1.796710662250254e+000
1	 1.006008083606842e+000	 5.640215080446243e-001	 5.183716415612400e+000
1	 9.998307166051433e-001	 5.749008798270260e-001	 4.584125185500174e+000
1	 9.935265494929784e-001	 5.857281202590576e-001	 3.953753841329145e+000
1	 9.870961827279576e-001	 5.965010561149743e-001	 3.293715509319844e+000
1	 9.805402656654042e-001	 6.072175217678244e-001	 2.605156489624446e+000
1	 9.738594964979440e-001	 6.178753605460503e-001	 1.889255154192614e+000
1	 9.670546221504111e-001	 6.284724260927679e-001	 1.147220789086056e+000
1	 9.601264381298031e-001	 6.390065837260276e-001	 3.802923828786425e-001
1	 9.530757883300819e-001	 6.494757117983335e-001	-4.102626370822037e-001
1	 9.459035647916977e-001	 6.598777030536939e-001	-1.223149718633044e+000
1	 9.386107074157873e-001	 6.702104659804474e-001	-2.057048546916916e+000
1	 1.011823461755081e+000	 5.672819175853689e-001	 4.905278290606938e+000
1	 1.005610385572016e+000	 5.782241791815531e-001	 4.307202032698419e+000
1	 9.992697762917473e-001	 5.891140080743142e-001	 3.678282167880748e+000
1	 9.928022378429179e-001	 5.999492184752717e-001	 3.019707861207473e+000
1	 9.862084233345433e-001	 6.107276322387641e-001	 2.332705388192522e+000
1	 9.794890349952525e-001	 6.214470802262907e-001	 1.618536918576194e+000
1	 9.726448240675881e-001	 6.321054036736511e-001	 8.784992363193460e-001
1	 9.656765906570911e-001	 6.427004555590683e-001	 1.139223976306233e-001
1	 9.585851835359757e-001	 6.532301019705662e-001	-6.738316710063869e-001
1	 9.513714999012607e-001	 6.636922234708648e-001	-1.483370632673514e+000
1	 9.440364850873191e-001	 6.740847164580276e-001	-2.313273255435349e+000
1	 1.017638839903487e+000	 5.705423271257143e-001	 4.628144126661074e+000
1	 1.011390054539064e+000	 5.815474785356608e-001	 4.031579814086500e+000
1	 1.005013003090699e+000	 5.924998958891324e-001	 3.404191429315393e+000
1	 9.985082929580652e-001	 6.033973808351121e-001	 2.747238226140558e+000
1	 9.918765810038723e-001	 6.142377427092285e-001	 2.062020007940378e+000
1	 9.851185734927529e-001	 6.250187999060399e-001	 1.349875803522231e+000
1	 9.782350259849559e-001	 6.357383812540294e-001	 6.121824719016522e-001
1	 9.712267431845675e-001	 6.463943273915921e-001	-1.496467620163138e-001
1	 9.640945787420523e-001	 6.569844921422731e-001	-9.341638387004165e-001
1	 9.568394350109997e-001	 6.675067438875043e-001	-1.739887459866350e+000
1	 9.494622627590179e-001	 6.779589669350749e-001	-2.565304746445430e+000
1	 1.023454218051892e+000	 5.738027366656446e-001	 4.352377096114042e+000
1	 1.017169723506112e+000	 5.848707778893306e-001	 3.757348180370301e+000
1	 1.010756229889650e+000	 5.958857837034940e-001	 3.131591899226588e+000
1	 1.004214348073213e+000	 6.068455431944817e-001	 2.476431749741296e+000
1	 9.975447386732017e-001	 6.177478531792116e-001	 1.793234726119509e+000
1	 9.907481119902529e-001	 6.285905195852996e-001	 1.083409893747152e+000
1	 9.838252279023241e-001	 6.393713588339129e-001	 3.484068857868165e-001
1	 9.767768957120436e-001	 6.500881992236183e-001	-4.102856755402456e-001
1	 9.696039739481288e-001	 6.607388823134809e-001	-1.191141830655523e+000
1	 9.623073701207390e-001	 6.713212643036441e-001	-1.992600004777461e+000
1	 9.548880404307168e-001	 6.818332174116220e-001	-2.813064797802266e+000
1	 1.029269596200132e+000	 5.770631462051433e-001	 4.078038943609326e+000
1	 1.022949392472985e+000	 5.881940772425429e-001	 3.484594756148383e+000
1	 1.016499456688419e+000	 5.992716715173814e-001	 2.860591359023286e+000
1	 1.009920403188173e+000	 6.102937055533667e-001	 2.207410749339465e+000
1	 1.003212896342341e+000	 6.212579636487060e-001	 1.526480883053768e+000
1	 9.963776504875617e-001	 6.321622392640718e-001	 8.192741532507637e-001
1	 9.894154298195012e-001	 6.430043364133122e-001	 8.730578551411833e-002
1	 9.823270482393317e-001	 6.537820710551658e-001	-6.678678473247764e-001
1	 9.751133691540227e-001	 6.644932724842148e-001	-1.444650988560197e+000
1	 9.677753052303022e-001	 6.751357847193149e-001	-2.241410336391545e+000
1	 9.603138181022493e-001	 6.857074678877024e-001	-3.056476955183073e+000
1	 1.035084974348039e+000	 5.803235557441941e-001	 3.805190026200034e+000
1	 1.028729061439508e+000	 5.915173765952791e-001	 3.213405196827821e+000
1	 1.022242683486824e+000	 6.026575593307760e-001	 2.591295167938226e+000
1	 1.015626458302758e+000	 6.137418679117540e-001	 1.940294793421874e+000
1	 1.008881054011098e+000	 6.247680741177057e-001	 1.261886867450430e+000
1	 1.002007188984487e+000	 6.357339589423576e-001	 5.576005129814938e-001
1	 9.950056317362974e-001	 6.466373139922383e-001	-1.709905172033303e-001
1	 9.878772007662450e-001	 6.574759428862534e-001	-9.222696244950895e-001
1	 9.806227643595509e-001	 6.682476626545023e-001	-1.694579230823805e+000
1	 9.732432403395136e-001	 6.789503051345484e-001	-2.486222724501455e+000
1	 9.657395957734473e-001	 6.895817183633489e-001	-3.295466482427023e+000
1	 1.040900352495448e+000	 5.835839652827812e-001	 3.533889352110841e+000
1	 1.034508730405505e+000	 5.948406759475194e-001	 2.943863243632822e+000
1	 1.027985910284681e+000	 6.060434471436605e-001	 2.323806330690232e+000
1	 1.021332513416781e+000	 6.171900302696303e-001	 1.675200778420753e+000
1	 1.014549211679285e+000	 6.282781845862040e-001	 9.995781988519411e-001
1	 1.007636727480838e+000	 6.393056786201592e-001	 2.985179555624614e-001
1	 1.000595833652521e+000	 6.502702915707008e-001	-4.263546227918313e-001
1	 9.934273532925942e-001	 6.611698147169002e-001	-1.173370117507681e+000
1	 9.861321595645307e-001	 6.720020528243689e-001	-1.940816980598180e+000
1	 9.787111754481976e-001	 6.827648255493757e-001	-2.726943578230068e+000
1	 9.711653734441448e-001	 6.934559688385950e-001	-3.529960313539282e+000
1	 1.046715730642193e+000	 5.868443748208878e-001	 3.264194618206669e+000
1	 1.040288399370800e+000	 5.981639752992449e-001	 2.676050776778383e+000
1	 1.033729137081809e+000	 6.094293349560167e-001	 2.058225562890076e+000
1	 1.027038568530055e+000	 6.206381926269815e-001	 1.412243002940073e+000
1	 1.020217369346709e+000	 6.317882950541939e-001	 7.396776073386001e-001
1	 1.013266265976422e+000	 6.428773982974780e-001	 4.215259719354577e-002
1	 1.006186035567982e+000	 6.539032691487108e-001	-6.786619629202542e-001
1	 9.989775058181930e-001	 6.648636865471250e-001	-1.421051123387002e+000
1	 9.916415547687788e-001	 6.757564429938406e-001	-2.183257096197929e+000
1	 9.841791105561780e-001	 6.865793459638276e-001	-2.963481386601788e+000
1	 9.765911511141747e-001	 6.973302193134739e-001	-3.759887006295466e+000
1	 9.223333744038621e-001	 6.585877145441748e-001	-1.264024947043309e+000
1	 9.150494175759466e-001	 6.686712208458169e-001	-2.117944745623473e+000
1	 9.076489043303718e-001	 6.786826392403966e-001	-2.971213911227722e+000
1	 9.001328956976941e-001	 6.886199674222856e-001	-3.822436093912167e+000
1	 8.925024981968082e-001	 6.984812237597207e-001	-4.670179691389582e+000
1	 8.847588633353754e-001	 7.082644485790088e-001	-5.512980030468018e+000
1	 8.769031870669851e-001	 7.179677054343339e-001	-6.349341622486901e+000
1	 8.689367092055303e-001	 7.275890823614685e-001	-7.177740488505188e+000
1	 8.608607127973482e-001	 7.371266931137128e-001	-7.996626549789271e+000
1	 8.526765234517708e-001	 7.465786783784127e-001	-8.804426078956935e+000
1	 8.443855086307747e-001	 7.559432069724200e-001	-9.599544206946705e+000
1	 9.277591520738917e-001	 6.624619650235540e-001	-1.532341515206858e+000
1	 9.204323461727995e-001	 6.726047892082684e-001	-2.383037444777890e+000
1	 9.129882981917740e-001	 6.826751014169742e-001	-3.232133788787819e+000
1	 9.054280754030595e-001	 6.926708875651475e-001	-4.078351254226897e+000
1	 8.977527908348268e-001	 7.025901543637464e-001	-4.920382109323501e+000
1	 8.899636027686719e-001	 7.124309306109720e-001	-5.756892187929417e+000
1	 8.820617141935768e-001	 7.221912684695437e-001	-6.586522955037375e+000
1	 8.740483722168425e-001	 7.318692447277859e-001	-7.407893629505645e+000
1	 8.659248674325377e-001	 7.414629620428398e-001	-8.219603359894320e+000
1	 8.576925332481072e-001	 7.509705501643340e-001	-9.020233449153167e+000
1	 8.493527451698485e-001	 7.603901671368815e-001	-9.808349623756898e+000
1	 9.331849297445891e-001	 6.663362155023007e-001	-1.796710662250257e+000
1	 9.258152747702765e-001	 6.765383575700944e-001	-2.643656221000371e+000
1	 9.183276920537512e-001	 6.866675635929472e-001	-3.488145586422952e+000
1	 9.107232551089430e-001	 6.967218077074371e-001	-4.329014072148433e+000
1	 9.030030834733056e-001	 7.066990849672418e-001	-5.165075054083170e+000
1	 8.951683422023676e-001	 7.165974126424530e-001	-5.995121800119780e+000
1	 8.872202413205065e-001	 7.264148315043242e-001	-6.817929348656019e+000
1	 8.791600352284326e-001	 7.361494070937297e-001	-7.632256432315791e+000
1	 8.709890220679465e-001	 7.457992309716475e-001	-8.436847443127876e+000
1	 8.627085430446098e-001	 7.553624219499896e-001	-9.230434435286464e+000
1	 8.543199817090402e-001	 7.648371273011256e-001	-1.001173916149767e+001
1	 9.386107074157873e-001	 6.702104659804474e-001	-2.057048546916916e+000
1	 9.311982033682217e-001	 6.804719259313259e-001	-2.899741244374006e+000
1	 9.236670859161580e-001	 6.906600257683419e-001	-3.739209334479815e+000
1	 9.160184348152155e-001	 7.007727278491728e-001	-4.574400338884097e+000
1	 9.082533761121285e-001	 7.108080155702147e-001	-5.404246034034283e+000
1	 9.003730816363605e-001	 7.207638946734495e-001	-6.227664108550049e+000
1	 8.923787684476852e-001	 7.306383945386621e-001	-7.043559857619662e+000
1	 8.842716982402233e-001	 7.404295694592746e-001	-7.850827911127793e+000
1	 8.760531767035096e-001	 7.501354999001021e-001	-8.648353992116821e+000
1	 8.677245528412214e-001	 7.597542937353362e-001	-9.435016702082995e+000
1	 8.592872182482988e-001	 7.692840874651026e-001	-1.020968932952084e+001
1	 9.440364850873191e-001	 6.740847164580276e-001	-2.313273255435349e+000
1	 9.365811319664787e-001	 6.844054942919948e-001	-3.151234060454069e+000
1	 9.290064797788518e-001	 6.946524879431842e-001	-3.985285982196076e+000
1	 9.213136145217460e-001	 7.048236479903732e-001	-4.814486402195135e+000
1	 9.135036687511782e-001	 7.149169461726750e-001	-5.637882844722317e+000
1	 9.055778210705479e-001	 7.249303767039607e-001	-6.454514464128099e+000
1	 8.975372955750234e-001	 7.348619575725440e-001	-7.263413557947939e+000
1	 8.893833612521390e-001	 7.447097318243970e-001	-8.063607102798668e+000
1	 8.811173313391613e-001	 7.544717688281690e-001	-8.854118310008367e+000
1	 8.727405626378855e-001	 7.641461655203298e-001	-9.633968197853955e+000
1	 8.642544547875742e-001	 7.737310476287623e-001	-1.040217717722136e+001
1	 9.494622627590179e-001	 6.779589669350749e-001	-2.565304746445432e+000
1	 9.419640605648918e-001	 6.883390626521324e-001	-3.398077550966367e+000
1	 9.343458736416885e-001	 6.986449501175009e-001	-4.226337371444950e+000
1	 9.266087942284046e-001	 7.088745681310574e-001	-5.049249150494028e+000
1	 9.187539613903393e-001	 7.190258767746317e-001	-5.865973560667611e+000
1	 9.107825605048273e-001	 7.290968587339832e-001	-6.675668324033692e+000
1	 9.026958227024333e-001	 7.390855206059577e-001	-7.477489546782183e+000
1	 8.944950242641027e-001	 7.489898941890726e-001	-8.270593066202018e+000
1	 8.861814859748358e-001	 7.588080377558130e-001	-9.054135807312884e+000
1	 8.777565724345455e-001	 7.685380373049277e-001	-9.827277146392317e+000
1	 8.692216913268166e-001	 7.781780077920549e-001	-1.058918027860620e+001
1	 9.548880404307168e-001	 6.818332174116220e-001	-2.813064797802267e+000
1	 9.473469891633051e-001	 6.922726310117698e-001	-3.640215895846630e+000
1	 9.396852675045243e-001	 7.026374122913179e-001	-4.462326211375188e+000
1	 9.319039739350612e-001	 7.129254882712436e-001	-5.278665997484805e+000
1	 9.240042540294949e-001	 7.231348073760935e-001	-6.088506527438529e+000
1	 9.159872999390962e-001	 7.332633407635163e-001	-6.891121248698652e+000
1	 9.078543498298249e-001	 7.433090836388889e-001	-7.685786941785272e+000
1	 8.996066872760378e-001	 7.532700565532765e-001	-8.471784881602465e+000
1	 8.912456406104682e-001	 7.631443066829996e-001	-9.248401998853018e+000
1	 8.827725822311452e-001	 7.729299090890865e-001	-1.001493203914608e+001
1	 8.741889278659762e-001	 7.826249679549311e-001	-1.077067671739084e+001
1	 9.603138181022493e-001	 6.857074678877024e-001	-3.056476955183077e+000
1	 9.527299177615619e-001	 6.962061993709386e-001	-3.877594536565572e+000
1	 9.450246613672159e-001	 7.066298744646621e-001	-4.693216053909964e+000
1	 9.371991536415850e-001	 7.169764084109508e-001	-5.502714867322782e+000
1	 9.292545466685293e-001	 7.272437379770698e-001	-6.305470353995082e+000
1	 9.211920393732523e-001	 7.374298227925583e-001	-7.100868898890182e+000
1	 9.130128769571099e-001	 7.475326466713247e-001	-7.888304880561902e+000
1	 9.047183502878682e-001	 7.575502189169845e-001	-8.667181650051532e+000
1	 8.963097952459920e-001	 7.674805756096939e-001	-9.436912500817604e+000
1	 8.877885920276273e-001	 7.773217808727624e-001	-1.019692162765737e+001
1	 8.791561644050019e-001	 7.870719281173406e-001	-1.094664507259914e+001
1	 9.657395957734473e-001	 6.895817183633489e-001	-3.295466482427023e+000
1	 9.581128463595068e-001	 7.001397677296708e-001	-4.110160140690968e+000
1	 9.503640552296199e-001	 7.106223366375596e-001	-4.918971270072900e+000
1	 9.424943333478461e-001	 7.210273285501974e-001	-5.721374180275970e+000
1	 9.345048393073252e-001	 7.313526685775691e-001	-6.516853905289707e+000
1	 9.263967788071928e-001	 7.415963048211063e-001	-7.304907032892208e+000
1	 9.181714040841990e-001	 7.517562097032523e-001	-8.085042520098085e+000
1	 9.098300132995163e-001	 7.618303812801719e-001	-8.856782492803745e+000
1	 9.013739498813420e-001	 7.718168445358615e-001	-9.619663027913148e+000
1	 8.928046018239355e-001	 7.817136526559121e-001	-1.037323491625585e+001
1	 8.841234009438440e-001	 7.915188882792336e-001	-1.111706440464964e+001
1	 9.711653734441448e-001	 6.934559688385950e-001	-3.529960313539282e+000
1	 9.634957749569834e-001	 7.040733360879967e-001	-4.337860567637152e+000
1	 9.557034490915919e-001	 7.146147988100368e-001	-5.139557027106616e+000
1	 9.477895130537147e-001	 7.250782486890024e-001	-5.934622838866031e+000
1	 9.397551319457672e-001	 7.354615991776009e-001	-6.722646295115974e+000
1	 9.316015182408166e-001	 7.457627868491598e-001	-7.503231503781338e+000
1	 9.233299312110029e-001	 7.559797727346579e-001	-8.275999036220272e+000
1	 9.149416763109065e-001	 7.661105436428150e-001	-9.040586550752176e+000
1	 9.064381045164527e-001	 7.761531134614675e-001	-9.796649390612787e+000
1	 8.978206116200135e-001	 7.861055244384922e-001	-1.054386115499688e+001
1	 8.890906374824527e-001	 7.959658484405604e-001	-1.128191424190829e+001
1	 9.765911511141747e-001	 6.973302193134739e-001	-3.759887006295470e+000
1	 9.688787035538358e-001	 7.080069044459488e-001	-4.560644835556850e+000
1	 9.610428429529890e-001	 7.186072609821202e-001	-5.354939266354296e+000
1	 9.530846927590595e-001	 7.291291688273839e-001	-6.142440214471888e+000
1	 9.450054245837380e-001	 7.395705297771742e-001	-6.922836879196285e+000
1	 9.368062576740198e-001	 7.499292688767160e-001	-7.695838256793611e+000
1	 9.284884583374330e-001	 7.602033357655288e-001	-8.461173623071460e+000
1	 9.200533393219623e-001	 7.703907060048886e-001	-9.218592983882520e+000
1	 9.115022591512589e-001	 7.804893823864774e-001	-9.967867492495161e+000
1	 9.028366214158040e-001	 7.904973962204591e-001	-1.070878983283621e+001
1	 8.940578740207774e-001	 8.004128086012710e-001	-1.144117456768904e+001
1	 8.443855086307747e-001	 7.559432069724200e-001	-9.599544206946705e+000
1	 8.359903442578607e-001	 7.652170926952719e-001	-1.037588287535922e+001
1	 8.274912435593508e-001	 7.743999767264992e-001	-1.112880503730968e+001
1	 8.188896949475417e-001	 7.834901207227666e-001	-1.185856381551225e+001
1	 8.101872254145905e-001	 7.924858190063862e-001	-1.256544592854969e+001
1	 8.013853996305682e-001	 8.013853996305679e-001	-1.324977115563888e+001
1	 7.924858190063862e-001	 8.101872254145907e-001	-1.391189174932883e+001
1	 7.834901207227666e-001	 8.188896949475419e-001	-1.455219179735492e+001
1	 7.743999767264997e-001	 8.274912435593509e-001	-1.517108653500057e+001
1	 7.652170926952719e-001	 8.359903442578606e-001	-1.576902160943805e+001
1	 7.559432069724201e-001	 8.443855086307748e-001	-1.634647229762751e+001
1	 8.493527451698485e-001	 7.603901671368815e-001	-9.808349623756895e+000
1	 8.409081948628211e-001	 7.697186080166688e-001	-1.057823250788469e+001
1	 8.323590968076828e-001	 7.789555118724081e-001	-1.132550074411544e+001
1	 8.237069481725587e-001	 7.880991301346746e-001	-1.205038903908619e+001
1	 8.149532849323851e-001	 7.971477470918548e-001	-1.275316354506600e+001
1	 8.060996809616599e-001	 8.060996809616597e-001	-1.343412136666036e+001
1	 7.971477470918549e-001	 8.149532849323851e-001	-1.409359001907349e+001
1	 7.880991301346745e-001	 8.237069481725586e-001	-1.473192683905781e+001
1	 7.789555118724078e-001	 8.323590968076826e-001	-1.534951834979384e+001
1	 7.697186080166687e-001	 8.409081948628209e-001	-1.594677958105814e+001
1	 7.603901671368816e-001	 8.493527451698488e-001	-1.652415334613930e+001
1	 8.543199817090402e-001	 7.648371273011256e-001	-1.001173916149767e+001
1	 8.458260454678566e-001	 7.742201233378900e-001	-1.077537531409405e+001
1	 8.372269500560541e-001	 7.835110470181768e-001	-1.151717418804388e+001
1	 8.285242013975824e-001	 7.927081395464755e-001	-1.223735110046255e+001
1	 8.197193444501577e-001	 8.018096751772460e-001	-1.293615072377304e+001
1	 8.108139622927019e-001	 8.108139622927019e-001	-1.361384663641789e+001
1	 8.018096751772459e-001	 8.197193444501577e-001	-1.427074082865194e+001
1	 7.927081395464752e-001	 8.285242013975824e-001	-1.490716316444905e+001
1	 7.835110470181770e-001	 8.372269500560540e-001	-1.552347080065420e+001
1	 7.742201233378900e-001	 8.458260454678566e-001	-1.612004756461931e+001
1	 7.648371273011256e-001	 8.543199817090402e-001	-1.669730329165777e+001
1	 8.592872182482988e-001	 7.692840874651026e-001	-1.020968932952084e+001
1	 8.507438960729211e-001	 7.787216386588826e-001	-1.096727528987370e+001
1	 8.420948033044189e-001	 7.880665821637520e-001	-1.170377771543481e+001
1	 8.333414546225675e-001	 7.973171489581147e-001	-1.241939157611243e+001
1	 8.244854039678605e-001	 8.064716032625070e-001	-1.311433916589166e+001
1	 8.155282436236437e-001	 8.155282436236437e-001	-1.378886969960242e+001
1	 8.064716032625069e-001	 8.244854039678604e-001	-1.444325886819853e+001
1	 7.973171489581145e-001	 8.333414546225677e-001	-1.507780835346895e+001
1	 7.880665821637520e-001	 8.420948033044190e-001	-1.569284530320194e+001
1	 7.787216386588823e-001	 8.507438960729211e-001	-1.628872176791865e+001
1	 7.692840874651026e-001	 8.592872182482987e-001	-1.686581410037903e+001
1	 8.642544547875742e-001	 7.737310476287623e-001	-1.040217717722137e+001
1	 8.556617466779680e-001	 7.832231539795923e-001	-1.115389725883334e+001
1	 8.469626565527324e-001	 7.926221173090784e-001	-1.188526476817050e+001
1	 8.381587078474683e-001	 8.019261583695391e-001	-1.259645338564610e+001
1	 8.292514634854455e-001	 8.111335313475847e-001	-1.328766214280957e+001
1	 8.202425249544357e-001	 8.202425249544355e-001	-1.395911506720983e+001
1	 8.111335313475849e-001	 8.292514634854458e-001	-1.461106078909538e+001
1	 8.019261583695390e-001	 8.381587078474684e-001	-1.524377211076680e+001
1	 7.926221173090786e-001	 8.469626565527325e-001	-1.585754553948204e+001
1	 7.832231539795924e-001	 8.556617466779681e-001	-1.645270078490365e+001
1	 7.737310476287623e-001	 8.642544547875741e-001	-1.702958022216352e+001
1	 8.692216913268166e-001	 7.781780077920549e-001	-1.058918027860620e+001
1	 8.605795972829509e-001	 7.877246692999664e-001	-1.133520684865606e+001
1	 8.518305098009493e-001	 7.971776524541016e-001	-1.206158985237415e+001
1	 8.429759610722384e-001	 8.065351677806932e-001	-1.276848075343498e+001
1	 8.340175230028659e-001	 8.157954594324280e-001	-1.345605445121850e+001
1	 8.249568062850277e-001	 8.249568062850275e-001	-1.412450897578751e+001
1	 8.157954594324282e-001	 8.340175230028660e-001	-1.477406514793313e+001
1	 8.065351677806933e-001	 8.429759610722384e-001	-1.540496620499138e+001
1	 7.971776524541016e-001	 8.518305098009493e-001	-1.601747739320483e+001
1	 7.877246692999661e-001	 8.605795972829510e-001	-1.661188552749365e+001
1	 7.781780077920549e-001	 8.692216913268166e-001	-1.718849851956991e+001
1	 8.741889278659762e-001	 7.826249679549311e-001	-1.077067671739084e+001
1	 8.654974478878234e-001	 7.922261846199509e-001	-1.151117046825393e+001
1	 8.566983630490245e-001	 8.017331875987668e-001	-1.223270850817237e+001
1	 8.477932142968324e-001	 8.111441771915242e-001	-1.293541917154270e+001
1	 8.387835825200737e-001	 8.204573875169839e-001	-1.361945236977897e+001
1	 8.296710876153698e-001	 8.296710876153697e-001	-1.428497933841023e+001
1	 8.204573875169839e-001	 8.387835825200736e-001	-1.493219235238347e+001
1	 8.111441771915243e-001	 8.477932142968325e-001	-1.556130441015134e+001
1	 8.017331875987669e-001	 8.566983630490245e-001	-1.617254888719713e+001
1	 7.922261846199511e-001	 8.654974478878236e-001	-1.676617915972477e+001
1	 7.826249679549311e-001	 8.741889278659761e-001	-1.734246819930926e+001
1	 8.791561644050019e-001	 7.870719281173406e-001	-1.094664507259914e+001
1	 8.704152984925387e-001	 7.967276999394926e-001	-1.168175528569806e+001
1	 8.615662162969122e-001	 8.062887227430189e-001	-1.239857728048640e+001
1	 8.526104675212042e-001	 8.157531866019770e-001	-1.309721536391356e+001
1	 8.435496420370213e-001	 8.251193156011999e-001	-1.377779361725424e+001
1	 8.343853689454112e-001	 8.343853689454115e-001	-1.444045569731828e+001
1	 8.251193156012001e-001	 8.435496420370212e-001	-1.508536460890574e+001
1	 8.157531866019770e-001	 8.526104675212042e-001	-1.571270244896406e+001
1	 8.062887227430190e-001	 8.615662162969121e-001	-1.632267012297035e+001
1	 7.967276999394924e-001	 8.704152984925387e-001	-1.691548703412704e+001
1	 7.870719281173405e-001	 8.791561644050018e-001	-1.749139074602303e+001
1	 8.841234009438440e-001	 7.915188882792336e-001	-1.111706440464964e+001
1	 8.753331490970502e-001	 8.012292152585375e-001	-1.184692920689303e+001
1	 8.664340695445677e-001	 8.108442578868036e-001	-1.255915369080477e+001
1	 8.574277207453075e-001	 8.203621960119979e-001	-1.325381725176633e+001
1	 8.483157015536604e-001	 8.297812436850239e-001	-1.393101731205660e+001
1	 8.390996502751035e-001	 8.390996502751033e-001	-1.459086917815184e+001
1	 8.297812436850239e-001	 8.483157015536605e-001	-1.523350587221626e+001
1	 8.203621960119981e-001	 8.574277207453077e-001	-1.585907793811377e+001
1	 8.108442578868035e-001	 8.664340695445675e-001	-1.646775322232958e+001
1	 8.012292152585376e-001	 8.753331490970502e-001	-1.705971663024796e+001
1	 7.915188882792339e-001	 8.841234009438441e-001	-1.763516985829238e+001
1	 8.890906374824527e-001	 7.959658484405604e-001	-1.128191424190829e+001
1	 8.802509997013114e-001	 8.057307305770329e-001	-1.200666085496601e+001
1	 8.713019227919451e-001	 8.153997930300662e-001	-1.271439620990432e+001
1	 8.622449739690975e-001	 8.249712054215328e-001	-1.340517392014981e+001
1	 8.530817610699448e-001	 8.344431717684036e-001	-1.407906393314879e+001
1	 8.438139316043950e-001	 8.438139316043948e-001	-1.473615244572030e+001
1	 8.344431717684036e-001	 8.530817610699444e-001	-1.537654179645296e+001
1	 8.249712054215326e-001	 8.622449739690977e-001	-1.600035033534504e+001
1	 8.153997930300660e-001	 8.713019227919449e-001	-1.660771227093579e+001
1	 8.057307305770328e-001	 8.802509997013116e-001	-1.719877749523405e+001
1	 7.959658484405603e-001	 8.890906374824527e-001	-1.777371138679368e+001
1	 8.940578740207774e-001	 8.004128086012710e-001	-1.144117456768904e+001
1	 8.851688503052765e-001	 8.102322458949247e-001	-1.216091955034268e+001
1	 8.761697760389994e-001	 8.199553281727517e-001	-1.286426423147928e+001
1	 8.670622271925278e-001	 8.295802148305268e-001	-1.355123558561226e+001
1	 8.578478205858254e-001	 8.391050998512860e-001	-1.422187528224866e+001
1	 8.485282129332367e-001	 8.485282129332366e-001	-1.487623966124434e+001
1	 8.391050998512859e-001	 8.578478205858252e-001	-1.551439968796586e+001
1	 8.295802148305270e-001	 8.670622271925280e-001	-1.613644088831897e+001
1	 8.199553281727516e-001	 8.761697760389995e-001	-1.674246326375309e+001
1	 8.102322458949245e-001	 8.851688503052763e-001	-1.733258118639598e+001
1	 8.004128086012706e-001	 8.940578740207773e-001	-1.790692327451492e+001
1	 7.559432069724201e-001	 8.443855086307748e-001	-1.634647229762751e+001
1	 7.465786783784130e-001	 8.526765234517706e-001	-1.689911245356206e+001
1	 7.371266931137132e-001	 8.608607127973481e-001	-1.742158860476392e+001
1	 7.275890823614686e-001	 8.689367092055303e-001	-1.791311320655631e+001
1	 7.179677054343341e-001	 8.769031870669852e-001	-1.837290162590502e+001
1	 7.082644485790089e-001	 8.847588633353752e-001	-1.880017395828449e+001
1	 6.984812237597208e-001	 8.925024981968079e-001	-1.919415684099622e+001
1	 6.886199674222857e-001	 9.001328956976938e-001	-1.955408525889396e+001
1	 6.786826392403964e-001	 9.076489043303717e-001	-1.987920433850060e+001
1	 6.686712208458168e-001	 9.150494175759467e-001	-2.016877112654635e+001
1	 6.585877145441748e-001	 9.223333744038623e-001	-2.042205634901347e+001
1	 7.603901671368816e-001	 8.493527451698488e-001	-1.652415334613930e+001
1	 7.509705501643340e-001	 8.576925332481071e-001	-1.707708246336820e+001
1	 7.414629620428398e-001	 8.659248674325376e-001	-1.760002442081426e+001
1	 7.318692447277859e-001	 8.740483722168426e-001	-1.809222031517218e+001
1	 7.221912684695439e-001	 8.820617141935768e-001	-1.855291328224682e+001
1	 7.124309306109720e-001	 8.899636027686718e-001	-1.898135028474778e+001
1	 7.025901543637467e-001	 8.977527908348270e-001	-1.937678389821299e+001
1	 6.926708875651476e-001	 9.054280754030593e-001	-1.973847409105428e+001
1	 6.826751014169743e-001	 9.129882981917744e-001	-2.006568999475315e+001
1	 6.726047892082685e-001	 9.204323461727993e-001	-2.035771166026705e+001
1	 6.624619650235539e-001	 9.277591520738914e-001	-2.061383179676395e+001
1	 7.648371273011256e-001	 8.543199817090402e-001	-1.669730329165777e+001
1	 7.553624219499897e-001	 8.627085430446098e-001	-1.725045625807148e+001
1	 7.457992309716478e-001	 8.709890220679463e-001	-1.777378489005294e+001
1	 7.361494070937295e-001	 8.791600352284323e-001	-1.826656375650979e+001
1	 7.264148315043241e-001	 8.872202413205066e-001	-1.872806870648628e+001
1	 7.165974126424529e-001	 8.951683422023676e-001	-1.915757861842381e+001
1	 7.066990849672417e-001	 9.030030834733055e-001	-1.955437714907004e+001
1	 6.967218077074369e-001	 9.107232551089428e-001	-1.991775447810261e+001
1	 6.866675635929469e-001	 9.183276920537511e-001	-2.024700904454598e+001
1	 6.765383575700943e-001	 9.258152747702764e-001	-2.054144927110902e+001
1	 6.663362155023005e-001	 9.331849297445891e-001	-2.080039527259854e+001
1	 7.692840874651026e-001	 8.592872182482987e-001	-1.686581410037903e+001
1	 7.597542937353361e-001	 8.677245528412213e-001	-1.741912287174568e+001
1	 7.501354999001023e-001	 8.760531767035098e-001	-1.794275770853373e+001
1	 7.404295694592746e-001	 8.842716982402237e-001	-1.843603140105754e+001
1	 7.306383945386620e-001	 8.923787684476852e-001	-1.889825737302038e+001
1	 7.207638946734496e-001	 9.003730816363605e-001	-1.932875138285870e+001
1	 7.108080155702147e-001	 9.082533761121285e-001	-1.972683322611472e+001
1	 7.007727278491728e-001	 9.160184348152154e-001	-2.009182843497659e+001
1	 6.906600257683416e-001	 9.236670859161581e-001	-2.042306997116069e+001
1	 6.804719259313260e-001	 9.311982033682213e-001	-2.071989990832478e+001
1	 6.702104659804474e-001	 9.386107074157872e-001	-2.098167110025229e+001
1	 7.737310476287623e-001	 8.642544547875741e-001	-1.702958022216352e+001
1	 7.641461655203298e-001	 8.727405626378856e-001	-1.758297388953777e+001
1	 7.544717688281690e-001	 8.811173313391610e-001	-1.810683315414300e+001
1	 7.447097318243972e-001	 8.893833612521392e-001	-1.860051369712733e+001
1	 7.348619575725439e-001	 8.975372955750237e-001	-1.906337129719564e+001
1	 7.249303767039608e-001	 9.055778210705480e-001	-1.949476347474980e+001
1	 7.149169461726750e-001	 9.135036687511783e-001	-1.989405113828036e+001
1	 7.048236479903732e-001	 9.213136145217460e-001	-2.026060022926142e+001
1	 6.946524879431838e-001	 9.290064797788519e-001	-2.059378336181961e+001
1	 6.844054942919948e-001	 9.365811319664784e-001	-2.089298145346712e+001
1	 6.740847164580276e-001	 9.440364850873192e-001	-2.115758534323454e+001
1	 7.781780077920549e-001	 8.692216913268166e-001	-1.718849851956990e+001
1	 7.685380373049275e-001	 8.777565724345454e-001	-1.774190337477528e+001
1	 7.588080377558133e-001	 8.861814859748360e-001	-1.826590401283105e+001
1	 7.489898941890726e-001	 8.944950242641026e-001	-1.875990359719841e+001
1	 7.390855206059577e-001	 9.026958227024335e-001	-1.922330496270650e+001
1	 7.290968587339834e-001	 9.107825605048272e-001	-1.965551219327797e+001
1	 7.190258767746318e-001	 9.187539613903393e-001	-2.005593220298666e+001
1	 7.088745681310572e-001	 9.266087942284045e-001	-2.042397631682426e+001
1	 6.986449501175005e-001	 9.343458736416880e-001	-2.075906184757087e+001
1	 6.883390626521324e-001	 9.419640605648919e-001	-2.106061366517912e+001
1	 6.779589669350750e-001	 9.494622627590182e-001	-2.132806575511862e+001
1	 7.826249679549311e-001	 8.741889278659761e-001	-1.734246819930926e+001
1	 7.729299090890868e-001	 8.827725822311451e-001	-1.789580779856035e+001
1	 7.631443066829996e-001	 8.912456406104679e-001	-1.841986550735498e+001
1	 7.532700565532763e-001	 8.996066872760375e-001	-1.891409648677281e+001
1	 7.433090836388886e-001	 9.078543498298249e-001	-1.937795525146784e+001
1	 7.332633407635165e-001	 9.159872999390961e-001	-1.981089717185385e+001
1	 7.231348073760935e-001	 9.240042540294948e-001	-2.021237998055345e+001
1	 7.129254882712437e-001	 9.319039739350611e-001	-2.058186527964335e+001
1	 7.026374122913177e-001	 9.396852675045242e-001	-2.091882004522248e+001
1	 6.922726310117700e-001	 9.473469891633052e-001	-2.122271812586420e+001
1	 6.818332174116220e-001	 9.548880404307168e-001	-2.149304173152570e+001
1	 7.870719281173405e-001	 8.791561644050018e-001	-1.749139074602302e+001
1	 7.773217808727625e-001	 8.877885920276273e-001	-1.804458597175093e+001
1	 7.674805756096940e-001	 8.963097952459918e-001	-1.856861522843987e+001
1	 7.575502189169843e-001	 9.047183502878677e-001	-1.906299011564185e+001
1	 7.475326466713246e-001	 9.130128769571098e-001	-1.952722137586552e+001
1	 7.374298227925584e-001	 9.211920393732522e-001	-1.996082031217419e+001
1	 7.272437379770697e-001	 9.292545466685291e-001	-2.036330021083971e+001
1	 7.169764084109508e-001	 9.371991536415851e-001	-2.073417776574630e+001
1	 7.066298744646620e-001	 9.450246613672161e-001	-2.107297450124409e+001
1	 6.962061993709389e-001	 9.527299177615619e-001	-2.137921819016439e+001
1	 6.857074678877023e-001	 9.603138181022490e-001	-2.165244426373726e+001
1	 7.915188882792339e-001	 8.841234009438441e-001	-1.763516985829238e+001
1	 7.817136526559121e-001	 8.928046018239354e-001	-1.818813897923231e+001
1	 7.718168445358616e-001	 9.013739498813418e-001	-1.871205306825916e+001
1	 7.618303812801720e-001	 9.098300132995164e-001	-1.920648453147091e+001
1	 7.517562097032521e-001	 9.181714040841987e-001	-1.967100481328959e+001
1	 7.415963048211068e-001	 9.263967788071933e-001	-2.010518572050427e+001
1	 7.313526685775692e-001	 9.345048393073252e-001	-2.050860075201672e+001
1	 7.210273285501975e-001	 9.424943333478461e-001	-2.088082643117200e+001
1	 7.106223366375596e-001	 9.503640552296198e-001	-2.122144363755970e+001
1	 7.001397677296706e-001	 9.581128463595066e-001	-2.153003893517665e+001
1	 6.895817183633489e-001	 9.657395957734473e-001	-2.180620589387086e+001
1	 7.959658484405603e-001	 8.890906374824527e-001	-1.777371138679368e+001
1	 7.861055244384924e-001	 8.978206116200136e-001	-1.832637011639487e+001
1	 7.761531134614674e-001	 9.064381045164527e-001	-1.885008115614530e+001
1	 7.661105436428148e-001	 9.149416763109064e-001	-1.934448201560921e+001
1	 7.559797727346580e-001	 9.233299312110028e-001	-1.980920924286373e+001
1	 7.457627868491601e-001	 9.316015182408165e-001	-2.024389964609354e+001
1	 7.354615991776011e-001	 9.397551319457669e-001	-2.064819152139442e+001
1	 7.250782486890021e-001	 9.477895130537143e-001	-2.102172588387751e+001
1	 7.146147988100369e-001	 9.557034490915921e-001	-2.136414769915955e+001
1	 7.040733360879967e-001	 9.634957749569834e-001	-2.167510711233694e+001
1	 6.934559688385951e-001	 9.711653734441448e-001	-2.195426067155792e+001
1	 8.004128086012706e-001	 8.940578740207773e-001	-1.790692327451492e+001
1	 7.904973962204593e-001	 9.028366214158040e-001	-1.845918482772751e+001
1	 7.804893823864771e-001	 9.115022591512587e-001	-1.898260379644275e+001
1	 7.703907060048888e-001	 9.200533393219624e-001	-1.947688702104041e+001
1	 7.602033357655288e-001	 9.284884583374330e-001	-1.994174048428293e+001
1	 7.499292688767163e-001	 9.368062576740198e-001	-2.037687042164549e+001
1	 7.395705297771745e-001	 9.450054245837380e-001	-2.078198443822070e+001
1	 7.291291688273840e-001	 9.530846927590595e-001	-2.115679262951577e+001
1	 7.186072609821200e-001	 9.610428429529889e-001	-2.150100870345522e+001
1	 7.080069044459487e-001	 9.688787035538357e-001	-2.181435110090781e+001
1	 6.973302193134738e-001	 9.765911511141745e-001	-2.209654411206704e+001
1	 6.585877145441748e-001	 9.223333744038623e-001	-2.042205634901347e+001
1	 6.484341417986819e-001	 9.294997594658224e-001	-2.064198208219852e+001
1	 6.382125412782213e-001	 9.365476027153264e-001	-2.083156424006215e+001
1	 6.279249682236161e-001	 9.434759805509431e-001	-2.099023871038328e+001
1	 6.175734933469836e-001	 9.502840164019311e-001	-2.111745961057297e+001
1	 6.071602015023673e-001	 9.569708810090842e-001	-2.121270021339850e+001
1	 5.966871903522223e-001	 9.635357926610373e-001	-2.127545384128667e+001
1	 5.861565690314716e-001	 9.699780173860766e-001	-2.130523472752075e+001
1	 5.755704568108352e-001	 9.762968690995890e-001	-2.130157884274075e+001
1	 5.649309817611228e-001	 9.824917097073289e-001	-2.126404468525368e+001
1	 5.542402794201589e-001	 9.885619491647812e-001	-2.119221403376040e+001
1	 6.624619650235539e-001	 9.277591520738914e-001	-2.061383179676395e+001
1	 6.522486622176337e-001	 9.349676945738026e-001	-2.083699488708119e+001
1	 6.419669314521875e-001	 9.420569979195748e-001	-2.103017489983272e+001
1	 6.316188400583205e-001	 9.490261330765413e-001	-2.119273102306294e+001
1	 6.212064709294447e-001	 9.558742183173915e-001	-2.132403896419926e+001
1	 6.107319211840905e-001	 9.626004195046680e-001	-2.142349203607573e+001
1	 6.001973008245471e-001	 9.692039503284609e-001	-2.149050221287890e+001
1	 5.896047313930607e-001	 9.756840724993500e-001	-2.152450115398180e+001
1	 5.789563446273000e-001	 9.820400958967170e-001	-2.152494119371605e+001
1	 5.682542811167918e-001	 9.882713786726242e-001	-2.149129629524468e+001
1	 5.575006889620032e-001	 9.943773273115256e-001	-2.142306296678879e+001
1	 6.663362155023005e-001	 9.331849297445891e-001	-2.080039527259854e+001
1	 6.560631826359605e-001	 9.404356296824865e-001	-2.102681003419508e+001
1	 6.457213216255495e-001	 9.475663931245539e-001	-2.122361757198319e+001
1	 6.353127118924514e-001	 9.545762856028903e-001	-2.139009962373397e+001
1	 6.248394485113695e-001	 9.614644202336153e-001	-2.152555266745127e+001
1	 6.143036408653175e-001	 9.682299580010184e-001	-2.162928917111742e+001
1	 6.037074112964165e-001	 9.748721079966467e-001	-2.170063881378878e+001
1	 5.930528937542329e-001	 9.813901276133724e-001	-2.173894967564105e+001
1	 5.823422324433804e-001	 9.877833226945741e-001	-2.174358939465689e+001
1	 5.715775804720992e-001	 9.940510476386206e-001	-2.171394628775396e+001
1	 5.607610985034971e-001	 1.000192705458935e+000	-2.164943043425637e+001
1	 6.702104659804474e-001	 9.386107074157872e-001	-2.098167110025229e+001
1	 6.598777030536939e-001	 9.459035647916976e-001	-2.121136030441902e+001
1	 6.494757117983337e-001	 9.530757883300821e-001	-2.141183282322191e+001
1	 6.390065837260276e-001	 9.601264381298030e-001	-2.158229221215012e+001
1	 6.284724260927680e-001	 9.670546221504111e-001	-2.172195491935354e+001
1	 6.178753605460502e-001	 9.738594964979439e-001	-2.183005170251296e+001
1	 6.072175217678243e-001	 9.805402656654042e-001	-2.190582901856505e+001
1	 5.965010561149744e-001	 9.870961827279575e-001	-2.194855038351595e+001
1	 5.857281202590576e-001	 9.935265494929783e-001	-2.195749769965927e+001
1	 5.749008798270259e-001	 9.998307166051436e-001	-2.193197254763411e+001
1	 5.640215080446244e-001	 1.006008083606842e+000	-2.187129744085735e+001
1	 6.740847164580276e-001	 9.440364850873192e-001	-2.115758534323454e+001
1	 6.636922234708647e-001	 9.513714999012607e-001	-2.139058002397944e+001
1	 6.532301019705661e-001	 9.585851835359758e-001	-2.159476258661004e+001
1	 6.427004555590682e-001	 9.656765906570914e-001	-2.176925769043083e+001
1	 6.321054036736513e-001	 9.726448240675882e-001	-2.191320097188138e+001
1	 6.214470802262906e-001	 9.794890349952523e-001	-2.202574063190842e+001
1	 6.107276322387640e-001	 9.862084233345432e-001	-2.210603899778542e+001
1	 5.999492184752718e-001	 9.928022378429181e-001	-2.215327405622170e+001
1	 5.891140080743142e-001	 9.992697762917474e-001	-2.216664095470915e+001
1	 5.782241791815530e-001	 1.005610385572016e+000	-2.214535346815745e+001
1	 5.672819175853689e-001	 1.011823461755081e+000	-2.208864542798212e+001
1	 6.779589669350750e-001	 9.494622627590182e-001	-2.132806575511862e+001
1	 6.675067438875044e-001	 9.568394350109999e-001	-2.156440502029377e+001
1	 6.569844921422731e-001	 9.640945787420523e-001	-2.177235012252116e+001
1	 6.463943273915921e-001	 9.712267431845673e-001	-2.195094612870799e+001
1	 6.357383812540295e-001	 9.782350259849560e-001	-2.209924709987403e+001
1	 6.250187999060398e-001	 9.851185734927530e-001	-2.221631785238699e+001
1	 6.142377427092285e-001	 9.918765810038726e-001	-2.230123569531063e+001
1	 6.033973808351123e-001	 9.985082929580651e-001	-2.235309214032496e+001
1	 5.924998958891323e-001	 1.005013003090699e+000	-2.237099458077090e+001
1	 5.815474785356608e-001	 1.011390054539064e+000	-2.235406793648976e+001
1	 5.705423271257143e-001	 1.017638839903487e+000	-2.230145626123925e+001
1	 6.818332174116220e-001	 9.548880404307168e-001	-2.149304173152570e+001
1	 6.713212643036441e-001	 9.623073701207389e-001	-2.173277257932249e+001
1	 6.607388823134808e-001	 9.696039739481287e-001	-2.194453998093174e+001
1	 6.500881992236183e-001	 9.767768957120437e-001	-2.212730873194029e+001
1	 6.393713588339128e-001	 9.838252279023240e-001	-2.228005057197528e+001
1	 6.285905195852996e-001	 9.907481119902529e-001	-2.240174612314103e+001
1	 6.177478531792113e-001	 9.975447386732016e-001	-2.249138680631539e+001
1	 6.068455431944816e-001	 1.004214348073213e+000	-2.254797673136711e+001
1	 5.958857837034940e-001	 1.010756229889650e+000	-2.257053455745135e+001
1	 5.848707778893305e-001	 1.017169723506112e+000	-2.255809531965739e+001
1	 5.738027366656446e-001	 1.023454218051892e+000	-2.250971221840275e+001
1	 6.857074678877023e-001	 9.603138181022490e-001	-2.165244426373726e+001
1	 6.751357847193147e-001	 9.677753052303019e-001	-2.189562140436394e+001
1	 6.644932724842150e-001	 9.751133691540228e-001	-2.211127796498962e+001
1	 6.537820710551658e-001	 9.823270482393318e-001	-2.229829780785549e+001
1	 6.430043364133125e-001	 9.894154298195014e-001	-2.245556962255818e+001
1	 6.321622392640717e-001	 9.963776504875617e-001	-2.258198904500658e+001
1	 6.212579636487060e-001	 1.003212896342341e+000	-2.267646075606411e+001
1	 6.102937055533668e-001	 1.009920403188173e+000	-2.273790055553052e+001
1	 5.992716715173813e-001	 1.016499456688419e+000	-2.276523740721819e+001
1	 5.881940772425429e-001	 1.022949392472985e+000	-2.275741545099247e+001
1	 5.770631462051433e-001	 1.029269596200132e+000	-2.271339597776940e+001
1	 6.895817183633489e-001	 9.657395957734473e-001	-2.180620589387086e+001
1	 6.789503051345485e-001	 9.732432403395139e-001	-2.205289157624004e+001
1	 6.682476626545025e-001	 9.806227643595511e-001	-2.227251109581059e+001
1	 6.574759428862533e-001	 9.878772007662448e-001	-2.246386673597141e+001
1	 6.466373139922385e-001	 9.950056317362974e-001	-2.262576342459592e+001
1	 6.357339589423576e-001	 1.002007188984487e+000	-2.275701103681898e+001
1	 6.247680741177057e-001	 1.008881054011098e+000	-2.285642667940070e+001
1	 6.137418679117541e-001	 1.015626458302759e+000	-2.292283695192240e+001
1	 6.026575593307760e-001	 1.022242683486824e+000	-2.295508018015049e+001
1	 5.915173765952790e-001	 1.028729061439508e+000	-2.295200861703253e+001
1	 5.803235557441941e-001	 1.035084974348039e+000	-2.291249060690594e+001
1	 6.934559688385951e-001	 9.711653734441448e-001	-2.195426067155792e+001
1	 6.827648255493757e-001	 9.787111754481978e-001	-2.220452451481566e+001
1	 6.720020528243689e-001	 9.861321595645306e-001	-2.242818757845561e+001
1	 6.611698147169000e-001	 9.934273532925945e-001	-2.262396993765631e+001
1	 6.502702915707009e-001	 1.000595833652521e+000	-2.279059206344322e+001
1	 6.393056786201591e-001	 1.007636727480838e+000	-2.292677731256275e+001
1	 6.282781845862040e-001	 1.014549211679284e+000	-2.303125440092802e+001
1	 6.171900302696303e-001	 1.021332513416781e+000	-2.310275985545377e+001
1	 6.060434471436604e-001	 1.027985910284681e+000	-2.314004043919972e+001
1	 5.948406759475193e-001	 1.034508730405505e+000	-2.314185554486176e+001
1	 5.835839652827812e-001	 1.040900352495448e+000	-2.310697955177710e+001
1	 6.973302193134738e-001	 9.765911511141745e-001	-2.209654411206704e+001
1	 6.865793459638276e-001	 9.841791105561778e-001	-2.235046294180130e+001
1	 6.757564429938407e-001	 9.916415547687792e-001	-2.257825676904098e+001
1	 6.648636865471249e-001	 9.989775058181928e-001	-2.277856284718731e+001
1	 6.539032691487107e-001	 1.006186035567982e+000	-2.295001651149056e+001
1	 6.428773982974777e-001	 1.013266265976422e+000	-2.309125385928341e+001
1	 6.317882950541940e-001	 1.020217369346709e+000	-2.320091441584567e+001
1	 6.206381926269818e-001	 1.027038568530055e+000	-2.327764378028829e+001
1	 6.094293349560167e-001	 1.033729137081809e+000	-2.332009624594312e+001
1	 5.981639752992450e-001	 1.040288399370800e+000	-2.332693738987143e+001
1	 5.868443748208878e-001	 1.046715730642193e+000	-2.329684662623212e+001
1	 5.542402794201589e-001	 9.885619491647812e-001	-2.119221403376040e+001
1	 5.435021060254973e-001	 9.945061633163864e-001	-2.109509893125620e+001
1	 5.327170078595428e-001	 1.000324778960203e+000	-2.098211433278217e+001
1	 5.218871345191708e-001	 1.006017351124409e+000	-2.085353484262310e+001
1	 5.110146377703451e-001	 1.011583482668233e+000	-2.070967435488723e+001
1	 5.001016702530481e-001	 1.017022824127247e+000	-2.055088435479395e+001
1	 4.891503841983314e-001	 1.022335073517847e+000	-2.037755218324280e+001
1	 4.781629301589312e-001	 1.027519976101599e+000	-2.019009926899014e+001
1	 4.671414557548592e-001	 1.032577324110273e+000	-1.998897933276243e+001
1	 4.560881044353323e-001	 1.037506956432366e+000	-1.977467656762098e+001
1	 4.450050142583599e-001	 1.042308758262027e+000	-1.954770379986775e+001
1	 5.575006889620032e-001	 9.943773273115256e-001	-2.142306296678879e+001
1	 5.466993464971670e-001	 1.000356509280032e+000	-2.132938404865573e+001
1	 5.358508032182962e-001	 1.006209353886908e+000	-2.121986971488599e+001
1	 5.249572213676379e-001	 1.011935413542708e+000	-2.109480422376032e+001
1	 5.140207653692879e-001	 1.017534288770408e+000	-2.095451147226319e+001
1	 5.030436005265028e-001	 1.023005628049796e+000	-2.079935325728351e+001
1	 4.920278917312021e-001	 1.028349127620793e+000	-2.062972750014201e+001
1	 4.809758021871164e-001	 1.033564531246422e+000	-2.044606643885970e+001
1	 4.698894921480004e-001	 1.038651629936216e+000	-2.024883479258185e+001
1	 4.587711176722779e-001	 1.043610261630902e+000	-2.003852790255796e+001
1	 4.476228293954507e-001	 1.048440310849263e+000	-1.981566985405356e+001
1	 5.607610985034971e-001	 1.000192705458935e+000	-2.164943043425637e+001
1	 5.498965869684840e-001	 1.006206855244298e+000	-2.155932297999501e+001
1	 5.389845985766816e-001	 1.012093928814182e+000	-2.145343637532490e+001
1	 5.280273082157135e-001	 1.017853475961520e+000	-2.133206256256073e+001
1	 5.170268929678102e-001	 1.023485094873038e+000	-2.119553341288277e+001
1	 5.059855307995049e-001	 1.028988431972739e+000	-2.104421895138110e+001
1	 4.949053992635882e-001	 1.034363181724073e+000	-2.087852554551240e+001
1	 4.837886742147887e-001	 1.039609086391518e+000	-2.069889406146462e+001
1	 4.726375285406065e-001	 1.044725935762374e+000	-2.050579799291977e+001
1	 4.614541309086757e-001	 1.049713566829601e+000	-2.029974156669665e+001
1	 4.502406445319921e-001	 1.054571863436612e+000	-2.008125782971660e+001
1	 5.640215080446244e-001	 1.006008083606842e+000	-2.187129744085735e+001
1	 5.530938274394393e-001	 1.012057201209028e+000	-2.178489913442952e+001
1	 5.421183939347026e-001	 1.017978503741883e+000	-2.168279921689314e+001
1	 5.310973950634156e-001	 1.023771538380717e+000	-2.156529537899558e+001
1	 5.200330205659460e-001	 1.029435900976008e+000	-2.143272547237809e+001
1	 5.089274610721061e-001	 1.034971235895975e+000	-2.128546570235437e+001
1	 4.977829067955587e-001	 1.040377235827597e+000	-2.112392878422872e+001
1	 4.866015462420330e-001	 1.045653641536811e+000	-2.094856206771739e+001
1	 4.753855649327763e-001	 1.050800241588682e+000	-2.075984563404305e+001
1	 4.641371441446346e-001	 1.055816872028405e+000	-2.055829037024042e+001
1	 4.528584596681014e-001	 1.060703416024027e+000	-2.034443602519109e+001
1	 5.672819175853689e-001	 1.011823461755081e+000	-2.208864542798211e+001
1	 5.562910679100238e-001	 1.017907547174069e+000	-2.200609630253211e+001
1	 5.452521892923617e-001	 1.023863078669870e+000	-2.190794348946437e+001
1	 5.341674819107612e-001	 1.029689600800171e+000	-2.179448852592675e+001
1	 5.230391481637290e-001	 1.035386707079203e+000	-2.166607328442956e+001
1	 5.118693913443568e-001	 1.040954039819402e+000	-2.152307813720823e+001
1	 5.006604143271817e-001	 1.046391289931278e+000	-2.136592008429244e+001
1	 4.894144182689337e-001	 1.051698196682225e+000	-2.119505084991338e+001
1	 4.781336013246084e-001	 1.056874547415076e+000	-2.101095495187236e+001
1	 4.668201573802652e-001	 1.061920177227259e+000	-2.081414774847829e+001
1	 4.554762748038950e-001	 1.066834968611455e+000	-2.060517346762264e+001
1	 5.705423271257143e-001	 1.017638839903487e+000	-2.230145626123925e+001
1	 5.594883083802298e-001	 1.023757893139266e+000	-2.222289864539577e+001
1	 5.483859846496617e-001	 1.029747653597998e+000	-2.212885478007470e+001
1	 5.372375687577682e-001	 1.035607663219751e+000	-2.201962817959562e+001
1	 5.260452757611932e-001	 1.041337513182507e+000	-2.189556281110731e+001
1	 5.148113216163088e-001	 1.046936843742920e+000	-2.175704123434674e+001
1	 5.035379218585261e-001	 1.052405344035029e+000	-2.160448270531340e+001
1	 4.922272902955757e-001	 1.057742751827686e+000	-2.143834124854550e+001
1	 4.808816377162019e-001	 1.062948853241491e+000	-2.125910370267579e+001
1	 4.695031706156770e-001	 1.068023482426107e+000	-2.106728774392396e+001
1	 4.580940899394900e-001	 1.072966521198848e+000	-2.086343989214490e+001
1	 5.738027366656446e-001	 1.023454218051892e+000	-2.250971221840275e+001
1	 5.626855488500479e-001	 1.029608239104461e+000	-2.243529068410636e+001
1	 5.515197800066060e-001	 1.035632228526125e+000	-2.234551900334411e+001
1	 5.403076556044534e-001	 1.041525725639328e+000	-2.224070083043537e+001
1	 5.290514033583723e-001	 1.047288319285806e+000	-2.212118033354093e+001
1	 5.177532518880132e-001	 1.052919647666428e+000	-2.198734031359160e+001
1	 5.064154293896601e-001	 1.058419398138762e+000	-2.183960028738410e+001
1	 4.950401623220435e-001	 1.063787306973117e+000	-2.167841453957331e+001
1	 4.836296741076555e-001	 1.069023159067863e+000	-2.150427014828789e+001
1	 4.721861838509799e-001	 1.074126787624892e+000	-2.131768498906401e+001
1	 4.607119050750031e-001	 1.079098073786155e+000	-2.111920572176466e+001
1	 5.770631462051433e-001	 1.029269596200132e+000	-2.271339597776940e+001
1	 5.658827893194698e-001	 1.035458585069502e+000	-2.264325728957332e+001
1	 5.546535753631967e-001	 1.041516803454109e+000	-2.255792239222133e+001
1	 5.433777424508345e-001	 1.047443788058774e+000	-2.245769327419506e+001
1	 5.320575309553004e-001	 1.053239125388984e+000	-2.234291244290633e+001
1	 5.206951821595213e-001	 1.058902451589823e+000	-2.221396102653636e+001
1	 5.092929369206524e-001	 1.064433452242388e+000	-2.207125684033067e+001
1	 4.978530343484220e-001	 1.069831862118443e+000	-2.191525242211926e+001
1	 4.863777104990680e-001	 1.075097464894125e+000	-2.174643304182499e+001
1	 4.748691970862837e-001	 1.080230092823560e+000	-2.156531468969179e+001
1	 4.633297202105512e-001	 1.085229626373328e+000	-2.137244204792945e+001
1	 5.803235557441941e-001	 1.035084974348039e+000	-2.291249060690595e+001
1	 5.690800297884867e-001	 1.041308931034233e+000	-2.284678367270167e+001
1	 5.577873707194374e-001	 1.047401378381807e+000	-2.276605148904280e+001
1	 5.464478292969289e-001	 1.053361850477960e+000	-2.267059260336310e+001
1	 5.350636585520111e-001	 1.059189931491927e+000	-2.256074603171603e+001
1	 5.236371124308838e-001	 1.064885255513005e+000	-2.243688934722666e+001
1	 5.121704444515711e-001	 1.070447506345819e+000	-2.229943673332735e+001
1	 5.006659063747958e-001	 1.075876417263589e+000	-2.214883700658222e+001
1	 4.891257468905379e-001	 1.081171770720215e+000	-2.198557161388645e+001
1	 4.775522103216985e-001	 1.086333398022053e+000	-2.181015260880172e+001
1	 4.659475353462514e-001	 1.091361178960316e+000	-2.162312061175090e+001
1	 5.835839652827812e-001	 1.040900352495448e+000	-2.310697955177710e+001
1	 5.722772702570900e-001	 1.047159276998498e+000	-2.304585537489553e+001
1	 5.609211660753308e-001	 1.053285953309077e+000	-2.296989313688898e+001
1	 5.495179161427544e-001	 1.059279912896756e+000	-2.287938619887786e+001
1	 5.380697861485384e-001	 1.065140737594519e+000	-2.277466828540186e+001
1	 5.265790427021528e-001	 1.070868059435873e+000	-2.265611156315229e+001
1	 5.150479519824853e-001	 1.076461560448969e+000	-2.252412468485748e+001
1	 5.034787784012496e-001	 1.081920972408479e+000	-2.237915080314903e+001
1	 4.918737832821646e-001	 1.087246076546066e+000	-2.222166555921544e+001
1	 4.802352235573338e-001	 1.092436703220316e+000	-2.205217505102496e+001
1	 4.685653504822201e-001	 1.097492731547069e+000	-2.187121378585568e+001
1	 5.868443748208878e-001	 1.046715730642193e+000	-2.329684662623212e+001
1	 5.754745107252709e-001	 1.053009622962143e+000	-2.324045825887653e+001
1	 5.640549614308797e-001	 1.059170528235776e+000	-2.316943447123111e+001
1	 5.525880029883279e-001	 1.065197975315034e+000	-2.308406172211523e+001
1	 5.410759137449159e-001	 1.071091543696645e+000	-2.298466667417783e+001
1	 5.295209729733791e-001	 1.076850863358325e+000	-2.287161426654136e+001
1	 5.179254595134631e-001	 1.082475614551749e+000	-2.274530575301107e+001
1	 5.062916504278681e-001	 1.087965527553038e+000	-2.260617671068795e+001
1	 4.946218196740463e-001	 1.093320382371615e+000	-2.245469502380549e+001
1	 4.829182367932998e-001	 1.098540008418292e+000	-2.229135884758325e+001
1	 4.711831656185745e-001	 1.103624284133538e+000	-2.211669455684368e+001
1	 4.450050142583599e-001	 1.042308758262027e+000	-1.954770379986775e+001
1	 4.338926480438308e-001	 1.046983352405783e+000	-1.931342674887963e+001
1	 4.227547913355574e-001	 1.051529986206963e+000	-1.907737423271504e+001
1	 4.115935603539075e-001	 1.055948682142524e+000	-1.884024010173093e+001
1	 4.004110612167509e-001	 1.060239507260171e+000	-1.860274390075568e+001
1	 3.892093888243872e-001	 1.064402572652689e+000	-1.836562810979616e+001
1	 3.779906257690123e-001	 1.068438032900888e+000	-1.812965539977930e+001
1	 3.667568412696644e-001	 1.072346085486329e+000	-1.789560590894789e+001
1	 3.555100901335350e-001	 1.076126970175029e+000	-1.766427454534903e+001
1	 3.442524117444684e-001	 1.079780968373366e+000	-1.743646832066322e+001
1	 3.329858290794200e-001	 1.083308402457412e+000	-1.721300372041349e+001
1	 4.476228293954507e-001	 1.048440310849263e+000	-1.981566985405356e+001
1	 4.364450928600323e-001	 1.053142404061580e+000	-1.958571029460482e+001
1	 4.252417158789147e-001	 1.057715784183553e+000	-1.935422753501430e+001
1	 4.140148271214728e-001	 1.062160473824358e+000	-1.912187695242590e+001
1	 4.027665450951534e-001	 1.066476540426113e+000	-1.888933962638528e+001
1	 3.914989770238443e-001	 1.070664095735122e+000	-1.865731962093463e+001
1	 3.802142177509245e-001	 1.074723295241534e+000	-1.842654128102923e+001
1	 3.689143486679464e-001	 1.078654337588626e+000	-1.819774654883686e+001
1	 3.576014366698349e-001	 1.082457463952872e+000	-1.797169230530311e+001
1	 3.462775331374384e-001	 1.086132957396065e+000	-1.774914774217373e+001
1	 3.349446729481994e-001	 1.089681142190702e+000	-1.753089176946736e+001
1	 4.502406445319921e-001	 1.054571863436612e+000	-2.008125782971660e+001
1	 4.389975376756976e-001	 1.059301455717451e+000	-1.985587591760569e+001
1	 4.277286404217619e-001	 1.063901582160182e+000	-1.962922195261055e+001
1	 4.164360938885639e-001	 1.068372265506202e+000	-1.940191481595766e+001
1	 4.051220289731260e-001	 1.072713573592043e+000	-1.917459915238687e+001
1	 3.937885652229204e-001	 1.076925618817524e+000	-1.894794268938962e+001
1	 3.824378097325087e-001	 1.081008557582138e+000	-1.872263357004600e+001
1	 3.710718560659539e-001	 1.084962589690872e+000	-1.849937770496963e+001
1	 3.596927832059128e-001	 1.088787957730661e+000	-1.827889614869698e+001
1	 3.483026545302353e-001	 1.092484946418709e+000	-1.806192250566666e+001
1	 3.369035168168484e-001	 1.096053881923943e+000	-1.784920037074001e+001
1	 4.528584596681014e-001	 1.060703416024027e+000	-2.034443602519109e+001
1	 4.415499824909459e-001	 1.065460507373348e+000	-2.012388760053774e+001
1	 4.302155649642157e-001	 1.070087380136803e+000	-1.990231811695781e+001
1	 4.188573606552924e-001	 1.074584057188009e+000	-1.968031189770868e+001
1	 4.074775128507713e-001	 1.078950606757912e+000	-1.945847914328257e+001
1	 3.960781534217086e-001	 1.083187141899845e+000	-1.923745328359125e+001
1	 3.846614017138454e-001	 1.087293819922646e+000	-1.901788834301218e+001
1	 3.732293634637551e-001	 1.091270841793014e+000	-1.880045632376902e+001
1	 3.617841297418241e-001	 1.095118451508342e+000	-1.858584461293650e+001
1	 3.503277759229020e-001	 1.098836935441248e+000	-1.837475341818584e+001
1	 3.388623606853999e-001	 1.102426621657084e+000	-1.816789323718122e+001
1	 4.554762748038950e-001	 1.066834968611455e+000	-2.060517346762264e+001
1	 4.441024273058964e-001	 1.071619559029224e+000	-2.038971015408483e+001
1	 4.327024895063937e-001	 1.076273178113373e+000	-2.017347756458164e+001
1	 4.212786274217699e-001	 1.080795848869734e+000	-1.995702736390742e+001
1	 4.098329967281922e-001	 1.085187639923671e+000	-1.974093725986499e+001
1	 3.983677416203011e-001	 1.089448664982036e+000	-1.952580838424260e+001
1	 3.868849936950153e-001	 1.093579082263007e+000	-1.931226268590659e+001
1	 3.753868708614180e-001	 1.097579093894998e+000	-1.910094034144749e+001
1	 3.638754762776242e-001	 1.101448945285860e+000	-1.889249718864135e+001
1	 3.523528973154823e-001	 1.105188924463627e+000	-1.868760218780989e+001
1	 3.408212045538864e-001	 1.108799361390078e+000	-1.848693491596945e+001
1	 4.580940899394900e-001	 1.072966521198848e+000	-2.086343989214490e+001
1	 4.466548721206684e-001	 1.077778610685035e+000	-2.065330919329976e+001
1	 4.351894140484124e-001	 1.082458976089843e+000	-2.044266271121825e+001
1	 4.236998941881077e-001	 1.087007640551330e+000	-2.023202131417449e+001
1	 4.121884806054926e-001	 1.091424673089274e+000	-2.002193213073020e+001
1	 4.006573298187909e-001	 1.095710188064046e+000	-1.981296595539641e+001
1	 3.891085856760995e-001	 1.099864344603167e+000	-1.960571466565082e+001
1	 3.775443782590107e-001	 1.103887345996768e+000	-1.940078865572573e+001
1	 3.659668228133681e-001	 1.107779439063160e+000	-1.919881429240748e+001
1	 3.543780187080192e-001	 1.111540913485793e+000	-1.900043139790669e+001
1	 3.427800484223401e-001	 1.115172101122873e+000	-1.880629076467580e+001
1	 4.607119050750031e-001	 1.079098073786155e+000	-2.111920572176466e+001
1	 4.492073169353806e-001	 1.083937662340732e+000	-2.091465111475179e+001
1	 4.376763385903898e-001	 1.088644774066171e+000	-2.070983682683670e+001
1	 4.261211609544175e-001	 1.093219432232752e+000	-2.050525475500452e+001
1	 4.145439644827756e-001	 1.097661706254673e+000	-2.030142332478278e+001
1	 4.029469180172703e-001	 1.101971711145824e+000	-2.009888491651777e+001
1	 3.913321776571787e-001	 1.106149606943075e+000	-1.989820330224062e+001
1	 3.797018856566011e-001	 1.110195598098271e+000	-1.969996109851607e+001
1	 3.680581693491115e-001	 1.114109932840187e+000	-1.950475724050118e+001
1	 3.564031401005560e-001	 1.117892902507692e+000	-1.931320448226713e+001
1	 3.447388922907940e-001	 1.121544840855421e+000	-1.912592692823975e+001
1	 4.633297202105512e-001	 1.085229626373328e+000	-2.137244204792945e+001
1	 4.517597617501526e-001	 1.090096713996271e+000	-2.117370307444898e+001
1	 4.401632631324425e-001	 1.094830572042311e+000	-2.097496401150506e+001
1	 4.285424277208113e-001	 1.099431223913954e+000	-2.077668957414654e+001
1	 4.168994483601443e-001	 1.103898739419819e+000	-2.057937132467100e+001
1	 4.052365062158326e-001	 1.108233234227321e+000	-2.038352511549318e+001
1	 3.935557696383331e-001	 1.112434869282676e+000	-2.018968854182202e+001
1	 3.818593930542573e-001	 1.116503850199452e+000	-1.999841840953047e+001
1	 3.701495158849095e-001	 1.120440426616887e+000	-1.981028822344220e+001
1	 3.584282614931360e-001	 1.124244891529271e+000	-1.962588570107868e+001
1	 3.466977361592805e-001	 1.127917580587672e+000	-1.944581031672700e+001
1	 4.659475353462514e-001	 1.091361178960316e+000	-2.162312061175091e+001
1	 4.543122065651033e-001	 1.096255765651604e+000	-2.143043296650438e+001
1	 4.426501876746877e-001	 1.101016370018216e+000	-2.123800917207364e+001
1	 4.309636944874001e-001	 1.105643015594888e+000	-2.104628851584922e+001
1	 4.192549322377017e-001	 1.110135772584664e+000	-2.085573750111966e+001
1	 4.075260944145701e-001	 1.114494757308485e+000	-2.066684730255030e+001
1	 3.957793616196440e-001	 1.118720131621919e+000	-2.048013123067306e+001
1	 3.840169004520477e-001	 1.122812102300257e+000	-2.029612221078039e+001
1	 3.722408624208176e-001	 1.126770920393205e+000	-2.011537028144515e+001
1	 3.604533828858025e-001	 1.130596880550478e+000	-1.993844011771277e+001
1	 3.486565800278319e-001	 1.134290320319577e+000	-1.976590858383463e+001
1	 4.685653504822201e-001	 1.097492731547069e+000	-2.187121378585568e+001
1	 4.568646513803520e-001	 1.102414817306685e+000	-2.168480940251734e+001
1	 4.451371122172427e-001	 1.107202167993842e+000	-2.149893799963708e+001
1	 4.333849612542961e-001	 1.111854807275511e+000	-2.131401515693385e+001
1	 4.216104161155513e-001	 1.116372805749161e+000	-2.113048408812188e+001
1	 4.098156826135754e-001	 1.120756280389267e+000	-2.094881310505153e+001
1	 3.980029536011918e-001	 1.125005393960752e+000	-2.076949309006027e+001
1	 3.861744078500397e-001	 1.129120354400631e+000	-2.059303498193004e+001
1	 3.743322089568910e-001	 1.133101414169086e+000	-2.041996728068422e+001
1	 3.624785042785985e-001	 1.136948869571257e+000	-2.025083357628700e+001
1	 3.506154238964809e-001	 1.140663060051086e+000	-2.008619010611943e+001
1	 4.711831656185745e-001	 1.103624284133538e+000	-2.211669455684368e+001
1	 4.594170961960175e-001	 1.108573868961468e+000	-2.193680169164341e+001
1	 4.476240367602246e-001	 1.113387965969144e+000	-2.175771694774875e+001
1	 4.358062280216104e-001	 1.118066598955774e+000	-2.157983388366743e+001
1	 4.239658999937963e-001	 1.122609838913262e+000	-2.140357415895763e+001
1	 4.121052708129413e-001	 1.127017803469615e+000	-2.122938500312825e+001
1	 4.002265455830573e-001	 1.131290656299120e+000	-2.105773669193284e+001
1	 3.883319152483020e-001	 1.135428606500521e+000	-2.088912003647088e+001
1	 3.764235554931850e-001	 1.139431907944475e+000	-2.072404389034809e+001
1	 3.645036256715677e-001	 1.143300858591557e+000	-2.056303267997726e+001
1	 3.525742677652601e-001	 1.147035799782149e+000	-2.040662396291661e+001
1	 3.329858290794200e-001	 1.083308402457412e+000	-1.721300372041349e+001
1	 3.217123475926619e-001	 1.086709634806486e+000	-1.699625300908197e+001
1	 3.104339538237796e-001	 1.089985066273683e+000	-1.678858415278666e+001
1	 2.991526150132510e-001	 1.093135136259025e+000	-1.659081574491367e+001
1	 2.878702784020723e-001	 1.096160322218095e+000	-1.640376824522212e+001
1	 2.765888703972086e-001	 1.099061138879599e+000	-1.622826135063752e+001
1	 2.653102957682797e-001	 1.101838137444058e+000	-1.606511143024683e+001
1	 2.540364368758318e-001	 1.104491904764940e+000	-1.591512902840133e+001
1	 2.427691529314908e-001	 1.107023062513534e+000	-1.577911643955596e+001
1	 2.315102792902392e-001	 1.109432266328881e+000	-1.565786535819840e+001
1	 2.202616267749964e-001	 1.111720204954052e+000	-1.555215460693945e+001
1	 3.349446729481994e-001	 1.089681142190702e+000	-1.753089176946736e+001
1	 3.236048733537980e-001	 1.093102382847857e+000	-1.731929295113962e+001
1	 3.122601325799639e-001	 1.096397082578721e+000	-1.711672218030267e+001
1	 3.009124294397890e-001	 1.099565683368168e+000	-1.692397084737827e+001
1	 2.895637226292336e-001	 1.102608665480506e+000	-1.674183252275325e+001
1	 2.782159498876675e-001	 1.105526546672431e+000	-1.657110034225448e+001
1	 2.668710271898299e-001	 1.108319881387002e+000	-1.641256445617582e+001
1	 2.555308479695611e-001	 1.110989259929961e+000	-1.626700954575768e+001
1	 2.441972823756038e-001	 1.113535307629695e+000	-1.613521241074262e+001
1	 2.328721765597172e-001	 1.115958683982159e+000	-1.601793963135884e+001
1	 2.215573519972832e-001	 1.118260081782081e+000	-1.591594530779936e+001
1	 3.369035168168484e-001	 1.096053881923943e+000	-1.784920037074001e+001
1	 3.254973991148399e-001	 1.099495130889186e+000	-1.764309584641790e+001
1	 3.140863113360830e-001	 1.102809098883723e+000	-1.744597964688564e+001
1	 3.026722438662864e-001	 1.105996230477284e+000	-1.725861169532502e+001
1	 2.912571668563761e-001	 1.109057008742898e+000	-1.708175438101439e+001
1	 2.798430293781279e-001	 1.111991954465246e+000	-1.691616996739709e+001
1	 2.684317586114020e-001	 1.114801625329929e+000	-1.676261806291241e+001
1	 2.570252590633344e-001	 1.117486615094961e+000	-1.662185315847191e+001
1	 2.456254118197869e-001	 1.120047552745821e+000	-1.649462223518964e+001
1	 2.342340738292959e-001	 1.122485101635380e+000	-1.638166244570208e+001
1	 2.228530772197077e-001	 1.124799958610022e+000	-1.628369887213804e+001
1	 3.388623606853999e-001	 1.102426621657084e+000	-1.816789323718122e+001
1	 3.273899248758108e-001	 1.105887878930429e+000	-1.796762805846366e+001
1	 3.159124900921533e-001	 1.109221115188658e+000	-1.777632449799193e+001
1	 3.044320582927534e-001	 1.112426777586352e+000	-1.759470682230539e+001
1	 2.929506110835044e-001	 1.115505352005261e+000	-1.742350202286147e+001
1	 2.814701088685893e-001	 1.118457362258053e+000	-1.726343725453715e+001
1	 2.699924900329904e-001	 1.121283369272862e+000	-1.711523733596340e+001
1	 2.585196701571411e-001	 1.123983970259976e+000	-1.697962231555008e+001
1	 2.470535412640223e-001	 1.126559797861965e+000	-1.685730510677762e+001
1	 2.355959710989501e-001	 1.129011519288615e+000	-1.674898919607079e+001
1	 2.241488024422355e-001	 1.131339835437960e+000	-1.665536642629339e+001
1	 3.408212045538864e-001	 1.108799361390078e+000	-1.848693491596945e+001
1	 3.292824506367342e-001	 1.112280626971544e+000	-1.829285672411573e+001
1	 3.177386688481909e-001	 1.115633131493490e+000	-1.810772541600209e+001
1	 3.061918727192004e-001	 1.118857324695348e+000	-1.793222548527475e+001
1	 2.946440553106233e-001	 1.121953695267586e+000	-1.776704438215721e+001
1	 2.830971883590516e-001	 1.124922770050854e+000	-1.761286999015134e+001
1	 2.715532214545899e-001	 1.127765113215821e+000	-1.747038816350939e+001
1	 2.600140812509698e-001	 1.130481325425043e+000	-1.734028032928405e+001
1	 2.484816707082928e-001	 1.133072042978181e+000	-1.722322115750701e+001
1	 2.369578683686545e-001	 1.135537936941932e+000	-1.711987630276629e+001
1	 2.254445276648321e-001	 1.137879712265981e+000	-1.703090022019416e+001
1	 3.427800484223401e-001	 1.115172101122873e+000	-1.880629076467580e+001
1	 3.311749763976341e-001	 1.118673375012488e+000	-1.861874973140992e+001
1	 3.195648476042123e-001	 1.122045147798187e+000	-1.844015179916542e+001
1	 3.079516871456370e-001	 1.125287871804252e+000	-1.827113764392340e+001
1	 2.963374995377376e-001	 1.128402038529865e+000	-1.811235110288383e+001
1	 2.847242678495141e-001	 1.131388177843655e+000	-1.796443669706455e+001
1	 2.731139528761948e-001	 1.134246857158827e+000	-1.782803721346974e+001
1	 2.615084923448095e-001	 1.136978680590200e+000	-1.770379135058501e+001
1	 2.499098001525807e-001	 1.139584288094523e+000	-1.759233143069415e+001
1	 2.383197656383840e-001	 1.142064354595402e+000	-1.749428118224801e+001
1	 2.267402528874632e-001	 1.144419589094170e+000	-1.741025359525502e+001
1	 3.447388922907940e-001	 1.121544840855421e+000	-1.912592692823975e+001
1	 3.330675021585340e-001	 1.125066123053216e+000	-1.894527569823780e+001
1	 3.213910263602337e-001	 1.128457164102716e+000	-1.877357374126143e+001
1	 3.097115015720737e-001	 1.131718418913041e+000	-1.861141394071103e+001
1	 2.980309437648518e-001	 1.134850381792088e+000	-1.845939251896899e+001
1	 2.863513473399765e-001	 1.137853585636464e+000	-1.831810661352746e+001
1	 2.746746842977998e-001	 1.140728601101902e+000	-1.818815191134950e+001
1	 2.630029034386492e-001	 1.143476035755484e+000	-1.807012034515742e+001
1	 2.513379295968685e-001	 1.146096533211043e+000	-1.796459785507913e+001
1	 2.396816629081136e-001	 1.148590772249092e+000	-1.787216221883342e+001
1	 2.280359781100943e-001	 1.150959465922610e+000	-1.779338095336709e+001
1	 3.466977361592805e-001	 1.127917580587672e+000	-1.944581031672700e+001
1	 3.349600279194575e-001	 1.131458871093689e+000	-1.927240395172688e+001
1	 3.232172051162713e-001	 1.134869180407041e+000	-1.910796201195088e+001
1	 3.114713159985207e-001	 1.138148966021693e+000	-1.895302568157846e+001
1	 2.997243879919708e-001	 1.141298725054246e+000	-1.880813963479415e+001
1	 2.879784268304388e-001	 1.144318993429285e+000	-1.867384967300744e+001
1	 2.762354157193992e-001	 1.147210345045066e+000	-1.855070041883831e+001
1	 2.644973145324779e-001	 1.149973390920931e+000	-1.843923307048157e+001
1	 2.527660590411389e-001	 1.152608778327796e+000	-1.833998321981346e+001
1	 2.410435601778181e-001	 1.155117189903075e+000	-1.825347873735426e+001
1	 2.293317033326910e-001	 1.157499342751387e+000	-1.818023772693952e+001
1	 3.486565800278319e-001	 1.134290320319577e+000	-1.976590858383463e+001
1	 3.368525536804284e-001	 1.137851619133862e+000	-1.960010450831818e+001
1	 3.250433838723416e-001	 1.141281196711131e+000	-1.944328803778961e+001
1	 3.132311304249877e-001	 1.144579513130186e+000	-1.929594481730946e+001
1	 3.014178322190991e-001	 1.147747068316332e+000	-1.915856410635997e+001
1	 2.896055063209000e-001	 1.150784401222125e+000	-1.903163648465809e+001
1	 2.777961471409878e-001	 1.153692088988341e+000	-1.891565161312941e+001
1	 2.659917256262847e-001	 1.156470746086580e+000	-1.881109605357129e+001
1	 2.541941884853743e-001	 1.159121023444835e+000	-1.871845115028916e+001
1	 2.424054574474722e-001	 1.161643607557417e+000	-1.863819097673680e+001
1	 2.306274285552188e-001	 1.164039219580587e+000	-1.857078034995044e+001
1	 3.506154238964809e-001	 1.140663060051086e+000	-2.008619010611943e+001
1	 3.387450794414700e-001	 1.144244367173692e+000	-1.992834805451065e+001
1	 3.268695626284607e-001	 1.147693213014952e+000	-1.977952388387849e+001
1	 3.149909448514852e-001	 1.151010060238497e+000	-1.964014392551728e+001
1	 3.031112764462416e-001	 1.154195411578337e+000	-1.951063822308538e+001
1	 2.912325858113605e-001	 1.157249809014989e+000	-1.939143831444530e+001
1	 2.793568785625599e-001	 1.160173832931749e+000	-1.928297506693223e+001
1	 2.674861367200581e-001	 1.162968101252468e+000	-1.918567656947761e+001
1	 2.556223179295574e-001	 1.165633268562213e+000	-1.909996608477960e+001
1	 2.437673547170509e-001	 1.168170025212190e+000	-1.902626006446769e+001
1	 2.319231537776434e-001	 1.170579096410293e+000	-1.896496622996948e+001
1	 3.525742677652601e-001	 1.147035799782149e+000	-2.040662396291661e+001
1	 3.406376052026061e-001	 1.150637115213137e+000	-2.025710592824685e+001
1	 3.286957413846450e-001	 1.154105229318470e+000	-2.011664223612549e+001
1	 3.167507592780232e-001	 1.157440607346606e+000	-1.998559619323306e+001
1	 3.048047206734029e-001	 1.160643754840250e+000	-1.986433489021048e+001
1	 2.928596653018194e-001	 1.163715216807882e+000	-1.975322706690040e+001
1	 2.809176099841100e-001	 1.166655576875311e+000	-1.965264102915237e+001
1	 2.689805478137873e-001	 1.169465456418633e+000	-1.956294262050852e+001
1	 2.570504473736705e-001	 1.172145513679984e+000	-1.948449325185775e+001
1	 2.451292519865291e-001	 1.174696442867462e+000	-1.941764799190982e+001
1	 2.332188789999302e-001	 1.177118973240590e+000	-1.936275372111034e+001
1	 2.202616267749964e-001	 1.111720204954052e+000	-1.555215460693945e+001
1	 2.090266650272629e-001	 1.113887283427750e+000	-1.546234807670973e+001
1	 1.978054629620872e-001	 1.115934606758614e+000	-1.538889173284561e+001
1	 1.865997507942484e-001	 1.117862958275722e+000	-1.533270478512834e+001
1	 1.754112319038042e-001	 1.119673150812978e+000	-1.529468386398931e+001
1	 1.642415823237833e-001	 1.121366025797290e+000	-1.527570104727050e+001
1	 1.530924502600770e-001	 1.122942452330613e+000	-1.527660198226613e+001
1	 1.419654556433717e-001	 1.124403326267059e+000	-1.529820410429536e+001
1	 1.308621897129018e-001	 1.125749569286229e+000	-1.534129495278262e+001
1	 1.197842146317700e-001	 1.126982127963913e+000	-1.540663058556492e+001
1	 1.087330631335390e-001	 1.128101972841276e+000	-1.549493409188484e+001
1	 2.215573519972832e-001	 1.118260081782081e+000	-1.591594530779936e+001
1	 2.102562987405381e-001	 1.120439908450877e+000	-1.582956998958969e+001
1	 1.989690861099369e-001	 1.122499275497582e+000	-1.575923335689332e+001
1	 1.876974544985343e-001	 1.124438970859325e+000	-1.570582456287062e+001
1	 1.764431173068044e-001	 1.126259812151637e+000	-1.567021071577536e+001
1	 1.652077604273180e-001	 1.127962645751250e+000	-1.565323492159673e+001
1	 1.539930417618117e-001	 1.129548345872747e+000	-1.565571442096057e+001
1	 1.428005907704827e-001	 1.131017813640245e+000	-1.567843882154108e+001
1	 1.316320080532950e-001	 1.132371976155270e+000	-1.572216842696620e+001
1	 1.204888649630348e-001	 1.133611785561993e+000	-1.578763266294071e+001
1	 1.093727032498246e-001	 1.134738218110943e+000	-1.587552860105602e+001
1	 2.228530772197077e-001	 1.124799958610022e+000	-1.628369887213804e+001
1	 2.114859324539956e-001	 1.126992533473878e+000	-1.620104505083157e+001
1	 2.001327092580198e-001	 1.129063944236374e+000	-1.613409269754561e+001
1	 1.887951582031090e-001	 1.131014983442705e+000	-1.608369950931426e+001
1	 1.774750027101518e-001	 1.132846473490027e+000	-1.605070170891039e+001
1	 1.661739385312600e-001	 1.134559265704902e+000	-1.603591210505550e+001
1	 1.548936332640131e-001	 1.136154239414550e+000	-1.604011824576692e+001
1	 1.436357258981184e-001	 1.137632301013091e+000	-1.606408066609214e+001
1	 1.324018263942671e-001	 1.138994383023983e+000	-1.610853123122424e+001
1	 1.211935152949278e-001	 1.140241443159786e+000	-1.617417157572350e+001
1	 1.100123433667814e-001	 1.141374463380391e+000	-1.626167163932684e+001
1	 2.241488024422355e-001	 1.131339835437960e+000	-1.665536642629339e+001
1	 2.127155661675898e-001	 1.133545158496847e+000	-1.657671996526962e+001
1	 2.012963324062775e-001	 1.135628612975103e+000	-1.651341216644640e+001
1	 1.898928619079004e-001	 1.137590996025985e+000	-1.646626789448104e+001
1	 1.785068881137598e-001	 1.139433134828279e+000	-1.643609114629359e+001
1	 1.671401166355073e-001	 1.141155885658386e+000	-1.642366313051444e+001
1	 1.557942247665647e-001	 1.142760132956160e+000	-1.642974043884724e+001
1	 1.444708610261475e-001	 1.144246788385735e+000	-1.645505331059998e+001
1	 1.331716447356734e-001	 1.145616789892503e+000	-1.650030399137980e+001
1	 1.218981656272921e-001	 1.146871100757412e+000	-1.656616518668617e+001
1	 1.106519834842415e-001	 1.148010708649726e+000	-1.665327861089105e+001
1	 2.254445276648321e-001	 1.137879712265981e+000	-1.703090022019416e+001
1	 2.139451998812752e-001	 1.140097783519888e+000	-1.695654266297839e+001
1	 2.024599555546520e-001	 1.142193281713881e+000	-1.689713549917782e+001
1	 1.909905656128361e-001	 1.144167008609286e+000	-1.685346940754582e+001
1	 1.795387735175414e-001	 1.146019796166525e+000	-1.682631484118049e+001
1	 1.681062947399582e-001	 1.147752505611837e+000	-1.681642012786877e+001
1	 1.566948162693496e-001	 1.149366026497717e+000	-1.682450966102080e+001
1	 1.453059961544390e-001	 1.150861275758315e+000	-1.685128218245781e+001
1	 1.339414630773692e-001	 1.152239196760960e+000	-1.689740915804382e+001
1	 1.226028159599706e-001	 1.153500758354994e+000	-1.696353324691187e+001
1	 1.112916236020373e-001	 1.154646953919056e+000	-1.705026686477316e+001
1	 2.267402528874632e-001	 1.144419589094170e+000	-1.741025359525502e+001
1	 2.151748335950061e-001	 1.146650408543099e+000	-1.734046226426244e+001
1	 2.036235787030848e-001	 1.148757950452820e+000	-1.728520771743170e+001
1	 1.920882693178441e-001	 1.150743021192732e+000	-1.724524511628682e+001
1	 1.805706589214098e-001	 1.152606457504896e+000	-1.722131007402717e+001
1	 1.690724728445109e-001	 1.154349125565392e+000	-1.721411677840973e+001
1	 1.575954077722513e-001	 1.155971920039361e+000	-1.722435620380066e+001
1	 1.461411312828616e-001	 1.157475763130970e+000	-1.725269441366305e+001
1	 1.347112814192097e-001	 1.158861603629487e+000	-1.729977095447604e+001
1	 1.233074662928061e-001	 1.160130415952655e+000	-1.736619734183818e+001
1	 1.119312637200009e-001	 1.161283199188487e+000	-1.745255563926063e+001
1	 2.280359781100943e-001	 1.150959465922610e+000	-1.779338095336709e+001
1	 2.164044673087371e-001	 1.153203033566577e+000	-1.772842904584196e+001
1	 2.047872018515176e-001	 1.155322619192032e+000	-1.767757509247115e+001
1	 1.931859730228520e-001	 1.157319033776447e+000	-1.764153742791961e+001
1	 1.816025443252783e-001	 1.159193118843525e+000	-1.762101555080676e+001
1	 1.700386509490637e-001	 1.160945745519189e+000	-1.761668827074887e+001
1	 1.584959992751531e-001	 1.162577813581231e+000	-1.762921194306366e+001
1	 1.469762664112842e-001	 1.164090250503836e+000	-1.765921879238850e+001
1	 1.354810997610503e-001	 1.165484010498218e+000	-1.770731532622181e+001
1	 1.240121166256417e-001	 1.166760073550517e+000	-1.777408083914332e+001
1	 1.125709038379645e-001	 1.167919444458127e+000	-1.786006600822739e+001
1	 2.293317033326910e-001	 1.157499342751387e+000	-1.818023772693952e+001
1	 2.176341010224225e-001	 1.159755658590424e+000	-1.812039440818450e+001
1	 2.059508249998919e-001	 1.161887287931629e+000	-1.807418510982839e+001
1	 1.942836767277878e-001	 1.163895046360552e+000	-1.804229005125770e+001
1	 1.826344297290599e-001	 1.165779780182541e+000	-1.802537136273754e+001
1	 1.710048290535148e-001	 1.167542365473366e+000	-1.802407125823592e+001
1	 1.593965907779382e-001	 1.169183707123466e+000	-1.803901029429328e+001
1	 1.478114015395757e-001	 1.170704737877053e+000	-1.807078571619509e+001
1	 1.362509181027461e-001	 1.172106417367284e+000	-1.811996989245882e+001
1	 1.247167669583203e-001	 1.173389731148703e+000	-1.818710883839656e+001
1	 1.132105439557603e-001	 1.174555689728082e+000	-1.827272082927960e+001
1	 2.306274285552188e-001	 1.164039219580587e+000	-1.857078034995044e+001
1	 2.188637347360168e-001	 1.166308283614738e+000	-1.851631084393608e+001
1	 2.071144481481499e-001	 1.168451956671723e+000	-1.847498643519603e+001
1	 1.953813804325791e-001	 1.170471058945171e+000	-1.844744796014760e+001
1	 1.836663151326679e-001	 1.172366441522078e+000	-1.843431894737053e+001
1	 1.719710071577622e-001	 1.174138985428059e+000	-1.843620381781222e+001
1	 1.602971822804898e-001	 1.175789600666207e+000	-1.845368616932896e+001
1	 1.486465366676049e-001	 1.177319225250758e+000	-1.848732714682194e+001
1	 1.370207364441526e-001	 1.178728824236818e+000	-1.853766389898157e+001
1	 1.254214172906847e-001	 1.180019388747333e+000	-1.860520812240810e+001
1	 1.138501840732206e-001	 1.181191934998460e+000	-1.869044469364778e+001
1	 2.319231537776434e-001	 1.170579096410293e+000	-1.896496622996948e+001
1	 2.200933684494744e-001	 1.172860908639617e+000	-1.891613190741289e+001
1	 2.082780712962328e-001	 1.175016625412426e+000	-1.887992888145905e+001
1	 1.964790841371540e-001	 1.177047071530428e+000	-1.885695735813261e+001
1	 1.846982005360155e-001	 1.178953102862265e+000	-1.884780105098021e+001
1	 1.729371852617042e-001	 1.180735605383406e+000	-1.885302541024381e+001
1	 1.611977737826915e-001	 1.182395494209592e+000	-1.887317593456717e+001
1	 1.494816717952408e-001	 1.183933712625089e+000	-1.890877656649268e+001
1	 1.377905547851249e-001	 1.185351231106953e+000	-1.896032817276319e+001
1	 1.261260676225780e-001	 1.186649046346531e+000	-1.902830711020811e+001
1	 1.144898241901776e-001	 1.187828180269368e+000	-1.911316387775870e+001
1	 2.332188789999302e-001	 1.177118973240590e+000	-1.936275372111034e+001
1	 2.213230021627496e-001	 1.179413533665163e+000	-1.931981218510829e+001
1	 2.094416944440826e-001	 1.181581294153850e+000	-1.928896337682673e+001
1	 1.975767878414401e-001	 1.183623084116445e+000	-1.927076564429194e+001
1	 1.857300859390157e-001	 1.185539764203235e+000	-1.926576169220878e+001
1	 1.739033633652391e-001	 1.187332225339542e+000	-1.927447684167921e+001
1	 1.620983652844263e-001	 1.189001387753761e+000	-1.929741737055429e+001
1	 1.503168069223521e-001	 1.190548200000185e+000	-1.933506893567655e+001
1	 1.385603731255183e-001	 1.191973637977820e+000	-1.938789507803185e+001
1	 1.268307179538430e-001	 1.193278703946419e+000	-1.945633581159444e+001
1	 1.151294643064635e-001	 1.194464425540913e+000	-1.954080629642308e+001
1	 1.087330631335390e-001	 1.128101972841276e+000	-1.549493409188484e+001
1	 9.770859064514910e-002	 1.129110240434535e+000	-1.560644878457148e+001
1	 8.671394960130736e-002	 1.130007770653767e+000	-1.574162801491218e+001
1	 7.575060542968273e-002	 1.130795601078155e+000	-1.590149847672347e+001
1	 6.481999231755271e-002	 1.131474789559993e+000	-1.608704464033802e+001
1	 5.392351301257860e-002	 1.132046413292315e+000	-1.629920755719499e+001
1	 4.306253865301493e-002	 1.132511567881462e+000	-1.653888376956246e+001
1	 3.223840862678768e-002	 1.132871366425472e+000	-1.680692432426012e+001
1	 2.145243045885214e-002	 1.133126938599190e+000	-1.710413388905753e+001
1	 1.070587972621754e-002	 1.133279429746903e+000	-1.743126997023579e+001
1	 0.000000000000000e+000	 1.133329999983334e+000	-1.778904222963732e+001
1	 1.093727032498246e-001	 1.134738218110943e+000	-1.587552860105602e+001
1	 9.828337749012930e-002	 1.135752417004074e+000	-1.598608295397703e+001
1	 8.722405866335789e-002	 1.136655227092374e+000	-1.611975236536846e+001
1	 7.619622081778173e-002	 1.137447692058752e+000	-1.627756762254867e+001
1	 6.520130657750442e-002	 1.138130875978492e+000	-1.646051741920494e+001
1	 5.424072694206489e-002	 1.138705862381395e+000	-1.666954713402226e+001
1	 4.331586111564807e-002	 1.139173753318886e+000	-1.690555771532437e+001
1	 3.242805636533392e-002	 1.139535668436983e+000	-1.716940467061074e+001
1	 2.157862790779291e-002	 1.139792744056029e+000	-1.746189715967931e+001
1	 1.076885882381067e-002	 1.139946132257989e+000	-1.778379718983620e+001
1	 0.000000000000000e+000	 1.139996999982150e+000	-1.813581891152779e+001
1	 1.100123433667814e-001	 1.141374463380391e+000	-1.626167163932684e+001
1	 9.885816433581518e-002	 1.142394593573496e+000	-1.637124017682927e+001
1	 8.773416772613640e-002	 1.143302683530986e+000	-1.650333577820284e+001
1	 7.664183620661486e-002	 1.144099783039497e+000	-1.665899229641428e+001
1	 6.558262083817641e-002	 1.144786962397290e+000	-1.683920167113798e+001
1	 5.455794087223356e-002	 1.145365311470925e+000	-1.704491268182331e+001
1	 4.356918357889775e-002	 1.145835938756898e+000	-1.727702980756825e+001
1	 3.261770410439924e-002	 1.146199970449207e+000	-1.753641219270158e+001
1	 2.170482535711995e-002	 1.146458549513681e+000	-1.782387271678210e+001
1	 1.083183792161823e-002	 1.146612834769953e+000	-1.814017716753166e+001
1	 0.000000000000000e+000	 1.146663999981866e+000	-1.848604351504410e+001
1	 1.106519834842415e-001	 1.148010708649726e+000	-1.665327861089105e+001
1	 9.943295118203033e-002	 1.149036770142885e+000	-1.676183374669093e+001
1	 8.824427678946088e-002	 1.149950139969669e+000	-1.689228982859137e+001
1	 7.708745159599865e-002	 1.150751874020427e+000	-1.704568276756583e+001
1	 6.596393509938860e-002	 1.151443048816397e+000	-1.722300679163821e+001
1	 5.487515480291399e-002	 1.152024760560885e+000	-1.742521317377965e+001
1	 4.382250604260982e-002	 1.152498124195458e+000	-1.765320906732251e+001
1	 3.280735184385388e-002	 1.152864272462079e+000	-1.790785644781495e+001
1	 2.183102280673670e-002	 1.153124354972060e+000	-1.818997116004375e+001
1	 1.089481701958661e-002	 1.153279537282697e+000	-1.850032206875898e+001
1	 0.000000000000000e+000	 1.153330999982383e+000	-1.883963031145430e+001
1	 1.112916236020373e-001	 1.154646953919056e+000	-1.705026686477316e+001
1	 1.000077380285982e-001	 1.155678946712327e+000	-1.715777895047909e+001
1	 8.875438585314933e-002	 1.156597596408483e+000	-1.728652812456965e+001
1	 7.753306698574956e-002	 1.157403965001579e+000	-1.743755136813163e+001
1	 6.634524936096094e-002	 1.158099135235820e+000	-1.761184425917656e+001
1	 5.519236873393561e-002	 1.158684209651256e+000	-1.781035967575132e+001
1	 4.407582850663021e-002	 1.159160309634518e+000	-1.803400660719431e+001
1	 3.299699958356809e-002	 1.159528574475531e+000	-1.828364907248389e+001
1	 2.195722025654659e-002	 1.159790160431083e+000	-1.856010514442779e+001
1	 1.095779611766221e-002	 1.159946239796126e+000	-1.886414607824320e+001
1	 0.000000000000000e+000	 1.159997999983599e+000	-1.919649554290225e+001
1	 1.119312637200009e-001	 1.161283199188487e+000	-1.745255563926063e+001
1	 1.005825248753426e-001	 1.162321123281912e+000	-1.755899301150952e+001
1	 8.926449491701982e-002	 1.163245052847492e+000	-1.768596624894842e+001
1	 7.797868237568405e-002	 1.164056055982987e+000	-1.783451243418054e+001
1	 6.672656362271337e-002	 1.164755221655566e+000	-1.800562757567766e+001
1	 5.550958266512782e-002	 1.165343658742019e+000	-1.820026528648327e+001
1	 4.432915097080474e-002	 1.165822495074035e+000	-1.841933557160661e+001
1	 3.318664732341208e-002	 1.166192876489496e+000	-1.866370372308085e+001
1	 2.208341770645305e-002	 1.166455965890665e+000	-1.893418932145707e+001
1	 1.102077521579144e-002	 1.166612942310145e+000	-1.923156534230171e+001
1	 0.000000000000000e+000	 1.166664999985416e+000	-1.955655736609414e+001
1	 1.125709038379645e-001	 1.167919444458127e+000	-1.786006600822739e+001
1	 1.011573117220870e-001	 1.168963299851724e+000	-1.796539503448228e+001
1	 8.977460398089038e-002	 1.169892509286757e+000	-1.809052170320900e+001
1	 7.842429776561860e-002	 1.170708146964687e+000	-1.823648224878843e+001
1	 6.710787788446587e-002	 1.171411308075644e+000	-1.840427220903219e+001
1	 5.582679659632005e-002	 1.172003107833153e+000	-1.859484507985045e+001
1	 4.458247343497931e-002	 1.172484680513963e+000	-1.880911107907398e+001
1	 3.337629506325611e-002	 1.172857178503908e+000	-1.904793601843406e+001
1	 2.220961515635955e-002	 1.173121771350721e+000	-1.931214028249200e+001
1	 1.108375431392067e-002	 1.173279644824656e+000	-1.960249791311397e+001
1	 0.000000000000000e+000	 1.173331999987733e+000	-1.991973579790460e+001
1	 1.132105439557603e-001	 1.174555689728082e+000	-1.827272082927960e+001
1	 1.017320985686550e-001	 1.175605476421850e+000	-1.837690595233292e+001
1	 9.028471304457898e-002	 1.176539965726342e+000	-1.850011385330104e+001
1	 7.886991315536961e-002	 1.177360237946715e+000	-1.864337898703496e+001
1	 6.748919214603828e-002	 1.178067394496061e+000	-1.880769553755773e+001
1	 5.614401052734176e-002	 1.178662556924641e+000	-1.899401604905951e+001
1	 4.483579589899976e-002	 1.179146865954257e+000	-1.920325016643477e+001
1	 3.356594280297038e-002	 1.179521480518698e+000	-1.943626348438808e+001
1	 2.233581260616950e-002	 1.179787576811168e+000	-1.969387650392951e+001
1	 1.114673341199630e-002	 1.179946347339565e+000	-1.997686369488139e+001
1	 0.000000000000000e+000	 1.179998999990450e+000	-2.028595266282765e+001
1	 1.138501840732206e-001	 1.181191934998460e+000	-1.869044469364778e+001
1	 1.023068854148703e-001	 1.182247652992378e+000	-1.879344847487435e+001
1	 9.079482210790363e-002	 1.183187422166307e+000	-1.891466387726664e+001
1	 7.931552854475356e-002	 1.184012328929106e+000	-1.905512266285611e+001
1	 6.787050640725066e-002	 1.184723480916826e+000	-1.921581679633364e+001
1	 5.646122445802236e-002	 1.185322006016463e+000	-1.939769705273348e+001
1	 4.508911836271199e-002	 1.185809051394874e+000	-1.960167173496221e+001
1	 3.375559054242515e-002	 1.186185782533802e+000	-1.982860550023256e+001
1	 2.246201005578633e-002	 1.186453382271919e+000	-2.007931829425004e+001
1	 1.120971250996473e-002	 1.186613049854775e+000	-2.035458439180085e+001
1	 0.000000000000000e+000	 1.186665999993467e+000	-2.065513154219763e+001
1	 1.144898241901776e-001	 1.187828180269368e+000	-1.911316387775870e+001
1	 1.028816722605564e-001	 1.188889829563394e+000	-1.921494703916173e+001
1	 9.130493117068236e-002	 1.189834878606717e+000	-1.933409471462141e+001
1	 7.976114393358696e-002	 1.190664419911896e+000	-1.947163507767534e+001
1	 6.825182066792289e-002	 1.191379567337946e+000	-1.962855702533302e+001
1	 5.677843838819124e-002	 1.191981455108598e+000	-1.980580876280198e+001
1	 4.534244082596187e-002	 1.192471236835767e+000	-2.000429649828302e+001
1	 3.394523828149064e-002	 1.192850084549151e+000	-2.022488324692854e+001
1	 2.258820750511350e-002	 1.193119187732893e+000	-2.046838774283972e+001
1	 1.127269160777236e-002	 1.193279752370191e+000	-2.073558345778438e+001
1	 0.000000000000000e+000	 1.193332999996683e+000	-2.102719772511394e+001
1	 1.151294643064635e-001	 1.194464425540913e+000	-1.954080629642308e+001
1	 1.034564591055369e-001	 1.195532006134985e+000	-1.964132776151042e+001
1	 9.181504023273319e-002	 1.196482335047633e+000	-1.975833101742208e+001
1	 8.020675932168628e-002	 1.197316510895122e+000	-1.989283977074993e+001
1	 6.863313492787490e-002	 1.198035653759429e+000	-2.004583901928427e+001
1	 5.709565231767782e-002	 1.198640904201028e+000	-2.021827361412901e+001
1	 4.559576328859526e-002	 1.199133422276893e+000	-2.041104693203211e+001
1	 3.413488602003709e-002	 1.199514386564678e+000	-2.062501965705866e+001
1	 2.271440495405443e-002	 1.199784993194003e+000	-2.086100867051805e+001
1	 1.133567070536557e-002	 1.199946454885717e+000	-2.111978604785257e+001
1	 0.000000000000000e+000	 1.200000000000000e+000	-2.140207816100038e+001
1	 1.200000000000000e+000	 0.000000000000000e+000	 2.509117268237874e+001
1	 1.199946454885717e+000	 1.133567070536561e-002	 2.464197466903283e+001
1	 1.199784993194003e+000	 2.271440495405450e-002	 2.419542002394289e+001
1	 1.199514386564678e+000	 3.413488602003700e-002	 2.375061797287768e+001
1	 1.199133422276893e+000	 4.559576328859522e-002	 2.330669975579268e+001
1	 1.198640904201028e+000	 5.709565231767782e-002	 2.286282045697788e+001
1	 1.198035653759429e+000	 6.863313492787491e-002	 2.241816085014059e+001
1	 1.197316510895122e+000	 8.020675932168629e-002	 2.197192925550052e+001
1	 1.196482335047633e+000	 9.181504023273307e-002	 2.152336340584100e+001
1	 1.195532006134985e+000	 1.034564591055369e-001	 2.107173231833160e+001
1	 1.194464425540913e+000	 1.151294643064634e-001	 2.061633816880983e+001
1	 1.206667000003317e+000	 0.000000000000000e+000	 2.507703561479625e+001
1	 1.206613157401256e+000	 1.139864980270443e-002	 2.461113241890525e+001
1	 1.206450798655161e+000	 2.284060240253764e-002	 2.414830866354919e+001
1	 1.206178688580310e+000	 3.432453375796890e-002	 2.368768126905595e+001
1	 1.205795607718194e+000	 4.584908575049948e-002	 2.322838939880507e+001
1	 1.205300353293716e+000	 5.741286624635845e-002	 2.276959629179718e+001
1	 1.204691740181260e+000	 6.901444918697730e-002	 2.231049110983163e+001
1	 1.203968601878787e+000	 8.065237470892074e-002	 2.185029079635078e+001
1	 1.203129791489080e+000	 9.232514929392761e-002	 2.138824194387613e+001
1	 1.202174182707195e+000	 1.040312459496886e-001	 2.092362266683272e+001
1	 1.201100670813155e+000	 1.157691044219621e-001	 2.045574447643155e+001
1	 1.213334000006534e+000	 0.000000000000000e+000	 2.506448893444225e+001
1	 1.213279859916706e+000	 1.146162889980340e-002	 2.458206571054537e+001
1	 1.213116604116268e+000	 2.296679985059136e-002	 2.410314092219252e+001
1	 1.212842990595942e+000	 3.451418149532757e-002	 2.362684079523410e+001
1	 1.212457793159563e+000	 4.610240821172792e-002	 2.315231401254362e+001
1	 1.211959802386551e+000	 5.773008017429710e-002	 2.267873354635883e+001
1	 1.211347826603324e+000	 6.939576344530313e-002	 2.220529850485827e+001
1	 1.210620692862775e+000	 8.109799009537091e-002	 2.173123599001598e+001
1	 1.209777247930941e+000	 9.283525835435197e-002	 2.125580296364494e+001
1	 1.208816359279900e+000	 1.046060327931011e-001	 2.077828811841084e+001
1	 1.207736916085966e+000	 1.164087445367639e-001	 2.029801375047119e+001
1	 1.220001000009551e+000	 0.000000000000000e+000	 2.505319188560018e+001
1	 1.219946562431968e+000	 1.152460799669068e-002	 2.455445523351060e+001
1	 1.219782409577216e+000	 2.309299729826907e-002	 2.405961825772826e+001
1	 1.219507292611463e+000	 3.470382923218868e-002	 2.356781807905339e+001
1	 1.219119978600882e+000	 4.635573067237534e-002	 2.307821447461492e+001
1	 1.218619251479407e+000	 5.804729410160456e-002	 2.258999170735724e+001
1	 1.218003913025485e+000	 6.977707770297610e-002	 2.210236036934318e+001
1	 1.217272783846940e+000	 8.154360548117015e-002	 2.161455923590489e+001
1	 1.216424704373056e+000	 9.334536741414577e-002	 2.112585712754120e+001
1	 1.215458535852934e+000	 1.051808196359168e-001	 2.063555477633273e+001
1	 1.214373161359173e+000	 1.170483846510113e-001	 2.014298669351922e+001
1	 1.226668000012267e+000	 0.000000000000000e+000	 2.504281112065053e+001
1	 1.226613264946940e+000	 1.158758709339442e-002	 2.452798861923080e+001
1	 1.226448215037900e+000	 2.321919474562415e-002	 2.401744861837745e+001
1	 1.226171594626763e+000	 3.489347696862784e-002	 2.351034070219960e+001
1	 1.225782164042033e+000	 4.660905313253649e-002	 2.300583729599808e+001
1	 1.225278700572155e+000	 5.836450802839168e-002	 2.250313549029399e+001
1	 1.224659999447606e+000	 7.015839196011998e-002	 2.200145887820952e+001
1	 1.223924874831135e+000	 8.198922086645173e-002	 2.150005940322388e+001
1	 1.223072160815268e+000	 9.385547647344870e-002	 2.099821921419543e+001
1	 1.222100712426131e+000	 1.057556064782785e-001	 2.049525252441412e+001
1	 1.221009406632600e+000	 1.176880247648462e-001	 1.999050747132255e+001
1	 1.233335000014584e+000	 0.000000000000000e+000	 2.503302049984212e+001
1	 1.233279967461519e+000	 1.165056618994280e-002	 2.450236025338113e+001
1	 1.233114020498216e+000	 2.334539219271000e-002	 2.397634626730294e+001
1	 1.232835896641729e+000	 3.508312470472070e-002	 2.345414213677228e+001
1	 1.232444349482895e+000	 4.686237559230622e-002	 2.293493446878382e+001
1	 1.231938149664668e+000	 5.868172195476933e-002	 2.241793469815167e+001
1	 1.231316085869550e+000	 7.053970621685843e-002	 2.190238091634189e+001
1	 1.230576965815212e+000	 8.243483625134906e-002	 2.138753971016558e+001
1	 1.229719617257423e+000	 9.436558553240043e-002	 2.087270800721994e+001
1	 1.228742888999325e+000	 1.063303933203288e-001	 2.035721492483767e+001
1	 1.227645651906074e+000	 1.183276648784110e-001	 1.984042361918120e+001
1	 1.240002000016401e+000	 0.000000000000000e+000	 2.502350089752277e+001
1	 1.239946669975606e+000	 1.171354528636398e-002	 2.447727109430736e+001
1	 1.239779825958058e+000	 2.347158963957999e-002	 2.393603161284463e+001
1	 1.239500198656252e+000	 3.527277244054283e-002	 2.339896158693253e+001
1	 1.239106534923351e+000	 4.711569805177929e-002	 2.286526331882570e+001
1	 1.238597598756819e+000	 5.899893588084832e-002	 2.233416408462712e+001
1	 1.237972172291179e+000	 7.092102047331519e-002	 2.180491795196840e+001
1	 1.237229056799023e+000	 8.288045163599547e-002	 2.127680760699497e+001
1	 1.236367073699361e+000	 9.487569459114065e-002	 2.074914618754276e+001
1	 1.235385065572350e+000	 1.069051801622104e-001	 2.022127911926738e+001
1	 1.234281897179420e+000	 1.189673049918478e-001	 1.969258595136448e+001
1	 1.246669000017617e+000	 0.000000000000000e+000	 2.501394001458738e+001
1	 1.246613372489098e+000	 1.177652438268612e-002	 2.445242849727739e+001
1	 1.246445631417321e+000	 2.359778708628755e-002	 2.389623104420186e+001
1	 1.246164500670219e+000	 3.546242017616987e-002	 2.334454383563186e+001
1	 1.245768720363282e+000	 4.736902051105048e-002	 2.279658636311917e+001
1	 1.245257047848480e+000	 5.931614980673954e-002	 2.225160322175286e+001
1	 1.244628258712357e+000	 7.130233472961398e-002	 2.170886591410542e+001
1	 1.243881147782423e+000	 8.332606702052429e-002	 2.116767466288684e+001
1	 1.243014530140927e+000	 9.538580364980900e-002	 2.062736022919614e+001
1	 1.242027242145039e+000	 1.074799670040657e-001	 2.008728573313586e+001
1	 1.240918142452463e+000	 1.196069451052987e-001	 1.954684847343381e+001
1	 1.253336000018134e+000	 0.000000000000000e+000	 2.500403219691212e+001
1	 1.253280075001894e+000	 1.183950347893738e-002	 2.442754604434225e+001
1	 1.253111436875900e+000	 2.372398453288602e-002	 2.385667677236049e+001
1	 1.252828802683519e+000	 3.565206791167744e-002	 2.329063909623296e+001
1	 1.252430905802570e+000	 4.762234297021459e-002	 2.272867117173259e+001
1	 1.251916496939524e+000	 5.963336373255378e-002	 2.217003637174372e+001
1	 1.251284345132945e+000	 7.168364898587851e-002	 2.161402507391391e+001
1	 1.250533238765264e+000	 8.377168240506890e-002	 2.105995645637512e+001
1	 1.249661986581963e+000	 9.589591270854520e-002	 2.050718029843149e+001
1	 1.248669418717227e+000	 1.080547538460376e-001	 1.995507878298648e+001
1	 1.247554387725030e+000	 1.202465852189060e-001	 1.940306829736382e+001
1	 1.260003000017850e+000	 0.000000000000000e+000	 2.499347825955284e+001
1	 1.259946777513892e+000	 1.190248257514593e-002	 2.440234337959850e+001
1	 1.259777242333688e+000	 2.385018197942882e-002	 2.381710667606980e+001
1	 1.259493104696041e+000	 3.584171564714115e-002	 2.323700286884123e+001
1	 1.259093091241095e+000	 4.787566542936642e-002	 2.266129023412171e+001
1	 1.258575946029822e+000	 5.995057765840189e-002	 2.208925236291203e+001
1	 1.257940431552808e+000	 7.206496324223248e-002	 2.152019992982227e+001
1	 1.257185329747398e+000	 8.421729778976256e-002	 2.095347246928001e+001
1	 1.256309443022313e+000	 9.640602176748886e-002	 2.038844015603680e+001
1	 1.255311595288746e+000	 1.086295406882687e-001	 1.982450558675713e+001
1	 1.254190632996945e+000	 1.208862253328119e-001	 1.926110555935822e+001
1	 1.266670000016666e+000	 0.000000000000000e+000	 2.498198531649537e+001
1	 1.266613480024992e+000	 1.196546167133993e-002	 2.437654604965308e+001
1	 1.266443047790582e+000	 2.397637942596935e-002	 2.377726415268394e+001
1	 1.266157406707675e+000	 3.603136338263665e-002	 2.318339580117318e+001
1	 1.265755276678737e+000	 4.812898788860075e-002	 2.259422082966590e+001
1	 1.265235395119249e+000	 6.026779158439477e-002	 2.200904446950137e+001
1	 1.264596517971808e+000	 7.244627749879959e-002	 2.142719909627722e+001
1	 1.263837420728680e+000	 8.466291317473874e-002	 2.084804598398511e+001
1	 1.262956899461820e+000	 9.691613082677968e-002	 2.027097706273914e+001
1	 1.261953771859432e+000	 1.092043275309016e-001	 1.969541667689729e+001
1	 1.260826878268034e+000	 1.215258654471585e-001	 1.912082334026106e+001
1	 1.194464425540913e+000	 1.151294643064634e-001	 2.061633816880983e+001
1	 1.193278703946419e+000	 1.268307179538431e-001	 2.016138412666201e+001
1	 1.191973637977820e+000	 1.385603731255182e-001	 1.971105897185971e+001
1	 1.190548200000185e+000	 1.503168069223521e-001	 1.926490100859433e+001
1	 1.189001387753761e+000	 1.620983652844261e-001	 1.882248430065101e+001
1	 1.187332225339542e+000	 1.739033633652391e-001	 1.838342026431428e+001
1	 1.185539764203236e+000	 1.857300859390158e-001	 1.794735923940796e+001
1	 1.183623084116445e+000	 1.975767878414401e-001	 1.751399203471357e+001
1	 1.181581294153850e+000	 2.094416944440826e-001	 1.708305144395034e+001
1	 1.179413533665163e+000	 2.213230021627496e-001	 1.665431372844795e+001
1	 1.177118973240590e+000	 2.332188789999303e-001	 1.622760006260049e+001
1	 1.201100670813155e+000	 1.157691044219621e-001	 2.045574447643155e+001
1	 1.199908361547070e+000	 1.275353682843720e-001	 1.998880464397563e+001
1	 1.198596044849500e+000	 1.393301914652340e-001	 1.952698551826876e+001
1	 1.197162687376130e+000	 1.511519420488499e-001	 1.906983952958114e+001
1	 1.195607281298800e+000	 1.629989567856154e-001	 1.861695473139369e+001
1	 1.193928845296552e+000	 1.748695414682985e-001	 1.816795637433701e+001
1	 1.192126425545067e+000	 1.867619713416107e-001	 1.772250845791729e+001
1	 1.190199096703294e+000	 1.986744915453892e-001	 1.728031525629544e+001
1	 1.188145962896061e+000	 2.106053175916603e-001	 1.684112281432740e+001
1	 1.185966158691430e+000	 2.225526358758121e-001	 1.640472041002168e+001
1	 1.183658850071527e+000	 2.345146042220564e-001	 1.597094197953017e+001
1	 1.207736916085966e+000	 1.164087445367639e-001	 2.029801375047118e+001
1	 1.206538019148351e+000	 1.282400186142539e-001	 1.981916961374768e+001
1	 1.205218451721860e+000	 1.401000098043578e-001	 1.934592961086673e+001
1	 1.203777174752788e+000	 1.519870771748144e-001	 1.887786104104432e+001
1	 1.202213174844572e+000	 1.638995482863324e-001	 1.841456662258431e+001
1	 1.200525465254301e+000	 1.758357195709474e-001	 1.795568604518086e+001
1	 1.198713086887629e+000	 1.877938567438565e-001	 1.750089749970888e+001
1	 1.196775109290849e+000	 1.997721952490488e-001	 1.704991918179887e+001
1	 1.194710631638938e+000	 2.117689407390045e-001	 1.660251076543429e+001
1	 1.192518783718309e+000	 2.237822695886923e-001	 1.615847484276010e+001
1	 1.190198726903006e+000	 2.358103294440449e-001	 1.571765832625246e+001
1	 1.214373161359173e+000	 1.170483846510113e-001	 2.014298669351922e+001
1	 1.213167676750082e+000	 1.289446689436272e-001	 1.965233336680757e+001
1	 1.211840858594711e+000	 1.408698281430210e-001	 1.916775811820152e+001
1	 1.210391662129970e+000	 1.528222123003676e-001	 1.868884384890508e+001
1	 1.208819068390886e+000	 1.648001397866880e-001	 1.821520860809433e+001
1	 1.207122085212600e+000	 1.768018976732844e-001	 1.774650712093612e+001
1	 1.205299748230736e+000	 1.888257421458386e-001	 1.728243229384496e+001
1	 1.203351121878933e+000	 2.008698989524904e-001	 1.682271669331040e+001
1	 1.201275300382315e+000	 2.129325638861734e-001	 1.636713399457025e+001
1	 1.199071408745647e+000	 2.250119033014357e-001	 1.591550039635784e+001
1	 1.196738603734889e+000	 2.371060546659301e-001	 1.546767599791317e+001
1	 1.221009406632600e+000	 1.176880247648462e-001	 1.999050747132255e+001
1	 1.219797334352083e+000	 1.296493192726302e-001	 1.948815340086024e+001
1	 1.218463265467869e+000	 1.416396464813551e-001	 1.899234080312380e+001
1	 1.217006149507486e+000	 1.536573474256321e-001	 1.850266890473644e+001
1	 1.215424961937553e+000	 1.657007312867934e-001	 1.801877174291515e+001
1	 1.213718705171260e+000	 1.777680757754080e-001	 1.754031966658096e+001
1	 1.211886409574204e+000	 1.898576275476420e-001	 1.706702081450655e+001
1	 1.209927134467368e+000	 2.019676026557856e-001	 1.659862256687496e+001
1	 1.207839969126025e+000	 2.140961870332251e-001	 1.613491296656903e+001
1	 1.205624033773291e+000	 2.262415370140881e-001	 1.567572210646531e+001
1	 1.203278480567044e+000	 2.384017798877465e-001	 1.522092347896987e+001
1	 1.227645651906074e+000	 1.183276648784110e-001	 1.984042361918120e+001
1	 1.226426991954171e+000	 1.303539696014012e-001	 1.932649029489085e+001
1	 1.225085672341149e+000	 1.424094648194918e-001	 1.881955024455878e+001
1	 1.223620636885148e+000	 1.544924825507298e-001	 1.831921973425560e+001
1	 1.222030855484382e+000	 1.666013227867597e-001	 1.782514943771907e+001
1	 1.220315325130093e+000	 1.787342538774170e-001	 1.733702590795418e+001
1	 1.218473070917847e+000	 1.908895129493519e-001	 1.685457302571711e+001
1	 1.216503147055976e+000	 2.030653063590058e-001	 1.637755342130554e+001
1	 1.214404637869900e+000	 2.152598101802176e-001	 1.590576986602545e+001
1	 1.212176658801087e+000	 2.274711707266946e-001	 1.543906662966061e+001
1	 1.209818357399334e+000	 2.396975051095285e-001	 1.497733080023554e+001
1	 1.234281897179420e+000	 1.189673049918478e-001	 1.969258595136448e+001
1	 1.233056649556165e+000	 1.310586199300786e-001	 1.916720762633056e+001
1	 1.231708079214362e+000	 1.431792831575624e-001	 1.864926176180179e+001
1	 1.230235124262765e+000	 1.553276176757833e-001	 1.813838236812331e+001
1	 1.228636749031183e+000	 1.675019142866980e-001	 1.763423739553185e+001
1	 1.226911945088909e+000	 1.797004319794096e-001	 1.713653017366519e+001
1	 1.225059732261483e+000	 1.919213983510535e-001	 1.664500082784982e+001
1	 1.223079159644581e+000	 2.041630100622224e-001	 1.615942766864387e+001
1	 1.220969306613775e+000	 2.164234333272091e-001	 1.567962855106316e+001
1	 1.218729283828883e+000	 2.287008044393010e-001	 1.520546219987445e+001
1	 1.216358234231624e+000	 2.409932303313104e-001	 1.473682949730798e+001
1	 1.240918142452463e+000	 1.196069451052987e-001	 1.954684847343381e+001
1	 1.239686307157884e+000	 1.317632702588007e-001	 1.901017189088042e+001
1	 1.238330486087321e+000	 1.439491014956986e-001	 1.848135334124267e+001
1	 1.236849611640148e+000	 1.561627528009146e-001	 1.796004527496345e+001
1	 1.235242642577766e+000	 1.684025057867194e-001	 1.744593355043660e+001
1	 1.233508565047521e+000	 1.806666100814845e-001	 1.693873883886726e+001
1	 1.231646393604925e+000	 1.929532837528319e-001	 1.643821800585094e+001
1	 1.229655172233005e+000	 2.052607137655070e-001	 1.594416546621113e+001
1	 1.227533975357481e+000	 2.175870564742576e-001	 1.545641450858574e+001
1	 1.225281908856526e+000	 2.299304381519529e-001	 1.497483858621274e+001
1	 1.222898111063778e+000	 2.422889555531269e-001	 1.449935257033308e+001
1	 1.247554387725030e+000	 1.202465852189060e-001	 1.940306829736382e+001
1	 1.246315964759146e+000	 1.324679205877058e-001	 1.885525242489396e+001
1	 1.244952892959844e+000	 1.447189198340320e-001	 1.831570556542922e+001
1	 1.243464099017107e+000	 1.569978879262462e-001	 1.778409929652057e+001
1	 1.241848536123940e+000	 1.693030972869349e-001	 1.726013800823457e+001
1	 1.240105185005738e+000	 1.816327881837402e-001	 1.674356027082577e+001
1	 1.238233054947990e+000	 1.939851691547721e-001	 1.623414017911608e+001
1	 1.236231184821070e+000	 2.063584174689310e-001	 1.573168867018863e+001
1	 1.234098644100853e+000	 2.187506796214214e-001	 1.523605481095611e+001
1	 1.231834533883864e+000	 2.311600718646958e-001	 1.474712705212572e+001
1	 1.229437987895662e+000	 2.435846807750120e-001	 1.426483444505233e+001
1	 1.254190632996945e+000	 1.208862253328119e-001	 1.926110555935822e+001
1	 1.252945622359772e+000	 1.331725709169322e-001	 1.870232133022421e+001
1	 1.251575299831740e+000	 1.454887381726938e-001	 1.815220154438224e+001
1	 1.250078586393454e+000	 1.578330230519001e-001	 1.761043758487592e+001
1	 1.248454429669515e+000	 1.702036887874557e-001	 1.707675298898945e+001
1	 1.246701804963373e+000	 1.825989662862754e-001	 1.655090477621423e+001
1	 1.244819716290493e+000	 1.950170545569596e-001	 1.603268475295723e+001
1	 1.242807197408601e+000	 2.074561211725660e-001	 1.552192079067238e+001
1	 1.240663312843723e+000	 2.199143027687583e-001	 1.501847807405129e+001
1	 1.238387158910742e+000	 2.323897055775752e-001	 1.452226031587332e+001
1	 1.235977864727140e+000	 2.448804059970006e-001	 1.403321093508691e+001
1	 1.260826878268034e+000	 1.215258654471585e-001	 1.912082334026107e+001
1	 1.259575279959579e+000	 1.338772212466185e-001	 1.855125340144392e+001
1	 1.258197706702826e+000	 1.462585565118158e-001	 1.799072684908018e+001
1	 1.256693073768999e+000	 1.586681581779989e-001	 1.743895554164635e+001
1	 1.255060323214301e+000	 1.711042802883929e-001	 1.689568277138638e+001
1	 1.253298424920236e+000	 1.835651443891883e-001	 1.636068455007497e+001
1	 1.251406377632250e+000	 1.960489399594794e-001	 1.583377087160303e+001
1	 1.249383209995418e+000	 2.085538248764833e-001	 1.531478694814710e+001
1	 1.247227981585924e+000	 2.210779259163266e-001	 1.480361441664169e+001
1	 1.244939783937008e+000	 2.336193392906365e-001	 1.430017251223878e+001
1	 1.242517741558077e+000	 2.461761312191269e-001	 1.380441920541290e+001
1	 1.177118973240590e+000	 2.332188789999303e-001	 1.622760006260049e+001
1	 1.174696442867462e+000	 2.451292519865292e-001	 1.580379717111668e+001
1	 1.172145513679984e+000	 2.570504473736707e-001	 1.538392713368175e+001
1	 1.169465456418633e+000	 2.689805478137872e-001	 1.496788353723639e+001
1	 1.166655576875310e+000	 2.809176099841100e-001	 1.455559609687893e+001
1	 1.163715216807882e+000	 2.928596653018195e-001	 1.414703169271171e+001
1	 1.160643754840250e+000	 3.048047206734029e-001	 1.374219536568777e+001
1	 1.157440607346606e+000	 3.167507592780232e-001	 1.334113126933453e+001
1	 1.154105229318469e+000	 3.286957413846448e-001	 1.294392357424920e+001
1	 1.150637115213138e+000	 3.406376052026062e-001	 1.255069732229003e+001
1	 1.147035799782149e+000	 3.525742677652601e-001	 1.216161922742456e+001
1	 1.183658850071527e+000	 2.345146042220564e-001	 1.597094197953016e+001
1	 1.181222860523273e+000	 2.464911492558901e-001	 1.554060088879526e+001
1	 1.178657758798178e+000	 2.584785768177023e-001	 1.511464626482060e+001
1	 1.175962811585093e+000	 2.704749589074649e-001	 1.469298117959189e+001
1	 1.173137320819037e+000	 2.824783414056346e-001	 1.427554395668369e+001
1	 1.170180624600808e+000	 2.944867447922768e-001	 1.386230917909295e+001
1	 1.167092098102068e+000	 3.064981649005864e-001	 1.345328865681692e+001
1	 1.163871154454499e+000	 3.185105737046083e-001	 1.304853235112393e+001
1	 1.160517245621666e+000	 3.305219201409052e-001	 1.264812925248415e+001
1	 1.157029863252175e+000	 3.425301309638526e-001	 1.225220820915562e+001
1	 1.153408539512741e+000	 3.545331116341913e-001	 1.186093870345894e+001
1	 1.190198726903006e+000	 2.358103294440449e-001	 1.571765832625246e+001
1	 1.187749278179539e+000	 2.478530465251502e-001	 1.528079854314633e+001
1	 1.185170003916729e+000	 2.599067062616638e-001	 1.484876940404861e+001
1	 1.182460166751805e+000	 2.719693700010984e-001	 1.442148429603503e+001
1	 1.179619064762902e+000	 2.840390728271374e-001	 1.399889103936381e+001
1	 1.176646032393761e+000	 2.961138242827326e-001	 1.358097286614699e+001
1	 1.173540441363803e+000	 3.081916091277885e-001	 1.316774935941205e+001
1	 1.170301701562208e+000	 3.202703881312340e-001	 1.275927734957181e+001
1	 1.166929261924586e+000	 3.323480988972305e-001	 1.235565176534024e+001
1	 1.163422611290857e+000	 3.444226567251935e-001	 1.195700643615951e+001
1	 1.159781279242920e+000	 3.564919555032524e-001	 1.156351484324174e+001
1	 1.196738603734889e+000	 2.371060546659301e-001	 1.546767599791317e+001
1	 1.194275695836146e+000	 2.492149437943351e-001	 1.502432033813038e+001
1	 1.191682249035548e+000	 2.613348357055731e-001	 1.458623077349250e+001
1	 1.188957521918703e+000	 2.734637810946987e-001	 1.415333182708128e+001
1	 1.186100808706870e+000	 2.855998042486236e-001	 1.372558169421927e+001
1	 1.183111440186731e+000	 2.977409037731875e-001	 1.330297319182690e+001
1	 1.179988784625471e+000	 3.098850533550047e-001	 1.288553466871801e+001
1	 1.176732248669769e+000	 3.220302025578902e-001	 1.247333087391981e+001
1	 1.173341278227287e+000	 3.341742776536049e-001	 1.206646378012335e+001
1	 1.169815359329259e+000	 3.463151824866051e-001	 1.166507335939829e+001
1	 1.166154018972769e+000	 3.584507993724112e-001	 1.126933830834404e+001
1	 1.203278480567044e+000	 2.384017798877465e-001	 1.522092347896987e+001
1	 1.200802113492981e+000	 2.505768410634697e-001	 1.477109799508555e+001
1	 1.198194494154544e+000	 2.627629651494473e-001	 1.432696602530095e+001
1	 1.195454877085725e+000	 2.749581921882768e-001	 1.388846404068935e+001
1	 1.192582552650905e+000	 2.871605356700989e-001	 1.345556148040535e+001
1	 1.189576847979709e+000	 2.993679832636415e-001	 1.302826167157257e+001
1	 1.186437127887089e+000	 3.115784975822304e-001	 1.260660271056158e+001
1	 1.183162795777224e+000	 3.237900169845663e-001	 1.219065830280986e+001
1	 1.179753294529829e+000	 3.360004564100119e-001	 1.178053855835589e+001
1	 1.176208107367455e+000	 3.482077082480641e-001	 1.137639074028913e+001
1	 1.172526758702372e+000	 3.604096432416351e-001	 1.097839996335458e+001
1	 1.209818357399334e+000	 2.396975051095285e-001	 1.497733080023554e+001
1	 1.207328531149930e+000	 2.519387383325792e-001	 1.452106471171540e+001
1	 1.204706739273630e+000	 2.641910945933041e-001	 1.407091220299347e+001
1	 1.201952232252809e+000	 2.764526032818440e-001	 1.362682249638278e+001
1	 1.199064296594971e+000	 2.887212670915688e-001	 1.318877713423232e+001
1	 1.196042255772687e+000	 3.009950627540954e-001	 1.275679086918809e+001
1	 1.192885471148673e+000	 3.132719418094608e-001	 1.233091251619965e+001
1	 1.189593342884612e+000	 3.255498314112529e-001	 1.191122576348866e+001
1	 1.186165310832270e+000	 3.378266351664351e-001	 1.149784993971601e+001
1	 1.182600855405517e+000	 3.501002340095467e-001	 1.109094073461457e+001
1	 1.178899498431811e+000	 3.623684871108916e-001	 1.069069087039265e+001
1	 1.216358234231624e+000	 2.409932303313104e-001	 1.473682949730798e+001
1	 1.213854948806878e+000	 2.533006356016886e-001	 1.427415512239991e+001
1	 1.211218984392714e+000	 2.656192240371608e-001	 1.381800770405639e+001
1	 1.208449587419890e+000	 2.779470143754111e-001	 1.336835001052877e+001
1	 1.205546040539032e+000	 2.902819985130387e-001	 1.292517653752007e+001
1	 1.202507663565653e+000	 3.026221422445490e-001	 1.248851436865865e+001
1	 1.199333814410241e+000	 3.149653860366913e-001	 1.205842399797837e+001
1	 1.196023889991972e+000	 3.273096458379393e-001	 1.163500011168297e+001
1	 1.192577327134670e+000	 3.396528139228580e-001	 1.121837232649522e+001
1	 1.188993603443521e+000	 3.519927597710294e-001	 1.080870588192088e+001
1	 1.185272238161169e+000	 3.643273309801479e-001	 1.040620228379789e+001
1	 1.222898111063778e+000	 2.422889555531269e-001	 1.449935257033308e+001
1	 1.220381366463713e+000	 2.546625328708232e-001	 1.403030525978003e+001
1	 1.217731229511710e+000	 2.670473534810352e-001	 1.356819224373884e+001
1	 1.214946942586906e+000	 2.794414254689893e-001	 1.311299062273138e+001
1	 1.212027784483051e+000	 2.918427299345141e-001	 1.266470868696815e+001
1	 1.208973071358602e+000	 3.042492217350032e-001	 1.222338674687185e+001
1	 1.205782157671806e+000	 3.166588302639170e-001	 1.178909792577379e+001
1	 1.202454437099345e+000	 3.290694602646155e-001	 1.136194891212078e+001
1	 1.198989343437087e+000	 3.414789926792650e-001	 1.094208066855458e+001
1	 1.195386351481539e+000	 3.538852855324883e-001	 1.052966909525659e+001
1	 1.191644977890528e+000	 3.662861748493719e-001	 1.012492564499061e+001
1	 1.229437987895662e+000	 2.435846807750120e-001	 1.426483444505233e+001
1	 1.226907784120320e+000	 2.560244301400080e-001	 1.378945251756799e+001
1	 1.224243474630525e+000	 2.684754829249444e-001	 1.332140682000427e+001
1	 1.221444297753794e+000	 2.809358365625896e-001	 1.286068956329709e+001
1	 1.218509528426994e+000	 2.934034613560003e-001	 1.240732366450342e+001
1	 1.215438479151522e+000	 3.058763012254581e-001	 1.196136354720951e+001
1	 1.212230500933388e+000	 3.183522744911332e-001	 1.152289590418418e+001
1	 1.208884984206768e+000	 3.308292746912715e-001	 1.109204041967396e+001
1	 1.205401359739581e+000	 3.433051714356393e-001	 1.066895044876112e+001
1	 1.201779099519646e+000	 3.557778112939002e-001	 1.025381365123851e+001
1	 1.198017717619971e+000	 3.682450187185308e-001	 9.846852577495941e+000
1	 1.235977864727140e+000	 2.448804059970006e-001	 1.403321093508691e+001
1	 1.233434201776585e+000	 2.573863274092683e-001	 1.355153561453871e+001
1	 1.230755719749071e+000	 2.699036123689061e-001	 1.307759367959481e+001
1	 1.227941652920490e+000	 2.824302476562229e-001	 1.261139322173336e+001
1	 1.224991272370823e+000	 2.949641927775030e-001	 1.215297260856909e+001
1	 1.221903886944404e+000	 3.075033807159139e-001	 1.170240125397791e+001
1	 1.218678844195001e+000	 3.200457187183354e-001	 1.125978035044643e+001
1	 1.215315531314282e+000	 3.325890891178971e-001	 1.082524356109983e+001
1	 1.211813376042210e+000	 3.451313501919647e-001	 1.039895766888648e+001
1	 1.208171847557914e+000	 3.576703370552409e-001	 9.981123180433150e+000
1	 1.204390457349580e+000	 3.702038625875919e-001	 9.571974882126135e+000
1	 1.242517741558077e+000	 2.461761312191269e-001	 1.380441920541290e+001
1	 1.239960619432395e+000	 2.587482246786292e-001	 1.331649455965813e+001
1	 1.237267964867259e+000	 2.713317418129376e-001	 1.283669628516706e+001
1	 1.234439008086931e+000	 2.839246587499007e-001	 1.236504911624201e+001
1	 1.231473016314503e+000	 2.965249241990277e-001	 1.190160768632040e+001
1	 1.228369294737240e+000	 3.091304602063712e-001	 1.144645726764552e+001
1	 1.225127187456663e+000	 3.217391629455186e-001	 1.099971447304997e+001
1	 1.221746078421927e+000	 3.343489035444824e-001	 1.056152791735918e+001
1	 1.218225392345035e+000	 3.469575289482249e-001	 1.013207883595100e+001
1	 1.214564595596419e+000	 3.595628628164873e-001	 9.711581658041915e+000
1	 1.210763197079440e+000	 3.721627064565229e-001	 9.300284532314988e+000
1	 1.147035799782149e+000	 3.525742677652601e-001	 1.216161922742456e+001
1	 1.143300858591557e+000	 3.645036256715679e-001	 1.177272629736830e+001
1	 1.139431907944475e+000	 3.764235554931851e-001	 1.138013021440161e+001
1	 1.135428606500522e+000	 3.883319152483018e-001	 1.098417852847381e+001
1	 1.131290656299120e+000	 4.002265455830573e-001	 1.058526873345260e+001
1	 1.127017803469615e+000	 4.121052708129412e-001	 1.018384877263967e+001
1	 1.122609838913262e+000	 4.239658999937964e-001	 9.780417467700548e+000
1	 1.118066598955774e+000	 4.358062280216105e-001	 9.375524868403996e+000
1	 1.113387965969144e+000	 4.476240367602244e-001	 8.969772520697260e+000
1	 1.108573868961468e+000	 4.594170961960175e-001	 8.563813650786118e+000
1	 1.103624284133538e+000	 4.711831656185747e-001	 8.158353263041903e+000
1	 1.153408539512741e+000	 3.545331116341913e-001	 1.186093870345894e+001
1	 1.149652847611346e+000	 3.665287470647388e-001	 1.147037310887754e+001
1	 1.145762401719341e+000	 3.785149020297367e-001	 1.107663828040334e+001
1	 1.141736858599893e+000	 3.904894226468796e-001	 1.068008348944282e+001
1	 1.137575918636990e+000	 4.024501375652946e-001	 1.028110799753896e+001
1	 1.133279326549498e+000	 4.143948590127299e-001	 9.880161560368794e+000
1	 1.128846872076932e+000	 4.263213838725058e-001	 9.477744854845547e+000
1	 1.124278390635644e+000	 4.382274947894189e-001	 9.074409826714883e+000
1	 1.119573763944086e+000	 4.501109613037127e-001	 8.670759956166412e+000
1	 1.114732920615915e+000	 4.619695410121816e-001	 8.267450439125700e+000
1	 1.109755836719682e+000	 4.738009807553952e-001	 7.865188282045917e+000
1	 1.159781279242920e+000	 3.564919555032524e-001	 1.156351484324174e+001
1	 1.156004836630688e+000	 3.685538684580830e-001	 1.117125208880876e+001
1	 1.152092895493741e+000	 3.806062485665094e-001	 1.077636565383127e+001
1	 1.148045110698800e+000	 3.926469300457278e-001	 1.037920480629058e+001
1	 1.143861180974407e+000	 4.046737295478509e-001	 9.980168674190262e+000
1	 1.139540849628945e+000	 4.166844472128812e-001	 9.579706748265213e+000
1	 1.135083905240194e+000	 4.286768677516142e-001	 9.178319307798029e+000
1	 1.130490182315132e+000	 4.406487615576512e-001	 8.776557766931688e+000
1	 1.125759561918668e+000	 4.525978858476361e-001	 8.375024938999864e+000
1	 1.120891972270021e+000	 4.645219858287749e-001	 7.974375216540601e+000
1	 1.115887389305492e+000	 4.764187958926180e-001	 7.575314664811258e+000
1	 1.166154018972769e+000	 3.584507993724112e-001	 1.126933830834404e+001
1	 1.162356825649667e+000	 3.705789898515569e-001	 1.087536250717962e+001
1	 1.158423389267759e+000	 3.826975951034477e-001	 1.047931822920882e+001
1	 1.154353362797314e+000	 3.948044374447787e-001	 1.008155304118388e+001
1	 1.150146443311432e+000	 4.068973215306460e-001	 9.682464065365682e+000
1	 1.145802372708010e+000	 4.189740354133045e-001	 9.282498481173956e+000
1	 1.141320938403083e+000	 4.310323516310217e-001	 8.882153950256837e+000
1	 1.136701973994260e+000	 4.430700283262014e-001	 8.481978962374729e+000
1	 1.131945359892904e+000	 4.550848103918861e-001	 8.082573099624030e+000
1	 1.127051023923789e+000	 4.670744306456894e-001	 7.684587216670605e+000
1	 1.122018941890968e+000	 4.790366110301420e-001	 7.288723534815366e+000
1	 1.172526758702372e+000	 3.604096432416351e-001	 1.097839996335458e+001
1	 1.168708814668366e+000	 3.726041112451172e-001	 1.058270364987630e+001
1	 1.164753883041476e+000	 3.847889416404962e-001	 1.018550177291010e+001
1	 1.160661614895509e+000	 3.969619448439649e-001	 9.787138526664826e+000
1	 1.156431705648128e+000	 4.091209135136007e-001	 9.388007183836312e+000
1	 1.152063895786738e+000	 4.212636236139091e-001	 8.988550596427592e+000
1	 1.147557971565633e+000	 4.333878355106287e-001	 8.589261620608657e+000
1	 1.142913765673050e+000	 4.454912950949638e-001	 8.190683463020335e+000
1	 1.138131157866803e+000	 4.575717349363536e-001	 7.793409946058708e+000
1	 1.133210075577222e+000	 4.696268754628187e-001	 7.398085689816810e+000
1	 1.128150494476111e+000	 4.816544261678670e-001	 7.005406208513817e+000
1	 1.178899498431811e+000	 3.623684871108916e-001	 1.069069087039265e+001
1	 1.175060803686873e+000	 3.746292326387209e-001	 1.029327481822463e+001
1	 1.171084376814971e+000	 3.868802881775999e-001	 9.894921926623407e+000
1	 1.166969866993460e+000	 3.991194522432187e-001	 9.495971371857218e+000
1	 1.162716967984558e+000	 4.113445054966350e-001	 9.096810761001375e+000
1	 1.158325418865181e+000	 4.235532118146044e-001	 8.697876632157975e+000
1	 1.153795004727882e+000	 4.357433193903352e-001	 8.299654879639457e+000
1	 1.149125557351524e+000	 4.479125618638322e-001	 7.902681101537307e+000
1	 1.144316955840377e+000	 4.600586594809299e-001	 7.507540867225929e+000
1	 1.139369127230325e+000	 4.721793202800552e-001	 7.114869902491271e+000
1	 1.134282047060920e+000	 4.842722413056925e-001	 6.725354190124333e+000
1	 1.185272238161169e+000	 3.643273309801479e-001	 1.040620228379789e+001
1	 1.181412792705272e+000	 3.766543540323245e-001	 1.000707532857499e+001
1	 1.177414870588328e+000	 3.889716347147038e-001	 9.607584210703344e+000
1	 1.173278119091240e+000	 4.012769596424727e-001	 9.208061468472714e+000
1	 1.169002230320782e+000	 4.135680974796692e-001	 8.808887254452500e+000
1	 1.164586941943386e+000	 4.258428000152994e-001	 8.410489835339572e+000
1	 1.160032037889863e+000	 4.380988032700419e-001	 8.013346017997421e+000
1	 1.155337349029706e+000	 4.503338286327006e-001	 7.617981499128907e+000
1	 1.150502753813638e+000	 4.625455840255059e-001	 7.224971136151487e+000
1	 1.145528178883100e+000	 4.747317650972915e-001	 6.834939136981333e+000
1	 1.140413599645397e+000	 4.868900564435182e-001	 6.448559166579444e+000
1	 1.191644977890528e+000	 3.662861748493719e-001	 1.012492564499061e+001
1	 1.187764781723647e+000	 3.786794754258847e-001	 9.724104511900796e+000
1	 1.183745364361628e+000	 3.910629812517525e-001	 9.323494027415210e+000
1	 1.179586371188922e+000	 4.034344670416589e-001	 8.923418496624411e+000
1	 1.175287492656865e+000	 4.157916894626237e-001	 8.524248855295069e+000
1	 1.170848465021405e+000	 4.281323882159039e-001	 8.126403169574862e+000
1	 1.166269071051614e+000	 4.404542871496486e-001	 7.730347063416152e+000
1	 1.161549140707617e+000	 4.527550954014630e-001	 7.336594071187217e+000
1	 1.156688551786596e+000	 4.650325085699735e-001	 6.945705913063879e+000
1	 1.151687230535551e+000	 4.772842099144207e-001	 6.558292690927583e+000
1	 1.146545152229541e+000	 4.895078715812432e-001	 6.175013002640374e+000
1	 1.198017717619971e+000	 3.682450187185308e-001	 9.846852577495941e+000
1	 1.194116770742085e+000	 3.807045968193585e-001	 9.444361713409398e+000
1	 1.190075858134952e+000	 3.931543277886904e-001	 9.042656664075755e+000
1	 1.185894623286580e+000	 4.055919744407099e-001	 8.642051930454572e+000
1	 1.181572754992868e+000	 4.180152814454189e-001	 8.242907495235984e+000
1	 1.177109988099285e+000	 4.304219764163272e-001	 7.845629322631191e+000
1	 1.172506104213168e+000	 4.428097710290560e-001	 7.450669787707302e+000
1	 1.167760932385280e+000	 4.551763621700133e-001	 7.058528032767112e+000
1	 1.162874349759262e+000	 4.675194331142233e-001	 6.669750248394428e+000
1	 1.157846282187681e+000	 4.798366547313354e-001	 6.284929876915536e+000
1	 1.152676704813351e+000	 4.921256867187672e-001	 5.904707736167578e+000
1	 1.204390457349580e+000	 3.702038625875919e-001	 9.571974882126135e+000
1	 1.200468759760668e+000	 3.827297182127025e-001	 9.167846292165740e+000
1	 1.196406351908382e+000	 3.952456743254629e-001	 8.765077296094423e+000
1	 1.192202875384288e+000	 4.077494818395578e-001	 8.363971043584044e+000
1	 1.187858017328854e+000	 4.202388734279750e-001	 7.964874853446391e+000
1	 1.183371511177076e+000	 4.327115646164784e-001	 7.568180713738276e+000
1	 1.178743137374562e+000	 4.451652549081643e-001	 7.174325713531498e+000
1	 1.173972724062717e+000	 4.575976289382454e-001	 6.783792403886532e+000
1	 1.169060147731649e+000	 4.700063576581465e-001	 6.397109085682120e+000
1	 1.164005333839493e+000	 4.823890995479283e-001	 6.014850022080355e+000
1	 1.158808257396830e+000	 4.947435018559896e-001	 5.637635573541139e+000
1	 1.210763197079440e+000	 3.721627064565229e-001	 9.300284532314988e+000
1	 1.206820748779484e+000	 3.847548396058735e-001	 8.894557620727571e+000
1	 1.202736845682000e+000	 3.973370208620146e-001	 8.490760989918476e+000
1	 1.198511127482119e+000	 4.099069892381354e-001	 8.089184914389305e+000
1	 1.194143279664885e+000	 4.224624654102122e-001	 7.690162363207747e+000
1	 1.189633034254827e+000	 4.350011528162668e-001	 7.294069500655383e+000
1	 1.184980170535832e+000	 4.475207387868736e-001	 6.901326120955181e+000
1	 1.180184515739950e+000	 4.600188957060534e-001	 6.512396014659111e+000
1	 1.175245945703767e+000	 4.724932822016346e-001	 6.127787264386582e+000
1	 1.170164385490992e+000	 4.849415443640924e-001	 5.748052467723803e+000
1	 1.164939809979976e+000	 4.973613169928101e-001	 5.373788885225618e+000
1	 1.103624284133538e+000	 4.711831656185747e-001	 8.158353263041903e+000
1	 1.098540008418292e+000	 4.829182367932998e-001	 7.744873374217516e+000
1	 1.093320382371615e+000	 4.946218196740462e-001	 7.314302199053610e+000
1	 1.087965527553038e+000	 5.062916504278682e-001	 6.866730580253176e+000
1	 1.082475614551749e+000	 5.179254595134631e-001	 6.402243520682689e+000
1	 1.076850863358325e+000	 5.295209729733790e-001	 5.920920455403531e+000
1	 1.071091543696644e+000	 5.410759137449159e-001	 5.422835546868298e+000
1	 1.065197975315034e+000	 5.525880029883279e-001	 4.908058002921708e+000
1	 1.059170528235776e+000	 5.640549614308797e-001	 4.376652417171322e+000
1	 1.053009622962143e+000	 5.754745107252708e-001	 3.828679131223804e+000
1	 1.046715730642193e+000	 5.868443748208878e-001	 3.264194618206669e+000
1	 1.109755836719682e+000	 4.738009807553952e-001	 7.865188282045916e+000
1	 1.104643313615936e+000	 4.856012500296728e-001	 7.455085560088393e+000
1	 1.099394688196809e+000	 4.973698560662537e-001	 7.027704616318710e+000
1	 1.094010082697206e+000	 5.091045224547136e-001	 6.583142868460393e+000
1	 1.088489668654092e+000	 5.208029670445574e-001	 6.121491901266679e+000
1	 1.082833667280287e+000	 5.324629032446049e-001	 5.642837732550769e+000
1	 1.077042349798221e+000	 5.440820413411761e-001	 5.147261102398129e+000
1	 1.071116037732701e+000	 5.556580898336719e-001	 4.634837785211251e+000
1	 1.065055103161805e+000	 5.671887567860980e-001	 4.105638924164932e+000
1	 1.058859968925060e+000	 5.786717511930366e-001	 3.559731387577680e+000
1	 1.052531108788160e+000	 5.901047843585172e-001	 2.997178146631507e+000
1	 1.115887389305492e+000	 4.764187958926180e-001	 7.575314664811258e+000
1	 1.110746618813241e+000	 4.882842632663987e-001	 7.168584669140548e+000
1	 1.105468994021646e+000	 5.001178924587447e-001	 6.744386134311293e+000
1	 1.100054637840989e+000	 5.119173944817586e-001	 6.302827987032505e+000
1	 1.094503722756014e+000	 5.236804745757574e-001	 5.844013631757001e+000
1	 1.088816471201787e+000	 5.354048335158375e-001	 5.368041205645995e+000
1	 1.082993155899291e+000	 5.470881689373441e-001	 4.875003856118823e+000
1	 1.077034100149815e+000	 5.587281766788284e-001	 4.364990040652059e+000
1	 1.070939678087233e+000	 5.703225521410430e-001	 3.838083848419165e+000
1	 1.064710314887335e+000	 5.818689916604577e-001	 3.294365343294558e+000
1	 1.058346486933445e+000	 5.933651938957494e-001	 2.733910927671361e+000
1	 1.122018941890968e+000	 4.790366110301420e-001	 7.288723534815365e+000
1	 1.116849924010209e+000	 4.909672765033883e-001	 6.885354517693267e+000
1	 1.111543299846135e+000	 5.028659288514479e-001	 6.464326501203893e+000
1	 1.106099192984409e+000	 5.147302665089530e-001	 6.025764777821539e+000
1	 1.100517776857554e+000	 5.265579821070365e-001	 5.569789728913728e+000
1	 1.094799275122880e+000	 5.383467637870755e-001	 5.096517063617053e+000
1	 1.088943961999928e+000	 5.500942965334422e-001	 4.606058079092747e+000
1	 1.082952162566470e+000	 5.617982635238442e-001	 4.098519941839934e+000
1	 1.076824253012177e+000	 5.734563474957832e-001	 3.574005989678405e+000
1	 1.070560660849099e+000	 5.850662321276201e-001	 3.032616053942617e+000
1	 1.064161865078198e+000	 5.966256034326836e-001	 2.474446801363400e+000
1	 1.128150494476111e+000	 4.816544261678670e-001	 7.005406208513819e+000
1	 1.122953229206843e+000	 4.936502897405545e-001	 6.605379273903404e+000
1	 1.117617605670288e+000	 5.056139652442927e-001	 6.187505905449131e+000
1	 1.112143748127488e+000	 5.175431385362475e-001	 5.751932542663130e+000
1	 1.106531830958747e+000	 5.294354896383687e-001	 5.298801622197495e+000
1	 1.100782079043621e+000	 5.412886940583167e-001	 4.828251795648625e+000
1	 1.094894768100207e+000	 5.531004241294942e-001	 4.340418166931322e+000
1	 1.088870224982760e+000	 5.648683503687664e-001	 3.835432548918412e+000
1	 1.082708827936749e+000	 5.765901428503867e-001	 3.313423738977693e+000
1	 1.076411006810486e+000	 5.882634725946104e-001	 2.774517812975457e+000
1	 1.069977243222568e+000	 5.998860129694195e-001	 2.218838437252002e+000
1	 1.134282047060920e+000	 4.842722413056925e-001	 6.725354190124333e+000
1	 1.129056534403145e+000	 4.963333029778084e-001	 6.328643448255440e+000
1	 1.123691911494114e+000	 5.083620016372084e-001	 5.913904963879175e+000
1	 1.118188303270249e+000	 5.203560105635913e-001	 5.481311030943637e+000
1	 1.112545885059632e+000	 5.323129971697274e-001	 5.031031142614894e+000
1	 1.106764882964066e+000	 5.442306243295596e-001	 4.563232183066321e+000
1	 1.100845574200202e+000	 5.561065517255233e-001	 4.078078636429019e+000
1	 1.094788287398780e+000	 5.679384372136416e-001	 3.575732812617920e+000
1	 1.088593402861064e+000	 5.797239382049222e-001	 3.056355089689415e+000
1	 1.082261352771629e+000	 5.914607130615146e-001	 2.520104172330997e+000
1	 1.075792621366704e+000	 6.031464225060556e-001	 1.967137366025117e+000
1	 1.140413599645397e+000	 4.868900564435182e-001	 6.448559166579444e+000
1	 1.135159839599118e+000	 4.990163162150624e-001	 6.055131884359040e+000
1	 1.129766217317625e+000	 5.111100380301240e-001	 5.643504710190078e+000
1	 1.124232858412714e+000	 5.231688825909355e-001	 5.213880427568929e+000
1	 1.118559939160247e+000	 5.351905047010860e-001	 4.766460511923659e+000
1	 1.112747686884270e+000	 5.471725546008028e-001	 4.301445291483186e+000
1	 1.106796380299988e+000	 5.591126793215521e-001	 3.819034122305353e+000
1	 1.100706349814623e+000	 5.710085240585168e-001	 3.319425577197305e+000
1	 1.094477977785235e+000	 5.828577335594575e-001	 2.802817648213415e+000
1	 1.088111698732658e+000	 5.946579535284184e-001	 2.269407962365250e+000
1	 1.081607999510756e+000	 6.064068320426921e-001	 1.719394010130343e+000
1	 1.146545152229541e+000	 4.895078715812432e-001	 6.175013002640374e+000
1	 1.141263144794765e+000	 5.016993294522283e-001	 5.784829750041030e+000
1	 1.135840523140828e+000	 5.138580744229687e-001	 5.376286583794586e+000
1	 1.130277413554903e+000	 5.259817546182297e-001	 4.949621341318624e+000
1	 1.124573993260627e+000	 5.380680122324181e-001	 4.505072332184194e+000
1	 1.118730490804286e+000	 5.501144848720440e-001	 4.042878463198150e+000
1	 1.112747186399639e+000	 5.621188069176042e-001	 3.563279374051612e+000
1	 1.106624412230385e+000	 5.740786109034390e-001	 3.066515583290660e+000
1	 1.100362552709377e+000	 5.859915289140608e-001	 2.552828644324604e+000
1	 1.093962044693708e+000	 5.978551939954088e-001	 2.022461311147315e+000
1	 1.087423377654871e+000	 6.096672415794279e-001	 1.475657713408242e+000
1	 1.152676704813351e+000	 4.921256867187672e-001	 5.904707736167578e+000
1	 1.147366449990089e+000	 5.043823426892181e-001	 5.517722528722611e+000
1	 1.141914828963736e+000	 5.166061108156720e-001	 5.112232419031669e+000
1	 1.136321968696841e+000	 5.287946266454243e-001	 4.688514793572270e+000
1	 1.130588047360811e+000	 5.409455197636974e-001	 4.246849575644594e+000
1	 1.124713294724171e+000	 5.530564151432816e-001	 3.787519309836643e+000
1	 1.118697992499228e+000	 5.651249345137025e-001	 3.310809252878241e+000
1	 1.112542474646159e+000	 5.771486977484549e-001	 2.817007470663340e+000
1	 1.106247127633605e+000	 5.891253242688013e-001	 2.306404941189722e+000
1	 1.099812390654912e+000	 6.010524344625714e-001	 1.779295663137811e+000
1	 1.093238755799201e+000	 6.129276511163621e-001	 1.235976769780136e+000
1	 1.158808257396830e+000	 4.947435018559896e-001	 5.637635573541139e+000
1	 1.153469755185090e+000	 5.070653559259436e-001	 5.253796011069524e+000
1	 1.147989134786358e+000	 5.193541472081626e-001	 4.851324434717936e+000
1	 1.142366523838548e+000	 5.316074986724692e-001	 4.430542207393524e+000
1	 1.136602101460835e+000	 5.438230272948974e-001	 3.991775574946818e+000
1	 1.130696098643979e+000	 5.559983454145145e-001	 3.535355705225497e+000
1	 1.124648798598832e+000	 5.681310621098703e-001	 3.061618728759252e+000
1	 1.118460537062040e+000	 5.802187845936114e-001	 2.570905780880569e+000
1	 1.112131702558031e+000	 5.922591196237463e-001	 2.063563045066549e+000
1	 1.105662736616400e+000	 6.042496749299925e-001	 1.539941797274604e+000
1	 1.099054133943893e+000	 6.161880606535946e-001	 1.000398451025002e+000
1	 1.164939809979976e+000	 4.973613169928101e-001	 5.373788885225619e+000
1	 1.159573060379774e+000	 5.097483691623166e-001	 4.993036286906399e+000
1	 1.154063440608705e+000	 5.221021836003701e-001	 4.593545224029219e+000
1	 1.148411078980047e+000	 5.344203706993145e-001	 4.175685396958954e+000
1	 1.142616155560737e+000	 5.467005348259916e-001	 3.739834013642197e+000
1	 1.136678902563766e+000	 5.589402756857403e-001	 3.286375778492115e+000
1	 1.130599604698522e+000	 5.711371897061304e-001	 2.815702877569508e+000
1	 1.124378599478121e+000	 5.832888714389555e-001	 2.328214959891706e+000
1	 1.118016277482770e+000	 5.953929149789649e-001	 1.824319114696678e+000
1	 1.111513082578307e+000	 6.074469153977584e-001	 1.304429844487341e+000
1	 1.104869512089097e+000	 6.194484701912240e-001	 7.689690336793403e-001
1	 1.046715730642193e+000	 5.868443748208878e-001	 3.264194618206669e+000
1	 1.040288399370800e+000	 5.981639752992449e-001	 2.676050776778383e+000
1	 1.033729137081809e+000	 6.094293349560167e-001	 2.058225562890076e+000
1	 1.027038568530055e+000	 6.206381926269815e-001	 1.412243002940073e+000
1	 1.020217369346709e+000	 6.317882950541939e-001	 7.396776073386001e-001
1	 1.013266265976422e+000	 6.428773982974780e-001	 4.215259719354577e-002
1	 1.006186035567982e+000	 6.539032691487108e-001	-6.786619629202542e-001
1	 9.989775058181930e-001	 6.648636865471250e-001	-1.421051123387002e+000
1	 9.916415547687788e-001	 6.757564429938406e-001	-2.183257096197929e+000
1	 9.841791105561780e-001	 6.865793459638276e-001	-2.963481386601788e+000
1	 9.765911511141747e-001	 6.973302193134739e-001	-3.759887006295466e+000
1	 1.052531108788160e+000	 5.901047843585172e-001	 2.997178146631507e+000
1	 1.046068068335276e+000	 6.014872746504577e-001	 2.411089278617474e+000
1	 1.039472363878085e+000	 6.128152227678481e-001	 1.795719040005084e+000
1	 1.032744623642452e+000	 6.240863549838150e-001	 1.152626414574750e+000
1	 1.025885527013243e+000	 6.352984055216872e-001	 4.834214311945961e-001
1	 1.018895804471111e+000	 6.464491179743309e-001	-2.102366790666798e-001
1	 1.011776237482553e+000	 6.575362467262914e-001	-9.266414216009838e-001
1	 1.004527658342915e+000	 6.685575583769569e-001	-1.664041069842341e+000
1	 9.971509499721742e-001	 6.795108331629519e-001	-2.420640786656929e+000
1	 9.896470456633376e-001	 6.903938663779422e-001	-3.194604832174206e+000
1	 9.820169287834258e-001	 7.012044697880243e-001	-3.984058854449649e+000
1	 1.058346486933445e+000	 5.933651938957494e-001	 2.733910927671362e+000
1	 1.051847737299039e+000	 6.048105740012431e-001	 2.150094847793342e+000
1	 1.045215590673622e+000	 6.162011105792424e-001	 1.537443535853207e+000
1	 1.038450678754095e+000	 6.275345173402180e-001	 8.975426050612531e-001
1	 1.031553684679011e+000	 6.388085159887689e-001	 2.320287922685279e-001
1	 1.024525342965032e+000	 6.500208376507993e-001	-4.574119435845539e-001
1	 1.017366439396360e+000	 6.611692243035183e-001	-1.169046419692894e+000
1	 1.010077810866886e+000	 6.722514302064664e-001	-1.901096321309719e+000
1	 1.002660345174838e+000	 6.832652233317685e-001	-2.651740384135472e+000
1	 9.951149807697941e-001	 6.942083867917818e-001	-3.419116663679031e+000
1	 9.874427064520090e-001	 7.050787202623076e-001	-4.201324887850540e+000
1	 1.064161865078198e+000	 5.966256034326836e-001	 2.474446801363401e+000
1	 1.057627406262252e+000	 6.081338733517084e-001	 1.893138736620148e+000
1	 1.050958817468596e+000	 6.195869983903091e-001	 1.283482592457342e+000
1	 1.044156733865162e+000	 6.309826796962981e-001	 6.470824199753602e-001
1	 1.037221842344201e+000	 6.423186264555413e-001	-1.440700477161530e-002
1	 1.030154881458374e+000	 6.535925573269785e-001	-6.992821301849690e-001
1	 1.022956641309592e+000	 6.648022018804798e-001	-1.405792675148866e+000
1	 1.015627963390292e+000	 6.759453020357341e-001	-2.132143768599442e+000
1	 1.008169740376953e+000	 6.870196135003639e-001	-2.876498179292778e+000
1	 1.000582915875723e+000	 6.980229072054153e-001	-3.636978632175671e+000
1	 9.928684841200919e-001	 7.089529707363905e-001	-4.411670207507895e+000
1	 1.069977243222568e+000	 5.998860129694195e-001	 2.218838437252003e+000
1	 1.063407075225076e+000	 6.114571727019601e-001	 1.640290648372702e+000
1	 1.056702044263178e+000	 6.229728862011573e-001	 1.033917935619989e+000
1	 1.049862788975838e+000	 6.344308420521626e-001	 4.013347298919578e-001
1	 1.042890000008998e+000	 6.458287369221080e-001	-2.557946837203425e-001
1	 1.035784419951326e+000	 6.571642770029659e-001	-9.357581524895928e-001
1	 1.028546843222441e+000	 6.684351794572643e-001	-1.636797738230676e+000
1	 1.021178115913322e+000	 6.796391738648412e-001	-2.357111891930599e+000
1	 1.013679135578703e+000	 6.907740036688119e-001	-3.094857717400605e+000
1	 1.006050850981300e+000	 7.018374276189107e-001	-3.848153320262818e+000
1	 9.982942617878406e-001	 7.128272212103395e-001	-4.615080238338302e+000
1	 1.075792621366704e+000	 6.031464225060556e-001	 1.967137366025116e+000
1	 1.069186744187677e+000	 6.147804720521047e-001	 1.391618779154322e+000
1	 1.062445271057544e+000	 6.263587740118962e-001	 7.888295240130246e-001
1	 1.055568844086303e+000	 6.378790044079197e-001	 1.603864837656771e-001
1	 1.048558157673590e+000	 6.493388473885715e-001	-4.920449420083555e-001
1	 1.041413958444078e+000	 6.607359966788566e-001	-1.166752850406884e+000
1	 1.034137045135093e+000	 6.720681570339605e-001	-1.861980941984372e+000
1	 1.026728268436162e+000	 6.833330456938671e-001	-2.575930717971705e+000
1	 1.019188530780268e+000	 6.945283938371860e-001	-3.306763764433045e+000
1	 1.011518786086701e+000	 7.056519480323377e-001	-4.052604119603679e+000
1	 1.003720039455423e+000	 7.167014716842222e-001	-4.811540720410567e+000
1	 1.081607999510756e+000	 6.064068320426921e-001	 1.719394010130344e+000
1	 1.074966413150215e+000	 6.181037714022500e-001	 1.147189858414208e+000
1	 1.068188497851865e+000	 6.297446618226351e-001	 5.482955966830874e-001
1	 1.061274899196738e+000	 6.413271667636769e-001	-7.567723940993339e-002
1	 1.054226315338164e+000	 6.528489578550352e-001	-7.230703976455150e-001
1	 1.047043496936819e+000	 6.643077163547476e-001	-1.392180938347210e+000
1	 1.039727247047741e+000	 6.757011346106565e-001	-2.081263354314023e+000
1	 1.032278420959000e+000	 6.870269175228932e-001	-2.788531778267389e+000
1	 1.024697925981833e+000	 6.982827840055605e-001	-3.512162274250763e+000
1	 1.016986721192101e+000	 7.094664684457648e-001	-4.250295209175738e+000
1	 1.009145817123004e+000	 7.205757221581045e-001	-5.001037700473334e+000
1	 1.087423377654871e+000	 6.096672415794279e-001	 1.475657713408240e+000
1	 1.080746082112854e+000	 6.214270707525014e-001	 9.070691881647254e-001
1	 1.073931724646317e+000	 6.331305496334835e-001	 3.123927190334221e-001
1	 1.066980954307326e+000	 6.447753291195418e-001	-3.067731806009464e-001
1	 1.059894473002906e+000	 6.563590683216020e-001	-9.487855378656216e-001
1	 1.052673035429740e+000	 6.678794360307347e-001	-1.611958955099629e+000
1	 1.045317448960573e+000	 6.793341121874412e-001	-2.294567731592197e+000
1	 1.037828573482022e+000	 6.907207893519999e-001	-2.994848068998969e+000
1	 1.030207321183581e+000	 7.020371741740087e-001	-3.711000356837361e+000
1	 1.022454656297678e+000	 7.132809888592604e-001	-4.441191534218475e+000
1	 1.014571594790753e+000	 7.244499726320536e-001	-5.183557523754709e+000
1	 1.093238755799201e+000	 6.129276511163621e-001	 1.235976769780137e+000
1	 1.086525751075758e+000	 6.247503701029669e-001	 6.713206809468288e-001
1	 1.079674951441073e+000	 6.365164374445501e-001	 8.119582733747584e-002
1	 1.072687009418248e+000	 6.482234914756219e-001	-5.328198523276491e-001
1	 1.065562630668003e+000	 6.598691787883746e-001	-1.169106669410753e+000
1	 1.058302573923028e+000	 6.714511557069139e-001	-1.826005215309932e+000
1	 1.050907650873779e+000	 6.829670897644030e-001	-2.501818473752352e+000
1	 1.043378726005418e+000	 6.944146611812677e-001	-3.194814012029868e+000
1	 1.035716716385692e+000	 7.057915643426040e-001	-3.903226247550192e+000
1	 1.027922591403607e+000	 7.170955092728941e-001	-4.625258785852982e+000
1	 1.019997372458836e+000	 7.283242231061367e-001	-5.359086826023622e+000
1	 1.099054133943893e+000	 6.161880606535946e-001	 1.000398451025004e+000
1	 1.092305420039088e+000	 6.280736694537524e-001	 4.400068965905398e-001
1	 1.085418178236306e+000	 6.399023252559447e-001	-1.452217281598040e-001
1	 1.078393064529686e+000	 6.516716538320250e-001	-7.537374917959416e-001
1	 1.071230788333643e+000	 6.633792892554562e-001	-1.383951870393962e+000
1	 1.063932112416875e+000	 6.750228753833825e-001	-2.034239762496903e+000
1	 1.056497852787547e+000	 6.866000673416297e-001	-2.702941580806393e+000
1	 1.048928878529372e+000	 6.981085330107775e-001	-3.388365417186853e+000
1	 1.041226111588352e+000	 7.095459545114209e-001	-4.088789277346853e+000
1	 1.033390526510062e+000	 7.209100296867335e-001	-4.802463381349236e+000
1	 1.025423150127420e+000	 7.321984735804198e-001	-5.527612525903324e+000
1	 1.104869512089097e+000	 6.194484701912240e-001	 7.689690336793399e-001
1	 1.098085089003007e+000	 6.313969688049652e-001	 2.131890778140118e-001
1	 1.091161405032191e+000	 6.432882130677760e-001	-3.667881415031473e-001
1	 1.084099119641821e+000	 6.551198161888586e-001	-9.694480155081969e-001
1	 1.076898946000012e+000	 6.668893997229497e-001	-1.593240943681801e+000
1	 1.069561650911468e+000	 6.785945950602359e-001	-2.236584323554230e+000
1	 1.062088054702069e+000	 6.902330449192106e-001	-2.897864610734329e+000
1	 1.054479031054074e+000	 7.018024048406095e-001	-3.575439445733132e+000
1	 1.046735506791741e+000	 7.133003446805322e-001	-4.267639843952541e+000
1	 1.038858461617222e+000	 7.247245501008480e-001	-4.972772445015069e+000
1	 1.030848927796671e+000	 7.360727240549706e-001	-5.689121817427224e+000
1	 9.765911511141747e-001	 6.973302193134739e-001	-3.759887006295470e+000
1	 9.688787035538358e-001	 7.080069044459488e-001	-4.560644835556850e+000
1	 9.610428429529890e-001	 7.186072609821202e-001	-5.354939266354296e+000
1	 9.530846927590595e-001	 7.291291688273839e-001	-6.142440214471888e+000
1	 9.450054245837380e-001	 7.395705297771742e-001	-6.922836879196285e+000
1	 9.368062576740198e-001	 7.499292688767160e-001	-7.695838256793611e+000
1	 9.284884583374330e-001	 7.602033357655288e-001	-8.461173623071460e+000
1	 9.200533393219623e-001	 7.703907060048886e-001	-9.218592983882520e+000
1	 9.115022591512589e-001	 7.804893823864774e-001	-9.967867492495161e+000
1	 9.028366214158040e-001	 7.904973962204591e-001	-1.070878983283621e+001
1	 8.940578740207774e-001	 8.004128086012710e-001	-1.144117456768904e+001
1	 9.820169287834258e-001	 7.012044697880243e-001	-3.984058854449652e+000
1	 9.742616321499599e-001	 7.119404728035643e-001	-4.777381860077473e+000
1	 9.663822368137147e-001	 7.225997231538436e-001	-5.564050938773723e+000
1	 9.583798724637950e-001	 7.331800889653712e-001	-6.343828388412204e+000
1	 9.502557172211614e-001	 7.436794603763114e-001	-7.116499582120189e+000
1	 9.420109971067352e-001	 7.540957509037904e-001	-7.881873330937757e+000
1	 9.336469854634308e-001	 7.644268987958722e-001	-8.639782208016738e+000
1	 9.251650023326336e-001	 7.746708683663928e-001	-9.390082833501497e+000
1	 9.165664137857175e-001	 7.848256513108827e-001	-1.013265611933055e+001
1	 9.078526312112717e-001	 7.948892680017987e-001	-1.086740747329053e+001
1	 8.990251105587875e-001	 8.048597687613458e-001	-1.159426696175411e+001
1	 9.874427064520090e-001	 7.050787202623076e-001	-4.201324887850540e+000
1	 9.796445607454600e-001	 7.158740411609053e-001	-4.986979370541246e+000
1	 9.717216306738654e-001	 7.265921853252729e-001	-5.765865028648926e+000
1	 9.636750521680070e-001	 7.372310091030350e-001	-6.537829888141641e+000
1	 9.555060098581151e-001	 7.477883909750888e-001	-7.302748432716404e+000
1	 9.472157365390326e-001	 7.582622329304661e-001	-8.060521825795979e+000
1	 9.388055125890581e-001	 7.686504618257768e-001	-8.811078087283693e+000
1	 9.302766653429756e-001	 7.789510307274222e-001	-9.554372224487027e+000
1	 9.216305684198799e-001	 7.891619202347835e-001	-1.029038631673857e+001
1	 9.128686410064646e-001	 7.992811397826130e-001	-1.101912955335361e+001
1	 9.039923470965305e-001	 8.093067289208878e-001	-1.174063822467801e+001
1	 9.928684841200919e-001	 7.089529707363905e-001	-4.411670207507901e+000
1	 9.850274893404919e-001	 7.198076095180407e-001	-5.189445322808899e+000
1	 9.770610245335857e-001	 7.305846474964822e-001	-5.960407659570516e+000
1	 9.689702318718272e-001	 7.412819292404559e-001	-6.724484435998702e+000
1	 9.607563024947161e-001	 7.518973215735962e-001	-7.481632305858217e+000
1	 9.524204759710170e-001	 7.624287149568423e-001	-8.231837449860322e+000
1	 9.439640397144077e-001	 7.728740248553527e-001	-8.975115615780020e+000
1	 9.353883283530711e-001	 7.832311930880958e-001	-9.711512106971393e+000
1	 9.266947230538203e-001	 7.934981891583056e-001	-1.044110171907359e+001
1	 9.178846508014517e-001	 8.036730115630334e-001	-1.116398862483300e+001
1	 9.089595836340730e-001	 8.137536890800305e-001	-1.188030620709683e+001
1	 9.982942617878406e-001	 7.128272212103395e-001	-4.615080238338305e+000
1	 9.904104179352118e-001	 7.237411778750391e-001	-5.384787499779008e+000
1	 9.824004183930175e-001	 7.345771096675439e-001	-6.147704387196726e+000
1	 9.742654115753860e-001	 7.453328493777152e-001	-6.903830890749475e+000
1	 9.660065951310830e-001	 7.560062521719246e-001	-7.653199013869146e+000
1	 9.576252154027919e-001	 7.665951969830188e-001	-8.395872743989093e+000
1	 9.491225668395724e-001	 7.770975878847094e-001	-9.131947966726669e+000
1	 9.404999913630022e-001	 7.875113554485316e-001	-9.861552323421215e+000
1	 9.317588776876122e-001	 7.978344580815755e-001	-1.058484501207057e+001
1	 9.229006605963006e-001	 8.080648833431917e-001	-1.130201653185356e+001
1	 9.139268201714819e-001	 8.182006492389065e-001	-1.201328837157070e+001
1	 1.003720039455423e+000	 7.167014716842222e-001	-4.811540720410567e+000
1	 9.957933465297756e-001	 7.276747462319689e-001	-5.573013516062644e+000
1	 9.877398122523056e-001	 7.385695718385319e-001	-6.327780214603559e+000
1	 9.795605912788146e-001	 7.493837695148937e-001	-7.075907270929288e+000
1	 9.712568877673322e-001	 7.601151827701622e-001	-7.817495335241571e+000
1	 9.628299548344628e-001	 7.707616790090960e-001	-8.552679112966516e+000
1	 9.542810939646446e-001	 7.813211509139567e-001	-9.281627163597268e+000
1	 9.456116543728508e-001	 7.917915178088486e-001	-1.000454163857539e+001
1	 9.368230323213300e-001	 8.021707270047190e-001	-1.072165795848444e+001
1	 9.279166703910808e-001	 8.124567551232179e-001	-1.143324442998525e+001
1	 9.188940567088242e-001	 8.226476093976495e-001	-1.213960180307309e+001
1	 1.009145817123004e+000	 7.205757221581045e-001	-5.001037700473334e+000
1	 1.001176275124340e+000	 7.316083145888987e-001	-5.754130822507396e+000
1	 9.930792061115937e-001	 7.425620340095204e-001	-6.500659607140111e+000
1	 9.848557709822429e-001	 7.534346896520723e-001	-7.240750777430718e+000
1	 9.765071804035815e-001	 7.642241133684004e-001	-7.974567042429720e+000
1	 9.680346942661333e-001	 7.749281610351730e-001	-8.702306856043530e+000
1	 9.594396210897169e-001	 7.855447139432040e-001	-9.424204111026432e+000
1	 9.507233173827000e-001	 7.960716801691662e-001	-1.014052776841762e+001
1	 9.418871869550484e-001	 8.065069959278629e-001	-1.085158142290360e+001
1	 9.329326801858613e-001	 8.168486269032448e-001	-1.155770280475373e+001
1	 9.238612932461664e-001	 8.270945695563926e-001	-1.225926321914137e+001
1	 1.014571594790753e+000	 7.244499726320536e-001	-5.183557523754709e+000
1	 1.006559203719060e+000	 7.355418829458971e-001	-5.928146710576608e+000
1	 9.984185999710260e-001	 7.465544961805822e-001	-6.666366506806816e+000
1	 9.901509506858019e-001	 7.574856097893317e-001	-7.398397815366019e+000
1	 9.817574730399482e-001	 7.683330439667283e-001	-8.124458928750382e+000
1	 9.732394336979082e-001	 7.790946430613496e-001	-8.844805196499152e+000
1	 9.645981482148813e-001	 7.897682769725606e-001	-9.559728624726890e+000
1	 9.558349803926308e-001	 8.003518425296019e-001	-1.026955740821998e+001
1	 9.469513415888404e-001	 8.108432648511328e-001	-1.097465539576507e+001
1	 9.379486899807105e-001	 8.212404986834028e-001	-1.167542148955694e+001
1	 9.288285297835752e-001	 8.315415297152686e-001	-1.237228897970207e+001
1	 1.019997372458836e+000	 7.283242231061367e-001	-5.359086826023622e+000
1	 1.011942132314092e+000	 7.394754513030325e-001	-6.095068316588257e+000
1	 1.003757993830746e+000	 7.505469583517913e-001	-6.824924346174799e+000
1	 9.954461303896223e-001	 7.615365299267528e-001	-7.548884015233277e+000
1	 9.870077656765497e-001	 7.724419745652361e-001	-8.267214834424918e+000
1	 9.784441731298926e-001	 7.832611250877258e-001	-8.980222310257689e+000
1	 9.697566753402312e-001	 7.939918400021370e-001	-9.688249460451411e+000
1	 9.609466434027266e-001	 8.046320048902754e-001	-1.039167625969000e+001
1	 9.520154962227809e-001	 8.151795337746550e-001	-1.109091901660496e+001
1	 9.429646997756973e-001	 8.256323704638234e-001	-1.178642968300904e+001
1	 9.337957663211176e-001	 8.359884898744111e-001	-1.247869509658185e+001
1	 1.025423150127420e+000	 7.321984735804198e-001	-5.527612525903324e+000
1	 1.017325060909592e+000	 7.434090196603739e-001	-6.254902625819667e+000
1	 1.009097387690897e+000	 7.545394205232207e-001	-6.976356061864042e+000
1	 1.000741310093835e+000	 7.655874500644163e-001	-7.692244253409899e+000
1	 9.922580583135038e-001	 7.765509051640137e-001	-8.402877671794625e+000
1	 9.836489125621899e-001	 7.874276071144014e-001	-9.108605353598971e+000
1	 9.749152024658588e-001	 7.982154030320419e-001	-9.809814342035931e+000
1	 9.660583064130688e-001	 8.089121672513051e-001	-1.050692905725765e+001
1	 9.570796508569435e-001	 8.195158026985560e-001	-1.120041059657020e+001
1	 9.479807095708903e-001	 8.300242422446380e-001	-1.189075596573562e+001
1	 9.387630028588608e-001	 8.404354500339538e-001	-1.257849724271721e+001
1	 1.030848927796671e+000	 7.360727240549706e-001	-5.689121817427224e+000
1	 1.022707989505717e+000	 7.473425880179891e-001	-6.407656476482398e+000
1	 1.014436781551623e+000	 7.585318826949443e-001	-7.120684107594825e+000
1	 1.006036489798570e+000	 7.696383702024040e-001	-7.828512671997959e+000
1	 9.975083509509269e-001	 7.806598357631507e-001	-8.531489449739983e+000
1	 9.888536519949061e-001	 7.915940891414762e-001	-9.230000489991022e+000
1	 9.800737295918565e-001	 8.024389660623850e-001	-9.924469988556130e+000
1	 9.711699694237401e-001	 8.131923296128095e-001	-1.061535959353033e+001
1	 9.621438054914021e-001	 8.238520716229617e-001	-1.130316764021923e+001
1	 9.529967193663581e-001	 8.344161140259776e-001	-1.198842831663636e+001
1	 9.437302393968710e-001	 8.448824101940288e-001	-1.267171076107323e+001
1	 8.940578740207774e-001	 8.004128086012710e-001	-1.144117456768904e+001
1	 8.851688503052765e-001	 8.102322458949247e-001	-1.216091955034268e+001
1	 8.761697760389994e-001	 8.199553281727517e-001	-1.286426423147928e+001
1	 8.670622271925278e-001	 8.295802148305268e-001	-1.355123558561226e+001
1	 8.578478205858254e-001	 8.391050998512860e-001	-1.422187528224866e+001
1	 8.485282129332367e-001	 8.485282129332366e-001	-1.487623966124434e+001
1	 8.391050998512859e-001	 8.578478205858252e-001	-1.551439968796586e+001
1	 8.295802148305270e-001	 8.670622271925280e-001	-1.613644088831897e+001
1	 8.199553281727516e-001	 8.761697760389995e-001	-1.674246326375309e+001
1	 8.102322458949245e-001	 8.851688503052763e-001	-1.733258118639598e+001
1	 8.004128086012706e-001	 8.940578740207773e-001	-1.790692327451492e+001
1	 8.990251105587875e-001	 8.048597687613458e-001	-1.159426696175411e+001
1	 8.900867009089170e-001	 8.147337612121904e-001	-1.230914921542431e+001
1	 8.810376292857055e-001	 8.245108633148357e-001	-1.300821421520874e+001
1	 8.718794804155734e-001	 8.341892242389558e-001	-1.369146315951581e+001
1	 8.626138801012782e-001	 8.437670279336463e-001	-1.435891038315857e+001
1	 8.532424942616038e-001	 8.532424942616034e-001	-1.501058339139741e+001
1	 8.437670279336464e-001	 8.626138801012785e-001	-1.564652287641256e+001
1	 8.341892242389555e-001	 8.718794804155735e-001	-1.626678271613733e+001
1	 8.245108633148356e-001	 8.810376292857054e-001	-1.687142995541921e+001
1	 8.147337612121903e-001	 8.900867009089171e-001	-1.746054476951852e+001
1	 8.048597687613456e-001	 8.990251105587874e-001	-1.803422040999260e+001
1	 9.039923470965305e-001	 8.093067289208878e-001	-1.174063822467801e+001
1	 8.950045515122835e-001	 8.192352765289310e-001	-1.245081527980687e+001
1	 8.859054825321169e-001	 8.290663984564143e-001	-1.314572081335365e+001
1	 8.766967336382945e-001	 8.387982336469084e-001	-1.382533279036523e+001
1	 8.673799396163706e-001	 8.484289560155671e-001	-1.448964086038735e+001
1	 8.579567755895703e-001	 8.579567755895702e-001	-1.513864644565166e+001
1	 8.484289560155672e-001	 8.673799396163706e-001	-1.577236281413765e+001
1	 8.387982336469085e-001	 8.766967336382948e-001	-1.639081513731890e+001
1	 8.290663984564142e-001	 8.859054825321169e-001	-1.699404053243043e+001
1	 8.192352765289310e-001	 8.950045515122834e-001	-1.758208808913354e+001
1	 8.093067289208880e-001	 9.039923470965304e-001	-1.815501888048487e+001
1	 9.089595836340730e-001	 8.137536890800305e-001	-1.188030620709683e+001
1	 8.999224021154439e-001	 8.237367918452774e-001	-1.258591980175482e+001
1	 8.907733357783069e-001	 8.336219335976136e-001	-1.327677159252032e+001
1	 8.815139868607729e-001	 8.434072430545051e-001	-1.395281880804573e+001
1	 8.721459991311925e-001	 8.530908840971585e-001	-1.461402901507876e+001
1	 8.626710569172368e-001	 8.626710569172366e-001	-1.526038025629743e+001
1	 8.530908840971585e-001	 8.721459991311927e-001	-1.589186117528951e+001
1	 8.434072430545051e-001	 8.815139868607727e-001	-1.650847112836955e+001
1	 8.336219335976136e-001	 8.907733357783068e-001	-1.711022028295346e+001
1	 8.237367918452772e-001	 8.999224021154441e-001	-1.769712970224279e+001
1	 8.137536890800304e-001	 9.089595836340730e-001	-1.826923141599641e+001
1	 9.139268201714819e-001	 8.182006492389065e-001	-1.201328837157070e+001
1	 9.048402527184671e-001	 8.282383071613607e-001	-1.271446479478587e+001
1	 8.956411890243501e-001	 8.381774687385607e-001	-1.340135438962039e+001
1	 8.863312400830887e-001	 8.480162524618640e-001	-1.407389610051719e+001
1	 8.769120586458342e-001	 8.577528121785301e-001	-1.473203796795808e+001
1	 8.673853382447037e-001	 8.673853382447037e-001	-1.537573731149768e+001
1	 8.577528121785302e-001	 8.769120586458341e-001	-1.600496090203323e+001
1	 8.480162524618637e-001	 8.863312400830886e-001	-1.661968512290037e+001
1	 8.381774687385606e-001	 8.956411890243499e-001	-1.721989611940558e+001
1	 8.282383071613606e-001	 9.048402527184672e-001	-1.780558993643524e+001
1	 8.182006492389066e-001	 9.139268201714819e-001	-1.837677264379913e+001
1	 9.188940567088242e-001	 8.226476093976495e-001	-1.213960180307309e+001
1	 9.097581033214214e-001	 8.327398224773125e-001	-1.283645222888119e+001
1	 9.005090422703189e-001	 8.427330038793813e-001	-1.351945730456527e+001
1	 8.911484933053233e-001	 8.526252618691034e-001	-1.418854009872985e+001
1	 8.816781181603857e-001	 8.624147402597918e-001	-1.484363163718049e+001
1	 8.720996195720705e-001	 8.720996195720701e-001	-1.548467112674958e+001
1	 8.624147402597919e-001	 8.816781181603854e-001	-1.611160617027821e+001
1	 8.526252618691032e-001	 8.911484933053233e-001	-1.672439297224440e+001
1	 8.427330038793816e-001	 9.005090422703190e-001	-1.732299653455476e+001
1	 8.327398224773127e-001	 9.097581033214215e-001	-1.790739084203190e+001
1	 8.226476093976495e-001	 9.188940567088240e-001	-1.847755903715260e+001
1	 9.238612932461664e-001	 8.270945695563926e-001	-1.225926321914137e+001
1	 9.146759539243760e-001	 8.372413377932647e-001	-1.295188403165527e+001
1	 9.053768955162885e-001	 8.472885390202022e-001	-1.363106869319509e+001
1	 8.959657465275581e-001	 8.572342712763431e-001	-1.429672676202754e+001
1	 8.864441776749370e-001	 8.670766683410537e-001	-1.494877471689333e+001
1	 8.768139008994371e-001	 8.768139008994369e-001	-1.558713621726658e+001
1	 8.670766683410539e-001	 8.864441776749371e-001	-1.621174235651080e+001
1	 8.572342712763431e-001	 8.959657465275581e-001	-1.682253190734361e+001
1	 8.472885390202019e-001	 9.053768955162883e-001	-1.741945155903404e+001
1	 8.372413377932649e-001	 9.146759539243761e-001	-1.800245614577309e+001
1	 8.270945695563925e-001	 9.238612932461663e-001	-1.857150886567865e+001
1	 9.288285297835752e-001	 8.315415297152686e-001	-1.237228897970207e+001
1	 9.195938045273991e-001	 8.417428531093485e-001	-1.306076208948925e+001
1	 9.102447487623314e-001	 8.518440741611488e-001	-1.373617716043654e+001
1	 9.007829997498735e-001	 8.618432806837015e-001	-1.439843256401831e+001
1	 8.912102371895790e-001	 8.717385964224255e-001	-1.504743265648726e+001
1	 8.815281822269039e-001	 8.815281822269039e-001	-1.568308807124693e+001
1	 8.717385964224255e-001	 8.912102371895786e-001	-1.630531600569283e+001
1	 8.618432806837018e-001	 9.007829997498740e-001	-1.691404050185999e+001
1	 8.518440741611489e-001	 9.102447487623314e-001	-1.750919272022064e+001
1	 8.417428531093484e-001	 9.195938045273991e-001	-1.809071120599215e+001
1	 8.315415297152689e-001	 9.288285297835753e-001	-1.865854214732738e+001
1	 9.337957663211176e-001	 8.359884898744111e-001	-1.247869509658185e+001
1	 9.245116551305598e-001	 8.462443684256946e-001	-1.316308824862695e+001
1	 9.151126020085214e-001	 8.563996093023485e-001	-1.383477155367669e+001
1	 9.056002529723518e-001	 8.664522900912982e-001	-1.449363447889691e+001
1	 8.959762967044006e-001	 8.764005245040168e-001	-1.513957164050861e+001
1	 8.862424635545708e-001	 8.862424635545707e-001	-1.577248312399505e+001
1	 8.764005245040168e-001	 8.959762967044006e-001	-1.639227480018289e+001
1	 8.664522900912983e-001	 9.056002529723519e-001	-1.699885863646229e+001
1	 8.563996093023485e-001	 9.151126020085215e-001	-1.759215300242742e+001
1	 8.462443684256946e-001	 9.245116551305599e-001	-1.817208296922058e+001
1	 8.359884898744114e-001	 9.337957663211177e-001	-1.873858060187695e+001
1	 9.387630028588608e-001	 8.404354500339538e-001	-1.257849724271722e+001
1	 9.294295057339259e-001	 8.507458837424352e-001	-1.325886431623802e+001
1	 9.199804552549330e-001	 8.609551444439272e-001	-1.392684095634933e+001
1	 9.104175061950732e-001	 8.710612994992514e-001	-1.458230996820129e+001
1	 9.007423562194932e-001	 8.810624525859377e-001	-1.522515856920976e+001
1	 8.909567448825375e-001	 8.909567448825372e-001	-1.585527873286493e+001
1	 8.810624525859379e-001	 9.007423562194930e-001	-1.647256752964511e+001
1	 8.710612994992515e-001	 9.104175061950734e-001	-1.707692746424794e+001
1	 8.609551444439271e-001	 9.199804552549327e-001	-1.766826680835732e+001
1	 8.507458837424350e-001	 9.294295057339259e-001	-1.824649992816913e+001
1	 8.404354500339534e-001	 9.387630028588607e-001	-1.881154760590999e+001
1	 9.437302393968710e-001	 8.448824101940288e-001	-1.267171076107323e+001
1	 9.343473563375667e-001	 8.552473990597010e-001	-1.334809206144443e+001
1	 9.248483085016389e-001	 8.655106795860112e-001	-1.401237468172258e+001
1	 9.152347594181193e-001	 8.756703089076804e-001	-1.466443696798680e+001
1	 9.055084157349460e-001	 8.857243806682982e-001	-1.530416103971433e+001
1	 8.956710262109042e-001	 8.956710262109041e-001	-1.593143315299379e+001
1	 8.857243806682983e-001	 9.055084157349460e-001	-1.654614406190862e+001
1	 8.756703089076804e-001	 9.152347594181193e-001	-1.714818937725687e+001
1	 8.655106795860115e-001	 9.248483085016390e-001	-1.773746992177533e+001
1	 8.552473990597013e-001	 9.343473563375669e-001	-1.831389208103835e+001
1	 8.448824101940289e-001	 9.437302393968712e-001	-1.887736814921107e+001
1	 8.004128086012706e-001	 8.940578740207773e-001	-1.790692327451492e+001
1	 7.904973962204593e-001	 9.028366214158040e-001	-1.845918482772751e+001
1	 7.804893823864771e-001	 9.115022591512587e-001	-1.898260379644275e+001
1	 7.703907060048888e-001	 9.200533393219624e-001	-1.947688702104041e+001
1	 7.602033357655288e-001	 9.284884583374330e-001	-1.994174048428293e+001
1	 7.499292688767163e-001	 9.368062576740198e-001	-2.037687042164549e+001
1	 7.395705297771745e-001	 9.450054245837380e-001	-2.078198443822070e+001
1	 7.291291688273840e-001	 9.530846927590595e-001	-2.115679262951577e+001
1	 7.186072609821200e-001	 9.610428429529889e-001	-2.150100870345522e+001
1	 7.080069044459487e-001	 9.688787035538357e-001	-2.181435110090781e+001
1	 6.973302193134738e-001	 9.765911511141745e-001	-2.209654411206704e+001
1	 8.048597687613456e-001	 8.990251105587874e-001	-1.803422040999260e+001
1	 7.948892680017989e-001	 9.078526312112717e-001	-1.858600171443393e+001
1	 7.848256513108828e-001	 9.165664137857176e-001	-1.910904774424567e+001
1	 7.746708683663930e-001	 9.251650023326336e-001	-1.960313648471966e+001
1	 7.644268987958722e-001	 9.336469854634308e-001	-2.006804525875312e+001
1	 7.540957509037907e-001	 9.420109971067353e-001	-2.050355172144414e+001
1	 7.436794603763114e-001	 9.502557172211616e-001	-2.090943486148579e+001
1	 7.331800889653711e-001	 9.583798724637946e-001	-2.128547600691218e+001
1	 7.225997231538436e-001	 9.663822368137148e-001	-2.163145983274946e+001
1	 7.119404728035642e-001	 9.742616321499600e-001	-2.194717536811950e+001
1	 7.012044697880243e-001	 9.820169287834258e-001	-2.223241700035709e+001
1	 8.093067289208880e-001	 9.039923470965304e-001	-1.815501888048487e+001
1	 7.992811397826130e-001	 9.128686410064647e-001	-1.870623884787621e+001
1	 7.891619202347836e-001	 9.216305684198799e-001	-1.922883718867177e+001
1	 7.789510307274221e-001	 9.302766653429757e-001	-1.972266248586175e+001
1	 7.686504618257768e-001	 9.388055125890579e-001	-2.018756293445967e+001
1	 7.582622329304659e-001	 9.472157365390325e-001	-2.062338722018830e+001
1	 7.477883909750888e-001	 9.555060098581147e-001	-2.102998540504184e+001
1	 7.372310091030349e-001	 9.636750521680069e-001	-2.140720981752002e+001
1	 7.265921853252728e-001	 9.717216306738659e-001	-2.175491594532153e+001
1	 7.158740411609051e-001	 9.796445607454598e-001	-2.207296332828261e+001
1	 7.050787202623076e-001	 9.874427064520092e-001	-2.236121644935286e+001
1	 8.137536890800304e-001	 9.089595836340730e-001	-1.826923141599641e+001
1	 8.036730115630335e-001	 9.178846508014517e-001	-1.881980399114465e+001
1	 7.934981891583057e-001	 9.266947230538201e-001	-1.934187578591892e+001
1	 7.832311930880956e-001	 9.353883283530714e-001	-1.983536544314126e+001
1	 7.728740248553526e-001	 9.439640397144080e-001	-2.030019157041880e+001
1	 7.624287149568421e-001	 9.524204759710164e-001	-2.073627350274126e+001
1	 7.518973215735962e-001	 9.607563024947160e-001	-2.114353207188576e+001
1	 7.412819292404561e-001	 9.689702318718272e-001	-2.152189038067251e+001
1	 7.305846474964821e-001	 9.770610245335858e-001	-2.187127458009287e+001
1	 7.198076095180406e-001	 9.850274893404918e-001	-2.219161464733922e+001
1	 7.089529707363904e-001	 9.928684841200918e-001	-2.248284516275809e+001
1	 8.182006492389066e-001	 9.139268201714819e-001	-1.837677264379913e+001
1	 8.080648833431916e-001	 9.229006605963006e-001	-1.892660691257822e+001
1	 7.978344580815755e-001	 9.317588776876121e-001	-1.944806928671970e+001
1	 7.875113554485315e-001	 9.404999913630022e-001	-1.994114794015101e+001
1	 7.770975878847094e-001	 9.491225668395724e-001	-2.040583144186396e+001
1	 7.665951969830188e-001	 9.576252154027919e-001	-2.084210940223200e+001
1	 7.560062521719247e-001	 9.660065951310830e-001	-2.124997312593081e+001
1	 7.453328493777151e-001	 9.742654115753862e-001	-2.162941626974240e+001
1	 7.345771096675436e-001	 9.824004183930175e-001	-2.198043550351035e+001
1	 7.237411778750392e-001	 9.904104179352118e-001	-2.230303117251327e+001
1	 7.128272212103395e-001	 9.982942617878406e-001	-2.259720795951772e+001
1	 8.226476093976495e-001	 9.188940567088240e-001	-1.847755903715260e+001
1	 8.124567551232180e-001	 9.279166703910811e-001	-1.902655933156698e+001
1	 8.021707270047190e-001	 9.368230323213301e-001	-1.954732547972758e+001
1	 7.917915178088487e-001	 9.456116543728511e-001	-2.003991466688770e+001
1	 7.813211509139568e-001	 9.542810939646449e-001	-2.050438498034539e+001
1	 7.707616790090960e-001	 9.628299548344628e-001	-2.094079593928879e+001
1	 7.601151827701622e-001	 9.712568877673321e-001	-2.134920903089681e+001
1	 7.493837695148937e-001	 9.795605912788143e-001	-2.172968825121778e+001
1	 7.385695718385317e-001	 9.877398122523057e-001	-2.208230064933876e+001
1	 7.276747462319690e-001	 9.957933465297759e-001	-2.240711687335631e+001
1	 7.167014716842219e-001	 1.003720039455422e+000	-2.270421171664671e+001
1	 8.270945695563925e-001	 9.238612932461663e-001	-1.857150886567866e+001
1	 8.168486269032447e-001	 9.329326801858612e-001	-1.911957486610161e+001
1	 8.065069959278631e-001	 9.418871869550483e-001	-1.963955413673330e+001
1	 7.960716801691661e-001	 9.507233173826999e-001	-2.013157236312589e+001
1	 7.855447139432040e-001	 9.594396210897170e-001	-2.059575671576197e+001
1	 7.749281610351729e-001	 9.680346942661333e-001	-2.103223626323218e+001
1	 7.642241133684004e-001	 9.765071804035813e-001	-2.144114239117366e+001
1	 7.534346896520722e-001	 9.848557709822429e-001	-2.182260922574509e+001
1	 7.425620340095203e-001	 9.930792061115941e-001	-2.217677406039773e+001
1	 7.316083145888987e-001	 1.001176275124340e+000	-2.250377778469113e+001
1	 7.205757221581045e-001	 1.009145817123005e+000	-2.280376531390328e+001
1	 8.315415297152689e-001	 9.288285297835753e-001	-1.865854214732738e+001
1	 8.212404986834028e-001	 9.379486899807105e-001	-1.920556898200547e+001
1	 8.108432648511330e-001	 9.469513415888402e-001	-1.972466695963641e+001
1	 8.003518425296021e-001	 9.558349803926309e-001	-2.021602976360720e+001
1	 7.897682769725606e-001	 9.645981482148813e-001	-2.067985322025298e+001
1	 7.790946430613499e-001	 9.732394336979086e-001	-2.111633559515571e+001
1	 7.683330439667285e-001	 9.817574730399483e-001	-2.152567789458029e+001
1	 7.574856097893313e-001	 9.901509506858018e-001	-2.190808417106339e+001
1	 7.465544961805821e-001	 9.984185999710260e-001	-2.226376183216637e+001
1	 7.355418829458970e-001	 1.006559203719059e+000	-2.259292195138906e+001
1	 7.244499726320537e-001	 1.014571594790753e+000	-2.289577958023699e+001
1	 8.359884898744114e-001	 9.337957663211177e-001	-1.873858060187695e+001
1	 8.256323704638237e-001	 9.429646997756973e-001	-1.928445894378911e+001
1	 8.151795337746554e-001	 9.520154962227808e-001	-1.980257752910978e+001
1	 8.046320048902754e-001	 9.609466434027266e-001	-2.029319754498212e+001
1	 7.939918400021369e-001	 9.697566753402316e-001	-2.075658305388039e+001
1	 7.832611250877259e-001	 9.784441731298925e-001	-2.119300117282275e+001
1	 7.724419745652361e-001	 9.870077656765497e-001	-2.160272225695309e+001
1	 7.615365299267528e-001	 9.954461303896223e-001	-2.198602008675932e+001
1	 7.505469583517910e-001	 1.003757993830746e+000	-2.234317205818919e+001
1	 7.394754513030325e-001	 1.011942132314092e+000	-2.267445937490894e+001
1	 7.283242231061368e-001	 1.019997372458836e+000	-2.298016724194573e+001
1	 8.404354500339534e-001	 9.387630028588607e-001	-1.881154760590999e+001
1	 8.300242422446381e-001	 9.479807095708903e-001	-1.935616376706279e+001
1	 8.195158026985561e-001	 9.570796508569432e-001	-1.987320125489517e+001
1	 8.089121672513049e-001	 9.660583064130689e-001	-2.036298827443248e+001
1	 7.982154030320419e-001	 9.749152024658589e-001	-2.082585671203583e+001
1	 7.874276071144015e-001	 9.836489125621905e-001	-2.126214219731304e+001
1	 7.765509051640136e-001	 9.922580583135034e-001	-2.167218416849137e+001
1	 7.655874500644164e-001	 1.000741310093835e+000	-2.205632594077788e+001
1	 7.545394205232205e-001	 1.009097387690897e+000	-2.241491477721507e+001
1	 7.434090196603738e-001	 1.017325060909592e+000	-2.274830196153167e+001
1	 7.321984735804198e-001	 1.025423150127420e+000	-2.305684287247971e+001
1	 8.448824101940289e-001	 9.437302393968712e-001	-1.887736814921107e+001
1	 8.344161140259777e-001	 9.529967193663582e-001	-1.942060417245298e+001
1	 8.238520716229620e-001	 9.621438054914022e-001	-1.993645532766705e+001
1	 8.131923296128095e-001	 9.711699694237402e-001	-2.042531635991928e+001
1	 8.024389660623853e-001	 9.800737295918567e-001	-2.088758657450905e+001
1	 7.915940891414762e-001	 9.888536519949059e-001	-2.132366978135385e+001
1	 7.806598357631508e-001	 9.975083509509268e-001	-2.173397424179758e+001
1	 7.696383702024038e-001	 1.006036489798570e+000	-2.211891261761931e+001
1	 7.585318826949441e-001	 1.014436781551623e+000	-2.247890192200459e+001
1	 7.473425880179889e-001	 1.022707989505716e+000	-2.281436347223299e+001
1	 7.360727240549704e-001	 1.030848927796671e+000	-2.312572284382929e+001
1	 6.973302193134738e-001	 9.765911511141745e-001	-2.209654411206704e+001
1	 6.865793459638276e-001	 9.841791105561778e-001	-2.235046294180130e+001
1	 6.757564429938407e-001	 9.916415547687792e-001	-2.257825676904098e+001
1	 6.648636865471249e-001	 9.989775058181928e-001	-2.277856284718731e+001
1	 6.539032691487107e-001	 1.006186035567982e+000	-2.295001651149056e+001
1	 6.428773982974777e-001	 1.013266265976422e+000	-2.309125385928341e+001
1	 6.317882950541940e-001	 1.020217369346709e+000	-2.320091441584567e+001
1	 6.206381926269818e-001	 1.027038568530055e+000	-2.327764378028829e+001
1	 6.094293349560167e-001	 1.033729137081809e+000	-2.332009624594312e+001
1	 5.981639752992450e-001	 1.040288399370800e+000	-2.332693738987143e+001
1	 5.868443748208878e-001	 1.046715730642193e+000	-2.329684662623212e+001
1	 7.012044697880243e-001	 9.820169287834258e-001	-2.223241700035709e+001
1	 6.903938663779422e-001	 9.896470456633377e-001	-2.249000710247394e+001
1	 6.795108331629520e-001	 9.971509499721744e-001	-2.272194371137159e+001
1	 6.685575583769566e-001	 1.004527658342915e+000	-2.292678441750114e+001
1	 6.575362467262915e-001	 1.011776237482553e+000	-2.310308256085754e+001
1	 6.464491179743307e-001	 1.018895804471111e+000	-2.324939009760977e+001
1	 6.352984055216870e-001	 1.025885527013243e+000	-2.336426045449226e+001
1	 6.240863549838152e-001	 1.032744623642452e+000	-2.344625136492229e+001
1	 6.128152227678479e-001	 1.039472363878085e+000	-2.349392768090550e+001
1	 6.014872746504577e-001	 1.046068068335276e+000	-2.350586415492055e+001
1	 5.901047843585173e-001	 1.052531108788160e+000	-2.348064818610519e+001
1	 7.050787202623076e-001	 9.874427064520092e-001	-2.236121644935286e+001
1	 6.942083867917818e-001	 9.951149807697939e-001	-2.262243156238728e+001
1	 6.832652233317688e-001	 1.002660345174838e+000	-2.285844678493803e+001
1	 6.722514302064664e-001	 1.010077810866886e+000	-2.306774689216613e+001
1	 6.611692243035184e-001	 1.017366439396360e+000	-2.324881010463963e+001
1	 6.500208376507992e-001	 1.024525342965033e+000	-2.340011113026094e+001
1	 6.388085159887688e-001	 1.031553684679011e+000	-2.352012419615035e+001
1	 6.275345173402185e-001	 1.038450678754095e+000	-2.360732606404557e+001
1	 6.162011105792423e-001	 1.045215590673622e+000	-2.366019902288015e+001
1	 6.048105740012429e-001	 1.051847737299039e+000	-2.367723385232610e+001
1	 5.933651938957493e-001	 1.058346486933445e+000	-2.365693275123081e+001
1	 7.089529707363904e-001	 9.928684841200918e-001	-2.248284516275809e+001
1	 6.980229072054152e-001	 1.000582915875723e+000	-2.274764303323682e+001
1	 6.870196135003641e-001	 1.008169740376953e+000	-2.298767766563491e+001
1	 6.759453020357341e-001	 1.015627963390292e+000	-2.320136775947059e+001
1	 6.648022018804798e-001	 1.022956641309593e+000	-2.338712318324144e+001
1	 6.535925573269784e-001	 1.030154881458374e+000	-2.354334818066283e+001
1	 6.423186264555412e-001	 1.037221842344201e+000	-2.366844456912083e+001
1	 6.309826796962978e-001	 1.044156733865162e+000	-2.376081492351198e+001
1	 6.195869983903091e-001	 1.050958817468596e+000	-2.381886573876142e+001
1	 6.081338733517085e-001	 1.057627406262252e+000	-2.384101056441793e+001
1	 5.966256034326836e-001	 1.064161865078198e+000	-2.382567310487781e+001
1	 7.128272212103395e-001	 9.982942617878406e-001	-2.259720795951772e+001
1	 7.018374276189108e-001	 1.006050850981300e+000	-2.286555025482421e+001
1	 6.907740036688120e-001	 1.013679135578703e+000	-2.310954994954153e+001
1	 6.796391738648413e-001	 1.021178115913322e+000	-2.332756630152510e+001
1	 6.684351794572643e-001	 1.028546843222441e+000	-2.351794748844528e+001
1	 6.571642770029660e-001	 1.035784419951326e+000	-2.367903396745966e+001
1	 6.458287369221077e-001	 1.042890000008998e+000	-2.380916182941642e+001
1	 6.344308420521626e-001	 1.049862788975838e+000	-2.390666614040937e+001
1	 6.229728862011571e-001	 1.056702044263178e+000	-2.396988426360391e+001
1	 6.114571727019600e-001	 1.063407075225076e+000	-2.399715915438477e+001
1	 5.998860129694195e-001	 1.069977243222568e+000	-2.398684262201326e+001
1	 7.167014716842219e-001	 1.003720039455422e+000	-2.270421171664671e+001
1	 7.056519480323378e-001	 1.011518786086701e+000	-2.297606394024230e+001
1	 6.945283938371861e-001	 1.019188530780268e+000	-2.322397910102208e+001
1	 6.833330456938668e-001	 1.026728268436161e+000	-2.344626354577834e+001
1	 6.720681570339605e-001	 1.034137045135093e+000	-2.364121031877785e+001
1	 6.607359966788565e-001	 1.041413958444078e+000	-2.380710266409887e+001
1	 6.493388473885715e-001	 1.048558157673590e+000	-2.394221752487714e+001
1	 6.378790044079199e-001	 1.055568844086303e+000	-2.404482903194619e+001
1	 6.263587740118961e-001	 1.062445271057544e+000	-2.411321197445466e+001
1	 6.147804720521048e-001	 1.069186744187677e+000	-2.414564524516883e+001
1	 6.031464225060558e-001	 1.075792621366704e+000	-2.414041525331107e+001
1	 7.205757221581045e-001	 1.009145817123005e+000	-2.280376531390328e+001
1	 7.094664684457646e-001	 1.016986721192101e+000	-2.307909672282748e+001
1	 6.982827840055605e-001	 1.024697925981833e+000	-2.333088240250144e+001
1	 6.870269175228931e-001	 1.032278420959000e+000	-2.355738221809663e+001
1	 6.757011346106565e-001	 1.039727247047741e+000	-2.375684053631517e+001
1	 6.643077163547475e-001	 1.047043496936819e+000	-2.392748985972408e+001
1	 6.528489578550352e-001	 1.054226315338164e+000	-2.406755446044052e+001
1	 6.413271667636771e-001	 1.061274899196738e+000	-2.417525400533679e+001
1	 6.297446618226349e-001	 1.068188497851865e+000	-2.424880716502922e+001
1	 6.181037714022498e-001	 1.074966413150215e+000	-2.428643519904164e+001
1	 6.064068320426922e-001	 1.081607999510756e+000	-2.428636550967395e+001
1	 7.244499726320537e-001	 1.014571594790753e+000	-2.289577958023699e+001
1	 7.132809888592606e-001	 1.022454656297678e+000	-2.317456310481205e+001
1	 7.020371741740088e-001	 1.030207321183580e+000	-2.343017890585079e+001
1	 6.907207893519997e-001	 1.037828573482023e+000	-2.366084669735114e+001
1	 6.793341121874413e-001	 1.045317448960573e+000	-2.386476852487579e+001
1	 6.678794360307346e-001	 1.052673035429740e+000	-2.404013252131895e+001
1	 6.563590683216020e-001	 1.059894473002906e+000	-2.418511666452903e+001
1	 6.447753291195421e-001	 1.066980954307326e+000	-2.429789252865734e+001
1	 6.331305496334834e-001	 1.073931724646318e+000	-2.437662902120134e+001
1	 6.214270707525015e-001	 1.080746082112855e+000	-2.441949609783435e+001
1	 6.096672415794278e-001	 1.087423377654871e+000	-2.442466844725387e+001
1	 7.283242231061368e-001	 1.019997372458836e+000	-2.298016724194573e+001
1	 7.170955092728941e-001	 1.027922591403607e+000	-2.326237940761954e+001
1	 7.057915643426040e-001	 1.035716716385692e+000	-2.352178938532633e+001
1	 6.944146611812675e-001	 1.043378726005417e+000	-2.375658297145144e+001
1	 6.829670897644029e-001	 1.050907650873778e+000	-2.396492614954575e+001
1	 6.714511557069139e-001	 1.058302573923028e+000	-2.414496895706123e+001
1	 6.598691787883746e-001	 1.065562630668003e+000	-2.429484935650891e+001
1	 6.482234914756222e-001	 1.072687009418248e+000	-2.441269710262946e+001
1	 6.365164374445500e-001	 1.079674951441073e+000	-2.449663759727331e+001
1	 6.247503701029669e-001	 1.086525751075758e+000	-2.454479572380008e+001
1	 6.129276511163623e-001	 1.093238755799201e+000	-2.455529965295002e+001
1	 7.321984735804198e-001	 1.025423150127420e+000	-2.305684287247971e+001
1	 7.209100296867333e-001	 1.033390526510062e+000	-2.334246372373378e+001
1	 7.095459545114207e-001	 1.041226111588351e+000	-2.360563629200106e+001
1	 6.981085330107774e-001	 1.048928878529372e+000	-2.384451859477764e+001
1	 6.866000673416297e-001	 1.056497852787547e+000	-2.405724671749085e+001
1	 6.750228753833824e-001	 1.063932112416875e+000	-2.424193878084014e+001
1	 6.633792892554562e-001	 1.071230788333643e+000	-2.439669891518155e+001
1	 6.516716538320250e-001	 1.078393064529686e+000	-2.451962123329986e+001
1	 6.399023252559447e-001	 1.085418178236306e+000	-2.460879379300184e+001
1	 6.280736694537525e-001	 1.092305420039088e+000	-2.466230254108372e+001
1	 6.161880606535946e-001	 1.099054133943893e+000	-2.467823523036721e+001
1	 7.360727240549704e-001	 1.030848927796671e+000	-2.312572284382929e+001
1	 7.247245501008481e-001	 1.038858461617221e+000	-2.341473587009143e+001
1	 7.133003446805322e-001	 1.046735506791741e+000	-2.368164370963618e+001
1	 7.018024048406094e-001	 1.054479031054074e+000	-2.392458264695426e+001
1	 6.902330449192106e-001	 1.062088054702070e+000	-2.414166494000520e+001
1	 6.785945950602358e-001	 1.069561650911468e+000	-2.433098287789358e+001
1	 6.668893997229497e-001	 1.076898946000012e+000	-2.449061284827196e+001
1	 6.551198161888586e-001	 1.084099119641821e+000	-2.461861940558451e+001
1	 6.432882130677762e-001	 1.091161405032191e+000	-2.471305933134693e+001
1	 6.313969688049654e-001	 1.098085089003007e+000	-2.477198567777514e+001
1	 6.194484701912242e-001	 1.104869512089097e+000	-2.479345178621768e+001
1	 5.868443748208878e-001	 1.046715730642193e+000	-2.329684662623212e+001
1	 5.754745107252709e-001	 1.053009622962143e+000	-2.324045825887653e+001
1	 5.640549614308797e-001	 1.059170528235776e+000	-2.316943447123111e+001
1	 5.525880029883279e-001	 1.065197975315034e+000	-2.308406172211523e+001
1	 5.410759137449159e-001	 1.071091543696645e+000	-2.298466667417783e+001
1	 5.295209729733791e-001	 1.076850863358325e+000	-2.287161426654136e+001
1	 5.179254595134631e-001	 1.082475614551749e+000	-2.274530575301107e+001
1	 5.062916504278681e-001	 1.087965527553038e+000	-2.260617671068795e+001
1	 4.946218196740463e-001	 1.093320382371615e+000	-2.245469502380549e+001
1	 4.829182367932998e-001	 1.098540008418292e+000	-2.229135884758325e+001
1	 4.711831656185745e-001	 1.103624284133538e+000	-2.211669455684368e+001
1	 5.901047843585173e-001	 1.052531108788160e+000	-2.348064818610519e+001
1	 5.786717511930367e-001	 1.058859968925060e+000	-2.342911412329015e+001
1	 5.671887567860980e-001	 1.065055103161805e+000	-2.336318038457987e+001
1	 5.556580898336716e-001	 1.071116037732701e+000	-2.328312262461709e+001
1	 5.440820413411763e-001	 1.077042349798221e+000	-2.318925648076123e+001
1	 5.324629032446050e-001	 1.082833667280287e+000	-2.308193564732786e+001
1	 5.208029670445573e-001	 1.088489668654092e+000	-2.296154991579425e+001
1	 5.091045224547135e-001	 1.094010082697206e+000	-2.282852318580004e+001
1	 4.973698560662537e-001	 1.099394688196809e+000	-2.268331145176591e+001
1	 4.856012500296730e-001	 1.104643313615936e+000	-2.252640076991878e+001
1	 4.738009807553952e-001	 1.109755836719682e+000	-2.235830521046181e+001
1	 5.933651938957493e-001	 1.058346486933445e+000	-2.365693275123080e+001
1	 5.818689916604579e-001	 1.064710314887335e+000	-2.361034104048807e+001
1	 5.703225521410431e-001	 1.070939678087233e+000	-2.354963581139102e+001
1	 5.587281766788282e-001	 1.077034100149815e+000	-2.347507587629155e+001
1	 5.470881689373441e-001	 1.082993155899291e+000	-2.338695974044434e+001
1	 5.354048335158376e-001	 1.088816471201787e+000	-2.328562368953143e+001
1	 5.236804745757573e-001	 1.094503722756014e+000	-2.317143984348090e+001
1	 5.119173944817583e-001	 1.100054637840989e+000	-2.304481418139154e+001
1	 5.001178924587446e-001	 1.105468994021645e+000	-2.290618454235645e+001
1	 4.882842632663986e-001	 1.110746618813241e+000	-2.275601860694653e+001
1	 4.764187958926178e-001	 1.115887389305492e+000	-2.259481186407618e+001
1	 5.966256034326836e-001	 1.064161865078198e+000	-2.382567310487780e+001
1	 5.850662321276202e-001	 1.070560660849099e+000	-2.378411983892724e+001
1	 5.734563474957833e-001	 1.076824253012177e+000	-2.372878837083111e+001
1	 5.617982635238441e-001	 1.082952162566470e+000	-2.365991473410793e+001
1	 5.500942965334423e-001	 1.088943961999928e+000	-2.357777429708271e+001
1	 5.383467637870756e-001	 1.094799275122880e+000	-2.348267987527781e+001
1	 5.265579821070365e-001	 1.100517776857554e+000	-2.337497981036339e+001
1	 5.147302665089530e-001	 1.106099192984409e+000	-2.325505602043489e+001
1	 5.028659288514479e-001	 1.111543299846135e+000	-2.312332202636081e+001
1	 4.909672765033884e-001	 1.116849924010210e+000	-2.298022095891939e+001
1	 4.790366110301419e-001	 1.122018941890968e+000	-2.282622355139177e+001
1	 5.998860129694195e-001	 1.069977243222568e+000	-2.398684262201326e+001
1	 5.882634725946107e-001	 1.076411006810486e+000	-2.395043176385922e+001
1	 5.765901428503867e-001	 1.082708827936749e+000	-2.390062595122928e+001
1	 5.648683503687664e-001	 1.088870224982760e+000	-2.383763260163116e+001
1	 5.531004241294943e-001	 1.094894768100207e+000	-2.376169804140767e+001
1	 5.412886940583167e-001	 1.100782079043621e+000	-2.367310565447298e+001
1	 5.294354896383688e-001	 1.106531830958747e+000	-2.357217399781231e+001
1	 5.175431385362471e-001	 1.112143748127488e+000	-2.345925488843984e+001
1	 5.056139652442926e-001	 1.117617605670288e+000	-2.333473146649465e+001
1	 4.936502897405545e-001	 1.122953229206843e+000	-2.319901623911795e+001
1	 4.816544261678670e-001	 1.128150494476111e+000	-2.305254910971863e+001
1	 6.031464225060558e-001	 1.075792621366704e+000	-2.414041525331107e+001
1	 5.914607130615146e-001	 1.082261352771629e+000	-2.410925846606464e+001
1	 5.797239382049221e-001	 1.088593402861064e+000	-2.406513670280384e+001
1	 5.679384372136416e-001	 1.094788287398780e+000	-2.400822302506064e+001
1	 5.561065517255234e-001	 1.100845574200203e+000	-2.393872890975917e+001
1	 5.442306243295598e-001	 1.106764882964066e+000	-2.385690244567203e+001
1	 5.323129971697274e-001	 1.112545885059633e+000	-2.376302649678527e+001
1	 5.203560105635914e-001	 1.118188303270249e+000	-2.365741683716992e+001
1	 5.083620016372082e-001	 1.123691911494114e+000	-2.354042026194740e+001
1	 4.963333029778085e-001	 1.129056534403145e+000	-2.341241267890550e+001
1	 4.842722413056925e-001	 1.134282047060920e+000	-2.327379718528043e+001
1	 6.064068320426922e-001	 1.081607999510756e+000	-2.428636550967395e+001
1	 5.946579535284186e-001	 1.088111698732658e+000	-2.426058199095243e+001
1	 5.828577335594574e-001	 1.094477977785235e+000	-2.422230903061925e+001
1	 5.710085240585168e-001	 1.100706349814624e+000	-2.417167968939479e+001
1	 5.591126793215522e-001	 1.106796380299988e+000	-2.410886488286097e+001
1	 5.471725546008029e-001	 1.112747686884270e+000	-2.403407163692328e+001
1	 5.351905047010859e-001	 1.118559939160247e+000	-2.394754131025895e+001
1	 5.231688825909353e-001	 1.124232858412713e+000	-2.384954778823656e+001
1	 5.111100380301239e-001	 1.129766217317624e+000	-2.374039565277898e+001
1	 4.990163162150625e-001	 1.135159839599118e+000	-2.362041833261828e+001
1	 4.868900564435181e-001	 1.140413599645397e+000	-2.348997623835120e+001
1	 6.096672415794278e-001	 1.087423377654871e+000	-2.442466844725387e+001
1	 5.978551939954088e-001	 1.093962044693708e+000	-2.440438476800622e+001
1	 5.859915289140609e-001	 1.100362552709378e+000	-2.437213158777451e+001
1	 5.740786109034388e-001	 1.106624412230385e+000	-2.432799641471989e+001
1	 5.621188069176043e-001	 1.112747186399639e+000	-2.427210398463214e+001
1	 5.501144848720442e-001	 1.118730490804286e+000	-2.420461458658298e+001
1	 5.380680122324182e-001	 1.124573993260627e+000	-2.412572235558164e+001
1	 5.259817546182297e-001	 1.130277413554903e+000	-2.403565353658022e+001
1	 5.138580744229687e-001	 1.135840523140828e+000	-2.393466472417294e+001
1	 5.016993294522284e-001	 1.141263144794765e+000	-2.382304108229823e+001
1	 4.895078715812429e-001	 1.146545152229540e+000	-2.370109454822795e+001
1	 6.129276511163623e-001	 1.093238755799201e+000	-2.455529965295002e+001
1	 6.010524344625714e-001	 1.099812390654911e+000	-2.454064960056971e+001
1	 5.891253242688013e-001	 1.106247127633605e+000	-2.451459326880430e+001
1	 5.771486977484548e-001	 1.112542474646159e+000	-2.447716715261683e+001
1	 5.651249345137026e-001	 1.118697992499229e+000	-2.442844428103870e+001
1	 5.530564151432820e-001	 1.124713294724171e+000	-2.436853262410564e+001
1	 5.409455197636974e-001	 1.130588047360811e+000	-2.429757346674931e+001
1	 5.287946266454241e-001	 1.136321968696841e+000	-2.421573975383883e+001
1	 5.166061108156720e-001	 1.141914828963736e+000	-2.412323441055857e+001
1	 5.043823426892181e-001	 1.147366449990088e+000	-2.402028864227674e+001
1	 4.921256867187671e-001	 1.152676704813351e+000	-2.390716021804205e+001
1	 6.161880606535946e-001	 1.099054133943893e+000	-2.467823523036721e+001
1	 6.042496749299927e-001	 1.105662736616400e+000	-2.466935965595628e+001
1	 5.922591196237464e-001	 1.112131702558031e+000	-2.464968320329215e+001
1	 5.802187845936114e-001	 1.118460537062040e+000	-2.461918598268233e+001
1	 5.681310621098703e-001	 1.124648798598832e+000	-2.457788387898201e+001
1	 5.559983454145147e-001	 1.130696098643979e+000	-2.452582705080862e+001
1	 5.438230272948973e-001	 1.136602101460835e+000	-2.446309839661172e+001
1	 5.316074986724690e-001	 1.142366523838548e+000	-2.438981199160980e+001
1	 5.193541472081625e-001	 1.147989134786358e+000	-2.430611149959667e+001
1	 5.070653559259435e-001	 1.153469755185090e+000	-2.421216856360993e+001
1	 4.947435018559895e-001	 1.158808257396830e+000	-2.410818117942307e+001
1	 6.194484701912242e-001	 1.104869512089097e+000	-2.479345178621768e+001
1	 6.074469153977586e-001	 1.111513082578307e+000	-2.479049845586904e+001
1	 5.953929149789650e-001	 1.118016277482769e+000	-2.477739074968403e+001
1	 5.832888714389555e-001	 1.124378599478121e+000	-2.475404710916068e+001
1	 5.711371897061307e-001	 1.130599604698523e+000	-2.472042092522004e+001
1	 5.589402756857406e-001	 1.136678902563766e+000	-2.467649914061099e+001
1	 5.467005348259916e-001	 1.142616155560737e+000	-2.462230081900795e+001
1	 5.344203706993144e-001	 1.148411078980047e+000	-2.455787568460927e+001
1	 5.221021836003700e-001	 1.154063440608706e+000	-2.448330263604280e+001
1	 5.097483691623167e-001	 1.159573060379774e+000	-2.439868823837673e+001
1	 4.973613169928101e-001	 1.164939809979976e+000	-2.430416519700908e+001
1	 4.711831656185745e-001	 1.103624284133538e+000	-2.211669455684368e+001
1	 4.594170961960175e-001	 1.108573868961468e+000	-2.193680169164341e+001
1	 4.476240367602246e-001	 1.113387965969144e+000	-2.175771694774875e+001
1	 4.358062280216104e-001	 1.118066598955774e+000	-2.157983388366743e+001
1	 4.239658999937963e-001	 1.122609838913262e+000	-2.140357415895763e+001
1	 4.121052708129413e-001	 1.127017803469615e+000	-2.122938500312825e+001
1	 4.002265455830573e-001	 1.131290656299120e+000	-2.105773669193284e+001
1	 3.883319152483020e-001	 1.135428606500521e+000	-2.088912003647088e+001
1	 3.764235554931850e-001	 1.139431907944475e+000	-2.072404389034809e+001
1	 3.645036256715677e-001	 1.143300858591557e+000	-2.056303267997726e+001
1	 3.525742677652601e-001	 1.147035799782149e+000	-2.040662396291661e+001
1	 4.738009807553952e-001	 1.109755836719682e+000	-2.235830521046181e+001
1	 4.619695410121816e-001	 1.114732920615915e+000	-2.218519658924971e+001
1	 4.501109613037128e-001	 1.119573763944086e+000	-2.201317629924196e+001
1	 4.382274947894187e-001	 1.124278390635644e+000	-2.184261741395330e+001
1	 4.263213838725058e-001	 1.128846872076933e+000	-2.167392158045305e+001
1	 4.143948590127299e-001	 1.133279326549498e+000	-2.150751649016508e+001
1	 4.024501375652947e-001	 1.137575918636991e+000	-2.134385335629012e+001
1	 3.904894226468796e-001	 1.141736858599893e+000	-2.118340440328575e+001
1	 3.785149020297368e-001	 1.145762401719342e+000	-2.102666037367734e+001
1	 3.665287470647387e-001	 1.149652847611347e+000	-2.087412805730696e+001
1	 3.545331116341912e-001	 1.153408539512741e+000	-2.072632784794167e+001
1	 4.764187958926178e-001	 1.115887389305492e+000	-2.259481186407618e+001
1	 4.645219858287748e-001	 1.120891972270021e+000	-2.242880716586741e+001
1	 4.525978858476362e-001	 1.125759561918668e+000	-2.226417439316028e+001
1	 4.406487615576510e-001	 1.130490182315132e+000	-2.210126752609375e+001
1	 4.286768677516142e-001	 1.135083905240194e+000	-2.194046955343489e+001
1	 4.166844472128812e-001	 1.139540849628946e+000	-2.178218994345376e+001
1	 4.046737295478510e-001	 1.143861180974407e+000	-2.162686212074513e+001
1	 3.926469300457279e-001	 1.148045110698799e+000	-2.147494095446056e+001
1	 3.806062485665093e-001	 1.152092895493742e+000	-2.132690026324598e+001
1	 3.685538684580829e-001	 1.156004836630688e+000	-2.118323034201753e+001
1	 3.564919555032524e-001	 1.159781279242920e+000	-2.104443551552199e+001
1	 4.790366110301419e-001	 1.122018941890968e+000	-2.282622355139178e+001
1	 4.670744306456894e-001	 1.127051023923789e+000	-2.266764256257750e+001
1	 4.550848103918862e-001	 1.131945359892904e+000	-2.251072017736982e+001
1	 4.430700283262014e-001	 1.136701973994260e+000	-2.235579265003927e+001
1	 4.310323516310217e-001	 1.141320938403083e+000	-2.220322564159302e+001
1	 4.189740354133045e-001	 1.145802372708010e+000	-2.205341168891154e+001
1	 4.068973215306461e-001	 1.150146443311432e+000	-2.190676767926150e+001
1	 3.948044374447789e-001	 1.154353362797313e+000	-2.176373233566655e+001
1	 3.826975951034476e-001	 1.158423389267759e+000	-2.162476371846210e+001
1	 3.705789898515568e-001	 1.162356825649666e+000	-2.149033674818841e+001
1	 3.584507993724112e-001	 1.166154018972769e+000	-2.136094075480073e+001
1	 4.816544261678670e-001	 1.128150494476111e+000	-2.305254910971863e+001
1	 4.696268754628187e-001	 1.133210075577222e+000	-2.290171172173208e+001
1	 4.575717349363537e-001	 1.138131157866803e+000	-2.275282240520784e+001
1	 4.454912950949637e-001	 1.142913765673050e+000	-2.260620103247144e+001
1	 4.333878355106287e-001	 1.147557971565633e+000	-2.246219724418004e+001
1	 4.212636236139090e-001	 1.152063895786738e+000	-2.232118791492792e+001
1	 4.091209135136008e-001	 1.156431705648128e+000	-2.218357462375461e+001
1	 3.969619448439651e-001	 1.160661614895509e+000	-2.204978113505759e+001
1	 3.847889416404962e-001	 1.164753883041476e+000	-2.192025089526709e+001
1	 3.726041112451171e-001	 1.168708814668366e+000	-2.179544455046451e+001
1	 3.604096432416351e-001	 1.172526758702372e+000	-2.167583748994595e+001
1	 4.842722413056925e-001	 1.134282047060920e+000	-2.327379718528043e+001
1	 4.721793202800552e-001	 1.139369127230325e+000	-2.313102339232515e+001
1	 4.600586594809300e-001	 1.144316955840377e+000	-2.299048964074033e+001
1	 4.479125618638321e-001	 1.149125557351524e+000	-2.285250074175571e+001
1	 4.357433193903352e-001	 1.153795004727881e+000	-2.271739160045654e+001
1	 4.235532118146043e-001	 1.158325418865181e+000	-2.258552467608245e+001
1	 4.113445054966349e-001	 1.162716967984557e+000	-2.245728744684961e+001
1	 3.991194522432189e-001	 1.166969866993460e+000	-2.233308988482283e+001
1	 3.868802881775998e-001	 1.171084376814971e+000	-2.221336194622979e+001
1	 3.746292326387208e-001	 1.175060803686873e+000	-2.209855108241927e+001
1	 3.623684871108915e-001	 1.178899498431811e+000	-2.198911977650083e+001
1	 4.868900564435181e-001	 1.140413599645397e+000	-2.348997623835120e+001
1	 4.747317650972915e-001	 1.145528178883100e+000	-2.335558613519017e+001
1	 4.625455840255062e-001	 1.150502753813638e+000	-2.322373026385011e+001
1	 4.503338286327004e-001	 1.155337349029706e+000	-2.309469967273494e+001
1	 4.380988032700417e-001	 1.160032037889863e+000	-2.296881579399120e+001
1	 4.258428000152994e-001	 1.164586941943386e+000	-2.284642789674144e+001
1	 4.135680974796693e-001	 1.169002230320782e+000	-2.272791054455022e+001
1	 4.012769596424727e-001	 1.173278119091240e+000	-2.261366106269326e+001
1	 3.889716347147036e-001	 1.177414870588328e+000	-2.250409702063729e+001
1	 3.766543540323243e-001	 1.181412792705272e+000	-2.239965373497161e+001
1	 3.643273309801479e-001	 1.185272238161169e+000	-2.230078179785191e+001
1	 4.895078715812429e-001	 1.146545152229540e+000	-2.370109454822795e+001
1	 4.772842099144207e-001	 1.151687230535551e+000	-2.357540832803242e+001
1	 4.650325085699736e-001	 1.156688551786596e+000	-2.345255247516200e+001
1	 4.527550954014628e-001	 1.161549140707617e+000	-2.333280555136923e+001
1	 4.404542871496485e-001	 1.166269071051613e+000	-2.321647675682536e+001
1	 4.281323882159039e-001	 1.170848465021405e+000	-2.310390337453953e+001
1	 4.157916894626238e-001	 1.175287492656865e+000	-2.299544821882316e+001
1	 4.034344670416590e-001	 1.179586371188922e+000	-2.289149709339687e+001
1	 3.910629812517523e-001	 1.183745364361628e+000	-2.279245626458274e+001
1	 3.786794754258847e-001	 1.187764781723647e+000	-2.269874995485138e+001
1	 3.662861748493719e-001	 1.191644977890528e+000	-2.261081786181118e+001
1	 4.921256867187671e-001	 1.152676704813351e+000	-2.390716021804205e+001
1	 4.798366547313354e-001	 1.157846282187681e+000	-2.379049817029862e+001
1	 4.675194331142233e-001	 1.162874349759263e+000	-2.367696430081035e+001
1	 4.551763621700131e-001	 1.167760932385280e+000	-2.356682593922834e+001
1	 4.428097710290558e-001	 1.172506104213168e+000	-2.346038127350127e+001
1	 4.304219764163272e-001	 1.177109988099284e+000	-2.335795678375100e+001
1	 4.180152814454191e-001	 1.181572754992868e+000	-2.325990468009809e+001
1	 4.055919744407099e-001	 1.185894623286580e+000	-2.316660035006785e+001
1	 3.931543277886905e-001	 1.190075858134952e+000	-2.307843982104997e+001
1	 3.807045968193585e-001	 1.194116770742085e+000	-2.299583724311481e+001
1	 3.682450187185307e-001	 1.198017717619970e+000	-2.291922239730598e+001
1	 4.947435018559895e-001	 1.158808257396830e+000	-2.410818117942307e+001
1	 4.823890995479283e-001	 1.164005333839493e+000	-2.400086368789322e+001
1	 4.700063576581465e-001	 1.169060147731649e+000	-2.389697359705538e+001
1	 4.575976289382453e-001	 1.173972724062717e+000	-2.379676823784032e+001
1	 4.451652549081642e-001	 1.178743137374562e+000	-2.370053598496581e+001
1	 4.327115646164784e-001	 1.183371511177076e+000	-2.360859367855311e+001
1	 4.202388734279750e-001	 1.187858017328854e+000	-2.352128404969087e+001
1	 4.077494818395579e-001	 1.192202875384287e+000	-2.343897315561293e+001
1	 3.952456743254628e-001	 1.196406351908383e+000	-2.336204782999531e+001
1	 3.827297182127025e-001	 1.200468759760668e+000	-2.329091315370874e+001
1	 3.702038625875918e-001	 1.204390457349580e+000	-2.322598995117542e+001
1	 4.973613169928101e-001	 1.164939809979976e+000	-2.430416519700908e+001
1	 4.849415443640922e-001	 1.170164385490992e+000	-2.420651273774576e+001
1	 4.724932822016347e-001	 1.175245945703767e+000	-2.411258805475374e+001
1	 4.600188957060533e-001	 1.180184515739950e+000	-2.402263969290315e+001
1	 4.475207387868734e-001	 1.184980170535832e+000	-2.393694739234908e+001
1	 4.350011528162667e-001	 1.189633034254827e+000	-2.385581949618673e+001
1	 4.224624654102122e-001	 1.194143279664885e+000	-2.377959036214738e+001
1	 4.099069892381355e-001	 1.198511127482119e+000	-2.370861778403221e+001
1	 3.973370208620145e-001	 1.202736845682000e+000	-2.364328042842889e+001
1	 3.847548396058734e-001	 1.206820748779484e+000	-2.358397529207725e+001
1	 3.721627064565229e-001	 1.210763197079439e+000	-2.353111518506685e+001
1	 3.525742677652601e-001	 1.147035799782149e+000	-2.040662396291661e+001
1	 3.406376052026061e-001	 1.150637115213137e+000	-2.025710592824685e+001
1	 3.286957413846450e-001	 1.154105229318470e+000	-2.011664223612549e+001
1	 3.167507592780232e-001	 1.157440607346606e+000	-1.998559619323306e+001
1	 3.048047206734029e-001	 1.160643754840250e+000	-1.986433489021048e+001
1	 2.928596653018194e-001	 1.163715216807882e+000	-1.975322706690040e+001
1	 2.809176099841100e-001	 1.166655576875311e+000	-1.965264102915237e+001
1	 2.689805478137873e-001	 1.169465456418633e+000	-1.956294262050852e+001
1	 2.570504473736705e-001	 1.172145513679984e+000	-1.948449325185775e+001
1	 2.451292519865291e-001	 1.174696442867462e+000	-1.941764799190982e+001
1	 2.332188789999302e-001	 1.177118973240590e+000	-1.936275372111034e+001
1	 3.545331116341912e-001	 1.153408539512741e+000	-2.072632784794167e+001
1	 3.425301309638525e-001	 1.157029863252174e+000	-2.058551891206821e+001
1	 3.305219201409053e-001	 1.160517245621667e+000	-2.045380363571990e+001
1	 3.185105737046082e-001	 1.163871154454500e+000	-2.033148013679207e+001
1	 3.064981649005862e-001	 1.167092098102068e+000	-2.021885038723492e+001
1	 2.944867447922767e-001	 1.170180624600808e+000	-2.011621816588704e+001
1	 2.824783414056346e-001	 1.173137320819037e+000	-2.002388706091436e+001
1	 2.704749589074650e-001	 1.175962811585093e+000	-1.994215852504949e+001
1	 2.584785768177021e-001	 1.178657758798178e+000	-1.987132998661152e+001
1	 2.464911492558900e-001	 1.181222860523273e+000	-1.981169301905908e+001
1	 2.345146042220564e-001	 1.183658850071527e+000	-1.976353157160124e+001
1	 3.564919555032524e-001	 1.159781279242920e+000	-2.104443551552199e+001
1	 3.444226567251935e-001	 1.163422611290857e+000	-2.091273995339245e+001
1	 3.323480988972307e-001	 1.166929261924586e+000	-2.079017763972618e+001
1	 3.202703881312339e-001	 1.170301701562208e+000	-2.067698084881574e+001
1	 3.081916091277884e-001	 1.173540441363803e+000	-2.057338580216107e+001
1	 2.961138242827327e-001	 1.176646032393761e+000	-2.047963070995387e+001
1	 2.840390728271373e-001	 1.179619064762902e+000	-2.039595386013611e+001
1	 2.719693700010984e-001	 1.182460166751805e+000	-2.032259175811280e+001
1	 2.599067062616637e-001	 1.185170003916729e+000	-2.025977731999407e+001
1	 2.478530465251502e-001	 1.187749278179539e+000	-2.020773812201232e+001
1	 2.358103294440449e-001	 1.190198726903006e+000	-2.016669470854981e+001
1	 3.584507993724112e-001	 1.166154018972769e+000	-2.136094075480073e+001
1	 3.463151824866052e-001	 1.169815359329259e+000	-2.123875927811076e+001
1	 3.341742776536050e-001	 1.173341278227287e+000	-2.112575113174115e+001
1	 3.220302025578900e-001	 1.176732248669769e+000	-2.102208209819914e+001
1	 3.098850533550046e-001	 1.179988784625471e+000	-2.092792202313039e+001
1	 2.977409037731876e-001	 1.183111440186731e+000	-2.084344294650188e+001
1	 2.855998042486236e-001	 1.186100808706870e+000	-2.076881727926773e+001
1	 2.734637810946988e-001	 1.188957521918704e+000	-2.070421602847755e+001
1	 2.613348357055730e-001	 1.191682249035549e+000	-2.064980707359213e+001
1	 2.492149437943350e-001	 1.194275695836146e+000	-2.060575349655326e+001
1	 2.371060546659301e-001	 1.196738603734890e+000	-2.057221196794940e+001
1	 3.604096432416351e-001	 1.172526758702372e+000	-2.167583748994595e+001
1	 3.482077082480642e-001	 1.176208107367455e+000	-2.156356732460486e+001
1	 3.360004564100119e-001	 1.179753294529828e+000	-2.146051128051299e+001
1	 3.237900169845663e-001	 1.183162795777225e+000	-2.136676800670508e+001
1	 3.115784975822304e-001	 1.186437127887090e+000	-2.128244035377995e+001
1	 2.993679832636415e-001	 1.189576847979709e+000	-2.120763359583744e+001
1	 2.871605356700990e-001	 1.192582552650905e+000	-2.114245369573201e+001
1	 2.749581921882768e-001	 1.195454877085726e+000	-2.108700561649903e+001
1	 2.627629651494472e-001	 1.198194494154544e+000	-2.104139168159662e+001
1	 2.505768410634696e-001	 1.200802113492981e+000	-2.100570998641615e+001
1	 2.384017798877464e-001	 1.203278480567044e+000	-2.098005286330574e+001
1	 3.623684871108915e-001	 1.178899498431811e+000	-2.198911977650083e+001
1	 3.501002340095467e-001	 1.182600855405517e+000	-2.188715473800423e+001
1	 3.378266351664351e-001	 1.186165310832270e+000	-2.179444553223652e+001
1	 3.255498314112528e-001	 1.189593342884613e+000	-2.171102303942541e+001
1	 3.132719418094607e-001	 1.192885471148674e+000	-2.163692250201275e+001
1	 3.009950627540954e-001	 1.196042255772686e+000	-2.157218183839127e+001
1	 2.887212670915688e-001	 1.199064296594971e+000	-2.151683999773539e+001
1	 2.764526032818441e-001	 1.201952232252809e+000	-2.147093535866064e+001
1	 2.641910945933040e-001	 1.204706739273630e+000	-2.143450417424595e+001
1	 2.519387383325791e-001	 1.207328531149930e+000	-2.140757906577187e+001
1	 2.396975051095284e-001	 1.209818357399334e+000	-2.139018756732438e+001
1	 3.643273309801479e-001	 1.185272238161169e+000	-2.230078179785191e+001
1	 3.519927597710295e-001	 1.188993603443521e+000	-2.220951236462724e+001
1	 3.396528139228582e-001	 1.192577327134670e+000	-2.212754160309348e+001
1	 3.273096458379391e-001	 1.196023889991973e+000	-2.205483199555286e+001
1	 3.149653860366912e-001	 1.199333814410241e+000	-2.199135056912834e+001
1	 3.026221422445491e-001	 1.202507663565654e+000	-2.193706730234844e+001
1	 2.902819985130387e-001	 1.205546040539032e+000	-2.189195357053686e+001
1	 2.779470143754111e-001	 1.208449587419890e+000	-2.185598063262320e+001
1	 2.656192240371608e-001	 1.211218984392715e+000	-2.182911816180129e+001
1	 2.533006356016885e-001	 1.213854948806878e+000	-2.181133282228038e+001
1	 2.409932303313104e-001	 1.216358234231624e+000	-2.180258689419007e+001
1	 3.662861748493719e-001	 1.191644977890528e+000	-2.261081786181118e+001
1	 3.538852855324884e-001	 1.195386351481539e+000	-2.253063124660253e+001
1	 3.414789926792650e-001	 1.198989343437087e+000	-2.245978747203375e+001
1	 3.290694602646153e-001	 1.202454437099344e+000	-2.239817999944640e+001
1	 3.166588302639168e-001	 1.205782157671807e+000	-2.234570703930537e+001
1	 3.042492217350033e-001	 1.208973071358602e+000	-2.230227005167590e+001
1	 2.918427299345140e-001	 1.212027784483051e+000	-2.226777228315550e+001
1	 2.794414254689893e-001	 1.214946942586906e+000	-2.224211734275418e+001
1	 2.670473534810350e-001	 1.217731229511709e+000	-2.222520781903853e+001
1	 2.546625328708231e-001	 1.220381366463713e+000	-2.221694394068622e+001
1	 2.422889555531268e-001	 1.222898111063778e+000	-2.221722228241315e+001
1	 3.682450187185307e-001	 1.198017717619970e+000	-2.291922239730598e+001
1	 3.557778112939002e-001	 1.201779099519646e+000	-2.285050261666069e+001
1	 3.433051714356394e-001	 1.205401359739581e+000	-2.279117137378605e+001
1	 3.308292746912714e-001	 1.208884984206768e+000	-2.274105249198319e+001
1	 3.183522744911331e-001	 1.212230500933388e+000	-2.269997476941742e+001
1	 3.058763012254581e-001	 1.215438479151522e+000	-2.266777057453237e+001
1	 2.934034613560003e-001	 1.218509528426993e+000	-2.264427447550655e+001
1	 2.809358365625896e-001	 1.221444297753793e+000	-2.262932190611890e+001
1	 2.684754829249443e-001	 1.224243474630525e+000	-2.262274787023295e+001
1	 2.560244301400080e-001	 1.226907784120320e+000	-2.262438568693825e+001
1	 2.435846807750120e-001	 1.229437987895662e+000	-2.263406577822620e+001
1	 3.702038625875918e-001	 1.204390457349580e+000	-2.322598995117542e+001
1	 3.576703370552410e-001	 1.208171847557914e+000	-2.316911789309091e+001
1	 3.451313501919650e-001	 1.211813376042211e+000	-2.312168179209104e+001
1	 3.325890891178971e-001	 1.215315531314283e+000	-2.308343522218472e+001
1	 3.200457187183353e-001	 1.218678844195001e+000	-2.305413697917257e+001
1	 3.075033807159139e-001	 1.221903886944404e+000	-2.303354977204478e+001
1	 2.949641927775030e-001	 1.224991272370823e+000	-2.302143894594117e+001
1	 2.824302476562230e-001	 1.227941652920489e+000	-2.301757123891754e+001
1	 2.699036123689059e-001	 1.230755719749071e+000	-2.302171357462183e+001
1	 2.573863274092683e-001	 1.233434201776585e+000	-2.303363189281286e+001
1	 2.448804059970006e-001	 1.235977864727140e+000	-2.305309001950381e+001
1	 3.721627064565229e-001	 1.210763197079439e+000	-2.353111518506685e+001
1	 3.595628628164873e-001	 1.214564595596418e+000	-2.348646867485884e+001
1	 3.469575289482251e-001	 1.218225392345035e+000	-2.345130745314907e+001
1	 3.343489035444823e-001	 1.221746078421927e+000	-2.342531423910688e+001
1	 3.217391629455186e-001	 1.225127187456663e+000	-2.340817724156480e+001
1	 3.091304602063712e-001	 1.228369294737240e+000	-2.339958894744163e+001
1	 2.965249241990276e-001	 1.231473016314503e+000	-2.339924493918290e+001
1	 2.839246587499008e-001	 1.234439008086931e+000	-2.340684274334738e+001
1	 2.713317418129375e-001	 1.237267964867259e+000	-2.342208071232595e+001
1	 2.587482246786292e-001	 1.239960619432395e+000	-2.344465694102356e+001
1	 2.461761312191269e-001	 1.242517741558077e+000	-2.347426822019434e+001
1	 2.332188789999302e-001	 1.177118973240590e+000	-1.936275372111034e+001
1	 2.213230021627496e-001	 1.179413533665163e+000	-1.931981218510829e+001
1	 2.094416944440826e-001	 1.181581294153850e+000	-1.928896337682673e+001
1	 1.975767878414401e-001	 1.183623084116445e+000	-1.927076564429194e+001
1	 1.857300859390157e-001	 1.185539764203235e+000	-1.926576169220878e+001
1	 1.739033633652391e-001	 1.187332225339542e+000	-1.927447684167921e+001
1	 1.620983652844263e-001	 1.189001387753761e+000	-1.929741737055429e+001
1	 1.503168069223521e-001	 1.190548200000185e+000	-1.933506893567655e+001
1	 1.385603731255183e-001	 1.191973637977820e+000	-1.938789507803185e+001
1	 1.268307179538430e-001	 1.193278703946419e+000	-1.945633581159444e+001
1	 1.151294643064635e-001	 1.194464425540913e+000	-1.954080629642308e+001
1	 2.345146042220564e-001	 1.183658850071527e+000	-1.976353157160124e+001
1	 2.225526358758121e-001	 1.185966158691430e+000	-1.972680169830090e+001
1	 2.106053175916603e-001	 1.188145962896061e+000	-1.970161103123143e+001
1	 1.986744915453892e-001	 1.190199096703295e+000	-1.968847318533408e+001
1	 1.867619713416105e-001	 1.192126425545067e+000	-1.968788702461812e+001
1	 1.748695414682985e-001	 1.193928845296552e+000	-1.970033495644058e+001
1	 1.629989567856155e-001	 1.195607281298800e+000	-1.972628130434440e+001
1	 1.511519420488499e-001	 1.197162687376130e+000	-1.976617076070539e+001
1	 1.393301914652341e-001	 1.198596044849500e+000	-1.982042692021071e+001
1	 1.275353682843719e-001	 1.199908361547070e+000	-1.988945089495810e+001
1	 1.157691044219621e-001	 1.201100670813155e+000	-1.997362001174130e+001
1	 2.358103294440449e-001	 1.190198726903006e+000	-2.016669470854981e+001
1	 2.237822695886924e-001	 1.192518783718310e+000	-2.013655819430629e+001
1	 2.117689407390044e-001	 1.194710631638938e+000	-2.011740200436232e+001
1	 1.997721952490489e-001	 1.196775109290849e+000	-2.010969053414314e+001
1	 1.877938567438564e-001	 1.198713086887629e+000	-2.011387437295075e+001
1	 1.758357195709473e-001	 1.200525465254301e+000	-2.013038863923370e+001
1	 1.638995482863325e-001	 1.202213174844571e+000	-2.015965139208107e+001
1	 1.519870771748143e-001	 1.203777174752788e+000	-2.020206212018306e+001
1	 1.401000098043579e-001	 1.205218451721859e+000	-2.025800030927518e+001
1	 1.282400186142539e-001	 1.206538019148351e+000	-2.032782408885779e+001
1	 1.164087445367640e-001	 1.207736916085966e+000	-2.041186895876651e+001
1	 2.371060546659301e-001	 1.196738603734890e+000	-2.057221196794939e+001
1	 2.250119033014359e-001	 1.199071408745647e+000	-2.054904914772088e+001
1	 2.129325638861733e-001	 1.201275300382315e+000	-2.053630218550774e+001
1	 2.008698989524904e-001	 1.203351121878933e+000	-2.053438184327420e+001
1	 1.888257421458385e-001	 1.205299748230736e+000	-2.054368607344998e+001
1	 1.768018976732843e-001	 1.207122085212600e+000	-2.056459840156999e+001
1	 1.648001397866881e-001	 1.208819068390886e+000	-2.059748638254158e+001
1	 1.528222123003677e-001	 1.210391662129970e+000	-2.064270013177605e+001
1	 1.408698281430211e-001	 1.211840858594711e+000	-2.070057093218919e+001
1	 1.289446689436271e-001	 1.213167676750082e+000	-2.077140991786593e+001
1	 1.170483846510113e-001	 1.214373161359173e+000	-2.085550683496611e+001
1	 2.384017798877464e-001	 1.203278480567044e+000	-2.098005286330574e+001
1	 2.262415370140882e-001	 1.205624033773291e+000	-2.096424274025030e+001
1	 2.140961870332250e-001	 1.207839969126025e+000	-2.095827820553106e+001
1	 2.019676026557856e-001	 1.209927134467368e+000	-2.096251204461309e+001
1	 1.898576275476419e-001	 1.211886409574204e+000	-2.097728528117719e+001
1	 1.777680757754081e-001	 1.213718705171260e+000	-2.100292561344976e+001
1	 1.657007312867935e-001	 1.215424961937553e+000	-2.103974592131463e+001
1	 1.536573474256321e-001	 1.217006149507486e+000	-2.108804284542143e+001
1	 1.416396464813552e-001	 1.218463265467869e+000	-2.114809543929104e+001
1	 1.296493192726302e-001	 1.219797334352083e+000	-2.122016389520074e+001
1	 1.176880247648463e-001	 1.221009406632600e+000	-2.130448834443439e+001
1	 2.396975051095284e-001	 1.209818357399334e+000	-2.139018756732438e+001
1	 2.274711707266947e-001	 1.212176658801087e+000	-2.138210784159769e+001
1	 2.152598101802175e-001	 1.214404637869900e+000	-2.138329741682584e+001
1	 2.030653063590058e-001	 1.216503147055976e+000	-2.139404682831323e+001
1	 1.908895129493518e-001	 1.218473070917847e+000	-2.141463594788078e+001
1	 1.787342538774169e-001	 1.220315325130092e+000	-2.144533248015817e+001
1	 1.666013227867598e-001	 1.222030855484382e+000	-2.148639052655944e+001
1	 1.544924825507298e-001	 1.223620636885147e+000	-2.153804921813037e+001
1	 1.424094648194919e-001	 1.225085672341149e+000	-2.160053141825628e+001
1	 1.303539696014012e-001	 1.226426991954170e+000	-2.167404249600445e+001
1	 1.183276648784110e-001	 1.227645651906074e+000	-2.175876917068557e+001
1	 2.409932303313104e-001	 1.216358234231624e+000	-2.180258689419007e+001
1	 2.287008044393011e-001	 1.218729283828884e+000	-2.180261399096758e+001
1	 2.164234333272090e-001	 1.220969306613775e+000	-2.181132787391954e+001
1	 2.041630100622224e-001	 1.223079159644581e+000	-2.182895262241114e+001
1	 1.919213983510534e-001	 1.225059732261483e+000	-2.185570280057883e+001
1	 1.797004319794096e-001	 1.226911945088909e+000	-2.189178201981019e+001
1	 1.675019142866981e-001	 1.228636749031183e+000	-2.193738156554957e+001
1	 1.553276176757833e-001	 1.230235124262765e+000	-2.199267908960234e+001
1	 1.431792831575625e-001	 1.231708079214361e+000	-2.205783736889844e+001
1	 1.310586199300785e-001	 1.233056649556165e+000	-2.213300313148429e+001
1	 1.189673049918478e-001	 1.234281897179420e+000	-2.221830595032364e+001
1	 2.422889555531268e-001	 1.222898111063778e+000	-2.221722228241315e+001
1	 2.299304381519530e-001	 1.225281908856527e+000	-2.222573137916478e+001
1	 2.175870564742576e-001	 1.227533975357481e+000	-2.224233831469922e+001
1	 2.052607137655070e-001	 1.229655172233005e+000	-2.226719657309472e+001
1	 1.929532837528318e-001	 1.231646393604925e+000	-2.230045132082920e+001
1	 1.806666100814845e-001	 1.233508565047521e+000	-2.234223804161638e+001
1	 1.684025057867195e-001	 1.235242642577766e+000	-2.239268123196794e+001
1	 1.561627528009146e-001	 1.236849611640148e+000	-2.245189315862327e+001
1	 1.439491014956988e-001	 1.238330486087322e+000	-2.251997267877909e+001
1	 1.317632702588006e-001	 1.239686307157884e+000	-2.259700412388292e+001
1	 1.196069451052988e-001	 1.240918142452463e+000	-2.268305624755716e+001
1	 2.435846807750120e-001	 1.229437987895662e+000	-2.263406577822620e+001
1	 2.311600718646959e-001	 1.231834533883864e+000	-2.265143083126366e+001
1	 2.187506796214213e-001	 1.234098644100853e+000	-2.267629814223590e+001
1	 2.063584174689311e-001	 1.236231184821071e+000	-2.270874652560467e+001
1	 1.939851691547721e-001	 1.238233054947990e+000	-2.274884772466083e+001
1	 1.816327881837402e-001	 1.240105185005738e+000	-2.279666512484151e+001
1	 1.693030972869350e-001	 1.241848536123940e+000	-2.285225252392685e+001
1	 1.569978879262462e-001	 1.243464099017107e+000	-2.291565296021621e+001
1	 1.447189198340320e-001	 1.244952892959844e+000	-2.298689759959715e+001
1	 1.324679205877057e-001	 1.246315964759147e+000	-2.306600468224641e+001
1	 1.202465852189061e-001	 1.247554387725030e+000	-2.315297852952875e+001
1	 2.448804059970006e-001	 1.235977864727140e+000	-2.305309001950381e+001
1	 2.323897055775752e-001	 1.238387158910742e+000	-2.307968378982723e+001
1	 2.199143027687582e-001	 1.240663312843723e+000	-2.311317740718625e+001
1	 2.074561211725660e-001	 1.242807197408601e+000	-2.315357100573861e+001
1	 1.950170545569596e-001	 1.244819716290493e+000	-2.320085894314240e+001
1	 1.825989662862753e-001	 1.246701804963373e+000	-2.325502859843314e+001
1	 1.702036887874558e-001	 1.248454429669516e+000	-2.331605922268572e+001
1	 1.578330230519001e-001	 1.250078586393454e+000	-2.338392084351817e+001
1	 1.454887381726939e-001	 1.251575299831740e+000	-2.345857322432666e+001
1	 1.331725709169322e-001	 1.252945622359772e+000	-2.353996487896513e+001
1	 1.208862253328119e-001	 1.254190632996945e+000	-2.362803214242612e+001
1	 2.461761312191269e-001	 1.242517741558077e+000	-2.347426822019434e+001
1	 2.336193392906366e-001	 1.244939783937008e+000	-2.351046229865743e+001
1	 2.210779259163265e-001	 1.247227981585924e+000	-2.355294679075096e+001
1	 2.085538248764833e-001	 1.249383209995418e+000	-2.360163920194138e+001
1	 1.960489399594793e-001	 1.251406377632249e+000	-2.365645260356480e+001
1	 1.835651443891883e-001	 1.253298424920236e+000	-2.371729452129182e+001
1	 1.711042802883929e-001	 1.255060323214301e+000	-2.378406587204132e+001
1	 1.586681581779989e-001	 1.256693073768999e+000	-2.385665995035446e+001
1	 1.462585565118158e-001	 1.258197706702826e+000	-2.393496146507697e+001
1	 1.338772212466184e-001	 1.259575279959579e+000	-2.401884562705036e+001
1	 1.215258654471585e-001	 1.260826878268034e+000	-2.410817728834808e+001
1	 1.151294643064635e-001	 1.194464425540913e+000	-1.954080629642308e+001
1	 1.034564591055369e-001	 1.195532006134985e+000	-1.964132776151042e+001
1	 9.181504023273319e-002	 1.196482335047633e+000	-1.975833101742208e+001
1	 8.020675932168628e-002	 1.197316510895122e+000	-1.989283977074993e+001
1	 6.863313492787490e-002	 1.198035653759429e+000	-2.004583901928427e+001
1	 5.709565231767782e-002	 1.198640904201028e+000	-2.021827361412901e+001
1	 4.559576328859526e-002	 1.199133422276893e+000	-2.041104693203211e+001
1	 3.413488602003709e-002	 1.199514386564678e+000	-2.062501965705866e+001
1	 2.271440495405443e-002	 1.199784993194003e+000	-2.086100867051805e+001
1	 1.133567070536557e-002	 1.199946454885717e+000	-2.111978604785257e+001
1	 0.000000000000000e+000	 1.200000000000000e+000	-2.140207816100038e+001
1	 1.157691044219621e-001	 1.201100670813155e+000	-1.997362001174130e+001
1	 1.040312459496887e-001	 1.202174182707194e+000	-2.007292555856566e+001
1	 9.232514929392774e-002	 1.203129791489081e+000	-2.018778819173869e+001
1	 8.065237470892070e-002	 1.203968601878787e+000	-2.031922443048423e+001
1	 6.901444918697729e-002	 1.204691740181260e+000	-2.046821272411179e+001
1	 5.741286624635846e-002	 1.205300353293715e+000	-2.063569199419417e+001
1	 4.584908575049953e-002	 1.205795607718194e+000	-2.082256028691604e+001
1	 3.432453375796898e-002	 1.206178688580310e+000	-2.102967353476111e+001
1	 2.284060240253756e-002	 1.206450798655162e+000	-2.125784442648336e+001
1	 1.139864980270439e-002	 1.206613157401256e+000	-2.150784138410166e+001
1	 0.000000000000000e+000	 1.206667000003317e+000	-2.178038764545977e+001
1	 1.164087445367640e-001	 1.207736916085966e+000	-2.041186895876651e+001
1	 1.046060327931011e-001	 1.208816359279900e+000	-2.051009200452983e+001
1	 9.283525835435209e-002	 1.209777247930941e+000	-2.062289897772545e+001
1	 8.109799009537087e-002	 1.210620692862776e+000	-2.075129468959158e+001
1	 6.939576344530311e-002	 1.211347826603324e+000	-2.089624661532886e+001
1	 5.773008017429712e-002	 1.211959802386552e+000	-2.105868342130246e+001
1	 4.610240821172797e-002	 1.212457793159563e+000	-2.123949360208516e+001
1	 3.451418149532765e-002	 1.212842990595942e+000	-2.143952422654080e+001
1	 2.296679985059128e-002	 1.213116604116268e+000	-2.165957979192937e+001
1	 1.146162889980336e-002	 1.213279859916706e+000	-2.190042118480680e+001
1	 0.000000000000000e+000	 1.213334000006534e+000	-2.216276474729767e+001
1	 1.170483846510113e-001	 1.214373161359173e+000	-2.085550683496611e+001
1	 1.051808196359169e-001	 1.215458535852934e+000	-2.095278021495873e+001
1	 9.334536741414588e-002	 1.216424704373055e+000	-2.106361607284173e+001
1	 8.154360548117007e-002	 1.217272783846940e+000	-2.118900306955179e+001
1	 6.977707770297609e-002	 1.218003913025485e+000	-2.132989335782502e+001
1	 5.804729410160458e-002	 1.218619251479407e+000	-2.148720109934734e+001
1	 4.635573067237538e-002	 1.219119978600882e+000	-2.166180109112241e+001
1	 3.470382923218876e-002	 1.219507292611463e+000	-2.185452750029235e+001
1	 2.309299729826899e-002	 1.219782409577216e+000	-2.206617270642854e+001
1	 1.152460799669064e-002	 1.219946562431969e+000	-2.229748625010163e+001
1	 0.000000000000000e+000	 1.220001000009551e+000	-2.254917388634570e+001
1	 1.176880247648463e-001	 1.221009406632600e+000	-2.130448834443439e+001
1	 1.057556064782786e-001	 1.222100712426131e+000	-2.140094432468595e+001
1	 9.385547647344883e-002	 1.223072160815268e+000	-2.150989320291469e+001
1	 8.198922086645168e-002	 1.223924874831135e+000	-2.163230312403724e+001
1	 7.015839196011997e-002	 1.224659999447606e+000	-2.176910664556507e+001
1	 5.836450802839169e-002	 1.225278700572155e+000	-2.192119924958014e+001
1	 4.660905313253656e-002	 1.225782164042033e+000	-2.208943796301786e+001
1	 3.489347696862794e-002	 1.226171594626763e+000	-2.227464008552588e+001
1	 2.321919474562407e-002	 1.226448215037900e+000	-2.247758202395601e+001
1	 1.158758709339438e-002	 1.226613264946940e+000	-2.269899823233299e+001
1	 0.000000000000000e+000	 1.226668000012267e+000	-2.293958025595673e+001
1	 1.183276648784110e-001	 1.227645651906074e+000	-2.175876917068557e+001
1	 1.063303933203289e-001	 1.228742888999325e+000	-2.185453946027323e+001
1	 9.436558553240053e-002	 1.229719617257423e+000	-2.196168509434348e+001
1	 8.243483625134901e-002	 1.230576965815211e+000	-2.208114941101551e+001
1	 7.053970621685841e-002	 1.231316085869550e+000	-2.221384117377508e+001
1	 5.868172195476935e-002	 1.231938149664668e+000	-2.236063308311162e+001
1	 4.686237559230626e-002	 1.232444349482895e+000	-2.252236039526339e+001
1	 3.508312470472078e-002	 1.232835896641730e+000	-2.269981964737663e+001
1	 2.334539219270992e-002	 1.233114020498216e+000	-2.289376748817585e+001
1	 1.165056618994276e-002	 1.233279967461519e+000	-2.310491961302812e+001
1	 0.000000000000000e+000	 1.233335000014584e+000	-2.333394980209766e+001
1	 1.189673049918478e-001	 1.234281897179420e+000	-2.221830595032364e+001
1	 1.069051801622104e-001	 1.235385065572350e+000	-2.231352171335043e+001
1	 9.487569459114074e-002	 1.236367073699361e+000	-2.241894744720136e+001
1	 8.288045163599542e-002	 1.237229056799023e+000	-2.253549746575001e+001
1	 7.092102047331518e-002	 1.237972172291179e+000	-2.266405261202503e+001
1	 5.899893588084834e-002	 1.238597598756819e+000	-2.280545877430236e+001
1	 4.711569805177934e-002	 1.239106534923351e+000	-2.296052550781754e+001
1	 3.527277244054292e-002	 1.239500198656252e+000	-2.313002476145173e+001
1	 2.347158963957991e-002	 1.239779825958058e+000	-2.331468970852209e+001
1	 1.171354528636394e-002	 1.239946669975606e+000	-2.351521368060354e+001
1	 0.000000000000000e+000	 1.240002000016401e+000	-2.373224920311725e+001
1	 1.196069451052988e-001	 1.240918142452463e+000	-2.268305624755716e+001
1	 1.074799670040658e-001	 1.242027242145039e+000	-2.277784811481002e+001
1	 9.538580364980913e-002	 1.243014530140927e+000	-2.288163690920047e+001
1	 8.332606702052425e-002	 1.243881147782423e+000	-2.299530377466819e+001
1	 7.130233472961396e-002	 1.244628258712357e+000	-2.311969757817678e+001
1	 5.931614980673955e-002	 1.245257047848480e+000	-2.325563343500586e+001
1	 4.736902051105052e-002	 1.245768720363282e+000	-2.340389133790360e+001
1	 3.546242017616995e-002	 1.246164500670219e+000	-2.356521488948518e+001
1	 2.359778708628747e-002	 1.246445631417321e+000	-2.374031013704978e+001
1	 1.177652438268608e-002	 1.246613372489098e+000	-2.392984450878895e+001
1	 0.000000000000000e+000	 1.246669000017617e+000	-2.413444585016239e+001
1	 1.202465852189061e-001	 1.247554387725030e+000	-2.315297852952875e+001
1	 1.080547538460377e-001	 1.248669418717227e+000	-2.324747660982559e+001
1	 9.589591270854529e-002	 1.249661986581963e+000	-2.334971105048641e+001
1	 8.377168240506883e-002	 1.250533238765264e+000	-2.346052575006386e+001
1	 7.168364898587848e-002	 1.251284345132945e+000	-2.358073361316041e+001
1	 5.963336373255377e-002	 1.251916496939524e+000	-2.371111508963327e+001
1	 4.762234297021464e-002	 1.252430905802570e+000	-2.385241681561364e+001
1	 3.565206791167753e-002	 1.252828802683519e+000	-2.400535035576935e+001
1	 2.372398453288595e-002	 1.253111436875899e+000	-2.417059104602287e+001
1	 1.183950347893734e-002	 1.253280075001894e+000	-2.434877693574056e+001
1	 0.000000000000000e+000	 1.253336000018134e+000	-2.454050782821969e+001
1	 1.208862253328119e-001	 1.254190632996945e+000	-2.362803214242612e+001
1	 1.086295406882688e-001	 1.255311595288746e+000	-2.372236603366369e+001
1	 9.640602176748894e-002	 1.256309443022313e+000	-2.382312833923556e+001
1	 8.421729778976253e-002	 1.257185329747398e+000	-2.393112170560137e+001
1	 7.206496324223245e-002	 1.257940431552808e+000	-2.404711915655511e+001
1	 5.995057765840191e-002	 1.258575946029822e+000	-2.417186265101180e+001
1	 4.787566542936647e-002	 1.259093091241094e+000	-2.430606174028612e+001
1	 3.584171564714124e-002	 1.259493104696042e+000	-2.445039232433508e+001
1	 2.385018197942875e-002	 1.259777242333688e+000	-2.460549550621492e+001
1	 1.190248257514589e-002	 1.259946777513892e+000	-2.477197654381704e+001
1	 0.000000000000000e+000	 1.260003000017850e+000	-2.495040389775929e+001
1	 1.215258654471585e-001	 1.260826878268034e+000	-2.410817728834808e+001
1	 1.092043275309017e-001	 1.261953771859433e+000	-2.420247608825862e+001
1	 9.691613082677979e-002	 1.262956899461820e+000	-2.430184811802061e+001
1	 8.466291317473867e-002	 1.263837420728680e+000	-2.440705083259484e+001
1	 7.244627749879956e-002	 1.264596517971808e+000	-2.451881352293840e+001
1	 6.026779158439477e-002	 1.265235395119248e+000	-2.463783589700304e+001
1	 4.812898788860080e-002	 1.265755276678738e+000	-2.476478675763056e+001
1	 3.603136338263674e-002	 1.266157406707675e+000	-2.490030277685241e+001
1	 2.397637942596927e-002	 1.266443047790582e+000	-2.504498736589456e+001
1	 1.196546167133989e-002	 1.266613480024992e+000	-2.519940963999469e+001
1	 0.000000000000000e+000	 1.266670000016666e+000	-2.536410347695799e+001
1	 1.266670000016666e+000	 0.000000000000000e+000	 2.498198531649537e+001
1	 1.266613480024992e+000	 1.196546167133993e-002	 2.437654604965308e+001
1	 1.266443047790582e+000	 2.397637942596935e-002	 2.377726415268394e+001
1	 1.266157406707675e+000	 3.603136338263665e-002	 2.318339580117318e+001
1	 1.265755276678737e+000	 4.812898788860075e-002	 2.259422082966590e+001
1	 1.265235395119249e+000	 6.026779158439477e-002	 2.200904446950137e+001
1	 1.264596517971808e+000	 7.244627749879959e-002	 2.142719909627722e+001
1	 1.263837420728680e+000	 8.466291317473874e-002	 2.084804598398511e+001
1	 1.262956899461820e+000	 9.691613082677968e-002	 2.027097706273914e+001
1	 1.261953771859432e+000	 1.092043275309016e-001	 1.969541667689729e+001
1	 1.260826878268034e+000	 1.215258654471585e-001	 1.912082334026106e+001
1	 1.273336000014533e+000	 0.000000000000000e+000	 2.496953783615336e+001
1	 1.273279182579763e+000	 1.202843132115452e-002	 2.435016465945628e+001
1	 1.273107853425699e+000	 2.410255794388701e-002	 2.373718655851536e+001
1	 1.272820709123039e+000	 3.622098267249431e-002	 2.312988238237109e+001
1	 1.272416462837583e+000	 4.838227235153148e-002	 2.252755476910253e+001
1	 1.271893845340308e+000	 6.058495793091617e-002	 2.192953186203663e+001
1	 1.271251606026819e+000	 7.282753456140230e-002	 2.133516903479102e+001
1	 1.270488513945260e+000	 8.510846172113706e-002	 2.074385062220547e+001
1	 1.269603358831772e+000	 9.742616337399153e-002	 2.015499165409512e+001
1	 1.268594952152506e+000	 1.097790281603267e-001	 1.956803958864230e+001
1	 1.267462128151162e+000	 1.221654096208289e-001	 1.898247604213009e+001
1	 1.280002000011600e+000	 0.000000000000000e+000	 2.495612368245330e+001
1	 1.279944885133735e+000	 1.209140097100544e-002	 2.432320675395653e+001
1	 1.279772659060017e+000	 2.422873646188870e-002	 2.369690265012429e+001
1	 1.279484011537602e+000	 3.641060196249200e-002	 2.307651389214896e+001
1	 1.279077648995626e+000	 4.863555681466329e-002	 2.246136698795099e+001
1	 1.278552295560567e+000	 6.090212427770170e-002	 2.185081412720859e+001
1	 1.277906694081026e+000	 7.320879162433074e-002	 2.124423488433956e+001
1	 1.277139607161034e+000	 8.555401026791813e-002	 2.064103792649868e+001
1	 1.276249818200917e+000	 9.793619592163502e-002	 2.004066272353347e+001
1	 1.275236132444767e+000	 1.103537287902210e-001	 1.944258125672822e+001
1	 1.274097378033473e+000	 1.228049537949910e-001	 1.884629972305315e+001
1	 1.286668000008066e+000	 0.000000000000000e+000	 2.494146943025174e+001
1	 1.286610587687107e+000	 1.215437062091539e-002	 2.429541349250437e+001
1	 1.286437464693734e+000	 2.435491498000737e-002	 2.365616885002837e+001
1	 1.286147313951564e+000	 3.660022125266233e-002	 2.302306268823789e+001
1	 1.285738835153068e+000	 4.888884127802010e-002	 2.239544644398579e+001
1	 1.285210745780221e+000	 6.121929062475997e-002	 2.177269747985232e+001
1	 1.284561782134628e+000	 7.359004868757393e-002	 2.115422076541970e+001
1	 1.283790700376198e+000	 8.599955881504895e-002	 2.053945056259971e+001
1	 1.282896277569445e+000	 9.844622846965515e-002	 1.992785211196459e+001
1	 1.281877312736405e+000	 1.109284294205094e-001	 1.931892331691970e+001
1	 1.280732627915153e+000	 1.234444979695540e-001	 1.871219642244660e+001
1	 1.293334000004133e+000	 0.000000000000000e+000	 2.492530729147150e+001
1	 1.293276290240078e+000	 1.221734027090708e-002	 2.426653137083510e+001
1	 1.293102270327051e+000	 2.448109349827594e-002	 2.361474660245658e+001
1	 1.292810616365125e+000	 3.678984054303802e-002	 2.296930582155170e+001
1	 1.292400021310106e+000	 4.914212574162577e-002	 2.232958644592916e+001
1	 1.291869195999470e+000	 6.153645697209958e-002	 2.169499212997033e+001
1	 1.291216870187819e+000	 7.397130575112082e-002	 2.106495442454368e+001
1	 1.290441793590945e+000	 8.644510736249655e-002	 2.043893443992122e+001
1	 1.289542736937548e+000	 9.895626101799682e-002	 1.981642450865173e+001
1	 1.288518493027608e+000	 1.115031300511167e-001	 1.919694984523418e+001
1	 1.287367877796385e+000	 1.240840421444269e-001	 1.858007019932829e+001
1	 1.300000000000000e+000	 0.000000000000000e+000	 2.490737497057599e+001
1	 1.299941992792850e+000	 1.228030992100324e-002	 2.423631208425201e+001
1	 1.299767075960168e+000	 2.460727201672739e-002	 2.357240224460033e+001
1	 1.299473918778485e+000	 3.697945983365172e-002	 2.291502491586102e+001
1	 1.299061207466941e+000	 4.939541020550416e-002	 2.226358454189948e+001
1	 1.298527646218511e+000	 6.185362331972914e-002	 2.161751218030268e+001
1	 1.297871958240795e+000	 7.435256281496032e-002	 2.097626714127357e+001
1	 1.297092886805471e+000	 8.689065591022803e-002	 2.033933862839044e+001
1	 1.296189196305420e+000	 9.946629356660502e-002	 1.970624737818363e+001
1	 1.295159673318565e+000	 1.120778306819678e-001	 1.907654729537746e+001
1	 1.294003127677352e+000	 1.247235863195187e-001	 1.844982708053826e+001
1	 1.306665999995867e+000	 0.000000000000000e+000	 2.488741552446736e+001
1	 1.306607695345621e+000	 1.234327957122657e-002	 2.420451239499780e+001
1	 1.306431881593283e+000	 2.473345053539462e-002	 2.352890688180541e+001
1	 1.306137221191842e+000	 3.716907912453604e-002	 2.286000605115034e+001
1	 1.305722393623771e+000	 4.964869466967915e-002	 2.219724241127430e+001
1	 1.305186096437542e+000	 6.217078966765730e-002	 2.154007552703214e+001
1	 1.304527046293756e+000	 7.473381987908150e-002	 2.088799363810160e+001
1	 1.303743980019968e+000	 8.733620445821037e-002	 2.024051527783205e+001
1	 1.302835655673249e+000	 9.997632611542476e-002	 1.959719088968251e+001
1	 1.301800853609464e+000	 1.126525313129877e-001	 1.895760443809459e+001
1	 1.300638377558238e+000	 1.253631304947386e-001	 1.832137501054412e+001
1	 1.313331999991934e+000	 0.000000000000000e+000	 2.486517722665136e+001
1	 1.313273397898593e+000	 1.240624922159980e-002	 2.417089400366447e+001
1	 1.313096687226598e+000	 2.485962905431060e-002	 2.348403626656483e+001
1	 1.312800523605397e+000	 3.735869841572368e-002	 2.280403965052734e+001
1	 1.312383579780795e+000	 4.990197913417459e-002	 2.213036575984619e+001
1	 1.311844546656761e+000	 6.248795601589267e-002	 2.146250376351379e+001
1	 1.311182134346894e+000	 7.511507694347333e-002	 2.079997199307465e+001
1	 1.310395073234634e+000	 8.778175300641061e-002	 2.014231953980582e+001
1	 1.309482115041231e+000	 1.004863586644009e-001	 1.948912784816791e+001
1	 1.308442033900491e+000	 1.132272319441013e-001	 1.884001230236756e+001
1	 1.307273627439228e+000	 1.260026746699954e-001	 1.819462380277504e+001
1	 1.319997999988401e+000	 0.000000000000000e+000	 2.484041343551791e+001
1	 1.319939100451964e+000	 1.246921887214562e-002	 2.413522342450015e+001
1	 1.319761492860313e+000	 2.498580757350825e-002	 2.343757068117821e+001
1	 1.319463826019349e+000	 3.754831770724729e-002	 2.274692037055897e+001
1	 1.319044765938211e+000	 5.015526359901441e-002	 2.206276421815583e+001
1	 1.318502996876366e+000	 6.280512236444387e-002	 2.138462208692102e+001
1	 1.317837222400410e+000	 7.549633400812474e-002	 2.071204355506646e+001
1	 1.317046166449661e+000	 8.822730155479584e-002	 2.004460949181277e+001
1	 1.316128574409554e+000	 1.009963912134785e-001	 1.938193362800002e+001
1	 1.315083214191836e+000	 1.138019325752334e-001	 1.872366411839459e+001
1	 1.313908877320505e+000	 1.266422188451984e-001	 1.806948509243062e+001
1	 1.326663999985467e+000	 0.000000000000000e+000	 2.481288246659280e+001
1	 1.326604803005934e+000	 1.253218852288676e-002	 2.409727186447480e+001
1	 1.326426298494626e+000	 2.511198609302054e-002	 2.338929482394871e+001
1	 1.326127128433897e+000	 3.773793699913954e-002	 2.268844699491338e+001
1	 1.325705952096220e+000	 5.040854806422242e-002	 2.199425124288976e+001
1	 1.325161447096555e+000	 6.312228871331949e-002	 2.130625920770620e+001
1	 1.324492310454498e+000	 7.587759107302469e-002	 2.062405286160406e+001
1	 1.323697259665244e+000	 8.867285010333309e-002	 1.994724606378615e+001
1	 1.322775033778411e+000	 1.015064237626025e-001	 1.927548610833000e+001
1	 1.321724394483688e+000	 1.143766332063090e-001	 1.860845526228893e+001
1	 1.320544127202253e+000	 1.272817630202566e-001	 1.794587229071206e+001
1	 1.333329999983334e+000	 0.000000000000000e+000	 2.478234746862156e+001
1	 1.333270505560705e+000	 1.259515817384592e-002	 2.405681510597348e+001
1	 1.333091104129737e+000	 2.523816461288039e-002	 2.333899769879372e+001
1	 1.332790430849242e+000	 3.792755629143307e-002	 2.262842233119266e+001
1	 1.332367138255019e+000	 5.066183252982254e-002	 2.192464402123614e+001
1	 1.331819897317526e+000	 6.343945506252818e-002	 2.122724726177750e+001
1	 1.331147398509354e+000	 7.625884813816217e-002	 2.053584755915924e+001
1	 1.330348352881577e+000	 8.911839865198935e-002	 1.985009296678772e+001
1	 1.329421493147995e+000	 1.020164563117177e-001	 1.916966561048611e+001
1	 1.328365574776235e+000	 1.149513338372529e-001	 1.849428320243587e+001
1	 1.327179377084656e+000	 1.279213071950790e-001	 1.782370054042654e+001
1	 1.260826878268034e+000	 1.215258654471585e-001	 1.912082334026107e+001
1	 1.259575279959579e+000	 1.338772212466185e-001	 1.855125340144392e+001
1	 1.258197706702826e+000	 1.462585565118158e-001	 1.799072684908018e+001
1	 1.256693073768999e+000	 1.586681581779989e-001	 1.743895554164635e+001
1	 1.255060323214301e+000	 1.711042802883929e-001	 1.689568277138638e+001
1	 1.253298424920236e+000	 1.835651443891883e-001	 1.636068455007497e+001
1	 1.251406377632250e+000	 1.960489399594794e-001	 1.583377087160303e+001
1	 1.249383209995418e+000	 2.085538248764833e-001	 1.531478694814710e+001
1	 1.247227981585924e+000	 2.210779259163266e-001	 1.480361441664169e+001
1	 1.244939783937008e+000	 2.336193392906365e-001	 1.430017251223878e+001
1	 1.242517741558077e+000	 2.461761312191269e-001	 1.380441920541290e+001
1	 1.267462128151162e+000	 1.221654096208289e-001	 1.898247604213009e+001
1	 1.266203943159526e+000	 1.345817658845979e-001	 1.840232969271554e+001
1	 1.264819120261608e+000	 1.470282593845123e-001	 1.783158858291857e+001
1	 1.263306569020112e+000	 1.595031680406209e-001	 1.726998549489193e+001
1	 1.261665225923675e+000	 1.720047367078512e-001	 1.671728383630130e+001
1	 1.259894055432673e+000	 1.845311775730764e-001	 1.617327888123401e+001
1	 1.257992051023324e+000	 1.970806705873169e-001	 1.563779898809705e+001
1	 1.255958236228826e+000	 2.096513639334076e-001	 1.511070679135409e+001
1	 1.253791665676258e+000	 2.222413745294195e-001	 1.459190036391025e+001
1	 1.251491426117940e+000	 2.348487885680753e-001	 1.408131434692168e+001
1	 1.249056637455896e+000	 2.474716620923479e-001	 1.357892104378145e+001
1	 1.274097378033473e+000	 1.228049537949910e-001	 1.884629972305315e+001
1	 1.272832606358652e+000	 1.352863105230743e-001	 1.825581552838973e+001
1	 1.271440533819566e+000	 1.477979622576952e-001	 1.767508043611331e+001
1	 1.269920064270398e+000	 1.603381779037054e-001	 1.710384839045501e+001
1	 1.268270128632225e+000	 1.729051931277369e-001	 1.654190303969350e+001
1	 1.266489685944298e+000	 1.854972107573488e-001	 1.598905892939412e+001
1	 1.264577724413605e+000	 1.981124012154900e-001	 1.544516267293074e+001
1	 1.262533262461468e+000	 2.107489029906158e-001	 1.491009409623678e+001
1	 1.260355349765869e+000	 2.234048231427441e-001	 1.438376735369350e+001
1	 1.258043068298207e+000	 2.360782378456961e-001	 1.386613201203340e+001
1	 1.255595533353124e+000	 2.487671929657066e-001	 1.335717409911401e+001
1	 1.280732627915153e+000	 1.234444979695540e-001	 1.871219642244660e+001
1	 1.279461269557136e+000	 1.359908551619469e-001	 1.811163289349196e+001
1	 1.278061947376870e+000	 1.485676651312594e-001	 1.752114282768480e+001
1	 1.276533559520022e+000	 1.611731877671476e-001	 1.694050156984426e+001
1	 1.274875031340109e+000	 1.738056495479502e-001	 1.636951313534307e+001
1	 1.273085316455256e+000	 1.864632439419134e-001	 1.580801135288468e+001
1	 1.271163397803229e+000	 1.991441318439169e-001	 1.525586098498181e+001
1	 1.269108288693471e+000	 2.118464420480375e-001	 1.471295882318821e+001
1	 1.266919033854871e+000	 2.245682717562428e-001	 1.417923475510098e+001
1	 1.264594710477906e+000	 2.373076871234534e-001	 1.365465280012046e+001
1	 1.262134429249846e+000	 2.500627238391685e-001	 1.313921211093461e+001
1	 1.287367877796385e+000	 1.240840421444269e-001	 1.858007019932829e+001
1	 1.286089932755156e+000	 1.366953998011148e-001	 1.796970538144147e+001
1	 1.284683360933694e+000	 1.493373680050998e-001	 1.736971740500361e+001
1	 1.283147054769149e+000	 1.620081976308432e-001	 1.677990325403671e+001
1	 1.281479934047482e+000	 1.747061059683912e-001	 1.620008743875193e+001
1	 1.279680946965695e+000	 1.874292771266784e-001	 1.563012308509436e+001
1	 1.277749071192331e+000	 2.001758624725156e-001	 1.506989300253163e+001
1	 1.275683314924959e+000	 2.129439811056030e-001	 1.451931072725431e+001
1	 1.273482717943375e+000	 2.257317203698579e-001	 1.397832153792082e+001
1	 1.271146352657140e+000	 2.385371364013019e-001	 1.344690344105429e+001
1	 1.268673325146146e+000	 2.513582547126994e-001	 1.292506812317826e+001
1	 1.294003127677352e+000	 1.247235863195187e-001	 1.844982708053826e+001
1	 1.292718595952890e+000	 1.373999444404773e-001	 1.782995815281446e+001
1	 1.291304774490208e+000	 1.501070708791112e-001	 1.722074701229728e+001
1	 1.289760550017942e+000	 1.628432074946875e-001	 1.662201252092938e+001
1	 1.288084836754500e+000	 1.756065623889601e-001	 1.603359981274211e+001
1	 1.286276577475762e+000	 1.883953103115517e-001	 1.545538132741874e+001
1	 1.284334744581047e+000	 2.012075931012045e-001	 1.488725782276784e+001
1	 1.282258341156058e+000	 2.140415201632420e-001	 1.432915936339875e+001
1	 1.280046402031495e+000	 2.268951689835316e-001	 1.378104628285731e+001
1	 1.277697994836005e+000	 2.397665856791959e-001	 1.324291011645750e+001
1	 1.275212221042108e+000	 2.526537855862646e-001	 1.271477450202466e+001
1	 1.300638377558238e+000	 1.253631304947386e-001	 1.832137501054413e+001
1	 1.299347259150517e+000	 1.381044890799334e-001	 1.769231789536971e+001
1	 1.297926188046585e+000	 1.508767737531886e-001	 1.707417566012128e+001
1	 1.296374045266569e+000	 1.636782173585764e-001	 1.646678928348122e+001
1	 1.294689739461321e+000	 1.765070188095572e-001	 1.587002465349477e+001
1	 1.292872207985603e+000	 1.893613434964411e-001	 1.528377354242423e+001
1	 1.290920417969516e+000	 2.022393237299017e-001	 1.470795456130194e+001
1	 1.288833367386893e+000	 2.151390592208845e-001	 1.414251409160649e+001
1	 1.286610086119343e+000	 2.280586175972063e-001	 1.358742719145581e+001
1	 1.284249637014603e+000	 2.409960349570901e-001	 1.304269847368819e+001
1	 1.281751116937819e+000	 2.539493164598298e-001	 1.250836295318606e+001
1	 1.307273627439228e+000	 1.260026746699954e-001	 1.819462380277504e+001
1	 1.305975922348214e+000	 1.388090337193822e-001	 1.755671278529117e+001
1	 1.304547601602998e+000	 1.516464766272270e-001	 1.692994849575981e+001
1	 1.302987540515192e+000	 1.645132272224049e-001	 1.631419426852073e+001
1	 1.301294642168099e+000	 1.774074752300823e-001	 1.570933687701442e+001
1	 1.299467838495365e+000	 1.903273766812550e-001	 1.511528744721987e+001
1	 1.297506091357872e+000	 2.032710543585255e-001	 1.453198235170161e+001
1	 1.295408393617587e+000	 2.162365982784606e-001	 1.395938408183190e+001
1	 1.293173770207031e+000	 2.292220662108245e-001	 1.339748209572474e+001
1	 1.290801279193031e+000	 2.422254842349390e-001	 1.284629363939868e+001
1	 1.288290012833362e+000	 2.552448473333605e-001	 1.230586453866870e+001
1	 1.313908877320505e+000	 1.266422188451984e-001	 1.806948509243062e+001
1	 1.312604585546162e+000	 1.395135783587231e-001	 1.742307244960544e+001
1	 1.311169015159617e+000	 1.524161795011211e-001	 1.678801177452317e+001
1	 1.309601035763976e+000	 1.653482370860691e-001	 1.616418899619570e+001
1	 1.307899544874992e+000	 1.783079316504358e-001	 1.555151190600348e+001
1	 1.306063469005196e+000	 1.912934098659010e-001	 1.494991100703006e+001
1	 1.304091764746253e+000	 2.043027849869941e-001	 1.435934034503736e+001
1	 1.301983419848268e+000	 2.173341373359000e-001	 1.377977831879688e+001
1	 1.299737454294674e+000	 2.303855148243285e-001	 1.321122846746651e+001
1	 1.297352921371389e+000	 2.434549335126970e-001	 1.265372023268306e+001
1	 1.294828908728823e+000	 2.565403782068224e-001	 1.210730969302641e+001
1	 1.320544127202253e+000	 1.272817630202566e-001	 1.794587229071206e+001
1	 1.319233248744538e+000	 1.402181229978549e-001	 1.729132792973189e+001
1	 1.317790428716616e+000	 1.531858823747659e-001	 1.664831283191081e+001
1	 1.316214531013087e+000	 1.661832469494639e-001	 1.601673576004255e+001
1	 1.314504447582156e+000	 1.792083880705177e-001	 1.539652565713226e+001
1	 1.312659099515241e+000	 1.922594430502873e-001	 1.478763242896114e+001
1	 1.310677438134795e+000	 2.053345156152258e-001	 1.419002770944269e+001
1	 1.308558446079059e+000	 2.184316763931329e-001	 1.360370560664458e+001
1	 1.306301138382382e+000	 2.315489634376604e-001	 1.302868342732693e+001
1	 1.303904563549776e+000	 2.446843827903187e-001	 1.246500237782894e+001
1	 1.301367804624286e+000	 2.578359090801811e-001	 1.191272823912388e+001
1	 1.327179377084656e+000	 1.279213071950790e-001	 1.782370054042653e+001
1	 1.325861911943521e+000	 1.409226676366771e-001	 1.716141164612623e+001
1	 1.324411842274167e+000	 1.539555852480564e-001	 1.651080005660907e+001
1	 1.322828026262688e+000	 1.670182568124853e-001	 1.587179760765334e+001
1	 1.321109350289747e+000	 1.801088444902282e-001	 1.524435452869096e+001
1	 1.319254730025648e+000	 1.932254762343219e-001	 1.462844015595481e+001
1	 1.317263111523635e+000	 2.063662462431386e-001	 1.402404362968749e+001
1	 1.315133472310086e+000	 2.195292154500891e-001	 1.343117457345328e+001
1	 1.312864822470269e+000	 2.327124120507629e-001	 1.284986375357316e+001
1	 1.310456205728293e+000	 2.459138320677585e-001	 1.228016371668594e+001
1	 1.307906700519837e+000	 2.591314399534021e-001	 1.172214940342776e+001
1	 1.242517741558077e+000	 2.461761312191269e-001	 1.380441920541290e+001
1	 1.239960619432395e+000	 2.587482246786292e-001	 1.331649455965813e+001
1	 1.237267964867259e+000	 2.713317418129376e-001	 1.283669628516706e+001
1	 1.234439008086931e+000	 2.839246587499007e-001	 1.236504911624201e+001
1	 1.231473016314503e+000	 2.965249241990277e-001	 1.190160768632040e+001
1	 1.228369294737240e+000	 3.091304602063712e-001	 1.144645726764552e+001
1	 1.225127187456663e+000	 3.217391629455186e-001	 1.099971447304997e+001
1	 1.221746078421927e+000	 3.343489035444824e-001	 1.056152791735918e+001
1	 1.218225392345035e+000	 3.469575289482249e-001	 1.013207883595100e+001
1	 1.214564595596419e+000	 3.595628628164873e-001	 9.711581658041915e+000
1	 1.210763197079440e+000	 3.721627064565229e-001	 9.300284532314988e+000
1	 1.249056637455896e+000	 2.474716620923479e-001	 1.357892104378145e+001
1	 1.246486058173964e+000	 2.601099176737307e-001	 1.308479953493858e+001
1	 1.243779233197095e+000	 2.727596570483445e-001	 1.259919150179488e+001
1	 1.240935388698524e+000	 2.854188456931735e-001	 1.212213946225195e+001
1	 1.237953788045028e+000	 2.980854215225694e-001	 1.165371543724537e+001
1	 1.234833732767343e+000	 3.107572956471091e-001	 1.119402165762051e+001
1	 1.231574563515257e+000	 3.234323531687461e-001	 1.074319123299154e+001
1	 1.228175660995893e+000	 3.361084540120542e-001	 1.030138878015056e+001
1	 1.224636446893741e+000	 3.487834337912915e-001	 9.868811008622995e+000
1	 1.220956384770955e+000	 3.614551047129524e-001	 9.445687261002812e+000
1	 1.217134980946447e+000	 3.741212565134122e-001	 9.032280005746559e+000
1	 1.255595533353124e+000	 2.487671929657066e-001	 1.335717409911401e+001
1	 1.253011496915032e+000	 2.614716106689328e-001	 1.285691628973415e+001
1	 1.250290501526536e+000	 2.741875722838214e-001	 1.236555031649818e+001
1	 1.247431769309838e+000	 2.869130326364903e-001	 1.188313799359890e+001
1	 1.244434559775391e+000	 2.996459188461332e-001	 1.140977015184667e+001
1	 1.241298170797401e+000	 3.123841310878485e-001	 1.094556730825584e+001
1	 1.238021939573915e+000	 3.251255433919548e-001	 1.049068029754300e+001
1	 1.234605243570019e+000	 3.378680044795857e-001	 1.004529086317301e+001
1	 1.231047501442685e+000	 3.506093386342928e-001	 9.609612205620545e+000
1	 1.227348173945781e+000	 3.633473466093230e-001	 9.183889485553401e+000
1	 1.223506764813771e+000	 3.760798065701715e-001	 8.768400279691965e+000
1	 1.262134429249846e+000	 2.500627238391685e-001	 1.313921211093461e+001
1	 1.259536935655672e+000	 2.628333036642103e-001	 1.263288364342964e+001
1	 1.256801769855638e+000	 2.756154875193508e-001	 1.213581534551488e+001
1	 1.253928149920911e+000	 2.884072195798404e-001	 1.164808981551221e+001
1	 1.250915331505615e+000	 3.012064161697133e-001	 1.116981809248376e+001
1	 1.247762608827421e+000	 3.140109665285888e-001	 1.070114028407255e+001
1	 1.244469315632632e+000	 3.268187336151491e-001	 1.024222615624021e+001
1	 1.241034826144292e+000	 3.396275549470866e-001	 9.793275682618027e+000
1	 1.237458555991849e+000	 3.524352434772453e-001	 9.354519551220754e+000
1	 1.233739963120879e+000	 3.652395885056229e-001	 8.926219626312772e+000
1	 1.229878548681392e+000	 3.780383566268333e-001	 8.508669363267053e+000
1	 1.268673325146146e+000	 2.513582547126994e-001	 1.292506812317826e+001
1	 1.266062374395950e+000	 2.641949966595379e-001	 1.241273961509176e+001
1	 1.263313038184454e+000	 2.770434027549149e-001	 1.191002832648702e+001
1	 1.260424530531780e+000	 2.899014065232126e-001	 1.141703910331086e+001
1	 1.257396103235723e+000	 3.027669134933045e-001	 1.093390456774979e+001
1	 1.254227046857416e+000	 3.156378019693298e-001	 1.046078569990411e+001
1	 1.250916691691409e+000	 3.285119238383342e-001	 9.997872381402148e+000
1	 1.247464408718702e+000	 3.413871054145676e-001	 9.545383898760143e+000
1	 1.243869610541214e+000	 3.542611483201652e-001	 9.103569404329567e+000
1	 1.240131752296229e+000	 3.671318304018756e-001	 8.672708332715949e+000
1	 1.236250332549294e+000	 3.799969066834299e-001	 8.253110770605034e+000
1	 1.275212221042108e+000	 2.526537855862646e-001	 1.271477450202466e+001
1	 1.272587813135937e+000	 2.655566896548908e-001	 1.219652144398802e+001
1	 1.269824306513037e+000	 2.784713179904967e-001	 1.168823014098644e+001
1	 1.266920911142484e+000	 2.913955934665959e-001	 1.119002912624512e+001
1	 1.263876874965741e+000	 3.043274108169011e-001	 1.070207395692474e+001
1	 1.260691484887394e+000	 3.172646374100713e-001	 1.022454774524493e+001
1	 1.257364067750244e+000	 3.302051140615146e-001	 9.757661651646847e+000
1	 1.253893991293237e+000	 3.431466558820383e-001	 9.301655337901156e+000
1	 1.250280665090766e+000	 3.560870531630688e-001	 8.856797378104661e+000
1	 1.246523541471813e+000	 3.690240722981045e-001	 8.423385625555296e+000
1	 1.242622116417461e+000	 3.819554567399942e-001	 8.001747533547052e+000
1	 1.281751116937819e+000	 2.539493164598298e-001	 1.250836295318606e+001
1	 1.279113251875702e+000	 2.669183826502437e-001	 1.198426560947760e+001
1	 1.276335574841441e+000	 2.798992332260784e-001	 1.147046083635117e+001
1	 1.273417291753062e+000	 2.928897804099790e-001	 1.096710227060799e+001
1	 1.270357646695690e+000	 3.058879081404976e-001	 1.047436973367996e+001
1	 1.267155922917366e+000	 3.188914728508127e-001	 9.992469707853498e+000
1	 1.263811443809134e+000	 3.318983042846949e-001	 9.521635774687612e+000
1	 1.260323573867888e+000	 3.449062063495089e-001	 9.062129013642883e+000
1	 1.256691719640487e+000	 3.579129580059724e-001	 8.614238358977675e+000
1	 1.252915330647610e+000	 3.709163141943335e-001	 8.178280913015778e+000
1	 1.248993900285875e+000	 3.839140067965583e-001	 7.754602213944325e+000
1	 1.288290012833362e+000	 2.552448473333605e-001	 1.230586453866870e+001
1	 1.285638690615317e+000	 2.682800756455714e-001	 1.177600785029620e+001
1	 1.282846843169720e+000	 2.813271484616426e-001	 1.125675964685671e+001
1	 1.279913672363551e+000	 2.943839673533512e-001	 1.074830006214314e+001
1	 1.276838418425593e+000	 3.074484054640888e-001	 1.025083448906080e+001
1	 1.273620360947340e+000	 3.205183082915538e-001	 9.764593996636835e+000
1	 1.270258819868077e+000	 3.335914945078801e-001	 9.289835709434890e+000
1	 1.266753156442643e+000	 3.466657568169896e-001	 8.826843147511973e+000
1	 1.263102774190359e+000	 3.597388628488922e-001	 8.375926525097228e+000
1	 1.259307119823602e+000	 3.728085560905861e-001	 7.937423006221776e+000
1	 1.255365684154520e+000	 3.858725568531549e-001	 7.511696915585664e+000
1	 1.294828908728823e+000	 2.565403782068224e-001	 1.210730969302641e+001
1	 1.292164129354848e+000	 2.696417686408488e-001	 1.157178318325690e+001
1	 1.289358111497927e+000	 2.827550636971719e-001	 1.104716501424585e+001
1	 1.286410052973988e+000	 2.958781542967013e-001	 1.053366318777371e+001
1	 1.283319190155475e+000	 3.090089027876691e-001	 1.003150995377292e+001
1	 1.280084798977327e+000	 3.221451437322941e-001	 9.540962163841503e+000
1	 1.276706195927072e+000	 3.352846847310744e-001	 9.062301587428676e+000
1	 1.273182739017491e+000	 3.484253072844907e-001	 8.595835188959796e+000
1	 1.269513828740366e+000	 3.615647676918448e-001	 8.141895364213053e+000
1	 1.265698908999770e+000	 3.747007979868861e-001	 7.700840134312823e+000
1	 1.261737468023377e+000	 3.878311069098167e-001	 7.273053295763391e+000
1	 1.301367804624286e+000	 2.578359090801811e-001	 1.191272823912389e+001
1	 1.298689568094366e+000	 2.710034616360509e-001	 1.137162592138714e+001
1	 1.295869379826117e+000	 2.841829789326488e-001	 1.084171460763944e+001
1	 1.292906433584414e+000	 2.973723412400182e-001	 1.032323151667608e+001
1	 1.289799961885357e+000	 3.105694001112327e-001	 9.816437019796728e+000
1	 1.286549237007336e+000	 3.237719791730334e-001	 9.321614926575466e+000
1	 1.283153571986116e+000	 3.369778749542830e-001	 8.839072733624542e+000
1	 1.279612321592421e+000	 3.501848577520221e-001	 8.369141834759406e+000
1	 1.275924883290491e+000	 3.633906725348460e-001	 7.912177691020924e+000
1	 1.272090698176094e+000	 3.765930398832567e-001	 7.468559959064892e+000
1	 1.268109251892432e+000	 3.897896569665759e-001	 7.038692576490781e+000
1	 1.307906700519837e+000	 2.591314399534021e-001	 1.172214940342776e+001
1	 1.305215006833941e+000	 2.723651546311524e-001	 1.117556969152134e+001
1	 1.302380648154344e+000	 2.856108941680557e-001	 1.064044534285012e+001
1	 1.299402814194865e+000	 2.988665281832908e-001	 1.011704412072154e+001
1	 1.296280733615264e+000	 3.121298974347746e-001	 9.605655761353440e+000
1	 1.293013675037378e+000	 3.253988146137714e-001	 9.106592187684649e+000
1	 1.289600948045209e+000	 3.386710651775105e-001	 8.620187686556239e+000
1	 1.286041904167421e+000	 3.519444082195941e-001	 8.146799047820572e+000
1	 1.282335937840718e+000	 3.652165773779125e-001	 7.686805663987360e+000
1	 1.278482487352557e+000	 3.784852817797219e-001	 7.240609589073096e+000
1	 1.274481035761665e+000	 3.917482070234652e-001	 6.808635555382970e+000
1	 1.210763197079440e+000	 3.721627064565229e-001	 9.300284532314988e+000
1	 1.206820748779484e+000	 3.847548396058735e-001	 8.894557620727573e+000
1	 1.202736845682000e+000	 3.973370208620146e-001	 8.490760989918474e+000
1	 1.198511127482119e+000	 4.099069892381354e-001	 8.089184914389307e+000
1	 1.194143279664885e+000	 4.224624654102122e-001	 7.690162363207747e+000
1	 1.189633034254827e+000	 4.350011528162668e-001	 7.294069500655383e+000
1	 1.184980170535832e+000	 4.475207387868736e-001	 6.901326120955181e+000
1	 1.180184515739950e+000	 4.600188957060534e-001	 6.512396014659110e+000
1	 1.175245945703767e+000	 4.724932822016346e-001	 6.127787264386583e+000
1	 1.170164385490992e+000	 4.849415443640924e-001	 5.748052467723803e+000
1	 1.164939809979976e+000	 4.973613169928101e-001	 5.373788885225618e+000
1	 1.217134980946447e+000	 3.741212565134122e-001	 9.032280005746559e+000
1	 1.213171785047885e+000	 3.867796572458214e-001	 8.624992878153588e+000
1	 1.209066389929284e+000	 3.994280537120125e-001	 8.220201780602418e+000
1	 1.204818433389631e+000	 4.120641730264683e-001	 7.818183265315371e+000
1	 1.200427599258805e+000	 4.246857238699562e-001	 7.419255084495266e+000
1	 1.195893618151086e+000	 4.372903975945734e-001	 7.023776692827649e+000
1	 1.191216268188817e+000	 4.498758693602014e-001	 6.632149686540475e+000
1	 1.186395375694846e+000	 4.624397993015102e-001	 6.244818176642955e+000
1	 1.181430815852335e+000	 4.749798337245844e-001	 5.862269094068948e+000
1	 1.176322513330638e+000	 4.874936063321756e-001	 5.485032424566232e+000
1	 1.171070442875903e+000	 4.999787394765238e-001	 5.113681371296728e+000
1	 1.223506764813771e+000	 3.760798065701715e-001	 8.768400279691965e+000
1	 1.219522821316593e+000	 3.888044748855961e-001	 8.359579505467337e+000
1	 1.215395934176838e+000	 4.015190865617895e-001	 7.953816060528235e+000
1	 1.211125739297355e+000	 4.142213568145306e-001	 7.551372587971371e+000
1	 1.206711918852863e+000	 4.269089823293816e-001	 7.152551555780364e+000
1	 1.202154202047399e+000	 4.395796423725173e-001	 6.757695763562367e+000
1	 1.197452365841776e+000	 4.522309999331303e-001	 6.367188788156732e+000
1	 1.192606235649638e+000	 4.648607028965430e-001	 5.981455365769074e+000
1	 1.187615686000735e+000	 4.774663852470990e-001	 5.600961708384761e+000
1	 1.182480641170070e+000	 4.900456682998303e-001	 5.226215752325068e+000
1	 1.177201075771599e+000	 5.025961619598356e-001	 4.857767336929043e+000
1	 1.229878548681392e+000	 3.780383566268333e-001	 8.508669363267053e+000
1	 1.225873857585599e+000	 3.908292925252413e-001	 8.098334261361133e+000
1	 1.221725478424662e+000	 4.036101194114011e-001	 7.691614878955766e+000
1	 1.217433045205305e+000	 4.163785406023902e-001	 7.288759767382843e+000
1	 1.212996238447089e+000	 4.291322407885680e-001	 6.890056045913908e+000
1	 1.208414785943816e+000	 4.418688871501895e-001	 6.495829915089550e+000
1	 1.203688463494770e+000	 4.545861305057600e-001	 6.106447111072287e+000
1	 1.198817095604402e+000	 4.672816064912578e-001	 5.722313298701352e+000
1	 1.193800556149054e+000	 4.799529367692876e-001	 5.343874401022870e+000
1	 1.188638769009385e+000	 4.925977302671635e-001	 4.971616863174518e+000
1	 1.183331708667162e+000	 5.052135844428459e-001	 4.606067848617350e+000
1	 1.236250332549294e+000	 3.799969066834299e-001	 8.253110770605034e+000
1	 1.232224893854889e+000	 3.928541101647999e-001	 7.841273559022914e+000
1	 1.228055022672758e+000	 4.057011522609021e-001	 7.433609057348905e+000
1	 1.223740351113495e+000	 4.185357243901146e-001	 7.030351546631117e+000
1	 1.219280558041513e+000	 4.313554992475949e-001	 6.631772735738811e+000
1	 1.214675369840381e+000	 4.441581319276804e-001	 6.238182283620918e+000
1	 1.209924561147862e+000	 4.569412610781907e-001	 5.849928264578486e+000
1	 1.205027955559215e+000	 4.697025100857605e-001	 5.467397574246122e+000
1	 1.199985426297380e+000	 4.824394882912582e-001	 5.091016274068758e+000
1	 1.194796896848678e+000	 4.951497922342820e-001	 4.721249872160046e+000
1	 1.189462341562692e+000	 5.078310069256553e-001	 4.358603538538546e+000
1	 1.242622116417461e+000	 3.819554567399942e-001	 8.001747533547052e+000
1	 1.238575930124457e+000	 3.948789278043152e-001	 7.588413474994459e+000
1	 1.234384566921126e+000	 4.077921851103480e-001	 7.179809195215841e+000
1	 1.230047657021941e+000	 4.206929081777715e-001	 6.776154530492446e+000
1	 1.225564877636165e+000	 4.335787577065424e-001	 6.377705720346265e+000
1	 1.220935953737142e+000	 4.464473767050806e-001	 5.984755941042627e+000
1	 1.216160658801114e+000	 4.592963916505214e-001	 5.597635783937603e+000
1	 1.211238815514154e+000	 4.721234136801573e-001	 5.216713676373969e+000
1	 1.206170296445803e+000	 4.849260398131203e-001	 4.842396242916802e+000
1	 1.200955024688047e+000	 4.977018542012932e-001	 4.475128604816068e+000
1	 1.195592974458290e+000	 5.104484294083644e-001	 4.115394615686973e+000
1	 1.248993900285875e+000	 3.839140067965583e-001	 7.754602213944325e+000
1	 1.244926966394291e+000	 3.969037454438305e-001	 7.339769757758356e+000
1	 1.240714111169767e+000	 4.098832179597941e-001	 6.930225675770637e+000
1	 1.236354962930655e+000	 4.228500919654281e-001	 6.526175188965959e+000
1	 1.231849197231075e+000	 4.358020161654896e-001	 6.127859011263119e+000
1	 1.227196537634143e+000	 4.487366214824807e-001	 5.735553896555859e+000
1	 1.222396756454587e+000	 4.616515222228523e-001	 5.349573132271094e+000
1	 1.217449675469295e+000	 4.745443172745541e-001	 4.970266977148751e+000
1	 1.212355166594411e+000	 4.874125913349823e-001	 4.598023041032616e+000
1	 1.207113152527589e+000	 5.002539161683046e-001	 4.233266604551019e+000
1	 1.201723607354055e+000	 5.130658518910735e-001	 3.876460876669031e+000
1	 1.255365684154520e+000	 3.858725568531549e-001	 7.511696915585664e+000
1	 1.251278002664382e+000	 3.989285630833892e-001	 7.095357836063545e+000
1	 1.247043655418682e+000	 4.119742508092951e-001	 6.684868671422310e+000
1	 1.242662268839654e+000	 4.250072757531525e-001	 6.280419860693862e+000
1	 1.238133516826273e+000	 4.380252746245166e-001	 5.882236538572450e+000
1	 1.233457121531434e+000	 4.510258662599718e-001	 5.490579098267753e+000
1	 1.228632854108345e+000	 4.640066527952828e-001	 5.105743702390351e+000
1	 1.223660535424715e+000	 4.769652208690567e-001	 4.728062739567845e+000
1	 1.218540036743293e+000	 4.898991428569531e-001	 4.357905224569742e+000
1	 1.213271280367399e+000	 5.028059781354234e-001	 3.995677139806950e+000
1	 1.207854240250086e+000	 5.156832743738828e-001	 3.641821716168628e+000
1	 1.261737468023377e+000	 3.878311069098167e-001	 7.273053295763391e+000
1	 1.257629038934719e+000	 4.009533807230342e-001	 6.855192826998549e+000
1	 1.253373199667872e+000	 4.140652836589066e-001	 6.443748149097648e+000
1	 1.248969574748952e+000	 4.271644595410121e-001	 6.038894756278315e+000
1	 1.244417836421790e+000	 4.402485330837030e-001	 5.640842152970134e+000
1	 1.239717705429057e+000	 4.533151110376436e-001	 5.249834434733864e+000
1	 1.234868951762449e+000	 4.663617833679126e-001	 4.866150818572083e+000
1	 1.229871395380491e+000	 4.793861244637716e-001	 4.490106120315789e+000
1	 1.224724906892536e+000	 4.923856943791414e-001	 4.122051176847029e+000
1	 1.219429408207575e+000	 5.053580401027564e-001	 3.762373211002663e+000
1	 1.213984873146484e+000	 5.183006968568933e-001	 3.411496137095985e+000
1	 1.268109251892432e+000	 3.897896569665759e-001	 7.038692576490781e+000
1	 1.263980075205293e+000	 4.029781983628091e-001	 6.619289543821341e+000
1	 1.259702743917337e+000	 4.161563165086835e-001	 6.206873875403525e+000
1	 1.255276880658563e+000	 4.293216433290745e-001	 5.801605961497965e+000
1	 1.250702156017655e+000	 4.424717915431283e-001	 5.403679627759059e+000
1	 1.245978289327063e+000	 4.556043558155878e-001	 5.013322736454382e+000
1	 1.241105049416963e+000	 4.687169139408416e-001	 4.630797738280046e+000
1	 1.236082255336699e+000	 4.818070280588044e-001	 4.256402172435209e+000
1	 1.230909777042229e+000	 4.948722459016561e-001	 3.890469112690643e+000
1	 1.225587536048212e+000	 5.079101020704109e-001	 3.533367557267158e+000
1	 1.220115506043348e+000	 5.209181193402052e-001	 3.185502760430160e+000
1	 1.274481035761665e+000	 3.917482070234652e-001	 6.808635555382970e+000
1	 1.270331111476093e+000	 4.050030160027568e-001	 6.387662503554335e+000
1	 1.266032288167079e+000	 4.182473493586814e-001	 5.974255421634366e+000
1	 1.261584186568501e+000	 4.314788271174073e-001	 5.568559440428381e+000
1	 1.256986475613899e+000	 4.446950500028725e-001	 5.170752660783943e+000
1	 1.252238873225494e+000	 4.578936005938943e-001	 4.781046777325281e+000
1	 1.247341147071948e+000	 4.710720445141692e-001	 4.399687653835123e+000
1	 1.242293115293416e+000	 4.842279316542610e-001	 4.026955847917885e+000
1	 1.237094647192461e+000	 4.973587974246059e-001	 3.663167082646095e+000
1	 1.231745663889408e+000	 5.104621640384943e-001	 3.308672662971421e+000
1	 1.226246138940778e+000	 5.235355418239187e-001	 2.963859834766415e+000
1	 1.164939809979976e+000	 4.973613169928101e-001	 5.373788885225617e+000
1	 1.159573060379774e+000	 5.097483691623166e-001	 4.993036286906399e+000
1	 1.154063440608705e+000	 5.221021836003701e-001	 4.593545224029219e+000
1	 1.148411078980047e+000	 5.344203706993145e-001	 4.175685396958953e+000
1	 1.142616155560737e+000	 5.467005348259916e-001	 3.739834013642197e+000
1	 1.136678902563766e+000	 5.589402756857403e-001	 3.286375778492114e+000
1	 1.130599604698522e+000	 5.711371897061304e-001	 2.815702877569508e+000
1	 1.124378599478121e+000	 5.832888714389555e-001	 2.328214959891705e+000
1	 1.118016277482770e+000	 5.953929149789649e-001	 1.824319114696678e+000
1	 1.111513082578307e+000	 6.074469153977584e-001	 1.304429844487341e+000
1	 1.104869512089097e+000	 6.194484701912240e-001	 7.689690336793402e-001
1	 1.171070442875903e+000	 4.999787394765238e-001	 5.113681371296729e+000
1	 1.165675450124151e+000	 5.124309799664151e-001	 4.735985802172832e+000
1	 1.160136835330482e+000	 5.248498078073975e-001	 4.339476297465559e+000
1	 1.154454727483430e+000	 5.372328208162187e-001	 3.924572966372301e+000
1	 1.148629307597547e+000	 5.495776107524130e-001	 3.491706111432194e+000
1	 1.142660809107865e+000	 5.618817646894811e-001	 3.041316163852880e+000
1	 1.136549518222081e+000	 5.741428664059041e-001	 2.573853609628790e+000
1	 1.130295774229504e+000	 5.863584977945160e-001	 2.089778906312379e+000
1	 1.123899969765807e+000	 5.985262402887011e-001	 1.589562390312812e+000
1	 1.117362551032718e+000	 6.106436763038349e-001	 1.073684174606355e+000
1	 1.110684017971820e+000	 6.227083906923381e-001	 5.426340367564504e-001
1	 1.177201075771599e+000	 5.025961619598356e-001	 4.857767336929042e+000
1	 1.171777839868310e+000	 5.151135907701613e-001	 4.483137051012632e+000
1	 1.166210230052084e+000	 5.275974320141417e-001	 4.089655564854647e+000
1	 1.160498375986703e+000	 5.400452709329231e-001	 3.677793238138092e+000
1	 1.154642459634335e+000	 5.524546866787284e-001	 3.248033157253915e+000
1	 1.148642715652043e+000	 5.648232536932150e-001	 2.800871015023600e+000
1	 1.142499431745828e+000	 5.771485431057705e-001	 2.336814975935744e+000
1	 1.136212948981187e+000	 5.894281241502639e-001	 1.856385526797289e+000
1	 1.129783662049258e+000	 6.016595655987103e-001	 1.360115312725712e+000
1	 1.123212019487647e+000	 6.138404372102553e-001	 8.485489584351610e-001
1	 1.116498523855155e+000	 6.259683111938493e-001	 3.222428747934104e-001
1	 1.183331708667162e+000	 5.052135844428459e-001	 4.606067848617352e+000
1	 1.177880229612348e+000	 5.177962015736433e-001	 4.234517605467431e+000
1	 1.172283624773600e+000	 5.303450562206736e-001	 3.844115277518464e+000
1	 1.166542024489947e+000	 5.428577210494781e-001	 3.435381318441387e+000
1	 1.160655611671164e+000	 5.553317626049648e-001	 3.008851291255793e+000
1	 1.154624622196344e+000	 5.677647426969438e-001	 2.565075690416861e+000
1	 1.148449345269787e+000	 5.801542198057058e-001	 2.104619744364665e+000
1	 1.142130123733177e+000	 5.924977505061526e-001	 1.628063198483429e+000
1	 1.135667354333106e+000	 6.047928909089242e-001	 1.136000078456940e+000
1	 1.129061487943063e+000	 6.170371981169346e-001	 6.290384340450793e-001
1	 1.122313029739053e+000	 6.292282316956586e-001	 1.078000633477433e-001
1	 1.189462341562692e+000	 5.078310069256553e-001	 4.358603538538546e+000
1	 1.183982619356362e+000	 5.204788123769490e-001	 3.990154469139400e+000
1	 1.178357019495120e+000	 5.330926804270639e-001	 3.602887021868836e+000
1	 1.172585672993239e+000	 5.456701711659333e-001	 3.197371589699947e+000
1	 1.166668763708096e+000	 5.582088385311481e-001	 2.774195908502497e+000
1	 1.160606528740812e+000	 5.707062317006687e-001	 2.333964819478190e+000
1	 1.154399258793986e+000	 5.831598965056877e-001	 1.877300007230368e+000
1	 1.148047298485480e+000	 5.955673768621349e-001	 1.404839713470387e+000
1	 1.141551046617341e+000	 6.079262162192751e-001	 9.172384264133030e-001
1	 1.134910956398930e+000	 6.202339590237861e-001	 4.151665459682439e-001
1	 1.128127535623464e+000	 6.324881521976661e-001	-1.006899751179037e-001
1	 1.195592974458290e+000	 5.104484294083644e-001	 4.115394615686973e+000
1	 1.190085009100449e+000	 5.231614231801667e-001	 3.750074091765210e+000
1	 1.184430414216734e+000	 5.358403046333834e-001	 3.366001736455116e+000
1	 1.178629321496656e+000	 5.484826212823389e-001	 2.963797729120624e+000
1	 1.172681915745194e+000	 5.610859144573051e-001	 2.544101678077609e+000
1	 1.166588435285495e+000	 5.736477207043924e-001	 2.107572321375657e+000
1	 1.160349172318449e+000	 5.861655732056925e-001	 1.654887198609027e+000
1	 1.153964473238100e+000	 5.986370032181640e-001	 1.186742293819766e+000
1	 1.147434738901945e+000	 6.110595415296941e-001	 7.038516496197065e-001
1	 1.140760424855218e+000	 6.234307199307239e-001	 2.069469527236942e-001
1	 1.133942041508339e+000	 6.357480726997732e-001	-3.032229088487053e-001
1	 1.201723607354055e+000	 5.130658518910735e-001	 3.876460876669031e+000
1	 1.196187398844709e+000	 5.258440339833845e-001	 3.514302383343796e+000
1	 1.190503808938531e+000	 5.385879288397029e-001	 3.133489728489609e+000
1	 1.184672970000277e+000	 5.512950713987442e-001	 2.734692726687985e+000
1	 1.178695067782521e+000	 5.639629903834621e-001	 2.318602561601836e+000
1	 1.172570341830435e+000	 5.765892097081160e-001	 1.885931423117361e+000
1	 1.166299085843203e+000	 5.891712499056977e-001	 1.437412111128189e+000
1	 1.159881647991045e+000	 6.017066295741933e-001	 9.737976060958530e-001
1	 1.153318431186906e+000	 6.141928668401130e-001	 4.958606065925202e-001
1	 1.146609893311894e+000	 6.266274808376617e-001	 4.393034113017580e-003
1	 1.139756547393629e+000	 6.390079932018798e-001	-4.997944944837818e-001
1	 1.207854240250086e+000	 5.156832743738828e-001	 3.641821716168627e+000
1	 1.202289788589236e+000	 5.285266447866904e-001	 3.282864727834068e+000
1	 1.196577203660602e+000	 5.413355530460930e-001	 2.905380689869833e+000
1	 1.190716618504179e+000	 5.541075215151995e-001	 2.510088902604457e+000
1	 1.184708219820140e+000	 5.668400663096455e-001	 2.097731831187538e+000
1	 1.178552248375679e+000	 5.795306987118412e-001	 1.669074677117686e+000
1	 1.172248999368273e+000	 5.921769266056794e-001	 1.224904912245933e+000
1	 1.165798822744318e+000	 6.047762559301756e-001	 7.660317754630216e-001
1	 1.159202123472210e+000	 6.173261921504637e-001	 2.932857323668533e-001
1	 1.152459361768924e+000	 6.298242417445134e-001	-1.924821017063465e-001
1	 1.145571053279286e+000	 6.422679137038877e-001	-6.904005748132135e-001
1	 1.213984873146484e+000	 5.183006968568933e-001	 3.411496137095985e+000
1	 1.208392178334129e+000	 5.312092555901723e-001	 3.055785996437578e+000
1	 1.202650598383037e+000	 5.440831772526249e-001	 2.681703712715356e+000
1	 1.196760267008440e+000	 5.569199716317547e-001	 2.290017924202817e+000
1	 1.190721371858112e+000	 5.697171422358817e-001	 1.881522086848508e+000
1	 1.184534154921272e+000	 5.824721877155700e-001	 1.457033978230609e+000
1	 1.178198912893685e+000	 5.951826033056150e-001	 1.017395160036141e+000
1	 1.171715997497927e+000	 6.078458822860643e-001	 5.634703993564805e-001
1	 1.165085815757842e+000	 6.204595174606781e-001	 9.614704918934347e-002
1	 1.158308830226277e+000	 6.330210026511924e-001	-3.836656113618393e-001
1	 1.151385559165260e+000	 6.455278342056968e-001	-8.750370766022388e-001
1	 1.220115506043348e+000	 5.209181193402052e-001	 3.185502760430161e+000
1	 1.214494568079485e+000	 5.338918663939185e-001	 2.833090560480549e+000
1	 1.208723993105924e+000	 5.468308014593692e-001	 2.462487304436110e+000
1	 1.202803915513139e+000	 5.597324217484591e-001	 2.074510822348258e+000
1	 1.196734523896502e+000	 5.725942181621972e-001	 1.670005273385759e+000
1	 1.190516061467258e+000	 5.854136767193038e-001	 1.249840580269983e+000
1	 1.184148826419464e+000	 5.981882800054812e-001	 8.149118184987626e-001
1	 1.177633172251877e+000	 6.109155086418121e-001	 3.661385607403455e-001
1	 1.170969508043789e+000	 6.235928427706871e-001	-9.553582311081159e-002
1	 1.164158298683920e+000	 6.362177635576132e-001	-5.691449096134545e-001
1	 1.157200065051501e+000	 6.487877547072080e-001	-1.053700008481597e+000
1	 1.226246138940778e+000	 5.235355418239187e-001	 2.963859834766415e+000
1	 1.220596957825401e+000	 5.365744771980168e-001	 2.614802303909720e+000
1	 1.214797387829354e+000	 5.495784256663966e-001	 2.247759402348942e+000
1	 1.208847564018351e+000	 5.625448718653632e-001	 1.863598007348841e+000
1	 1.202747675935371e+000	 5.754712940886186e-001	 1.463212696766142e+000
1	 1.196497968013682e+000	 5.883551657230444e-001	 1.047525112034034e+000
1	 1.190098739945637e+000	 6.011939567052549e-001	 6.174832724100998e-001
1	 1.183550347006174e+000	 6.139851349973728e-001	 1.740608409686728e-001
1	 1.176853200330036e+000	 6.267261680804233e-001	-2.817436570625420e-001
1	 1.170007767141820e+000	 6.394145244636895e-001	-7.489076629010733e-001
1	 1.163014570937961e+000	 6.520476752083219e-001	-1.226385458901081e+000
1	 1.104869512089097e+000	 6.194484701912240e-001	 7.689690336793399e-001
1	 1.098085089003007e+000	 6.313969688049652e-001	 2.131890778140119e-001
1	 1.091161405032191e+000	 6.432882130677760e-001	-3.667881415031473e-001
1	 1.084099119641821e+000	 6.551198161888586e-001	-9.694480155081976e-001
1	 1.076898946000012e+000	 6.668893997229497e-001	-1.593240943681801e+000
1	 1.069561650911468e+000	 6.785945950602359e-001	-2.236584323554231e+000
1	 1.062088054702069e+000	 6.902330449192106e-001	-2.897864610734328e+000
1	 1.054479031054074e+000	 7.018024048406095e-001	-3.575439445733132e+000
1	 1.046735506791741e+000	 7.133003446805322e-001	-4.267639843952543e+000
1	 1.038858461617222e+000	 7.247245501008480e-001	-4.972772445015070e+000
1	 1.030848927796671e+000	 7.360727240549706e-001	-5.689121817427224e+000
1	 1.110684017971820e+000	 6.227083906923381e-001	 5.426340367564480e-001
1	 1.103863891060642e+000	 6.347197696866972e-001	-8.185509727846839e-003
1	 1.096903770387911e+000	 6.466735930223382e-001	-5.825751316971618e-001
1	 1.089804318889317e+000	 6.585674613477011e-001	-1.179060442839191e+000
1	 1.082566253486110e+000	 6.703989837006782e-001	-1.796135859949954e+000
1	 1.075190345018397e+000	 6.821657790063734e-001	-2.432266559973673e+000
1	 1.067677418129123e+000	 6.938654775778139e-001	-3.085890500328087e+000
1	 1.060028351098407e+000	 7.054957226177467e-001	-3.755420499087375e+000
1	 1.052244075628034e+000	 7.170541717196199e-001	-4.439246371413788e+000
1	 1.044325576575955e+000	 7.285384983658311e-001	-5.135737118451108e+000
1	 1.036273891640754e+000	 7.399463934213199e-001	-5.843243164727460e+000
1	 1.116498523855155e+000	 6.259683111938493e-001	 3.222428747934121e-001
1	 1.109642693118966e+000	 6.380425705688563e-001	-2.232809679556895e-001
1	 1.102646135744382e+000	 6.500589729773376e-001	-7.917773529115888e-001
1	 1.095509518137610e+000	 6.620151065069738e-001	-1.381814665172503e+000
1	 1.088233560973034e+000	 6.739085676788197e-001	-1.991933837359389e+000
1	 1.080819039126168e+000	 6.857369629528982e-001	-2.620650268795560e+000
1	 1.073266781557023e+000	 6.974979102367745e-001	-3.266455801062246e+000
1	 1.065577671143576e+000	 7.091890403952124e-001	-3.927820746519905e+000
1	 1.057752644465140e+000	 7.208079987590110e-001	-4.603195966213356e+000
1	 1.049792691535468e+000	 7.323524466311011e-001	-5.291014993426646e+000
1	 1.041698855485570e+000	 7.438200627879527e-001	-5.989696198998053e+000
1	 1.122313029739053e+000	 6.292282316956586e-001	 1.078000633477430e-001
1	 1.115421495177916e+000	 6.413653714513357e-001	-4.321029411076947e-001
1	 1.108388501101529e+000	 6.534443529326649e-001	-9.944097027218165e-001
1	 1.101214717386616e+000	 6.654627516665709e-001	-1.577733891742675e+000
1	 1.093900868460696e+000	 6.774181516572718e-001	-2.180665420630382e+000
1	 1.086447733234689e+000	 6.893081468997160e-001	-2.801772320318134e+000
1	 1.078856144985671e+000	 7.011303428960078e-001	-3.439602665974789e+000
1	 1.071126991189482e+000	 7.128823581729308e-001	-4.092686548879896e+000
1	 1.063261213302960e+000	 7.245618257986404e-001	-4.759538090873901e+000
1	 1.055259806495660e+000	 7.361663948966014e-001	-5.438657497706606e+000
1	 1.047123819331021e+000	 7.476937321548193e-001	-6.128533147474009e+000
1	 1.128127535623464e+000	 6.324881521976661e-001	-1.006899751179030e-001
1	 1.121200297237431e+000	 6.446881723340283e-001	-6.346569570572345e-001
1	 1.114130866459280e+000	 6.568297328882105e-001	-1.190486771566609e+000
1	 1.106919916636253e+000	 6.689103968263843e-001	-1.766840853290906e+000
1	 1.099568175949008e+000	 6.809277356359336e-001	-2.362360524757400e+000
1	 1.092076427343866e+000	 6.928793308467319e-001	-2.975668824702898e+000
1	 1.084445508414973e+000	 7.047627755554290e-001	-3.605372379055290e+000
1	 1.076676311236026e+000	 7.165756759508273e-001	-4.250063311218473e+000
1	 1.068769782141392e+000	 7.283156528384416e-001	-4.908321188174298e+000
1	 1.060726921456431e+000	 7.399803431622750e-001	-5.578714998795305e+000
1	 1.052548783177006e+000	 7.515674015218691e-001	-6.259805160647771e+000
1	 1.133942041508339e+000	 6.357480726997732e-001	-3.032229088487033e-001
1	 1.126979099297446e+000	 6.480109732168279e-001	-8.309484302962589e-001
1	 1.119873231817559e+000	 6.602151128438663e-001	-1.380022850623185e+000
1	 1.112625115886439e+000	 6.723580419863071e-001	-1.949157814332384e+000
1	 1.105235483437879e+000	 6.844373196147020e-001	-2.537048451154804e+000
1	 1.097705121453605e+000	 6.964505147938525e-001	-3.142375151463292e+000
1	 1.090034871844829e+000	 7.083952082149518e-001	-3.763805377526163e+000
1	 1.082225631283110e+000	 7.202689937288271e-001	-4.399995507293333e+000
1	 1.074278350980340e+000	 7.320694798783510e-001	-5.049592707294005e+000
1	 1.066194036417681e+000	 7.437942914280661e-001	-5.711236831120515e+000
1	 1.057973747023426e+000	 7.554410708890517e-001	-6.383562339875548e+000
1	 1.139756547393629e+000	 6.390079932018798e-001	-4.997944944837812e-001
1	 1.132757901357898e+000	 6.513337740996277e-001	-1.020982664827399e+000
1	 1.125615597176293e+000	 6.636004927995228e-001	-1.563031939440193e+000
1	 1.118330315137091e+000	 6.758056871462320e-001	-2.124706585049029e+000
1	 1.110902790927220e+000	 6.879469035934759e-001	-2.704757903307488e+000
1	 1.103333815563813e+000	 7.000216987409836e-001	-3.301925948357089e+000
1	 1.095624235275144e+000	 7.120276408744931e-001	-3.914941273441816e+000
1	 1.087774951330634e+000	 7.239623115068550e-001	-4.542526703323961e+000
1	 1.079786919819701e+000	 7.358233069183022e-001	-5.183399129157730e+000
1	 1.071661151379311e+000	 7.476082396939175e-001	-5.836271322384476e+000
1	 1.063398710870180e+000	 7.593147402563173e-001	-6.499853764138124e+000
1	 1.145571053279286e+000	 6.422679137038877e-001	-6.904005748132138e-001
1	 1.138536703418726e+000	 6.546565749823208e-001	-1.204764856967890e+000
1	 1.131357962535409e+000	 6.669858727550705e-001	-1.739527753339220e+000
1	 1.124035514388128e+000	 6.792533323060525e-001	-2.293508532819443e+000
1	 1.116570098416944e+000	 6.914564875721528e-001	-2.865517001945215e+000
1	 1.108962509674396e+000	 7.035928826880307e-001	-3.454355159703089e+000
1	 1.101213598705821e+000	 7.156600735339670e-001	-4.058818874629686e+000
1	 1.093324271378501e+000	 7.276556292848364e-001	-4.677699581023502e+000
1	 1.085295488659378e+000	 7.395771339582308e-001	-5.309785991007797e+000
1	 1.077128266341220e+000	 7.514221879597718e-001	-5.953865819113084e+000
1	 1.068823674717169e+000	 7.631884096236151e-001	-6.608727515987044e+000
1	 1.151385559165260e+000	 6.455278342056968e-001	-8.750370766022388e-001
1	 1.144315505479866e+000	 6.579793758648005e-001	-1.382300098068584e+000
1	 1.137100327894832e+000	 6.703712527104010e-001	-1.909523730591094e+000
1	 1.129740713639465e+000	 6.827009774656603e-001	-2.455584593399916e+000
1	 1.122237405906962e+000	 6.949660715506317e-001	-3.019353299757684e+000
1	 1.114591203785260e+000	 7.071640666348995e-001	-3.599696044143075e+000
1	 1.106802962136764e+000	 7.192925061932889e-001	-4.195476204997497e+000
1	 1.098873591426612e+000	 7.313489470626965e-001	-4.805555959932783e+000
1	 1.090804057499271e+000	 7.433309609980714e-001	-5.428797910232467e+000
1	 1.082595381303308e+000	 7.552361362255734e-001	-6.064066711430256e+000
1	 1.074248638564292e+000	 7.670620789908953e-001	-6.710230706704265e+000
1	 1.157200065051501e+000	 6.487877547072080e-001	-1.053700008481597e+000
1	 1.150094307541256e+000	 6.613021767469599e-001	-1.553593377150976e+000
1	 1.142842693254488e+000	 6.737566326654046e-001	-2.073033039376367e+000
1	 1.135445912891022e+000	 6.861486226249490e-001	-2.610955281767707e+000
1	 1.127904713397183e+000	 6.984756555288100e-001	-3.166293795665024e+000
1	 1.120219897896312e+000	 7.107352505814967e-001	-3.737981191868224e+000
1	 1.112392325567875e+000	 7.229249388523745e-001	-4.324950524227494e+000
1	 1.104422911474868e+000	 7.350422648403597e-001	-4.926136819080502e+000
1	 1.096312626339280e+000	 7.470847880377582e-001	-5.540478607475293e+000
1	 1.088062496265477e+000	 7.590500844912654e-001	-6.166919457086345e+000
1	 1.079673602411449e+000	 7.709357483581074e-001	-6.804409500704003e+000
1	 1.163014570937961e+000	 6.520476752083219e-001	-1.226385458901081e+000
1	 1.155873109602832e+000	 6.646249776286929e-001	-1.718649583465168e+000
1	 1.148585058614304e+000	 6.771420126199730e-001	-2.230068584537021e+000
1	 1.141151112142714e+000	 6.895962677838111e-001	-2.759640702640162e+000
1	 1.133572020887520e+000	 7.019852395065859e-001	-3.306364948661010e+000
1	 1.125848592007459e+000	 7.143064345277265e-001	-3.869242541328740e+000
1	 1.117981688999059e+000	 7.265573715111380e-001	-4.447278346880156e+000
1	 1.109972231523171e+000	 7.387355826177517e-001	-5.039482317994170e+000
1	 1.101821195179304e+000	 7.508386150772266e-001	-5.644870929051968e+000
1	 1.093529611227624e+000	 7.628640327567903e-001	-6.262468604764856e+000
1	 1.085098566258542e+000	 7.748094177252014e-001	-6.891309139201650e+000
1	 1.030848927796671e+000	 7.360727240549706e-001	-5.689121817427223e+000
1	 1.022707989505717e+000	 7.473425880179891e-001	-6.407656476482399e+000
1	 1.014436781551623e+000	 7.585318826949443e-001	-7.120684107594823e+000
1	 1.006036489798570e+000	 7.696383702024040e-001	-7.828512671997960e+000
1	 9.975083509509269e-001	 7.806598357631507e-001	-8.531489449739981e+000
1	 9.888536519949061e-001	 7.915940891414762e-001	-9.230000489991022e+000
1	 9.800737295918565e-001	 8.024389660623850e-001	-9.924469988556128e+000
1	 9.711699694237401e-001	 8.131923296128095e-001	-1.061535959353034e+001
1	 9.621438054914021e-001	 8.238520716229617e-001	-1.130316764021923e+001
1	 9.529967193663581e-001	 8.344161140259776e-001	-1.198842831663636e+001
1	 9.437302393968710e-001	 8.448824101940288e-001	-1.267171076107323e+001
1	 1.036273891640754e+000	 7.399463934213199e-001	-5.843243164727460e+000
1	 1.028090110703659e+000	 7.512755663701751e-001	-6.553023837724202e+000
1	 1.019775374543992e+000	 7.625237460276317e-001	-7.257653274291623e+000
1	 1.011330875266677e+000	 7.736886827331343e-001	-7.957471379202507e+000
1	 1.002757856084381e+000	 7.847681500539400e-001	-8.652857400705180e+000
1	 9.940576107562282e-001	 7.957599462279669e-001	-9.344229325366017e+000
1	 9.852314829779033e-001	 8.066618955904691e-001	-1.003204319968076e+001
1	 9.762808657236762e-001	 8.174718499826220e-001	-1.071679237950600e+001
1	 9.672072005409863e-001	 8.281876901401470e-001	-1.139900670855071e+001
1	 9.580119767982906e-001	 8.388073270601095e-001	-1.207925162735699e+001
1	 9.486967308869592e-001	 8.493287033440607e-001	-1.275812721438501e+001
1	 1.041698855485570e+000	 7.438200627879527e-001	-5.989696198998054e+000
1	 1.033472231902282e+000	 7.552085447226570e-001	-6.690774075929533e+000
1	 1.025113967536979e+000	 7.665156093606413e-001	-7.387069979501112e+000
1	 1.016625260735336e+000	 7.777389952642229e-001	-8.078952318965206e+000
1	 1.008007361218321e+000	 7.888764643451286e-001	-8.766828760415265e+000
1	 9.992615695179733e-001	 7.999258033149022e-001	-9.451145571798163e+000
1	 9.903892363643124e-001	 8.108848251190414e-001	-1.013238689448371e+001
1	 9.813917620239231e-001	 8.217513703529624e-001	-1.081107394254336e+001
1	 9.722705955908413e-001	 8.325233086578918e-001	-1.148776413108584e+001
1	 9.630272342304665e-001	 8.431985400948195e-001	-1.216305013518260e+001
1	 9.536632223772814e-001	 8.537749964946746e-001	-1.283755888110382e+001
1	 1.047123819331021e+000	 7.476937321548193e-001	-6.128533147474009e+000
1	 1.038854353101484e+000	 7.591415230753883e-001	-6.820959054592378e+000
1	 1.030452560530485e+000	 7.705074726939275e-001	-7.508984617271023e+000
1	 1.021919646204449e+000	 7.817893077956220e-001	-8.193003364877752e+000
1	 1.013256866352648e+000	 7.929847786366678e-001	-8.873447886826371e+000
1	 1.004465528280040e+000	 8.040916604022279e-001	-9.550789133343596e+000
1	 9.955469897509849e-001	 8.151077546480426e-001	-1.022553564280161e+001
1	 9.865026583243810e-001	 8.260308907237651e-001	-1.089823269686181e+001
1	 9.773339906408669e-001	 8.368589271761237e-001	-1.156946140486988e+001
1	 9.680424916627864e-001	 8.475897531300306e-001	-1.223983771912825e+001
1	 9.586297138677377e-001	 8.582212896457886e-001	-1.291001138286290e+001
1	 1.052548783177006e+000	 7.515674015218691e-001	-6.259805160647771e+000
1	 1.044236474301167e+000	 7.630745014283223e-001	-6.943629567963616e+000
1	 1.035791153524410e+000	 7.744993360274444e-001	-7.623446542700808e+000
1	 1.027214031673916e+000	 7.858396203272857e-001	-8.299671403546149e+000
1	 1.018506371487263e+000	 7.970930929285075e-001	-8.972758223388999e+000
1	 1.009669487042330e+000	 8.082575174898905e-001	-9.643199091376298e+000
1	 1.000704743137819e+000	 8.193306841774135e-001	-1.031152330176223e+001
1	 9.916135546249502e-001	 8.303104110949647e-001	-1.097829647087932e+001
1	 9.823973856909621e-001	 8.411945456947709e-001	-1.164411958375365e+001
1	 9.730577490951501e-001	 8.519809661656644e-001	-1.230962797207185e+001
1	 9.635962053582278e-001	 8.626675827973180e-001	-1.297549022539644e+001
1	 1.057973747023426e+000	 7.554410708890517e-001	-6.383562339875548e+000
1	 1.049618595501230e+000	 7.670074797814130e-001	-7.058835368464342e+000
1	 1.041129746518654e+000	 7.784911993611470e-001	-7.730504098578495e+000
1	 1.032508417143636e+000	 7.898899328591671e-001	-8.399002359896036e+000
1	 1.023755876622064e+000	 8.012014072205981e-001	-9.064802322494902e+000
1	 1.014873445804742e+000	 8.124233745778354e-001	-9.728413725681165e+000
1	 1.005862496524717e+000	 8.235536137070948e-001	-1.039038303405719e+001
1	 9.967244509255303e-001	 8.345899314664957e-001	-1.105129252223083e+001
1	 9.874607807410282e-001	 8.455301642137624e-001	-1.171175928975721e+001
1	 9.780730065274571e-001	 8.563721792016433e-001	-1.237243420809044e+001
1	 9.685626968486518e-001	 8.671138759491810e-001	-1.303400080151136e+001
1	 1.063398710870180e+000	 7.593147402563173e-001	-6.499853764138122e+000
1	 1.055000716701573e+000	 7.709404581346138e-001	-7.166625193260953e+000
1	 1.046468339513117e+000	 7.824830626949891e-001	-7.830204641202565e+000
1	 1.037802802613509e+000	 7.939402453912196e-001	-8.491041221702275e+000
1	 1.029005381756952e+000	 8.053097215128897e-001	-9.149621868205704e+000
1	 1.020077404567176e+000	 8.165892316660085e-001	-9.806470534900138e+000
1	 1.011020249911577e+000	 8.277765432370262e-001	-1.046214732565526e+001
1	 1.001835347226022e+000	 8.388694518382924e-001	-1.111724755232792e+001
1	 9.925241757909649e-001	 8.498657827330259e-001	-1.177240072408393e+001
1	 9.830882639596080e-001	 8.607633922378900e-001	-1.242826946957149e+001
1	 9.735291883389100e-001	 8.715601691012934e-001	-1.308554839396723e+001
1	 1.068823674717169e+000	 7.631884096236151e-001	-6.608727515987043e+000
1	 1.060382837902096e+000	 7.748734364878774e-001	-7.267046790030184e+000
1	 1.051806932507698e+000	 7.864749260289258e-001	-7.922594565416797e+000
1	 1.043097188083436e+000	 7.979905579233964e-001	-8.575832063372578e+000
1	 1.034254886891827e+000	 8.094180358053328e-001	-9.227257698289343e+000
1	 1.025281363329533e+000	 8.207550887543560e-001	-9.877406256356551e+000
1	 1.016178003298301e+000	 8.319994727671491e-001	-1.052684800297656e+001
1	 1.006946243526324e+000	 8.431489722102895e-001	-1.117618772047473e+001
1	 9.975875708406714e-001	 8.542014012524897e-001	-1.182606367780078e+001
1	 9.881035213915023e-001	 8.651546052743258e-001	-1.247714653410816e+001
1	 9.784956798289021e-001	 8.760064622535720e-001	-1.313013817826957e+001
1	 1.074248638564292e+000	 7.670620789908953e-001	-6.710230706704266e+000
1	 1.065764959102699e+000	 7.788064148411578e-001	-7.360146941944087e+000
1	 1.057145525502298e+000	 7.904667893629110e-001	-8.007719328887644e+000
1	 1.048391573553316e+000	 8.020408704556507e-001	-8.653418069009867e+000
1	 1.039504392026589e+000	 8.135263500978776e-001	-9.297749825589342e+000
1	 1.030485322091712e+000	 8.249209458428238e-001	-9.941256885277859e+000
1	 1.021335756684786e+000	 8.362224022974037e-001	-1.058451624954617e+001
1	 1.012057139826338e+000	 8.474284925824217e-001	-1.122813865755571e+001
1	 1.002650965890049e+000	 8.585370197720823e-001	-1.187276754219379e+001
1	 9.931187788230408e-001	 8.695458183108743e-001	-1.251907792118485e+001
1	 9.834621713185283e-001	 8.804527554059347e-001	-1.316777522537767e+001
1	 1.079673602411449e+000	 7.709357483581074e-001	-6.804409500704002e+000
1	 1.071147080303283e+000	 7.827393931944082e-001	-7.445971491900834e+000
1	 1.062484118496817e+000	 7.944586526969000e-001	-8.085623475648543e+000
1	 1.053685959023049e+000	 8.060911829879361e-001	-8.723841554779549e+000
1	 1.044753897161138e+000	 8.176346643904751e-001	-9.361137458749345e+000
1	 1.035689280853614e+000	 8.290868029313576e-001	-9.998057693440144e+000
1	 1.026493510070935e+000	 8.404453318277302e-001	-1.063518262214491e+001
1	 1.017168036125963e+000	 8.517080129546233e-001	-1.127312547931223e+001
1	 1.007714360938997e+000	 8.628726382917317e-001	-1.191253131881189e+001
1	 9.981340362541230e-001	 8.739370313474563e-001	-1.255407589866212e+001
1	 9.884286628076887e-001	 8.848990485582965e-001	-1.319846450433133e+001
1	 1.085098566258542e+000	 7.748094177252014e-001	-6.891309139201648e+000
1	 1.076529201503747e+000	 7.866723715475821e-001	-7.524565366030071e+000
1	 1.067822711491155e+000	 7.984505160308466e-001	-8.156350658938848e+000
1	 1.058980344492536e+000	 8.101414955202057e-001	-8.787143990605703e+000
1	 1.050003402295374e+000	 8.217429786830747e-001	-9.417459022316026e+000
1	 1.040893239615138e+000	 8.332526600199040e-001	-1.004784324725187e+001
1	 1.031651263456647e+000	 8.446682613580696e-001	-1.067887706647768e+001
1	 1.022278932425099e+000	 8.559875333268288e-001	-1.131117279921854e+001
1	 1.012777755987415e+000	 8.672082568113665e-001	-1.194537362920952e+001
1	 1.003149293684649e+000	 8.783282443839943e-001	-1.258215248906652e+001
1	 9.933951542962829e-001	 8.893453417105752e-001	-1.322221088479822e+001
1	 9.437302393968710e-001	 8.448824101940288e-001	-1.267171076107323e+001
1	 9.343473563375667e-001	 8.552473990597010e-001	-1.334809206144443e+001
1	 9.248483085016389e-001	 8.655106795860112e-001	-1.401237468172258e+001
1	 9.152347594181193e-001	 8.756703089076804e-001	-1.466443696798680e+001
1	 9.055084157349460e-001	 8.857243806682982e-001	-1.530416103971433e+001
1	 8.956710262109042e-001	 8.956710262109041e-001	-1.593143315299379e+001
1	 8.857243806682983e-001	 9.055084157349460e-001	-1.654614406190862e+001
1	 8.756703089076804e-001	 9.152347594181193e-001	-1.714818937725687e+001
1	 8.655106795860115e-001	 9.248483085016390e-001	-1.773746992177533e+001
1	 8.552473990597013e-001	 9.343473563375669e-001	-1.831389208103835e+001
1	 8.448824101940289e-001	 9.437302393968712e-001	-1.887736814921107e+001
1	 9.486967308869592e-001	 8.493287033440607e-001	-1.275812721438501e+001
1	 9.392644693008143e-001	 8.597482391840500e-001	-1.343055168353653e+001
1	 9.297154316072044e-001	 8.700655314325843e-001	-1.409114568952777e+001
1	 9.200512900896849e-001	 8.802786269998228e-001	-1.473978526094906e+001
1	 9.102737603776350e-001	 8.903856094969239e-001	-1.537634964067178e+001
1	 9.003846004328947e-001	 9.003846004328946e-001	-1.600072166444550e+001
1	 8.903856094969240e-001	 9.102737603776351e-001	-1.661278813859505e+001
1	 8.802786269998226e-001	 9.200512900896849e-001	-1.721244021594637e+001
1	 8.700655314325844e-001	 9.297154316072043e-001	-1.779957376910516e+001
1	 8.597482391840496e-001	 9.392644693008142e-001	-1.837408976022001e+001
1	 8.493287033440606e-001	 9.486967308869591e-001	-1.893589460636089e+001
1	 9.536632223772814e-001	 8.537749964946746e-001	-1.283755888110382e+001
1	 9.441815822643049e-001	 8.642490793089671e-001	-1.350604626140943e+001
1	 9.345825547130385e-001	 8.746203832796977e-001	-1.416295180169357e+001
1	 9.248678207615561e-001	 8.848869450924649e-001	-1.480815129507790e+001
1	 9.150391050206755e-001	 8.950468383260026e-001	-1.544152325149706e+001
1	 9.050981746552862e-001	 9.050981746552862e-001	-1.606294928783622e+001
1	 8.950468383260025e-001	 9.150391050206754e-001	-1.667231451799576e+001
1	 8.848869450924650e-001	 9.248678207615562e-001	-1.726950794197829e+001
1	 8.746203832796977e-001	 9.345825547130385e-001	-1.785442283309395e+001
1	 8.642490793089671e-001	 9.441815822643049e-001	-1.842695712237768e+001
1	 8.537749964946746e-001	 9.536632223772812e-001	-1.898701377931553e+001
1	 9.586297138677377e-001	 8.582212896457886e-001	-1.291001138286290e+001
1	 9.490986952279386e-001	 8.687499194343656e-001	-1.357457321889083e+001
1	 9.394496778190408e-001	 8.791752351272595e-001	-1.422778293647817e+001
1	 9.296843514336336e-001	 8.894952631855135e-001	-1.486951814132901e+001
1	 9.198044496639684e-001	 8.997080671554369e-001	-1.549965871952012e+001
1	 9.098117488779829e-001	 9.098117488779827e-001	-1.611808723537120e+001
1	 8.997080671554371e-001	 9.198044496639686e-001	-1.672468932996478e+001
1	 8.894952631855135e-001	 9.296843514336336e-001	-1.731935411938905e+001
1	 8.791752351272593e-001	 9.394496778190407e-001	-1.790197459177506e+001
1	 8.687499194343655e-001	 9.490986952279387e-001	-1.847244800219746e+001
1	 8.582212896457886e-001	 9.586297138677375e-001	-1.903067626451039e+001
1	 9.635962053582278e-001	 8.626675827973180e-001	-1.297549022539644e+001
1	 9.540158081916156e-001	 8.732507595601574e-001	-1.363613003291931e+001
1	 9.443168009251123e-001	 8.837300869751786e-001	-1.428562921998922e+001
1	 9.345008821058185e-001	 8.941035812788736e-001	-1.492386921967469e+001
1	 9.245697943074160e-001	 9.043692959851324e-001	-1.555073336939650e+001
1	 9.145253231008851e-001	 9.145253231008849e-001	-1.616610731275745e+001
1	 9.043692959851323e-001	 9.245697943074160e-001	-1.676987940263899e+001
1	 8.941035812788736e-001	 9.345008821058184e-001	-1.736194110462879e+001
1	 8.837300869751789e-001	 9.443168009251123e-001	-1.794218739983441e+001
1	 8.732507595601573e-001	 9.540158081916156e-001	-1.851051718613210e+001
1	 8.626675827973181e-001	 9.635962053582274e-001	-1.906683367690833e+001
1	 9.685626968486518e-001	 8.671138759491810e-001	-1.303400080151136e+001
1	 9.589329211552358e-001	 8.777515996862553e-001	-1.369071423218282e+001
1	 9.491839240311524e-001	 8.882849388233640e-001	-1.433648098085473e+001
1	 9.393174127780104e-001	 8.987118993724509e-001	-1.497118829015541e+001
1	 9.293351389509182e-001	 9.090305248149910e-001	-1.559472499087022e+001
1	 9.192388973238956e-001	 9.192388973238954e-001	-1.620698190398823e+001
1	 9.090305248149909e-001	 9.293351389509182e-001	-1.680785224453452e+001
1	 8.987118993724508e-001	 9.393174127780105e-001	-1.739723202624525e+001
1	 8.882849388233639e-001	 9.491839240311523e-001	-1.797502046613512e+001
1	 8.777515996862554e-001	 9.589329211552359e-001	-1.854112038799730e+001
1	 8.671138759491809e-001	 9.685626968486518e-001	-1.909543862388546e+001
1	 9.735291883389100e-001	 8.715601691012934e-001	-1.308554839396723e+001
1	 9.638500341186992e-001	 8.822524398125708e-001	-1.373832339579825e+001
1	 9.540510471370610e-001	 8.928397906717235e-001	-1.438032874505725e+001
1	 9.441339434501102e-001	 9.033202174661514e-001	-1.501145944420581e+001
1	 9.341004835943767e-001	 9.136917536449165e-001	-1.563161182690946e+001
1	 9.239524715469168e-001	 9.239524715469170e-001	-1.624068395659173e+001
1	 9.136917536449166e-001	 9.341004835943765e-001	-1.683857602719246e+001
1	 9.033202174661514e-001	 9.441339434501103e-001	-1.742519076518877e+001
1	 8.928397906717234e-001	 9.540510471370609e-001	-1.800043383192831e+001
1	 8.822524398125704e-001	 9.638500341186989e-001	-1.856421422531873e+001
1	 8.715601691012934e-001	 9.735291883389100e-001	-1.911644467991761e+001
1	 9.784956798289021e-001	 8.760064622535720e-001	-1.313013817826957e+001
1	 9.687671470819058e-001	 8.867532799390160e-001	-1.377895515203193e+001
1	 9.589181702427395e-001	 8.973946425201665e-001	-1.441716323092510e+001
1	 9.489504741220182e-001	 9.079285355598812e-001	-1.504466709624430e+001
1	 9.388658282376924e-001	 9.183529824748138e-001	-1.566137256220525e+001
1	 9.286660457698506e-001	 9.286660457698507e-001	-1.626718696732974e+001
1	 9.183529824748138e-001	 9.388658282376924e-001	-1.686201956835238e+001
1	 9.079285355598811e-001	 9.489504741220182e-001	-1.744578193571837e+001
1	 8.973946425201665e-001	 9.589181702427395e-001	-1.801838834972980e+001
1	 8.867532799390161e-001	 9.687671470819059e-001	-1.857975619639592e+001
1	 8.760064622535722e-001	 9.784956798289021e-001	-1.912980636203703e+001
1	 9.834621713185283e-001	 8.804527554059347e-001	-1.316777522537767e+001
1	 9.736842600447556e-001	 8.912541200655042e-001	-1.381260717705859e+001
1	 9.637852933480873e-001	 9.019494943686012e-001	-1.444697534427610e+001
1	 9.537670047936347e-001	 9.125368536535453e-001	-1.507079597551757e+001
1	 9.436311728807664e-001	 9.230142113045854e-001	-1.568398631201751e+001
1	 9.333796199925991e-001	 9.333796199925990e-001	-1.628646496832938e+001
1	 9.230142113045853e-001	 9.436311728807661e-001	-1.687815231563551e+001
1	 9.125368536535454e-001	 9.537670047936350e-001	-1.745897086688506e+001
1	 9.019494943686012e-001	 9.637852933480871e-001	-1.802884566283461e+001
1	 8.912541200655043e-001	 9.736842600447561e-001	-1.858770465806348e+001
1	 8.804527554059345e-001	 9.834621713185284e-001	-1.913547910603220e+001
1	 9.884286628076887e-001	 8.848990485582965e-001	-1.319846450433134e+001
1	 9.786013730071491e-001	 8.957549601919467e-001	-1.383927719375748e+001
1	 9.686524164530039e-001	 9.065043462169358e-001	-1.446975617370685e+001
1	 9.585835354648612e-001	 9.171451717470502e-001	-1.508983111819114e+001
1	 9.483965175234997e-001	 9.276754401341349e-001	-1.569943261135807e+001
1	 9.380931942150645e-001	 9.380931942150644e-001	-1.629849251363303e+001
1	 9.276754401341348e-001	 9.483965175234996e-001	-1.688694433072011e+001
1	 9.171451717470505e-001	 9.585835354648611e-001	-1.746472358457442e+001
1	 9.065043462169357e-001	 9.686524164530038e-001	-1.803176818545058e+001
1	 8.957549601919469e-001	 9.786013730071496e-001	-1.858801880412212e+001
1	 8.848990485582966e-001	 9.884286628076888e-001	-1.913341924336680e+001
1	 9.933951542962829e-001	 8.893453417105752e-001	-1.322221088479822e+001
1	 9.835184859689858e-001	 9.002558003182557e-001	-1.385896297054507e+001
1	 9.735195395573906e-001	 9.110591980650797e-001	-1.448549698602374e+001
1	 9.634000661355969e-001	 9.217534898403010e-001	-1.510175785967742e+001
1	 9.531618621657936e-001	 9.323366689633666e-001	-1.570769140449765e+001
1	 9.428067684371487e-001	 9.428067684371487e-001	-1.630324466615196e+001
1	 9.323366689633666e-001	 9.531618621657936e-001	-1.688836627399165e+001
1	 9.217534898403014e-001	 9.634000661355970e-001	-1.746300679408706e+001
1	 9.110591980650801e-001	 9.735195395573908e-001	-1.802711908342723e+001
1	 9.002558003182558e-001	 9.835184859689861e-001	-1.858065864441583e+001
1	 8.893453417105754e-001	 9.933951542962831e-001	-1.912358397878883e+001
1	 8.448824101940289e-001	 9.437302393968712e-001	-1.887736814921107e+001
1	 8.344161140259777e-001	 9.529967193663582e-001	-1.942060417245298e+001
1	 8.238520716229620e-001	 9.621438054914022e-001	-1.993645532766705e+001
1	 8.131923296128095e-001	 9.711699694237402e-001	-2.042531635991928e+001
1	 8.024389660623853e-001	 9.800737295918567e-001	-2.088758657450905e+001
1	 7.915940891414762e-001	 9.888536519949059e-001	-2.132366978135385e+001
1	 7.806598357631508e-001	 9.975083509509268e-001	-2.173397424179758e+001
1	 7.696383702024038e-001	 1.006036489798570e+000	-2.211891261761931e+001
1	 7.585318826949441e-001	 1.014436781551623e+000	-2.247890192200460e+001
1	 7.473425880179889e-001	 1.022707989505716e+000	-2.281436347223299e+001
1	 7.360727240549704e-001	 1.030848927796671e+000	-2.312572284382929e+001
1	 8.493287033440606e-001	 9.486967308869591e-001	-1.893589460636089e+001
1	 8.388073270601094e-001	 9.580119767982903e-001	-1.947765716873815e+001
1	 8.281876901401469e-001	 9.672072005409864e-001	-1.999224239978659e+001
1	 8.174718499826219e-001	 9.762808657236761e-001	-2.048010931247938e+001
1	 8.066618955904692e-001	 9.852314829779032e-001	-2.094172236632015e+001
1	 7.957599462279668e-001	 9.940576107562282e-001	-2.137755129755533e+001
1	 7.847681500539400e-001	 1.002757856084381e+000	-2.178807095073209e+001
1	 7.736886827331343e-001	 1.011330875266676e+000	-2.217376111162978e+001
1	 7.625237460276317e-001	 1.019775374543992e+000	-2.253510634156869e+001
1	 7.512755663701749e-001	 1.028090110703659e+000	-2.287259581310608e+001
1	 7.399463934213199e-001	 1.036273891640754e+000	-2.318672314710424e+001
1	 8.537749964946746e-001	 9.536632223772812e-001	-1.898701377931553e+001
1	 8.431985400948194e-001	 9.630272342304667e-001	-1.952723421535220e+001
1	 8.325233086578918e-001	 9.722705955908412e-001	-2.004049863837210e+001
1	 8.217513703529624e-001	 9.813917620239232e-001	-2.052732631982378e+001
1	 8.108848251190414e-001	 9.903892363643124e-001	-2.098824280707385e+001
1	 7.999258033149023e-001	 9.992615695179731e-001	-2.142377964629636e+001
1	 7.888764643451287e-001	 1.008007361218321e+000	-2.183447410569305e+001
1	 7.777389952642227e-001	 1.016625260735336e+000	-2.222086889930345e+001
1	 7.665156093606410e-001	 1.025113967536979e+000	-2.258351191164879e+001
1	 7.552085447226569e-001	 1.033472231902282e+000	-2.292295592344086e+001
1	 7.438200627879529e-001	 1.041698855485570e+000	-2.323975833858666e+001
1	 8.582212896457886e-001	 9.586297138677375e-001	-1.903067626451039e+001
1	 8.475897531300307e-001	 9.680424916627867e-001	-1.956928244479137e+001
1	 8.368589271761239e-001	 9.773339906408669e-001	-2.008116692302337e+001
1	 8.260308907237651e-001	 9.865026583243810e-001	-2.056690528227290e+001
1	 8.151077546480426e-001	 9.955469897509850e-001	-2.102708015463654e+001
1	 8.040916604022279e-001	 1.004465528280041e+000	-2.146228084358817e+001
1	 7.929847786366677e-001	 1.013256866352648e+000	-2.187310294570856e+001
1	 7.817893077956223e-001	 1.021919646204450e+000	-2.226014797226829e+001
1	 7.705074726939272e-001	 1.030452560530486e+000	-2.262402297112726e+001
1	 7.591415230753880e-001	 1.038854353101484e+000	-2.296534014940526e+001
1	 7.476937321548192e-001	 1.047123819331021e+000	-2.328471649736534e+001
1	 8.626675827973181e-001	 9.635962053582274e-001	-1.906683367690833e+001
1	 8.519809661656643e-001	 9.730577490951501e-001	-1.960375007949385e+001
1	 8.411945456947708e-001	 9.823973856909618e-001	-2.011419131096156e+001
1	 8.303104110949648e-001	 9.916135546249503e-001	-2.059878538042455e+001
1	 8.193306841774136e-001	 1.000704743137819e+000	-2.105816806347891e+001
1	 8.082575174898905e-001	 1.009669487042330e+000	-2.149298243073107e+001
1	 7.970930929285076e-001	 1.018506371487263e+000	-2.190387837481462e+001
1	 7.858396203272857e-001	 1.027214031673916e+000	-2.229151213657437e+001
1	 7.744993360274443e-001	 1.035791153524410e+000	-2.265654583108211e+001
1	 7.630745014283221e-001	 1.044236474301167e+000	-2.299964697414367e+001
1	 7.515674015218692e-001	 1.052548783177006e+000	-2.332148800994382e+001
1	 8.671138759491809e-001	 9.685626968486518e-001	-1.909543862388546e+001
1	 8.563721792016433e-001	 9.780730065274570e-001	-1.963058640389420e+001
1	 8.455301642137625e-001	 9.874607807410281e-001	-2.013951700683659e+001
1	 8.345899314664957e-001	 9.967244509255303e-001	-2.062290704232781e+001
1	 8.235536137070946e-001	 1.005862496524717e+000	-2.108144154886871e+001
1	 8.124233745778354e-001	 1.014873445804742e+000	-2.151581343520798e+001
1	 8.012014072205979e-001	 1.023755876622064e+000	-2.192672291936498e+001
1	 7.898899328591672e-001	 1.032508417143636e+000	-2.231487696617579e+001
1	 7.784911993611466e-001	 1.041129746518654e+000	-2.268098872422238e+001
1	 7.670074797814130e-001	 1.049618595501230e+000	-2.302577696298839e+001
1	 7.554410708890518e-001	 1.057973747023426e+000	-2.334996551108186e+001
1	 8.715601691012934e-001	 9.735291883389100e-001	-1.911644467991761e+001
1	 8.607633922378900e-001	 9.830882639596080e-001	-1.964974173733531e+001
1	 8.498657827330257e-001	 9.925241757909645e-001	-2.015709033345905e+001
1	 8.388694518382923e-001	 1.001835347226022e+000	-2.063921191166504e+001
1	 8.277765432370263e-001	 1.011020249911578e+000	-2.109683695216044e+001
1	 8.165892316660086e-001	 1.020077404567176e+000	-2.153070433277648e+001
1	 8.053097215128898e-001	 1.029005381756952e+000	-2.194156068665015e+001
1	 7.939402453912194e-001	 1.037802802613509e+000	-2.233015975783458e+001
1	 7.824830626949888e-001	 1.046468339513116e+000	-2.269726175587163e+001
1	 7.709404581346137e-001	 1.055000716701573e+000	-2.304363271034758e+001
1	 7.593147402563171e-001	 1.063398710870180e+000	-2.337004382644713e+001
1	 8.760064622535722e-001	 9.784956798289021e-001	-1.912980636203703e+001
1	 8.651546052743261e-001	 9.881035213915024e-001	-1.966116740780377e+001
1	 8.542014012524900e-001	 9.975875708406715e-001	-2.016685870342334e+001
1	 8.431489722102895e-001	 1.006946243526324e+000	-2.064764281690007e+001
1	 8.319994727671490e-001	 1.016178003298301e+000	-2.110429190714124e+001
1	 8.207550887543560e-001	 1.025281363329533e+000	-2.153758701071332e+001
1	 8.094180358053328e-001	 1.034254886891827e+000	-2.194831732477662e+001
1	 7.979905579233962e-001	 1.043097188083436e+000	-2.233727948739958e+001
1	 7.864749260289256e-001	 1.051806932507698e+000	-2.270527685644464e+001
1	 7.748734364878774e-001	 1.060382837902096e+000	-2.305311878821215e+001
1	 7.631884096236152e-001	 1.068823674717169e+000	-2.338161991701479e+001
1	 8.804527554059345e-001	 9.834621713185284e-001	-1.913547910603220e+001
1	 8.695458183108742e-001	 9.931187788230407e-001	-1.966481572646184e+001
1	 8.585370197720824e-001	 1.002650965890049e+000	-2.016877059159028e+001
1	 8.474284925824215e-001	 1.012057139826338e+000	-2.064814374136333e+001
1	 8.362224022974037e-001	 1.021335756684787e+000	-2.110374530739707e+001
1	 8.249209458428238e-001	 1.030485322091712e+000	-2.153639473217348e+001
1	 8.135263500978778e-001	 1.039504392026589e+000	-2.194691998376061e+001
1	 8.020408704556508e-001	 1.048391573553316e+000	-2.233615676740929e+001
1	 7.904667893629112e-001	 1.057145525502298e+000	-2.270494773536368e+001
1	 7.788064148411577e-001	 1.065764959102699e+000	-2.305414169621943e+001
1	 7.670620789908954e-001	 1.074248638564292e+000	-2.338459282514979e+001
1	 8.848990485582966e-001	 9.884286628076888e-001	-1.913341924336680e+001
1	 8.739370313474562e-001	 9.981340362541229e-001	-1.966063996294705e+001
1	 8.628726382917320e-001	 1.007714360938997e+000	-2.016277550840002e+001
1	 8.517080129546235e-001	 1.017168036125963e+000	-2.064065979423720e+001
1	 8.404453318277300e-001	 1.026493510070935e+000	-2.109513727466284e+001
1	 8.290868029313578e-001	 1.035689280853614e+000	-2.152706210162435e+001
1	 8.176346643904749e-001	 1.044753897161138e+000	-2.193729727779519e+001
1	 8.060911829879359e-001	 1.053685959023049e+000	-2.232671380597292e+001
1	 7.944586526968999e-001	 1.062484118496817e+000	-2.269618983636438e+001
1	 7.827393931944081e-001	 1.071147080303283e+000	-2.304660981322665e+001
1	 7.709357483581073e-001	 1.079673602411449e+000	-2.337886362231660e+001
1	 8.893453417105754e-001	 9.933951542962831e-001	-1.912358397878883e+001
1	 8.783282443839946e-001	 1.003149293684649e+000	-1.964859432141171e+001
1	 8.672082568113666e-001	 1.012777755987415e+000	-2.014882397398470e+001
1	 8.559875333268284e-001	 1.022278932425099e+000	-2.062513718241309e+001
1	 8.446682613580697e-001	 1.031651263456647e+000	-2.107840912812092e+001
1	 8.332526600199038e-001	 1.040893239615138e+000	-2.150952503131550e+001
1	 8.217429786830746e-001	 1.050003402295374e+000	-2.191937924865005e+001
1	 8.101414955202058e-001	 1.058980344492536e+000	-2.230887436688477e+001
1	 7.984505160308463e-001	 1.067822711491155e+000	-2.267892029414107e+001
1	 7.866723715475820e-001	 1.076529201503747e+000	-2.303043335033403e+001
1	 7.748094177252015e-001	 1.085098566258542e+000	-2.336433535835609e+001
1	 7.360727240549704e-001	 1.030848927796671e+000	-2.312572284382929e+001
1	 7.247245501008481e-001	 1.038858461617221e+000	-2.341473587009143e+001
1	 7.133003446805322e-001	 1.046735506791741e+000	-2.368164370963618e+001
1	 7.018024048406094e-001	 1.054479031054074e+000	-2.392458264695426e+001
1	 6.902330449192106e-001	 1.062088054702070e+000	-2.414166494000520e+001
1	 6.785945950602358e-001	 1.069561650911468e+000	-2.433098287789358e+001
1	 6.668893997229497e-001	 1.076898946000012e+000	-2.449061284827196e+001
1	 6.551198161888586e-001	 1.084099119641821e+000	-2.461861940558451e+001
1	 6.432882130677762e-001	 1.091161405032191e+000	-2.471305933134693e+001
1	 6.313969688049654e-001	 1.098085089003007e+000	-2.477198567777514e+001
1	 6.194484701912242e-001	 1.104869512089097e+000	-2.479345178621769e+001
1	 7.399463934213199e-001	 1.036273891640754e+000	-2.318672314710424e+001
1	 7.285384983658308e-001	 1.044325576575955e+000	-2.347905988732769e+001
1	 7.170541717196202e-001	 1.052244075628034e+000	-2.374960966777774e+001
1	 7.054957226177469e-001	 1.060028351098407e+000	-2.399649551711962e+001
1	 6.938654775778140e-001	 1.067677418129124e+000	-2.421781446740585e+001
1	 6.821657790063734e-001	 1.075190345018397e+000	-2.441164168631074e+001
1	 6.703989837006784e-001	 1.082566253486109e+000	-2.457603462172034e+001
1	 6.585674613477011e-001	 1.089804318889317e+000	-2.470903714958795e+001
1	 6.466735930223382e-001	 1.096903770387911e+000	-2.480868371604854e+001
1	 6.347197696866973e-001	 1.103863891060642e+000	-2.487300346490146e+001
1	 6.227083906923382e-001	 1.110684017971820e+000	-2.490002434170207e+001
1	 7.438200627879529e-001	 1.041698855485570e+000	-2.323975833858666e+001
1	 7.323524466311011e-001	 1.049792691535468e+000	-2.353529257073131e+001
1	 7.208079987590111e-001	 1.057752644465140e+000	-2.380932084795874e+001
1	 7.091890403952122e-001	 1.065577671143576e+000	-2.405996379174569e+001
1	 6.974979102367745e-001	 1.073266781557023e+000	-2.428531427897435e+001
1	 6.857369629528982e-001	 1.080819039126168e+000	-2.448344162753234e+001
1	 6.739085676788197e-001	 1.088233560973034e+000	-2.465239579672376e+001
1	 6.620151065069740e-001	 1.095509518137610e+000	-2.479021159323852e+001
1	 6.500589729773375e-001	 1.102646135744382e+000	-2.489491287352520e+001
1	 6.380425705688562e-001	 1.109642693118966e+000	-2.496451673350809e+001
1	 6.259683111938496e-001	 1.116498523855156e+000	-2.499703767673162e+001
1	 7.476937321548192e-001	 1.047123819331021e+000	-2.328471649736534e+001
1	 7.361663948966012e-001	 1.055259806495660e+000	-2.358331525740703e+001
1	 7.245618257986405e-001	 1.063261213302959e+000	-2.386065501387985e+001
1	 7.128823581729309e-001	 1.071126991189482e+000	-2.411486465969342e+001
1	 7.011303428960075e-001	 1.078856144985671e+000	-2.434404381502991e+001
1	 6.893081468997159e-001	 1.086447733234689e+000	-2.454626704530906e+001
1	 6.774181516572720e-001	 1.093900868460696e+000	-2.471958809623613e+001
1	 6.654627516665709e-001	 1.101214717386616e+000	-2.486204413658321e+001
1	 6.534443529326648e-001	 1.108388501101529e+000	-2.497165999942650e+001
1	 6.413653714513354e-001	 1.115421495177917e+000	-2.504645241267479e+001
1	 6.292282316956586e-001	 1.122313029739053e+000	-2.508443420984625e+001
1	 7.515674015218692e-001	 1.052548783177006e+000	-2.332148800994382e+001
1	 7.399803431622750e-001	 1.060726921456431e+000	-2.362301173087007e+001
1	 7.283156528384416e-001	 1.068769782141392e+000	-2.390349244932374e+001
1	 7.165756759508271e-001	 1.076676311236026e+000	-2.416107784175600e+001
1	 7.047627755554287e-001	 1.084445508414972e+000	-2.439388500140768e+001
1	 6.928793308467321e-001	 1.092076427343866e+000	-2.460000466781474e+001
1	 6.809277356359335e-001	 1.099568175949008e+000	-2.477750547550255e+001
1	 6.689103968263844e-001	 1.106919916636253e+000	-2.492443821245181e+001
1	 6.568297328882107e-001	 1.114130866459280e+000	-2.503884007900130e+001
1	 6.446881723340283e-001	 1.121200297237431e+000	-2.511873893794490e+001
1	 6.324881521976661e-001	 1.128127535623464e+000	-2.516215754671197e+001
1	 7.554410708890518e-001	 1.057973747023426e+000	-2.334996551108186e+001
1	 7.437942914280661e-001	 1.066194036417681e+000	-2.365426815832407e+001
1	 7.320694798783510e-001	 1.074278350980339e+000	-2.393771589354341e+001
1	 7.202689937288270e-001	 1.082225631283110e+000	-2.419848552574472e+001
1	 7.083952082149517e-001	 1.090034871844829e+000	-2.443472218573267e+001
1	 6.964505147938526e-001	 1.097705121453605e+000	-2.464454354651486e+001
1	 6.844373196147021e-001	 1.105235483437879e+000	-2.482604406482566e+001
1	 6.723580419863073e-001	 1.112625115886439e+000	-2.497729923433942e+001
1	 6.602151128438665e-001	 1.119873231817559e+000	-2.509636984121457e+001
1	 6.480109732168280e-001	 1.126979099297446e+000	-2.518130621270309e+001
1	 6.357480726997732e-001	 1.133942041508339e+000	-2.523015244968430e+001
1	 7.593147402563171e-001	 1.063398710870180e+000	-2.337004382644713e+001
1	 7.476082396939174e-001	 1.071661151379311e+000	-2.367697302985867e+001
1	 7.358233069183023e-001	 1.079786919819701e+000	-2.396321047862855e+001
1	 7.239623115068550e-001	 1.087774951330634e+000	-2.422697230356017e+001
1	 7.120276408744931e-001	 1.095624235275144e+000	-2.446644207564628e+001
1	 7.000216987409835e-001	 1.103333815563813e+000	-2.467977499690312e+001
1	 6.879469035934759e-001	 1.110902790927220e+000	-2.486510211408547e+001
1	 6.758056871462324e-001	 1.118330315137091e+000	-2.502053454588429e+001
1	 6.636004927995226e-001	 1.125615597176293e+000	-2.514416771426985e+001
1	 6.513337740996277e-001	 1.132757901357899e+000	-2.523408557073317e+001
1	 6.390079932018798e-001	 1.139756547393630e+000	-2.528836480830460e+001
1	 7.631884096236152e-001	 1.068823674717169e+000	-2.338161991701479e+001
1	 7.514221879597717e-001	 1.077128266341220e+000	-2.369101709949846e+001
1	 7.395771339582310e-001	 1.085295488659378e+000	-2.397986366878032e+001
1	 7.276556292848365e-001	 1.093324271378501e+000	-2.424642511018134e+001
1	 7.156600735339670e-001	 1.101213598705821e+000	-2.448893367891326e+001
1	 7.035928826880307e-001	 1.108962509674396e+000	-2.470559254104553e+001
1	 6.914564875721528e-001	 1.116570098416944e+000	-2.489457993894822e+001
1	 6.792533323060526e-001	 1.124035514388128e+000	-2.505405337188477e+001
1	 6.669858727550704e-001	 1.131357962535409e+000	-2.518215378248505e+001
1	 6.546565749823209e-001	 1.138536703418727e+000	-2.527700973991758e+001
1	 6.422679137038875e-001	 1.145571053279286e+000	-2.533674161069358e+001
1	 7.670620789908954e-001	 1.074248638564292e+000	-2.338459282514979e+001
1	 7.552361362255734e-001	 1.082595381303309e+000	-2.369629332803929e+001
1	 7.433309609980717e-001	 1.090804057499271e+000	-2.398756520142470e+001
1	 7.313489470626963e-001	 1.098873591426612e+000	-2.425673316450240e+001
1	 7.192925061932891e-001	 1.106802962136764e+000	-2.450208824534302e+001
1	 7.071640666348995e-001	 1.114591203785260e+000	-2.472189185186358e+001
1	 6.949660715506316e-001	 1.122237405906962e+000	-2.491437986870468e+001
1	 6.827009774656603e-001	 1.129740713639465e+000	-2.507776677079870e+001
1	 6.703712527104010e-001	 1.137100327894832e+000	-2.521024974447624e+001
1	 6.579793758648006e-001	 1.144315505479867e+000	-2.531001280703597e+001
1	 6.455278342056967e-001	 1.151385559165260e+000	-2.537523091581273e+001
1	 7.709357483581073e-001	 1.079673602411449e+000	-2.337886362231660e+001
1	 7.590500844912653e-001	 1.088062496265476e+000	-2.369269682760599e+001
1	 7.470847880377584e-001	 1.096312626339279e+000	-2.398620703010244e+001
1	 7.350422648403597e-001	 1.104422911474868e+000	-2.425778791195405e+001
1	 7.229249388523744e-001	 1.112392325567876e+000	-2.450579921046247e+001
1	 7.107352505814967e-001	 1.120219897896312e+000	-2.472857069909871e+001
1	 6.984756555288101e-001	 1.127904713397183e+000	-2.492440619568230e+001
1	 6.861486226249490e-001	 1.135445912891022e+000	-2.509158758867718e+001
1	 6.737566326654046e-001	 1.142842693254488e+000	-2.522837887260030e+001
1	 6.613021767469600e-001	 1.150094307541256e+000	-2.533303018362595e+001
1	 6.487877547072080e-001	 1.157200065051501e+000	-2.540378182656109e+001
1	 7.748094177252015e-001	 1.085098566258542e+000	-2.336433535835609e+001
1	 7.628640327567904e-001	 1.093529611227624e+000	-2.368012480787547e+001
1	 7.508386150772266e-001	 1.101821195179304e+000	-2.397568326907080e+001
1	 7.387355826177516e-001	 1.109972231523171e+000	-2.424948296884429e+001
1	 7.265573715111381e-001	 1.117981688999059e+000	-2.449996214087867e+001
1	 7.143064345277267e-001	 1.125848592007459e+000	-2.472552889689560e+001
1	 7.019852395065859e-001	 1.133572020887520e+000	-2.492456512617321e+001
1	 6.895962677838112e-001	 1.141151112142714e+000	-2.509543041447862e+001
1	 6.771420126199729e-001	 1.148585058614304e+000	-2.523646597361647e+001
1	 6.646249776286930e-001	 1.155873109602832e+000	-2.534599857286715e+001
1	 6.520476752083220e-001	 1.163014570937961e+000	-2.542234446367915e+001
1	 6.194484701912242e-001	 1.104869512089097e+000	-2.479345178621769e+001
1	 6.074469153977586e-001	 1.111513082578307e+000	-2.479049845586904e+001
1	 5.953929149789650e-001	 1.118016277482769e+000	-2.477739074968403e+001
1	 5.832888714389555e-001	 1.124378599478121e+000	-2.475404710916068e+001
1	 5.711371897061307e-001	 1.130599604698523e+000	-2.472042092522004e+001
1	 5.589402756857406e-001	 1.136678902563766e+000	-2.467649914061099e+001
1	 5.467005348259916e-001	 1.142616155560737e+000	-2.462230081900795e+001
1	 5.344203706993144e-001	 1.148411078980047e+000	-2.455787568460927e+001
1	 5.221021836003700e-001	 1.154063440608706e+000	-2.448330263604280e+001
1	 5.097483691623167e-001	 1.159573060379774e+000	-2.439868823837673e+001
1	 4.973613169928101e-001	 1.164939809979976e+000	-2.430416519700909e+001
1	 6.227083906923382e-001	 1.110684017971820e+000	-2.490002434170207e+001
1	 6.106436763038349e-001	 1.117362551032718e+000	-2.490306720219193e+001
1	 5.985262402887011e-001	 1.123899969765807e+000	-2.489665203031247e+001
1	 5.863584977945159e-001	 1.130295774229504e+000	-2.488062979419284e+001
1	 5.741428664059041e-001	 1.136549518222081e+000	-2.485488546538868e+001
1	 5.618817646894811e-001	 1.142660809107865e+000	-2.481933673725297e+001
1	 5.495776107524130e-001	 1.148629307597547e+000	-2.477393270984498e+001
1	 5.372328208162185e-001	 1.154454727483429e+000	-2.471865254495531e+001
1	 5.248498078073973e-001	 1.160136835330483e+000	-2.465350409482868e+001
1	 5.124309799664153e-001	 1.165675450124152e+000	-2.457852250816483e+001
1	 4.999787394765237e-001	 1.171070442875904e+000	-2.449376881695515e+001
1	 6.259683111938496e-001	 1.116498523855156e+000	-2.499703767673162e+001
1	 6.138404372102554e-001	 1.123212019487647e+000	-2.500608435003492e+001
1	 6.016595655987103e-001	 1.129783662049258e+000	-2.500642725273237e+001
1	 5.894281241502638e-001	 1.136212948981187e+000	-2.499784355011523e+001
1	 5.771485431057702e-001	 1.142499431745827e+000	-2.498014328919645e+001
1	 5.648232536932151e-001	 1.148642715652043e+000	-2.495316824769951e+001
1	 5.524546866787283e-001	 1.154642459634335e+000	-2.491679074950604e+001
1	 5.400452709329230e-001	 1.160498375986704e+000	-2.487091244987481e+001
1	 5.275974320141417e-001	 1.166210230052084e+000	-2.481546309376038e+001
1	 5.151135907701613e-001	 1.171777839868310e+000	-2.475039925056428e+001
1	 5.025961619598355e-001	 1.177201075771599e+000	-2.467570302862452e+001
1	 6.292282316956586e-001	 1.122313029739053e+000	-2.508443420984625e+001
1	 6.170371981169345e-001	 1.129061487943062e+000	-2.509950742781947e+001
1	 6.047928909089244e-001	 1.135667354333106e+000	-2.510668673684367e+001
1	 5.924977505061525e-001	 1.142130123733177e+000	-2.510566927632266e+001
1	 5.801542198057059e-001	 1.148449345269787e+000	-2.509618377132934e+001
1	 5.677647426969439e-001	 1.154624622196344e+000	-2.507798952675009e+001
1	 5.553317626049646e-001	 1.160655611671164e+000	-2.505087538787497e+001
1	 5.428577210494782e-001	 1.166542024489948e+000	-2.501465867046038e+001
1	 5.303450562206735e-001	 1.172283624773600e+000	-2.496918406330532e+001
1	 5.177962015736434e-001	 1.177880229612347e+000	-2.491432250638632e+001
1	 5.052135844428459e-001	 1.183331708667162e+000	-2.484997004759522e+001
1	 6.324881521976661e-001	 1.128127535623464e+000	-2.516215754671197e+001
1	 6.202339590237862e-001	 1.134910956398930e+000	-2.518329483957972e+001
1	 6.079262162192751e-001	 1.141551046617340e+000	-2.519740141444498e+001
1	 5.955673768621347e-001	 1.148047298485480e+000	-2.520408826599651e+001
1	 5.831598965056877e-001	 1.154399258793986e+000	-2.520299650552993e+001
1	 5.707062317006689e-001	 1.160606528740813e+000	-2.519379651466302e+001
1	 5.582088385311482e-001	 1.166668763708096e+000	-2.517618706555961e+001
1	 5.456701711659332e-001	 1.172585672993239e+000	-2.514989441036699e+001
1	 5.330926804270640e-001	 1.178357019495120e+000	-2.511467134259011e+001
1	 5.204788123769490e-001	 1.183982619356362e+000	-2.507029623313595e+001
1	 5.078310069256554e-001	 1.189462341562693e+000	-2.501657204376902e+001
1	 6.357480726997732e-001	 1.133942041508339e+000	-2.523015244968430e+001
1	 6.234307199307241e-001	 1.140760424855218e+000	-2.525740584251418e+001
1	 6.110595415296942e-001	 1.147434738901945e+000	-2.527854281354495e+001
1	 5.986370032181640e-001	 1.153964473238100e+000	-2.529308219600875e+001
1	 5.861655732056927e-001	 1.160349172318449e+000	-2.530057129898073e+001
1	 5.736477207043924e-001	 1.166588435285495e+000	-2.530058523496564e+001
1	 5.610859144573051e-001	 1.172681915745194e+000	-2.529272621413183e+001
1	 5.484826212823386e-001	 1.178629321496656e+000	-2.527662280754076e+001
1	 5.358403046333832e-001	 1.184430414216734e+000	-2.525192918174435e+001
1	 5.231614231801670e-001	 1.190085009100450e+000	-2.521832430714789e+001
1	 5.104484294083644e-001	 1.195592974458290e+000	-2.517551114254230e+001
1	 6.390079932018798e-001	 1.139756547393630e+000	-2.528836480830459e+001
1	 6.266274808376618e-001	 1.146609893311894e+000	-2.532180052522388e+001
1	 6.141928668401129e-001	 1.153318431186906e+000	-2.535008304315512e+001
1	 6.017066295741932e-001	 1.159881647991045e+000	-2.537263311713589e+001
1	 5.891712499056977e-001	 1.166299085843203e+000	-2.538889816686018e+001
1	 5.765892097081161e-001	 1.172570341830435e+000	-2.539835179232917e+001
1	 5.639629903834620e-001	 1.178695067782521e+000	-2.540049325635703e+001
1	 5.512950713987439e-001	 1.184672970000277e+000	-2.539484693589484e+001
1	 5.385879288397028e-001	 1.190503808938531e+000	-2.538096174416917e+001
1	 5.258440339833846e-001	 1.196187398844709e+000	-2.535841052565662e+001
1	 5.130658518910735e-001	 1.201723607354055e+000	-2.532678942594172e+001
1	 6.422679137038875e-001	 1.145571053279286e+000	-2.533674161069358e+001
1	 6.298242417445136e-001	 1.152459361768924e+000	-2.537643978661185e+001
1	 6.173261921504638e-001	 1.159202123472209e+000	-2.541199477854502e+001
1	 6.047762559301755e-001	 1.165798822744318e+000	-2.544272344456869e+001
1	 5.921769266056797e-001	 1.172248999368273e+000	-2.546796732706405e+001
1	 5.795306987118414e-001	 1.178552248375679e+000	-2.548709237051110e+001
1	 5.668400663096455e-001	 1.184708219820140e+000	-2.549948860641790e+001
1	 5.541075215151993e-001	 1.190716618504179e+000	-2.550456980693537e+001
1	 5.413355530460930e-001	 1.196577203660602e+000	-2.550177310873954e+001
1	 5.285266447866905e-001	 1.202289788589236e+000	-2.549055860880487e+001
1	 5.156832743738828e-001	 1.207854240250086e+000	-2.547040893372500e+001
1	 6.455278342056967e-001	 1.151385559165260e+000	-2.537523091581273e+001
1	 6.330210026511927e-001	 1.158308830226277e+000	-2.542128531542428e+001
1	 6.204595174606779e-001	 1.165085815757842e+000	-2.546425124694338e+001
1	 6.078458822860643e-001	 1.171715997497927e+000	-2.550333594871138e+001
1	 5.951826033056150e-001	 1.178198912893685e+000	-2.553776919508734e+001
1	 5.824721877155701e-001	 1.184534154921272e+000	-2.556680323035685e+001
1	 5.697171422358817e-001	 1.190721371858112e+000	-2.558971267013127e+001
1	 5.569199716317543e-001	 1.196760267008440e+000	-2.560579437133693e+001
1	 5.440831772526249e-001	 1.202650598383037e+000	-2.561436727193787e+001
1	 5.312092555901725e-001	 1.208392178334129e+000	-2.561477220158872e+001
1	 5.183006968568933e-001	 1.213984873146484e+000	-2.560637166444775e+001
1	 6.487877547072080e-001	 1.157200065051501e+000	-2.540378182656109e+001
1	 6.362177635576135e-001	 1.164158298683920e+000	-2.545629957040587e+001
1	 6.235928427706872e-001	 1.170969508043789e+000	-2.550682621367234e+001
1	 6.109155086418121e-001	 1.177633172251877e+000	-2.555445374625815e+001
1	 5.981882800054812e-001	 1.184148826419464e+000	-2.559829437905978e+001
1	 5.854136767193040e-001	 1.190516061467257e+000	-2.563748070786481e+001
1	 5.725942181621971e-001	 1.196734523896502e+000	-2.567116584515909e+001
1	 5.597324217484589e-001	 1.202803915513138e+000	-2.569852352047054e+001
1	 5.468308014593691e-001	 1.208723993105924e+000	-2.571874814992450e+001
1	 5.338918663939186e-001	 1.214494568079485e+000	-2.573105487574753e+001
1	 5.209181193402052e-001	 1.220115506043348e+000	-2.573467957649912e+001
1	 6.520476752083220e-001	 1.163014570937961e+000	-2.542234446367915e+001
1	 6.394145244636896e-001	 1.170007767141820e+000	-2.548144576105337e+001
1	 6.267261680804235e-001	 1.176853200330036e+000	-2.553969396869651e+001
1	 6.139851349973728e-001	 1.183550347006173e+000	-2.559606029153636e+001
1	 6.011939567052548e-001	 1.190098739945637e+000	-2.564953367493034e+001
1	 5.883551657230446e-001	 1.196497968013681e+000	-2.569912121230605e+001
1	 5.754712940886185e-001	 1.202747675935370e+000	-2.574384852121113e+001
1	 5.625448718653630e-001	 1.208847564018352e+000	-2.578276008788708e+001
1	 5.495784256663967e-001	 1.214797387829354e+000	-2.581491958054586e+001
1	 5.365744771980170e-001	 1.220596957825402e+000	-2.583941013159418e+001
1	 5.235355418239186e-001	 1.226246138940778e+000	-2.585533458910599e+001
1	 4.973613169928101e-001	 1.164939809979976e+000	-2.430416519700908e+001
1	 4.849415443640922e-001	 1.170164385490992e+000	-2.420651273774576e+001
1	 4.724932822016347e-001	 1.175245945703767e+000	-2.411258805475374e+001
1	 4.600188957060533e-001	 1.180184515739950e+000	-2.402263969290316e+001
1	 4.475207387868734e-001	 1.184980170535832e+000	-2.393694739234908e+001
1	 4.350011528162667e-001	 1.189633034254827e+000	-2.385581949618673e+001
1	 4.224624654102122e-001	 1.194143279664885e+000	-2.377959036214738e+001
1	 4.099069892381355e-001	 1.198511127482119e+000	-2.370861778403221e+001
1	 3.973370208620145e-001	 1.202736845682000e+000	-2.364328042842889e+001
1	 3.847548396058734e-001	 1.206820748779484e+000	-2.358397529207725e+001
1	 3.721627064565229e-001	 1.210763197079439e+000	-2.353111518506685e+001
1	 4.999787394765237e-001	 1.171070442875904e+000	-2.449376881695515e+001
1	 4.874936063321755e-001	 1.176322513330638e+000	-2.440608657546132e+001
1	 4.749798337245845e-001	 1.181430815852335e+000	-2.432243864950095e+001
1	 4.624397993015102e-001	 1.186395375694847e+000	-2.424306835171437e+001
1	 4.498758693602014e-001	 1.191216268188818e+000	-2.416825035396464e+001
1	 4.372903975945733e-001	 1.195893618151085e+000	-2.409828807437459e+001
1	 4.246857238699564e-001	 1.200427599258805e+000	-2.403351106859596e+001
1	 4.120641730264684e-001	 1.204818433389632e+000	-2.397427243106423e+001
1	 3.994280537120125e-001	 1.209066389929284e+000	-2.392094621182363e+001
1	 3.867796572458213e-001	 1.213171785047885e+000	-2.387392485433372e+001
1	 3.741212565134123e-001	 1.217134980946448e+000	-2.383361665948140e+001
1	 5.025961619598355e-001	 1.177201075771599e+000	-2.467570302862452e+001
1	 4.900456682998302e-001	 1.182480641170070e+000	-2.459828257754859e+001
1	 4.774663852470992e-001	 1.187615686000735e+000	-2.452521534696614e+001
1	 4.648607028965427e-001	 1.192606235649638e+000	-2.445674525826284e+001
1	 4.522309999331303e-001	 1.197452365841777e+000	-2.439314781430131e+001
1	 4.395796423725173e-001	 1.202154202047399e+000	-2.433472745427075e+001
1	 4.269089823293816e-001	 1.206711918852863e+000	-2.428181491308688e+001
1	 4.142213568145308e-001	 1.211125739297355e+000	-2.423476459115568e+001
1	 4.015190865617894e-001	 1.215395934176837e+000	-2.419395194015917e+001
1	 3.888044748855962e-001	 1.219522821316593e+000	-2.415977087033157e+001
1	 3.760798065701715e-001	 1.223506764813771e+000	-2.413263118451442e+001
1	 5.052135844428459e-001	 1.183331708667162e+000	-2.484997004759521e+001
1	 4.925977302671635e-001	 1.188638769009385e+000	-2.478310117398750e+001
1	 4.799529367692876e-001	 1.193800556149054e+000	-2.472091816735593e+001
1	 4.672816064912577e-001	 1.198817095604402e+000	-2.466367130257428e+001
1	 4.545861305057600e-001	 1.203688463494771e+000	-2.461164271606487e+001
1	 4.418688871501896e-001	 1.208414785943816e+000	-2.456514371699584e+001
1	 4.291322407885680e-001	 1.212996238447089e+000	-2.452451210346122e+001
1	 4.163785406023902e-001	 1.217433045205305e+000	-2.449010948954489e+001
1	 4.036101194114010e-001	 1.221725478424662e+000	-2.446231864901219e+001
1	 3.908292925252412e-001	 1.225873857585598e+000	-2.444154088118177e+001
1	 3.780383566268333e-001	 1.229878548681392e+000	-2.442819340434309e+001
1	 5.078310069256554e-001	 1.189462341562693e+000	-2.501657204376902e+001
1	 4.951497922342820e-001	 1.194796896848678e+000	-2.496054278589531e+001
1	 4.824394882912584e-001	 1.199985426297380e+000	-2.490954713046194e+001
1	 4.697025100857603e-001	 1.205027955559215e+000	-2.486384735632613e+001
1	 4.569412610781906e-001	 1.209924561147862e+000	-2.482373794129448e+001
1	 4.441581319276803e-001	 1.214675369840381e+000	-2.478954281830053e+001
1	 4.313554992475949e-001	 1.219280558041513e+000	-2.476161263711186e+001
1	 4.185357243901147e-001	 1.223740351113495e+000	-2.474032203758060e+001
1	 4.057011522609020e-001	 1.228055022672757e+000	-2.472606694028090e+001
1	 3.928541101647999e-001	 1.232224893854889e+000	-2.471926186019516e+001
1	 3.799969066834300e-001	 1.236250332549295e+000	-2.472033724890377e+001
1	 5.104484294083644e-001	 1.195592974458290e+000	-2.517551114254230e+001
1	 4.977018542012933e-001	 1.200955024688048e+000	-2.513060782575264e+001
1	 4.849260398131204e-001	 1.206170296445803e+000	-2.509110225567076e+001
1	 4.721234136801572e-001	 1.211238815514154e+000	-2.505727427331831e+001
1	 4.592963916505213e-001	 1.216160658801114e+000	-2.502943631291767e+001
1	 4.464473767050806e-001	 1.220935953737142e+000	-2.500793059177915e+001
1	 4.335787577065425e-001	 1.225564877636165e+000	-2.499312630637823e+001
1	 4.206929081777716e-001	 1.230047657021941e+000	-2.498541684076879e+001
1	 4.077921851103478e-001	 1.234384566921126e+000	-2.498521699330347e+001
1	 3.948789278043151e-001	 1.238575930124457e+000	-2.499296022743929e+001
1	 3.819554567399942e-001	 1.242622116417461e+000	-2.500909595220422e+001
1	 5.130658518910735e-001	 1.201723607354055e+000	-2.532678942594172e+001
1	 5.002539161683045e-001	 1.207113152527589e+000	-2.529329669762459e+001
1	 4.874125913349823e-001	 1.212355166594411e+000	-2.526558356197538e+001
1	 4.745443172745539e-001	 1.217449675469295e+000	-2.524395288992942e+001
1	 4.616515222228522e-001	 1.222396756454587e+000	-2.522874059625805e+001
1	 4.487366214824807e-001	 1.227196537634143e+000	-2.522031275198660e+001
1	 4.358020161654897e-001	 1.231849197231075e+000	-2.521906270377703e+001
1	 4.228500919654282e-001	 1.236354962930655e+000	-2.522540820657484e+001
1	 4.098832179597938e-001	 1.240714111169767e+000	-2.523978857563630e+001
1	 3.969037454438305e-001	 1.244926966394291e+000	-2.526266186385156e+001
1	 3.839140067965583e-001	 1.248993900285875e+000	-2.529450207007502e+001
1	 5.156832743738828e-001	 1.207854240250086e+000	-2.547040893372500e+001
1	 5.028059781354233e-001	 1.213271280367399e+000	-2.544860979737350e+001
1	 4.898991428569532e-001	 1.218540036743292e+000	-2.543299106798406e+001
1	 4.769652208690566e-001	 1.223660535424715e+000	-2.542388402555894e+001
1	 4.640066527952827e-001	 1.228632854108345e+000	-2.542165350049771e+001
1	 4.510258662599716e-001	 1.233457121531433e+000	-2.542669489745848e+001
1	 4.380252746245167e-001	 1.238133516826273e+000	-2.543943122707299e+001
1	 4.250072757531527e-001	 1.242662268839654e+000	-2.546031015198665e+001
1	 4.119742508092950e-001	 1.247043655418682e+000	-2.548980105350467e+001
1	 3.989285630833890e-001	 1.251278002664381e+000	-2.552839212492028e+001
1	 3.858725568531548e-001	 1.255365684154519e+000	-2.557658749738088e+001
1	 5.183006968568933e-001	 1.213984873146484e+000	-2.560637166444775e+001
1	 5.053580401027563e-001	 1.219429408207575e+000	-2.559654751286762e+001
1	 4.923856943791415e-001	 1.224724906892536e+000	-2.559332479193084e+001
1	 4.793861244637714e-001	 1.229871395380491e+000	-2.559706848305526e+001
1	 4.663617833679127e-001	 1.234868951762450e+000	-2.560817768009392e+001
1	 4.533151110376437e-001	 1.239717705429057e+000	-2.562708251364125e+001
1	 4.402485330837031e-001	 1.244417836421790e+000	-2.565424108419742e+001
1	 4.271644595410123e-001	 1.248969574748952e+000	-2.569013641084961e+001
1	 4.140652836589063e-001	 1.253373199667872e+000	-2.573527340193683e+001
1	 4.009533807230341e-001	 1.257629038934719e+000	-2.579017585395259e+001
1	 3.878311069098167e-001	 1.261737468023377e+000	-2.585538348470916e+001
1	 5.209181193402052e-001	 1.220115506043348e+000	-2.573467957649911e+001
1	 5.079101020704109e-001	 1.225587536048212e+000	-2.573711022418035e+001
1	 4.948722459016564e-001	 1.230909777042229e+000	-2.574658475168443e+001
1	 4.818070280588042e-001	 1.236082255336699e+000	-2.576350704913295e+001
1	 4.687169139408416e-001	 1.241105049416963e+000	-2.578831573615500e+001
1	 4.556043558155877e-001	 1.245978289327062e+000	-2.582148097573297e+001
1	 4.424717915431284e-001	 1.250702156017655e+000	-2.586350129801614e+001
1	 4.293216433290747e-001	 1.255276880658563e+000	-2.591490044097936e+001
1	 4.161563165086835e-001	 1.259702743917338e+000	-2.597622421459058e+001
1	 4.029781983628090e-001	 1.263980075205293e+000	-2.604803739494295e+001
1	 3.897896569665759e-001	 1.268109251892432e+000	-2.613092065455712e+001
1	 5.235355418239186e-001	 1.226246138940778e+000	-2.585533458910599e+001
1	 5.104621640384944e-001	 1.231745663889408e+000	-2.587029830378664e+001
1	 4.973587974246062e-001	 1.237094647192462e+000	-2.589277096475817e+001
1	 4.842279316542609e-001	 1.242293115293416e+000	-2.592320049477431e+001
1	 4.710720445141691e-001	 1.247341147071947e+000	-2.596207021777301e+001
1	 4.578936005938943e-001	 1.252238873225494e+000	-2.600989555143905e+001
1	 4.446950500028725e-001	 1.256986475613899e+000	-2.606722071095689e+001
1	 4.314788271174074e-001	 1.261584186568501e+000	-2.613461543106298e+001
1	 4.182473493586813e-001	 1.266032288167079e+000	-2.621267171328833e+001
1	 4.050030160027568e-001	 1.270331111476093e+000	-2.630200060505340e+001
1	 3.917482070234653e-001	 1.274481035761665e+000	-2.640322901703194e+001
1	 3.721627064565229e-001	 1.210763197079439e+000	-2.353111518506685e+001
1	 3.595628628164873e-001	 1.214564595596418e+000	-2.348646867485884e+001
1	 3.469575289482251e-001	 1.218225392345035e+000	-2.345130745314907e+001
1	 3.343489035444823e-001	 1.221746078421927e+000	-2.342531423910689e+001
1	 3.217391629455186e-001	 1.225127187456663e+000	-2.340817724156481e+001
1	 3.091304602063712e-001	 1.228369294737240e+000	-2.339958894744163e+001
1	 2.965249241990276e-001	 1.231473016314503e+000	-2.339924493918290e+001
1	 2.839246587499008e-001	 1.234439008086931e+000	-2.340684274334738e+001
1	 2.713317418129375e-001	 1.237267964867259e+000	-2.342208071232596e+001
1	 2.587482246786292e-001	 1.239960619432395e+000	-2.344465694102356e+001
1	 2.461761312191269e-001	 1.242517741558077e+000	-2.347426822019434e+001
1	 3.741212565134123e-001	 1.217134980946448e+000	-2.383361665948140e+001
1	 3.614551047129524e-001	 1.220956384770954e+000	-2.380171688821985e+001
1	 3.487834337912915e-001	 1.224636446893741e+000	-2.377937546757394e+001
1	 3.361084540120542e-001	 1.228175660995894e+000	-2.376619806730013e+001
1	 3.234323531687461e-001	 1.231574563515257e+000	-2.376179610223632e+001
1	 3.107572956471090e-001	 1.234833732767343e+000	-2.376578562896941e+001
1	 2.980854215225695e-001	 1.237953788045028e+000	-2.377778626873532e+001
1	 2.854188456931736e-001	 1.240935388698524e+000	-2.379742015853596e+001
1	 2.727596570483444e-001	 1.243779233197095e+000	-2.382431093233605e+001
1	 2.601099176737307e-001	 1.246486058173964e+000	-2.385808273405370e+001
1	 2.474716620923479e-001	 1.249056637455896e+000	-2.389835926392939e+001
1	 3.760798065701715e-001	 1.223506764813771e+000	-2.413263118451442e+001
1	 3.633473466093230e-001	 1.227348173945781e+000	-2.411415265437266e+001
1	 3.506093386342929e-001	 1.231047501442685e+000	-2.410534950263282e+001
1	 3.378680044795857e-001	 1.234605243570019e+000	-2.410573866529680e+001
1	 3.251255433919547e-001	 1.238021939573915e+000	-2.411484303325158e+001
1	 3.123841310878484e-001	 1.241298170797400e+000	-2.413219047850356e+001
1	 2.996459188461332e-001	 1.244434559775390e+000	-2.415731290341734e+001
1	 2.869130326364904e-001	 1.247431769309838e+000	-2.418974531479518e+001
1	 2.741875722838213e-001	 1.250290501526536e+000	-2.422902492448422e+001
1	 2.614716106689327e-001	 1.253011496915032e+000	-2.427469027810051e+001
1	 2.487671929657066e-001	 1.255595533353124e+000	-2.432628041330815e+001
1	 3.780383566268333e-001	 1.229878548681392e+000	-2.442819340434309e+001
1	 3.652395885056231e-001	 1.233739963120879e+000	-2.442381683722412e+001
1	 3.524352434772453e-001	 1.237458555991848e+000	-2.442927446513442e+001
1	 3.396275549470866e-001	 1.241034826144292e+000	-2.444398298959531e+001
1	 3.268187336151491e-001	 1.244469315632632e+000	-2.446736523120331e+001
1	 3.140109665285887e-001	 1.247762608827421e+000	-2.449884930656590e+001
1	 3.012064161697134e-001	 1.250915331505614e+000	-2.453786782460393e+001
1	 2.884072195798406e-001	 1.253928149920910e+000	-2.458385710384747e+001
1	 2.756154875193506e-001	 1.256801769855639e+000	-2.463625641223601e+001
1	 2.628333036642103e-001	 1.259536935655672e+000	-2.469450723083318e+001
1	 2.500627238391685e-001	 1.262134429249846e+000	-2.475805254274848e+001
1	 3.799969066834300e-001	 1.236250332549295e+000	-2.472033724890377e+001
1	 3.671318304018756e-001	 1.240131752296229e+000	-2.473074945821126e+001
1	 3.542611483201653e-001	 1.243869610541214e+000	-2.475119433606535e+001
1	 3.413871054145674e-001	 1.247464408718702e+000	-2.478097702861717e+001
1	 3.285119238383341e-001	 1.250916691691410e+000	-2.481940891965626e+001
1	 3.156378019693297e-001	 1.254227046857416e+000	-2.486580697922729e+001
1	 3.027669134933046e-001	 1.257396103235724e+000	-2.491949312754478e+001
1	 2.899014065232127e-001	 1.260424530531780e+000	-2.497979361560513e+001
1	 2.770434027549148e-001	 1.263313038184454e+000	-2.504603842379698e+001
1	 2.641949966595379e-001	 1.266062374395950e+000	-2.511756067971802e+001
1	 2.513582547126994e-001	 1.268673325146146e+000	-2.519369609631032e+001
1	 3.819554567399942e-001	 1.242622116417461e+000	-2.500909595220422e+001
1	 3.690240722981045e-001	 1.246523541471813e+000	-2.503498971790070e+001
1	 3.560870531630689e-001	 1.250280665090766e+000	-2.507115219433037e+001
1	 3.431466558820381e-001	 1.253893991293237e+000	-2.511676582752564e+001
1	 3.302051140615145e-001	 1.257364067750244e+000	-2.517101937409430e+001
1	 3.172646374100713e-001	 1.260691484887395e+000	-2.523310744232012e+001
1	 3.043274108169011e-001	 1.263876874965741e+000	-2.530223004408325e+001
1	 2.913955934665959e-001	 1.266920911142484e+000	-2.537759215872636e+001
1	 2.784713179904966e-001	 1.269824306513037e+000	-2.545840330993898e+001
1	 2.655566896548907e-001	 1.272587813135937e+000	-2.554387715663424e+001
1	 2.526537855862645e-001	 1.275212221042108e+000	-2.563323109872991e+001
1	 3.839140067965583e-001	 1.248993900285875e+000	-2.529450207007502e+001
1	 3.709163141943336e-001	 1.252915330647610e+000	-2.533657601692836e+001
1	 3.579129580059725e-001	 1.256691719640487e+000	-2.538919023975935e+001
1	 3.449062063495089e-001	 1.260323573867889e+000	-2.545139351228660e+001
1	 3.318983042846948e-001	 1.263811443809134e+000	-2.552224094610353e+001
1	 3.188914728508125e-001	 1.267155922917366e+000	-2.560079374491322e+001
1	 3.058879081404977e-001	 1.270357646695690e+000	-2.568611896468054e+001
1	 2.928897804099790e-001	 1.273417291753062e+000	-2.577728928054388e+001
1	 2.798992332260782e-001	 1.276335574841441e+000	-2.587338276127862e+001
1	 2.669183826502436e-001	 1.279113251875703e+000	-2.597348265204870e+001
1	 2.539493164598297e-001	 1.281751116937818e+000	-2.607667716611516e+001
1	 3.858725568531548e-001	 1.255365684154519e+000	-2.557658749738088e+001
1	 3.728085560905861e-001	 1.259307119823602e+000	-2.563554597629815e+001
1	 3.597388628488922e-001	 1.263102774190358e+000	-2.570534981541829e+001
1	 3.466657568169896e-001	 1.266753156442644e+000	-2.578490331299618e+001
1	 3.335914945078799e-001	 1.270258819868077e+000	-2.587311708682003e+001
1	 3.205183082915538e-001	 1.273620360947340e+000	-2.596890806206794e+001
1	 3.074484054640888e-001	 1.276838418425593e+000	-2.607119945976779e+001
1	 2.943839673533513e-001	 1.279913672363551e+000	-2.617892078638496e+001
1	 2.813271484616424e-001	 1.282846843169720e+000	-2.629100782503206e+001
1	 2.682800756455714e-001	 1.285638690615317e+000	-2.640640262875427e+001
1	 2.552448473333605e-001	 1.288290012833362e+000	-2.652405351631608e+001
1	 3.878311069098167e-001	 1.261737468023377e+000	-2.585538348470916e+001
1	 3.747007979868861e-001	 1.265698908999770e+000	-2.593193645706970e+001
1	 3.615647676918447e-001	 1.269513828740366e+000	-2.601967142924213e+001
1	 3.484253072844906e-001	 1.273182739017491e+000	-2.611733758650096e+001
1	 3.352846847310744e-001	 1.276706195927072e+000	-2.622369036966512e+001
1	 3.221451437322941e-001	 1.280084798977327e+000	-2.633749171690867e+001
1	 3.090089027876690e-001	 1.283319190155474e+000	-2.645751030045189e+001
1	 2.958781542967014e-001	 1.286410052973988e+000	-2.658252175830915e+001
1	 2.827550636971718e-001	 1.289358111497928e+000	-2.671130892125963e+001
1	 2.696417686408488e-001	 1.292164129354848e+000	-2.684266203519417e+001
1	 2.565403782068224e-001	 1.294828908728823e+000	-2.697537897898099e+001
1	 3.897896569665759e-001	 1.268109251892432e+000	-2.613092065455712e+001
1	 3.765930398832567e-001	 1.272090698176095e+000	-2.622578357944915e+001
1	 3.633906725348460e-001	 1.275924883290492e+000	-2.633219477501582e+001
1	 3.501848577520221e-001	 1.279612321592420e+000	-2.644873783833767e+001
1	 3.369778749542830e-001	 1.283153571986116e+000	-2.657400251239718e+001
1	 3.237719791730334e-001	 1.286549237007336e+000	-2.670658520202534e+001
1	 3.105694001112328e-001	 1.289799961885357e+000	-2.684508947859719e+001
1	 2.973723412400183e-001	 1.292906433584414e+000	-2.698812657327648e+001
1	 2.841829789326487e-001	 1.295869379826117e+000	-2.713431585862318e+001
1	 2.710034616360508e-001	 1.298689568094366e+000	-2.728228531838352e+001
1	 2.578359090801811e-001	 1.301367804624286e+000	-2.743067200530875e+001
1	 3.917482070234653e-001	 1.274481035761665e+000	-2.640322901703194e+001
1	 3.784852817797219e-001	 1.278482487352557e+000	-2.651712274130969e+001
1	 3.652165773779126e-001	 1.282335937840718e+000	-2.664295875272664e+001
1	 3.519444082195939e-001	 1.286041904167421e+000	-2.677914474401258e+001
1	 3.386710651775104e-001	 1.289600948045209e+000	-2.692409439850020e+001
1	 3.253988146137712e-001	 1.293013675037378e+000	-2.707622820023504e+001
1	 3.121298974347747e-001	 1.296280733615264e+000	-2.723397422630458e+001
1	 2.988665281832910e-001	 1.299402814194865e+000	-2.739576892077520e+001
1	 2.856108941680556e-001	 1.302380648154343e+000	-2.756005784966810e+001
1	 2.723651546311524e-001	 1.305215006833941e+000	-2.772529643644436e+001
1	 2.591314399534020e-001	 1.307906700519837e+000	-2.788995067750953e+001
1	 2.461761312191269e-001	 1.242517741558077e+000	-2.347426822019434e+001
1	 2.336193392906366e-001	 1.244939783937008e+000	-2.351046229865742e+001
1	 2.210779259163265e-001	 1.247227981585924e+000	-2.355294679075096e+001
1	 2.085538248764833e-001	 1.249383209995418e+000	-2.360163920194138e+001
1	 1.960489399594793e-001	 1.251406377632249e+000	-2.365645260356479e+001
1	 1.835651443891883e-001	 1.253298424920236e+000	-2.371729452129182e+001
1	 1.711042802883929e-001	 1.255060323214301e+000	-2.378406587204132e+001
1	 1.586681581779989e-001	 1.256693073768999e+000	-2.385665995035446e+001
1	 1.462585565118158e-001	 1.258197706702826e+000	-2.393496146507697e+001
1	 1.338772212466184e-001	 1.259575279959579e+000	-2.401884562705036e+001
1	 1.215258654471585e-001	 1.260826878268034e+000	-2.410817728834809e+001
1	 2.474716620923479e-001	 1.249056637455896e+000	-2.389835926392939e+001
1	 2.348487885680754e-001	 1.251491426117940e+000	-2.394463449650414e+001
1	 2.222413745294195e-001	 1.253791665676258e+000	-2.399655664826615e+001
1	 2.096513639334077e-001	 1.255958236228826e+000	-2.405395871083495e+001
1	 1.970806705873169e-001	 1.257992051023325e+000	-2.411667062806225e+001
1	 1.845311775730764e-001	 1.259894055432673e+000	-2.418451827795688e+001
1	 1.720047367078512e-001	 1.261665225923674e+000	-2.425732249857094e+001
1	 1.595031680406209e-001	 1.263306569020112e+000	-2.433489815881190e+001
1	 1.470282593845124e-001	 1.264819120261609e+000	-2.441705327499708e+001
1	 1.345817658845979e-001	 1.266203943159526e+000	-2.450358817382227e+001
1	 1.221654096208289e-001	 1.267462128151162e+000	-2.459429470227245e+001
1	 2.487671929657066e-001	 1.255595533353124e+000	-2.432628041330815e+001
1	 2.360782378456962e-001	 1.258043068298206e+000	-2.438322592908431e+001
1	 2.234048231427441e-001	 1.260355349765869e+000	-2.444511395104098e+001
1	 2.107489029906158e-001	 1.262533262461468e+000	-2.451169306674102e+001
1	 1.981124012154900e-001	 1.264577724413606e+000	-2.458271024330004e+001
1	 1.854972107573487e-001	 1.266489685944298e+000	-2.465790990253978e+001
1	 1.729051931277370e-001	 1.268270128632225e+000	-2.473703303556076e+001
1	 1.603381779037054e-001	 1.269920064270398e+000	-2.481981635765488e+001
1	 1.477979622576953e-001	 1.271440533819566e+000	-2.490599150434130e+001
1	 1.352863105230743e-001	 1.272832606358652e+000	-2.499528426917292e+001
1	 1.228049537949910e-001	 1.274097378033473e+000	-2.508741388383321e+001
1	 2.500627238391685e-001	 1.262134429249846e+000	-2.475805254274848e+001
1	 2.373076871234534e-001	 1.264594710477906e+000	-2.482625056679227e+001
1	 2.245682717562427e-001	 1.266919033854871e+000	-2.489862611781481e+001
1	 2.118464420480375e-001	 1.269108288693471e+000	-2.497484348611388e+001
1	 1.991441318439168e-001	 1.271163397803228e+000	-2.505456680966230e+001
1	 1.864632439419134e-001	 1.273085316455257e+000	-2.513745924226425e+001
1	 1.738056495479503e-001	 1.274875031340109e+000	-2.522318215653428e+001
1	 1.611731877671476e-001	 1.276533559520021e+000	-2.531139438257898e+001
1	 1.485676651312594e-001	 1.278061947376870e+000	-2.540175148312731e+001
1	 1.359908551619469e-001	 1.279461269557136e+000	-2.549390506574289e+001
1	 1.234444979695541e-001	 1.280732627915154e+000	-2.558750213262512e+001
1	 2.513582547126994e-001	 1.268673325146146e+000	-2.519369609631032e+001
1	 2.385371364013019e-001	 1.271146352657140e+000	-2.527372209200181e+001
1	 2.257317203698578e-001	 1.273482717943375e+000	-2.535710041437792e+001
1	 2.129439811056030e-001	 1.275683314924959e+000	-2.544341116032727e+001
1	 2.001758624725155e-001	 1.277749071192331e+000	-2.553223578318402e+001
1	 1.874292771266784e-001	 1.279680946965695e+000	-2.562315635366672e+001
1	 1.747061059683913e-001	 1.281479934047481e+000	-2.571575485099188e+001
1	 1.620081976308431e-001	 1.283147054769148e+000	-2.580961248499483e+001
1	 1.493373680050998e-001	 1.284683360933694e+000	-2.590430904997833e+001
1	 1.366953998011148e-001	 1.286089932755156e+000	-2.599942231090152e+001
1	 1.240840421444269e-001	 1.287367877796385e+000	-2.609452742240885e+001
1	 2.526537855862645e-001	 1.275212221042108e+000	-2.563323109872991e+001
1	 2.397665856791959e-001	 1.277697994836005e+000	-2.572565390644906e+001
1	 2.268951689835315e-001	 1.280046402031495e+000	-2.582054395749257e+001
1	 2.140415201632420e-001	 1.282258341156058e+000	-2.591739725631839e+001
1	 2.012075931012044e-001	 1.284334744581047e+000	-2.601571271309926e+001
1	 1.883953103115516e-001	 1.286276577475762e+000	-2.611499149723094e+001
1	 1.756065623889603e-001	 1.288084836754500e+000	-2.621473641630945e+001
1	 1.628432074946875e-001	 1.289760550017942e+000	-2.631445132137060e+001
1	 1.501070708791112e-001	 1.291304774490208e+000	-2.641364053908509e+001
1	 1.373999444404772e-001	 1.292718595952890e+000	-2.651180833150000e+001
1	 1.247235863195188e-001	 1.294003127677352e+000	-2.660845838382521e+001
1	 2.539493164598297e-001	 1.281751116937818e+000	-2.607667716611516e+001
1	 2.409960349570902e-001	 1.284249637014603e+000	-2.618205913839269e+001
1	 2.280586175972063e-001	 1.286610086119343e+000	-2.628896371869438e+001
1	 2.151390592208846e-001	 1.288833367386893e+000	-2.639680291721000e+001
1	 2.022393237299016e-001	 1.290920417969516e+000	-2.650499323946378e+001
1	 1.893613434964411e-001	 1.292872207985603e+000	-2.661295513218480e+001
1	 1.765070188095572e-001	 1.294689739461321e+000	-2.672011244988429e+001
1	 1.636782173585763e-001	 1.296374045266569e+000	-2.682589194289917e+001
1	 1.508767737531887e-001	 1.297926188046585e+000	-2.692972276756392e+001
1	 1.381044890799333e-001	 1.299347259150517e+000	-2.703103601908877e+001
1	 1.253631304947386e-001	 1.300638377558239e+000	-2.712926428764089e+001
1	 2.552448473333605e-001	 1.288290012833362e+000	-2.652405351631608e+001
1	 2.422254842349390e-001	 1.290801279193031e+000	-2.664295064955229e+001
1	 2.292220662108245e-001	 1.293173770207031e+000	-2.676236652797815e+001
1	 2.162365982784606e-001	 1.295408393617587e+000	-2.688162926291556e+001
1	 2.032710543585254e-001	 1.297506091357872e+000	-2.700007309084998e+001
1	 1.903273766812550e-001	 1.299467838495365e+000	-2.711703791145653e+001
1	 1.774074752300824e-001	 1.301294642168099e+000	-2.723186884152249e+001
1	 1.645132272224049e-001	 1.302987540515192e+000	-2.734391578548144e+001
1	 1.516464766272271e-001	 1.304547601602997e+000	-2.745253302320097e+001
1	 1.388090337193821e-001	 1.305975922348215e+000	-2.755707881558854e+001
1	 1.260026746699955e-001	 1.307273627439228e+000	-2.765691502850296e+001
1	 2.565403782068224e-001	 1.294828908728823e+000	-2.697537897898099e+001
1	 2.434549335126970e-001	 1.297352921371389e+000	-2.710834104184026e+001
1	 2.303855148243285e-001	 1.299737454294674e+000	-2.724075907737134e+001
1	 2.173341373359000e-001	 1.301983419848267e+000	-2.737187739072549e+001
1	 2.043027849869940e-001	 1.304091764746253e+000	-2.750094808211201e+001
1	 1.912934098659010e-001	 1.306063469005196e+000	-2.762723067678500e+001
1	 1.783079316504359e-001	 1.307899544874993e+000	-2.774999176605483e+001
1	 1.653482370860691e-001	 1.309601035763976e+000	-2.786850466001101e+001
1	 1.524161795011212e-001	 1.311169015159617e+000	-2.798204905256851e+001
1	 1.395135783587230e-001	 1.312604585546162e+000	-2.808991069939137e+001
1	 1.266422188451985e-001	 1.313908877320505e+000	-2.819138110918521e+001
1	 2.578359090801811e-001	 1.301367804624286e+000	-2.743067200530875e+001
1	 2.446843827903188e-001	 1.303904563549777e+000	-2.757824266388759e+001
1	 2.315489634376604e-001	 1.306301138382382e+000	-2.772414792440058e+001
1	 2.184316763931329e-001	 1.308558446079059e+000	-2.786754837587426e+001
1	 2.053345156152256e-001	 1.310677438134795e+000	-2.800761411221756e+001
1	 1.922594430502873e-001	 1.312659099515241e+000	-2.814352445397351e+001
1	 1.792083880705178e-001	 1.314504447582156e+000	-2.827446767617532e+001
1	 1.661832469494639e-001	 1.316214531013087e+000	-2.839964074295537e+001
1	 1.531858823747661e-001	 1.317790428716616e+000	-2.851824904949811e+001
1	 1.402181229978549e-001	 1.319233248744538e+000	-2.862950617188370e+001
1	 1.272817630202567e-001	 1.320544127202253e+000	-2.873263362531040e+001
1	 2.591314399534020e-001	 1.307906700519837e+000	-2.788995067750953e+001
1	 2.459138320677586e-001	 1.310456205728292e+000	-2.805266761737544e+001
1	 2.327124120507628e-001	 1.312864822470269e+000	-2.821253949545304e+001
1	 2.195292154500892e-001	 1.315133472310086e+000	-2.836864327209277e+001
1	 2.063662462431385e-001	 1.317263111523635e+000	-2.852006716214557e+001
1	 1.932254762343219e-001	 1.319254730025648e+000	-2.866591044829143e+001
1	 1.801088444902284e-001	 1.321109350289747e+000	-2.880528329549698e+001
1	 1.670182568124852e-001	 1.322828026262688e+000	-2.893730656721495e+001
1	 1.539555852480564e-001	 1.324411842274167e+000	-2.906111164389980e+001
1	 1.409226676366770e-001	 1.325861911943520e+000	-2.917584024437301e+001
1	 1.279213071950790e-001	 1.327179377084656e+000	-2.928064425053156e+001
1	 1.215258654471585e-001	 1.260826878268034e+000	-2.410817728834809e+001
1	 1.092043275309017e-001	 1.261953771859433e+000	-2.420247608825862e+001
1	 9.691613082677979e-002	 1.262956899461820e+000	-2.430184811802060e+001
1	 8.466291317473867e-002	 1.263837420728680e+000	-2.440705083259484e+001
1	 7.244627749879956e-002	 1.264596517971808e+000	-2.451881352293840e+001
1	 6.026779158439477e-002	 1.265235395119248e+000	-2.463783589700305e+001
1	 4.812898788860080e-002	 1.265755276678738e+000	-2.476478675763056e+001
1	 3.603136338263674e-002	 1.266157406707675e+000	-2.490030277685242e+001
1	 2.397637942596927e-002	 1.266443047790582e+000	-2.504498736589456e+001
1	 1.196546167133989e-002	 1.266613480024992e+000	-2.519940963999469e+001
1	 0.000000000000000e+000	 1.266670000016666e+000	-2.536410347695799e+001
1	 1.221654096208289e-001	 1.267462128151162e+000	-2.459429470227245e+001
1	 1.097790281603268e-001	 1.268594952152505e+000	-2.468861825036414e+001
1	 9.742616337399165e-002	 1.269603358831772e+000	-2.478660669461729e+001
1	 8.510846172113702e-002	 1.270488513945260e+000	-2.488897143198931e+001
1	 7.282753456140229e-002	 1.271251606026819e+000	-2.499639721616379e+001
1	 6.058495793091617e-002	 1.271893845340308e+000	-2.510954076226930e+001
1	 4.838227235153152e-002	 1.272416462837583e+000	-2.522902944579258e+001
1	 3.622098267249440e-002	 1.272820709123038e+000	-2.535546009522807e+001
1	 2.410255794388693e-002	 1.273107853425699e+000	-2.548939787781606e+001
1	 1.202843132115448e-002	 1.273279182579763e+000	-2.563137527752587e+001
1	 0.000000000000000e+000	 1.273336000014533e+000	-2.578189116426399e+001
1	 1.228049537949910e-001	 1.274097378033473e+000	-2.508741388383321e+001
1	 1.103537287902211e-001	 1.275236132444767e+000	-2.518175084853820e+001
1	 9.793619592163512e-002	 1.276249818200917e+000	-2.527828529768841e+001
1	 8.555401026791810e-002	 1.277139607161034e+000	-2.537768469745890e+001
1	 7.320879162433072e-002	 1.277906694081026e+000	-2.548059142921754e+001
1	 6.090212427770172e-002	 1.278552295560567e+000	-2.558762141440985e+001
1	 4.863555681466335e-002	 1.279077648995626e+000	-2.569936283098000e+001
1	 3.641060196249207e-002	 1.279484011537602e+000	-2.581637492092495e+001
1	 2.422873646188863e-002	 1.279772659060017e+000	-2.593918688837694e+001
1	 1.209140097100540e-002	 1.279944885133735e+000	-2.606829688743014e+001
1	 0.000000000000000e+000	 1.280002000011600e+000	-2.620417109874427e+001
1	 1.234444979695541e-001	 1.280732627915154e+000	-2.558750213262512e+001
1	 1.109284294205094e-001	 1.281877312736405e+000	-2.568183786010066e+001
1	 9.844622846965527e-002	 1.282896277569445e+000	-2.577684530279538e+001
1	 8.599955881504889e-002	 1.283790700376198e+000	-2.587315009249345e+001
1	 7.359004868757393e-002	 1.284561782134628e+000	-2.597135437230710e+001
1	 6.121929062475998e-002	 1.285210745780222e+000	-2.607203543819378e+001
1	 4.888884127802014e-002	 1.285738835153067e+000	-2.617574446941149e+001
1	 3.660022125266242e-002	 1.286147313951564e+000	-2.628300534755265e+001
1	 2.435491498000729e-002	 1.286437464693734e+000	-2.639431356361114e+001
1	 1.215437062091535e-002	 1.286610587687107e+000	-2.651013521235249e+001
1	 0.000000000000000e+000	 1.286668000008066e+000	-2.663090607308559e+001
1	 1.240840421444269e-001	 1.287367877796385e+000	-2.609452742240885e+001
1	 1.115031300511167e-001	 1.288518493027609e+000	-2.618884400503047e+001
1	 9.895626101799694e-002	 1.289542736937548e+000	-2.628224888179722e+001
1	 8.644510736249651e-002	 1.290441793590945e+000	-2.637532791630175e+001
1	 7.397130575112079e-002	 1.291216870187819e+000	-2.646864511719591e+001
1	 6.153645697209958e-002	 1.291869195999470e+000	-2.656274129284134e+001
1	 4.914212574162582e-002	 1.292400021310106e+000	-2.665813279234550e+001
1	 3.678984054303811e-002	 1.292810616365125e+000	-2.675531033268177e+001
1	 2.448109349827586e-002	 1.293102270327051e+000	-2.685473791140299e+001
1	 1.221734027090705e-002	 1.293276290240078e+000	-2.695685180428511e+001
1	 0.000000000000000e+000	 1.293334000004133e+000	-2.706205964705820e+001
1	 1.247235863195188e-001	 1.294003127677352e+000	-2.660845838382521e+001
1	 1.120778306819679e-001	 1.295159673318565e+000	-2.670273472692470e+001
1	 9.946629356660514e-002	 1.296189196305419e+000	-2.679445898243576e+001
1	 8.689065591022796e-002	 1.297092886805471e+000	-2.688417928238376e+001
1	 7.435256281496031e-002	 1.297871958240795e+000	-2.697242357511499e+001
1	 6.185362331972916e-002	 1.298527646218511e+000	-2.705969828960375e+001
1	 4.939541020550421e-002	 1.299061207466941e+000	-2.714648708364568e+001
1	 3.697945983365180e-002	 1.299473918778485e+000	-2.723324967569234e+001
1	 2.460727201672730e-002	 1.299767075960167e+000	-2.732042075990454e+001
1	 1.228030992100320e-002	 1.299941992792850e+000	-2.740840900381683e+001
1	 0.000000000000000e+000	 1.300000000000000e+000	-2.749759612784822e+001
1	 1.253631304947386e-001	 1.300638377558239e+000	-2.712926428764089e+001
1	 1.126525313129878e-001	 1.301800853609463e+000	-2.722347617454138e+001
1	 9.997632611542487e-002	 1.302835655673249e+000	-2.731343930854354e+001
1	 8.733620445821029e-002	 1.303743980019968e+000	-2.739966609776088e+001
1	 7.473381987908148e-002	 1.304527046293756e+000	-2.748265047535042e+001
1	 6.217078966765732e-002	 1.305186096437542e+000	-2.756286657003058e+001
1	 4.964869466967921e-002	 1.305722393623771e+000	-2.764076745803155e+001
1	 3.716907912453613e-002	 1.306137221191842e+000	-2.771678399630204e+001
1	 2.473345053539453e-002	 1.306431881593283e+000	-2.779132373661196e+001
1	 1.234327957122654e-002	 1.306607695345621e+000	-2.786476992001832e+001
1	 0.000000000000000e+000	 1.306665999995867e+000	-2.793748055099304e+001
1	 1.260026746699955e-001	 1.307273627439228e+000	-2.765691502850296e+001
1	 1.132272319441014e-001	 1.308442033900490e+000	-2.775103518390344e+001
1	 1.004863586644010e-001	 1.309482115041230e+000	-2.783915430085706e+001
1	 8.778175300641054e-002	 1.310395073234634e+000	-2.792175104283718e+001
1	 7.511507694347330e-002	 1.311182134346895e+000	-2.799928734448201e+001
1	 6.248795601589269e-002	 1.311844546656761e+000	-2.807220708489766e+001
1	 4.990197913417467e-002	 1.312383579780795e+000	-2.814093483999474e+001
1	 3.735869841572378e-002	 1.312800523605397e+000	-2.820587471374656e+001
1	 2.485962905431051e-002	 1.313096687226598e+000	-2.826740924807946e+001
1	 1.240624922159976e-002	 1.313273397898592e+000	-2.832589841093850e+001
1	 0.000000000000000e+000	 1.313331999991934e+000	-2.838167866189704e+001
1	 1.266422188451985e-001	 1.313908877320505e+000	-2.819138110918521e+001
1	 1.138019325752335e-001	 1.315083214191837e+000	-2.828537926094477e+001
1	 1.009963912134786e-001	 1.316128574409554e+000	-2.837156911840826e+001
1	 8.822730155479577e-002	 1.317046166449661e+000	-2.845039755187179e+001
1	 7.549633400812469e-002	 1.317837222400410e+000	-2.852229648625148e+001
1	 6.280512236444388e-002	 1.318502996876366e+000	-2.858768157377396e+001
1	 5.015526359901446e-002	 1.319044765938211e+000	-2.864695094335123e+001
1	 3.754831770724738e-002	 1.319463826019349e+000	-2.870048402659251e+001
1	 2.498580757350817e-002	 1.319761492860312e+000	-2.874864046024831e+001
1	 1.246921887214558e-002	 1.319939100451963e+000	-2.879175906469317e+001
1	 0.000000000000000e+000	 1.319997999988401e+000	-2.883015689790729e+001
1	 1.272817630202567e-001	 1.320544127202253e+000	-2.873263362531040e+001
1	 1.143766332063090e-001	 1.321724394483688e+000	-2.882647656468085e+001
1	 1.015064237626026e-001	 1.322775033778411e+000	-2.891064962047954e+001
1	 8.867285010333303e-002	 1.323697259665244e+000	-2.898556979403969e+001
1	 7.587759107302468e-002	 1.324492310454497e+000	-2.905164096203841e+001
1	 6.312228871331950e-002	 1.325161447096555e+000	-2.910925254520612e+001
1	 5.040854806422248e-002	 1.325705952096220e+000	-2.915877825141071e+001
1	 3.773793699913963e-002	 1.326127128433897e+000	-2.920057489315814e+001
1	 2.511198609302046e-002	 1.326426298494625e+000	-2.923498127936829e+001
1	 1.253218852288672e-002	 1.326604803005934e+000	-2.926231718112420e+001
1	 0.000000000000000e+000	 1.326663999985467e+000	-2.928288237092959e+001
1	 1.279213071950790e-001	 1.327179377084656e+000	-2.928064425053156e+001
1	 1.149513338372529e-001	 1.328365574776235e+000	-2.937429589088266e+001
1	 1.020164563117179e-001	 1.329421493147995e+000	-2.945636234909953e+001
1	 8.911839865198931e-002	 1.330348352881577e+000	-2.952723265506042e+001
1	 7.625884813816214e-002	 1.331147398509354e+000	-2.958728457192091e+001
1	 6.343945506252818e-002	 1.331819897317526e+000	-2.963688325749297e+001
1	 5.066183252982257e-002	 1.332367138255019e+000	-2.967637999774163e+001
1	 3.792755629143316e-002	 1.332790430849241e+000	-2.970611101252078e+001
1	 2.523816461288030e-002	 1.333091104129737e+000	-2.972639633349239e+001
1	 1.259515817384588e-002	 1.333270505560705e+000	-2.973753875400679e+001
1	 0.000000000000000e+000	 1.333329999983334e+000	-2.973982285056648e+001
1	 1.333329999983334e+000	 0.000000000000000e+000	 2.478234746862156e+001
1	 1.333270505560705e+000	 1.259515817384592e-002	 2.405681510597348e+001
1	 1.333091104129737e+000	 2.523816461288039e-002	 2.333899769879372e+001
1	 1.332790430849242e+000	 3.792755629143307e-002	 2.262842233119266e+001
1	 1.332367138255019e+000	 5.066183252982254e-002	 2.192464402123614e+001
1	 1.331819897317526e+000	 6.343945506252818e-002	 2.122724726177750e+001
1	 1.331147398509354e+000	 7.625884813816217e-002	 2.053584755915924e+001
1	 1.330348352881577e+000	 8.911839865198935e-002	 1.985009296678772e+001
1	 1.329421493147995e+000	 1.020164563117177e-001	 1.916966561048611e+001
1	 1.328365574776235e+000	 1.149513338372529e-001	 1.849428320243588e+001
1	 1.327179377084656e+000	 1.279213071950790e-001	 1.782370054042654e+001
1	 1.339996999982150e+000	 0.000000000000000e+000	 2.474748585761335e+001
1	 1.339937208071804e+000	 1.265813727142634e-002	 2.401250652125522e+001
1	 1.339756909586625e+000	 2.536436206177347e-002	 2.328531833566577e+001
1	 1.339454732860854e+000	 3.811720402987907e-002	 2.256548046696607e+001
1	 1.339029323692610e+000	 5.091515499229016e-002	 2.185258069847543e+001
1	 1.338479346406849e+000	 6.375666899177583e-002	 2.114623695180428e+001
1	 1.337803484928172e+000	 7.664016239779914e-002	 2.044609880426818e+001
1	 1.337000443862567e+000	 8.956401403969964e-002	 1.975184899961225e+001
1	 1.336068949587062e+000	 1.025265653733129e-001	 1.906320494893799e+001
1	 1.335007751346290e+000	 1.155261206817234e-001	 1.837992021863249e+001
1	 1.333815622354874e+000	 1.285609473108182e-001	 1.770178600201460e+001
1	 1.346663999981866e+000	 0.000000000000000e+000	 2.470714521354811e+001
1	 1.346603910583804e+000	 1.272111636919941e-002	 2.396316760654129e+001
1	 1.346422715044412e+000	 2.549055951097095e-002	 2.322706016939261e+001
1	 1.346119034873362e+000	 3.830685176867194e-002	 2.249841448550838e+001
1	 1.345691509131092e+000	 5.116847745508962e-002	 2.177685130630773e+001
1	 1.345138795497052e+000	 6.407388292129493e-002	 2.106202204844198e+001
1	 1.344459571347860e+000	 7.702147665761393e-002	 2.035361028587538e+001
1	 1.343652534844408e+000	 9.000962942747341e-002	 1.965133323381115e+001
1	 1.342716406026956e+000	 1.030366744348489e-001	 1.895494322135322e+001
1	 1.341649927917139e+000	 1.161009075260168e-001	 1.826422914970494e+001
1	 1.340451867625848e+000	 1.292005874262800e-001	 1.757901793262247e+001
1	 1.353330999982383e+000	 0.000000000000000e+000	 2.466133291969858e+001
1	 1.353270613096603e+000	 1.278409546711693e-002	 2.390881070373787e+001
1	 1.353088520502998e+000	 2.561675696039653e-002	 2.316423862250776e+001
1	 1.352783336886667e+000	 3.849649950772439e-002	 2.242724100428898e+001
1	 1.352353694570366e+000	 5.142179991813674e-002	 2.169747176503214e+001
1	 1.351798244588041e+000	 6.439109685101513e-002	 2.097461587760367e+001
1	 1.351115657768319e+000	 7.740279091755783e-002	 2.025839083452020e+001
1	 1.350304625827005e+000	 9.045524481528788e-002	 1.954854810116164e+001
1	 1.349363862467584e+000	 1.035467834963302e-001	 1.884487455636069e+001
1	 1.348292104488696e+000	 1.166756943701628e-001	 1.814719391718295e+001
1	 1.347088112897492e+000	 1.298402275415133e-001	 1.745536814463009e+001
1	 1.359997999983599e+000	 0.000000000000000e+000	 2.461005621455713e+001
1	 1.359937315610102e+000	 1.284707456513073e-002	 2.384944791273858e+001
1	 1.359754325962284e+000	 2.574295440997401e-002	 2.309686881512559e+001
1	 1.359447638900670e+000	 3.868614724694920e-002	 2.235197631492759e+001
1	 1.359015880010333e+000	 5.167512238134727e-002	 2.161445768276959e+001
1	 1.358457693679716e+000	 6.470831078086613e-002	 2.088403150389748e+001
1	 1.357771744189456e+000	 7.778410517758207e-002	 2.016044910758670e+001
1	 1.356956716810264e+000	 9.090086020312037e-002	 1.944349598575835e+001
1	 1.356011318908855e+000	 1.040568925577615e-001	 1.873299319772185e+001
1	 1.354934281060870e+000	 1.172504812141908e-001	 1.802879875787838e+001
1	 1.353724358169724e+000	 1.304798676565676e-001	 1.733080900314557e+001
1	 1.366664999985416e+000	 0.000000000000000e+000	 2.455332219536723e+001
1	 1.366604018124201e+000	 1.291005366319264e-002	 2.378509109732762e+001
1	 1.366420131422168e+000	 2.586915185962713e-002	 2.302496557231756e+001
1	 1.366111940915269e+000	 3.887579498625917e-002	 2.227263639114200e+001
1	 1.365678065450894e+000	 5.192844484463698e-002	 2.152782436307697e+001
1	 1.365117142771979e+000	 6.502552471077756e-002	 2.079028173700053e+001
1	 1.364427830611170e+000	 7.816541943763790e-002	 2.005979359352721e+001
1	 1.363608807794090e+000	 9.134647559094825e-002	 1.933617922517649e+001
1	 1.362658775350676e+000	 1.045670016191473e-001	 1.861929350152260e+001
1	 1.361576457633574e+000	 1.178252680581307e-001	 1.790902821619473e+001
1	 1.360360603442459e+000	 1.311195077714921e-001	 1.720531341252310e+001
1	 1.373331999987733e+000	 0.000000000000000e+000	 2.449113782155180e+001
1	 1.373270720638800e+000	 1.297303276125448e-002	 2.371575189091061e+001
1	 1.373085936882552e+000	 2.599534930927962e-002	 2.294854343127390e+001
1	 1.372776242930367e+000	 3.906544272556702e-002	 2.218923689646471e+001
1	 1.372340250891950e+000	 5.218176730792168e-002	 2.143758681234015e+001
1	 1.371776591864732e+000	 6.534273864067913e-002	 2.069337913784652e+001
1	 1.371083917033369e+000	 7.854673369767661e-002	 1.995643261596287e+001
1	 1.370260898778388e+000	 9.179209097874876e-002	 1.922660011160070e+001
1	 1.369306231792957e+000	 1.050771106804921e-001	 1.850376993344670e+001
1	 1.368218634206720e+000	 1.184000549020120e-001	 1.778786713666112e+001
1	 1.366996848715614e+000	 1.317591478863360e-001	 1.707885480327391e+001
1	 1.379998999990449e+000	 0.000000000000000e+000	 2.442350991804218e+001
1	 1.379937423153799e+000	 1.303601185926808e-002	 2.364144170207961e+001
1	 1.379751742343335e+000	 2.612154675885525e-002	 2.286761664825767e+001
1	 1.379440544945863e+000	 3.925509046478554e-002	 2.210179319173556e+001
1	 1.379002436333403e+000	 5.243508977111712e-002	 2.134375974695216e+001
1	 1.378436040957878e+000	 6.565995257050049e-002	 2.059333602463456e+001
1	 1.377740003455954e+000	 7.892804795764939e-002	 1.985037433766507e+001
1	 1.376912989763065e+000	 9.223770636649928e-002	 1.911476089292170e+001
1	 1.375953688235605e+000	 1.055872197418005e-001	 1.838641706612847e+001
1	 1.374860810780218e+000	 1.189748417458644e-001	 1.766530065668230e+001
1	 1.373633093989104e+000	 1.323987880011485e-001	 1.695140711935642e+001
1	 1.386665999993466e+000	 0.000000000000000e+000	 2.435044517851128e+001
1	 1.386604125669099e+000	 1.309899095718526e-002	 2.356217172001742e+001
1	 1.386417547804418e+000	 2.624774420827780e-002	 2.278219920535787e+001
1	 1.386104846961657e+000	 3.944473820382747e-002	 2.201032034237841e+001
1	 1.385664621775152e+000	 5.268841223413907e-002	 2.124635760028476e+001
1	 1.385095490051318e+000	 6.597716650017133e-002	 2.049016447866446e+001
1	 1.384396089878828e+000	 7.930936221750755e-002	 1.974162676442249e+001
1	 1.383565080748026e+000	 9.268332175417705e-002	 1.900066377380106e+001
1	 1.382601144678529e+000	 1.060973288030771e-001	 1.826722957658153e+001
1	 1.381502987353983e+000	 1.195496285897177e-001	 1.754131419949813e+001
1	 1.380269339262846e+000	 1.330384281159790e-001	 1.682294480583306e+001
1	 1.393332999996683e+000	 0.000000000000000e+000	 2.427195016851360e+001
1	 1.393270828184598e+000	 1.316197005495783e-002	 2.347795291974694e+001
1	 1.393083353265701e+000	 2.637394165747098e-002	 2.269230481704921e+001
1	 1.392769148977652e+000	 3.963438594260560e-002	 2.191483312546895e+001
1	 1.392326807217099e+000	 5.294173469690337e-002	 2.114539452945942e+001
1	 1.391754939144953e+000	 6.629438042962124e-002	 2.038387635000435e+001
1	 1.391052176301896e+000	 7.969067647720234e-002	 1.963019774879659e+001
1	 1.390217171733176e+000	 9.312893714175946e-002	 1.888431091670538e+001
1	 1.389248601121635e+000	 1.066074378643263e-001	 1.814620224370163e+001
1	 1.388145163927923e+000	 1.201244154336013e-001	 1.741589346734504e+001
1	 1.386905584536755e+000	 1.336780682308766e-001	 1.669344279688165e+001
1	 1.400000000000000e+000	 0.000000000000000e+000	 2.418803132853586e+001
1	 1.399937530700196e+000	 1.322494915253764e-002	 2.338879606723022e+001
1	 1.399749158727085e+000	 2.650013910635858e-002	 2.259794693656392e+001
1	 1.399433450993745e+000	 3.982403368103266e-002	 2.181534603660028e+001
1	 1.398988992659146e+000	 5.319505715932572e-002	 2.104088442192498e+001
1	 1.398414388238686e+000	 6.661159435877999e-002	 2.027448326299643e+001
1	 1.397708262725060e+000	 8.007199073668501e-002	 1.951609499377021e+001
1	 1.396869262718420e+000	 9.357455252922370e-002	 1.876570444291098e+001
1	 1.395896057564835e+000	 1.071175469255528e-001	 1.802332994584063e+001
1	 1.394787340501952e+000	 1.206992022775451e-001	 1.728902443481275e+001
1	 1.393541829810749e+000	 1.343177083458907e-001	 1.656287650414900e+001
1	 1.327179377084656e+000	 1.279213071950790e-001	 1.782370054042653e+001
1	 1.325861911943521e+000	 1.409226676366771e-001	 1.716141164612623e+001
1	 1.324411842274167e+000	 1.539555852480564e-001	 1.651080005660907e+001
1	 1.322828026262688e+000	 1.670182568124853e-001	 1.587179760765334e+001
1	 1.321109350289747e+000	 1.801088444902282e-001	 1.524435452869096e+001
1	 1.319254730025648e+000	 1.932254762343219e-001	 1.462844015595481e+001
1	 1.317263111523635e+000	 2.063662462431386e-001	 1.402404362968749e+001
1	 1.315133472310086e+000	 2.195292154500891e-001	 1.343117457345328e+001
1	 1.312864822470269e+000	 2.327124120507629e-001	 1.284986375357316e+001
1	 1.310456205728293e+000	 2.459138320677585e-001	 1.228016371668594e+001
1	 1.307906700519837e+000	 2.591314399534021e-001	 1.172214940342776e+001
1	 1.333815622354874e+000	 1.285609473108182e-001	 1.770178600201460e+001
1	 1.332491569542165e+000	 1.416273179673805e-001	 1.703218667755548e+001
1	 1.331034249143765e+000	 1.547254035878931e-001	 1.637438580313197e+001
1	 1.329442513636407e+000	 1.678533919390620e-001	 1.572833854131070e+001
1	 1.327715243832375e+000	 1.810094359914642e-001	 1.509401670322356e+001
1	 1.325851349980052e+000	 1.941916543374044e-001	 1.447140939286997e+001
1	 1.323849772862681e+000	 2.073981316457405e-001	 1.386052363670578e+001
1	 1.321709484894016e+000	 2.206269191540353e-001	 1.326138499672571e+001
1	 1.319429491209501e+000	 2.338760351983323e-001	 1.267403816522667e+001
1	 1.317008830751625e+000	 2.471434657808105e-001	 1.209854753942330e+001
1	 1.314446577348017e+000	 2.604271651755172e-001	 1.153499777407847e+001
1	 1.340451867625848e+000	 1.292005874262800e-001	 1.757901793262247e+001
1	 1.339121227141517e+000	 1.423319682977339e-001	 1.690257210278880e+001
1	 1.337656656014014e+000	 1.554952219273348e-001	 1.623802379189363e+001
1	 1.336057001010716e+000	 1.686885270652219e-001	 1.558535175204685e+001
1	 1.334321137375528e+000	 1.819100274922824e-001	 1.494454982475688e+001
1	 1.332447969934912e+000	 1.951578324400848e-001	 1.431562752016224e+001
1	 1.330436434202115e+000	 2.084300170479688e-001	 1.369861058256783e+001
1	 1.328285497478265e+000	 2.217246228576455e-001	 1.309354154064467e+001
1	 1.325994159948987e+000	 2.350396583456089e-001	 1.250048024063434e+001
1	 1.323561455775152e+000	 2.483730994936152e-001	 1.191950436088662e+001
1	 1.320986454176337e+000	 2.617228903974281e-001	 1.135070990604919e+001
1	 1.347088112897492e+000	 1.298402275415133e-001	 1.745536814463009e+001
1	 1.345750884741497e+000	 1.430366186277980e-001	 1.677252788962788e+001
1	 1.344279062884841e+000	 1.562650402664456e-001	 1.610166457367483e+001
1	 1.342671488385547e+000	 1.695236621910270e-001	 1.544278080320326e+001
1	 1.340927030919145e+000	 1.828106189927365e-001	 1.479589289888205e+001
1	 1.339044589890175e+000	 1.961240105424044e-001	 1.416103141351439e+001
1	 1.337023095541889e+000	 2.094619024498504e-001	 1.353824163705121e+001
1	 1.334861510062792e+000	 2.228223265609310e-001	 1.292758408721943e+001
1	 1.332558828688690e+000	 2.362032814925881e-001	 1.232913498424766e+001
1	 1.330114080798836e+000	 2.496027332061524e-001	 1.174298670816097e+001
1	 1.327526331004762e+000	 2.630186156191023e-001	 1.116924823710878e+001
1	 1.353724358169724e+000	 1.304798676565676e-001	 1.733080900314558e+001
1	 1.352380542342027e+000	 1.437412689576333e-001	 1.664201479086038e+001
1	 1.350901469756175e+000	 1.570348586052899e-001	 1.596525966889884e+001
1	 1.349285975760837e+000	 1.703587973165388e-001	 1.530057036477889e+001
1	 1.347532924463167e+000	 1.837112104928801e-001	 1.464798612721976e+001
1	 1.345641209845789e+000	 1.970901886444053e-001	 1.400755918640355e+001
1	 1.343609756881957e+000	 2.104937878514123e-001	 1.337935520196062e+001
1	 1.341437522647555e+000	 2.239200302639025e-001	 1.276345369730265e+001
1	 1.339123497428572e+000	 2.373669046392645e-001	 1.215994847891633e+001
1	 1.336666705822646e+000	 2.508323669184024e-001	 1.156894803921962e+001
1	 1.334066207833258e+000	 2.643143408405080e-001	 1.099057594157741e+001
1	 1.360360603442459e+000	 1.311195077714921e-001	 1.720531341252310e+001
1	 1.359010199943027e+000	 1.444459192873007e-001	 1.651099432511315e+001
1	 1.357523876627944e+000	 1.578046769439323e-001	 1.582876154398041e+001
1	 1.355900463136519e+000	 1.711939324418187e-001	 1.515866618643761e+001
1	 1.354138818007536e+000	 1.846118019927668e-001	 1.450077087824727e+001
1	 1.352237829801701e+000	 1.980563667461289e-001	 1.385515015990960e+001
1	 1.350196418222271e+000	 2.115256732526815e-001	 1.322189088107724e+001
1	 1.348013535232513e+000	 2.250177339665709e-001	 1.260109258183678e+001
1	 1.345688166168596e+000	 2.385305277856329e-001	 1.199286785958455e+001
1	 1.343219330846545e+000	 2.520620006303451e-001	 1.139734272021826e+001
1	 1.340606084661794e+000	 2.656100660616129e-001	 1.081465691236089e+001
1	 1.366996848715614e+000	 1.317591478863360e-001	 1.707885480327391e+001
1	 1.365639857544422e+000	 1.451505696168609e-001	 1.637942875826266e+001
1	 1.364146283500072e+000	 1.585744952824371e-001	 1.569212358836365e+001
1	 1.362514950512526e+000	 1.720290675669288e-001	 1.501701507130107e+001
1	 1.360744711552191e+000	 1.855123934924504e-001	 1.435418965897548e+001
1	 1.358834449757856e+000	 1.990225448476168e-001	 1.370374483340286e+001
1	 1.356783079562785e+000	 2.125575586536849e-001	 1.306578945098284e+001
1	 1.354589547817624e+000	 2.261154376689472e-001	 1.244044407393775e+001
1	 1.352252834908725e+000	 2.396941509316883e-001	 1.182784128775355e+001
1	 1.349771955870499e+000	 2.532916343419605e-001	 1.122812600345058e+001
1	 1.347145961490334e+000	 2.669057912823845e-001	 1.064145574350851e+001
1	 1.373633093989104e+000	 1.323987880011485e-001	 1.695140711935642e+001
1	 1.372269515146129e+000	 1.458552199463743e-001	 1.624728108538484e+001
1	 1.370768690372490e+000	 1.593443136208687e-001	 1.555530009222545e+001
1	 1.369129437888794e+000	 1.728642026919303e-001	 1.487556485050171e+001
1	 1.367350605097073e+000	 1.864129849919844e-001	 1.420818608744651e+001
1	 1.365431069714203e+000	 1.999887229489109e-001	 1.355328485608172e+001
1	 1.363369740903453e+000	 2.135894440544495e-001	 1.291099283273005e+001
1	 1.361165560402846e+000	 2.272131413710424e-001	 1.228145260178810e+001
1	 1.358817503648921e+000	 2.408577740774254e-001	 1.166481792668428e+001
1	 1.356324580894474e+000	 2.545212680532286e-001	 1.106125400594312e+001
1	 1.353685838318846e+000	 2.682015165027911e-001	 1.047093771327638e+001
1	 1.380269339262846e+000	 1.330384281159790e-001	 1.682294480583306e+001
1	 1.378899172748071e+000	 1.465598702759018e-001	 1.611451501322513e+001
1	 1.377391097245123e+000	 1.601141319592913e-001	 1.541824622482221e+001
1	 1.375743925265254e+000	 1.736993378168850e-001	 1.473426435846984e+001
1	 1.373956498642124e+000	 1.873135764914223e-001	 1.406270486602487e+001
1	 1.372027689670689e+000	 2.009549010500525e-001	 1.340371299933100e+001
1	 1.369956402244226e+000	 2.146213294550026e-001	 1.275744406432961e+001
1	 1.367741572988138e+000	 2.283108450728675e-001	 1.212406366231192e+001
1	 1.365382172389146e+000	 2.420213972228390e-001	 1.150374791731545e+001
1	 1.362877205918434e+000	 2.557509017641294e-001	 1.089668368866726e+001
1	 1.360225715147297e+000	 2.694972417228001e-001	 1.030306876767935e+001
1	 1.386905584536755e+000	 1.336780682308766e-001	 1.669344279688165e+001
1	 1.385528830350171e+000	 1.472645206055041e-001	 1.598109494317214e+001
1	 1.384013504117901e+000	 1.608839502977697e-001	 1.528091801345815e+001
1	 1.382358412641842e+000	 1.745344729418547e-001	 1.459306340892984e+001
1	 1.380562392187283e+000	 1.882141679908180e-001	 1.391769175545567e+001
1	 1.378624309627261e+000	 2.019210791510837e-001	 1.325497312987425e+001
1	 1.376543063585058e+000	 2.156532148553707e-001	 1.260508727402755e+001
1	 1.374317585573459e+000	 2.294085487744333e-001	 1.196822379560570e+001
1	 1.371946841129365e+000	 2.431850203679240e-001	 1.134458235487310e+001
1	 1.369429830942346e+000	 2.569805354746430e-001	 1.073437283634830e+001
1	 1.366765591975652e+000	 2.707929669423796e-001	 1.013781550451503e+001
1	 1.393541829810749e+000	 1.343177083458907e-001	 1.656287650414900e+001
1	 1.392158487952350e+000	 1.479691709352418e-001	 1.584698595471768e+001
1	 1.390635910990750e+000	 1.616537686363681e-001	 1.514327232305445e+001
1	 1.388972900018493e+000	 1.753696080669007e-001	 1.445191277158262e+001
1	 1.387168285732491e+000	 1.891147594902250e-001	 1.377309354966362e+001
1	 1.385220929583866e+000	 2.028872572520458e-001	 1.310701018369285e+001
1	 1.383129724925903e+000	 2.166851002555812e-001	 1.245386765434608e+001
1	 1.380893598158766e+000	 2.305062524757509e-001	 1.181388056009962e+001
1	 1.378511509869538e+000	 2.443486435126755e-001	 1.118727326614815e+001
1	 1.375982455966176e+000	 2.582101691847494e-001	 1.057428003785116e+001
1	 1.373305468803879e+000	 2.720886921614973e-001	 9.975145157844649e+000
1	 1.307906700519837e+000	 2.591314399534021e-001	 1.172214940342776e+001
1	 1.305215006833941e+000	 2.723651546311524e-001	 1.117556969152134e+001
1	 1.302380648154344e+000	 2.856108941680557e-001	 1.064044534285012e+001
1	 1.299402814194865e+000	 2.988665281832908e-001	 1.011704412072155e+001
1	 1.296280733615264e+000	 3.121298974347746e-001	 9.605655761353440e+000
1	 1.293013675037378e+000	 3.253988146137714e-001	 9.106592187684649e+000
1	 1.289600948045209e+000	 3.386710651775105e-001	 8.620187686556239e+000
1	 1.286041904167421e+000	 3.519444082195941e-001	 8.146799047820570e+000
1	 1.282335937840718e+000	 3.652165773779125e-001	 7.686805663987360e+000
1	 1.278482487352557e+000	 3.784852817797219e-001	 7.240609589073095e+000
1	 1.274481035761665e+000	 3.917482070234652e-001	 6.808635555382971e+000
1	 1.314446577348017e+000	 2.604271651755172e-001	 1.153499777407847e+001
1	 1.311741424487327e+000	 2.737270519005023e-001	 1.098312756136683e+001
1	 1.308892893270573e+000	 2.870390236120768e-001	 1.044296410115263e+001
1	 1.305900169359915e+000	 3.003609392769588e-001	 9.914804813907377e+000
1	 1.302762477558189e+000	 3.136906288562903e-001	 9.398967805529704e+000
1	 1.299479082830132e+000	 3.270258941042208e-001	 8.895792008368312e+000
1	 1.296049291307467e+000	 3.403645094046873e-001	 8.405637286163028e+000
1	 1.292472451276313e+000	 3.537042226461742e-001	 7.928884501617904e+000
1	 1.288747954145378e+000	 3.670427561341693e-001	 7.465935545373556e+000
1	 1.284875235393391e+000	 3.803778075409664e-001	 7.017213325206569e+000
1	 1.280853775494218e+000	 3.937070508923963e-001	 6.583161714347930e+000
1	 1.320986454176337e+000	 2.617228903974281e-001	 1.135070990604919e+001
1	 1.318267842140804e+000	 2.750889491696858e-001	 1.079383044435034e+001
1	 1.315405138386855e+000	 2.884671530559646e-001	 1.024890141884520e+001
1	 1.312397524524987e+000	 3.018553503705233e-001	 9.716246841830964e+000
1	 1.309244221501116e+000	 3.152513602777307e-001	 9.196209992481762e+000
1	 1.305944490622876e+000	 3.286529735946223e-001	 8.689153487627753e+000
1	 1.302497634569714e+000	 3.420579536318444e-001	 8.195459317286570e+000
1	 1.298902998385200e+000	 3.554640370727650e-001	 7.715528843818216e+000
1	 1.295159970450051e+000	 3.688689348904707e-001	 7.249782763631314e+000
1	 1.291267983434265e+000	 3.822703333022945e-001	 6.798661030429481e+000
1	 1.287226515226850e+000	 3.956658947614563e-001	 6.362622739052919e+000
1	 1.327526331004762e+000	 2.630186156191023e-001	 1.116924823710878e+001
1	 1.324794259794340e+000	 2.764508464386623e-001	 1.060765133037149e+001
1	 1.321917383503154e+000	 2.898952824996736e-001	 1.005823976958045e+001
1	 1.318894879690042e+000	 3.033497614639366e-001	 9.521361140927136e+000
1	 1.315725965443999e+000	 3.168120916990478e-001	 8.997380749170281e+000
1	 1.312409898415560e+000	 3.302800530849295e-001	 8.486681620692039e+000
1	 1.308945977831890e+000	 3.437513978589381e-001	 7.989664472424451e+000
1	 1.305333545494019e+000	 3.572238514993261e-001	 7.506747645677194e+000
1	 1.301571986754666e+000	 3.706951136467797e-001	 7.038367003955555e+000
1	 1.297660731475104e+000	 3.841628590636720e-001	 6.584975793919107e+000
1	 1.293599254959479e+000	 3.976247386306125e-001	 6.147044468699325e+000
1	 1.334066207833258e+000	 2.643143408405080e-001	 1.099057594157741e+001
1	 1.331320677447898e+000	 2.778127437073906e-001	 1.042456373896628e+001
1	 1.328429628619433e+000	 2.913234119431576e-001	 9.870961970682100e+000
1	 1.325392234855040e+000	 3.048441725571505e-001	 9.330138825356622e+000
1	 1.322207709386794e+000	 3.183728231201935e-001	 8.802478533401489e+000
1	 1.318875306208132e+000	 3.319071325750965e-001	 8.288381304839602e+000
1	 1.315394321093939e+000	 3.454448420859252e-001	 7.788263234406779e+000
1	 1.311764092602703e+000	 3.589836659258176e-001	 7.302556173116251e+000
1	 1.307984003059153e+000	 3.725212924030594e-001	 6.831707565537261e+000
1	 1.304053479515829e+000	 3.860553848250641e-001	 6.376180252100517e+000
1	 1.299971994692022e+000	 3.995835824998310e-001	 5.936452235811481e+000
1	 1.340606084661794e+000	 2.656100660616129e-001	 1.081465691236089e+001
1	 1.337847095101447e+000	 2.791746409758307e-001	 1.024454170638843e+001
1	 1.334941873735656e+000	 2.927515413863712e-001	 9.687051174762379e+000
1	 1.331889590019940e+000	 3.063385836501171e-001	 9.142571182671071e+000
1	 1.328689453329455e+000	 3.199335545411200e-001	 8.611501833074689e+000
1	 1.325340714000539e+000	 3.335342120650767e-001	 8.094257341787454e+000
1	 1.321842664355803e+000	 3.471382863127622e-001	 7.591265881510384e+000
1	 1.318194639711190e+000	 3.607434803521993e-001	 7.102969394170197e+000
1	 1.314396019363438e+000	 3.743474711592730e-001	 6.629823370978808e+000
1	 1.310446227556364e+000	 3.879479105864364e-001	 6.172296599689985e+000
1	 1.306344734424396e+000	 4.015424263690787e-001	 5.730870878595114e+000
1	 1.347145961490334e+000	 2.669057912823845e-001	 1.064145574350852e+001
1	 1.344373512754951e+000	 2.805365382439415e-001	 1.006755977306724e+001
1	 1.341454118851785e+000	 2.941796708292684e-001	 9.506490861583558e+000
1	 1.338386945184701e+000	 3.078329947427883e-001	 8.958649669604366e+000
1	 1.335171197271936e+000	 3.214942859617793e-001	 8.424449165451849e+000
1	 1.331806121792732e+000	 3.351612915548239e-001	 7.904314440010746e+000
1	 1.328291007617424e+000	 3.488317305394058e-001	 7.398682492423934e+000
1	 1.324625186819415e+000	 3.625032947784311e-001	 6.908001986217698e+000
1	 1.320808035667453e+000	 3.761736499153836e-001	 6.432732975434873e+000
1	 1.316838975596630e+000	 3.898404363477547e-001	 5.973346600416505e+000
1	 1.312717474156519e+000	 4.035012702383219e-001	 5.530324752936155e+000
1	 1.353685838318846e+000	 2.682015165027911e-001	 1.047093771327638e+001
1	 1.350899930408376e+000	 2.818984355116824e-001	 9.893592971428666e+000
1	 1.347966363967785e+000	 2.956078002718034e-001	 9.329264830155339e+000
1	 1.344884300349283e+000	 3.093274058351162e-001	 8.778365907985780e+000
1	 1.341652941214191e+000	 3.230550173821236e-001	 8.241319076448324e+000
1	 1.338271529584657e+000	 3.367883710442921e-001	 7.718557216995070e+000
1	 1.334739350878743e+000	 3.505251747658126e-001	 7.210522951069138e+000
1	 1.331055733927312e+000	 3.642631092044733e-001	 6.717668343002448e+000
1	 1.327220051971125e+000	 3.779998286713540e-001	 6.240454575488260e+000
1	 1.323231723636551e+000	 3.917329621089841e-001	 5.779351597432652e+000
1	 1.319090213888307e+000	 4.054601141075276e-001	 5.334837744051469e+000
1	 1.360225715147297e+000	 2.694972417228001e-001	 1.030306876767935e+001
1	 1.357426348061687e+000	 2.832603327790126e-001	 9.722616814068017e+000
1	 1.354478609083619e+000	 2.970359297139307e-001	 9.155357191060368e+000
1	 1.351381655513645e+000	 3.108218169270527e-001	 8.601711680771292e+000
1	 1.348134685156176e+000	 3.246157488021045e-001	 8.062110139943991e+000
1	 1.344736937376264e+000	 3.384154505334348e-001	 7.536990201423777e+000
1	 1.341187694139704e+000	 3.522186189919392e-001	 7.026796951282731e+000
1	 1.337486281034819e+000	 3.660229236302852e-001	 6.531982581451570e+000
1	 1.333632068274384e+000	 3.798260074271477e-001	 6.053006017770128e+000
1	 1.329624471676048e+000	 3.936254878700904e-001	 5.590332523425238e+000
1	 1.325462953619678e+000	 4.074189579766622e-001	 5.144433277803589e+000
1	 1.366765591975652e+000	 2.707929669423796e-001	 1.013781550451503e+001
1	 1.363952765714852e+000	 2.846222300458915e-001	 9.554607282262085e+000
1	 1.360990854199249e+000	 2.984640591556040e-001	 8.984752358999840e+000
1	 1.357879010677747e+000	 3.123162280185499e-001	 8.428678928188557e+000
1	 1.354616429097844e+000	 3.261764802216743e-001	 7.886820957114278e+000
1	 1.351202345167504e+000	 3.400425300222060e-001	 7.359617835302694e+000
1	 1.347636037400247e+000	 3.539120632177420e-001	 6.847514001364416e+000
1	 1.343916828141869e+000	 3.677827380558271e-001	 6.350958548298300e+000
1	 1.340044084577158e+000	 3.816521861827275e-001	 5.870404807332245e+000
1	 1.336017219715046e+000	 3.955180136310391e-001	 5.406309910435316e+000
1	 1.331835693350548e+000	 4.093778018456922e-001	 4.959134331690597e+000
1	 1.373305468803879e+000	 2.720886921614973e-001	 9.975145157844649e+000
1	 1.370479183367836e+000	 2.859841273122784e-001	 9.389540814809427e+000
1	 1.367503099314640e+000	 2.998921885967780e-001	 8.817435045552340e+000
1	 1.364376365841549e+000	 3.138106391095596e-001	 8.259259743992258e+000
1	 1.361098173039150e+000	 3.277372116407852e-001	 7.715450155780133e+000
1	 1.357667752958321e+000	 3.416696095105594e-001	 7.186444476023703e+000
1	 1.354084380660317e+000	 3.556055074431779e-001	 6.672683428494389e+000
1	 1.350347375248399e+000	 3.695425524810588e-001	 6.174609826515554e+000
1	 1.346456100879377e+000	 3.834783649380567e-001	 5.692668115780208e+000
1	 1.342409967753466e+000	 3.974105393917957e-001	 5.227303899397985e+000
1	 1.338208433080836e+000	 4.113366457145844e-001	 4.778963445522077e+000
1	 1.274481035761665e+000	 3.917482070234652e-001	 6.808635555382971e+000
1	 1.270331111476093e+000	 4.050030160027568e-001	 6.387662503554334e+000
1	 1.266032288167079e+000	 4.182473493586814e-001	 5.974255421634366e+000
1	 1.261584186568501e+000	 4.314788271174073e-001	 5.568559440428380e+000
1	 1.256986475613899e+000	 4.446950500028725e-001	 5.170752660783943e+000
1	 1.252238873225494e+000	 4.578936005938943e-001	 4.781046777325281e+000
1	 1.247341147071948e+000	 4.710720445141692e-001	 4.399687653835123e+000
1	 1.242293115293416e+000	 4.842279316542610e-001	 4.026955847917884e+000
1	 1.237094647192461e+000	 4.973587974246059e-001	 3.663167082646096e+000
1	 1.231745663889408e+000	 5.104621640384943e-001	 3.308672662971421e+000
1	 1.226246138940778e+000	 5.235355418239187e-001	 2.963859834766415e+000
1	 1.280853775494218e+000	 3.937070508923963e-001	 6.583161714347930e+000
1	 1.276683100497812e+000	 4.070281373959295e-001	 6.160633028630279e+000
1	 1.272362781943674e+000	 4.203386958952362e-001	 5.746245054314373e+000
1	 1.267892438669269e+000	 4.336363345159897e-001	 5.340129546440855e+000
1	 1.263271737952744e+000	 4.469186419851159e-001	 4.942450810643838e+000
1	 1.258500396305879e+000	 4.601831887936905e-001	 4.553406346995228e+000
1	 1.253578180235638e+000	 4.734275283928874e-001	 4.173227446425798e+000
1	 1.248504906972856e+000	 4.866491984220788e-001	 3.802179737329249e+000
1	 1.243280445166594e+000	 4.998457219681045e-001	 3.440563680022574e+000
1	 1.237904715542784e+000	 5.130146088546692e-001	 3.088715006810668e+000
1	 1.232377691525745e+000	 5.261533569607503e-001	 2.747005105487105e+000
1	 1.287226515226850e+000	 3.956658947614563e-001	 6.362622739052919e+000
1	 1.283035089519661e+000	 4.090532587892841e-001	 5.938600725951879e+000
1	 1.278693275720454e+000	 4.224300424320308e-001	 5.523277983571427e+000
1	 1.274200690770286e+000	 4.357938419148706e-001	 5.116776776212046e+000
1	 1.269557000291902e+000	 4.491422339677152e-001	 4.719251482596486e+000
1	 1.264761919386638e+000	 4.624727769938941e-001	 4.330889252844287e+000
1	 1.259815213399763e+000	 4.757830122720565e-001	 3.951910618859895e+000
1	 1.254716698652781e+000	 4.890704651903787e-001	 3.582570055726218e+000
1	 1.249466243141255e+000	 5.023326465121009e-001	 3.223156491759965e+000
1	 1.244063767196715e+000	 5.155670536713387e-001	 2.873993764958527e+000
1	 1.238509244111277e+000	 5.287711720980507e-001	 2.535441023648760e+000
1	 1.293599254959479e+000	 3.976247386306125e-001	 6.147044468699325e+000
1	 1.289387078541550e+000	 4.110783801827868e-001	 5.721593622883790e+000
1	 1.285023769497329e+000	 4.245213889690289e-001	 5.305383877797696e+000
1	 1.280508942871458e+000	 4.379513493140114e-001	 4.898531832818796e+000
1	 1.275842262631276e+000	 4.513658259506280e-001	 4.501185748928062e+000
1	 1.271023442467676e+000	 4.647623651944605e-001	 4.113526211892935e+000
1	 1.266052246564224e+000	 4.781384961516295e-001	 3.735766749609285e+000
1	 1.260928490333093e+000	 4.914917319591130e-001	 3.368154401192504e+000
1	 1.255652041116344e+000	 5.048195710565490e-001	 3.010970235470106e+000
1	 1.250222818851101e+000	 5.181194984884608e-001	 2.664529816599921e+000
1	 1.244640796697276e+000	 5.313889872357854e-001	 2.329183614617390e+000
1	 1.299971994692022e+000	 3.995835824998310e-001	 5.936452235811481e+000
1	 1.295739067563394e+000	 4.131035015764033e-001	 5.509639197206065e+000
1	 1.291354263274208e+000	 4.266127355061942e-001	 5.092591823621898e+000
1	 1.286817194972689e+000	 4.401088567133724e-001	 4.685424817285444e+000
1	 1.282127524970770e+000	 4.535894179338115e-001	 4.288284072632528e+000
1	 1.277284965548894e+000	 4.670519533953436e-001	 3.901347338835805e+000
1	 1.272289279728921e+000	 4.804939800315584e-001	 3.524824837145588e+000
1	 1.267140282013694e+000	 4.939129987282336e-001	 3.158959830645011e+000
1	 1.261837839091760e+000	 5.073064956014023e-001	 2.804029144081017e+000
1	 1.256381870505843e+000	 5.206719433059938e-001	 2.460343631503298e+000
1	 1.250772349283640e+000	 5.340068023739211e-001	 2.128248589520507e+000
1	 1.306344734424396e+000	 4.015424263690787e-001	 5.730870878595114e+000
1	 1.302091056585105e+000	 4.151286229700997e-001	 5.302764390519260e+000
1	 1.297684757051000e+000	 4.287040820434901e-001	 4.884930340099388e+000
1	 1.293125447073886e+000	 4.422663641129139e-001	 4.477485243268826e+000
1	 1.288412787310288e+000	 4.558130099172235e-001	 4.080576322273155e+000
1	 1.283546488630194e+000	 4.693415415964984e-001	 3.694382160733372e+000
1	 1.278526312893757e+000	 4.828494639117961e-001	 3.319113314087512e+000
1	 1.273352073694481e+000	 4.963342654976929e-001	 2.955012873033653e+000
1	 1.268023637067405e+000	 5.097934201466150e-001	 2.602356977659025e+000
1	 1.262540922160840e+000	 5.232243881238962e-001	 2.261455280006976e+000
1	 1.256903901870271e+000	 5.366246175124240e-001	 1.932651352912160e+000
1	 1.312717474156519e+000	 4.035012702383219e-001	 5.530324752936155e+000
1	 1.308443045606594e+000	 4.171537443638418e-001	 5.100995621259224e+000
1	 1.304015250827613e+000	 4.307954285808809e-001	 4.682427392488980e+000
1	 1.299433699174955e+000	 4.444238715125973e-001	 4.274742051315560e+000
1	 1.294698049649734e+000	 4.580366019008214e-001	 3.878091786411182e+000
1	 1.289808011711478e+000	 4.716311297978786e-001	 3.492659631275676e+000
1	 1.284763346058632e+000	 4.852049477922950e-001	 3.118660060935711e+000
1	 1.279563865375358e+000	 4.987555322674430e-001	 2.756339542156854e+000
1	 1.274209435043177e+000	 5.122803446921408e-001	 2.405977034886512e+000
1	 1.268699973815992e+000	 5.257768329421260e-001	 2.067884442714345e+000
1	 1.263035454457067e+000	 5.392424326512596e-001	 1.742407010214063e+000
1	 1.319090213888307e+000	 4.054601141075276e-001	 5.334837744051469e+000
1	 1.314795034627774e+000	 4.191788657575951e-001	 4.904358797334556e+000
1	 1.310345744603956e+000	 4.328867751183299e-001	 4.485110405630389e+000
1	 1.305741951275802e+000	 4.465813789123832e-001	 4.077223622706014e+000
1	 1.300983311989010e+000	 4.602601938845619e-001	 3.680859187616433e+000
1	 1.296069534792650e+000	 4.739207179994396e-001	 3.296208144632439e+000
1	 1.291000379223446e+000	 4.875604316730077e-001	 2.923492419409751e+000
1	 1.285775657056222e+000	 5.011767990374352e-001	 2.562965349105416e+000
1	 1.280395233018978e+000	 5.147672692379334e-001	 2.214912164207076e+000
1	 1.274859025471199e+000	 5.283292777606418e-001	 1.879650419908402e+000
1	 1.269167007043930e+000	 5.418602477903944e-001	 1.557530374941536e+000
1	 1.325462953619678e+000	 4.074189579766622e-001	 5.144433277803589e+000
1	 1.321147023648559e+000	 4.212039871513260e-001	 4.712879328399557e+000
1	 1.316676238379938e+000	 4.349781216558010e-001	 4.293006276935611e+000
1	 1.312050203376333e+000	 4.487388863122319e-001	 3.884957792898755e+000
1	 1.307268574328022e+000	 4.624837858684034e-001	 3.488906696073296e+000
1	 1.302331057873609e+000	 4.762103062011355e-001	 3.105055548903866e+000
1	 1.297237412388103e+000	 4.899159155538866e-001	 2.733637205400085e+000
1	 1.291987448736975e+000	 5.035980658076227e-001	 2.374915314347326e+000
1	 1.286581030994707e+000	 5.172541937839468e-001	 2.029184774649094e+000
1	 1.281018077126362e+000	 5.308817225794016e-001	 1.696772140694301e+000
1	 1.275298559630759e+000	 5.444780629297946e-001	 1.378035975720658e+000
1	 1.331835693350548e+000	 4.093778018456922e-001	 4.959134331690597e+000
1	 1.327499012668862e+000	 4.232291085450001e-001	 4.526582137774797e+000
1	 1.323006732155468e+000	 4.370694681932577e-001	 4.106141389007598e+000
1	 1.318358455476455e+000	 4.508963937121044e-001	 3.697971864589364e+000
1	 1.313553836666673e+000	 4.647073778523029e-001	 3.302261942796579e+000
1	 1.308592580954259e+000	 4.784998944029210e-001	 2.919229159185175e+000
1	 1.303474445552502e+000	 4.922713994348845e-001	 2.549120721548488e+000
1	 1.298199240417519e+000	 5.060193325779568e-001	 2.192213979465868e+000
1	 1.292766828970265e+000	 5.197411183301344e-001	 1.848816846338525e+000
1	 1.287177128781380e+000	 5.334341673983635e-001	 1.519268171879825e+000
1	 1.281430112217454e+000	 5.470958780694262e-001	 1.203938063104286e+000
1	 1.338208433080836e+000	 4.113366457145844e-001	 4.778963445522077e+000
1	 1.333851001688592e+000	 4.252542299385834e-001	 4.345491674026969e+000
1	 1.329337225930455e+000	 4.391608147306638e-001	 3.924541621898151e+000
1	 1.324666707576071e+000	 4.530539011119613e-001	 3.516292620395799e+000
1	 1.319839099004865e+000	 4.669309698362181e-001	 3.120952032469527e+000
1	 1.314854104034503e+000	 4.807894826047506e-001	 2.738755770257744e+000
1	 1.309711478716544e+000	 4.946268833159535e-001	 2.369968769468856e+000
1	 1.304411032097752e+000	 5.084405993483900e-001	 2.014885418562194e+000
1	 1.298952626945552e+000	 5.222280428764503e-001	 1.673829940711421e+000
1	 1.293336180436153e+000	 5.359866122174863e-001	 1.347156726601756e+000
1	 1.287561664803915e+000	 5.497136932092553e-001	 1.035250616192815e+000
1	 1.226246138940778e+000	 5.235355418239187e-001	 2.963859834766415e+000
1	 1.220596957825401e+000	 5.365744771980168e-001	 2.614802303909721e+000
1	 1.214797387829354e+000	 5.495784256663966e-001	 2.247759402348943e+000
1	 1.208847564018351e+000	 5.625448718653632e-001	 1.863598007348841e+000
1	 1.202747675935371e+000	 5.754712940886186e-001	 1.463212696766142e+000
1	 1.196497968013682e+000	 5.883551657230444e-001	 1.047525112034034e+000
1	 1.190098739945637e+000	 6.011939567052549e-001	 6.174832724100997e-001
1	 1.183550347006174e+000	 6.139851349973728e-001	 1.740608409686719e-001
1	 1.176853200330036e+000	 6.267261680804233e-001	-2.817436570625435e-001
1	 1.170007767141820e+000	 6.394145244636895e-001	-7.489076629010733e-001
1	 1.163014570937961e+000	 6.520476752083219e-001	-1.226385458901081e+000
1	 1.232377691525745e+000	 5.261533569607503e-001	 2.747005105487103e+000
1	 1.226700263021949e+000	 5.392574904344009e-001	 2.401373351597001e+000
1	 1.220871693653703e+000	 5.523264620586145e-001	 2.037987364947138e+000
1	 1.214892119162068e+000	 5.653577438922185e-001	 1.657761379796721e+000
1	 1.208761730037767e+000	 5.783488016197220e-001	 1.261638588194248e+000
1	 1.202480771936284e+000	 5.912970959942786e-001	 8.505904324673894e-001
1	 1.196049546048495e+000	 6.042000843015227e-001	 4.256158456581181e-001
1	 1.189468409425784e+000	 6.170552218427235e-001	-1.225955951800425e-002
1	 1.182737775258663e+000	 6.298599634356477e-001	-4.619843524792227e-001
1	 1.175858113107952e+000	 6.426117649314611e-001	-9.224821965125497e-001
1	 1.168829949087690e+000	 6.553080847459571e-001	-1.392652809466012e+000
1	 1.238509244111277e+000	 5.287711720980507e-001	 2.535441023648760e+000
1	 1.232803568219056e+000	 5.419405036712032e-001	 2.193311913580805e+000
1	 1.226945999478585e+000	 5.550744984511792e-001	 1.833686479950576e+000
1	 1.220936674306278e+000	 5.681706159193329e-001	 1.457523091638086e+000
1	 1.214775784140606e+000	 5.812263091509863e-001	 1.065810243203120e+000
1	 1.208463575859269e+000	 5.942390262655702e-001	 6.595657807182064e-001
1	 1.202000352151671e+000	 6.072062118977436e-001	 2.398360724275545e-001
1	 1.195386471845647e+000	 6.201253086879278e-001	-1.923048750969756e-001
1	 1.188622350187476e+000	 6.329937587906361e-001	-6.357563544893025e-001
1	 1.181708459074210e+000	 6.458090053989225e-001	-1.089391947860272e+000
1	 1.174645327237490e+000	 6.585684942832285e-001	-1.552060568714849e+000
1	 1.244640796697276e+000	 5.313889872357854e-001	 2.329183614617390e+000
1	 1.238906873416620e+000	 5.446235169084013e-001	 1.990628245199845e+000
1	 1.233020305303900e+000	 5.578225348440832e-001	 1.634860480422424e+000
1	 1.226981229450880e+000	 5.709834879467168e-001	 1.262879644631354e+000
1	 1.220789838243787e+000	 5.841038166824406e-001	 8.757162673541591e-001
1	 1.214446379782539e+000	 5.971809565369676e-001	 4.744312462810775e-001
1	 1.207951158255066e+000	 6.102123394939857e-001	 6.011495214815897e-002
1	 1.201304534265663e+000	 6.231953955330730e-001	-3.661137237157592e-001
1	 1.194506925116377e+000	 6.361275541454937e-001	-8.031083782689088e-001
1	 1.187558805040492e+000	 6.490062458661944e-001	-1.249696161002943e+000
1	 1.180460705387259e+000	 6.618289038202686e-001	-1.704678892351399e+000
1	 1.250772349283640e+000	 5.340068023739211e-001	 2.128248589520508e+000
1	 1.245010178614542e+000	 5.473065301459731e-001	 1.793332400698353e+000
1	 1.239094611129547e+000	 5.605705712373188e-001	 1.441513026225984e+000
1	 1.233025784595776e+000	 5.737963599743795e-001	 1.073827609132692e+000
1	 1.226803892347210e+000	 5.869813242141136e-001	 6.913454896421836e-001
1	 1.220429183705992e+000	 6.001228868085193e-001	 2.951673090741002e-001
1	 1.213901964358580e+000	 6.132184670903178e-001	-1.135759470810869e-001
1	 1.207222596685732e+000	 6.262654823782473e-001	-5.337239660670059e-001
1	 1.200391500045263e+000	 6.392613495003259e-001	-9.640881837441903e-001
1	 1.193409151006699e+000	 6.522034863333969e-001	-1.403452918290683e+000
1	 1.186276083536898e+000	 6.650893133572102e-001	-1.850576560406036e+000
1	 1.256903901870271e+000	 5.366246175124240e-001	 1.932651352912160e+000
1	 1.251113483812722e+000	 5.499895433838962e-001	 1.601434238131136e+000
1	 1.245168916955427e+000	 5.633186076308789e-001	 1.253647705809984e+000
1	 1.239070339740865e+000	 5.766092320023309e-001	 8.903636224227072e-001
1	 1.232817946450777e+000	 5.898588317460343e-001	 5.126869570451083e-001
1	 1.226411987629527e+000	 6.030648170802745e-001	 1.217548299158388e-001
1	 1.219852770462114e+000	 6.162245946868086e-001	-2.812645023627954e-001
1	 1.213140659105751e+000	 6.293355692235377e-001	-6.951727240591785e-001
1	 1.206276074974036e+000	 6.423951448552380e-001	-1.118742598891857e+000
1	 1.199259496972731e+000	 6.554007268006509e-001	-1.550719168700608e+000
1	 1.192091461686306e+000	 6.683497228941863e-001	-1.989821010790704e+000
1	 1.263035454457067e+000	 5.392424326512596e-001	 1.742407010214063e+000
1	 1.257216789011060e+000	 5.526725566221481e-001	 1.414943424125412e+000
1	 1.251243222781439e+000	 5.660666440247560e-001	 1.071268037942012e+000
1	 1.245114894886047e+000	 5.794221040305814e-001	 7.124843870822061e-001
1	 1.238832000554385e+000	 5.927363392782314e-001	 3.397299292330297e-001
1	 1.232394791553046e+000	 6.060067473522817e-001	-4.582495872048818e-002
1	 1.225803576565566e+000	 6.192307222835267e-001	-4.429780494680022e-001
1	 1.219058721525625e+000	 6.324056560690328e-001	-8.504963987492786e-001
1	 1.212160649902596e+000	 6.455289402103351e-001	-1.267117542360286e+000
1	 1.205109842938485e+000	 6.585979672680770e-001	-1.691550755347380e+000
1	 1.197906839835384e+000	 6.716101324313292e-001	-2.122478371876129e+000
1	 1.269167007043930e+000	 5.418602477903944e-001	 1.557530374941536e+000
1	 1.263320094209456e+000	 5.553555698607069e-001	 1.233869438505014e+000
1	 1.257317528607485e+000	 5.688146804189427e-001	 8.943774733915594e-001
1	 1.251159450031222e+000	 5.822349760591403e-001	 5.401866694143126e-001
1	 1.244846054657936e+000	 5.956138468107336e-001	 1.724638734301588e-001
1	 1.238377595476449e+000	 6.089486776245893e-001	-2.075904616846134e-001
1	 1.231754382668837e+000	 6.222368498805404e-001	-5.987433959124061e-001
1	 1.224976783945250e+000	 6.354757429148198e-001	-9.997306877558021e-001
1	 1.218045224830843e+000	 6.486627355657232e-001	-1.409258045435236e+000
1	 1.210960188903866e+000	 6.617952077357959e-001	-1.826002442196392e+000
1	 1.203722217984031e+000	 6.748705419687716e-001	-2.248613494124867e+000
1	 1.275298559630759e+000	 5.444780629297946e-001	 1.378035975720658e+000
1	 1.269423399407810e+000	 5.580385830995502e-001	 1.058221578781035e+000
1	 1.263391834433463e+000	 5.715627168134314e-001	 7.229793965648038e-001
1	 1.257204005176290e+000	 5.850478480880179e-001	 3.734672979127369e-001
1	 1.250860108761329e+000	 5.984913543435702e-001	 1.087845942535144e-002
1	 1.244360399399635e+000	 6.118906078972457e-001	-3.635597298681773e-001
1	 1.237705188771828e+000	 6.252429774779184e-001	-7.485868336557002e-001
1	 1.230894846364528e+000	 6.385458297609863e-001	-1.142910602169090e+000
1	 1.223929799758676e+000	 6.517965309215072e-001	-1.545208273371956e+000
1	 1.216810534868771e+000	 6.649924482039284e-001	-1.954127940006525e+000
1	 1.209537596132148e+000	 6.781309515066470e-001	-2.368289980812149e+000
1	 1.281430112217454e+000	 5.470958780694262e-001	 1.203938063104286e+000
1	 1.275526704606021e+000	 5.607215963386558e-001	 8.880089645133580e-001
1	 1.269466140259273e+000	 5.743107532082148e-001	 5.570771270919220e-001
1	 1.263248560321152e+000	 5.878607201172238e-001	 2.123231617738372e-001
1	 1.256874162864464e+000	 6.013688618767694e-001	-1.450364452744702e-001
1	 1.250343203322505e+000	 6.148325381703006e-001	-5.137504686729231e-001
1	 1.243655994874438e+000	 6.282491050757292e-001	-8.925341514361689e-001
1	 1.236812908783358e+000	 6.416159166076205e-001	-1.280070482976378e+000
1	 1.229814374685995e+000	 6.549303262777925e-001	-1.675011546114549e+000
1	 1.222660880833101e+000	 6.681896886725949e-001	-2.075979931527193e+000
1	 1.215352974279634e+000	 6.813913610450872e-001	-2.481570217864115e+000
1	 1.287561664803915e+000	 5.497136932092553e-001	 1.035250616192815e+000
1	 1.281630009803991e+000	 5.634046095780015e-001	 7.232405415479186e-001
1	 1.275540446084816e+000	 5.770587896032857e-001	 3.966739213696959e-001
1	 1.269293115465706e+000	 5.906735921467680e-001	 5.675120945092448e-002
1	 1.262888216967242e+000	 6.042463694103605e-001	-2.952907801519809e-001
1	 1.256326007244957e+000	 6.177744684438015e-001	-6.581800462372048e-001
1	 1.249606800976565e+000	 6.312552326740413e-001	-1.030610646752725e+000
1	 1.242730971201641e+000	 6.446860034548100e-001	-1.411244017017645e+000
1	 1.235698949612701e+000	 6.580641216346842e-001	-1.798710358423650e+000
1	 1.228511226796755e+000	 6.713869291419161e-001	-2.191610095976514e+000
1	 1.221168352426389e+000	 6.846517705842250e-001	-2.588515402844128e+000
1	 1.163014570937961e+000	 6.520476752083219e-001	-1.226385458901081e+000
1	 1.155873109602832e+000	 6.646249776286929e-001	-1.718649583465169e+000
1	 1.148585058614304e+000	 6.771420126199730e-001	-2.230068584537023e+000
1	 1.141151112142714e+000	 6.895962677838111e-001	-2.759640702640160e+000
1	 1.133572020887520e+000	 7.019852395065859e-001	-3.306364948661010e+000
1	 1.125848592007459e+000	 7.143064345277265e-001	-3.869242541328742e+000
1	 1.117981688999059e+000	 7.265573715111380e-001	-4.447278346880155e+000
1	 1.109972231523171e+000	 7.387355826177517e-001	-5.039482317994171e+000
1	 1.101821195179304e+000	 7.508386150772266e-001	-5.644870929051966e+000
1	 1.093529611227624e+000	 7.628640327567903e-001	-6.262468604764858e+000
1	 1.085098566258542e+000	 7.748094177252014e-001	-6.891309139201647e+000
1	 1.168829949087690e+000	 6.553080847459571e-001	-1.392652809466013e+000
1	 1.161652778571524e+000	 6.679482769799122e-001	-1.877069445829215e+000
1	 1.154328285415150e+000	 6.805279004318178e-001	-2.380280380891775e+000
1	 1.146857167259933e+000	 6.930444301406756e-001	-2.901346307174189e+000
1	 1.139240178559023e+000	 7.054953499741441e-001	-3.439331931887011e+000
1	 1.131478130507162e+000	 7.178781542047006e-001	-3.993307334940569e+000
1	 1.123571890918583e+000	 7.301903490889223e-001	-4.562349322650542e+000
1	 1.115522384052679e+000	 7.424294544479033e-001	-5.145542774327722e+000
1	 1.107330590387213e+000	 7.545930052468109e-001	-5.741981978933450e+000
1	 1.098997546338916e+000	 7.666785531715749e-001	-6.350771958979835e+000
1	 1.090524343931437e+000	 7.786836682006677e-001	-6.971029778866570e+000
1	 1.174645327237490e+000	 6.585684942832285e-001	-1.552060568714848e+000
1	 1.167432447540242e+000	 6.712715763307389e-001	-2.028456137475303e+000
1	 1.160071512215981e+000	 6.839137882432631e-001	-2.523323377016629e+000
1	 1.152563222377106e+000	 6.964925924971537e-001	-3.035784157203755e+000
1	 1.144908336230456e+000	 7.090054604413443e-001	-3.564967409372824e+000
1	 1.137107669006771e+000	 7.214498738813563e-001	-4.110010405222683e+000
1	 1.129162092837993e+000	 7.338233266664368e-001	-4.670060025257853e+000
1	 1.121072536582053e+000	 7.461233262778365e-001	-5.244274014080423e+000
1	 1.112839985594964e+000	 7.583473954162310e-001	-5.831822219835555e+000
1	 1.104465481450024e+000	 7.704930735862463e-001	-6.431887815132044e+000
1	 1.095950121604115e+000	 7.825579186760658e-001	-7.043668496786015e+000
1	 1.180460705387259e+000	 6.618289038202686e-001	-1.704678892351400e+000
1	 1.173212116508882e+000	 6.745948756813138e-001	-2.172889818440849e+000
1	 1.165814739016700e+000	 6.872996760544552e-001	-2.659285582843564e+000
1	 1.158269277494137e+000	 6.999407548533922e-001	-3.163047979706818e+000
1	 1.150576493901720e+000	 7.125155709083308e-001	-3.683368715974466e+000
1	 1.142737207506194e+000	 7.250215935578347e-001	-4.219450611503395e+000
1	 1.134752294757199e+000	 7.374563042438156e-001	-4.770508782932111e+000
1	 1.126622689111209e+000	 7.498171981076808e-001	-5.335771808707258e+000
1	 1.118349380802482e+000	 7.621017855856068e-001	-5.914482872698857e+000
1	 1.109933416560885e+000	 7.743075940009153e-001	-6.505900883869982e+000
1	 1.101375899276528e+000	 7.864321691514963e-001	-7.109301569501704e+000
1	 1.186276083536898e+000	 6.650893133572102e-001	-1.850576560406036e+000
1	 1.178991785477346e+000	 6.779181750317777e-001	-2.310449076916794e+000
1	 1.171557965817204e+000	 6.906855638655393e-001	-2.788253282530766e+000
1	 1.163975332610925e+000	 7.033889172095377e-001	-3.283229663783377e+000
1	 1.156244651572721e+000	 7.160256813752506e-001	-3.794631277923438e+000
1	 1.148366746005336e+000	 7.285933132342778e-001	-4.321724874593511e+000
1	 1.140342496676112e+000	 7.410892818211960e-001	-4.863791995800301e+000
1	 1.132172841640063e+000	 7.535110699375641e-001	-5.420130051695570e+000
1	 1.123858776009693e+000	 7.658561757550579e-001	-5.990053369727007e+000
1	 1.115401351671433e+000	 7.781221144156914e-001	-6.572894214764070e+000
1	 1.106801676948623e+000	 7.903064196270588e-001	-7.168003777861142e+000
1	 1.192091461686306e+000	 6.683497228941863e-001	-1.989821010790704e+000
1	 1.184771454445534e+000	 6.812414743822718e-001	-2.441210967586913e+000
1	 1.177301192617397e+000	 6.940714516766612e-001	-2.910311076556840e+000
1	 1.169681387727372e+000	 7.068370795657385e-001	-3.396419305483327e+000
1	 1.161912809243362e+000	 7.195357918422488e-001	-3.898848659381004e+000
1	 1.153996284504104e+000	 7.321650329108280e-001	-4.416928224069782e+000
1	 1.145932698594644e+000	 7.447222593987140e-001	-4.950004182915285e+000
1	 1.137722994168534e+000	 7.572049417676150e-001	-5.497440804371855e+000
1	 1.129368171216523e+000	 7.696105659247043e-001	-6.058621398016429e+000
1	 1.120869286781606e+000	 7.819366348306854e-001	-6.632949236823591e+000
1	 1.112227454620352e+000	 7.941806701028538e-001	-7.219848443499683e+000
1	 1.197906839835384e+000	 6.716101324313292e-001	-2.122478371876128e+000
1	 1.190551123413346e+000	 6.845647737329372e-001	-2.565251048851283e+000
1	 1.183044419417176e+000	 6.974573394879658e-001	-3.025541922589022e+000
1	 1.175387442843380e+000	 7.102852419221407e-001	-3.502705251329928e+000
1	 1.167580966913544e+000	 7.230459023094709e-001	-3.996112607636186e+000
1	 1.159625823002403e+000	 7.357367525876272e-001	-4.505153844180780e+000
1	 1.151522900512705e+000	 7.483552369765053e-001	-5.029238027916000e+000
1	 1.143273146696537e+000	 7.608988135979621e-001	-5.567794340373359e+000
1	 1.134877566422896e+000	 7.733649560946659e-001	-6.120272941915378e+000
1	 1.126337221891338e+000	 7.857511552460075e-001	-6.686145797832377e+000
1	 1.117653232291664e+000	 7.980549205789822e-001	-7.264907464260270e+000
1	 1.203722217984031e+000	 6.748705419687716e-001	-2.248613494124867e+000
1	 1.196330792380682e+000	 6.878880730839148e-001	-2.682643418970116e+000
1	 1.188787646216445e+000	 7.008432272996003e-001	-3.134027175166359e+000
1	 1.181093497958850e+000	 7.137334042788914e-001	-3.602174140580897e+000
1	 1.173249124583171e+000	 7.265560127770632e-001	-4.086513096994186e+000
1	 1.165255361500140e+000	 7.393084722648167e-001	-4.586493118422433e+000
1	 1.157113102430205e+000	 7.519882145547062e-001	-5.101584423362366e+000
1	 1.148823299223990e+000	 7.645926854287342e-001	-5.631279188831517e+000
1	 1.140386961628738e+000	 7.771193462650626e-001	-6.175092324155653e+000
1	 1.131805157000568e+000	 7.895656756617677e-001	-6.732562202544402e+000
1	 1.123079009962507e+000	 8.019291710555436e-001	-7.303251348585787e+000
1	 1.209537596132148e+000	 6.781309515066470e-001	-2.368289980812148e+000
1	 1.202110461347441e+000	 6.912113724353453e-001	-2.793460751164969e+000
1	 1.194530873015101e+000	 7.042291151117091e-001	-3.235846624238877e+000
1	 1.186799553073684e+000	 7.171815666361385e-001	-3.694910946270404e+000
1	 1.178917282252147e+000	 7.300661232451708e-001	-4.170138371397833e+000
1	 1.170884899997221e+000	 7.428801919425390e-001	-4.661035672827410e+000
1	 1.162703304347055e+000	 7.556211921334526e-001	-5.167132513793454e+000
1	 1.154373451750810e+000	 7.682865572600593e-001	-5.687982176309272e+000
1	 1.145896356833974e+000	 7.808737364360138e-001	-6.223162245796714e+000
1	 1.137273092109230e+000	 7.933801960780769e-001	-6.772275249778228e+000
1	 1.128504787632834e+000	 8.058034215326391e-001	-7.334949248920775e+000
1	 1.215352974279634e+000	 6.813913610450872e-001	-2.481570217864115e+000
1	 1.207890130313525e+000	 6.945346717873699e-001	-2.897774327712385e+000
1	 1.200274099813047e+000	 7.076150029244384e-001	-3.331078532599436e+000
1	 1.192505608187781e+000	 7.206297289940284e-001	-3.780999015072793e+000
1	 1.184585439920374e+000	 7.335762337139400e-001	-4.247074985826302e+000
1	 1.176514438493552e+000	 7.464519116209352e-001	-4.728869418012075e+000
1	 1.168293506263165e+000	 7.592541697128802e-001	-5.225969737546910e+000
1	 1.159923604276914e+000	 7.719804290920662e-001	-5.737988467534049e+000
1	 1.151405752038531e+000	 7.846281266076394e-001	-6.264563825023979e+000
1	 1.142741027217261e+000	 7.971947164950446e-001	-6.805360268445226e+000
1	 1.133930565302592e+000	 8.096776720103682e-001	-7.360068994152047e+000
1	 1.221168352426389e+000	 6.846517705842250e-001	-2.588515402844127e+000
1	 1.213669799278833e+000	 6.978579711401302e-001	-2.995654073063539e+000
1	 1.206017326610182e+000	 7.110008907379337e-001	-3.419799672246619e+000
1	 1.198211663301045e+000	 7.240778913527084e-001	-3.860520106027966e+000
1	 1.190253597587755e+000	 7.370863441835159e-001	-4.317407846510425e+000
1	 1.182143976989039e+000	 7.500236313001479e-001	-4.790080590021330e+000
1	 1.173883708178447e+000	 7.628871472931258e-001	-5.278181867385910e+000
1	 1.165473756802219e+000	 7.756743009248834e-001	-5.781381604968015e+000
1	 1.156915147242332e+000	 7.883825167800594e-001	-6.299376634838170e+000
1	 1.148208962324598e+000	 8.010092369127815e-001	-6.831891152549748e+000
1	 1.139356342971731e+000	 8.135519224888317e-001	-7.378677121124285e+000
1	 1.085098566258542e+000	 7.748094177252014e-001	-6.891309139201647e+000
1	 1.076529201503747e+000	 7.866723715475821e-001	-7.524565366030068e+000
1	 1.067822711491155e+000	 7.984505160308466e-001	-8.156350658938848e+000
1	 1.058980344492536e+000	 8.101414955202057e-001	-8.787143990605705e+000
1	 1.050003402295374e+000	 8.217429786830747e-001	-9.417459022316026e+000
1	 1.040893239615138e+000	 8.332526600199040e-001	-1.004784324725187e+001
1	 1.031651263456647e+000	 8.446682613580696e-001	-1.067887706647768e+001
1	 1.022278932425099e+000	 8.559875333268288e-001	-1.131117279921854e+001
1	 1.012777755987415e+000	 8.672082568113665e-001	-1.194537362920951e+001
1	 1.003149293684649e+000	 8.783282443839943e-001	-1.258215248906652e+001
1	 9.933951542962829e-001	 8.893453417105752e-001	-1.322221088479822e+001
1	 1.090524343931437e+000	 7.786836682006677e-001	-6.971029778866567e+000
1	 1.081912130102921e+000	 7.906059399064089e-001	-7.596061209683561e+000
1	 1.073162105354262e+000	 8.024429782041105e-001	-8.220056937481395e+000
1	 1.064275524198938e+000	 8.141924156600732e-001	-8.843496979988279e+000
1	 1.055253694933738e+000	 8.258519092844207e-001	-9.466895076164340e+000
1	 1.046097979048090e+000	 8.374191420494838e-001	-1.009079782618755e+001
1	 1.036809790582231e+000	 8.488918243911607e-001	-1.071578376572189e+001
1	 1.027390595434792e+000	 8.602676956912462e-001	-1.134246237607583e+001
1	 1.017841910620453e+000	 8.715445257387533e-001	-1.197147303203747e+001
1	 1.008165303478405e+000	 8.827201161682627e-001	-1.260348388933927e+001
1	 9.983623908324757e-001	 8.937923018733837e-001	-1.323919071387598e+001
1	 1.095950121604115e+000	 7.825579186760658e-001	-7.043668496786015e+000
1	 1.087295058701843e+000	 7.945395082652035e-001	-7.660585101510099e+000
1	 1.078501499217072e+000	 8.064354403773669e-001	-8.276889157688848e+000
1	 1.069570703904998e+000	 8.182433357999499e-001	-8.893061083454041e+000
1	 1.060503987571714e+000	 8.299608398857832e-001	-9.509614094242318e+000
1	 1.051302718480609e+000	 8.415856240790786e-001	-1.012709334067544e+001
1	 1.041968317707342e+000	 8.531153874242557e-001	-1.074607498223811e+001
1	 1.032502258443979e+000	 8.645478580556495e-001	-1.136716519837116e+001
1	 1.022906065252958e+000	 8.758807946660987e-001	-1.199099913877141e+001
1	 1.013181313271613e+000	 8.871119879524556e-001	-1.261823981485404e+001
1	 1.003329627368119e+000	 8.982392620360757e-001	-1.324957693449775e+001
1	 1.101375899276528e+000	 7.864321691514963e-001	-7.109301569501704e+000
1	 1.092677987300476e+000	 7.984730766240552e-001	-7.718204186879787e+000
1	 1.083840893079570e+000	 8.104279025506974e-001	-8.326905843583365e+000
1	 1.074865883610720e+000	 8.222942559399072e-001	-8.935886720819740e+000
1	 1.065754280209328e+000	 8.340697704872252e-001	-9.545658916158283e+000
1	 1.056507457912742e+000	 8.457521061087439e-001	-1.015676558049307e+001
1	 1.047126844832045e+000	 8.573389504574061e-001	-1.076977999224918e+001
1	 1.037613921452742e+000	 8.688280204200858e-001	-1.138530457045731e+001
1	 1.027970219885028e+000	 8.802170635934490e-001	-1.200396982849100e+001
1	 1.018197323064383e+000	 8.915038597366195e-001	-1.262643327042183e+001
1	 1.008296863903329e+000	 9.026862221987012e-001	-1.325337823210958e+001
1	 1.106801676948623e+000	 7.903064196270588e-001	-7.168003777861142e+000
1	 1.098060915898787e+000	 8.024066449830550e-001	-7.768984294520039e+000
1	 1.089180286941740e+000	 8.144203647241820e-001	-8.370164371599490e+000
1	 1.080161063316109e+000	 8.263451760800170e-001	-8.972023323228802e+000
1	 1.071004572846603e+000	 8.381787010888107e-001	-9.575071541486398e+000
1	 1.061712197344534e+000	 8.499185881385367e-001	-1.017984963362287e+001
1	 1.052285371956406e+000	 8.615625134906624e-001	-1.078692749790605e+001
1	 1.042725584461163e+000	 8.731081827846019e-001	-1.139690333971662e+001
1	 1.033034374516761e+000	 8.845533325208502e-001	-1.201040262968833e+001
1	 1.023213332856823e+000	 8.958957315208017e-001	-1.262807700584514e+001
1	 1.013264100438222e+000	 9.071331823613102e-001	-1.325060312184656e+001
1	 1.112227454620352e+000	 7.941806701028538e-001	-7.219848443499686e+000
1	 1.103443844496742e+000	 8.063402133422929e-001	-7.812989968631263e+000
1	 1.094519680803567e+000	 8.184128268979014e-001	-8.406720998575517e+000
1	 1.085456243021168e+000	 8.303960962203504e-001	-9.001519357266471e+000
1	 1.076254865483564e+000	 8.422876316906022e-001	-9.597893150256468e+000
1	 1.066916936776029e+000	 8.540850701685137e-001	-1.019637990337004e+001
1	 1.057443899080488e+000	 8.657860765240758e-001	-1.079754564129056e+001
1	 1.047837247469324e+000	 8.773883451492456e-001	-1.140198390770792e+001
1	 1.038098529148254e+000	 8.888896014483473e-001	-1.201031472882061e+001
1	 1.028229342649043e+000	 9.002876033050488e-001	-1.262318352213830e+001
1	 1.018231336972914e+000	 9.115801425239533e-001	-1.324125995268734e+001
1	 1.117653232291664e+000	 7.980549205789822e-001	-7.264907464260270e+000
1	 1.108826773094307e+000	 8.102737817018594e-001	-7.850284500065352e+000
1	 1.099859074665035e+000	 8.224052890719364e-001	-8.436630888929605e+000
1	 1.090751422725903e+000	 8.344470163609796e-001	-9.024422348372964e+000
1	 1.081505158120238e+000	 8.463965622926637e-001	-9.614164122846981e+000
1	 1.072121676207273e+000	 8.582515521987304e-001	-1.020639012498211e+001
1	 1.062602426204357e+000	 8.700096395576972e-001	-1.080166201800979e+001
1	 1.052948910477308e+000	 8.816685075140641e-001	-1.140056824098678e+001
1	 1.043162683779604e+000	 8.932258703759864e-001	-1.200372297861104e+001
1	 1.033245352441153e+000	 9.046794750894069e-001	-1.261176507756607e+001
1	 1.023198573507524e+000	 9.160271026866799e-001	-1.322535691148745e+001
1	 1.123079009962507e+000	 8.019291710555436e-001	-7.303251348585785e+000
1	 1.114209701691448e+000	 8.142073500618448e-001	-7.880929956601946e+000
1	 1.105198468526130e+000	 8.263977512463679e-001	-8.459948141048232e+000
1	 1.096046602430319e+000	 8.384979365019762e-001	-9.040778903576877e+000
1	 1.086755450756648e+000	 8.505054928950590e-001	-9.623924059300659e+000
1	 1.077326415638312e+000	 8.624180342292440e-001	-1.020991338178585e+001
1	 1.067760953328076e+000	 8.742332025915777e-001	-1.079930369039676e+001
1	 1.058060573485198e+000	 8.859486698791049e-001	-1.139267788161479e+001
1	 1.048226838410909e+000	 8.975621393038130e-001	-1.199064390611158e+001
1	 1.038261362233259e+000	 9.090713468739226e-001	-1.259383369350805e+001
1	 1.028165810042165e+000	 9.204740628495401e-001	-1.320290202689489e+001
1	 1.128504787632834e+000	 8.058034215326391e-001	-7.334949248920775e+000
1	 1.119592630288131e+000	 8.181409184223392e-001	-7.904987212350574e+000
1	 1.110537862386833e+000	 8.303902134212757e-001	-8.476725812912918e+000
1	 1.101341782134418e+000	 8.425488566434111e-001	-9.050634733574487e+000
1	 1.092005743392820e+000	 8.546144234978502e-001	-9.627211798084534e+000
1	 1.082531155069191e+000	 8.665845162601109e-001	-1.020698212085988e+001
1	 1.072919480451713e+000	 8.784567656257682e-001	-1.079049720033060e+001
1	 1.063172236493076e+000	 8.902288322444147e-001	-1.137833395736316e+001
1	 1.053290993042266e+000	 9.018984082318732e-001	-1.197109372053122e+001
1	 1.043277372025473e+000	 9.134632186586423e-001	-1.256940116015269e+001
1	 1.033133046576956e+000	 9.249210230125845e-001	-1.317390317315399e+001
1	 1.133930565302592e+000	 8.096776720103682e-001	-7.360068994152050e+000
1	 1.124975558884321e+000	 8.220744867834334e-001	-7.922515976308659e+000
1	 1.115877256247132e+000	 8.343826755967413e-001	-8.487015946992051e+000
1	 1.106636961838206e+000	 8.465997767853563e-001	-9.054034674173366e+000
1	 1.097256036028779e+000	 8.587233541011022e-001	-9.624065434309399e+000
1	 1.087735894499954e+000	 8.707509982913869e-001	-1.019762816825617e+001
1	 1.078078007575330e+000	 8.826803286603194e-001	-1.077526858168748e+001
1	 1.068283899501023e+000	 8.945089946100412e-001	-1.135755719162539e+001
1	 1.058355147673773e+000	 9.062346771602122e-001	-1.194508832084087e+001
1	 1.048293381817903e+000	 9.178550904436129e-001	-1.253847904202875e+001
1	 1.038100283112013e+000	 9.293679831758626e-001	-1.313836807379919e+001
1	 1.139356342971731e+000	 8.135519224888317e-001	-7.378677121124285e+000
1	 1.130358487479987e+000	 8.260080551452174e-001	-7.933574820103672e+000
1	 1.121216650107010e+000	 8.383751377728456e-001	-8.490869594420374e+000
1	 1.111932141541688e+000	 8.506506969278836e-001	-9.051022707124561e+000
1	 1.102506328664550e+000	 8.628322847048778e-001	-9.614522337430381e+000
1	 1.092940633930648e+000	 8.749174803231294e-001	-1.018188274378753e+001
1	 1.083236534698992e+000	 8.869038916952824e-001	-1.075364337243693e+001
1	 1.073395562509123e+000	 8.987891569760318e-001	-1.133036791304488e+001
1	 1.063419302305526e+000	 9.105709460888763e-001	-1.191264330316004e+001
1	 1.053309391610658e+000	 9.222469622288806e-001	-1.250107868337865e+001
1	 1.043067519647452e+000	 9.338149433394247e-001	-1.309630430524396e+001
1	 9.933951542962829e-001	 8.893453417105752e-001	-1.322221088479822e+001
1	 9.835184859689858e-001	 9.002558003182557e-001	-1.385896297054507e+001
1	 9.735195395573906e-001	 9.110591980650797e-001	-1.448549698602374e+001
1	 9.634000661355969e-001	 9.217534898403010e-001	-1.510175785967742e+001
1	 9.531618621657936e-001	 9.323366689633666e-001	-1.570769140449764e+001
1	 9.428067684371487e-001	 9.428067684371487e-001	-1.630324466615196e+001
1	 9.323366689633666e-001	 9.531618621657936e-001	-1.688836627399165e+001
1	 9.217534898403014e-001	 9.634000661355970e-001	-1.746300679408706e+001
1	 9.110591980650801e-001	 9.735195395573908e-001	-1.802711908342723e+001
1	 9.002558003182558e-001	 9.835184859689861e-001	-1.858065864441584e+001
1	 8.893453417105754e-001	 9.933951542962831e-001	-1.912358397878883e+001
1	 9.983623908324757e-001	 8.937923018733837e-001	-1.323919071387598e+001
1	 9.884363365709108e-001	 9.047573156379061e-001	-1.387184519660752e+001
1	 9.783873928026629e-001	 9.156147332090736e-001	-1.449438700199463e+001
1	 9.682173193576339e-001	 9.263624992500780e-001	-1.510677730515929e+001
1	 9.579279216807665e-001	 9.369985970464639e-001	-1.570897816085951e+001
1	 9.475210497656301e-001	 9.475210497656299e-001	-1.630095283157850e+001
1	 9.369985970464638e-001	 9.579279216807664e-001	-1.688266611848176e+001
1	 9.263624992500781e-001	 9.682173193576340e-001	-1.745408469442705e+001
1	 9.156147332090737e-001	 9.783873928026630e-001	-1.801517743820543e+001
1	 9.047573156379061e-001	 9.884363365709107e-001	-1.856591576918089e+001
1	 8.937923018733837e-001	 9.983623908324757e-001	-1.910627398149322e+001
1	 1.003329627368119e+000	 8.982392620360757e-001	-1.324957693449775e+001
1	 9.933541871722980e-001	 9.092588309573922e-001	-1.387810425955005e+001
1	 9.832552460474230e-001	 9.201702683528507e-001	-1.449661771163327e+001
1	 9.730345725791934e-001	 9.309715086595817e-001	-1.510509488045889e+001
1	 9.626939811953059e-001	 9.416605251292318e-001	-1.570351421525912e+001
1	 9.522353310937285e-001	 9.522353310937285e-001	-1.629185533236193e+001
1	 9.416605251292319e-001	 9.626939811953059e-001	-1.687009932565217e+001
1	 9.309715086595817e-001	 9.730345725791934e-001	-1.743822907914383e+001
1	 9.201702683528505e-001	 9.832552460474229e-001	-1.799622958087932e+001
1	 9.092588309573920e-001	 9.933541871722980e-001	-1.854408823736513e+001
1	 8.982392620360759e-001	 1.003329627368119e+000	-1.908179518774482e+001
1	 1.008296863903329e+000	 9.026862221987012e-001	-1.325337823210958e+001
1	 9.982720377732672e-001	 9.137603462767701e-001	-1.387774472790175e+001
1	 9.881230992917871e-001	 9.247258034964742e-001	-1.449218941078329e+001
1	 9.778518258003882e-001	 9.355805180688869e-001	-1.509670644978771e+001
1	 9.674600407095173e-001	 9.463224532117566e-001	-1.569129083832353e+001
1	 9.569496124215389e-001	 9.569496124215388e-001	-1.627593868076459e+001
1	 9.463224532117563e-001	 9.674600407095172e-001	-1.685064748197354e+001
1	 9.355805180688868e-001	 9.778518258003882e-001	-1.741541643902445e+001
1	 9.247258034964744e-001	 9.881230992917869e-001	-1.797024673438205e+001
1	 9.137603462767698e-001	 9.982720377732671e-001	-1.851514182978564e+001
1	 9.026862221987012e-001	 1.008296863903329e+000	-1.905010776008083e+001
1	 1.013264100438222e+000	 9.071331823613102e-001	-1.325060312184656e+001
1	 1.003189888373937e+000	 9.182618615960960e-001	-1.387077108060826e+001
1	 9.929909525358738e-001	 9.292813386400107e-001	-1.448110238948783e+001
1	 9.826690790213313e-001	 9.401895274780689e-001	-1.508160795845554e+001
1	 9.722261002235053e-001	 9.509843812941224e-001	-1.567229947185283e+001
1	 9.616638937491582e-001	 9.616638937491581e-001	-1.625318965352847e+001
1	 9.509843812941226e-001	 9.722261002235054e-001	-1.682429253498526e+001
1	 9.401895274780689e-001	 9.826690790213314e-001	-1.738562372584529e+001
1	 9.292813386400108e-001	 9.929909525358741e-001	-1.793720068593184e+001
1	 9.182618615960960e-001	 1.003189888373937e+000	-1.847904299825814e+001
1	 9.071331823613102e-001	 1.013264100438222e+000	-1.901117264220568e+001
1	 1.018231336972914e+000	 9.115801425239533e-001	-1.324125995268734e+001
1	 1.008107738974426e+000	 9.227633769154262e-001	-1.385718770921787e+001
1	 9.978588057798009e-001	 9.338368737835240e-001	-1.446335693213112e+001
1	 9.874863322421351e-001	 9.447985368872026e-001	-1.505979543089323e+001
1	 9.769921597373756e-001	 9.556463093764158e-001	-1.564653172464593e+001
1	 9.663781750766814e-001	 9.663781750766810e-001	-1.622359528542404e+001
1	 9.556463093764158e-001	 9.769921597373759e-001	-1.679101678448808e+001
1	 9.447985368872026e-001	 9.874863322421351e-001	-1.734882834112724e+001
1	 9.338368737835242e-001	 9.978588057798010e-001	-1.789706377326935e+001
1	 9.227633769154262e-001	 1.008107738974426e+000	-1.843575884923146e+001
1	 9.115801425239533e-001	 1.018231336972915e+000	-1.896495153993750e+001
1	 1.023198573507524e+000	 9.160271026866799e-001	-1.322535691148745e+001
1	 1.013025589574854e+000	 9.272648922348176e-001	-1.383699892000228e+001
1	 1.002726659023686e+000	 9.383924089270798e-001	-1.443895331757519e+001
1	 9.923035854629124e-001	 9.494075462963626e-001	-1.503126496873063e+001
1	 9.817582192512335e-001	 9.603082374587222e-001	-1.561397936844591e+001
1	 9.710924564042047e-001	 9.710924564042044e-001	-1.618714286298667e+001
1	 9.603082374587223e-001	 9.817582192512335e-001	-1.675080287399401e+001
1	 9.494075462963627e-001	 9.923035854629125e-001	-1.730500812521977e+001
1	 9.383924089270798e-001	 1.002726659023686e+000	-1.784980887129393e+001
1	 9.272648922348177e-001	 1.013025589574854e+000	-1.838525712789710e+001
1	 9.160271026866796e-001	 1.023198573507524e+000	-1.891140690270923e+001
1	 1.028165810042165e+000	 9.204740628495401e-001	-1.320290202689489e+001
1	 1.017943440175341e+000	 9.317664075543262e-001	-1.381020893601691e+001
1	 1.007594512267646e+000	 9.429479440707428e-001	-1.440789181929459e+001
1	 9.971208386837761e-001	 9.540165557056242e-001	-1.499601274893381e+001
1	 9.865242787651832e-001	 9.649701655411264e-001	-1.557463433400497e+001
1	 9.758067377318234e-001	 9.758067377318230e-001	-1.614381991843587e+001
1	 9.649701655411265e-001	 9.865242787651832e-001	-1.670363378242317e+001
1	 9.540165557056242e-001	 9.971208386837762e-001	-1.725414134669966e+001
1	 9.429479440707428e-001	 1.007594512267646e+000	-1.779540937908832e+001
1	 9.317664075543263e-001	 1.017943440175341e+000	-1.832750620275976e+001
1	 9.204740628495404e-001	 1.028165810042166e+000	-1.885050190560560e+001
1	 1.033133046576956e+000	 9.249210230125845e-001	-1.317390317315398e+001
1	 1.022861290776004e+000	 9.362679228740091e-001	-1.377682189910138e+001
1	 1.012462365511799e+000	 9.475034792145779e-001	-1.437017270550457e+001
1	 1.001938091904838e+000	 9.586255651150618e-001	-1.495403502199244e+001
1	 9.912903382793308e-001	 9.696320936237141e-001	-1.552848870726098e+001
1	 9.805210190596337e-001	 9.805210190596339e-001	-1.609361422376845e+001
1	 9.696320936237144e-001	 9.912903382793309e-001	-1.664949281604158e+001
1	 9.586255651150618e-001	 1.001938091904838e+000	-1.719620669207767e+001
1	 9.475034792145778e-001	 1.012462365511799e+000	-1.773383920731799e+001
1	 9.362679228740091e-001	 1.022861290776005e+000	-1.826247505065335e+001
1	 9.249210230125846e-001	 1.033133046576956e+000	-1.878220043191897e+001
1	 1.038100283112013e+000	 9.293679831758626e-001	-1.313836807379919e+001
1	 1.027779141376965e+000	 9.407694381939217e-001	-1.373684187182238e+001
1	 1.017330218756263e+000	 9.520590143586497e-001	-1.432579623928783e+001
1	 1.006755345126213e+000	 9.632345745247507e-001	-1.490532811016151e+001
1	 9.960563977937810e-001	 9.742940217065712e-001	-1.547553472562577e+001
1	 9.852353003877321e-001	 9.852353003877318e-001	-1.603651378502241e+001
1	 9.742940217065713e-001	 9.960563977937811e-001	-1.658836360062859e+001
1	 9.632345745247505e-001	 1.006755345126213e+000	-1.713118325579883e+001
1	 9.520590143586497e-001	 1.017330218756263e+000	-1.766507276599089e+001
1	 9.407694381939216e-001	 1.027779141376965e+000	-1.819013324218654e+001
1	 9.293679831758627e-001	 1.038100283112013e+000	-1.870646705620601e+001
1	 1.043067519647452e+000	 9.338149433394247e-001	-1.309630430524396e+001
1	 1.032696991978341e+000	 9.452709535141213e-001	-1.369027283936157e+001
1	 1.022198072001155e+000	 9.566145495030239e-001	-1.427476267871642e+001
1	 1.011572598348012e+000	 9.678435839347662e-001	-1.484988840575258e+001
1	 1.000822457308639e+000	 9.789559497897831e-001	-1.541576477437773e+001
1	 9.899495817162132e-001	 9.899495817162133e-001	-1.597250683670375e+001
1	 9.789559497897830e-001	 1.000822457308639e+000	-1.652023007386998e+001
1	 9.678435839347661e-001	 1.011572598348011e+000	-1.705905053052994e+001
1	 9.566145495030243e-001	 1.022198072001155e+000	-1.758908495256855e+001
1	 9.452709535141209e-001	 1.032696991978341e+000	-1.811045092760538e+001
1	 9.338149433394248e-001	 1.043067519647452e+000	-1.862326702782748e+001
1	 8.893453417105754e-001	 9.933951542962831e-001	-1.912358397878883e+001
1	 8.783282443839946e-001	 1.003149293684649e+000	-1.964859432141171e+001
1	 8.672082568113666e-001	 1.012777755987415e+000	-2.014882397398470e+001
1	 8.559875333268284e-001	 1.022278932425099e+000	-2.062513718241308e+001
1	 8.446682613580697e-001	 1.031651263456647e+000	-2.107840912812092e+001
1	 8.332526600199038e-001	 1.040893239615138e+000	-2.150952503131550e+001
1	 8.217429786830746e-001	 1.050003402295374e+000	-2.191937924865005e+001
1	 8.101414955202058e-001	 1.058980344492536e+000	-2.230887436688477e+001
1	 7.984505160308463e-001	 1.067822711491155e+000	-2.267892029414107e+001
1	 7.866723715475820e-001	 1.076529201503747e+000	-2.303043335033403e+001
1	 7.748094177252015e-001	 1.085098566258542e+000	-2.336433535835608e+001
1	 8.937923018733837e-001	 9.983623908324757e-001	-1.910627398149322e+001
1	 8.827201161682626e-001	 1.008165303478404e+000	-1.962898390374509e+001
1	 8.715445257387531e-001	 1.017841910620452e+000	-2.012722081551081e+001
1	 8.602676956912464e-001	 1.027390595434792e+000	-2.060187643207808e+001
1	 8.488918243911606e-001	 1.036809790582231e+000	-2.105385377310896e+001
1	 8.374191420494836e-001	 1.046097979048090e+000	-2.148406621610498e+001
1	 8.258519092844205e-001	 1.055253694933738e+000	-2.189343654375686e+001
1	 8.141924156600734e-001	 1.064275524198938e+000	-2.228289598688842e+001
1	 8.024429782041104e-001	 1.073162105354262e+000	-2.265338326469497e+001
1	 7.906059399064089e-001	 1.081912130102921e+000	-2.300584362397575e+001
1	 7.786836682006676e-001	 1.090524343931436e+000	-2.334122787904111e+001
1	 8.982392620360759e-001	 1.003329627368119e+000	-1.908179518774482e+001
1	 8.871119879524554e-001	 1.013181313271613e+000	-1.960211781740093e+001
1	 8.758807946660990e-001	 1.022906065252958e+000	-2.009827388008225e+001
1	 8.645478580556493e-001	 1.032502258443979e+000	-2.057118035662712e+001
1	 8.531153874242556e-001	 1.041968317707342e+000	-2.102176589893657e+001
1	 8.415856240790786e-001	 1.051302718480609e+000	-2.145096983728465e+001
1	 8.299608398857833e-001	 1.060503987571715e+000	-2.185974118098407e+001
1	 8.182433357999499e-001	 1.069570703904998e+000	-2.224903761421749e+001
1	 8.064354403773668e-001	 1.078501499217072e+000	-2.261982448883805e+001
1	 7.945395082652034e-001	 1.087295058701842e+000	-2.297307381594085e+001
1	 7.825579186760656e-001	 1.095950121604114e+000	-2.330976325798446e+001
1	 9.026862221987012e-001	 1.008296863903329e+000	-1.905010776008083e+001
1	 8.915038597366195e-001	 1.018197323064383e+000	-1.956795044726500e+001
1	 8.802170635934493e-001	 1.027970219885028e+000	-2.006193165606698e+001
1	 8.688280204200855e-001	 1.037613921452742e+000	-2.053299146035793e+001
1	 8.573389504574059e-001	 1.047126844832045e+000	-2.098208196966175e+001
1	 8.457521061087441e-001	 1.056507457912742e+000	-2.141016629392279e+001
1	 8.340697704872252e-001	 1.065754280209328e+000	-2.181821750108330e+001
1	 8.222942559399072e-001	 1.074865883610720e+000	-2.220721756937758e+001
1	 8.104279025506973e-001	 1.083840893079570e+000	-2.257815633623906e+001
1	 7.984730766240554e-001	 1.092677987300476e+000	-2.293203044571578e+001
1	 7.864321691514962e-001	 1.101375899276527e+000	-2.326984229627321e+001
1	 9.071331823613102e-001	 1.013264100438222e+000	-1.901117264220568e+001
1	 8.958957315208017e-001	 1.023213332856823e+000	-1.952643707268403e+001
1	 8.845533325208500e-001	 1.033034374516761e+000	-2.001814364191757e+001
1	 8.731081827846016e-001	 1.042725584461163e+000	-2.048725337499364e+001
1	 8.615625134906623e-001	 1.052285371956406e+000	-2.093473969521051e+001
1	 8.499185881385368e-001	 1.061712197344533e+000	-2.136158734988256e+001
1	 8.381787010888104e-001	 1.071004572846602e+000	-2.176879132839794e+001
1	 8.263451760800170e-001	 1.080161063316109e+000	-2.215735577451637e+001
1	 8.144203647241820e-001	 1.089180286941740e+000	-2.252829289489635e+001
1	 8.024066449830547e-001	 1.098060915898786e+000	-2.288262186583318e+001
1	 7.903064196270588e-001	 1.106801676948623e+000	-2.322136774017198e+001
1	 9.115801425239533e-001	 1.018231336972915e+000	-1.896495153993750e+001
1	 9.002876033050489e-001	 1.028229342649043e+000	-1.947753384564740e+001
1	 8.888896014483472e-001	 1.038098529148253e+000	-1.996686032153377e+001
1	 8.773883451492457e-001	 1.047837247469324e+000	-2.043391083218336e+001
1	 8.657860765240759e-001	 1.057443899080488e+000	-2.087967800098694e+001
1	 8.540850701685137e-001	 1.066916936776029e+000	-2.130516610053266e+001
1	 8.422876316906023e-001	 1.076254865483564e+000	-2.171138993467581e+001
1	 8.303960962203505e-001	 1.085456243021168e+000	-2.209937371435632e+001
1	 8.184128268979012e-001	 1.094519680803568e+000	-2.247014992922728e+001
1	 8.063402133422929e-001	 1.103443844496742e+000	-2.282475821716085e+001
1	 7.941806701028539e-001	 1.112227454620352e+000	-2.316424423367654e+001
1	 9.160271026866796e-001	 1.023198573507524e+000	-1.891140690270923e+001
1	 9.046794750894069e-001	 1.033245352441152e+000	-1.942119776960641e+001
1	 8.932258703759863e-001	 1.043162683779604e+000	-1.990803314034224e+001
1	 8.816685075140642e-001	 1.052948910477309e+000	-2.037290963680298e+001
1	 8.700096395576972e-001	 1.062602426204357e+000	-2.081683699837116e+001
1	 8.582515521987303e-001	 1.072121676207273e+000	-2.124083694042702e+001
1	 8.463965622926639e-001	 1.081505158120238e+000	-2.164594200393620e+001
1	 8.344470163609796e-001	 1.090751422725903e+000	-2.203319439826661e+001
1	 8.224052890719366e-001	 1.099859074665036e+000	-2.240364483937441e+001
1	 8.102737817018594e-001	 1.108826773094307e+000	-2.275835138549344e+001
1	 7.980549205789823e-001	 1.117653232291664e+000	-2.309837827245077e+001
1	 9.204740628495404e-001	 1.028165810042166e+000	-1.885050190560560e+001
1	 9.090713468739228e-001	 1.038261362233259e+000	-1.935738667890639e+001
1	 8.975621393038131e-001	 1.048226838410909e+000	-1.984161448207047e+001
1	 8.859486698791049e-001	 1.058060573485198e+000	-2.030419664103033e+001
1	 8.742332025915781e-001	 1.067760953328077e+000	-2.074615795606997e+001
1	 8.624180342292440e-001	 1.077326415638311e+000	-2.116853553192305e+001
1	 8.505054928950588e-001	 1.086755450756648e+000	-2.157237759835508e+001
1	 8.384979365019760e-001	 1.096046602430318e+000	-2.195874232343386e+001
1	 8.263977512463675e-001	 1.105198468526129e+000	-2.232869662169485e+001
1	 8.142073500618446e-001	 1.114209701691448e+000	-2.268331495940218e+001
1	 8.019291710555438e-001	 1.123079009962507e+000	-2.302367815909715e+001
1	 9.249210230125846e-001	 1.033133046576956e+000	-1.878220043191897e+001
1	 9.134632186586426e-001	 1.043277372025473e+000	-1.928605921881152e+001
1	 9.018984082318733e-001	 1.053290993042266e+000	-1.976755764619004e+001
1	 8.902288322444149e-001	 1.063172236493076e+000	-2.022771971916946e+001
1	 8.784567656257680e-001	 1.072919480451713e+000	-2.066758327229577e+001
1	 8.665845162601106e-001	 1.082531155069190e+000	-2.108819877470286e+001
1	 8.546144234978504e-001	 1.092005743392820e+000	-2.149062812513495e+001
1	 8.425488566434111e-001	 1.101341782134418e+000	-2.187594343909576e+001
1	 8.303902134212757e-001	 1.110537862386834e+000	-2.224522583038649e+001
1	 8.181409184223392e-001	 1.119592630288131e+000	-2.259956418930085e+001
1	 8.058034215326392e-001	 1.128504787632834e+000	-2.294005395971927e+001
1	 9.293679831758627e-001	 1.038100283112013e+000	-1.870646705620601e+001
1	 9.178550904436130e-001	 1.048293381817903e+000	-1.920717482610456e+001
1	 9.062346771602124e-001	 1.058355147673773e+000	-1.968581682600789e+001
1	 8.945089946100413e-001	 1.068283899501023e+000	-2.014342774319569e+001
1	 8.826803286603192e-001	 1.078078007575330e+000	-2.058105644774311e+001
1	 8.707509982913870e-001	 1.087735894499954e+000	-2.099976477617105e+001
1	 8.587233541011023e-001	 1.097256036028779e+000	-2.140062630432547e+001
1	 8.465997767853564e-001	 1.106636961838207e+000	-2.178472511180017e+001
1	 8.343826755967414e-001	 1.115877256247132e+000	-2.215315454021812e+001
1	 8.220744867834335e-001	 1.124975558884322e+000	-2.250701594768675e+001
1	 8.096776720103682e-001	 1.133930565302592e+000	-2.284741746173025e+001
1	 9.338149433394248e-001	 1.043067519647452e+000	-1.862326702782749e+001
1	 9.222469622288808e-001	 1.053309391610658e+000	-1.912069371024002e+001
1	 9.105709460888766e-001	 1.063419302305526e+000	-1.959634708738340e+001
1	 8.987891569760318e-001	 1.073395562509123e+000	-2.005127055899993e+001
1	 8.869038916952824e-001	 1.083236534698992e+000	-2.048652205933796e+001
1	 8.749174803231293e-001	 1.092940633930648e+000	-2.090317282269842e+001
1	 8.628322847048777e-001	 1.102506328664550e+000	-2.130230613756319e+001
1	 8.506506969278835e-001	 1.111932141541688e+000	-2.168501609165944e+001
1	 8.383751377728452e-001	 1.121216650107010e+000	-2.205240631032267e+001
1	 8.260080551452174e-001	 1.130358487479987e+000	-2.240558869051732e+001
1	 8.135519224888317e-001	 1.139356342971731e+000	-2.274568213286741e+001
1	 7.748094177252015e-001	 1.085098566258542e+000	-2.336433535835608e+001
1	 7.628640327567904e-001	 1.093529611227624e+000	-2.368012480787547e+001
1	 7.508386150772266e-001	 1.101821195179304e+000	-2.397568326907081e+001
1	 7.387355826177516e-001	 1.109972231523171e+000	-2.424948296884429e+001
1	 7.265573715111381e-001	 1.117981688999059e+000	-2.449996214087867e+001
1	 7.143064345277267e-001	 1.125848592007459e+000	-2.472552889689561e+001
1	 7.019852395065859e-001	 1.133572020887520e+000	-2.492456512617321e+001
1	 6.895962677838112e-001	 1.141151112142714e+000	-2.509543041447861e+001
1	 6.771420126199729e-001	 1.148585058614304e+000	-2.523646597361647e+001
1	 6.646249776286930e-001	 1.155873109602832e+000	-2.534599857286715e+001
1	 6.520476752083220e-001	 1.163014570937961e+000	-2.542234446367915e+001
1	 7.786836682006676e-001	 1.090524343931436e+000	-2.334122787904111e+001
1	 7.666785531715749e-001	 1.098997546338916e+000	-2.365878861952051e+001
1	 7.545930052468111e-001	 1.107330590387213e+000	-2.395619916454023e+001
1	 7.424294544479030e-001	 1.115522384052680e+000	-2.423201737373883e+001
1	 7.301903490889224e-001	 1.123571890918583e+000	-2.448476721356309e+001
1	 7.178781542047006e-001	 1.131478130507162e+000	-2.471294250388084e+001
1	 7.054953499741441e-001	 1.139240178559023e+000	-2.491501069383198e+001
1	 6.930444301406760e-001	 1.146857167259933e+000	-2.508941665831819e+001
1	 6.805279004318179e-001	 1.154328285415150e+000	-2.523458650656167e+001
1	 6.679482769799123e-001	 1.161652778571525e+000	-2.534893139423476e+001
1	 6.553080847459574e-001	 1.168829949087691e+000	-2.543085133074366e+001
1	 7.825579186760656e-001	 1.095950121604114e+000	-2.330976325798446e+001
1	 7.704930735862464e-001	 1.104465481450025e+000	-2.362890171622945e+001
1	 7.583473954162309e-001	 1.112839985594964e+000	-2.392796091778595e+001
1	 7.461233262778366e-001	 1.121072536582053e+000	-2.420558897446585e+001
1	 7.338233266664367e-001	 1.129162092837993e+000	-2.446040029709894e+001
1	 7.214498738813561e-001	 1.137107669006771e+000	-2.469097920749859e+001
1	 7.090054604413444e-001	 1.144908336230456e+000	-2.489588358058866e+001
1	 6.964925924971539e-001	 1.152563222377107e+000	-2.507364850835290e+001
1	 6.839137882432630e-001	 1.160071512215981e+000	-2.522278997728882e+001
1	 6.712715763307390e-001	 1.167432447540242e+000	-2.534180855111809e+001
1	 6.585684942832285e-001	 1.174645327237490e+000	-2.542919305058240e+001
1	 7.864321691514962e-001	 1.101375899276527e+000	-2.326984229627321e+001
1	 7.743075940009153e-001	 1.109933416560885e+000	-2.359035987448388e+001
1	 7.621017855856068e-001	 1.118349380802482e+000	-2.389086047047727e+001
1	 7.498171981076808e-001	 1.126622689111209e+000	-2.417008699903610e+001
1	 7.374563042438157e-001	 1.134752294757199e+000	-2.442674895755749e+001
1	 7.250215935578346e-001	 1.142737207506194e+000	-2.465952589344867e+001
1	 7.125155709083311e-001	 1.150576493901721e+000	-2.486707090254489e+001
1	 6.999407548533921e-001	 1.158269277494137e+000	-2.504801415049496e+001
1	 6.872996760544550e-001	 1.165814739016700e+000	-2.520096640907117e+001
1	 6.745948756813137e-001	 1.173212116508882e+000	-2.532452259943037e+001
1	 6.618289038202687e-001	 1.180460705387259e+000	-2.541726533440880e+001
1	 7.903064196270588e-001	 1.106801676948623e+000	-2.322136774017198e+001
1	 7.781221144156915e-001	 1.115401351671433e+000	-2.354306091446964e+001
1	 7.658561757550582e-001	 1.123858776009693e+000	-2.384479188318394e+001
1	 7.535110699375642e-001	 1.132172841640063e+000	-2.412540284757187e+001
1	 7.410892818211962e-001	 1.140342496676113e+000	-2.438370296571067e+001
1	 7.285933132342778e-001	 1.148366746005336e+000	-2.461847166547325e+001
1	 7.160256813752505e-001	 1.156244651572722e+000	-2.482846198932636e+001
1	 7.033889172095378e-001	 1.163975332610925e+000	-2.501240396320189e+001
1	 6.906855638655390e-001	 1.171557965817204e+000	-2.516900798170071e+001
1	 6.779181750317775e-001	 1.178991785477346e+000	-2.529696820194029e+001
1	 6.650893133572102e-001	 1.186276083536898e+000	-2.539496593841988e+001
1	 7.941806701028539e-001	 1.112227454620352e+000	-2.316424423367654e+001
1	 7.819366348306852e-001	 1.120869286781606e+000	-2.348690465022716e+001
1	 7.696105659247045e-001	 1.129368171216522e+000	-2.378965128369318e+001
1	 7.572049417676151e-001	 1.137722994168534e+000	-2.407143003932634e+001
1	 7.447222593987140e-001	 1.145932698594644e+000	-2.433115424325559e+001
1	 7.321650329108282e-001	 1.153996284504104e+000	-2.456770779125602e+001
1	 7.195357918422488e-001	 1.161912809243362e+000	-2.477994833009201e+001
1	 7.068370795657383e-001	 1.169681387727372e+000	-2.496671046399908e+001
1	 6.940714516766607e-001	 1.177301192617397e+000	-2.512680897888605e+001
1	 6.812414743822718e-001	 1.184771454445535e+000	-2.525904207688364e+001
1	 6.683497228941862e-001	 1.192091461686306e+000	-2.536219461391706e+001
1	 7.980549205789823e-001	 1.117653232291664e+000	-2.309837827245077e+001
1	 7.857511552460074e-001	 1.126337221891338e+000	-2.342179284125535e+001
1	 7.733649560946661e-001	 1.134877566422896e+000	-2.372533681683066e+001
1	 7.608988135979622e-001	 1.143273146696537e+000	-2.400806416124680e+001
1	 7.483552369765054e-001	 1.151522900512705e+000	-2.426899681060392e+001
1	 7.357367525876271e-001	 1.159625823002403e+000	-2.450712764989430e+001
1	 7.230459023094710e-001	 1.167580966913544e+000	-2.472142352111506e+001
1	 7.102852419221404e-001	 1.175387442843380e+000	-2.491082825755685e+001
1	 6.974573394879657e-001	 1.183044419417177e+000	-2.507426573718469e+001
1	 6.845647737329372e-001	 1.190551123413346e+000	-2.521064294806913e+001
1	 6.716101324313291e-001	 1.197906839835384e+000	-2.531885305887685e+001
1	 8.019291710555438e-001	 1.123079009962507e+000	-2.302367815909715e+001
1	 7.895656756617676e-001	 1.131805157000568e+000	-2.334762914551646e+001
1	 7.771193462650629e-001	 1.140386961628738e+000	-2.365174859573920e+001
1	 7.645926854287342e-001	 1.148823299223991e+000	-2.393520281802554e+001
1	 7.519882145547064e-001	 1.157113102430205e+000	-2.419712673618752e+001
1	 7.393084722648167e-001	 1.165255361500140e+000	-2.443662668089892e+001
1	 7.265560127770631e-001	 1.173249124583170e+000	-2.465278321488414e+001
1	 7.137334042788917e-001	 1.181093497958850e+000	-2.484465398527426e+001
1	 7.008432272996001e-001	 1.188787646216445e+000	-2.501127659641445e+001
1	 6.878880730839149e-001	 1.196330792380682e+000	-2.515167149643342e+001
1	 6.748705419687716e-001	 1.203722217984031e+000	-2.526484487092943e+001
1	 8.058034215326392e-001	 1.128504787632834e+000	-2.294005395971927e+001
1	 7.933801960780769e-001	 1.137273092109230e+000	-2.326431907379881e+001
1	 7.808737364360139e-001	 1.145896356833975e+000	-2.356878865455990e+001
1	 7.682865572600591e-001	 1.154373451750810e+000	-2.385274558359595e+001
1	 7.556211921334525e-001	 1.162703304347055e+000	-2.411544208722241e+001
1	 7.428801919425387e-001	 1.170884899997221e+000	-2.435610233466088e+001
1	 7.300661232451707e-001	 1.178917282252146e+000	-2.457392507067290e+001
1	 7.171815666361384e-001	 1.186799553073683e+000	-2.476808627631598e+001
1	 7.042291151117088e-001	 1.194530873015102e+000	-2.493774185149538e+001
1	 6.912113724353454e-001	 1.202110461347441e+000	-2.508203031299161e+001
1	 6.781309515066470e-001	 1.209537596132148e+000	-2.520007550169005e+001
1	 8.096776720103682e-001	 1.133930565302592e+000	-2.284741746173025e+001
1	 7.971947164950446e-001	 1.142741027217261e+000	-2.317176994538709e+001
1	 7.846281266076395e-001	 1.151405752038531e+000	-2.347636090247267e+001
1	 7.719804290920660e-001	 1.159923604276914e+000	-2.376059395401836e+001
1	 7.592541697128803e-001	 1.168293506263165e+000	-2.402384288189047e+001
1	 7.464519116209351e-001	 1.176514438493552e+000	-2.426545402434206e+001
1	 7.335762337139400e-001	 1.184585439920374e+000	-2.448474870652703e+001
1	 7.206297289940287e-001	 1.192505608187781e+000	-2.468102570005667e+001
1	 7.076150029244382e-001	 1.200274099813047e+000	-2.485356370567568e+001
1	 6.945346717873701e-001	 1.207890130313525e+000	-2.500162385313988e+001
1	 6.813913610450871e-001	 1.215352974279634e+000	-2.512445221240325e+001
1	 8.135519224888317e-001	 1.139356342971731e+000	-2.274568213286741e+001
1	 8.010092369127815e-001	 1.148208962324598e+000	-2.306989084500209e+001
1	 7.883825167800594e-001	 1.156915147242333e+000	-2.337437107905070e+001
1	 7.756743009248837e-001	 1.165473756802219e+000	-2.365865130171256e+001
1	 7.628871472931256e-001	 1.173883708178447e+000	-2.392223104288435e+001
1	 7.500236313001479e-001	 1.182143976989039e+000	-2.416458307914033e+001
1	 7.370863441835159e-001	 1.190253597587755e+000	-2.438515565262642e+001
1	 7.240778913527087e-001	 1.198211663301045e+000	-2.458337471988208e+001
1	 7.110008907379337e-001	 1.206017326610182e+000	-2.475864622509125e+001
1	 6.978579711401304e-001	 1.213669799278833e+000	-2.491035839226271e+001
1	 6.846517705842252e-001	 1.221168352426390e+000	-2.503788403085513e+001
1	 6.520476752083220e-001	 1.163014570937961e+000	-2.542234446367915e+001
1	 6.394145244636896e-001	 1.170007767141820e+000	-2.548144576105337e+001
1	 6.267261680804235e-001	 1.176853200330036e+000	-2.553969396869650e+001
1	 6.139851349973728e-001	 1.183550347006173e+000	-2.559606029153636e+001
1	 6.011939567052548e-001	 1.190098739945637e+000	-2.564953367493033e+001
1	 5.883551657230446e-001	 1.196497968013681e+000	-2.569912121230605e+001
1	 5.754712940886185e-001	 1.202747675935370e+000	-2.574384852121113e+001
1	 5.625448718653630e-001	 1.208847564018352e+000	-2.578276008788708e+001
1	 5.495784256663967e-001	 1.214797387829354e+000	-2.581491958054586e+001
1	 5.365744771980170e-001	 1.220596957825402e+000	-2.583941013159418e+001
1	 5.235355418239186e-001	 1.226246138940778e+000	-2.585533458910599e+001
1	 6.553080847459574e-001	 1.168829949087691e+000	-2.543085133074366e+001
1	 6.426117649314612e-001	 1.175858113107952e+000	-2.549655399560608e+001
1	 6.298599634356479e-001	 1.182737775258663e+000	-2.556256398472362e+001
1	 6.170552218427237e-001	 1.189468409425784e+000	-2.562773228859862e+001
1	 6.042000843015226e-001	 1.196049546048495e+000	-2.569092512529256e+001
1	 5.912970959942788e-001	 1.202480771936284e+000	-2.575102459295776e+001
1	 5.783488016197220e-001	 1.208761730037767e+000	-2.580692929130331e+001
1	 5.653577438922183e-001	 1.214892119162068e+000	-2.585755491159341e+001
1	 5.523264620586147e-001	 1.220871693653703e+000	-2.590183479485742e+001
1	 5.392574904344010e-001	 1.226700263021949e+000	-2.593872045806119e+001
1	 5.261533569607503e-001	 1.232377691525745e+000	-2.596718208806536e+001
1	 6.585684942832285e-001	 1.174645327237490e+000	-2.542919305058240e+001
1	 6.458090053989228e-001	 1.181708459074210e+000	-2.550140488564455e+001
1	 6.329937587906362e-001	 1.188622350187476e+000	-2.557509083976528e+001
1	 6.201253086879276e-001	 1.195386471845647e+000	-2.564898827819444e+001
1	 6.072062118977436e-001	 1.202000352151671e+000	-2.572184738100613e+001
1	 5.942390262655704e-001	 1.208463575859270e+000	-2.579243202911828e+001
1	 5.812263091509863e-001	 1.214775784140606e+000	-2.585952065974706e+001
1	 5.681706159193327e-001	 1.220936674306278e+000	-2.592190709040553e+001
1	 5.550744984511793e-001	 1.226945999478585e+000	-2.597840131065253e+001
1	 5.419405036712033e-001	 1.232803568219056e+000	-2.602783024086433e+001
1	 5.287711720980506e-001	 1.238509244111277e+000	-2.606903845739794e+001
1	 6.618289038202687e-001	 1.180460705387259e+000	-2.541726533440879e+001
1	 6.490062458661946e-001	 1.187558805040492e+000	-2.549589853691767e+001
1	 6.361275541454936e-001	 1.194506925116376e+000	-2.557718087612372e+001
1	 6.231953955330729e-001	 1.201304534265663e+000	-2.565974258517847e+001
1	 6.102123394939858e-001	 1.207951158255066e+000	-2.574222439827923e+001
1	 5.971809565369678e-001	 1.214446379782539e+000	-2.582327865887600e+001
1	 5.841038166824406e-001	 1.220789838243787e+000	-2.590157039779558e+001
1	 5.709834879467165e-001	 1.226981229450880e+000	-2.597577837992689e+001
1	 5.578225348440833e-001	 1.233020305303900e+000	-2.604459611821640e+001
1	 5.446235169084013e-001	 1.238906873416620e+000	-2.610673285380058e+001
1	 5.313889872357853e-001	 1.244640796697276e+000	-2.616091450120531e+001
1	 6.650893133572102e-001	 1.186276083536898e+000	-2.539496593841988e+001
1	 6.522034863333970e-001	 1.193409151006699e+000	-2.547993701398653e+001
1	 6.392613495003260e-001	 1.200391500045263e+000	-2.556874227262084e+001
1	 6.262654823782471e-001	 1.207222596685732e+000	-2.565991121439661e+001
1	 6.132184670903177e-001	 1.213901964358580e+000	-2.575198162445130e+001
1	 6.001228868085198e-001	 1.220429183705992e+000	-2.584350089218670e+001
1	 5.869813242141138e-001	 1.226803892347210e+000	-2.593302730084897e+001
1	 5.737963599743791e-001	 1.233025784595776e+000	-2.601913128569031e+001
1	 5.605705712373186e-001	 1.239094611129547e+000	-2.610039665902746e+001
1	 5.473065301459732e-001	 1.245010178614542e+000	-2.617542180059862e+001
1	 5.340068023739212e-001	 1.250772349283641e+000	-2.624282081173286e+001
1	 6.683497228941862e-001	 1.192091461686306e+000	-2.536219461391706e+001
1	 6.554007268006509e-001	 1.199259496972730e+000	-2.545342429244586e+001
1	 6.423951448552381e-001	 1.206276074974036e+000	-2.554968499980365e+001
1	 6.293355692235376e-001	 1.213140659105751e+000	-2.564941180970907e+001
1	 6.162245946868087e-001	 1.219852770462114e+000	-2.575104596162255e+001
1	 6.030648170802748e-001	 1.226411987629527e+000	-2.585303637985086e+001
1	 5.898588317460345e-001	 1.232817946450777e+000	-2.595384116347134e+001
1	 5.766092320023306e-001	 1.239070339740865e+000	-2.605192904486393e+001
1	 5.633186076308788e-001	 1.245168916955427e+000	-2.614578081475179e+001
1	 5.499895433838962e-001	 1.251113483812722e+000	-2.623389071174933e+001
1	 5.366246175124240e-001	 1.256903901870271e+000	-2.631476777453576e+001
1	 6.716101324313291e-001	 1.197906839835384e+000	-2.531885305887685e+001
1	 6.585979672680772e-001	 1.205109842938485e+000	-2.541626621253692e+001
1	 6.455289402103352e-001	 1.212160649902596e+000	-2.551992077645315e+001
1	 6.324056560690328e-001	 1.219058721525625e+000	-2.562816361420564e+001
1	 6.192307222835267e-001	 1.225803576565566e+000	-2.573934573134248e+001
1	 6.060067473522817e-001	 1.232394791553047e+000	-2.585182398339466e+001
1	 5.927363392782314e-001	 1.238832000554385e+000	-2.596396275513899e+001
1	 5.794221040305811e-001	 1.245114894886047e+000	-2.607413560849370e+001
1	 5.660666440247560e-001	 1.251243222781440e+000	-2.618072689655982e+001
1	 5.526725566221482e-001	 1.257216789011060e+000	-2.628213334142837e+001
1	 5.392424326512596e-001	 1.263035454457068e+000	-2.637676557349743e+001
1	 6.748705419687716e-001	 1.203722217984031e+000	-2.526484487092944e+001
1	 6.617952077357960e-001	 1.210960188903866e+000	-2.536837043410592e+001
1	 6.486627355657232e-001	 1.218045224830843e+000	-2.547936302735387e+001
1	 6.354757429148196e-001	 1.224976783945250e+000	-2.559608743157557e+001
1	 6.222368498805404e-001	 1.231754382668837e+000	-2.571681064032041e+001
1	 6.089486776245892e-001	 1.238377595476449e+000	-2.583980374582309e+001
1	 5.956138468107337e-001	 1.244846054657936e+000	-2.596334379669069e+001
1	 5.822349760591402e-001	 1.251159450031222e+000	-2.608571562425792e+001
1	 5.688146804189426e-001	 1.257317528607485e+000	-2.620521363474870e+001
1	 5.553555698607069e-001	 1.263320094209456e+000	-2.632014356450894e+001
1	 5.418602477903944e-001	 1.269167007043930e+000	-2.642882419569887e+001
1	 6.781309515066470e-001	 1.209537596132148e+000	-2.520007550169006e+001
1	 6.649924482039283e-001	 1.216810534868771e+000	-2.530964639286120e+001
1	 6.517965309215071e-001	 1.223929799758676e+000	-2.542792684228280e+001
1	 6.385458297609863e-001	 1.230894846364528e+000	-2.555310558859059e+001
1	 6.252429774779184e-001	 1.237705188771828e+000	-2.568337174712870e+001
1	 6.118906078972459e-001	 1.244360399399635e+000	-2.581691686321825e+001
1	 5.984913543435699e-001	 1.250860108761329e+000	-2.595193693745661e+001
1	 5.850478480880177e-001	 1.257204005176291e+000	-2.608663441972109e+001
1	 5.715627168134314e-001	 1.263391834433463e+000	-2.621922016866962e+001
1	 5.580385830995502e-001	 1.269423399407810e+000	-2.634791537365994e+001
1	 5.444780629297945e-001	 1.275298559630759e+000	-2.647095343615218e+001
1	 6.813913610450871e-001	 1.215352974279634e+000	-2.512445221240325e+001
1	 6.681896886725949e-001	 1.222660880833101e+000	-2.524000525788567e+001
1	 6.549303262777922e-001	 1.229814374685995e+000	-2.536552893617410e+001
1	 6.416159166076205e-001	 1.236812908783358e+000	-2.549914189866524e+001
1	 6.282491050757294e-001	 1.243655994874437e+000	-2.563896142985835e+001
1	 6.148325381703006e-001	 1.250343203322504e+000	-2.578310565715223e+001
1	 6.013688618767693e-001	 1.256874162864464e+000	-2.592969573304405e+001
1	 5.878607201172236e-001	 1.263248560321152e+000	-2.607685798606657e+001
1	 5.743107532082147e-001	 1.269466140259273e+000	-2.622272603693805e+001
1	 5.607215963386559e-001	 1.275526704606021e+000	-2.636544287652799e+001
1	 5.470958780694262e-001	 1.281430112217454e+000	-2.650316290239352e+001
1	 6.846517705842252e-001	 1.221168352426390e+000	-2.503788403085513e+001
1	 6.713869291419162e-001	 1.228511226796755e+000	-2.515935989036453e+001
1	 6.580641216346844e-001	 1.235698949612701e+000	-2.529208761042358e+001
1	 6.446860034548100e-001	 1.242730971201640e+000	-2.543412162646041e+001
1	 6.312552326740415e-001	 1.249606800976566e+000	-2.558351335470001e+001
1	 6.177744684438016e-001	 1.256326007244957e+000	-2.573831354788785e+001
1	 6.042463694103604e-001	 1.262888216967242e+000	-2.589657462375994e+001
1	 5.906735921467679e-001	 1.269293115465707e+000	-2.605635296229736e+001
1	 5.770587896032855e-001	 1.275540446084816e+000	-2.621571116792941e+001
1	 5.634046095780015e-001	 1.281630009803991e+000	-2.637272029299909e+001
1	 5.497136932092552e-001	 1.287561664803915e+000	-2.652546201894856e+001
1	 5.235355418239186e-001	 1.226246138940778e+000	-2.585533458910599e+001
1	 5.104621640384944e-001	 1.231745663889408e+000	-2.587029830378663e+001
1	 4.973587974246062e-001	 1.237094647192462e+000	-2.589277096475817e+001
1	 4.842279316542609e-001	 1.242293115293416e+000	-2.592320049477431e+001
1	 4.710720445141691e-001	 1.247341147071947e+000	-2.596207021777301e+001
1	 4.578936005938943e-001	 1.252238873225494e+000	-2.600989555143905e+001
1	 4.446950500028725e-001	 1.256986475613899e+000	-2.606722071095689e+001
1	 4.314788271174074e-001	 1.261584186568501e+000	-2.613461543106297e+001
1	 4.182473493586813e-001	 1.266032288167079e+000	-2.621267171328834e+001
1	 4.050030160027568e-001	 1.270331111476093e+000	-2.630200060505340e+001
1	 3.917482070234653e-001	 1.274481035761665e+000	-2.640322901703194e+001
1	 5.261533569607503e-001	 1.232377691525745e+000	-2.596718208806537e+001
1	 5.130146088546691e-001	 1.237904715542784e+000	-2.599495789058758e+001
1	 4.998457219681046e-001	 1.243280445166595e+000	-2.603075994014952e+001
1	 4.866491984220787e-001	 1.248504906972856e+000	-2.607507329678753e+001
1	 4.734275283928873e-001	 1.253578180235638e+000	-2.612841898571684e+001
1	 4.601831887936905e-001	 1.258500396305879e+000	-2.619135058164162e+001
1	 4.469186419851158e-001	 1.263271737952744e+000	-2.626445080541066e+001
1	 4.336363345159897e-001	 1.267892438669269e+000	-2.634832814033061e+001
1	 4.203386958952361e-001	 1.272362781943674e+000	-2.644361347522884e+001
1	 4.070281373959293e-001	 1.276683100497812e+000	-2.655095678111897e+001
1	 3.937070508923962e-001	 1.280853775494218e+000	-2.667102382806830e+001
1	 5.287711720980506e-001	 1.238509244111277e+000	-2.606903845739794e+001
1	 5.155670536713385e-001	 1.244063767196715e+000	-2.610991372370793e+001
1	 5.023326465121009e-001	 1.249466243141255e+000	-2.615941011349964e+001
1	 4.890704651903785e-001	 1.254716698652781e+000	-2.621803114417902e+001
1	 4.757830122720564e-001	 1.259815213399763e+000	-2.628631659381520e+001
1	 4.624727769938942e-001	 1.264761919386638e+000	-2.636483901386119e+001
1	 4.491422339677152e-001	 1.269557000291902e+000	-2.645420025512514e+001
1	 4.357938419148707e-001	 1.274200690770285e+000	-2.655502801443736e+001
1	 4.224300424320306e-001	 1.278693275720454e+000	-2.666797240924334e+001
1	 4.090532587892840e-001	 1.283035089519661e+000	-2.679370258709635e+001
1	 3.956658947614563e-001	 1.287226515226850e+000	-2.693290337677741e+001
1	 5.313889872357853e-001	 1.244640796697276e+000	-2.616091450120531e+001
1	 5.181194984884607e-001	 1.250222818851101e+000	-2.621519195923612e+001
1	 5.048195710565490e-001	 1.255652041116343e+000	-2.627875804225981e+001
1	 4.914917319591128e-001	 1.260928490333094e+000	-2.635211633175829e+001
1	 4.781384961516293e-001	 1.266052246564224e+000	-2.643580669889665e+001
1	 4.647623651944605e-001	 1.271023442467676e+000	-2.653040178202057e+001
1	 4.513658259506281e-001	 1.275842262631276e+000	-2.663650347804675e+001
1	 4.379513493140115e-001	 1.280508942871457e+000	-2.675473945528344e+001
1	 4.245213889690288e-001	 1.285023769497329e+000	-2.688575969495865e+001
1	 4.110783801827867e-001	 1.289387078541550e+000	-2.703023306851316e+001
1	 3.976247386306124e-001	 1.293599254959479e+000	-2.718884395742770e+001
1	 5.340068023739212e-001	 1.250772349283641e+000	-2.624282081173286e+001
1	 5.206719433059939e-001	 1.256381870505843e+000	-2.631081824036810e+001
1	 5.073064956014023e-001	 1.261837839091760e+000	-2.638883956703116e+001
1	 4.939129987282335e-001	 1.267140282013694e+000	-2.647737032497991e+001
1	 4.804939800315585e-001	 1.272289279728921e+000	-2.657693210172860e+001
1	 4.670519533953437e-001	 1.277284965548894e+000	-2.668807901737364e+001
1	 4.535894179338115e-001	 1.282127524970770e+000	-2.681139421722552e+001
1	 4.401088567133724e-001	 1.286817194972689e+000	-2.694748638627392e+001
1	 4.266127355061940e-001	 1.291354263274209e+000	-2.709698629278181e+001
1	 4.131035015764032e-001	 1.295739067563394e+000	-2.726054336804853e+001
1	 3.995835824998310e-001	 1.299971994692022e+000	-2.743882232912831e+001
1	 5.366246175124240e-001	 1.256903901870271e+000	-2.631476777453576e+001
1	 5.232243881238962e-001	 1.262540922160840e+000	-2.639681770991824e+001
1	 5.097934201466150e-001	 1.268023637067405e+000	-2.648968982904834e+001
1	 4.963342654976928e-001	 1.273352073694482e+000	-2.659383378017528e+001
1	 4.828494639117959e-001	 1.278526312893757e+000	-2.670973476789716e+001
1	 4.693415415964982e-001	 1.283546488630194e+000	-2.683791006808484e+001
1	 4.558130099172236e-001	 1.288412787310289e+000	-2.697890555727418e+001
1	 4.422663641129142e-001	 1.293125447073886e+000	-2.713329226399169e+001
1	 4.287040820434900e-001	 1.297684757051000e+000	-2.730166294924579e+001
1	 4.151286229700996e-001	 1.302091056585104e+000	-2.748462872316196e+001
1	 4.015424263690787e-001	 1.306344734424396e+000	-2.768281570449212e+001
1	 5.392424326512596e-001	 1.263035454457068e+000	-2.637676557349743e+001
1	 5.257768329421260e-001	 1.268699973815992e+000	-2.647321502246522e+001
1	 5.122803446921409e-001	 1.274209435043177e+000	-2.658134328715612e+001
1	 4.987555322674426e-001	 1.279563865375357e+000	-2.670154656418974e+001
1	 4.852049477922950e-001	 1.284763346058632e+000	-2.683425584808037e+001
1	 4.716311297978787e-001	 1.289808011711478e+000	-2.697993351823690e+001
1	 4.580366019008214e-001	 1.294698049649734e+000	-2.713906994035355e+001
1	 4.444238715125974e-001	 1.299433699174956e+000	-2.731218008952798e+001
1	 4.307954285808808e-001	 1.304015250827613e+000	-2.749980020220136e+001
1	 4.171537443638417e-001	 1.308443045606594e+000	-2.770248446379473e+001
1	 4.035012702383219e-001	 1.312717474156519e+000	-2.792080173862738e+001
1	 5.418602477903944e-001	 1.269167007043930e+000	-2.642882419569887e+001
1	 5.283292777606419e-001	 1.274859025471199e+000	-2.654003435614475e+001
1	 5.147672692379336e-001	 1.280395233018978e+000	-2.666383373429287e+001
1	 5.011767990374353e-001	 1.285775657056222e+000	-2.680054777345551e+001
1	 4.875604316730076e-001	 1.291000379223447e+000	-2.695053569773264e+001
1	 4.739207179994396e-001	 1.296069534792649e+000	-2.711418720628603e+001
1	 4.602601938845620e-001	 1.300983311989011e+000	-2.729191918168953e+001
1	 4.465813789123833e-001	 1.305741951275802e+000	-2.748417241948386e+001
1	 4.328867751183296e-001	 1.310345744603956e+000	-2.769140838585892e+001
1	 4.191788657575951e-001	 1.314795034627775e+000	-2.791410601013267e+001
1	 4.054601141075276e-001	 1.319090213888307e+000	-2.815275851844877e+001
1	 5.444780629297945e-001	 1.275298559630759e+000	-2.647095343615218e+001
1	 5.308817225794015e-001	 1.281018077126362e+000	-2.659729942410436e+001
1	 5.172541937839469e-001	 1.286581030994707e+000	-2.673719431349927e+001
1	 5.035980658076223e-001	 1.291987448736975e+000	-2.689087575251072e+001
1	 4.899159155538865e-001	 1.297237412388103e+000	-2.705861389620091e+001
1	 4.762103062011355e-001	 1.302331057873609e+000	-2.724070824298981e+001
1	 4.624837858684034e-001	 1.307268574328022e+000	-2.743748448464433e+001
1	 4.487388863122321e-001	 1.312050203376334e+000	-2.764929137665800e+001
1	 4.349781216558008e-001	 1.316676238379938e+000	-2.787649763568260e+001
1	 4.212039871513260e-001	 1.321147023648560e+000	-2.811948887044009e+001
1	 4.074189579766622e-001	 1.325462953619678e+000	-2.837866455229692e+001
1	 5.470958780694262e-001	 1.281430112217454e+000	-2.650316290239352e+001
1	 5.334341673983635e-001	 1.287177128781379e+000	-2.664503348562658e+001
1	 5.197411183301345e-001	 1.292766828970265e+000	-2.680145753346534e+001
1	 5.060193325779567e-001	 1.298199240417519e+000	-2.697256811198866e+001
1	 4.922713994348842e-001	 1.303474445552502e+000	-2.715852926529413e+001
1	 4.784998944029212e-001	 1.308592580954260e+000	-2.735953302881378e+001
1	 4.647073778523031e-001	 1.313553836666673e+000	-2.757579645535599e+001
1	 4.508963937121045e-001	 1.318358455476454e+000	-2.780755866042347e+001
1	 4.370694681932574e-001	 1.323006732155468e+000	-2.805507789314585e+001
1	 4.232291085450000e-001	 1.327499012668861e+000	-2.831862863895033e+001
1	 4.093778018456922e-001	 1.331835693350548e+000	-2.859849875985578e+001
1	 5.497136932092552e-001	 1.287561664803915e+000	-2.652546201894856e+001
1	 5.359866122174862e-001	 1.293336180436153e+000	-2.668325935693710e+001
1	 5.222280428764503e-001	 1.298952626945552e+000	-2.685665528363596e+001
1	 5.084405993483899e-001	 1.304411032097752e+000	-2.704566174609223e+001
1	 4.946268833159535e-001	 1.309711478716544e+000	-2.725031988731994e+001
1	 4.807894826047505e-001	 1.314854104034503e+000	-2.747069727084633e+001
1	 4.669309698362182e-001	 1.319839099004865e+000	-2.770688511695829e+001
1	 4.530539011119615e-001	 1.324666707576071e+000	-2.795899555681042e+001
1	 4.391608147306637e-001	 1.329337225930455e+000	-2.822715891035026e+001
1	 4.252542299385832e-001	 1.333851001688592e+000	-2.851152099382005e+001
1	 4.113366457145843e-001	 1.338208433080836e+000	-2.881224046235920e+001
1	 3.917482070234653e-001	 1.274481035761665e+000	-2.640322901703194e+001
1	 3.784852817797219e-001	 1.278482487352557e+000	-2.651712274130970e+001
1	 3.652165773779126e-001	 1.282335937840718e+000	-2.664295875272664e+001
1	 3.519444082195939e-001	 1.286041904167421e+000	-2.677914474401257e+001
1	 3.386710651775104e-001	 1.289600948045209e+000	-2.692409439850019e+001
1	 3.253988146137712e-001	 1.293013675037378e+000	-2.707622820023504e+001
1	 3.121298974347747e-001	 1.296280733615264e+000	-2.723397422630458e+001
1	 2.988665281832910e-001	 1.299402814194865e+000	-2.739576892077520e+001
1	 2.856108941680556e-001	 1.302380648154343e+000	-2.756005784966810e+001
1	 2.723651546311524e-001	 1.305215006833941e+000	-2.772529643644436e+001
1	 2.591314399534020e-001	 1.307906700519837e+000	-2.788995067750953e+001
1	 3.937070508923962e-001	 1.280853775494218e+000	-2.667102382806830e+001
1	 3.803778075409665e-001	 1.284875235393391e+000	-2.680441408536167e+001
1	 3.670427561341694e-001	 1.288747954145378e+000	-2.695009565019725e+001
1	 3.537042226461742e-001	 1.292472451276313e+000	-2.710630088099199e+001
1	 3.403645094046872e-001	 1.296049291307467e+000	-2.727126802727027e+001
1	 3.270258941042208e-001	 1.299479082830132e+000	-2.744324233358584e+001
1	 3.136906288562903e-001	 1.302762477558189e+000	-2.762047711904076e+001
1	 3.003609392769588e-001	 1.305900169359914e+000	-2.780123483138746e+001
1	 2.870390236120766e-001	 1.308892893270572e+000	-2.798378807476531e+001
1	 2.737270519005022e-001	 1.311741424487327e+000	-2.816642061018660e+001
1	 2.604271651755172e-001	 1.314446577348017e+000	-2.834742832796164e+001
1	 3.956658947614563e-001	 1.287226515226850e+000	-2.693290337677741e+001
1	 3.822703333022947e-001	 1.291267983434266e+000	-2.708597908014042e+001
1	 3.688689348904707e-001	 1.295159970450051e+000	-2.725158072330867e+001
1	 3.554640370727649e-001	 1.298902998385200e+000	-2.742777661682875e+001
1	 3.420579536318443e-001	 1.302497634569714e+000	-2.761264101953654e+001
1	 3.286529735946222e-001	 1.305944490622877e+000	-2.780425551568332e+001
1	 3.152513602777308e-001	 1.309244221501116e+000	-2.800071036126396e+001
1	 3.018553503705234e-001	 1.312397524524987e+000	-2.820010579816261e+001
1	 2.884671530559645e-001	 1.315405138386855e+000	-2.840055333481857e+001
1	 2.750889491696856e-001	 1.318267842140804e+000	-2.860017699220624e+001
1	 2.617228903974281e-001	 1.320986454176337e+000	-2.879711451402795e+001
1	 3.976247386306124e-001	 1.293599254959479e+000	-2.718884395742770e+001
1	 3.841628590636720e-001	 1.297660731475104e+000	-2.736177576736310e+001
1	 3.706951136467798e-001	 1.301571986754666e+000	-2.754735706201387e+001
1	 3.572238514993260e-001	 1.305333545494019e+000	-2.774350321367113e+001
1	 3.437513978589380e-001	 1.308945977831890e+000	-2.794813575582465e+001
1	 3.302800530849296e-001	 1.312409898415560e+000	-2.815918401306260e+001
1	 3.168120916990478e-001	 1.315725965443999e+000	-2.837458669400933e+001
1	 3.033497614639366e-001	 1.318894879690042e+000	-2.859229344556842e+001
1	 2.898952824996735e-001	 1.321917383503154e+000	-2.881026636686224e+001
1	 2.764508464386620e-001	 1.324794259794340e+000	-2.902648148137052e+001
1	 2.630186156191024e-001	 1.327526331004762e+000	-2.923893016590083e+001
1	 3.995835824998310e-001	 1.299971994692022e+000	-2.743882232912831e+001
1	 3.860553848250641e-001	 1.304053479515829e+000	-2.763176301150106e+001
1	 3.725212924030595e-001	 1.307984003059152e+000	-2.783736887220526e+001
1	 3.589836659258175e-001	 1.311764092602703e+000	-2.805341328153764e+001
1	 3.454448420859251e-001	 1.315394321093939e+000	-2.827767613868893e+001
1	 3.319071325750965e-001	 1.318875306208132e+000	-2.850794573417615e+001
1	 3.183728231201936e-001	 1.322207709386794e+000	-2.874202056935986e+001
1	 3.048441725571506e-001	 1.325392234855040e+000	-2.897771113101512e+001
1	 2.913234119431575e-001	 1.328429628619433e+000	-2.921284161905672e+001
1	 2.778127437073906e-001	 1.331320677447899e+000	-2.944525162567155e+001
1	 2.643143408405080e-001	 1.334066207833259e+000	-2.967279776424043e+001
1	 4.015424263690787e-001	 1.306344734424396e+000	-2.768281570449212e+001
1	 3.879479105864365e-001	 1.310446227556364e+000	-2.789590047970998e+001
1	 3.743474711592731e-001	 1.314396019363438e+000	-2.812156144849689e+001
1	 3.607434803521992e-001	 1.318194639711191e+000	-2.835744074543941e+001
1	 3.471382863127622e-001	 1.321842664355803e+000	-2.860118755558736e+001
1	 3.335342120650767e-001	 1.325340714000539e+000	-2.885046018934360e+001
1	 3.199335545411201e-001	 1.328689453329455e+000	-2.910292810871092e+001
1	 3.063385836501172e-001	 1.331889590019940e+000	-2.935627390258507e+001
1	 2.927515413863709e-001	 1.334941873735656e+000	-2.960819520895213e+001
1	 2.791746409758307e-001	 1.337847095101447e+000	-2.985640658200433e+001
1	 2.656100660616128e-001	 1.340606084661794e+000	-3.009864130235614e+001
1	 4.035012702383219e-001	 1.312717474156519e+000	-2.792080173862738e+001
1	 3.898404363477547e-001	 1.316838975596630e+000	-2.815414862234639e+001
1	 3.761736499153837e-001	 1.320808035667453e+000	-2.839988114779623e+001
1	 3.625032947784311e-001	 1.324625186819415e+000	-2.865552081346215e+001
1	 3.488317305394058e-001	 1.328291007617424e+000	-2.891859684283762e+001
1	 3.351612915548239e-001	 1.331806121792732e+000	-2.918664845187041e+001
1	 3.214942859617793e-001	 1.335171197271935e+000	-2.945722706225090e+001
1	 3.078329947427883e-001	 1.338386945184701e+000	-2.972789845799719e+001
1	 2.941796708292682e-001	 1.341454118851785e+000	-2.999624488296599e+001
1	 2.805365382439414e-001	 1.344373512754951e+000	-3.025986707711187e+001
1	 2.669057912823845e-001	 1.347145961490334e+000	-3.051638624949048e+001
1	 4.054601141075276e-001	 1.319090213888307e+000	-2.815275851844877e+001
1	 3.917329621089840e-001	 1.323231723636551e+000	-2.840646865404981e+001
1	 3.779998286713541e-001	 1.327220051971125e+000	-2.867227536364400e+001
1	 3.642631092044731e-001	 1.331055733927313e+000	-2.894758994577169e+001
1	 3.505251747658125e-001	 1.334739350878743e+000	-2.922983225062042e+001
1	 3.367883710442921e-001	 1.338271529584657e+000	-2.951643312029170e+001
1	 3.230550173821236e-001	 1.341652941214191e+000	-2.980483676961665e+001
1	 3.093274058351163e-001	 1.344884300349283e+000	-3.009250310475633e+001
1	 2.956078002718033e-001	 1.347966363967786e+000	-3.037690997703710e+001
1	 2.818984355116824e-001	 1.350899930408376e+000	-3.065555536966443e+001
1	 2.682015165027910e-001	 1.353685838318846e+000	-3.092595951516638e+001
1	 4.074189579766622e-001	 1.325462953619678e+000	-2.837866455229692e+001
1	 3.936254878700904e-001	 1.329624471676048e+000	-2.865282253536913e+001
1	 3.798260074271477e-001	 1.333632068274384e+000	-2.893869250129439e+001
1	 3.660229236302851e-001	 1.337486281034819e+000	-2.923358582451560e+001
1	 3.522186189919391e-001	 1.341187694139704e+000	-2.953482340898880e+001
1	 3.384154505334348e-001	 1.344736937376265e+000	-2.983973828170745e+001
1	 3.246157488021045e-001	 1.348134685156175e+000	-3.014567812168351e+001
1	 3.108218169270528e-001	 1.351381655513645e+000	-3.045000772145624e+001
1	 2.970359297139304e-001	 1.354478609083619e+000	-3.075011137841379e+001
1	 2.832603327790124e-001	 1.357426348061687e+000	-3.104339521343356e+001
1	 2.694972417228000e-001	 1.360225715147297e+000	-3.132728941456364e+001
1	 4.093778018456922e-001	 1.331835693350548e+000	-2.859849875985578e+001
1	 3.955180136310391e-001	 1.336017219715046e+000	-2.889317295491665e+001
1	 3.816521861827276e-001	 1.340044084577158e+000	-2.919908195350881e+001
1	 3.677827380558270e-001	 1.343916828141869e+000	-2.951344732458541e+001
1	 3.539120632177420e-001	 1.347636037400248e+000	-2.983350129485680e+001
1	 3.400425300222060e-001	 1.351202345167503e+000	-3.015648947616829e+001
1	 3.261764802216743e-001	 1.354616429097843e+000	-3.047967352345260e+001
1	 3.123162280185499e-001	 1.357879010677747e+000	-3.080033372019090e+001
1	 2.984640591556039e-001	 1.360990854199249e+000	-3.111577148854063e+001
1	 2.846222300458913e-001	 1.363952765714852e+000	-3.142331182152075e+001
1	 2.707929669423796e-001	 1.366765591975652e+000	-3.172030563488893e+001
1	 4.113366457145843e-001	 1.338208433080836e+000	-2.881224046235920e+001
1	 3.974105393917957e-001	 1.342409967753466e+000	-2.912748331203183e+001
1	 3.834783649380568e-001	 1.346456100879377e+000	-2.945339407704512e+001
1	 3.695425524810588e-001	 1.350347375248399e+000	-2.978711448521913e+001
1	 3.556055074431778e-001	 1.354084380660318e+000	-3.012579819992815e+001
1	 3.416696095105594e-001	 1.357667752958321e+000	-3.046661366207928e+001
1	 3.277372116407853e-001	 1.361098173039149e+000	-3.080674685799778e+001
1	 3.138106391095596e-001	 1.364376365841549e+000	-3.114340401004120e+001
1	 2.998921885967779e-001	 1.367503099314640e+000	-3.147381418700175e+001
1	 2.859841273122783e-001	 1.370479183367836e+000	-3.179523183161177e+001
1	 2.720886921614973e-001	 1.373305468803879e+000	-3.210493920270624e+001
1	 2.591314399534020e-001	 1.307906700519837e+000	-2.788995067750953e+001
1	 2.459138320677586e-001	 1.310456205728292e+000	-2.805266761737544e+001
1	 2.327124120507628e-001	 1.312864822470269e+000	-2.821253949545304e+001
1	 2.195292154500892e-001	 1.315133472310086e+000	-2.836864327209277e+001
1	 2.063662462431385e-001	 1.317263111523635e+000	-2.852006716214558e+001
1	 1.932254762343219e-001	 1.319254730025648e+000	-2.866591044829143e+001
1	 1.801088444902284e-001	 1.321109350289747e+000	-2.880528329549698e+001
1	 1.670182568124852e-001	 1.322828026262688e+000	-2.893730656721495e+001
1	 1.539555852480564e-001	 1.324411842274167e+000	-2.906111164389980e+001
1	 1.409226676366770e-001	 1.325861911943520e+000	-2.917584024437301e+001
1	 1.279213071950790e-001	 1.327179377084656e+000	-2.928064425053156e+001
1	 2.604271651755172e-001	 1.314446577348017e+000	-2.834742832796164e+001
1	 2.471434657808106e-001	 1.317008830751625e+000	-2.852534351360422e+001
1	 2.338760351983321e-001	 1.319429491209501e+000	-2.869920652883761e+001
1	 2.206269191540353e-001	 1.321709484894015e+000	-2.886801400690951e+001
1	 2.073981316457405e-001	 1.323849772862682e+000	-2.903077556099750e+001
1	 1.941916543374044e-001	 1.325851349980052e+000	-2.918651368521721e+001
1	 1.810094359914643e-001	 1.327715243832375e+000	-2.933426365192402e+001
1	 1.678533919390619e-001	 1.329442513636407e+000	-2.947307340589149e+001
1	 1.547254035878933e-001	 1.331034249143765e+000	-2.960200345592139e+001
1	 1.416273179673805e-001	 1.332491569542165e+000	-2.972012676441642e+001
1	 1.285609473108183e-001	 1.333815622354874e+000	-2.982652863540926e+001
1	 2.617228903974281e-001	 1.320986454176337e+000	-2.879711451402795e+001
1	 2.483730994936152e-001	 1.323561455775152e+000	-2.898979748859793e+001
1	 2.350396583456089e-001	 1.325994159948987e+000	-2.917722470902637e+001
1	 2.217246228576456e-001	 1.328285497478264e+000	-2.935831896070584e+001
1	 2.084300170479687e-001	 1.330436434202115e+000	-2.953201764649976e+001
1	 1.951578324400848e-001	 1.332447969934913e+000	-2.969727276783560e+001
1	 1.819100274922825e-001	 1.334321137375528e+000	-2.985305089759202e+001
1	 1.686885270652219e-001	 1.336057001010715e+000	-2.999833314533678e+001
1	 1.554952219273349e-001	 1.337656656014013e+000	-3.013211511546217e+001
1	 1.423319682977338e-001	 1.339121227141517e+000	-3.025340685873214e+001
1	 1.292005874262800e-001	 1.340451867625848e+000	-3.036123281775822e+001
1	 2.630186156191024e-001	 1.327526331004762e+000	-2.923893016590083e+001
1	 2.496027332061525e-001	 1.330114080798836e+000	-2.944595637933706e+001
1	 2.362032814925880e-001	 1.332558828688690e+000	-2.964652671992026e+001
1	 2.228223265609310e-001	 1.334861510062792e+000	-2.983949651098497e+001
1	 2.094619024498503e-001	 1.337023095541889e+000	-3.002373724406088e+001
1	 1.961240105424044e-001	 1.339044589890175e+000	-3.019813663251953e+001
1	 1.828106189927366e-001	 1.340927030919145e+000	-3.036159865284803e+001
1	 1.695236621910270e-001	 1.342671488385547e+000	-3.051304357408995e+001
1	 1.562650402664457e-001	 1.344279062884842e+000	-3.065140797598311e+001
1	 1.430366186277979e-001	 1.345750884741497e+000	-3.077564475631603e+001
1	 1.298402275415134e-001	 1.347088112897492e+000	-3.088472312801763e+001
1	 2.643143408405080e-001	 1.334066207833259e+000	-2.967279776424043e+001
1	 2.508323669184024e-001	 1.336666705822646e+000	-2.989374845744561e+001
1	 2.373669046392645e-001	 1.339123497428572e+000	-3.010704656541128e+001
1	 2.239200302639025e-001	 1.341437522647555e+000	-3.031148624359577e+001
1	 2.104937878514122e-001	 1.343609756881957e+000	-3.050587928060886e+001
1	 1.970901886444053e-001	 1.345641209845789e+000	-3.068905521694160e+001
1	 1.837112104928802e-001	 1.347532924463167e+000	-3.085986144749179e+001
1	 1.703587973165388e-001	 1.349285975760837e+000	-3.101716330840653e+001
1	 1.570348586052901e-001	 1.350901469756175e+000	-3.115984414875908e+001
1	 1.437412689576333e-001	 1.352380542342027e+000	-3.128680538759301e+001
1	 1.304798676565677e-001	 1.353724358169724e+000	-3.139696655684733e+001
1	 2.656100660616128e-001	 1.340606084661794e+000	-3.009864130235614e+001
1	 2.520620006303451e-001	 1.343219330846545e+000	-3.033310339419659e+001
1	 2.385305277856329e-001	 1.345688166168596e+000	-3.055871953718594e+001
1	 2.250177339665709e-001	 1.348013535232513e+000	-3.077422892326056e+001
1	 2.115256732526814e-001	 1.350196418222271e+000	-3.097838975772248e+001
1	 1.980563667461289e-001	 1.352237829801700e+000	-3.116997943564892e+001
1	 1.846118019927670e-001	 1.354138818007535e+000	-3.134779469859150e+001
1	 1.711939324418187e-001	 1.355900463136519e+000	-3.151065177207217e+001
1	 1.578046769439324e-001	 1.357523876627943e+000	-3.165738648439558e+001
1	 1.444459192873007e-001	 1.359010199943028e+000	-3.178685436730686e+001
1	 1.311195077714922e-001	 1.360360603442459e+000	-3.189793073902548e+001
1	 2.669057912823845e-001	 1.347145961490334e+000	-3.051638624949048e+001
1	 2.532916343419605e-001	 1.349771955870499e+000	-3.076395222653838e+001
1	 2.396941509316883e-001	 1.352252834908725e+000	-3.100148218346699e+001
1	 2.261154376689472e-001	 1.354589547817624e+000	-3.122766646495972e+001
1	 2.125575586536847e-001	 1.356783079562785e+000	-3.144121572554807e+001
1	 1.990225448476168e-001	 1.358834449757856e+000	-3.164086115635454e+001
1	 1.855123934924506e-001	 1.360744711552191e+000	-3.182535468894711e+001
1	 1.720290675669288e-001	 1.362514950512526e+000	-3.199346917679928e+001
1	 1.585744952824372e-001	 1.364146283500072e+000	-3.214399855488130e+001
1	 1.451505696168608e-001	 1.365639857544421e+000	-3.227575797791027e+001
1	 1.317591478863360e-001	 1.366996848715613e+000	-3.238758393781240e+001
1	 2.682015165027910e-001	 1.353685838318846e+000	-3.092595951516638e+001
1	 2.545212680532287e-001	 1.356324580894474e+000	-3.118622732410663e+001
1	 2.408577740774253e-001	 1.358817503648921e+000	-3.143527227866037e+001
1	 2.272131413710425e-001	 1.361165560402846e+000	-3.167174190614614e+001
1	 2.135894440544495e-001	 1.363369740903453e+000	-3.189430525746820e+001
1	 1.999887229489109e-001	 1.365431069714203e+000	-3.210165317690996e+001
1	 1.864129849919845e-001	 1.367350605097073e+000	-3.229249854617832e+001
1	 1.728642026919303e-001	 1.369129437888793e+000	-3.246557650319614e+001
1	 1.593443136208687e-001	 1.370768690372489e+000	-3.261964463616383e+001
1	 1.458552199463742e-001	 1.372269515146129e+000	-3.275348315343550e+001
1	 1.323987880011486e-001	 1.373633093989104e+000	-3.286589502976977e+001
1	 2.694972417228000e-001	 1.360225715147297e+000	-3.132728941456364e+001
1	 2.557509017641295e-001	 1.362877205918434e+000	-3.159986235718578e+001
1	 2.420213972228390e-001	 1.365382172389146e+000	-3.186002879387828e+001
1	 2.283108450728675e-001	 1.367741572988138e+000	-3.210639937976098e+001
1	 2.146213294550024e-001	 1.369956402244226e+000	-3.233760742550494e+001
1	 2.009549010500525e-001	 1.372027689670689e+000	-3.255230920294616e+001
1	 1.873135764914224e-001	 1.373956498642124e+000	-3.274918422241579e+001
1	 1.736993378168850e-001	 1.375743925265254e+000	-3.292693548228080e+001
1	 1.601141319592915e-001	 1.377391097245124e+000	-3.308428969122605e+001
1	 1.465598702759018e-001	 1.378899172748072e+000	-3.321999746383048e+001
1	 1.330384281159791e-001	 1.380269339262846e+000	-3.333283349001679e+001
1	 2.707929669423796e-001	 1.366765591975652e+000	-3.172030563488893e+001
1	 2.569805354746431e-001	 1.369429830942346e+000	-3.200479226559191e+001
1	 2.431850203679240e-001	 1.371946841129365e+000	-3.227569186830829e+001
1	 2.294085487744333e-001	 1.374317585573458e+000	-3.253158408802599e+001
1	 2.156532148553706e-001	 1.376543063585058e+000	-3.277107227642762e+001
1	 2.019210791510837e-001	 1.378624309627261e+000	-3.299278382615530e+001
1	 1.882141679908181e-001	 1.380562392187283e+000	-3.319537047457317e+001
1	 1.745344729418547e-001	 1.382358412641843e+000	-3.337750857752900e+001
1	 1.608839502977698e-001	 1.384013504117901e+000	-3.353789935365005e+001
1	 1.472645206055041e-001	 1.385528830350171e+000	-3.367526909974500e+001
1	 1.336780682308767e-001	 1.386905584536756e+000	-3.378836937790966e+001
1	 2.720886921614973e-001	 1.373305468803879e+000	-3.210493920270624e+001
1	 2.582101691847495e-001	 1.375982455966176e+000	-3.240095322844473e+001
1	 2.443486435126754e-001	 1.378511509869538e+000	-3.268220278140022e+001
1	 2.305062524757509e-001	 1.380893598158766e+000	-3.294724227698119e+001
1	 2.166851002555811e-001	 1.383129724925904e+000	-3.319465080854310e+001
1	 2.028872572520457e-001	 1.385220929583866e+000	-3.342303250319313e+001
1	 1.891147594902251e-001	 1.387168285732491e+000	-3.363101684518740e+001
1	 1.753696080669008e-001	 1.388972900018493e+000	-3.381725896743344e+001
1	 1.616537686363682e-001	 1.390635910990750e+000	-3.398043991164737e+001
1	 1.479691709352418e-001	 1.392158487952350e+000	-3.411926685775155e+001
1	 1.343177083458908e-001	 1.393541829810749e+000	-3.423247332313082e+001
1	 1.279213071950790e-001	 1.327179377084656e+000	-2.928064425053156e+001
1	 1.149513338372529e-001	 1.328365574776235e+000	-2.937429589088266e+001
1	 1.020164563117179e-001	 1.329421493147995e+000	-2.945636234909953e+001
1	 8.911839865198931e-002	 1.330348352881577e+000	-2.952723265506042e+001
1	 7.625884813816214e-002	 1.331147398509354e+000	-2.958728457192091e+001
1	 6.343945506252818e-002	 1.331819897317526e+000	-2.963688325749297e+001
1	 5.066183252982257e-002	 1.332367138255019e+000	-2.967637999774163e+001
1	 3.792755629143316e-002	 1.332790430849241e+000	-2.970611101252078e+001
1	 2.523816461288030e-002	 1.333091104129737e+000	-2.972639633349239e+001
1	 1.259515817384588e-002	 1.333270505560705e+000	-2.973753875400679e+001
1	 0.000000000000000e+000	 1.333329999983334e+000	-2.973982285056648e+001
1	 1.285609473108183e-001	 1.333815622354874e+000	-2.982652863540926e+001
1	 1.155261206817235e-001	 1.335007751346290e+000	-2.991991094547202e+001
1	 1.025265653733130e-001	 1.336068949587062e+000	-2.999979244386112e+001
1	 8.956401403969960e-002	 1.337000443862567e+000	-3.006653187689445e+001
1	 7.664016239779911e-002	 1.337803484928172e+000	-3.012047864641854e+001
1	 6.375666899177584e-002	 1.338479346406849e+000	-3.016197146606612e+001
1	 5.091515499229021e-002	 1.339029323692610e+000	-3.019133708720770e+001
1	 3.811720402987917e-002	 1.339454732860853e+000	-3.020888909479446e+001
1	 2.536436206177339e-002	 1.339756909586625e+000	-3.021492677312121e+001
1	 1.265813727142630e-002	 1.339937208071804e+000	-3.020973404137667e+001
1	 0.000000000000000e+000	 1.339996999982150e+000	-3.019357845868988e+001
1	 1.292005874262800e-001	 1.340451867625848e+000	-3.036123281775822e+001
1	 1.161009075260169e-001	 1.341649927917140e+000	-3.045422882573659e+001
1	 1.030366744348490e-001	 1.342716406026955e+000	-3.053186147424713e+001
1	 9.000962942747333e-002	 1.343652534844408e+000	-3.059445279239482e+001
1	 7.702147665761394e-002	 1.344459571347860e+000	-3.064231747720950e+001
1	 6.407388292129493e-002	 1.345138795497052e+000	-3.067576155250635e+001
1	 5.116847745508968e-002	 1.345691509131092e+000	-3.069508109462093e+001
1	 3.830685176867202e-002	 1.346119034873362e+000	-3.070056102530305e+001
1	 2.549055951097086e-002	 1.346422715044412e+000	-3.069247397188260e+001
1	 1.272111636919936e-002	 1.346603910583804e+000	-3.067107919466135e+001
1	 0.000000000000000e+000	 1.346663999981866e+000	-3.063662158132281e+001
1	 1.298402275415134e-001	 1.347088112897492e+000	-3.088472312801763e+001
1	 1.166756943701629e-001	 1.348292104488696e+000	-3.097721741562456e+001
1	 1.035467834963304e-001	 1.349363862467584e+000	-3.105253867321358e+001
1	 9.045524481528781e-002	 1.350304625827005e+000	-3.111096587126828e+001
1	 7.740279091755781e-002	 1.351115657768319e+000	-3.115277274962651e+001
1	 6.439109685101514e-002	 1.351798244588041e+000	-3.117822648660166e+001
1	 5.142179991813679e-002	 1.352353694570366e+000	-3.118758643178329e+001
1	 3.849649950772448e-002	 1.352783336886667e+000	-3.118110290287864e+001
1	 2.561675696039644e-002	 1.353088520502998e+000	-3.115901604678942e+001
1	 1.278409546711689e-002	 1.353270613096603e+000	-3.112155476496783e+001
1	 0.000000000000000e+000	 1.353330999982383e+000	-3.106893570293705e+001
1	 1.304798676565677e-001	 1.353724358169724e+000	-3.139696655684733e+001
1	 1.172504812141909e-001	 1.354934281060870e+000	-3.148884522884358e+001
1	 1.040568925577616e-001	 1.356011318908854e+000	-3.156179387702224e+001
1	 9.090086020312033e-002	 1.356956716810264e+000	-3.161604216227769e+001
1	 7.778410517758207e-002	 1.357771744189455e+000	-3.165181670421996e+001
1	 6.470831078086614e-002	 1.358457693679716e+000	-3.166933976816940e+001
1	 5.167512238134731e-002	 1.359015880010333e+000	-3.166882801225188e+001
1	 3.868614724694930e-002	 1.359447638900669e+000	-3.165049129502901e+001
1	 2.574295440997393e-002	 1.359754325962284e+000	-3.161453154395405e+001
1	 1.284707456513069e-002	 1.359937315610102e+000	-3.156114168477208e+001
1	 0.000000000000000e+000	 1.359997999983599e+000	-3.149050463185312e+001
1	 1.311195077714922e-001	 1.360360603442459e+000	-3.189793073902548e+001
1	 1.178252680581308e-001	 1.361576457633574e+000	-3.198908139349860e+001
1	 1.045670016191474e-001	 1.362658775350676e+000	-3.205959751052608e+001
1	 9.134647559094819e-002	 1.363608807794089e+000	-3.210965327911648e+001
1	 7.816541943763786e-002	 1.364427830611171e+000	-3.213942212321545e+001
1	 6.502552471077758e-002	 1.365117142771979e+000	-3.214907541413171e+001
1	 5.192844484463705e-002	 1.365678065450894e+000	-3.213878123909993e+001
1	 3.887579498625927e-002	 1.366111940915269e+000	-3.210870322650418e+001
1	 2.586915185962704e-002	 1.366420131422168e+000	-3.205899942812262e+001
1	 1.291005366319260e-002	 1.366604018124201e+000	-3.198982125861849e+001
1	 0.000000000000000e+000	 1.366664999985416e+000	-3.190131249234237e+001
1	 1.317591478863360e-001	 1.366996848715613e+000	-3.238758393781240e+001
1	 1.184000549020121e-001	 1.368218634206720e+000	-3.247789563717898e+001
1	 1.050771106804922e-001	 1.369306231792957e+000	-3.254592057288112e+001
1	 9.179209097874870e-002	 1.370260898778388e+000	-3.259177138669572e+001
1	 7.854673369767656e-002	 1.371083917033369e+000	-3.261556231736591e+001
1	 6.534273864067915e-002	 1.371776591864733e+000	-3.261740794596053e+001
1	 5.218176730792173e-002	 1.372340250891950e+000	-3.259742199303594e+001
1	 3.906544272556711e-002	 1.372776242930367e+000	-3.255571616819729e+001
1	 2.599534930927954e-002	 1.373085936882552e+000	-3.249239907251339e+001
1	 1.297303276125444e-002	 1.373270720638800e+000	-3.240757515408733e+001
1	 0.000000000000000e+000	 1.373331999987733e+000	-3.230134371695689e+001
1	 1.323987880011486e-001	 1.373633093989104e+000	-3.286589502976977e+001
1	 1.189748417458646e-001	 1.374860810780218e+000	-3.295525827247795e+001
1	 1.055872197418007e-001	 1.375953688235605e+000	-3.302073462367501e+001
1	 9.223770636649922e-002	 1.376912989763065e+000	-3.306236918783012e+001
1	 7.892804795764938e-002	 1.377740003455954e+000	-3.308021111318429e+001
1	 6.565995257050052e-002	 1.378436040957878e+000	-3.307431237749240e+001
1	 5.243508977111717e-002	 1.379002436333403e+000	-3.304472662086403e+001
1	 3.925509046478562e-002	 1.379440544945863e+000	-3.299150802636966e+001
1	 2.612154675885518e-002	 1.379751742343335e+000	-3.291471024894984e+001
1	 1.303601185926804e-002	 1.379937423153799e+000	-3.281438539302670e+001
1	 0.000000000000000e+000	 1.379998999990449e+000	-3.269058303908357e+001
1	 1.330384281159791e-001	 1.380269339262846e+000	-3.333283349001679e+001
1	 1.195496285897178e-001	 1.381502987353983e+000	-3.342114018292880e+001
1	 1.060973288030772e-001	 1.382601144678529e+000	-3.348401176945279e+001
1	 9.268332175417700e-002	 1.383565080748026e+000	-3.352141991030663e+001
1	 7.930936221750753e-002	 1.384396089878828e+000	-3.353334284054493e+001
1	 6.597716650017131e-002	 1.385095490051317e+000	-3.351976420309028e+001
1	 5.268841223413914e-002	 1.385664621775152e+000	-3.348067192428145e+001
1	 3.944473820382756e-002	 1.386104846961657e+000	-3.341605713218274e+001
1	 2.624774420827772e-002	 1.386417547804419e+000	-3.332591311827776e+001
1	 1.309899095718521e-002	 1.386604125669099e+000	-3.321023434303461e+001
1	 0.000000000000000e+000	 1.386665999993466e+000	-3.306901548571174e+001
1	 1.336780682308767e-001	 1.386905584536756e+000	-3.378836937790966e+001
1	 1.201244154336015e-001	 1.388145163927923e+000	-3.387551280934503e+001
1	 1.066074378643264e-001	 1.389248601121635e+000	-3.393572465063222e+001
1	 9.312893714175938e-002	 1.390217171733176e+000	-3.396889729432370e+001
1	 7.969067647720229e-002	 1.391052176301896e+000	-3.397493232064056e+001
1	 6.629438042962126e-002	 1.391754939144953e+000	-3.395373938614800e+001
1	 5.294173469690341e-002	 1.392326807217099e+000	-3.390523514899304e+001
1	 3.963438594260568e-002	 1.392769148977652e+000	-3.382934223153334e+001
1	 2.637394165747090e-002	 1.393083353265701e+000	-3.372598822105891e+001
1	 1.316197005495779e-002	 1.393270828184597e+000	-3.359510470918839e+001
1	 0.000000000000000e+000	 1.393332999996683e+000	-3.343662637040851e+001
1	 1.343177083458908e-001	 1.393541829810749e+000	-3.423247332313082e+001
1	 1.206992022775452e-001	 1.394787340501952e+000	-3.431834813655163e+001
1	 1.071175469255529e-001	 1.395896057564835e+000	-3.437584642879176e+001
1	 9.357455252922366e-002	 1.396869262718420e+000	-3.440477558029106e+001
1	 8.007199073668500e-002	 1.397708262725060e+000	-3.440495485428420e+001
1	 6.661159435878002e-002	 1.398414388238686e+000	-3.437621434792219e+001
1	 5.319505715932576e-002	 1.398988992659145e+000	-3.431839397414102e+001
1	 3.982403368103277e-002	 1.399433450993745e+000	-3.423134247517861e+001
1	 2.650013910635849e-002	 1.399749158727085e+000	-3.411491646852919e+001
1	 1.322494915253760e-002	 1.399937530700197e+000	-3.396897952600796e+001
1	 0.000000000000000e+000	 1.400000000000000e+000	-3.379340128649652e+001
1	 1.400000000000000e+000	 0.000000000000000e+000	 2.418803132853586e+001
1	 1.399937530700196e+000	 1.322494915253764e-002	 2.338879606723022e+001
1	 1.399749158727085e+000	 2.650013910635858e-002	 2.259794693656392e+001
1	 1.399433450993745e+000	 3.982403368103266e-002	 2.181534603660028e+001
1	 1.398988992659146e+000	 5.319505715932572e-002	 2.104088442192498e+001
1	 1.398414388238686e+000	 6.661159435877999e-002	 2.027448326299643e+001
1	 1.397708262725060e+000	 8.007199073668501e-002	 1.951609499377021e+001
1	 1.396869262718420e+000	 9.357455252922370e-002	 1.876570444291098e+001
1	 1.395896057564835e+000	 1.071175469255528e-001	 1.802332994584063e+001
1	 1.394787340501952e+000	 1.206992022775451e-001	 1.728902443481275e+001
1	 1.393541829810749e+000	 1.343177083458907e-001	 1.656287650414900e+001
1	 1.406667000003317e+000	 0.000000000000000e+000	 2.409875869944092e+001
1	 1.406604233215796e+000	 1.328792824988832e-002	 2.329476369517075e+001
1	 1.406414964188467e+000	 2.662633655488255e-002	 2.249918113469415e+001
1	 1.406097753009839e+000	 4.001368141904158e-002	 2.171190743131882e+001
1	 1.405651178101191e+000	 5.344837962134028e-002	 2.093286743841352e+001
1	 1.405073837332419e+000	 6.692880828759104e-002	 2.016201555432244e+001
1	 1.404364349148224e+000	 8.045330499591424e-002	 1.939933681283709e+001
1	 1.403521353703664e+000	 9.402016791654727e-002	 1.864484795661866e+001
1	 1.402543514008033e+000	 1.076276559867538e-001	 1.789859849090320e+001
1	 1.401429517075981e+000	 1.212739891215650e-001	 1.716067171476809e+001
1	 1.400178075084743e+000	 1.349573484610524e-001	 1.643118572718804e+001
1	 1.413334000006534e+000	 0.000000000000000e+000	 2.400422700444842e+001
1	 1.413270935731295e+000	 1.335090734702079e-002	 2.319593680392566e+001
1	 1.413080769649750e+000	 2.675253400305789e-002	 2.239607671575092e+001
1	 1.412762055025833e+000	 4.020332915664571e-002	 2.160457616405242e+001
1	 1.412313363543139e+000	 5.370170208295459e-002	 2.082139252147009e+001
1	 1.411733286426055e+000	 6.724602221605305e-002	 2.004651216015867e+001
1	 1.411020435571292e+000	 8.083461925487839e-002	 1.927995148767135e+001
1	 1.410173444688814e+000	 9.446578330370806e-002	 1.852175796519308e+001
1	 1.409190970451141e+000	 1.081377650478981e-001	 1.777201110553708e+001
1	 1.408071693649921e+000	 1.218487759656230e-001	 1.703082344826624e+001
1	 1.406814320358652e+000	 1.355969885763210e-001	 1.629834150925718e+001
1	 1.420001000009550e+000	 0.000000000000000e+000	 2.390447900466334e+001
1	 1.419937638246594e+000	 1.341388644395782e-002	 2.309235316747411e+001
1	 1.419746575110834e+000	 2.687873145091777e-002	 2.228866706410204e+001
1	 1.419426357041627e+000	 4.039297689387860e-002	 2.149338184855051e+001
1	 1.418975548984888e+000	 5.395502454419458e-002	 2.070648615450730e+001
1	 1.418392735519495e+000	 6.756323614417874e-002	 1.992799709493835e+001
1	 1.417676521994166e+000	 8.121593351357331e-002	 1.915796124592450e+001
1	 1.416825535673774e+000	 9.491139869068395e-002	 1.839645561228376e+001
1	 1.415838426894064e+000	 1.086478741089467e-001	 1.764358857246866e+001
1	 1.414713870223685e+000	 1.224235628096673e-001	 1.689950080018250e+001
1	 1.413450565632394e+000	 1.362366286916378e-001	 1.616436616011493e+001
1	 1.426668000012267e+000	 0.000000000000000e+000	 2.379955666187965e+001
1	 1.426604340761593e+000	 1.347686554072213e-002	 2.298404985370529e+001
1	 1.426412380571617e+000	 2.700492889849541e-002	 2.217698494007789e+001
1	 1.426090659057124e+000	 4.058262463077374e-002	 2.137835354500714e+001
1	 1.425637734426340e+000	 5.420834700508608e-002	 2.058817432589577e+001
1	 1.425052184612641e+000	 6.788045007198061e-002	 1.980649392420361e+001
1	 1.424332608416751e+000	 8.159724777199492e-002	 1.903338789975640e+001
1	 1.423477626658451e+000	 9.535701407745295e-002	 1.826896164631116e+001
1	 1.422485883336712e+000	 1.091579831698611e-001	 1.751335128594208e+001
1	 1.421356046797183e+000	 1.229983496536462e-001	 1.676672453976675e+001
1	 1.420086810905885e+000	 1.368762688069441e-001	 1.602928157249419e+001
1	 1.433335000014584e+000	 0.000000000000000e+000	 2.368950115716981e+001
1	 1.433271043276193e+000	 1.353984463733650e-002	 2.287106324084020e+001
1	 1.433078186032001e+000	 2.713112634582401e-002	 2.206106249448448e+001
1	 1.432754961072221e+000	 4.077227236736464e-002	 2.125951977293457e+001
1	 1.432299919867397e+000	 5.446166946565503e-002	 2.046648254047702e+001
1	 1.431711633705393e+000	 6.819766399947121e-002	 1.968202577504547e+001
1	 1.430988694838949e+000	 8.197856203013895e-002	 1.890625285549807e+001
1	 1.430129717642750e+000	 9.580262946399305e-002	 1.813929642965847e+001
1	 1.429133339778993e+000	 1.096680922306027e-001	 1.738131926075392e+001
1	 1.427998223370329e+000	 1.235731364975080e-001	 1.663251504984442e+001
1	 1.426723056179039e+000	 1.375159089221810e-001	 1.589310923180091e+001
1	 1.440002000016400e+000	 0.000000000000000e+000	 2.357435290895808e+001
1	 1.439937745790292e+000	 1.360282373382367e-002	 2.275342903339703e+001
1	 1.439743991491886e+000	 2.725732379293675e-002	 2.194093128271383e+001
1	 1.439419263086821e+000	 4.096192010368484e-002	 2.113690852367993e+001
1	 1.438962105307957e+000	 5.471499192592728e-002	 2.034143583075691e+001
1	 1.438371082797657e+000	 6.851487792666318e-002	 1.955461534625348e+001
1	 1.437644781260665e+000	 8.235987628800125e-002	 1.877657712304661e+001
1	 1.436781808626576e+000	 9.624824485028219e-002	 1.800747994760813e+001
1	 1.435780796220814e+000	 1.101782012911326e-001	 1.724751214103715e+001
1	 1.434640399943034e+000	 1.241479233412010e-001	 1.649689233576212e+001
1	 1.433359301451774e+000	 1.381555490372899e-001	 1.575587022554345e+001
1	 1.446669000017617e+000	 0.000000000000000e+000	 2.345415159059377e+001
1	 1.446604448303791e+000	 1.366580283020638e-002	 2.263118227771480e+001
1	 1.446409796951171e+000	 2.738352123986684e-002	 2.181662227846333e+001
1	 1.446083565100823e+000	 4.115156783976783e-002	 2.101054727259529e+001
1	 1.445624290747924e+000	 5.496831438592878e-002	 2.021305876778941e+001
1	 1.445030531889331e+000	 6.883209185356902e-002	 1.942428491818492e+001
1	 1.444300867681801e+000	 8.274119054557767e-002	 1.864438132499978e+001
1	 1.443433899609835e+000	 9.669386023629835e-002	 1.787353181703118e+001
1	 1.442428252662086e+000	 1.106883103514124e-001	 1.711194920880239e+001
1	 1.441282576515208e+000	 1.247227101846735e-001	 1.635987603408560e+001
1	 1.439995546724006e+000	 1.387951891522120e-001	 1.561758525250110e+001
1	 1.453336000018133e+000	 0.000000000000000e+000	 2.332893614744123e+001
1	 1.453271150816591e+000	 1.372878192650738e-002	 2.250435737705019e+001
1	 1.453075602409757e+000	 2.750971868664748e-002	 2.168816588707863e+001
1	 1.452747867114129e+000	 4.134121557564712e-002	 2.088046299087317e+001
1	 1.452286476187199e+000	 5.522163684568538e-002	 2.008137547176094e+001
1	 1.451689980980320e+000	 6.914930578020138e-002	 1.929105636236249e+001
1	 1.450956954102260e+000	 8.312250480286403e-002	 1.850968570553969e+001
1	 1.450085990592432e+000	 9.713947562201948e-002	 1.773747129483744e+001
1	 1.449075709102714e+000	 1.111984194114033e-001	 1.697464939224359e+001
1	 1.447924753086763e+000	 1.252974970278738e-001	 1.622148542105845e+001
1	 1.446631791995650e+000	 1.394348292668886e-001	 1.547827463164048e+001
1	 1.460003000017850e+000	 0.000000000000000e+000	 2.319874481350113e+001
1	 1.459937853328589e+000	 1.379176102274943e-002	 2.237298810626043e+001
1	 1.459741407867544e+000	 2.763591613331187e-002	 2.155559195852978e+001
1	 1.459412169126637e+000	 4.153086331135624e-002	 2.074668215705738e+001
1	 1.458948661625681e+000	 5.547495930522300e-002	 1.994640962228458e+001
1	 1.458349430070524e+000	 6.946651970657282e-002	 1.915495115080868e+001
1	 1.457613040521948e+000	 8.350381905985617e-002	 1.837251013907259e+001
1	 1.456738081574272e+000	 9.758509100742355e-002	 1.759931728619439e+001
1	 1.455723165542607e+000	 1.117085284710666e-001	 1.683563127381685e+001
1	 1.454566929657614e+000	 1.258722838707501e-001	 1.608173942082908e+001
1	 1.453268037266624e+000	 1.400744693812609e-001	 1.533795831078719e+001
1	 1.466670000016666e+000	 0.000000000000000e+000	 2.306361512757878e+001
1	 1.466604555839689e+000	 1.385474011895528e-002	 2.223710762608569e+001
1	 1.466407213324432e+000	 2.776211357989323e-002	 2.141892980003431e+001
1	 1.466076471138249e+000	 4.172051104692869e-002	 2.060923076824028e+001
1	 1.465610847063272e+000	 5.572828176456753e-002	 1.980818446841356e+001
1	 1.465008879159847e+000	 6.978373363269590e-002	 1.901599036512583e+001
1	 1.464269126940766e+000	 8.388513331654994e-002	 1.823287413863354e+001
1	 1.463390172555262e+000	 9.803070639248858e-002	 1.745908835252130e+001
1	 1.462370621981674e+000	 1.122186375303636e-001	 1.669491309809787e+001
1	 1.461209106227669e+000	 1.264470707132508e-001	 1.594065661345326e+001
1	 1.459904282536843e+000	 1.407141094952702e-001	 1.519665587506149e+001
1	 1.393541829810749e+000	 1.343177083458907e-001	 1.656287650414900e+001
1	 1.392158487952350e+000	 1.479691709352418e-001	 1.584698595471768e+001
1	 1.390635910990750e+000	 1.616537686363681e-001	 1.514327232305445e+001
1	 1.388972900018493e+000	 1.753696080669007e-001	 1.445191277158262e+001
1	 1.387168285732491e+000	 1.891147594902250e-001	 1.377309354966362e+001
1	 1.385220929583866e+000	 2.028872572520458e-001	 1.310701018369285e+001
1	 1.383129724925903e+000	 2.166851002555812e-001	 1.245386765434609e+001
1	 1.380893598158766e+000	 2.305062524757509e-001	 1.181388056009962e+001
1	 1.378511509869538e+000	 2.443486435126755e-001	 1.118727326614815e+001
1	 1.375982455966176e+000	 2.582101691847494e-001	 1.057428003785116e+001
1	 1.373305468803879e+000	 2.720886921614973e-001	 9.975145157844649e+000
1	 1.400178075084743e+000	 1.349573484610524e-001	 1.643118572718804e+001
1	 1.398788145554529e+000	 1.486738212651560e-001	 1.571210075983281e+001
1	 1.397258317863598e+000	 1.624235869751318e-001	 1.500519427307195e+001
1	 1.395587387395139e+000	 1.762047431920685e-001	 1.431066986746895e+001
1	 1.393774179277689e+000	 1.900153509896848e-001	 1.362874012458200e+001
1	 1.391817549540452e+000	 2.038534353529740e-001	 1.295962676036166e+001
1	 1.389716386266716e+000	 2.177169856556605e-001	 1.230356076504342e+001
1	 1.387469610744020e+000	 2.316039561768371e-001	 1.166078252870824e+001
1	 1.385076178609633e+000	 2.455122666571001e-001	 1.103154195169038e+001
1	 1.382535080989893e+000	 2.594398028944461e-001	 1.041609853901944e+001
1	 1.379845345631952e+000	 2.733844173801429e-001	 9.814721478094395e+000
1	 1.406814320358652e+000	 1.355969885763210e-001	 1.629834150925718e+001
1	 1.405417803156628e+000	 1.493784715952082e-001	 1.557639066935802e+001
1	 1.403880724736372e+000	 1.631934053140298e-001	 1.486661259535891e+001
1	 1.402201874771716e+000	 1.770398783173379e-001	 1.416923838840968e+001
1	 1.400380072822822e+000	 1.909159424891910e-001	 1.348450791843626e+001
1	 1.398414169496971e+000	 2.048196134538770e-001	 1.281266993639537e+001
1	 1.396303047607457e+000	 2.187488710556334e-001	 1.215398217243093e+001
1	 1.394045623329195e+000	 2.327016598777327e-001	 1.150871141916627e+001
1	 1.391640847349633e+000	 2.466758898012533e-001	 1.087713359937679e+001
1	 1.389087706013494e+000	 2.606694366038011e-001	 1.025953381729750e+001
1	 1.386385222459880e+000	 2.746801425983934e-001	 9.656206392834498e+000
1	 1.413450565632394e+000	 1.362366286916378e-001	 1.616436616011493e+001
1	 1.412047460758571e+000	 1.500831219253405e-001	 1.543987882930531e+001
1	 1.410503131609001e+000	 1.639632236530120e-001	 1.472754986711714e+001
1	 1.408816362148159e+000	 1.778750134426724e-001	 1.402763891951387e+001
1	 1.406985966367831e+000	 1.918165339887250e-001	 1.334041408366766e+001
1	 1.405010789453377e+000	 2.057857915547572e-001	 1.266615197466122e+001
1	 1.402889708948090e+000	 2.197807564555245e-001	 1.200513777755922e+001
1	 1.400621635914264e+000	 2.337993635784845e-001	 1.135766528415745e+001
1	 1.398205516089526e+000	 2.478395129452028e-001	 1.072403691372773e+001
1	 1.395640331036978e+000	 2.618990703128996e-001	 1.010456371709340e+001
1	 1.392925099287674e+000	 2.759758678163474e-001	 9.499565363384900e+000
1	 1.420086810905885e+000	 1.368762688069441e-001	 1.602928157249419e+001
1	 1.418677118360277e+000	 1.507877722554953e-001	 1.530258795302974e+001
1	 1.417125538481412e+000	 1.647330419920284e-001	 1.458802824352463e+001
1	 1.415430849524404e+000	 1.787101485680357e-001	 1.388589166110427e+001
1	 1.413591859912662e+000	 1.927171254882679e-001	 1.319647545209669e+001
1	 1.411607409409621e+000	 2.067519696556165e-001	 1.252008490880411e+001
1	 1.409476370288579e+000	 2.208126418553584e-001	 1.185703337117510e+001
1	 1.407197648499203e+000	 2.348970672791393e-001	 1.120764221276732e+001
1	 1.404770184829297e+000	 2.490031360890161e-001	 1.057224081040589e+001
1	 1.402192956060347e+000	 2.631287040218273e-001	 9.951166496959999e+000
1	 1.399464976115353e+000	 2.772715930341038e-001	 9.344764496680950e+000
1	 1.426723056179039e+000	 1.375159089221810e-001	 1.589310923180091e+001
1	 1.425306775961670e+000	 1.514924225856142e-001	 1.516454033129194e+001
1	 1.423747945353533e+000	 1.655028603310288e-001	 1.444806946755046e+001
1	 1.422045336900386e+000	 1.795452836933910e-001	 1.374401643766630e+001
1	 1.420197753457256e+000	 1.936177169878016e-001	 1.305270854237955e+001
1	 1.418204029365658e+000	 2.077181477564575e-001	 1.237448054857775e+001
1	 1.416063031628888e+000	 2.218445272551594e-001	 1.170967463628669e+001
1	 1.413773661083987e+000	 2.359947709797438e-001	 1.105864032963651e+001
1	 1.411334853568936e+000	 2.501667592327608e-001	 1.042173441130553e+001
1	 1.408745581083601e+000	 2.643583377306693e-001	 9.799320819962956e+000
1	 1.406004852942930e+000	 2.785673182517614e-001	 9.191770530258168e+000
1	 1.433359301451774e+000	 1.381555490372899e-001	 1.575587022554345e+001
1	 1.431936433562669e+000	 1.521970729156394e-001	 1.502575784204070e+001
1	 1.430370352225293e+000	 1.662726786699633e-001	 1.430769487949708e+001
1	 1.428659824276040e+000	 1.803804188187018e-001	 1.360203270654838e+001
1	 1.426803647001559e+000	 1.945183084873071e-001	 1.290912956725774e+001
1	 1.424800649321441e+000	 2.086843258572822e-001	 1.222935048502742e+001
1	 1.422649692968980e+000	 2.228764126549521e-001	 1.156306715065756e+001
1	 1.420349673668591e+000	 2.370924746803448e-001	 1.091065779413770e+001
1	 1.417899522308429e+000	 2.513303823765045e-001	 1.027250703977847e+001
1	 1.415298206106741e+000	 2.655879714395113e-001	 9.649005744316739e+000
1	 1.412544729770422e+000	 2.798630434694193e-001	 9.040550817654374e+000
1	 1.439995546724006e+000	 1.387951891522120e-001	 1.561758525250110e+001
1	 1.438566091163198e+000	 1.529017232455130e-001	 1.488626195992520e+001
1	 1.436992759096619e+000	 1.670424970087816e-001	 1.416692542627880e+001
1	 1.435274311651301e+000	 1.812155539439319e-001	 1.345995956642160e+001
1	 1.433409540545514e+000	 1.954188999867661e-001	 1.276575444060712e+001
1	 1.431397269276922e+000	 2.096505039580927e-001	 1.208470609552945e+001
1	 1.429236354308818e+000	 2.239082980547608e-001	 1.141721638923181e+001
1	 1.426925686252988e+000	 2.381901783809889e-001	 1.076369279957505e+001
1	 1.424464191047764e+000	 2.524940055203147e-001	 1.012454821599181e+001
1	 1.421850831129768e+000	 2.668176051484385e-001	 9.500200714279172e+000
1	 1.419084606597842e+000	 2.811587686871757e-001	 8.891073314215284e+000
1	 1.446631791995650e+000	 1.394348292668886e-001	 1.547827463164048e+001
1	 1.445195748763177e+000	 1.536063735751771e-001	 1.474607376554558e+001
1	 1.443615165967438e+000	 1.678123153474337e-001	 1.402578167044497e+001
1	 1.441888799026105e+000	 1.820506890690446e-001	 1.331781576550663e+001
1	 1.440015434089065e+000	 1.963194914861598e-001	 1.262259878429261e+001
1	 1.437993889232055e+000	 2.106166820588915e-001	 1.194055854869219e+001
1	 1.435823015648367e+000	 2.249401834546103e-001	 1.127212772649221e+001
1	 1.433501698837155e+000	 2.392878820817230e-001	 1.061774357240607e+001
1	 1.431028859786927e+000	 2.536576286642590e-001	 9.977847652413516e+000
1	 1.428403456152683e+000	 2.680472388575365e-001	 9.352885551296716e+000
1	 1.425624483425207e+000	 2.824544939051299e-001	 8.743306563290885e+000
1	 1.453268037266624e+000	 1.400744693812609e-001	 1.533795831078719e+001
1	 1.451825406362528e+000	 1.543110239045736e-001	 1.460521395444973e+001
1	 1.450237572837680e+000	 1.685821336858696e-001	 1.388428379895564e+001
1	 1.448503286400388e+000	 1.828858241940033e-001	 1.317561970957535e+001
1	 1.446621327632154e+000	 1.972200829854697e-001	 1.247967793483580e+001
1	 1.444590509186792e+000	 2.115828601596805e-001	 1.179691880912249e+001
1	 1.442409676987587e+000	 2.259720688545247e-001	 1.112780643875398e+001
1	 1.440077711421066e+000	 2.403855857825940e-001	 1.047280837148430e+001
1	 1.437593528525907e+000	 2.548212518084049e-001	 9.832395249421863e+000
1	 1.434956081175486e+000	 2.692768725668907e-001	 9.207040445392440e+000
1	 1.432164360252531e+000	 2.837502191233804e-001	 8.597219682810012e+000
1	 1.459904282536843e+000	 1.407141094952702e-001	 1.519665587506148e+001
1	 1.458455063961172e+000	 1.550156742336446e-001	 1.446370284588500e+001
1	 1.456859979707271e+000	 1.693519520240392e-001	 1.374245163171815e+001
1	 1.455117773774083e+000	 1.837209593187718e-001	 1.303338946973389e+001
1	 1.453227221174727e+000	 1.981206744846772e-001	 1.233700694989997e+001
1	 1.451187129141089e+000	 2.125490382604623e-001	 1.165379764206221e+001
1	 1.448996338326446e+000	 2.270039542545288e-001	 1.098425770639592e+001
1	 1.446653724004697e+000	 2.414832894836484e-001	 1.032888548732327e+001
1	 1.444158197264690e+000	 2.559848749528201e-001	 9.688181091034240e+000
1	 1.441508706198178e+000	 2.705065062765864e-001	 9.062645946788846e+000
1	 1.438704237079830e+000	 2.850459443420262e-001	 8.452782352221020e+000
1	 1.373305468803879e+000	 2.720886921614973e-001	 9.975145157844647e+000
1	 1.370479183367836e+000	 2.859841273122784e-001	 9.389540814809427e+000
1	 1.367503099314640e+000	 2.998921885967780e-001	 8.817435045552340e+000
1	 1.364376365841549e+000	 3.138106391095596e-001	 8.259259743992256e+000
1	 1.361098173039150e+000	 3.277372116407852e-001	 7.715450155780133e+000
1	 1.357667752958321e+000	 3.416696095105594e-001	 7.186444476023702e+000
1	 1.354084380660317e+000	 3.556055074431779e-001	 6.672683428494389e+000
1	 1.350347375248399e+000	 3.695425524810588e-001	 6.174609826515555e+000
1	 1.346456100879377e+000	 3.834783649380567e-001	 5.692668115780207e+000
1	 1.342409967753466e+000	 3.974105393917957e-001	 5.227303899397985e+000
1	 1.338208433080836e+000	 4.113366457145844e-001	 4.778963445522076e+000
1	 1.379845345631952e+000	 2.733844173801429e-001	 9.814721478094395e+000
1	 1.377005601020615e+000	 2.873460245781569e-001	 9.227048904361057e+000
1	 1.374015344429769e+000	 3.013203180374325e-001	 8.653001825447282e+000
1	 1.370873721005026e+000	 3.153050502000594e-001	 8.093014607928549e+000
1	 1.367579916980069e+000	 3.292979430594138e-001	 7.547522617752629e+000
1	 1.364133160748690e+000	 3.432966889984715e-001	 7.016961770869920e+000
1	 1.360532723919882e+000	 3.572989516682236e-001	 6.501768068366213e+000
1	 1.356777922354375e+000	 3.713023669059578e-001	 6.002377116460104e+000
1	 1.352868117181002e+000	 3.853045436931127e-001	 5.519223631775326e+000
1	 1.348802715791267e+000	 3.993030651523371e-001	 5.052740932344692e+000
1	 1.344581172810493e+000	 4.132954895833138e-001	 4.603360414850041e+000
1	 1.386385222459880e+000	 2.746801425983934e-001	 9.656206392834500e+000
1	 1.383532018673209e+000	 2.887079218436095e-001	 9.066747300497974e+000
1	 1.380527589544668e+000	 3.027484474776506e-001	 8.491022265562735e+000
1	 1.377371076168225e+000	 3.167994612901308e-001	 7.929468357179395e+000
1	 1.374061660920658e+000	 3.308586744776357e-001	 7.382521549810215e+000
1	 1.370598568538679e+000	 3.449237684860104e-001	 6.850616231568570e+000
1	 1.366981067179019e+000	 3.589923958929374e-001	 6.334184699749947e+000
1	 1.363208469459881e+000	 3.730621813305708e-001	 5.833656644063900e+000
1	 1.359280133482124e+000	 3.871307224479301e-001	 5.349458618121567e+000
1	 1.355195463828543e+000	 4.011955909126852e-001	 4.882013499776059e+000
1	 1.350953912539618e+000	 4.152543334518899e-001	 4.431739940957233e+000
1	 1.392925099287674e+000	 2.759758678163474e-001	 9.499565363384900e+000
1	 1.390058436325648e+000	 2.900698191087422e-001	 8.908589823758861e+000
1	 1.387039834659383e+000	 3.041765769175411e-001	 8.331441566997798e+000
1	 1.383868431331207e+000	 3.182938723798801e-001	 7.768560597424018e+000
1	 1.380543404860995e+000	 3.324194058955513e-001	 7.220383986381406e+000
1	 1.377063976328380e+000	 3.465508479732667e-001	 6.687345343042923e+000
1	 1.373429410437834e+000	 3.606858401173979e-001	 6.169874274771133e+000
1	 1.369639016565036e+000	 3.748219957549626e-001	 5.668395837671012e+000
1	 1.365692149782871e+000	 3.889569012025585e-001	 5.183329978016604e+000
1	 1.361588211865426e+000	 4.030881166728738e-001	 4.715090965273395e+000
1	 1.357326652268343e+000	 4.172131773203306e-001	 4.264086817479948e+000
1	 1.399464976115353e+000	 2.772715930341038e-001	 9.344764496680950e+000
1	 1.396584853977964e+000	 2.914317163736618e-001	 8.752531157892749e+000
1	 1.393552079773962e+000	 3.056047063572134e-001	 8.174205955180401e+000
1	 1.390365786494034e+000	 3.197882834694137e-001	 7.610232063262696e+000
1	 1.387025148801159e+000	 3.339801373132609e-001	 7.061048138878561e+000
1	 1.383529384117886e+000	 3.481779274603316e-001	 6.527087758778974e+000
1	 1.379877753696433e+000	 3.623792843416840e-001	 6.008778849307285e+000
1	 1.376069563669956e+000	 3.765818101791978e-001	 5.506543108320671e+000
1	 1.372104166083367e+000	 3.907830799570470e-001	 5.020795420244292e+000
1	 1.367980959902047e+000	 4.049806424329365e-001	 4.551943265088656e+000
1	 1.363699391996801e+000	 4.191720211886540e-001	 4.100386122298736e+000
1	 1.406004852942930e+000	 2.785673182517614e-001	 9.191770530258166e+000
1	 1.403111271630186e+000	 2.927936136384749e-001	 8.598526829783287e+000
1	 1.400064324888450e+000	 3.070328357967761e-001	 8.019262656044633e+000
1	 1.396863141656769e+000	 3.212826945588386e-001	 7.454424591961360e+000
1	 1.393506892741225e+000	 3.355408687308651e-001	 6.904453368324820e+000
1	 1.389994791907289e+000	 3.498050069472954e-001	 6.369783273648316e+000
1	 1.386326096954921e+000	 3.640727285658740e-001	 5.850841557317992e+000
1	 1.382500110774756e+000	 3.783416246033408e-001	 5.348047826892734e+000
1	 1.378516182383736e+000	 3.926092587114449e-001	 4.861813440439460e+000
1	 1.374373707938537e+000	 4.068731681929065e-001	 4.392540894825761e+000
1	 1.370072131725126e+000	 4.211308650568782e-001	 3.940623210927876e+000
1	 1.412544729770422e+000	 2.798630434694193e-001	 9.040550817654374e+000
1	 1.409637689282345e+000	 2.941555109032878e-001	 8.446533189930696e+000
1	 1.406576570002893e+000	 3.084609652363380e-001	 7.866559872869616e+000
1	 1.403360496819475e+000	 3.227771056482615e-001	 7.301081097925825e+000
1	 1.399988636681273e+000	 3.371016001484642e-001	 6.750540158741515e+000
1	 1.396460199696681e+000	 3.514320864342495e-001	 6.215372797486034e+000
1	 1.392774440213403e+000	 3.657661727900466e-001	 5.696006585888160e+000
1	 1.388930657879554e+000	 3.801014390274559e-001	 5.192860301888151e+000
1	 1.384928198684105e+000	 3.944354374658012e-001	 4.706343302872906e+000
1	 1.380766455975028e+000	 4.087656939528171e-001	 4.236854896492285e+000
1	 1.376444871453451e+000	 4.230897089250208e-001	 3.784783710088418e+000
1	 1.419084606597842e+000	 2.811587686871757e-001	 8.891073314215284e+000
1	 1.416164106934472e+000	 2.955174081682074e-001	 8.296507393473750e+000
1	 1.413088815117339e+000	 3.098890946760084e-001	 7.716046763759056e+000
1	 1.409857851982213e+000	 3.242715167377888e-001	 7.150145547881667e+000
1	 1.406470380621380e+000	 3.386623315661588e-001	 6.599250091271446e+000
1	 1.402925607486154e+000	 3.530591659212842e-001	 6.063798329398863e+000
1	 1.399222783471986e+000	 3.674596170142805e-001	 5.544219150961213e+000
1	 1.395361204984467e+000	 3.818612534516081e-001	 5.040931757823817e+000
1	 1.391340214984599e+000	 3.962616162201654e-001	 4.554345022740045e+000
1	 1.387159204011649e+000	 4.106582197127023e-001	 4.084856845908797e+000
1	 1.382817611181910e+000	 4.250485527931002e-001	 3.632853511458976e+000
1	 1.425624483425207e+000	 2.824544939051299e-001	 8.743306563290885e+000
1	 1.422690524586597e+000	 2.968793054333399e-001	 8.148407381733462e+000
1	 1.419601060231832e+000	 3.113172241158961e-001	 7.567673419740486e+000
1	 1.416355207145046e+000	 3.257659278275273e-001	 7.001562936737230e+000
1	 1.412952124561622e+000	 3.402230629840488e-001	 6.450525819014272e+000
1	 1.409391015275801e+000	 3.546862454084906e-001	 5.915002932780976e+000
1	 1.405671126730774e+000	 3.691530612386543e-001	 5.395425473740638e+000
1	 1.401791752089610e+000	 3.836210678758615e-001	 4.892214314222140e+000
1	 1.397752231285342e+000	 3.980877949745867e-001	 4.405779348937148e+000
1	 1.393551952048531e+000	 4.125507454725953e-001	 3.936518840465030e+000
1	 1.389190350910635e+000	 4.270073966611341e-001	 3.484818765598472e+000
1	 1.432164360252531e+000	 2.837502191233804e-001	 8.597219682810012e+000
1	 1.429216942238750e+000	 2.982412026987919e-001	 8.002191864263129e+000
1	 1.426113305346421e+000	 3.127453535561098e-001	 7.421390843464515e+000
1	 1.422852562308036e+000	 3.272603389175837e-001	 6.855279264108127e+000
1	 1.419433868502080e+000	 3.417837944022349e-001	 6.304311042551537e+000
1	 1.415856423065714e+000	 3.563133248959594e-001	 5.768930711013876e+000
1	 1.412119469989871e+000	 3.708465054632466e-001	 5.249572757737424e+000
1	 1.408222299195100e+000	 3.853808823002810e-001	 4.746660965176105e+000
1	 1.404164247586460e+000	 3.999139737291144e-001	 4.260607747309434e+000
1	 1.399944700085807e+000	 4.144432712325296e-001	 3.791813487211357e+000
1	 1.395563090639759e+000	 4.289662405291407e-001	 3.340665876035378e+000
1	 1.438704237079830e+000	 2.850459443420262e-001	 8.452782352221020e+000
1	 1.435743359890963e+000	 2.996030999646700e-001	 7.857820301387583e+000
1	 1.432625550461151e+000	 3.141734829967587e-001	 7.277150928485283e+000
1	 1.429349917471245e+000	 3.287547500080645e-001	 6.711241511481829e+000
1	 1.425915612442830e+000	 3.433445258208175e-001	 6.160550486139107e+000
1	 1.422321830855985e+000	 3.579404043837813e-001	 5.625526783829377e+000
1	 1.418567813249386e+000	 3.725399496881361e-001	 5.106609166444109e+000
1	 1.414652846301054e+000	 3.871406967249310e-001	 4.604225559471844e+000
1	 1.410576263888079e+000	 4.017401524837974e-001	 4.118792384356016e+000
1	 1.406337448123607e+000	 4.163357969925386e-001	 3.650713891275153e+000
1	 1.401935830369417e+000	 4.309250843971382e-001	 3.200381493518298e+000
1	 1.338208433080836e+000	 4.113366457145844e-001	 4.778963445522076e+000
1	 1.333851001688592e+000	 4.252542299385834e-001	 4.345491674026969e+000
1	 1.329337225930455e+000	 4.391608147306638e-001	 3.924541621898151e+000
1	 1.324666707576071e+000	 4.530539011119613e-001	 3.516292620395799e+000
1	 1.319839099004865e+000	 4.669309698362181e-001	 3.120952032469528e+000
1	 1.314854104034503e+000	 4.807894826047506e-001	 2.738755770257744e+000
1	 1.309711478716544e+000	 4.946268833159535e-001	 2.369968769468856e+000
1	 1.304411032097752e+000	 5.084405993483900e-001	 2.014885418562195e+000
1	 1.298952626945552e+000	 5.222280428764503e-001	 1.673829940711422e+000
1	 1.293336180436153e+000	 5.359866122174863e-001	 1.347156726601757e+000
1	 1.287561664803915e+000	 5.497136932092553e-001	 1.035250616192815e+000
1	 1.344581172810493e+000	 4.132954895833138e-001	 4.603360414850041e+000
1	 1.340202990707700e+000	 4.272793513320475e-001	 4.169077368403469e+000
1	 1.335667719704843e+000	 4.412521612679873e-001	 3.747720457657346e+000
1	 1.330974959675125e+000	 4.552114085117662e-001	 3.339489570352888e+000
1	 1.326124361342539e+000	 4.691545618201075e-001	 2.944611918485243e+000
1	 1.321115627114275e+000	 4.830790708065788e-001	 2.563342510950523e+000
1	 1.315948511880162e+000	 4.969823671970455e-001	 2.195964583374376e+000
1	 1.310622823777606e+000	 5.108618661188716e-001	 1.842789983135839e+000
1	 1.305138424920496e+000	 5.247149674228440e-001	 1.504159507663875e+000
1	 1.299495232090610e+000	 5.385390570367218e-001	 1.180443194156697e+000
1	 1.293693217390069e+000	 5.523315083492396e-001	 8.720405589521075e-001
1	 1.350953912539618e+000	 4.152543334518899e-001	 4.431739940957233e+000
1	 1.346554979726282e+000	 4.293044727253902e-001	 3.996792849804015e+000
1	 1.341998213478724e+000	 4.433435078052140e-001	 3.575183414796594e+000
1	 1.337283211773701e+000	 4.573689159114934e-001	 3.167130693907522e+000
1	 1.332409623679769e+000	 4.713781538039353e-001	 2.772880099590061e+000
1	 1.327377150193642e+000	 4.853686590083604e-001	 2.392703824796151e+000
1	 1.322185545043416e+000	 4.993378510781066e-001	 2.026901226905797e+000
1	 1.316834615457133e+000	 5.132831328893411e-001	 1.675799167688441e+000
1	 1.311324222895143e+000	 5.272018919692492e-001	 1.339752307480983e+000
1	 1.305654283744792e+000	 5.410915018559989e-001	 1.019143351839289e+000
1	 1.299824769975957e+000	 5.549493234893046e-001	 7.143832490000974e-001
1	 1.357326652268343e+000	 4.172131773203306e-001	 4.264086817479948e+000
1	 1.352906968744470e+000	 4.313295941186147e-001	 3.828638508416123e+000
1	 1.348328707252225e+000	 4.454348543423331e-001	 3.406943867259928e+000
1	 1.343591463871916e+000	 4.595264233111200e-001	 2.999239755656145e+000
1	 1.338694886016667e+000	 4.736017457876672e-001	 2.605788160041038e+000
1	 1.333638673272708e+000	 4.876582472100505e-001	 2.226876569268061e+000
1	 1.328422578206398e+000	 5.016933349590825e-001	 1.862818311301923e+000
1	 1.323046407136414e+000	 5.157043996597350e-001	 1.513952847220041e+000
1	 1.317510020869568e+000	 5.296888165155945e-001	 1.180646020824089e+000
1	 1.311813335398765e+000	 5.436439466752397e-001	 8.632902622364603e-001
1	 1.305956322561644e+000	 5.575671386293675e-001	 5.623047439341166e-001
1	 1.363699391996801e+000	 4.191720211886540e-001	 4.100386122298736e+000
1	 1.359258957762394e+000	 4.333547155117243e-001	 3.664614727133117e+000
1	 1.354659201025470e+000	 4.475262008793348e-001	 3.243014938998372e+000
1	 1.349899715969893e+000	 4.616839307106232e-001	 2.835840075974999e+000
1	 1.344980148353344e+000	 4.758253377712688e-001	 2.443367093706099e+000
1	 1.339900196351570e+000	 4.899478354116039e-001	 2.065896912880934e+000
1	 1.334659611369197e+000	 5.040488188399183e-001	 1.703754707368080e+000
1	 1.329258198815530e+000	 5.181256664299906e-001	 1.357290151366690e+000
1	 1.323695818843844e+000	 5.321757410618093e-001	 1.026877624008489e+000
1	 1.317972387052602e+000	 5.461963914943674e-001	 7.129163699122338e-001
1	 1.312087875147197e+000	 5.601849537693447e-001	 4.158306142693619e-001
1	 1.370072131725126e+000	 4.211308650568782e-001	 3.940623210927876e+000
1	 1.365610946780186e+000	 4.353798369047222e-001	 3.504721881723924e+000
1	 1.360989694798589e+000	 4.496175474162086e-001	 3.083409509784143e+000
1	 1.356207968067750e+000	 4.638414381099804e-001	 2.676954541351451e+000
1	 1.351265410689909e+000	 4.780489297547055e-001	 2.285647317794737e+000
1	 1.346161719430332e+000	 4.922374236129757e-001	 1.909800351214000e+000
1	 1.340896644531904e+000	 5.064043027205591e-001	 1.549748562696553e+000
1	 1.335469990494566e+000	 5.205469332000442e-001	 1.205849481735825e+000
1	 1.329881616818045e+000	 5.346626656078232e-001	 8.784834053843383e-001
1	 1.324131438706370e+000	 5.487488363133046e-001	 5.680535157812597e-001
1	 1.318219427732684e+000	 5.628027689091538e-001	 2.749859547669458e-001
1	 1.376444871453451e+000	 4.230897089250208e-001	 3.784783710088418e+000
1	 1.371962935797978e+000	 4.374049582976122e-001	 3.348960340997900e+000
1	 1.367320188571709e+000	 4.517088939529443e-001	 2.928140220863262e+000
1	 1.362516220165607e+000	 4.659989455091683e-001	 2.522605614428163e+000
1	 1.357550673026475e+000	 4.802725217379431e-001	 2.132658686207334e+000
1	 1.352423242509094e+000	 4.945270118141209e-001	 1.758621722488886e+000
1	 1.347133677694612e+000	 5.087597866009511e-001	 1.400837318408370e+000
1	 1.341681782173601e+000	 5.229681999698325e-001	 1.059668528759259e+000
1	 1.336067414792247e+000	 5.371495901535648e-001	 7.354989812625491e-001
1	 1.330290490360137e+000	 5.513012811319733e-001	 4.287329510827247e-001
1	 1.324350980318171e+000	 5.654205840487115e-001	 1.397953954472723e-001
1	 1.382817611181910e+000	 4.250485527931002e-001	 3.632853511458976e+000
1	 1.378314924815902e+000	 4.394300796903972e-001	 3.197330466965501e+000
1	 1.373650682344955e+000	 4.538002404895319e-001	 2.777219480451843e+000
1	 1.368824472263584e+000	 4.681564529081642e-001	 2.372815343769815e+000
1	 1.363835935363151e+000	 4.824961137209468e-001	 1.984430502515360e+000
1	 1.358684765587958e+000	 4.968166000149945e-001	 1.612395222717042e+000
1	 1.353370710857411e+000	 5.111152704810391e-001	 1.257057725432315e+000
1	 1.347893573852718e+000	 5.253894667392928e-001	 9.187842880809457e-001
1	 1.342253212766523e+000	 5.396365146989636e-001	 5.979593114005258e-001
1	 1.336449542013973e+000	 5.538537259502966e-001	 2.949853509682695e-001
1	 1.330482532903725e+000	 5.680383991879353e-001	 1.028311229899466e-002
1	 1.389190350910635e+000	 4.270073966611341e-001	 3.484818765598472e+000
1	 1.384666913834088e+000	 4.414552010830808e-001	 3.049832614994120e+000
1	 1.379981176118456e+000	 4.558915870259609e-001	 2.630659469081293e+000
1	 1.375132724361800e+000	 4.703139603069455e-001	 2.227605373360734e+000
1	 1.370121197700050e+000	 4.847197057036825e-001	 1.840991532584211e+000
1	 1.364946288667022e+000	 4.991061882155512e-001	 1.471154420430147e+000
1	 1.359607744020392e+000	 5.134707543607685e-001	 1.118445860335951e+000
1	 1.354105365531999e+000	 5.278107335083615e-001	 7.832330764930177e-001
1	 1.348439010740948e+000	 5.421234392439488e-001	 4.658987140613868e-001
1	 1.342608593667948e+000	 5.564061707681970e-001	 1.668408277155116e-001
1	 1.336614085489412e+000	 5.706562143267417e-001	-1.135271623069551e-001
1	 1.395563090639759e+000	 4.289662405291407e-001	 3.340665876035378e+000
1	 1.391018902852671e+000	 4.434803224756665e-001	 2.906467133959890e+000
1	 1.386311669892336e+000	 4.579829335622214e-001	 2.488472144796705e+000
1	 1.381440976460375e+000	 4.724714677054894e-001	 2.086996951842367e+000
1	 1.376406460037280e+000	 4.869432976861156e-001	 1.702370016850286e+000
1	 1.371207811746390e+000	 5.013957764157462e-001	 1.334932271006715e+000
1	 1.365844777183646e+000	 5.158262382400847e-001	 9.850371407226962e-001
1	 1.360317157211526e+000	 5.302320002769754e-001	 6.530505474356839e-001
1	 1.354624808715595e+000	 5.446103637884494e-001	 3.393508806607486e-001
1	 1.348767645322129e+000	 5.589586155855971e-001	 4.432894357979155e-002
1	 1.342745638075299e+000	 5.732740294650479e-001	-2.316121294885610e-001
1	 1.401935830369417e+000	 4.309250843971382e-001	 3.200381493518298e+000
1	 1.397370891871779e+000	 4.455054438681575e-001	 2.767234366395339e+000
1	 1.392642163666725e+000	 4.600742800983028e-001	 2.350669248213874e+000
1	 1.387749228559429e+000	 4.746289751037728e-001	 1.951010941498975e+000
1	 1.382691722374954e+000	 4.891668896682116e-001	 1.568593682263217e+000
1	 1.377469334826162e+000	 5.036853646155344e-001	 1.203761130608286e+000
1	 1.372081810347265e+000	 5.181817221189332e-001	 8.568663402091109e-001
1	 1.366528948891380e+000	 5.326532670450713e-001	 5.282717060740888e-001
1	 1.360810606690540e+000	 5.470972883323950e-001	 2.183488900140100e-001
1	 1.354926696976586e+000	 5.615110604024198e-001	-7.252127670469349e-002
1	 1.348877190661454e+000	 5.758918446027711e-001	-3.439489140002206e-001
1	 1.287561664803915e+000	 5.497136932092553e-001	 1.035250616192816e+000
1	 1.281630009803991e+000	 5.634046095780015e-001	 7.232405415479188e-001
1	 1.275540446084816e+000	 5.770587896032857e-001	 3.966739213696968e-001
1	 1.269293115465706e+000	 5.906735921467680e-001	 5.675120945092398e-002
1	 1.262888216967242e+000	 6.042463694103605e-001	-2.952907801519811e-001
1	 1.256326007244957e+000	 6.177744684438015e-001	-6.581800462372051e-001
1	 1.249606800976565e+000	 6.312552326740413e-001	-1.030610646752726e+000
1	 1.242730971201641e+000	 6.446860034548100e-001	-1.411244017017647e+000
1	 1.235698949612701e+000	 6.580641216346842e-001	-1.798710358423651e+000
1	 1.228511226796755e+000	 6.713869291419161e-001	-2.191610095976513e+000
1	 1.221168352426389e+000	 6.846517705842250e-001	-2.588515402844128e+000
1	 1.293693217390069e+000	 5.523315083492396e-001	 8.720405589521082e-001
1	 1.287733315001646e+000	 5.660876228175537e-001	 5.640338517640656e-001
1	 1.281614751910021e+000	 5.798068259986222e-001	 2.419269900704536e-001
1	 1.275337670609884e+000	 5.934864641766428e-001	-9.306226950451833e-002
1	 1.268902271069594e+000	 6.071238769443510e-001	-4.396794247756973e-001
1	 1.262308811166927e+000	 6.207163987177730e-001	-7.966344356205813e-001
1	 1.255557607078149e+000	 6.342613602728952e-001	-1.162603006161159e+000
1	 1.248649033619314e+000	 6.477560903026103e-001	-1.536227940199577e+000
1	 1.241583524538735e+000	 6.611979169922528e-001	-1.916120568404208e+000
1	 1.234361572759677e+000	 6.745841696119737e-001	-2.300862245542744e+000
1	 1.226983730572359e+000	 6.879121801241521e-001	-2.689005915863076e+000
1	 1.299824769975957e+000	 5.549493234893046e-001	 7.143832490000969e-001
1	 1.293836620199028e+000	 5.687706360572362e-001	 4.105122862936378e-001
1	 1.287689057734931e+000	 5.825548623941472e-001	 9.299653403943166e-002
1	 1.281382225753736e+000	 5.962993362067713e-001	-2.369311387897178e-001
1	 1.274916325171580e+000	 6.100013844786647e-001	-5.780008491576029e-001
1	 1.268291615088483e+000	 6.236583289921399e-001	-9.289069404823193e-001
1	 1.261508413179267e+000	 6.372674878722167e-001	-1.288309298867790e+000
1	 1.254567096036469e+000	 6.508261771509483e-001	-1.654834743691171e+000
1	 1.247468099464197e+000	 6.643317123504247e-001	-2.027078490985093e+000
1	 1.240211918721977e+000	 6.777814100826946e-001	-2.403605687849305e+000
1	 1.232799108717664e+000	 6.911725896647932e-001	-2.782953015927969e+000
1	 1.305956322561644e+000	 5.575671386293675e-001	 5.623047439341171e-001
1	 1.299939925396204e+000	 5.714536492969610e-001	 2.626931892711973e-001
1	 1.293763363559621e+000	 5.853028987897693e-001	-5.010985997694509e-002
1	 1.287426780897345e+000	 5.991122082370586e-001	-3.748585906231675e-001
1	 1.280930379273292e+000	 6.128788920132045e-001	-7.102700225886135e-001
1	 1.274274419009729e+000	 6.266002592668021e-001	-1.055025280714046e+000
1	 1.267459219280038e+000	 6.402736154719032e-001	-1.407770943216710e+000
1	 1.260485158453235e+000	 6.538962639997189e-001	-1.767120465380605e+000
1	 1.253352674389232e+000	 6.674655077090929e-001	-2.131655676861186e+000
1	 1.246062264683813e+000	 6.809786505539669e-001	-2.499928350780576e+000
1	 1.238614486862472e+000	 6.944329992060319e-001	-2.870461842583309e+000
1	 1.312087875147197e+000	 5.601849537693447e-001	 4.158306142693616e-001
1	 1.306043230593243e+000	 5.741366625366410e-001	 1.205935806255240e-001
1	 1.299837669384164e+000	 5.880509351853972e-001	-1.873847470483408e-001
1	 1.293471336040790e+000	 6.019250802674105e-001	-5.068477575536983e-001
1	 1.286944433374820e+000	 6.157563995478727e-001	-8.365016345469191e-001
1	 1.280257222930769e+000	 6.295421895416601e-001	-1.175016658054088e+000
1	 1.273410025380575e+000	 6.432797430718522e-001	-1.521028583340560e+000
1	 1.266403220869743e+000	 6.569663508488171e-001	-1.873140095668421e+000
1	 1.259237249313980e+000	 6.705993030681478e-001	-2.229922339266661e+000
1	 1.251912610645338e+000	 6.841758910256783e-001	-2.589916518629785e+000
1	 1.244429865006946e+000	 6.976934087477517e-001	-2.951635570053219e+000
1	 1.318219427732684e+000	 5.628027689091538e-001	 2.749859547669459e-001
1	 1.312146535790214e+000	 5.768196757761883e-001	-1.576983638045240e-002
1	 1.305911975208633e+000	 5.907989715809392e-001	-3.188208207621253e-001
1	 1.299515891184154e+000	 6.047379522977323e-001	-6.329017138480761e-001
1	 1.292958487476256e+000	 6.186339070825722e-001	-9.567101012056798e-001
1	 1.286240026851705e+000	 6.324841198166135e-001	-1.288907768138293e+000
1	 1.279360831480996e+000	 6.462858706719616e-001	-1.628122107166113e+000
1	 1.272321283286121e+000	 6.600364376981375e-001	-1.972947601829236e+000
1	 1.265121824238586e+000	 6.737330984274819e-001	-2.321947385080182e+000
1	 1.257762956606709e+000	 6.873731314977173e-001	-2.673654870323265e+000
1	 1.250245243151254e+000	 7.009538182898363e-001	-3.026575452948249e+000
1	 1.324350980318171e+000	 5.654205840487115e-001	 1.397953954472709e-001
1	 1.318249840987185e+000	 5.795026890155154e-001	-1.463806678190014e-001
1	 1.311986281033103e+000	 5.935470079763046e-001	-4.444109100168284e-001
1	 1.305560446327517e+000	 6.075508243279292e-001	-7.530234768402115e-001
1	 1.298972541577693e+000	 6.215114146172055e-001	-1.070909571759938e+000
1	 1.292222830772642e+000	 6.354260500915626e-001	-1.396724812215811e+000
1	 1.285311637581417e+000	 6.492919982721286e-001	-1.729090663919948e+000
1	 1.278239345702499e+000	 6.631065245475751e-001	-2.066595951696085e+000
1	 1.271006399163193e+000	 6.768668937869868e-001	-2.407798445066230e+000
1	 1.263613302568079e+000	 6.905703719699720e-001	-2.751226516583994e+000
1	 1.256060621295562e+000	 7.042142278321688e-001	-3.095380870703382e+000
1	 1.330482532903725e+000	 5.680383991879353e-001	 1.028311229899416e-002
1	 1.324353146184225e+000	 5.821857022545347e-001	-2.712228219696105e-001
1	 1.318060586857646e+000	 5.962950443714010e-001	-5.641479759041949e-001
1	 1.311605001470963e+000	 6.103636963579071e-001	-8.672160082430794e-001
1	 1.304986595679221e+000	 6.243889221516753e-001	-1.179113934578228e+000
1	 1.298205634693682e+000	 6.383679803664074e-001	-1.498493508541099e+000
1	 1.291262443681955e+000	 6.522981258722513e-001	-1.823972681150190e+000
1	 1.284157408119006e+000	 6.661766113970248e-001	-2.154137136690388e+000
1	 1.276890974087942e+000	 6.800006891465542e-001	-2.487541903279901e+000
1	 1.269463648529604e+000	 6.937676124423298e-001	-2.822713036066920e+000
1	 1.261875999440038e+000	 7.074746373746336e-001	-3.158149370786797e+000
1	 1.336614085489412e+000	 5.706562143267417e-001	-1.135271623069551e-001
1	 1.330456451381401e+000	 5.848687154931584e-001	-3.902805023873559e-001
1	 1.324134892682336e+000	 5.990430807661378e-001	-6.780251086770543e-001
1	 1.317649556614571e+000	 6.131765683875711e-001	-9.754822154244229e-001
1	 1.311000649780933e+000	 6.272664296858844e-001	-1.281336823185332e+000
1	 1.304188438614927e+000	 6.413099106410480e-001	-1.594239103452378e+000
1	 1.297213249782725e+000	 6.553042534722270e-001	-1.912805881279375e+000
1	 1.290075470535772e+000	 6.692466982463816e-001	-2.235622194217589e+000
1	 1.282775549012976e+000	 6.831344845060754e-001	-2.561242925662706e+000
1	 1.275313994491440e+000	 6.969648529146795e-001	-2.888194510499731e+000
1	 1.267691377584844e+000	 7.107350469171134e-001	-3.214976710719507e+000
1	 1.342745638075299e+000	 5.732740294650479e-001	-2.316121294885605e-001
1	 1.336559756578783e+000	 5.875517287312995e-001	-5.035382011611650e-001
1	 1.330209198507246e+000	 6.017911171604234e-001	-7.860355248003514e-001
1	 1.323694111758423e+000	 6.159894404168262e-001	-1.077824952647578e+000
1	 1.317014703882919e+000	 6.301439372197351e-001	-1.377591622080870e+000
1	 1.310171242536484e+000	 6.442518409153849e-001	-1.683986382146352e+000
1	 1.303164055883844e+000	 6.583103810719529e-001	-1.995627297704108e+000
1	 1.295993532952928e+000	 6.723167850955397e-001	-2.311101229449515e+000
1	 1.288660123938438e+000	 6.862682798654428e-001	-2.628965487854645e+000
1	 1.281164340453741e+000	 7.001620933869084e-001	-2.947749558861140e+000
1	 1.273506755730149e+000	 7.139954564594921e-001	-3.265956898943688e+000
1	 1.348877190661454e+000	 5.758918446027711e-001	-3.439489140002200e-001
1	 1.342663061776438e+000	 5.902347419688698e-001	-6.109806923556770e-001
1	 1.336283504332451e+000	 6.045391535541665e-001	-8.881725640825019e-001
1	 1.329738666902602e+000	 6.188023124455790e-001	-1.174247022278498e+000
1	 1.323028757985271e+000	 6.330214447531308e-001	-1.467891472399174e+000
1	 1.316154046458454e+000	 6.471937711893181e-001	-1.767759679159406e+000
1	 1.309114861985428e+000	 6.613165086713273e-001	-2.072473290455441e+000
1	 1.301911595370601e+000	 6.753868719443946e-001	-2.380623436512482e+000
1	 1.294544698864472e+000	 6.894020752245478e-001	-2.690772402247810e+000
1	 1.287014686416663e+000	 7.033593338589054e-001	-3.001455370626585e+000
1	 1.279322133876119e+000	 7.172558660016536e-001	-3.311182234576403e+000
1	 1.221168352426389e+000	 6.846517705842250e-001	-2.588515402844127e+000
1	 1.213669799278833e+000	 6.978579711401302e-001	-2.995654073063538e+000
1	 1.206017326610182e+000	 7.110008907379337e-001	-3.419799672246619e+000
1	 1.198211663301045e+000	 7.240778913527084e-001	-3.860520106027964e+000
1	 1.190253597587755e+000	 7.370863441835159e-001	-4.317407846510426e+000
1	 1.182143976989039e+000	 7.500236313001479e-001	-4.790080590021332e+000
1	 1.173883708178447e+000	 7.628871472931258e-001	-5.278181867385910e+000
1	 1.165473756802219e+000	 7.756743009248834e-001	-5.781381604968012e+000
1	 1.156915147242332e+000	 7.883825167800594e-001	-6.299376634838173e+000
1	 1.148208962324598e+000	 8.010092369127815e-001	-6.831891152549747e+000
1	 1.139356342971731e+000	 8.135519224888317e-001	-7.378677121124285e+000
1	 1.226983730572359e+000	 6.879121801241521e-001	-2.689005915863073e+000
1	 1.219449468243310e+000	 7.011812704937224e-001	-3.087023920322546e+000
1	 1.211760553406452e+000	 7.143867785522950e-001	-3.501982267798712e+000
1	 1.203917718413423e+000	 7.275260537122790e-001	-3.933498283072443e+000
1	 1.195921755254242e+000	 7.405964546539967e-001	-4.381215105323729e+000
1	 1.187773515483636e+000	 7.535953509802705e-001	-4.844802270983441e+000
1	 1.179473910092858e+000	 7.665201248742765e-001	-5.323956246157607e+000
1	 1.171023909326686e+000	 7.793681727585921e-001	-5.818400907004761e+000
1	 1.162424542445345e+000	 7.921369069533466e-001	-6.327887966564805e+000
1	 1.153676897431213e+000	 8.048237573313516e-001	-6.852197346663860e+000
1	 1.144782120640234e+000	 8.174261729680852e-001	-7.391137493654553e+000
1	 1.232799108717664e+000	 6.911725896647932e-001	-2.782953015927970e+000
1	 1.225229137207087e+000	 7.045045698480690e-001	-3.171843558363354e+000
1	 1.217503780201996e+000	 7.177726663674401e-001	-3.577637826197713e+000
1	 1.209623773525056e+000	 7.309742160726523e-001	-3.999999091347284e+000
1	 1.201589912919977e+000	 7.441065651252894e-001	-4.438617290548189e+000
1	 1.193403053977485e+000	 7.571670706612037e-001	-4.893209536294668e+000
1	 1.185064112006538e+000	 7.701531024562266e-001	-5.363520575146485e+000
1	 1.176574061850452e+000	 7.830620445930802e-001	-5.849323191913085e+000
1	 1.167933937647704e+000	 7.958912971273850e-001	-6.350418558351461e+000
1	 1.159144832537233e+000	 8.086382777506355e-001	-6.866636525145134e+000
1	 1.150207898308219e+000	 8.213004234480066e-001	-7.397835856071840e+000
1	 1.238614486862472e+000	 6.944329992060319e-001	-2.870461842583310e+000
1	 1.231008806170338e+000	 7.078278692030473e-001	-3.250233820051278e+000
1	 1.223247006996993e+000	 7.211585541832412e-001	-3.646899050281042e+000
1	 1.215329828636130e+000	 7.344223784336932e-001	-4.060163332107639e+000
1	 1.207258070585148e+000	 7.476166755972522e-001	-4.489759585864116e+000
1	 1.199032592470775e+000	 7.607387903427998e-001	-4.935448295372574e+000
1	 1.190654313919673e+000	 7.737860800388232e-001	-5.397017895833576e+000
1	 1.182124214373700e+000	 7.867559164281895e-001	-5.874285106251992e+000
1	 1.173443332849581e+000	 7.996456873020111e-001	-6.367095205170545e+000
1	 1.164612767642822e+000	 8.124527981704673e-001	-6.875322248619209e+000
1	 1.155633675975835e+000	 8.251746739284291e-001	-7.398869229331495e+000
1	 1.244429865006946e+000	 6.976934087477517e-001	-2.951635570053218e+000
1	 1.236788475133239e+000	 7.111511685585370e-001	-3.322313279583383e+000
1	 1.228990233791627e+000	 7.245444419995696e-001	-3.709896162338162e+000
1	 1.221035883746832e+000	 7.378705407952682e-001	-4.114129174680740e+000
1	 1.212926228249946e+000	 7.511267860697443e-001	-4.534784461105468e+000
1	 1.204662130963697e+000	 7.643105100249108e-001	-4.971661730221991e+000
1	 1.196244515832452e+000	 7.774190576219127e-001	-5.424588575895846e+000
1	 1.187674366896613e+000	 7.904497882637617e-001	-5.893420742313578e+000
1	 1.178952728051152e+000	 8.034000774770631e-001	-6.378042331877986e+000
1	 1.170080702748144e+000	 8.162673185906819e-001	-6.878365954977883e+000
1	 1.161059453643234e+000	 8.290489244091865e-001	-7.394332820823399e+000
1	 1.250245243151254e+000	 7.009538182898363e-001	-3.026575452948249e+000
1	 1.242568144095964e+000	 7.144744679144152e-001	-3.388198305018047e+000
1	 1.234733460586078e+000	 7.279303298162979e-001	-3.766756961800330e+000
1	 1.226741938857349e+000	 7.413187031572424e-001	-4.162032217676297e+000
1	 1.218594385914560e+000	 7.546368965426242e-001	-4.573831735374976e+000
1	 1.210291669456439e+000	 7.678822297073895e-001	-5.001990358866263e+000
1	 1.201834717745062e+000	 7.810520352053412e-001	-5.446370371390792e+000
1	 1.193224519419372e+000	 7.941436600996370e-001	-5.906861697527343e+000
1	 1.184462123252591e+000	 8.071544676523775e-001	-6.383382048334799e+000
1	 1.175548637853362e+000	 8.200818390111134e-001	-6.875877008747864e+000
1	 1.166485231310565e+000	 8.329231748901119e-001	-7.384320066549035e+000
1	 1.256060621295562e+000	 7.042142278321688e-001	-3.095380870703381e+000
1	 1.248347813058690e+000	 7.177977672705599e-001	-3.448003109345612e+000
1	 1.240476687380531e+000	 7.313162176332978e-001	-3.817606881328194e+000
1	 1.232447993967869e+000	 7.447668655194811e-001	-4.204005548496921e+000
1	 1.224262543579179e+000	 7.581470070157511e-001	-4.607038638407244e+000
1	 1.215921207949192e+000	 7.714539493900888e-001	-5.026572097016727e+000
1	 1.207424919657691e+000	 7.846850127889552e-001	-5.462498487213477e+000
1	 1.198774671942160e+000	 7.978375319356575e-001	-5.914737132214058e+000
1	 1.189971518454072e+000	 8.109088578277917e-001	-6.383234202997759e+000
1	 1.181016572958641e+000	 8.238963594315962e-001	-6.867962749087250e+000
1	 1.171911008977979e+000	 8.367974253710390e-001	-7.368922672128619e+000
1	 1.261875999440038e+000	 7.074746373746336e-001	-3.158149370786794e+000
1	 1.254127482021592e+000	 7.211210666268496e-001	-3.501839800146527e+000
1	 1.246219914175166e+000	 7.347021054504418e-001	-3.862569041348284e+000
1	 1.238154049078578e+000	 7.482150278818500e-001	-4.240179801202896e+000
1	 1.229930701243992e+000	 7.616571174889840e-001	-4.634539870233999e+000
1	 1.221550746442145e+000	 7.750256690728600e-001	-5.045542318036101e+000
1	 1.213015121570523e+000	 7.883179903726010e-001	-5.473105635881805e+000
1	 1.204324824465157e+000	 8.015314037716643e-001	-5.917173825743581e+000
1	 1.195480913655770e+000	 8.146632480031428e-001	-6.377716435027630e+000
1	 1.186484508064144e+000	 8.277108798519648e-001	-6.854728536455599e+000
1	 1.177336786645625e+000	 8.406716758518008e-001	-7.348230652672980e+000
1	 1.267691377584844e+000	 7.107350469171134e-001	-3.214976710719507e+000
1	 1.259907150984843e+000	 7.244443659831625e-001	-3.549818427883166e+000
1	 1.251963140970167e+000	 7.380879932676013e-001	-3.901764303088251e+000
1	 1.243860104189663e+000	 7.516631902442145e-001	-4.270683212783950e+000
1	 1.235598858909190e+000	 7.651672279621811e-001	-4.656467659207859e+000
1	 1.227180284935487e+000	 7.785973887555560e-001	-5.059033911252731e+000
1	 1.218605323483748e+000	 7.919509679561250e-001	-5.478322094703986e+000
1	 1.209874976988547e+000	 8.052252756074982e-001	-5.914296231146123e+000
1	 1.200990308857859e+000	 8.184176381782674e-001	-6.366944224963840e+000
1	 1.191952443170035e+000	 8.315254002720536e-001	-6.836277797998849e+000
1	 1.182762564313656e+000	 8.445459263322308e-001	-7.322332371559012e+000
1	 1.273506755730149e+000	 7.139954564594921e-001	-3.265956898943689e+000
1	 1.265686819948621e+000	 7.277676653393762e-001	-3.592047032867908e+000
1	 1.257706367765714e+000	 7.414738810846485e-001	-3.935311320159505e+000
1	 1.249566159301312e+000	 7.551113526064400e-001	-4.295641677889775e+000
1	 1.241267016574961e+000	 7.686773384352018e-001	-4.672951818435956e+000
1	 1.232809823429408e+000	 7.821691084380293e-001	-5.067177338675921e+000
1	 1.224195525397553e+000	 7.955839455393742e-001	-5.478275761379654e+000
1	 1.215425129512512e+000	 8.089191474430005e-001	-5.906226528227506e+000
1	 1.206499704060513e+000	 8.221720283530030e-001	-6.351030944010264e+000
1	 1.197420378276477e+000	 8.353399206916965e-001	-6.812712071691128e+000
1	 1.188188341982220e+000	 8.484201768121623e-001	-7.291314578141893e+000
1	 1.279322133876119e+000	 7.172558660016536e-001	-3.311182234576402e+000
1	 1.271466488913099e+000	 7.310909646953697e-001	-3.628631690950830e+000
1	 1.263449594561992e+000	 7.448597689014561e-001	-3.963326588732536e+000
1	 1.255272214413711e+000	 7.585595149683920e-001	-4.315178802067353e+000
1	 1.246935174241497e+000	 7.721874489079046e-001	-4.684119800674422e+000
1	 1.238439361924098e+000	 7.857408281201320e-001	-5.070100690165124e+000
1	 1.229785727312124e+000	 7.992169231221942e-001	-5.473092208084221e+000
1	 1.220975282037234e+000	 8.126130192780127e-001	-5.893084675236077e+000
1	 1.212009099263907e+000	 8.259264185271869e-001	-6.330087901977000e+000
1	 1.202888313383635e+000	 8.391544411107291e-001	-6.784131049272384e+000
1	 1.193614119651469e+000	 8.522944272914291e-001	-7.255262444439475e+000
1	 1.139356342971731e+000	 8.135519224888317e-001	-7.378677121124285e+000
1	 1.130358487479987e+000	 8.260080551452174e-001	-7.933574820103672e+000
1	 1.121216650107010e+000	 8.383751377728456e-001	-8.490869594420374e+000
1	 1.111932141541688e+000	 8.506506969278836e-001	-9.051022707124561e+000
1	 1.102506328664550e+000	 8.628322847048778e-001	-9.614522337430381e+000
1	 1.092940633930648e+000	 8.749174803231294e-001	-1.018188274378753e+001
1	 1.083236534698992e+000	 8.869038916952824e-001	-1.075364337243693e+001
1	 1.073395562509123e+000	 8.987891569760318e-001	-1.133036791304488e+001
1	 1.063419302305526e+000	 9.105709460888763e-001	-1.191264330316004e+001
1	 1.053309391610658e+000	 9.222469622288806e-001	-1.250107868337866e+001
1	 1.043067519647452e+000	 9.338149433394247e-001	-1.309630430524396e+001
1	 1.144782120640234e+000	 8.174261729680852e-001	-7.391137493654552e+000
1	 1.135741416075119e+000	 8.299416235077390e-001	-7.938554007105393e+000
1	 1.126556043966473e+000	 8.423675999496276e-001	-8.488696867074946e+000
1	 1.117227321244882e+000	 8.547016170710257e-001	-9.042022938821717e+000
1	 1.107756621300165e+000	 8.669412153092041e-001	-9.599015518910505e+000
1	 1.098145373361320e+000	 8.790839623553601e-001	-1.016018350537429e+001
1	 1.088395061822759e+000	 8.911274547306766e-001	-1.072606051414591e+001
1	 1.078507225517445e+000	 9.030693193424029e-001	-1.129720394334302e+001
1	 1.068483456937606e+000	 9.149072150178814e-001	-1.187419398713538e+001
1	 1.058325401403822e+000	 9.266388340144638e-001	-1.245763260106308e+001
1	 1.048034756183361e+000	 9.382619035032933e-001	-1.304814242081325e+001
1	 1.150207898308219e+000	 8.213004234480066e-001	-7.397835856071840e+000
1	 1.141124344669825e+000	 8.338751918708751e-001	-7.937859208136369e+000
1	 1.131895437825615e+000	 8.463600621269652e-001	-8.480917663960661e+000
1	 1.122522500947869e+000	 8.587525372146619e-001	-9.027464479329563e+000
1	 1.113006913935690e+000	 8.710501459139628e-001	-9.577979030600199e+000
1	 1.103350112792018e+000	 8.832504443879650e-001	-1.013296599070071e+001
1	 1.093553588946664e+000	 8.953510177663915e-001	-1.069295445186773e+001
1	 1.083618888526008e+000	 9.073494817090502e-001	-1.125849699669512e+001
1	 1.073547611570015e+000	 9.192434839471292e-001	-1.183016871921004e+001
1	 1.063341411197388e+000	 9.310307058002686e-001	-1.240856619783226e+001
1	 1.053001992719719e+000	 9.427088636673785e-001	-1.299430642220996e+001
1	 1.155633675975835e+000	 8.251746739284291e-001	-7.398869229331497e+000
1	 1.146507273264239e+000	 8.378087602344601e-001	-7.931570130490909e+000
1	 1.137234831684552e+000	 8.503525243046958e-001	-8.467596071992068e+000
1	 1.127817680650742e+000	 8.628034573586337e-001	-9.007397471205428e+000
1	 1.118257206571198e+000	 8.751590765190012e-001	-9.551450727841630e+000
1	 1.108554852222792e+000	 8.874169264207961e-001	-1.010025740454655e+001
1	 1.098712116070736e+000	 8.995745808022863e-001	-1.065434335438831e+001
1	 1.088730551534819e+000	 9.116296440758385e-001	-1.121425779679890e+001
1	 1.078611766202740e+000	 9.235797528764896e-001	-1.178057234367650e+001
1	 1.068357420991321e+000	 9.354225775861725e-001	-1.235387997749551e+001
1	 1.057969229256477e+000	 9.471558238315647e-001	-1.293479398340460e+001
1	 1.161059453643234e+000	 8.290489244091865e-001	-7.394332820823395e+000
1	 1.151890201858494e+000	 8.417423285983281e-001	-7.919764991533236e+000
1	 1.142574225543397e+000	 8.543449864826558e-001	-8.448794980137686e+000
1	 1.133112860353597e+000	 8.668543775027816e-001	-8.981871119715326e+000
1	 1.123507499206761e+000	 8.792680071241641e-001	-9.519467758364232e+000
1	 1.113759591653694e+000	 8.915834084537054e-001	-1.006208444316425e+001
1	 1.103870643195002e+000	 9.037981438382184e-001	-1.061024505087139e+001
1	 1.093842214543883e+000	 9.159098064426332e-001	-1.116449686689733e+001
1	 1.083675920835766e+000	 9.279160218058362e-001	-1.172540961427417e+001
1	 1.073373430785588e+000	 9.398144493720536e-001	-1.229357443444367e+001
1	 1.062936465793583e+000	 9.516027839957343e-001	-1.286960282184566e+001
1	 1.166485231310565e+000	 8.329231748901119e-001	-7.384320066549039e+000
1	 1.157273130452726e+000	 8.456758969623131e-001	-7.902520553348141e+000
1	 1.147913619402268e+000	 8.583374486606824e-001	-8.424576107279851e+000
1	 1.138408040056528e+000	 8.709052976469462e-001	-8.950933714631850e+000
1	 1.128757791842452e+000	 8.833769377292983e-001	-9.482066578740975e+000
1	 1.118964331084774e+000	 8.957498904865452e-001	-1.001847330610577e+001
1	 1.109029170319491e+000	 9.080217068740475e-001	-1.056067703875782e+001
1	 1.098953877553206e+000	 9.201899688092993e-001	-1.110922453444144e+001
1	 1.088740075469078e+000	 9.322522907350391e-001	-1.166468519629463e+001
1	 1.078389440580155e+000	 9.442063211577895e-001	-1.222765005386719e+001
1	 1.067903702330989e+000	 9.560497441597712e-001	-1.279873069744819e+001
1	 1.171911008977979e+000	 8.367974253710390e-001	-7.368922672128618e+000
1	 1.162656059047067e+000	 8.496094653262503e-001	-7.879912156430080e+000
1	 1.153253013261278e+000	 8.623299108386122e-001	-8.395000029301611e+000
1	 1.143703219759631e+000	 8.749562177909689e-001	-8.914632651427549e+000
1	 1.134008084478345e+000	 8.874858683342495e-001	-9.439282970389321e+000
1	 1.124169070516083e+000	 8.999163725191670e-001	-9.969449707721150e+000
1	 1.114187697444231e+000	 9.122452699096308e-001	-1.050565649144397e+001
1	 1.104065540562796e+000	 9.244701311757015e-001	-1.104845093562178e+001
1	 1.093804230102663e+000	 9.365885596639706e-001	-1.159840366862947e+001
1	 1.083405450374990e+000	 9.485981929432582e-001	-1.215610731196993e+001
1	 1.072870938868645e+000	 9.604967043235582e-001	-1.272217541161129e+001
1	 1.177336786645625e+000	 8.406716758518008e-001	-7.348230652672980e+000
1	 1.168038987641652e+000	 8.535430336899728e-001	-7.852013752439959e+000
1	 1.158592407120543e+000	 8.663223730162815e-001	-8.360126205424326e+000
1	 1.148998399463000e+000	 8.790071379346902e-001	-8.873014451881881e+000
1	 1.139258377114512e+000	 8.915947989388634e-001	-9.391152055127364e+000
1	 1.129373809947671e+000	 9.040828545514228e-001	-9.915038888338335e+000
1	 1.119346224569249e+000	 9.164688329448273e-001	-1.044520026574930e+001
1	 1.109177203572658e+000	 9.287502935417051e-001	-1.098218601977613e+001
1	 1.098868384736506e+000	 9.409248285925020e-001	-1.152656952576098e+001
1	 1.088421460170060e+000	 9.529900647283366e-001	-1.207894667617561e+001
1	 1.077838175406501e+000	 9.649436644869789e-001	-1.263993480626134e+001
1	 1.182762564313656e+000	 8.445459263322308e-001	-7.322332371559012e+000
1	 1.173421916236615e+000	 8.574766020533158e-001	-7.818897936060739e+000
1	 1.163931800980180e+000	 8.703148351935284e-001	-8.320013003820543e+000
1	 1.154293579166728e+000	 8.830580580779516e-001	-8.826124784121005e+000
1	 1.144508669751025e+000	 8.957037295429865e-001	-9.337708310303675e+000
1	 1.134578549379588e+000	 9.082493365831645e-001	-9.855265625136056e+000
1	 1.124504751694574e+000	 9.206923959794957e-001	-1.037932490917672e+001
1	 1.114288866582798e+000	 9.330304559071755e-001	-1.091043955367502e+001
1	 1.103932539370592e+000	 9.452610975205055e-001	-1.144918717969836e+001
1	 1.093437469965330e+000	 9.573819365129036e-001	-1.199616860532960e+001
1	 1.082805411944507e+000	 9.693906246499160e-001	-1.255200676292337e+001
1	 1.188188341982220e+000	 8.484201768121623e-001	-7.291314578141893e+000
1	 1.178804844832091e+000	 8.614101704161132e-001	-7.780635975980352e+000
1	 1.169271194840301e+000	 8.743072973701889e-001	-8.274717726524703e+000
1	 1.159588758870912e+000	 8.871089782205932e-001	-8.774008482108469e+000
1	 1.149758962387959e+000	 8.998126601464643e-001	-9.278985583511686e+000
1	 1.139783288811885e+000	 9.124158186142443e-001	-9.790154242718506e+000
1	 1.129663278820234e+000	 9.249159590134939e-001	-1.030804666697590e+001
1	 1.119400529593223e+000	 9.373106182719772e-001	-1.083322112569039e+001
1	 1.108996694004907e+000	 9.495973664478518e-001	-1.136626096186040e+001
1	 1.098453479760768e+000	 9.617738082968365e-001	-1.190777354989420e+001
1	 1.087772648482614e+000	 9.738375848122531e-001	-1.245838920181602e+001
1	 1.193614119651469e+000	 8.522944272914291e-001	-7.255262444439475e+000
1	 1.184187773428212e+000	 8.653437387781996e-001	-7.737297845028976e+000
1	 1.174610588701024e+000	 8.782997595461004e-001	-8.224296633664974e+000
1	 1.164883938575646e+000	 8.911598983624565e-001	-8.716709564604143e+000
1	 1.155009255025385e+000	 9.039215907491438e-001	-9.215017106902772e+000
1	 1.144988028244612e+000	 9.165823006445137e-001	-9.719728623401297e+000
1	 1.134821805946257e+000	 9.291395220466800e-001	-1.023138148901207e+001
1	 1.124512192603938e+000	 9.415907806359750e-001	-1.075054014984991e+001
1	 1.114060848639436e+000	 9.539336353744131e-001	-1.127779512490781e+001
1	 1.103469489556340e+000	 9.661656800800127e-001	-1.181376195214008e+001
1	 1.092739885020771e+000	 9.782845449738733e-001	-1.235908008097277e+001
1	 1.043067519647452e+000	 9.338149433394247e-001	-1.309630430524396e+001
1	 1.032696991978341e+000	 9.452709535141213e-001	-1.369027283936157e+001
1	 1.022198072001155e+000	 9.566145495030239e-001	-1.427476267871642e+001
1	 1.011572598348012e+000	 9.678435839347662e-001	-1.484988840575258e+001
1	 1.000822457308639e+000	 9.789559497897831e-001	-1.541576477437773e+001
1	 9.899495817162132e-001	 9.899495817162133e-001	-1.597250683670375e+001
1	 9.789559497897830e-001	 1.000822457308639e+000	-1.652023007386998e+001
1	 9.678435839347661e-001	 1.011572598348011e+000	-1.705905053052994e+001
1	 9.566145495030243e-001	 1.022198072001155e+000	-1.758908495256855e+001
1	 9.452709535141209e-001	 1.032696991978341e+000	-1.811045092760538e+001
1	 9.338149433394248e-001	 1.043067519647452e+000	-1.862326702782748e+001
1	 1.048034756183361e+000	 9.382619035032933e-001	-1.304814242081325e+001
1	 1.037614842580221e+000	 9.497724688346354e-001	-1.363754485795020e+001
1	 1.027065925246561e+000	 9.611700846477366e-001	-1.421750294013534e+001
1	 1.016389851570314e+000	 9.724525933451523e-001	-1.478814912836576e+001
1	 1.005588516823978e+000	 9.836178778734041e-001	-1.534961591522806e+001
1	 9.946638630451422e-001	 9.946638630451422e-001	-1.590203592685996e+001
1	 9.836178778734039e-001	 1.005588516823978e+000	-1.644554202925407e+001
1	 9.724525933451519e-001	 1.016389851570314e+000	-1.698026743853399e+001
1	 9.611700846477363e-001	 1.027065925246561e+000	-1.750634583481993e+001
1	 9.497724688346353e-001	 1.037614842580221e+000	-1.802391147928492e+001
1	 9.382619035032931e-001	 1.048034756183361e+000	-1.853309933399301e+001
1	 1.053001992719719e+000	 9.427088636673785e-001	-1.299430642220996e+001
1	 1.042532693182573e+000	 9.542739841553807e-001	-1.357908240360133e+001
1	 1.031933778492439e+000	 9.657256197927074e-001	-1.415444345975704e+001
1	 1.021207104793070e+000	 9.770616027558350e-001	-1.472054024520339e+001
1	 1.010354576339740e+000	 9.882798059573643e-001	-1.527752331171183e+001
1	 9.993781443744535e-001	 9.993781443744535e-001	-1.582554318477847e+001
1	 9.882798059573644e-001	 1.010354576339740e+000	-1.636475044469938e+001
1	 9.770616027558350e-001	 1.021207104793070e+000	-1.689529581192043e+001
1	 9.657256197927076e-001	 1.031933778492439e+000	-1.741733023632950e+001
1	 9.542739841553805e-001	 1.042532693182573e+000	-1.793100499014179e+001
1	 9.427088636673786e-001	 1.053001992719719e+000	-1.843647176401674e+001
1	 1.057969229256477e+000	 9.471558238315647e-001	-1.293479398340460e+001
1	 1.047450543785332e+000	 9.587754994762444e-001	-1.351488109680284e+001
1	 1.036801631738713e+000	 9.702811549378291e-001	-1.408557786283931e+001
1	 1.026024358016198e+000	 9.816706121667101e-001	-1.464705344032577e+001
1	 1.015120635855834e+000	 9.929417340415637e-001	-1.519947675645678e+001
1	 1.004092425704052e+000	 1.004092425704052e+000	-1.574301655711144e+001
1	 9.929417340415642e-001	 1.015120635855834e+000	-1.627784146199394e+001
1	 9.816706121667098e-001	 1.026024358016198e+000	-1.680412002434664e+001
1	 9.702811549378294e-001	 1.036801631738713e+000	-1.732202079495098e+001
1	 9.587754994762442e-001	 1.047450543785332e+000	-1.783171239012285e+001
1	 9.471558238315647e-001	 1.057969229256477e+000	-1.833336356338687e+001
1	 1.062936465793583e+000	 9.516027839957343e-001	-1.286960282184566e+001
1	 1.052368394388436e+000	 9.632770147971145e-001	-1.344493663990511e+001
1	 1.041669484985311e+000	 9.748366900829936e-001	-1.401089989379910e+001
1	 1.030841611239612e+000	 9.862796215776729e-001	-1.456768055323802e+001
1	 1.019886695372170e+000	 9.976036621259025e-001	-1.511546623289118e+001
1	 1.008806707033843e+000	 1.008806707033843e+000	-1.565444421581730e+001
1	 9.976036621259025e-001	 1.019886695372170e+000	-1.618480148196976e+001
1	 9.862796215776728e-001	 1.030841611239612e+000	-1.670672474156431e+001
1	 9.748366900829935e-001	 1.041669484985311e+000	-1.722040047307883e+001
1	 9.632770147971146e-001	 1.052368394388437e+000	-1.772601496564115e+001
1	 9.516027839957345e-001	 1.062936465793583e+000	-1.822375436554480e+001
1	 1.067903702330989e+000	 9.560497441597712e-001	-1.279873069744819e+001
1	 1.057286244991822e+000	 9.677785301178790e-001	-1.336924481521753e+001
1	 1.046537338232156e+000	 9.793922252280916e-001	-1.393040341344060e+001
1	 1.035658864463231e+000	 9.908886309886190e-001	-1.448241357527487e+001
1	 1.024652754888659e+000	 1.002265590210279e+000	-1.502548191080635e+001
1	 1.013520988363730e+000	 1.013520988363730e+000	-1.555981455292117e+001
1	 1.002265590210279e+000	 1.024652754888659e+000	-1.608561715847779e+001
1	 9.908886309886190e-001	 1.035658864463231e+000	-1.660309491462690e+001
1	 9.793922252280914e-001	 1.046537338232156e+000	-1.711245255010137e+001
1	 9.677785301178788e-001	 1.057286244991822e+000	-1.761389435128635e+001
1	 9.560497441597713e-001	 1.067903702330989e+000	-1.810762418286262e+001
1	 1.072870938868645e+000	 9.604967043235582e-001	-1.272217541161129e+001
1	 1.062204095595425e+000	 9.722800454384258e-001	-1.328780148315742e+001
1	 1.051405191479176e+000	 9.839477603730165e-001	-1.384408239626133e+001
1	 1.040476117686970e+000	 9.954976403994443e-001	-1.439124464608540e+001
1	 1.029418814405209e+000	 1.006927518294594e+000	-1.492951414204243e+001
1	 1.018235269693616e+000	 1.018235269693616e+000	-1.545911617542025e+001
1	 1.006927518294594e+000	 1.029418814405210e+000	-1.598027539253155e+001
1	 9.954976403994444e-001	 1.040476117686970e+000	-1.649321577328479e+001
1	 9.839477603730163e-001	 1.051405191479176e+000	-1.699816061506223e+001
1	 9.722800454384258e-001	 1.062204095595425e+000	-1.749533252176385e+001
1	 9.604967043235583e-001	 1.072870938868645e+000	-1.798495339787107e+001
1	 1.077838175406501e+000	 9.649436644869789e-001	-1.263993480626134e+001
1	 1.067121946199183e+000	 9.767815607586421e-001	-1.320060258045010e+001
1	 1.056273044726295e+000	 9.885032955176587e-001	-1.375193092783199e+001
1	 1.045293370910748e+000	 1.000106649810044e+000	-1.429416605021643e+001
1	 1.034184873921732e+000	 1.011589446378747e+000	-1.482755345629309e+001
1	 1.022949551023407e+000	 1.022949551023407e+000	-1.535233790033009e+001
1	 1.011589446378747e+000	 1.034184873921732e+000	-1.586876332661091e+001
1	 1.000106649810044e+000	 1.045293370910748e+000	-1.637707281956351e+001
1	 9.885032955176586e-001	 1.056273044726295e+000	-1.687750855952490e+001
1	 9.767815607586423e-001	 1.067121946199183e+000	-1.737031178405804e+001
1	 9.649436644869790e-001	 1.077838175406501e+000	-1.785572275473031e+001
1	 1.082805411944507e+000	 9.693906246499160e-001	-1.255200676292337e+001
1	 1.072039796803032e+000	 9.812830760784168e-001	-1.310764411837886e+001
1	 1.061140897973439e+000	 9.930588306619105e-001	-1.365394320224901e+001
1	 1.050110624134479e+000	 1.004715659220315e+000	-1.419117021378817e+001
1	 1.038950933438136e+000	 1.016251374462636e+000	-1.471959055702683e+001
1	 1.027663832353006e+000	 1.027663832353006e+000	-1.523946874986765e+001
1	 1.016251374462637e+000	 1.038950933438136e+000	-1.575106833912439e+001
1	 1.004715659220314e+000	 1.050110624134479e+000	-1.625465182151864e+001
1	 9.930588306619106e-001	 1.061140897973439e+000	-1.675048057063432e+001
1	 9.812830760784168e-001	 1.072039796803032e+000	-1.723881476981110e+001
1	 9.693906246499159e-001	 1.082805411944507e+000	-1.771991335093494e+001
1	 1.087772648482614e+000	 9.738375848122531e-001	-1.245838920181602e+001
1	 1.076957647406907e+000	 9.857845913976362e-001	-1.300892218108239e+001
1	 1.066008751220533e+000	 9.976143658056642e-001	-1.355011351965682e+001
1	 1.054927877358083e+000	 1.009324668630150e+000	-1.408224970126215e+001
1	 1.043716992954331e+000	 1.020913302546162e+000	-1.460561631751880e+001
1	 1.032378113682318e+000	 1.032378113682317e+000	-1.512049794676620e+001
1	 1.020913302546162e+000	 1.043716992954331e+000	-1.562717803902235e+001
1	 1.009324668630150e+000	 1.054927877358083e+000	-1.612593880716126e+001
1	 9.976143658056641e-001	 1.066008751220533e+000	-1.661706112436787e+001
1	 9.857845913976369e-001	 1.076957647406908e+000	-1.710082442790964e+001
1	 9.738375848122530e-001	 1.087772648482613e+000	-1.757750662924705e+001
1	 1.092739885020771e+000	 9.782845449738733e-001	-1.235908008097277e+001
1	 1.081875498010749e+000	 9.902861067161902e-001	-1.290443292389869e+001
1	 1.070876604467505e+000	 1.002169900948811e+000	-1.344043628383717e+001
1	 1.059745130581474e+000	 1.013933678039448e+000	-1.396739721229681e+001
1	 1.048483052470228e+000	 1.025575230629225e+000	-1.448562177699177e+001
1	 1.037092395011246e+000	 1.037092395011246e+000	-1.499541490971765e+001
1	 1.025575230629225e+000	 1.048483052470228e+000	-1.549708026055638e+001
1	 1.013933678039448e+000	 1.059745130581474e+000	-1.599092005855051e+001
1	 1.002169900948811e+000	 1.070876604467505e+000	-1.647723497897047e+001
1	 9.902861067161898e-001	 1.081875498010748e+000	-1.695632401727529e+001
1	 9.782845449738733e-001	 1.092739885020771e+000	-1.742848436984879e+001
1	 9.338149433394248e-001	 1.043067519647452e+000	-1.862326702782748e+001
1	 9.222469622288808e-001	 1.053309391610658e+000	-1.912069371024002e+001
1	 9.105709460888766e-001	 1.063419302305526e+000	-1.959634708738340e+001
1	 8.987891569760318e-001	 1.073395562509123e+000	-2.005127055899993e+001
1	 8.869038916952824e-001	 1.083236534698992e+000	-2.048652205933796e+001
1	 8.749174803231293e-001	 1.092940633930648e+000	-2.090317282269843e+001
1	 8.628322847048777e-001	 1.102506328664550e+000	-2.130230613756319e+001
1	 8.506506969278835e-001	 1.111932141541688e+000	-2.168501609165944e+001
1	 8.383751377728452e-001	 1.121216650107010e+000	-2.205240631032267e+001
1	 8.260080551452174e-001	 1.130358487479987e+000	-2.240558869051732e+001
1	 8.135519224888317e-001	 1.139356342971731e+000	-2.274568213286741e+001
1	 9.382619035032931e-001	 1.048034756183361e+000	-1.853309933399301e+001
1	 9.266388340144641e-001	 1.058325401403822e+000	-1.902713264220716e+001
1	 9.149072150178818e-001	 1.068483456937606e+000	-1.949968421360524e+001
1	 9.030693193424028e-001	 1.078507225517445e+000	-1.995180311040570e+001
1	 8.911274547306765e-001	 1.088395061822759e+000	-2.038455321890260e+001
1	 8.790839623553599e-001	 1.098145373361320e+000	-2.079901200262351e+001
1	 8.669412153092042e-001	 1.107756621300166e+000	-2.119626924350251e+001
1	 8.547016170710254e-001	 1.117227321244882e+000	-2.157742577345377e+001
1	 8.423675999496273e-001	 1.126556043966473e+000	-2.194359219873960e+001
1	 8.299416235077390e-001	 1.135741416075119e+000	-2.229588761952558e+001
1	 8.174261729680850e-001	 1.144782120640234e+000	-2.263543834700797e+001
1	 9.427088636673786e-001	 1.053001992719719e+000	-1.843647176401674e+001
1	 9.310307058002686e-001	 1.063341411197388e+000	-1.892701891540761e+001
1	 9.192434839471291e-001	 1.073547611570015e+000	-1.939637540568181e+001
1	 9.073494817090499e-001	 1.083618888526008e+000	-1.984559185031743e+001
1	 8.953510177663914e-001	 1.093553588946664e+000	-2.027573385656208e+001
1	 8.832504443879650e-001	 1.103350112792018e+000	-2.068788077220060e+001
1	 8.710501459139629e-001	 1.113006913935690e+000	-2.108312442195231e+001
1	 8.587525372146621e-001	 1.122522500947869e+000	-2.146256783389162e+001
1	 8.463600621269652e-001	 1.131895437825615e+000	-2.182732395830415e+001
1	 8.338751918708751e-001	 1.141124344669825e+000	-2.217851438138046e+001
1	 8.213004234480067e-001	 1.150207898308220e+000	-2.251726803615307e+001
1	 9.471558238315647e-001	 1.057969229256477e+000	-1.833336356338687e+001
1	 9.354225775861725e-001	 1.068357420991321e+000	-1.882032942151457e+001
1	 9.235797528764902e-001	 1.078611766202740e+000	-1.928639388063318e+001
1	 9.116296440758384e-001	 1.088730551534819e+000	-1.973260505794805e+001
1	 8.995745808022859e-001	 1.098712116070736e+000	-2.016002610941938e+001
1	 8.874169264207962e-001	 1.108554852222792e+000	-2.056973398207832e+001
1	 8.751590765190013e-001	 1.118257206571198e+000	-2.096281815375976e+001
1	 8.628034573586336e-001	 1.127817680650742e+000	-2.134037936264813e+001
1	 8.503525243046958e-001	 1.137234831684552e+000	-2.170352832903332e+001
1	 8.378087602344598e-001	 1.146507273264239e+000	-2.205338447168383e+001
1	 8.251746739284291e-001	 1.155633675975835e+000	-2.239107462123332e+001
1	 9.516027839957345e-001	 1.062936465793583e+000	-1.822375436554480e+001
1	 9.398144493720535e-001	 1.073373430785587e+000	-1.870704148415305e+001
1	 9.279160218058367e-001	 1.083675920835766e+000	-1.916971335612021e+001
1	 9.159098064426330e-001	 1.093842214543882e+000	-1.961281160545125e+001
1	 9.037981438382182e-001	 1.103870643195002e+000	-2.003739282233017e+001
1	 8.915834084537055e-001	 1.113759591653694e+000	-2.044452732685907e+001
1	 8.792680071241643e-001	 1.123507499206761e+000	-2.083529792017929e+001
1	 8.668543775027814e-001	 1.133112860353597e+000	-2.121079862535029e+001
1	 8.543449864826556e-001	 1.142574225543397e+000	-2.157213342035759e+001
1	 8.417423285983280e-001	 1.151890201858494e+000	-2.192041496563647e+001
1	 8.290489244091865e-001	 1.161059453643234e+000	-2.225676332848435e+001
1	 9.560497441597713e-001	 1.067903702330989e+000	-1.810762418286262e+001
1	 9.442063211577898e-001	 1.078389440580155e+000	-1.858713284885442e+001
1	 9.322522907350391e-001	 1.088740075469078e+000	-1.904630803880093e+001
1	 9.201899688092993e-001	 1.098953877553206e+000	-1.948618094413113e+001
1	 9.080217068740473e-001	 1.109029170319491e+000	-1.990779753144187e+001
1	 8.957498904865454e-001	 1.118964331084774e+000	-2.031221732547207e+001
1	 8.833769377292984e-001	 1.128757791842452e+000	-2.070051217960576e+001
1	 8.709052976469461e-001	 1.138408040056528e+000	-2.107376503622748e+001
1	 8.583374486606820e-001	 1.147913619402268e+000	-2.143306867927132e+001
1	 8.456758969623133e-001	 1.157273130452726e+000	-2.177952448130190e+001
1	 8.329231748901119e-001	 1.166485231310565e+000	-2.211424114746156e+001
1	 9.604967043235583e-001	 1.072870938868645e+000	-1.798495339787107e+001
1	 9.485981929432580e-001	 1.083405450374991e+000	-1.846058167328917e+001
1	 9.365885596639709e-001	 1.093804230102663e+000	-1.891615261301047e+001
1	 9.244701311757015e-001	 1.104065540562796e+000	-1.935268309103606e+001
1	 9.122452699096307e-001	 1.114187697444231e+000	-1.977120444819072e+001
1	 8.999163725191670e-001	 1.124169070516083e+000	-2.017276130209112e+001
1	 8.874858683342496e-001	 1.134008084478345e+000	-2.055841034495480e+001
1	 8.749562177909694e-001	 1.143703219759631e+000	-2.092921913152276e+001
1	 8.623299108386117e-001	 1.153253013261278e+000	-2.128626485937031e+001
1	 8.496094653262503e-001	 1.162656059047067e+000	-2.163063314388992e+001
1	 8.367974253710389e-001	 1.171911008977979e+000	-2.196341679022024e+001
1	 9.649436644869790e-001	 1.077838175406501e+000	-1.785572275473031e+001
1	 9.529900647283366e-001	 1.088421460170060e+000	-1.832736651777044e+001
1	 9.409248285925023e-001	 1.098868384736506e+000	-1.877922222975453e+001
1	 9.287502935417051e-001	 1.109177203572658e+000	-1.921228861592161e+001
1	 9.164688329448273e-001	 1.119346224569249e+000	-1.962757844374265e+001
1	 9.040828545514228e-001	 1.129373809947671e+000	-2.002611736757851e+001
1	 8.915947989388634e-001	 1.139258377114511e+000	-2.040894276166804e+001
1	 8.790071379346903e-001	 1.148998399462999e+000	-2.077710254363851e+001
1	 8.663223730162815e-001	 1.158592407120544e+000	-2.113165399074378e+001
1	 8.535430336899729e-001	 1.168038987641652e+000	-2.147366255102930e+001
1	 8.406716758518007e-001	 1.177336786645626e+000	-2.180420065162473e+001
1	 9.693906246499159e-001	 1.082805411944507e+000	-1.771991335093495e+001
1	 9.573819365129036e-001	 1.093437469965330e+000	-1.818746633601886e+001
1	 9.452610975205054e-001	 1.103932539370591e+000	-1.863549249600562e+001
1	 9.330304559071753e-001	 1.114288866582798e+000	-1.906496862857382e+001
1	 9.206923959794955e-001	 1.124504751694574e+000	-1.947688503385933e+001
1	 9.082493365831647e-001	 1.134578549379588e+000	-1.987224440144239e+001
1	 8.957037295429865e-001	 1.144508669751025e+000	-2.025206068632397e+001
1	 8.830580580779516e-001	 1.154293579166728e+000	-2.061735797599435e+001
1	 8.703148351935284e-001	 1.163931800980180e+000	-2.096916935069597e+001
1	 8.574766020533160e-001	 1.173421916236616e+000	-2.130853573899364e+001
1	 8.445459263322307e-001	 1.182762564313656e+000	-2.163650477075025e+001
1	 9.738375848122530e-001	 1.087772648482613e+000	-1.757750662924705e+001
1	 9.617738082968365e-001	 1.098453479760768e+000	-1.804086046617968e+001
1	 9.495973664478518e-001	 1.108996694004906e+000	-1.848493946429149e+001
1	 9.373106182719767e-001	 1.119400529593222e+000	-1.891069476647922e+001
1	 9.249159590134939e-001	 1.129663278820234e+000	-1.931909036418268e+001
1	 9.124158186142443e-001	 1.139783288811884e+000	-1.971110203428548e+001
1	 8.998126601464644e-001	 1.149758962387959e+000	-2.008771626583499e+001
1	 8.871089782205931e-001	 1.159588758870912e+000	-2.044992917857297e+001
1	 8.743072973701890e-001	 1.169271194840301e+000	-2.079874543526935e+001
1	 8.614101704161131e-001	 1.178804844832091e+000	-2.113517714985494e+001
1	 8.484201768121625e-001	 1.188188341982220e+000	-2.146024279334253e+001
1	 9.782845449738733e-001	 1.092739885020771e+000	-1.742848436984879e+001
1	 9.661656800800127e-001	 1.103469489556340e+000	-1.788752862208627e+001
1	 9.539336353744131e-001	 1.114060848639436e+000	-1.832753962256949e+001
1	 9.415907806359750e-001	 1.124512192603938e+000	-1.874943918283034e+001
1	 9.291395220466797e-001	 1.134821805946257e+000	-1.915416119591697e+001
1	 9.165823006445141e-001	 1.144988028244612e+000	-1.954265063073538e+001
1	 9.039215907491438e-001	 1.155009255025385e+000	-1.991586251721150e+001
1	 8.911598983624566e-001	 1.164883938575646e+000	-2.027476092413452e+001
1	 8.782997595461003e-001	 1.174610588701024e+000	-2.062031793154494e+001
1	 8.653437387781996e-001	 1.184187773428212e+000	-2.095351259953251e+001
1	 8.522944272914295e-001	 1.193614119651469e+000	-2.127532993530016e+001
1	 8.135519224888317e-001	 1.139356342971731e+000	-2.274568213286741e+001
1	 8.010092369127815e-001	 1.148208962324598e+000	-2.306989084500209e+001
1	 7.883825167800594e-001	 1.156915147242333e+000	-2.337437107905070e+001
1	 7.756743009248837e-001	 1.165473756802219e+000	-2.365865130171256e+001
1	 7.628871472931256e-001	 1.173883708178447e+000	-2.392223104288435e+001
1	 7.500236313001479e-001	 1.182143976989039e+000	-2.416458307914033e+001
1	 7.370863441835159e-001	 1.190253597587755e+000	-2.438515565262642e+001
1	 7.240778913527087e-001	 1.198211663301045e+000	-2.458337471988208e+001
1	 7.110008907379337e-001	 1.206017326610182e+000	-2.475864622509125e+001
1	 6.978579711401304e-001	 1.213669799278833e+000	-2.491035839226271e+001
1	 6.846517705842252e-001	 1.221168352426390e+000	-2.503788403085513e+001
1	 8.174261729680850e-001	 1.144782120640234e+000	-2.263543834700797e+001
1	 8.048237573313514e-001	 1.153676897431212e+000	-2.295924790244615e+001
1	 7.921369069533464e-001	 1.162424542445345e+000	-2.326335273112029e+001
1	 7.793681727585916e-001	 1.171023909326686e+000	-2.354741110293555e+001
1	 7.665201248742765e-001	 1.179473910092858e+000	-2.381105340795061e+001
1	 7.535953509802706e-001	 1.187773515483636e+000	-2.405388411602445e+001
1	 7.405964546539967e-001	 1.195921755254242e+000	-2.427548377217455e+001
1	 7.275260537122790e-001	 1.203917718413423e+000	-2.447541102262133e+001
1	 7.143867785522949e-001	 1.211760553406453e+000	-2.465320466647292e+001
1	 7.011812704937224e-001	 1.219449468243310e+000	-2.480838572799216e+001
1	 6.879121801241522e-001	 1.226983730572359e+000	-2.494045954439972e+001
1	 8.213004234480067e-001	 1.150207898308220e+000	-2.251726803615307e+001
1	 8.086382777506354e-001	 1.159144832537233e+000	-2.284039408435271e+001
1	 7.958912971273850e-001	 1.167933937647703e+000	-2.314382245950208e+001
1	 7.830620445930799e-001	 1.176574061850452e+000	-2.342734702484978e+001
1	 7.701531024562266e-001	 1.185064112006538e+000	-2.369073504289448e+001
1	 7.571670706612037e-001	 1.193403053977485e+000	-2.393372889714055e+001
1	 7.441065651252894e-001	 1.201589912919977e+000	-2.415604784961345e+001
1	 7.309742160726525e-001	 1.209623773525056e+000	-2.435738982960498e+001
1	 7.177726663674400e-001	 1.217503780201996e+000	-2.453743324908376e+001
1	 7.045045698480690e-001	 1.225229137207087e+000	-2.469583884019184e+001
1	 6.911725896647931e-001	 1.232799108717664e+000	-2.483225151025324e+001
1	 8.251746739284291e-001	 1.155633675975835e+000	-2.239107462123332e+001
1	 8.124527981704675e-001	 1.164612767642822e+000	-2.271322156991783e+001
1	 7.996456873020114e-001	 1.173443332849581e+000	-2.301566359814805e+001
1	 7.867559164281894e-001	 1.182124214373700e+000	-2.329833586679559e+001
1	 7.737860800388232e-001	 1.190654313919673e+000	-2.356114843536899e+001
1	 7.607387903427997e-001	 1.199032592470775e+000	-2.380398773192119e+001
1	 7.476166755972523e-001	 1.207258070585149e+000	-2.402671805851939e+001
1	 7.344223784336936e-001	 1.215329828636131e+000	-2.422918312826535e+001
1	 7.211585541832408e-001	 1.223247006996993e+000	-2.441120762983041e+001
1	 7.078278692030474e-001	 1.231008806170338e+000	-2.457259881543217e+001
1	 6.944329992060320e-001	 1.238614486862471e+000	-2.471314810817465e+001
1	 8.290489244091865e-001	 1.161059453643234e+000	-2.225676332848435e+001
1	 8.162673185906820e-001	 1.170080702748144e+000	-2.257762455377841e+001
1	 8.034000774770631e-001	 1.178952728051152e+000	-2.287876166179154e+001
1	 7.904497882637616e-001	 1.187674366896613e+000	-2.316025673104209e+001
1	 7.774190576219128e-001	 1.196244515832452e+000	-2.342216845655145e+001
1	 7.643105100249108e-001	 1.204662130963697e+000	-2.366453335404209e+001
1	 7.511267860697443e-001	 1.212926228249947e+000	-2.388736699925072e+001
1	 7.378705407952680e-001	 1.221035883746832e+000	-2.409066529891054e+001
1	 7.245444419995694e-001	 1.228990233791626e+000	-2.427440578990503e+001
1	 7.111511685585371e-001	 1.236788475133239e+000	-2.443854896307368e+001
1	 6.976934087477518e-001	 1.244429865006946e+000	-2.458303960812388e+001
1	 8.329231748901119e-001	 1.166485231310565e+000	-2.211424114746156e+001
1	 8.200818390111133e-001	 1.175548637853362e+000	-2.243349919914096e+001
1	 8.071544676523778e-001	 1.184462123252591e+000	-2.273300429522883e+001
1	 7.941436600996371e-001	 1.193224519419372e+000	-2.301299096922977e+001
1	 7.810520352053411e-001	 1.201834717745062e+000	-2.327367230571358e+001
1	 7.678822297073895e-001	 1.210291669456439e+000	-2.351524086503969e+001
1	 7.546368965426239e-001	 1.218594385914559e+000	-2.373786964250786e+001
1	 7.413187031572424e-001	 1.226741938857349e+000	-2.394171305907440e+001
1	 7.279303298162979e-001	 1.234733460586078e+000	-2.412690798072736e+001
1	 7.144744679144153e-001	 1.242568144095964e+000	-2.429357476357162e+001
1	 7.009538182898363e-001	 1.250245243151254e+000	-2.444181832165011e+001
1	 8.367974253710389e-001	 1.171911008977979e+000	-2.196341679022024e+001
1	 8.238963594315963e-001	 1.181016572958641e+000	-2.228074359220935e+001
1	 8.109088578277918e-001	 1.189971518454072e+000	-2.257828122401062e+001
1	 7.978375319356579e-001	 1.198774671942160e+000	-2.285642213029840e+001
1	 7.846850127889553e-001	 1.207424919657691e+000	-2.311553945632490e+001
1	 7.714539493900886e-001	 1.215921207949192e+000	-2.335598767949963e+001
1	 7.581470070157512e-001	 1.224262543579179e+000	-2.357810327446249e+001
1	 7.447668655194814e-001	 1.232447993967869e+000	-2.378220540941133e+001
1	 7.313162176332976e-001	 1.240476687380530e+000	-2.396859667139280e+001
1	 7.177977672705600e-001	 1.248347813058690e+000	-2.413756381821843e+001
1	 7.042142278321688e-001	 1.256060621295562e+000	-2.428937855462975e+001
1	 8.406716758518007e-001	 1.177336786645626e+000	-2.180420065162473e+001
1	 8.277108798519649e-001	 1.186484508064144e+000	-2.211925769787437e+001
1	 8.146632480031427e-001	 1.195480913655770e+000	-2.241448420649488e+001
1	 8.015314037716642e-001	 1.204324824465157e+000	-2.269043590985593e+001
1	 7.883179903726010e-001	 1.213015121570523e+000	-2.294765160365096e+001
1	 7.750256690728599e-001	 1.221550746442145e+000	-2.318665347175605e+001
1	 7.616571174889841e-001	 1.229930701243992e+000	-2.340794744340241e+001
1	 7.482150278818498e-001	 1.238154049078578e+000	-2.361202358108679e+001
1	 7.347021054504418e-001	 1.246219914175166e+000	-2.379935649757004e+001
1	 7.211210666268496e-001	 1.254127482021592e+000	-2.397040580027179e+001
1	 7.074746373746335e-001	 1.261875999440038e+000	-2.412561656131338e+001
1	 8.445459263322307e-001	 1.182762564313656e+000	-2.163650477075025e+001
1	 8.315254002720534e-001	 1.191952443170034e+000	-2.194894331662297e+001
1	 8.184176381782676e-001	 1.200990308857859e+000	-2.224150698722212e+001
1	 8.052252756074980e-001	 1.209874976988547e+000	-2.251492010094054e+001
1	 7.919509679561250e-001	 1.218605323483748e+000	-2.276989261379254e+001
1	 7.785973887555560e-001	 1.227180284935487e+000	-2.300712012406111e+001
1	 7.651672279621811e-001	 1.235598858909190e+000	-2.322728390784639e+001
1	 7.516631902442146e-001	 1.243860104189664e+000	-2.343105098461728e+001
1	 7.380879932676014e-001	 1.251963140970167e+000	-2.361907421180790e+001
1	 7.244443659831625e-001	 1.259907150984843e+000	-2.379199240743182e+001
1	 7.107350469171134e-001	 1.267691377584844e+000	-2.395043049963506e+001
1	 8.484201768121625e-001	 1.188188341982220e+000	-2.146024279334253e+001
1	 8.353399206916966e-001	 1.197420378276476e+000	-2.176970404262729e+001
1	 8.221720283530033e-001	 1.206499704060513e+000	-2.205924525156575e+001
1	 8.089191474430003e-001	 1.215425129512512e+000	-2.232976454613251e+001
1	 7.955839455393743e-001	 1.224195525397553e+000	-2.258214847411955e+001
1	 7.821691084380293e-001	 1.232809823429408e+000	-2.281727167617358e+001
1	 7.686773384352019e-001	 1.241267016574962e+000	-2.303599658607899e+001
1	 7.551113526064400e-001	 1.249566159301312e+000	-2.323917316011026e+001
1	 7.414738810846488e-001	 1.257706367765715e+000	-2.342763863520132e+001
1	 7.277676653393762e-001	 1.265686819948620e+000	-2.360221731561846e+001
1	 7.139954564594923e-001	 1.273506755730149e+000	-2.376372038774762e+001
1	 8.522944272914295e-001	 1.193614119651469e+000	-2.127532993530016e+001
1	 8.391544411107291e-001	 1.202888313383635e+000	-2.158144522297761e+001
1	 8.259264185271869e-001	 1.212009099263907e+000	-2.186759658162037e+001
1	 8.126130192780124e-001	 1.220975282037234e+000	-2.213486109097088e+001
1	 7.992169231221942e-001	 1.229785727312124e+000	-2.238430724505982e+001
1	 7.857408281201320e-001	 1.238439361924098e+000	-2.261699427632182e+001
1	 7.721874489079046e-001	 1.246935174241497e+000	-2.283397150706434e+001
1	 7.585595149683921e-001	 1.255272214413711e+000	-2.303627772886302e+001
1	 7.448597689014560e-001	 1.263449594561992e+000	-2.322494061037788e+001
1	 7.310909646953698e-001	 1.271466488913099e+000	-2.340097613401009e+001
1	 7.172558660016536e-001	 1.279322133876119e+000	-2.356538806174297e+001
1	 6.846517705842252e-001	 1.221168352426390e+000	-2.503788403085513e+001
1	 6.713869291419162e-001	 1.228511226796755e+000	-2.515935989036453e+001
1	 6.580641216346844e-001	 1.235698949612701e+000	-2.529208761042358e+001
1	 6.446860034548100e-001	 1.242730971201640e+000	-2.543412162646041e+001
1	 6.312552326740415e-001	 1.249606800976566e+000	-2.558351335470001e+001
1	 6.177744684438016e-001	 1.256326007244957e+000	-2.573831354788785e+001
1	 6.042463694103604e-001	 1.262888216967242e+000	-2.589657462375994e+001
1	 5.906735921467679e-001	 1.269293115465707e+000	-2.605635296229736e+001
1	 5.770587896032855e-001	 1.275540446084816e+000	-2.621571116792941e+001
1	 5.634046095780015e-001	 1.281630009803991e+000	-2.637272029299909e+001
1	 5.497136932092552e-001	 1.287561664803915e+000	-2.652546201894857e+001
1	 6.879121801241522e-001	 1.226983730572359e+000	-2.494045954439972e+001
1	 6.745841696119737e-001	 1.234361572759676e+000	-2.506773688298977e+001
1	 6.611979169922529e-001	 1.241583524538735e+000	-2.520756694723428e+001
1	 6.477560903026101e-001	 1.248649033619314e+000	-2.535794305168001e+001
1	 6.342613602728952e-001	 1.255557607078149e+000	-2.551685383826322e+001
1	 6.207163987177733e-001	 1.262308811166927e+000	-2.568228577355082e+001
1	 6.071238769443510e-001	 1.268902271069594e+000	-2.585222561913443e+001
1	 5.934864641766425e-001	 1.275337670609884e+000	-2.602466287090978e+001
1	 5.798068259986223e-001	 1.281614751910021e+000	-2.619759216311611e+001
1	 5.660876228175538e-001	 1.287733315001646e+000	-2.636901563315664e+001
1	 5.523315083492395e-001	 1.293693217390069e+000	-2.653694524338068e+001
1	 6.911725896647931e-001	 1.232799108717664e+000	-2.483225151025324e+001
1	 6.777814100826947e-001	 1.240211918721977e+000	-2.496514956379366e+001
1	 6.643317123504249e-001	 1.247468099464197e+000	-2.511191877111100e+001
1	 6.508261771509482e-001	 1.254567096036469e+000	-2.527049170052754e+001
1	 6.372674878722168e-001	 1.261508413179268e+000	-2.543879450195969e+001
1	 6.236583289921400e-001	 1.268291615088482e+000	-2.561474954740553e+001
1	 6.100013844786650e-001	 1.274916325171581e+000	-2.579627804511363e+001
1	 5.962993362067712e-001	 1.281382225753736e+000	-2.598130262286260e+001
1	 5.825548623941472e-001	 1.287689057734931e+000	-2.616774987592399e+001
1	 5.687706360572362e-001	 1.293836620199028e+000	-2.635355287543582e+001
1	 5.549493234893047e-001	 1.299824769975957e+000	-2.653665363307616e+001
1	 6.944329992060320e-001	 1.238614486862471e+000	-2.471314810817465e+001
1	 6.809786505539669e-001	 1.246062264683812e+000	-2.485149363196002e+001
1	 6.674655077090929e-001	 1.253352674389232e+000	-2.500504555736328e+001
1	 6.538962639997187e-001	 1.260485158453236e+000	-2.517167608218997e+001
1	 6.402736154719031e-001	 1.267459219280037e+000	-2.534924914831243e+001
1	 6.266002592668025e-001	 1.274274419009730e+000	-2.553562322712149e+001
1	 6.128788920132045e-001	 1.280930379273291e+000	-2.572865407931468e+001
1	 5.991122082370584e-001	 1.287426780897344e+000	-2.592619748414030e+001
1	 5.853028987897692e-001	 1.293763363559621e+000	-2.612611193336149e+001
1	 5.714536492969611e-001	 1.299939925396203e+000	-2.632626128536765e+001
1	 5.575671386293674e-001	 1.305956322561644e+000	-2.652451737502819e+001
1	 6.976934087477518e-001	 1.244429865006946e+000	-2.458303960812388e+001
1	 6.841758910256786e-001	 1.251912610645338e+000	-2.472666673631644e+001
1	 6.705993030681478e-001	 1.259237249313980e+000	-2.488685160428062e+001
1	 6.569663508488168e-001	 1.266403220869743e+000	-2.506140641604591e+001
1	 6.432797430718523e-001	 1.273410025380575e+000	-2.524813319109040e+001
1	 6.295421895416602e-001	 1.280257222930769e+000	-2.544482669646805e+001
1	 6.157563995478725e-001	 1.286944433374819e+000	-2.564927735405076e+001
1	 6.019250802674104e-001	 1.293471336040790e+000	-2.585927411769367e+001
1	 5.880509351853972e-001	 1.299837669384164e+000	-2.607260731526828e+001
1	 5.741366625366411e-001	 1.306043230593243e+000	-2.628707145068686e+001
1	 5.601849537693447e-001	 1.312087875147197e+000	-2.650046796120933e+001
1	 7.009538182898363e-001	 1.250245243151254e+000	-2.444181832165011e+001
1	 6.873731314977174e-001	 1.257762956606708e+000	-2.459056842999137e+001
1	 6.737330984274820e-001	 1.265121824238586e+000	-2.475724299073691e+001
1	 6.600364376981373e-001	 1.272321283286121e+000	-2.493959459189295e+001
1	 6.462858706719616e-001	 1.279360831480996e+000	-2.513536361783682e+001
1	 6.324841198166136e-001	 1.286240026851705e+000	-2.534228132982027e+001
1	 6.186339070825723e-001	 1.292958487476257e+000	-2.555807292249654e+001
1	 6.047379522977322e-001	 1.299515891184154e+000	-2.578046055094900e+001
1	 5.907989715809392e-001	 1.305911975208633e+000	-2.600716632285421e+001
1	 5.768196757761884e-001	 1.312146535790214e+000	-2.623591525058239e+001
1	 5.628027689091538e-001	 1.318219427732684e+000	-2.646443815822183e+001
1	 7.042142278321688e-001	 1.256060621295562e+000	-2.428937855462975e+001
1	 6.905703719699718e-001	 1.263613302568079e+000	-2.444310012633124e+001
1	 6.768668937869867e-001	 1.271006399163192e+000	-2.461612753497040e+001
1	 6.631065245475751e-001	 1.278239345702499e+000	-2.480615413127815e+001
1	 6.492919982721289e-001	 1.285311637581418e+000	-2.501085895343660e+001
1	 6.354260500915626e-001	 1.292222830772642e+000	-2.522790995765467e+001
1	 6.215114146172055e-001	 1.298972541577693e+000	-2.545496722579874e+001
1	 6.075508243279292e-001	 1.305560446327517e+000	-2.568968614422292e+001
1	 5.935470079763043e-001	 1.311986281033102e+000	-2.592972054810956e+001
1	 5.795026890155153e-001	 1.318249840987185e+000	-2.617272582579978e+001
1	 5.654205840487115e-001	 1.324350980318171e+000	-2.641636197779138e+001
1	 7.074746373746335e-001	 1.261875999440038e+000	-2.412561656131338e+001
1	 6.937676124423302e-001	 1.269463648529605e+000	-2.428416505603605e+001
1	 6.800006891465539e-001	 1.276890974087941e+000	-2.446341475450451e+001
1	 6.661766113970249e-001	 1.284157408119007e+000	-2.466100014989829e+001
1	 6.522981258722511e-001	 1.291262443681955e+000	-2.487453922469266e+001
1	 6.383679803664075e-001	 1.298205634693681e+000	-2.510163683299561e+001
1	 6.243889221516753e-001	 1.304986595679221e+000	-2.533988806109257e+001
1	 6.103636963579070e-001	 1.311605001470963e+000	-2.558688156000818e+001
1	 5.962950443714009e-001	 1.318060586857646e+000	-2.584020284406132e+001
1	 5.821857022545347e-001	 1.324353146184225e+000	-2.609743754957307e+001
1	 5.680383991879352e-001	 1.330482532903724e+000	-2.635617464807549e+001
1	 7.107350469171134e-001	 1.267691377584844e+000	-2.395043049963506e+001
1	 6.969648529146796e-001	 1.275313994491440e+000	-2.411366822547501e+001
1	 6.831344845060754e-001	 1.282775549012977e+000	-2.429901582717204e+001
1	 6.692466982463814e-001	 1.290075470535772e+000	-2.450404932103537e+001
1	 6.553042534722271e-001	 1.297213249782725e+000	-2.472632592587618e+001
1	 6.413099106410484e-001	 1.304188438614928e+000	-2.496338759878602e+001
1	 6.272664296858843e-001	 1.311000649780932e+000	-2.521276455039971e+001
1	 6.131765683875708e-001	 1.317649556614571e+000	-2.547197873310618e+001
1	 5.990430807661377e-001	 1.324134892682336e+000	-2.573854729585099e+001
1	 5.848687154931586e-001	 1.330456451381401e+000	-2.600998599935416e+001
1	 5.706562143267417e-001	 1.336614085489412e+000	-2.628381258576298e+001
1	 7.139954564594923e-001	 1.273506755730149e+000	-2.376372038774762e+001
1	 7.001620933869085e-001	 1.281164340453741e+000	-2.393151637614406e+001
1	 6.862682798654428e-001	 1.288660123938439e+000	-2.412284355320551e+001
1	 6.723167850955396e-001	 1.295993532952928e+000	-2.433521983999346e+001
1	 6.583103810719532e-001	 1.303164055883844e+000	-2.456614198522180e+001
1	 6.442518409153852e-001	 1.310171242536484e+000	-2.481308925615449e+001
1	 6.301439372197351e-001	 1.317014703882919e+000	-2.507352711037841e+001
1	 6.159894404168262e-001	 1.323694111758423e+000	-2.534491084157690e+001
1	 6.017911171604232e-001	 1.330209198507246e+000	-2.562468919260070e+001
1	 5.875517287312996e-001	 1.336559756578783e+000	-2.591030792931836e+001
1	 5.732740294650478e-001	 1.342745638075299e+000	-2.619921336893721e+001
1	 7.172558660016536e-001	 1.279322133876119e+000	-2.356538806174297e+001
1	 7.033593338589055e-001	 1.287014686416663e+000	-2.373761794523006e+001
1	 6.894020752245480e-001	 1.294544698864472e+000	-2.393481231836436e+001
1	 6.753868719443947e-001	 1.301911595370602e+000	-2.415443138950489e+001
1	 6.613165086713274e-001	 1.309114861985427e+000	-2.439391173233518e+001
1	 6.471937711893183e-001	 1.316154046458454e+000	-2.465067013354383e+001
1	 6.330214447531305e-001	 1.323028757985271e+000	-2.492210742289811e+001
1	 6.188023124455789e-001	 1.329738666902602e+000	-2.520561227848285e+001
1	 6.045391535541663e-001	 1.336283504332451e+000	-2.549856500005046e+001
1	 5.902347419688699e-001	 1.342663061776438e+000	-2.579834124362008e+001
1	 5.758918446027709e-001	 1.348877190661454e+000	-2.610231571067910e+001
1	 5.497136932092552e-001	 1.287561664803915e+000	-2.652546201894856e+001
1	 5.359866122174862e-001	 1.293336180436153e+000	-2.668325935693710e+001
1	 5.222280428764503e-001	 1.298952626945552e+000	-2.685665528363595e+001
1	 5.084405993483899e-001	 1.304411032097752e+000	-2.704566174609224e+001
1	 4.946268833159535e-001	 1.309711478716544e+000	-2.725031988731994e+001
1	 4.807894826047505e-001	 1.314854104034503e+000	-2.747069727084633e+001
1	 4.669309698362182e-001	 1.319839099004865e+000	-2.770688511695829e+001
1	 4.530539011119615e-001	 1.324666707576071e+000	-2.795899555681043e+001
1	 4.391608147306637e-001	 1.329337225930455e+000	-2.822715891035026e+001
1	 4.252542299385832e-001	 1.333851001688592e+000	-2.851152099382005e+001
1	 4.113366457145843e-001	 1.338208433080836e+000	-2.881224046235920e+001
1	 5.523315083492395e-001	 1.293693217390069e+000	-2.653694524338068e+001
1	 5.385390570367218e-001	 1.299495232090610e+000	-2.671086898217734e+001
1	 5.247149674228443e-001	 1.305138424920496e+000	-2.690145026076782e+001
1	 5.108618661188715e-001	 1.310622823777607e+000	-2.710856940840523e+001
1	 4.969823671970454e-001	 1.315948511880163e+000	-2.733213405159502e+001
1	 4.830790708065787e-001	 1.321115627114275e+000	-2.757207657149149e+001
1	 4.691545618201076e-001	 1.326124361342539e+000	-2.782835157175303e+001
1	 4.552114085117663e-001	 1.330974959675125e+000	-2.810093336258249e+001
1	 4.412521612679873e-001	 1.335667719704843e+000	-2.838981346649074e+001
1	 4.272793513320475e-001	 1.340202990707701e+000	-2.869499815113700e+001
1	 4.132954895833138e-001	 1.344581172810493e+000	-2.901650599438532e+001
1	 5.549493234893047e-001	 1.299824769975957e+000	-2.653665363307616e+001
1	 5.410915018559988e-001	 1.305654283744792e+000	-2.672669242851986e+001
1	 5.272018919692492e-001	 1.311324222895143e+000	-2.693443755808509e+001
1	 5.132831328893409e-001	 1.316834615457133e+000	-2.715963315241839e+001
1	 4.993378510781066e-001	 1.322185545043417e+000	-2.740204875909259e+001
1	 4.853686590083604e-001	 1.327377150193642e+000	-2.766147704185402e+001
1	 4.713781538039354e-001	 1.332409623679769e+000	-2.793773148887512e+001
1	 4.573689159114936e-001	 1.337283211773700e+000	-2.823064413529381e+001
1	 4.433435078052139e-001	 1.341998213478724e+000	-2.854006330514682e+001
1	 4.293044727253903e-001	 1.346554979726283e+000	-2.886585137763541e+001
1	 4.152543334518897e-001	 1.350953912539617e+000	-2.920788258245776e+001
1	 5.575671386293674e-001	 1.305956322561644e+000	-2.652451737502819e+001
1	 5.436439466752399e-001	 1.311813335398765e+000	-2.673066036131787e+001
1	 5.296888165155946e-001	 1.317510020869568e+000	-2.695554818970944e+001
1	 5.157043996597350e-001	 1.323046407136414e+000	-2.719878427660630e+001
1	 5.016933349590823e-001	 1.328422578206398e+000	-2.745999559297590e+001
1	 4.876582472100503e-001	 1.333638673272707e+000	-2.773883061438896e+001
1	 4.736017457876673e-001	 1.338694886016667e+000	-2.803495727840328e+001
1	 4.595264233111201e-001	 1.343591463871916e+000	-2.834806095411572e+001
1	 4.454348543423330e-001	 1.348328707252225e+000	-2.867784242854630e+001
1	 4.313295941186147e-001	 1.352906968744470e+000	-2.902401591435865e+001
1	 4.172131773203306e-001	 1.357326652268342e+000	-2.938630708324656e+001
1	 5.601849537693447e-001	 1.312087875147197e+000	-2.650046796120933e+001
1	 5.461963914943675e-001	 1.317972387052602e+000	-2.672270474196258e+001
1	 5.321757410618095e-001	 1.323695818843844e+000	-2.696471445928179e+001
1	 5.181256664299905e-001	 1.329258198815531e+000	-2.722595536364754e+001
1	 5.040488188399180e-001	 1.334659611369196e+000	-2.750590741529037e+001
1	 4.899478354116040e-001	 1.339900196351570e+000	-2.780407049390405e+001
1	 4.758253377712690e-001	 1.344980148353344e+000	-2.811996261384168e+001
1	 4.616839307106233e-001	 1.349899715969893e+000	-2.845311814914015e+001
1	 4.475262008793347e-001	 1.354659201025471e+000	-2.880308607258227e+001
1	 4.333547155117242e-001	 1.359258957762394e+000	-2.916942821285874e+001
1	 4.191720211886539e-001	 1.363699391996801e+000	-2.955171753373055e+001
1	 5.628027689091538e-001	 1.318219427732684e+000	-2.646443815822183e+001
1	 5.487488363133045e-001	 1.324131438706370e+000	-2.670275879774093e+001
1	 5.346626656078232e-001	 1.329881616818045e+000	-2.696186992997141e+001
1	 5.205469332000440e-001	 1.335469990494566e+000	-2.724108025055809e+001
1	 5.064043027205591e-001	 1.340896644531904e+000	-2.753971833722109e+001
1	 4.922374236129757e-001	 1.346161719430332e+000	-2.785713112796967e+001
1	 4.780489297547056e-001	 1.351265410689909e+000	-2.819268240273646e+001
1	 4.638414381099803e-001	 1.356207968067750e+000	-2.854575127228334e+001
1	 4.496175474162085e-001	 1.360989694798590e+000	-2.891573067812129e+001
1	 4.353798369047222e-001	 1.365610946780186e+000	-2.930202590704280e+001
1	 4.211308650568782e-001	 1.370072131725126e+000	-2.970405312374621e+001
1	 5.654205840487115e-001	 1.324350980318171e+000	-2.641636197779138e+001
1	 5.513012811319733e-001	 1.330290490360137e+000	-2.667075699253228e+001
1	 5.371495901535648e-001	 1.336067414792247e+000	-2.694694939531825e+001
1	 5.229681999698324e-001	 1.341681782173601e+000	-2.724409399965373e+001
1	 5.087597866009510e-001	 1.347133677694612e+000	-2.756136369017611e+001
1	 4.945270118141210e-001	 1.352423242509094e+000	-2.789794817814959e+001
1	 4.802725217379431e-001	 1.357550673026475e+000	-2.825305275810873e+001
1	 4.659989455091683e-001	 1.362516220165607e+000	-2.862589706900532e+001
1	 4.517088939529443e-001	 1.367320188571709e+000	-2.901571386310904e+001
1	 4.374049582976120e-001	 1.371962935797978e+000	-2.942174778580379e+001
1	 4.230897089250207e-001	 1.376444871453451e+000	-2.984325416930113e+001
1	 5.680383991879352e-001	 1.330482532903724e+000	-2.635617464807549e+001
1	 5.538537259502967e-001	 1.336449542013974e+000	-2.662663499831253e+001
1	 5.396365146989636e-001	 1.342253212766523e+000	-2.691988885088342e+001
1	 5.253894667392928e-001	 1.347893573852719e+000	-2.723493287031611e+001
1	 5.111152704810392e-001	 1.353370710857411e+000	-2.757077999766920e+001
1	 4.968166000149945e-001	 1.358684765587958e+000	-2.792645849202733e+001
1	 4.824961137209469e-001	 1.363835935363151e+000	-2.830101097067831e+001
1	 4.681564529081643e-001	 1.368824472263584e+000	-2.869349345080482e+001
1	 4.538002404895318e-001	 1.373650682344955e+000	-2.910297439544807e+001
1	 4.394300796903970e-001	 1.378314924815902e+000	-2.952853376640532e+001
1	 4.250485527931001e-001	 1.382817611181910e+000	-2.996926208662255e+001
1	 5.706562143267417e-001	 1.336614085489412e+000	-2.628381258576298e+001
1	 5.564061707681970e-001	 1.342608593667948e+000	-2.657032966744513e+001
1	 5.421234392439489e-001	 1.348439010740948e+000	-2.688062546667811e+001
1	 5.278107335083614e-001	 1.354105365531999e+000	-2.721353429153648e+001
1	 5.134707543607684e-001	 1.359607744020392e+000	-2.756790494797635e+001
1	 4.991061882155511e-001	 1.364946288667022e+000	-2.794260007600304e+001
1	 4.847197057036826e-001	 1.370121197700050e+000	-2.833649548184968e+001
1	 4.703139603069457e-001	 1.375132724361800e+000	-2.874847946847496e+001
1	 4.558915870259609e-001	 1.379981176118456e+000	-2.917745216662078e+001
1	 4.414552010830806e-001	 1.384666913834088e+000	-2.962232486860184e+001
1	 4.270073966611341e-001	 1.389190350910635e+000	-3.008201936692394e+001
1	 5.732740294650478e-001	 1.342745638075299e+000	-2.619921336893721e+001
1	 5.589586155855971e-001	 1.348767645322129e+000	-2.650177900573075e+001
1	 5.446103637884494e-001	 1.354624808715595e+000	-2.682909756034798e+001
1	 5.302320002769753e-001	 1.360317157211525e+000	-2.717983683521052e+001
1	 5.158262382400847e-001	 1.365844777183646e+000	-2.755267736754345e+001
1	 5.013957764157462e-001	 1.371207811746390e+000	-2.794631206883500e+001
1	 4.869432976861156e-001	 1.376406460037280e+000	-2.835944585744053e+001
1	 4.724714677054895e-001	 1.381440976460375e+000	-2.879079528609212e+001
1	 4.579829335622211e-001	 1.386311669892337e+000	-2.923908816603631e+001
1	 4.434803224756664e-001	 1.391018902852671e+000	-2.970306318946555e+001
1	 4.289662405291407e-001	 1.395563090639759e+000	-3.018146955185886e+001
1	 5.758918446027709e-001	 1.348877190661454e+000	-2.610231571067910e+001
1	 5.615110604024198e-001	 1.354926696976587e+000	-2.642092214619033e+001
1	 5.470972883323950e-001	 1.360810606690540e+000	-2.676524457108956e+001
1	 5.326532670450713e-001	 1.366528948891380e+000	-2.713378019016185e+001
1	 5.181817221189331e-001	 1.372081810347265e+000	-2.752503719511522e+001
1	 5.036853646155343e-001	 1.377469334826162e+000	-2.793753471590322e+001
1	 4.891668896682118e-001	 1.382691722374954e+000	-2.836980276212501e+001
1	 4.746289751037728e-001	 1.387749228559429e+000	-2.882038215571055e+001
1	 4.600742800983026e-001	 1.392642163666725e+000	-2.928782445607636e+001
1	 4.455054438681574e-001	 1.397370891871780e+000	-2.977069187890135e+001
1	 4.309250843971381e-001	 1.401935830369417e+000	-3.026755720964805e+001
1	 4.113366457145843e-001	 1.338208433080836e+000	-2.881224046235920e+001
1	 3.974105393917957e-001	 1.342409967753466e+000	-2.912748331203183e+001
1	 3.834783649380568e-001	 1.346456100879377e+000	-2.945339407704512e+001
1	 3.695425524810588e-001	 1.350347375248399e+000	-2.978711448521913e+001
1	 3.556055074431778e-001	 1.354084380660318e+000	-3.012579819992815e+001
1	 3.416696095105594e-001	 1.357667752958321e+000	-3.046661366207928e+001
1	 3.277372116407853e-001	 1.361098173039149e+000	-3.080674685799778e+001
1	 3.138106391095596e-001	 1.364376365841549e+000	-3.114340401004120e+001
1	 2.998921885967779e-001	 1.367503099314640e+000	-3.147381418700175e+001
1	 2.859841273122783e-001	 1.370479183367836e+000	-3.179523183161177e+001
1	 2.720886921614973e-001	 1.373305468803879e+000	-3.210493920270624e+001
1	 4.132954895833138e-001	 1.344581172810493e+000	-2.901650599438532e+001
1	 3.993030651523370e-001	 1.348802715791266e+000	-2.935218667628399e+001
1	 3.853045436931127e-001	 1.352868117181002e+000	-2.969791534706681e+001
1	 3.713023669059576e-001	 1.356777922354374e+000	-3.005076472547631e+001
1	 3.572989516682235e-001	 1.360532723919882e+000	-3.040782079182165e+001
1	 3.432966889984714e-001	 1.364133160748689e+000	-3.076618572596018e+001
1	 3.292979430594139e-001	 1.367579916980069e+000	-3.112298076687541e+001
1	 3.153050502000596e-001	 1.370873721005026e+000	-3.147534899057891e+001
1	 3.013203180374323e-001	 1.374015344429769e+000	-3.182045800333478e+001
1	 2.873460245781569e-001	 1.377005601020615e+000	-3.215550254745642e+001
1	 2.733844173801429e-001	 1.379845345631952e+000	-3.247770701718612e+001
1	 4.152543334518897e-001	 1.350953912539617e+000	-2.920788258245776e+001
1	 4.011955909126853e-001	 1.355195463828543e+000	-2.956369904940072e+001
1	 3.871307224479303e-001	 1.359280133482124e+000	-2.992892593174709e+001
1	 3.730621813305708e-001	 1.363208469459882e+000	-3.030057862848495e+001
1	 3.589923958929374e-001	 1.366981067179019e+000	-3.067568707418400e+001
1	 3.449237684860103e-001	 1.370598568538679e+000	-3.105129875502566e+001
1	 3.308586744776357e-001	 1.374061660920658e+000	-3.142448164261535e+001
1	 3.167994612901309e-001	 1.377371076168225e+000	-3.179232704223840e+001
1	 3.027484474776503e-001	 1.380527589544668e+000	-3.215195235251223e+001
1	 2.887079218436093e-001	 1.383532018673209e+000	-3.250050373364019e+001
1	 2.746801425983933e-001	 1.386385222459879e+000	-3.283515868175132e+001
1	 4.172131773203306e-001	 1.357326652268342e+000	-2.938630708324656e+001
1	 4.030881166728740e-001	 1.361588211865426e+000	-2.976195962062283e+001
1	 3.889569012025585e-001	 1.365692149782872e+000	-3.014636825908069e+001
1	 3.748219957549624e-001	 1.369639016565036e+000	-3.053650260185497e+001
1	 3.606858401173979e-001	 1.373429410437834e+000	-3.092934801062733e+001
1	 3.465508479732667e-001	 1.377063976328380e+000	-3.132190868179411e+001
1	 3.324194058955513e-001	 1.380543404860995e+000	-3.171121063719039e+001
1	 3.182938723798802e-001	 1.383868431331206e+000	-3.209430462590137e+001
1	 3.041765769175411e-001	 1.387039834659384e+000	-3.246826893407499e+001
1	 2.900698191087421e-001	 1.390058436325648e+000	-3.283021209992273e+001
1	 2.759758678163474e-001	 1.392925099287674e+000	-3.317727553138637e+001
1	 4.191720211886539e-001	 1.363699391996801e+000	-2.955171753373055e+001
1	 4.049806424329367e-001	 1.367980959902048e+000	-2.994690871589792e+001
1	 3.907830799570471e-001	 1.372104166083367e+000	-3.035018583322933e+001
1	 3.765818101791976e-001	 1.376069563669956e+000	-3.075848405497402e+001
1	 3.623792843416839e-001	 1.379877753696433e+000	-3.116875548137895e+001
1	 3.481779274603316e-001	 1.383529384117886e+000	-3.157797226251704e+001
1	 3.339801373132610e-001	 1.387025148801159e+000	-3.198312962874263e+001
1	 3.197882834694139e-001	 1.390365786494034e+000	-3.238124882938262e+001
1	 3.056047063572133e-001	 1.393552079773962e+000	-3.276937997657152e+001
1	 2.914317163736617e-001	 1.396584853977964e+000	-3.314460479141766e+001
1	 2.772715930341038e-001	 1.399464976115353e+000	-3.350403924997265e+001
1	 4.211308650568782e-001	 1.370072131725126e+000	-2.970405312374621e+001
1	 4.068731681929064e-001	 1.374373707938537e+000	-3.011848777144419e+001
1	 3.926092587114450e-001	 1.378516182383736e+000	-3.054032320949265e+001
1	 3.783416246033405e-001	 1.382500110774756e+000	-3.096647137570926e+001
1	 3.640727285658739e-001	 1.386326096954921e+000	-3.139386226196264e+001
1	 3.498050069472954e-001	 1.389994791907289e+000	-3.181944705802304e+001
1	 3.355408687308650e-001	 1.393506892741225e+000	-3.224020120469520e+001
1	 3.212826945588388e-001	 1.396863141656769e+000	-3.265312735284709e+001
1	 3.070328357967758e-001	 1.400064324888450e+000	-3.305525822525627e+001
1	 2.927936136384748e-001	 1.403111271630186e+000	-3.344365937846863e+001
1	 2.785673182517615e-001	 1.406004852942930e+000	-3.381543186217416e+001
1	 4.230897089250207e-001	 1.376444871453451e+000	-2.984325416930113e+001
1	 4.087656939528173e-001	 1.380766455975027e+000	-3.027663930804916e+001
1	 3.944354374658013e-001	 1.384928198684105e+000	-3.071672596997648e+001
1	 3.801014390274559e-001	 1.388930657879554e+000	-3.116041390775699e+001
1	 3.657661727900466e-001	 1.392774440213404e+000	-3.160462200247464e+001
1	 3.514320864342495e-001	 1.396460199696681e+000	-3.204629141509118e+001
1	 3.371016001484642e-001	 1.399988636681272e+000	-3.248238864533155e+001
1	 3.227771056482616e-001	 1.403360496819475e+000	-3.290990849463693e+001
1	 3.084609652363379e-001	 1.406576570002893e+000	-3.332587693012607e+001
1	 2.941555109032878e-001	 1.409637689282346e+000	-3.372735384680369e+001
1	 2.798630434694192e-001	 1.412544729770422e+000	-3.411143572554915e+001
1	 4.250485527931001e-001	 1.382817611181910e+000	-2.996926208662255e+001
1	 4.106582197127024e-001	 1.387159204011648e+000	-3.042130690607829e+001
1	 3.962616162201657e-001	 1.391340214984599e+000	-3.087934069993171e+001
1	 3.818612534516080e-001	 1.395361204984467e+000	-3.134026192861716e+001
1	 3.674596170142805e-001	 1.399222783471986e+000	-3.180098920743078e+001
1	 3.530591659212842e-001	 1.402925607486154e+000	-3.225846444834045e+001
1	 3.386623315661588e-001	 1.406470380621379e+000	-3.270965590783106e+001
1	 3.242715167377889e-001	 1.409857851982213e+000	-3.315156113748585e+001
1	 3.098890946760083e-001	 1.413088815117338e+000	-3.358120983429203e+001
1	 2.955174081682073e-001	 1.416164106934472e+000	-3.399566658796590e+001
1	 2.811587686871757e-001	 1.419084606597842e+000	-3.439203352287847e+001
1	 4.270073966611341e-001	 1.389190350910635e+000	-3.008201936692394e+001
1	 4.125507454725953e-001	 1.393551952048531e+000	-3.055243518117090e+001
1	 3.980877949745868e-001	 1.397752231285342e+000	-3.102811496474555e+001
1	 3.836210678758616e-001	 1.401791752089610e+000	-3.150596662817530e+001
1	 3.691530612386543e-001	 1.405671126730774e+000	-3.198291921616849e+001
1	 3.546862454084905e-001	 1.409391015275801e+000	-3.245592602261912e+001
1	 3.402230629840488e-001	 1.412952124561623e+000	-3.292196761074342e+001
1	 3.257659278275275e-001	 1.416355207145046e+000	-3.337805473511580e+001
1	 3.113172241158959e-001	 1.419601060231833e+000	-3.382123116266676e+001
1	 2.968793054333397e-001	 1.422690524586597e+000	-3.424857639000336e+001
1	 2.824544939051298e-001	 1.425624483425207e+000	-3.465720825470674e+001
1	 4.289662405291407e-001	 1.395563090639759e+000	-3.018146955185886e+001
1	 4.144432712325297e-001	 1.399944700085807e+000	-3.066996976060323e+001
1	 3.999139737291143e-001	 1.404164247586460e+000	-3.116299728756269e+001
1	 3.853808823002809e-001	 1.408222299195100e+000	-3.165748008787050e+001
1	 3.708465054632466e-001	 1.412119469989872e+000	-3.215036818378609e+001
1	 3.563133248959594e-001	 1.415856423065714e+000	-3.263863673587473e+001
1	 3.417837944022349e-001	 1.419433868502080e+000	-3.311928901888749e+001
1	 3.272603389175837e-001	 1.422852562308036e+000	-3.358935929920071e+001
1	 3.127453535561096e-001	 1.426113305346421e+000	-3.404591561096564e+001
1	 2.982412026987918e-001	 1.429216942238750e+000	-3.448606242841778e+001
1	 2.837502191233803e-001	 1.432164360252531e+000	-3.490694323208699e+001
1	 4.309250843971381e-001	 1.401935830369417e+000	-3.026755720964805e+001
1	 4.163357969925388e-001	 1.406337448123606e+000	-3.077385726029631e+001
1	 4.017401524837977e-001	 1.410576263888079e+000	-3.128393712751793e+001
1	 3.871406967249308e-001	 1.414652846301055e+000	-3.179475526043265e+001
1	 3.725399496881360e-001	 1.418567813249386e+000	-3.230329306260240e+001
1	 3.579404043837813e-001	 1.422321830855985e+000	-3.280655790249148e+001
1	 3.433445258208177e-001	 1.425915612442830e+000	-3.330158602866273e+001
1	 3.287547500080646e-001	 1.429349917471246e+000	-3.378544538668433e+001
1	 3.141734829967585e-001	 1.432625550461151e+000	-3.425523833500485e+001
1	 2.996030999646699e-001	 1.435743359890963e+000	-3.470810425735655e+001
1	 2.850459443420262e-001	 1.438704237079830e+000	-3.514122206952250e+001
1	 2.720886921614973e-001	 1.373305468803879e+000	-3.210493920270624e+001
1	 2.582101691847495e-001	 1.375982455966176e+000	-3.240095322844473e+001
1	 2.443486435126754e-001	 1.378511509869538e+000	-3.268220278140022e+001
1	 2.305062524757509e-001	 1.380893598158766e+000	-3.294724227698119e+001
1	 2.166851002555811e-001	 1.383129724925904e+000	-3.319465080854310e+001
1	 2.028872572520457e-001	 1.385220929583866e+000	-3.342303250319313e+001
1	 1.891147594902251e-001	 1.387168285732491e+000	-3.363101684518740e+001
1	 1.753696080669008e-001	 1.388972900018493e+000	-3.381725896743344e+001
1	 1.616537686363682e-001	 1.390635910990750e+000	-3.398043991164737e+001
1	 1.479691709352418e-001	 1.392158487952350e+000	-3.411926685775155e+001
1	 1.343177083458908e-001	 1.393541829810749e+000	-3.423247332313082e+001
1	 2.733844173801429e-001	 1.379845345631952e+000	-3.247770701718612e+001
1	 2.594398028944461e-001	 1.382535080989893e+000	-3.278507051680960e+001
1	 2.455122666571000e-001	 1.385076178609633e+000	-3.307652618863761e+001
1	 2.316039561768371e-001	 1.387469610744021e+000	-3.335060048230882e+001
1	 2.177169856556604e-001	 1.389716386266716e+000	-3.360584548178039e+001
1	 2.038534353529740e-001	 1.391817549540453e+000	-3.384083928764595e+001
1	 1.900153509896849e-001	 1.393774179277689e+000	-3.405418636502250e+001
1	 1.762047431920685e-001	 1.395587387395139e+000	-3.424451785753116e+001
1	 1.624235869751318e-001	 1.397258317863597e+000	-3.441049186791791e+001
1	 1.486738212651559e-001	 1.398788145554529e+000	-3.455079370591789e+001
1	 1.349573484610525e-001	 1.400178075084743e+000	-3.466413610399766e+001
1	 2.746801425983933e-001	 1.386385222459879e+000	-3.283515868175132e+001
1	 2.606694366038011e-001	 1.389087706013494e+000	-3.315390124432748e+001
1	 2.466758898012532e-001	 1.391640847349633e+000	-3.345565695583667e+001
1	 2.327016598777328e-001	 1.394045623329195e+000	-3.373891320599429e+001
1	 2.187488710556333e-001	 1.396303047607457e+000	-3.400218402410446e+001
1	 2.048196134538770e-001	 1.398414169496971e+000	-3.424401050483181e+001
1	 1.909159424891912e-001	 1.400380072822822e+000	-3.446296119698026e+001
1	 1.770398783173379e-001	 1.402201874771716e+000	-3.465763245577801e+001
1	 1.631934053140300e-001	 1.403880724736372e+000	-3.482664875922210e+001
1	 1.493784715952081e-001	 1.405417803156628e+000	-3.496866298907682e+001
1	 1.355969885763211e-001	 1.406814320358652e+000	-3.508235667716826e+001
1	 2.759758678163474e-001	 1.392925099287674e+000	-3.317727553138637e+001
1	 2.618990703128997e-001	 1.395640331036978e+000	-3.350743047907699e+001
1	 2.478395129452027e-001	 1.398205516089525e+000	-3.381958269385280e+001
1	 2.337993635784846e-001	 1.400621635914264e+000	-3.411216956693750e+001
1	 2.197807564555245e-001	 1.402889708948090e+000	-3.438365618241134e+001
1	 2.057857915547572e-001	 1.405010789453377e+000	-3.463253580325376e+001
1	 1.918165339887250e-001	 1.406985966367832e+000	-3.485733031728412e+001
1	 1.778750134426725e-001	 1.408816362148160e+000	-3.505659064347417e+001
1	 1.639632236530121e-001	 1.410503131609001e+000	-3.522889709915621e+001
1	 1.500831219253405e-001	 1.412047460758570e+000	-3.537285972871887e+001
1	 1.362366286916379e-001	 1.413450565632394e+000	-3.548711859441799e+001
1	 2.772715930341038e-001	 1.399464976115353e+000	-3.350403924997265e+001
1	 2.631287040218273e-001	 1.402192956060347e+000	-3.384564356825476e+001
1	 2.490031360890160e-001	 1.404770184829297e+000	-3.416829124512552e+001
1	 2.348970672791394e-001	 1.407197648499203e+000	-3.447035888743332e+001
1	 2.208126418553583e-001	 1.409476370288579e+000	-3.475025189525546e+001
1	 2.067519696556165e-001	 1.411607409409621e+000	-3.500640502491033e+001
1	 1.927171254882681e-001	 1.413591859912662e+000	-3.523728290822019e+001
1	 1.787101485680357e-001	 1.415430849524405e+000	-3.544138052844779e+001
1	 1.647330419920285e-001	 1.417125538481411e+000	-3.561722365341015e+001
1	 1.507877722554951e-001	 1.418677118360277e+000	-3.576336922632076e+001
1	 1.368762688069441e-001	 1.420086810905885e+000	-3.587840571498052e+001
1	 2.785673182517615e-001	 1.406004852942930e+000	-3.381543186217416e+001
1	 2.643583377306694e-001	 1.408745581083601e+000	-3.416852613167988e+001
1	 2.501667592327607e-001	 1.411334853568936e+000	-3.450177067829369e+001
1	 2.359947709797438e-001	 1.413773661083987e+000	-3.481347068844129e+001
1	 2.218445272551593e-001	 1.416063031628888e+000	-3.510196128838847e+001
1	 2.077181477564574e-001	 1.418204029365658e+000	-3.536560820079528e+001
1	 1.936177169878017e-001	 1.420197753457256e+000	-3.560280835334253e+001
1	 1.795452836933910e-001	 1.422045336900386e+000	-3.581199043978764e+001
1	 1.655028603310289e-001	 1.423747945353533e+000	-3.599161543390605e+001
1	 1.514924225856141e-001	 1.425306775961670e+000	-3.614017705683252e+001
1	 1.375159089221811e-001	 1.426723056179039e+000	-3.625620219839622e+001
1	 2.798630434694192e-001	 1.412544729770422e+000	-3.411143572554915e+001
1	 2.655879714395114e-001	 1.415298206106741e+000	-3.447606405548575e+001
1	 2.513303823765045e-001	 1.417899522308429e+000	-3.482000928295805e+001
1	 2.370924746803448e-001	 1.420349673668590e+000	-3.514149468498775e+001
1	 2.228764126549521e-001	 1.422649692968980e+000	-3.543877467042805e+001
1	 2.086843258572822e-001	 1.424800649321441e+000	-3.571013554652191e+001
1	 1.945183084873072e-001	 1.426803647001559e+000	-3.595389623281591e+001
1	 1.803804188187018e-001	 1.428659824276040e+000	-3.616840892271970e+001
1	 1.662726786699633e-001	 1.430370352225293e+000	-3.635205969309561e+001
1	 1.521970729156393e-001	 1.431936433562669e+000	-3.650326906234634e+001
1	 1.381555490372899e-001	 1.433359301451775e+000	-3.662049249756111e+001
1	 2.811587686871757e-001	 1.419084606597842e+000	-3.439203352287847e+001
1	 2.668176051484386e-001	 1.421850831129768e+000	-3.476824348598246e+001
1	 2.524940055203146e-001	 1.424464191047764e+000	-3.512299556459026e+001
1	 2.381901783809890e-001	 1.426925686252988e+000	-3.545442078169220e+001
1	 2.239082980547608e-001	 1.429236354308818e+000	-3.576068252864356e+001
1	 2.096505039580927e-001	 1.431397269276922e+000	-3.603997745806900e+001
1	 1.954188999867662e-001	 1.433409540545514e+000	-3.629053631888393e+001
1	 1.812155539439319e-001	 1.435274311651301e+000	-3.651062473362799e+001
1	 1.670424970087817e-001	 1.436992759096619e+000	-3.669854391841963e+001
1	 1.529017232455130e-001	 1.438566091163198e+000	-3.685263134594205e+001
1	 1.387951891522120e-001	 1.439995546724006e+000	-3.697126135196629e+001
1	 2.824544939051298e-001	 1.425624483425207e+000	-3.465720825470674e+001
1	 2.680472388575366e-001	 1.428403456152684e+000	-3.504505082368860e+001
1	 2.536576286642590e-001	 1.431028859786927e+000	-3.541071823958132e+001
1	 2.392878820817231e-001	 1.433501698837155e+000	-3.575223906842020e+001
1	 2.249401834546101e-001	 1.435823015648366e+000	-3.606767552485717e+001
1	 2.106166820588915e-001	 1.437993889232055e+000	-3.635512450764425e+001
1	 1.963194914861600e-001	 1.440015434089065e+000	-3.661271857146432e+001
1	 1.820506890690446e-001	 1.441888799026105e+000	-3.683862683520973e+001
1	 1.678123153474339e-001	 1.443615165967438e+000	-3.703105582691693e+001
1	 1.536063735751770e-001	 1.445195748763177e+000	-3.718825026569960e+001
1	 1.394348292668886e-001	 1.446631791995650e+000	-3.730849378112517e+001
1	 2.837502191233803e-001	 1.432164360252531e+000	-3.490694323208699e+001
1	 2.692768725668908e-001	 1.434956081175486e+000	-3.530647271752913e+001
1	 2.548212518084049e-001	 1.437593528525907e+000	-3.568316623042581e+001
1	 2.403855857825941e-001	 1.440077711421066e+000	-3.603493981605234e+001
1	 2.259720688545246e-001	 1.442409676987588e+000	-3.635974449146038e+001
1	 2.115828601596805e-001	 1.444590509186793e+000	-3.665556743966046e+001
1	 1.972200829854698e-001	 1.446621327632154e+000	-3.692043313386314e+001
1	 1.828858241940033e-001	 1.448503286400387e+000	-3.715240439176607e+001
1	 1.685821336858697e-001	 1.450237572837680e+000	-3.734958335998314e+001
1	 1.543110239045736e-001	 1.451825406362528e+000	-3.751011242887798e+001
1	 1.400744693812610e-001	 1.453268037266624e+000	-3.763217507817846e+001
1	 2.850459443420262e-001	 1.438704237079830e+000	-3.514122206952250e+001
1	 2.705065062765865e-001	 1.441508706198178e+000	-3.555249605918623e+001
1	 2.559848749528201e-001	 1.444158197264690e+000	-3.594032866103755e+001
1	 2.414832894836484e-001	 1.446653724004696e+000	-3.630251347237108e+001
1	 2.270039542545287e-001	 1.448996338326446e+000	-3.663688042753584e+001
1	 2.125490382604623e-001	 1.451187129141089e+000	-3.694129716682058e+001
1	 1.981206744846773e-001	 1.453227221174727e+000	-3.721367032860722e+001
1	 1.837209593187718e-001	 1.455117773774083e+000	-3.745194676461951e+001
1	 1.693519520240392e-001	 1.456859979707270e+000	-3.765411467826982e+001
1	 1.550156742336445e-001	 1.458455063961172e+000	-3.781820468625070e+001
1	 1.407141094952703e-001	 1.459904282536842e+000	-3.794229080367746e+001
1	 1.343177083458908e-001	 1.393541829810749e+000	-3.423247332313082e+001
1	 1.206992022775452e-001	 1.394787340501952e+000	-3.431834813655163e+001
1	 1.071175469255529e-001	 1.395896057564835e+000	-3.437584642879176e+001
1	 9.357455252922366e-002	 1.396869262718420e+000	-3.440477558029106e+001
1	 8.007199073668500e-002	 1.397708262725060e+000	-3.440495485428420e+001
1	 6.661159435878002e-002	 1.398414388238686e+000	-3.437621434792219e+001
1	 5.319505715932576e-002	 1.398988992659145e+000	-3.431839397414102e+001
1	 3.982403368103277e-002	 1.399433450993745e+000	-3.423134247517861e+001
1	 2.650013910635849e-002	 1.399749158727085e+000	-3.411491646852919e+001
1	 1.322494915253760e-002	 1.399937530700197e+000	-3.396897952600796e+001
1	 0.000000000000000e+000	 1.400000000000000e+000	-3.379340128649652e+001
1	 1.349573484610525e-001	 1.400178075084743e+000	-3.466413610399766e+001
1	 1.212739891215651e-001	 1.401429517075980e+000	-3.474878500485770e+001
1	 1.076276559867540e-001	 1.402543514008033e+000	-3.480362867688326e+001
1	 9.402016791654722e-002	 1.403521353703664e+000	-3.482839030731287e+001
1	 8.045330499591420e-002	 1.404364349148224e+000	-3.482280765499552e+001
1	 6.692880828759104e-002	 1.405073837332419e+000	-3.478663206354123e+001
1	 5.344837962134032e-002	 1.405651178101191e+000	-3.471962749941163e+001
1	 4.001368141904168e-002	 1.406097753009839e+000	-3.462156961593070e+001
1	 2.662633655488246e-002	 1.406414964188468e+000	-3.449224484408653e+001
1	 1.328792824988827e-002	 1.406604233215796e+000	-3.433144951089122e+001
1	 0.000000000000000e+000	 1.406667000003317e+000	-3.413898898597370e+001
1	 1.355969885763211e-001	 1.406814320358652e+000	-3.508235667716826e+001
1	 1.218487759656231e-001	 1.408071693649921e+000	-3.516596862718723e+001
1	 1.081377650478982e-001	 1.409190970451141e+000	-3.521832768250326e+001
1	 9.446578330370802e-002	 1.410173444688814e+000	-3.523908009733068e+001
1	 8.083461925487838e-002	 1.411020435571292e+000	-3.522788929339311e+001
1	 6.724602221605308e-002	 1.411733286426055e+000	-3.518443492703008e+001
1	 5.370170208295465e-002	 1.412313363543139e+000	-3.510841197582887e+001
1	 4.020332915664581e-002	 1.412762055025833e+000	-3.499952984583262e+001
1	 2.675253400305781e-002	 1.413080769649750e+000	-3.485751150027519e+001
1	 1.335090734702075e-002	 1.413270935731295e+000	-3.468209261071598e+001
1	 0.000000000000000e+000	 1.413334000006534e+000	-3.447302073133692e+001
1	 1.362366286916379e-001	 1.413450565632394e+000	-3.548711859441799e+001
1	 1.224235628096674e-001	 1.414713870223685e+000	-3.556988120184668e+001
1	 1.086478741089468e-001	 1.415838426894065e+000	-3.561992433563518e+001
1	 9.491139869068389e-002	 1.416825535673774e+000	-3.563682447553652e+001
1	 8.121593351357331e-002	 1.417676521994166e+000	-3.562017777305078e+001
1	 6.756323614417877e-002	 1.418392735519495e+000	-3.556959916448827e+001
1	 5.395502454419462e-002	 1.418975548984888e+000	-3.548472149851336e+001
1	 4.039297689387870e-002	 1.419426357041628e+000	-3.536519467930356e+001
1	 2.687873145091769e-002	 1.419746575110834e+000	-3.521068482636498e+001
1	 1.341388644395777e-002	 1.419937638246595e+000	-3.502087345195805e+001
1	 0.000000000000000e+000	 1.420001000009550e+000	-3.479545665701151e+001
1	 1.368762688069441e-001	 1.420086810905885e+000	-3.587840571498052e+001
1	 1.229983496536463e-001	 1.421356046797183e+000	-3.596050525989941e+001
1	 1.091579831698613e-001	 1.422485883336712e+000	-3.600839988347699e+001
1	 9.535701407745290e-002	 1.423477626658451e+000	-3.602160334984597e+001
1	 8.159724777199491e-002	 1.424332608416751e+000	-3.599965150871017e+001
1	 6.788045007198064e-002	 1.425052184612641e+000	-3.594210144640942e+001
1	 5.420834700508614e-002	 1.425637734426340e+000	-3.584853064681080e+001
1	 4.058262463077385e-002	 1.426090659057124e+000	-3.571853616322899e+001
1	 2.700492889849534e-002	 1.426412380571618e+000	-3.555173380250713e+001
1	 1.347686554072209e-002	 1.426604340761593e+000	-3.534775732231188e+001
1	 0.000000000000000e+000	 1.426668000012267e+000	-3.510625764260979e+001
1	 1.375159089221811e-001	 1.426723056179039e+000	-3.625620219839622e+001
1	 1.235731364975081e-001	 1.427998223370329e+000	-3.633782365742709e+001
1	 1.096680922306028e-001	 1.429133339778993e+000	-3.638373592213096e+001
1	 9.580262946399300e-002	 1.430129717642750e+000	-3.639339700199903e+001
1	 8.197856203013890e-002	 1.430988694838949e+000	-3.636628931671640e+001
1	 6.819766399947123e-002	 1.431711633705393e+000	-3.630191887734348e+001
1	 5.446166946565508e-002	 1.432299919867397e+000	-3.619981447303277e+001
1	 4.077227236736475e-002	 1.432754961072221e+000	-3.605952686457615e+001
1	 2.713112634582392e-002	 1.433078186032001e+000	-3.588062798599434e+001
1	 1.353984463733646e-002	 1.433271043276193e+000	-3.566271015531331e+001
1	 0.000000000000000e+000	 1.433335000014584e+000	-3.540538529559968e+001
1	 1.381555490372899e-001	 1.433359301451775e+000	-3.662049249756111e+001
1	 1.241479233412011e-001	 1.434640399943033e+000	-3.670181956800652e+001
1	 1.101782012911328e-001	 1.435780796220815e+000	-3.674591438852812e+001
1	 9.624824485028212e-002	 1.436781808626576e+000	-3.675218607890444e+001
1	 8.235987628800122e-002	 1.437644781260665e+000	-3.672007040572451e+001
1	 6.851487792666318e-002	 1.438371082797657e+000	-3.664902898585036e+001
1	 5.471499192592734e-002	 1.438962105307958e+000	-3.653854849150492e+001
1	 4.096192010368493e-002	 1.439419263086821e+000	-3.638813985835567e+001
1	 2.725732379293666e-002	 1.439743991491885e+000	-3.619733749789950e+001
1	 1.360282373382363e-002	 1.439937745790292e+000	-3.596569851538789e+001
1	 0.000000000000000e+000	 1.440002000016400e+000	-3.569280193445637e+001
1	 1.387951891522120e-001	 1.439995546724006e+000	-3.697126135196629e+001
1	 1.247227101846736e-001	 1.441282576515208e+000	-3.705247647539234e+001
1	 1.106883103514126e-001	 1.442428252662085e+000	-3.709491755257472e+001
1	 9.669386023629828e-002	 1.443433899609835e+000	-3.709795158422684e+001
1	 8.274119054557766e-002	 1.444300867681801e+000	-3.706097436765577e+001
1	 6.883209185356908e-002	 1.445030531889332e+000	-3.698340971472872e+001
1	 5.496831438592883e-002	 1.445624290747925e+000	-3.686470866792354e+001
1	 4.115156783976792e-002	 1.446083565100824e+000	-3.670434871591335e+001
1	 2.738352123986675e-002	 1.446409796951171e+000	-3.650183301008408e+001
1	 1.366580283020633e-002	 1.446604448303791e+000	-3.625668958331382e+001
1	 0.000000000000000e+000	 1.446669000017617e+000	-3.596847057227765e+001
1	 1.394348292668886e-001	 1.446631791995650e+000	-3.730849378112517e+001
1	 1.252974970278738e-001	 1.447924753086764e+000	-3.738977816640358e+001
1	 1.111984194114034e-001	 1.449075709102713e+000	-3.743072800951464e+001
1	 9.713947562201938e-002	 1.450085990592432e+000	-3.743067487020369e+001
1	 8.312250480286401e-002	 1.450956954102260e+000	-3.738898116890951e+001
1	 6.914930578020141e-002	 1.451689980980320e+000	-3.730503941151533e+001
1	 5.522163684568544e-002	 1.452286476187199e+000	-3.717827140900123e+001
1	 4.134121557564721e-002	 1.452747867114128e+000	-3.700812749354734e+001
1	 2.750971868664739e-002	 1.453075602409757e+000	-3.679408573256565e+001
1	 1.372878192650734e-002	 1.453271150816591e+000	-3.653565114208585e+001
1	 0.000000000000000e+000	 1.453336000018133e+000	-3.623235490085208e+001
1	 1.400744693812610e-001	 1.453268037266624e+000	-3.763217507817846e+001
1	 1.258722838707502e-001	 1.454566929657613e+000	-3.771370872400343e+001
1	 1.117085284710667e-001	 1.455723165542607e+000	-3.775332867250030e+001
1	 9.758509100742349e-002	 1.456738081574272e+000	-3.775033762968469e+001
1	 8.350381905985616e-002	 1.457613040521948e+000	-3.770407114181277e+001
1	 6.946651970657285e-002	 1.458349430070525e+000	-3.761389681924334e+001
1	 5.547495930522307e-002	 1.458948661625681e+000	-3.747921355239711e+001
1	 4.153086331135633e-002	 1.459412169126637e+000	-3.729945072143433e+001
1	 2.763591613331179e-002	 1.459741407867544e+000	-3.707406740123047e+001
1	 1.379176102274939e-002	 1.459937853328589e+000	-3.680255156316272e+001
1	 0.000000000000000e+000	 1.460003000017850e+000	-3.648441927516283e+001
1	 1.407141094952703e-001	 1.459904282536842e+000	-3.794229080367746e+001
1	 1.264470707132509e-001	 1.461209106227669e+000	-3.802425252056897e+001
1	 1.122186375303638e-001	 1.462370621981674e+000	-3.806270276536848e+001
1	 9.803070639248851e-002	 1.463390172555262e+000	-3.805692188839325e+001
1	 8.388513331654991e-002	 1.464269126940766e+000	-3.800622497630079e+001
1	 6.978373363269591e-002	 1.465008879159846e+000	-3.790996106745360e+001
1	 5.572828176456757e-002	 1.465610847063272e+000	-3.776751235692372e+001
1	 4.172051104692880e-002	 1.466076471138249e+000	-3.757829339286053e+001
1	 2.776211357989313e-002	 1.466407213324432e+000	-3.734175026588074e+001
1	 1.385474011895523e-002	 1.466604555839689e+000	-3.705735979309480e+001
1	 0.000000000000000e+000	 1.466670000016666e+000	-3.672462869831400e+001
1	 1.466670000016666e+000	 0.000000000000000e+000	 2.306361512757878e+001
1	 1.466604555839689e+000	 1.385474011895528e-002	 2.223710762608569e+001
1	 1.466407213324432e+000	 2.776211357989323e-002	 2.141892980003431e+001
1	 1.466076471138249e+000	 4.172051104692869e-002	 2.060923076824028e+001
1	 1.465610847063272e+000	 5.572828176456753e-002	 1.980818446841356e+001
1	 1.465008879159847e+000	 6.978373363269590e-002	 1.901599036512583e+001
1	 1.464269126940766e+000	 8.388513331654994e-002	 1.823287413863354e+001
1	 1.463390172555262e+000	 9.803070639248858e-002	 1.745908835252130e+001
1	 1.462370621981674e+000	 1.122186375303636e-001	 1.669491309809787e+001
1	 1.461209106227669e+000	 1.264470707132508e-001	 1.594065661345326e+001
1	 1.459904282536843e+000	 1.407141094952702e-001	 1.519665587506149e+001
1	 1.473336000014533e+000	 0.000000000000000e+000	 2.292388911483799e+001
1	 1.473270258394459e+000	 1.391770976875623e-002	 2.209706290970567e+001
1	 1.473072018959543e+000	 2.788829209775665e-002	 2.127852636127167e+001
1	 1.472739773553593e+000	 4.191013033666514e-002	 2.046845206064993e+001
1	 1.472272033222072e+000	 5.598156622728418e-002	 1.966703710785034e+001
1	 1.471667329380818e+000	 7.010089997888505e-002	 1.887450378508402e+001
1	 1.470924214995623e+000	 8.426639037867754e-002	 1.809110021054162e+001
1	 1.470041265771596e+000	 9.847625493824477e-002	 1.731710097066202e+001
1	 1.469017081351258e+000	 1.127286700767428e-001	 1.655280772887585e+001
1	 1.467850286520215e+000	 1.270217713416299e-001	 1.579854980878859e+001
1	 1.466539532419245e+000	 1.413536536676589e-001	 1.505468474974587e+001
1	 1.480002000011599e+000	 0.000000000000000e+000	 2.277987853950920e+001
1	 1.479935960948430e+000	 1.398067941857050e-002	 2.195317190880278e+001
1	 1.479736824593857e+000	 2.801447061561839e-002	 2.113470021099835e+001
1	 1.479403075968142e+000	 4.209974962636292e-002	 2.032466091248582e+001
1	 1.478933219380080e+000	 5.623485068990968e-002	 1.952327566670732e+001
1	 1.478325779601007e+000	 7.041806632492183e-002	 1.873079095012511e+001
1	 1.477579303049710e+000	 8.464764744058920e-002	 1.794747867822401e+001
1	 1.476692358987179e+000	 9.892180348372628e-002	 1.717363679961756e+001
1	 1.475663540720116e+000	 1.132387026228000e-001	 1.640958986630112e+001
1	 1.474491466812067e+000	 1.275964719696582e-001	 1.565568957807443e+001
1	 1.473174782300993e+000	 1.419931978396938e-001	 1.491231529913981e+001
1	 1.486668000008066e+000	 0.000000000000000e+000	 2.263163622763984e+001
1	 1.486601663501801e+000	 1.404364906842489e-002	 2.180548526242221e+001
1	 1.486401630227571e+000	 2.814064913352657e-002	 2.098749944003507e+001
1	 1.486066378382094e+000	 4.228936891608644e-002	 2.017790248551604e+001
1	 1.485594405537496e+000	 5.648813515252010e-002	 1.937694197729913e+001
1	 1.484984229820612e+000	 7.073523267088945e-002	 1.858488994318901e+001
1	 1.484234391103225e+000	 8.502890450237158e-002	 1.780204343587289e+001
1	 1.483343452202206e+000	 9.936735202901935e-002	 1.702872508609602e+001
1	 1.482310000088439e+000	 1.137487351686180e-001	 1.626528363160436e+001
1	 1.481132647103413e+000	 1.281711725974123e-001	 1.551209441994034e+001
1	 1.479810032182270e+000	 1.426327420114425e-001	 1.476955988316296e+001
1	 1.493334000004133e+000	 0.000000000000000e+000	 2.247921406205187e+001
1	 1.493267366054773e+000	 1.410661871834616e-002	 2.165405270543305e+001
1	 1.493066435860886e+000	 2.826682765152936e-002	 2.083697128052547e+001
1	 1.492729680795649e+000	 4.247898820590017e-002	 2.002822113513039e+001
1	 1.492255591694520e+000	 5.674141961519150e-002	 1.922807712501068e+001
1	 1.491642680039831e+000	 7.105239901687119e-002	 1.843683816723206e+001
1	 1.490889479156365e+000	 8.541016156411121e-002	 1.765482777248830e+001
1	 1.489994545416871e+000	 9.981290057421020e-002	 1.688239455459542e+001
1	 1.488956459456420e+000	 1.142587677142795e-001	 1.611991271532331e+001
1	 1.487773827394441e+000	 1.287458732249686e-001	 1.536778250271625e+001
1	 1.486445282063260e+000	 1.432722861829729e-001	 1.462643064104399e+001
1	 1.500000000000000e+000	 0.000000000000000e+000	 2.232266300330026e+001
1	 1.499933068607544e+000	 1.416958836836110e-002	 2.149892308861891e+001
1	 1.499731241494002e+000	 2.839300616967488e-002	 2.068316212501596e+001
1	 1.499392983209006e+000	 4.266860749586857e-002	 1.987566042825845e+001
1	 1.498916777851350e+000	 5.699470407799986e-002	 1.907672146489385e+001
1	 1.498301130258862e+000	 7.136956536295040e-002	 1.828667236033621e+001
1	 1.497544567209325e+000	 8.579141862589465e-002	 1.750586438532521e+001
1	 1.496645638631369e+000	 1.002584491193852e-001	 1.673467341900732e+001
1	 1.495602918824250e+000	 1.147688002598673e-001	 1.597350038687274e+001
1	 1.494415007685339e+000	 1.293205738524035e-001	 1.522277167177171e+001
1	 1.493080531944146e+000	 1.439118303543528e-001	 1.448293949622422e+001
1	 1.506665999995867e+000	 0.000000000000000e+000	 2.216203311007527e+001
1	 1.506598771160316e+000	 1.423255801849648e-002	 2.134014439823581e+001
1	 1.506396047127118e+000	 2.851918468801127e-002	 2.052611754502906e+001
1	 1.506056285622365e+000	 4.285822678605605e-002	 1.972026316081145e+001
1	 1.505577964008184e+000	 5.724798854102124e-002	 1.892291463782374e+001
1	 1.504959580477903e+000	 7.168673170921033e-002	 1.813442861041709e+001
1	 1.504199655262302e+000	 8.617267568780851e-002	 1.735518539298425e+001
1	 1.503296731845894e+000	 1.007039976646305e-001	 1.658558939391224e+001
1	 1.502249378192121e+000	 1.152788328054642e-001	 1.582606950386036e+001
1	 1.501056187976295e+000	 1.298952744797935e-001	 1.507707945666041e+001
1	 1.499715781825113e+000	 1.445513745256498e-001	 1.433909816113164e+001
1	 1.513331999991934e+000	 0.000000000000000e+000	 2.199737355906529e+001
1	 1.513264473713287e+000	 1.429552766877910e-002	 2.117776377505230e+001
1	 1.513060852760435e+000	 2.864536320658669e-002	 2.036588230914585e+001
1	 1.512719588035926e+000	 4.304784607652708e-002	 1.956207137466354e+001
1	 1.512239150165223e+000	 5.750127300433167e-002	 1.876669558622789e+001
1	 1.511618030697151e+000	 7.200389805573429e-002	 1.798014236954365e+001
1	 1.510854743315492e+000	 8.655393274993935e-002	 1.720282234815592e+001
1	 1.509947825060642e+000	 1.011495462100326e-001	 1.643516970557674e+001
1	 1.508895837560224e+000	 1.157888653511530e-001	 1.567764252115663e+001
1	 1.507697368267498e+000	 1.304699751072152e-001	 1.493072307807566e+001
1	 1.506351031706344e+000	 1.451909186969318e-001	 1.419491814182783e+001
1	 1.519997999988401e+000	 0.000000000000000e+000	 2.182873266429701e+001
1	 1.519930176266659e+000	 1.435849731923572e-002	 2.101182753288942e+001
1	 1.519725658394152e+000	 2.877154172544927e-002	 2.020250040061275e+001
1	 1.519382890449889e+000	 4.323746536734608e-002	 1.940112637418598e+001
1	 1.518900336322665e+000	 5.775455746800721e-002	 1.860810256940166e+001
1	 1.518276480916806e+000	 7.232106440260555e-002	 1.782384846788064e+001
1	 1.517509831369094e+000	 8.693518981237375e-002	 1.704880625002975e+001
1	 1.516598918275806e+000	 1.015950947556775e-001	 1.628344110266085e+001
1	 1.515542296928752e+000	 1.162988978970165e-001	 1.552824149972586e+001
1	 1.514338548559136e+000	 1.310446757347449e-001	 1.478371945462309e+001
1	 1.512986281588025e+000	 1.458304628682665e-001	 1.405041074253339e+001
1	 1.526663999985467e+000	 0.000000000000000e+000	 2.165615789596933e+001
1	 1.526595878820630e+000	 1.442146696989313e-002	 2.084238117667439e+001
1	 1.526390464028469e+000	 2.889772024464717e-002	 2.003601503448655e+001
1	 1.526046192864452e+000	 4.342708465857750e-002	 1.923746874234832e+001
1	 1.525561522480708e+000	 5.800784193212387e-002	 1.844717317842212e+001
1	 1.524934931137064e+000	 7.263823074990737e-002	 1.766558112726605e+001
1	 1.524164919423301e+000	 8.731644687519830e-002	 1.689316755637843e+001
1	 1.523250011491580e+000	 1.020406433016516e-001	 1.613042986664527e+001
1	 1.522188756297896e+000	 1.168089304431374e-001	 1.537788811522600e+001
1	 1.520979728851398e+000	 1.316193763624592e-001	 1.463608520941587e+001
1	 1.519621531470337e+000	 1.464700070397217e-001	 1.390558707003460e+001
1	 1.533329999983334e+000	 0.000000000000000e+000	 2.147969589879532e+001
1	 1.533261581375402e+000	 1.448443662077811e-002	 2.066946942002371e+001
1	 1.533055269663588e+000	 2.902389876422853e-002	 1.986646867433298e+001
1	 1.532709495279816e+000	 4.361670395028579e-002	 1.907113835639951e+001
1	 1.532222708639554e+000	 5.826112639675773e-002	 1.828394435067348e+001
1	 1.531593381358125e+000	 7.295539709772311e-002	 1.750537397443432e+001
1	 1.530820007478312e+000	 8.769770393849954e-002	 1.673593619532636e+001
1	 1.529901104708160e+000	 1.024861918480413e-001	 1.597616182198649e+001
1	 1.528835215667849e+000	 1.173189629895985e-001	 1.522660366638386e+001
1	 1.527620909144472e+000	 1.321940769904346e-001	 1.448783667649775e+001
1	 1.526256781353464e+000	 1.471095512113651e-001	 1.376045803797496e+001
1	 1.459904282536843e+000	 1.407141094952702e-001	 1.519665587506148e+001
1	 1.458455063961172e+000	 1.550156742336446e-001	 1.446370284588500e+001
1	 1.456859979707271e+000	 1.693519520240392e-001	 1.374245163171815e+001
1	 1.455117773774083e+000	 1.837209593187718e-001	 1.303338946973389e+001
1	 1.453227221174727e+000	 1.981206744846772e-001	 1.233700694989997e+001
1	 1.451187129141089e+000	 2.125490382604623e-001	 1.165379764206221e+001
1	 1.448996338326446e+000	 2.270039542545288e-001	 1.098425770639592e+001
1	 1.446653724004697e+000	 2.414832894836484e-001	 1.032888548732327e+001
1	 1.444158197264690e+000	 2.559848749528201e-001	 9.688181091034240e+000
1	 1.441508706198178e+000	 2.705065062765864e-001	 9.062645946788846e+000
1	 1.438704237079830e+000	 2.850459443420262e-001	 8.452782352221020e+000
1	 1.466539532419245e+000	 1.413536536676589e-001	 1.505468474974587e+001
1	 1.465083727160154e+000	 1.557202188700866e-001	 1.432186716461430e+001
1	 1.463481393264815e+000	 1.701216548949307e-001	 1.360062432421540e+001
1	 1.461731269023666e+000	 1.845559691793192e-001	 1.289147853602882e+001
1	 1.459832123882273e+000	 1.990211309017990e-001	 1.219495439054477e+001
1	 1.457782759651406e+000	 2.135150714417698e-001	 1.151157831207412e+001
1	 1.455582011715130e+000	 2.280356848795699e-001	 1.084187809286993e+001
1	 1.453228750235476e+000	 2.425808285375987e-001	 1.018638241080467e+001
1	 1.450721881352207e+000	 2.571483235628104e-001	 9.545620330890285e+000
1	 1.448060348376166e+000	 2.717359555508530e-001	 8.920120790974698e+000
1	 1.445243132974653e+000	 2.863414752120758e-001	 8.310412071992843e+000
1	 1.473174782300993e+000	 1.419931978396938e-001	 1.491231529913981e+001
1	 1.471712390358529e+000	 1.564247635062024e-001	 1.417998192730894e+001
1	 1.470102806821810e+000	 1.708913577655507e-001	 1.345908580930380e+001
1	 1.468344764272761e+000	 1.853909790396714e-001	 1.275018282947614e+001
1	 1.466437026589401e+000	 1.999215873188175e-001	 1.205383010508809e+001
1	 1.464378390161382e+000	 2.144811046230759e-001	 1.137058546346890e+001
1	 1.462167685103552e+000	 2.290674155047152e-001	 1.070100690246309e+001
1	 1.459803776466075e+000	 2.436783675917570e-001	 1.004565203455430e+001
1	 1.457285565439627e+000	 2.583117721731038e-001	 9.405077515100745e+000
1	 1.454611990554142e+000	 2.729654048255037e-001	 8.779838455163961e+000
1	 1.451782028869550e+000	 2.876370060825698e-001	 8.170487819464547e+000
1	 1.479810032182270e+000	 1.426327420114425e-001	 1.476955988316296e+001
1	 1.478341053556476e+000	 1.571293081420489e-001	 1.403805334957813e+001
1	 1.476724220378426e+000	 1.716610606359441e-001	 1.331783668803566e+001
1	 1.474958259521535e+000	 1.862259888998599e-001	 1.260949788747322e+001
1	 1.473041929296268e+000	 2.008220437357504e-001	 1.191362513912111e+001
1	 1.470974020671162e+000	 2.154471378043844e-001	 1.123080624260359e+001
1	 1.468753358491847e+000	 2.300991461299552e-001	 1.056162799534509e+001
1	 1.466378802696617e+000	 2.447759066461008e-001	 9.906675565805758e+000
1	 1.463849249527063e+000	 2.594752207836671e-001	 9.266531851122826e+000
1	 1.461163632732205e+000	 2.741948541004960e-001	 8.641776819786841e+000
1	 1.458320924764607e+000	 2.889325369534591e-001	 8.032986840034848e+000
1	 1.486445282063260e+000	 1.432722861829729e-001	 1.462643064104399e+001
1	 1.484969716754174e+000	 1.578338527776833e-001	 1.389608753604889e+001
1	 1.483345633934837e+000	 1.724307635061557e-001	 1.317687755073099e+001
1	 1.481571754770152e+000	 1.870609987599162e-001	 1.246941932709805e+001
1	 1.479646832003032e+000	 2.017225001526154e-001	 1.177433069811844e+001
1	 1.477569651180895e+000	 2.164131709856990e-001	 1.109222802534065e+001
1	 1.475339031880151e+000	 2.311308767552800e-001	 1.042372551986740e+001
1	 1.472953828927230e+000	 2.458734457006079e-001	 9.769434547343510e+000
1	 1.470412933614629e+000	 2.606386693944667e-001	 9.129962917671424e+000
1	 1.467715274910457e+000	 2.754243033757872e-001	 8.505914160225700e+000
1	 1.464859820659907e+000	 2.902280678246939e-001	 7.897886785393651e+000
1	 1.493080531944146e+000	 1.439118303543528e-001	 1.448293949622422e+001
1	 1.491598379951801e+000	 1.585383974131627e-001	 1.375409048283191e+001
1	 1.489967047491214e+000	 1.732004663762303e-001	 1.303620897721550e+001
1	 1.488185250018776e+000	 1.878960086198719e-001	 1.232994284333886e+001
1	 1.486251734709848e+000	 2.026229565694304e-001	 1.163593814388556e+001
1	 1.484165281690726e+000	 2.173792041670235e-001	 1.095483841194865e+001
1	 1.481924705268603e+000	 2.321626073806800e-001	 1.028728390615969e+001
1	 1.479528855158037e+000	 2.469709847552560e-001	 9.633910850046780e+000
1	 1.476976617702436e+000	 2.618021180054691e-001	 8.995350656469435e+000
1	 1.474266917088996e+000	 2.766537526513346e-001	 8.372229138039339e+000
1	 1.471398716555536e+000	 2.915235986962250e-001	 7.765165704494094e+000
1	 1.499715781825113e+000	 1.445513745256498e-001	 1.433909816113165e+001
1	 1.498227043149535e+000	 1.592429420485439e-001	 1.361206807992231e+001
1	 1.496588461047729e+000	 1.739701692462126e-001	 1.289583153705318e+001
1	 1.494798745267572e+000	 1.887310184797587e-001	 1.219106420737059e+001
1	 1.492856637416871e+000	 2.035234129862128e-001	 1.149843899110043e+001
1	 1.490760912200803e+000	 2.183452373483616e-001	 1.081862522213794e+001
1	 1.488510378657336e+000	 2.331943380061452e-001	 1.015228785989653e+001
1	 1.486103881389163e+000	 2.480685238100225e-001	 9.500086665631821e+000
1	 1.483540301790597e+000	 2.629655666166408e-001	 8.862675364217994e+000
1	 1.480818559267920e+000	 2.778832019270955e-001	 8.240700792420176e+000
1	 1.477937612451580e+000	 2.928191295680030e-001	 7.634802034764734e+000
1	 1.506351031706344e+000	 1.451909186969318e-001	 1.419491814182783e+001
1	 1.504855706347555e+000	 1.599474866838842e-001	 1.347002611353660e+001
1	 1.503209874604554e+000	 1.747398721161476e-001	 1.275574578977211e+001
1	 1.501412240516705e+000	 1.895660283396078e-001	 1.205277926487712e+001
1	 1.499461540124259e+000	 2.044238694029805e-001	 1.136182490394681e+001
1	 1.497356542711271e+000	 2.193112705297171e-001	 1.068357649022761e+001
1	 1.495096052046490e+000	 2.342260686316661e-001	 1.001872235622878e+001
1	 1.492678907620734e+000	 2.491660628648855e-001	 9.367944499585482e+000
1	 1.490103985879224e+000	 2.641290152279486e-001	 8.731917684777963e+000
1	 1.487370201447330e+000	 2.791126512030274e-001	 8.111308531877182e+000
1	 1.484476508348123e+000	 2.941146604399786e-001	 7.506774593553473e+000
1	 1.512986281588025e+000	 1.458304628682665e-001	 1.405041074253339e+001
1	 1.511484369546039e+000	 1.606520313192406e-001	 1.332797026838839e+001
1	 1.509831288161861e+000	 1.755095749860801e-001	 1.261595228508478e+001
1	 1.508025735766339e+000	 1.904010381994511e-001	 1.191508393441730e+001
1	 1.506066442832168e+000	 2.053243258197512e-001	 1.122608769283588e+001
1	 1.503952173222280e+000	 2.202773037110939e-001	 1.054968046043991e+001
1	 1.501681725436199e+000	 2.352577992572329e-001	 9.886572633874623e+000
1	 1.499253933852874e+000	 2.502636019198224e-001	 9.237467164285389e+000
1	 1.496667669968431e+000	 2.652924638393589e-001	 8.603058601557729e+000
1	 1.493921843627324e+000	 2.803421004790874e-001	 7.984032126137675e+000
1	 1.491015404245248e+000	 2.954101913121023e-001	 7.381062569796884e+000
1	 1.519621531470337e+000	 1.464700070397217e-001	 1.390558707003460e+001
1	 1.518113032745165e+000	 1.613565759546701e-001	 1.318590612990457e+001
1	 1.516452701719823e+000	 1.762792778560549e-001	 1.247645156310209e+001
1	 1.514639231016640e+000	 1.912360480593200e-001	 1.177797420583419e+001
1	 1.512671345540754e+000	 2.062247822365425e-001	 1.109121931121387e+001
1	 1.510547803733974e+000	 2.212433368924957e-001	 1.041692558231737e+001
1	 1.508267398826601e+000	 2.362895298828358e-001	 9.755824189365363e+000
1	 1.505828960085709e+000	 2.513611409748112e-001	 9.108637772299561e+000
1	 1.503231354058331e+000	 2.664559124508381e-001	 8.476079430100279e+000
1	 1.500473485808002e+000	 2.815715497552332e-001	 7.858851698261215e+000
1	 1.497554300143043e+000	 2.967057221843249e-001	 7.257645515907861e+000
1	 1.526256781353464e+000	 1.471095512113651e-001	 1.376045803797496e+001
1	 1.524741695945114e+000	 1.620611205902299e-001	 1.304383918638332e+001
1	 1.523074115278612e+000	 1.770489807261168e-001	 1.233724415454246e+001
1	 1.521252726267772e+000	 1.920710579192460e-001	 1.164144613870544e+001
1	 1.519276248250174e+000	 2.071252386533722e-001	 1.095721185245298e+001
1	 1.517143434246501e+000	 2.222093700739263e-001	 1.028530050626003e+001
1	 1.514853072217832e+000	 2.373212605084653e-001	 9.626462771441609e+000
1	 1.512403986319364e+000	 2.524586800298292e-001	 8.981439729861465e+000
1	 1.509795038149035e+000	 2.676193610623530e-001	 8.350961810863629e+000
1	 1.507025127989463e+000	 2.828009990314218e-001	 7.735747716959301e+000
1	 1.504093196041590e+000	 2.980012530565968e-001	 7.136503339874630e+000
1	 1.438704237079830e+000	 2.850459443420262e-001	 8.452782352221021e+000
1	 1.435743359890963e+000	 2.996030999646700e-001	 7.857820301387582e+000
1	 1.432625550461151e+000	 3.141734829967587e-001	 7.277150928485282e+000
1	 1.429349917471245e+000	 3.287547500080645e-001	 6.711241511481831e+000
1	 1.425915612442830e+000	 3.433445258208175e-001	 6.160550486139108e+000
1	 1.422321830855985e+000	 3.579404043837813e-001	 5.625526783829378e+000
1	 1.418567813249386e+000	 3.725399496881361e-001	 5.106609166444108e+000
1	 1.414652846301054e+000	 3.871406967249310e-001	 4.604225559471843e+000
1	 1.410576263888079e+000	 4.017401524837974e-001	 4.118792384356016e+000
1	 1.406337448123607e+000	 4.163357969925386e-001	 3.650713891275153e+000
1	 1.401935830369417e+000	 4.309250843971382e-001	 3.200381493518298e+000
1	 1.445243132974653e+000	 2.863414752120758e-001	 8.310412071992845e+000
1	 1.442268798629569e+000	 3.009647929566778e-001	 7.715705133084249e+000
1	 1.439136818788142e+000	 3.156013982292188e-001	 7.135358833197213e+000
1	 1.435846298080186e+000	 3.302489369485938e-001	 6.569845454371523e+000
1	 1.432396384170960e+000	 3.449050231418640e-001	 6.019628392304841e+000
1	 1.428786268884011e+000	 3.595672398223045e-001	 5.485161489579815e+000
1	 1.425015189306273e+000	 3.742331399094486e-001	 4.966888366008417e+000
1	 1.421082428873726e+000	 3.889002471908951e-001	 4.465241747179113e+000
1	 1.416987318435939e+000	 4.035660573255574e-001	 3.980642792324908e+000
1	 1.412729237297769e+000	 4.182280388879797e-001	 3.513500422664985e+000
1	 1.408307614236544e+000	 4.328836344532539e-001	 3.064210651400764e+000
1	 1.451782028869550e+000	 2.876370060825698e-001	 8.170487819464547e+000
1	 1.448794237368335e+000	 3.023264859491649e-001	 7.576226494123753e+000
1	 1.445648087115373e+000	 3.170293134621682e-001	 6.996391183118288e+000
1	 1.442342678689445e+000	 3.317431238896014e-001	 6.431459655421316e+000
1	 1.438877155899481e+000	 3.464655204633587e-001	 5.881900653677223e+000
1	 1.435250706912494e+000	 3.611940752612289e-001	 5.348173219992134e+000
1	 1.431462565363673e+000	 3.759263301311030e-001	 4.830726018967933e+000
1	 1.427512011446956e+000	 3.906597976571303e-001	 4.329996659080377e+000
1	 1.423398372984390e+000	 4.053919621675100e-001	 3.846411013538305e+000
1	 1.419121026472544e+000	 4.201202807835300e-001	 3.380382541791403e+000
1	 1.414679398104287e+000	 4.348421845093938e-001	 2.932311612885555e+000
1	 1.458320924764607e+000	 2.889325369534591e-001	 8.032986840034848e+000
1	 1.455319676107329e+000	 3.036881789420780e-001	 7.439360816296511e+000
1	 1.452159355442899e+000	 3.184572286955533e-001	 6.860222527790741e+000
1	 1.448839059299059e+000	 3.332373108310347e-001	 6.296055703499475e+000
1	 1.445357927628414e+000	 3.480260177852528e-001	 5.747334811061166e+000
1	 1.441715144941439e+000	 3.628209107005124e-001	 5.214524372299985e+000
1	 1.437909941421575e+000	 3.776195203530645e-001	 4.698078276224599e+000
1	 1.433941594020721e+000	 3.924193481236123e-001	 4.198439090622052e+000
1	 1.429809427533400e+000	 4.072178670096429e-001	 3.716037373408287e+000
1	 1.425512815647887e+000	 4.220125226791909e-001	 3.251290984927486e+000
1	 1.421051181972596e+000	 4.368007345655731e-001	 2.804604402423951e+000
1	 1.464859820659907e+000	 2.902280678246939e-001	 7.897886785393651e+000
1	 1.461845114846621e+000	 3.050498719353638e-001	 7.305084952211460e+000
1	 1.458670623770774e+000	 3.198851439293194e-001	 6.726827871183640e+000
1	 1.455335439909068e+000	 3.347314977728410e-001	 6.163605694765268e+000
1	 1.451838699357781e+000	 3.495865151074976e-001	 5.615898984832503e+000
1	 1.448179582970851e+000	 3.644477461401131e-001	 5.084178015148074e+000
1	 1.444357317479972e+000	 3.793127105752995e-001	 4.568902071621978e+000
1	 1.440371176595002e+000	 3.941788985903175e-001	 4.070518751526453e+000
1	 1.436220482082934e+000	 4.090437718519439e-001	 3.589463262858415e+000
1	 1.431904604823757e+000	 4.239047645749627e-001	 3.126157725075217e+000
1	 1.427422965841425e+000	 4.387592846218074e-001	 2.681010472459440e+000
1	 1.471398716555536e+000	 2.915235986962250e-001	 7.765165704494093e+000
1	 1.468370553586280e+000	 3.064115649289692e-001	 7.173376165945617e+000
1	 1.465181892099049e+000	 3.213130591634124e-001	 6.596182661595776e+000
1	 1.461831820519507e+000	 3.362256847149676e-001	 6.034082221396967e+000
1	 1.458319471087602e+000	 3.511470124300444e-001	 5.487561862059652e+000
1	 1.454644021000736e+000	 3.660745815799878e-001	 4.957097873673445e+000
1	 1.450804693538856e+000	 3.810059007977738e-001	 4.443155104548428e+000
1	 1.446800759169773e+000	 3.959384490572215e-001	 3.946186245476722e+000
1	 1.442631536632960e+000	 4.108696766944009e-001	 3.466631114647959e+000
1	 1.438296394000109e+000	 4.257970064708468e-001	 3.004915944485279e+000
1	 1.433794749710720e+000	 4.407178346781115e-001	 2.561452671697564e+000
1	 1.477937612451580e+000	 2.928191295680030e-001	 7.634802034764734e+000
1	 1.474895992326376e+000	 3.077732579228409e-001	 7.044212123941676e+000
1	 1.471693160427779e+000	 3.227409743977778e-001	 6.468262781826182e+000
1	 1.468328201130414e+000	 3.377198716573617e-001	 5.907458360619051e+000
1	 1.464800242817900e+000	 3.527075097528448e-001	 5.362292683967498e+000
1	 1.461108459031100e+000	 3.677014170200944e-001	 4.833248314982801e+000
1	 1.457252069598216e+000	 3.826990910204532e-001	 4.320795823001752e+000
1	 1.453230341745015e+000	 3.976979995243009e-001	 3.825393050340727e+000
1	 1.449042591183444e+000	 4.126955815370016e-001	 3.347484380324729e+000
1	 1.444688183176903e+000	 4.276892483668440e-001	 2.887500007906376e+000
1	 1.440166533580434e+000	 4.426763847345017e-001	 2.445855214218347e+000
1	 1.484476508348123e+000	 2.941146604399786e-001	 7.506774593553473e+000
1	 1.481421431066978e+000	 3.091349509169256e-001	 6.917570886146207e+000
1	 1.478204428757018e+000	 3.241688896323617e-001	 6.343044539604774e+000
1	 1.474824581741826e+000	 3.392140585999710e-001	 5.783707664019529e+000
1	 1.471281014548694e+000	 3.542680070758498e-001	 5.240061233732513e+000
1	 1.467572897061949e+000	 3.693282524603908e-001	 4.712594334013572e+000
1	 1.463699445658044e+000	 3.843922812433036e-001	 4.201783407101686e+000
1	 1.459659924320704e+000	 3.994575499915312e-001	 3.708091498917769e+000
1	 1.455453645734352e+000	 4.145214863797339e-001	 3.231967507786944e+000
1	 1.451079972354095e+000	 4.295814902629558e-001	 2.773845436541646e+000
1	 1.446538317450518e+000	 4.446349347909926e-001	 2.334143649404767e+000
1	 1.491015404245248e+000	 2.954101913121023e-001	 7.381062569796884e+000
1	 1.487946869808157e+000	 3.104966439111703e-001	 6.793430897380996e+000
1	 1.484715697086819e+000	 3.255968048671096e-001	 6.220504658274390e+000
1	 1.481320962353781e+000	 3.407082455427425e-001	 5.662804147148098e+000
1	 1.477761786280008e+000	 3.558285043990112e-001	 5.120837824599072e+000
1	 1.474037335093288e+000	 3.709550879008343e-001	 4.595101539766988e+000
1	 1.470146821718332e+000	 3.860854714662914e-001	 4.086077753036187e+000
1	 1.466089506896819e+000	 4.012171004588888e-001	 3.594234760192071e+000
1	 1.461864700285650e+000	 4.163473912225856e-001	 3.120025919435656e+000
1	 1.457471761531642e+000	 4.314737321591827e-001	 2.663888882690078e+000
1	 1.452910101320921e+000	 4.465934848476001e-001	 2.226244832662636e+000
1	 1.497554300143043e+000	 2.967057221843249e-001	 7.257645515907861e+000
1	 1.494472308549981e+000	 3.118583369055215e-001	 6.671770978940744e+000
1	 1.491226965417235e+000	 3.270247201019672e-001	 6.100620267717380e+000
1	 1.487817342966315e+000	 3.422024324856235e-001	 5.544722279387105e+000
1	 1.484242558011860e+000	 3.573890017222800e-001	 5.004593288306876e+000
1	 1.480501773125123e+000	 3.725819233413825e-001	 4.480736141901998e+000
1	 1.476594197779069e+000	 3.877786616893817e-001	 3.973639457428178e+000
1	 1.472519089473338e+000	 4.029766509263497e-001	 3.483776821077009e+000
1	 1.468275754837306e+000	 4.181732960655446e-001	 3.011605990899246e+000
1	 1.463863550709501e+000	 4.333659740555259e-001	 2.557568105052690e+000
1	 1.459281885191594e+000	 4.485520349043394e-001	 2.122086896907633e+000
1	 1.504093196041590e+000	 2.980012530565968e-001	 7.136503339874630e+000
1	 1.500997747292520e+000	 3.132200298999261e-001	 6.552570320409456e+000
1	 1.497738233748321e+000	 3.284526353368806e-001	 5.983368895518544e+000
1	 1.494313723579467e+000	 3.436966194285618e-001	 5.429436974086507e+000
1	 1.490723329744274e+000	 3.589494990456078e-001	 4.891298963820648e+000
1	 1.486966211157460e+000	 3.742087587819934e-001	 4.369464937678565e+000
1	 1.483041573840250e+000	 3.894718519125411e-001	 3.864429802110295e+000
1	 1.478948672050239e+000	 4.047362013938897e-001	 3.376672468635857e+000
1	 1.474686809389286e+000	 4.199992009085986e-001	 2.906655030313368e+000
1	 1.470255339887630e+000	 4.352582159519864e-001	 2.454821944682470e+000
1	 1.465653669062488e+000	 4.505105849612260e-001	 2.021599224795946e+000
1	 1.401935830369417e+000	 4.309250843971382e-001	 3.200381493518298e+000
1	 1.397370891871779e+000	 4.455054438681575e-001	 2.767234366395338e+000
1	 1.392642163666725e+000	 4.600742800983028e-001	 2.350669248213874e+000
1	 1.387749228559429e+000	 4.746289751037728e-001	 1.951010941498975e+000
1	 1.382691722374954e+000	 4.891668896682116e-001	 1.568593682263217e+000
1	 1.377469334826162e+000	 5.036853646155344e-001	 1.203761130608287e+000
1	 1.372081810347265e+000	 5.181817221189332e-001	 8.568663402091108e-001
1	 1.366528948891380e+000	 5.326532670450713e-001	 5.282717060740894e-001
1	 1.360810606690540e+000	 5.470972883323950e-001	 2.183488900140100e-001
1	 1.354926696976586e+000	 5.615110604024198e-001	-7.252127670469183e-002
1	 1.348877190661454e+000	 5.758918446027711e-001	-3.439489140002200e-001
1	 1.408307614236544e+000	 4.328836344532539e-001	 3.064210651400764e+000
1	 1.403721928140800e+000	 4.475302615075406e-001	 2.632335291787706e+000
1	 1.398971707915128e+000	 4.621653129479083e-001	 2.217398086120169e+000
1	 1.394056534468547e+000	 4.767861588918578e-001	 1.819732763410413e+000
1	 1.388976041970940e+000	 4.913901481278337e-001	 1.439679546968640e+000
1	 1.383729918724911e+000	 5.059746093938343e-001	 1.077585085121894e+000
1	 1.378317908003116e+000	 5.205368526923688e-001	 7.338023648205522e-001
1	 1.372739808849457e+000	 5.350741706407586e-001	 4.086906077229356e-001
1	 1.366995476842530e+000	 5.495838398557151e-001	 1.026151483822329e-001
1	 1.361084824819811e+000	 5.640631223710400e-001	-1.840527058039038e-001
1	 1.355007823561020e+000	 5.785092670872235e-001	-4.509358331811896e-001
1	 1.414679398104287e+000	 4.348421845093938e-001	 2.932311612885555e+000
1	 1.410072964410428e+000	 4.495550791468633e-001	 2.501868998106647e+000
1	 1.405301252164111e+000	 4.642563457973713e-001	 2.088692854208859e+000
1	 1.400363840378210e+000	 4.789433426797219e-001	 1.693127390129837e+000
1	 1.395260361567427e+000	 4.936134065871611e-001	 1.315520701220242e+000
1	 1.389990502624114e+000	 5.082638541717731e-001	 9.562246426943974e-001
1	 1.384554005659376e+000	 5.228919832653841e-001	 6.155946894476320e-001
1	 1.378950668807896e+000	 5.374950742359759e-001	 2.939897820126174e-001
1	 1.373180346994846e+000	 5.520703913785263e-001	-8.227841544011412e-003
1	 1.367242952663334e+000	 5.666151843391242e-001	-2.906928279527849e-001
1	 1.361138456460870e+000	 5.811266895711268e-001	-5.530369054352443e-001
1	 1.421051181972596e+000	 4.368007345655731e-001	 2.804604402423951e+000
1	 1.416424000680605e+000	 4.515798967861565e-001	 2.375745928786694e+000
1	 1.411630796413619e+000	 4.663473786467382e-001	 1.964457792057851e+000
1	 1.406671146288361e+000	 4.811005264674270e-001	 1.571096218669708e+000
1	 1.401544681164364e+000	 4.958366650462715e-001	 1.196019041779729e+000
1	 1.396251086523720e+000	 5.105530989494411e-001	 8.395855200406669e-001
1	 1.390790103315994e+000	 5.252471138380813e-001	 5.021561456944171e-001
1	 1.385161528766653e+000	 5.399159778308346e-001	 1.840924419283002e-001
1	 1.379365217147443e+000	 5.545569429009455e-001	-1.142432505420976e-001
1	 1.373401080507109e+000	 5.691672463067921e-001	-3.924879976732416e-001
1	 1.367269089360954e+000	 5.837441120545979e-001	-6.502785070585546e-001
1	 1.427422965841425e+000	 4.387592846218074e-001	 2.681010472459440e+000
1	 1.422775036951282e+000	 4.536047144254504e-001	 2.253878126326961e+000
1	 1.417960340663596e+000	 4.684384114960553e-001	 1.844598849081446e+000
1	 1.412978452198947e+000	 4.832577102550353e-001	 1.453542406633745e+000
1	 1.407829000761696e+000	 4.980599235052413e-001	 1.081078217076803e+000
1	 1.402511670423681e+000	 5.128423437269288e-001	 7.275751173369056e-001
1	 1.397026200972924e+000	 5.276022444105624e-001	 3.934011215874109e-001
1	 1.391372388725682e+000	 5.423368814254453e-001	 7.892317151432432e-002
1	 1.385550087300275e+000	 5.570434944230900e-001	-2.154931214530272e-001
1	 1.379559208351090e+000	 5.717193082741620e-001	-4.894837418108137e-001
1	 1.373399722261223e+000	 5.863615345377534e-001	-7.426865433892216e-001
1	 1.433794749710720e+000	 4.407178346781115e-001	 2.561452671697564e+000
1	 1.429126073222402e+000	 4.556295320647760e-001	 2.136179196759823e+000
1	 1.424289884913989e+000	 4.705294443453696e-001	 1.729023646537818e+000
1	 1.419285758109915e+000	 4.854148940426089e-001	 1.340370833096724e+000
1	 1.414113320359371e+000	 5.002831819641476e-001	 9.706035882871226e-001
1	 1.408772254323946e+000	 5.151315885043268e-001	 6.201024808141588e-001
1	 1.403262298630117e+000	 5.299573749829295e-001	 2.892455269918017e-001
1	 1.397583248684935e+000	 5.447577850199196e-001	-2.159210459080485e-002
1	 1.391734957453297e+000	 5.595300459450763e-001	-3.120383942440685e-001
1	 1.385717336195230e+000	 5.742713702413534e-001	-5.817247779256698e-001
1	 1.379530355161627e+000	 5.889789570207107e-001	-8.302864592718136e-001
1	 1.440166533580434e+000	 4.426763847345017e-001	 2.445855214218347e+000
1	 1.435477109493914e+000	 4.576543497041642e-001	 2.022564275062734e+000
1	 1.430619429164743e+000	 4.726204771947272e-001	 1.617641440544840e+000
1	 1.425593064021210e+000	 4.875720778302098e-001	 1.231488060522354e+000
1	 1.420397639957336e+000	 5.025064404230675e-001	 8.645021914434171e-001
1	 1.415032838224463e+000	 5.174208332817257e-001	 5.170782663446647e-001
1	 1.409498396287527e+000	 5.323125055552848e-001	 1.896067599458135e-001
1	 1.403794108644368e+000	 5.471786886143681e-001	-1.175261508105265e-001
1	 1.397919827606464e+000	 5.620165974670217e-001	-4.039389304062918e-001
1	 1.391875464039482e+000	 5.768234322084858e-001	-6.692550321954205e-001
1	 1.385660988062116e+000	 5.915963795035859e-001	-9.131032492442986e-001
1	 1.446538317450518e+000	 4.446349347909926e-001	 2.334143649404767e+000
1	 1.441828145765765e+000	 4.596791673436457e-001	 1.912949991484441e+000
1	 1.436948973415803e+000	 4.747115100441747e-001	 1.510363086073580e+000
1	 1.431900369932776e+000	 4.897292616179004e-001	 1.126802297688014e+000
1	 1.426681959555538e+000	 5.047296988820778e-001	 7.626827005478847e-001
1	 1.421293422125183e+000	 5.197100780592155e-001	 4.184147039906848e-001
1	 1.415734493945104e+000	 5.346676361277298e-001	 9.440367388464126e-002
1	 1.410004968603934e+000	 5.495995922089024e-001	-2.089504495028520e-001
1	 1.404104697759729e+000	 5.645031489890430e-001	-4.912535367071364e-001
1	 1.398033591883801e+000	 5.793754941756774e-001	-7.521176568447164e-001
1	 1.391791620962641e+000	 5.942138019864963e-001	-9.911614674557023e-001
1	 1.452910101320921e+000	 4.465934848476001e-001	 2.226244832662636e+000
1	 1.448179182037901e+000	 4.617039849832513e-001	 1.807254438757064e+000
1	 1.443278517667114e+000	 4.768025428937587e-001	 1.407101001889017e+000
1	 1.438207675844560e+000	 4.918864454057426e-001	 1.026223363584841e+000
1	 1.432966279153926e+000	 5.069529573412555e-001	 6.650553916553340e-001
1	 1.427554006026055e+000	 5.219993228368872e-001	 3.240255634861438e-001
1	 1.421970591602801e+000	 5.370227667003673e-001	 3.556545727100047e-003
1	 1.416215828563587e+000	 5.520204958036332e-001	-2.959352290729939e-001
1	 1.410289567913049e+000	 5.669897005112574e-001	-5.740399883181352e-001
1	 1.404191719728141e+000	 5.819275561430481e-001	-8.303550471161934e-001
1	 1.397922253863151e+000	 5.968312244695583e-001	-1.064485237322754e+000
1	 1.459281885191594e+000	 4.485520349043394e-001	 2.122086896907633e+000
1	 1.454530218310268e+000	 4.637288026230114e-001	 1.705397140167286e+000
1	 1.449608061918620e+000	 4.788935757435255e-001	 1.307769136409374e+000
1	 1.444514981756508e+000	 4.940436291937986e-001	 9.296626522634937e-001
1	 1.439250598752446e+000	 5.091762158006776e-001	 5.715321078972546e-001
1	 1.433814589927030e+000	 5.242885676148311e-001	 2.338261206226907e-001
1	 1.428206689260569e+000	 5.393778972732990e-001	-8.301295520186754e-002
1	 1.422426688523280e+000	 5.544413993986719e-001	-3.785494913496365e-001
1	 1.416474438066377e+000	 5.694762520337816e-001	-6.523550513366088e-001
1	 1.410349847572454e+000	 5.844796181107167e-001	-9.040088577968953e-001
1	 1.404052886763597e+000	 5.994486469528891e-001	-1.133098260933685e+000
1	 1.465653669062488e+000	 4.505105849612260e-001	 2.021599224795946e+000
1	 1.460881254582814e+000	 4.657536202629573e-001	 1.607299018460143e+000
1	 1.455937606170270e+000	 4.809846085935220e-001	 1.212282934456070e+000
1	 1.450822287668566e+000	 4.962008129821307e-001	 8.370330985971880e-001
1	 1.445534918351047e+000	 5.113994742604213e-001	 4.820262254182210e-001
1	 1.440075173828056e+000	 5.265778123931375e-001	 1.477331245122558e-001
1	 1.434442786918362e+000	 5.417330278466270e-001	-1.653817974379404e-001
1	 1.428637548482970e+000	 5.568623029941296e-001	-4.568610382470240e-001
1	 1.422659308219669e+000	 5.719628035567329e-001	-7.262545047199540e-001
1	 1.416507975416695e+000	 5.870316800788020e-001	-9.731200193134981e-001
1	 1.410183519663929e+000	 6.020660694366057e-001	-1.197023828206541e+000
1	 1.348877190661454e+000	 5.758918446027711e-001	-3.439489140002195e-001
1	 1.342663061776438e+000	 5.902347419688698e-001	-6.109806923556764e-001
1	 1.336283504332451e+000	 6.045391535541665e-001	-8.881725640825020e-001
1	 1.329738666902602e+000	 6.188023124455790e-001	-1.174247022278498e+000
1	 1.323028757985271e+000	 6.330214447531308e-001	-1.467891472399174e+000
1	 1.316154046458454e+000	 6.471937711893181e-001	-1.767759679159406e+000
1	 1.309114861985428e+000	 6.613165086713273e-001	-2.072473290455442e+000
1	 1.301911595370601e+000	 6.753868719443946e-001	-2.380623436512482e+000
1	 1.294544698864472e+000	 6.894020752245478e-001	-2.690772402247811e+000
1	 1.287014686416663e+000	 7.033593338589054e-001	-3.001455370626586e+000
1	 1.279322133876119e+000	 7.172558660016536e-001	-3.311182234576403e+000
1	 1.355007823561020e+000	 5.785092670872235e-001	-4.509358331811896e-001
1	 1.348765451524407e+000	 5.929173527739513e-001	-7.130491387308175e-001
1	 1.342356899057681e+000	 6.072867777624577e-001	-9.849079681734384e-001
1	 1.335782315409221e+000	 6.216147625640550e-001	-1.265239560608269e+000
1	 1.329041910025039e+000	 6.358985206814514e-001	-1.552736994394309e+000
1	 1.322135953005187e+000	 6.501352601952950e-001	-1.846060652874610e+000
1	 1.315064775511268e+000	 6.643221853736749e-001	-2.143839765970064e+000
1	 1.307828770123901e+000	 6.784564983028588e-001	-2.444674025787874e+000
1	 1.300428391149066e+000	 6.925354005374994e-001	-2.747135274176735e+000
1	 1.292864154872291e+000	 7.065560947684821e-001	-3.049769259948494e+000
1	 1.285136639759758e+000	 7.205157865065180e-001	-3.351097463278891e+000
1	 1.361138456460870e+000	 5.811266895711268e-001	-5.530369054352432e-001
1	 1.354867841272664e+000	 5.955999635784846e-001	-8.102308528129394e-001
1	 1.348430293783214e+000	 6.100344019702138e-001	-1.076742357160834e+000
1	 1.341825963916171e+000	 6.244272126820184e-001	-1.351307568177055e+000
1	 1.335055062065178e+000	 6.387755966092875e-001	-1.632629890597676e+000
1	 1.328117859552339e+000	 6.530767492008194e-001	-1.919381467185497e+000
1	 1.321014689037577e+000	 6.673278620756021e-001	-2.210204735541188e+000
1	 1.313745944877724e+000	 6.815261246609314e-001	-2.503714056812602e+000
1	 1.306312083434239e+000	 6.956687258500838e-001	-2.798497414168462e+000
1	 1.298713623328551e+000	 7.097528556777062e-001	-3.093118178694466e+000
1	 1.290951145644077e+000	 7.237757070110322e-001	-3.386116940167154e+000
1	 1.367269089360954e+000	 5.837441120545979e-001	-6.502785070585556e-001
1	 1.360970231021149e+000	 5.982825743825796e-001	-9.025329084066786e-001
1	 1.354503688508985e+000	 6.127820261775336e-001	-1.163667948508904e+000
1	 1.347869612423378e+000	 6.272396627995539e-001	-1.432432798210056e+000
1	 1.341068214105600e+000	 6.416526725367080e-001	-1.707545783689262e+000
1	 1.334099766099807e+000	 6.560182382059423e-001	-1.987695885163294e+000
1	 1.326964602564244e+000	 6.703335387771426e-001	-2.271544306475156e+000
1	 1.319663119631949e+000	 6.845957510186308e-001	-2.557726113564902e+000
1	 1.312195775719856e+000	 6.988020511623030e-001	-2.844851939615047e+000
1	 1.304563091785300e+000	 7.129496165865686e-001	-3.131509754462469e+000
1	 1.296765651528928e+000	 7.270356275151803e-001	-3.416266695670310e+000
1	 1.373399722261223e+000	 5.863615345377534e-001	-7.426865433892227e-001
1	 1.367072620769810e+000	 6.009651851863458e-001	-9.899622530112824e-001
1	 1.360577083234930e+000	 6.155296503845165e-001	-1.245677098641348e+000
1	 1.353913260930768e+000	 6.300521129167457e-001	-1.508597329734504e+000
1	 1.347081366146221e+000	 6.445297484637816e-001	-1.777460731614060e+000
1	 1.340081672647496e+000	 6.589597272107155e-001	-2.050978138348035e+000
1	 1.332914516091158e+000	 6.733392154783306e-001	-2.327835012689848e+000
1	 1.325580294386450e+000	 6.876653773759736e-001	-2.606693090991268e+000
1	 1.318079468005786e+000	 7.019353764741605e-001	-2.886192090799169e+000
1	 1.310412560242396e+000	 7.161463774950609e-001	-3.164951478656009e+000
1	 1.302580157414160e+000	 7.302955480189453e-001	-3.441572295434633e+000
1	 1.379530355161627e+000	 5.889789570207107e-001	-8.302864592718136e-001
1	 1.373175010518588e+000	 6.036477959898938e-001	-1.072525710626956e+000
1	 1.366650477960983e+000	 6.182772745912598e-001	-1.322762299853683e+000
1	 1.359956909438264e+000	 6.328645630336793e-001	-1.579783560340413e+000
1	 1.353094518186951e+000	 6.474068243905763e-001	-1.842351217910489e+000
1	 1.346063579195304e+000	 6.619012162151902e-001	-2.109202916339298e+000
1	 1.338864429618206e+000	 6.763448921792001e-001	-2.379053805235622e+000
1	 1.331497469141105e+000	 6.907350037329777e-001	-2.650598188096965e+000
1	 1.323963160291892e+000	 7.050687017856593e-001	-2.922511228163382e+000
1	 1.316262028699694e+000	 7.193431384031742e-001	-3.193450709511112e+000
1	 1.308394663299624e+000	 7.335554685223119e-001	-3.462058850650708e+000
1	 1.385660988062116e+000	 5.915963795035859e-001	-9.131032492442992e-001
1	 1.379277400267429e+000	 6.063304067933328e-001	-1.150229984486741e+000
1	 1.372723872687082e+000	 6.210248987978638e-001	-1.394916177307537e+000
1	 1.366000557945791e+000	 6.356770131504382e-001	-1.645974199133332e+000
1	 1.359107670227705e+000	 6.502839003171606e-001	-1.902194142295417e+000
1	 1.352045485743133e+000	 6.648427052194170e-001	-2.162345356662972e+000
1	 1.344814343145278e+000	 6.793505688797844e-001	-2.425178043067219e+000
1	 1.337414643895790e+000	 6.938046300896604e-001	-2.689424901219484e+000
1	 1.329846852578039e+000	 7.082020270968021e-001	-2.953802829652112e+000
1	 1.322111497157053e+000	 7.225398993108999e-001	-3.217014675041352e+000
1	 1.314209169185171e+000	 7.368153890252628e-001	-3.477751028106979e+000
1	 1.391791620962641e+000	 5.942138019864963e-001	-9.911614674557023e-001
1	 1.385379790016275e+000	 6.090130175967728e-001	-1.223081659716569e+000
1	 1.378797267413160e+000	 6.237725230044265e-001	-1.462131486104359e+000
1	 1.372044206453275e+000	 6.384894632671082e-001	-1.707152259873332e+000
1	 1.365120822268397e+000	 6.531609762436034e-001	-1.956966811498097e+000
1	 1.358027392290884e+000	 6.677841942234478e-001	-2.210381034906003e+000
1	 1.350764256672261e+000	 6.823562455801177e-001	-2.466185484060258e+000
1	 1.343331818650383e+000	 6.968742564460391e-001	-2.723157017480038e+000
1	 1.335730544864097e+000	 7.113353524075916e-001	-2.980060488123505e+000
1	 1.327960965614328e+000	 7.257366602182296e-001	-3.235650475906462e+000
1	 1.320023675070649e+000	 7.400753095277823e-001	-3.488673059977269e+000
1	 1.397922253863151e+000	 5.968312244695583e-001	-1.064485237322755e+000
1	 1.391482179765073e+000	 6.116956284003237e-001	-1.291087205924774e+000
1	 1.384870662139153e+000	 6.265201472110472e-001	-1.524401108435879e+000
1	 1.378087854960640e+000	 6.413019133837734e-001	-1.763301054294681e+000
1	 1.371133974308938e+000	 6.560380521699728e-001	-2.006646930335308e+000
1	 1.364009298838458e+000	 6.707256832273331e-001	-2.253285955110616e+000
1	 1.356714170199044e+000	 6.853619222802337e-001	-2.502054276263584e+000
1	 1.349248993404759e+000	 6.999438828021314e-001	-2.751778608407184e+000
1	 1.341614237149928e+000	 7.144686777180310e-001	-3.001277908829730e+000
1	 1.333810434071377e+000	 7.289334211251541e-001	-3.249365088204604e+000
1	 1.325838180955911e+000	 7.433352300298545e-001	-3.494848753350839e+000
1	 1.404052886763597e+000	 5.994486469528891e-001	-1.133098260933684e+000
1	 1.397584569513765e+000	 6.143782392040952e-001	-1.354252979724161e+000
1	 1.390944056864996e+000	 6.292677714178239e-001	-1.581718050809741e+000
1	 1.384131503467812e+000	 6.441143635005187e-001	-1.814404185600403e+000
1	 1.377147126349243e+000	 6.589151280963376e-001	-2.051212593020227e+000
1	 1.369991205385755e+000	 6.736671722311245e-001	-2.291036540420334e+000
1	 1.362664083725515e+000	 6.883675989801661e-001	-2.532762949380960e+000
1	 1.355166168158795e+000	 7.030135091579541e-001	-2.775274023727775e+000
1	 1.347497929435399e+000	 7.176020030281235e-001	-3.017448906963041e+000
1	 1.339659902528057e+000	 7.321301820316656e-001	-3.258165366191819e+000
1	 1.331652686840806e+000	 7.465951505314625e-001	-3.496301499512770e+000
1	 1.410183519663929e+000	 6.020660694366057e-001	-1.197023828206542e+000
1	 1.403686959262296e+000	 6.170608500081971e-001	-1.412585227188191e+000
1	 1.397017451590627e+000	 6.320153956248561e-001	-1.634075441346978e+000
1	 1.390175151974715e+000	 6.469268136174284e-001	-1.860445542126580e+000
1	 1.383160278389224e+000	 6.617922040227658e-001	-2.090642274698123e+000
1	 1.375973111932677e+000	 6.766086612348735e-001	-2.323609623969831e+000
1	 1.368613997251564e+000	 6.913732756799494e-001	-2.558290406475001e+000
1	 1.361083342912368e+000	 7.060831355135255e-001	-2.793627885319647e+000
1	 1.353381621720377e+000	 7.207353283378716e-001	-3.028567405265964e+000
1	 1.345509370984224e+000	 7.353269429377547e-001	-3.262058044930319e+000
1	 1.337467192725185e+000	 7.498550710325906e-001	-3.493054282982268e+000
1	 1.279322133876119e+000	 7.172558660016536e-001	-3.311182234576402e+000
1	 1.271466488913099e+000	 7.310909646953697e-001	-3.628631690950830e+000
1	 1.263449594561992e+000	 7.448597689014561e-001	-3.963326588732536e+000
1	 1.255272214413711e+000	 7.585595149683920e-001	-4.315178802067353e+000
1	 1.246935174241497e+000	 7.721874489079046e-001	-4.684119800674423e+000
1	 1.238439361924098e+000	 7.857408281201320e-001	-5.070100690165125e+000
1	 1.229785727312124e+000	 7.992169231221942e-001	-5.473092208084222e+000
1	 1.220975282037234e+000	 8.126130192780127e-001	-5.893084675236080e+000
1	 1.212009099263907e+000	 8.259264185271869e-001	-6.330087901977000e+000
1	 1.202888313383635e+000	 8.391544411107291e-001	-6.784131049272381e+000
1	 1.193614119651469e+000	 8.522944272914291e-001	-7.255262444439474e+000
1	 1.285136639759758e+000	 7.205157865065180e-001	-3.351097463278894e+000
1	 1.277245290971400e+000	 7.344137655810575e-001	-3.660006252907517e+000
1	 1.269191959918177e+000	 7.482451488601338e-001	-3.986233303186236e+000
1	 1.260977413661517e+000	 7.620071601314624e-001	-4.329707852927634e+000
1	 1.252602481727787e+000	 7.756970328899256e-001	-4.690376204636114e+000
1	 1.244068056031136e+000	 7.893120120705770e-001	-5.068201718386812e+000
1	 1.235375090739231e+000	 8.028493557850693e-001	-5.463164765580541e+000
1	 1.226524602081588e+000	 8.163063370593355e-001	-5.875262642273123e+000
1	 1.217517668100205e+000	 8.296802455703223e-001	-6.304509441884370e+000
1	 1.208355428342368e+000	 8.429683893795678e-001	-6.750935887201283e+000
1	 1.199039083495551e+000	 8.561680966613903e-001	-7.214589121700860e+000
1	 1.290951145644077e+000	 7.237757070110322e-001	-3.386116940167154e+000
1	 1.283024093030423e+000	 7.377365664663843e-001	-3.686575396865995e+000
1	 1.274934325275120e+000	 7.516305288184263e-001	-4.004427182229718e+000
1	 1.266682612910105e+000	 7.654548052941124e-001	-4.339616798229740e+000
1	 1.258269789214880e+000	 7.792066168714839e-001	-4.692102982415682e+000
1	 1.249696750138987e+000	 7.928831960205117e-001	-5.061858657415067e+000
1	 1.240964454167154e+000	 8.064817884473835e-001	-5.448870845025831e+000
1	 1.232073922126751e+000	 8.199996548400456e-001	-5.853140544735310e+000
1	 1.223026236937295e+000	 8.334340726127941e-001	-6.274682576593904e+000
1	 1.213822543301870e+000	 8.467823376476982e-001	-6.713525388473324e+000
1	 1.204464047340367e+000	 8.600417660306019e-001	-7.169710827833779e+000
1	 1.296765651528928e+000	 7.270356275151803e-001	-3.416266695670311e+000
1	 1.288802895090015e+000	 7.410593673513299e-001	-3.708384170777976e+000
1	 1.280676690632666e+000	 7.550159087763153e-001	-4.017969702738717e+000
1	 1.272387812159327e+000	 7.689024504563309e-001	-4.344980990885162e+000
1	 1.263937096702628e+000	 7.827162008525765e-001	-4.689386848303418e+000
1	 1.255325444247508e+000	 7.964543799699438e-001	-5.051167108996139e+000
1	 1.246553817595757e+000	 8.101142211091577e-001	-5.430312504914441e+000
1	 1.237623242172595e+000	 8.236929726201788e-001	-5.826824512826733e+000
1	 1.228534805775061e+000	 8.371878996546550e-001	-6.240715171077643e+000
1	 1.219289658262030e+000	 8.505962859151863e-001	-6.672006866375772e+000
1	 1.209889011185817e+000	 8.639154353991482e-001	-7.120732090834080e+000
1	 1.302580157414160e+000	 7.302955480189453e-001	-3.441572295434631e+000
1	 1.294581697150023e+000	 7.443821682358760e-001	-3.725476818247830e+000
1	 1.286419055990660e+000	 7.584012887337839e-001	-4.026921243897620e+000
1	 1.278093011409026e+000	 7.723500956181048e-001	-4.345874438352904e+000
1	 1.269604404190879e+000	 7.862257848331998e-001	-4.682312968275848e+000
1	 1.260954138356556e+000	 8.000255639188816e-001	-5.036220967874062e+000
1	 1.252143181024903e+000	 8.137466537704131e-001	-5.407589981450857e+000
1	 1.243172562218992e+000	 8.273862903997703e-001	-5.796418781760391e+000
1	 1.234043374613380e+000	 8.409417266959555e-001	-6.202713164341810e+000
1	 1.224756773222739e+000	 8.544102341821005e-001	-6.626485718080530e+000
1	 1.215313975031800e+000	 8.677891047671119e-001	-7.067755572314542e+000
1	 1.308394663299624e+000	 7.335554685223119e-001	-3.462058850650709e+000
1	 1.300360499210294e+000	 7.477049691200033e-001	-3.737896796405123e+000
1	 1.292161421348948e+000	 7.617866686908141e-001	-4.031341111590388e+000
1	 1.283798210659051e+000	 7.757977407794225e-001	-4.342369832535165e+000
1	 1.275271711679485e+000	 7.897353688133503e-001	-4.670964994399261e+000
1	 1.266582832465985e+000	 8.035967478673327e-001	-5.017112459720201e+000
1	 1.257732544454452e+000	 8.173790864311703e-001	-5.380801729041603e+000
1	 1.248721882265810e+000	 8.310796081788572e-001	-5.762025733864888e+000
1	 1.239551943452133e+000	 8.446955537367477e-001	-6.160780612221720e+000
1	 1.230223888183886e+000	 8.582241824485075e-001	-6.577065467220476e+000
1	 1.220738938878217e+000	 8.716627741345753e-001	-7.010882108976263e+000
1	 1.314209169185171e+000	 7.368153890252628e-001	-3.477751028106980e+000
1	 1.306139301270674e+000	 7.510277700036923e-001	-3.745686793302919e+000
1	 1.297903786707376e+000	 7.651720486473885e-001	-4.031287562143355e+000
1	 1.289503409909248e+000	 7.792453859402714e-001	-4.334538578880170e+000
1	 1.280939019168297e+000	 7.932449527930245e-001	-4.655425098320023e+000
1	 1.272211526575653e+000	 8.071679318153050e-001	-4.993932178056121e+000
1	 1.263321907884269e+000	 8.210115190914508e-001	-5.350044459711282e+000
1	 1.254271202312923e+000	 8.347729259574741e-001	-5.723745939573346e+000
1	 1.245060512291201e+000	 8.484493807770828e-001	-6.115019729040620e+000
1	 1.235691003145361e+000	 8.620381307144748e-001	-6.523847805335023e+000
1	 1.226163902724966e+000	 8.755364435016215e-001	-6.950210752978661e+000
1	 1.320023675070649e+000	 7.400753095277823e-001	-3.488673059977266e+000
1	 1.311918103331010e+000	 7.543505708869248e-001	-3.748888744855925e+000
1	 1.303646152065790e+000	 7.685574286034900e-001	-4.026817825441434e+000
1	 1.295208609159464e+000	 7.826930311006397e-001	-4.322450824714794e+000
1	 1.286606326657166e+000	 7.967545367722192e-001	-4.635774003869795e+000
1	 1.277840220685413e+000	 8.107391157628058e-001	-4.966769120200457e+000
1	 1.268911271314218e+000	 8.246439517512760e-001	-5.315413181477430e+000
1	 1.259820522360200e+000	 8.384662437356580e-001	-5.681678197329060e+000
1	 1.250569081130463e+000	 8.522032078170125e-001	-6.065530928167910e+000
1	 1.241158118107053e+000	 8.658520789800703e-001	-6.466932632220902e+000
1	 1.231588866571949e+000	 8.794101128683336e-001	-6.885838811242879e+000
1	 1.325838180955911e+000	 7.433352300298545e-001	-3.494848753350837e+000
1	 1.317696905391148e+000	 7.576733717696806e-001	-3.747543851333365e+000
1	 1.309388517424035e+000	 7.719428085591007e-001	-4.017988127435220e+000
1	 1.300913808409549e+000	 7.861406762605158e-001	-4.306175486832821e+000
1	 1.292273634145942e+000	 8.002641207509306e-001	-4.612091018812476e+000
1	 1.283468914795125e+000	 8.143102997098430e-001	-4.935710722269931e+000
1	 1.274500634744160e+000	 8.282763844106668e-001	-5.277001235715437e+000
1	 1.265369842407514e+000	 8.421595615134447e-001	-5.635919572441135e+000
1	 1.256077649969800e+000	 8.559570348565883e-001	-6.012412861509532e+000
1	 1.246625233068853e+000	 8.696660272453608e-001	-6.406418095220888e+000
1	 1.237013830419063e+000	 8.832837822347940e-001	-6.817861883720485e+000
1	 1.331652686840806e+000	 7.465951505314625e-001	-3.496301499512772e+000
1	 1.323475707450936e+000	 7.609961726519411e-001	-3.741692593419316e+000
1	 1.315130882781956e+000	 7.753281885142023e-001	-4.004853712059016e+000
1	 1.306619007659346e+000	 7.895883214198862e-001	-4.285780278359391e+000
1	 1.297940941634475e+000	 8.037737047291553e-001	-4.584454065760265e+000
1	 1.289097608904642e+000	 8.178814836564250e-001	-4.900842893263410e+000
1	 1.280089998173959e+000	 8.319088170696446e-001	-5.234900333544447e+000
1	 1.270919162454734e+000	 8.458528792908694e-001	-5.586565434922434e+000
1	 1.261586218809091e+000	 8.597108618958619e-001	-5.955762457964537e+000
1	 1.252092348030650e+000	 8.734799755104138e-001	-6.342400627483099e+000
1	 1.242438794266210e+000	 8.871574516010856e-001	-6.746373900660196e+000
1	 1.337467192725185e+000	 7.498550710325906e-001	-3.493054282982268e+000
1	 1.329254509510220e+000	 7.643189735336878e-001	-3.731374747854392e+000
1	 1.320873248139401e+000	 7.787135684687788e-001	-3.987468862576871e+000
1	 1.312324206908703e+000	 7.930359665787399e-001	-4.261331734915450e+000
1	 1.303608249122617e+000	 8.072832887068897e-001	-4.552939712282020e+000
1	 1.294726303013822e+000	 8.214526676025593e-001	-4.862250048256837e+000
1	 1.285679361603477e+000	 8.355412497282297e-001	-5.189200591264549e+000
1	 1.276468482501733e+000	 8.495461970679689e-001	-5.533709496339776e+000
1	 1.267094787648218e+000	 8.634646889348845e-001	-5.895674960877770e+000
1	 1.257559462992334e+000	 8.772939237752969e-001	-6.274974985222843e+000
1	 1.247863758113289e+000	 8.910311209672919e-001	-6.671467158902250e+000
1	 1.193614119651469e+000	 8.522944272914291e-001	-7.255262444439473e+000
1	 1.184187773428212e+000	 8.653437387781996e-001	-7.737297845028976e+000
1	 1.174610588701024e+000	 8.782997595461004e-001	-8.224296633664972e+000
1	 1.164883938575646e+000	 8.911598983624565e-001	-8.716709564604143e+000
1	 1.155009255025385e+000	 9.039215907491438e-001	-9.215017106902774e+000
1	 1.144988028244612e+000	 9.165823006445137e-001	-9.719728623401297e+000
1	 1.134821805946257e+000	 9.291395220466800e-001	-1.023138148901207e+001
1	 1.124512192603938e+000	 9.415907806359750e-001	-1.075054014984991e+001
1	 1.114060848639436e+000	 9.539336353744131e-001	-1.127779512490780e+001
1	 1.103469489556340e+000	 9.661656800800127e-001	-1.181376195214008e+001
1	 1.092739885020771e+000	 9.782845449738733e-001	-1.235908008097277e+001
1	 1.199039083495551e+000	 8.561680966613903e-001	-7.214589121700858e+000
1	 1.189569894626156e+000	 8.692767171336990e-001	-7.689316163924225e+000
1	 1.179949181693395e+000	 8.822916228817611e-001	-8.169210216426183e+000
1	 1.170178324043753e+000	 8.952102108957880e-001	-8.654723399551402e+000
1	 1.160258760158835e+000	 9.080299050421431e-001	-9.146338591596871e+000
1	 1.150191987005923e+000	 9.207481577328160e-001	-9.644568604956261e+000
1	 1.139979559332279e+000	 9.333624515761817e-001	-1.014995529954117e+001
1	 1.129623088903830e+000	 9.458703010068277e-001	-1.066306863501828e+001
1	 1.119124243688950e+000	 9.582692538922897e-001	-1.118450566356871e+001
1	 1.108484746988168e+000	 9.705568931145264e-001	-1.171488946504261e+001
1	 1.097706376510712e+000	 9.827308381240307e-001	-1.225486802654330e+001
1	 1.204464047340367e+000	 8.600417660306019e-001	-7.169710827833779e+000
1	 1.194952015824789e+000	 8.732096954884189e-001	-7.637131395351612e+000
1	 1.185287774686401e+000	 8.862834862166201e-001	-8.109929873725939e+000
1	 1.175472709512434e+000	 8.992605234283049e-001	-8.588557646027107e+000
1	 1.165508265292791e+000	 9.121382193343226e-001	-9.073497770135591e+000
1	 1.155395945767666e+000	 9.249140148203019e-001	-9.565264155053015e+000
1	 1.145137312718654e+000	 9.375853811048774e-001	-1.006440067270403e+001
1	 1.134733985203993e+000	 9.501498213768944e-001	-1.057148020676156e+001
1	 1.124187638738652e+000	 9.626048724094066e-001	-1.108710364020109e+001
1	 1.113500004420099e+000	 9.749481061483156e-001	-1.161189878345908e+001
1	 1.102672868000670e+000	 9.871771312735052e-001	-1.214651924523769e+001
1	 1.209889011185817e+000	 8.639154353991482e-001	-7.120732090834080e+000
1	 1.200334137024022e+000	 8.771426738424566e-001	-7.580843589602793e+000
1	 1.190626367679964e+000	 8.902753495507885e-001	-8.046550006205461e+000
1	 1.180767094981621e+000	 9.033108359601296e-001	-8.518299907477813e+000
1	 1.170757770427195e+000	 9.162465336258145e-001	-8.996574326816294e+000
1	 1.160599904529793e+000	 9.290798719071129e-001	-9.481885943642340e+000
1	 1.150295066105347e+000	 9.418083106329169e-001	-9.974778196810236e+000
1	 1.139844881504405e+000	 9.544293417463268e-001	-1.047582433347810e+001
1	 1.129251033788531e+000	 9.669404909259187e-001	-1.098562639514104e+001
1	 1.118515261852135e+000	 9.793393191815332e-001	-1.150481414269984e+001
1	 1.107639359490663e+000	 9.916234244224459e-001	-1.203404392260535e+001
1	 1.215313975031800e+000	 8.677891047671119e-001	-7.067755572314539e+000
1	 1.205716258223763e+000	 8.810756521959097e-001	-7.520551010537560e+000
1	 1.195964960674003e+000	 8.942672128843769e-001	-7.979163328950945e+000
1	 1.186061480451242e+000	 9.073611484913845e-001	-8.444036223161152e+000
1	 1.176007275561987e+000	 9.203548479167536e-001	-8.915646523146233e+000
1	 1.165803863292257e+000	 9.332457289933898e-001	-9.394503378839426e+000
1	 1.155452819492321e+000	 9.460312401604467e-001	-9.881147378345469e+000
1	 1.144955777805041e+000	 9.587088621152785e-001	-1.037614960029187e+001
1	 1.134314428838575e+000	 9.712761094419803e-001	-1.088011060200114e+001
1	 1.123530519284278e+000	 9.837305322143327e-001	-1.139365934534695e+001
1	 1.112605850980706e+000	 9.960697175710029e-001	-1.191745206233012e+001
1	 1.220738938878217e+000	 8.716627741345753e-001	-7.010882108976263e+000
1	 1.211098379423924e+000	 8.850086305488757e-001	-7.456350175278557e+000
1	 1.201303553668436e+000	 8.982590762174960e-001	-7.907860908946231e+000
1	 1.191355865921229e+000	 9.114114610221925e-001	-8.365851102902251e+000
1	 1.181256780697107e+000	 9.244631622072710e-001	-8.830791229457667e+000
1	 1.171007822055010e+000	 9.374115860792748e-001	-9.303184634962157e+000
1	 1.160610572879540e+000	 9.502541696876151e-001	-9.783566666009286e+000
1	 1.150066674105876e+000	 9.629883824839004e-001	-1.027250372867929e+001
1	 1.139377823888773e+000	 9.756117279577450e-001	-1.077059228248523e+001
1	 1.128545776716530e+000	 9.881217452468674e-001	-1.127845777086918e+001
1	 1.117572342470817e+000	 1.000516010719327e+000	-1.179675349027235e+001
1	 1.226163902724966e+000	 8.755364435016215e-001	-6.950210752978661e+000
1	 1.216480500624413e+000	 8.889416089014518e-001	-7.388335892851770e+000
1	 1.206642146663185e+000	 9.022509395502558e-001	-7.832732201531915e+000
1	 1.196650251391511e+000	 9.154617735526760e-001	-8.283827560927081e+000
1	 1.186506285832498e+000	 9.285714764975006e-001	-8.742083955682562e+000
1	 1.176211780818002e+000	 9.415774431649091e-001	-9.207996679824561e+000
1	 1.165768326266968e+000	 9.544770992145705e-001	-9.682093474115167e+000
1	 1.155177570406885e+000	 9.672679028523454e-001	-1.016493359557405e+001
1	 1.144441218939113e+000	 9.799473464733667e-001	-1.065710682080947e+001
1	 1.133561034148893e+000	 9.925129582792911e-001	-1.115923238498164e+001
1	 1.122538833961011e+000	 1.004962303867566e+000	-1.167195785840129e+001
1	 1.231588866571949e+000	 8.794101128683336e-001	-6.885838811242879e+000
1	 1.221862621825139e+000	 8.928745872537349e-001	-7.316601301806478e+000
1	 1.211980739658170e+000	 9.062428028827684e-001	-7.753865085900288e+000
1	 1.201944636862018e+000	 9.195120860829577e-001	-8.198047148801964e+000
1	 1.191755790968099e+000	 9.326797907875748e-001	-8.649598881314532e+000
1	 1.181415739581187e+000	 9.457433002504337e-001	-9.109005301309679e+000
1	 1.170926079654566e+000	 9.587000287414601e-001	-9.576784205372462e+000
1	 1.160288466708044e+000	 9.715474232207657e-001	-1.005348525196783e+001
1	 1.149504613989583e+000	 9.842829649890003e-001	-1.053968897774313e+001
1	 1.138576291581370e+000	 9.969041713117569e-001	-1.103600574875888e+001
1	 1.127505325451305e+000	 1.009408597015872e+000	-1.154307464862611e+001
1	 1.237013830419063e+000	 8.832837822347940e-001	-6.817861883720485e+000
1	 1.227244743026015e+000	 8.968075656058232e-001	-7.241237906844591e+000
1	 1.217319332653310e+000	 9.102346662151432e-001	-7.671345899656737e+000
1	 1.207239022332682e+000	 9.235623986131606e-001	-8.108589987506774e+000
1	 1.197005296103852e+000	 9.367881050776268e-001	-8.553408884582257e+000
1	 1.186619698344515e+000	 9.499091573359905e-001	-9.006275133242147e+000
1	 1.176083833042299e+000	 9.629229582684320e-001	-9.467694273068098e+000
1	 1.165399363009330e+000	 9.758269435893137e-001	-9.938203941021349e+000
1	 1.154568009040171e+000	 9.886185835047997e-001	-1.041837290427853e+001
1	 1.143591549013961e+000	 1.001295384344419e+000	-1.090880002750748e+001
1	 1.132471816941716e+000	 1.013854890164394e+000	-1.141011317652431e+001
1	 1.242438794266210e+000	 8.871574516010856e-001	-6.746373900660196e+000
1	 1.232626864226947e+000	 9.007405439578134e-001	-7.162335614490923e+000
1	 1.222657925648524e+000	 9.142265295474914e-001	-7.585259472475880e+000
1	 1.212533407803432e+000	 9.276127111434063e-001	-8.015534798666815e+000
1	 1.202254801239697e+000	 9.408964193677896e-001	-8.453585570858817e+000
1	 1.191823657107940e+000	 9.540750144217212e-001	-8.899869680583683e+000
1	 1.181241586430130e+000	 9.671458877956344e-001	-9.354878122667845e+000
1	 1.170510259310717e+000	 9.801064639581415e-001	-9.819134115700663e+000
1	 1.159631404090867e+000	 9.929542020209187e-001	-1.029319215494437e+001
1	 1.148606806446670e+000	 1.005686597377430e+000	-1.077763699940650e+001
1	 1.137438308432261e+000	 1.018301183313283e+000	-1.127308259497306e+001
1	 1.247863758113289e+000	 8.910311209672919e-001	-6.671467158902250e+000
1	 1.238008985427848e+000	 9.046735223098030e-001	-7.079982767832727e+000
1	 1.227996518643735e+000	 9.182183928799237e-001	-7.495689158879022e+000
1	 1.217827793274197e+000	 9.316630236738184e-001	-7.918958934970842e+000
1	 1.207504306375576e+000	 9.450047336581960e-001	-8.350199300329296e+000
1	 1.197027615871412e+000	 9.582408715077666e-001	-8.789851343971384e+000
1	 1.186399339818024e+000	 9.713688173232155e-001	-9.238389252853805e+000
1	 1.175621155612181e+000	 9.843859843274009e-001	-9.696319455953695e+000
1	 1.164694799141658e+000	 9.972898205375118e-001	-1.016417970077061e+001
1	 1.153622063879497e+000	 1.010077810410943e+000	-1.064253806392225e+001
1	 1.142404799922955e+000	 1.022747476462686e+000	-1.113199189768606e+001
1	 1.092739885020771e+000	 9.782845449738733e-001	-1.235908008097277e+001
1	 1.081875498010749e+000	 9.902861067161902e-001	-1.290443292389869e+001
1	 1.070876604467505e+000	 1.002169900948811e+000	-1.344043628383717e+001
1	 1.059745130581474e+000	 1.013933678039448e+000	-1.396739721229681e+001
1	 1.048483052470228e+000	 1.025575230629225e+000	-1.448562177699177e+001
1	 1.037092395011246e+000	 1.037092395011246e+000	-1.499541490971765e+001
1	 1.025575230629225e+000	 1.048483052470228e+000	-1.549708026055638e+001
1	 1.013933678039448e+000	 1.059745130581474e+000	-1.599092005855050e+001
1	 1.002169900948811e+000	 1.070876604467505e+000	-1.647723497897047e+001
1	 9.902861067161898e-001	 1.081875498010748e+000	-1.695632401727529e+001
1	 9.782845449738733e-001	 1.092739885020771e+000	-1.742848436984879e+001
1	 1.097706376510712e+000	 9.827308381240307e-001	-1.225486802654330e+001
1	 1.086792610973798e+000	 9.947869468404698e-001	-1.279498914082780e+001
1	 1.075743727572818e+000	 1.006724752795177e+000	-1.332573980457552e+001
1	 1.064561661252739e+000	 1.018541996131295e+000	-1.384744896023275e+001
1	 1.053248397112579e+000	 1.030236459457509e+000	-1.436044460402557e+001
1	 1.041805969232883e+000	 1.041805969232883e+000	-1.486505360003932e+001
1	 1.030236459457509e+000	 1.053248397112579e+000	-1.536160150058498e+001
1	 1.018541996131295e+000	 1.064561661252739e+000	-1.585041237306441e+001
1	 1.006724752795177e+000	 1.075743727572818e+000	-1.633180863352516e+001
1	 9.947869468404696e-001	 1.086792610973798e+000	-1.680611088707721e+001
1	 9.827308381240306e-001	 1.097706376510712e+000	-1.727363777532007e+001
1	 1.102672868000670e+000	 9.871771312735052e-001	-1.214651924523769e+001
1	 1.091709723936780e+000	 9.992877869641140e-001	-1.268137180905531e+001
1	 1.080610850677982e+000	 1.011279604640963e+000	-1.320681269972456e+001
1	 1.069378191923773e+000	 1.023150314222622e+000	-1.372319509775353e+001
1	 1.058013741754623e+000	 1.034897688285340e+000	-1.423087152686904e+001
1	 1.046519543454137e+000	 1.046519543454137e+000	-1.473019362927729e+001
1	 1.034897688285340e+000	 1.058013741754623e+000	-1.522151194671946e+001
1	 1.023150314222622e+000	 1.069378191923773e+000	-1.570517570761415e+001
1	 1.011279604640963e+000	 1.080610850677982e+000	-1.618153262055870e+001
1	 9.992877869641136e-001	 1.091709723936780e+000	-1.665092867444625e+001
1	 9.871771312735052e-001	 1.102672868000670e+000	-1.711370794543013e+001
1	 1.107639359490663e+000	 9.916234244224459e-001	-1.203404392260535e+001
1	 1.096626836899727e+000	 1.003788627087267e+000	-1.256357777015824e+001
1	 1.085477973783044e+000	 1.015834456486303e+000	-1.308364077378760e+001
1	 1.074194722594640e+000	 1.027758632313554e+000	-1.359461266291673e+001
1	 1.062779086396438e+000	 1.039558917112827e+000	-1.409687304929553e+001
1	 1.051233117675104e+000	 1.051233117675104e+000	-1.459080115845911e+001
1	 1.039558917112827e+000	 1.062779086396438e+000	-1.507677556603929e+001
1	 1.027758632313553e+000	 1.074194722594640e+000	-1.555517393931284e+001
1	 1.015834456486303e+000	 1.085477973783043e+000	-1.602637278435602e+001
1	 1.003788627087267e+000	 1.096626836899727e+000	-1.649074719915383e+001
1	 9.916234244224458e-001	 1.107639359490663e+000	-1.694867063299899e+001
1	 1.112605850980706e+000	 9.960697175710029e-001	-1.191745206233012e+001
1	 1.101543949862671e+000	 1.008289467210072e+000	-1.244160392210974e+001
1	 1.090345096888051e+000	 1.020389308331332e+000	-1.295621008473509e+001
1	 1.079011253265406e+000	 1.032366950404211e+000	-1.346167910377466e+001
1	 1.067544431038105e+000	 1.044220145940081e+000	-1.395842020174515e+001
1	 1.055946691895879e+000	 1.055946691895878e+000	-1.444684295282035e+001
1	 1.044220145940081e+000	 1.067544431038105e+000	-1.492735696900494e+001
1	 1.032366950404211e+000	 1.079011253265406e+000	-1.540037159026127e+001
1	 1.020389308331332e+000	 1.090345096888051e+000	-1.586629557906509e+001
1	 1.008289467210072e+000	 1.101543949862671e+000	-1.632553681985040e+001
1	 9.960697175710030e-001	 1.112605850980706e+000	-1.677850202378905e+001
1	 1.117572342470817e+000	 1.000516010719327e+000	-1.179675349027235e+001
1	 1.106461062825644e+000	 1.012790307332672e+000	-1.231544721802603e+001
1	 1.095212219993053e+000	 1.024944160176184e+000	-1.282450693837211e+001
1	 1.083827783936134e+000	 1.036975268494720e+000	-1.332437226926426e+001
1	 1.072309775679705e+000	 1.048881374767212e+000	-1.381548452962188e+001
1	 1.060660266116558e+000	 1.060660266116558e+000	-1.429828636837854e+001
1	 1.048881374767212e+000	 1.072309775679705e+000	-1.477322139516247e+001
1	 1.036975268494720e+000	 1.083827783936134e+000	-1.524073381321575e+001
1	 1.024944160176184e+000	 1.095212219993053e+000	-1.570126805514529e+001
1	 1.012790307332672e+000	 1.106461062825644e+000	-1.615526842209127e+001
1	 1.000516010719327e+000	 1.117572342470816e+000	-1.660317872688476e+001
1	 1.122538833961011e+000	 1.004962303867566e+000	-1.167195785840129e+001
1	 1.111378175788677e+000	 1.017291147455212e+000	-1.218510466494591e+001
1	 1.100079343098097e+000	 1.029499012020994e+000	-1.268851788285603e+001
1	 1.088644314606888e+000	 1.041583586585202e+000	-1.318267040033869e+001
1	 1.077075120321317e+000	 1.053542603594330e+000	-1.366803808190201e+001
1	 1.065373840337237e+000	 1.065373840337237e+000	-1.414509933886440e+001
1	 1.053542603594330e+000	 1.077075120321317e+000	-1.461433469922690e+001
1	 1.041583586585202e+000	 1.088644314606888e+000	-1.507622637763778e+001
1	 1.029499012020994e+000	 1.100079343098096e+000	-1.553125784617676e+001
1	 1.017291147455212e+000	 1.111378175788677e+000	-1.597991340668143e+001
1	 1.004962303867566e+000	 1.122538833961010e+000	-1.642267776532830e+001
1	 1.127505325451305e+000	 1.009408597015872e+000	-1.154307464862611e+001
1	 1.116295288751804e+000	 1.021791987577834e+000	-1.205057332264437e+001
1	 1.104946466203231e+000	 1.034053863865896e+000	-1.254822970335898e+001
1	 1.093460845277733e+000	 1.046191904675780e+000	-1.303655212133401e+001
1	 1.081840464963022e+000	 1.058203832421545e+000	-1.351605340004300e+001
1	 1.070087414558012e+000	 1.070087414558012e+000	-1.398725036299808e+001
1	 1.058203832421546e+000	 1.081840464963022e+000	-1.445066333753355e+001
1	 1.046191904675780e+000	 1.093460845277733e+000	-1.490681565611082e+001
1	 1.034053863865896e+000	 1.104946466203231e+000	-1.535623315601669e+001
1	 1.021791987577833e+000	 1.116295288751804e+000	-1.579944367832630e+001
1	 1.009408597015872e+000	 1.127505325451305e+000	-1.623697656700221e+001
1	 1.132471816941716e+000	 1.013854890164394e+000	-1.141011317652431e+001
1	 1.121212401715056e+000	 1.026292827700682e+000	-1.191185030247492e+001
1	 1.109813589308504e+000	 1.038608715711025e+000	-1.240362941687030e+001
1	 1.098277375948733e+000	 1.050800222766579e+000	-1.288599643156171e+001
1	 1.086605809604901e+000	 1.062865061248969e+000	-1.335950350718479e+001
1	 1.074800988778979e+000	 1.074800988778979e+000	-1.382470849210017e+001
1	 1.062865061248969e+000	 1.086605809604901e+000	-1.428217435484575e+001
1	 1.050800222766579e+000	 1.098277375948733e+000	-1.473246861111572e+001
1	 1.038608715711025e+000	 1.109813589308504e+000	-1.517616274629498e+001
1	 1.026292827700681e+000	 1.121212401715056e+000	-1.561383163458334e+001
1	 1.013854890164394e+000	 1.132471816941716e+000	-1.604605295575245e+001
1	 1.137438308432261e+000	 1.018301183313283e+000	-1.127308259497306e+001
1	 1.126129514678464e+000	 1.030793667823899e+000	-1.176893276624439e+001
1	 1.114680712413962e+000	 1.043163567556515e+000	-1.225470426713590e+001
1	 1.103093906619952e+000	 1.055408540857721e+000	-1.273098269712289e+001
1	 1.091371154247033e+000	 1.067526290076710e+000	-1.319836189763358e+001
1	 1.079514563000233e+000	 1.079514563000233e+000	-1.365744331802737e+001
1	 1.067526290076710e+000	 1.091371154247033e+000	-1.410883537150846e+001
1	 1.055408540857721e+000	 1.103093906619952e+000	-1.455315278215189e+001
1	 1.043163567556515e+000	 1.114680712413962e+000	-1.499101592423699e+001
1	 1.030793667823899e+000	 1.126129514678465e+000	-1.542305015510184e+001
1	 1.018301183313283e+000	 1.137438308432261e+000	-1.584988514274317e+001
1	 1.142404799922955e+000	 1.022747476462686e+000	-1.113199189768605e+001
1	 1.131046627642062e+000	 1.035294507947630e+000	-1.162181792511592e+001
1	 1.119547835519656e+000	 1.047718419402501e+000	-1.210144171972913e+001
1	 1.107910437291455e+000	 1.060016858949330e+000	-1.257149064293492e+001
1	 1.096136498889500e+000	 1.072187518904880e+000	-1.303260252662019e+001
1	 1.084228137221870e+000	 1.084228137221870e+000	-1.348542496142295e+001
1	 1.072187518904880e+000	 1.096136498889500e+000	-1.393061457093694e+001
1	 1.060016858949330e+000	 1.107910437291456e+000	-1.436883627319450e+001
1	 1.047718419402502e+000	 1.119547835519656e+000	-1.480076253080372e+001
1	 1.035294507947629e+000	 1.131046627642062e+000	-1.522707259114324e+001
1	 1.022747476462687e+000	 1.142404799922955e+000	-1.564845171803842e+001
1	 9.782845449738733e-001	 1.092739885020771e+000	-1.742848436984879e+001
1	 9.661656800800127e-001	 1.103469489556340e+000	-1.788752862208627e+001
1	 9.539336353744131e-001	 1.114060848639436e+000	-1.832753962256949e+001
1	 9.415907806359750e-001	 1.124512192603938e+000	-1.874943918283034e+001
1	 9.291395220466797e-001	 1.134821805946257e+000	-1.915416119591697e+001
1	 9.165823006445141e-001	 1.144988028244612e+000	-1.954265063073538e+001
1	 9.039215907491438e-001	 1.155009255025385e+000	-1.991586251721150e+001
1	 8.911598983624566e-001	 1.164883938575646e+000	-2.027476092413452e+001
1	 8.782997595461003e-001	 1.174610588701024e+000	-2.062031793154494e+001
1	 8.653437387781996e-001	 1.184187773428212e+000	-2.095351259953251e+001
1	 8.522944272914295e-001	 1.193614119651469e+000	-2.127532993530016e+001
1	 9.827308381240306e-001	 1.097706376510712e+000	-1.727363777532007e+001
1	 9.705568931145264e-001	 1.108484746988168e+000	-1.772825952049825e+001
1	 9.582692538922897e-001	 1.119124243688950e+000	-1.816408203445290e+001
1	 9.458703010068273e-001	 1.129623088903829e+000	-1.858199375272001e+001
1	 9.333624515761814e-001	 1.139979559332279e+000	-1.898289421761274e+001
1	 9.207481577328164e-001	 1.150191987005923e+000	-1.936769313883679e+001
1	 9.080299050421432e-001	 1.160258760158835e+000	-1.973730944626176e+001
1	 8.952102108957879e-001	 1.170178324043752e+000	-2.009267033655573e+001
1	 8.822916228817612e-001	 1.179949181693395e+000	-2.043471031539705e+001
1	 8.692767171336987e-001	 1.189569894626156e+000	-2.076437023697537e+001
1	 8.561680966613903e-001	 1.199039083495551e+000	-2.108259634248151e+001
1	 9.871771312735052e-001	 1.102672868000670e+000	-1.711370794543013e+001
1	 9.749481061483157e-001	 1.113500004420100e+000	-1.756379550292632e+001
1	 9.626048724094065e-001	 1.124187638738652e+000	-1.799531201397498e+001
1	 9.501498213768941e-001	 1.134733985203993e+000	-1.840910812531593e+001
1	 9.375853811048776e-001	 1.145137312718654e+000	-1.880604431427495e+001
1	 9.249140148203022e-001	 1.155395945767666e+000	-1.918699002579782e+001
1	 9.121382193343224e-001	 1.165508265292791e+000	-1.955282280346835e+001
1	 8.992605234283048e-001	 1.175472709512434e+000	-1.990442741604592e+001
1	 8.862834862166201e-001	 1.185287774686401e+000	-2.024269498105745e+001
1	 8.732096954884191e-001	 1.194952015824790e+000	-2.056852208697481e+001
1	 8.600417660306018e-001	 1.204464047340367e+000	-2.088280991549734e+001
1	 9.916234244224458e-001	 1.107639359490663e+000	-1.694867063299899e+001
1	 9.793393191815333e-001	 1.118515261852135e+000	-1.739411776551225e+001
1	 9.669404909259189e-001	 1.129251033788531e+000	-1.782121333689511e+001
1	 9.544293417463267e-001	 1.139844881504405e+000	-1.823076585521639e+001
1	 9.418083106329169e-001	 1.150295066105347e+000	-1.862359208412530e+001
1	 9.290798719071128e-001	 1.160599904529793e+000	-1.900051626637340e+001
1	 9.162465336258150e-001	 1.170757770427195e+000	-1.936236934364248e+001
1	 9.033108359601298e-001	 1.180767094981621e+000	-1.970998817401545e+001
1	 8.902753495507886e-001	 1.190626367679964e+000	-2.004421474842237e+001
1	 8.771426738424565e-001	 1.200334137024022e+000	-2.036589540738268e+001
1	 8.639154353991481e-001	 1.209889011185817e+000	-2.067588005935597e+001
1	 9.960697175710030e-001	 1.112605850980706e+000	-1.677850202378905e+001
1	 9.837305322143328e-001	 1.123530519284278e+000	-1.721920784014728e+001
1	 9.712761094419803e-001	 1.134314428838575e+000	-1.764177006866231e+001
1	 9.587088621152785e-001	 1.144955777805041e+000	-1.804695079065833e+001
1	 9.460312401604467e-001	 1.155452819492322e+000	-1.843551847181069e+001
1	 9.332457289933900e-001	 1.165803863292257e+000	-1.880824728215273e+001
1	 9.203548479167534e-001	 1.176007275561987e+000	-1.916591641519938e+001
1	 9.073611484913843e-001	 1.186061480451242e+000	-1.950930940730597e+001
1	 8.942672128843766e-001	 1.195964960674002e+000	-1.983921345835801e+001
1	 8.810756521959097e-001	 1.205716258223763e+000	-2.015641875488544e+001
1	 8.677891047671119e-001	 1.215313975031800e+000	-2.046171779666987e+001
1	 1.000516010719327e+000	 1.117572342470816e+000	-1.660317872688476e+001
1	 9.881217452468672e-001	 1.128545776716530e+000	-1.703904758701190e+001
1	 9.756117279577450e-001	 1.139377823888773e+000	-1.745696655797783e+001
1	 9.629883824839003e-001	 1.150066674105876e+000	-1.785764706699175e+001
1	 9.502541696876153e-001	 1.160610572879541e+000	-1.824180476070562e+001
1	 9.374115860792749e-001	 1.171007822055010e+000	-1.861015893162984e+001
1	 9.244631622072710e-001	 1.181256780697107e+000	-1.896343194696824e+001
1	 9.114114610221924e-001	 1.191355865921228e+000	-1.930234868073718e+001
1	 8.982590762174958e-001	 1.201303553668436e+000	-1.962763595001438e+001
1	 8.850086305488756e-001	 1.211098379423924e+000	-1.994002195614502e+001
1	 8.716627741345753e-001	 1.220738938878217e+000	-2.024023573171185e+001
1	 1.004962303867566e+000	 1.122538833961010e+000	-1.642267776532830e+001
1	 9.925129582792914e-001	 1.133561034148894e+000	-1.685361918731374e+001
1	 9.799473464733670e-001	 1.144441218939113e+000	-1.726678743052960e+001
1	 9.672679028523452e-001	 1.155177570406885e+000	-1.766283910032936e+001
1	 9.544770992145704e-001	 1.165768326266968e+000	-1.804243256541893e+001
1	 9.415774431649091e-001	 1.176211780818002e+000	-1.840622750053932e+001
1	 9.285714764975006e-001	 1.186506285832497e+000	-1.875488443535176e+001
1	 9.154617735526760e-001	 1.196650251391511e+000	-1.908906431011813e+001
1	 9.022509395502558e-001	 1.206642146663185e+000	-1.940942803874106e+001
1	 8.889416089014515e-001	 1.216480500624412e+000	-1.971663607970421e+001
1	 8.755364435016215e-001	 1.226163902724966e+000	-2.001134801542617e+001
1	 1.009408597015872e+000	 1.127505325451305e+000	-1.623697656700221e+001
1	 9.969041713117574e-001	 1.138576291581370e+000	-1.666290513621670e+001
1	 9.842829649890004e-001	 1.149504613989582e+000	-1.707121758289149e+001
1	 9.715474232207657e-001	 1.160288466708044e+000	-1.746251158136162e+001
1	 9.587000287414598e-001	 1.170926079654566e+000	-1.783738382449855e+001
1	 9.457433002504339e-001	 1.181415739581187e+000	-1.819642969244626e+001
1	 9.326797907875750e-001	 1.191755790968099e+000	-1.854024293182697e+001
1	 9.195120860829579e-001	 1.201944636862018e+000	-1.886941534570739e+001
1	 9.062428028827680e-001	 1.211980739658170e+000	-1.918453649458744e+001
1	 8.928745872537350e-001	 1.221862621825140e+000	-1.948619340863534e+001
1	 8.794101128683334e-001	 1.231588866571949e+000	-1.977497031136462e+001
1	 1.013854890164394e+000	 1.132471816941716e+000	-1.604605295575246e+001
1	 1.001295384344419e+000	 1.143591549013961e+000	-1.646688823595708e+001
1	 9.886185835047997e-001	 1.154568009040171e+000	-1.687024217658350e+001
1	 9.758269435893138e-001	 1.165399363009330e+000	-1.725664946933726e+001
1	 9.629229582684322e-001	 1.176083833042299e+000	-1.762664079332813e+001
1	 9.499091573359907e-001	 1.186619698344515e+000	-1.798074261958389e+001
1	 9.367881050776269e-001	 1.197005296103851e+000	-1.831947703077258e+001
1	 9.235623986131606e-001	 1.207239022332682e+000	-1.864336155610832e+001
1	 9.102346662151430e-001	 1.217319332653310e+000	-1.895290902136865e+001
1	 8.968075656058231e-001	 1.227244743026015e+000	-1.924862741390839e+001
1	 8.832837822347940e-001	 1.237013830419063e+000	-1.953101976251750e+001
1	 1.018301183313283e+000	 1.137438308432261e+000	-1.584988514274317e+001
1	 1.005686597377429e+000	 1.148606806446669e+000	-1.626555158913920e+001
1	 9.929542020209188e-001	 1.159631404090867e+000	-1.666384663228786e+001
1	 9.801064639581413e-001	 1.170510259310717e+000	-1.704523798619874e+001
1	 9.671458877956345e-001	 1.181241586430130e+000	-1.741018603721027e+001
1	 9.540750144217213e-001	 1.191823657107940e+000	-1.775914379393212e+001
1	 9.408964193677897e-001	 1.202254801239697e+000	-1.809255685761691e+001
1	 9.276127111434064e-001	 1.212533407803431e+000	-1.841086341258548e+001
1	 9.142265295474914e-001	 1.222657925648525e+000	-1.871449423627879e+001
1	 9.007405439578132e-001	 1.232626864226947e+000	-1.900387272845662e+001
1	 8.871574516010855e-001	 1.242438794266210e+000	-1.927941495901573e+001
1	 1.022747476462687e+000	 1.142404799922955e+000	-1.564845171803842e+001
1	 1.010077810410943e+000	 1.153622063879497e+000	-1.605887859220616e+001
1	 9.972898205375119e-001	 1.164694799141658e+000	-1.645201662421465e+001
1	 9.843859843274009e-001	 1.175621155612181e+000	-1.682826261087343e+001
1	 9.713688173232153e-001	 1.186399339818024e+000	-1.718800242462911e+001
1	 9.582408715077669e-001	 1.197027615871412e+000	-1.753161111852751e+001
1	 9.450047336581959e-001	 1.207504306375576e+000	-1.785945305729453e+001
1	 9.316630236738184e-001	 1.217827793274197e+000	-1.817188207379219e+001
1	 9.182183928799237e-001	 1.227996518643735e+000	-1.846924165003773e+001
1	 9.046735223098031e-001	 1.238008985427847e+000	-1.875186512191928e+001
1	 8.910311209672918e-001	 1.247863758113289e+000	-1.902007590667370e+001
1	 8.522944272914295e-001	 1.193614119651469e+000	-2.127532993530016e+001
1	 8.391544411107291e-001	 1.202888313383635e+000	-2.158144522297761e+001
1	 8.259264185271869e-001	 1.212009099263907e+000	-2.186759658162037e+001
1	 8.126130192780124e-001	 1.220975282037234e+000	-2.213486109097088e+001
1	 7.992169231221942e-001	 1.229785727312124e+000	-2.238430724505982e+001
1	 7.857408281201320e-001	 1.238439361924098e+000	-2.261699427632182e+001
1	 7.721874489079046e-001	 1.246935174241497e+000	-2.283397150706434e+001
1	 7.585595149683921e-001	 1.255272214413711e+000	-2.303627772886302e+001
1	 7.448597689014560e-001	 1.263449594561992e+000	-2.322494061037787e+001
1	 7.310909646953698e-001	 1.271466488913099e+000	-2.340097613401009e+001
1	 7.172558660016536e-001	 1.279322133876119e+000	-2.356538806174297e+001
1	 8.561680966613903e-001	 1.199039083495551e+000	-2.108259634248151e+001
1	 8.429683893795676e-001	 1.208355428342368e+000	-2.138499747574842e+001
1	 8.296802455703222e-001	 1.217517668100204e+000	-2.166739357581476e+001
1	 8.163063370593352e-001	 1.226524602081588e+000	-2.193104767869327e+001
1	 8.028493557850693e-001	 1.235375090739231e+000	-2.217721755648323e+001
1	 7.893120120705768e-001	 1.244068056031136e+000	-2.240715467658846e+001
1	 7.756970328899254e-001	 1.252602481727787e+000	-2.262210318598843e+001
1	 7.620071601314623e-001	 1.260977413661516e+000	-2.282329892192844e+001
1	 7.482451488601336e-001	 1.269191959918177e+000	-2.301196845031055e+001
1	 7.344137655810579e-001	 1.277245290971399e+000	-2.318932813298927e+001
1	 7.205157865065180e-001	 1.285136639759758e+000	-2.335658322508412e+001
1	 8.600417660306018e-001	 1.204464047340367e+000	-2.088280991549734e+001
1	 8.467823376476981e-001	 1.213822543301870e+000	-2.118112332536758e+001
1	 8.334340726127945e-001	 1.223026236937295e+000	-2.145939652166086e+001
1	 8.199996548400456e-001	 1.232073922126751e+000	-2.171908737252651e+001
1	 8.064817884473832e-001	 1.240964454167154e+000	-2.196165225388651e+001
1	 7.928831960205115e-001	 1.249696750138987e+000	-2.218854462105919e+001
1	 7.792066168714839e-001	 1.258269789214880e+000	-2.240121360255920e+001
1	 7.654548052941126e-001	 1.266682612910106e+000	-2.260110261828011e+001
1	 7.516305288184261e-001	 1.274934325275120e+000	-2.278964802419651e+001
1	 7.377365664663842e-001	 1.283024093030423e+000	-2.296827778561883e+001
1	 7.237757070110324e-001	 1.290951145644078e+000	-2.313841018094856e+001
1	 8.639154353991481e-001	 1.209889011185817e+000	-2.067588005935597e+001
1	 8.505962859151864e-001	 1.219289658262030e+000	-2.096971548758811e+001
1	 8.371878996546549e-001	 1.228534805775061e+000	-2.124348592554106e+001
1	 8.236929726201783e-001	 1.237623242172595e+000	-2.149885282067332e+001
1	 8.101142211091573e-001	 1.246553817595757e+000	-2.173748034611218e+001
1	 7.964543799699440e-001	 1.255325444247508e+000	-2.196103356214239e+001
1	 7.827162008525765e-001	 1.263937096702628e+000	-2.217117659641567e+001
1	 7.689024504563311e-001	 1.272387812159327e+000	-2.236957084599287e+001
1	 7.550159087763153e-001	 1.280676690632666e+000	-2.255787320425241e+001
1	 7.410593673513299e-001	 1.288802895090015e+000	-2.273773431559678e+001
1	 7.270356275151803e-001	 1.296765651528928e+000	-2.291079686078965e+001
1	 8.677891047671119e-001	 1.215313975031800e+000	-2.046171779666987e+001
1	 8.544102341821004e-001	 1.224756773222739e+000	-2.075066859375950e+001
1	 8.409417266959556e-001	 1.234043374613380e+000	-2.101954442743606e+001
1	 8.273862903997703e-001	 1.243172562218991e+000	-2.127021894524543e+001
1	 8.137466537704129e-001	 1.252143181024902e+000	-2.150457318089432e+001
1	 8.000255639188816e-001	 1.260954138356556e+000	-2.172449328321680e+001
1	 7.862257848331998e-001	 1.269604404190879e+000	-2.193186825983250e+001
1	 7.723500956181049e-001	 1.278093011409026e+000	-2.212858773956952e+001
1	 7.584012887337839e-001	 1.286419055990660e+000	-2.231653975764175e+001
1	 7.443821682358759e-001	 1.294581697150023e+000	-2.249760856746248e+001
1	 7.302955480189454e-001	 1.302580157414160e+000	-2.267367248286873e+001
1	 8.716627741345753e-001	 1.220738938878217e+000	-2.024023573171185e+001
1	 8.582241824485075e-001	 1.230223888183886e+000	-2.052387914826227e+001
1	 8.446955537367479e-001	 1.239551943452133e+000	-2.078745675351653e+001
1	 8.310796081788571e-001	 1.248721882265810e+000	-2.103306289173695e+001
1	 8.173790864311703e-001	 1.257732544454452e+000	-2.126280439288744e+001
1	 8.035967478673326e-001	 1.266582832465985e+000	-2.147879784683840e+001
1	 7.897353688133502e-001	 1.275271711679485e+000	-2.168316688766596e+001
1	 7.757977407794223e-001	 1.283798210659050e+000	-2.187803949313601e+001
1	 7.617866686908141e-001	 1.292161421348948e+000	-2.206554530436933e+001
1	 7.477049691200033e-001	 1.300360499210294e+000	-2.224781297058076e+001
1	 7.335554685223118e-001	 1.308394663299624e+000	-2.242696752366245e+001
1	 8.755364435016215e-001	 1.226163902724966e+000	-2.001134801542617e+001
1	 8.620381307144749e-001	 1.235691003145361e+000	-2.028924548707418e+001
1	 8.484493807770829e-001	 1.245060512291201e+000	-2.054710966999295e+001
1	 8.347729259574741e-001	 1.254271202312922e+000	-2.078726397983962e+001
1	 8.210115190914508e-001	 1.263321907884269e+000	-2.101204985307621e+001
1	 8.071679318153047e-001	 1.272211526575652e+000	-2.122382354432016e+001
1	 7.932449527930248e-001	 1.280939019168298e+000	-2.142495292862955e+001
1	 7.792453859402715e-001	 1.289503409909248e+000	-2.161781431487916e+001
1	 7.651720486473885e-001	 1.297903786707376e+000	-2.180478927629340e+001
1	 7.510277700036927e-001	 1.306139301270674e+000	-2.198826150408440e+001
1	 7.368153890252626e-001	 1.314209169185171e+000	-2.217061369002852e+001
1	 8.794101128683334e-001	 1.231588866571949e+000	-1.977497031136462e+001
1	 8.658520789800703e-001	 1.241158118107053e+000	-2.004666773742994e+001
1	 8.522032078170128e-001	 1.250569081130463e+000	-2.029839193818485e+001
1	 8.384662437356580e-001	 1.259820522360200e+000	-2.053270365555757e+001
1	 8.246439517512761e-001	 1.268911271314218e+000	-2.075218761952160e+001
1	 8.107391157628058e-001	 1.277840220685413e+000	-2.095944884664563e+001
1	 7.967545367722192e-001	 1.286606326657166e+000	-2.115710893785578e+001
1	 7.826930311006399e-001	 1.295208609159465e+000	-2.134780238268856e+001
1	 7.685574286034899e-001	 1.303646152065790e+000	-2.153417287722008e+001
1	 7.543505708869249e-001	 1.311918103331010e+000	-2.171886966273976e+001
1	 7.400753095277824e-001	 1.320023675070649e+000	-2.190454389210766e+001
1	 8.832837822347940e-001	 1.237013830419063e+000	-1.953101976251750e+001
1	 8.696660272453607e-001	 1.246625233068853e+000	-1.979604777854316e+001
1	 8.559570348565886e-001	 1.256077649969800e+000	-2.004119427077324e+001
1	 8.421595615134444e-001	 1.265369842407514e+000	-2.026926544458243e+001
1	 8.282763844106669e-001	 1.274500634744160e+000	-2.048309788940393e+001
1	 8.143102997098430e-001	 1.283468914795125e+000	-2.068555435667389e+001
1	 8.002641207509306e-001	 1.292273634145942e+000	-2.087951953070847e+001
1	 7.861406762605154e-001	 1.300913808409548e+000	-2.106789580096492e+001
1	 7.719428085591005e-001	 1.309388517424035e+000	-2.125359904404960e+001
1	 7.576733717696806e-001	 1.317696905391148e+000	-2.143955442371370e+001
1	 7.433352300298545e-001	 1.325838180955911e+000	-2.162869221693851e+001
1	 8.871574516010855e-001	 1.242438794266210e+000	-1.927941495901573e+001
1	 8.734799755104138e-001	 1.252092348030650e+000	-1.953728920335749e+001
1	 8.597108618958619e-001	 1.261586218809091e+000	-1.977540928919830e+001
1	 8.458528792908694e-001	 1.270919162454734e+000	-1.999683490688924e+001
1	 8.319088170696445e-001	 1.280089998173959e+000	-2.020466295232077e+001
1	 8.178814836564250e-001	 1.289097608904642e+000	-2.040202276259641e+001
1	 8.037737047291552e-001	 1.297940941634475e+000	-2.059207133780335e+001
1	 7.895883214198862e-001	 1.306619007659345e+000	-2.077798855856117e+001
1	 7.753281885142023e-001	 1.315130882781956e+000	-2.096297240893905e+001
1	 7.609961726519412e-001	 1.323475707450937e+000	-2.115023421420979e+001
1	 7.465951505314624e-001	 1.331652686840806e+000	-2.134299390276332e+001
1	 8.910311209672918e-001	 1.247863758113289e+000	-1.902007590667370e+001
1	 8.772939237752967e-001	 1.257559462992334e+000	-1.927029728129496e+001
1	 8.634646889348848e-001	 1.267094787648218e+000	-1.950093148216841e+001
1	 8.495461970679685e-001	 1.276468482501733e+000	-1.971529959251750e+001
1	 8.355412497282301e-001	 1.285679361603478e+000	-1.991676714480494e+001
1	 8.214526676025593e-001	 1.294726303013822e+000	-2.010873879260783e+001
1	 8.072832887068894e-001	 1.303608249122617e+000	-2.029465296120217e+001
1	 7.930359665787400e-001	 1.312324206908703e+000	-2.047797648782007e+001
1	 7.787135684687786e-001	 1.320873248139400e+000	-2.066219926245231e+001
1	 7.643189735336878e-001	 1.329254509510221e+000	-2.085082887994802e+001
1	 7.498550710325905e-001	 1.337467192725185e+000	-2.104738531400494e+001
1	 7.172558660016536e-001	 1.279322133876119e+000	-2.356538806174297e+001
1	 7.033593338589055e-001	 1.287014686416663e+000	-2.373761794523006e+001
1	 6.894020752245480e-001	 1.294544698864472e+000	-2.393481231836436e+001
1	 6.753868719443947e-001	 1.301911595370602e+000	-2.415443138950489e+001
1	 6.613165086713274e-001	 1.309114861985427e+000	-2.439391173233518e+001
1	 6.471937711893183e-001	 1.316154046458454e+000	-2.465067013354383e+001
1	 6.330214447531305e-001	 1.323028757985271e+000	-2.492210742289811e+001
1	 6.188023124455789e-001	 1.329738666902602e+000	-2.520561227848285e+001
1	 6.045391535541663e-001	 1.336283504332451e+000	-2.549856500005047e+001
1	 5.902347419688699e-001	 1.342663061776438e+000	-2.579834124362008e+001
1	 5.758918446027709e-001	 1.348877190661454e+000	-2.610231571067910e+001
1	 7.205157865065180e-001	 1.285136639759758e+000	-2.335658322508412e+001
1	 7.065560947684824e-001	 1.292864154872291e+000	-2.353323238138780e+001
1	 6.925354005374996e-001	 1.300428391149066e+000	-2.373630497564648e+001
1	 6.784564983028587e-001	 1.307828770123901e+000	-2.396319816127000e+001
1	 6.643221853736750e-001	 1.315064775511267e+000	-2.421128276999426e+001
1	 6.501352601952951e-001	 1.322135953005187e+000	-2.447790733019368e+001
1	 6.358985206814513e-001	 1.329041910025039e+000	-2.476040206928532e+001
1	 6.216147625640549e-001	 1.335782315409221e+000	-2.505608289261001e+001
1	 6.072867777624573e-001	 1.342356899057681e+000	-2.536225533135515e+001
1	 5.929173527739515e-001	 1.348765451524407e+000	-2.567621845228260e+001
1	 5.785092670872235e-001	 1.355007823561020e+000	-2.599526872224009e+001
1	 7.237757070110324e-001	 1.290951145644078e+000	-2.313841018094856e+001
1	 7.097528556777063e-001	 1.298713623328551e+000	-2.331958302667123e+001
1	 6.956687258500837e-001	 1.306312083434239e+000	-2.352867566387653e+001
1	 6.815261246609315e-001	 1.313745944877724e+000	-2.376301121575616e+001
1	 6.673278620756021e-001	 1.321014689037577e+000	-2.401988343569125e+001
1	 6.530767492008196e-001	 1.328117859552338e+000	-2.429656092215134e+001
1	 6.387755966092873e-001	 1.335055062065178e+000	-2.459029131962266e+001
1	 6.244272126820184e-001	 1.341825963916171e+000	-2.489830549750653e+001
1	 6.100344019702138e-001	 1.348430293783214e+000	-2.521782169911857e+001
1	 5.955999635784846e-001	 1.354867841272663e+000	-2.554604965311076e+001
1	 5.811266895711268e-001	 1.361138456460870e+000	-2.588019463987240e+001
1	 7.270356275151803e-001	 1.296765651528928e+000	-2.291079686078965e+001
1	 7.129496165865689e-001	 1.304563091785300e+000	-2.309661604735707e+001
1	 6.988020511623028e-001	 1.312195775719856e+000	-2.331188469682015e+001
1	 6.845957510186306e-001	 1.319663119631948e+000	-2.355384108912444e+001
1	 6.703335387771430e-001	 1.326964602564244e+000	-2.381969072786711e+001
1	 6.560182382059427e-001	 1.334099766099807e+000	-2.410661077755001e+001
1	 6.416526725367079e-001	 1.341068214105600e+000	-2.441175448903532e+001
1	 6.272396627995536e-001	 1.347869612423378e+000	-2.473225560464976e+001
1	 6.127820261775338e-001	 1.354503688508985e+000	-2.506523273456338e+001
1	 5.982825743825795e-001	 1.360970231021149e+000	-2.540779369628625e+001
1	 5.837441120545978e-001	 1.367269089360954e+000	-2.575703980934569e+001
1	 7.302955480189454e-001	 1.302580157414160e+000	-2.267367248286873e+001
1	 7.161463774950611e-001	 1.310412560242396e+000	-2.286427857094021e+001
1	 7.019353764741606e-001	 1.318079468005786e+000	-2.308589309685451e+001
1	 6.876653773759736e-001	 1.325580294386450e+000	-2.333565884362311e+001
1	 6.733392154783308e-001	 1.332914516091158e+000	-2.361068205566352e+001
1	 6.589597272107157e-001	 1.340081672647496e+000	-2.390803712398409e+001
1	 6.445297484637815e-001	 1.347081366146220e+000	-2.422477126198631e+001
1	 6.300521129167457e-001	 1.353913260930767e+000	-2.455790916276899e+001
1	 6.155296503845164e-001	 1.360577083234930e+000	-2.490445762901344e+001
1	 6.009651851863458e-001	 1.367072620769809e+000	-2.526141016673676e+001
1	 5.863615345377534e-001	 1.373399722261223e+000	-2.562575153444611e+001
1	 7.335554685223118e-001	 1.308394663299624e+000	-2.242696752366245e+001
1	 7.193431384031745e-001	 1.316262028699694e+000	-2.262251866477721e+001
1	 7.050687017856593e-001	 1.323963160291892e+000	-2.285066257922215e+001
1	 6.907350037329775e-001	 1.331497469141105e+000	-2.310843605589794e+001
1	 6.763448921792002e-001	 1.338864429618206e+000	-2.339283522979812e+001
1	 6.619012162151903e-001	 1.346063579195304e+000	-2.370082054052406e+001
1	 6.474068243905761e-001	 1.353094518186951e+000	-2.402932168406733e+001
1	 6.328645630336790e-001	 1.359956909438264e+000	-2.437524254813069e+001
1	 6.182772745912598e-001	 1.366650477960983e+000	-2.473546612144930e+001
1	 6.036477959898939e-001	 1.373175010518588e+000	-2.510685936780913e+001
1	 5.889789570207107e-001	 1.379530355161627e+000	-2.548627805568933e+001
1	 7.368153890252626e-001	 1.314209169185171e+000	-2.217061369002852e+001
1	 7.225398993109002e-001	 1.322111497157053e+000	-2.237128531529437e+001
1	 7.082020270968021e-001	 1.329846852578039e+000	-2.260615553670481e+001
1	 6.938046300896604e-001	 1.337414643895790e+000	-2.287214480561302e+001
1	 6.793505688797845e-001	 1.344814343145278e+000	-2.316612845368003e+001
1	 6.648427052194174e-001	 1.352045485743133e+000	-2.348494194993868e+001
1	 6.502839003171606e-001	 1.359107670227705e+000	-2.382538615401229e+001
1	 6.356770131504380e-001	 1.366000557945791e+000	-2.418423255507939e+001
1	 6.210248987978638e-001	 1.372723872687081e+000	-2.455822848639295e+001
1	 6.063304067933328e-001	 1.379277400267429e+000	-2.494410230537767e+001
1	 5.915963795035859e-001	 1.385660988062116e+000	-2.533856852959739e+001
1	 7.400753095277824e-001	 1.320023675070649e+000	-2.190454389210767e+001
1	 7.257366602182296e-001	 1.327960965614328e+000	-2.211052840774527e+001
1	 7.113353524075918e-001	 1.335730544864097e+000	-2.235233502469994e+001
1	 6.968742564460391e-001	 1.343331818650383e+000	-2.262675766437195e+001
1	 6.823562455801178e-001	 1.350764256672261e+000	-2.293054031476170e+001
1	 6.677841942234478e-001	 1.358027392290884e+000	-2.326038261112824e+001
1	 6.531609762436034e-001	 1.365120822268396e+000	-2.361294541591760e+001
1	 6.384894632671081e-001	 1.372044206453275e+000	-2.398485638683085e+001
1	 6.237725230044265e-001	 1.378797267413160e+000	-2.437271552211197e+001
1	 6.090130175967730e-001	 1.385379790016275e+000	-2.477310067237033e+001
1	 5.942138019864961e-001	 1.391791620962640e+000	-2.518257300852606e+001
1	 7.433352300298545e-001	 1.325838180955911e+000	-2.162869221693851e+001
1	 7.289334211251546e-001	 1.333810434071376e+000	-2.184019870650224e+001
1	 7.144686777180312e-001	 1.341614237149928e+000	-2.208916474669244e+001
1	 6.999438828021309e-001	 1.349248993404759e+000	-2.237224768493082e+001
1	 6.853619222802339e-001	 1.356714170199044e+000	-2.268604977611795e+001
1	 6.707256832273333e-001	 1.364009298838458e+000	-2.302712411175171e+001
1	 6.560380521699729e-001	 1.371133974308938e+000	-2.339198055167124e+001
1	 6.413019133837733e-001	 1.378087854960640e+000	-2.377709164650627e+001
1	 6.265201472110471e-001	 1.384870662139153e+000	-2.417889853913621e+001
1	 6.116956284003238e-001	 1.391482179765073e+000	-2.459381683370478e+001
1	 5.968312244695583e-001	 1.397922253863151e+000	-2.501824242101934e+001
1	 7.465951505314624e-001	 1.331652686840806e+000	-2.134299390276332e+001
1	 7.321301820316656e-001	 1.339659902528057e+000	-2.156024783586396e+001
1	 7.176020030281235e-001	 1.347497929435399e+000	-2.181660904010421e+001
1	 7.030135091579541e-001	 1.355166168158795e+000	-2.210858839069453e+001
1	 6.883675989801662e-001	 1.362664083725515e+000	-2.243263616824582e+001
1	 6.736671722311249e-001	 1.369991205385755e+000	-2.278514836105084e+001
1	 6.589151280963373e-001	 1.377147126349243e+000	-2.316247297357641e+001
1	 6.441143635005183e-001	 1.384131503467812e+000	-2.356091632840131e+001
1	 6.292677714178239e-001	 1.390944056864996e+000	-2.397674934907433e+001
1	 6.143782392040954e-001	 1.397584569513765e+000	-2.440621381161639e+001
1	 5.994486469528892e-001	 1.404052886763597e+000	-2.484552855268225e+001
1	 7.498550710325905e-001	 1.337467192725185e+000	-2.104738531400494e+001
1	 7.353269429377546e-001	 1.345509370984225e+000	-2.127062826136224e+001
1	 7.207353283378717e-001	 1.353381621720377e+000	-2.153463286251551e+001
1	 7.060831355135254e-001	 1.361083342912368e+000	-2.183575376548496e+001
1	 6.913732756799494e-001	 1.368613997251564e+000	-2.217027918107610e+001
1	 6.766086612348736e-001	 1.375973111932677e+000	-2.253443758285911e+001
1	 6.617922040227657e-001	 1.383160278389225e+000	-2.292440441717084e+001
1	 6.469268136174287e-001	 1.390175151974716e+000	-2.333630880948347e+001
1	 6.320153956248560e-001	 1.397017451590627e+000	-2.376624025372027e+001
1	 6.170608500081973e-001	 1.403686959262295e+000	-2.421025527137088e+001
1	 6.020660694366056e-001	 1.410183519663929e+000	-2.466438402755030e+001
1	 5.758918446027709e-001	 1.348877190661454e+000	-2.610231571067911e+001
1	 5.615110604024198e-001	 1.354926696976587e+000	-2.642092214619033e+001
1	 5.470972883323950e-001	 1.360810606690540e+000	-2.676524457108956e+001
1	 5.326532670450713e-001	 1.366528948891380e+000	-2.713378019016185e+001
1	 5.181817221189331e-001	 1.372081810347265e+000	-2.752503719511523e+001
1	 5.036853646155343e-001	 1.377469334826162e+000	-2.793753471590321e+001
1	 4.891668896682118e-001	 1.382691722374954e+000	-2.836980276212501e+001
1	 4.746289751037728e-001	 1.387749228559429e+000	-2.882038215571056e+001
1	 4.600742800983026e-001	 1.392642163666725e+000	-2.928782445607635e+001
1	 4.455054438681574e-001	 1.397370891871780e+000	-2.977069187890135e+001
1	 4.309250843971381e-001	 1.401935830369417e+000	-3.026755720964805e+001
1	 5.785092670872235e-001	 1.355007823561020e+000	-2.599526872224009e+001
1	 5.640631223710398e-001	 1.361084824819811e+000	-2.632988616383988e+001
1	 5.495838398557151e-001	 1.366995476842530e+000	-2.669113941927770e+001
1	 5.350741706407586e-001	 1.372739808849457e+000	-2.707735940505760e+001
1	 5.205368526923687e-001	 1.378317908003116e+000	-2.748688638558642e+001
1	 5.059746093938342e-001	 1.383729918724910e+000	-2.791807022862563e+001
1	 4.913901481278338e-001	 1.388976041970940e+000	-2.836927064771946e+001
1	 4.767861588918578e-001	 1.394056534468547e+000	-2.883885743226393e+001
1	 4.621653129479082e-001	 1.398971707915129e+000	-2.932521066587791e+001
1	 4.475302615075404e-001	 1.403721928140801e+000	-2.982672093373152e+001
1	 4.328836344532540e-001	 1.408307614236544e+000	-3.034178951947299e+001
1	 5.811266895711268e-001	 1.361138456460870e+000	-2.588019463987240e+001
1	 5.666151843391241e-001	 1.367242952663334e+000	-2.623076762840357e+001
1	 5.520703913785265e-001	 1.373180346994847e+000	-2.660882350534460e+001
1	 5.374950742359757e-001	 1.378950668807896e+000	-2.701253940095457e+001
1	 5.228919832653840e-001	 1.384554005659376e+000	-2.744010035559855e+001
1	 5.082638541717731e-001	 1.389990502624114e+000	-2.788969985555821e+001
1	 4.936134065871612e-001	 1.395260361567428e+000	-2.835954035283152e+001
1	 4.789433426797221e-001	 1.400363840378209e+000	-2.884783376908647e+001
1	 4.642563457973711e-001	 1.405301252164111e+000	-2.935280198395846e+001
1	 4.495550791468633e-001	 1.410072964410428e+000	-2.987267730788071e+001
1	 4.348421845093937e-001	 1.414679398104286e+000	-3.040570293965843e+001
1	 5.837441120545978e-001	 1.367269089360954e+000	-2.575703980934569e+001
1	 5.691672463067919e-001	 1.373401080507109e+000	-2.612350080286008e+001
1	 5.545569429009458e-001	 1.379365217147443e+000	-2.651822234441709e+001
1	 5.399159778308343e-001	 1.385161528766653e+000	-2.693924010359249e+001
1	 5.252471138380813e-001	 1.390790103315994e+000	-2.738459642199250e+001
1	 5.105530989494411e-001	 1.396251086523721e+000	-2.785234110583946e+001
1	 4.958366650462716e-001	 1.401544681164364e+000	-2.834053219967734e+001
1	 4.811005264674270e-001	 1.406671146288360e+000	-2.884723674090316e+001
1	 4.663473786467380e-001	 1.411630796413619e+000	-2.937053149488264e+001
1	 4.515798967861562e-001	 1.416424000680605e+000	-2.990850367041968e+001
1	 4.368007345655730e-001	 1.421051181972596e+000	-3.045925161540238e+001
1	 5.863615345377534e-001	 1.373399722261223e+000	-2.562575153444611e+001
1	 5.717193082741620e-001	 1.379559208351090e+000	-2.600802112394744e+001
1	 5.570434944230900e-001	 1.385550087300276e+000	-2.641926278157635e+001
1	 5.423368814254452e-001	 1.391372388725682e+000	-2.685738286846657e+001
1	 5.276022444105624e-001	 1.397026200972924e+000	-2.732029337794649e+001
1	 5.128423437269288e-001	 1.402511670423682e+000	-2.780591296151118e+001
1	 4.980599235052413e-001	 1.407829000761696e+000	-2.831216793314910e+001
1	 4.832577102550354e-001	 1.412978452198948e+000	-2.883699325132999e+001
1	 4.684384114960552e-001	 1.417960340663596e+000	-2.937833347801424e+001
1	 4.536047144254503e-001	 1.422775036951282e+000	-2.993414371408421e+001
1	 4.387592846218073e-001	 1.427422965841425e+000	-3.050239051065579e+001
1	 5.889789570207107e-001	 1.379530355161627e+000	-2.548627805568933e+001
1	 5.742713702413532e-001	 1.385717336195229e+000	-2.588426517608116e+001
1	 5.595300459450766e-001	 1.391734957453297e+000	-2.631187296230618e+001
1	 5.447577850199193e-001	 1.397583248684935e+000	-2.676689044905626e+001
1	 5.299573749829295e-001	 1.403262298630118e+000	-2.724711146017181e+001
1	 5.151315885043269e-001	 1.408772254323946e+000	-2.775033584479089e+001
1	 5.002831819641477e-001	 1.414113320359370e+000	-2.827437068920110e+001
1	 4.854148940426089e-001	 1.419285758109915e+000	-2.881703150334269e+001
1	 4.705294443453694e-001	 1.424289884913989e+000	-2.937614338096698e+001
1	 4.556295320647759e-001	 1.429126073222402e+000	-2.994954213252627e+001
1	 4.407178346781115e-001	 1.433794749710720e+000	-3.053507538993040e+001
1	 5.915963795035859e-001	 1.385660988062116e+000	-2.533856852959739e+001
1	 5.768234322084858e-001	 1.391875464039482e+000	-2.575217066596479e+001
1	 5.620165974670218e-001	 1.397919827606464e+000	-2.619598230372637e+001
1	 5.471786886143679e-001	 1.403794108644368e+000	-2.666768696590194e+001
1	 5.323125055552846e-001	 1.409498396287527e+000	-2.716497231697980e+001
1	 5.174208332817256e-001	 1.415032838224463e+000	-2.768553158621295e+001
1	 5.025064404230675e-001	 1.420397639957335e+000	-2.822706496407920e+001
1	 4.875720778302100e-001	 1.425593064021210e+000	-2.878728097053531e+001
1	 4.726204771947269e-001	 1.430619429164743e+000	-2.936389779376052e+001
1	 4.576543497041642e-001	 1.435477109493914e+000	-2.995464459817477e+001
1	 4.426763847345017e-001	 1.440166533580434e+000	-3.055726280058881e+001
1	 5.942138019864961e-001	 1.391791620962640e+000	-2.518257300852606e+001
1	 5.793754941756775e-001	 1.398033591883801e+000	-2.561167639787476e+001
1	 5.645031489890432e-001	 1.404104697759729e+000	-2.607152146658540e+001
1	 5.495995922089021e-001	 1.410004968603934e+000	-2.655969787649476e+001
1	 5.346676361277298e-001	 1.415734493945104e+000	-2.707379897719208e+001
1	 5.197100780592155e-001	 1.421293422125183e+000	-2.761142339361102e+001
1	 5.047296988820778e-001	 1.426681959555538e+000	-2.817017658435938e+001
1	 4.897292616179006e-001	 1.431900369932776e+000	-2.874767236913479e+001
1	 4.747115100441745e-001	 1.436948973415803e+000	-2.934153442366087e+001
1	 4.596791673436457e-001	 1.441828145765766e+000	-2.994939774067735e+001
1	 4.446349347909926e-001	 1.446538317450518e+000	-3.056891005560251e+001
1	 5.968312244695583e-001	 1.397922253863151e+000	-2.501824242101934e+001
1	 5.819275561430480e-001	 1.404191719728141e+000	-2.546272224959172e+001
1	 5.669897005112575e-001	 1.410289567913049e+000	-2.593842232799103e+001
1	 5.520204958036332e-001	 1.416215828563587e+000	-2.644284994596111e+001
1	 5.370227667003672e-001	 1.421970591602801e+000	-2.697351581986877e+001
1	 5.219993228368870e-001	 1.427554006026055e+000	-2.752793582191711e+001
1	 5.069529573412557e-001	 1.432966279153926e+000	-2.810363267777821e+001
1	 4.918864454057427e-001	 1.438207675844560e+000	-2.869813763075279e+001
1	 4.768025428937585e-001	 1.443278517667114e+000	-2.930899207068042e+001
1	 4.617039849832511e-001	 1.448179182037901e+000	-2.993374912591065e+001
1	 4.465934848476001e-001	 1.452910101320921e+000	-3.056997521676377e+001
1	 5.994486469528892e-001	 1.404052886763597e+000	-2.484552855268224e+001
1	 5.844796181107165e-001	 1.410349847572454e+000	-2.530524914896312e+001
1	 5.694762520337816e-001	 1.416474438066377e+000	-2.579661795485423e+001
1	 5.544413993986718e-001	 1.422426688523281e+000	-2.631707121851416e+001
1	 5.393778972732991e-001	 1.428206689260570e+000	-2.686404854483065e+001
1	 5.242885676148311e-001	 1.433814589927030e+000	-2.743499474375250e+001
1	 5.091762158006777e-001	 1.439250598752447e+000	-2.802736164482491e+001
1	 4.940436291937987e-001	 1.444514981756508e+000	-2.863860987585171e+001
1	 4.788935757435254e-001	 1.449608061918621e+000	-2.926621060372200e+001
1	 4.637288026230114e-001	 1.454530218310268e+000	-2.990764723554113e+001
1	 4.485520349043394e-001	 1.459281885191594e+000	-3.056041707833782e+001
1	 6.020660694366056e-001	 1.410183519663929e+000	-2.466438402755030e+001
1	 5.870316800788019e-001	 1.416507975416695e+000	-2.513919905107979e+001
1	 5.719628035567330e-001	 1.422659308219669e+000	-2.564604257802685e+001
1	 5.568623029941295e-001	 1.428637548482971e+000	-2.618229098965006e+001
1	 5.417330278466271e-001	 1.434442786918363e+000	-2.674532414394992e+001
1	 5.265778123931376e-001	 1.440075173828057e+000	-2.733252732078362e+001
1	 5.113994742604214e-001	 1.445534918351047e+000	-2.794129313107574e+001
1	 4.962008129821307e-001	 1.450822287668565e+000	-2.856902338790275e+001
1	 4.809846085935219e-001	 1.455937606170270e+000	-2.921313093734429e+001
1	 4.657536202629571e-001	 1.460881254582814e+000	-2.987104144711836e+001
1	 4.505105849612260e-001	 1.465653669062488e+000	-3.054019515114104e+001
1	 4.309250843971381e-001	 1.401935830369417e+000	-3.026755720964805e+001
1	 4.163357969925388e-001	 1.406337448123606e+000	-3.077385726029631e+001
1	 4.017401524837977e-001	 1.410576263888079e+000	-3.128393712751793e+001
1	 3.871406967249308e-001	 1.414652846301055e+000	-3.179475526043265e+001
1	 3.725399496881360e-001	 1.418567813249386e+000	-3.230329306260240e+001
1	 3.579404043837813e-001	 1.422321830855985e+000	-3.280655790249148e+001
1	 3.433445258208177e-001	 1.425915612442830e+000	-3.330158602866273e+001
1	 3.287547500080646e-001	 1.429349917471246e+000	-3.378544538668432e+001
1	 3.141734829967585e-001	 1.432625550461151e+000	-3.425523833500485e+001
1	 2.996030999646699e-001	 1.435743359890963e+000	-3.470810425735656e+001
1	 2.850459443420262e-001	 1.438704237079830e+000	-3.514122206952250e+001
1	 4.328836344532540e-001	 1.408307614236544e+000	-3.034178951947299e+001
1	 4.182280388879797e-001	 1.412729237297768e+000	-3.086564437497263e+001
1	 4.035660573255575e-001	 1.416987318435939e+000	-3.139255618473706e+001
1	 3.889002471908950e-001	 1.421082428873726e+000	-3.191951447862893e+001
1	 3.742331399094486e-001	 1.425015189306273e+000	-3.244353255500810e+001
1	 3.595672398223045e-001	 1.428786268884011e+000	-3.296165043073643e+001
1	 3.449050231418641e-001	 1.432396384170960e+000	-3.347093769607238e+001
1	 3.302489369485938e-001	 1.435846298080185e+000	-3.396849627153176e+001
1	 3.156013982292186e-001	 1.439136818788142e+000	-3.445146306408675e+001
1	 3.009647929566777e-001	 1.442268798629569e+000	-3.491701252035622e+001
1	 2.863414752120758e-001	 1.445243132974653e+000	-3.536235907473117e+001
1	 4.348421845093937e-001	 1.414679398104286e+000	-3.040570293965843e+001
1	 4.201202807835302e-001	 1.419121026472544e+000	-3.094691861318948e+001
1	 4.053919621675101e-001	 1.423398372984390e+000	-3.149052627870424e+001
1	 3.906597976571303e-001	 1.427512011446956e+000	-3.203353746379558e+001
1	 3.759263301311029e-001	 1.431462565363673e+000	-3.257298817785895e+001
1	 3.611940752612288e-001	 1.435250706912494e+000	-3.310594181888264e+001
1	 3.464655204633588e-001	 1.438877155899481e+000	-3.362949198503463e+001
1	 3.317431238896014e-001	 1.442342678689444e+000	-3.414076518821370e+001
1	 3.170293134621681e-001	 1.445648087115373e+000	-3.463692346700457e+001
1	 3.023264859491648e-001	 1.448794237368334e+000	-3.511516689677880e+001
1	 2.876370060825698e-001	 1.451782028869550e+000	-3.557273599495489e+001
1	 4.368007345655730e-001	 1.421051181972596e+000	-3.045925161540238e+001
1	 4.220125226791910e-001	 1.425512815647887e+000	-3.101764534312570e+001
1	 4.072178670096430e-001	 1.429809427533400e+000	-3.157782181003816e+001
1	 3.924193481236122e-001	 1.433941594020722e+000	-3.213680558678235e+001
1	 3.776195203530646e-001	 1.437909941421576e+000	-3.269164633891495e+001
1	 3.628209107005125e-001	 1.441715144941439e+000	-3.323942170758932e+001
1	 3.480260177852528e-001	 1.445357927628415e+000	-3.377724009470951e+001
1	 3.332373108310348e-001	 1.448839059299059e+000	-3.430224334977272e+001
1	 3.184572286955531e-001	 1.452159355442900e+000	-3.481160935589909e+001
1	 3.036881789420779e-001	 1.455319676107329e+000	-3.530255451283785e+001
1	 2.889325369534589e-001	 1.458320924764606e+000	-3.577233611502133e+001
1	 4.387592846218073e-001	 1.427422965841425e+000	-3.050239051065579e+001
1	 4.239047645749627e-001	 1.431904604823757e+000	-3.107779055132151e+001
1	 4.090437718519440e-001	 1.436220482082935e+000	-3.165441763644300e+001
1	 3.941788985903174e-001	 1.440371176595002e+000	-3.222930055106995e+001
1	 3.793127105752993e-001	 1.444357317479972e+000	-3.279949368862960e+001
1	 3.644477461401131e-001	 1.448179582970851e+000	-3.336207992248473e+001
1	 3.495865151074976e-001	 1.451838699357781e+000	-3.391417338139711e+001
1	 3.347314977728411e-001	 1.455335439909068e+000	-3.445292212614545e+001
1	 3.198851439293192e-001	 1.458670623770774e+000	-3.497551072481875e+001
1	 3.050498719353637e-001	 1.461845114846621e+000	-3.547916272461248e+001
1	 2.902280678246939e-001	 1.464859820659907e+000	-3.596114301821342e+001
1	 4.407178346781115e-001	 1.433794749710720e+000	-3.053507538993040e+001
1	 4.257970064708468e-001	 1.438296394000109e+000	-3.112732082894119e+001
1	 4.108696766944010e-001	 1.442631536632960e+000	-3.172028906255212e+001
1	 3.959384490572214e-001	 1.446800759169773e+000	-3.231100438537673e+001
1	 3.810059007977736e-001	 1.450804693538856e+000	-3.289651711475800e+001
1	 3.660745815799876e-001	 1.454644021000736e+000	-3.347390647005665e+001
1	 3.511470124300445e-001	 1.458319471087602e+000	-3.404028335504903e+001
1	 3.362256847149676e-001	 1.461831820519506e+000	-3.459279304067592e+001
1	 3.213130591634122e-001	 1.465181892099049e+000	-3.512861774567853e+001
1	 3.064115649289692e-001	 1.468370553586279e+000	-3.564497911294065e+001
1	 2.915235986962249e-001	 1.471398716555537e+000	-3.613914057963807e+001
1	 4.426763847345017e-001	 1.440166533580434e+000	-3.055726280058881e+001
1	 4.276892483668441e-001	 1.444688183176903e+000	-3.116620335839621e+001
1	 4.126955815370017e-001	 1.449042591183444e+000	-3.177541183004121e+001
1	 3.976979995243006e-001	 1.453230341745015e+000	-3.238189943646488e+001
1	 3.826990910204531e-001	 1.457252069598216e+000	-3.298270373710630e+001
1	 3.677014170200943e-001	 1.461108459031100e+000	-3.357489153365193e+001
1	 3.527075097528448e-001	 1.464800242817900e+000	-3.415556167586746e+001
1	 3.377198716573618e-001	 1.468328201130413e+000	-3.472184776672291e+001
1	 3.227409743977777e-001	 1.471693160427780e+000	-3.527092076432350e+001
1	 3.077732579228408e-001	 1.474895992326376e+000	-3.579999147844671e+001
1	 2.928191295680029e-001	 1.477937612451580e+000	-3.630631295977020e+001
1	 4.446349347909926e-001	 1.446538317450518e+000	-3.056891005560251e+001
1	 4.295814902629558e-001	 1.451079972354095e+000	-3.119440590032406e+001
1	 4.145214863797341e-001	 1.455453645734352e+000	-3.181976210800256e+001
1	 3.994575499915311e-001	 1.459659924320704e+000	-3.244196836213659e+001
1	 3.843922812433037e-001	 1.463699445658044e+000	-3.305804090242231e+001
1	 3.693282524603908e-001	 1.467572897061948e+000	-3.366502546957955e+001
1	 3.542680070758498e-001	 1.471281014548694e+000	-3.426000015099653e+001
1	 3.392140585999711e-001	 1.474824581741826e+000	-3.484007812435542e+001
1	 3.241688896323615e-001	 1.478204428757018e+000	-3.540241029669991e+001
1	 3.091349509169256e-001	 1.481421431066978e+000	-3.594418783670080e+001
1	 2.941146604399785e-001	 1.484476508348123e+000	-3.646264459816842e+001
1	 4.465934848476001e-001	 1.452910101320921e+000	-3.056997521676377e+001
1	 4.314737321591828e-001	 1.457471761531642e+000	-3.121189678090864e+001
1	 4.163473912225857e-001	 1.461864700285650e+000	-3.185331648357239e+001
1	 4.012171004588886e-001	 1.466089506896820e+000	-3.249119412441122e+001
1	 3.860854714662912e-001	 1.470146821718332e+000	-3.312251617941794e+001
1	 3.709550879008342e-001	 1.474037335093288e+000	-3.374429880331969e+001
1	 3.558285043990113e-001	 1.477761786280007e+000	-3.435359073130050e+001
1	 3.407082455427425e-001	 1.481320962353781e+000	-3.494747607713595e+001
1	 3.255968048671095e-001	 1.484715697086819e+000	-3.552307702512379e+001
1	 3.104966439111702e-001	 1.487946869808157e+000	-3.607755641350543e+001
1	 2.954101913121023e-001	 1.491015404245249e+000	-3.660812020735450e+001
1	 4.485520349043394e-001	 1.459281885191594e+000	-3.056041707833782e+001
1	 4.333659740555259e-001	 1.463863550709501e+000	-3.121864487953349e+001
1	 4.181732960655447e-001	 1.468275754837306e+000	-3.187605195280554e+001
1	 4.029766509263494e-001	 1.472519089473338e+000	-3.252955998288588e+001
1	 3.877786616893815e-001	 1.476594197779069e+000	-3.317611735392352e+001
1	 3.725819233413825e-001	 1.480501773125123e+000	-3.381270222582943e+001
1	 3.573890017222799e-001	 1.484242558011860e+000	-3.443632550822586e+001
1	 3.422024324856237e-001	 1.487817342966315e+000	-3.504403372898658e+001
1	 3.270247201019671e-001	 1.491226965417235e+000	-3.563291179465026e+001
1	 3.118583369055215e-001	 1.494472308549981e+000	-3.620008564030646e+001
1	 2.967057221843248e-001	 1.497554300143043e+000	-3.674272476685441e+001
1	 4.505105849612260e-001	 1.465653669062488e+000	-3.054019515114104e+001
1	 4.352582159519864e-001	 1.470255339887630e+000	-3.121461961675704e+001
1	 4.199992009085988e-001	 1.474686809389286e+000	-3.188794591178496e+001
1	 4.047362013938896e-001	 1.478948672050239e+000	-3.255704948826638e+001
1	 3.894718519125411e-001	 1.483041573840250e+000	-3.321883242416989e+001
1	 3.742087587819934e-001	 1.486966211157460e+000	-3.387022658994660e+001
1	 3.589494990456079e-001	 1.490723329744274e+000	-3.450819671074552e+001
1	 3.436966194285619e-001	 1.494313723579467e+000	-3.512974332114082e+001
1	 3.284526353368803e-001	 1.497738233748321e+000	-3.573190560953569e+001
1	 3.132200298999260e-001	 1.500997747292519e+000	-3.631176414972207e+001
1	 2.980012530565967e-001	 1.504093196041590e+000	-3.686644351739511e+001
1	 2.850459443420262e-001	 1.438704237079830e+000	-3.514122206952250e+001
1	 2.705065062765865e-001	 1.441508706198178e+000	-3.555249605918624e+001
1	 2.559848749528201e-001	 1.444158197264690e+000	-3.594032866103755e+001
1	 2.414832894836484e-001	 1.446653724004696e+000	-3.630251347237108e+001
1	 2.270039542545287e-001	 1.448996338326446e+000	-3.663688042753584e+001
1	 2.125490382604623e-001	 1.451187129141089e+000	-3.694129716682058e+001
1	 1.981206744846773e-001	 1.453227221174727e+000	-3.721367032860722e+001
1	 1.837209593187718e-001	 1.455117773774083e+000	-3.745194676461951e+001
1	 1.693519520240392e-001	 1.456859979707270e+000	-3.765411467826982e+001
1	 1.550156742336445e-001	 1.458455063961172e+000	-3.781820468625070e+001
1	 1.407141094952703e-001	 1.459904282536842e+000	-3.794229080367747e+001
1	 2.863414752120758e-001	 1.445243132974653e+000	-3.536235907473117e+001
1	 2.717359555508530e-001	 1.448060348376165e+000	-3.578538903591590e+001
1	 2.571483235628103e-001	 1.450721881352207e+000	-3.618438396171414e+001
1	 2.425808285375988e-001	 1.453228750235476e+000	-3.655701445391677e+001
1	 2.280356848795698e-001	 1.455582011715130e+000	-3.690098883877253e+001
1	 2.135150714417698e-001	 1.457782759651406e+000	-3.721405471194995e+001
1	 1.990211309017990e-001	 1.459832123882272e+000	-3.749400039987856e+001
1	 1.845559691793192e-001	 1.461731269023666e+000	-3.773865633716441e+001
1	 1.701216548949308e-001	 1.463481393264815e+000	-3.794589635996076e+001
1	 1.557202188700866e-001	 1.465083727160154e+000	-3.811363891534398e+001
1	 1.413536536676590e-001	 1.466539532419245e+000	-3.823984818692578e+001
1	 2.876370060825698e-001	 1.451782028869550e+000	-3.557273599495488e+001
1	 2.729654048255039e-001	 1.454611990554142e+000	-3.600748616222372e+001
1	 2.583117721731037e-001	 1.457285565439627e+000	-3.641757717188791e+001
1	 2.436783675917570e-001	 1.459803776466075e+000	-3.680056525340527e+001
1	 2.290674155047151e-001	 1.462167685103552e+000	-3.715404575138106e+001
1	 2.144811046230759e-001	 1.464378390161382e+000	-3.747565483352749e+001
1	 1.999215873188176e-001	 1.466437026589401e+000	-3.776307110845751e+001
1	 1.853909790396714e-001	 1.468344764272762e+000	-3.801401715288080e+001
1	 1.708913577655509e-001	 1.470102806821810e+000	-3.822626094798090e+001
1	 1.564247635062024e-001	 1.471712390358529e+000	-3.839761722494061e+001
1	 1.419931978396938e-001	 1.473174782300993e+000	-3.852594871977260e+001
1	 2.889325369534589e-001	 1.458320924764606e+000	-3.577233611502133e+001
1	 2.741948541004960e-001	 1.461163632732205e+000	-3.621876703903876e+001
1	 2.594752207836670e-001	 1.463849249527064e+000	-3.663988551147671e+001
1	 2.447759066461008e-001	 1.466378802696617e+000	-3.703314189279995e+001
1	 2.300991461299551e-001	 1.468753358491846e+000	-3.739602705290263e+001
1	 2.154471378043844e-001	 1.470974020671163e+000	-3.772607422909353e+001
1	 2.008220437357505e-001	 1.473041929296269e+000	-3.802086078770179e+001
1	 1.862259888998598e-001	 1.474958259521535e+000	-3.827800988876921e+001
1	 1.716610606359443e-001	 1.476724220378426e+000	-3.849519205351057e+001
1	 1.571293081420489e-001	 1.478341053556477e+000	-3.867012663444060e+001
1	 1.426327420114426e-001	 1.479810032182270e+000	-3.880058318826708e+001
1	 2.902280678246939e-001	 1.464859820659907e+000	-3.596114301821342e+001
1	 2.754243033757872e-001	 1.467715274910457e+000	-3.641921163152447e+001
1	 2.606386693944665e-001	 1.470412933614629e+000	-3.685128660714665e+001
1	 2.458734457006079e-001	 1.472953828927230e+000	-3.725472082220106e+001
1	 2.311308767552799e-001	 1.475339031880152e+000	-3.762690906141607e+001
1	 2.164131709856989e-001	 1.477569651180895e+000	-3.796529001226214e+001
1	 2.017225001526156e-001	 1.479646832003032e+000	-3.826734815783520e+001
1	 1.870609987599162e-001	 1.481571754770152e+000	-3.853061556685039e+001
1	 1.724307635061558e-001	 1.483345633934837e+000	-3.875267358035883e+001
1	 1.578338527776833e-001	 1.484969716754174e+000	-3.893115439501867e+001
1	 1.432722861829730e-001	 1.486445282063260e+000	-3.906374254297810e+001
1	 2.915235986962249e-001	 1.471398716555537e+000	-3.613914057963807e+001
1	 2.766537526513347e-001	 1.474266917088996e+000	-3.660880026098212e+001
1	 2.618021180054690e-001	 1.476976617702436e+000	-3.705175848327134e+001
1	 2.469709847552559e-001	 1.479528855158036e+000	-3.746527891033294e+001
1	 2.321626073806799e-001	 1.481924705268603e+000	-3.784666851597045e+001
1	 2.173792041670235e-001	 1.484165281690726e+000	-3.819327970347786e+001
1	 2.026229565694305e-001	 1.486251734709848e+000	-3.850251231735246e+001
1	 1.878960086198719e-001	 1.488185250018776e+000	-3.877181554649940e+001
1	 1.732004663762304e-001	 1.489967047491214e+000	-3.899868971846269e+001
1	 1.585383974131626e-001	 1.491598379951801e+000	-3.918068798447436e+001
1	 1.439118303543528e-001	 1.493080531944146e+000	-3.931541789533938e+001
1	 2.928191295680029e-001	 1.477937612451580e+000	-3.630631295977020e+001
1	 2.778832019270955e-001	 1.480818559267920e+000	-3.678751359697634e+001
1	 2.629655666166408e-001	 1.483540301790597e+000	-3.724127955313628e+001
1	 2.480685238100226e-001	 1.486103881389163e+000	-3.766479343528253e+001
1	 2.331943380061451e-001	 1.488510378657337e+000	-3.805528256727376e+001
1	 2.183452373483615e-001	 1.490760912200802e+000	-3.841002122101375e+001
1	 2.035234129862130e-001	 1.492856637416871e+000	-3.872633273465068e+001
1	 1.887310184797587e-001	 1.494798745267572e+000	-3.900159151698203e+001
1	 1.739701692462127e-001	 1.496588461047729e+000	-3.923322493755686e+001
1	 1.592429420485438e-001	 1.498227043149535e+000	-3.941871510221812e+001
1	 1.445513745256498e-001	 1.499715781825113e+000	-3.955560051408926e+001
1	 2.941146604399785e-001	 1.484476508348123e+000	-3.646264459816842e+001
1	 2.791126512030275e-001	 1.487370201447330e+000	-3.695533264966078e+001
1	 2.641290152279485e-001	 1.490103985879224e+000	-3.741982861037239e+001
1	 2.491660628648855e-001	 1.492678907620733e+000	-3.785324207548450e+001
1	 2.342260686316660e-001	 1.495096052046490e+000	-3.825272876862536e+001
1	 2.193112705297171e-001	 1.497356542711271e+000	-3.861549287221214e+001
1	 2.044238694029807e-001	 1.499461540124259e+000	-3.893878923988245e+001
1	 1.895660283396078e-001	 1.501412240516705e+000	-3.921992549019010e+001
1	 1.747398721161477e-001	 1.503209874604554e+000	-3.945626398101143e+001
1	 1.599474866838842e-001	 1.504855706347555e+000	-3.964522366439196e+001
1	 1.451909186969319e-001	 1.506351031706345e+000	-3.978428182180905e+001
1	 2.954101913121023e-001	 1.491015404245249e+000	-3.660812020735450e+001
1	 2.803421004790875e-001	 1.493921843627324e+000	-3.711223876231385e+001
1	 2.652924638393588e-001	 1.496667669968431e+000	-3.758738482061653e+001
1	 2.502636019198225e-001	 1.499253933852874e+000	-3.803060290094223e+001
1	 2.352577992572328e-001	 1.501681725436200e+000	-3.843898506708867e+001
1	 2.202773037110939e-001	 1.503952173222279e+000	-3.880967334495113e+001
1	 2.053243258197513e-001	 1.506066442832168e+000	-3.913986201702487e+001
1	 1.904010381994511e-001	 1.508025735766340e+000	-3.942679979356606e+001
1	 1.755095749860802e-001	 1.509831288161861e+000	-3.966779185983195e+001
1	 1.606520313192405e-001	 1.511484369546039e+000	-3.986020179911509e+001
1	 1.458304628682665e-001	 1.512986281588024e+000	-4.000145339154643e+001
1	 2.967057221843248e-001	 1.497554300143043e+000	-3.674272476685441e+001
1	 2.815715497552332e-001	 1.500473485808002e+000	-3.725821360406298e+001
1	 2.664559124508381e-001	 1.503231354058331e+000	-3.774392771338845e+001
1	 2.513611409748112e-001	 1.505828960085709e+000	-3.819685436467891e+001
1	 2.362895298828357e-001	 1.508267398826601e+000	-3.861402979489462e+001
1	 2.212433368924957e-001	 1.510547803733974e+000	-3.899254169933783e+001
1	 2.062247822365426e-001	 1.512671345540754e+000	-3.932953159615302e+001
1	 1.912360480593200e-001	 1.514639231016640e+000	-3.962219706321505e+001
1	 1.762792778560550e-001	 1.516452701719823e+000	-3.986779384681670e+001
1	 1.613565759546700e-001	 1.518113032745166e+000	-4.006363784185828e+001
1	 1.464700070397217e-001	 1.519621531470336e+000	-4.020710694353313e+001
1	 2.980012530565967e-001	 1.504093196041590e+000	-3.686644351739511e+001
1	 2.828009990314218e-001	 1.507025127989463e+000	-3.739323916280310e+001
1	 2.676193610623530e-001	 1.509795038149035e+000	-3.788943717418404e+001
1	 2.524586800298293e-001	 1.512403986319364e+000	-3.835197529441217e+001
1	 2.373212605084651e-001	 1.514853072217832e+000	-3.877784166106931e+001
1	 2.222093700739263e-001	 1.517143434246501e+000	-3.916407735961783e+001
1	 2.071252386533723e-001	 1.519276248250174e+000	-3.950777884591822e+001
1	 1.920710579192460e-001	 1.521252726267772e+000	-3.980610023719542e+001
1	 1.770489807261170e-001	 1.523074115278612e+000	-4.005625547086538e+001
1	 1.620611205902298e-001	 1.524741695945114e+000	-4.025552033093513e+001
1	 1.471095512113652e-001	 1.526256781353464e+000	-4.040123434198416e+001
1	 1.407141094952703e-001	 1.459904282536842e+000	-3.794229080367747e+001
1	 1.264470707132509e-001	 1.461209106227669e+000	-3.802425252056897e+001
1	 1.122186375303638e-001	 1.462370621981674e+000	-3.806270276536848e+001
1	 9.803070639248851e-002	 1.463390172555262e+000	-3.805692188839326e+001
1	 8.388513331654991e-002	 1.464269126940766e+000	-3.800622497630079e+001
1	 6.978373363269591e-002	 1.465008879159846e+000	-3.790996106745361e+001
1	 5.572828176456757e-002	 1.465610847063272e+000	-3.776751235692372e+001
1	 4.172051104692880e-002	 1.466076471138249e+000	-3.757829339286052e+001
1	 2.776211357989313e-002	 1.466407213324432e+000	-3.734175026588073e+001
1	 1.385474011895523e-002	 1.466604555839689e+000	-3.705735979309480e+001
1	 0.000000000000000e+000	 1.466670000016666e+000	-3.672462869831400e+001
1	 1.413536536676590e-001	 1.466539532419245e+000	-3.823984818692578e+001
1	 1.270217713416299e-001	 1.467850286520215e+000	-3.832234859375002e+001
1	 1.127286700767430e-001	 1.469017081351258e+000	-3.835975483377636e+001
1	 9.847625493824472e-002	 1.470041265771596e+000	-3.835132649132446e+001
1	 8.426639037867752e-002	 1.470924214995623e+000	-3.829635971535699e+001
1	 7.010089997888507e-002	 1.471667329380818e+000	-3.819418642584638e+001
1	 5.598156622728422e-002	 1.472272033222072e+000	-3.804417350745143e+001
1	 4.191013033666523e-002	 1.472739773553594e+000	-3.784572199230207e+001
1	 2.788829209775656e-002	 1.473072018959543e+000	-3.759826623365089e+001
1	 1.391770976875618e-002	 1.473270258394459e+000	-3.730127307208870e+001
1	 0.000000000000000e+000	 1.473336000014533e+000	-3.695424099596210e+001
1	 1.419931978396938e-001	 1.473174782300993e+000	-3.852594871977260e+001
1	 1.275964719696583e-001	 1.474491466812067e+000	-3.860903337966509e+001
1	 1.132387026228002e-001	 1.475663540720116e+000	-3.864548858690296e+001
1	 9.892180348372621e-002	 1.476692358987179e+000	-3.863454992461312e+001
1	 8.464764744058918e-002	 1.477579303049710e+000	-3.857549131675402e+001
1	 7.041806632492181e-002	 1.478325779601007e+000	-3.846762423203869e+001
1	 5.623485068990974e-002	 1.478933219380080e+000	-3.831029687270360e+001
1	 4.209974962636302e-002	 1.479403075968142e+000	-3.810289335000707e+001
1	 2.801447061561830e-002	 1.479736824593856e+000	-3.784483284829115e+001
1	 1.398067941857046e-002	 1.479935960948430e+000	-3.753556877938502e+001
1	 0.000000000000000e+000	 1.480002000011599e+000	-3.717458792908280e+001
1	 1.426327420114426e-001	 1.479810032182270e+000	-3.880058318826708e+001
1	 1.281711725974124e-001	 1.481132647103413e+000	-3.888430091922070e+001
1	 1.137487351686181e-001	 1.482310000088439e+000	-3.891990004385364e+001
1	 9.936735202901927e-002	 1.483343452202206e+000	-3.890658895406026e+001
1	 8.502890450237155e-002	 1.484234391103225e+000	-3.884361610695056e+001
1	 7.073523267088946e-002	 1.484984229820612e+000	-3.873026923283639e+001
1	 5.648813515252016e-002	 1.485594405537496e+000	-3.856587452547644e+001
1	 4.228936891608654e-002	 1.486066378382094e+000	-3.834979581653175e+001
1	 2.814064913352648e-002	 1.486401630227571e+000	-3.808143373614377e+001
1	 1.404364906842484e-002	 1.486601663501801e+000	-3.776022486149038e+001
1	 0.000000000000000e+000	 1.486668000008066e+000	-3.738564085512537e+001
1	 1.432722861829730e-001	 1.486445282063260e+000	-3.906374254297810e+001
1	 1.287458732249686e-001	 1.487773827394441e+000	-3.914814535972661e+001
1	 1.142587677142796e-001	 1.488956459456420e+000	-3.918298529481641e+001
1	 9.981290057421012e-002	 1.489994545416871e+000	-3.916744040321719e+001
1	 8.541016156411119e-002	 1.490889479156365e+000	-3.910073047799897e+001
1	 7.105239901687122e-002	 1.491642680039831e+000	-3.898211626884623e+001
1	 5.674141961519155e-002	 1.492255591694520e+000	-3.881089868011203e+001
1	 4.247898820590027e-002	 1.492729680795649e+000	-3.858641795043769e+001
1	 2.826682765152926e-002	 1.493066435860886e+000	-3.830805281590995e+001
1	 1.410661871834611e-002	 1.493267366054773e+000	-3.797521965868570e+001
1	 0.000000000000000e+000	 1.493334000004133e+000	-3.758737164296319e+001
1	 1.439118303543528e-001	 1.493080531944146e+000	-3.931541789533938e+001
1	 1.293205738524036e-001	 1.494415007685339e+000	-3.940056095253149e+001
1	 1.147688002598674e-001	 1.495602918824250e+000	-3.943474049948132e+001
1	 1.002584491193851e-001	 1.496645638631369e+000	-3.941710115209993e+001
1	 8.579141862589464e-002	 1.497544567209325e+000	-3.934683088608760e+001
1	 7.136956536295044e-002	 1.498301130258862e+000	-3.922316027238819e+001
1	 5.699470407799991e-002	 1.498916777851350e+000	-3.904536168935069e+001
1	 4.266860749586866e-002	 1.499392983209006e+000	-3.881274851367122e+001
1	 2.839300616967478e-002	 1.499731241494002e+000	-3.852467429215280e+001
1	 1.416958836836105e-002	 1.499933068607544e+000	-3.818053189627652e+001
1	 0.000000000000000e+000	 1.500000000000000e+000	-3.777975266152974e+001
1	 1.445513745256498e-001	 1.499715781825113e+000	-3.955560051408926e+001
1	 1.298952744797936e-001	 1.501056187976295e+000	-3.964154205072195e+001
1	 1.152788328054644e-001	 1.502249378192121e+000	-3.967516188550331e+001
1	 1.007039976646305e-001	 1.503296731845895e+000	-3.965556813594320e+001
1	 8.617267568780850e-002	 1.504199655262302e+000	-3.958191385012266e+001
1	 7.168673170921036e-002	 1.504959580477903e+000	-3.945339626546889e+001
1	 5.724798854102130e-002	 1.505577964008184e+000	-3.926925604127059e+001
1	 4.285822678605616e-002	 1.506056285622365e+000	-3.902877646706369e+001
1	 2.851918468801118e-002	 1.506396047127118e+000	-3.873128264897493e+001
1	 1.423255801849644e-002	 1.506598771160316e+000	-3.837614067607551e+001
1	 0.000000000000000e+000	 1.506665999995867e+000	-3.796275676875721e+001
1	 1.451909186969319e-001	 1.506351031706345e+000	-3.978428182180905e+001
1	 1.304699751072153e-001	 1.507697368267498e+000	-3.987108310688087e+001
1	 1.157888653511532e-001	 1.508895837560225e+000	-3.990424574700579e+001
1	 1.011495462100325e-001	 1.509947825060642e+000	-3.988283834398124e+001
1	 8.655393274993932e-002	 1.510854743315492e+000	-3.980597595034674e+001
1	 7.200389805573430e-002	 1.511618030697151e+000	-3.967281935780549e+001
1	 5.750127300433174e-002	 1.512239150165223e+000	-3.948257435630687e+001
1	 4.304784607652718e-002	 1.512719588035927e+000	-3.923449096595147e+001
1	 2.864536320658660e-002	 1.513060852760435e+000	-3.892786264386009e+001
1	 1.429552766877905e-002	 1.513264473713287e+000	-3.856202546811061e+001
1	 0.000000000000000e+000	 1.513331999991934e+000	-3.813635730080596e+001
1	 1.458304628682665e-001	 1.512986281588024e+000	-4.000145339154643e+001
1	 1.310446757347450e-001	 1.514338548559137e+000	-4.008917867090706e+001
1	 1.162988978970166e-001	 1.515542296928752e+000	-4.012198844312229e+001
1	 1.015950947556774e-001	 1.516598918275806e+000	-4.009890881826618e+001
1	 8.693518981237372e-002	 1.517509831369093e+000	-4.001901382699361e+001
1	 7.232106440260555e-002	 1.518276480916806e+000	-3.988142474490308e+001
1	 5.775455746800728e-002	 1.518900336322665e+000	-3.968530938434974e+001
1	 4.323746536734618e-002	 1.519382890449889e+000	-3.942988135591051e+001
1	 2.877154172544919e-002	 1.519725658394153e+000	-3.911439930168064e+001
1	 1.435849731923567e-002	 1.519930176266659e+000	-3.873816610254942e+001
1	 0.000000000000000e+000	 1.519997999988401e+000	-3.830052806157779e+001
1	 1.464700070397217e-001	 1.519621531470336e+000	-4.020710694353313e+001
1	 1.316193763624593e-001	 1.520979728851398e+000	-4.029582338788995e+001
1	 1.168089304431375e-001	 1.522188756297897e+000	-4.032838639657842e+001
1	 1.020406433016516e-001	 1.523250011491580e+000	-4.030377665251369e+001
1	 8.731644687519827e-002	 1.524164919423301e+000	-4.022102417897924e+001
1	 7.263823074990740e-002	 1.524934931137064e+000	-4.007920770618082e+001
1	 5.800784193212395e-002	 1.525561522480709e+000	-3.987745400191730e+001
1	 4.342708465857759e-002	 1.526046192864452e+000	-3.961493716860415e+001
1	 2.889772024464708e-002	 1.526390464028470e+000	-3.929087790885807e+001
1	 1.442146696989308e-002	 1.526595878820630e+000	-3.890454276183930e+001
1	 0.000000000000000e+000	 1.526663999985467e+000	-3.845524331250589e+001
1	 1.471095512113652e-001	 1.526256781353464e+000	-4.040123434198416e+001
1	 1.321940769904347e-001	 1.527620909144472e+000	-4.049101199603996e+001
1	 1.173189629895987e-001	 1.528835215667850e+000	-4.052343609230884e+001
1	 1.024861918480412e-001	 1.529901104708160e+000	-4.049743899097994e+001
1	 8.769770393849952e-002	 1.530820007478312e+000	-4.041200376262550e+001
1	 7.295539709772317e-002	 1.531593381358124e+000	-4.026616360314902e+001
1	 5.826112639675777e-002	 1.532222708639553e+000	-4.005900120940482e+001
1	 4.361670395028588e-002	 1.532709495279816e+000	-3.978964811773641e+001
1	 2.902389876422843e-002	 1.533055269663587e+000	-3.945728400767961e+001
1	 1.448443662077806e-002	 1.533261581375402e+000	-3.906113597304709e+001
1	 0.000000000000000e+000	 1.533329999983334e+000	-3.860047776260725e+001
1	 1.533329999983334e+000	 0.000000000000000e+000	 2.147969589879532e+001
1	 1.533261581375402e+000	 1.448443662077811e-002	 2.066946942002371e+001
1	 1.533055269663588e+000	 2.902389876422853e-002	 1.986646867433298e+001
1	 1.532709495279816e+000	 4.361670395028579e-002	 1.907113835639951e+001
1	 1.532222708639554e+000	 5.826112639675773e-002	 1.828394435067348e+001
1	 1.531593381358125e+000	 7.295539709772311e-002	 1.750537397443432e+001
1	 1.530820007478312e+000	 8.769770393849954e-002	 1.673593619532636e+001
1	 1.529901104708160e+000	 1.024861918480413e-001	 1.597616182198649e+001
1	 1.528835215667849e+000	 1.173189629895985e-001	 1.522660366638386e+001
1	 1.527620909144472e+000	 1.321940769904346e-001	 1.448783667649774e+001
1	 1.526256781353464e+000	 1.471095512113651e-001	 1.376045803797496e+001
1	 1.539996999982150e+000	 0.000000000000000e+000	 2.129901678238846e+001
1	 1.539928283886501e+000	 1.454741571829705e-002	 2.049275091459180e+001
1	 1.539721075120481e+000	 2.915009621289081e-002	 1.969351515525820e+001
1	 1.539373797291449e+000	 4.380635168824681e-002	 1.890178973996798e+001
1	 1.538884894077197e+000	 5.851444885842472e-002	 1.811807566387122e+001
1	 1.538252830447551e+000	 7.327261102581677e-002	 1.734289486576913e+001
1	 1.537476093897312e+000	 8.807901819661552e-002	 1.657679038578361e+001
1	 1.536553195689442e+000	 1.029318072338745e-001	 1.582032649530922e+001
1	 1.535482672107356e+000	 1.178290720489961e-001	 1.507408879795195e+001
1	 1.534263085715157e+000	 1.327688638324482e-001	 1.433868430017058e+001
1	 1.532893026624554e+000	 1.477491913244743e-001	 1.361474145035699e+001
1	 1.546663999981867e+000	 0.000000000000000e+000	 2.111387380073460e+001
1	 1.546594986398501e+000	 1.461039481602090e-002	 2.031196234504106e+001
1	 1.546386880578270e+000	 2.927629366190359e-002	 1.951688152319270e+001
1	 1.546038099303972e+000	 4.399599942665178e-002	 1.872914610343282e+001
1	 1.545547079515721e+000	 5.876777132058415e-002	 1.794929116563734e+001
1	 1.544912279537849e+000	 7.358982495441384e-002	 1.717787222725487e+001
1	 1.544132180317175e+000	 8.846033245521599e-002	 1.641546534199645e+001
1	 1.543205286671576e+000	 1.033774226201508e-001	 1.566266717004835e+001
1	 1.542130128547706e+000	 1.183391811087809e-001	 1.492009501859781e+001
1	 1.540905262286677e+000	 1.333436506747862e-001	 1.418838685147811e+001
1	 1.539529271896469e+000	 1.483888314378467e-001	 1.346820126676198e+001
1	 1.553330999982383e+000	 0.000000000000000e+000	 2.092435625820632e+001
1	 1.553261688911297e+000	 1.467337391390012e-002	 2.012718523666184e+001
1	 1.553052686036848e+000	 2.940249111118563e-002	 1.933664155575512e+001
1	 1.552702401317272e+000	 4.418564716540310e-002	 1.855327352052107e+001
1	 1.552209264955009e+000	 5.902109378313507e-002	 1.777764928207689e+001
1	 1.551571728628893e+000	 7.390703888342050e-002	 1.701035690624826e+001
1	 1.550788266737764e+000	 8.884164671422189e-002	 1.625200441415540e+001
1	 1.549857377654417e+000	 1.038230380068115e-001	 1.550321979361498e+001
1	 1.548777584988743e+000	 1.188492901689170e-001	 1.476465098023226e+001
1	 1.547547438858865e+000	 1.339184375174358e-001	 1.403696580707904e+001
1	 1.546165517169035e+000	 1.490284715514892e-001	 1.332085192188248e+001
1	 1.559997999983599e+000	 0.000000000000000e+000	 2.073055193252360e+001
1	 1.559928391424788e+000	 1.473635301188521e-002	 1.993849972107544e+001
1	 1.559718491496111e+000	 2.952868856065571e-002	 1.915286776934218e+001
1	 1.559366703331239e+000	 4.437529490440324e-002	 1.837423693543562e+001
1	 1.558871450394939e+000	 5.927441624597654e-002	 1.760320744050695e+001
1	 1.558231177720554e+000	 7.422425281274271e-002	 1.684039888087637e+001
1	 1.557444353158942e+000	 8.922296097355420e-002	 1.608645021138480e+001
1	 1.556509468637816e+000	 1.042686533937975e-001	 1.534201969890413e+001
1	 1.555425041430309e+000	 1.193593992293683e-001	 1.460778484496537e+001
1	 1.554189615431554e+000	 1.344932243603837e-001	 1.388444227649153e+001
1	 1.552801762442078e+000	 1.496681116654091e-001	 1.317270760365208e+001
1	 1.566664999985416e+000	 0.000000000000000e+000	 2.053254710723765e+001
1	 1.566595093938874e+000	 1.479933210992662e-002	 1.974598456588874e+001
1	 1.566384296955953e+000	 2.965488601023259e-002	 1.896563144596430e+001
1	 1.566031005345761e+000	 4.456494264355464e-002	 1.819210018688899e+001
1	 1.565533635835396e+000	 5.952773870900763e-002	 1.742602209070816e+001
1	 1.564890626812705e+000	 7.454146674228665e-002	 1.666804727853155e+001
1	 1.564100439580571e+000	 8.960427523313398e-002	 1.591884461751094e+001
1	 1.563161559621629e+000	 1.047142687810504e-001	 1.517910161736968e+001
1	 1.562072497872246e+000	 1.198695082900990e-001	 1.444952429552864e+001
1	 1.560831792004578e+000	 1.350680112036168e-001	 1.373083700990520e+001
1	 1.559438007715424e+000	 1.503077517796133e-001	 1.302378225849572e+001
1	 1.573331999987733e+000	 0.000000000000000e+000	 2.033042660338837e+001
1	 1.573261796453454e+000	 1.486231120797487e-002	 1.954971720359374e+001
1	 1.573050102416269e+000	 2.978108345983503e-002	 1.877500265939912e+001
1	 1.572695307360727e+000	 4.475459038275972e-002	 1.800692603152569e+001
1	 1.572195821276259e+000	 5.978106117212738e-002	 1.724614872563646e+001
1	 1.571550075905218e+000	 7.485868067195839e-002	 1.649335039389644e+001
1	 1.570756526002515e+000	 8.998558949288225e-002	 1.574922880642913e+001
1	 1.569813650605705e+000	 1.051598841685111e-001	 1.501449969176772e+001
1	 1.568719954314401e+000	 1.203796173510731e-001	 1.428989654543159e+001
1	 1.567473968577772e+000	 1.356427980471222e-001	 1.357617040579431e+001
1	 1.566074252988898e+000	 1.509473918941090e-001	 1.287408959644677e+001
1	 1.579998999990450e+000	 0.000000000000000e+000	 2.012427381036056e+001
1	 1.579928498968426e+000	 1.492529030598040e-002	 1.934977375973644e+001
1	 1.579715907876954e+000	 2.990728090938180e-002	 1.858105030068312e+001
1	 1.579359609376027e+000	 4.494423812192101e-002	 1.781877616675211e+001
1	 1.578858006717409e+000	 6.003438363523485e-002	 1.706364190161022e+001
1	 1.578209524997966e+000	 7.517589460166402e-002	 1.631635570651261e+001
1	 1.577412612424635e+000	 9.036690375271991e-002	 1.557764325708213e+001
1	 1.576465741589899e+000	 1.056054995561210e-001	 1.484824748857685e+001
1	 1.575367410756614e+000	 1.208897264122547e-001	 1.412892834886153e+001
1	 1.574116145150969e+000	 1.362175848908867e-001	 1.342046251833821e+001
1	 1.572710498262325e+000	 1.515870320089032e-001	 1.272364309613433e+001
1	 1.586665999993466e+000	 0.000000000000000e+000	 1.991417071596227e+001
1	 1.586595201483688e+000	 1.498826940389370e-002	 1.914622908037443e+001
1	 1.586381713337901e+000	 3.003347835879168e-002	 1.838384210296031e+001
1	 1.586023911391549e+000	 4.513388586094088e-002	 1.762771125299023e+001
1	 1.585520192158728e+000	 6.028770609822909e-002	 1.687855525798857e+001
1	 1.584868974090821e+000	 7.549310853130964e-002	 1.613710989790625e+001
1	 1.584068698846796e+000	 9.074821801256802e-002	 1.540412776806056e+001
1	 1.583117832574064e+000	 1.060511149438211e-001	 1.468037801010544e+001
1	 1.582014867198729e+000	 1.213998354736078e-001	 1.396664601033358e+001
1	 1.580758321724004e+000	 1.367923717348972e-001	 1.326373306465507e+001
1	 1.579346743535532e+000	 1.522266721240030e-001	 1.257245600964476e+001
1	 1.593332999996683e+000	 0.000000000000000e+000	 1.970019793574777e+001
1	 1.593261903999138e+000	 1.505124850166526e-002	 1.893915675884631e+001
1	 1.593047518799007e+000	 3.015967580798343e-002	 1.818344466570687e+001
1	 1.592688213407181e+000	 4.532353359972181e-002	 1.743379093537314e+001
1	 1.592182377600097e+000	 6.054102856100917e-002	 1.669094153635553e+001
1	 1.591528423183657e+000	 7.581032246080131e-002	 1.595565886828370e+001
1	 1.590724785268861e+000	 9.112953227234759e-002	 1.522872147183696e+001
1	 1.589769923558053e+000	 1.064967303315528e-001	 1.451092370629497e+001
1	 1.588662323640588e+000	 1.219099445350965e-001	 1.380307539409857e+001
1	 1.587400498296709e+000	 1.373671585791407e-001	 1.310600143185322e+001
1	 1.585982988808343e+000	 1.528663122394153e-001	 1.242054136726165e+001
1	 1.600000000000000e+000	 0.000000000000000e+000	 1.948243474160766e+001
1	 1.599928606514677e+000	 1.511422759924554e-002	 1.872862916187099e+001
1	 1.599713324260166e+000	 3.028587325687582e-002	 1.797992347835078e+001
1	 1.599352515422813e+000	 4.551318133816625e-002	 1.723707386489796e+001
1	 1.598844563041397e+000	 6.079435102347415e-002	 1.650085259922445e+001
1	 1.598187872276344e+000	 7.612753639004513e-002	 1.577204775280999e+001
1	 1.597380871690691e+000	 9.151084653197962e-002	 1.505146284864390e+001
1	 1.596422014541718e+000	 1.069423457192571e-001	 1.433991648622817e+001
1	 1.595309780082036e+000	 1.224200535966849e-001	 1.363824193331551e+001
1	 1.594042674868919e+000	 1.379419454236041e-001	 1.294728668390703e+001
1	 1.592619234080585e+000	 1.535059523551476e-001	 1.226791198208649e+001
1	 1.526256781353464e+000	 1.471095512113651e-001	 1.376045803797496e+001
1	 1.524741695945114e+000	 1.620611205902299e-001	 1.304383918638332e+001
1	 1.523074115278612e+000	 1.770489807261168e-001	 1.233724415454246e+001
1	 1.521252726267772e+000	 1.920710579192460e-001	 1.164144613870544e+001
1	 1.519276248250174e+000	 2.071252386533722e-001	 1.095721185245298e+001
1	 1.517143434246501e+000	 2.222093700739263e-001	 1.028530050626003e+001
1	 1.514853072217832e+000	 2.373212605084653e-001	 9.626462771441609e+000
1	 1.512403986319364e+000	 2.524586800298292e-001	 8.981439729861464e+000
1	 1.509795038149035e+000	 2.676193610623530e-001	 8.350961810863629e+000
1	 1.507025127989463e+000	 2.828009990314218e-001	 7.735747716959301e+000
1	 1.504093196041590e+000	 2.980012530565968e-001	 7.136503339874630e+000
1	 1.532893026624554e+000	 1.477491913244743e-001	 1.361474145035699e+001
1	 1.531371353544921e+000	 1.627657709182357e-001	 1.290149172028056e+001
1	 1.529696522149704e+000	 1.778187990632860e-001	 1.219805473911259e+001
1	 1.527867213643341e+000	 1.929061930432675e-001	 1.150522547499141e+001
1	 1.525882141795015e+000	 2.080258301522326e-001	 1.082379153223047e+001
1	 1.523740054203473e+000	 2.231755481748648e-001	 1.015453207857640e+001
1	 1.521439733559776e+000	 2.383531459091908e-001	 9.498216757102799e+000
1	 1.518979998906481e+000	 2.535563837321868e-001	 8.855604584232482e+000
1	 1.516359706891685e+000	 2.687829842086255e-001	 8.227442835460284e+000
1	 1.513577753016370e+000	 2.840306327434565e-001	 7.614465920423146e+000
1	 1.510633072873409e+000	 2.992969782779455e-001	 7.017394249039666e+000
1	 1.539529271896469e+000	 1.483888314378467e-001	 1.346820126676198e+001
1	 1.538001011145548e+000	 1.634704212464512e-001	 1.275863015608370e+001
1	 1.536318929021609e+000	 1.785886174006199e-001	 1.205865005285831e+001
1	 1.534481701019713e+000	 1.937413281674167e-001	 1.136907783458918e+001
1	 1.532488035340652e+000	 2.089264216511906e-001	 1.069072215271191e+001
1	 1.530336674161230e+000	 2.241417262758770e-001	 1.002438230749120e+001
1	 1.528026394902492e+000	 2.393850313099715e-001	 9.370847107776385e+000
1	 1.525556011494349e+000	 2.546540874345852e-001	 8.730893717218788e+000
1	 1.522924375635062e+000	 2.699466073549286e-001	 8.105286488632521e+000
1	 1.520130378043972e+000	 2.852602664555142e-001	 7.494775788260600e+000
1	 1.517172949705882e+000	 3.005927034993116e-001	 6.900096811783816e+000
1	 1.546165517169035e+000	 1.490284715514892e-001	 1.332085192188248e+001
1	 1.544630668746812e+000	 1.641750715748987e-001	 1.261526208815975e+001
1	 1.542941335894138e+000	 1.793584357381514e-001	 1.191903110737133e+001
1	 1.541096188396701e+000	 1.945764632917324e-001	 1.123299790124755e+001
1	 1.539093928886893e+000	 2.098270131502877e-001	 1.055799232188939e+001
1	 1.536933294119577e+000	 2.251079043770039e-001	 9.894833974248641e+000
1	 1.534613056245783e+000	 2.404169167108456e-001	 9.244331023658580e+000
1	 1.532132024082775e+000	 2.557517911370589e-001	 8.607278990125090e+000
1	 1.529489044378973e+000	 2.711102305012908e-001	 7.984459531172012e+000
1	 1.526683003072079e+000	 2.864899001676177e-001	 7.376639215114637e+000
1	 1.523712826538826e+000	 3.018884287207119e-001	 6.784568286714801e+000
1	 1.552801762442078e+000	 1.496681116654091e-001	 1.317270760365208e+001
1	 1.551260326348532e+000	 1.648797219036005e-001	 1.247139498105114e+001
1	 1.549563742767107e+000	 1.801282540759132e-001	 1.177919889695032e+001
1	 1.547710675774113e+000	 1.954115984162538e-001	 1.109698044959605e+001
1	 1.545699822433543e+000	 2.107276046495656e-001	 1.042559084249986e+001
1	 1.543529914078321e+000	 2.260740824782868e-001	 9.765870154445501e+000
1	 1.541199717589455e+000	 2.414488021118517e-001	 9.118646094705298e+000
1	 1.538708036671565e+000	 2.568494948396415e-001	 8.484732745283580e+000
1	 1.536053713123227e+000	 2.722738536477408e-001	 7.864929292090669e+000
1	 1.533235628100504e+000	 2.877195338797896e-001	 7.260018747034800e+000
1	 1.530252703372057e+000	 3.031841539421639e-001	 6.670766663099409e+000
1	 1.559438007715424e+000	 1.503077517796133e-001	 1.302378225849572e+001
1	 1.557889983950527e+000	 1.655843722325790e-001	 1.232703617223781e+001
1	 1.556186149640328e+000	 1.808980724139380e-001	 1.163915439896903e+001
1	 1.554325163151757e+000	 1.962467335410196e-001	 1.096102034321107e+001
1	 1.552305715980410e+000	 2.116281961490655e-001	 1.029350670788145e+001
1	 1.550126534037266e+000	 2.270402605797670e-001	 9.637474211767719e+000
1	 1.547786378933312e+000	 2.424806875130279e-001	 8.993770292339153e+000
1	 1.545284049260524e+000	 2.579471985423669e-001	 8.363227795818839e+000
1	 1.542618381867632e+000	 2.734374767943067e-001	 7.746663656530200e+000
1	 1.539788253129059e+000	 2.889491675920524e-001	 7.144877567616642e+000
1	 1.536792580205390e+000	 3.044798791636848e-001	 6.558650645316883e+000
1	 1.566074252988898e+000	 1.509473918941090e-001	 1.287408959644677e+001
1	 1.564519641552615e+000	 1.662890225618565e-001	 1.218219287482971e+001
1	 1.562808556513614e+000	 1.816678907522586e-001	 1.149889857423450e+001
1	 1.560939650529444e+000	 1.970818686660690e-001	 1.082511253273128e+001
1	 1.558911609527300e+000	 2.125287876488292e-001	 1.016172909793502e+001
1	 1.556723153996217e+000	 2.280064386814850e-001	 9.509629791886660e+000
1	 1.554373040277162e+000	 2.435125729144131e-001	 8.869681961366913e+000
1	 1.551860061849460e+000	 2.590449022452694e-001	 8.242737415672920e+000
1	 1.549183050611998e+000	 2.746010999410177e-001	 7.629631053979161e+000
1	 1.546340878157556e+000	 2.901788013044291e-001	 7.031179484493901e+000
1	 1.543332457038643e+000	 3.057756043852918e-001	 6.448179637707225e+000
1	 1.572710498262325e+000	 1.515870320089032e-001	 1.272364309613433e+001
1	 1.571149299154617e+000	 1.669936728914554e-001	 1.203687218019051e+001
1	 1.569430963386780e+000	 1.824377090909078e-001	 1.135843236733683e+001
1	 1.567554137906982e+000	 1.979170037914407e-001	 1.068925205402070e+001
1	 1.565517503074019e+000	 2.134293791488981e-001	 1.003024737518824e+001
1	 1.563319773954980e+000	 2.289726167834827e-001	 9.382320816509674e+000
1	 1.560959701620807e+000	 2.445444583160452e-001	 8.746359812101908e+000
1	 1.558436074438177e+000	 2.601426059483827e-001	 8.123235329882865e+000
1	 1.555747719356131e+000	 2.757647230879017e-001	 7.513800446788207e+000
1	 1.552893503185804e+000	 2.914084350169423e-001	 6.918888916172234e+000
1	 1.549872333871631e+000	 3.070713296070020e-001	 6.339313729803496e+000
1	 1.579346743535532e+000	 1.522266721240030e-001	 1.257245600964476e+001
1	 1.577778956756348e+000	 1.676983232213979e-001	 1.189108106049532e+001
1	 1.576053370259636e+000	 1.832075274299182e-001	 1.121775670698995e+001
1	 1.574168625284182e+000	 1.987521389171739e-001	 1.055343402637836e+001
1	 1.572123396620374e+000	 2.143299706493138e-001	 9.899051080958262e+000
1	 1.569916393913360e+000	 2.299387948858007e-001	 9.255531477580687e+000
1	 1.567546362964054e+000	 2.455763437179628e-001	 8.623782912684881e+000
1	 1.565012087026484e+000	 2.612403096517410e-001	 8.004695705103444e+000
1	 1.562312388099842e+000	 2.769283462349874e-001	 7.399141318974776e+000
1	 1.559446128213619e+000	 2.926380687296147e-001	 6.807970879195395e+000
1	 1.556412210704171e+000	 3.083670548288327e-001	 6.232013681936268e+000
1	 1.585982988808343e+000	 1.528663122394153e-001	 1.242054136726165e+001
1	 1.584408614357630e+000	 1.684029735517064e-001	 1.174482637122459e+001
1	 1.582675777131999e+000	 1.839773457693228e-001	 1.107687250636340e+001
1	 1.580783112660850e+000	 1.995872740433072e-001	 1.041765365079237e+001
1	 1.578729290166173e+000	 2.152305621501178e-001	 9.768129931611671e+000
1	 1.576513013871161e+000	 2.309049729884803e-001	 9.129246231626512e+000
1	 1.574133024306707e+000	 2.466082291202043e-001	 8.501930681597719e+000
1	 1.571588099614184e+000	 2.623380133553782e-001	 7.887093140368083e+000
1	 1.568877056842937e+000	 2.780919693823035e-001	 7.285623665309388e+000
1	 1.565998753240810e+000	 2.938677024424691e-001	 6.698390975633085e+000
1	 1.562952087536078e+000	 3.096627800508011e-001	 6.126240911199449e+000
1	 1.592619234080585e+000	 1.535059523551476e-001	 1.226791198208649e+001
1	 1.591038271958281e+000	 1.691076238824034e-001	 1.159811485359499e+001
1	 1.589298184003680e+000	 1.847471641091542e-001	 1.093578066340657e+001
1	 1.587397600036800e+000	 2.004224091698800e-001	 1.028190620823823e+001
1	 1.585335183711221e+000	 2.161311536513516e-001	 9.637473814916962e+000
1	 1.583109633828190e+000	 2.318711510915626e-001	 9.003449794244430e+000
1	 1.580719685648572e+000	 2.476401145228081e-001	 8.380782880364329e+000
1	 1.578164112201086e+000	 2.634357170593281e-001	 7.770402658080032e+000
1	 1.575441725585226e+000	 2.792555925298784e-001	 7.173217980674177e+000
1	 1.572551378267189e+000	 2.950973361555282e-001	 6.590115380882068e+000
1	 1.569491964367168e+000	 3.109585052729245e-001	 6.021957477767106e+000
1	 1.504093196041590e+000	 2.980012530565968e-001	 7.136503339874631e+000
1	 1.500997747292520e+000	 3.132200298999261e-001	 6.552570320409456e+000
1	 1.497738233748321e+000	 3.284526353368806e-001	 5.983368895518544e+000
1	 1.494313723579467e+000	 3.436966194285618e-001	 5.429436974086507e+000
1	 1.490723329744274e+000	 3.589494990456078e-001	 4.891298963820648e+000
1	 1.486966211157460e+000	 3.742087587819934e-001	 4.369464937678564e+000
1	 1.483041573840250e+000	 3.894718519125411e-001	 3.864429802110295e+000
1	 1.478948672050239e+000	 4.047362013938897e-001	 3.376672468635857e+000
1	 1.474686809389286e+000	 4.199992009085986e-001	 2.906655030313369e+000
1	 1.470255339887630e+000	 4.352582159519864e-001	 2.454821944682470e+000
1	 1.465653669062488e+000	 4.505105849612260e-001	 2.021599224795945e+000
1	 1.510633072873409e+000	 2.992969782779455e-001	 7.017394249039666e+000
1	 1.507524164949504e+000	 3.145819271687185e-001	 6.435603251016652e+000
1	 1.504250478868019e+000	 3.298807647805117e-001	 5.868543497535676e+000
1	 1.500811078747787e+000	 3.451910305219705e-001	 5.316761606202076e+000
1	 1.497205073690221e+000	 3.605102304669627e-001	 4.780789773491166e+000
1	 1.493431618952961e+000	 3.758358382723523e-001	 4.261144911252693e+000
1	 1.489489917104969e+000	 3.911652961396744e-001	 3.758327786004430e+000
1	 1.485379219161321e+000	 4.064960158204545e-001	 3.272822162618274e+000
1	 1.481098825695899e+000	 4.218253796648537e-001	 2.805093954035375e+000
1	 1.476648087930236e+000	 4.371507417132339e-001	 2.355590378677706e+000
1	 1.472026408796709e+000	 4.524694288301597e-001	 1.924739127248579e+000
1	 1.517172949705882e+000	 3.005927034993116e-001	 6.900096811783815e+000
1	 1.514050582607095e+000	 3.159438244375236e-001	 6.320661345295700e+000
1	 1.510762723988268e+000	 3.313088942241527e-001	 5.755951937829221e+000
1	 1.507308433916597e+000	 3.466854416153890e-001	 5.206522911633117e+000
1	 1.503686817636593e+000	 3.620709618883304e-001	 4.672913254145695e+000
1	 1.499897026748817e+000	 3.774629177627315e-001	 4.155645726260208e+000
1	 1.495938260369979e+000	 3.928587403668400e-001	 3.655225974381063e+000
1	 1.491809766272625e+000	 4.082558302470694e-001	 3.172141647953926e+000
1	 1.487510842002673e+000	 4.236515584211839e-001	 2.706861524185816e+000
1	 1.483040835972945e+000	 4.390432674745878e-001	 2.259834641700650e+000
1	 1.478399148530984e+000	 4.544282726992400e-001	 1.831489444901093e+000
1	 1.523712826538826e+000	 3.018884287207119e-001	 6.784568286714801e+000
1	 1.520577000265113e+000	 3.173057217063540e-001	 6.207697451896064e+000
1	 1.517274969108895e+000	 3.327370236678126e-001	 5.645542889658596e+000
1	 1.513805789085730e+000	 3.481798527088229e-001	 5.098665635088381e+000
1	 1.510168561583230e+000	 3.636316933097140e-001	 4.567610480967161e+000
1	 1.506362434544881e+000	 3.790899972531312e-001	 4.052905059469721e+000
1	 1.502386603635133e+000	 3.945521845940356e-001	 3.555058928681016e+000
1	 1.498240313384018e+000	 4.100156446737295e-001	 3.074562665692634e+000
1	 1.493922858309479e+000	 4.254777371775804e-001	 2.611886968072014e+000
1	 1.489433584015637e+000	 4.409357932360366e-001	 2.167481765524977e+000
1	 1.484771888265196e+000	 4.563871165684502e-001	 1.741775343597382e+000
1	 1.530252703372057e+000	 3.031841539421639e-001	 6.670766663099409e+000
1	 1.527103417923380e+000	 3.186676189752223e-001	 6.096665225514055e+000
1	 1.523787214229728e+000	 3.341651531114999e-001	 5.537265903707996e+000
1	 1.520303144255021e+000	 3.496742638022776e-001	 4.993135465859642e+000
1	 1.516650305529975e+000	 3.651924247311161e-001	 4.464823536451565e+000
1	 1.512827842340999e+000	 3.807170767435516e-001	 3.952861653058484e+000
1	 1.508834946900292e+000	 3.962456288212590e-001	 3.457762329009976e+000
1	 1.504670860495363e+000	 4.117754591004300e-001	 2.980018123763293e+000
1	 1.500334874616188e+000	 4.273039159340354e-001	 2.520100722852536e+000
1	 1.495826332058187e+000	 4.428283189975681e-001	 2.078460029307907e+000
1	 1.491144627999229e+000	 4.583459604377744e-001	 1.655523268462827e+000
1	 1.536792580205390e+000	 3.044798791636848e-001	 6.558650645316883e+000
1	 1.533629835581718e+000	 3.200295162441408e-001	 5.987519109742125e+000
1	 1.530299459350595e+000	 3.355932825552235e-001	 5.431071389416807e+000
1	 1.526800499424305e+000	 3.511686748957587e-001	 4.889879017722929e+000
1	 1.523132049476669e+000	 3.667531561525392e-001	 4.364495488974732e+000
1	 1.519293250137022e+000	 3.823441562339925e-001	 3.855455291942874e+000
1	 1.515283290165310e+000	 3.979390730485077e-001	 3.363272950335794e+000
1	 1.511101407606524e+000	 4.135352735271654e-001	 2.888442072145403e+000
1	 1.506746890922672e+000	 4.291300946905406e-001	 2.431434409794295e+000
1	 1.502219080100473e+000	 4.447208447591707e-001	 1.992698933048902e+000
1	 1.497517367732963e+000	 4.603048043071962e-001	 1.572660916684141e+000
1	 1.543332457038643e+000	 3.057756043852918e-001	 6.448179637707225e+000
1	 1.540156253239948e+000	 3.213914135131227e-001	 5.880214320353960e+000
1	 1.536811704471323e+000	 3.370214119989919e-001	 5.326910596784709e+000
1	 1.533297854593415e+000	 3.526630859892718e-001	 4.788843809351208e+000
1	 1.529613793423154e+000	 3.683138875739864e-001	 4.266570371903836e+000
1	 1.525758657932800e+000	 3.839712357244545e-001	 3.760626781685392e+000
1	 1.521731633430045e+000	 3.996325172757796e-001	 3.271528639291161e+000
1	 1.517531954717364e+000	 4.152950879539309e-001	 2.799769678671833e+000
1	 1.513158907228801e+000	 4.309562734470882e-001	 2.345820809184398e+000
1	 1.508611828142372e+000	 4.466133705208325e-001	 1.910129171723041e+000
1	 1.503890107466283e+000	 4.622636481766994e-001	 1.493117210981382e+000
1	 1.549872333871631e+000	 3.070713296070020e-001	 6.339313729803496e+000
1	 1.546682670897893e+000	 3.227533107821800e-001	 5.774706829013060e+000
1	 1.543323949591740e+000	 3.384495414428143e-001	 5.224735598637388e+000
1	 1.539795209762188e+000	 3.541574970828225e-001	 4.689978245222632e+000
1	 1.536095537369272e+000	 3.698746189954602e-001	 4.170993163238073e+000
1	 1.532224065728180e+000	 3.855983152149377e-001	 3.668317926960971e+000
1	 1.528179976694352e+000	 4.013259615030719e-001	 3.182468291563446e+000
1	 1.523962501827749e+000	 4.170549023807215e-001	 2.713937205444249e+000
1	 1.519570923534447e+000	 4.327824522036696e-001	 2.263193835876773e+000
1	 1.515004576183764e+000	 4.485058962825418e-001	 1.830682610069219e+000
1	 1.510262847199072e+000	 4.642224920462676e-001	 1.416822273751438e+000
1	 1.556412210704171e+000	 3.083670548288327e-001	 6.232013681936268e+000
1	 1.553209088555372e+000	 3.241152080513254e-001	 5.670953347391748e+000
1	 1.549836194711674e+000	 3.398776708866992e-001	 5.124499273339390e+000
1	 1.546292564930458e+000	 3.556519081764159e-001	 4.593231597010270e+000
1	 1.542577281314866e+000	 3.714353504169633e-001	 4.077709765762293e+000
1	 1.538689473523012e+000	 3.872253947054421e-001	 3.578471510566125e+000
1	 1.534628319958090e+000	 4.030194057303826e-001	 3.096031829854560e+000
1	 1.530393048937541e+000	 4.188147168075320e-001	 2.630881985843072e+000
1	 1.525982939839479e+000	 4.346086309602767e-001	 2.183488515455734e+000
1	 1.521397324224522e+000	 4.503984220442867e-001	 1.754292258014128e+000
1	 1.516635586931213e+000	 4.661813359158848e-001	 1.343707401863574e+000
1	 1.562952087536078e+000	 3.096627800508011e-001	 6.126240911199449e+000
1	 1.559735506212208e+000	 3.254771053205715e-001	 5.568911311689146e+000
1	 1.556348439830952e+000	 3.413058003306549e-001	 5.026155287941190e+000
1	 1.552789920098058e+000	 3.571463192700581e-001	 4.498553985439031e+000
1	 1.549059025259775e+000	 3.729960818384988e-001	 3.986666987699109e+000
1	 1.545154881317146e+000	 3.888524741959679e-001	 3.491031272955123e+000
1	 1.541076663221114e+000	 4.047128499577091e-001	 3.012160182394323e+000
1	 1.536823596046605e+000	 4.205745312343574e-001	 2.550542402114710e+000
1	 1.532394956143769e+000	 4.364348097169016e-001	 2.106640960997698e+000
1	 1.527790072264526e+000	 4.522909478060553e-001	 1.680892246713144e+000
1	 1.523008326662587e+000	 4.681401797855344e-001	 1.273705042087498e+000
1	 1.569491964367168e+000	 3.109585052729245e-001	 6.021957477767106e+000
1	 1.566261923868223e+000	 3.268390025899310e-001	 5.468538867536072e+000
1	 1.562860684949402e+000	 3.427339297746908e-001	 4.929658081747081e+000
1	 1.559287275264824e+000	 3.586407303637541e-001	 4.405896362596253e+000
1	 1.555540769203843e+000	 3.745568132600691e-001	 3.897812523844676e+000
1	 1.551620289110432e+000	 3.904795536865157e-001	 3.405941892287766e+000
1	 1.547525006483282e+000	 4.064062941850495e-001	 2.930795261990831e+000
1	 1.543254143154806e+000	 4.223343456611926e-001	 2.472857863518972e+000
1	 1.538806972447188e+000	 4.382609884735363e-001	 2.032588350413914e+000
1	 1.534182820303653e+000	 4.541834735678361e-001	 1.610417805190172e+000
1	 1.529381066393079e+000	 4.700990236552003e-001	 1.206748767136079e+000
1	 1.465653669062488e+000	 4.505105849612260e-001	 2.021599224795945e+000
1	 1.460881254582814e+000	 4.657536202629573e-001	 1.607299018460142e+000
1	 1.455937606170270e+000	 4.809846085935220e-001	 1.212282934456069e+000
1	 1.450822287668566e+000	 4.962008129821307e-001	 8.370330985971880e-001
1	 1.445534918351047e+000	 5.113994742604213e-001	 4.820262254182200e-001
1	 1.440075173828056e+000	 5.265778123931375e-001	 1.477331245122552e-001
1	 1.434442786918362e+000	 5.417330278466270e-001	-1.653817974379399e-001
1	 1.428637548482970e+000	 5.568623029941296e-001	-4.568610382470251e-001
1	 1.422659308219669e+000	 5.719628035567329e-001	-7.262545047199540e-001
1	 1.416507975416695e+000	 5.870316800788020e-001	-9.731200193134980e-001
1	 1.410183519663929e+000	 6.020660694366057e-001	-1.197023828206542e+000
1	 1.472026408796709e+000	 4.524694288301597e-001	 1.924739127248579e+000
1	 1.467233243606192e+000	 4.677787416561319e-001	 1.512934211487886e+000
1	 1.462268099948587e+000	 4.830759551300782e-001	 1.120633866983890e+000
1	 1.457130539771175e+000	 4.983583203807138e-001	 7.483432634336935e-001
1	 1.451820180691879e+000	 5.136230662426654e-001	 3.965621943808139e-001
1	 1.446336696910580e+000	 5.288674005929341e-001	 6.578454643801110e-002
1	 1.440679820084324e+000	 5.440885117253453e-001	-2.435022365722024e-001
1	 1.434849340164768e+000	 5.592835697619475e-001	-5.308176938124535e-001
1	 1.428845106196179e+000	 5.744497281002315e-001	-7.956888911856599e-001
1	 1.422667027072372e+000	 5.895841248949770e-001	-1.037650967847833e+000
1	 1.416315072251001e+000	 6.046838845734373e-001	-1.256247684650018e+000
1	 1.478399148530984e+000	 4.544282726992400e-001	 1.831489444901093e+000
1	 1.473585232629581e+000	 4.698038630495011e-001	 1.422305736319694e+000
1	 1.468598593726882e+000	 4.851673016668832e-001	 1.032842920912714e+000
1	 1.463438791873734e+000	 5.005158277796018e-001	 6.636291475497855e-001
1	 1.458105443032640e+000	 5.158466582252691e-001	 3.151871184028475e-001
1	 1.452598219993009e+000	 5.311569887931404e-001	-1.196648101388530e-002
1	 1.446916853250171e+000	 5.464439956045160e-001	-3.173215575169536e-001
1	 1.441061131846431e+000	 5.617048365302479e-001	-6.003751908259469e-001
1	 1.435030904172532e+000	 5.769366526442278e-001	-8.606322181907228e-001
1	 1.428826078727865e+000	 5.921365697116463e-001	-1.097605822198255e+000
1	 1.422446624837859e+000	 6.073016997107373e-001	-1.310818120855752e+000
1	 1.484771888265196e+000	 4.563871165684502e-001	 1.741775343597382e+000
1	 1.479937221652870e+000	 4.718289844430434e-001	 1.335336556366665e+000
1	 1.474929087505048e+000	 4.872586482039092e-001	 9.488298443688684e-001
1	 1.469747043976140e+000	 5.026733351787613e-001	 5.828062674889850e-001
1	 1.464390705373224e+000	 5.180702502081938e-001	 2.378112635855748e-001
1	 1.458859743075247e+000	 5.334465769937136e-001	-8.561596270555839e-002
1	 1.453153886415812e+000	 5.487994794840923e-001	-3.869430573662742e-001
1	 1.447272923527875e+000	 5.641261032989837e-001	-6.656451397023010e-001
1	 1.441216702148652e+000	 5.794235771886765e-001	-9.212054294396234e-001
1	 1.434985130383111e+000	 5.946890145287688e-001	-1.153115877257088e+000
1	 1.428578177424451e+000	 6.099195148484722e-001	-1.360877797769900e+000
1	 1.491144627999229e+000	 4.583459604377744e-001	 1.655523268462827e+000
1	 1.486289210675948e+000	 4.738541058367373e-001	 1.251950951971762e+000
1	 1.481259581282975e+000	 4.893499947411287e-001	 8.685157573754649e-001
1	 1.476055296078286e+000	 5.048308425781587e-001	 5.057915840300427e-001
1	 1.470675967713535e+000	 5.202938421914002e-001	 1.643464300212387e-001
1	 1.465121266157198e+000	 5.357361651946101e-001	-1.552582623066067e-001
1	 1.459390919581158e+000	 5.511549633640283e-001	-4.524682673618192e-001
1	 1.453484715209018e+000	 5.665473700681074e-001	-7.267372428885478e-001
1	 1.447402500124465e+000	 5.819105017335305e-001	-9.775274011176024e-001
1	 1.441144182038046e+000	 5.972414593463019e-001	-1.204310183445094e+000
1	 1.434709730010727e+000	 6.125373299866082e-001	-1.406566937565757e+000
1	 1.497517367732963e+000	 4.603048043071962e-001	 1.572660916684141e+000
1	 1.492641199698700e+000	 4.758792272305609e-001	 1.172074492388590e+000
1	 1.487590075060555e+000	 4.914413412785144e-001	 7.918231226616669e-001
1	 1.482363548180069e+000	 5.069883499777607e-001	 4.325034714570675e-001
1	 1.476961230053470e+000	 5.225174341748503e-001	 9.470591915345766e-002
1	 1.471382789238767e+000	 5.380257533957867e-001	-2.209861372148914e-001
1	 1.465627952746118e+000	 5.535104472442770e-001	-5.139969904660747e-001
1	 1.459696506889775e+000	 5.689686368375715e-001	-7.837593354611414e-001
1	 1.453588298099896e+000	 5.843974262787447e-001	-1.029714985882576e+000
1	 1.447303233692604e+000	 5.997939041642042e-001	-1.251315594468453e+000
1	 1.440841282596636e+000	 6.151551451251107e-001	-1.448023375534898e+000
1	 1.503890107466283e+000	 4.622636481766994e-001	 1.493117210981382e+000
1	 1.498993188721015e+000	 4.779043486244929e-001	 1.095634008472548e+000
1	 1.493920568837680e+000	 4.935326878160388e-001	 7.186757172140920e-001
1	 1.488671800281383e+000	 5.091458573775337e-001	 3.628616876107839e-001
1	 1.483246492392928e+000	 5.247410261585045e-001	 2.880450196710831e-002
1	 1.477644312319856e+000	 5.403153415972000e-001	-2.828907725894757e-001
1	 1.471864985910601e+000	 5.558659311247930e-001	-5.716273379802802e-001
1	 1.465908298570060e+000	 5.713899036073283e-001	-8.368174246908964e-001
1	 1.459774096074869e+000	 5.868843508242728e-001	-1.077883055738809e+000
1	 1.453462285346721e+000	 6.023463489824343e-001	-1.294256813861876e+000
1	 1.446972835182127e+000	 6.177729602639466e-001	-1.485382610659587e+000
1	 1.510262847199072e+000	 4.642224920462676e-001	 1.416822273751438e+000
1	 1.505345177742780e+000	 4.799294700185113e-001	 1.022557566063382e+000
1	 1.500251062614241e+000	 4.956240343536745e-001	 6.489986045484956e-001
1	 1.494980052382124e+000	 5.113033647774449e-001	 2.967873446982209e-001
1	 1.489531754731810e+000	 5.269646181423245e-001	-3.344161201592577e-002
1	 1.483905835400370e+000	 5.426049297988068e-001	-3.410618145217698e-001
1	 1.478102019074516e+000	 5.582214150055291e-001	-6.254557652352598e-001
1	 1.472120090249793e+000	 5.738111703773308e-001	-8.860157286061928e-001
1	 1.465959894049310e+000	 5.893712753700684e-001	-1.122144543824873e+000
1	 1.459621337000334e+000	 6.048987938009504e-001	-1.333256440353106e+000
1	 1.453104387767148e+000	 6.203907754030813e-001	-1.518777854904376e+000
1	 1.516635586931213e+000	 4.661813359158848e-001	 1.343707401863574e+000
1	 1.511697166763883e+000	 4.819545914125947e-001	 9.527744400389757e-001
1	 1.506581556390130e+000	 4.977153808913937e-001	 5.827181076804325e-001
1	 1.501288304482188e+000	 5.134608721774603e-001	 2.342028808381451e-001
1	 1.495817017070015e+000	 5.291882101262712e-001	-9.211480495988683e-002
1	 1.490167358480212e+000	 5.448945180005639e-001	-3.955874023706620e-001
1	 1.484339052237772e+000	 5.605768988864395e-001	-6.755771063825425e-001
1	 1.478331881928889e+000	 5.762324371475313e-001	-9.314567135840772e-001
1	 1.472145692023142e+000	 5.918581999160855e-001	-1.162610485148259e+000
1	 1.465780388653379e+000	 6.074512386197105e-001	-1.368435012083821e+000
1	 1.459235940351649e+000	 6.230085905424816e-001	-1.548340081265175e+000
1	 1.523008326662587e+000	 4.681401797855344e-001	 1.273705042087498e+000
1	 1.518049155784212e+000	 4.839797128067217e-001	 8.862150890202758e-001
1	 1.512912050165239e+000	 4.998067274291694e-001	 5.197617827746432e-001
1	 1.507596556581470e+000	 5.156183795775471e-001	 1.750320323209157e-001
1	 1.502102279407441e+000	 5.314118021103059e-001	-1.472960801791277e-001
1	 1.496428881559288e+000	 5.471841062024277e-001	-4.465542002855667e-001
1	 1.490576085400281e+000	 5.629323827674774e-001	-7.220846083118824e-001
1	 1.484543673607263e+000	 5.786537039178825e-001	-9.732411309974900e-001
1	 1.478331489996291e+000	 5.943451244622782e-001	-1.199390056297158e+000
1	 1.471939440305789e+000	 6.100036834386735e-001	-1.399911049720290e+000
1	 1.465367492935579e+000	 6.256264056821130e-001	-1.574198070612025e+000
1	 1.529381066393079e+000	 4.700990236552003e-001	 1.206748767136079e+000
1	 1.524401144803653e+000	 4.860048342008704e-001	 8.228111307088140e-001
1	 1.519242543939458e+000	 5.018980739669736e-001	 4.600583934531756e-001
1	 1.513904808679865e+000	 5.177758869776713e-001	 1.191998065620055e-001
1	 1.508387541743989e+000	 5.336353940943899e-001	-1.990650908655254e-001
1	 1.502690404637501e+000	 5.494736944043553e-001	-4.940474279415272e-001
1	 1.496813118561950e+000	 5.652878666485969e-001	-7.650699637208652e-001
1	 1.490755465284833e+000	 5.810749706883370e-001	-1.011468052946261e+000
1	 1.484517287968682e+000	 5.968320490086004e-001	-1.232590614159542e+000
1	 1.478098491957502e+000	 6.125561282577968e-001	-1.427801098486276e+000
1	 1.471499045518887e+000	 6.282442208219421e-001	-1.596478457360642e+000
1	 1.410183519663929e+000	 6.020660694366057e-001	-1.197023828206542e+000
1	 1.403686959262296e+000	 6.170608500081971e-001	-1.412585227188192e+000
1	 1.397017451590627e+000	 6.320153956248561e-001	-1.634075441346979e+000
1	 1.390175151974715e+000	 6.469268136174284e-001	-1.860445542126580e+000
1	 1.383160278389224e+000	 6.617922040227658e-001	-2.090642274698123e+000
1	 1.375973111932677e+000	 6.766086612348735e-001	-2.323609623969830e+000
1	 1.368613997251564e+000	 6.913732756799494e-001	-2.558290406475000e+000
1	 1.361083342912368e+000	 7.060831355135255e-001	-2.793627885319646e+000
1	 1.353381621720377e+000	 7.207353283378716e-001	-3.028567405265963e+000
1	 1.345509370984224e+000	 7.353269429377547e-001	-3.262058044930318e+000
1	 1.337467192725185e+000	 7.498550710325906e-001	-3.493054282982268e+000
1	 1.416315072251001e+000	 6.046838845734373e-001	-1.256247684650018e+000
1	 1.409790264460619e+000	 6.197438632445814e-001	-1.466108507361188e+000
1	 1.403091757416306e+000	 6.347634320170740e-001	-1.681553510310275e+000
1	 1.396219707119228e+000	 6.497396856442840e-001	-1.901575838240716e+000
1	 1.389174332491827e+000	 6.646697115538689e-001	-2.125169496499673e+000
1	 1.381955915854867e+000	 6.795505915061075e-001	-2.351330918896626e+000
1	 1.374564803353394e+000	 6.943794032762171e-001	-2.579060552348204e+000
1	 1.367001405330368e+000	 7.091532223588758e-001	-2.807364455351662e+000
1	 1.359266196646870e+000	 7.238691236930948e-001	-3.035255907245257e+000
1	 1.351359716947796e+000	 7.385241834055245e-001	-3.261757025137014e+000
1	 1.343282570872048e+000	 7.531154805702228e-001	-3.485900385314678e+000
1	 1.422446624837859e+000	 6.073016997107373e-001	-1.310818120855753e+000
1	 1.415893569658691e+000	 6.224268764813835e-001	-1.514929440000376e+000
1	 1.409166063241688e+000	 6.375114684096384e-001	-1.724328756460685e+000
1	 1.402264262263400e+000	 6.525525576713976e-001	-1.938050975810138e+000
1	 1.395188386594041e+000	 6.675472190851323e-001	-2.155136619849637e+000
1	 1.387938719776625e+000	 6.824925217773965e-001	-2.374633391334162e+000
1	 1.380515609454748e+000	 6.973855308724335e-001	-2.595597747077038e+000
1	 1.372919467747855e+000	 7.122233092040731e-001	-2.817096476355856e+000
1	 1.365150771572824e+000	 7.270029190480732e-001	-3.038208281479364e+000
1	 1.357210062910808e+000	 7.417214238729719e-001	-3.258025357317252e+000
1	 1.349097949018345e+000	 7.563758901074750e-001	-3.475654966546268e+000
1	 1.428578177424451e+000	 6.099195148484722e-001	-1.360877797769900e+000
1	 1.421996874856474e+000	 6.251098897185816e-001	-1.559200457838831e+000
1	 1.415240369066761e+000	 6.402595048025424e-001	-1.762559185395492e+000
1	 1.408308817407234e+000	 6.553654296987800e-001	-1.970030334857631e+000
1	 1.401202440695892e+000	 6.704247266165833e-001	-2.180700205100630e+000
1	 1.393921523697992e+000	 6.854344520487875e-001	-2.393666596110184e+000
1	 1.386466415555689e+000	 7.003916584686644e-001	-2.608040366283047e+000
1	 1.378837530164909e+000	 7.152933960492007e-001	-2.822946987201965e+000
1	 1.371035346498327e+000	 7.301367144029044e-001	-3.037528092663443e+000
1	 1.363060408873358e+000	 7.449186643402056e-001	-3.250943018697611e+000
1	 1.354913327164176e+000	 7.596362996444629e-001	-3.462370331290894e+000
1	 1.434709730010727e+000	 6.125373299866082e-001	-1.406566937565758e+000
1	 1.428100180053938e+000	 6.277929029561533e-001	-1.599071387788970e+000
1	 1.421314674891504e+000	 6.430075411957767e-001	-1.796400101624064e+000
1	 1.414353372550734e+000	 6.581783017264401e-001	-1.997670570822641e+000
1	 1.407216494797402e+000	 6.733022341482499e-001	-2.202014136223950e+000
1	 1.399904327619013e+000	 6.883763823203269e-001	-2.408577531429706e+000
1	 1.392417221656276e+000	 7.033977860649748e-001	-2.616524420072317e+000
1	 1.384755592581603e+000	 7.183634828943404e-001	-2.825036923424430e+000
1	 1.376919921423466e+000	 7.332705097576847e-001	-3.033317135065980e+000
1	 1.368910754835542e+000	 7.481159048073343e-001	-3.240588619303003e+000
1	 1.360728705309640e+000	 7.628967091813032e-001	-3.446097890020810e+000
1	 1.440841282596636e+000	 6.151551451251107e-001	-1.448023375534898e+000
1	 1.434203485251044e+000	 6.304759161940762e-001	-1.634689506388616e+000
1	 1.427388980715904e+000	 6.457555775893358e-001	-1.826004166040731e+000
1	 1.420397927693902e+000	 6.609911737543874e-001	-2.021125672533944e+000
1	 1.413230548898594e+000	 6.761797416801600e-001	-2.219229677756646e+000
1	 1.405887131539728e+000	 6.913183125920612e-001	-2.419510693274072e+000
1	 1.398368027756570e+000	 7.064039136614295e-001	-2.621183603368302e+000
1	 1.390673654998015e+000	 7.214335697395736e-001	-2.823485161976503e+000
1	 1.382804496348332e+000	 7.364043051125114e-001	-3.025675470199612e+000
1	 1.374761100797457e+000	 7.513131452744667e-001	-3.227039431047678e+000
1	 1.366544083454837e+000	 7.661571187181121e-001	-3.426888178091899e+000
1	 1.446972835182127e+000	 6.177729602639466e-001	-1.485382610659587e+000
1	 1.440306790447758e+000	 6.331589294323280e-001	-1.666199593837046e+000
1	 1.433463286539944e+000	 6.485036139832111e-001	-1.851521451936539e+000
1	 1.426442482836742e+000	 6.638040457826309e-001	-2.040547018708575e+000
1	 1.419244602999491e+000	 6.790572492123410e-001	-2.232495530300878e+000
1	 1.411869935460181e+000	 6.942602428640372e-001	-2.426608128416910e+000
1	 1.404318833856632e+000	 7.094100412580943e-001	-2.622149344964770e+000
1	 1.396591717414220e+000	 7.245036565849834e-001	-2.818408564846369e+000
1	 1.388689071273012e+000	 7.395381004674813e-001	-3.014701463533615e+000
1	 1.380611446759200e+000	 7.545103857417109e-001	-3.210371416086424e+000
1	 1.372359461599867e+000	 7.694175282550056e-001	-3.404790874285258e+000
1	 1.453104387767148e+000	 6.203907754030813e-001	-1.518777854904375e+000
1	 1.446410095644047e+000	 6.358419426708865e-001	-1.693743986663051e+000
1	 1.439537592363605e+000	 6.512516503773947e-001	-1.873099499592798e+000
1	 1.432487037979258e+000	 6.666169178111806e-001	-2.056083433020457e+000
1	 1.425258657100116e+000	 6.819347567448212e-001	-2.241957884618277e+000
1	 1.417852739380413e+000	 6.972021731363018e-001	-2.430009486097822e+000
1	 1.410269639956520e+000	 7.124161688550331e-001	-2.619550855336900e+000
1	 1.402509779830295e+000	 7.275737434306515e-001	-2.809922021569324e+000
1	 1.394573646197594e+000	 7.426718958226916e-001	-3.000491820277554e+000
1	 1.386461792720868e+000	 7.577076262091769e-001	-3.190659254447957e+000
1	 1.378174839744830e+000	 7.726779377921001e-001	-3.379854818879252e+000
1	 1.459235940351649e+000	 6.230085905424816e-001	-1.548340081265176e+000
1	 1.452513400839875e+000	 6.385249559097292e-001	-1.717462629065246e+000
1	 1.445611898186873e+000	 6.539996867718798e-001	-1.890883369498321e+000
1	 1.438531593121450e+000	 6.694297898400456e-001	-2.067881237780302e+000
1	 1.431272711200492e+000	 6.848122642776284e-001	-2.247760474360200e+000
1	 1.423835543300468e+000	 7.001441034089009e-001	-2.429852068393394e+000
1	 1.416220446056298e+000	 7.154222964523116e-001	-2.613515173247021e+000
1	 1.408427842246315e+000	 7.306438302766600e-001	-2.798138490667773e+000
1	 1.400458221122166e+000	 7.458056911782389e-001	-2.983141620262231e+000
1	 1.392312138682557e+000	 7.609048666769719e-001	-3.167976370971882e+000
1	 1.383990217889825e+000	 7.759383473295118e-001	-3.352128031266105e+000
1	 1.465367492935579e+000	 6.256264056821130e-001	-1.574198070612026e+000
1	 1.458616706035207e+000	 6.412079691488342e-001	-1.737493122963334e+000
1	 1.451686204009731e+000	 6.567477231666585e-001	-1.905015694230608e+000
1	 1.444576148263325e+000	 6.722426618692358e-001	-2.076084306268188e+000
1	 1.437286765300642e+000	 6.876897718107901e-001	-2.250044627474500e+000
1	 1.429818347220387e+000	 7.030860336818817e-001	-2.426270879323414e+000
1	 1.422171252156024e+000	 7.184284240499951e-001	-2.604167211180231e+000
1	 1.414345904662357e+000	 7.337139171230911e-001	-2.783169040051161e+000
1	 1.406342796046818e+000	 7.489394865342206e-001	-2.962744351945260e+000
1	 1.398162484644362e+000	 7.641021071452053e-001	-3.142394961569088e+000
1	 1.389805596034953e+000	 7.791987568673571e-001	-3.321657727126087e+000
1	 1.471499045518887e+000	 6.282442208219421e-001	-1.596478457360642e+000
1	 1.464720011230010e+000	 6.438909823881791e-001	-1.753970776798040e+000
1	 1.457760509832163e+000	 6.594957595617235e-001	-1.915636729039800e+000
1	 1.450620703404884e+000	 6.750555338987602e-001	-2.080834113757640e+000
1	 1.443300819400589e+000	 6.905672793443340e-001	-2.248949316326774e+000
1	 1.435801151140213e+000	 7.060279639552906e-001	-2.419398672729511e+000
1	 1.428122058255759e+000	 7.214345516481479e-001	-2.591629799644070e+000
1	 1.420263967078497e+000	 7.367840039700271e-001	-2.765122886405792e+000
1	 1.412227370971638e+000	 7.520732818907335e-001	-2.939391945566330e+000
1	 1.404012830606383e+000	 7.672993476139858e-001	-3.113986018825727e+000
1	 1.395620974180313e+000	 7.824591664057522e-001	-3.288490335172271e+000
1	 1.337467192725185e+000	 7.498550710325906e-001	-3.493054282982267e+000
1	 1.329254509510220e+000	 7.643189735336878e-001	-3.731374747854392e+000
1	 1.320873248139401e+000	 7.787135684687788e-001	-3.987468862576872e+000
1	 1.312324206908703e+000	 7.930359665787399e-001	-4.261331734915451e+000
1	 1.303608249122617e+000	 8.072832887068897e-001	-4.552939712282020e+000
1	 1.294726303013822e+000	 8.214526676025593e-001	-4.862250048256838e+000
1	 1.285679361603477e+000	 8.355412497282297e-001	-5.189200591264549e+000
1	 1.276468482501733e+000	 8.495461970679689e-001	-5.533709496339776e+000
1	 1.267094787648218e+000	 8.634646889348845e-001	-5.895674960877771e+000
1	 1.257559462992334e+000	 8.772939237752969e-001	-6.274974985222842e+000
1	 1.247863758113289e+000	 8.910311209672919e-001	-6.671467158902249e+000
1	 1.343282570872048e+000	 7.531154805702228e-001	-3.485900385314677e+000
1	 1.335034178475888e+000	 7.676422728849027e-001	-3.717444784834348e+000
1	 1.326616474937202e+000	 7.820994562806128e-001	-3.966728892637891e+000
1	 1.318030262022983e+000	 7.964841289355790e-001	-4.233746513919594e+000
1	 1.309276406791394e+000	 8.107933991743942e-001	-4.518467683373248e+000
1	 1.300355841511107e+000	 8.250243872794326e-001	-4.820838305938527e+000
1	 1.291269563520969e+000	 8.391742273058449e-001	-5.140779828653431e+000
1	 1.282018635029659e+000	 8.532400688978551e-001	-5.478188944680936e+000
1	 1.272604182855040e+000	 8.672190791040763e-001	-5.832937330515760e+000
1	 1.263027398103068e+000	 8.811084441895263e-001	-6.204871417315310e+000
1	 1.253289535786170e+000	 8.949053714419994e-001	-6.593812197226828e+000
1	 1.349097949018345e+000	 7.563758901074750e-001	-3.475654966546268e+000
1	 1.340813847440995e+000	 7.709655722357034e-001	-3.700751548016990e+000
1	 1.332359701734460e+000	 7.854853440920209e-001	-3.943500537509178e+000
1	 1.323736317136747e+000	 7.999322912920004e-001	-4.203894273772032e+000
1	 1.314944564459694e+000	 8.143035096415076e-001	-4.481896790846640e+000
1	 1.305985380007956e+000	 8.285961069559577e-001	-4.777443436620374e+000
1	 1.296859765438073e+000	 8.428072048831674e-001	-5.090440530625031e+000
1	 1.287568787557245e+000	 8.569339407275151e-001	-5.420765062267020e+000
1	 1.278113578061571e+000	 8.709734692731173e-001	-5.768264430594111e+000
1	 1.268495333213559e+000	 8.849229646036848e-001	-6.132756226619288e+000
1	 1.258715313458849e+000	 8.987796219167211e-001	-6.514028059133143e+000
1	 1.354913327164176e+000	 7.596362996444629e-001	-3.462370331290896e+000
1	 1.346593516405640e+000	 7.742888715862085e-001	-3.681319888706276e+000
1	 1.338102928531266e+000	 7.888712319031206e-001	-3.917785707617179e+000
1	 1.329442372250075e+000	 8.033804536481169e-001	-4.171758494103263e+000
1	 1.320612722127579e+000	 8.178136201083344e-001	-4.443196587008402e+000
1	 1.311614918504417e+000	 8.321678266322277e-001	-4.732025557856904e+000
1	 1.302449967354816e+000	 8.464401824602766e-001	-5.038137857347324e+000
1	 1.293118940084501e+000	 8.606278125570133e-001	-5.361392509713222e+000
1	 1.283622973267805e+000	 8.747278594420556e-001	-5.701614856141509e+000
1	 1.273963268323783e+000	 8.887374850178065e-001	-6.058596348337658e+000
1	 1.264141091131294e+000	 9.026538723914742e-001	-6.432094393215937e+000
1	 1.360728705309640e+000	 7.628967091813032e-001	-3.446097890020810e+000
1	 1.352373185369918e+000	 7.776121709365371e-001	-3.659174233375832e+000
1	 1.343846155327709e+000	 7.922571197140294e-001	-3.889586280729103e+000
1	 1.335148427363046e+000	 8.068286160040405e-001	-4.137322936957163e+000
1	 1.326280879795113e+000	 8.213237305749779e-001	-4.402337144663542e+000
1	 1.317244457000535e+000	 8.357395463083337e-001	-4.684545468987288e+000
1	 1.308040169271227e+000	 8.500731600372512e-001	-4.983827735519315e+000
1	 1.298669092611440e+000	 8.643216843864142e-001	-5.300026722705233e+000
1	 1.289132368473736e+000	 8.784822496109402e-001	-5.632947909998911e+000
1	 1.279431203433722e+000	 8.925520054319233e-001	-5.982359282911187e+000
1	 1.269566868803472e+000	 9.065281228662759e-001	-6.347991195974058e+000
1	 1.366544083454837e+000	 7.661571187181121e-001	-3.426888178091900e+000
1	 1.358152854333929e+000	 7.809354702868091e-001	-3.634338592707722e+000
1	 1.349589382123879e+000	 7.956430075248646e-001	-3.858904102648000e+000
1	 1.340854482475736e+000	 8.102767783598834e-001	-4.100571640781367e+000
1	 1.331949037462359e+000	 8.248338410415417e-001	-4.359289046041086e+000
1	 1.322873995496359e+000	 8.393112659843688e-001	-4.634964636628815e+000
1	 1.313630371187337e+000	 8.537061376141703e-001	-4.927466842060504e+000
1	 1.304219245138071e+000	 8.680155562157819e-001	-5.236623895507639e+000
1	 1.294641763679357e+000	 8.822366397798189e-001	-5.562223587758774e+000
1	 1.284899138543354e+000	 8.963665258460675e-001	-5.904013083991601e+000
1	 1.274992646475349e+000	 9.104023733411429e-001	-6.261698804407608e+000
1	 1.372359461599867e+000	 7.694175282550056e-001	-3.404790874285258e+000
1	 1.363932523297767e+000	 7.842587696371426e-001	-3.606836570402619e+000
1	 1.355332608919866e+000	 7.990288953357441e-001	-3.825740987889976e+000
1	 1.346560537588225e+000	 8.137249407157575e-001	-4.061488914571160e+000
1	 1.337617195129382e+000	 8.283439515081290e-001	-4.314023372000461e+000
1	 1.328503533991933e+000	 8.428829856604246e-001	-4.583245180538872e+000
1	 1.319220573103173e+000	 8.573391151911127e-001	-4.869012588215987e+000
1	 1.309769397664406e+000	 8.717094280451802e-001	-5.171140964891298e+000
1	 1.300151158884664e+000	 8.859910299487409e-001	-5.489402563087301e+000
1	 1.290367073652657e+000	 9.001810462602722e-001	-5.823526346720471e+000
1	 1.280418424146894e+000	 9.142766238160928e-001	-6.173197888803872e+000
1	 1.378174839744830e+000	 7.726779377921001e-001	-3.379854818879254e+000
1	 1.369712192261533e+000	 7.875820689876575e-001	-3.576691371766011e+000
1	 1.361075835715758e+000	 8.024147831467851e-001	-3.790098720344184e+000
1	 1.352266592700590e+000	 8.171731030717754e-001	-4.020059332161469e+000
1	 1.343285352796243e+000	 8.318540619748436e-001	-4.266511691511556e+000
1	 1.334133072487305e+000	 8.464547053365934e-001	-4.529349859834845e+000
1	 1.324810775018765e+000	 8.609720927681572e-001	-4.808423104063204e+000
1	 1.315319550190456e+000	 8.754032998746728e-001	-5.103535594468018e+000
1	 1.305660554089649e+000	 8.897454201177542e-001	-5.414446173418833e+000
1	 1.295835008761611e+000	 9.039955666745698e-001	-5.740868196304720e+000
1	 1.285844201818073e+000	 9.181508742911424e-001	-6.082469445705392e+000
1	 1.383990217889825e+000	 7.759383473295118e-001	-3.352128031266104e+000
1	 1.375491861225321e+000	 7.909053683384724e-001	-3.543925812078459e+000
1	 1.366819062511647e+000	 8.058006709581057e-001	-3.751979053916364e+000
1	 1.357972647812910e+000	 8.206212654280490e-001	-3.976267726662706e+000
1	 1.348953510463008e+000	 8.353641724417891e-001	-4.216726051399610e+000
1	 1.339762610982522e+000	 8.500264250129681e-001	-4.473242059561559e+000
1	 1.330400976934140e+000	 8.646050703453824e-001	-4.745657223410024e+000
1	 1.320869702716232e+000	 8.790971717043243e-001	-5.033766159419888e+000
1	 1.311169949294307e+000	 8.934998102869073e-001	-5.337316406009713e+000
1	 1.301302943870196e+000	 9.078100870889931e-001	-5.656008276880135e+000
1	 1.291269979488853e+000	 9.220251247663096e-001	-5.989494791055638e+000
1	 1.389805596034953e+000	 7.791987568673571e-001	-3.321657727126087e+000
1	 1.381271530189230e+000	 7.942286676897064e-001	-3.508562324755352e+000
1	 1.372562289307621e+000	 8.091865587698228e-001	-3.711383713156202e+000
1	 1.363678702925262e+000	 8.240694277846904e-001	-3.930099185036166e+000
1	 1.354621668129737e+000	 8.388742829090683e-001	-4.164638966347641e+000
1	 1.345392149477630e+000	 8.535981446896399e-001	-4.414885777595869e+000
1	 1.335991178849329e+000	 8.682380479228680e-001	-4.680674469071191e+000
1	 1.326419855241744e+000	 8.827910435341986e-001	-4.961791731612246e+000
1	 1.316679344498633e+000	 8.972542004562490e-001	-5.257975884343367e+000
1	 1.306770878978389e+000	 9.116246075035744e-001	-5.568916740654622e+000
1	 1.296695757159201e+000	 9.258993752416104e-001	-5.894255553516423e+000
1	 1.395620974180313e+000	 7.824591664057522e-001	-3.288490335172271e+000
1	 1.387051199153357e+000	 7.975519670414789e-001	-3.470622969303053e+000
1	 1.378305516103771e+000	 8.125724465820544e-001	-3.668314393868882e+000
1	 1.369384758037725e+000	 8.275175901418119e-001	-3.881539042805603e+000
1	 1.360289825796497e+000	 8.423843933767854e-001	-4.110223409149230e+000
1	 1.351021687972676e+000	 8.571698643667016e-001	-4.354245611878701e+000
1	 1.341581380764360e+000	 8.718710255006921e-001	-4.613435038513639e+000
1	 1.331970007767004e+000	 8.864849153643604e-001	-4.887572065078662e+000
1	 1.322188739702620e+000	 9.010085906258275e-001	-5.176387854875133e+000
1	 1.312238814086172e+000	 9.154391279183470e-001	-5.479564237322938e+000
1	 1.302121534829085e+000	 9.297736257170631e-001	-5.796733667952744e+000
1	 1.247863758113289e+000	 8.910311209672919e-001	-6.671467158902249e+000
1	 1.238008985427848e+000	 9.046735223098030e-001	-7.079982767832726e+000
1	 1.227996518643735e+000	 9.182183928799237e-001	-7.495689158879020e+000
1	 1.217827793274197e+000	 9.316630236738184e-001	-7.918958934970844e+000
1	 1.207504306375576e+000	 9.450047336581960e-001	-8.350199300329294e+000
1	 1.197027615871412e+000	 9.582408715077666e-001	-8.789851343971384e+000
1	 1.186399339818024e+000	 9.713688173232155e-001	-9.238389252853805e+000
1	 1.175621155612181e+000	 9.843859843274009e-001	-9.696319455953695e+000
1	 1.164694799141658e+000	 9.972898205375118e-001	-1.016417970077061e+001
1	 1.153622063879497e+000	 1.010077810410943e+000	-1.064253806392225e+001
1	 1.142404799922955e+000	 1.022747476462686e+000	-1.113199189768605e+001
1	 1.253289535786170e+000	 8.949053714419994e-001	-6.593812197226828e+000
1	 1.243391914027553e+000	 9.086070906676272e-001	-6.994790635945754e+000
1	 1.233335912507901e+000	 9.222108550519141e-001	-7.403189716984562e+000
1	 1.223122972982158e+000	 9.357139438121347e-001	-7.819365481130039e+000
1	 1.212754599015951e+000	 9.491136642577257e-001	-8.243708394431971e+000
1	 1.202232355306766e+000	 9.624073535352949e-001	-8.676642654739627e+000
1	 1.191557866946323e+000	 9.755923803540693e-001	-9.118625428176566e+000
1	 1.180732818624811e+000	 9.886661466894645e-001	-9.570146016804985e+000
1	 1.169758953777745e+000	 1.001626089462516e+000	-1.003172495891828e+001
1	 1.158638073676291e+000	 1.014469682192906e+000	-1.050391306358697e+001
1	 1.147372036462036e+000	 1.027194436623394e+000	-1.098729038126246e+001
1	 1.258715313458849e+000	 8.987796219167211e-001	-6.514028059133143e+000
1	 1.248774842627094e+000	 9.125406590255507e-001	-6.907333494688069e+000
1	 1.238675306371938e+000	 9.262033172240887e-001	-7.308293229098353e+000
1	 1.228418152690017e+000	 9.397648639507167e-001	-7.717248954921577e+000
1	 1.218004891656252e+000	 9.532225948575972e-001	-8.134576484227486e+000
1	 1.207437094742074e+000	 9.665738355632358e-001	-8.560685074379334e+000
1	 1.196716394074604e+000	 9.798159433853974e-001	-8.996016684272586e+000
1	 1.185844481637454e+000	 9.929463090520543e-001	-9.441045162246876e+000
1	 1.174823108413879e+000	 1.005962358388084e+000	-9.896275367070334e+000
1	 1.163654083473172e+000	 1.018861553975460e+000	-1.036224222358355e+001
1	 1.152339273001251e+000	 1.031641396784701e+000	-1.083950971476524e+001
1	 1.264141091131294e+000	 9.026538723914742e-001	-6.432094393215937e+000
1	 1.254157771226431e+000	 9.164742273835768e-001	-6.817605298136600e+000
1	 1.244014700235796e+000	 9.301957793964363e-001	-7.211006774273042e+000
1	 1.233713332397727e+000	 9.438157840895419e-001	-7.612628357664834e+000
1	 1.223255184296433e+000	 9.573315254577779e-001	-8.022833269472626e+000
1	 1.212641834177289e+000	 9.707403175915464e-001	-8.442017757241699e+000
1	 1.201874921202824e+000	 9.840395064171491e-001	-8.870610367363920e+000
1	 1.190956144650070e+000	 9.972264714151127e-001	-9.309071149923152e+000
1	 1.179887263050023e+000	 1.010298627314156e+000	-9.757890797296190e+000
1	 1.168670093270106e+000	 1.023253425758538e+000	-1.021758971806121e+001
1	 1.157306509540564e+000	 1.036088356946540e+000	-1.068871704794564e+001
1	 1.269566868803472e+000	 9.065281228662759e-001	-6.347991195974056e+000
1	 1.259540699825522e+000	 9.204077957417067e-001	-6.725600103722025e+000
1	 1.249354094099432e+000	 9.341882415689462e-001	-7.111337310544910e+000
1	 1.239008512105239e+000	 9.478667042285858e-001	-7.505522365853352e+000
1	 1.228505476936444e+000	 9.614404560582328e-001	-7.908507942209621e+000
1	 1.217846573612366e+000	 9.749067996201827e-001	-8.320679188338396e+000
1	 1.207033448330940e+000	 9.882630694492725e-001	-8.742453014293730e+000
1	 1.196067807662619e+000	 1.001506633778581e+000	-9.174277309948913e+000
1	 1.184951417686142e+000	 1.014634896240669e+000	-9.616630098158300e+000
1	 1.173686103067057e+000	 1.027645297542076e+000	-1.007001862411884e+001
1	 1.162273746079945e+000	 1.040535317108847e+000	-1.053497838263654e+001
1	 1.274992646475349e+000	 9.104023733411429e-001	-6.261698804407606e+000
1	 1.264923628424325e+000	 9.243413640999446e-001	-6.631312070029245e+000
1	 1.254693487962799e+000	 9.381807037416075e-001	-7.009291677508976e+000
1	 1.244303691812506e+000	 9.519176243678263e-001	-7.395949338066152e+000
1	 1.233755769576238e+000	 9.655493866589289e-001	-7.791629197569256e+000
1	 1.223051313047260e+000	 9.790732816491017e-001	-8.196707197583098e+000
1	 1.212191975458910e+000	 9.924866324817162e-001	-8.611590369747994e+000
1	 1.201179470675061e+000	 1.005786796142402e+000	-9.036716064646148e+000
1	 1.190015572322198e+000	 1.018971165167558e+000	-9.472551116490486e+000
1	 1.178702112863993e+000	 1.032037169326007e+000	-9.919590945147679e+000
1	 1.167240982619358e+000	 1.044982277271553e+000	-1.037835859717811e+001
1	 1.280418424146894e+000	 9.142766238160928e-001	-6.173197888803871e+000
1	 1.270306557022799e+000	 9.282749324582924e-001	-6.534735454654586e+000
1	 1.260032881825851e+000	 9.421731659144090e-001	-6.904876598828303e+000
1	 1.249598871519480e+000	 9.559685445072400e-001	-7.283927321703482e+000
1	 1.239006062215768e+000	 9.696583172598308e-001	-7.672225244298948e+000
1	 1.228256052481923e+000	 9.832397636782588e-001	-8.070138973671909e+000
1	 1.217350502586689e+000	 9.967101955144281e-001	-8.478067403039539e+000
1	 1.206291133687358e+000	 1.010066958506518e+000	-8.896438947777217e+000
1	 1.195079726958154e+000	 1.023307434094763e+000	-9.325710718621421e+000
1	 1.183718122660878e+000	 1.036429041110268e+000	-9.766367633580055e+000
1	 1.172208219158771e+000	 1.049429237434591e+000	-1.021892147022120e+001
1	 1.285844201818073e+000	 9.181508742911424e-001	-6.082469445705392e+000
1	 1.275689485620904e+000	 9.322085008167522e-001	-6.435864612116428e+000
1	 1.265372275688542e+000	 9.461656280873408e-001	-6.798098684680040e+000
1	 1.254894051226112e+000	 9.600194646468043e-001	-7.169474059552292e+000
1	 1.244256354854985e+000	 9.737672478609056e-001	-7.550323815024686e+000
1	 1.233460791916311e+000	 9.874062457076122e-001	-7.941011077611233e+000
1	 1.222509029714235e+000	 1.000933758547358e+000	-8.341928324466668e+000
1	 1.211402796699468e+000	 1.014347120870870e+000	-8.753496623292495e+000
1	 1.200143881593975e+000	 1.027643703022220e+000	-9.176164811061842e+000
1	 1.188734132457679e+000	 1.040820912894790e+000	-9.610408613063427e+000
1	 1.177175455698150e+000	 1.053876197597896e+000	-1.005672970392908e+001
1	 1.291269979488853e+000	 9.220251247663096e-001	-5.989494791055638e+000
1	 1.281072414218598e+000	 9.361420691753278e-001	-6.334693991819338e+000
1	 1.270711669550826e+000	 9.501580902603912e-001	-6.688964434139509e+000
1	 1.260189230932356e+000	 9.640703847864955e-001	-7.052606996185895e+000
1	 1.249506647493842e+000	 9.778761784621188e-001	-7.425952176253969e+000
1	 1.238665531350377e+000	 9.915727277371169e-001	-7.809359455905756e+000
1	 1.227667556841505e+000	 1.005157321580453e+000	-8.203216601259966e+000
1	 1.216514459711353e+000	 1.018627283235401e+000	-8.607938903604143e+000
1	 1.205208036229623e+000	 1.031979971949866e+000	-9.023968360669752e+000
1	 1.193750142254360e+000	 1.045212784679509e+000	-9.451772800073917e+000
1	 1.182142692237461e+000	 1.058323157761401e+000	-9.891844946593894e+000
1	 1.296695757159201e+000	 9.258993752416104e-001	-5.894255553516423e+000
1	 1.286455342815841e+000	 9.400756375340205e-001	-6.231218136068404e+000
1	 1.276051063412657e+000	 9.541505524335500e-001	-6.577480237505015e+000
1	 1.265484410638162e+000	 9.681213049262910e-001	-6.933343284202941e+000
1	 1.254756940132293e+000	 9.819851090634368e-001	-7.299137138127800e+000
1	 1.243870270784076e+000	 9.957392097667297e-001	-7.675219453414436e+000
1	 1.232826083968456e+000	 1.009380884613662e+000	-8.061974973127979e+000
1	 1.221626122722972e+000	 1.022907445600052e+000	-8.459814767401770e+000
1	 1.210272190865062e+000	 1.036316240877639e+000	-8.869175414309527e+000
1	 1.198766152050888e+000	 1.049604656464360e+000	-9.290518124988139e+000
1	 1.187109928776672e+000	 1.062770117925039e+000	-9.724327814685138e+000
1	 1.302121534829085e+000	 9.297736257170631e-001	-5.796733667952741e+000
1	 1.291838271412590e+000	 9.440092058928340e-001	-6.125431678134098e+000
1	 1.281390457273991e+000	 9.581430146068060e-001	-6.463652378563622e+000
1	 1.270779590343483e+000	 9.721722250661671e-001	-6.811699790310588e+000
1	 1.260007232770287e+000	 9.860940396648253e-001	-7.169905063928783e+000
1	 1.249075010217361e+000	 9.999056917964071e-001	-7.538625825885448e+000
1	 1.237984611095045e+000	 1.013604447646933e+000	-7.918245467415077e+000
1	 1.226737785734286e+000	 1.027187607964766e+000	-8.309172377022453e+000
1	 1.215336345500255e+000	 1.040652509805476e+000	-8.711839118018876e+000
1	 1.203782161847228e+000	 1.053996528249277e+000	-9.126701552627926e+000
1	 1.192077165315749e+000	 1.067217078088745e+000	-9.554237914346917e+000
1	 1.142404799922955e+000	 1.022747476462686e+000	-1.113199189768605e+001
1	 1.131046627642062e+000	 1.035294507947630e+000	-1.162181792511592e+001
1	 1.119547835519656e+000	 1.047718419402501e+000	-1.210144171972913e+001
1	 1.107910437291455e+000	 1.060016858949330e+000	-1.257149064293492e+001
1	 1.096136498889500e+000	 1.072187518904880e+000	-1.303260252662020e+001
1	 1.084228137221870e+000	 1.084228137221870e+000	-1.348542496142295e+001
1	 1.072187518904880e+000	 1.096136498889500e+000	-1.393061457093694e+001
1	 1.060016858949330e+000	 1.107910437291456e+000	-1.436883627319450e+001
1	 1.047718419402502e+000	 1.119547835519656e+000	-1.480076253080372e+001
1	 1.035294507947629e+000	 1.131046627642062e+000	-1.522707259114324e+001
1	 1.022747476462687e+000	 1.142404799922955e+000	-1.564845171803842e+001
1	 1.147372036462036e+000	 1.027194436623394e+000	-1.098729038126246e+001
1	 1.135964478246579e+000	 1.039796023265520e+000	-1.147101518512191e+001
1	 1.124415688767098e+000	 1.052273954545191e+000	-1.194442842713318e+001
1	 1.112727690515145e+000	 1.064625868358344e+000	-1.240819526442655e+001
1	 1.100902558405543e+000	 1.076849446987810e+000	-1.286299347098133e+001
1	 1.088942418550806e+000	 1.088942418550806e+000	-1.330951265471979e+001
1	 1.076849446987810e+000	 1.100902558405543e+000	-1.374845345666847e+001
1	 1.064625868358344e+000	 1.112727690515145e+000	-1.418052673368955e+001
1	 1.052273954545191e+000	 1.124415688767098e+000	-1.460645272632709e+001
1	 1.039796023265520e+000	 1.135964478246579e+000	-1.502696021334385e+001
1	 1.027194436623394e+000	 1.147372036462037e+000	-1.544278565455991e+001
1	 1.152339273001251e+000	 1.031641396784701e+000	-1.083950971476524e+001
1	 1.140882328851282e+000	 1.044297538584001e+000	-1.131712621361009e+001
1	 1.129283542014786e+000	 1.056829489688449e+000	-1.178434944139095e+001
1	 1.117544943739142e+000	 1.069234877767888e+000	-1.224187243693409e+001
1	 1.105668617921957e+000	 1.081511375071224e+000	-1.269040260555026e+001
1	 1.093656699880171e+000	 1.093656699880171e+000	-1.313066088265830e+001
1	 1.081511375071224e+000	 1.105668617921957e+000	-1.356338087631704e+001
1	 1.069234877767888e+000	 1.117544943739142e+000	-1.398930799028950e+001
1	 1.056829489688449e+000	 1.129283542014786e+000	-1.440919852930692e+001
1	 1.044297538584001e+000	 1.140882328851282e+000	-1.482381878824634e+001
1	 1.031641396784701e+000	 1.152339273001251e+000	-1.523394412696997e+001
1	 1.157306509540564e+000	 1.036088356946540e+000	-1.068871704794564e+001
1	 1.145800179456138e+000	 1.048799053903009e+000	-1.116021861504661e+001
1	 1.134151395262682e+000	 1.061385024832209e+000	-1.162126919748085e+001
1	 1.122362196963406e+000	 1.073843887177903e+000	-1.207257992682797e+001
1	 1.110434677438696e+000	 1.086173303155067e+000	-1.251487765753951e+001
1	 1.098370981209915e+000	 1.098370981209915e+000	-1.294890409467274e+001
1	 1.086173303155066e+000	 1.110434677438696e+000	-1.337541489807706e+001
1	 1.073843887177903e+000	 1.122362196963406e+000	-1.379517876473535e+001
1	 1.061385024832209e+000	 1.134151395262682e+000	-1.420897649101740e+001
1	 1.048799053903008e+000	 1.145800179456137e+000	-1.461760001664810e+001
1	 1.036088356946540e+000	 1.157306509540565e+000	-1.502185145223932e+001
1	 1.162273746079945e+000	 1.040535317108847e+000	-1.053497838263654e+001
1	 1.150718030061111e+000	 1.053300569222475e+000	-1.100035883820587e+001
1	 1.139019248510750e+000	 1.065940559976411e+000	-1.145525102887176e+001
1	 1.127179450187897e+000	 1.078452896588330e+000	-1.190037451296846e+001
1	 1.115200736955713e+000	 1.090835231239282e+000	-1.233646553826960e+001
1	 1.103085262539988e+000	 1.103085262539988e+000	-1.276427615128788e+001
1	 1.090835231239282e+000	 1.115200736955712e+000	-1.318457328126848e+001
1	 1.078452896588330e+000	 1.127179450187897e+000	-1.359813780061973e+001
1	 1.065940559976411e+000	 1.139019248510750e+000	-1.400576356358580e+001
1	 1.053300569222475e+000	 1.150718030061111e+000	-1.440825642501578e+001
1	 1.040535317108847e+000	 1.162273746079944e+000	-1.480643324113195e+001
1	 1.167240982619358e+000	 1.044982277271553e+000	-1.037835859717811e+001
1	 1.155635880666168e+000	 1.057802084542336e+000	-1.083761220076152e+001
1	 1.143887101758954e+000	 1.070496095120991e+000	-1.128635719096091e+001
1	 1.131996703412573e+000	 1.083061905999109e+000	-1.172531200771764e+001
1	 1.119966796472965e+000	 1.095497159323818e+000	-1.215521236052935e+001
1	 1.107799543870341e+000	 1.107799543870341e+000	-1.257681033664927e+001
1	 1.095497159323818e+000	 1.119966796472965e+000	-1.299087348290936e+001
1	 1.083061905999109e+000	 1.131996703412573e+000	-1.339818386292164e+001
1	 1.070496095120991e+000	 1.143887101758954e+000	-1.379953709146348e+001
1	 1.057802084542336e+000	 1.155635880666168e+000	-1.419574134791716e+001
1	 1.044982277271553e+000	 1.167240982619358e+000	-1.458761637067603e+001
1	 1.172208219158771e+000	 1.049429237434591e+000	-1.021892147022120e+001
1	 1.160553731271275e+000	 1.062303599862524e+000	-1.067204291325122e+001
1	 1.148754955007256e+000	 1.075051630265886e+000	-1.111464888391519e+001
1	 1.136813956637395e+000	 1.087670915410181e+000	-1.154744727741642e+001
1	 1.124732855990405e+000	 1.100159087408617e+000	-1.197116345549498e+001
1	 1.112513825200922e+000	 1.112513825200922e+000	-1.238653937073522e+001
1	 1.100159087408617e+000	 1.124732855990405e+000	-1.279433266412083e+001
1	 1.087670915410181e+000	 1.136813956637395e+000	-1.319531573755334e+001
1	 1.075051630265886e+000	 1.148754955007256e+000	-1.359027480311319e+001
1	 1.062303599862524e+000	 1.160553731271275e+000	-1.398000891089950e+001
1	 1.049429237434591e+000	 1.172208219158770e+000	-1.436532895733465e+001
1	 1.177175455698150e+000	 1.053876197597896e+000	-1.005672970392908e+001
1	 1.165471581876397e+000	 1.066805115182975e+000	-1.050371410243536e+001
1	 1.153622808255620e+000	 1.079607165411031e+000	-1.094018627493458e+001
1	 1.141631209862322e+000	 1.092279924821487e+000	-1.136683426234490e+001
1	 1.129498915507990e+000	 1.104821015493625e+000	-1.178436338922029e+001
1	 1.117228106531682e+000	 1.117228106531682e+000	-1.219349542126009e+001
1	 1.104821015493625e+000	 1.129498915507990e+000	-1.259496769636961e+001
1	 1.092279924821486e+000	 1.141631209862321e+000	-1.298953223091885e+001
1	 1.079607165411031e+000	 1.153622808255620e+000	-1.337795480290747e+001
1	 1.066805115182975e+000	 1.165471581876397e+000	-1.376101401380164e+001
1	 1.053876197597896e+000	 1.177175455698150e+000	-1.413950033085645e+001
1	 1.182142692237461e+000	 1.058323157761401e+000	-9.891844946593894e+000
1	 1.170389432481500e+000	 1.071306630503624e+000	-1.033268783406671e+001
1	 1.158490661504009e+000	 1.084162700556365e+000	-1.076302851995434e+001
1	 1.146448463087312e+000	 1.096888934232965e+000	-1.118352599617727e+001
1	 1.134264975025674e+000	 1.109482943578787e+000	-1.159485597871177e+001
1	 1.121942387862572e+000	 1.121942387862572e+000	-1.199771011527669e+001
1	 1.109482943578788e+000	 1.134264975025674e+000	-1.239279516755394e+001
1	 1.096888934232965e+000	 1.146448463087312e+000	-1.278083216948319e+001
1	 1.084162700556365e+000	 1.158490661504009e+000	-1.316255556323086e+001
1	 1.071306630503624e+000	 1.170389432481500e+000	-1.353871231448589e+001
1	 1.058323157761401e+000	 1.182142692237461e+000	-1.391006100878510e+001
1	 1.187109928776672e+000	 1.062770117925039e+000	-9.724327814685138e+000
1	 1.175307283086549e+000	 1.075808145824403e+000	-1.015902513508819e+001
1	 1.163358514752385e+000	 1.088718235701824e+000	-1.058323378480250e+001
1	 1.151265716312326e+000	 1.101497943644559e+000	-1.099757462495028e+001
1	 1.139031034543412e+000	 1.114144871664049e+000	-1.140268430759969e+001
1	 1.126656669193541e+000	 1.126656669193541e+000	-1.179921455048789e+001
1	 1.114144871664049e+000	 1.139031034543412e+000	-1.218783138793590e+001
1	 1.101497943644558e+000	 1.151265716312326e+000	-1.256921439935297e+001
1	 1.088718235701824e+000	 1.163358514752385e+000	-1.294405591678052e+001
1	 1.075808145824403e+000	 1.175307283086549e+000	-1.331306021297955e+001
1	 1.062770117925040e+000	 1.187109928776672e+000	-1.367694267160862e+001
1	 1.192077165315749e+000	 1.067217078088745e+000	-9.554237914346917e+000
1	 1.180225133691511e+000	 1.080309661145249e+000	-9.982786015275865e+000
1	 1.168226368000712e+000	 1.093273770847345e+000	-1.040085926582760e+001
1	 1.156082969537323e+000	 1.106106953056207e+000	-1.080903142555627e+001
1	 1.143797094061159e+000	 1.118806799749355e+000	-1.120789074141767e+001
1	 1.131370950524538e+000	 1.131370950524538e+000	-1.159803930627509e+001
1	 1.118806799749355e+000	 1.143797094061159e+000	-1.198009239592617e+001
1	 1.106106953056207e+000	 1.156082969537324e+000	-1.235467778586698e+001
1	 1.093273770847345e+000	 1.168226368000712e+000	-1.272243504905934e+001
1	 1.080309661145249e+000	 1.180225133691511e+000	-1.308401483601225e+001
1	 1.067217078088744e+000	 1.192077165315749e+000	-1.344007813853021e+001
1	 1.022747476462687e+000	 1.142404799922955e+000	-1.564845171803842e+001
1	 1.010077810410943e+000	 1.153622063879497e+000	-1.605887859220616e+001
1	 9.972898205375119e-001	 1.164694799141658e+000	-1.645201662421465e+001
1	 9.843859843274009e-001	 1.175621155612181e+000	-1.682826261087343e+001
1	 9.713688173232153e-001	 1.186399339818024e+000	-1.718800242462912e+001
1	 9.582408715077669e-001	 1.197027615871412e+000	-1.753161111852751e+001
1	 9.450047336581959e-001	 1.207504306375576e+000	-1.785945305729453e+001
1	 9.316630236738184e-001	 1.217827793274197e+000	-1.817188207379219e+001
1	 9.182183928799237e-001	 1.227996518643735e+000	-1.846924165003773e+001
1	 9.046735223098031e-001	 1.238008985427847e+000	-1.875186512191928e+001
1	 8.910311209672918e-001	 1.247863758113289e+000	-1.902007590667370e+001
1	 1.027194436623394e+000	 1.147372036462037e+000	-1.544278565455991e+001
1	 1.014469682192906e+000	 1.158638073676291e+000	-1.584782893820995e+001
1	 1.001626089462515e+000	 1.169758953777745e+000	-1.623560205822457e+001
1	 9.886661466894644e-001	 1.180732818624811e+000	-1.660644028079716e+001
1	 9.755923803540693e-001	 1.191557866946323e+000	-1.696066465576104e+001
1	 9.624073535352949e-001	 1.202232355306766e+000	-1.729858225863123e+001
1	 9.491136642577258e-001	 1.212754599015951e+000	-1.762048646401851e+001
1	 9.357139438121348e-001	 1.223122972982158e+000	-1.792665724934314e+001
1	 9.222108550519140e-001	 1.233335912507902e+000	-1.821736152769855e+001
1	 9.086070906676270e-001	 1.243391914027552e+000	-1.849285350864439e+001
1	 8.949053714419993e-001	 1.253289535786170e+000	-1.875337508564265e+001
1	 1.031641396784701e+000	 1.152339273001251e+000	-1.523394412696997e+001
1	 1.018861553975460e+000	 1.163654083473172e+000	-1.563336856226422e+001
1	 1.005962358388085e+000	 1.174823108413879e+000	-1.601544851277973e+001
1	 9.929463090520542e-001	 1.185844481637454e+000	-1.638048020980536e+001
1	 9.798159433853972e-001	 1.196716394074604e+000	-1.672874326182244e+001
1	 9.665738355632361e-001	 1.207437094742074e+000	-1.706050098837109e+001
1	 9.532225948575975e-001	 1.218004891656253e+000	-1.737600078920718e+001
1	 9.397648639507172e-001	 1.228418152690017e+000	-1.767547454745087e+001
1	 9.262033172240886e-001	 1.238675306371938e+000	-1.795913906534620e+001
1	 9.125406590255507e-001	 1.248774842627094e+000	-1.822719653116930e+001
1	 8.987796219167212e-001	 1.258715313458849e+000	-1.847983501575314e+001
1	 1.036088356946540e+000	 1.157306509540565e+000	-1.502185145223932e+001
1	 1.023253425758538e+000	 1.168670093270105e+000	-1.541539752862296e+001
1	 1.010298627314157e+000	 1.179887263050023e+000	-1.579144030873439e+001
1	 9.972264714151126e-001	 1.190956144650070e+000	-1.615025918518274e+001
1	 9.840395064171490e-001	 1.201874921202825e+000	-1.649211539939662e+001
1	 9.707403175915463e-001	 1.212641834177289e+000	-1.681725242239362e+001
1	 9.573315254577777e-001	 1.223255184296433e+000	-1.712589637342753e+001
1	 9.438157840895419e-001	 1.233713332397727e+000	-1.741825647509744e+001
1	 9.301957793964361e-001	 1.244014700235796e+000	-1.769452554340922e+001
1	 9.164742273835764e-001	 1.254157771226431e+000	-1.795488051119875e+001
1	 9.026538723914741e-001	 1.264141091131294e+000	-1.819948298324345e+001
1	 1.040535317108847e+000	 1.162273746079944e+000	-1.480643324113195e+001
1	 1.027645297542076e+000	 1.173686103067057e+000	-1.519381760993113e+001
1	 1.014634896240669e+000	 1.184951417686142e+000	-1.556346374446534e+001
1	 1.001506633778581e+000	 1.196067807662619e+000	-1.591565610052150e+001
1	 9.882630694492723e-001	 1.207033448330941e+000	-1.625066032506184e+001
1	 9.749067996201826e-001	 1.217846573612366e+000	-1.656872363929815e+001
1	 9.614404560582330e-001	 1.228505476936443e+000	-1.687007526091399e+001
1	 9.478667042285859e-001	 1.239008512105239e+000	-1.715492686399974e+001
1	 9.341882415689460e-001	 1.249354094099432e+000	-1.742347307517236e+001
1	 9.204077957417068e-001	 1.259540699825522e+000	-1.767589200426687e+001
1	 9.065281228662759e-001	 1.269566868803472e+000	-1.791234580789784e+001
1	 1.044982277271553e+000	 1.167240982619358e+000	-1.458761637067603e+001
1	 1.032037169326007e+000	 1.178702112863993e+000	-1.496853225087323e+001
1	 1.018971165167558e+000	 1.190015572322198e+000	-1.533140705379486e+001
1	 1.005786796142402e+000	 1.201179470675061e+000	-1.567655191090522e+001
1	 9.924866324817162e-001	 1.212191975458910e+000	-1.600425935070826e+001
1	 9.790732816491017e-001	 1.223051313047260e+000	-1.631480363984861e+001
1	 9.655493866589286e-001	 1.233755769576238e+000	-1.660844116331863e+001
1	 9.519176243678263e-001	 1.244303691812506e+000	-1.688541084242288e+001
1	 9.381807037416069e-001	 1.254693487962799e+000	-1.714593458905559e+001
1	 9.243413640999447e-001	 1.264923628424325e+000	-1.739021779476255e+001
1	 9.104023733411428e-001	 1.274992646475349e+000	-1.761844985297094e+001
1	 1.049429237434591e+000	 1.172208219158770e+000	-1.436532895733465e+001
1	 1.036429041110268e+000	 1.183718122660878e+000	-1.473944653274792e+001
1	 1.023307434094763e+000	 1.195079726958154e+000	-1.509516036498295e+001
1	 1.010066958506518e+000	 1.206291133687358e+000	-1.543282958922995e+001
1	 9.967101955144284e-001	 1.217350502586690e+000	-1.575279579999147e+001
1	 9.832397636782592e-001	 1.228256052481923e+000	-1.605538330624747e+001
1	 9.696583172598308e-001	 1.239006062215768e+000	-1.634089942438227e+001
1	 9.559685445072405e-001	 1.249598871519480e+000	-1.660963480770910e+001
1	 9.421731659144089e-001	 1.260032881825851e+000	-1.686186381134325e+001
1	 9.282749324582921e-001	 1.270306557022799e+000	-1.709784489108033e+001
1	 9.142766238160929e-001	 1.280418424146894e+000	-1.731782103486136e+001
1	 1.053876197597896e+000	 1.177175455698150e+000	-1.413950033085645e+001
1	 1.040820912894789e+000	 1.188734132457678e+000	-1.450646713893824e+001
1	 1.027643703022220e+000	 1.200143881593975e+000	-1.485461566075911e+001
1	 1.014347120870870e+000	 1.211402796699468e+000	-1.518437408363263e+001
1	 1.000933758547358e+000	 1.222509029714236e+000	-1.549615496588707e+001
1	 9.874062457076124e-001	 1.233460791916311e+000	-1.579035536244124e+001
1	 9.737672478609055e-001	 1.244256354854985e+000	-1.606735698550073e+001
1	 9.600194646468042e-001	 1.254894051226112e+000	-1.632752639950285e+001
1	 9.461656280873408e-001	 1.265372275688542e+000	-1.657121524935047e+001
1	 9.322085008167522e-001	 1.275689485620905e+000	-1.679876052089383e+001
1	 9.181508742911427e-001	 1.285844201818073e+000	-1.701048483253874e+001
1	 1.058323157761401e+000	 1.182142692237461e+000	-1.391006100878510e+001
1	 1.045212784679509e+000	 1.193750142254360e+000	-1.426950232125216e+001
1	 1.031979971949866e+000	 1.205208036229623e+000	-1.460966673936011e+001
1	 1.018627283235401e+000	 1.216514459711353e+000	-1.493107227599234e+001
1	 1.005157321580453e+000	 1.227667556841505e+000	-1.523422406931736e+001
1	 9.915727277371167e-001	 1.238665531350377e+000	-1.551961433542577e+001
1	 9.778761784621189e-001	 1.249506647493843e+000	-1.578772235215892e+001
1	 9.640703847864957e-001	 1.260189230932356e+000	-1.603901447365043e+001
1	 9.501580902603912e-001	 1.270711669550826e+000	-1.627394417501466e+001
1	 9.361420691753275e-001	 1.281072414218598e+000	-1.649295212654958e+001
1	 9.220251247663094e-001	 1.291269979488853e+000	-1.669646629673449e+001
1	 1.062770117925040e+000	 1.187109928776672e+000	-1.367694267160862e+001
1	 1.049604656464360e+000	 1.198766152050888e+000	-1.402846186710938e+001
1	 1.036316240877639e+000	 1.210272190865062e+000	-1.436020917654735e+001
1	 1.022907445600052e+000	 1.221626122722972e+000	-1.467281294147326e+001
1	 1.009380884613661e+000	 1.232826083968456e+000	-1.496689221881500e+001
1	 9.957392097667297e-001	 1.243870270784076e+000	-1.524305651752422e+001
1	 9.819851090634367e-001	 1.254756940132292e+000	-1.550190556120793e+001
1	 9.681213049262910e-001	 1.265484410638162e+000	-1.574402907675526e+001
1	 9.541505524335499e-001	 1.276051063412658e+000	-1.597000660889805e+001
1	 9.400756375340206e-001	 1.286455342815841e+000	-1.618040736057520e+001
1	 9.258993752416106e-001	 1.296695757159201e+000	-1.637579005890080e+001
1	 1.067217078088744e+000	 1.192077165315749e+000	-1.344007813853021e+001
1	 1.053996528249277e+000	 1.203782161847228e+000	-1.378325706754738e+001
1	 1.040652509805476e+000	 1.215336345500255e+000	-1.410614028857275e+001
1	 1.027187607964766e+000	 1.226737785734287e+000	-1.440948670907930e+001
1	 1.013604447646933e+000	 1.237984611095045e+000	-1.469405037119601e+001
1	 9.999056917964071e-001	 1.249075010217361e+000	-1.496057992960746e+001
1	 9.860940396648253e-001	 1.260007232770287e+000	-1.520981814895922e+001
1	 9.721722250661673e-001	 1.270779590343483e+000	-1.544250142136954e+001
1	 9.581430146068056e-001	 1.281390457273991e+000	-1.565935930459059e+001
1	 9.440092058928338e-001	 1.291838271412590e+000	-1.586111408130031e+001
1	 9.297736257170630e-001	 1.302121534829085e+000	-1.604848033994645e+001
1	 8.910311209672918e-001	 1.247863758113289e+000	-1.902007590667370e+001
1	 8.772939237752967e-001	 1.257559462992334e+000	-1.927029728129496e+001
1	 8.634646889348848e-001	 1.267094787648218e+000	-1.950093148216841e+001
1	 8.495461970679685e-001	 1.276468482501733e+000	-1.971529959251750e+001
1	 8.355412497282301e-001	 1.285679361603478e+000	-1.991676714480494e+001
1	 8.214526676025593e-001	 1.294726303013822e+000	-2.010873879260782e+001
1	 8.072832887068894e-001	 1.303608249122617e+000	-2.029465296120218e+001
1	 7.930359665787400e-001	 1.312324206908703e+000	-2.047797648782007e+001
1	 7.787135684687786e-001	 1.320873248139400e+000	-2.066219926245231e+001
1	 7.643189735336878e-001	 1.329254509510221e+000	-2.085082887994802e+001
1	 7.498550710325905e-001	 1.337467192725185e+000	-2.104738531400494e+001
1	 8.949053714419993e-001	 1.253289535786170e+000	-1.875337508564265e+001
1	 8.811084441895262e-001	 1.263027398103068e+000	-1.899566495144090e+001
1	 8.672190791040766e-001	 1.272604182855040e+000	-1.921865792169329e+001
1	 8.532400688978550e-001	 1.282018635029659e+000	-1.942592312451196e+001
1	 8.391742273058449e-001	 1.291269563520969e+000	-1.962108107600382e+001
1	 8.250243872794324e-001	 1.300355841511107e+000	-1.980779781257962e+001
1	 8.107933991743941e-001	 1.309276406791395e+000	-1.998977899485388e+001
1	 7.964841289355789e-001	 1.318030262022982e+000	-2.017076399532517e+001
1	 7.820994562806128e-001	 1.326616474937202e+000	-2.035451998194441e+001
1	 7.676422728849027e-001	 1.335034178475888e+000	-2.054483600954749e+001
1	 7.531154805702228e-001	 1.343282570872048e+000	-2.074551713097026e+001
1	 8.987796219167212e-001	 1.258715313458849e+000	-1.847983501575314e+001
1	 8.849229646036848e-001	 1.268495333213559e+000	-1.871417300453475e+001
1	 8.709734692731170e-001	 1.278113578061571e+000	-1.892970120137360e+001
1	 8.569339407275148e-001	 1.287568787557245e+000	-1.913020248345476e+001
1	 8.428072048831676e-001	 1.296859765438073e+000	-1.931951702818923e+001
1	 8.285961069559578e-001	 1.305985380007956e+000	-1.950153597567955e+001
1	 8.143035096415077e-001	 1.314944564459695e+000	-1.968019505673710e+001
1	 7.999322912920005e-001	 1.323736317136747e+000	-1.985946819971927e+001
1	 7.854853440920209e-001	 1.332359701734460e+000	-2.004336112935631e+001
1	 7.709655722357035e-001	 1.340813847440996e+000	-2.023590497062319e+001
1	 7.563758901074750e-001	 1.349097949018345e+000	-2.044114987053491e+001
1	 9.026538723914741e-001	 1.264141091131294e+000	-1.819948298324345e+001
1	 8.887374850178065e-001	 1.273963268323783e+000	-1.842588684473768e+001
1	 8.747278594420558e-001	 1.283622973267805e+000	-1.863415376350248e+001
1	 8.606278125570132e-001	 1.293118940084501e+000	-1.882824653325695e+001
1	 8.464401824602765e-001	 1.302449967354815e+000	-1.901219014206932e+001
1	 8.321678266322276e-001	 1.311614918504417e+000	-1.919006503417313e+001
1	 8.178136201083346e-001	 1.320612722127579e+000	-1.936600033237808e+001
1	 8.033804536481168e-001	 1.329442372250075e+000	-1.954416703525206e+001
1	 7.888712319031207e-001	 1.338102928531266e+000	-1.972877120316558e+001
1	 7.742888715862086e-001	 1.346593516405640e+000	-1.992404714715983e+001
1	 7.596362996444629e-001	 1.354913327164175e+000	-2.013425063442676e+001
1	 9.065281228662759e-001	 1.269566868803472e+000	-1.791234580789784e+001
1	 8.925520054319234e-001	 1.279431203433722e+000	-1.813087075813523e+001
1	 8.784822496109402e-001	 1.289132368473736e+000	-1.833210647008342e+001
1	 8.643216843864142e-001	 1.298669092611440e+000	-1.852016227681490e+001
1	 8.500731600372512e-001	 1.308040169271227e+000	-1.869921359003573e+001
1	 8.357395463083337e-001	 1.317244457000535e+000	-1.887349482993525e+001
1	 8.213237305749779e-001	 1.326280879795113e+000	-1.904729231173806e+001
1	 8.068286160040408e-001	 1.335148427363046e+000	-1.922493710389681e+001
1	 7.922571197140292e-001	 1.343846155327709e+000	-1.941079787277546e+001
1	 7.776121709365371e-001	 1.352373185369918e+000	-1.960927372853524e+001
1	 7.628967091813033e-001	 1.360728705309640e+000	-1.982478708676666e+001
1	 9.104023733411428e-001	 1.274992646475349e+000	-1.761844985297094e+001
1	 8.963665258460675e-001	 1.284899138543354e+000	-1.782918793652680e+001
1	 8.822366397798190e-001	 1.294641763679357e+000	-1.802364863645541e+001
1	 8.680155562157818e-001	 1.304219245138071e+000	-1.820605489560713e+001
1	 8.537061376141703e-001	 1.313630371187337e+000	-1.838069861804550e+001
1	 8.393112659843688e-001	 1.322873995496359e+000	-1.855193333509876e+001
1	 8.248338410415416e-001	 1.331949037462359e+000	-1.872416682529239e+001
1	 8.102767783598837e-001	 1.340854482475737e+000	-1.890185370369885e+001
1	 7.956430075248645e-001	 1.349589382123879e+000	-1.908948799615481e+001
1	 7.809354702868090e-001	 1.358152854333929e+000	-1.929159571366090e+001
1	 7.661571187181121e-001	 1.366544083454837e+000	-1.951272744210220e+001
1	 9.142766238160929e-001	 1.280418424146894e+000	-1.731782103486136e+001
1	 9.001810462602722e-001	 1.290367073652657e+000	-1.752090050061183e+001
1	 8.859910299487408e-001	 1.300151158884664e+000	-1.770886806406258e+001
1	 8.717094280451803e-001	 1.309769397664406e+000	-1.788602778828768e+001
1	 8.573391151911127e-001	 1.319220573103173e+000	-1.805675458643676e+001
1	 8.428829856604245e-001	 1.328503533991933e+000	-1.822548669166823e+001
1	 8.283439515081291e-001	 1.337617195129382e+000	-1.839671807919024e+001
1	 8.137249407157576e-001	 1.346560537588225e+000	-1.857499085640220e+001
1	 7.990288953357438e-001	 1.355332608919865e+000	-1.876488763703063e+001
1	 7.842587696371427e-001	 1.363932523297767e+000	-1.897102391501784e+001
1	 7.694175282550058e-001	 1.372359461599866e+000	-1.919804045374557e+001
1	 9.181508742911427e-001	 1.285844201818073e+000	-1.701048483253874e+001
1	 9.039955666745698e-001	 1.295835008761611e+000	-1.720606952258710e+001
1	 8.897454201177544e-001	 1.305660554089649e+000	-1.738785107239515e+001
1	 8.754032998746727e-001	 1.315319550190456e+000	-1.756018260829795e+001
1	 8.609720927681571e-001	 1.324810775018765e+000	-1.772748900971249e+001
1	 8.464547053365936e-001	 1.334133072487305e+000	-1.789425925013412e+001
1	 8.318540619748434e-001	 1.343285352796243e+000	-1.806503868952483e+001
1	 8.171731030717756e-001	 1.352266592700590e+000	-1.824442133437732e+001
1	 8.024147831467848e-001	 1.361075835715758e+000	-1.843704208164540e+001
1	 7.875820689876574e-001	 1.369712192261533e+000	-1.864756896258987e+001
1	 7.726779377921003e-001	 1.378174839744830e+000	-1.888069540240653e+001
1	 9.220251247663094e-001	 1.291269979488853e+000	-1.669646629673449e+001
1	 9.078100870889932e-001	 1.301302943870196e+000	-1.688475504817604e+001
1	 8.934998102869076e-001	 1.311169949294307e+000	-1.706068253012420e+001
1	 8.790971717043242e-001	 1.320869702716232e+000	-1.722861930053481e+001
1	 8.646050703453824e-001	 1.330400976934140e+000	-1.739300759531968e+001
1	 8.500264250129682e-001	 1.339762610982522e+000	-1.755835360711061e+001
1	 8.353641724417890e-001	 1.348953510463007e+000	-1.772921971574034e+001
1	 8.206212654280493e-001	 1.357972647812910e+000	-1.791021668686957e+001
1	 8.058006709581054e-001	 1.366819062511647e+000	-1.810599585509118e+001
1	 7.909053683384724e-001	 1.375491861225321e+000	-1.832124130769748e+001
1	 7.759383473295118e-001	 1.383990217889825e+000	-1.856066208511202e+001
1	 9.258993752416106e-001	 1.296695757159201e+000	-1.637579005890080e+001
1	 9.116246075035746e-001	 1.306770878978389e+000	-1.655701611810313e+001
1	 8.972542004562493e-001	 1.316679344498633e+000	-1.672744588545500e+001
1	 8.827910435341987e-001	 1.326419855241744e+000	-1.689143613709477e+001
1	 8.682380479228679e-001	 1.335991178849329e+000	-1.705341428145673e+001
1	 8.535981446896399e-001	 1.345392149477630e+000	-1.721787064202958e+001
1	 8.388742829090683e-001	 1.354621668129737e+000	-1.738935069319849e+001
1	 8.240694277846906e-001	 1.363678702925262e+000	-1.757244726558920e+001
1	 8.091865587698229e-001	 1.372562289307622e+000	-1.777179273723473e+001
1	 7.942286676897064e-001	 1.381271530189230e+000	-1.799205122673644e+001
1	 7.791987568673571e-001	 1.389805596034953e+000	-1.823791080440434e+001
1	 9.297736257170630e-001	 1.302121534829085e+000	-1.604848033994645e+001
1	 9.154391279183470e-001	 1.312238814086172e+000	-1.622291078903364e+001
1	 9.010085906258274e-001	 1.322188739702620e+000	-1.638822319572159e+001
1	 8.864849153643600e-001	 1.331970007767004e+000	-1.654872975212629e+001
1	 8.718710255006918e-001	 1.341581380764360e+000	-1.670881127393399e+001
1	 8.571698643667016e-001	 1.351021687972676e+000	-1.687290955291719e+001
1	 8.423843933767853e-001	 1.360289825796497e+000	-1.704551966493276e+001
1	 8.275175901418119e-001	 1.369384758037725e+000	-1.723118224966111e+001
1	 8.125724465820543e-001	 1.378305516103772e+000	-1.743447577824260e+001
1	 7.975519670414791e-001	 1.387051199153357e+000	-1.766000882482141e+001
1	 7.824591664057522e-001	 1.395620974180313e+000	-1.791241235780868e+001
1	 7.498550710325905e-001	 1.337467192725185e+000	-2.104738531400494e+001
1	 7.353269429377546e-001	 1.345509370984225e+000	-2.127062826136224e+001
1	 7.207353283378717e-001	 1.353381621720377e+000	-2.153463286251551e+001
1	 7.060831355135254e-001	 1.361083342912368e+000	-2.183575376548496e+001
1	 6.913732756799494e-001	 1.368613997251564e+000	-2.217027918107610e+001
1	 6.766086612348736e-001	 1.375973111932677e+000	-2.253443758285910e+001
1	 6.617922040227657e-001	 1.383160278389225e+000	-2.292440441717084e+001
1	 6.469268136174287e-001	 1.390175151974716e+000	-2.333630880948347e+001
1	 6.320153956248560e-001	 1.397017451590627e+000	-2.376624025372027e+001
1	 6.170608500081973e-001	 1.403686959262295e+000	-2.421025527137087e+001
1	 6.020660694366056e-001	 1.410183519663929e+000	-2.466438402755030e+001
1	 7.531154805702228e-001	 1.343282570872048e+000	-2.074551713097026e+001
1	 7.385241834055245e-001	 1.351359716947796e+000	-2.097501968585278e+001
1	 7.238691236930946e-001	 1.359266196646871e+000	-2.124682995976112e+001
1	 7.091532223588756e-001	 1.367001405330368e+000	-2.155715488832873e+001
1	 6.943794032762169e-001	 1.374564803353394e+000	-2.190212930848917e+001
1	 6.795505915061076e-001	 1.381955915854867e+000	-2.227782304054009e+001
1	 6.646697115538689e-001	 1.389174332491827e+000	-2.268024798397453e+001
1	 6.497396856442836e-001	 1.396219707119228e+000	-2.310536521256753e+001
1	 6.347634320170739e-001	 1.403091757416306e+000	-2.354909205443753e+001
1	 6.197438632445814e-001	 1.409790264460619e+000	-2.400730914308876e+001
1	 6.046838845734370e-001	 1.416315072251001e+000	-2.447586742575096e+001
1	 7.563758901074750e-001	 1.349097949018345e+000	-2.044114987053492e+001
1	 7.417214238729721e-001	 1.357210062910808e+000	-2.067716994684159e+001
1	 7.270029190480734e-001	 1.365150771572824e+000	-2.095682809286913e+001
1	 7.122233092040731e-001	 1.372919467747855e+000	-2.127621002520615e+001
1	 6.973855308724334e-001	 1.380515609454748e+000	-2.163132439967416e+001
1	 6.824925217773967e-001	 1.387938719776625e+000	-2.201811021997714e+001
1	 6.675472190851322e-001	 1.395188386594042e+000	-2.243244426350988e+001
1	 6.525525576713976e-001	 1.402264262263400e+000	-2.287014850906220e+001
1	 6.375114684096384e-001	 1.409166063241688e+000	-2.332699755140903e+001
1	 6.224268764813835e-001	 1.415893569658691e+000	-2.379872598805624e+001
1	 6.073016997107373e-001	 1.422446624837860e+000	-2.428103576374308e+001
1	 7.596362996444629e-001	 1.354913327164175e+000	-2.013425063442676e+001
1	 7.449186643402055e-001	 1.363060408873357e+000	-2.037700280175312e+001
1	 7.301367144029041e-001	 1.371035346498327e+000	-2.066451612198931e+001
1	 7.152933960492006e-001	 1.378837530164909e+000	-2.099278122279620e+001
1	 7.003916584686643e-001	 1.386466415555689e+000	-2.135770740309869e+001
1	 6.854344520487881e-001	 1.393921523697993e+000	-2.175513031323833e+001
1	 6.704247266165831e-001	 1.401202440695893e+000	-2.218081965531681e+001
1	 6.553654296987801e-001	 1.408308817407234e+000	-2.263048688784123e+001
1	 6.402595048025424e-001	 1.415240369066761e+000	-2.309979291903879e+001
1	 6.251098897185816e-001	 1.421996874856474e+000	-2.358435577350113e+001
1	 6.099195148484722e-001	 1.428578177424451e+000	-2.407975821714892e+001
1	 7.628967091813033e-001	 1.360728705309640e+000	-1.982478708676666e+001
1	 7.481159048073343e-001	 1.368910754835542e+000	-2.007444331137087e+001
1	 7.332705097576847e-001	 1.376919921423467e+000	-2.036978480719471e+001
1	 7.183634828943400e-001	 1.384755592581603e+000	-2.070673288607460e+001
1	 7.033977860649749e-001	 1.392417221656276e+000	-2.108112395200946e+001
1	 6.883763823203271e-001	 1.399904327619013e+000	-2.148871739814418e+001
1	 6.733022341482496e-001	 1.407216494797402e+000	-2.192520352661593e+001
1	 6.581783017264399e-001	 1.414353372550734e+000	-2.238621147487027e+001
1	 6.430075411957766e-001	 1.421314674891504e+000	-2.286731713231118e+001
1	 6.277929029561533e-001	 1.428100180053938e+000	-2.336405103144475e+001
1	 6.125373299866083e-001	 1.434709730010727e+000	-2.387190619801857e+001
1	 7.661571187181121e-001	 1.366544083454837e+000	-1.951272744210220e+001
1	 7.513131452744669e-001	 1.374761100797457e+000	-1.976941781210516e+001
1	 7.364043051125115e-001	 1.382804496348332e+000	-2.007252676805697e+001
1	 7.214335697395737e-001	 1.390673654998015e+000	-2.041793172813458e+001
1	 7.064039136614296e-001	 1.398368027756570e+000	-2.080142230730577e+001
1	 6.913183125920615e-001	 1.405887131539728e+000	-2.121870837686639e+001
1	 6.761797416801598e-001	 1.413230548898594e+000	-2.166542814916289e+001
1	 6.609911737543870e-001	 1.420397927693902e+000	-2.213715627071228e+001
1	 6.457555775893359e-001	 1.427388980715904e+000	-2.262941190719924e+001
1	 6.304759161940763e-001	 1.434203485251044e+000	-2.313766680412775e+001
1	 6.151551451251107e-001	 1.440841282596636e+000	-2.365735330724273e+001
1	 7.694175282550058e-001	 1.372359461599866e+000	-1.919804045374557e+001
1	 7.545103857417111e-001	 1.380611446759200e+000	-1.946185388896472e+001
1	 7.395381004674815e-001	 1.388689071273012e+000	-1.977263644424652e+001
1	 7.245036565849833e-001	 1.396591717414220e+000	-2.012624672128445e+001
1	 7.094100412580943e-001	 1.404318833856632e+000	-2.051845330186606e+001
1	 6.942602428640373e-001	 1.411869935460181e+000	-2.094494291608597e+001
1	 6.790572492123411e-001	 1.419244602999491e+000	-2.140132863770815e+001
1	 6.638040457826309e-001	 1.426442482836743e+000	-2.188315808962112e+001
1	 6.485036139832108e-001	 1.433463286539943e+000	-2.238592164259239e+001
1	 6.331589294323280e-001	 1.440306790447758e+000	-2.290506059082574e+001
1	 6.177729602639465e-001	 1.446972835182127e+000	-2.343597528817815e+001
1	 7.726779377921003e-001	 1.378174839744830e+000	-1.888069540240653e+001
1	 7.577076262091770e-001	 1.386461792720868e+000	-1.915168034921488e+001
1	 7.426718958226916e-001	 1.394573646197594e+000	-1.947001005713357e+001
1	 7.275737434306515e-001	 1.402509779830296e+000	-1.983154904938141e+001
1	 7.124161688550333e-001	 1.410269639956520e+000	-2.023207028628411e+001
1	 6.972021731363018e-001	 1.417852739380413e+000	-2.066726338866738e+001
1	 6.819347567448212e-001	 1.425258657100116e+000	-2.113274289001528e+001
1	 6.666169178111804e-001	 1.432487037979258e+000	-2.162405650017948e+001
1	 6.512516503773947e-001	 1.439537592363605e+000	-2.213669336368949e+001
1	 6.358419426708865e-001	 1.446410095644047e+000	-2.266609229601013e+001
1	 6.203907754030812e-001	 1.453104387767148e+000	-2.320764998144432e+001
1	 7.759383473295118e-001	 1.383990217889825e+000	-1.856066208511202e+001
1	 7.609048666769722e-001	 1.392312138682556e+000	-1.883882719669814e+001
1	 7.458056911782389e-001	 1.400458221122166e+000	-1.916454557235431e+001
1	 7.306438302766598e-001	 1.408427842246315e+000	-1.953371206136877e+001
1	 7.154222964523117e-001	 1.416220446056298e+000	-1.994212907597307e+001
1	 7.001441034089011e-001	 1.423835543300468e+000	-2.038551481680345e+001
1	 6.848122642776282e-001	 1.431272711200492e+000	-2.085951152839149e+001
1	 6.694297898400456e-001	 1.438531593121451e+000	-2.135969376743052e+001
1	 6.539996867718797e-001	 1.445611898186873e+000	-2.188157666682397e+001
1	 6.385249559097294e-001	 1.452513400839875e+000	-2.242062417881638e+001
1	 6.230085905424815e-001	 1.459235940351649e+000	-2.297225728086189e+001
1	 7.791987568673571e-001	 1.389805596034953e+000	-1.823791080440434e+001
1	 7.641021071452054e-001	 1.398162484644362e+000	-1.852322560679920e+001
1	 7.489394865342205e-001	 1.406342796046818e+000	-1.885614266331850e+001
1	 7.337139171230911e-001	 1.414345904662357e+000	-1.923261122597837e+001
1	 7.184284240499951e-001	 1.422171252156024e+000	-1.964848789959757e+001
1	 7.030860336818822e-001	 1.429818347220387e+000	-2.009954481658699e+001
1	 6.876897718107899e-001	 1.437286765300642e+000	-2.058147784268557e+001
1	 6.722426618692355e-001	 1.444576148263326e+000	-2.108991479646412e+001
1	 6.567477231666584e-001	 1.451686204009731e+000	-2.162042366566885e+001
1	 6.412079691488344e-001	 1.458616706035207e+000	-2.216852080377996e+001
1	 6.256264056821129e-001	 1.465367492935579e+000	-2.272967909049532e+001
1	 7.824591664057522e-001	 1.395620974180313e+000	-1.791241235780868e+001
1	 7.672993476139858e-001	 1.404012830606383e+000	-1.820480790203786e+001
1	 7.520732818907336e-001	 1.412227370971638e+000	-1.854470267562939e+001
1	 7.367840039700269e-001	 1.420263967078496e+000	-1.892812408756673e+001
1	 7.214345516481479e-001	 1.428122058255759e+000	-1.935100734879502e+001
1	 7.060279639552908e-001	 1.435801151140213e+000	-1.980920354396813e+001
1	 6.905672793443338e-001	 1.443300819400590e+000	-2.029848773471187e+001
1	 6.750555338987601e-001	 1.450620703404885e+000	-2.081456707741313e+001
1	 6.594957595617234e-001	 1.457760509832163e+000	-2.135308893879203e+001
1	 6.438909823881793e-001	 1.464720011230009e+000	-2.190964899280599e+001
1	 6.282442208219421e-001	 1.471499045518887e+000	-2.247979928277227e+001
1	 6.020660694366056e-001	 1.410183519663929e+000	-2.466438402755030e+001
1	 5.870316800788019e-001	 1.416507975416695e+000	-2.513919905107979e+001
1	 5.719628035567330e-001	 1.422659308219669e+000	-2.564604257802686e+001
1	 5.568623029941295e-001	 1.428637548482971e+000	-2.618229098965007e+001
1	 5.417330278466271e-001	 1.434442786918363e+000	-2.674532414394992e+001
1	 5.265778123931376e-001	 1.440075173828057e+000	-2.733252732078362e+001
1	 5.113994742604214e-001	 1.445534918351047e+000	-2.794129313107574e+001
1	 4.962008129821307e-001	 1.450822287668565e+000	-2.856902338790275e+001
1	 4.809846085935219e-001	 1.455937606170270e+000	-2.921313093734429e+001
1	 4.657536202629571e-001	 1.460881254582814e+000	-2.987104144711837e+001
1	 4.505105849612260e-001	 1.465653669062488e+000	-3.054019515114104e+001
1	 6.046838845734370e-001	 1.416315072251001e+000	-2.447586742575096e+001
1	 5.895841248949770e-001	 1.422667027072372e+000	-2.496538233237851e+001
1	 5.744497281002313e-001	 1.428845106196179e+000	-2.548731663373691e+001
1	 5.592835697619472e-001	 1.434849340164768e+000	-2.603898820018672e+001
1	 5.440885117253452e-001	 1.440679820084324e+000	-2.661771845806136e+001
1	 5.288674005929339e-001	 1.446336696910580e+000	-2.722083443060199e+001
1	 5.136230662426655e-001	 1.451820180691880e+000	-2.784567074096188e+001
1	 4.983583203807139e-001	 1.457130539771175e+000	-2.848957157491045e+001
1	 4.830759551300781e-001	 1.462268099948586e+000	-2.914989260099052e+001
1	 4.677787416561318e-001	 1.467233243606192e+000	-2.982400284601453e+001
1	 4.524694288301597e-001	 1.472026408796709e+000	-3.050928652391854e+001
1	 6.073016997107373e-001	 1.422446624837860e+000	-2.428103576374308e+001
1	 5.921365697116462e-001	 1.428826078727865e+000	-2.478462390218222e+001
1	 5.769366526442280e-001	 1.435030904172531e+000	-2.532108693119063e+001
1	 5.617048365302478e-001	 1.441061131846431e+000	-2.588767594739005e+001
1	 5.464439956045160e-001	 1.446916853250171e+000	-2.648164541322159e+001
1	 5.311569887931402e-001	 1.452598219993009e+000	-2.710025531387609e+001
1	 5.158466582252692e-001	 1.458105443032639e+000	-2.774077327432699e+001
1	 5.005158277796019e-001	 1.463438791873734e+000	-2.840047663390152e+001
1	 4.851673016668830e-001	 1.468598593726882e+000	-2.907665447596500e+001
1	 4.698038630495010e-001	 1.473585232629580e+000	-2.976660961042908e+001
1	 4.544282726992399e-001	 1.478399148530984e+000	-3.046766050694814e+001
1	 6.099195148484722e-001	 1.428578177424451e+000	-2.407975821714892e+001
1	 5.946890145287685e-001	 1.434985130383111e+000	-2.459681304747218e+001
1	 5.794235771886765e-001	 1.441216702148652e+000	-2.514725959391291e+001
1	 5.641261032989836e-001	 1.447272923527875e+000	-2.572827403646716e+001
1	 5.487994794840923e-001	 1.453153886415813e+000	-2.633703546329775e+001
1	 5.334465769937136e-001	 1.458859743075247e+000	-2.697072816369988e+001
1	 5.180702502081939e-001	 1.464390705373224e+000	-2.762654387925251e+001
1	 5.026733351787615e-001	 1.469747043976140e+000	-2.830168401036261e+001
1	 4.872586482039089e-001	 1.474929087505048e+000	-2.899336177555441e+001
1	 4.718289844430433e-001	 1.479937221652870e+000	-2.969880432100558e+001
1	 4.563871165684502e-001	 1.484771888265196e+000	-3.041525477798763e+001
1	 6.125373299866083e-001	 1.434709730010727e+000	-2.387190619801857e+001
1	 5.972414593463017e-001	 1.441144182038046e+000	-2.440184094785604e+001
1	 5.819105017335308e-001	 1.447402500124465e+000	-2.496574235023662e+001
1	 5.665473700681072e-001	 1.453484715209018e+000	-2.556070364354496e+001
1	 5.511549633640280e-001	 1.459390919581159e+000	-2.618382025103937e+001
1	 5.357361651946101e-001	 1.465121266157198e+000	-2.683219222974927e+001
1	 5.202938421914004e-001	 1.470675967713535e+000	-2.750292667569666e+001
1	 5.048308425781587e-001	 1.476055296078286e+000	-2.819314008238186e+001
1	 4.893499947411286e-001	 1.481259581282975e+000	-2.889996064961759e+001
1	 4.738541058367372e-001	 1.486289210675947e+000	-2.962053053996371e+001
1	 4.583459604377743e-001	 1.491144627999229e+000	-3.035200808018573e+001
1	 6.151551451251107e-001	 1.440841282596636e+000	-2.365735330724273e+001
1	 5.997939041642040e-001	 1.447303233692604e+000	-2.419960063529600e+001
1	 5.843974262787448e-001	 1.453588298099896e+000	-2.477644449915480e+001
1	 5.689686368375712e-001	 1.459696506889774e+000	-2.538488728650019e+001
1	 5.535104472442770e-001	 1.465627952746118e+000	-2.602193258278136e+001
1	 5.380257533957867e-001	 1.471382789238767e+000	-2.668458779579856e+001
1	 5.225174341748505e-001	 1.476961230053470e+000	-2.736986673481417e+001
1	 5.069883499777607e-001	 1.482363548180068e+000	-2.807479214080705e+001
1	 4.914413412785140e-001	 1.487590075060555e+000	-2.879639816465643e+001
1	 4.758792272305609e-001	 1.492641199698700e+000	-2.953173279021445e+001
1	 4.603048043071963e-001	 1.497517367732963e+000	-3.027786019941291e+001
1	 6.177729602639465e-001	 1.446972835182127e+000	-2.343597528817815e+001
1	 6.023463489824342e-001	 1.453462285346721e+000	-2.398998695486313e+001
1	 5.868843508242729e-001	 1.459774096074869e+000	-2.457927687704135e+001
1	 5.713899036073282e-001	 1.465908298570060e+000	-2.520074879653205e+001
1	 5.558659311247928e-001	 1.471864985910601e+000	-2.585130640379154e+001
1	 5.403153415972000e-001	 1.477644312319856e+000	-2.652785615781277e+001
1	 5.247410261585047e-001	 1.483246492392929e+000	-2.722731005880292e+001
1	 5.091458573775339e-001	 1.488671800281383e+000	-2.794658836990491e+001
1	 4.935326878160387e-001	 1.493920568837680e+000	-2.868262228439571e+001
1	 4.779043486244928e-001	 1.498993188721015e+000	-2.943235653500515e+001
1	 4.622636481766994e-001	 1.503890107466283e+000	-3.019275194216893e+001
1	 6.203907754030812e-001	 1.453104387767148e+000	-2.320764998144432e+001
1	 6.048987938009504e-001	 1.459621337000335e+000	-2.377289652648350e+001
1	 5.893712753700684e-001	 1.465959894049310e+000	-2.437415182521768e+001
1	 5.738111703773307e-001	 1.472120090249793e+000	-2.500821329045190e+001
1	 5.582214150055291e-001	 1.478102019074516e+000	-2.567187677424008e+001
1	 5.426049297988068e-001	 1.483905835400370e+000	-2.636193960259003e+001
1	 5.269646181423247e-001	 1.489531754731810e+000	-2.707520356126181e+001
1	 5.113033647774449e-001	 1.494980052382124e+000	-2.780847782851207e+001
1	 4.956240343536744e-001	 1.500251062614241e+000	-2.855858185085225e+001
1	 4.799294700185112e-001	 1.505345177742780e+000	-2.932234815807893e+001
1	 4.642224920462677e-001	 1.510262847199072e+000	-3.009662511404857e+001
1	 6.230085905424815e-001	 1.459235940351649e+000	-2.297225728086189e+001
1	 6.074512386197107e-001	 1.465780388653379e+000	-2.354822770764888e+001
1	 5.918581999160855e-001	 1.472145692023142e+000	-2.416098315833235e+001
1	 5.762324371475311e-001	 1.478331881928889e+000	-2.480720714367508e+001
1	 5.605768988864394e-001	 1.484339052237773e+000	-2.548357984577616e+001
1	 5.448945180005639e-001	 1.490167358480213e+000	-2.618678138694682e+001
1	 5.291882101262714e-001	 1.495817017070015e+000	-2.691349504804084e+001
1	 5.134608721774606e-001	 1.501288304482188e+000	-2.766041043166182e+001
1	 4.977153808913936e-001	 1.506581556390130e+000	-2.842422656588313e+001
1	 4.819545914125948e-001	 1.511697166763884e+000	-2.920165494433769e+001
1	 4.661813359158847e-001	 1.516635586931213e+000	-2.998942249875233e+001
1	 6.256264056821129e-001	 1.465367492935579e+000	-2.272967909049532e+001
1	 6.100036834386735e-001	 1.471939440305789e+000	-2.331588055706553e+001
1	 5.943451244622784e-001	 1.478331489996291e+000	-2.393968613353744e+001
1	 5.786537039178824e-001	 1.484543673607263e+000	-2.459765796388697e+001
1	 5.629323827674774e-001	 1.490576085400281e+000	-2.528635283869363e+001
1	 5.471841062024277e-001	 1.496428881559288e+000	-2.600232571742185e+001
1	 5.314118021103059e-001	 1.502102279407441e+000	-2.674213319857534e+001
1	 5.156183795775471e-001	 1.507596556581470e+000	-2.750233693266961e+001
1	 4.998067274291692e-001	 1.512912050165238e+000	-2.827950697319663e+001
1	 4.839797128067216e-001	 1.518049155784212e+000	-2.907022506098686e+001
1	 4.681401797855343e-001	 1.523008326662587e+000	-2.987108783762226e+001
1	 6.282442208219421e-001	 1.471499045518887e+000	-2.247979928277227e+001
1	 6.125561282577968e-001	 1.478098491957502e+000	-2.307575679920947e+001
1	 5.968320490086007e-001	 1.484517287968683e+000	-2.371017742043502e+001
1	 5.810749706883369e-001	 1.490755465284833e+000	-2.437949456537061e+001
1	 5.652878666485968e-001	 1.496813118561950e+000	-2.508013401966505e+001
1	 5.494736944043552e-001	 1.502690404637500e+000	-2.580851773049028e+001
1	 5.336353940943900e-001	 1.508387541743989e+000	-2.656106754768430e+001
1	 5.177758869776715e-001	 1.513904808679865e+000	-2.733420890566922e+001
1	 5.018980739669736e-001	 1.519242543939458e+000	-2.812437444081185e+001
1	 4.860048342008704e-001	 1.524401144803653e+000	-2.892800753915328e+001
1	 4.700990236552003e-001	 1.529381066393079e+000	-2.974156580969009e+001
1	 4.505105849612260e-001	 1.465653669062488e+000	-3.054019515114104e+001
1	 4.352582159519864e-001	 1.470255339887630e+000	-3.121461961675704e+001
1	 4.199992009085988e-001	 1.474686809389286e+000	-3.188794591178496e+001
1	 4.047362013938896e-001	 1.478948672050239e+000	-3.255704948826638e+001
1	 3.894718519125411e-001	 1.483041573840250e+000	-3.321883242416988e+001
1	 3.742087587819934e-001	 1.486966211157460e+000	-3.387022658994660e+001
1	 3.589494990456079e-001	 1.490723329744274e+000	-3.450819671074552e+001
1	 3.436966194285619e-001	 1.494313723579467e+000	-3.512974332114082e+001
1	 3.284526353368803e-001	 1.497738233748321e+000	-3.573190560953569e+001
1	 3.132200298999260e-001	 1.500997747292519e+000	-3.631176414972207e+001
1	 2.980012530565967e-001	 1.504093196041590e+000	-3.686644351739511e+001
1	 4.524694288301597e-001	 1.472026408796709e+000	-3.050928652391854e+001
1	 4.371507417132339e-001	 1.476648087930236e+000	-3.119966943034201e+001
1	 4.218253796648540e-001	 1.481098825695898e+000	-3.188868675894153e+001
1	 4.064960158204544e-001	 1.485379219161321e+000	-3.257316719104957e+001
1	 3.911652961396743e-001	 1.489489917104969e+000	-3.324996595915503e+001
1	 3.758358382723524e-001	 1.493431618952961e+000	-3.391596810507717e+001
1	 3.605102304669627e-001	 1.497205073690221e+000	-3.456809163182300e+001
1	 3.451910305219705e-001	 1.500811078747787e+000	-3.520329054583944e+001
1	 3.298807647805114e-001	 1.504250478868019e+000	-3.581855778670281e+001
1	 3.145819271687184e-001	 1.507524164949504e+000	-3.641092804160866e+001
1	 2.992969782779455e-001	 1.510633072873409e+000	-3.697748044234704e+001
1	 4.544282726992399e-001	 1.478399148530984e+000	-3.046766050694814e+001
1	 4.390432674745879e-001	 1.483040835972945e+000	-3.117362018945723e+001
1	 4.236515584211841e-001	 1.487510842002673e+000	-3.187792808685714e+001
1	 4.082558302470692e-001	 1.491809766272625e+000	-3.257737302834469e+001
1	 3.928587403668398e-001	 1.495938260369978e+000	-3.326877041280532e+001
1	 3.774629177627315e-001	 1.499897026748817e+000	-3.394896554528111e+001
1	 3.620709618883305e-001	 1.503686817636593e+000	-3.461483686529547e+001
1	 3.466854416153891e-001	 1.507308433916597e+000	-3.526329906362792e+001
1	 3.313088942241526e-001	 1.510762723988268e+000	-3.589130608448379e+001
1	 3.159438244375234e-001	 1.514050582607094e+000	-3.649585401031712e+001
1	 3.005927034993116e-001	 1.517172949705882e+000	-3.707398382691385e+001
1	 4.563871165684502e-001	 1.484771888265196e+000	-3.041525477798763e+001
1	 4.409357932360367e-001	 1.489433584015637e+000	-3.113640449937329e+001
1	 4.254777371775806e-001	 1.493922858309479e+000	-3.185559920957286e+001
1	 4.100156446737294e-001	 1.498240313384018e+000	-3.256959470992942e+001
1	 3.945521845940355e-001	 1.502386603635133e+000	-3.327517348270144e+001
1	 3.790899972531312e-001	 1.506362434544881e+000	-3.396914809259906e+001
1	 3.636316933097140e-001	 1.510168561583230e+000	-3.464836447849542e+001
1	 3.481798527088230e-001	 1.513805789085729e+000	-3.530970513182236e+001
1	 3.327370236678124e-001	 1.517274969108895e+000	-3.595009215850291e+001
1	 3.173057217063539e-001	 1.520577000265112e+000	-3.656649022161385e+001
1	 3.018884287207118e-001	 1.523712826538826e+000	-3.715590936230451e+001
1	 4.583459604377743e-001	 1.491144627999229e+000	-3.035200808018573e+001
1	 4.428283189975681e-001	 1.495826332058187e+000	-3.108795611746558e+001
1	 4.273039159340356e-001	 1.500334874616189e+000	-3.182163064949643e+001
1	 4.117754591004298e-001	 1.504670860495363e+000	-3.254976118137295e+001
1	 3.962456288212590e-001	 1.508834946900292e+000	-3.326910410242540e+001
1	 3.807170767435516e-001	 1.512827842340999e+000	-3.397644613969639e+001
1	 3.651924247311161e-001	 1.516650305529975e+000	-3.466860770005663e+001
1	 3.496742638022776e-001	 1.520303144255020e+000	-3.534244609741063e+001
1	 3.341651531114998e-001	 1.523787214229728e+000	-3.599485866177357e+001
1	 3.186676189752222e-001	 1.527103417923380e+000	-3.662278572736373e+001
1	 3.031841539421639e-001	 1.530252703372057e+000	-3.722321349717934e+001
1	 4.603048043071963e-001	 1.497517367732963e+000	-3.027786019941291e+001
1	 4.447208447591707e-001	 1.502219080100473e+000	-3.102820992869885e+001
1	 4.291300946905407e-001	 1.506746890922672e+000	-3.177595411169260e+001
1	 4.135352735271654e-001	 1.511101407606524e+000	-3.251780259774251e+001
1	 3.979390730485077e-001	 1.515283290165310e+000	-3.325049241526083e+001
1	 3.823441562339925e-001	 1.519293250137022e+000	-3.397079126410240e+001
1	 3.667531561525392e-001	 1.523132049476669e+000	-3.467550089520235e+001
1	 3.511686748957588e-001	 1.526800499424304e+000	-3.536146037386779e+001
1	 3.355932825552234e-001	 1.530299459350595e+000	-3.602554922347633e+001
1	 3.200295162441409e-001	 1.533629835581718e+000	-3.666469044667551e+001
1	 3.044798791636848e-001	 1.536792580205390e+000	-3.727585342153486e+001
1	 4.622636481766994e-001	 1.503890107466283e+000	-3.019275194216893e+001
1	 4.466133705208326e-001	 1.508611828142373e+000	-3.095710192173857e+001
1	 4.309562734470883e-001	 1.513158907228801e+000	-3.171850245882470e+001
1	 4.152950879539309e-001	 1.517531954717364e+000	-3.247365029797608e+001
1	 3.996325172757795e-001	 1.521731633430045e+000	-3.321926974856074e+001
1	 3.839712357244544e-001	 1.525758657932800e+000	-3.395211620310720e+001
1	 3.683138875739864e-001	 1.529613793423154e+000	-3.466897954166461e+001
1	 3.526630859892719e-001	 1.533297854593416e+000	-3.536668741856012e+001
1	 3.370214119989919e-001	 1.536811704471323e+000	-3.604210842827551e+001
1	 3.213914135131226e-001	 1.540156253239948e+000	-3.669215514752936e+001
1	 3.057756043852917e-001	 1.543332457038643e+000	-3.731378705099554e+001
1	 4.642224920462677e-001	 1.510262847199072e+000	-3.009662511404857e+001
1	 4.485058962825420e-001	 1.515004576183763e+000	-3.087456916566220e+001
1	 4.327824522036696e-001	 1.519570923534446e+000	-3.164920968673117e+001
1	 4.170549023807214e-001	 1.523962501827749e+000	-3.241723677990528e+001
1	 4.013259615030718e-001	 1.528179976694353e+000	-3.317536858876906e+001
1	 3.855983152149377e-001	 1.532224065728180e+000	-3.392035482929168e+001
1	 3.698746189954602e-001	 1.536095537369272e+000	-3.464898020621238e+001
1	 3.541574970828225e-001	 1.539795209762189e+000	-3.535806771071952e+001
1	 3.384495414428142e-001	 1.543323949591740e+000	-3.604448179616139e+001
1	 3.227533107821799e-001	 1.546682670897893e+000	-3.670513142886408e+001
1	 3.070713296070020e-001	 1.549872333871631e+000	-3.733697301150333e+001
1	 4.661813359158847e-001	 1.516635586931213e+000	-2.998942249875233e+001
1	 4.503984220442867e-001	 1.521397324224522e+000	-3.078054978726299e+001
1	 4.346086309602770e-001	 1.525982939839478e+000	-3.156801090061878e+001
1	 4.188147168075319e-001	 1.530393048937541e+000	-3.234849567590831e+001
1	 4.030194057303825e-001	 1.534628319958090e+000	-3.311872255706521e+001
1	 3.872253947054421e-001	 1.538689473523013e+000	-3.387544212667667e+001
1	 3.714353504169633e-001	 1.542577281314865e+000	-3.461544052177077e+001
1	 3.556519081764161e-001	 1.546292564930458e+000	-3.533554272997570e+001
1	 3.398776708866989e-001	 1.549836194711674e+000	-3.603261576279783e+001
1	 3.241152080513252e-001	 1.553209088555371e+000	-3.670357170312165e+001
1	 3.083670548288326e-001	 1.556412210704171e+000	-3.734537062439696e+001
1	 4.681401797855343e-001	 1.523008326662587e+000	-2.987108783762226e+001
1	 4.522909478060553e-001	 1.527790072264526e+000	-3.067498294891875e+001
1	 4.364348097169019e-001	 1.532394956143769e+000	-3.147484229185264e+001
1	 4.205745312343572e-001	 1.536823596046605e+000	-3.226736172917106e+001
1	 4.047128499577090e-001	 1.541076663221114e+000	-3.304926638562654e+001
1	 3.888524741959679e-001	 1.545154881317146e+000	-3.381731416746911e+001
1	 3.729960818384989e-001	 1.549059025259775e+000	-3.456829916511626e+001
1	 3.571463192700581e-001	 1.552789920098058e+000	-3.529905493542622e+001
1	 3.413058003306548e-001	 1.556348439830952e+000	-3.600645766036694e+001
1	 3.254771053205714e-001	 1.559735506212208e+000	-3.668742917922535e+001
1	 3.096627800508011e-001	 1.562952087536078e+000	-3.733893989186016e+001
1	 4.700990236552003e-001	 1.529381066393079e+000	-2.974156580969009e+001
1	 4.541834735678362e-001	 1.534182820303653e+000	-3.055780882701693e+001
1	 4.382609884735363e-001	 1.538806972447188e+000	-3.136964111532654e+001
1	 4.223343456611924e-001	 1.543254143154806e+000	-3.217377077054745e+001
1	 4.064062941850493e-001	 1.547525006483282e+000	-3.296693589447916e+001
1	 3.904795536865156e-001	 1.551620289110432e+000	-3.374590808939058e+001
1	 3.745568132600691e-001	 1.555540769203842e+000	-3.450749583512787e+001
1	 3.586407303637542e-001	 1.559287275264824e+000	-3.524854774522878e+001
1	 3.427339297746908e-001	 1.562860684949402e+000	-3.596595569888883e+001
1	 3.268390025899309e-001	 1.566261923868223e+000	-3.665665784598689e+001
1	 3.109585052729244e-001	 1.569491964367168e+000	-3.731764148273885e+001
1	 2.980012530565967e-001	 1.504093196041590e+000	-3.686644351739511e+001
1	 2.828009990314218e-001	 1.507025127989463e+000	-3.739323916280310e+001
1	 2.676193610623530e-001	 1.509795038149035e+000	-3.788943717418404e+001
1	 2.524586800298293e-001	 1.512403986319364e+000	-3.835197529441216e+001
1	 2.373212605084651e-001	 1.514853072217832e+000	-3.877784166106931e+001
1	 2.222093700739263e-001	 1.517143434246501e+000	-3.916407735961782e+001
1	 2.071252386533723e-001	 1.519276248250174e+000	-3.950777884591823e+001
1	 1.920710579192460e-001	 1.521252726267772e+000	-3.980610023719542e+001
1	 1.770489807261170e-001	 1.523074115278612e+000	-4.005625547086538e+001
1	 1.620611205902298e-001	 1.524741695945114e+000	-4.025552033093513e+001
1	 1.471095512113652e-001	 1.526256781353464e+000	-4.040123434198416e+001
1	 2.992969782779455e-001	 1.510633072873409e+000	-3.697748044234704e+001
1	 2.840306327434565e-001	 1.513577753016370e+000	-3.751542477886781e+001
1	 2.687829842086254e-001	 1.516359706891685e+000	-3.802196264074009e+001
1	 2.535563837321868e-001	 1.518979998906481e+000	-3.849398426177166e+001
1	 2.383531459091907e-001	 1.521439733559776e+000	-3.892843166164693e+001
1	 2.231755481748648e-001	 1.523740054203473e+000	-3.932230125903155e+001
1	 2.080258301522327e-001	 1.525882141795015e+000	-3.967264635020182e+001
1	 1.929061930432675e-001	 1.527867213643340e+000	-3.997657945228574e+001
1	 1.778187990632861e-001	 1.529696522149704e+000	-4.023127451053681e+001
1	 1.627657709182356e-001	 1.531371353544922e+000	-4.043396896935642e+001
1	 1.477491913244744e-001	 1.532893026624554e+000	-4.058196570709350e+001
1	 3.005927034993116e-001	 1.517172949705882e+000	-3.707398382691385e+001
1	 2.852602664555143e-001	 1.520130378043972e+000	-3.762282778541806e+001
1	 2.699466073549285e-001	 1.522924375635062e+000	-3.813950381078151e+001
1	 2.546540874345853e-001	 1.525556011494349e+000	-3.862085105851044e+001
1	 2.393850313099713e-001	 1.528026394902491e+000	-3.906376178241976e+001
1	 2.241417262758770e-001	 1.530336674161230e+000	-3.946518401583695e+001
1	 2.089264216511907e-001	 1.532488035340652e+000	-3.982212411439731e+001
1	 1.937413281674166e-001	 1.534481701019713e+000	-4.013164915950676e+001
1	 1.785886174006201e-001	 1.536318929021609e+000	-4.039088922187566e+001
1	 1.634704212464511e-001	 1.538001011145548e+000	-4.059703948483665e+001
1	 1.483888314378467e-001	 1.539529271896469e+000	-4.074736222748869e+001
1	 3.018884287207118e-001	 1.523712826538826e+000	-3.715590936230451e+001
1	 2.864899001676177e-001	 1.526683003072079e+000	-3.771541117827124e+001
1	 2.711102305012906e-001	 1.529489044378973e+000	-3.824202962729239e+001
1	 2.557517911370589e-001	 1.532132024082775e+000	-3.873254926690546e+001
1	 2.404169167108455e-001	 1.534613056245783e+000	-3.918380898713413e+001
1	 2.251079043770039e-001	 1.536933294119577e+000	-3.959270476789348e+001
1	 2.098270131502878e-001	 1.539093928886893e+000	-3.995619229396204e+001
1	 1.945764632917323e-001	 1.541096188396701e+000	-4.027128942655295e+001
1	 1.793584357381515e-001	 1.542941335894138e+000	-4.053507853086729e+001
1	 1.641750715748986e-001	 1.544630668746812e+000	-4.074470865933690e+001
1	 1.490284715514893e-001	 1.546165517169035e+000	-4.089739759058406e+001
1	 3.031841539421639e-001	 1.530252703372057e+000	-3.722321349717934e+001
1	 2.877195338797896e-001	 1.533235628100504e+000	-3.779313858582639e+001
1	 2.722738536477407e-001	 1.536053713123227e+000	-3.832950956417025e+001
1	 2.568494948396415e-001	 1.538708036671565e+000	-3.882905292083986e+001
1	 2.414488021118516e-001	 1.541199717589455e+000	-3.928855063333551e+001
1	 2.260740824782869e-001	 1.543529914078321e+000	-3.970484300969552e+001
1	 2.107276046495657e-001	 1.545699822433543e+000	-4.007483138359304e+001
1	 1.954115984162537e-001	 1.547710675774113e+000	-4.039548066185660e+001
1	 1.801282540759133e-001	 1.549563742767107e+000	-4.066382172375307e+001
1	 1.648797219036005e-001	 1.551260326348532e+000	-4.087695367172771e+001
1	 1.496681116654092e-001	 1.552801762442078e+000	-4.103204593360482e+001
1	 3.044798791636848e-001	 1.536792580205390e+000	-3.727585342153486e+001
1	 2.889491675920525e-001	 1.539788253129059e+000	-3.785597425560209e+001
1	 2.734374767943067e-001	 1.542618381867632e+000	-3.840191361493010e+001
1	 2.579471985423670e-001	 1.545284049260524e+000	-3.891033649619285e+001
1	 2.424806875130279e-001	 1.547786378933312e+000	-3.937796446399077e+001
1	 2.270402605797669e-001	 1.550126534037266e+000	-3.980157858478221e+001
1	 2.116281961490656e-001	 1.552305715980410e+000	-4.017802221000697e+001
1	 1.962467335410196e-001	 1.554325163151758e+000	-4.050420360733893e+001
1	 1.808980724139381e-001	 1.556186149640328e+000	-4.077709843936496e+001
1	 1.655843722325789e-001	 1.557889983950527e+000	-4.099375208934056e+001
1	 1.503077517796134e-001	 1.559438007715424e+000	-4.115128183401108e+001
1	 3.057756043852917e-001	 1.543332457038643e+000	-3.731378705099554e+001
1	 2.901788013044292e-001	 1.546340878157556e+000	-3.790388304112042e+001
1	 2.746010999410176e-001	 1.549183050611998e+000	-3.845921228169610e+001
1	 2.590449022452694e-001	 1.551860061849460e+000	-3.897637490147652e+001
1	 2.435125729144129e-001	 1.554373040277161e+000	-3.945202859932187e+001
1	 2.280064386814851e-001	 1.556723153996217e+000	-3.988289167834332e+001
1	 2.125287876488293e-001	 1.558911609527300e+000	-4.026574592490444e+001
1	 1.970818686660689e-001	 1.560939650529444e+000	-4.059743933134262e+001
1	 1.816678907522587e-001	 1.562808556513615e+000	-4.087488866165379e+001
1	 1.662890225618565e-001	 1.564519641552616e+000	-4.109508185973935e+001
1	 1.509473918941091e-001	 1.566074252988898e+000	-4.125508030017643e+001
1	 3.070713296070020e-001	 1.549872333871631e+000	-3.733697301150333e+001
1	 2.914084350169423e-001	 1.552893503185805e+000	-3.793683038912064e+001
1	 2.757647230879016e-001	 1.555747719356131e+000	-3.850137656446891e+001
1	 2.601426059483829e-001	 1.558436074438178e+000	-3.902714346870720e+001
1	 2.445444583160451e-001	 1.560959701620807e+000	-3.951072152884604e+001
1	 2.289726167834827e-001	 1.563319773954980e+000	-3.994876281001036e+001
1	 2.134293791488982e-001	 1.565517503074020e+000	-4.033798399811574e+001
1	 1.979170037914407e-001	 1.567554137906983e+000	-4.067516922174744e+001
1	 1.824377090909079e-001	 1.569430963386780e+000	-4.095717271241038e+001
1	 1.669936728914553e-001	 1.571149299154617e+000	-4.118092130269722e+001
1	 1.515870320089033e-001	 1.572710498262325e+000	-4.134341676229042e+001
1	 3.083670548288326e-001	 1.556412210704171e+000	-3.734537062439696e+001
1	 2.926380687296148e-001	 1.559446128213619e+000	-3.795478232709604e+001
1	 2.769283462349874e-001	 1.562312388099841e+000	-3.852837795066680e+001
1	 2.612403096517411e-001	 1.565012087026484e+000	-3.906261794450675e+001
1	 2.455763437179627e-001	 1.567546362964053e+000	-3.955402210361670e+001
1	 2.299387948858007e-001	 1.569916393913360e+000	-3.999917282682968e+001
1	 2.143299706493139e-001	 1.572123396620375e+000	-4.039471821091571e+001
1	 1.987521389171738e-001	 1.574168625284182e+000	-4.073737497925383e+001
1	 1.832075274299184e-001	 1.576053370259636e+000	-4.102393124416435e+001
1	 1.676983232213979e-001	 1.577778956756348e+000	-4.125124910237724e+001
1	 1.522266721240030e-001	 1.579346743535532e+000	-4.141626706350062e+001
1	 3.096627800508011e-001	 1.562952087536078e+000	-3.733893989186016e+001
1	 2.938677024424692e-001	 1.565998753240810e+000	-3.795770545114350e+001
1	 2.780919693823034e-001	 1.568877056842937e+000	-3.854018840492788e+001
1	 2.623380133553782e-001	 1.571588099614185e+000	-3.908277448143026e+001
1	 2.466082291202042e-001	 1.574133024306707e+000	-3.958190952866031e+001
1	 2.309049729884803e-001	 1.576513013871161e+000	-4.003410289641354e+001
1	 2.152305621501179e-001	 1.578729290166173e+000	-4.043593064950787e+001
1	 1.995872740433073e-001	 1.580783112660851e+000	-4.078403861084036e+001
1	 1.839773457693229e-001	 1.582675777131999e+000	-4.107514523326729e+001
1	 1.684029735517064e-001	 1.584408614357631e+000	-4.130604429970826e+001
1	 1.528663122394154e-001	 1.585982988808343e+000	-4.147360745127104e+001
1	 3.109585052729244e-001	 1.569491964367168e+000	-3.731764148273885e+001
1	 2.950973361555283e-001	 1.572551378267190e+000	-3.794556691411784e+001
1	 2.792555925298783e-001	 1.575441725585226e+000	-3.853678035916637e+001
1	 2.634357170593281e-001	 1.578164112201086e+000	-3.908758962950757e+001
1	 2.476401145228079e-001	 1.580719685648571e+000	-3.959436335560087e+001
1	 2.318711510915625e-001	 1.583109633828190e+000	-4.005353450025994e+001
1	 2.161311536513517e-001	 1.585335183711221e+000	-4.046160369867136e+001
1	 2.004224091698800e-001	 1.587397600036800e+000	-4.081514242338138e+001
1	 1.847471641091543e-001	 1.589298184003680e+000	-4.111079597314487e+001
1	 1.691076238824034e-001	 1.591038271958281e+000	-4.134528628495218e+001
1	 1.535059523551476e-001	 1.592619234080585e+000	-4.151541456895843e+001
1	 1.471095512113652e-001	 1.526256781353464e+000	-4.040123434198416e+001
1	 1.321940769904347e-001	 1.527620909144472e+000	-4.049101199603996e+001
1	 1.173189629895987e-001	 1.528835215667850e+000	-4.052343609230884e+001
1	 1.024861918480412e-001	 1.529901104708160e+000	-4.049743899097994e+001
1	 8.769770393849952e-002	 1.530820007478312e+000	-4.041200376262551e+001
1	 7.295539709772317e-002	 1.531593381358124e+000	-4.026616360314902e+001
1	 5.826112639675777e-002	 1.532222708639553e+000	-4.005900120940481e+001
1	 4.361670395028588e-002	 1.532709495279816e+000	-3.978964811773642e+001
1	 2.902389876422843e-002	 1.533055269663587e+000	-3.945728400767961e+001
1	 1.448443662077806e-002	 1.533261581375402e+000	-3.906113597304709e+001
1	 0.000000000000000e+000	 1.533329999983334e+000	-3.860047776260725e+001
1	 1.477491913244744e-001	 1.532893026624554e+000	-4.058196570709350e+001
1	 1.327688638324483e-001	 1.534263085715157e+000	-4.067286834878554e+001
1	 1.178290720489962e-001	 1.535482672107356e+000	-4.070523712976905e+001
1	 1.029318072338744e-001	 1.536553195689441e+000	-4.067795331812131e+001
1	 8.807901819661552e-002	 1.537476093897312e+000	-4.058995032628828e+001
1	 7.327261102581678e-002	 1.538252830447551e+000	-4.044021317737073e+001
1	 5.851444885842478e-002	 1.538884894077196e+000	-4.022777792843596e+001
1	 4.380635168824693e-002	 1.539373797291449e+000	-3.995173105312343e+001
1	 2.915009621289072e-002	 1.539721075120482e+000	-3.961120878581686e+001
1	 1.454741571829701e-002	 1.539928283886501e+000	-3.920539642964113e+001
1	 0.000000000000000e+000	 1.539996999982150e+000	-3.873352763053136e+001
1	 1.483888314378467e-001	 1.539529271896469e+000	-4.074736222748869e+001
1	 1.333436506747863e-001	 1.540905262286677e+000	-4.083944324296533e+001
1	 1.183391811087811e-001	 1.542130128547706e+000	-4.087181402552872e+001
1	 1.033774226201508e-001	 1.543205286671577e+000	-4.084330211532249e+001
1	 8.846033245521598e-002	 1.544132180317176e+000	-4.075278880696818e+001
1	 7.358982495441387e-002	 1.544912279537849e+000	-4.059920866688888e+001
1	 5.876777132058422e-002	 1.545547079515722e+000	-4.038154900373005e+001
1	 4.399599942665190e-002	 1.546038099303972e+000	-4.009884929419292e+001
1	 2.927629366190350e-002	 1.546386880578270e+000	-3.975020056658289e+001
1	 1.461039481602085e-002	 1.546594986398501e+000	-3.933474474438395e+001
1	 0.000000000000000e+000	 1.546663999981867e+000	-3.885167395215265e+001
1	 1.490284715514893e-001	 1.546165517169035e+000	-4.089739759058406e+001
1	 1.339184375174359e-001	 1.547547438858865e+000	-4.099070754554325e+001
1	 1.188492901689171e-001	 1.548777584988743e+000	-4.102313631048989e+001
1	 1.038230380068114e-001	 1.549857377654417e+000	-4.099345508948153e+001
1	 8.884164671422185e-002	 1.550788266737764e+000	-4.090049062580253e+001
1	 7.390703888342050e-002	 1.551571728628892e+000	-4.074312477001701e+001
1	 5.902109378313513e-002	 1.552209264955009e+000	-4.052029399693733e+001
1	 4.418564716540320e-002	 1.552702401317272e+000	-4.023098887385260e+001
1	 2.940249111118554e-002	 1.553052686036848e+000	-3.987425348237610e+001
1	 1.467337391390007e-002	 1.553261688911296e+000	-3.944918479627303e+001
1	 0.000000000000000e+000	 1.553330999982383e+000	-3.895493201763154e+001
1	 1.496681116654092e-001	 1.552801762442078e+000	-4.103204593360482e+001
1	 1.344932243603838e-001	 1.554189615431554e+000	-4.112663262150736e+001
1	 1.193593992293684e-001	 1.555425041430308e+000	-4.115917403641668e+001
1	 1.042686533937975e-001	 1.556509468637817e+000	-4.112838246535333e+001
1	 8.922296097355417e-002	 1.557444353158942e+000	-4.103302769247973e+001
1	 7.422425281274273e-002	 1.558231177720554e+000	-4.087193661759714e+001
1	 5.927441624597661e-002	 1.558871450394940e+000	-4.064399281909817e+001
1	 4.437529490440334e-002	 1.559366703331239e+000	-4.034813606377568e+001
1	 2.952868856065562e-002	 1.559718491496112e+000	-3.998336176589955e+001
1	 1.473635301188516e-002	 1.559928391424788e+000	-3.954872039799299e+001
1	 0.000000000000000e+000	 1.559997999983599e+000	-3.904331685574256e+001
1	 1.503077517796134e-001	 1.559438007715424e+000	-4.115128183401108e+001
1	 1.350680112036169e-001	 1.560831792004578e+000	-4.124719032327325e+001
1	 1.198695082900991e-001	 1.562072497872247e+000	-4.127989776485600e+001
1	 1.047142687810503e-001	 1.563161559621628e+000	-4.124805497452841e+001
1	 8.960427523313397e-002	 1.564100439580570e+000	-4.115037239484369e+001
1	 7.454146674228666e-002	 1.564890626812705e+000	-4.098561976379525e+001
1	 5.952773870900770e-002	 1.565533635835396e+000	-4.075262572320863e+001
1	 4.456494264355475e-002	 1.566031005345761e+000	-4.045027736931960e+001
1	 2.965488601023249e-002	 1.566384296955954e+000	-4.007751974802743e+001
1	 1.479933210992658e-002	 1.566595093938874e+000	-3.963335529732768e+001
1	 0.000000000000000e+000	 1.566664999985416e+000	-3.911684323943818e+001
1	 1.509473918941091e-001	 1.566074252988898e+000	-4.125508030017643e+001
1	 1.356427980471223e-001	 1.567473968577772e+000	-4.135235298035631e+001
1	 1.203796173510732e-001	 1.568719954314401e+000	-4.138527855633440e+001
1	 1.051598841685111e-001	 1.569813650605705e+000	-4.135244384469608e+001
1	 8.998558949288221e-002	 1.570756526002515e+000	-4.125249758876269e+001
1	 7.485868067195843e-002	 1.571550075905218e+000	-4.108415017713427e+001
1	 5.978106117212745e-002	 1.572195821276259e+000	-4.084617329697586e+001
1	 4.475459038275984e-002	 1.572695307360727e+000	-4.053739952457505e+001
1	 2.978108345983493e-002	 1.573050102416269e+000	-4.015672185572462e+001
1	 1.486231120797482e-002	 1.573261796453454e+000	-3.970309317853459e+001
1	 0.000000000000000e+000	 1.573331999987733e+000	-3.917552569126716e+001
1	 1.515870320089033e-001	 1.572710498262325e+000	-4.134341676229042e+001
1	 1.362175848908868e-001	 1.574116145150969e+000	-4.144209338930577e+001
1	 1.208897264122548e-001	 1.575367410756614e+000	-4.147528795983124e+001
1	 1.056054995561209e-001	 1.576465741589899e+000	-4.144152078917686e+001
1	 9.036690375271989e-002	 1.577412612424635e+000	-4.133937658825649e+001
1	 7.517589460166406e-002	 1.578209524997966e+000	-4.116750423174980e+001
1	 6.003438363523492e-002	 1.578858006717409e+000	-4.092461645575592e+001
1	 4.494423812192110e-002	 1.579359609376027e+000	-4.060948948753951e+001
1	 2.990728090938170e-002	 1.579715907876953e+000	-4.022096261001975e+001
1	 1.492529030598035e-002	 1.579928498968426e+000	-3.975793766368648e+001
1	 0.000000000000000e+000	 1.579998999990450e+000	-3.921937848865869e+001
1	 1.522266721240030e-001	 1.579346743535532e+000	-4.141626706350062e+001
1	 1.367923717348973e-001	 1.580758321724004e+000	-4.151638480389231e+001
1	 1.213998354736080e-001	 1.582014867198729e+000	-4.154989800251558e+001
1	 1.060511149438211e-001	 1.583117832574064e+000	-4.151525799671919e+001
1	 9.074821801256802e-002	 1.584068698846796e+000	-4.141098315586848e+001
1	 7.549310853130965e-002	 1.584868974090821e+000	-4.123565869887000e+001
1	 6.028770609822916e-002	 1.585520192158728e+000	-4.098793643567004e+001
1	 4.513388586094098e-002	 1.586023911391548e+000	-4.066653443541572e+001
1	 3.003347835879158e-002	 1.586381713337902e+000	-4.027023662402811e+001
1	 1.498826940389365e-002	 1.586595201483688e+000	-3.979789231397545e+001
1	 0.000000000000000e+000	 1.586665999993466e+000	-3.924841566907212e+001
1	 1.528663122394154e-001	 1.585982988808343e+000	-4.147360745127104e+001
1	 1.373671585791408e-001	 1.587400498296709e+000	-4.157520092554299e+001
1	 1.219099445350967e-001	 1.588662323640588e+000	-4.160908117974354e+001
1	 1.064967303315527e-001	 1.589769923558053e+000	-4.157362812155378e+001
1	 9.112953227234756e-002	 1.590724785268860e+000	-4.146729149328331e+001
1	 7.581032246080133e-002	 1.591528423183657e+000	-4.128859073850659e+001
1	 6.054102856100924e-002	 1.592182377600097e+000	-4.103611478689317e+001
1	 4.532353359972191e-002	 1.592688213407181e+000	-4.070852176002085e+001
1	 3.015967580798333e-002	 1.593047518799007e+000	-4.030453860102569e+001
1	 1.505124850166521e-002	 1.593261903999138e+000	-3.982296063098929e+001
1	 0.000000000000000e+000	 1.593332999996683e+000	-3.926265103501685e+001
1	 1.535059523551476e-001	 1.592619234080585e+000	-4.151541456895843e+001
1	 1.379419454236043e-001	 1.594042674868919e+000	-4.161851589401344e+001
1	 1.224200535966850e-001	 1.595309780082036e+000	-4.165281044530187e+001
1	 1.069423457192570e-001	 1.596422014541718e+000	-4.161660427369463e+001
1	 9.151084653197959e-002	 1.597380871690691e+000	-4.150827623217756e+001
1	 7.612753639004517e-002	 1.598187872276344e+000	-4.132627789135549e+001
1	 6.079435102347421e-002	 1.598844563041398e+000	-4.106913336711190e+001
1	 4.551318133816635e-002	 1.599352515422813e+000	-4.073543906331997e+001
1	 3.028587325687572e-002	 1.599713324260166e+000	-4.032386333257103e+001
1	 1.511422759924549e-002	 1.599928606514677e+000	-3.983314605795212e+001
1	 0.000000000000000e+000	 1.600000000000000e+000	-3.926209815894828e+001
1	 1.600000000000000e+000	 0.000000000000000e+000	 1.948243474160766e+001
1	 1.599928606514677e+000	 1.511422759924554e-002	 1.872862916187099e+001
1	 1.599713324260166e+000	 3.028587325687582e-002	 1.797992347835078e+001
1	 1.599352515422813e+000	 4.551318133816625e-002	 1.723707386489796e+001
1	 1.598844563041397e+000	 6.079435102347415e-002	 1.650085259922445e+001
1	 1.598187872276344e+000	 7.612753639004513e-002	 1.577204775280999e+001
1	 1.597380871690691e+000	 9.151084653197962e-002	 1.505146284864390e+001
1	 1.596422014541718e+000	 1.069423457192571e-001	 1.433991648622817e+001
1	 1.595309780082036e+000	 1.224200535966849e-001	 1.363824193331551e+001
1	 1.594042674868919e+000	 1.379419454236041e-001	 1.294728668390703e+001
1	 1.592619234080585e+000	 1.535059523551476e-001	 1.226791198208649e+001
1	 1.606667000003317e+000	 0.000000000000000e+000	 1.926198941979082e+001
1	 1.606595309030202e+000	 1.517720669660131e-002	 1.851573238535618e+001
1	 1.606379129721276e+000	 3.041207070541383e-002	 1.777434073284530e+001
1	 1.606016817438340e+000	 4.570282907620737e-002	 1.703859706138688e+001
1	 1.605506748482524e+000	 6.104767348555376e-002	 1.630929947039337e+001
1	 1.604847321368774e+000	 7.644475031897424e-002	 1.558726119783301e+001
1	 1.604036958112174e+000	 9.189216079140578e-002	 1.487331022592706e+001
1	 1.603074105524943e+000	 1.073879611068879e-001	 1.416828885378154e+001
1	 1.601957236522952e+000	 1.229301626583409e-001	 1.347305323651452e+001
1	 1.600684851440510e+000	 1.385167322682696e-001	 1.278847289049237e+001
1	 1.599255479352130e+000	 1.541455924711944e-001	 1.211543016434782e+001
1	 1.613334000006534e+000	 0.000000000000000e+000	 1.903993164033951e+001
1	 1.613262011545619e+000	 1.524018579376445e-002	 1.830151786833413e+001
1	 1.613044935182250e+000	 3.053826815364738e-002	 1.756772779757215e+001
1	 1.612681119453689e+000	 4.589247681390126e-002	 1.683937042190244e+001
1	 1.612168933923417e+000	 6.130099594730055e-002	 1.611726961276540e+001
1	 1.611506770460910e+000	 7.676196424762995e-002	 1.540226370528549e+001
1	 1.610693044533295e+000	 9.227347505065069e-002	 1.469520505139565e+001
1	 1.609726196507734e+000	 1.078335764944499e-001	 1.399695953958679e+001
1	 1.608604692963363e+000	 1.234402717200478e-001	 1.330840608093197e+001
1	 1.607327028011525e+000	 1.390915191131004e-001	 1.263043606109149e+001
1	 1.605891724623038e+000	 1.547852325875027e-001	 1.196395275806559e+001
1	 1.620001000009550e+000	 0.000000000000000e+000	 1.881628150855699e+001
1	 1.619928714060829e+000	 1.530316489078311e-002	 1.808600484711514e+001
1	 1.619710740643001e+000	 3.066446560165258e-002	 1.736010288033412e+001
1	 1.619345421468792e+000	 4.608212455133472e-002	 1.663941096735559e+001
1	 1.618831119364034e+000	 6.155431840879772e-002	 1.592477870322621e+001
1	 1.618166219552731e+000	 7.707917817608065e-002	 1.521706945226843e+001
1	 1.617349130954059e+000	 9.265478930975966e-002	 1.451715984810434e+001
1	 1.616378287490125e+000	 1.082791918819602e-001	 1.382593926001375e+001
1	 1.615252149403328e+000	 1.239503807817929e-001	 1.314430922536520e+001
1	 1.613969204582053e+000	 1.396663059580555e-001	 1.247318284791957e+001
1	 1.612527969893416e+000	 1.554248727040071e-001	 1.181348416187079e+001
1	 1.626668000012268e+000	 0.000000000000000e+000	 1.859105880013880e+001
1	 1.626595416575738e+000	 1.536614398770546e-002	 1.786921224264681e+001
1	 1.626376546103448e+000	 3.079066304950555e-002	 1.715148389043187e+001
1	 1.626009723483583e+000	 4.627177228859459e-002	 1.643873543961235e+001
1	 1.625493304804328e+000	 6.180764087012846e-002	 1.573184216165047e+001
1	 1.624825668644219e+000	 7.739639210439459e-002	 1.503169238345917e+001
1	 1.624005217374477e+000	 9.303610356877803e-002	 1.433918693380058e+001
1	 1.623030378472153e+000	 1.087248072694361e-001	 1.365523855574433e+001
1	 1.621899605842912e+000	 1.244604898435636e-001	 1.298077128501634e+001
1	 1.620611381152179e+000	 1.402410928030932e-001	 1.231671979413242e+001
1	 1.619164215163372e+000	 1.560645128206422e-001	 1.166402870228111e+001
1	 1.633335000014584e+000	 0.000000000000000e+000	 1.836428296789959e+001
1	 1.633262119090249e+000	 1.542912308457965e-002	 1.765115866695016e+001
1	 1.633042351563504e+000	 3.091686049728242e-002	 1.694188844475578e+001
1	 1.632674025497995e+000	 4.646142002576765e-002	 1.623736030718892e+001
1	 1.632155490244256e+000	 6.206096333137600e-002	 1.553847515614671e+001
1	 1.631485117735354e+000	 7.771360603264023e-002	 1.484614621585452e+001
1	 1.630661303794554e+000	 9.341741782775105e-002	 1.416129842511451e+001
1	 1.629682469453853e+000	 1.091704226568948e-001	 1.348486779535789e+001
1	 1.628547062282178e+000	 1.249705989053470e-001	 1.281780073442302e+001
1	 1.627253557721992e+000	 1.408158796481723e-001	 1.216105333605267e+001
1	 1.625800460433011e+000	 1.567041529373426e-001	 1.151559063517319e+001
1	 1.640002000016400e+000	 0.000000000000000e+000	 1.813597314833626e+001
1	 1.639928821604268e+000	 1.549210218145386e-002	 1.743186242939927e+001
1	 1.639708157023086e+000	 3.104305794505928e-002	 1.673133387373000e+001
1	 1.639338327511960e+000	 4.665106776294072e-002	 1.603530177080786e+001
1	 1.638817675683773e+000	 6.231428579262357e-002	 1.534469260817525e+001
1	 1.638144566826117e+000	 7.803081996088587e-002	 1.466044444339903e+001
1	 1.637317390214301e+000	 9.379873208672412e-002	 1.398350624164728e+001
1	 1.636334560435261e+000	 1.096160380443534e-001	 1.331483717882932e+001
1	 1.635194518721186e+000	 1.254807079671303e-001	 1.265540591031751e+001
1	 1.633895734291576e+000	 1.413906664932513e-001	 1.200618980534113e+001
1	 1.632436705702442e+000	 1.573437930540431e-001	 1.136817414721826e+001
1	 1.646669000017617e+000	 0.000000000000000e+000	 1.790614816803138e+001
1	 1.646595524117697e+000	 1.555508127837624e-002	 1.721134154284778e+001
1	 1.646373962482109e+000	 3.116925539291229e-002	 1.651983722711123e+001
1	 1.646002629525412e+000	 4.684071550020064e-002	 1.583257576881920e+001
1	 1.645479861122833e+000	 6.256760825395438e-002	 1.515050919754086e+001
1	 1.644804015916487e+000	 7.834803388919986e-002	 1.447460034150027e+001
1	 1.643973476633723e+000	 9.418004634574252e-002	 1.380582210995940e+001
1	 1.642986651416412e+000	 1.100616534318293e-001	 1.314515674094266e+001
1	 1.641841975160000e+000	 1.259908170289009e-001	 1.249359501441655e+001
1	 1.640537910861019e+000	 1.419654533382890e-001	 1.185213543111555e+001
1	 1.639072950971772e+000	 1.579834331706781e-001	 1.122178335728316e+001
1	 1.653336000018133e+000	 0.000000000000000e+000	 1.767482654990192e+001
1	 1.653262226630441e+000	 1.561806037539494e-002	 1.698961372960751e+001
1	 1.653039767940489e+000	 3.129545284091757e-002	 1.630741527964792e+001
1	 1.652666931538284e+000	 4.703036323763419e-002	 1.562919798249057e+001
1	 1.652142046561392e+000	 6.282093071545158e-002	 1.495593936726552e+001
1	 1.651463465006448e+000	 7.866524781765064e-002	 1.428862697143496e+001
1	 1.650629563052829e+000	 9.456136060485153e-002	 1.362825756746296e+001
1	 1.649638742397343e+000	 1.105072688193396e-001	 1.297583635462143e+001
1	 1.648489431598683e+000	 1.265009260906461e-001	 1.233237611614359e+001
1	 1.647180087430408e+000	 1.425402401832440e-001	 1.169889634201818e+001
1	 1.645709196241108e+000	 1.586230732871825e-001	 1.107642231779745e+001
1	 1.660003000017850e+000	 0.000000000000000e+000	 1.744202651929708e+001
1	 1.659928929142405e+000	 1.568103947255814e-002	 1.676669642728299e+001
1	 1.659705573398140e+000	 3.142165028915121e-002	 1.609408453660258e+001
1	 1.659331233550508e+000	 4.722001097532819e-002	 1.542518384116958e+001
1	 1.658804231999406e+000	 6.307425317719849e-002	 1.476099732834306e+001
1	 1.658122914095977e+000	 7.898246174630641e-002	 1.410253718464930e+001
1	 1.657285649471628e+000	 9.494267486409651e-002	 1.345082396622019e+001
1	 1.656290833378088e+000	 1.109528842069017e-001	 1.280688573417907e+001
1	 1.655136888037296e+000	 1.270110351523530e-001	 1.217175715528542e+001
1	 1.653822263999829e+000	 1.431150270280748e-001	 1.154647856823358e+001
1	 1.652345441510555e+000	 1.592627134034907e-001	 1.093209501608776e+001
1	 1.666670000016666e+000	 0.000000000000000e+000	 1.720776600995014e+001
1	 1.666595631653491e+000	 1.574401856991399e-002	 1.654260679446579e+001
1	 1.666371378854980e+000	 3.154784773768937e-002	 1.587986123914190e+001
1	 1.665995535562018e+000	 4.740965871336945e-002	 1.522054852732269e+001
1	 1.665466417436829e+000	 6.332757563927825e-002	 1.456569706437997e+001
1	 1.664782363185057e+000	 7.929967567523566e-002	 1.391634362695543e+001
1	 1.663941735890127e+000	 9.532398912352275e-002	 1.327353247665040e+001
1	 1.662942924358684e+000	 1.113984995945326e-001	 1.263831443849160e+001
1	 1.661784344475902e+000	 1.275211442140089e-001	 1.201174594458488e+001
1	 1.660464440569369e+000	 1.436898138727402e-001	 1.139488804345772e+001
1	 1.658981686780223e+000	 1.599023535195375e-001	 1.078880537567964e+001
1	 1.592619234080585e+000	 1.535059523551476e-001	 1.226791198208649e+001
1	 1.591038271958281e+000	 1.691076238824034e-001	 1.159811485359499e+001
1	 1.589298184003680e+000	 1.847471641091542e-001	 1.093578066340657e+001
1	 1.587397600036800e+000	 2.004224091698800e-001	 1.028190620823823e+001
1	 1.585335183711221e+000	 2.161311536513516e-001	 9.637473814916962e+000
1	 1.583109633828190e+000	 2.318711510915626e-001	 9.003449794244430e+000
1	 1.580719685648572e+000	 2.476401145228081e-001	 8.380782880364329e+000
1	 1.578164112201086e+000	 2.634357170593281e-001	 7.770402658080032e+000
1	 1.575441725585226e+000	 2.792555925298784e-001	 7.173217980674177e+000
1	 1.572551378267189e+000	 2.950973361555282e-001	 6.590115380882068e+000
1	 1.569491964367168e+000	 3.109585052729245e-001	 6.021957477767106e+000
1	 1.599255479352130e+000	 1.541455924711944e-001	 1.211543016434782e+001
1	 1.597667929558169e+000	 1.698122742134936e-001	 1.145178914070206e+001
1	 1.595920590874547e+000	 1.855169824494244e-001	 1.079530587216500e+001
1	 1.594012087411892e+000	 2.012575442969085e-001	 1.014699963022170e+001
1	 1.591941077255381e+000	 2.170317451530340e-001	 9.507874490197311e+000
1	 1.589706253784308e+000	 2.328373291950672e-001	 8.878917732588203e+000
1	 1.587306346989509e+000	 2.486719999257927e-001	 8.261098229887720e+000
1	 1.584740124787051e+000	 2.645334207636076e-001	 7.655364821457338e+000
1	 1.582006394326573e+000	 2.804192156777262e-001	 7.062644679101533e+000
1	 1.579104003292623e+000	 2.963269698688031e-001	 6.483841666107886e+000
1	 1.576031841197312e+000	 3.122542304952113e-001	 5.919834692612024e+000
1	 1.605891724623038e+000	 1.547852325875027e-001	 1.196395275806559e+001
1	 1.604297587157367e+000	 1.705169245449124e-001	 1.130668877462270e+001
1	 1.602542997744677e+000	 1.862868007900623e-001	 1.065627186145896e+001
1	 1.600626574786213e+000	 2.020926794243195e-001	 1.001374276891069e+001
1	 1.598546970798739e+000	 2.179323366550936e-001	 9.380126293205455e+000
1	 1.596302873739601e+000	 2.338035072989267e-001	 8.756429625966577e+000
1	 1.593893008329605e+000	 2.497038853290979e-001	 8.143640689275994e+000
1	 1.591316137372162e+000	 2.656311244681645e-001	 7.542726458949969e+000
1	 1.588571063067057e+000	 2.815828388258037e-001	 6.954631278792781e+000
1	 1.585656628317191e+000	 2.975566035822602e-001	 6.380275168699838e+000
1	 1.582571718026589e+000	 3.135499557176359e-001	 5.820552129583218e+000
1	 1.612527969893416e+000	 1.554248727040071e-001	 1.181348416187079e+001
1	 1.610927244755997e+000	 1.712215748765774e-001	 1.116281575083127e+001
1	 1.609165404614206e+000	 1.870566191309759e-001	 1.051867807710253e+001
1	 1.607241062159900e+000	 2.029278145520175e-001	 9.882132385748871e+000
1	 1.605152864341439e+000	 2.188329281574359e-001	 9.254223178337369e+000
1	 1.602899493694213e+000	 2.347696854030525e-001	 8.635976511317354e+000
1	 1.600479669669002e+000	 2.507357707326435e-001	 8.028398280092086e+000
1	 1.597892149956558e+000	 2.667288281729294e-001	 7.432472491542321e+000
1	 1.595135731806818e+000	 2.827464619740537e-001	 6.849159527875569e+000
1	 1.592209253341028e+000	 2.987862372958533e-001	 6.279394404781073e+000
1	 1.589111594855133e+000	 3.148456809401637e-001	 5.724085026977412e+000
1	 1.619164215163372e+000	 1.560645128206422e-001	 1.166402870228111e+001
1	 1.617556902354181e+000	 1.719262252084069e-001	 1.102017203208729e+001
1	 1.615787811483266e+000	 1.878264374720733e-001	 1.038252397399504e+001
1	 1.613855549533095e+000	 2.037629496799067e-001	 9.752165295273390e+000
1	 1.611758757883622e+000	 2.197335196599668e-001	 9.130159199102341e+000
1	 1.609496113648288e+000	 2.357358635073560e-001	 8.517549572521606e+000
1	 1.607066331007840e+000	 2.517676561363493e-001	 7.915359220276801e+000
1	 1.604468162540381e+000	 2.678265318778332e-001	 7.324588087428269e+000
1	 1.601700400545990e+000	 2.839100851224186e-001	 6.746211473703752e+000
1	 1.598761878364269e+000	 3.000158710095375e-001	 6.181178242687118e+000
1	 1.595651471683077e+000	 3.161414061627604e-001	 5.630409029041307e+000
1	 1.625800460433011e+000	 1.567041529373426e-001	 1.151559063517319e+001
1	 1.624186559952042e+000	 1.726308755403184e-001	 1.087875954910325e+001
1	 1.622410218351989e+000	 1.885962558132626e-001	 1.024780901593563e+001
1	 1.620470036905936e+000	 2.045980848078916e-001	 9.623838364031755e+000
1	 1.618364651425431e+000	 2.206341111625919e-001	 9.007928506100274e+000
1	 1.616092733601967e+000	 2.367020416117481e-001	 8.401140137404203e+000
1	 1.613652992346263e+000	 2.527995415401352e-001	 7.804511920141016e+000
1	 1.611044175123768e+000	 2.689242355828062e-001	 7.219058656965881e+000
1	 1.608265069284713e+000	 2.850737082708411e-001	 6.645769456750377e+000
1	 1.605314503387048e+000	 3.012455047232673e-001	 6.085605895777549e+000
1	 1.602191348510555e+000	 3.174371313853915e-001	 5.539500177686223e+000
1	 1.632436705702442e+000	 1.573437930540431e-001	 1.136817414721826e+001
1	 1.630816217549701e+000	 1.733355258722299e-001	 1.073858020119593e+001
1	 1.629032625220509e+000	 1.893660741544520e-001	 1.011453267544247e+001
1	 1.627084524278562e+000	 2.054332199358764e-001	 9.497148509524333e+000
1	 1.624970544967010e+000	 2.215347026652170e-001	 8.887525345047930e+000
1	 1.622689353555394e+000	 2.376682197161403e-001	 8.286739674808302e+000
1	 1.620239653684412e+000	 2.538314269439212e-001	 7.695844978455294e+000
1	 1.617620187706860e+000	 2.700219392877792e-001	 7.115869847755337e+000
1	 1.614829738023121e+000	 2.862373314192635e-001	 6.547816104649823e+000
1	 1.611867128409499e+000	 3.024751384369968e-001	 5.992656915423074e+000
1	 1.608731225337699e+000	 3.187328566080225e-001	 5.451334904405361e+000
1	 1.639072950971772e+000	 1.579834331706781e-001	 1.122178335728317e+001
1	 1.637445875147284e+000	 1.740401762040592e-001	 1.059963585692221e+001
1	 1.635655032088957e+000	 1.901358924955492e-001	 9.982694433576210e+000
1	 1.633699011651114e+000	 2.062683550637655e-001	 9.372092699172999e+000
1	 1.631576438508499e+000	 2.224352941677479e-001	 8.768944054853726e+000
1	 1.629285973508712e+000	 2.386343978204436e-001	 8.174339791740424e+000
1	 1.626826315022428e+000	 2.548633123476269e-001	 7.589347178634915e+000
1	 1.624196200289796e+000	 2.711196429926829e-001	 7.015007539835865e+000
1	 1.621394406761351e+000	 2.874009545676284e-001	 6.452334326384297e+000
1	 1.618419753431758e+000	 3.037047721506811e-001	 5.902311184162628e+000
1	 1.615271102164644e+000	 3.200285818306192e-001	 5.365890022386825e+000
1	 1.645709196241108e+000	 1.586230732871825e-001	 1.107642231779745e+001
1	 1.644075532744909e+000	 1.747448265357242e-001	 1.046192835469884e+001
1	 1.642277438957468e+000	 1.909057108364628e-001	 9.852293779767749e+000
1	 1.640313499023730e+000	 2.071034901914634e-001	 9.248667949314600e+000
1	 1.638182332050043e+000	 2.233358856700901e-001	 8.652179065738533e+000
1	 1.635882593462066e+000	 2.396005759245694e-001	 8.063932230584792e+000
1	 1.633412976360455e+000	 2.558951977511725e-001	 7.485007485016892e+000
1	 1.630772212872714e+000	 2.722173466974477e-001	 6.916457840999463e+000
1	 1.627959075499540e+000	 2.885645777158784e-001	 6.359307306611228e+000
1	 1.624972378453958e+000	 3.049344058642744e-001	 5.814548909026456e+000
1	 1.621810978991522e+000	 3.213243070531469e-001	 5.283142718818064e+000
1	 1.652345441510555e+000	 1.592627134034907e-001	 1.093209501608776e+001
1	 1.650705190342700e+000	 1.754494768671429e-001	 1.032545950340829e+001
1	 1.648899845826174e+000	 1.916755291771005e-001	 9.723330211650124e+000
1	 1.646927986396549e+000	 2.079386253188743e-001	 9.126871324218673e+000
1	 1.644788225591782e+000	 2.242364771721496e-001	 8.537224897402131e+000
1	 1.642479213415595e+000	 2.405667540284289e-001	 7.955508866384692e+000
1	 1.639999637698632e+000	 2.569270831544776e-001	 7.382815039226800e+000
1	 1.637348225455756e+000	 2.733150504020045e-001	 6.820207082217209e+000
1	 1.634523744237826e+000	 2.897282008639558e-001	 6.268718500127469e+000
1	 1.631525003476235e+000	 3.061640395777312e-001	 5.729350615019738e+000
1	 1.628350855818468e+000	 3.226200322755715e-001	 5.203070547375266e+000
1	 1.658981686780223e+000	 1.599023535195375e-001	 1.078880537567964e+001
1	 1.657334847940780e+000	 1.761541271982330e-001	 1.019023108298899e+001
1	 1.655522252695209e+000	 1.924453475173706e-001	 9.595803234894554e+000
1	 1.653542473769712e+000	 2.087737604459026e-001	 9.006699935128751e+000
1	 1.651394119133861e+000	 2.251370686738319e-001	 8.424076157233481e+000
1	 1.649075833369447e+000	 2.415329321319333e-001	 7.849061704189324e+000
1	 1.646586299037103e+000	 2.579589685574621e-001	 7.282759156632899e+000
1	 1.643924238039060e+000	 2.744127541062840e-001	 6.726241813175546e+000
1	 1.641088412976345e+000	 2.908918240118035e-001	 6.180551626466198e+000
1	 1.638077628498721e+000	 3.073936732910060e-001	 5.646697138762783e+000
1	 1.634890732645614e+000	 3.239157574978582e-001	 5.125651420893298e+000
1	 1.569491964367168e+000	 3.109585052729245e-001	 6.021957477767106e+000
1	 1.566261923868223e+000	 3.268390025899310e-001	 5.468538867536072e+000
1	 1.562860684949402e+000	 3.427339297746908e-001	 4.929658081747081e+000
1	 1.559287275264824e+000	 3.586407303637541e-001	 4.405896362596253e+000
1	 1.555540769203843e+000	 3.745568132600691e-001	 3.897812523844676e+000
1	 1.551620289110432e+000	 3.904795536865157e-001	 3.405941892287766e+000
1	 1.547525006483282e+000	 4.064062941850495e-001	 2.930795261990831e+000
1	 1.543254143154806e+000	 4.223343456611926e-001	 2.472857863518972e+000
1	 1.538806972447188e+000	 4.382609884735363e-001	 2.032588350413914e+000
1	 1.534182820303653e+000	 4.541834735678361e-001	 1.610417805190172e+000
1	 1.529381066393079e+000	 4.700990236552003e-001	 1.206748767136079e+000
1	 1.576031841197312e+000	 3.122542304952113e-001	 5.919834692612024e+000
1	 1.572788341523290e+000	 3.282008998594101e-001	 5.370477184715443e+000
1	 1.569372930066905e+000	 3.441620592188109e-001	 4.835615387812380e+000
1	 1.565784630430640e+000	 3.601351414575069e-001	 4.315830560285404e+000
1	 1.562022513146961e+000	 3.761175446816751e-001	 3.811680682787684e+000
1	 1.558085696902766e+000	 3.921066331770839e-001	 3.323699384912338e+000
1	 1.553973349744499e+000	 4.080997384124002e-001	 2.852394885823751e+000
1	 1.549684690262056e+000	 4.240941600880323e-001	 2.398248951136389e+000
1	 1.545218988749658e+000	 4.400871672301722e-001	 1.961715868350888e+000
1	 1.540575568341829e+000	 4.560759993296170e-001	 1.543221443174057e+000
1	 1.535753806122621e+000	 4.720578675248663e-001	 1.143162019062083e+000
1	 1.582571718026589e+000	 3.135499557176359e-001	 5.820552129583218e+000
1	 1.579314759177490e+000	 3.295627971289897e-001	 5.275376132513725e+000
1	 1.575885175183543e+000	 3.455901886630018e-001	 4.744644103742988e+000
1	 1.572281985595597e+000	 3.616295525513067e-001	 4.228938054683476e+000
1	 1.568504257089225e+000	 3.776782761033101e-001	 3.728815898301894e+000
1	 1.564551104694252e+000	 3.937337126676677e-001	 3.244810360243030e+000
1	 1.560421693004875e+000	 4.097931826397565e-001	 2.777427905047573e+000
1	 1.556115237368471e+000	 4.258539745148701e-001	 2.327147679807971e+000
1	 1.551631005051299e+000	 4.419133459868008e-001	 1.894420477628186e+000
1	 1.546968316379183e+000	 4.579685250913861e-001	 1.479667723269730e+000
1	 1.542126545851345e+000	 4.740167113945158e-001	 1.083280483376492e+000
1	 1.589111594855133e+000	 3.148456809401637e-001	 5.724085026977412e+000
1	 1.585841176830959e+000	 3.309246943986449e-001	 5.183207778199201e+000
1	 1.582397420299454e+000	 3.470183181072454e-001	 4.656713370957790e+000
1	 1.578779340759835e+000	 3.631239636451417e-001	 4.145185296948998e+000
1	 1.574986001030779e+000	 3.792390075249656e-001	 3.649182156998636e+000
1	 1.571016512485042e+000	 3.953607921582605e-001	 3.169236555899510e+000
1	 1.566870036264566e+000	 4.114866268671125e-001	 2.705854013411788e+000
1	 1.562545784474214e+000	 4.276137889416999e-001	 2.259511893828758e+000
1	 1.558043021352281e+000	 4.437395247434138e-001	 1.830658356530605e+000
1	 1.553361064415891e+000	 4.598610508531317e-001	 1.419711329964684e+000
1	 1.548499285579435e+000	 4.759755552641329e-001	 1.027057511498190e+000
1	 1.595651471683077e+000	 3.161414061627604e-001	 5.630409029041307e+000
1	 1.592367594483831e+000	 3.322865916683504e-001	 5.093944646976536e+000
1	 1.588909665414776e+000	 3.484464475515245e-001	 4.571792836779126e+000
1	 1.585276695923495e+000	 3.646183747389991e-001	 4.064539288248733e+000
1	 1.581467744971771e+000	 3.807997389466333e-001	 3.572744035901700e+000
1	 1.577481920275285e+000	 3.969878716488561e-001	 3.096940336784392e+000
1	 1.573318379523730e+000	 4.131800710944627e-001	 2.637633565456574e+000
1	 1.568976331579452e+000	 4.293736033685149e-001	 2.195300128604869e+000
1	 1.564455037652777e+000	 4.455657035000024e-001	 1.770386401767020e+000
1	 1.559753812452132e+000	 4.617535766148418e-001	 1.363307690660176e+000
1	 1.554872025307074e+000	 4.779343991337012e-001	 9.744472196144658e-001
1	 1.602191348510555e+000	 3.174371313853915e-001	 5.539500177686223e+000
1	 1.598894012136239e+000	 3.336484889380810e-001	 5.007559712640817e+000
1	 1.595421910529644e+000	 3.498745769958206e-001	 4.489852644107829e+000
1	 1.591774051086716e+000	 3.661127858328666e-001	 3.986967568532361e+000
1	 1.587949488912343e+000	 3.823604703683042e-001	 3.499466690397576e+000
1	 1.583947328065134e+000	 3.986149511394479e-001	 3.027884682281106e+000
1	 1.579766722782525e+000	 4.148735153218011e-001	 2.572727563026556e+000
1	 1.575406878684347e+000	 4.311334177953086e-001	 2.134471596548461e+000
1	 1.570867053952957e+000	 4.473918822565583e-001	 1.713562213807823e+000
1	 1.566146560488082e+000	 4.636461023765048e-001	 1.310412960508870e+000
1	 1.561244765034445e+000	 4.798932430032044e-001	 9.254044730726571e-001
1	 1.608731225337699e+000	 3.187328566080225e-001	 5.451334904405361e+000
1	 1.605420429788318e+000	 3.350103862078115e-001	 4.924026388459222e+000
1	 1.601934155644195e+000	 3.513027064401160e-001	 4.410863421349681e+000
1	 1.598271406249640e+000	 3.676071969267319e-001	 3.912438205581120e+000
1	 1.594431232852644e+000	 3.839212017899701e-001	 3.429315842479539e+000
1	 1.590412735854740e+000	 4.002420306300298e-001	 2.962033173763519e+000
1	 1.586215066041111e+000	 4.165669595491220e-001	 2.511097642113676e+000
1	 1.581837425789064e+000	 4.328932322220745e-001	 2.076986173316828e+000
1	 1.577279070252993e+000	 4.492180610130727e-001	 1.660144082580257e+000
1	 1.572539308523918e+000	 4.655386281381084e-001	 1.260984007622548e+000
1	 1.567617504761729e+000	 4.818520868726262e-001	 8.798848711526964e-001
1	 1.615271102164644e+000	 3.200285818306192e-001	 5.365890022386825e+000
1	 1.611946847440201e+000	 3.363722834775168e-001	 4.843318518274445e+000
1	 1.608446400758565e+000	 3.527308358843929e-001	 4.334796272587182e+000
1	 1.604768761412407e+000	 3.691016080205827e-001	 3.840919784322444e+000
1	 1.600912976792819e+000	 3.854819332116223e-001	 3.362257769277294e+000
1	 1.596878143644255e+000	 4.018691101205954e-001	 2.899349982409628e+000
1	 1.592663409299643e+000	 4.182604037764201e-001	 2.452706060019428e+000
1	 1.588267972893769e+000	 4.346530466488066e-001	 2.022804384385675e+000
1	 1.583691086553055e+000	 4.510442397695371e-001	 1.610090973511119e+000
1	 1.578932056559818e+000	 4.674311538996413e-001	 1.214978398638993e+000
1	 1.573990244489111e+000	 4.838109307419503e-001	 8.378447322094343e-001
1	 1.621810978991522e+000	 3.213243070531469e-001	 5.283142718818064e+000
1	 1.618473265092024e+000	 3.377341807471715e-001	 4.765410367823323e+000
1	 1.614958645872892e+000	 3.541589653286336e-001	 4.261622767988723e+000
1	 1.611266116575157e+000	 3.705960191144069e-001	 3.772381396403000e+000
1	 1.607394720733012e+000	 3.870426646332523e-001	 3.298259291864130e+000
1	 1.603343551433830e+000	 4.034961896111379e-001	 2.839799857309489e+000
1	 1.599111752558279e+000	 4.199538480036892e-001	 2.397515682827994e+000
1	 1.594698519998625e+000	 4.364128610754979e-001	 1.971887391947416e+000
1	 1.590103102853316e+000	 4.528704185259428e-001	 1.563362513907096e+000
1	 1.585324804595960e+000	 4.693236796610911e-001	 1.172354384638122e+000
1	 1.580362984216773e+000	 4.857697746111607e-001	 7.992410791744398e-001
1	 1.628350855818468e+000	 3.226200322755715e-001	 5.203070547375266e+000
1	 1.624999682743919e+000	 3.390960780167505e-001	 4.690276616264595e+000
1	 1.621470890987312e+000	 3.555870947728200e-001	 4.191314934448882e+000
1	 1.617763471738032e+000	 3.720904302081917e-001	 3.706792630013311e+000
1	 1.613876464673369e+000	 3.886033960548515e-001	 3.237287764333853e+000
1	 1.609808959223615e+000	 4.051232691016515e-001	 2.783348113860169e+000
1	 1.605560095817179e+000	 4.216472922309239e-001	 2.345489973181066e+000
1	 1.601129067103797e+000	 4.381726755021420e-001	 1.924196982124949e+000
1	 1.596515119153944e+000	 4.546965972822814e-001	 1.519918979663457e+000
1	 1.591717552632520e+000	 4.712162054224461e-001	 1.133070887397515e+000
1	 1.586735723944898e+000	 4.877286184802407e-001	 7.640316254072408e-001
1	 1.634890732645614e+000	 3.239157574978582e-001	 5.125651420893298e+000
1	 1.631526100396023e+000	 3.404579752862290e-001	 4.617892347910097e+000
1	 1.627983136101961e+000	 3.570152242169341e-001	 4.123845246453572e+000
1	 1.624260826901171e+000	 3.735848413019251e-001	 3.644123559956142e+000
1	 1.620358208614037e+000	 3.901641274764114e-001	 3.179311063139955e+000
1	 1.616274367013765e+000	 4.067503485921295e-001	 2.729960622439070e+000
1	 1.612008439076500e+000	 4.233407364581182e-001	 2.296592978346006e+000
1	 1.607559614209450e+000	 4.399324899287324e-001	 1.879695552492496e+000
1	 1.602927135455114e+000	 4.565227760385444e-001	 1.479721282291550e+000
1	 1.598110300669677e+000	 4.731087311836948e-001	 1.097087485977894e+000
1	 1.593108463673670e+000	 4.896874623491745e-001	 7.321747608861254e-001
1	 1.529381066393079e+000	 4.700990236552003e-001	 1.206748767136079e+000
1	 1.524401144803653e+000	 4.860048342008704e-001	 8.228111307088140e-001
1	 1.519242543939458e+000	 5.018980739669736e-001	 4.600583934531756e-001
1	 1.513904808679865e+000	 5.177758869776713e-001	 1.191998065620055e-001
1	 1.508387541743989e+000	 5.336353940943899e-001	-1.990650908655254e-001
1	 1.502690404637501e+000	 5.494736944043553e-001	-4.940474279415272e-001
1	 1.496813118561950e+000	 5.652878666485969e-001	-7.650699637208652e-001
1	 1.490755465284833e+000	 5.810749706883370e-001	-1.011468052946261e+000
1	 1.484517287968682e+000	 5.968320490086004e-001	-1.232590614159542e+000
1	 1.478098491957502e+000	 6.125561282577968e-001	-1.427801098486276e+000
1	 1.471499045518887e+000	 6.282442208219421e-001	-1.596478457360642e+000
1	 1.535753806122621e+000	 4.720578675248663e-001	 1.143162019062083e+000
1	 1.530753133822144e+000	 4.880299555950192e-001	 7.628605844502957e-001
1	 1.525573037712730e+000	 5.039894205047790e-001	 4.038832167381431e-001
1	 1.520213060777319e+000	 5.199333943777997e-001	 6.696078778640305e-002
1	 1.514672804079606e+000	 5.358589860784834e-001	-2.471865465577895e-001
1	 1.508951927714800e+000	 5.517632826063016e-001	-5.378503589571038e-001
1	 1.503050151722735e+000	 5.676433505297490e-001	-8.043349680023435e-001
1	 1.496967256961559e+000	 5.834962374588435e-001	-1.045958458824551e+000
1	 1.490703085940282e+000	 5.993189735550005e-001	-1.262053705122729e+000
1	 1.484257543608491e+000	 6.151085730770314e-001	-1.451969390784517e+000
1	 1.477630598101556e+000	 6.308620359619237e-001	-1.615071029235245e+000
1	 1.542126545851345e+000	 4.740167113945158e-001	 1.083280483376492e+000
1	 1.537105122839823e+000	 4.900550769891465e-001	 7.066737698731191e-001
1	 1.531903531485195e+000	 5.060807670425580e-001	 3.515237196911100e-001
1	 1.526521312873974e+000	 5.220909017778974e-001	 1.858148314543618e-002
1	 1.520958066414437e+000	 5.380825780625442e-001	-2.914136474364254e-001
1	 1.515213450791333e+000	 5.540528708082165e-001	-5.777353069906214e-001
1	 1.509287184882779e+000	 5.699988344108758e-001	-8.396711309894851e-001
1	 1.503179048637579e+000	 5.859175042293359e-001	-1.076523830847065e+000
1	 1.496888883911224e+000	 6.018058981014046e-001	-1.287612269545232e+000
1	 1.490416595258883e+000	 6.176610178962955e-001	-1.472272535521884e+000
1	 1.483762150683703e+000	 6.334798511019699e-001	-1.629859012822271e+000
1	 1.548499285579435e+000	 4.759755552641329e-001	 1.027057511498190e+000
1	 1.543457111856877e+000	 4.920801983832308e-001	 6.542022158434874e-001
1	 1.538234025257044e+000	 5.081721135802821e-001	 3.029284842500863e-001
1	 1.532829564970023e+000	 5.242484091779291e-001	-2.599358460192853e-002
1	 1.527243328748675e+000	 5.403061700465296e-001	-3.318070289603622e-001
1	 1.521474973867289e+000	 5.563424590100491e-001	-6.137691504558999e-001
1	 1.515524218042269e+000	 5.723543182919169e-001	-8.711526433941119e-001
1	 1.509390840313075e+000	 5.883387709997445e-001	-1.103246724881438e+000
1	 1.503074681881681e+000	 6.042928226477330e-001	-1.309358263732233e+000
1	 1.496575646908840e+000	 6.202134627154999e-001	-1.488812906059273e+000
1	 1.489893703265480e+000	 6.360976662419809e-001	-1.640956195409258e+000
1	 1.554872025307074e+000	 4.779343991337012e-001	 9.744472196144658e-001
1	 1.549809100873494e+000	 4.941053197772500e-001	 6.053982458754667e-001
1	 1.544564519028469e+000	 5.102634601179236e-001	 2.580469353136343e-001
1	 1.539137817065659e+000	 5.264059165778598e-001	-6.681898318889933e-002
1	 1.533528591082512e+000	 5.425297620303964e-001	-3.684263325156266e-001
1	 1.527736496942861e+000	 5.586320472117478e-001	-6.460176713451329e-001
1	 1.521761251201395e+000	 5.747098021728120e-001	-8.988524796267796e-001
1	 1.515602631988232e+000	 5.907600377699998e-001	-1.126208343353424e+000
1	 1.509260479851831e+000	 6.067797471939068e-001	-1.327382136433820e+000
1	 1.502734698558529e+000	 6.227659075345557e-001	-1.501691197422471e+000
1	 1.496025255847036e+000	 6.387154813818570e-001	-1.648474498825710e+000
1	 1.561244765034445e+000	 4.798932430032044e-001	 9.254044730726571e-001
1	 1.556161089889861e+000	 4.961304411711826e-001	 5.602149619127034e-001
1	 1.550895012799658e+000	 5.123548066554543e-001	 2.168293235366609e-001
1	 1.545446069161075e+000	 5.285634239776547e-001	-1.039483894032957e-001
1	 1.539813853416144e+000	 5.447533540141015e-001	-4.013302257034899e-001
1	 1.533998020018241e+000	 5.609216354132609e-001	-6.745455776060643e-001
1	 1.527998284360344e+000	 5.770652860535005e-001	-9.228424226204551e-001
1	 1.521814423663232e+000	 5.931813045400319e-001	-1.145488562869595e+000
1	 1.515446277821846e+000	 6.092666717398457e-001	-1.341772859612954e+000
1	 1.508893750208113e+000	 6.253183523533730e-001	-1.511006460555680e+000
1	 1.502156808428522e+000	 6.413332965214997e-001	-1.652524017515597e+000
1	 1.567617504761729e+000	 4.818520868726262e-001	 8.798848711526964e-001
1	 1.562513078906165e+000	 4.981555625650069e-001	 5.186062285061887e-001
1	 1.557225506570805e+000	 5.144461531928465e-001	 1.792267085460657e-001
1	 1.551754321256463e+000	 5.307209313772781e-001	-1.374346071969000e-001
1	 1.546099115749762e+000	 5.469769459976024e-001	-4.305764221338285e-001
1	 1.540259543093620e+000	 5.632112236145372e-001	-6.994165249730718e-001
1	 1.534235317519306e+000	 5.794207699339223e-001	-9.431930880486301e-001
1	 1.528026215338257e+000	 5.956025713097708e-001	-1.161165961166056e+000
1	 1.521632075791902e+000	 6.117535962854714e-001	-1.352617958462827e+000
1	 1.515052801857755e+000	 6.278707971718626e-001	-1.516856135739295e+000
1	 1.508288361010091e+000	 6.439511116608094e-001	-1.653213055681097e+000
1	 1.573990244489111e+000	 4.838109307419503e-001	 8.378447322094343e-001
1	 1.568865067922594e+000	 5.001806839587015e-001	 4.805266573759464e-001
1	 1.563556000342099e+000	 5.165374997300719e-001	 1.451909425638971e-001
1	 1.558062573352017e+000	 5.328784387766951e-001	-1.673295853551760e-001
1	 1.552384378083559e+000	 5.492005379808558e-001	-4.562217007375403e-001
1	 1.546521066169190e+000	 5.655008118155256e-001	-7.206931382680637e-001
1	 1.540472350678467e+000	 5.817762538140169e-001	-9.599739479552008e-001
1	 1.534238007013491e+000	 5.980238380791468e-001	-1.173317843402669e+000
1	 1.527817873762175e+000	 6.142405208307039e-001	-1.360003540695107e+000
1	 1.521211853507622e+000	 6.304232419899353e-001	-1.519336085196080e+000
1	 1.514419913591893e+000	 6.465689267996868e-001	-1.650648163524039e+000
1	 1.580362984216773e+000	 4.857697746111607e-001	 7.992410791744398e-001
1	 1.575217056939336e+000	 5.022058053522445e-001	 4.459315923464563e-001
1	 1.569886494113732e+000	 5.186288462671026e-001	 1.146746544269849e-001
1	 1.564370825447929e+000	 5.350359461758706e-001	-1.936844347392012e-001
1	 1.558669640417730e+000	 5.514241299638190e-001	-4.783219246117663e-001
1	 1.552782589245143e+000	 5.677904000161739e-001	-7.384370321860666e-001
1	 1.546709383838018e+000	 5.841317376937238e-001	-9.732533538126738e-001
1	 1.540449798689115e+000	 6.004451048480910e-001	-1.182020267821050e+000
1	 1.534003671732837e+000	 6.167274453754639e-001	-1.364014325119594e+000
1	 1.527370905157877e+000	 6.329756868075017e-001	-1.518540624908275e+000
1	 1.520551466174078e+000	 6.491867419380324e-001	-1.644934172610577e+000
1	 1.586735723944898e+000	 4.877286184802407e-001	 7.640316254072408e-001
1	 1.581569045956577e+000	 5.042309267456141e-001	 4.147770946451470e-001
1	 1.576216987885892e+000	 5.207201928039106e-001	 8.763123399141962e-002
1	 1.570679077544392e+000	 5.371934535747697e-001	-2.165494451123741e-001
1	 1.564954902752466e+000	 5.536477219464489e-001	-4.969320594111180e-001
1	 1.559044112321671e+000	 5.700799882164317e-001	-7.527088315797844e-001
1	 1.552946416998145e+000	 5.864872215729831e-001	-9.830985590245545e-001
1	 1.546661590365314e+000	 6.028663716165327e-001	-1.187348070784251e+000
1	 1.540189469704066e+000	 6.192143699196715e-001	-1.364733669535112e+000
1	 1.533529956808685e+000	 6.355281316244724e-001	-1.514562555668162e+000
1	 1.526683018756797e+000	 6.518045570757469e-001	-1.636174230383428e+000
1	 1.593108463673670e+000	 4.896874623491745e-001	 7.321747608861254e-001
1	 1.587921034974506e+000	 5.062560481387889e-001	 3.870199285535761e-001
1	 1.582547481658774e+000	 5.228115393404682e-001	 6.401481691153579e-002
1	 1.576987329641599e+000	 5.393509609733571e-001	-2.359741015630683e-001
1	 1.571240165087962e+000	 5.558713139287027e-001	-5.121061912971563e-001
1	 1.565305635398965e+000	 5.723695764162470e-001	-7.635681912573482e-001
1	 1.559183450159039e+000	 5.888427054517342e-001	-9.895757408878244e-001
1	 1.552873382042270e+000	 6.052876383844026e-001	-1.189374891215511e+000
1	 1.546375267676036e+000	 6.217012944632478e-001	-1.362243597950988e+000
1	 1.539689008460209e+000	 6.380805764407584e-001	-1.507493193383251e+000
1	 1.532814571340203e+000	 6.544223722127311e-001	-1.624469833846101e+000
1	 1.471499045518887e+000	 6.282442208219421e-001	-1.596478457360642e+000
1	 1.464720011230010e+000	 6.438909823881791e-001	-1.753970776798040e+000
1	 1.457760509832163e+000	 6.594957595617235e-001	-1.915636729039800e+000
1	 1.450620703404884e+000	 6.750555338987602e-001	-2.080834113757640e+000
1	 1.443300819400589e+000	 6.905672793443340e-001	-2.248949316326774e+000
1	 1.435801151140213e+000	 7.060279639552906e-001	-2.419398672729511e+000
1	 1.428122058255759e+000	 7.214345516481479e-001	-2.591629799644070e+000
1	 1.420263967078497e+000	 7.367840039700271e-001	-2.765122886405792e+000
1	 1.412227370971638e+000	 7.520732818907335e-001	-2.939391945566330e+000
1	 1.404012830606383e+000	 7.672993476139858e-001	-3.113986018825727e+000
1	 1.395620974180313e+000	 7.824591664057522e-001	-3.288490335172271e+000
1	 1.477630598101556e+000	 6.308620359619237e-001	-1.615071029235245e+000
1	 1.470823316424275e+000	 6.465739956277269e-001	-1.766812254493396e+000
1	 1.463834815654174e+000	 6.622437959570482e-001	-1.922689343230989e+000
1	 1.456665258546147e+000	 6.778684059286054e-001	-2.082099197796353e+000
1	 1.449314873500366e+000	 6.934447868782609e-001	-2.244468411246552e+000
1	 1.441783955059992e+000	 7.089698942291430e-001	-2.409254586681403e+000
1	 1.434072864355559e+000	 7.244406792467995e-001	-2.575947619201949e+000
1	 1.426182029494800e+000	 7.398540908175103e-001	-2.744070937234756e+000
1	 1.418111945896701e+000	 7.552070772478327e-001	-2.913182700008810e+000
1	 1.409863176568699e+000	 7.704965880833778e-001	-3.082876948028373e+000
1	 1.401436352325989e+000	 7.857195759447688e-001	-3.252784703452791e+000
1	 1.483762150683703e+000	 6.334798511019699e-001	-1.629859012822273e+000
1	 1.476926621618111e+000	 6.492570088673831e-001	-1.775929168870168e+000
1	 1.469909121475858e+000	 6.649918323525330e-001	-1.926113689498525e+000
1	 1.462709813687193e+000	 6.806812779586664e-001	-2.079848538924506e+000
1	 1.455328927600040e+000	 6.963222944124613e-001	-2.236600210156094e+000
1	 1.447766758979777e+000	 7.119118245033265e-001	-2.395866995550858e+000
1	 1.440023670455469e+000	 7.274468068458373e-001	-2.557180217867655e+000
1	 1.432100091911302e+000	 7.429241776654280e-001	-2.720105418619597e+000
1	 1.423996520822031e+000	 7.583408726054052e-001	-2.884243500588354e+000
1	 1.415713522531330e+000	 7.736938285532719e-001	-3.049231821423364e+000
1	 1.407251730471996e+000	 7.889799854843013e-001	-3.214745235320724e+000
1	 1.489893703265480e+000	 6.360976662419809e-001	-1.640956195409258e+000
1	 1.483029926811650e+000	 6.519400221070379e-001	-1.781446004143687e+000
1	 1.475983427297332e+000	 6.677398687480577e-001	-1.926042535223035e+000
1	 1.468754368828120e+000	 6.834941499888146e-001	-2.074220775311148e+000
1	 1.461342981699688e+000	 6.991998019467995e-001	-2.225486813227770e+000
1	 1.453749562899628e+000	 7.148537547776983e-001	-2.379379058547296e+000
1	 1.445974476555527e+000	 7.304529344451120e-001	-2.535469418985879e+000
1	 1.438018154328025e+000	 7.459942645136272e-001	-2.693364433464645e+000
1	 1.429881095747642e+000	 7.614746679632979e-001	-2.852706357794426e+000
1	 1.421563868494278e+000	 7.768910690235144e-001	-3.013174199995570e+000
1	 1.413067108618336e+000	 7.922403950241996e-001	-3.174484702344006e+000
1	 1.496025255847036e+000	 6.387154813818570e-001	-1.648474498825711e+000
1	 1.489133232005029e+000	 6.546230353465825e-001	-1.783485203703030e+000
1	 1.482057733118712e+000	 6.704879051435041e-001	-1.922606471162483e+000
1	 1.474798923969025e+000	 6.863070220189227e-001	-2.065352272255518e+000
1	 1.467357035799388e+000	 7.020773094811391e-001	-2.211267991007161e+000
1	 1.459732366819600e+000	 7.177956850521153e-001	-2.359931587891150e+000
1	 1.451925282655773e+000	 7.334590620444750e-001	-2.510954720812904e+000
1	 1.443936216744994e+000	 7.490643513619558e-001	-2.663983820579949e+000
1	 1.435765670673543e+000	 7.646084633213550e-001	-2.818701117902701e+000
1	 1.427414214457547e+000	 7.800883094939519e-001	-2.974825619039836e+000
1	 1.418882486765009e+000	 7.955008045643135e-001	-3.132114027285415e+000
1	 1.502156808428522e+000	 6.413332965214997e-001	-1.652524017515597e+000
1	 1.495236537198382e+000	 6.573060485859074e-001	-1.782167211762583e+000
1	 1.488132038940116e+000	 6.732359415387536e-001	-1.915933955875214e+000
1	 1.480843479110006e+000	 6.891198940488619e-001	-2.053377168574268e+000
1	 1.473371089899215e+000	 7.049548170153438e-001	-2.194081231958630e+000
1	 1.465715170739753e+000	 7.207376153264335e-001	-2.337663096713970e+000
1	 1.457876088756247e+000	 7.364651896437771e-001	-2.483773343969737e+000
1	 1.449854279162232e+000	 7.521344382102602e-001	-2.632097200889442e+000
1	 1.441650245599747e+000	 7.677422586794240e-001	-2.782355507145212e+000
1	 1.433264560421141e+000	 7.832855499644303e-001	-2.934305629503627e+000
1	 1.424697864912015e+000	 7.987612141044927e-001	-3.087742321835061e+000
1	 1.508288361010091e+000	 6.439511116608094e-001	-1.653213055681097e+000
1	 1.501339842391843e+000	 6.599890618249034e-001	-1.777610513997646e+000
1	 1.494206344761659e+000	 6.759839779336863e-001	-1.906151359059482e+000
1	 1.486888034251159e+000	 6.919327660785050e-001	-2.038427421857434e+000
1	 1.479385143999247e+000	 7.078323245492770e-001	-2.174061788851446e+000
1	 1.471697974660143e+000	 7.236795456005103e-001	-2.312709845790141e+000
1	 1.463826894856989e+000	 7.394713172428699e-001	-2.454060277737844e+000
1	 1.455772341579763e+000	 7.552045250583886e-001	-2.597836022512045e+000
1	 1.447534820526264e+000	 7.708760540373491e-001	-2.743795174802508e+000
1	 1.439114906385063e+000	 7.864827904347969e-001	-2.891731838321374e+000
1	 1.430513243059354e+000	 8.020216236445870e-001	-3.041476923422590e+000
1	 1.514419913591893e+000	 6.465689267996868e-001	-1.650648163524040e+000
1	 1.507443147585549e+000	 6.626720750634609e-001	-1.769931677192831e+000
1	 1.500280650583457e+000	 6.787320143281838e-001	-1.893383003840058e+000
1	 1.492932589392580e+000	 6.947456381077229e-001	-2.020632852624941e+000
1	 1.485399198099562e+000	 7.107098320828028e-001	-2.151342724018978e+000
1	 1.477680778580827e+000	 7.266214758742019e-001	-2.285205889133402e+000
1	 1.469777700958038e+000	 7.424774448416041e-001	-2.421948325230010e+000
1	 1.461690403997612e+000	 7.582746119061881e-001	-2.561329604747928e+000
1	 1.453419395453107e+000	 7.740098493949766e-001	-2.703143735249478e+000
1	 1.444965252349315e+000	 7.896800309048969e-001	-2.847219947768815e+000
1	 1.436328621207025e+000	 8.052820331844464e-001	-2.993423431135271e+000
1	 1.520551466174078e+000	 6.491867419380324e-001	-1.644934172610577e+000
1	 1.513546452779633e+000	 6.653550883014709e-001	-1.759245387931252e+000
1	 1.506354956405627e+000	 6.814800507221271e-001	-1.877751208031803e+000
1	 1.498977144534367e+000	 6.975585101363886e-001	-2.000121187414810e+000
1	 1.491413252200236e+000	 7.135873396157850e-001	-2.126054953522699e+000
1	 1.483663582501865e+000	 7.295634061473652e-001	-2.255283118490063e+000
1	 1.475728507059432e+000	 7.454835724398310e-001	-2.387568147468637e+000
1	 1.467608466415802e+000	 7.613446987535060e-001	-2.522705181000095e+000
1	 1.459303970380288e+000	 7.771436447521523e-001	-2.660522808983544e+000
1	 1.450815598313903e+000	 7.928772713745778e-001	-2.800883793865184e+000
1	 1.442143999355031e+000	 8.085424427239210e-001	-2.943685740766838e+000
1	 1.526683018756797e+000	 6.518045570757469e-001	-1.636174230383428e+000
1	 1.519649757974229e+000	 6.680381015388242e-001	-1.745664490351396e+000
1	 1.512429262228287e+000	 6.842280871153971e-001	-1.859376324408849e+000
1	 1.505021699676617e+000	 7.003713821643733e-001	-1.977018100832898e+000
1	 1.497427306301345e+000	 7.164648471480870e-001	-2.098327290252274e+000
1	 1.489646386423312e+000	 7.325053364198568e-001	-2.223071306760283e+000
1	 1.481679313161213e+000	 7.484897000374020e-001	-2.351048306401556e+000
1	 1.473526528834358e+000	 7.644147856001899e-001	-2.482087940662090e+000
1	 1.465188545307817e+000	 7.802774401087216e-001	-2.616052062664353e+000
1	 1.456665944278828e+000	 7.960745118436855e-001	-2.752835383850156e+000
1	 1.447959377503370e+000	 8.118028522628601e-001	-2.892366079021840e+000
1	 1.532814571340203e+000	 6.544223722127311e-001	-1.624469833846100e+000
1	 1.525753063169474e+000	 6.707211147754112e-001	-1.729300022997742e+000
1	 1.518503568051552e+000	 6.869761235078752e-001	-1.838376780007280e+000
1	 1.511066254819426e+000	 7.031842541915490e-001	-1.951447256593660e+000
1	 1.503441360402968e+000	 7.193423546795729e-001	-2.068286485990896e+000
1	 1.495629190345228e+000	 7.354472666915337e-001	-2.188698150376848e+000
1	 1.487630119263421e+000	 7.514958276341680e-001	-2.312515306885638e+000
1	 1.479444591253303e+000	 7.674848724460874e-001	-2.439601070000032e+000
1	 1.471073120235707e+000	 7.834112354645308e-001	-2.569849248192378e+000
1	 1.462516290244094e+000	 7.992717523120667e-001	-2.703184932761170e+000
1	 1.453774755652043e+000	 8.150632618011136e-001	-2.839565036899033e+000
1	 1.395620974180313e+000	 7.824591664057522e-001	-3.288490335172271e+000
1	 1.387051199153357e+000	 7.975519670414789e-001	-3.470622969303053e+000
1	 1.378305516103771e+000	 8.125724465820544e-001	-3.668314393868882e+000
1	 1.369384758037725e+000	 8.275175901418119e-001	-3.881539042805603e+000
1	 1.360289825796497e+000	 8.423843933767854e-001	-4.110223409149230e+000
1	 1.351021687972676e+000	 8.571698643667016e-001	-4.354245611878701e+000
1	 1.341581380764360e+000	 8.718710255006921e-001	-4.613435038513639e+000
1	 1.331970007767004e+000	 8.864849153643604e-001	-4.887572065078662e+000
1	 1.322188739702620e+000	 9.010085906258275e-001	-5.176387854875133e+000
1	 1.312238814086172e+000	 9.154391279183470e-001	-5.479564237322938e+000
1	 1.302121534829085e+000	 9.297736257170631e-001	-5.796733667952744e+000
1	 1.401436352325989e+000	 7.857195759447688e-001	-3.252784703452792e+000
1	 1.392830868117783e+000	 8.008752663938653e-001	-3.430304250974853e+000
1	 1.384048742900173e+000	 8.159583343948758e-001	-3.623014527640879e+000
1	 1.375090813150366e+000	 8.309657524994859e-001	-3.830886241067640e+000
1	 1.365957983463345e+000	 8.458945038450078e-001	-4.053841540528783e+000
1	 1.356651226467707e+000	 8.607415840442136e-001	-4.291753592540741e+000
1	 1.347171582679268e+000	 8.755040030789069e-001	-4.544446233600061e+000
1	 1.337520160292034e+000	 8.901787871948502e-001	-4.811693701676537e+000
1	 1.327698134906279e+000	 9.047629807956737e-001	-5.093220447891395e+000
1	 1.317706749193543e+000	 9.192536483333296e-001	-5.388701029629446e+000
1	 1.307547312498496e+000	 9.336478761926755e-001	-5.697760086145713e+000
1	 1.407251730471996e+000	 7.889799854843013e-001	-3.214745235320724e+000
1	 1.398610537082528e+000	 8.041985657467651e-001	-3.387856441954454e+000
1	 1.389791969696849e+000	 8.193442222081938e-001	-3.575787370845561e+000
1	 1.380796868263218e+000	 8.344139148576278e-001	-3.778503461301920e+000
1	 1.371626141130321e+000	 8.494046143136590e-001	-3.995921048512442e+000
1	 1.362280764962774e+000	 8.643133037221088e-001	-4.227906950917164e+000
1	 1.352761784594115e+000	 8.791369806574538e-001	-4.474278136022746e+000
1	 1.343070312816907e+000	 8.938726590256205e-001	-4.734801466252953e+000
1	 1.333207530109690e+000	 9.085173709657479e-001	-5.009193526245380e+000
1	 1.323174684300590e+000	 9.230681687484917e-001	-5.297120532821726e+000
1	 1.312973090167526e+000	 9.375221266684231e-001	-5.598198328666309e+000
1	 1.413067108618336e+000	 7.922403950241996e-001	-3.174484702344007e+000
1	 1.404390206047592e+000	 8.075218651000345e-001	-3.343380711704720e+000
1	 1.395535196493812e+000	 8.227301100218739e-001	-3.526723206673383e+000
1	 1.386502923376301e+000	 8.378620772161132e-001	-3.724470831274317e+000
1	 1.377294298797461e+000	 8.529147247826278e-001	-3.936532650689375e+000
1	 1.367910303457928e+000	 8.678850234002892e-001	-4.162767753434434e+000
1	 1.358351986508967e+000	 8.827699582362498e-001	-4.402984933172916e+000
1	 1.348620465341704e+000	 8.975665308566001e-001	-4.656942451734303e+000
1	 1.338716925312952e+000	 9.122717611359928e-001	-4.924347884724174e+000
1	 1.328642619407423e+000	 9.268826891637870e-001	-5.204858050923756e+000
1	 1.318398867836291e+000	 9.413963771442714e-001	-5.498079026483313e+000
1	 1.418882486765009e+000	 7.955008045643135e-001	-3.132114027285416e+000
1	 1.410169875012980e+000	 8.108451644535302e-001	-3.296976571091525e+000
1	 1.401278423291070e+000	 8.261159978357805e-001	-3.475910838190547e+000
1	 1.392208978489639e+000	 8.413102395748180e-001	-3.668867165117147e+000
1	 1.382962456464800e+000	 8.564248352518021e-001	-3.875745905288163e+000
1	 1.373539841953220e+000	 8.714567430786561e-001	-4.096397048987918e+000
1	 1.363942188423892e+000	 8.864029358152089e-001	-4.330619924081638e+000
1	 1.354170617866511e+000	 9.012604026877193e-001	-4.578162978995183e+000
1	 1.344226320516161e+000	 9.160261513063513e-001	-4.838723649315853e+000
1	 1.334110554514149e+000	 9.306972095791719e-001	-5.111948309177420e+000
1	 1.323824645504908e+000	 9.452706276201872e-001	-5.397432308394340e+000
1	 1.424697864912015e+000	 7.987612141044927e-001	-3.087742321835062e+000
1	 1.415949543978694e+000	 8.141684638071076e-001	-3.248741906234359e+000
1	 1.407021650088633e+000	 8.295018856497785e-001	-3.423437618546926e+000
1	 1.397915033603250e+000	 8.447584019336178e-001	-3.611769990139472e+000
1	 1.388630614132374e+000	 8.599349457210699e-001	-3.813629234838449e+000
1	 1.379169380448703e+000	 8.750284627571104e-001	-4.028854889708832e+000
1	 1.369532390338960e+000	 8.900359133942477e-001	-4.257235537550511e+000
1	 1.359720770391410e+000	 9.049542745189065e-001	-4.498508612615251e+000
1	 1.349735715719415e+000	 9.197805414767666e-001	-4.752360290859656e+000
1	 1.339578489620878e+000	 9.345117299946012e-001	-5.018425465854985e+000
1	 1.329250423173492e+000	 9.491448780961367e-001	-5.296287811274735e+000
1	 1.430513243059354e+000	 8.020216236445870e-001	-3.041476923422590e+000
1	 1.421729212944737e+000	 8.174917631606233e-001	-3.198773011531231e+000
1	 1.412764876886513e+000	 8.328877734637328e-001	-3.369389480447383e+000
1	 1.403621088717157e+000	 8.482065642923887e-001	-3.553255572983018e+000
1	 1.394298771800219e+000	 8.634450561903191e-001	-3.750249949255325e+000
1	 1.384798918944425e+000	 8.786001824355540e-001	-3.960200351224609e+000
1	 1.375122592254236e+000	 8.936688909732813e-001	-4.182883349839907e+000
1	 1.365270922916484e+000	 9.086481463500917e-001	-4.418024176251783e+000
1	 1.355245110922812e+000	 9.235349316471814e-001	-4.665296638362218e+000
1	 1.345046424727719e+000	 9.383262504100308e-001	-4.924323123783593e+000
1	 1.334676200842162e+000	 9.530191285720863e-001	-5.194674690076493e+000
1	 1.436328621207025e+000	 8.052820331844464e-001	-2.993423431135270e+000
1	 1.427508881911111e+000	 8.208150625139330e-001	-3.147164621881221e+000
1	 1.418508103684719e+000	 8.362736612775090e-001	-3.313850964907157e+000
1	 1.409327143831382e+000	 8.516547266510055e-001	-3.493398945143283e+000
1	 1.399966929468371e+000	 8.669551666594381e-001	-3.685674268362868e+000
1	 1.390428457440441e+000	 8.821719021138889e-001	-3.890491552427124e+000
1	 1.380712794169788e+000	 8.973018685522239e-001	-4.107614101927926e+000
1	 1.370821075441817e+000	 9.123420181812034e-001	-4.336753767638859e+000
1	 1.360754506126449e+000	 9.272893218175381e-001	-4.577570891990979e+000
1	 1.350514359834781e+000	 9.421407708254155e-001	-4.829674341589352e+000
1	 1.340101978511031e+000	 9.568933790480022e-001	-5.092621627584271e+000
1	 1.442143999355031e+000	 8.085424427239210e-001	-2.943685740766837e+000
1	 1.433288550877820e+000	 8.241383618668932e-001	-3.094009944127741e+000
1	 1.424251330483261e+000	 8.396595490909711e-001	-3.256905249311374e+000
1	 1.415033198945946e+000	 8.551028890093451e-001	-3.432273927872613e+000
1	 1.405635087136863e+000	 8.704652771283146e-001	-3.619967343873081e+000
1	 1.396057995936800e+000	 8.857436217920154e-001	-3.819785674762710e+000
1	 1.386302996085685e+000	 9.009348461309924e-001	-4.031477716351436e+000
1	 1.376371227967492e+000	 9.160358900121718e-001	-4.254740773223704e+000
1	 1.366263901330424e+000	 9.310437119877798e-001	-4.489220635752821e+000
1	 1.355982294942172e+000	 9.459552912407105e-001	-4.734511644669827e+000
1	 1.345527756180218e+000	 9.607676295238505e-001	-4.990156843935359e+000
1	 1.447959377503370e+000	 8.118028522628601e-001	-2.892366079021840e+000
1	 1.439068219844865e+000	 8.274616612193595e-001	-3.039400687743565e+000
1	 1.429994557282150e+000	 8.430454369039845e-001	-3.198634174798653e+000
1	 1.420739254060870e+000	 8.585510513672825e-001	-3.369953156483789e+000
1	 1.411303244805733e+000	 8.739753875968371e-001	-3.553193280834719e+000
1	 1.401687534433554e+000	 8.893153414698360e-001	-3.748138981057175e+000
1	 1.391893198001993e+000	 9.045678237095013e-001	-3.954523313641395e+000
1	 1.381921380493594e+000	 9.197297618429259e-001	-4.172027882449882e+000
1	 1.371773296534834e+000	 9.347981021578489e-001	-4.400282849867504e+000
1	 1.361450230050001e+000	 9.497698116558712e-001	-4.638867035901856e+000
1	 1.350953533849838e+000	 9.646418799995978e-001	-4.887308105910125e+000
1	 1.453774755652043e+000	 8.150632618011136e-001	-2.839565036899034e+000
1	 1.444847888812251e+000	 8.307849605711887e-001	-2.983427094779958e+000
1	 1.435737784081395e+000	 8.464313247164139e-001	-3.139118272987179e+000
1	 1.426445309176177e+000	 8.619992137246938e-001	-3.306508104069540e+000
1	 1.416971402475017e+000	 8.774854980648936e-001	-3.485415158567666e+000
1	 1.407317072930754e+000	 8.928870611472519e-001	-3.675606833889077e+000
1	 1.397483399918780e+000	 9.082008012876665e-001	-3.876799228363896e+000
1	 1.387471533020204e+000	 9.234236336733949e-001	-4.088657101698374e+000
1	 1.377282691739777e+000	 9.385524923276887e-001	-4.310793922843945e+000
1	 1.366918165158378e+000	 9.535843320708535e-001	-4.542772006092608e+000
1	 1.356379311520008e+000	 9.685161304752106e-001	-4.784102735999772e+000
1	 1.302121534829085e+000	 9.297736257170631e-001	-5.796733667952741e+000
1	 1.291838271412590e+000	 9.440092058928340e-001	-6.125431678134098e+000
1	 1.281390457273991e+000	 9.581430146068060e-001	-6.463652378563622e+000
1	 1.270779590343483e+000	 9.721722250661671e-001	-6.811699790310588e+000
1	 1.260007232770287e+000	 9.860940396648253e-001	-7.169905063928783e+000
1	 1.249075010217361e+000	 9.999056917964071e-001	-7.538625825885448e+000
1	 1.237984611095045e+000	 1.013604447646933e+000	-7.918245467415077e+000
1	 1.226737785734286e+000	 1.027187607964766e+000	-8.309172377022453e+000
1	 1.215336345500255e+000	 1.040652509805476e+000	-8.711839118018876e+000
1	 1.203782161847228e+000	 1.053996528249277e+000	-9.126701552627926e+000
1	 1.192077165315749e+000	 1.067217078088745e+000	-9.554237914346917e+000
1	 1.307547312498496e+000	 9.336478761926755e-001	-5.697760086145713e+000
1	 1.297221200008832e+000	 9.479427742517655e-001	-6.018240831380036e+000
1	 1.286729851134805e+000	 9.621354767801472e-001	-6.348453721977199e+000
1	 1.276074770048297e+000	 9.762231452061034e-001	-6.688706559416854e+000
1	 1.265257525407802e+000	 9.902029702662547e-001	-7.039332929702668e+000
1	 1.254279749650210e+000	 1.004072173826112e+000	-7.400691537541572e+000
1	 1.243143138221249e+000	 1.017828010680223e+000	-7.773165485257892e+000
1	 1.231849448745274e+000	 1.031467770329494e+000	-8.157161497704410e+000
1	 1.220400500135180e+000	 1.044988778733324e+000	-8.553109094581453e+000
1	 1.208798171643360e+000	 1.058388400034204e+000	-8.961459711726333e+000
1	 1.197044401854670e+000	 1.071664038252461e+000	-9.382685773075988e+000
1	 1.312973090167526e+000	 9.375221266684231e-001	-5.598198328666309e+000
1	 1.302604128604659e+000	 9.518763426107960e-001	-5.910573278622168e+000
1	 1.292069244995194e+000	 9.661279389535573e-001	-6.232868463166317e+000
1	 1.281369949752692e+000	 9.802740653460861e-001	-6.565395798364659e+000
1	 1.270507818044919e+000	 9.943119008677132e-001	-6.908491682816174e+000
1	 1.259484489082694e+000	 1.008238655855835e+000	-7.262516318960978e+000
1	 1.248301665347130e+000	 1.022051573713523e+000	-7.627852981361323e+000
1	 1.236961111755985e+000	 1.035747932694226e+000	-8.004907233253338e+000
1	 1.225464654769880e+000	 1.049325047661174e+000	-8.394106092812447e+000
1	 1.213814181439313e+000	 1.062780271819132e+000	-8.795897150718957e+000
1	 1.202011638393457e+000	 1.076110998416176e+000	-9.210747640747709e+000
1	 1.318398867836291e+000	 9.413963771442714e-001	-5.498079026483313e+000
1	 1.307987057200190e+000	 9.558099109698998e-001	-5.802455592225326e+000
1	 1.297408638855273e+000	 9.701204011270199e-001	-6.116919517053447e+000
1	 1.286665129456777e+000	 9.843249854861029e-001	-6.441787160243077e+000
1	 1.275758110681742e+000	 9.984208314691937e-001	-6.777398104202795e+000
1	 1.264689228514906e+000	 1.012405137885569e+000	-7.124114462295077e+000
1	 1.253460192472771e+000	 1.026275136746828e+000	-7.482320135794860e+000
1	 1.242072774766491e+000	 1.040028095058960e+000	-7.852420021320359e+000
1	 1.230528809404411e+000	 1.053661316589025e+000	-8.234839170213498e+000
1	 1.218830191235135e+000	 1.067172143604060e+000	-8.630021901481639e+000
1	 1.206978874932142e+000	 1.080557958579892e+000	-9.038430870046417e+000
1	 1.323824645504908e+000	 9.452706276201872e-001	-5.397432308394341e+000
1	 1.313369985795545e+000	 9.597434793290529e-001	-5.693913908920687e+000
1	 1.302748032715160e+000	 9.741128633005165e-001	-6.000629422888264e+000
1	 1.291960309160667e+000	 9.883759056261438e-001	-6.317899975943122e+000
1	 1.281008403318373e+000	 1.002529762070689e+000	-6.646068699684503e+000
1	 1.269893967946941e+000	 1.016571619915313e+000	-6.985500025385469e+000
1	 1.258618719598252e+000	 1.030498699780137e+000	-7.336578928943995e+000
1	 1.247184437776860e+000	 1.044308257423696e+000	-7.699710128437997e+000
1	 1.235592964038830e+000	 1.057997585516876e+000	-8.075317235794410e+000
1	 1.223846201030866e+000	 1.071564015388988e+000	-8.463841864213077e+000
1	 1.211946111470761e+000	 1.085004918743608e+000	-8.865742693114324e+000
1	 1.329250423173492e+000	 9.491448780961367e-001	-5.296287811274735e+000
1	 1.318752914390841e+000	 9.636770476882306e-001	-5.584973938696529e+000
1	 1.308087426574972e+000	 9.781053254740306e-001	-5.884020351914334e+000
1	 1.297255488864473e+000	 9.924268257661957e-001	-6.193753260733663e+000
1	 1.286258695954919e+000	 1.006638692672191e+000	-6.514519705586952e+000
1	 1.275098707378892e+000	 1.020738101945060e+000	-6.846686836546104e+000
1	 1.263777246723657e+000	 1.034722262813450e+000	-7.190641145586005e+000
1	 1.252296100787163e+000	 1.048588419788433e+000	-7.546787653513238e+000
1	 1.240657118673191e+000	 1.062333854444727e+000	-7.915549053103875e+000
1	 1.228862210826554e+000	 1.075955887173916e+000	-8.297364810122000e+000
1	 1.216913348009347e+000	 1.089451878907324e+000	-8.692690224011257e+000
1	 1.334676200842162e+000	 9.530191285720863e-001	-5.194674690076493e+000
1	 1.324135842986200e+000	 9.676106160474087e-001	-5.475660973472489e+000
1	 1.313426820434828e+000	 9.820977876475449e-001	-5.767114114849751e+000
1	 1.302550668568309e+000	 9.964777459062482e-001	-6.069365720676972e+000
1	 1.291508988591483e+000	 1.010747623273693e+000	-6.382767094217237e+000
1	 1.280303446810855e+000	 1.024904583974808e+000	-6.707688499228760e+000
1	 1.268935773849067e+000	 1.038945825846762e+000	-7.044518378865559e+000
1	 1.257407763797467e+000	 1.052868582153170e+000	-7.393662531234245e+000
1	 1.245721273307554e+000	 1.066670123372579e+000	-7.755543243186310e+000
1	 1.233878220622241e+000	 1.080347758958844e+000	-8.130598384049250e+000
1	 1.221880584547932e+000	 1.093898839071040e+000	-8.519280461115184e+000
1	 1.340101978511031e+000	 9.568933790480022e-001	-5.092621627584271e+000
1	 1.329518771581738e+000	 9.715441844065615e-001	-5.365999895562675e+000
1	 1.318766214294844e+000	 9.860902498210419e-001	-5.649932169185305e+000
1	 1.307845848272286e+000	 1.000528666046288e+000	-5.944755758887885e+000
1	 1.296759281228171e+000	 1.014856553875189e+000	-6.250826579208331e+000
1	 1.285508186242921e+000	 1.029071066004551e+000	-6.568518396575034e+000
1	 1.274094300974564e+000	 1.043169388880072e+000	-6.898222034174427e+000
1	 1.262519426807842e+000	 1.057148744517906e+000	-7.240344535395233e+000
1	 1.250785427941975e+000	 1.071006392300430e+000	-7.595308287466490e+000
1	 1.238894230417973e+000	 1.084739630743772e+000	-7.963550107025897e+000
1	 1.226847821086551e+000	 1.098345799234756e+000	-8.345520289463696e+000
1	 1.345527756180218e+000	 9.607676295238505e-001	-4.990156843935359e+000
1	 1.334901700177577e+000	 9.754777527656657e-001	-5.256015185934469e+000
1	 1.324105608155139e+000	 9.900827119945039e-001	-5.532495626306432e+000
1	 1.313141027976517e+000	 1.004579586186306e+000	-5.819941481642396e+000
1	 1.302009573865084e+000	 1.018965484476669e+000	-6.118713620734913e+000
1	 1.290712925675187e+000	 1.033237548034286e+000	-6.429189695858367e+000
1	 1.279252828100232e+000	 1.047392951913377e+000	-6.751763332936721e+000
1	 1.267631089818360e+000	 1.061428906882640e+000	-7.086843282139960e+000
1	 1.255849582576509e+000	 1.075342661228281e+000	-7.434852530564726e+000
1	 1.243910240213795e+000	 1.089131502528700e+000	-7.796227378769384e+000
1	 1.231815057625237e+000	 1.102792759398472e+000	-8.171416483039817e+000
1	 1.350953533849838e+000	 9.646418799995978e-001	-4.887308105910124e+000
1	 1.340284628773834e+000	 9.794113211246958e-001	-5.145730932267793e+000
1	 1.329445002015830e+000	 9.940751741679142e-001	-5.414825258443504e+000
1	 1.318436207681113e+000	 1.008630506326288e+000	-5.694940704338229e+000
1	 1.307259866502329e+000	 1.023074415078128e+000	-5.986443430603065e+000
1	 1.295917665107744e+000	 1.037404030064008e+000	-6.289715352818958e+000
1	 1.284411355226151e+000	 1.051616514946676e+000	-6.605153316303412e+000
1	 1.272742752829088e+000	 1.065709069247372e+000	-6.933168233127998e+000
1	 1.260913737211214e+000	 1.079678930156131e+000	-7.274184183043902e+000
1	 1.248926250009749e+000	 1.093523374313627e+000	-7.628637480119991e+000
1	 1.236782294164024e+000	 1.107239719562188e+000	-7.996975707001429e+000
1	 1.356379311520008e+000	 9.685161304752106e-001	-4.784102735999773e+000
1	 1.345667557370631e+000	 9.833448894836275e-001	-5.035170836821613e+000
1	 1.334784395877035e+000	 9.980676363412555e-001	-5.296941505455107e+000
1	 1.323731387386189e+000	 1.012681426466225e+000	-5.569770957312818e+000
1	 1.312510159140009e+000	 1.027183345679557e+000	-5.854030977217745e+000
1	 1.301122404540689e+000	 1.041570512093714e+000	-6.150108115894704e+000
1	 1.289569882352404e+000	 1.055840077979967e+000	-6.458402848757947e+000
1	 1.277854415840096e+000	 1.069989231612100e+000	-6.779328698624333e+000
1	 1.265977891846146e+000	 1.084015199083979e+000	-7.113311324091038e+000
1	 1.253942259805881e+000	 1.097915246098555e+000	-7.460787575418228e+000
1	 1.241749530702945e+000	 1.111686679725904e+000	-7.822204519858450e+000
1	 1.192077165315749e+000	 1.067217078088745e+000	-9.554237914346917e+000
1	 1.180225133691511e+000	 1.080309661145249e+000	-9.982786015275865e+000
1	 1.168226368000712e+000	 1.093273770847345e+000	-1.040085926582760e+001
1	 1.156082969537323e+000	 1.106106953056207e+000	-1.080903142555627e+001
1	 1.143797094061159e+000	 1.118806799749355e+000	-1.120789074141767e+001
1	 1.131370950524538e+000	 1.131370950524538e+000	-1.159803930627509e+001
1	 1.118806799749355e+000	 1.143797094061159e+000	-1.198009239592617e+001
1	 1.106106953056207e+000	 1.156082969537324e+000	-1.235467778586698e+001
1	 1.093273770847345e+000	 1.168226368000712e+000	-1.272243504905934e+001
1	 1.080309661145249e+000	 1.180225133691511e+000	-1.308401483601225e+001
1	 1.067217078088744e+000	 1.192077165315749e+000	-1.344007813853021e+001
1	 1.197044401854670e+000	 1.071664038252461e+000	-9.382685773075988e+000
1	 1.185142984296360e+000	 1.084811176466104e+000	-9.805041588983846e+000
1	 1.173094221248963e+000	 1.097829305992875e+000	-1.021692668720107e+001
1	 1.160900222762272e+000	 1.110715962467861e+000	-1.061886403525914e+001
1	 1.148563153578878e+000	 1.123468727834659e+000	-1.101138959915499e+001
1	 1.136085231855524e+000	 1.136085231855524e+000	-1.139505179282290e+001
1	 1.123468727834659e+000	 1.148563153578878e+000	-1.177041090879602e+001
1	 1.110715962467860e+000	 1.160900222762272e+000	-1.213803853107868e+001
1	 1.097829305992875e+000	 1.173094221248962e+000	-1.249851693129168e+001
1	 1.084811176466104e+000	 1.185142984296360e+000	-1.285243844919392e+001
1	 1.071664038252461e+000	 1.197044401854670e+000	-1.320040485871903e+001
1	 1.202011638393457e+000	 1.076110998416176e+000	-9.210747640747711e+000
1	 1.190060834901111e+000	 1.089312691786960e+000	-9.626828099811782e+000
1	 1.177962074497144e+000	 1.102384841138404e+000	-1.003242445047101e+001
1	 1.165717475987175e+000	 1.115324971879510e+000	-1.042801037218246e+001
1	 1.153329213096569e+000	 1.128130655919955e+000	-1.081407105152970e+001
1	 1.140799513186493e+000	 1.140799513186493e+000	-1.119110272036653e+001
1	 1.128130655919955e+000	 1.153329213096568e+000	-1.155961217783416e+001
1	 1.115324971879511e+000	 1.165717475987175e+000	-1.192011629707743e+001
1	 1.102384841138404e+000	 1.177962074497144e+000	-1.227314151752830e+001
1	 1.089312691786960e+000	 1.190060834901111e+000	-1.261922332365385e+001
1	 1.076110998416176e+000	 1.202011638393457e+000	-1.295890571109829e+001
1	 1.206978874932142e+000	 1.080557958579892e+000	-9.038430870046421e+000
1	 1.194978685505789e+000	 1.093814207107816e+000	-9.448152415394276e+000
1	 1.182829927745275e+000	 1.106940376283932e+000	-9.847358972841297e+000
1	 1.170534729212043e+000	 1.119933981291159e+000	-1.023647641873061e+001
1	 1.158095272614237e+000	 1.132792584005244e+000	-1.061594064276575e+001
1	 1.145513794517449e+000	 1.145513794517449e+000	-1.098619717255345e+001
1	 1.132792584005244e+000	 1.158095272614237e+000	-1.134770078471297e+001
1	 1.119933981291158e+000	 1.170534729212043e+000	-1.170091510319549e+001
1	 1.106940376283932e+000	 1.182829927745275e+000	-1.204631218548291e+001
1	 1.093814207107815e+000	 1.194978685505789e+000	-1.238437209736767e+001
1	 1.080557958579892e+000	 1.206978874932142e+000	-1.271558247703696e+001
1	 1.211946111470761e+000	 1.085004918743608e+000	-8.865742693114324e+000
1	 1.199896536110419e+000	 1.098315722428671e+000	-9.269021290775518e+000
1	 1.187697780993371e+000	 1.111495911429459e+000	-9.661736566310042e+000
1	 1.175351982436888e+000	 1.124542990702804e+000	-1.004426805923067e+001
1	 1.162861332131892e+000	 1.137454512090529e+000	-1.041700382619432e+001
1	 1.150228075848397e+000	 1.150228075848397e+000	-1.078034014968829e+001
1	 1.137454512090529e+000	 1.162861332131891e+000	-1.113468123599191e+001
1	 1.124542990702804e+000	 1.175351982436888e+000	-1.148043890287150e+001
1	 1.111495911429459e+000	 1.187697780993371e+000	-1.181803225749429e+001
1	 1.098315722428672e+000	 1.199896536110419e+000	-1.214788736506335e+001
1	 1.085004918743608e+000	 1.211946111470761e+000	-1.247043690869984e+001
1	 1.216913348009347e+000	 1.089451878907324e+000	-8.692690224011260e+000
1	 1.204814386715023e+000	 1.102817237749527e+000	-9.089441370707439e+000
1	 1.192565634241450e+000	 1.116051446574986e+000	-9.475563439817099e+000
1	 1.180169235661721e+000	 1.129152000114449e+000	-9.851391081934121e+000
1	 1.167627391649538e+000	 1.142116440175812e+000	-1.021726596610741e+001
1	 1.154942357179341e+000	 1.154942357179341e+000	-1.057353657043438e+001
1	 1.142116440175812e+000	 1.167627391649538e+000	-1.092055796465029e+001
1	 1.129152000114449e+000	 1.180169235661721e+000	-1.125869158499507e+001
1	 1.116051446574986e+000	 1.192565634241450e+000	-1.158830500165663e+001
1	 1.102817237749527e+000	 1.204814386715024e+000	-1.190977167910484e+001
1	 1.089451878907324e+000	 1.216913348009347e+000	-1.222347072964448e+001
1	 1.221880584547932e+000	 1.093898839071040e+000	-8.519280461115184e+000
1	 1.209732237319628e+000	 1.107318753070382e+000	-8.909419191891477e+000
1	 1.197433487489529e+000	 1.120606981720514e+000	-9.288845701338474e+000
1	 1.184986488886555e+000	 1.133761009526094e+000	-9.657851180969658e+000
1	 1.172393451167185e+000	 1.146778368261094e+000	-1.001673233956876e+001
1	 1.159656638510284e+000	 1.159656638510284e+000	-1.036579127347257e+001
1	 1.146778368261095e+000	 1.172393451167185e+000	-1.070533533158327e+001
1	 1.133761009526094e+000	 1.184986488886555e+000	-1.103567697521902e+001
1	 1.120606981720514e+000	 1.197433487489529e+000	-1.135713363292205e+001
1	 1.107318753070383e+000	 1.209732237319629e+000	-1.167002755035202e+001
1	 1.093898839071040e+000	 1.221880584547932e+000	-1.197468563540223e+001
1	 1.226847821086551e+000	 1.098345799234756e+000	-8.345520289463696e+000
1	 1.214650087924258e+000	 1.111820268391238e+000	-8.728961185165995e+000
1	 1.202301340737625e+000	 1.125162516866041e+000	-9.101589359930578e+000
1	 1.189803742111400e+000	 1.138370018937739e+000	-9.463653958248649e+000
1	 1.177159510684839e+000	 1.151440296346380e+000	-9.815408138179079e+000
1	 1.164370919841233e+000	 1.164370919841232e+000	-1.015710901912076e+001
1	 1.151440296346380e+000	 1.177159510684839e+000	-1.048901762706072e+001
1	 1.138370018937740e+000	 1.189803742111400e+000	-1.081139883723952e+001
1	 1.125162516866041e+000	 1.202301340737625e+000	-1.112452131417650e+001
1	 1.111820268391238e+000	 1.214650087924257e+000	-1.142865744900193e+001
1	 1.098345799234756e+000	 1.226847821086551e+000	-1.172408329404553e+001
1	 1.231815057625237e+000	 1.102792759398472e+000	-8.171416483039817e+000
1	 1.219567938528936e+000	 1.116321783712094e+000	-8.548073677640748e+000
1	 1.207169193985755e+000	 1.129718052011569e+000	-8.913800327724545e+000
1	 1.194620995336268e+000	 1.142979028349387e+000	-9.268804925324551e+000
1	 1.181925570202508e+000	 1.156102224431669e+000	-9.613298469799680e+000
1	 1.169085201172189e+000	 1.169085201172189e+000	-9.947494490913734e+000
1	 1.156102224431669e+000	 1.181925570202508e+000	-1.027160907215121e+001
1	 1.142979028349387e+000	 1.194620995336268e+000	-1.058586087404500e+001
1	 1.129718052011569e+000	 1.207169193985755e+000	-1.089047115728944e+001
1	 1.116321783712094e+000	 1.219567938528936e+000	-1.118566380540807e+001
1	 1.102792759398472e+000	 1.231815057625237e+000	-1.147166534674161e+001
1	 1.236782294164024e+000	 1.107239719562188e+000	-7.996975707001429e+000
1	 1.224485789133687e+000	 1.120823299032949e+000	-8.366762894779699e+000
1	 1.212037047233937e+000	 1.134273587157098e+000	-8.725484421872404e+000
1	 1.199438248561171e+000	 1.147588037761037e+000	-9.073309505207163e+000
1	 1.186691629720198e+000	 1.160764152516964e+000	-9.410408360233518e+000
1	 1.173799482503158e+000	 1.173799482503158e+000	-9.736952297145336e+000
1	 1.160764152516964e+000	 1.186691629720198e+000	-1.005311382011212e+001
1	 1.147588037761037e+000	 1.199438248561170e+000	-1.035906672913559e+001
1	 1.134273587157098e+000	 1.212037047233937e+000	-1.065498622413836e+001
1	 1.120823299032949e+000	 1.224485789133687e+000	-1.094104901088052e+001
1	 1.107239719562188e+000	 1.236782294164024e+000	-1.121743340829302e+001
1	 1.241749530702945e+000	 1.111686679725904e+000	-7.822204519858450e+000
1	 1.229403639738536e+000	 1.125324814353805e+000	-8.185034962434152e+000
1	 1.216904900482188e+000	 1.138829122302628e+000	-8.536647366447209e+000
1	 1.204255501786119e+000	 1.152197047172691e+000	-8.877173034133895e+000
1	 1.191457689237918e+000	 1.165426080602269e+000	-9.206742754866879e+000
1	 1.178513763834143e+000	 1.178513763834143e+000	-9.525486972372875e+000
1	 1.165426080602269e+000	 1.191457689237918e+000	-9.833535957745291e+000
1	 1.152197047172691e+000	 1.204255501786119e+000	-1.013101998771283e+001
1	 1.138829122302628e+000	 1.216904900482188e+000	-1.041806952760864e+001
1	 1.125324814353805e+000	 1.229403639738537e+000	-1.069481541846738e+001
1	 1.111686679725904e+000	 1.241749530702945e+000	-1.096138906766476e+001
1	 1.067217078088744e+000	 1.192077165315749e+000	-1.344007813853021e+001
1	 1.053996528249277e+000	 1.203782161847228e+000	-1.378325706754738e+001
1	 1.040652509805476e+000	 1.215336345500255e+000	-1.410614028857275e+001
1	 1.027187607964766e+000	 1.226737785734287e+000	-1.440948670907930e+001
1	 1.013604447646933e+000	 1.237984611095045e+000	-1.469405037119601e+001
1	 9.999056917964071e-001	 1.249075010217361e+000	-1.496057992960746e+001
1	 9.860940396648253e-001	 1.260007232770287e+000	-1.520981814895922e+001
1	 9.721722250661673e-001	 1.270779590343483e+000	-1.544250142136954e+001
1	 9.581430146068056e-001	 1.281390457273991e+000	-1.565935930459059e+001
1	 9.440092058928338e-001	 1.291838271412590e+000	-1.586111408130031e+001
1	 9.297736257170630e-001	 1.302121534829085e+000	-1.604848033994645e+001
1	 1.071664038252461e+000	 1.197044401854670e+000	-1.320040485871903e+001
1	 1.058388400034204e+000	 1.208798171643360e+000	-1.353494551143162e+001
1	 1.044988778733324e+000	 1.220400500135181e+000	-1.384868050229251e+001
1	 1.031467770329494e+000	 1.231849448745274e+000	-1.414251024751375e+001
1	 1.017828010680223e+000	 1.243143138221250e+000	-1.441733516122041e+001
1	 1.004072173826113e+000	 1.254279749650210e+000	-1.467405485073530e+001
1	 9.902029702662547e-001	 1.265257525407803e+000	-1.491356732420346e+001
1	 9.762231452061034e-001	 1.276074770048297e+000	-1.513676821180535e+001
1	 9.621354767801471e-001	 1.286729851134806e+000	-1.534455000176016e+001
1	 9.479427742517657e-001	 1.297221200008832e+000	-1.553780129227315e+001
1	 9.336478761926755e-001	 1.307547312498496e+000	-1.571740606052789e+001
1	 1.076110998416176e+000	 1.202011638393457e+000	-1.295890571109829e+001
1	 1.062780271819132e+000	 1.213814181439313e+000	-1.328464391179115e+001
1	 1.049325047661174e+000	 1.225464654769881e+000	-1.358911836751460e+001
1	 1.035747932694225e+000	 1.236961111755985e+000	-1.387337281097141e+001
1	 1.022051573713522e+000	 1.248301665347130e+000	-1.413845589892024e+001
1	 1.008238655855835e+000	 1.259484489082694e+000	-1.438542011968905e+001
1	 9.943119008677130e-001	 1.270507818044919e+000	-1.461532070575872e+001
1	 9.802740653460859e-001	 1.281369949752691e+000	-1.482921455332248e+001
1	 9.661279389535574e-001	 1.292069244995194e+000	-1.502815915069768e+001
1	 9.518763426107957e-001	 1.302604128604659e+000	-1.521321151742475e+001
1	 9.375221266684231e-001	 1.312973090167526e+000	-1.538542715584985e+001
1	 1.080557958579892e+000	 1.206978874932142e+000	-1.271558247703696e+001
1	 1.067172143604060e+000	 1.218830191235134e+000	-1.303235334141625e+001
1	 1.053661316589025e+000	 1.230528809404411e+000	-1.332745465884693e+001
1	 1.040028095058960e+000	 1.242072774766491e+000	-1.360207526310365e+001
1	 1.026275136746828e+000	 1.253460192472771e+000	-1.385741390067235e+001
1	 1.012405137885570e+000	 1.264689228514906e+000	-1.409467784536290e+001
1	 9.984208314691935e-001	 1.275758110681741e+000	-1.431508151061487e+001
1	 9.843249854861030e-001	 1.286665129456777e+000	-1.451984506207601e+001
1	 9.701204011270196e-001	 1.297408638855273e+000	-1.471019303301161e+001
1	 9.558099109698999e-001	 1.307987057200191e+000	-1.488735294508011e+001
1	 9.413963771442712e-001	 1.318398867836291e+000	-1.505255393697251e+001
1	 1.085004918743608e+000	 1.211946111470761e+000	-1.247043690869984e+001
1	 1.071564015388988e+000	 1.223846201030866e+000	-1.277807485551032e+001
1	 1.057997585516876e+000	 1.235592964038829e+000	-1.306369013819931e+001
1	 1.044308257423696e+000	 1.247184437776860e+000	-1.332861845340352e+001
1	 1.030498699780138e+000	 1.258618719598252e+000	-1.357421046127337e+001
1	 1.016571619915313e+000	 1.269893967946941e+000	-1.380183010207777e+001
1	 1.002529762070689e+000	 1.281008403318373e+000	-1.401285290302254e+001
1	 9.883759056261438e-001	 1.291960309160667e+000	-1.420866427854297e+001
1	 9.741128633005166e-001	 1.302748032715160e+000	-1.439065782732841e+001
1	 9.597434793290529e-001	 1.313369985795545e+000	-1.456023362932205e+001
1	 9.452706276201874e-001	 1.323824645504908e+000	-1.471879654591379e+001
1	 1.089451878907324e+000	 1.216913348009347e+000	-1.222347072964448e+001
1	 1.075955887173916e+000	 1.228862210826554e+000	-1.252180949204865e+001
1	 1.062333854444727e+000	 1.240657118673191e+000	-1.279782555504193e+001
1	 1.048588419788433e+000	 1.252296100787162e+000	-1.305300321749484e+001
1	 1.034722262813450e+000	 1.263777246723657e+000	-1.328884685438000e+001
1	 1.020738101945060e+000	 1.275098707378892e+000	-1.350687893028756e+001
1	 1.006638692672191e+000	 1.286258695954919e+000	-1.370863799556943e+001
1	 9.924268257661959e-001	 1.297255488864473e+000	-1.389567666906722e+001
1	 9.781053254740306e-001	 1.308087426574972e+000	-1.406955961139398e+001
1	 9.636770476882308e-001	 1.318752914390842e+000	-1.423186149273208e+001
1	 9.491448780961366e-001	 1.329250423173492e+000	-1.438416495909893e+001
1	 1.093898839071040e+000	 1.221880584547932e+000	-1.197468563540223e+001
1	 1.080347758958844e+000	 1.233878220622241e+000	-1.226355827212888e+001
1	 1.066670123372579e+000	 1.245721273307555e+000	-1.252986164665904e+001
1	 1.052868582153170e+000	 1.257407763797467e+000	-1.277523037741441e+001
1	 1.038945825846762e+000	 1.268935773849067e+000	-1.300132433293883e+001
1	 1.024904583974807e+000	 1.280303446810854e+000	-1.320982633726696e+001
1	 1.010747623273693e+000	 1.291508988591483e+000	-1.340243985022981e+001
1	 9.964777459062479e-001	 1.302550668568309e+000	-1.358088662736581e+001
1	 9.820977876475447e-001	 1.313426820434828e+000	-1.374690436412461e+001
1	 9.676106160474087e-001	 1.324135842986200e+000	-1.390224432906287e+001
1	 9.530191285720864e-001	 1.334676200842162e+000	-1.404866899072640e+001
1	 1.098345799234756e+000	 1.226847821086551e+000	-1.172408329404552e+001
1	 1.084739630743772e+000	 1.238894230417973e+000	-1.200332220031234e+001
1	 1.071006392300430e+000	 1.250785427941975e+000	-1.225979913839480e+001
1	 1.057148744517906e+000	 1.262519426807842e+000	-1.249530074188657e+001
1	 1.043169388880072e+000	 1.274094300974564e+000	-1.271164412960610e+001
1	 1.029071066004551e+000	 1.285508186242921e+000	-1.291067429778335e+001
1	 1.014856553875189e+000	 1.296759281228170e+000	-1.309426147938969e+001
1	 1.000528666046289e+000	 1.307845848272286e+000	-1.326429847599965e+001
1	 9.860902498210417e-001	 1.318766214294844e+000	-1.342269796760757e+001
1	 9.715441844065617e-001	 1.329518771581739e+000	-1.357138980584597e+001
1	 9.568933790480022e-001	 1.340101978511031e+000	-1.371231829605242e+001
1	 1.102792759398472e+000	 1.231815057625237e+000	-1.147166534674161e+001
1	 1.089131502528700e+000	 1.243910240213795e+000	-1.174110226495763e+001
1	 1.075342661228281e+000	 1.255849582576509e+000	-1.198763874389484e+001
1	 1.061428906882640e+000	 1.267631089818360e+000	-1.221321510659189e+001
1	 1.047392951913378e+000	 1.279252828100232e+000	-1.241980745715543e+001
1	 1.033237548034286e+000	 1.290712925675186e+000	-1.260942475475216e+001
1	 1.018965484476669e+000	 1.302009573865083e+000	-1.278410584684654e+001
1	 1.004579586186306e+000	 1.313141027976516e+000	-1.294591646780768e+001
1	 9.900827119945040e-001	 1.324105608155139e+000	-1.309694620905356e+001
1	 9.754777527656655e-001	 1.334901700177577e+000	-1.323930546693724e+001
1	 9.607676295238505e-001	 1.345527756180218e+000	-1.337512237459483e+001
1	 1.107239719562188e+000	 1.236782294164024e+000	-1.121743340829302e+001
1	 1.093523374313627e+000	 1.248926250009749e+000	-1.147689943854610e+001
1	 1.079678930156131e+000	 1.260913737211214e+000	-1.171338116534056e+001
1	 1.065709069247372e+000	 1.272742752829088e+000	-1.192897425442931e+001
1	 1.051616514946676e+000	 1.284411355226151e+000	-1.212581550887893e+001
1	 1.037404030064008e+000	 1.295917665107744e+000	-1.230607961987666e+001
1	 1.023074415078128e+000	 1.307259866502329e+000	-1.247197586878475e+001
1	 1.008630506326288e+000	 1.318436207681113e+000	-1.262574478730774e+001
1	 9.940751741679140e-001	 1.329445002015830e+000	-1.276965478270139e+001
1	 9.794113211246958e-001	 1.340284628773835e+000	-1.290599873499994e+001
1	 9.646418799995977e-001	 1.350953533849838e+000	-1.303709057326129e+001
1	 1.111686679725904e+000	 1.241749530702945e+000	-1.096138906766476e+001
1	 1.097915246098555e+000	 1.253942259805881e+000	-1.121071467799929e+001
1	 1.084015199083980e+000	 1.265977891846146e+000	-1.143702709367876e+001
1	 1.069989231612100e+000	 1.277854415840096e+000	-1.164257895577139e+001
1	 1.055840077979967e+000	 1.289569882352404e+000	-1.182966945897518e+001
1	 1.041570512093714e+000	 1.301122404540689e+000	-1.200064077427205e+001
1	 1.027183345679557e+000	 1.312510159140009e+000	-1.215787441472850e+001
1	 1.012681426466225e+000	 1.323731387386190e+000	-1.230378755206237e+001
1	 9.980676363412553e-001	 1.334784395877035e+000	-1.244082929167821e+001
1	 9.833448894836278e-001	 1.345667557370631e+000	-1.257147691392930e+001
1	 9.685161304752106e-001	 1.356379311520008e+000	-1.269823208940133e+001
1	 9.297736257170630e-001	 1.302121534829085e+000	-1.604848033994645e+001
1	 9.154391279183470e-001	 1.312238814086172e+000	-1.622291078903364e+001
1	 9.010085906258274e-001	 1.322188739702620e+000	-1.638822319572159e+001
1	 8.864849153643600e-001	 1.331970007767004e+000	-1.654872975212629e+001
1	 8.718710255006918e-001	 1.341581380764360e+000	-1.670881127393399e+001
1	 8.571698643667016e-001	 1.351021687972676e+000	-1.687290955291719e+001
1	 8.423843933767853e-001	 1.360289825796497e+000	-1.704551966493276e+001
1	 8.275175901418119e-001	 1.369384758037725e+000	-1.723118224966111e+001
1	 8.125724465820543e-001	 1.378305516103772e+000	-1.743447577824260e+001
1	 7.975519670414791e-001	 1.387051199153357e+000	-1.766000882482141e+001
1	 7.824591664057522e-001	 1.395620974180313e+000	-1.791241235780868e+001
1	 9.336478761926755e-001	 1.307547312498496e+000	-1.571740606052789e+001
1	 9.192536483333296e-001	 1.317706749193543e+000	-1.588539155660628e+001
1	 9.047629807956740e-001	 1.327698134906279e+000	-1.604599239407341e+001
1	 8.901787871948500e-001	 1.337520160292034e+000	-1.620345370743700e+001
1	 8.755040030789064e-001	 1.347171582679268e+000	-1.636208665356404e+001
1	 8.607415840442136e-001	 1.356651226467707e+000	-1.652626088105116e+001
1	 8.458945038450076e-001	 1.365957983463344e+000	-1.670039695804609e+001
1	 8.309657524994858e-001	 1.375090813150366e+000	-1.688895877451634e+001
1	 8.159583343948756e-001	 1.384048742900173e+000	-1.709644593485323e+001
1	 8.008752663938652e-001	 1.392830868117783e+000	-1.732738615654828e+001
1	 7.857195759447690e-001	 1.401436352325989e+000	-1.758632769048289e+001
1	 9.375221266684231e-001	 1.312973090167526e+000	-1.538542715584985e+001
1	 9.230681687484915e-001	 1.323174684300590e+000	-1.554738027061916e+001
1	 9.085173709657477e-001	 1.333207530109689e+000	-1.570368389165565e+001
1	 8.938726590256203e-001	 1.343070312816907e+000	-1.585850180096208e+001
1	 8.791369806574539e-001	 1.352761784594114e+000	-1.601606097595898e+001
1	 8.643133037221090e-001	 1.362280764962774e+000	-1.618064420431178e+001
1	 8.494046143136589e-001	 1.371626141130321e+000	-1.635658266029954e+001
1	 8.344139148576283e-001	 1.380796868263218e+000	-1.654824845839093e+001
1	 8.193442222081936e-001	 1.389791969696849e+000	-1.676004719958655e+001
1	 8.041985657467650e-001	 1.398610537082528e+000	-1.699641052593482e+001
1	 7.889799854843013e-001	 1.407251730471996e+000	-1.726178869842699e+001
1	 9.413963771442712e-001	 1.318398867836291e+000	-1.505255393697251e+001
1	 9.268826891637869e-001	 1.328642619407423e+000	-1.520888815295255e+001
1	 9.122717611359931e-001	 1.338716925312952e+000	-1.536130731667018e+001
1	 8.975665308566001e-001	 1.348620465341704e+000	-1.551387974168976e+001
1	 8.827699582362499e-001	 1.358351986508967e+000	-1.567073388593231e+001
1	 8.678850234002893e-001	 1.367910303457928e+000	-1.583605114037558e+001
1	 8.529147247826276e-001	 1.377294298797460e+000	-1.601405858249773e+001
1	 8.378620772161134e-001	 1.386502923376302e+000	-1.620902170974834e+001
1	 8.227301100218737e-001	 1.395535196493812e+000	-1.642523716820916e+001
1	 8.075218651000348e-001	 1.404390206047592e+000	-1.666702549146369e+001
1	 7.922403950241997e-001	 1.413067108618336e+000	-1.693872386448821e+001
1	 9.452706276201874e-001	 1.323824645504908e+000	-1.471879654591379e+001
1	 9.306972095791717e-001	 1.334110554514149e+000	-1.486992624151128e+001
1	 9.160261513063516e-001	 1.344226320516161e+000	-1.501887213947041e+001
1	 9.012604026877193e-001	 1.354170617866511e+000	-1.516959314501180e+001
1	 8.864029358152090e-001	 1.363942188423893e+000	-1.532610503411990e+001
1	 8.714567430786560e-001	 1.373539841953220e+000	-1.549247344433987e+001
1	 8.564248352518022e-001	 1.382962456464800e+000	-1.567280683364220e+001
1	 8.413102395748181e-001	 1.392208978489638e+000	-1.587124942218156e+001
1	 8.261159978357805e-001	 1.401278423291070e+000	-1.609197413167140e+001
1	 8.108451644535302e-001	 1.410169875012980e+000	-1.633917553693291e+001
1	 7.955008045643135e-001	 1.418882486765009e+000	-1.661706284398315e+001
1	 9.491448780961366e-001	 1.329250423173492e+000	-1.438416495909893e+001
1	 9.345117299946012e-001	 1.339578489620878e+000	-1.453050539397985e+001
1	 9.197805414767668e-001	 1.349735715719415e+000	-1.467638767578317e+001
1	 9.049542745189065e-001	 1.359720770391410e+000	-1.482564753463481e+001
1	 8.900359133942477e-001	 1.369532390338960e+000	-1.498217407685946e+001
1	 8.750284627571104e-001	 1.379169380448702e+000	-1.514990300591783e+001
1	 8.599349457210699e-001	 1.388630614132375e+000	-1.533280981484476e+001
1	 8.447584019336180e-001	 1.397915033603250e+000	-1.553490296451203e+001
1	 8.295018856497786e-001	 1.407021650088634e+000	-1.576021706192039e+001
1	 8.141684638071076e-001	 1.415949543978694e+000	-1.601280605257065e+001
1	 7.987612141044927e-001	 1.424697864912014e+000	-1.629673644076875e+001
1	 9.530191285720864e-001	 1.334676200842162e+000	-1.404866899072640e+001
1	 9.383262504100309e-001	 1.345046424727719e+000	-1.419063629148569e+001
1	 9.235349316471814e-001	 1.355245110922812e+000	-1.433386308985168e+001
1	 9.086481463500914e-001	 1.365270922916484e+000	-1.448204834444269e+001
1	 8.936688909732813e-001	 1.375122592254236e+000	-1.463894067607614e+001
1	 8.786001824355540e-001	 1.384798918944425e+000	-1.480833184670196e+001
1	 8.634450561903191e-001	 1.394298771800219e+000	-1.499405021339113e+001
1	 8.482065642923892e-001	 1.403621088717157e+000	-1.519995417113046e+001
1	 8.328877734637327e-001	 1.412764876886513e+000	-1.542992559805707e+001
1	 8.174917631606233e-001	 1.421729212944737e+000	-1.568786331661180e+001
1	 8.020216236445871e-001	 1.430513243059354e+000	-1.597767658389673e+001
1	 9.568933790480022e-001	 1.340101978511031e+000	-1.371231829605242e+001
1	 9.421407708254154e-001	 1.350514359834781e+000	-1.385032944217337e+001
1	 9.272893218175382e-001	 1.360754506126449e+000	-1.399130739750159e+001
1	 9.123420181812031e-001	 1.370821075441817e+000	-1.413880092031610e+001
1	 8.973018685522237e-001	 1.380712794169788e+000	-1.429640449916851e+001
1	 8.821719021138887e-001	 1.390428457440441e+000	-1.446775211749455e+001
1	 8.669551666594380e-001	 1.399966929468371e+000	-1.465651099694663e+001
1	 8.516547266510058e-001	 1.409327143831381e+000	-1.486637533257174e+001
1	 8.362736612775088e-001	 1.418508103684719e+000	-1.510106003283147e+001
1	 8.208150625139332e-001	 1.427508881911112e+000	-1.536429447732044e+001
1	 8.052820331844467e-001	 1.436328621207025e+000	-1.565981630483571e+001
1	 9.607676295238505e-001	 1.345527756180218e+000	-1.337512237459483e+001
1	 9.459552912407105e-001	 1.355982294942172e+000	-1.350959518469201e+001
1	 9.310437119877796e-001	 1.366263901330424e+000	-1.364872946913424e+001
1	 9.160358900121717e-001	 1.376371227967493e+000	-1.379591052190610e+001
1	 9.009348461309924e-001	 1.386302996085685e+000	-1.395456521889870e+001
1	 8.857436217920156e-001	 1.396057995936800e+000	-1.412815609570237e+001
1	 8.704652771283146e-001	 1.405635087136863e+000	-1.432017540790392e+001
1	 8.551028890093452e-001	 1.415033198945946e+000	-1.453413918631742e+001
1	 8.396595490909711e-001	 1.424251330483261e+000	-1.477358129946234e+001
1	 8.241383618668934e-001	 1.433288550877820e+000	-1.504204753544829e+001
1	 8.085424427239210e-001	 1.442143999355031e+000	-1.534308971524325e+001
1	 9.646418799995977e-001	 1.350953533849838e+000	-1.303709057326129e+001
1	 9.497698116558712e-001	 1.361450230050001e+000	-1.316844369159926e+001
1	 9.347981021578486e-001	 1.371773296534834e+000	-1.330613803264658e+001
1	 9.197297618429253e-001	 1.381921380493593e+000	-1.345338232436616e+001
1	 9.045678237095014e-001	 1.391893198001993e+000	-1.361342251328415e+001
1	 8.893153414698359e-001	 1.401687534433554e+000	-1.378953618279460e+001
1	 8.739753875968371e-001	 1.411303244805733e+000	-1.398502695786502e+001
1	 8.585510513672827e-001	 1.420739254060870e+000	-1.420321890782143e+001
1	 8.430454369039842e-001	 1.429994557282150e+000	-1.444745095877676e+001
1	 8.274616612193595e-001	 1.439068219844866e+000	-1.472107132711655e+001
1	 8.118028522628600e-001	 1.447959377503370e+000	-1.502743198527515e+001
1	 9.685161304752106e-001	 1.356379311520008e+000	-1.269823208940133e+001
1	 9.535843320708534e-001	 1.366918165158378e+000	-1.282688497268335e+001
1	 9.385524923276887e-001	 1.377282691739777e+000	-1.296354167628114e+001
1	 9.234236336733949e-001	 1.387471533020204e+000	-1.311122142004180e+001
1	 9.082008012876665e-001	 1.397483399918780e+000	-1.327297606549310e+001
1	 8.928870611472519e-001	 1.407317072930754e+000	-1.345188490182128e+001
1	 8.774854980648936e-001	 1.416971402475017e+000	-1.365104942225831e+001
1	 8.619992137246938e-001	 1.426445309176177e+000	-1.387358810174965e+001
1	 8.464313247164138e-001	 1.435737784081395e+000	-1.412263118665687e+001
1	 8.307849605711887e-001	 1.444847888812251e+000	-1.440131550710618e+001
1	 8.150632618011137e-001	 1.453774755652043e+000	-1.471277932241381e+001
1	 7.824591664057522e-001	 1.395620974180313e+000	-1.791241235780868e+001
1	 7.672993476139858e-001	 1.404012830606383e+000	-1.820480790203786e+001
1	 7.520732818907336e-001	 1.412227370971638e+000	-1.854470267562939e+001
1	 7.367840039700269e-001	 1.420263967078496e+000	-1.892812408756673e+001
1	 7.214345516481479e-001	 1.428122058255759e+000	-1.935100734879502e+001
1	 7.060279639552908e-001	 1.435801151140213e+000	-1.980920354396813e+001
1	 6.905672793443338e-001	 1.443300819400590e+000	-2.029848773471187e+001
1	 6.750555338987601e-001	 1.450620703404885e+000	-2.081456707741313e+001
1	 6.594957595617234e-001	 1.457760509832163e+000	-2.135308893879203e+001
1	 6.438909823881793e-001	 1.464720011230009e+000	-2.190964899280599e+001
1	 6.282442208219421e-001	 1.471499045518887e+000	-2.247979928277227e+001
1	 7.857195759447690e-001	 1.401436352325989e+000	-1.758632769048289e+001
1	 7.704965880833782e-001	 1.409863176568699e+000	-1.788565607680414e+001
1	 7.552070772478325e-001	 1.418111945896701e+000	-1.823226569105566e+001
1	 7.398540908175103e-001	 1.426182029494800e+000	-1.862228219655850e+001
1	 7.244406792467997e-001	 1.434072864355559e+000	-1.905173995488890e+001
1	 7.089698942291433e-001	 1.441783955059992e+000	-1.951658995168412e+001
1	 6.934447868782606e-001	 1.449314873500366e+000	-2.001270775441118e+001
1	 6.778684059286053e-001	 1.456665258546147e+000	-2.053590148539045e+001
1	 6.622437959570482e-001	 1.463834815654174e+000	-2.108191979359960e+001
1	 6.465739956277268e-001	 1.470823316424275e+000	-2.164645980907617e+001
1	 6.308620359619235e-001	 1.477630598101556e+000	-2.222517506406029e+001
1	 7.889799854843013e-001	 1.407251730471996e+000	-1.726178869842700e+001
1	 7.736938285532721e-001	 1.415713522531330e+000	-1.756783901478309e+001
1	 7.583408726054054e-001	 1.423996520822031e+000	-1.792087177284001e+001
1	 7.429241776654281e-001	 1.432100091911302e+000	-1.831712740096080e+001
1	 7.274468068458374e-001	 1.440023670455469e+000	-1.875275615918001e+001
1	 7.119118245033267e-001	 1.447766758979777e+000	-1.922382588554827e+001
1	 6.963222944124613e-001	 1.455328927600040e+000	-1.972632977499042e+001
1	 6.806812779586661e-001	 1.462709813687193e+000	-2.025619417431176e+001
1	 6.649918323525327e-001	 1.469909121475858e+000	-2.080928637722031e+001
1	 6.492570088673833e-001	 1.476926621618111e+000	-2.138142240350899e+001
1	 6.334798511019699e-001	 1.483762150683703e+000	-2.196837474686618e+001
1	 7.922403950241997e-001	 1.413067108618336e+000	-1.693872386448822e+001
1	 7.768910690235145e-001	 1.421563868494278e+000	-1.725127128637158e+001
1	 7.614746679632978e-001	 1.429881095747641e+000	-1.761042467517081e+001
1	 7.459942645136269e-001	 1.438018154328024e+000	-1.801255552454379e+001
1	 7.304529344451121e-001	 1.445974476555527e+000	-1.845394652894080e+001
1	 7.148537547776986e-001	 1.453749562899628e+000	-1.893079911719446e+001
1	 6.991998019467994e-001	 1.461342981699689e+000	-1.943924101927030e+001
1	 6.834941499888144e-001	 1.468754368828120e+000	-1.997533385022627e+001
1	 6.677398687480575e-001	 1.475983427297332e+000	-2.053508069565555e+001
1	 6.519400221070382e-001	 1.483029926811650e+000	-2.111443368315009e+001
1	 6.360976662419806e-001	 1.489893703265480e+000	-2.170930152463585e+001
1	 7.955008045643135e-001	 1.418882486765009e+000	-1.661706284398316e+001
1	 7.800883094939518e-001	 1.427414214457547e+000	-1.693586886251952e+001
1	 7.646084633213555e-001	 1.435765670673543e+000	-1.730082973011442e+001
1	 7.490643513619556e-001	 1.443936216744994e+000	-1.770846409896855e+001
1	 7.334590620444750e-001	 1.451925282655774e+000	-1.815520342551129e+001
1	 7.177956850521154e-001	 1.459732366819600e+000	-1.863739925815672e+001
1	 7.020773094811390e-001	 1.467357035799387e+000	-1.915133055896942e+001
1	 6.863070220189225e-001	 1.474798923969026e+000	-1.969321104376430e+001
1	 6.704879051435043e-001	 1.482057733118713e+000	-2.025919652538785e+001
1	 6.546230353465827e-001	 1.489133232005029e+000	-2.084539224517650e+001
1	 6.387154813818570e-001	 1.496025255847035e+000	-2.144786017788631e+001
1	 7.987612141044927e-001	 1.424697864912014e+000	-1.629673644076875e+001
1	 7.832855499644306e-001	 1.433264560421141e+000	-1.662154908614738e+001
1	 7.677422586794239e-001	 1.441650245599746e+000	-1.699199381541165e+001
1	 7.521344382102603e-001	 1.449854279162232e+000	-1.740475232893123e+001
1	 7.364651896437771e-001	 1.457876088756247e+000	-1.785642096768408e+001
1	 7.207376153264338e-001	 1.465715170739753e+000	-1.834351772231870e+001
1	 7.049548170153437e-001	 1.473371089899215e+000	-1.886248927696961e+001
1	 6.891198940488618e-001	 1.480843479110007e+000	-1.940971807289911e+001
1	 6.732359415387536e-001	 1.488132038940116e+000	-1.998152937724694e+001
1	 6.573060485859077e-001	 1.495236537198382e+000	-2.057419834240404e+001
1	 6.413332965214997e-001	 1.502156808428522e+000	-2.118395704181536e+001
1	 8.020216236445871e-001	 1.430513243059354e+000	-1.597767658389673e+001
1	 7.864827904347969e-001	 1.439114906385062e+000	-1.630823064425825e+001
1	 7.708760540373492e-001	 1.447534820526264e+000	-1.668382532306023e+001
1	 7.552045250583886e-001	 1.455772341579763e+000	-1.710132105815568e+001
1	 7.394713172428697e-001	 1.463826894856989e+000	-1.755749499598164e+001
1	 7.236795456005105e-001	 1.471697974660143e+000	-1.804904768927829e+001
1	 7.078323245492768e-001	 1.479385143999247e+000	-1.857260983050185e+001
1	 6.919327660785049e-001	 1.486888034251159e+000	-1.912474900661804e+001
1	 6.759839779336863e-001	 1.494206344761659e+000	-1.970197646115711e+001
1	 6.599890618249036e-001	 1.501339842391844e+000	-2.030075384963337e+001
1	 6.439511116608094e-001	 1.508288361010091e+000	-2.091749997470056e+001
1	 8.052820331844467e-001	 1.436328621207025e+000	-1.565981630483571e+001
1	 7.896800309048970e-001	 1.444965252349316e+000	-1.599583354072870e+001
1	 7.740098493949770e-001	 1.453419395453107e+000	-1.637623412866066e+001
1	 7.582746119061880e-001	 1.461690403997612e+000	-1.679807273621426e+001
1	 7.424774448416042e-001	 1.469777700958038e+000	-1.725832303780223e+001
1	 7.266214758742023e-001	 1.477680778580828e+000	-1.775388406860344e+001
1	 7.107098320828028e-001	 1.485399198099562e+000	-1.828158661522687e+001
1	 6.947456381077226e-001	 1.492932589392580e+000	-1.883819962947387e+001
1	 6.787320143281836e-001	 1.500280650583457e+000	-1.942043665174078e+001
1	 6.626720750634609e-001	 1.507443147585549e+000	-2.002496223081529e+001
1	 6.465689267996867e-001	 1.514419913591893e+000	-2.064839832706704e+001
1	 8.085424427239210e-001	 1.442143999355031e+000	-1.534308971524325e+001
1	 7.928772713745780e-001	 1.450815598313902e+000	-1.568427906975760e+001
1	 7.771436447521524e-001	 1.459303970380288e+000	-1.606913156150326e+001
1	 7.613446987535059e-001	 1.467608466415802e+000	-1.649491138614936e+001
1	 7.454835724398311e-001	 1.475728507059433e+000	-1.695880427340824e+001
1	 7.295634061473653e-001	 1.483663582501865e+000	-1.745792346495134e+001
1	 7.135873396157849e-001	 1.491413252200236e+000	-1.798931573018444e+001
1	 6.975585101363884e-001	 1.498977144534367e+000	-1.854996740699641e+001
1	 6.814800507221271e-001	 1.506354956405627e+000	-1.913681045475478e+001
1	 6.653550883014708e-001	 1.513546452779633e+000	-1.974672850701030e+001
1	 6.491867419380324e-001	 1.520551466174078e+000	-2.037656291159906e+001
1	 8.118028522628600e-001	 1.447959377503370e+000	-1.502743198527515e+001
1	 7.960745118436858e-001	 1.456665944278828e+000	-1.537348978995502e+001
1	 7.802774401087218e-001	 1.465188545307817e+000	-1.576243037537611e+001
1	 7.644147856001898e-001	 1.473526528834358e+000	-1.619174257287683e+001
1	 7.484897000374019e-001	 1.481679313161214e+000	-1.665883950273503e+001
1	 7.325053364198569e-001	 1.489646386423312e+000	-1.716106414402986e+001
1	 7.164648471480870e-001	 1.497427306301345e+000	-1.769569494358711e+001
1	 7.003713821643731e-001	 1.505021699676617e+000	-1.825995145193540e+001
1	 6.842280871153970e-001	 1.512429262228287e+000	-1.885099997433528e+001
1	 6.680381015388242e-001	 1.519649757974229e+000	-1.946595922511904e+001
1	 6.518045570757469e-001	 1.526683018756798e+000	-2.010190597377964e+001
1	 8.150632618011137e-001	 1.453774755652043e+000	-1.471277932241381e+001
1	 7.992717523120669e-001	 1.462516290244094e+000	-1.506338949905251e+001
1	 7.834112354645310e-001	 1.471073120235707e+000	-1.545604472007396e+001
1	 7.674848724460873e-001	 1.479444591253303e+000	-1.588847337234677e+001
1	 7.514958276341680e-001	 1.487630119263421e+000	-1.635833111299591e+001
1	 7.354472666915338e-001	 1.495629190345228e+000	-1.686320599937384e+001
1	 7.193423546795726e-001	 1.503441360402968e+000	-1.740062365943554e+001
1	 7.031842541915491e-001	 1.511066254819426e+000	-1.796805249131524e+001
1	 6.869761235078749e-001	 1.518503568051551e+000	-1.856290888102797e+001
1	 6.707211147754113e-001	 1.525753063169474e+000	-1.918256242736491e+001
1	 6.544223722127310e-001	 1.532814571340203e+000	-1.982434116323197e+001
1	 6.282442208219421e-001	 1.471499045518887e+000	-2.247979928277227e+001
1	 6.125561282577968e-001	 1.478098491957502e+000	-2.307575679920947e+001
1	 5.968320490086007e-001	 1.484517287968683e+000	-2.371017742043502e+001
1	 5.810749706883369e-001	 1.490755465284833e+000	-2.437949456537061e+001
1	 5.652878666485968e-001	 1.496813118561950e+000	-2.508013401966505e+001
1	 5.494736944043552e-001	 1.502690404637500e+000	-2.580851773049028e+001
1	 5.336353940943900e-001	 1.508387541743989e+000	-2.656106754768430e+001
1	 5.177758869776715e-001	 1.513904808679865e+000	-2.733420890566922e+001
1	 5.018980739669736e-001	 1.519242543939458e+000	-2.812437444081185e+001
1	 4.860048342008704e-001	 1.524401144803653e+000	-2.892800753915328e+001
1	 4.700990236552003e-001	 1.529381066393079e+000	-2.974156580969009e+001
1	 6.308620359619235e-001	 1.477630598101556e+000	-2.222517506406029e+001
1	 6.151085730770313e-001	 1.484257543608491e+000	-2.283051509347163e+001
1	 5.993189735550006e-001	 1.490703085940283e+000	-2.347520988473954e+001
1	 5.834962374588432e-001	 1.496967256961559e+000	-2.415555866836157e+001
1	 5.676433505297488e-001	 1.503050151722735e+000	-2.486785064849763e+001
1	 5.517632826063015e-001	 1.508951927714800e+000	-2.560836908350442e+001
1	 5.358589860784835e-001	 1.514672804079606e+000	-2.637339531121399e+001
1	 5.199333943777998e-001	 1.520213060777319e+000	-2.715921271284215e+001
1	 5.039894205047790e-001	 1.525573037712730e+000	-2.796211060966641e+001
1	 4.880299555950191e-001	 1.530753133822143e+000	-2.877838808689119e+001
1	 4.720578675248663e-001	 1.535753806122621e+000	-2.960435773939061e+001
1	 6.334798511019699e-001	 1.483762150683703e+000	-2.196837474686618e+001
1	 6.176610178962955e-001	 1.490416595258882e+000	-2.258281814177989e+001
1	 6.018058981014047e-001	 1.496888883911224e+000	-2.323753535833435e+001
1	 5.859175042293358e-001	 1.503179048637579e+000	-2.392868783222868e+001
1	 5.699988344108758e-001	 1.509287184882779e+000	-2.465242460704340e+001
1	 5.540528708082165e-001	 1.515213450791333e+000	-2.540488670790743e+001
1	 5.380825780625443e-001	 1.520958066414437e+000	-2.618221145810206e+001
1	 5.220909017778975e-001	 1.526521312873974e+000	-2.698053673193126e+001
1	 5.060807670425579e-001	 1.531903531485195e+000	-2.779600513746048e+001
1	 4.900550769891465e-001	 1.537105122839823e+000	-2.862476812302291e+001
1	 4.740167113945158e-001	 1.542126545851345e+000	-2.946299000168608e+001
1	 6.360976662419806e-001	 1.489893703265480e+000	-2.170930152463585e+001
1	 6.202134627155002e-001	 1.496575646908841e+000	-2.233257608422449e+001
1	 6.042928226477331e-001	 1.503074681881681e+000	-2.299707103686259e+001
1	 5.883387709997444e-001	 1.509390840313075e+000	-2.369880646477138e+001
1	 5.723543182919169e-001	 1.515524218042269e+000	-2.443378771899376e+001
1	 5.563424590100491e-001	 1.521474973867289e+000	-2.519801009355241e+001
1	 5.403061700465296e-001	 1.527243328748675e+000	-2.598746344053187e+001
1	 5.242484091779293e-001	 1.532829564970023e+000	-2.679813671884400e+001
1	 5.081721135802820e-001	 1.538234025257044e+000	-2.762602246973986e+001
1	 4.920801983832305e-001	 1.543457111856877e+000	-2.846712121242745e+001
1	 4.759755552641329e-001	 1.548499285579436e+000	-2.931744575349410e+001
1	 6.387154813818570e-001	 1.496025255847035e+000	-2.144786017788630e+001
1	 6.227659075345555e-001	 1.502734698558528e+000	-2.207970053408208e+001
1	 6.067797471939067e-001	 1.509260479851831e+000	-2.275373547348373e+001
1	 5.907600377699994e-001	 1.515602631988232e+000	-2.346584021306696e+001
1	 5.747098021728117e-001	 1.521761251201395e+000	-2.421187292573972e+001
1	 5.586320472117475e-001	 1.527736496942861e+000	-2.498767972231221e+001
1	 5.425297620303964e-001	 1.533528591082513e+000	-2.578909957216980e+001
1	 5.264059165778601e-001	 1.539137817065659e+000	-2.661196915483800e+001
1	 5.102634601179235e-001	 1.544564519028469e+000	-2.745212763493944e+001
1	 4.941053197772500e-001	 1.549809100873494e+000	-2.830542135336804e+001
1	 4.779343991337011e-001	 1.554872025307074e+000	-2.916770842786376e+001
1	 6.413332965214997e-001	 1.502156808428522e+000	-2.118395704181535e+001
1	 6.253183523533731e-001	 1.508893750208112e+000	-2.182410454774884e+001
1	 6.092666717398461e-001	 1.515446277821846e+000	-2.250744855116730e+001
1	 5.931813045400316e-001	 1.521814423663232e+000	-2.322971593817801e+001
1	 5.770652860535005e-001	 1.527998284360345e+000	-2.398661426356162e+001
1	 5.609216354132608e-001	 1.533998020018241e+000	-2.477383704783204e+001
1	 5.447533540141016e-001	 1.539813853416144e+000	-2.558706901058248e+001
1	 5.285634239776547e-001	 1.545446069161075e+000	-2.642199123171567e+001
1	 5.123548066554542e-001	 1.550895012799658e+000	-2.727428623248694e+001
1	 4.961304411711825e-001	 1.556161089889861e+000	-2.813964296864782e+001
1	 4.798932430032044e-001	 1.561244765034445e+000	-2.901376172833783e+001
1	 6.439511116608094e-001	 1.508288361010091e+000	-2.091749997470056e+001
1	 6.278707971718623e-001	 1.515052801857756e+000	-2.156570259540863e+001
1	 6.117535962854716e-001	 1.521632075791902e+000	-2.225813145566277e+001
1	 5.956025713097707e-001	 1.528026215338257e+000	-2.299036169047724e+001
1	 5.794207699339221e-001	 1.534235317519306e+000	-2.375794684137334e+001
1	 5.632112236145370e-001	 1.540259543093620e+000	-2.455642447577748e+001
1	 5.469769459976025e-001	 1.546099115749762e+000	-2.538132174008404e+001
1	 5.307209313772782e-001	 1.551754321256463e+000	-2.622816083738228e+001
1	 5.144461531928464e-001	 1.557225506570805e+000	-2.709246442119756e+001
1	 4.981555625650069e-001	 1.562513078906165e+000	-2.796976089698055e+001
1	 4.818520868726261e-001	 1.567617504761729e+000	-2.885558962345633e+001
1	 6.465689267996867e-001	 1.514419913591893e+000	-2.064839832706704e+001
1	 6.304232419899352e-001	 1.521211853507622e+000	-2.130441053241074e+001
1	 6.142405208307040e-001	 1.527817873762174e+000	-2.200570664912666e+001
1	 5.980238380791469e-001	 1.534238007013491e+000	-2.274770668557063e+001
1	 5.817762538140169e-001	 1.540472350678467e+000	-2.352580681900854e+001
1	 5.655008118155254e-001	 1.546521066169190e+000	-2.433538534456226e+001
1	 5.492005379808558e-001	 1.552384378083559e+000	-2.517180855499950e+001
1	 5.328784387766953e-001	 1.558062573352017e+000	-2.603043654175484e+001
1	 5.165374997300717e-001	 1.563556000342099e+000	-2.690662890794897e+001
1	 5.001806839587015e-001	 1.568865067922594e+000	-2.779575038457026e+001
1	 4.838109307419504e-001	 1.573990244489111e+000	-2.869317634139173e+001
1	 6.491867419380324e-001	 1.520551466174078e+000	-2.037656291159906e+001
1	 6.329756868075016e-001	 1.527370905157877e+000	-2.104014557134347e+001
1	 6.167274453754639e-001	 1.534003671732837e+000	-2.175009784438761e+001
1	 6.004451048480909e-001	 1.540449798689115e+000	-2.250168128080400e+001
1	 5.841317376937240e-001	 1.546709383838018e+000	-2.329013138603142e+001
1	 5.677904000161740e-001	 1.552782589245143e+000	-2.411066390654194e+001
1	 5.514241299638191e-001	 1.558669640417730e+000	-2.495848104333289e+001
1	 5.350359461758709e-001	 1.564370825447929e+000	-2.582877758301063e+001
1	 5.186288462671024e-001	 1.569886494113732e+000	-2.671674693663200e+001
1	 5.022058053522444e-001	 1.575217056939336e+000	-2.761758707689630e+001
1	 4.857697746111607e-001	 1.580362984216774e+000	-2.852650636471313e+001
1	 6.518045570757469e-001	 1.526683018756798e+000	-2.010190597377964e+001
1	 6.355281316244723e-001	 1.533529956808685e+000	-2.077282625477812e+001
1	 6.192143699196715e-001	 1.540189469704066e+000	-2.149122997983044e+001
1	 6.028663716165326e-001	 1.546661590365314e+000	-2.225221695233602e+001
1	 5.864872215729831e-001	 1.552946416998145e+000	-2.305085874105916e+001
1	 5.700799882164317e-001	 1.559044112321670e+000	-2.388220530966005e+001
1	 5.536477219464489e-001	 1.564954902752466e+000	-2.474129157082948e+001
1	 5.371934535747698e-001	 1.570679077544392e+000	-2.562314385416768e+001
1	 5.207201928039105e-001	 1.576216987885893e+000	-2.652278627736533e+001
1	 5.042309267456142e-001	 1.581569045956577e+000	-2.743524701069504e+001
1	 4.877286184802408e-001	 1.586735723944899e+000	-2.835556442527929e+001
1	 6.544223722127310e-001	 1.532814571340203e+000	-1.982434116323197e+001
1	 6.380805764407583e-001	 1.539689008460209e+000	-2.050237242866837e+001
1	 6.217012944632482e-001	 1.546375267676036e+000	-2.122902919488488e+001
1	 6.052876383844025e-001	 1.552873382042270e+000	-2.199924627275949e+001
1	 5.888427054517341e-001	 1.559183450159039e+000	-2.280792807157908e+001
1	 5.723695764162470e-001	 1.565305635398965e+000	-2.364995557953673e+001
1	 5.558713139287028e-001	 1.571240165087963e+000	-2.452019326541999e+001
1	 5.393509609733571e-001	 1.576987329641599e+000	-2.541349588998704e+001
1	 5.228115393404681e-001	 1.582547481658774e+000	-2.632471521597210e+001
1	 5.062560481387889e-001	 1.587921034974506e+000	-2.724870660613411e+001
1	 4.896874623491745e-001	 1.593108463673670e+000	-2.818033549925107e+001
1	 4.700990236552003e-001	 1.529381066393079e+000	-2.974156580969009e+001
1	 4.541834735678362e-001	 1.534182820303653e+000	-3.055780882701693e+001
1	 4.382609884735363e-001	 1.538806972447188e+000	-3.136964111532654e+001
1	 4.223343456611924e-001	 1.543254143154806e+000	-3.217377077054745e+001
1	 4.064062941850493e-001	 1.547525006483282e+000	-3.296693589447916e+001
1	 3.904795536865156e-001	 1.551620289110432e+000	-3.374590808939058e+001
1	 3.745568132600691e-001	 1.555540769203842e+000	-3.450749583512787e+001
1	 3.586407303637542e-001	 1.559287275264824e+000	-3.524854774522878e+001
1	 3.427339297746908e-001	 1.562860684949402e+000	-3.596595569888883e+001
1	 3.268390025899309e-001	 1.566261923868223e+000	-3.665665784598689e+001
1	 3.109585052729244e-001	 1.569491964367168e+000	-3.731764148273885e+001
1	 4.720578675248663e-001	 1.535753806122621e+000	-2.960435773939061e+001
1	 4.560759993296170e-001	 1.540575568341829e+000	-3.043265885274656e+001
1	 4.400871672301723e-001	 1.545218988749658e+000	-3.125618154659752e+001
1	 4.240941600880320e-001	 1.549684690262056e+000	-3.207164791529160e+001
1	 4.080997384124002e-001	 1.553973349744499e+000	-3.287581078326765e+001
1	 3.921066331770839e-001	 1.558085696902767e+000	-3.366545717210851e+001
1	 3.761175446816750e-001	 1.562022513146960e+000	-3.443741164953688e+001
1	 3.601351414575070e-001	 1.565784630430640e+000	-3.518853955690843e+001
1	 3.441620592188107e-001	 1.569372930066904e+000	-3.591575011211188e+001
1	 3.282008998594099e-001	 1.572788341523290e+000	-3.661599938515356e+001
1	 3.122542304952113e-001	 1.576031841197312e+000	-3.728629314404521e+001
1	 4.740167113945158e-001	 1.542126545851345e+000	-2.946299000168608e+001
1	 4.579685250913861e-001	 1.546968316379183e+000	-3.030319858754170e+001
1	 4.419133459868009e-001	 1.551631005051298e+000	-3.113827889080990e+001
1	 4.258539745148700e-001	 1.556115237368471e+000	-3.196496440833611e+001
1	 4.097931826397563e-001	 1.560421693004874e+000	-3.278001996426398e+001
1	 3.937337126676676e-001	 1.564551104694253e+000	-3.358024515674099e+001
1	 3.776782761033100e-001	 1.568504257089224e+000	-3.436247768603910e+001
1	 3.616295525513068e-001	 1.572281985595597e+000	-3.512359656069150e+001
1	 3.455901886630016e-001	 1.575885175183543e+000	-3.586052517860738e+001
1	 3.295627971289896e-001	 1.579314759177490e+000	-3.657023428048969e+001
1	 3.135499557176358e-001	 1.582571718026590e+000	-3.724974477321918e+001
1	 4.759755552641329e-001	 1.548499285579436e+000	-2.931744575349410e+001
1	 4.598610508531317e-001	 1.553361064415891e+000	-3.016942024828301e+001
1	 4.437395247434138e-001	 1.558043021352281e+000	-3.101593288487944e+001
1	 4.276137889416997e-001	 1.562545784474214e+000	-3.185372600525470e+001
1	 4.114866268671124e-001	 1.566870036264565e+000	-3.267957374981404e+001
1	 3.953607921582604e-001	 1.571016512485042e+000	-3.349028549089961e+001
1	 3.792390075249657e-001	 1.574986001030779e+000	-3.428270914722027e+001
1	 3.631239636451417e-001	 1.578779340759835e+000	-3.505373437584738e+001
1	 3.470183181072453e-001	 1.582397420299454e+000	-3.580029563877186e+001
1	 3.309246943986448e-001	 1.585841176830959e+000	-3.651937514137573e+001
1	 3.148456809401636e-001	 1.589111594855133e+000	-3.720800564052646e+001
1	 4.779343991337011e-001	 1.554872025307074e+000	-2.916770842786376e+001
1	 4.617535766148420e-001	 1.559753812452132e+000	-3.003131617945011e+001
1	 4.455657035000026e-001	 1.564455037652777e+000	-3.088914327003645e+001
1	 4.293736033685146e-001	 1.568976331579451e+000	-3.173793836726453e+001
1	 4.131800710944626e-001	 1.573318379523730e+000	-3.257448228320200e+001
1	 3.969878716488561e-001	 1.577481920275285e+000	-3.339559140173228e+001
1	 3.807997389466332e-001	 1.581467744971770e+000	-3.419812098642998e+001
1	 3.646183747389991e-001	 1.585276695923494e+000	-3.497896836557913e+001
1	 3.484464475515243e-001	 1.588909665414775e+000	-3.573507599134347e+001
1	 3.322865916683502e-001	 1.592367594483831e+000	-3.646343437047153e+001
1	 3.161414061627602e-001	 1.595651471683077e+000	-3.716108486425421e+001
1	 4.798932430032044e-001	 1.561244765034445e+000	-2.901376172833783e+001
1	 4.636461023765049e-001	 1.566146560488082e+000	-2.988887885051815e+001
1	 4.473918822565585e-001	 1.570867053952957e+000	-3.075790979173603e+001
1	 4.311334177953083e-001	 1.575406878684347e+000	-3.161760706315019e+001
1	 4.148735153218010e-001	 1.579766722782525e+000	-3.246475554209923e+001
1	 3.986149511394479e-001	 1.583947328065134e+000	-3.329617590042403e+001
1	 3.823604703683042e-001	 1.587949488912343e+000	-3.410872791287210e+001
1	 3.661127858328667e-001	 1.591774051086716e+000	-3.489931364225031e+001
1	 3.498745769958204e-001	 1.595421910529643e+000	-3.566488049833612e+001
1	 3.336484889380808e-001	 1.598894012136239e+000	-3.640242416793461e+001
1	 3.174371313853914e-001	 1.602191348510555e+000	-3.710899141381234e+001
1	 4.818520868726261e-001	 1.567617504761729e+000	-2.885558962345633e+001
1	 4.655386281381087e-001	 1.572539308523918e+000	-2.974210085341590e+001
1	 4.492180610130728e-001	 1.577279070252993e+000	-3.062223219957367e+001
1	 4.328932322220744e-001	 1.581837425789064e+000	-3.149273757114328e+001
1	 4.165669595491220e-001	 1.586215066041111e+000	-3.235040334193151e+001
1	 4.002420306300298e-001	 1.590412735854740e+000	-3.319205178658563e+001
1	 3.839212017899701e-001	 1.594431232852644e+000	-3.401454439656414e+001
1	 3.676071969267320e-001	 1.598271406249639e+000	-3.481478507248394e+001
1	 3.513027064401157e-001	 1.601934155644195e+000	-3.558972318984944e+001
1	 3.350103862078114e-001	 1.605420429788318e+000	-3.633635653553701e+001
1	 3.187328566080224e-001	 1.608731225337699e+000	-3.705173411276020e+001
1	 4.838109307419504e-001	 1.573990244489111e+000	-2.869317634139173e+001
1	 4.674311538996414e-001	 1.578932056559819e+000	-2.959097490004767e+001
1	 4.510442397695371e-001	 1.583691086553055e+000	-3.048211024720102e+001
1	 4.346530466488063e-001	 1.588267972893769e+000	-3.136333528075578e+001
1	 4.182604037764201e-001	 1.592663409299643e+000	-3.223143533916316e+001
1	 4.018691101205954e-001	 1.596878143644255e+000	-3.308323165253741e+001
1	 3.854819332116223e-001	 1.600912976792819e+000	-3.391558467318023e+001
1	 3.691016080205829e-001	 1.604768761412406e+000	-3.472539728213582e+001
1	 3.527308358843927e-001	 1.608446400758566e+000	-3.550961786876465e+001
1	 3.363722834775167e-001	 1.611946847440201e+000	-3.626524328068052e+001
1	 3.200285818306191e-001	 1.615271102164644e+000	-3.698932164175906e+001
1	 4.857697746111607e-001	 1.580362984216774e+000	-2.852650636471313e+001
1	 4.693236796610911e-001	 1.585324804595960e+000	-2.943549381987427e+001
1	 4.528704185259429e-001	 1.590103102853316e+000	-3.033754369224369e+001
1	 4.364128610754976e-001	 1.594698519998625e+000	-3.122940549456825e+001
1	 4.199538480036892e-001	 1.599111752558280e+000	-3.210786103450211e+001
1	 4.034961896111380e-001	 1.603343551433830e+000	-3.296972788748912e+001
1	 3.870426646332523e-001	 1.607394720733012e+000	-3.381186274877734e+001
1	 3.705960191144070e-001	 1.611266116575157e+000	-3.463116466115083e+001
1	 3.541589653286333e-001	 1.614958645872892e+000	-3.542457811532604e+001
1	 3.377341807471714e-001	 1.618473265092024e+000	-3.618909602031764e+001
1	 3.213243070531469e-001	 1.621810978991523e+000	-3.692176254145299e+001
1	 4.877286184802408e-001	 1.586735723944899e+000	-2.835556442527929e+001
1	 4.712162054224462e-001	 1.591717552632520e+000	-2.927565055755217e+001
1	 4.546965972822816e-001	 1.596515119153945e+000	-3.018853229622187e+001
1	 4.381726755021417e-001	 1.601129067103797e+000	-3.109095342997577e+001
1	 4.216472922309238e-001	 1.605560095817179e+000	-3.197968977602818e+001
1	 4.051232691016514e-001	 1.609808959223615e+000	-3.285155268161706e+001
1	 3.886033960548516e-001	 1.613876464673370e+000	-3.370339240440415e+001
1	 3.720904302081917e-001	 1.617763471738032e+000	-3.453210136829917e+001
1	 3.555870947728198e-001	 1.621470890987311e+000	-3.533461729161049e+001
1	 3.390960780167504e-001	 1.624999682743920e+000	-3.610792618477228e+001
1	 3.226200322755714e-001	 1.628350855818469e+000	-3.684906521528042e+001
1	 4.896874623491745e-001	 1.593108463673670e+000	-2.818033549925107e+001
1	 4.731087311836948e-001	 1.598110300669677e+000	-2.911143817062937e+001
1	 4.565227760385447e-001	 1.602927135455114e+000	-3.003507582447220e+001
1	 4.399324899287324e-001	 1.607559614209450e+000	-3.094798422089201e+001
1	 4.233407364581182e-001	 1.612008439076500e+000	-3.184693076224466e+001
1	 4.067503485921295e-001	 1.616274367013764e+000	-3.272871803004689e+001
1	 3.901641274764115e-001	 1.620358208614037e+000	-3.359018720060332e+001
1	 3.735848413019252e-001	 1.624260826901171e+000	-3.442822133580049e+001
1	 3.570152242169341e-001	 1.627983136101961e+000	-3.523974854589226e+001
1	 3.404579752862288e-001	 1.631526100396023e+000	-3.602174502147663e+001
1	 3.239157574978582e-001	 1.634890732645615e+000	-3.677123793221908e+001
1	 3.109585052729244e-001	 1.569491964367168e+000	-3.731764148273885e+001
1	 2.950973361555283e-001	 1.572551378267190e+000	-3.794556691411784e+001
1	 2.792555925298783e-001	 1.575441725585226e+000	-3.853678035916637e+001
1	 2.634357170593281e-001	 1.578164112201086e+000	-3.908758962950757e+001
1	 2.476401145228079e-001	 1.580719685648571e+000	-3.959436335560087e+001
1	 2.318711510915625e-001	 1.583109633828190e+000	-4.005353450025994e+001
1	 2.161311536513517e-001	 1.585335183711221e+000	-4.046160369867136e+001
1	 2.004224091698800e-001	 1.587397600036800e+000	-4.081514242338138e+001
1	 1.847471641091543e-001	 1.589298184003680e+000	-4.111079597314487e+001
1	 1.691076238824034e-001	 1.591038271958281e+000	-4.134528628495218e+001
1	 1.535059523551476e-001	 1.592619234080585e+000	-4.151541456895843e+001
1	 3.122542304952113e-001	 1.576031841197312e+000	-3.728629314404521e+001
1	 2.963269698688031e-001	 1.579104003292622e+000	-3.792323097471702e+001
1	 2.804192156777261e-001	 1.582006394326573e+000	-3.852303690400805e+001
1	 2.645334207636076e-001	 1.584740124787051e+000	-3.908194169909105e+001
1	 2.486719999257926e-001	 1.587306346989509e+000	-3.959623763597389e+001
1	 2.328373291950671e-001	 1.589706253784308e+000	-4.006228214403063e+001
1	 2.170317451530342e-001	 1.591941077255381e+000	-4.047650127231772e+001
1	 2.012575442969084e-001	 1.594012087411892e+000	-4.083539297602208e+001
1	 1.855169824494246e-001	 1.595920590874547e+000	-4.113553022183150e+001
1	 1.698122742134936e-001	 1.597667929558169e+000	-4.137356391145639e+001
1	 1.541455924711945e-001	 1.599255479352131e+000	-4.154622562295304e+001
1	 3.135499557176358e-001	 1.582571718026590e+000	-3.724974477321918e+001
1	 2.975566035822601e-001	 1.585656628317190e+000	-3.789558755907530e+001
1	 2.815828388258038e-001	 1.588571063067058e+000	-3.850386195274790e+001
1	 2.656311244681645e-001	 1.591316137372162e+000	-3.907072654435503e+001
1	 2.497038853290978e-001	 1.593893008329605e+000	-3.959240217941464e+001
1	 2.338035072989267e-001	 1.596302873739601e+000	-4.006517572570258e+001
1	 2.179323366550938e-001	 1.598546970798740e+000	-4.048540365731101e+001
1	 2.020926794243194e-001	 1.600626574786212e+000	-4.084951545414909e+001
1	 1.862868007900624e-001	 1.602542997744678e+000	-4.115401681559026e+001
1	 1.705169245449123e-001	 1.604297587157367e+000	-4.139549268741233e+001
1	 1.547852325875027e-001	 1.605891724623038e+000	-4.157061010162110e+001
1	 3.148456809401636e-001	 1.589111594855133e+000	-3.720800564052647e+001
1	 2.987862372958534e-001	 1.592209253341028e+000	-3.786264265693296e+001
1	 2.827464619740536e-001	 1.595135731806818e+000	-3.847925946640903e+001
1	 2.667288281729294e-001	 1.597892149956559e+000	-3.905394728519794e+001
1	 2.507357707326434e-001	 1.600479669669002e+000	-3.958286038778592e+001
1	 2.347696854030525e-001	 1.602899493694213e+000	-4.006221998745811e+001
1	 2.188329281574361e-001	 1.605152864341439e+000	-4.048831792960679e+001
1	 2.029278145520174e-001	 1.607241062159900e+000	-4.085752019594121e+001
1	 1.870566191309760e-001	 1.609165404614206e+000	-4.116627021822531e+001
1	 1.712215748765773e-001	 1.610927244755997e+000	-4.141109200062093e+001
1	 1.554248727040072e-001	 1.612527969893416e+000	-4.158859305017437e+001
1	 3.161414061627602e-001	 1.595651471683077e+000	-3.716108486425421e+001
1	 3.000158710095376e-001	 1.598761878364269e+000	-3.782440215983308e+001
1	 2.839100851224186e-001	 1.601700400545991e+000	-3.844923334107542e+001
1	 2.678265318778331e-001	 1.604468162540381e+000	-3.903160699037022e+001
1	 2.517676561363493e-001	 1.607066331007840e+000	-3.956761560718086e+001
1	 2.357358635073559e-001	 1.609496113648287e+000	-4.005341959373571e+001
1	 2.197335196599669e-001	 1.611758757883622e+000	-4.048525104915536e+001
1	 2.037629496799067e-001	 1.613855549533095e+000	-4.085941737008992e+001
1	 1.878264374720734e-001	 1.615787811483266e+000	-4.117230465641747e+001
1	 1.719262252084068e-001	 1.617556902354182e+000	-4.142038092103491e+001
1	 1.560645128206423e-001	 1.619164215163372e+000	-4.160019910322622e+001
1	 3.174371313853914e-001	 1.602191348510555e+000	-3.710899141381234e+001
1	 3.012455047232674e-001	 1.605314503387048e+000	-3.778087186312638e+001
1	 2.850737082708409e-001	 1.608265069284713e+000	-3.841378740921981e+001
1	 2.689242355828062e-001	 1.611044175123768e+000	-3.900370867851825e+001
1	 2.527995415401351e-001	 1.613652992346263e+000	-3.954667112906014e+001
1	 2.367020416117482e-001	 1.616092733601967e+000	-4.003877913281593e+001
1	 2.206341111625921e-001	 1.618364651425432e+000	-4.047620986227084e+001
1	 2.045980848078915e-001	 1.620470036905936e+000	-4.085521697926037e+001
1	 1.885962558132627e-001	 1.622410218351989e+000	-4.117213412456500e+001
1	 1.726308755403183e-001	 1.624186559952042e+000	-4.142337820724564e+001
1	 1.567041529373427e-001	 1.625800460433011e+000	-4.160545249317446e+001
1	 3.187328566080224e-001	 1.608731225337699e+000	-3.705173411276020e+001
1	 3.024751384369969e-001	 1.611867128409499e+000	-3.773205746792603e+001
1	 2.862373314192634e-001	 1.614829738023120e+000	-3.837292544099493e+001
1	 2.700219392877792e-001	 1.617620187706860e+000	-3.897025531920304e+001
1	 2.538314269439211e-001	 1.620239653684411e+000	-3.952003019136139e+001
1	 2.376682197161404e-001	 1.622689353555394e+000	-4.001830311837014e+001
1	 2.215347026652172e-001	 1.624970544967009e+000	-4.046120110393981e+001
1	 2.054332199358763e-001	 1.627084524278562e+000	-4.084492886346501e+001
1	 1.893660741544520e-001	 1.629032625220509e+000	-4.116577238950390e+001
1	 1.733355258722298e-001	 1.630816217549702e+000	-4.142010231281429e+001
1	 1.573437930540432e-001	 1.632436705702442e+000	-4.160437705837463e+001
1	 3.200285818306191e-001	 1.615271102164644e+000	-3.698932164175906e+001
1	 3.037047721506812e-001	 1.618419753431758e+000	-3.767796458301482e+001
1	 2.874009545676282e-001	 1.621394406761351e+000	-3.832665114549617e+001
1	 2.711196429926829e-001	 1.624196200289796e+000	-3.893124983389276e+001
1	 2.548633123476269e-001	 1.626826315022429e+000	-3.948769597958528e+001
1	 2.386343978204437e-001	 1.629285973508712e+000	-3.999199599097086e+001
1	 2.224352941677480e-001	 1.631576438508499e+000	-4.044023140007497e+001
1	 2.062683550637655e-001	 1.633699011651114e+000	-4.082856270335606e+001
1	 1.901358924955494e-001	 1.635655032088957e+000	-4.115323299511509e+001
1	 1.740401762040591e-001	 1.637445875147284e+000	-4.141057139244230e+001
1	 1.579834331706782e-001	 1.639072950971772e+000	-4.159699625111781e+001
1	 3.213243070531469e-001	 1.621810978991523e+000	-3.692176254145299e+001
1	 3.049344058642744e-001	 1.624972378453958e+000	-3.761859872670726e+001
1	 2.885645777158782e-001	 1.627959075499541e+000	-3.827496817199216e+001
1	 2.722173466974478e-001	 1.630772212872715e+000	-3.888669509693411e+001
1	 2.558951977511724e-001	 1.633412976360454e+000	-3.944967162785049e+001
1	 2.396005759245694e-001	 1.635882593462065e+000	-3.995986211956476e+001
1	 2.233358856700902e-001	 1.638182332050043e+000	-4.041330726971526e+001
1	 2.071034901914634e-001	 1.640313499023730e+000	-4.080612802344029e+001
1	 1.909057108364629e-001	 1.642277438957469e+000	-4.113452926681974e+001
1	 1.747448265357242e-001	 1.644075532744909e+000	-4.139480330800130e+001
1	 1.586230732871825e-001	 1.645709196241107e+000	-4.158333314541495e+001
1	 3.226200322755714e-001	 1.628350855818469e+000	-3.684906521528042e+001
1	 3.061640395777312e-001	 1.631525003476234e+000	-3.755396532866729e+001
1	 2.897282008639557e-001	 1.634523744237826e+000	-3.821788011112615e+001
1	 2.733150504020046e-001	 1.637348225455756e+000	-3.883659393649658e+001
1	 2.569270831544775e-001	 1.639999637698632e+000	-3.940596021992666e+001
1	 2.405667540284290e-001	 1.642479213415595e+000	-3.992190580291201e+001
1	 2.242364771721496e-001	 1.644788225591782e+000	-4.038043512717125e+001
1	 2.079386253188743e-001	 1.646927986396549e+000	-4.077763419521201e+001
1	 1.916755291771006e-001	 1.648899845826174e+000	-4.110967431596686e+001
1	 1.754494768671429e-001	 1.650705190342700e+000	-4.137281563441138e+001
1	 1.592627134034907e-001	 1.652345441510555e+000	-4.156341044459261e+001
1	 3.239157574978582e-001	 1.634890732645615e+000	-3.677123793221908e+001
1	 3.073936732910061e-001	 1.638077628498721e+000	-3.748406973167911e+001
1	 2.908918240118034e-001	 1.641088412976345e+000	-3.815539049608851e+001
1	 2.744127541062840e-001	 1.643924238039060e+000	-3.878094913549786e+001
1	 2.579589685574620e-001	 1.646586299037103e+000	-3.935656479024095e+001
1	 2.415329321319333e-001	 1.649075833369447e+000	-3.987813127098986e+001
1	 2.251370686738320e-001	 1.651394119133861e+000	-4.034162128411975e+001
1	 2.087737604459027e-001	 1.653542473769713e+000	-4.074309044021610e+001
1	 1.924453475173707e-001	 1.655522252695209e+000	-4.107868104411307e+001
1	 1.761541271982328e-001	 1.657334847940780e+000	-4.134462566538176e+001
1	 1.599023535195375e-001	 1.658981686780223e+000	-4.153725048870650e+001
1	 1.535059523551476e-001	 1.592619234080585e+000	-4.151541456895843e+001
1	 1.379419454236043e-001	 1.594042674868919e+000	-4.161851589401344e+001
1	 1.224200535966850e-001	 1.595309780082036e+000	-4.165281044530187e+001
1	 1.069423457192570e-001	 1.596422014541718e+000	-4.161660427369463e+001
1	 9.151084653197959e-002	 1.597380871690691e+000	-4.150827623217756e+001
1	 7.612753639004517e-002	 1.598187872276344e+000	-4.132627789135549e+001
1	 6.079435102347421e-002	 1.598844563041398e+000	-4.106913336711190e+001
1	 4.551318133816635e-002	 1.599352515422813e+000	-4.073543906331997e+001
1	 3.028587325687572e-002	 1.599713324260166e+000	-4.032386333257103e+001
1	 1.511422759924549e-002	 1.599928606514677e+000	-3.983314605795212e+001
1	 0.000000000000000e+000	 1.600000000000000e+000	-3.926209815894828e+001
1	 1.541455924711945e-001	 1.599255479352131e+000	-4.154622562295304e+001
1	 1.385167322682697e-001	 1.600684851440509e+000	-4.165082738966000e+001
1	 1.229301626583410e-001	 1.601957236522953e+000	-4.168556573848446e+001
1	 1.073879611068879e-001	 1.603074105524943e+000	-4.164868021008969e+001
1	 9.189216079140575e-002	 1.604036958112175e+000	-4.153848590543450e+001
1	 7.644475031897427e-002	 1.604847321368774e+000	-4.135337344467283e+001
1	 6.104767348555383e-002	 1.605506748482524e+000	-4.109180883265353e+001
1	 4.570282907620749e-002	 1.606016817438340e+000	-4.075233323400973e+001
1	 3.041207070541374e-002	 1.606379129721276e+000	-4.033356266092078e+001
1	 1.517720669660126e-002	 1.606595309030202e+000	-3.983418757668733e+001
1	 0.000000000000000e+000	 1.606667000003317e+000	-3.925297241832821e+001
1	 1.547852325875027e-001	 1.605891724623038e+000	-4.157061010162110e+001
1	 1.390915191131006e-001	 1.607327028011525e+000	-4.167666993561410e+001
1	 1.234402717200479e-001	 1.608604692963362e+000	-4.171186516325042e+001
1	 1.078335764944499e-001	 1.609726196507734e+000	-4.167438578360412e+001
1	 9.227347505065067e-002	 1.610693044533295e+000	-4.156249953504847e+001
1	 7.676196424762999e-002	 1.611506770460910e+000	-4.137455188688949e+001
1	 6.130099594730060e-002	 1.612168933923417e+000	-4.110896593325660e+001
1	 4.589247681390136e-002	 1.612681119453689e+000	-4.076424219231942e+001
1	 3.053826815364729e-002	 1.613044935182250e+000	-4.033895831400148e+001
1	 1.524018579376439e-002	 1.613262011545619e+000	-3.983176869941899e+001
1	 0.000000000000000e+000	 1.613334000006534e+000	-3.924140403535479e+001
1	 1.554248727040072e-001	 1.612527969893416e+000	-4.158859305017437e+001
1	 1.396663059580556e-001	 1.613969204582053e+000	-4.169607289204161e+001
1	 1.239503807817931e-001	 1.615252149403328e+000	-4.173173888143569e+001
1	 1.082791918819602e-001	 1.616378287490125e+000	-4.169374824363341e+001
1	 9.265478930975965e-002	 1.617349130954059e+000	-4.158033754812971e+001
1	 7.707917817608065e-002	 1.618166219552732e+000	-4.138982272240546e+001
1	 6.155431840879776e-002	 1.618831119364033e+000	-4.112059896481751e+001
1	 4.608212455133484e-002	 1.619345421468792e+000	-4.077114055974062e+001
1	 3.066446560165248e-002	 1.619710740643001e+000	-4.034000059818666e+001
1	 1.530316489078306e-002	 1.619928714060829e+000	-3.982581060721151e+001
1	 0.000000000000000e+000	 1.620001000009550e+000	-3.922728009147424e+001
1	 1.560645128206423e-001	 1.619164215163372e+000	-4.160019910322622e+001
1	 1.402410928030933e-001	 1.620611381152179e+000	-4.170906513776995e+001
1	 1.244604898435637e-001	 1.621899605842912e+000	-4.174521656039631e+001
1	 1.087248072694361e-001	 1.623030378472153e+000	-4.170679439284090e+001
1	 9.303610356877803e-002	 1.624005217374477e+000	-4.159202003690108e+001
1	 7.739639210439463e-002	 1.624825668644220e+000	-4.139919529980217e+001
1	 6.180764087012852e-002	 1.625493304804328e+000	-4.112670231674714e+001
1	 4.627177228859470e-002	 1.626009723483584e+000	-4.077300337382441e+001
1	 3.079066304950546e-002	 1.626376546103448e+000	-4.033664063453765e+001
1	 1.536614398770540e-002	 1.626595416575738e+000	-3.981623577330455e+001
1	 0.000000000000000e+000	 1.626668000012268e+000	-3.921048951934783e+001
1	 1.567041529373427e-001	 1.625800460433011e+000	-4.160545249317446e+001
1	 1.408158796481724e-001	 1.627253557721992e+000	-4.171567508011432e+001
1	 1.249705989053471e-001	 1.628547062282178e+000	-4.175232738309957e+001
1	 1.091704226568947e-001	 1.629682469453853e+000	-4.171355059627283e+001
1	 9.341741782775104e-002	 1.630661303794554e+000	-4.159756676553345e+001
1	 7.771360603264023e-002	 1.631485117735354e+000	-4.140267881502464e+001
1	 6.206096333137607e-002	 1.632155490244256e+000	-4.112727047006167e+001
1	 4.646142002576775e-002	 1.632674025497995e+000	-4.076980607969324e+001
1	 3.091686049728231e-002	 1.633042351563504e+000	-4.032883034217785e+001
1	 1.542912308457960e-002	 1.633262119090249e+000	-3.980296793674374e+001
1	 0.000000000000000e+000	 1.633335000014584e+000	-3.919092306506885e+001
1	 1.573437930540432e-001	 1.632436705702442e+000	-4.160437705837463e+001
1	 1.413906664932514e-001	 1.633895734291576e+000	-4.171593066445889e+001
1	 1.254807079671305e-001	 1.635194518721186e+000	-4.175310005797044e+001
1	 1.096160380443534e-001	 1.636334560435261e+000	-4.171404279025584e+001
1	 9.379873208672410e-002	 1.637317390214300e+000	-4.159699717681304e+001
1	 7.803081996088587e-002	 1.638144566826117e+000	-4.140028231448211e+001
1	 6.231428579262363e-002	 1.638817675683773e+000	-4.112229799552096e+001
1	 4.665106776294084e-002	 1.639338327511960e+000	-4.076152452175337e+001
1	 3.104305794505919e-002	 1.639708157023086e+000	-4.031652242207161e+001
1	 1.549210218145381e-002	 1.639928821604267e+000	-3.978593207664881e+001
1	 0.000000000000000e+000	 1.640002000016400e+000	-3.916847325130340e+001
1	 1.579834331706782e-001	 1.639072950971772e+000	-4.159699625111781e+001
1	 1.419654533382891e-001	 1.640537910861019e+000	-4.170985938361005e+001
1	 1.259908170289011e-001	 1.641841975160000e+000	-4.174756282849774e+001
1	 1.100616534318293e-001	 1.642986651416412e+000	-4.170829649107385e+001
1	 9.418004634574248e-002	 1.643973476633723e+000	-4.159033039864744e+001
1	 7.834803388919989e-002	 1.644804015916488e+000	-4.139201469807570e+001
1	 6.256760825395444e-002	 1.645479861122833e+000	-4.111177955181129e+001
1	 4.684071550020075e-002	 1.646002629525412e+000	-4.074813493561447e+001
1	 3.116925539291220e-002	 1.646373962482108e+000	-4.029967034119496e+001
1	 1.555508127837619e-002	 1.646595524117697e+000	-3.976505438711112e+001
1	 0.000000000000000e+000	 1.646669000017617e+000	-3.914303434132475e+001
1	 1.586230732871825e-001	 1.645709196241107e+000	-4.158333314541495e+001
1	 1.425402401832440e-001	 1.647180087430407e+000	-4.169748828692113e+001
1	 1.265009260906462e-001	 1.648489431598683e+000	-4.173574348260838e+001
1	 1.105072688193396e-001	 1.649638742397343e+000	-4.169633680343927e+001
1	 9.456136060485151e-002	 1.650629563052830e+000	-4.157758525041503e+001
1	 7.866524781765064e-002	 1.651463465006448e+000	-4.137788472215345e+001
1	 6.282093071545165e-002	 1.652142046561392e+000	-4.109570988377371e+001
1	 4.703036323763429e-002	 1.652666931538284e+000	-4.072961394019941e+001
1	 3.129545284091747e-002	 1.653039767940489e+000	-4.027822831709408e+001
1	 1.561806037539490e-002	 1.653262226630441e+000	-3.974026225269733e+001
1	 0.000000000000000e+000	 1.653336000018133e+000	-3.911450230391969e+001
1	 1.592627134034907e-001	 1.652345441510555e+000	-4.156341044459261e+001
1	 1.431150270280749e-001	 1.653822263999829e+000	-4.167884398919637e+001
1	 1.270110351523531e-001	 1.655136888037296e+000	-4.171766936181542e+001
1	 1.109528842069016e-001	 1.656290833378089e+000	-4.167818842875563e+001
1	 9.494267486409647e-002	 1.657285649471628e+000	-4.155878024916083e+001
1	 7.898246174630642e-002	 1.658122914095977e+000	-4.135790100239149e+001
1	 6.307425317719857e-002	 1.658804231999406e+000	-4.107408382067203e+001
1	 4.722001097532829e-002	 1.659331233550508e+000	-4.070593853004927e+001
1	 3.142165028915112e-002	 1.659705573398140e+000	-4.025215130280894e+001
1	 1.568103947255809e-002	 1.659928929142404e+000	-3.971148422454251e+001
1	 0.000000000000000e+000	 1.660003000017850e+000	-3.908277477913845e+001
1	 1.599023535195375e-001	 1.658981686780223e+000	-4.153725048870650e+001
1	 1.436898138727403e-001	 1.660464440569369e+000	-4.165395267938427e+001
1	 1.275211442140091e-001	 1.661784344475902e+000	-4.169336737014820e+001
1	 1.113984995945325e-001	 1.662942924358685e+000	-4.165387567318616e+001
1	 9.532398912352270e-002	 1.663941735890127e+000	-4.153393361564202e+001
1	 7.929967567523567e-002	 1.664782363185058e+000	-4.133207201660891e+001
1	 6.332757563927832e-002	 1.665466417436829e+000	-4.104689627450646e+001
1	 4.740965871336957e-002	 1.665995535562018e+000	-4.067708606780939e+001
1	 3.154784773768926e-002	 1.666371378854980e+000	-4.022139497216612e+001
1	 1.574401856991394e-002	 1.666595631653491e+000	-3.967864999701754e+001
1	 0.000000000000000e+000	 1.666670000016666e+000	-3.904775104486888e+001
1	 1.666670000016666e+000	 0.000000000000000e+000	 1.720776600995014e+001
1	 1.666595631653491e+000	 1.574401856991399e-002	 1.654260679446579e+001
1	 1.666371378854980e+000	 3.154784773768937e-002	 1.587986123914190e+001
1	 1.665995535562018e+000	 4.740965871336945e-002	 1.522054852732269e+001
1	 1.665466417436829e+000	 6.332757563927825e-002	 1.456569706437997e+001
1	 1.664782363185057e+000	 7.929967567523566e-002	 1.391634362695543e+001
1	 1.663941735890127e+000	 9.532398912352275e-002	 1.327353247665040e+001
1	 1.662942924358684e+000	 1.113984995945326e-001	 1.263831443849160e+001
1	 1.661784344475902e+000	 1.275211442140089e-001	 1.201174594458488e+001
1	 1.660464440569369e+000	 1.436898138727402e-001	 1.139488804345772e+001
1	 1.658981686780223e+000	 1.599023535195375e-001	 1.078880537567964e+001
1	 1.673336000014533e+000	 0.000000000000000e+000	 1.696999190809103e+001
1	 1.673261334208274e+000	 1.580698822110226e-002	 1.631532543562422e+001
1	 1.673036184490139e+000	 3.167402625791183e-002	 1.566275929872449e+001
1	 1.672658837977462e+000	 4.759927800607734e-002	 1.501333892894910e+001
1	 1.672127603595793e+000	 6.358086010527679e-002	 1.436811825663765e+001
1	 1.671440813406267e+000	 7.961684202477344e-002	 1.372815880445020e+001
1	 1.670596823945298e+000	 9.570524618888120e-002	 1.309452874502722e+001
1	 1.669594017575405e+000	 1.118440481432776e-001	 1.246830192319449e+001
1	 1.668430803845940e+000	 1.280311767630718e-001	 1.185055684322158e+001
1	 1.667105620862422e+000	 1.442645145034966e-001	 1.124237562173774e+001
1	 1.665616936663168e+000	 1.605418976940590e-001	 1.064484290699825e+001
1	 1.680002000011600e+000	 0.000000000000000e+000	 1.672671562486679e+001
1	 1.679927036762280e+000	 1.586995787248314e-002	 1.608288319848710e+001
1	 1.679700990124582e+000	 3.180020477843872e-002	 1.544082947883673e+001
1	 1.679322140392283e+000	 4.778889729913242e-002	 1.480162628867608e+001
1	 1.678788789754250e+000	 6.383414457160808e-002	 1.416635333986371e+001
1	 1.678099263627101e+000	 7.993400837458459e-002	 1.353609727324502e+001
1	 1.677251912000235e+000	 9.608650325442089e-002	 1.291195066220885e+001
1	 1.676245110792035e+000	 1.122895966920916e-001	 1.229501098042042e+001
1	 1.675077263216021e+000	 1.285412093120837e-001	 1.168637953433118e+001
1	 1.673746801155640e+000	 1.448392151340876e-001	 1.108716036116158e+001
1	 1.672252186546373e+000	 1.611814418683190e-001	 1.049845909314856e+001
1	 1.686668000008066e+000	 0.000000000000000e+000	 1.647815479274107e+001
1	 1.686592739315701e+000	 1.593292752400844e-002	 1.584547120391959e+001
1	 1.686365795758486e+000	 3.192638329919390e-002	 1.521423770693017e+001
1	 1.685985442806634e+000	 4.797851659244783e-002	 1.458555265312248e+001
1	 1.685449975912325e+000	 6.408742903818895e-002	 1.396052178581675e+001
1	 1.684757713847654e+000	 8.025117472460075e-002	 1.334025722857956e+001
1	 1.683907000054997e+000	 9.646776032009649e-002	 1.272587643658773e+001
1	 1.682896204008598e+000	 1.127351452409572e-001	 1.211850111166402e+001
1	 1.681723722586136e+000	 1.290512418610573e-001	 1.151925608166971e+001
1	 1.680387981448981e+000	 1.454139157645546e-001	 1.092926814503491e+001
1	 1.678887436429775e+000	 1.618209860423830e-001	 1.034966488130932e+001
1	 1.693334000004133e+000	 0.000000000000000e+000	 1.622452361723593e+001
1	 1.693258441868734e+000	 1.599589717563005e-002	 1.560327756331010e+001
1	 1.693030601392032e+000	 3.205256182010128e-002	 1.498314729768733e+001
1	 1.692648745220673e+000	 4.816813588593683e-002	 1.436525783217778e+001
1	 1.692111162070147e+000	 6.434071350493616e-002	 1.375074118500034e+001
1	 1.691416164068019e+000	 8.056834107475357e-002	 1.314073531946820e+001
1	 1.690562088109642e+000	 9.684901738586264e-002	 1.253638304505298e+001
1	 1.689547297225114e+000	 1.131806937898572e-001	 1.193883088148382e+001
1	 1.688370181956273e+000	 1.295612744100055e-001	 1.134922788663964e+001
1	 1.687029161742404e+000	 1.459886163949388e-001	 1.076872444909426e+001
1	 1.685522686313308e+000	 1.624605302163164e-001	 1.019847104628070e+001
1	 1.700000000000000e+000	 0.000000000000000e+000	 1.596603294412012e+001
1	 1.699924144421573e+000	 1.605886682729980e-002	 1.535648743757392e+001
1	 1.699695407025399e+000	 3.217874034108477e-002	 1.474771900424785e+001
1	 1.699312047634556e+000	 4.835775517951264e-002	 1.414087944285468e+001
1	 1.698772348227841e+000	 6.459399797176661e-002	 1.353712728354648e+001
1	 1.698074614288291e+000	 8.088550742497475e-002	 1.293762667901508e+001
1	 1.697217176164229e+000	 9.723027445167416e-002	 1.234354625713513e+001
1	 1.696198390441607e+000	 1.136262423387745e-001	 1.175605793587181e+001
1	 1.695016641326421e+000	 1.300713069589410e-001	 1.117633570127549e+001
1	 1.693670342035869e+000	 1.465633170252817e-001	 1.060555434949732e+001
1	 1.692157936196906e+000	 1.631000743901843e-001	 1.004488819386370e+001
1	 1.706665999995867e+000	 0.000000000000000e+000	 1.570289032502267e+001
1	 1.706589846974411e+000	 1.612183647896955e-002	 1.510528309477391e+001
1	 1.706360212658765e+000	 3.230491886206825e-002	 1.450811106823348e+001
1	 1.705975350048439e+000	 4.854737447308842e-002	 1.391255295211479e+001
1	 1.705433534385535e+000	 6.484728243859705e-002	 1.331979401923510e+001
1	 1.704733064508563e+000	 8.120267377519590e-002	 1.273102495401896e+001
1	 1.703872264218816e+000	 9.761153151748565e-002	 1.214744065858523e+001
1	 1.702849483658101e+000	 1.140717908876918e-001	 1.157023902019219e+001
1	 1.701663100696569e+000	 1.305813395078764e-001	 1.100061964092600e+001
1	 1.700311522329333e+000	 1.471380176556246e-001	 1.043978253062691e+001
1	 1.698793186080504e+000	 1.637396185640524e-001	 9.888926764160638e+000
1	 1.713331999991934e+000	 0.000000000000000e+000	 1.543530008151491e+001
1	 1.713255549527444e+000	 1.618480613059116e-002	 1.484984396639618e+001
1	 1.713025018292311e+000	 3.243109738297564e-002	 1.426447926860558e+001
1	 1.712638652462478e+000	 4.873699376657743e-002	 1.368041171869441e+001
1	 1.712094720543356e+000	 6.510056690534430e-002	 1.309885355667231e+001
1	 1.711391514728927e+000	 8.151984012534873e-002	 1.252102233388695e+001
1	 1.710527352273460e+000	 9.799278858325182e-002	 1.194813967440304e+001
1	 1.709500576874617e+000	 1.145173394365918e-001	 1.138142999670192e+001
1	 1.708309560066707e+000	 1.310913720568246e-001	 1.082211919663940e+001
1	 1.706952702622756e+000	 1.477127182860088e-001	 1.027143329271190e+001
1	 1.705428435964036e+000	 1.643791627379857e-001	 9.730597034798688e+000
1	 1.719997999988401e+000	 0.000000000000000e+000	 1.516346336770235e+001
1	 1.719921252080866e+000	 1.624777578211647e-002	 1.459034670231705e+001
1	 1.719689823926216e+000	 3.255727590373082e-002	 1.401697696938614e+001
1	 1.719301954876829e+000	 4.892661305989284e-002	 1.344458703395731e+001
1	 1.718755906701431e+000	 6.535385137192518e-002	 1.287441632165106e+001
1	 1.718049964949481e+000	 8.183700647536488e-002	 1.230770957887546e+001
1	 1.717182440328223e+000	 9.837404564892741e-002	 1.174571559133023e+001
1	 1.716151670091179e+000	 1.149628879854574e-001	 1.118968586166344e+001
1	 1.714956019436821e+000	 1.316014046057983e-001	 1.064087324726141e+001
1	 1.713593882916098e+000	 1.482874189164758e-001	 1.010053055927161e+001
1	 1.712063685847439e+000	 1.650187069120498e-001	 9.569909124078180e+000
1	 1.726663999985468e+000	 0.000000000000000e+000	 1.488757823136671e+001
1	 1.726586954634872e+000	 1.631074543349734e-002	 1.432696522449673e+001
1	 1.726354629560658e+000	 3.268345442425769e-002	 1.376575516627416e+001
1	 1.725965257291649e+000	 4.911623235294792e-002	 1.320520816180169e+001
1	 1.725417092859888e+000	 6.560713583825646e-002	 1.264659103471570e+001
1	 1.724708415170315e+000	 8.215417282517601e-002	 1.209117604767750e+001
1	 1.723837528383160e+000	 9.875530271446710e-002	 1.154023957982221e+001
1	 1.722802763307809e+000	 1.154084365342713e-001	 1.099506076206085e+001
1	 1.721602478806902e+000	 1.321114371548102e-001	 1.045692007125236e+001
1	 1.720235063209315e+000	 1.488621195470668e-001	 9.927097884387337e+000
1	 1.718698935730645e+000	 1.656582510863099e-001	 9.406872994047976e+000
1	 1.733329999983334e+000	 0.000000000000000e+000	 1.460783967369707e+001
1	 1.733252657189655e+000	 1.637371508468560e-002	 1.405987077943455e+001
1	 1.733019435195817e+000	 3.280963294448016e-002	 1.351096253218544e+001
1	 1.732628559707093e+000	 4.930585164565578e-002	 1.296240237764621e+001
1	 1.732078279018852e+000	 6.586042030425496e-002	 1.241548474395202e+001
1	 1.731366865391524e+000	 8.247133917471382e-002	 1.187150972437314e+001
1	 1.730492616438330e+000	 9.913655977982551e-002	 1.133178171551325e+001
1	 1.729453856524530e+000	 1.158539850830164e-001	 1.079760801193099e+001
1	 1.728248938176940e+000	 1.326214697038731e-001	 1.027029735823229e+001
1	 1.726876243502368e+000	 1.494368201778232e-001	 9.751158459806341e+000
1	 1.725334185613589e+000	 1.662977952608313e-001	 9.241498453510362e+000
1	 1.658981686780223e+000	 1.599023535195375e-001	 1.078880537567964e+001
1	 1.657334847940780e+000	 1.761541271982330e-001	 1.019023108298899e+001
1	 1.655522252695209e+000	 1.924453475173706e-001	 9.595803234894554e+000
1	 1.653542473769712e+000	 2.087737604459026e-001	 9.006699935128751e+000
1	 1.651394119133861e+000	 2.251370686738319e-001	 8.424076157233481e+000
1	 1.649075833369447e+000	 2.415329321319333e-001	 7.849061704189324e+000
1	 1.646586299037103e+000	 2.579589685574621e-001	 7.282759156632899e+000
1	 1.643924238039060e+000	 2.744127541062840e-001	 6.726241813175546e+000
1	 1.641088412976345e+000	 2.908918240118035e-001	 6.180551626466198e+000
1	 1.638077628498721e+000	 3.073936732910060e-001	 5.646697138762783e+000
1	 1.634890732645614e+000	 3.239157574978582e-001	 5.125651420893298e+000
1	 1.665616936663168e+000	 1.605418976940590e-001	 1.064484290699825e+001
1	 1.663963511140317e+000	 1.768586718366747e-001	 1.005457386779067e+001
1	 1.662143666253301e+000	 1.932150503902340e-001	 9.468087332484938e+000
1	 1.660155969019819e+000	 2.096087703084788e-001	 8.886574143966289e+000
1	 1.657999021841892e+000	 2.260375250931031e-001	 8.311201024962461e+000
1	 1.655671463880202e+000	 2.424989653155540e-001	 7.743108493277629e+000
1	 1.653171972426168e+000	 2.589906991850011e-001	 7.183408766262766e+000
1	 1.650499264270160e+000	 2.755102931629164e-001	 6.633183658142824e+000
1	 1.647652097064122e+000	 2.920552726246376e-001	 6.093482473951698e+000
1	 1.644629270676909e+000	 3.086231225682336e-001	 5.565319903950029e+000
1	 1.641429628540587e+000	 3.252112883709185e-001	 5.049673922516316e+000
1	 1.672252186546373e+000	 1.611814418683190e-001	 1.049845909314856e+001
1	 1.670592174340183e+000	 1.775632164747879e-001	 9.916775081577747e+000
1	 1.668765079811762e+000	 1.939847532627299e-001	 9.338508448084655e+000
1	 1.666769464270311e+000	 2.104437801706726e-001	 8.764861326555240e+000
1	 1.664603924550310e+000	 2.269379815119976e-001	 8.197010796054229e+000
1	 1.662267094391329e+000	 2.434649984988196e-001	 7.636106754954088e+000
1	 1.659757645815585e+000	 2.600224298122194e-001	 7.083269784936939e+000
1	 1.657074290501588e+000	 2.766078322192714e-001	 6.539589008591441e+000
1	 1.654215781152202e+000	 2.932187212372420e-001	 6.006119944456319e+000
1	 1.651180912855386e+000	 3.098525718452793e-001	 5.483882363488464e+000
1	 1.647968524435843e+000	 3.265068192438411e-001	 4.973858151050851e+000
1	 1.678887436429775e+000	 1.618209860423830e-001	 1.034966488130932e+001
1	 1.677220837540294e+000	 1.782677611126548e-001	 9.776831762983068e+000
1	 1.675386493370501e+000	 1.947544561349501e-001	 9.207050537948406e+000
1	 1.673382959521094e+000	 2.112787900325795e-001	 8.641533198230814e+000
1	 1.671208827259018e+000	 2.278384379306091e-001	 8.081465801183853e+000
1	 1.668862724902740e+000	 2.444310316818189e-001	 7.528006305779262e+000
1	 1.666343319205270e+000	 2.610541604391978e-001	 6.982282399397060e+000
1	 1.663649316733267e+000	 2.777053712754186e-001	 6.445389318929160e+000
1	 1.660779465240521e+000	 2.943821698496740e-001	 5.918387670144989e+000
1	 1.657732555034092e+000	 3.110820211221886e-001	 5.402301249392003e+000
1	 1.654507420331330e+000	 3.278023501166605e-001	 4.898114871823673e+000
1	 1.685522686313308e+000	 1.624605302163164e-001	 1.019847104628070e+001
1	 1.683849500740571e+000	 1.789723057503575e-001	 9.634740997270660e+000
1	 1.682007906929424e+000	 1.955241590069866e-001	 9.073697810962743e+000
1	 1.679996454772071e+000	 2.121137998942951e-001	 8.516561919710997e+000
1	 1.677813729967922e+000	 2.287388943490322e-001	 7.964526995676808e+000
1	 1.675458355414341e+000	 2.453970648646408e-001	 7.418757752524374e+000
1	 1.672928992595139e+000	 2.620858910660156e-001	 6.880387738230939e+000
1	 1.670224342965123e+000	 2.788029103314271e-001	 6.350517122913063e+000
1	 1.667343149329012e+000	 2.955456184619912e-001	 5.830210485704558e+000
1	 1.664284197212972e+000	 3.123114703990072e-001	 5.320494604849349e+000
1	 1.661046316227001e+000	 3.290978809894109e-001	 4.822356255290518e+000
1	 1.692157936196906e+000	 1.631000743901843e-001	 1.004488819386370e+001
1	 1.690478163940929e+000	 1.796768503879781e-001	 9.490499915421477e+000
1	 1.688629320488439e+000	 1.962938618789311e-001	 8.938434723693183e+000
1	 1.686609950023146e+000	 2.129488097559151e-001	 8.389920088364471e+000
1	 1.684418632676925e+000	 2.296393507673610e-001	 7.846155947262676e+000
1	 1.682053985926044e+000	 2.463630980473739e-001	 7.308312476678414e+000
1	 1.679514665985109e+000	 2.631176216927534e-001	 6.777527853406622e+000
1	 1.676799369197082e+000	 2.799004493873660e-001	 6.254906012487760e+000
1	 1.673906833417610e+000	 2.967090670742509e-001	 5.741514404767195e+000
1	 1.670835839391969e+000	 3.135409196757802e-001	 5.238381758517171e+000
1	 1.667585212122803e+000	 3.303934118621271e-001	 4.746495849487384e+000
1	 1.698793186080504e+000	 1.637396185640524e-001	 9.888926764160638e+000
1	 1.697106827141288e+000	 1.803813950255987e-001	 9.344105693240653e+000
1	 1.695250734047455e+000	 1.970635647508755e-001	 8.801245975546983e+000
1	 1.693223445274223e+000	 2.137838196175351e-001	 8.261580729683130e+000
1	 1.691023535385935e+000	 2.305398071856900e-001	 7.726314824114918e+000
1	 1.688649616437755e+000	 2.473291312301070e-001	 7.196622619318540e+000
1	 1.686100339375097e+000	 2.641493523194912e-001	 6.673645702239498e+000
1	 1.683374395429068e+000	 2.809979884433050e-001	 6.158490617120107e+000
1	 1.680470517506249e+000	 2.978725156865105e-001	 5.652226596886424e+000
1	 1.677387481571024e+000	 3.147703689525531e-001	 5.155883299416018e+000
1	 1.674124108018686e+000	 3.316889427348433e-001	 4.670448553127259e+000
1	 1.705428435964036e+000	 1.643791627379857e-001	 9.730597034798688e+000
1	 1.703735490341565e+000	 1.810859396633014e-001	 9.195555550485306e+000
1	 1.701872147606379e+000	 1.978332676229120e-001	 8.662116504049365e+000
1	 1.699836940525207e+000	 2.146188294792508e-001	 8.131517288953498e+000
1	 1.697628438094854e+000	 2.314402636041131e-001	 7.604966383170433e+000
1	 1.695245246949386e+000	 2.482951644129290e-001	 7.083641066333367e+000
1	 1.692686012765018e+000	 2.651810829463092e-001	 6.568685129780119e+000
1	 1.689949421661007e+000	 2.820955274993134e-001	 6.061206583615443e+000
1	 1.687034201594864e+000	 2.990359642988277e-001	 5.562275365050690e+000
1	 1.683939123750080e+000	 3.159998182293716e-001	 5.072921052411871e+000
1	 1.680663003914598e+000	 3.329844736075937e-001	 4.594130589325066e+000
1	 1.712063685847439e+000	 1.650187069120498e-001	 9.569909124078180e+000
1	 1.710364153541677e+000	 1.817904843011683e-001	 9.044846750013173e+000
1	 1.708493561165121e+000	 1.986029704951322e-001	 8.521031480228979e+000
1	 1.706450435776001e+000	 2.154538393411577e-001	 7.999703623122325e+000
1	 1.704233340803587e+000	 2.323407200227247e-001	 7.482073958720462e+000
1	 1.701840877460846e+000	 2.492611975959284e-001	 6.969321433990270e+000
1	 1.699271686154788e+000	 2.662128135732873e-001	 6.462590851612090e+000
1	 1.696524447892823e+000	 2.831930665554607e-001	 5.962990556404132e+000
1	 1.693597885683388e+000	 3.001994129112597e-001	 5.471590123719660e+000
1	 1.690490765929081e+000	 3.172292675062810e-001	 4.989418054268089e+000
1	 1.687201899810491e+000	 3.342800044804131e-001	 4.517459479933456e+000
1	 1.718698935730645e+000	 1.656582510863099e-001	 9.406872994047976e+000
1	 1.716992816741543e+000	 1.824950289392815e-001	 8.891976596950244e+000
1	 1.715114974723587e+000	 1.993726733676280e-001	 8.377976304110712e+000
1	 1.713063931026507e+000	 2.162888492033513e-001	 7.866113992849813e+000
1	 1.710838243512040e+000	 2.332411764416190e-001	 7.357601451265774e+000
1	 1.708436507972044e+000	 2.502272307791940e-001	 6.853618054836664e+000
1	 1.705857359544326e+000	 2.672445442005058e-001	 6.355308437047569e+000
1	 1.703099474124443e+000	 2.842906056118157e-001	 5.863780158284038e+000
1	 1.700161569771757e+000	 3.013628615238641e-001	 5.380101377369338e+000
1	 1.697042408107968e+000	 3.184587167833267e-001	 4.905298530252161e+000
1	 1.693740795706314e+000	 3.355755353533357e-001	 4.440354020473146e+000
1	 1.725334185613589e+000	 1.662977952608313e-001	 9.241498453510362e+000
1	 1.723621479941080e+000	 1.831995735777232e-001	 8.736942437878286e+000
1	 1.721736388281684e+000	 2.001423762404914e-001	 8.232936600312327e+000
1	 1.719677426276633e+000	 2.171238590659275e-001	 7.730723054746977e+000
1	 1.717443146220116e+000	 2.341416328608902e-001	 7.231513316629201e+000
1	 1.715032138482888e+000	 2.511932639628145e-001	 6.736485963926782e+000
1	 1.712443032933547e+000	 2.682762748280447e-001	 6.246784292711397e+000
1	 1.709674500355791e+000	 2.853881446684482e-001	 5.763513971607651e+000
1	 1.706725253859903e+000	 3.025263101366982e-001	 5.287740699532414e+000
1	 1.703594050286686e+000	 3.196881660605542e-001	 4.820487871281745e+000
1	 1.700279691602013e+000	 3.368710662263961e-001	 4.362734255641625e+000
1	 1.634890732645614e+000	 3.239157574978582e-001	 5.125651420893298e+000
1	 1.631526100396023e+000	 3.404579752862290e-001	 4.617892347910098e+000
1	 1.627983136101961e+000	 3.570152242169341e-001	 4.123845246453572e+000
1	 1.624260826901171e+000	 3.735848413019251e-001	 3.644123559956142e+000
1	 1.620358208614037e+000	 3.901641274764114e-001	 3.179311063139955e+000
1	 1.616274367013765e+000	 4.067503485921295e-001	 2.729960622439069e+000
1	 1.612008439076500e+000	 4.233407364581182e-001	 2.296592978346006e+000
1	 1.607559614209450e+000	 4.399324899287324e-001	 1.879695552492496e+000
1	 1.602927135455114e+000	 4.565227760385444e-001	 1.479721282291550e+000
1	 1.598110300669677e+000	 4.731087311836948e-001	 1.097087485977893e+000
1	 1.593108463673670e+000	 4.896874623491745e-001	 7.321747608861254e-001
1	 1.641429628540587e+000	 3.252112883709185e-001	 5.049673922516316e+000
1	 1.638051539134735e+000	 3.418196682812129e-001	 4.547104866486047e+000
1	 1.634494404429018e+000	 3.584431394522586e-001	 4.058120920445536e+000
1	 1.630757207510138e+000	 3.750790282451421e-001	 3.583342010461942e+000
1	 1.626838980342146e+000	 3.917246247999180e-001	 3.123357811924705e+000
1	 1.622738805041713e+000	 4.083771840328471e-001	 2.678726488536644e+000
1	 1.618455815133233e+000	 4.250339266813353e-001	 2.249973453834238e+000
1	 1.613989196781871e+000	 4.416920403963000e-001	 1.837590158105566e+000
1	 1.609338190002595e+000	 4.583486808816095e-001	 1.442032903590271e+000
1	 1.604502089843302e+000	 4.750009730801597e-001	 1.063721690856487e+000
1	 1.599480247540058e+000	 4.916460124060639e-001	 7.030390992513070e-001
1	 1.647968524435843e+000	 3.265068192438411e-001	 4.973858151050851e+000
1	 1.644576977873742e+000	 3.431813612760960e-001	 4.476692735270283e+000
1	 1.641005672756396e+000	 3.598710546875106e-001	 3.992980125899388e+000
1	 1.637253588119463e+000	 3.765732151883082e-001	 3.523346410694045e+000
1	 1.633319752070662e+000	 3.932851221233866e-001	 3.068386858312500e+000
1	 1.629203243070121e+000	 4.100040194735312e-001	 2.628664636433915e+000
1	 1.624903191190486e+000	 4.267271169045155e-001	 2.204709553000205e+000
1	 1.620418779354871e+000	 4.434515908638193e-001	 1.797016823504902e+000
1	 1.615749244550718e+000	 4.601745857246073e-001	 1.406045867271229e+000
1	 1.610893879017623e+000	 4.768932149765299e-001	 1.032219135669362e+000
1	 1.605852031407194e+000	 4.936045624628233e-001	 6.759209752260005e-001
1	 1.654507420331330e+000	 3.278023501166605e-001	 4.898114871823672e+000
1	 1.651102416612997e+000	 3.445430542709037e-001	 4.406561318796088e+000
1	 1.647516941084049e+000	 3.612989699227090e-001	 3.928323020525644e+000
1	 1.643749968729099e+000	 3.780674021314358e-001	 3.464031907293698e+000
1	 1.639800523799534e+000	 3.948456194468263e-001	 3.014288535270415e+000
1	 1.635667681098937e+000	 4.116308549141900e-001	 2.579660784316644e+000
1	 1.631350567248200e+000	 4.284203071276679e-001	 2.160682579490144e+000
1	 1.626848361928386e+000	 4.452111413313026e-001	 1.757852639236360e+000
1	 1.622160299099407e+000	 4.620004905675545e-001	 1.371633253260244e+000
1	 1.617285668192562e+000	 4.787854568728293e-001	 1.002449093084614e+000
1	 1.612223815274991e+000	 4.955631125194851e-001	 6.506860583026125e-001
1	 1.661046316227001e+000	 3.290978809894109e-001	 4.822356255290518e+000
1	 1.657627855352454e+000	 3.459047472656610e-001	 4.336617471769101e+000
1	 1.654028209411931e+000	 3.627268851578712e-001	 3.864051334196396e+000
1	 1.650246349339003e+000	 3.795615890745382e-001	 3.405295297970107e+000
1	 1.646281295528715e+000	 3.964061167702468e-001	 2.960954902631949e+000
1	 1.642132119128106e+000	 4.132576903548320e-001	 2.531602449903383e+000
1	 1.637797943306315e+000	 4.301134973508023e-001	 2.117775705996584e+000
1	 1.633277944502351e+000	 4.469706917987621e-001	 1.719976631233420e+000
1	 1.628571353648595e+000	 4.638263954104682e-001	 1.338670140023748e+000
1	 1.623677457368042e+000	 4.806776987690811e-001	 9.742828942618950e-001
1	 1.618595599143369e+000	 4.975216625760818e-001	 6.272021332022418e-001
1	 1.667585212122803e+000	 3.303934118621271e-001	 4.746495849487384e+000
1	 1.664153294092064e+000	 3.472664402603927e-001	 4.266769509851245e+000
1	 1.660539477739998e+000	 3.641548003930156e-001	 3.800068338121486e+000
1	 1.656742729949124e+000	 3.810557760176273e-001	 3.347034999130039e+000
1	 1.652762067258152e+000	 3.979666140936578e-001	 2.908279713240205e+000
1	 1.648596557157575e+000	 4.148845257954658e-001	 2.484378915164171e+000
1	 1.644245319364772e+000	 4.318066875739274e-001	 2.075873937613979e+000
1	 1.639707527076701e+000	 4.487302422662094e-001	 1.683269722872253e+000
1	 1.634982408198208e+000	 4.656523002533648e-001	 1.307033565385790e+000
1	 1.630069246543986e+000	 4.825699406653090e-001	 9.475938884937905e-001
1	 1.624967383012244e+000	 4.994802126326459e-001	 6.053390584037498e-001
1	 1.674124108018686e+000	 3.316889427348433e-001	 4.670448553127259e+000
1	 1.670678732831782e+000	 3.486281332551248e-001	 4.196927181129286e+000
1	 1.667050746068203e+000	 3.655827156281600e-001	 3.736278814747446e+000
1	 1.663239110559418e+000	 3.825499629607166e-001	 3.289151014265590e+000
1	 1.659242838987799e+000	 3.995271114170690e-001	 2.856158379884800e+000
1	 1.655060995187289e+000	 4.165113612360995e-001	 2.437881191865894e+000
1	 1.650692695423513e+000	 4.334998777970525e-001	 2.034864076053217e+000
1	 1.646137109651372e+000	 4.504897927336566e-001	 1.647614697915983e+000
1	 1.641393462748176e+000	 4.674782050962614e-001	 1.276602488262988e+000
1	 1.636461035720316e+000	 4.844621825615372e-001	 9.222574037930654e-001
1	 1.631339166881533e+000	 5.014387626892100e-001	 5.849687256447409e-001
1	 1.680663003914598e+000	 3.329844736075937e-001	 4.594130589325067e+000
1	 1.677204171571562e+000	 3.499898262498820e-001	 4.127001638249380e+000
1	 1.673562014396502e+000	 3.670106308633223e-001	 3.672589028358773e+000
1	 1.669735491169838e+000	 3.840441499038187e-001	 3.231544903080202e+000
1	 1.665723610717605e+000	 4.010876087404895e-001	 2.804487943010054e+000
1	 1.661525433217197e+000	 4.181381966767416e-001	 2.392001987922042e+000
1	 1.657140071482478e+000	 4.351930680201866e-001	 1.994634684691444e+000
1	 1.652566692226297e+000	 4.522493432011159e-001	 1.612896164323892e+000
1	 1.647804517298428e+000	 4.693041099391749e-001	 1.247257751293013e+000
1	 1.642852824896957e+000	 4.863544244577892e-001	 8.981507083999804e-001
1	 1.637710950751154e+000	 5.033973127458068e-001	 5.659650203677807e-001
1	 1.687201899810491e+000	 3.342800044804131e-001	 4.517459479933456e+000
1	 1.683729610311356e+000	 3.513515192446896e-001	 4.056905411199653e+000
1	 1.680073282724848e+000	 3.684385460985206e-001	 3.608906696363118e+000
1	 1.676231871780339e+000	 3.855383368469466e-001	 3.174119751332495e+000
1	 1.672204382447522e+000	 4.026481060639292e-001	 2.753167039174875e+000
1	 1.667989871247243e+000	 4.197650321174004e-001	 2.346635674524802e+000
1	 1.663587447541608e+000	 4.368862582433393e-001	 1.955076054434557e+000
1	 1.658996274801414e+000	 4.540088936685994e-001	 1.579000518902342e+000
1	 1.654215571848892e+000	 4.711300147821222e-001	 1.218882044331864e+000
1	 1.649244614073828e+000	 4.882466663540884e-001	 8.751529731846354e-001
1	 1.644082734621023e+000	 5.053558628024685e-001	 5.482037830866343e-001
1	 1.693740795706314e+000	 3.355755353533357e-001	 4.440354020473146e+000
1	 1.690255049051116e+000	 3.527132122395728e-001	 3.986552380723233e+000
1	 1.686584551053196e+000	 3.698664613337728e-001	 3.545140961241375e+000
1	 1.682728252390872e+000	 3.870325237901126e-001	 3.116780141378669e+000
1	 1.678685154177500e+000	 4.042086033873977e-001	 2.702095870242395e+000
1	 1.674454309277374e+000	 4.213918675580843e-001	 2.301678254038725e+000
1	 1.670034823600847e+000	 4.385794484665195e-001	 1.916080170370640e+000
1	 1.665425857376654e+000	 4.557684441361188e-001	 1.545815912774447e+000
1	 1.660626626399497e+000	 4.729559196251200e-001	 1.191359868796763e+000
1	 1.655636403250854e+000	 4.901389082504588e-001	 8.531452349203481e-001
1	 1.650454518491058e+000	 5.073144128592279e-001	 5.315627716471425e-001
1	 1.700279691602013e+000	 3.368710662263961e-001	 4.362734255641624e+000
1	 1.696780487790798e+000	 3.540749052345567e-001	 3.915857752344687e+000
1	 1.693095819381501e+000	 3.712943765690969e-001	 3.481202363145250e+000
1	 1.689224633001393e+000	 3.885267107333296e-001	 3.059432123394624e+000
1	 1.685165925907488e+000	 4.057691007109044e-001	 2.651176173280990e+000
1	 1.680918747307537e+000	 4.230187029988018e-001	 2.257027328634927e+000
1	 1.676482199660132e+000	 4.402726386897363e-001	 1.877540679192560e+000
1	 1.671855439951955e+000	 4.575279946036862e-001	 1.513232217646438e+000
1	 1.667037680950171e+000	 4.747818244681850e-001	 1.164577502832028e+000
1	 1.662028192427957e+000	 4.920311501469236e-001	 8.320103604043463e-001
1	 1.656826302361175e+000	 5.092729629161171e-001	 5.159216243591215e-001
1	 1.593108463673670e+000	 4.896874623491745e-001	 7.321747608861254e-001
1	 1.587921034974506e+000	 5.062560481387889e-001	 3.870199285535767e-001
1	 1.582547481658774e+000	 5.228115393404682e-001	 6.401481691153521e-002
1	 1.576987329641599e+000	 5.393509609733571e-001	-2.359741015630683e-001
1	 1.571240165087962e+000	 5.558713139287027e-001	-5.121061912971558e-001
1	 1.565305635398965e+000	 5.723695764162470e-001	-7.635681912573483e-001
1	 1.559183450159039e+000	 5.888427054517342e-001	-9.895757408878251e-001
1	 1.552873382042270e+000	 6.052876383844026e-001	-1.189374891215511e+000
1	 1.546375267676036e+000	 6.217012944632478e-001	-1.362243597950988e+000
1	 1.539689008460209e+000	 6.380805764407584e-001	-1.507493193383251e+000
1	 1.532814571340203e+000	 6.544223722127311e-001	-1.624469833846101e+000
1	 1.599480247540058e+000	 4.916460124060639e-001	 7.030390992513070e-001
1	 1.594272071242548e+000	 5.082808657787366e-001	 3.620759460206656e-001
1	 1.588877025905930e+000	 5.249025721904650e-001	 4.328378743714330e-002
1	 1.583294635549190e+000	 5.415081447616857e-001	-2.524625015849675e-001
1	 1.577524484682149e+000	 5.580945723884372e-001	-5.243161219665679e-001
1	 1.571566219295666e+000	 5.746588211945348e-001	-7.714599461367138e-001
1	 1.565419547812639e+000	 5.911978360250292e-001	-9.931080991608536e-001
1	 1.559084241997952e+000	 6.077085419798073e-001	-1.188507522013534e+000
1	 1.552560137825569e+000	 6.241878459861199e-001	-1.356939513651590e+000
1	 1.545847136301012e+000	 6.406326384087306e-001	-1.497721248517408e+000
1	 1.538945204237500e+000	 6.570397946962920e-001	-1.610207266085437e+000
1	 1.605852031407194e+000	 4.936045624628233e-001	 6.759209752260005e-001
1	 1.600623107511378e+000	 5.103056834185110e-001	 3.392889388289541e-001
1	 1.595206570153903e+000	 5.269936050402385e-001	 2.482591594096639e-002
1	 1.589601941457623e+000	 5.436653285497373e-001	-2.665866724030581e-001
1	 1.583808804277191e+000	 5.603178308478363e-001	-5.340976522255356e-001
1	 1.577826803193227e+000	 5.769480659724274e-001	-7.768877462661292e-001
1	 1.571655645467094e+000	 5.935529665978695e-001	-9.941712062889773e-001
1	 1.565295101954475e+000	 6.101294455746986e-001	-1.185197424560075e+000
1	 1.558745007975918e+000	 6.266743975084232e-001	-1.349252520986672e+000
1	 1.552005264142597e+000	 6.431847003760839e-001	-1.485660902388854e+000
1	 1.545075837135533e+000	 6.596572171791894e-001	-1.593786790361674e+000
1	 1.612223815274991e+000	 4.955631125194851e-001	 6.506860583026125e-001
1	 1.606974143780907e+000	 5.123305010581556e-001	 3.185214809542993e-001
1	 1.601536114402605e+000	 5.290846378898453e-001	 8.501506456779598e-003
1	 1.595909247366803e+000	 5.458225123375806e-001	-2.784877326512932e-001
1	 1.590093123872993e+000	 5.625410893069841e-001	-5.415924549622985e-001
1	 1.584087387091552e+000	 5.792373107500243e-001	-7.799929298243002e-001
1	 1.577891743122305e+000	 5.959080971703684e-001	-9.929051568445761e-001
1	 1.571505961911738e+000	 6.125503491692055e-001	-1.179582521636336e+000
1	 1.564929878126983e+000	 6.291609490303003e-001	-1.339317424145952e+000
1	 1.558163391984861e+000	 6.457367623429725e-001	-1.471442875879937e+000
1	 1.551206470034202e+000	 6.622746396615893e-001	-1.575334062344217e+000
1	 1.618595599143369e+000	 4.975216625760818e-001	 6.272021332022418e-001
1	 1.613325180051048e+000	 5.143553186977137e-001	 2.996383103445653e-001
1	 1.607865658651945e+000	 5.311756707393406e-001	-5.826937265999792e-003
1	 1.602216553276638e+000	 5.479796961252855e-001	-2.883045788461592e-001
1	 1.596377443469460e+000	 5.647643477659644e-001	-5.469399722201189e-001
1	 1.590347970990539e+000	 5.815265555274233e-001	-7.809146094155240e-001
1	 1.584127840778174e+000	 5.982632277426403e-001	-9.894478394079745e-001
1	 1.577716821869641e+000	 6.149712527634555e-001	-1.171798564229482e+000
1	 1.571114748278663e+000	 6.316475005518931e-001	-1.327266904631915e+000
1	 1.564321519827708e+000	 6.482888243095517e-001	-1.455195831483358e+000
1	 1.557337102933408e+000	 6.648920621436569e-001	-1.554972759072035e+000
1	 1.624967383012244e+000	 4.994802126326459e-001	 6.053390584037498e-001
1	 1.619676216321714e+000	 5.163801363372280e-001	 2.825062864931848e-001
1	 1.614195202901830e+000	 5.332667035887803e-001	-1.829475488985127e-002
1	 1.608523859187033e+000	 5.501368799129206e-001	-2.961739289531937e-001
1	 1.602661763066491e+000	 5.669876062248608e-001	-5.502774589349401e-001
1	 1.596608554890094e+000	 5.838158003047238e-001	-7.797897157039631e-001
1	 1.590363938434600e+000	 6.006183583147985e-001	-9.839349798179198e-001
1	 1.583927681828086e+000	 6.173921563575771e-001	-1.161979174112599e+000
1	 1.577299618430859e+000	 6.341340520733437e-001	-1.313231562877031e+000
1	 1.570479647671034e+000	 6.508408862759760e-001	-1.437046413658816e+000
1	 1.563467735833050e+000	 6.675094846255592e-001	-1.532824617746408e+000
1	 1.631339166881533e+000	 5.014387626892100e-001	 5.849687256447409e-001
1	 1.626027252592817e+000	 5.184049539767426e-001	 2.669943490065956e-001
1	 1.620524747152169e+000	 5.353577364382198e-001	-2.903517160569134e-002
1	 1.614831165097894e+000	 5.522940637005561e-001	-3.022303649326939e-001
1	 1.608946082663995e+000	 5.692108646837572e-001	-5.517400256481633e-001
1	 1.602869138790118e+000	 5.861050450820242e-001	-7.767530400255304e-001
1	 1.596600036091486e+000	 6.029734888869563e-001	-9.765001834084146e-001
1	 1.590138541786973e+000	 6.198130599516991e-001	-1.150255885426899e+000
1	 1.583484488583469e+000	 6.366206035947941e-001	-1.297339958885587e+000
1	 1.576637775514741e+000	 6.533929482424004e-001	-1.417119288243763e+000
1	 1.569598368733029e+000	 6.701269071074611e-001	-1.509009473614721e+000
1	 1.637710950751154e+000	 5.033973127458068e-001	 5.659650203677807e-001
1	 1.632378288864269e+000	 5.204297716163004e-001	 2.529734771393736e-001
1	 1.626854291402873e+000	 5.374487692877151e-001	-3.817933926655182e-002
1	 1.621138471009127e+000	 5.544512474882608e-001	-3.066063742921011e-001
1	 1.615230402261874e+000	 5.714341231427373e-001	-5.514606802222550e-001
1	 1.609129722690512e+000	 5.883942898594232e-001	-7.719372760049457e-001
1	 1.602836133748732e+000	 6.053286194592281e-001	-9.672749762596846e-001
1	 1.596349401746202e+000	 6.222339635459491e-001	-1.136758185293045e+000
1	 1.589669358736397e+000	 6.391071551163871e-001	-1.279718651926861e+000
1	 1.582795903358730e+000	 6.559450102089796e-001	-1.395537180944224e+000
1	 1.575729001633243e+000	 6.727443295895290e-001	-1.483645296969697e+000
1	 1.644082734621023e+000	 5.053558628024685e-001	 5.482037830866343e-001
1	 1.638729325135984e+000	 5.224545892559449e-001	 2.403166502697858e-001
1	 1.633183835653848e+000	 5.395398021373219e-001	-4.585637656450748e-002
1	 1.627445776920638e+000	 5.566084312761040e-001	-3.094323906722347e-001
1	 1.621514721860030e+000	 5.736573816018852e-001	-5.495703685863980e-001
1	 1.615390306591181e+000	 5.906835346370200e-001	-7.654730602050356e-001
1	 1.609072231406240e+000	 6.076837500317271e-001	-9.563888454897687e-001
1	 1.602560261705674e+000	 6.246548671404556e-001	-1.121613553478239e+000
1	 1.595854228889540e+000	 6.415937066382640e-001	-1.260492239305209e+000
1	 1.588954031202899e+000	 6.584970721758683e-001	-1.372420914930554e+000
1	 1.581859634533595e+000	 6.753617520719287e-001	-1.456848229288454e+000
1	 1.650454518491058e+000	 5.073144128592279e-001	 5.315627716471425e-001
1	 1.645080361407874e+000	 5.244794068957194e-001	 2.288988092912944e-001
1	 1.639513379905004e+000	 5.416308349870956e-001	-5.219340827711884e-002
1	 1.633753082832332e+000	 5.587656150641555e-001	-3.108368334932736e-001
1	 1.627799041458369e+000	 5.758806400612844e-001	-5.461980145381532e-001
1	 1.621650890492024e+000	 5.929727794149128e-001	-7.574890118345228e-001
1	 1.615308329063910e+000	 6.100388806045675e-001	-9.439692786129152e-001
1	 1.608771121665290e+000	 6.270757707353474e-001	-1.104947501144388e+000
1	 1.602039099042800e+000	 6.440802581605672e-001	-1.239783394232166e+000
1	 1.595112159047149e+000	 6.610491341432214e-001	-1.347889447562319e+000
1	 1.587990267433982e+000	 6.779791745548263e-001	-1.428732618534318e+000
1	 1.656826302361175e+000	 5.092729629161171e-001	 5.159216243591215e-001
1	 1.651431397679850e+000	 5.265042245356668e-001	 2.185968188947458e-001
1	 1.645842924156249e+000	 5.437218678370922e-001	-5.731560360816216e-002
1	 1.640060388744116e+000	 5.609227988524841e-001	-3.109461466861178e-001
1	 1.634083361056793e+000	 5.781038985210186e-001	-5.414705586269528e-001
1	 1.627911474392944e+000	 5.952620241932002e-001	-7.481117715395008e-001
1	 1.621544426721645e+000	 6.123940111778623e-001	-9.301418019897686e-001
1	 1.614981981624948e+000	 6.294966743307519e-001	-1.086883608702261e+000
1	 1.608223969196076e+000	 6.465668096834393e-001	-1.217712902824613e+000
1	 1.601270286891380e+000	 6.636011961111936e-001	-1.322059906265755e+000
1	 1.594120900334306e+000	 6.805965970383868e-001	-1.399411053644143e+000
1	 1.532814571340203e+000	 6.544223722127311e-001	-1.624469833846100e+000
1	 1.525753063169474e+000	 6.707211147754112e-001	-1.729300022997742e+000
1	 1.518503568051552e+000	 6.869761235078752e-001	-1.838376780007280e+000
1	 1.511066254819426e+000	 7.031842541915490e-001	-1.951447256593660e+000
1	 1.503441360402968e+000	 7.193423546795729e-001	-2.068286485990897e+000
1	 1.495629190345228e+000	 7.354472666915337e-001	-2.188698150376848e+000
1	 1.487630119263421e+000	 7.514958276341680e-001	-2.312515306885638e+000
1	 1.479444591253303e+000	 7.674848724460874e-001	-2.439601070000034e+000
1	 1.471073120235707e+000	 7.834112354645308e-001	-2.569849248192377e+000
1	 1.462516290244094e+000	 7.992717523120667e-001	-2.703184932761171e+000
1	 1.453774755652043e+000	 8.150632618011136e-001	-2.839565036899033e+000
1	 1.538945204237500e+000	 6.570397946962920e-001	-1.610207266085438e+000
1	 1.531855452915456e+000	 6.734037255793064e-001	-1.710538276566023e+000
1	 1.524576962775183e+000	 6.897237477146424e-001	-1.815138961837642e+000
1	 1.517109903324919e+000	 7.059967043081323e-001	-1.923794016173449e+000
1	 1.509454512442138e+000	 7.222194306056111e-001	-2.036314651385768e+000
1	 1.501611096891923e+000	 7.383887556948313e-001	-2.152539290775189e+000
1	 1.493580032789782e+000	 7.545015043334429e-001	-2.272334223133363e+000
1	 1.485361766007659e+000	 7.705544988011007e-001	-2.395594214766065e+000
1	 1.476956812521841e+000	 7.865445607736817e-001	-2.522243077574452e+000
1	 1.468365758701666e+000	 8.024685132175328e-001	-2.652234191309449e+000
1	 1.459589261537921e+000	 8.183231823016085e-001	-2.785550978199681e+000
1	 1.545075837135533e+000	 6.596572171791894e-001	-1.593786790361675e+000
1	 1.537957842662119e+000	 6.760863363825016e-001	-1.689768068900896e+000
1	 1.530650357499435e+000	 6.924713719206811e-001	-1.790041680747979e+000
1	 1.523153551830967e+000	 7.088091544239664e-001	-1.894427440280227e+000
1	 1.515467664481798e+000	 7.250965065308890e-001	-2.002770277869209e+000
1	 1.507593003439040e+000	 7.413302446973648e-001	-2.114940863752628e+000
1	 1.499529946316507e+000	 7.575071810319587e-001	-2.230836193542923e+000
1	 1.491278940762324e+000	 7.736241251553686e-001	-2.350380133504720e+000
1	 1.482840504808239e+000	 7.896778860821095e-001	-2.473523923801829e+000
1	 1.474215227159471e+000	 8.056652741223067e-001	-2.600246637991152e+000
1	 1.465403767424016e+000	 8.215831028014514e-001	-2.730555597122276e+000
1	 1.551206470034202e+000	 6.622746396615893e-001	-1.575334062344217e+000
1	 1.544060232409364e+000	 6.787689471851713e-001	-1.667109429989085e+000
1	 1.536723752224209e+000	 6.952189961261734e-001	-1.763199229258553e+000
1	 1.529197200337471e+000	 7.116216045392396e-001	-1.863455999125774e+000
1	 1.521480816521845e+000	 7.279735824555974e-001	-1.967755955682717e+000
1	 1.513574909986478e+000	 7.442717336993273e-001	-2.075999549313060e+000
1	 1.505479859843488e+000	 7.605128577299092e-001	-2.188111985197568e+000
1	 1.497196115517190e+000	 7.766937515090843e-001	-2.304043705443662e+000
1	 1.488724197094792e+000	 7.928112113900053e-001	-2.423770831198259e+000
1	 1.480064695617395e+000	 8.088620350265763e-001	-2.547295563176215e+000
1	 1.471218273310213e+000	 8.248430233008258e-001	-2.674646539116692e+000
1	 1.557337102933408e+000	 6.648920621436569e-001	-1.554972759072035e+000
1	 1.550162622157093e+000	 6.814515579874914e-001	-1.642680499771422e+000
1	 1.542797146949404e+000	 6.979666203313018e-001	-1.734724100188399e+000
1	 1.535240848844329e+000	 7.144340546541393e-001	-1.830986454901296e+000
1	 1.527493968562179e+000	 7.308506583799278e-001	-1.931372659635830e+000
1	 1.519556816534137e+000	 7.472132227009128e-001	-2.035810505093739e+000
1	 1.511429773370626e+000	 7.635185344274887e-001	-2.144250935921281e+000
1	 1.503113290272153e+000	 7.797633778624412e-001	-2.256668473264059e+000
1	 1.494607889381393e+000	 7.959445366975606e-001	-2.373061599419870e+000
1	 1.485914164075328e+000	 8.120587959305301e-001	-2.493453103171298e+000
1	 1.477032779196395e+000	 8.281029437999159e-001	-2.617890384456967e+000
1	 1.563467735833050e+000	 6.675094846255592e-001	-1.532824617746408e+000
1	 1.556265011905203e+000	 6.841341687896364e-001	-1.616597565198821e+000
1	 1.548870541674919e+000	 7.007142445362485e-001	-1.704727021940153e+000
1	 1.541284497351443e+000	 7.172465047688535e-001	-1.797123895264754e+000
1	 1.533507120602699e+000	 7.337277343040723e-001	-1.893719780778208e+000
1	 1.525538723081911e+000	 7.501547117023149e-001	-1.994467396212624e+000
1	 1.517379686897813e+000	 7.665242111248920e-001	-2.099340982300765e+000
1	 1.509030465027107e+000	 7.828330042156327e-001	-2.208336669304808e+000
1	 1.500491581667931e+000	 7.990778620049666e-001	-2.321472807858179e+000
1	 1.491763632533159e+000	 8.152555568343560e-001	-2.438790262846283e+000
1	 1.482847285082444e+000	 8.313628642989046e-001	-2.560352669124951e+000
1	 1.569598368733029e+000	 6.701269071074611e-001	-1.509009473614721e+000
1	 1.562367401653596e+000	 6.868167795917815e-001	-1.588975096419908e+000
1	 1.554943936400655e+000	 7.034618687411961e-001	-1.673316992957752e+000
1	 1.547328145858710e+000	 7.200589548835701e-001	-1.761971766043297e+000
1	 1.539520272643303e+000	 7.366048102282217e-001	-1.854895157329256e+000
1	 1.531520629629700e+000	 7.530962007037272e-001	-1.952062424416100e+000
1	 1.523329600424948e+000	 7.695298878223129e-001	-2.053468687050538e+000
1	 1.514947639781945e+000	 7.859026305688526e-001	-2.159129241152574e+000
1	 1.506375273954299e+000	 8.022111873124145e-001	-2.269079839470871e+000
1	 1.497613100990774e+000	 8.184523177382413e-001	-2.383376937730345e+000
1	 1.488661790968246e+000	 8.346227847979755e-001	-2.502097905204588e+000
1	 1.575729001633243e+000	 6.727443295895290e-001	-1.483645296969697e+000
1	 1.568469791402172e+000	 6.894993903941017e-001	-1.559925782123918e+000
1	 1.561017331126513e+000	 7.062094929463263e-001	-1.640601315380005e+000
1	 1.553371794366031e+000	 7.228714049984765e-001	-1.725631903172346e+000
1	 1.545533424683890e+000	 7.394818861525678e-001	-1.814995104885933e+000
1	 1.537502536177404e+000	 7.560376897053434e-001	-1.908686356546619e+000
1	 1.529279513951928e+000	 7.725355645199454e-001	-2.006719265739402e+000
1	 1.520864814536564e+000	 7.889722569222935e-001	-2.109125876634512e+000
1	 1.512258966240389e+000	 8.053445126200955e-001	-2.215956904056463e+000
1	 1.503462569448062e+000	 8.216490786423748e-001	-2.327281935592399e+000
1	 1.494476296853683e+000	 8.378827052973118e-001	-2.443189600800181e+000
1	 1.581859634533595e+000	 6.753617520719287e-001	-1.456848229288454e+000
1	 1.574572181150829e+000	 6.921820011967721e-001	-1.529560564061637e+000
1	 1.567090725852390e+000	 7.089571171518222e-001	-1.606685627911397e+000
1	 1.559415442873305e+000	 7.256838551137604e-001	-1.688204563891954e+000
1	 1.551546576724361e+000	 7.423589620773023e-001	-1.774114445927994e+000
1	 1.543484442724917e+000	 7.589791787073568e-001	-1.864428552348004e+000
1	 1.535229427478648e+000	 7.755412412179844e-001	-1.959176612895238e+000
1	 1.526781989290855e+000	 7.920418832761493e-001	-2.058405028229804e+000
1	 1.518142658526092e+000	 8.084778379282009e-001	-2.162177060987700e+000
1	 1.509312037904910e+000	 8.248458395469440e-001	-2.270572997519637e+000
1	 1.500290802738639e+000	 8.411426257970976e-001	-2.383690279491435e+000
1	 1.587990267433982e+000	 6.779791745548263e-001	-1.428732618534317e+000
1	 1.580674570899469e+000	 6.948646119999676e-001	-1.497988670766807e+000
1	 1.573164120578188e+000	 7.117047413578652e-001	-1.571673937931611e+000
1	 1.565459091380432e+000	 7.284963052296100e-001	-1.649788457220596e+000
1	 1.557559728764613e+000	 7.452360380026165e-001	-1.732346538639761e+000
1	 1.549466349272140e+000	 7.619206677099614e-001	-1.819376991626944e+000
1	 1.541179341005006e+000	 7.785469179166236e-001	-1.910923327505318e+000
1	 1.532699164044716e+000	 7.951115096306138e-001	-2.007043936915707e+000
1	 1.524026350811299e+000	 8.116111632369228e-001	-2.107812241418402e+000
1	 1.515161506361208e+000	 8.280426004521366e-001	-2.213316818507825e+000
1	 1.506105308622997e+000	 8.444025462975161e-001	-2.323661499337866e+000
1	 1.594120900334306e+000	 6.805965970383868e-001	-1.399411053644142e+000
1	 1.586776960647991e+000	 6.975472228038634e-001	-1.465317650499373e+000
1	 1.579237515303806e+000	 7.144523655646381e-001	-1.535668652864107e+000
1	 1.571502739887311e+000	 7.313087553462129e-001	-1.610480773725664e+000
1	 1.563572880804545e+000	 7.481131139287018e-001	-1.689783305066956e+000
1	 1.555448255818969e+000	 7.648621567133505e-001	-1.773618300787594e+000
1	 1.547129254530897e+000	 7.815525946160573e-001	-1.862040737928050e+000
1	 1.538616338798039e+000	 7.981811359858799e-001	-1.955118655463429e+000
1	 1.529910043095903e+000	 8.147444885464511e-001	-2.052933269977766e+000
1	 1.521010974816841e+000	 8.312393613581415e-001	-2.155579067576432e+000
1	 1.511919814506641e+000	 8.476624667987508e-001	-2.263163871444682e+000
1	 1.453774755652043e+000	 8.150632618011136e-001	-2.839565036899033e+000
1	 1.444847888812251e+000	 8.307849605711887e-001	-2.983427094779959e+000
1	 1.435737784081395e+000	 8.464313247164139e-001	-3.139118272987180e+000
1	 1.426445309176177e+000	 8.619992137246938e-001	-3.306508104069540e+000
1	 1.416971402475017e+000	 8.774854980648936e-001	-3.485415158567666e+000
1	 1.407317072930754e+000	 8.928870611472519e-001	-3.675606833889078e+000
1	 1.397483399918780e+000	 9.082008012876665e-001	-3.876799228363896e+000
1	 1.387471533020204e+000	 9.234236336733949e-001	-4.088657101698373e+000
1	 1.377282691739777e+000	 9.385524923276887e-001	-4.310793922843945e+000
1	 1.366918165158378e+000	 9.535843320708535e-001	-4.542772006092608e+000
1	 1.356379311520008e+000	 9.685161304752106e-001	-4.784102735999772e+000
1	 1.459589261537921e+000	 8.183231823016085e-001	-2.785550978199682e+000
1	 1.450626690872958e+000	 8.341077614523109e-001	-2.926319003759944e+000
1	 1.441480149440036e+000	 8.498167046703964e-001	-3.078546589420653e+000
1	 1.432150508426388e+000	 8.654468588830088e-001	-3.242086816339357e+000
1	 1.422638709963577e+000	 8.809950820421709e-001	-3.416741881835395e+000
1	 1.412945767039864e+000	 8.964582450930405e-001	-3.602262923043694e+000
1	 1.403072763347715e+000	 9.118332339460495e-001	-3.798349926107818e+000
1	 1.393020853066112e+000	 9.271169514504697e-001	-4.004651722058933e+000
1	 1.382791260577346e+000	 9.423063193669026e-001	-4.220766070325163e+000
1	 1.372385280118109e+000	 9.573982803361828e-001	-4.446239830608823e+000
1	 1.361804275364840e+000	 9.723897998421610e-001	-4.680569223655929e+000
1	 1.465403767424016e+000	 8.215831028014514e-001	-2.730555597122276e+000
1	 1.456405492933886e+000	 8.374305623328302e-001	-2.868271892147036e+000
1	 1.447222514798917e+000	 8.532020846238327e-001	-3.017075957667017e+000
1	 1.437855707676866e+000	 8.688945040408381e-001	-3.176807080201533e+000
1	 1.428306017452446e+000	 8.845046660190273e-001	-3.347253817360016e+000
1	 1.418574461149325e+000	 9.000294290384739e-001	-3.528153852089484e+000
1	 1.408662126777046e+000	 9.154656666041431e-001	-3.719193932642583e+000
1	 1.398570173112460e+000	 9.308102692273191e-001	-3.920009899349412e+000
1	 1.388299829415390e+000	 9.460601464059500e-001	-4.130186799072503e+000
1	 1.377852395078342e+000	 9.612122286013992e-001	-4.349259088016397e+000
1	 1.367229239210188e+000	 9.762634692090429e-001	-4.576710923349856e+000
1	 1.471218273310213e+000	 8.248430233008258e-001	-2.674646539116691e+000
1	 1.462184294994912e+000	 8.407533632129244e-001	-2.809348109769676e+000
1	 1.452964880157909e+000	 8.565874645768929e-001	-2.954763982720517e+000
1	 1.443560906927481e+000	 8.723421491983462e-001	-3.110722273564718e+000
1	 1.433973324941484e+000	 8.880142499956196e-001	-3.277000600038027e+000
1	 1.424203155258993e+000	 9.036006129837008e-001	-3.453325962701491e+000
1	 1.414251490206624e+000	 9.190980992620879e-001	-3.639374711352203e+000
1	 1.404119493159094e+000	 9.345035870040727e-001	-3.834772598186062e+000
1	 1.393808398253756e+000	 9.498139734449510e-001	-4.039094918535604e+000
1	 1.383319510038922e+000	 9.650261768666124e-001	-4.251866739795720e+000
1	 1.372654203055902e+000	 9.801371385759574e-001	-4.472563218937361e+000
1	 1.477032779196395e+000	 8.281029437999159e-001	-2.617890384456967e+000
1	 1.467963097055914e+000	 8.440761640927719e-001	-2.749609024667601e+000
1	 1.458707245516883e+000	 8.599728445297498e-001	-2.891667362500961e+000
1	 1.449266106178097e+000	 8.757897943556976e-001	-3.043884933824571e+000
1	 1.439640632430548e+000	 8.915238339721038e-001	-3.206031083192006e+000
1	 1.429831849368722e+000	 9.071717969288694e-001	-3.377824866837504e+000
1	 1.419840853636299e+000	 9.227305319200212e-001	-3.558935041226304e+000
1	 1.409668813205860e+000	 9.381969047808599e-001	-3.748980138137493e+000
1	 1.399316967092287e+000	 9.535678004840261e-001	-3.947528627052814e+000
1	 1.388786624999699e+000	 9.688401251319329e-001	-4.154099165414783e+000
1	 1.378079166901831e+000	 9.840108079430039e-001	-4.368160937104276e+000
1	 1.482847285082444e+000	 8.313628642989046e-001	-2.560352669124951e+000
1	 1.473741899116773e+000	 8.473989649725507e-001	-2.689115042340601e+000
1	 1.464449610875713e+000	 8.633582244825743e-001	-2.827841905637579e+000
1	 1.454971305428580e+000	 8.792374395130571e-001	-2.976346774342788e+000
1	 1.445307939919501e+000	 8.950334179486370e-001	-3.134393353894204e+000
1	 1.435460543478365e+000	 9.107429808741275e-001	-3.301695461044806e+000
1	 1.425430217065921e+000	 9.263629645780832e-001	-3.477917030278371e+000
1	 1.415218133252607e+000	 9.418902225578115e-001	-3.662672206371537e+000
1	 1.404825535930833e+000	 9.573216275232955e-001	-3.855525523832688e+000
1	 1.394253739960518e+000	 9.726540733974712e-001	-4.055992173740418e+000
1	 1.383504130747827e+000	 9.878844773102833e-001	-4.263538358290155e+000
1	 1.488661790968246e+000	 8.346227847979755e-001	-2.502097905204589e+000
1	 1.479520701177364e+000	 8.507217658524385e-001	-2.627925624546339e+000
1	 1.470191976234270e+000	 8.667436044355391e-001	-2.763342548836278e+000
1	 1.460676504678797e+000	 8.826850846705892e-001	-2.908158700539970e+000
1	 1.450975247408202e+000	 8.985430019253763e-001	-3.062134747930823e+000
1	 1.441089237587779e+000	 9.143141648196237e-001	-3.224981940431498e+000
1	 1.431019580495339e+000	 9.299953972364131e-001	-3.396362128649365e+000
1	 1.420767453299181e+000	 9.455835403350569e-001	-3.575887870005568e+000
1	 1.410334104769236e+000	 9.610754545628794e-001	-3.763122620654464e+000
1	 1.399720854921226e+000	 9.764680216633375e-001	-3.957581014181530e+000
1	 1.388929094593738e+000	 9.917581466778956e-001	-4.158729227356301e+000
1	 1.494476296853683e+000	 8.378827052973118e-001	-2.443189600800182e+000
1	 1.485299503237567e+000	 8.540445667326138e-001	-2.566099307659204e+000
1	 1.475934341592428e+000	 8.701289843888155e-001	-2.698223373841597e+000
1	 1.466381703928612e+000	 8.861327298284578e-001	-2.839370825612640e+000
1	 1.456642554896511e+000	 9.020525859024777e-001	-2.989301864417074e+000
1	 1.446717931696817e+000	 9.178853487655067e-001	-3.147727812312206e+000
1	 1.436608943924405e+000	 9.336278298951505e-001	-3.314311141405542e+000
1	 1.426316773345427e+000	 9.492768581127260e-001	-3.488665588168454e+000
1	 1.415842673607342e+000	 9.648292816028974e-001	-3.670356353295595e+000
1	 1.405187969881668e+000	 9.802819699296413e-001	-3.858900387572484e+000
1	 1.394354058439414e+000	 9.956318160459410e-001	-4.053766764004095e+000
1	 1.500290802738639e+000	 8.411426257970976e-001	-2.383690279491435e+000
1	 1.491078305297259e+000	 8.573673676132541e-001	-2.503693720602387e+000
1	 1.481676706950058e+000	 8.735143643425752e-001	-2.632537624003951e+000
1	 1.472086903177893e+000	 8.895803749868285e-001	-2.770032485885073e+000
1	 1.462309862384287e+000	 9.055621698800983e-001	-2.915940580072316e+000
1	 1.452346625805334e+000	 9.214565327119234e-001	-3.069975909535750e+000
1	 1.442198307352966e+000	 9.372602625544341e-001	-3.231804241038708e+000
1	 1.431866093391196e+000	 9.529701758909489e-001	-3.401043223782200e+000
1	 1.421351242444999e+000	 9.685831086434706e-001	-3.577262592693362e+000
1	 1.410655084841691e+000	 9.840959181964941e-001	-3.759984456803395e+000
1	 1.399779022284706e+000	 9.995054854145197e-001	-3.948683672952033e+000
1	 1.506105308622997e+000	 8.444025462975161e-001	-2.323661499337866e+000
1	 1.496857107356318e+000	 8.606901684945385e-001	-2.440765602364493e+000
1	 1.487419072307031e+000	 8.768997442969899e-001	-2.566337720463336e+000
1	 1.477792102426505e+000	 8.930280201458656e-001	-2.700192255805281e+000
1	 1.467977169871392e+000	 9.090717538583950e-001	-2.842096063164630e+000
1	 1.457975319913183e+000	 9.250277166590232e-001	-2.991768403504592e+000
1	 1.447787670780874e+000	 9.408926952144032e-001	-3.148880979676909e+000
1	 1.437415413436331e+000	 9.566634936698549e-001	-3.313058055070627e+000
1	 1.426859811282049e+000	 9.723369356847182e-001	-3.483876655848136e+000
1	 1.416122199801143e+000	 9.879098664640057e-001	-3.660866857203959e+000
1	 1.405203986129465e+000	 1.003379154783733e+000	-3.843512153876008e+000
1	 1.511919814506641e+000	 8.476624667987508e-001	-2.263163871444682e+000
1	 1.502635909414624e+000	 8.640129693766441e-001	-2.377370819112095e+000
1	 1.493161437663220e+000	 8.802851242522312e-001	-2.499675277959454e+000
1	 1.483497301674313e+000	 8.964756653057330e-001	-2.629897962595102e+000
1	 1.473644477357683e+000	 9.125813378375239e-001	-2.767812787133418e+000
1	 1.463604014020220e+000	 9.285989006069539e-001	-2.913146816893753e+000
1	 1.453377034207980e+000	 9.445251278751972e-001	-3.065580301013336e+000
1	 1.442964733480680e+000	 9.603568114495741e-001	-3.224746786802460e+000
1	 1.432368380118340e+000	 9.760907627267612e-001	-3.390233316475059e+000
1	 1.421589314759868e+000	 9.917238147322857e-001	-3.561580706688040e+000
1	 1.410628949973539e+000	 1.007252824153679e+000	-3.738283911121090e+000
1	 1.356379311520008e+000	 9.685161304752106e-001	-4.784102735999772e+000
1	 1.345667557370631e+000	 9.833448894836275e-001	-5.035170836821613e+000
1	 1.334784395877035e+000	 9.980676363412555e-001	-5.296941505455107e+000
1	 1.323731387386189e+000	 1.012681426466225e+000	-5.569770957312817e+000
1	 1.312510159140009e+000	 1.027183345679557e+000	-5.854030977217743e+000
1	 1.301122404540689e+000	 1.041570512093714e+000	-6.150108115894704e+000
1	 1.289569882352404e+000	 1.055840077979967e+000	-6.458402848757948e+000
1	 1.277854415840096e+000	 1.069989231612100e+000	-6.779328698624333e+000
1	 1.265977891846146e+000	 1.084015199083979e+000	-7.113311324091037e+000
1	 1.253942259805881e+000	 1.097915246098555e+000	-7.460787575418227e+000
1	 1.241749530702945e+000	 1.111686679725904e+000	-7.822204519858449e+000
1	 1.361804275364840e+000	 9.723897998421610e-001	-4.680569223655929e+000
1	 1.351049678569120e+000	 9.872778678367018e-001	-4.924393491950661e+000
1	 1.340122988869792e+000	 1.002059499675142e+000	-5.178944921504903e+000
1	 1.329025772854573e+000	 1.016731738998476e+000	-5.444582884361762e+000
1	 1.317759664273673e+000	 1.031291659972187e+000	-5.721681277233704e+000
1	 1.306326363302200e+000	 1.045736369182350e+000	-6.010627706041139e+000
1	 1.294727635738664e+000	 1.060063007510474e+000	-6.311822634578185e+000
1	 1.282965312140314e+000	 1.074268751984574e+000	-6.625678498969671e+000
1	 1.271041286896127e+000	 1.088350817604013e+000	-6.952618789687183e+000
1	 1.258957517238369e+000	 1.102306459135656e+000	-7.293077102989983e+000
1	 1.246716022193793e+000	 1.116132972878948e+000	-7.647496163751467e+000
1	 1.367229239210188e+000	 9.762634692090429e-001	-4.576710923349856e+000
1	 1.356431799768122e+000	 9.912108461897435e-001	-4.813431082683121e+000
1	 1.345461581863046e+000	 1.006051363009023e+000	-5.060907226536217e+000
1	 1.334320158323423e+000	 1.020782051530740e+000	-5.319494773853008e+000
1	 1.323009169407765e+000	 1.035399974264841e+000	-5.589562437507247e+000
1	 1.311530322064093e+000	 1.049902226271017e+000	-5.871491408886117e+000
1	 1.299885389125255e+000	 1.064285937041014e+000	-6.165674508825234e+000
1	 1.288076208440811e+000	 1.078548272357080e+000	-6.472515306568203e+000
1	 1.276104681946334e+000	 1.092686436124073e+000	-6.792427208523264e+000
1	 1.263972774671036e+000	 1.106697672172779e+000	-7.125832518681123e+000
1	 1.251682513684775e+000	 1.120579266032010e+000	-7.473161472648132e+000
1	 1.372654203055902e+000	 9.801371385759574e-001	-4.472563218937359e+000
1	 1.361813920967494e+000	 9.951438245428429e-001	-4.702316825395991e+000
1	 1.350800174856662e+000	 1.010043226342979e+000	-4.942858097714272e+000
1	 1.339614543792616e+000	 1.024832364063088e+000	-5.194531473455410e+000
1	 1.328258674542174e+000	 1.039508288557581e+000	-5.457693268824251e+000
1	 1.316734280826272e+000	 1.054068083359768e+000	-5.732710875217999e+000
1	 1.305043142512094e+000	 1.068508866571631e+000	-6.019961924740769e+000
1	 1.293187104741517e+000	 1.082827792729652e+000	-6.319833426342715e+000
1	 1.281168076996712e+000	 1.097022054644190e+000	-6.632720874334723e+000
1	 1.268988032103835e+000	 1.111088885209946e+000	-6.959027331117170e+000
1	 1.256649005175858e+000	 1.125025559185105e+000	-7.299162486041583e+000
1	 1.378079166901831e+000	 9.840108079430039e-001	-4.368160937104276e+000
1	 1.367196042167092e+000	 9.990768028960905e-001	-4.591083413426288e+000
1	 1.356138767850504e+000	 1.014035089677089e+000	-4.824826744894827e+000
1	 1.344908929262028e+000	 1.028882676595589e+000	-5.069717439575523e+000
1	 1.333508179676787e+000	 1.043616602850469e+000	-5.326092285767950e+000
1	 1.321938239588635e+000	 1.058233940448654e+000	-5.594297572367291e+000
1	 1.310200895899095e+000	 1.072731796102369e+000	-5.874688281191096e+000
1	 1.298298001042361e+000	 1.087107313102328e+000	-6.167627252893861e+000
1	 1.286231472047204e+000	 1.101357673164391e+000	-6.473484328175587e+000
1	 1.274003289536723e+000	 1.115480098247180e+000	-6.792635466069466e+000
1	 1.261615496667008e+000	 1.129471852338250e+000	-7.125461841168484e+000
1	 1.383504130747827e+000	 9.878844773102833e-001	-4.263538358290153e+000
1	 1.372578163366772e+000	 1.003009781249576e+000	-4.479763027326196e+000
1	 1.361477360844436e+000	 1.018026953011434e+000	-4.706841919785873e+000
1	 1.350203314731536e+000	 1.032932989128315e+000	-4.945076745029004e+000
1	 1.338757684811494e+000	 1.047724917143565e+000	-5.194777712526418e+000
1	 1.327142198351086e+000	 1.062399797537729e+000	-5.456262787803324e+000
1	 1.315358649286176e+000	 1.076954725633270e+000	-5.729856923732709e+000
1	 1.303408897343274e+000	 1.091386833475143e+000	-6.015891268741923e+000
1	 1.291294867097751e+000	 1.105693291684706e+000	-6.314702353569259e+000
1	 1.279018546969656e+000	 1.119871311284503e+000	-6.626631258276372e+000
1	 1.266581988158192e+000	 1.133918145491462e+000	-6.952022761289868e+000
1	 1.388929094593738e+000	 9.917581466778956e-001	-4.158729227356301e+000
1	 1.377960284566391e+000	 1.006942759603390e+000	-4.368387344876825e+000
1	 1.366815953838327e+000	 1.022018816346095e+000	-4.588931924895206e+000
1	 1.355497700201014e+000	 1.036983301661337e+000	-4.820633086531438e+000
1	 1.344007189946183e+000	 1.051833231436931e+000	-5.063767488563535e+000
1	 1.332346157113527e+000	 1.066565654627043e+000	-5.318617632646868e+000
1	 1.320516402673251e+000	 1.081177655164380e+000	-5.585471145653527e+000
1	 1.308519793644184e+000	 1.095666353848132e+000	-5.864620042609744e+000
1	 1.296358262148298e+000	 1.110028910205162e+000	-6.156359971773640e+000
1	 1.284033804402589e+000	 1.124262524321937e+000	-6.460989443456400e+000
1	 1.271548479649375e+000	 1.138364438644758e+000	-6.778809044246531e+000
1	 1.394354058439414e+000	 9.956318160459410e-001	-4.053766764004095e+000
1	 1.383342405765805e+000	 1.010875737957623e+000	-4.256987550869193e+000
1	 1.372154546832039e+000	 1.026010679681152e+000	-4.471124622268602e+000
1	 1.360792085670339e+000	 1.041033614194725e+000	-4.696409792015285e+000
1	 1.349256695080741e+000	 1.055941545730628e+000	-4.933079274158065e+000
1	 1.337550115875858e+000	 1.070731511716650e+000	-5.181373045100560e+000
1	 1.325674156060236e+000	 1.085400584695741e+000	-5.441534188989842e+000
1	 1.313630689945021e+000	 1.099945874221332e+000	-5.713808227745902e+000
1	 1.301421657198787e+000	 1.114364528725790e+000	-5.998442437156044e+000
1	 1.289049061835477e+000	 1.128653737359504e+000	-6.295685150507972e+000
1	 1.276514971140525e+000	 1.142810731798155e+000	-6.605785051281426e+000
1	 1.399779022284706e+000	 9.995054854145197e-001	-3.948683672952033e+000
1	 1.388724526964869e+000	 1.014808716312365e+000	-4.145594346657139e+000
1	 1.377493139825438e+000	 1.030002543016684e+000	-4.353447442025138e+000
1	 1.366086471139387e+000	 1.045083926728551e+000	-4.572429827775427e+000
1	 1.354506200215058e+000	 1.060049860024718e+000	-4.802730455813434e+000
1	 1.342754074637983e+000	 1.074897368806602e+000	-5.044539793799922e+000
1	 1.330831909447048e+000	 1.089623514227398e+000	-5.298049245519154e+000
1	 1.318741586245716e+000	 1.104225394594779e+000	-5.563450560286501e+000
1	 1.306485052249162e+000	 1.118700147246616e+000	-5.840935232676178e+000
1	 1.294064319268276e+000	 1.133044950397226e+000	-6.130693893890252e+000
1	 1.281481462631608e+000	 1.147257024951669e+000	-6.432915696122135e+000
1	 1.405203986129465e+000	 1.003379154783733e+000	-3.843512153876008e+000
1	 1.394106648163441e+000	 1.018741694667706e+000	-4.034237959489189e+000
1	 1.382831732818390e+000	 1.033994406352774e+000	-4.235927390694825e+000
1	 1.371380856608035e+000	 1.049134239262883e+000	-4.448715805450576e+000
1	 1.359755705349022e+000	 1.064158174319261e+000	-4.672738151542607e+000
1	 1.347958033399803e+000	 1.079063225896950e+000	-4.908128481086201e+000
1	 1.335989662833601e+000	 1.093846443759394e+000	-5.155019457730640e+000
1	 1.323852482546198e+000	 1.108504914968508e+000	-5.413541857655445e+000
1	 1.311548447299365e+000	 1.123035765767670e+000	-5.683824065473512e+000
1	 1.299079576700941e+000	 1.137436163435127e+000	-5.965991566180749e+000
1	 1.286447954122590e+000	 1.151703318105316e+000	-6.260166434316115e+000
1	 1.410628949973539e+000	 1.007252824153679e+000	-3.738283911121091e+000
1	 1.399488769361377e+000	 1.022674673023736e+000	-3.922948151625024e+000
1	 1.388170325810758e+000	 1.037986269689500e+000	-4.118591059363522e+000
1	 1.376675242076157e+000	 1.053184551797793e+000	-4.325289988842294e+000
1	 1.365005210482521e+000	 1.068266488614319e+000	-4.543119216030663e+000
1	 1.353161992161219e+000	 1.083229082987748e+000	-4.772149546204271e+000
1	 1.341147416219812e+000	 1.098069373291773e+000	-5.012447919772496e+000
1	 1.328963378846395e+000	 1.112784435342554e+000	-5.264077017001237e+000
1	 1.316611842349339e+000	 1.127371384288980e+000	-5.527094862556530e+000
1	 1.304094834133428e+000	 1.141827376473227e+000	-5.801554430804308e+000
1	 1.291414445613439e+000	 1.156149611259114e+000	-6.087503252812248e+000
1	 1.241749530702945e+000	 1.111686679725904e+000	-7.822204519858449e+000
1	 1.229403639738536e+000	 1.125324814353805e+000	-8.185034962434152e+000
1	 1.216904900482188e+000	 1.138829122302628e+000	-8.536647366447211e+000
1	 1.204255501786119e+000	 1.152197047172691e+000	-8.877173034133893e+000
1	 1.191457689237918e+000	 1.165426080602269e+000	-9.206742754866877e+000
1	 1.178513763834143e+000	 1.178513763834143e+000	-9.525486972372876e+000
1	 1.165426080602269e+000	 1.191457689237918e+000	-9.833535957745291e+000
1	 1.152197047172691e+000	 1.204255501786119e+000	-1.013101998771283e+001
1	 1.138829122302628e+000	 1.216904900482188e+000	-1.041806952760864e+001
1	 1.125324814353805e+000	 1.229403639738537e+000	-1.069481541846738e+001
1	 1.111686679725904e+000	 1.241749530702945e+000	-1.096138906766476e+001
1	 1.246716022193793e+000	 1.116132972878948e+000	-7.647496163751467e+000
1	 1.234320752702791e+000	 1.129825654481125e+000	-8.003253909452452e+000
1	 1.221772023589038e+000	 1.143383974152054e+000	-8.347606160722526e+000
1	 1.209072032459265e+000	 1.156805365267505e+000	-8.680654596959132e+000
1	 1.196223033882487e+000	 1.170087309433334e+000	-9.002499166398620e+000
1	 1.183227338058305e+000	 1.183227338058305e+000	-9.313238309282436e+000
1	 1.170087309433334e+000	 1.196223033882487e+000	-9.612969189087886e+000
1	 1.156805365267504e+000	 1.209072032459265e+000	-9.901787931162641e+000
1	 1.143383974152054e+000	 1.221772023589038e+000	-1.017978986807916e+001
1	 1.129825654481125e+000	 1.234320752702791e+000	-1.044706979100257e+001
1	 1.116132972878949e+000	 1.246716022193793e+000	-1.070372220634829e+001
1	 1.251682513684775e+000	 1.120579266032010e+000	-7.473161472648132e+000
1	 1.239237865667143e+000	 1.134326494608457e+000	-7.821693263505709e+000
1	 1.226639146695958e+000	 1.147938826001489e+000	-8.158582399517151e+000
1	 1.213888563132458e+000	 1.161413683362326e+000	-8.483916038638535e+000
1	 1.200988378527087e+000	 1.174748538264411e+000	-8.797778974581915e+000
1	 1.187940912282485e+000	 1.187940912282484e+000	-9.100253888116649e+000
1	 1.174748538264411e+000	 1.200988378527087e+000	-9.391421607665947e+000
1	 1.161413683362327e+000	 1.213888563132458e+000	-9.671361378476123e+000
1	 1.147938826001489e+000	 1.226639146695958e+000	-9.940151139607771e+000
1	 1.134326494608457e+000	 1.239237865667143e+000	-1.019786780797704e+001
1	 1.120579266032010e+000	 1.251682513684776e+000	-1.044458756864982e+001
1	 1.256649005175858e+000	 1.125025559185105e+000	-7.299162486041582e+000
1	 1.244154978631569e+000	 1.138827334735813e+000	-7.640305758725297e+000
1	 1.231506269802929e+000	 1.152493677850942e+000	-7.969524341196686e+000
1	 1.218705093805686e+000	 1.166022001457163e+000	-8.286905790719530e+000
1	 1.205753723171710e+000	 1.179409767095502e+000	-8.592535247843477e+000
1	 1.192654486506682e+000	 1.192654486506682e+000	-8.886495688212085e+000
1	 1.179409767095502e+000	 1.205753723171710e+000	-9.168868183863044e+000
1	 1.166022001457163e+000	 1.218705093805686e+000	-9.439732173295962e+000
1	 1.152493677850942e+000	 1.231506269802929e+000	-9.699165739555895e+000
1	 1.138827334735813e+000	 1.244154978631569e+000	-9.947245895555474e+000
1	 1.125025559185105e+000	 1.256649005175858e+000	-1.018404887583765e+001
1	 1.261615496667008e+000	 1.129471852338250e+000	-7.125461841168484e+000
1	 1.249072091596043e+000	 1.143328174863207e+000	-7.459044873512548e+000
1	 1.236373392909934e+000	 1.157048529700422e+000	-7.780381058874014e+000
1	 1.223521624478938e+000	 1.170630319552019e+000	-8.089573096769563e+000
1	 1.210519067816351e+000	 1.184070995926608e+000	-8.386721793615823e+000
1	 1.197368060730894e+000	 1.197368060730893e+000	-8.671926287596250e+000
1	 1.184070995926608e+000	 1.210519067816351e+000	-8.945284282190468e+000
1	 1.170630319552019e+000	 1.223521624478938e+000	-9.206892287698720e+000
1	 1.157048529700422e+000	 1.236373392909934e+000	-9.456845870070310e+000
1	 1.143328174863206e+000	 1.249072091596043e+000	-9.695239906319610e+000
1	 1.129471852338250e+000	 1.261615496667008e+000	-9.922168845796000e+000
1	 1.266581988158192e+000	 1.133918145491462e+000	-6.952022761289868e+000
1	 1.253989204560542e+000	 1.147829014990649e+000	-7.277864815946790e+000
1	 1.241240516016958e+000	 1.161603381549936e+000	-7.591102424435468e+000
1	 1.228338155152204e+000	 1.175238637646899e+000	-7.891867996456057e+000
1	 1.215284412461003e+000	 1.188732224757730e+000	-8.180293143848338e+000
1	 1.202081634955118e+000	 1.202081634955118e+000	-8.456508851249035e+000
1	 1.188732224757730e+000	 1.215284412461003e+000	-8.720645653559689e+000
1	 1.175238637646899e+000	 1.228338155152204e+000	-8.972833819676351e+000
1	 1.161603381549936e+000	 1.241240516016958e+000	-9.213203541910628e+000
1	 1.147829014990649e+000	 1.253989204560542e+000	-9.441885130513775e+000
1	 1.133918145491462e+000	 1.266581988158192e+000	-9.659009212697157e+000
1	 1.271548479649375e+000	 1.138364438644758e+000	-6.778809044246531e+000
1	 1.258906317525041e+000	 1.152329855118152e+000	-7.096720509534945e+000
1	 1.246107639123982e+000	 1.166158233399493e+000	-7.401639092941431e+000
1	 1.233154685825472e+000	 1.179846955741808e+000	-7.693741309999065e+000
1	 1.220049757105661e+000	 1.193393453588871e+000	-7.973204540858103e+000
1	 1.206795209179352e+000	 1.206795209179352e+000	-8.240207119640228e+000
1	 1.193393453588871e+000	 1.220049757105661e+000	-8.494928427736516e+000
1	 1.179846955741807e+000	 1.233154685825472e+000	-8.737548990677215e+000
1	 1.166158233399493e+000	 1.246107639123982e+000	-8.968250578187039e+000
1	 1.152329855118152e+000	 1.258906317525041e+000	-9.187216307026937e+000
1	 1.138364438644758e+000	 1.271548479649375e+000	-9.394630746212759e+000
1	 1.276514971140525e+000	 1.142810731798155e+000	-6.605785051281426e+000
1	 1.263823430489515e+000	 1.156830695245728e+000	-6.915567579294629e+000
1	 1.250974762230989e+000	 1.170713085249101e+000	-7.211942487390926e+000
1	 1.237971216498730e+000	 1.184455273836749e+000	-7.495144622986808e+000
1	 1.224815101750318e+000	 1.198054682420031e+000	-7.765411923510789e+000
1	 1.211508783403595e+000	 1.211508783403595e+000	-8.022985397534534e+000
1	 1.198054682420031e+000	 1.224815101750318e+000	-8.268109105971139e+000
1	 1.184455273836749e+000	 1.237971216498730e+000	-8.501030143204698e+000
1	 1.170713085249101e+000	 1.250974762230990e+000	-8.721998618010243e+000
1	 1.156830695245728e+000	 1.263823430489516e+000	-8.931267634118310e+000
1	 1.142810731798155e+000	 1.276514971140525e+000	-9.129093270276549e+000
1	 1.281481462631608e+000	 1.147257024951669e+000	-6.432915696122136e+000
1	 1.268740543453941e+000	 1.161331535373390e+000	-6.734362338159579e+000
1	 1.255841885337964e+000	 1.175267937098768e+000	-7.021964783840539e+000
1	 1.242787747171970e+000	 1.189063591931730e+000	-7.296030271544507e+000
1	 1.229580446394968e+000	 1.202715911251213e+000	-7.556871913722957e+000
1	 1.216222357627845e+000	 1.216222357627845e+000	-7.804808543056242e+000
1	 1.202715911251212e+000	 1.229580446394968e+000	-8.040164553799100e+000
1	 1.189063591931730e+000	 1.242787747171970e+000	-8.263269738471026e+000
1	 1.175267937098769e+000	 1.255841885337964e+000	-8.474459120057407e+000
1	 1.161331535373390e+000	 1.268740543453941e+000	-8.674072779893779e+000
1	 1.147257024951669e+000	 1.281481462631608e+000	-8.862455681410909e+000
1	 1.286447954122590e+000	 1.151703318105316e+000	-6.260166434316115e+000
1	 1.273657656418294e+000	 1.165832375501149e+000	-6.553061773701326e+000
1	 1.260709008444888e+000	 1.179822788948504e+000	-6.831658896867982e+000
1	 1.247604277845178e+000	 1.193671910026754e+000	-7.096351327846813e+000
1	 1.234345791039605e+000	 1.207377140082416e+000	-7.347541803277021e+000
1	 1.220935931852098e+000	 1.220935931852098e+000	-7.585641957007971e+000
1	 1.207377140082416e+000	 1.234345791039605e+000	-7.811071994010033e+000
1	 1.193671910026753e+000	 1.247604277845179e+000	-8.024260354106103e+000
1	 1.179822788948504e+000	 1.260709008444888e+000	-8.225643366055111e+000
1	 1.165832375501150e+000	 1.273657656418294e+000	-8.415664892539462e+000
1	 1.151703318105316e+000	 1.286447954122590e+000	-8.594775966628447e+000
1	 1.291414445613439e+000	 1.156149611259114e+000	-6.087503252812248e+000
1	 1.278574769382549e+000	 1.170333215629018e+000	-6.371623535156383e+000
1	 1.265576131551744e+000	 1.184377640798316e+000	-6.640978465371337e+000
1	 1.252420808518344e+000	 1.198280228121825e+000	-6.896061585964019e+000
1	 1.239111135684223e+000	 1.212038368913644e+000	-7.137379540940702e+000
1	 1.225649506076354e+000	 1.225649506076354e+000	-7.365451572435518e+000
1	 1.212038368913644e+000	 1.239111135684222e+000	-7.580808999777586e+000
1	 1.198280228121825e+000	 1.252420808518344e+000	-7.783994681919005e+000
1	 1.184377640798316e+000	 1.265576131551744e+000	-7.975562464181549e+000
1	 1.170333215629018e+000	 1.278574769382549e+000	-8.156076610319078e+000
1	 1.156149611259114e+000	 1.291414445613438e+000	-8.326111220921222e+000
1	 1.111686679725904e+000	 1.241749530702945e+000	-1.096138906766476e+001
1	 1.097915246098555e+000	 1.253942259805881e+000	-1.121071467799929e+001
1	 1.084015199083980e+000	 1.265977891846146e+000	-1.143702709367876e+001
1	 1.069989231612100e+000	 1.277854415840096e+000	-1.164257895577139e+001
1	 1.055840077979967e+000	 1.289569882352404e+000	-1.182966945897518e+001
1	 1.041570512093714e+000	 1.301122404540689e+000	-1.200064077427205e+001
1	 1.027183345679557e+000	 1.312510159140009e+000	-1.215787441472850e+001
1	 1.012681426466225e+000	 1.323731387386190e+000	-1.230378755206237e+001
1	 9.980676363412553e-001	 1.334784395877035e+000	-1.244082929167821e+001
1	 9.833448894836278e-001	 1.345667557370631e+000	-1.257147691392931e+001
1	 9.685161304752106e-001	 1.356379311520008e+000	-1.269823208940133e+001
1	 1.116132972878949e+000	 1.246716022193793e+000	-1.070372220634829e+001
1	 1.102306459135656e+000	 1.258957517238369e+000	-1.094287091247395e+001
1	 1.088350817604013e+000	 1.271041286896127e+000	-1.115907334441403e+001
1	 1.074268751984574e+000	 1.282965312140314e+000	-1.135472853215597e+001
1	 1.060063007510474e+000	 1.294727635738664e+000	-1.153228710870417e+001
1	 1.045736369182350e+000	 1.306326363302200e+000	-1.169424742441836e+001
1	 1.031291659972187e+000	 1.317759664273673e+000	-1.184315159692278e+001
1	 1.016731738998476e+000	 1.329025772854573e+000	-1.198158150491960e+001
1	 1.002059499675142e+000	 1.340122988869793e+000	-1.211215473433295e+001
1	 9.872778678367018e-001	 1.351049678569120e+000	-1.223752048527974e+001
1	 9.723897998421612e-001	 1.361804275364840e+000	-1.236035544840745e+001
1	 1.120579266032010e+000	 1.251682513684776e+000	-1.044458756864982e+001
1	 1.106697672172779e+000	 1.263972774671036e+000	-1.067367030644106e+001
1	 1.092686436124073e+000	 1.276104681946334e+000	-1.088000532513774e+001
1	 1.078548272357080e+000	 1.288076208440811e+000	-1.106611548706396e+001
1	 1.064285937041014e+000	 1.299885389125255e+000	-1.123457951898247e+001
1	 1.049902226271017e+000	 1.311530322064094e+000	-1.138802786243631e+001
1	 1.035399974264841e+000	 1.323009169407765e+000	-1.152913845323671e+001
1	 1.020782051530740e+000	 1.334320158323423e+000	-1.166063243904336e+001
1	 1.006051363009023e+000	 1.345461581863046e+000	-1.178526984408299e+001
1	 9.912108461897440e-001	 1.356431799768123e+000	-1.190584519013630e+001
1	 9.762634692090429e-001	 1.367229239210187e+000	-1.202518308297190e+001
1	 1.125025559185105e+000	 1.256649005175858e+000	-1.018404887583765e+001
1	 1.111088885209946e+000	 1.268988032103835e+000	-1.040320181389589e+001
1	 1.097022054644190e+000	 1.281168076996712e+000	-1.059993014614222e+001
1	 1.082827792729652e+000	 1.293187104741517e+000	-1.077685828911262e+001
1	 1.068508866571631e+000	 1.305043142512093e+000	-1.093667000332609e+001
1	 1.054068083359768e+000	 1.316734280826272e+000	-1.108210402364444e+001
1	 1.039508288557581e+000	 1.328258674542173e+000	-1.121594961349865e+001
1	 1.024832364063088e+000	 1.339614543792616e+000	-1.134104205243693e+001
1	 1.010043226342979e+000	 1.350800174856662e+000	-1.146025806656124e+001
1	 9.951438245428430e-001	 1.361813920967494e+000	-1.157651121150829e+001
1	 9.801371385759574e-001	 1.372654203055902e+000	-1.169274721768898e+001
1	 1.129471852338250e+000	 1.261615496667008e+000	-9.922168845796000e+000
1	 1.115480098247180e+000	 1.274003289536723e+000	-1.013155298812322e+001
1	 1.101357673164392e+000	 1.286231472047204e+000	-1.031895323111263e+001
1	 1.087107313102328e+000	 1.298298001042362e+000	-1.048707354145874e+001
1	 1.072731796102369e+000	 1.310200895899095e+000	-1.063867993350030e+001
1	 1.058233940448655e+000	 1.321938239588635e+000	-1.077659592331238e+001
1	 1.043616602850469e+000	 1.333508179676787e+000	-1.090369790252366e+001
1	 1.028882676595589e+000	 1.344908929262028e+000	-1.102291044172087e+001
1	 1.014035089677089e+000	 1.356138767850504e+000	-1.113720153342786e+001
1	 9.990768028960902e-001	 1.367196042167092e+000	-1.124957778473614e+001
1	 9.840108079430038e-001	 1.378079166901831e+000	-1.136307956973001e+001
1	 1.133918145491462e+000	 1.266581988158192e+000	-9.659009212697157e+000
1	 1.119871311284503e+000	 1.279018546969656e+000	-9.858810009160287e+000
1	 1.105693291684706e+000	 1.291294867097751e+000	-1.003717835019403e+001
1	 1.091386833475143e+000	 1.303408897343274e+000	-1.019687601837214e+001
1	 1.076954725633270e+000	 1.315358649286176e+000	-1.034072877758930e+001
1	 1.062399797537729e+000	 1.327142198351086e+000	-1.047162169430520e+001
1	 1.047724917143565e+000	 1.338757684811494e+000	-1.059249437550223e+001
1	 1.032932989128316e+000	 1.350203314731536e+000	-1.070633613352909e+001
1	 1.018026953011434e+000	 1.361477360844436e+000	-1.081618108813193e+001
1	 1.003009781249576e+000	 1.372578163366772e+000	-1.092510321607157e+001
1	 9.878844773102833e-001	 1.383504130747827e+000	-1.103621135879226e+001
1	 1.138364438644758e+000	 1.271548479649375e+000	-9.394630746212760e+000
1	 1.124262524321937e+000	 1.284033804402589e+000	-9.585057710614906e+000
1	 1.110028910205163e+000	 1.296358262148297e+000	-9.754707652284015e+000
1	 1.095666353848132e+000	 1.308519793644184e+000	-9.906378700953038e+000
1	 1.081177655164380e+000	 1.320516402673251e+000	-1.004293413717422e+001
1	 1.066565654627043e+000	 1.332346157113527e+000	-1.016729762384522e+001
1	 1.051833231436931e+000	 1.344007189946183e+000	-1.028244835256014e+001
1	 1.036983301661338e+000	 1.355497700201014e+000	-1.039141611517013e+001
1	 1.022018816346095e+000	 1.366815953838327e+000	-1.049727631106927e+001
1	 1.006942759603390e+000	 1.377960284566391e+000	-1.060314490082146e+001
1	 9.917581466778954e-001	 1.388929094593737e+000	-1.071217331681384e+001
1	 1.142810731798155e+000	 1.276514971140525e+000	-9.129093270276549e+000
1	 1.128653737359504e+000	 1.289049061835476e+000	-9.310379605857904e+000
1	 1.114364528725790e+000	 1.301421657198787e+000	-9.471641696571453e+000
1	 1.099945874221332e+000	 1.313630689945021e+000	-9.615692812014764e+000
1	 1.085400584695741e+000	 1.325674156060237e+000	-9.745411783642320e+000
1	 1.070731511716650e+000	 1.337550115875858e+000	-9.863738189416056e+000
1	 1.055941545730628e+000	 1.349256695080741e+000	-9.973667452510844e+000
1	 1.041033614194725e+000	 1.360792085670339e+000	-1.007824586457184e+001
1	 1.026010679681151e+000	 1.372154546832039e+000	-1.018056554415302e+001
1	 1.010875737957623e+000	 1.383342405765804e+000	-1.028375934106954e+001
1	 9.956318160459409e-001	 1.394354058439414e+000	-1.039099569746236e+001
1	 1.147257024951669e+000	 1.281481462631608e+000	-8.862455681410909e+000
1	 1.133044950397227e+000	 1.294064319268276e+000	-9.034857913607029e+000
1	 1.118700147246616e+000	 1.306485052249161e+000	-9.188079483341708e+000
1	 1.104225394594779e+000	 1.318741586245716e+000	-9.324927850156200e+000
1	 1.089623514227398e+000	 1.330831909447048e+000	-9.448275693652800e+000
1	 1.074897368806601e+000	 1.342754074637983e+000	-9.561056093831711e+000
1	 1.060049860024718e+000	 1.354506200215058e+000	-9.666257625823862e+000
1	 1.045083926728551e+000	 1.366086471139387e+000	-9.766919379530203e+000
1	 1.030002543016684e+000	 1.377493139825438e+000	-9.866125914813122e+000
1	 1.014808716312365e+000	 1.388724526964869e+000	-9.967002162984617e+000
1	 9.995054854145198e-001	 1.399779022284707e+000	-1.007270828540299e+001
1	 1.151703318105316e+000	 1.286447954122590e+000	-8.594775966628447e+000
1	 1.137436163435127e+000	 1.299079576700941e+000	-8.758573582917480e+000
1	 1.123035765767670e+000	 1.311548447299364e+000	-8.904118484068393e+000
1	 1.108504914968508e+000	 1.323852482546198e+000	-9.034191623043993e+000
1	 1.093846443759394e+000	 1.335989662833602e+000	-9.151638083780197e+000
1	 1.079063225896950e+000	 1.347958033399803e+000	-9.259362299493244e+000
1	 1.064158174319261e+000	 1.359755705349022e+000	-9.360323186828726e+000
1	 1.049134239262883e+000	 1.371380856608035e+000	-9.457529206280460e+000
1	 1.033994406352774e+000	 1.382831732818390e+000	-9.554033359439224e+000
1	 1.018741694667706e+000	 1.394106648163441e+000	-9.652928133728887e+000
1	 1.003379154783733e+000	 1.405203986129465e+000	-9.757340405351370e+000
1	 1.156149611259114e+000	 1.291414445613438e+000	-8.326111220921220e+000
1	 1.141827376473228e+000	 1.304094834133428e+000	-8.481606317596041e+000
1	 1.127371384288980e+000	 1.316611842349339e+000	-8.619854670810478e+000
1	 1.112784435342554e+000	 1.328963378846395e+000	-8.743590279927739e+000
1	 1.098069373291773e+000	 1.341147416219812e+000	-8.855609444359333e+000
1	 1.083229082987748e+000	 1.353161992161219e+000	-8.958766061854751e+000
1	 1.068266488614319e+000	 1.365005210482521e+000	-9.055966845176190e+000
1	 1.053184551797793e+000	 1.376675242076157e+000	-9.150166467409145e+000
1	 1.037986269689500e+000	 1.388170325810758e+000	-9.244362646283500e+000
1	 1.022674673023736e+000	 1.399488769361377e+000	-9.341591177975261e+000
1	 1.007252824153679e+000	 1.410628949973538e+000	-9.444920930918267e+000
1	 9.685161304752106e-001	 1.356379311520008e+000	-1.269823208940133e+001
1	 9.535843320708534e-001	 1.366918165158378e+000	-1.282688497268335e+001
1	 9.385524923276887e-001	 1.377282691739777e+000	-1.296354167628114e+001
1	 9.234236336733949e-001	 1.387471533020204e+000	-1.311122142004180e+001
1	 9.082008012876665e-001	 1.397483399918780e+000	-1.327297606549310e+001
1	 8.928870611472519e-001	 1.407317072930754e+000	-1.345188490182128e+001
1	 8.774854980648936e-001	 1.416971402475017e+000	-1.365104942225831e+001
1	 8.619992137246938e-001	 1.426445309176177e+000	-1.387358810174965e+001
1	 8.464313247164138e-001	 1.435737784081395e+000	-1.412263118665687e+001
1	 8.307849605711887e-001	 1.444847888812251e+000	-1.440131550710618e+001
1	 8.150632618011137e-001	 1.453774755652043e+000	-1.471277932241381e+001
1	 9.723897998421612e-001	 1.361804275364840e+000	-1.236035544840745e+001
1	 9.573982803361829e-001	 1.372385280118109e+000	-1.248667758354798e+001
1	 9.423063193669027e-001	 1.382791260577346e+000	-1.262257894914491e+001
1	 9.271169514504698e-001	 1.393020853066112e+000	-1.277088955482366e+001
1	 9.118332339460493e-001	 1.403072763347715e+000	-1.293446759465984e+001
1	 8.964582450930406e-001	 1.412945767039864e+000	-1.311619460067833e+001
1	 8.809950820421710e-001	 1.422638709963577e+000	-1.331897059058333e+001
1	 8.654468588830089e-001	 1.432150508426387e+000	-1.354570921978358e+001
1	 8.498167046703966e-001	 1.441480149440036e+000	-1.379933294766116e+001
1	 8.341077614523108e-001	 1.450626690872958e+000	-1.408276822789123e+001
1	 8.183231823016085e-001	 1.459589261537921e+000	-1.439894073245064e+001
1	 9.762634692090429e-001	 1.367229239210187e+000	-1.202518308297190e+001
1	 9.612122286013992e-001	 1.377852395078342e+000	-1.214947384005019e+001
1	 9.460601464059503e-001	 1.388299829415390e+000	-1.228476692618133e+001
1	 9.308102692273189e-001	 1.398570173112461e+000	-1.243371639972730e+001
1	 9.154656666041432e-001	 1.408662126777046e+000	-1.259900049457061e+001
1	 9.000294290384739e-001	 1.418574461149325e+000	-1.278331711402781e+001
1	 8.845046660190273e-001	 1.428306017452446e+000	-1.298937932233240e+001
1	 8.688945040408380e-001	 1.437855707676866e+000	-1.321991084300155e+001
1	 8.532020846238323e-001	 1.447222514798917e+000	-1.347764157329487e+001
1	 8.374305623328302e-001	 1.456405492933886e+000	-1.376530312383187e+001
1	 8.215831028014518e-001	 1.465403767424017e+000	-1.408562439227124e+001
1	 9.801371385759574e-001	 1.372654203055902e+000	-1.169274721768898e+001
1	 9.650261768666123e-001	 1.383319510038923e+000	-1.181527800496335e+001
1	 9.498139734449511e-001	 1.393808398253756e+000	-1.195008627378966e+001
1	 9.345035870040723e-001	 1.404119493159094e+000	-1.209966321976351e+001
1	 9.190980992620879e-001	 1.414251490206624e+000	-1.226652065012611e+001
1	 9.036006129837009e-001	 1.424203155258993e+000	-1.245318679118072e+001
1	 8.880142499956196e-001	 1.433973324941483e+000	-1.266220209613240e+001
1	 8.723421491983465e-001	 1.443560906927481e+000	-1.289611506198238e+001
1	 8.565874645768926e-001	 1.452964880157908e+000	-1.315747806400152e+001
1	 8.407533632129244e-001	 1.462184294994912e+000	-1.344884321617292e+001
1	 8.248430233008260e-001	 1.471218273310214e+000	-1.377275826583447e+001
1	 9.840108079430038e-001	 1.378079166901831e+000	-1.136307956973001e+001
1	 9.688401251319329e-001	 1.388786624999700e+000	-1.148409427393765e+001
1	 9.535678004840261e-001	 1.399316967092288e+000	-1.161851796280516e+001
1	 9.381969047808600e-001	 1.409668813205861e+000	-1.176869188988253e+001
1	 9.227305319200210e-001	 1.419840853636299e+000	-1.193697479834903e+001
1	 9.071717969288693e-001	 1.429831849368721e+000	-1.212573901521382e+001
1	 8.915238339721037e-001	 1.439640632430548e+000	-1.233736654831109e+001
1	 8.757897943556977e-001	 1.449266106178097e+000	-1.257424519410221e+001
1	 8.599728445297495e-001	 1.458707245516883e+000	-1.283876466418766e+001
1	 8.440761640927721e-001	 1.467963097055915e+000	-1.313331273830153e+001
1	 8.281029437999159e-001	 1.477032779196395e+000	-1.346027145141197e+001
1	 9.878844773102833e-001	 1.383504130747827e+000	-1.103621135879226e+001
1	 9.726540733974713e-001	 1.394253739960519e+000	-1.115592677681605e+001
1	 9.573216275232955e-001	 1.404825535930832e+000	-1.129004326253070e+001
1	 9.418902225578113e-001	 1.415218133252607e+000	-1.144076488301507e+001
1	 9.263629645780832e-001	 1.425430217065921e+000	-1.161031051167679e+001
1	 9.107429808741278e-001	 1.435460543478365e+000	-1.180091018270250e+001
1	 8.950334179486370e-001	 1.445307939919501e+000	-1.201480145020020e+001
1	 8.792374395130574e-001	 1.454971305428580e+000	-1.225422575948267e+001
1	 8.633582244825742e-001	 1.464449610875713e+000	-1.252142483783442e+001
1	 8.473989649725507e-001	 1.473741899116773e+000	-1.281863711198320e+001
1	 8.313628642989047e-001	 1.482847285082444e+000	-1.314809415934831e+001
1	 9.917581466778954e-001	 1.388929094593737e+000	-1.071217331681384e+001
1	 9.764680216633372e-001	 1.399720854921225e+000	-1.083077957891943e+001
1	 9.610754545628796e-001	 1.410334104769236e+000	-1.096464373490753e+001
1	 9.455835403350567e-001	 1.420767453299180e+000	-1.111584525839500e+001
1	 9.299953972364135e-001	 1.431019580495340e+000	-1.128647618164633e+001
1	 9.143141648196238e-001	 1.441089237587779e+000	-1.147863768392689e+001
1	 8.985430019253762e-001	 1.450975247408202e+000	-1.169443668596935e+001
1	 8.826850846705890e-001	 1.460676504678796e+000	-1.193598245750143e+001
1	 8.667436044355391e-001	 1.470191976234270e+000	-1.220538324467952e+001
1	 8.507217658524386e-001	 1.479520701177364e+000	-1.250474292415221e+001
1	 8.346227847979756e-001	 1.488661790968246e+000	-1.283615769034336e+001
1	 9.956318160459409e-001	 1.394354058439414e+000	-1.039099569746236e+001
1	 9.802819699296413e-001	 1.405187969881668e+000	-1.050865668230203e+001
1	 9.648292816028976e-001	 1.415842673607342e+000	-1.064230122882234e+001
1	 9.492768581127261e-001	 1.426316773345427e+000	-1.079389665015268e+001
1	 9.336278298951504e-001	 1.436608943924404e+000	-1.096542100296030e+001
1	 9.178853487655067e-001	 1.446717931696817e+000	-1.115885988354173e+001
1	 9.020525859024777e-001	 1.456642554896511e+000	-1.137620323097711e+001
1	 8.861327298284579e-001	 1.466381703928612e+000	-1.161944214385213e+001
1	 8.701289843888153e-001	 1.475934341592428e+000	-1.189056571695607e+001
1	 8.540445667326138e-001	 1.485299503237567e+000	-1.219155790424620e+001
1	 8.378827052973118e-001	 1.494476296853683e+000	-1.252439441424123e+001
1	 9.995054854145198e-001	 1.399779022284707e+000	-1.007270828540299e+001
1	 9.840959181964941e-001	 1.410655084841691e+000	-1.018956202697698e+001
1	 9.685831086434708e-001	 1.421351242444998e+000	-1.032299787454745e+001
1	 9.529701758909484e-001	 1.431866093391195e+000	-1.047488325617566e+001
1	 9.372602625544341e-001	 1.442198307352966e+000	-1.064709495792292e+001
1	 9.214565327119235e-001	 1.452346625805334e+000	-1.084151610169456e+001
1	 9.055621698800984e-001	 1.462309862384287e+000	-1.106003313062669e+001
1	 8.895803749868287e-001	 1.472086903177893e+000	-1.130453280813708e+001
1	 8.735143643425752e-001	 1.481676706950057e+000	-1.157689923667167e+001
1	 8.573673676132543e-001	 1.491078305297259e+000	-1.187901090206596e+001
1	 8.411426257970979e-001	 1.500290802738638e+000	-1.221273774931200e+001
1	 1.003379154783733e+000	 1.405203986129465e+000	-9.757340405351370e+000
1	 9.879098664640053e-001	 1.416122199801143e+000	-9.873499492114116e+000
1	 9.723369356847186e-001	 1.426859811282049e+000	-1.000671607830848e+001
1	 9.566634936698545e-001	 1.437415413436331e+000	-1.015876982722580e+001
1	 9.408926952144034e-001	 1.447787670780874e+000	-1.033144880123696e+001
1	 9.250277166590233e-001	 1.457975319913183e+000	-1.052654659558173e+001
1	 9.090717538583948e-001	 1.467977169871391e+000	-1.074585947971007e+001
1	 8.930280201458658e-001	 1.477792102426505e+000	-1.099118355197890e+001
1	 8.768997442969899e-001	 1.487419072307031e+000	-1.126431191341469e+001
1	 8.606901684945385e-001	 1.496857107356318e+000	-1.156703186614930e+001
1	 8.444025462975162e-001	 1.506105308622997e+000	-1.190112214201415e+001
1	 1.007252824153679e+000	 1.410628949973538e+000	-9.444920930918267e+000
1	 9.917238147322854e-001	 1.421589314759868e+000	-9.560472897210033e+000
1	 9.760907627267612e-001	 1.432368380118340e+000	-9.693438516978587e+000
1	 9.603568114495741e-001	 1.442964733480680e+000	-9.845521656307938e+000
1	 9.445251278751973e-001	 1.453377034207980e+000	-1.001843404515144e+001
1	 9.285989006069539e-001	 1.463604014020220e+000	-1.021389254142999e+001
1	 9.125813378375239e-001	 1.473644477357683e+000	-1.043361640222983e+001
1	 8.964756653057331e-001	 1.483497301674313e+000	-1.067932456763847e+001
1	 8.802851242522309e-001	 1.493161437663220e+000	-1.095273296267136e+001
1	 8.640129693766441e-001	 1.502635909414624e+000	-1.125555182264343e+001
1	 8.476624667987510e-001	 1.511919814506641e+000	-1.158948304722339e+001
1	 8.150632618011137e-001	 1.453774755652043e+000	-1.471277932241381e+001
1	 7.992717523120669e-001	 1.462516290244094e+000	-1.506338949905251e+001
1	 7.834112354645310e-001	 1.471073120235707e+000	-1.545604472007397e+001
1	 7.674848724460873e-001	 1.479444591253303e+000	-1.588847337234677e+001
1	 7.514958276341680e-001	 1.487630119263421e+000	-1.635833111299591e+001
1	 7.354472666915338e-001	 1.495629190345228e+000	-1.686320599937385e+001
1	 7.193423546795726e-001	 1.503441360402968e+000	-1.740062365943554e+001
1	 7.031842541915491e-001	 1.511066254819426e+000	-1.796805249131524e+001
1	 6.869761235078749e-001	 1.518503568051551e+000	-1.856290888102797e+001
1	 6.707211147754113e-001	 1.525753063169474e+000	-1.918256242736491e+001
1	 6.544223722127310e-001	 1.532814571340203e+000	-1.982434116323197e+001
1	 8.183231823016085e-001	 1.459589261537921e+000	-1.439894073245064e+001
1	 8.024685132175328e-001	 1.468365758701667e+000	-1.475366347000488e+001
1	 7.865445607736817e-001	 1.476956812521842e+000	-1.514958505011289e+001
1	 7.705544988011007e-001	 1.485361766007659e+000	-1.558467596791731e+001
1	 7.545015043334430e-001	 1.493580032789783e+000	-1.605683700063273e+001
1	 7.383887556948314e-001	 1.501611096891922e+000	-1.656390389048525e+001
1	 7.222194306056113e-001	 1.509454512442139e+000	-1.710365206943372e+001
1	 7.059967043081321e-001	 1.517109903324919e+000	-1.767380141536399e+001
1	 6.897237477146422e-001	 1.524576962775183e+000	-1.827202102954891e+001
1	 6.734037255793064e-001	 1.531855452915456e+000	-1.889593402528973e+001
1	 6.570397946962922e-001	 1.538945204237500e+000	-1.954312231781313e+001
1	 8.215831028014518e-001	 1.465403767424017e+000	-1.408562439227124e+001
1	 8.056652741223067e-001	 1.474215227159471e+000	-1.444390915798056e+001
1	 7.896778860821095e-001	 1.482840504808239e+000	-1.484258347410756e+001
1	 7.736241251553686e-001	 1.491278940762324e+000	-1.527985040733408e+001
1	 7.575071810319586e-001	 1.499529946316506e+000	-1.575384615544240e+001
1	 7.413302446973650e-001	 1.507593003439040e+000	-1.626264430041449e+001
1	 7.250965065308890e-001	 1.515467664481798e+000	-1.680426010472532e+001
1	 7.088091544239663e-001	 1.523153551830967e+000	-1.737665484137679e+001
1	 6.924713719206810e-001	 1.530650357499436e+000	-1.797774014830139e+001
1	 6.760863363825016e-001	 1.537957842662119e+000	-1.860538239786200e+001
1	 6.596572171791894e-001	 1.545075837135533e+000	-1.925740707231783e+001
1	 8.248430233008260e-001	 1.471218273310214e+000	-1.377275826583447e+001
1	 8.088620350265764e-001	 1.480064695617395e+000	-1.413405974467330e+001
1	 7.928112113900055e-001	 1.488724197094793e+000	-1.453497622674050e+001
1	 7.766937515090844e-001	 1.497196115517191e+000	-1.497393393197108e+001
1	 7.605128577299093e-001	 1.505479859843489e+000	-1.544929489893221e+001
1	 7.442717336993275e-001	 1.513574909986478e+000	-1.595936082514537e+001
1	 7.279735824555976e-001	 1.521480816521845e+000	-1.650237695204616e+001
1	 7.116216045392393e-001	 1.529197200337471e+000	-1.707653598595085e+001
1	 6.952189961261736e-001	 1.536723752224209e+000	-1.767998204645659e+001
1	 6.787689471851715e-001	 1.544060232409364e+000	-1.831081463378619e+001
1	 6.622746396615893e-001	 1.551206470034202e+000	-1.896709260670017e+001
1	 8.281029437999159e-001	 1.477032779196395e+000	-1.346027145141197e+001
1	 8.120587959305302e-001	 1.485914164075329e+000	-1.382404946392811e+001
1	 7.959445366975607e-001	 1.494607889381393e+000	-1.422670054677248e+001
1	 7.797633778624412e-001	 1.503113290272153e+000	-1.466686477142827e+001
1	 7.635185344274886e-001	 1.511429773370625e+000	-1.514312055531989e+001
1	 7.472132227009128e-001	 1.519556816534136e+000	-1.565398810628923e+001
1	 7.308506583799279e-001	 1.527493968562179e+000	-1.619793291318998e+001
1	 7.144340546541391e-001	 1.535240848844330e+000	-1.677336927474950e+001
1	 6.979666203313018e-001	 1.542797146949404e+000	-1.737866385889297e+001
1	 6.814515579874914e-001	 1.550162622157092e+000	-1.801213928478978e+001
1	 6.648920621436569e-001	 1.557337102933408e+000	-1.867207771996496e+001
1	 8.313628642989047e-001	 1.482847285082444e+000	-1.314809415934831e+001
1	 8.152555568343562e-001	 1.491763632533159e+000	-1.351381358111351e+001
1	 7.990778620049666e-001	 1.500491581667931e+000	-1.391769465735577e+001
1	 7.828330042156325e-001	 1.509030465027107e+000	-1.435858212415662e+001
1	 7.665242111248921e-001	 1.517379686897813e+000	-1.483526143187453e+001
1	 7.501547117023151e-001	 1.525538723081911e+000	-1.534646181058490e+001
1	 7.337277343040722e-001	 1.533507120602698e+000	-1.589085938314660e+001
1	 7.172465047688535e-001	 1.541284497351443e+000	-1.646708031879738e+001
1	 7.007142445362485e-001	 1.548870541674919e+000	-1.707370402020402e+001
1	 6.841341687896364e-001	 1.556265011905203e+000	-1.770926633693946e+001
1	 6.675094846255589e-001	 1.563467735833050e+000	-1.837226279842512e+001
1	 8.346227847979756e-001	 1.488661790968246e+000	-1.283615769034335e+001
1	 8.184523177382415e-001	 1.497613100990774e+000	-1.320328837297623e+001
1	 8.022111873124143e-001	 1.506375273954299e+000	-1.360789774681014e+001
1	 7.859026305688525e-001	 1.514947639781945e+000	-1.404902613853657e+001
1	 7.695298878223130e-001	 1.523329600424948e+000	-1.452565679971868e+001
1	 7.530962007037274e-001	 1.531520629629700e+000	-1.503671860987828e+001
1	 7.366048102282213e-001	 1.539520272643303e+000	-1.558108882875196e+001
1	 7.200589548835696e-001	 1.547328145858710e+000	-1.615759589133104e+001
1	 7.034618687411962e-001	 1.554943936400656e+000	-1.676502223931532e+001
1	 6.868167795917815e-001	 1.562367401653596e+000	-1.740210718262977e+001
1	 6.701269071074611e-001	 1.569598368733029e+000	-1.806754978470194e+001
1	 8.378827052973118e-001	 1.494476296853683e+000	-1.252439441424123e+001
1	 8.216490786423749e-001	 1.503462569448061e+000	-1.289241110796584e+001
1	 8.053445126200955e-001	 1.512258966240389e+000	-1.329724994984687e+001
1	 7.889722569222933e-001	 1.520864814536564e+000	-1.373813789439900e+001
1	 7.725355645199455e-001	 1.529279513951928e+000	-1.421424687507671e+001
1	 7.560376897053434e-001	 1.537502536177403e+000	-1.472469616156953e+001
1	 7.394818861525677e-001	 1.545533424683890e+000	-1.526855476783761e+001
1	 7.228714049984761e-001	 1.553371794366031e+000	-1.584484390519021e+001
1	 7.062094929463262e-001	 1.561017331126513e+000	-1.645253947469528e+001
1	 6.894993903941017e-001	 1.568469791402172e+000	-1.709057459322431e+001
1	 6.727443295895290e-001	 1.575729001633244e+000	-1.775784214745007e+001
1	 8.411426257970979e-001	 1.500290802738638e+000	-1.221273774931200e+001
1	 8.248458395469445e-001	 1.509312037904910e+000	-1.258112002701891e+001
1	 8.084778379282012e-001	 1.518142658526092e+000	-1.298569232922984e+001
1	 7.920418832761492e-001	 1.526781989290855e+000	-1.342585938497543e+001
1	 7.755412412179843e-001	 1.535229427478648e+000	-1.390097280096246e+001
1	 7.589791787073572e-001	 1.543484442724917e+000	-1.441033308951507e+001
1	 7.423589620773023e-001	 1.551546576724361e+000	-1.495319174886449e+001
1	 7.256838551137602e-001	 1.559415442873306e+000	-1.552875339073371e+001
1	 7.089571171518222e-001	 1.567090725852390e+000	-1.613617791014064e+001
1	 6.921820011967720e-001	 1.574572181150829e+000	-1.677458269233515e+001
1	 6.753617520719286e-001	 1.581859634533595e+000	-1.744304485178589e+001
1	 8.444025462975162e-001	 1.506105308622997e+000	-1.190112214201416e+001
1	 8.280426004521371e-001	 1.515161506361207e+000	-1.226935432478570e+001
1	 8.116111632369227e-001	 1.524026350811300e+000	-1.267316685786043e+001
1	 7.951115096306137e-001	 1.532699164044716e+000	-1.311213349926695e+001
1	 7.785469179166235e-001	 1.541179341005006e+000	-1.358577662928804e+001
1	 7.619206677099617e-001	 1.549466349272139e+000	-1.409356896537217e+001
1	 7.452360380026164e-001	 1.557559728764613e+000	-1.463493533102833e+001
1	 7.284963052296100e-001	 1.565459091380433e+000	-1.520925447426918e+001
1	 7.117047413578653e-001	 1.573164120578188e+000	-1.581586093112459e+001
1	 6.948646119999676e-001	 1.580674570899469e+000	-1.645404692971970e+001
1	 6.779791745548262e-001	 1.587990267433982e+000	-1.712306433040082e+001
1	 8.476624667987510e-001	 1.511919814506641e+000	-1.158948304722339e+001
1	 8.312393613581415e-001	 1.521010974816841e+000	-1.195705413129202e+001
1	 8.147444885464512e-001	 1.529910043095903e+000	-1.235961640127773e+001
1	 7.981811359858797e-001	 1.538616338798039e+000	-1.279690400481867e+001
1	 7.815525946160575e-001	 1.547129254530897e+000	-1.326860130338710e+001
1	 7.648621567133508e-001	 1.555448255818969e+000	-1.377434429037344e+001
1	 7.481131139287017e-001	 1.563572880804544e+000	-1.431372206482420e+001
1	 7.313087553462125e-001	 1.571502739887311e+000	-1.488627835697805e+001
1	 7.144523655646381e-001	 1.579237515303805e+000	-1.549151310168905e+001
1	 6.975472228038638e-001	 1.586776960647991e+000	-1.612888405578014e+001
1	 6.805965970383868e-001	 1.594120900334306e+000	-1.679780845534219e+001
1	 6.544223722127310e-001	 1.532814571340203e+000	-1.982434116323198e+001
1	 6.380805764407583e-001	 1.539689008460209e+000	-2.050237242866837e+001
1	 6.217012944632482e-001	 1.546375267676036e+000	-2.122902919488488e+001
1	 6.052876383844025e-001	 1.552873382042270e+000	-2.199924627275949e+001
1	 5.888427054517341e-001	 1.559183450159039e+000	-2.280792807157908e+001
1	 5.723695764162470e-001	 1.565305635398965e+000	-2.364995557953673e+001
1	 5.558713139287028e-001	 1.571240165087963e+000	-2.452019326541999e+001
1	 5.393509609733571e-001	 1.576987329641599e+000	-2.541349588998703e+001
1	 5.228115393404681e-001	 1.582547481658774e+000	-2.632471521597210e+001
1	 5.062560481387889e-001	 1.587921034974506e+000	-2.724870660613411e+001
1	 4.896874623491745e-001	 1.593108463673670e+000	-2.818033549925107e+001
1	 6.570397946962922e-001	 1.538945204237500e+000	-1.954312231781313e+001
1	 6.406326384087309e-001	 1.545847136301012e+000	-2.022783168250205e+001
1	 6.241878459861200e-001	 1.552560137825569e+000	-2.096227625084421e+001
1	 6.077085419798072e-001	 1.559084241997953e+000	-2.174122975641393e+001
1	 5.911978360250292e-001	 1.565419547812639e+000	-2.255943341165282e+001
1	 5.746588211945348e-001	 1.571566219295666e+000	-2.341160323357675e+001
1	 5.580945723884372e-001	 1.577524484682149e+000	-2.429243728728694e+001
1	 5.415081447616859e-001	 1.583294635549190e+000	-2.519662283514661e+001
1	 5.249025721904647e-001	 1.588877025905929e+000	-2.611884337995812e+001
1	 5.082808657787364e-001	 1.594272071242548e+000	-2.705378559097241e+001
1	 4.916460124060640e-001	 1.599480247540058e+000	-2.799614610207410e+001
1	 6.596572171791894e-001	 1.545075837135533e+000	-1.925740707231783e+001
1	 6.431847003760837e-001	 1.552005264142596e+000	-1.994814694192123e+001
1	 6.266743975084234e-001	 1.558745007975918e+000	-2.068964016776972e+001
1	 6.101294455746984e-001	 1.565295101954474e+000	-2.147651031623026e+001
1	 5.935529665978694e-001	 1.571655645467095e+000	-2.230334638425521e+001
1	 5.769480659724273e-001	 1.577826803193227e+000	-2.316471045190300e+001
1	 5.603178308478363e-001	 1.583808804277191e+000	-2.405514524951432e+001
1	 5.436653285497375e-001	 1.589601941457622e+000	-2.496918162680246e+001
1	 5.269936050402385e-001	 1.595206570153903e+000	-2.590134591162175e+001
1	 5.103056834185109e-001	 1.600623107511378e+000	-2.684616714668241e+001
1	 4.936045624628233e-001	 1.605852031407194e+000	-2.779818419303644e+001
1	 6.622746396615893e-001	 1.551206470034202e+000	-1.896709260670017e+001
1	 6.457367623429725e-001	 1.558163391984861e+000	-1.966320578319699e+001
1	 6.291609490303003e-001	 1.564929878126983e+000	-2.041100054949018e+001
1	 6.125503491692053e-001	 1.571505961911738e+000	-2.120496108411575e+001
1	 5.959080971703684e-001	 1.577891743122306e+000	-2.203953501887539e+001
1	 5.792373107500242e-001	 1.584087387091551e+000	-2.290914139989987e+001
1	 5.625410893069842e-001	 1.590093123872994e+000	-2.380817856045969e+001
1	 5.458225123375806e-001	 1.595909247366803e+000	-2.473103189221470e+001
1	 5.290846378898453e-001	 1.601536114402606e+000	-2.567208150211142e+001
1	 5.123305010581554e-001	 1.606974143780907e+000	-2.662570974267671e+001
1	 4.955631125194850e-001	 1.612223815274991e+000	-2.758630860402725e+001
1	 6.648920621436569e-001	 1.557337102933408e+000	-1.867207771996496e+001
1	 6.482888243095516e-001	 1.564321519827707e+000	-1.937289755287637e+001
1	 6.316475005518932e-001	 1.571114748278663e+000	-2.012623889564571e+001
1	 6.149712527634552e-001	 1.577716821869641e+000	-2.092645718969949e+001
1	 5.982632277426402e-001	 1.584127840778174e+000	-2.176786942306969e+001
1	 5.815265555274233e-001	 1.590347970990540e+000	-2.264476238186362e+001
1	 5.647643477659645e-001	 1.596377443469459e+000	-2.355140081080686e+001
1	 5.479796961252855e-001	 1.602216553276638e+000	-2.448203546901535e+001
1	 5.311756707393405e-001	 1.607865658651945e+000	-2.543091106768800e+001
1	 5.143553186977136e-001	 1.613325180051048e+000	-2.639227407697097e+001
1	 4.975216625760818e-001	 1.618595599143369e+000	-2.736038038983119e+001
1	 6.675094846255589e-001	 1.563467735833050e+000	-1.837226279842512e+001
1	 6.508408862759760e-001	 1.570479647671034e+000	-1.907711333307218e+001
1	 6.341340520733438e-001	 1.577299618430859e+000	-1.983523856452060e+001
1	 6.173921563575771e-001	 1.583927681828087e+000	-2.064087572116516e+001
1	 6.006183583147983e-001	 1.590363938434600e+000	-2.148822174171837e+001
1	 5.838158003047237e-001	 1.596608554890094e+000	-2.237144179906841e+001
1	 5.669876062248608e-001	 1.602661763066491e+000	-2.328467773077846e+001
1	 5.501368799129207e-001	 1.608523859187033e+000	-2.422205636187076e+001
1	 5.332667035887800e-001	 1.614195202901830e+000	-2.517769770609910e+001
1	 5.163801363372280e-001	 1.619676216321714e+000	-2.614572303249089e+001
1	 4.994802126326459e-001	 1.624967383012244e+000	-2.712026278454719e+001
1	 6.701269071074611e-001	 1.569598368733029e+000	-1.806754978470194e+001
1	 6.533929482424004e-001	 1.576637775514741e+000	-1.877574590757005e+001
1	 6.366206035947943e-001	 1.583484488583470e+000	-1.953788473674318e+001
1	 6.198130599516989e-001	 1.590138541786973e+000	-2.034809568700241e+001
1	 6.029734888869563e-001	 1.596600036091486e+000	-2.120046611723888e+001
1	 5.861050450820241e-001	 1.602869138790117e+000	-2.208905010881300e+001
1	 5.692108646837572e-001	 1.608946082663995e+000	-2.300787714835366e+001
1	 5.522940637005561e-001	 1.614831165097894e+000	-2.395096070016330e+001
1	 5.353577364382198e-001	 1.620524747152170e+000	-2.491230665397620e+001
1	 5.184049539767426e-001	 1.626027252592817e+000	-2.588592163440225e+001
1	 5.014387626892101e-001	 1.631339166881533e+000	-2.686582115902763e+001
1	 6.727443295895290e-001	 1.575729001633244e+000	-1.775784214745007e+001
1	 6.559450102089794e-001	 1.582795903358730e+000	-1.846868972872423e+001
1	 6.391071551163871e-001	 1.589669358736397e+000	-1.923406437983672e+001
1	 6.222339635459488e-001	 1.596349401746202e+000	-2.004799797864975e+001
1	 6.053286194592281e-001	 1.602836133748733e+000	-2.090447865072654e+001
1	 5.883942898594234e-001	 1.609129722690513e+000	-2.179745978442435e+001
1	 5.714341231427375e-001	 1.615230402261874e+000	-2.272086894845769e+001
1	 5.544512474882609e-001	 1.621138471009127e+000	-2.366861669665632e+001
1	 5.374487692877151e-001	 1.626854291402873e+000	-2.463460524522568e+001
1	 5.204297716163004e-001	 1.632378288864270e+000	-2.561273700843648e+001
1	 5.033973127458067e-001	 1.637710950751154e+000	-2.659692297931076e+001
1	 6.753617520719286e-001	 1.581859634533595e+000	-1.744304485178589e+001
1	 6.584970721758683e-001	 1.588954031202899e+000	-1.815584088512478e+001
1	 6.415937066382641e-001	 1.595854228889541e+000	-1.892366621359187e+001
1	 6.246548671404557e-001	 1.602560261705675e+000	-1.974046533400662e+001
1	 6.076837500317269e-001	 1.609072231406239e+000	-2.060013736399953e+001
1	 5.906835346370200e-001	 1.615390306591181e+000	-2.149654527619088e+001
1	 5.736573816018853e-001	 1.621514721860030e+000	-2.242352503310461e+001
1	 5.566084312761043e-001	 1.627445776920638e+000	-2.337489460712347e+001
1	 5.395398021373217e-001	 1.633183835653848e+000	-2.434446287038879e+001
1	 5.224545892559448e-001	 1.638729325135984e+000	-2.532603834018757e+001
1	 5.053558628024685e-001	 1.644082734621023e+000	-2.631343776602154e+001
1	 6.779791745548262e-001	 1.587990267433982e+000	-1.712306433040082e+001
1	 6.610491341432212e-001	 1.595112159047149e+000	-1.783709707001223e+001
1	 6.440802581605674e-001	 1.602039099042800e+000	-1.860658067624284e+001
1	 6.270757707353472e-001	 1.608771121665290e+000	-1.942538230179167e+001
1	 6.100388806045674e-001	 1.615308329063911e+000	-2.028732216252243e+001
1	 5.929727794149129e-001	 1.621650890492024e+000	-2.118618297320065e+001
1	 5.758806400612844e-001	 1.627799041458369e+000	-2.211571928245960e+001
1	 5.587656150641557e-001	 1.633753082832332e+000	-2.306966669091232e+001
1	 5.416308349870956e-001	 1.639513379905004e+000	-2.404175093694147e+001
1	 5.244794068957194e-001	 1.645080361407874e+000	-2.502569683534804e+001
1	 5.073144128592277e-001	 1.650454518491057e+000	-2.601523705471043e+001
1	 6.805965970383868e-001	 1.594120900334306e+000	-1.679780845534218e+001
1	 6.636011961111934e-001	 1.601270286891380e+000	-1.751235755042301e+001
1	 6.465668096834394e-001	 1.608223969196076e+000	-1.828269989142382e+001
1	 6.294966743307516e-001	 1.614981981624948e+000	-1.910263520672207e+001
1	 6.123940111778622e-001	 1.621544426721644e+000	-1.996591479918642e+001
1	 5.952620241932003e-001	 1.627911474392944e+000	-2.086625116606135e+001
1	 5.781038985210186e-001	 1.634083361056792e+000	-2.179732751680174e+001
1	 5.609227988524843e-001	 1.640060388744116e+000	-2.275280717241691e+001
1	 5.437218678370922e-001	 1.645842924156250e+000	-2.372634283051075e+001
1	 5.265042245356669e-001	 1.651431397679850e+000	-2.471158568086673e+001
1	 5.092729629161171e-001	 1.656826302361175e+000	-2.570219435710885e+001
1	 4.896874623491745e-001	 1.593108463673670e+000	-2.818033549925107e+001
1	 4.731087311836948e-001	 1.598110300669677e+000	-2.911143817062937e+001
1	 4.565227760385447e-001	 1.602927135455114e+000	-3.003507582447220e+001
1	 4.399324899287324e-001	 1.607559614209450e+000	-3.094798422089201e+001
1	 4.233407364581182e-001	 1.612008439076500e+000	-3.184693076224466e+001
1	 4.067503485921295e-001	 1.616274367013764e+000	-3.272871803004689e+001
1	 3.901641274764115e-001	 1.620358208614037e+000	-3.359018720060331e+001
1	 3.735848413019252e-001	 1.624260826901171e+000	-3.442822133580048e+001
1	 3.570152242169341e-001	 1.627983136101961e+000	-3.523974854589226e+001
1	 3.404579752862288e-001	 1.631526100396023e+000	-3.602174502147663e+001
1	 3.239157574978582e-001	 1.634890732645615e+000	-3.677123793221908e+001
1	 4.916460124060640e-001	 1.599480247540058e+000	-2.799614610207410e+001
1	 4.750009730801597e-001	 1.604502089843302e+000	-2.893769234820101e+001
1	 4.583486808816097e-001	 1.609338190002596e+000	-2.987152483870725e+001
1	 4.416920403962998e-001	 1.613989196781871e+000	-3.079437252050222e+001
1	 4.250339266813351e-001	 1.618455815133233e+000	-3.170299556587827e+001
1	 4.083771840328469e-001	 1.622738805041712e+000	-3.259418894372463e+001
1	 3.917246247999181e-001	 1.626838980342146e+000	-3.346478586933251e+001
1	 3.750790282451423e-001	 1.630757207510138e+000	-3.431166112917498e+001
1	 3.584431394522583e-001	 1.634494404429018e+000	-3.513173427742627e+001
1	 3.418196682812127e-001	 1.638051539134735e+000	-3.592197270134643e+001
1	 3.252112883709185e-001	 1.641429628540587e+000	-3.667939455303520e+001
1	 4.936045624628233e-001	 1.605852031407194e+000	-2.779818419303644e+001
1	 4.768932149765300e-001	 1.610893879017622e+000	-2.874910899330998e+001
1	 4.601745857246076e-001	 1.615749244550718e+000	-2.969209046146439e+001
1	 4.434515908638193e-001	 1.620418779354871e+000	-3.062385540297729e+001
1	 4.267271169045154e-001	 1.624903191190487e+000	-3.154116148960326e+001
1	 4.100040194735311e-001	 1.629203243070121e+000	-3.244080085592077e+001
1	 3.932851221233866e-001	 1.633319752070662e+000	-3.331960357444385e+001
1	 3.765732151883082e-001	 1.637253588119463e+000	-3.417444100564561e+001
1	 3.598710546875104e-001	 1.641005672756396e+000	-3.500222901958684e+001
1	 3.431813612760959e-001	 1.644576977873742e+000	-3.579993108624083e+001
1	 3.265068192438411e-001	 1.647968524435843e+000	-3.656456123195892e+001
1	 4.955631125194850e-001	 1.612223815274991e+000	-2.758630860402725e+001
1	 4.787854568728292e-001	 1.617285668192561e+000	-2.854554812327227e+001
1	 4.620004905675545e-001	 1.622160299099407e+000	-2.949663500628905e+001
1	 4.452111413313025e-001	 1.626848361928386e+000	-3.043629853243779e+001
1	 4.284203071276679e-001	 1.631350567248200e+000	-3.136129854555385e+001
1	 4.116308549141898e-001	 1.635667681098937e+000	-3.226842906691611e+001
1	 3.948456194468263e-001	 1.639800523799534e+000	-3.315452178686743e+001
1	 3.780674021314359e-001	 1.643749968729099e+000	-3.401644943138361e+001
1	 3.612989699227087e-001	 1.647516941084049e+000	-3.485112900025923e+001
1	 3.445430542709035e-001	 1.651102416612997e+000	-3.565552487395112e+001
1	 3.278023501166604e-001	 1.654507420331330e+000	-3.642665178649942e+001
1	 4.975216625760818e-001	 1.618595599143369e+000	-2.736038038983119e+001
1	 4.806776987690811e-001	 1.623677457368042e+000	-2.832687195963342e+001
1	 4.638263954104682e-001	 1.628571353648595e+000	-2.928502295479923e+001
1	 4.469706917987620e-001	 1.633277944502351e+000	-3.023156968831825e+001
1	 4.301134973508022e-001	 1.637797943306314e+000	-3.116327879271006e+001
1	 4.132576903548320e-001	 1.642132119128106e+000	-3.207695084056868e+001
1	 3.964061167702470e-001	 1.646281295528714e+000	-3.296942384394310e+001
1	 3.795615890745382e-001	 1.650246349339002e+000	-3.383757662882146e+001
1	 3.627268851578711e-001	 1.654028209411931e+000	-3.467833208136991e+001
1	 3.459047472656608e-001	 1.657627855352454e+000	-3.548866026293849e+001
1	 3.290978809894109e-001	 1.661046316227001e+000	-3.626558139123333e+001
1	 4.994802126326459e-001	 1.624967383012244e+000	-2.712026278454719e+001
1	 4.825699406653091e-001	 1.630069246543986e+000	-2.809294488495274e+001
1	 4.656523002533649e-001	 1.634982408198208e+000	-2.905712091417767e+001
1	 4.487302422662093e-001	 1.639707527076702e+000	-3.000953872389197e+001
1	 4.318066875739272e-001	 1.644245319364772e+000	-3.094697629676851e+001
1	 4.148845257954658e-001	 1.648596557157575e+000	-3.186624536581675e+001
1	 3.979666140936579e-001	 1.652762067258152e+000	-3.276419491283093e+001
1	 3.810557760176275e-001	 1.656742729949124e+000	-3.363771454222017e+001
1	 3.641548003930153e-001	 1.660539477739997e+000	-3.448373772685068e+001
1	 3.472664402603927e-001	 1.664153294092064e+000	-3.529924492291404e+001
1	 3.303934118621270e-001	 1.667585212122803e+000	-3.608126655119840e+001
1	 5.014387626892101e-001	 1.631339166881533e+000	-2.686582115902763e+001
1	 4.844621825615373e-001	 1.636461035720317e+000	-2.784363340059970e+001
1	 4.674782050962617e-001	 1.641393462748176e+000	-2.881279757566110e+001
1	 4.504897927336566e-001	 1.646137109651372e+000	-2.977007752577099e+001
1	 4.334998777970523e-001	 1.650692695423513e+000	-3.071226709095264e+001
1	 4.165113612360994e-001	 1.655060995187289e+000	-3.163619371908120e+001
1	 3.995271114170690e-001	 1.659242838987799e+000	-3.253872195477379e+001
1	 3.825499629607168e-001	 1.663239110559418e+000	-3.341675680404206e+001
1	 3.655827156281598e-001	 1.667050746068203e+000	-3.426724697135253e+001
1	 3.486281332551247e-001	 1.670678732831783e+000	-3.508718796610518e+001
1	 3.316889427348432e-001	 1.674124108018686e+000	-3.587362507591046e+001
1	 5.033973127458067e-001	 1.637710950751154e+000	-2.659692297931076e+001
1	 4.863544244577892e-001	 1.642852824896956e+000	-2.757880608553666e+001
1	 4.693041099391750e-001	 1.647804517298428e+000	-2.855192367399917e+001
1	 4.522493432011158e-001	 1.652566692226297e+000	-2.951305997435279e+001
1	 4.351930680201865e-001	 1.657140071482478e+000	-3.045902913773758e+001
1	 4.181381966767416e-001	 1.661525433217197e+000	-3.138667882755047e+001
1	 4.010876087404895e-001	 1.665723610717605e+000	-3.229289369019769e+001
1	 3.840441499038189e-001	 1.669735491169838e+000	-3.317459870211086e+001
1	 3.670106308633221e-001	 1.673562014396501e+000	-3.402876238968930e+001
1	 3.499898262498818e-001	 1.677204171571562e+000	-3.485239991919235e+001
1	 3.329844736075938e-001	 1.680663003914599e+000	-3.564257605398695e+001
1	 5.053558628024685e-001	 1.644082734621023e+000	-2.631343776602154e+001
1	 4.882466663540884e-001	 1.649244614073828e+000	-2.729833355605890e+001
1	 4.711300147821223e-001	 1.654215571848892e+000	-2.827437194785436e+001
1	 4.540088936685993e-001	 1.658996274801413e+000	-2.923836190518167e+001
1	 4.368862582433391e-001	 1.663587447541609e+000	-3.018714229146474e+001
1	 4.197650321174003e-001	 1.667989871247243e+000	-3.111758543331417e+001
1	 4.026481060639292e-001	 1.672204382447522e+000	-3.202660056462160e+001
1	 3.855383368469467e-001	 1.676231871780339e+000	-3.291113714753387e+001
1	 3.684385460985205e-001	 1.680073282724848e+000	-3.376818806699257e+001
1	 3.513515192446895e-001	 1.683729610311356e+000	-3.459479269590371e+001
1	 3.342800044804131e-001	 1.687201899810492e+000	-3.538803982836092e+001
1	 5.073144128592277e-001	 1.650454518491057e+000	-2.601523705471043e+001
1	 4.901389082504586e-001	 1.655636403250854e+000	-2.700208842646806e+001
1	 4.729559196251201e-001	 1.660626626399497e+000	-2.798001710112083e+001
1	 4.557684441361187e-001	 1.665425857376654e+000	-2.894586107121089e+001
1	 4.385794484665194e-001	 1.670034823600846e+000	-2.989648826182402e+001
1	 4.213918675580844e-001	 1.674454309277374e+000	-3.082880005833091e+001
1	 4.042086033873978e-001	 1.678685154177500e+000	-3.173973471535885e+001
1	 3.870325237901126e-001	 1.682728252390872e+000	-3.262627064336657e+001
1	 3.698664613337727e-001	 1.686584551053196e+000	-3.348542956955848e+001
1	 3.527132122395726e-001	 1.690255049051117e+000	-3.431427957023660e+001
1	 3.355755353533356e-001	 1.693740795706313e+000	-3.510993797206744e+001
1	 5.092729629161171e-001	 1.656826302361175e+000	-2.570219435710885e+001
1	 4.920311501469236e-001	 1.662028192427957e+000	-2.668994527065188e+001
1	 4.747818244681851e-001	 1.667037680950171e+000	-2.766873576513525e+001
1	 4.575279946036860e-001	 1.671855439951955e+000	-2.863543710593150e+001
1	 4.402726386897362e-001	 1.676482199660132e+000	-2.958695057817636e+001
1	 4.230187029988017e-001	 1.680918747307537e+000	-3.052021097020354e+001
1	 4.057691007109044e-001	 1.685165925907489e+000	-3.143218993898462e+001
1	 3.885267107333296e-001	 1.689224633001393e+000	-3.231989925400294e+001
1	 3.712943765690968e-001	 1.693095819381501e+000	-3.318039391636568e+001
1	 3.540749052345564e-001	 1.696780487790798e+000	-3.401077515030410e+001
1	 3.368710662263960e-001	 1.700279691602014e+000	-3.480819326459210e+001
1	 3.239157574978582e-001	 1.634890732645615e+000	-3.677123793221908e+001
1	 3.073936732910061e-001	 1.638077628498721e+000	-3.748406973167911e+001
1	 2.908918240118034e-001	 1.641088412976345e+000	-3.815539049608852e+001
1	 2.744127541062840e-001	 1.643924238039060e+000	-3.878094913549785e+001
1	 2.579589685574620e-001	 1.646586299037103e+000	-3.935656479024094e+001
1	 2.415329321319333e-001	 1.649075833369447e+000	-3.987813127098986e+001
1	 2.251370686738320e-001	 1.651394119133861e+000	-4.034162128411975e+001
1	 2.087737604459027e-001	 1.653542473769713e+000	-4.074309044021610e+001
1	 1.924453475173707e-001	 1.655522252695209e+000	-4.107868104411307e+001
1	 1.761541271982328e-001	 1.657334847940780e+000	-4.134462566538176e+001
1	 1.599023535195375e-001	 1.658981686780223e+000	-4.153725048870649e+001
1	 3.252112883709185e-001	 1.641429628540587e+000	-3.667939455303520e+001
1	 3.086231225682338e-001	 1.644629270676910e+000	-3.739975905697136e+001
1	 2.920552726246377e-001	 1.647652097064122e+000	-3.807811852013304e+001
1	 2.755102931629164e-001	 1.650499264270161e+000	-3.871018817973898e+001
1	 2.589906991850010e-001	 1.653171972426168e+000	-3.929175460525608e+001
1	 2.424989653155539e-001	 1.655671463880202e+000	-3.981868019291660e+001
1	 2.260375250931032e-001	 1.657999021841892e+000	-4.028690744215462e+001
1	 2.096087703084788e-001	 1.660155969019819e+000	-4.069246301179173e+001
1	 1.932150503902341e-001	 1.662143666253301e+000	-4.103146155434945e+001
1	 1.768586718366746e-001	 1.663963511140317e+000	-4.130010932741425e+001
1	 1.605418976940590e-001	 1.665616936663167e+000	-4.149470758150832e+001
1	 3.265068192438411e-001	 1.647968524435843e+000	-3.656456123195892e+001
1	 3.098525718452795e-001	 1.651180912855387e+000	-3.729180259260883e+001
1	 2.932187212372420e-001	 1.654215781152202e+000	-3.797661298669997e+001
1	 2.766078322192715e-001	 1.657074290501588e+000	-3.861467321669213e+001
1	 2.600224298122194e-001	 1.659757645815585e+000	-3.920173629249501e+001
1	 2.434649984988196e-001	 1.662267094391330e+000	-3.973363198748237e+001
1	 2.269379815119977e-001	 1.664603924550310e+000	-4.020627117320640e+001
1	 2.104437801706726e-001	 1.666769464270312e+000	-4.061564993060755e+001
1	 1.939847532627300e-001	 1.668765079811762e+000	-4.095785343608120e+001
1	 1.775632164747878e-001	 1.670592174340182e+000	-4.122905962131150e+001
1	 1.611814418683190e-001	 1.672252186546373e+000	-4.142554260631945e+001
1	 3.278023501166604e-001	 1.654507420331330e+000	-3.642665178649942e+001
1	 3.110820211221888e-001	 1.657732555034092e+000	-3.716012243683080e+001
1	 2.943821698496740e-001	 1.660779465240521e+000	-3.785080199822780e+001
1	 2.777053712754186e-001	 1.663649316733266e+000	-3.849433609190756e+001
1	 2.610541604391976e-001	 1.666343319205270e+000	-3.908644319656377e+001
1	 2.444310316818189e-001	 1.668862724902740e+000	-3.962291927286980e+001
1	 2.278384379306092e-001	 1.671208827259018e+000	-4.009964216362826e+001
1	 2.112787900325794e-001	 1.673382959521094e+000	-4.051257576730846e+001
1	 1.947544561349502e-001	 1.675386493370500e+000	-4.085777398329854e+001
1	 1.782677611126548e-001	 1.677220837540294e+000	-4.113138442775254e+001
1	 1.618209860423831e-001	 1.678887436429775e+000	-4.132965191944877e+001
1	 3.290978809894109e-001	 1.661046316227001e+000	-3.626558139123333e+001
1	 3.123114703990073e-001	 1.664284197212973e+000	-3.700464191455148e+001
1	 2.955456184619911e-001	 1.667343149329012e+000	-3.770061478928613e+001
1	 2.788029103314271e-001	 1.670224342965123e+000	-3.834910972412644e+001
1	 2.620858910660155e-001	 1.672928992595140e+000	-3.894580971165461e+001
1	 2.453970648646408e-001	 1.675458355414341e+000	-3.948647572828499e+001
1	 2.287388943490323e-001	 1.677813729967921e+000	-3.996695120696213e+001
1	 2.121137998942950e-001	 1.679996454772071e+000	-4.038316628028213e+001
1	 1.955241590069866e-001	 1.682007906929424e+000	-4.073114179231675e+001
1	 1.789723057503575e-001	 1.683849500740571e+000	-4.100699307796656e+001
1	 1.624605302163164e-001	 1.685522686313308e+000	-4.120693350922435e+001
1	 3.303934118621270e-001	 1.667585212122803e+000	-3.608126655119840e+001
1	 3.135409196757802e-001	 1.670835839391968e+000	-3.682528555331030e+001
1	 2.967090670742507e-001	 1.673906833417610e+000	-3.752598170437697e+001
1	 2.799004493873660e-001	 1.676799369197082e+000	-3.817892808423709e+001
1	 2.631176216927533e-001	 1.679514665985110e+000	-3.877977126096464e+001
1	 2.463630980473739e-001	 1.682053985926043e+000	-3.932423607315443e+001
1	 2.296393507673612e-001	 1.684418632676925e+000	-3.980813018223125e+001
1	 2.129488097559151e-001	 1.686609950023146e+000	-4.022734839237228e+001
1	 1.962938618789311e-001	 1.688629320488438e+000	-4.057787673624127e+001
1	 1.796768503879780e-001	 1.690478163940929e+000	-4.085579632529433e+001
1	 1.631000743901845e-001	 1.692157936196906e+000	-4.105728696399577e+001
1	 3.316889427348432e-001	 1.674124108018686e+000	-3.587362507591046e+001
1	 3.147703689525531e-001	 1.677387481571024e+000	-3.662197905978655e+001
1	 2.978725156865105e-001	 1.680470517506249e+000	-3.732683417626234e+001
1	 2.809979884433051e-001	 1.683374395429068e+000	-3.798372617472997e+001
1	 2.641493523194912e-001	 1.686100339375096e+000	-3.858826427660271e+001
1	 2.473291312301070e-001	 1.688649616437755e+000	-3.913613604680980e+001
1	 2.305398071856901e-001	 1.691023535385935e+000	-3.962311203274099e+001
1	 2.137838196175352e-001	 1.693223445274223e+000	-4.004505016813847e+001
1	 1.970635647508757e-001	 1.695250734047455e+000	-4.039789994003333e+001
1	 1.803813950255986e-001	 1.697106827141288e+000	-4.067770631741522e+001
1	 1.637396185640525e-001	 1.698793186080504e+000	-4.088061344088683e+001
1	 3.329844736075938e-001	 1.680663003914599e+000	-3.564257605398695e+001
1	 3.159998182293716e-001	 1.683939123750080e+000	-3.639464929685852e+001
1	 2.990359642988275e-001	 1.687034201594863e+000	-3.710310470479000e+001
1	 2.820955274993135e-001	 1.689949421661007e+000	-3.776344000962720e+001
1	 2.651810829463090e-001	 1.692686012765018e+000	-3.837122617996138e+001
1	 2.482951644129290e-001	 1.695245246949386e+000	-3.892211238864842e+001
1	 2.314402636041132e-001	 1.697628438094853e+000	-3.941183074537607e+001
1	 2.146188294792508e-001	 1.699836940525207e+000	-3.983620079164376e+001
1	 1.978332676229121e-001	 1.701872147606379e+000	-4.019113375615922e+001
1	 1.810859396633013e-001	 1.703735490341565e+000	-4.047263656922279e+001
1	 1.643791627379858e-001	 1.705428435964037e+000	-4.067681563527821e+001
1	 3.342800044804131e-001	 1.687201899810492e+000	-3.538803982836092e+001
1	 3.172292675062811e-001	 1.690490765929081e+000	-3.614322426120156e+001
1	 3.001994129112596e-001	 1.693597885683388e+000	-3.685472683621719e+001
1	 2.831930665554606e-001	 1.696524447892823e+000	-3.751800659488318e+001
1	 2.662128135732872e-001	 1.699271686154789e+000	-3.812859536254666e+001
1	 2.492611975959284e-001	 1.701840877460847e+000	-3.868210281875402e+001
1	 2.323407200227248e-001	 1.704233340803587e+000	-3.917422133037626e+001
1	 2.154538393411576e-001	 1.706450435776000e+000	-3.960073054476332e+001
1	 1.986029704951323e-001	 1.708493561165121e+000	-3.995750174080067e+001
1	 1.817904843011682e-001	 1.710364153541677e+000	-4.024050193633023e+001
1	 1.650187069120498e-001	 1.712063685847439e+000	-4.044579775099892e+001
1	 3.355755353533356e-001	 1.693740795706313e+000	-3.510993797206744e+001
1	 3.184587167833267e-001	 1.697042408107969e+000	-3.586763306140099e+001
1	 3.013628615238639e-001	 1.700161569771757e+000	-3.658163514301228e+001
1	 2.842906056118157e-001	 1.703099474124443e+000	-3.724736390923530e+001
1	 2.672445442005057e-001	 1.705857359544326e+000	-3.786031116725110e+001
1	 2.502272307791939e-001	 1.708436507972044e+000	-3.841604601896457e+001
1	 2.332411764416191e-001	 1.710838243512040e+000	-3.891021980158440e+001
1	 2.162888492033513e-001	 1.713063931026508e+000	-3.933857078599133e+001
1	 1.993726733676282e-001	 1.715114974723586e+000	-3.969692863062134e+001
1	 1.824950289392815e-001	 1.716992816741543e+000	-3.998121858919058e+001
1	 1.656582510863099e-001	 1.718698935730644e+000	-4.018746547120782e+001
1	 3.368710662263960e-001	 1.700279691602014e+000	-3.480819326459210e+001
1	 3.196881660605543e-001	 1.703594050286686e+000	-3.556780589657057e+001
1	 3.025263101366981e-001	 1.706725253859904e+000	-3.628376520412107e+001
1	 2.853881446684482e-001	 1.709674500355790e+000	-3.695145088549982e+001
1	 2.682762748280446e-001	 1.712443032933547e+000	-3.756631387006156e+001
1	 2.511932639628146e-001	 1.715032138482888e+000	-3.812388161438148e+001
1	 2.341416328608904e-001	 1.717443146220116e+000	-3.861976315714680e+001
1	 2.171238590659275e-001	 1.719677426276633e+000	-3.904965392974017e+001
1	 2.001423762404916e-001	 1.721736388281684e+000	-3.940934032006630e+001
1	 1.831995735777232e-001	 1.723621479941080e+000	-3.969470398781483e+001
1	 1.662977952608313e-001	 1.725334185613589e+000	-3.990172592994918e+001
1	 1.599023535195375e-001	 1.658981686780223e+000	-4.153725048870649e+001
1	 1.436898138727403e-001	 1.660464440569369e+000	-4.165395267938428e+001
1	 1.275211442140091e-001	 1.661784344475902e+000	-4.169336737014818e+001
1	 1.113984995945325e-001	 1.662942924358685e+000	-4.165387567318615e+001
1	 9.532398912352270e-002	 1.663941735890127e+000	-4.153393361564201e+001
1	 7.929967567523567e-002	 1.664782363185058e+000	-4.133207201660891e+001
1	 6.332757563927832e-002	 1.665466417436829e+000	-4.104689627450647e+001
1	 4.740965871336957e-002	 1.665995535562018e+000	-4.067708606780939e+001
1	 3.154784773768926e-002	 1.666371378854980e+000	-4.022139497216611e+001
1	 1.574401856991394e-002	 1.666595631653491e+000	-3.967864999701754e+001
1	 0.000000000000000e+000	 1.666670000016666e+000	-3.904775104486888e+001
1	 1.605418976940590e-001	 1.665616936663167e+000	-4.149470758150832e+001
1	 1.442645145034967e-001	 1.667105620862422e+000	-4.161265392287555e+001
1	 1.280311767630719e-001	 1.668430803845940e+000	-4.165264756354863e+001
1	 1.118440481432776e-001	 1.669594017575405e+000	-4.161314051573960e+001
1	 9.570524618888120e-002	 1.670596823945298e+000	-4.149265780120661e+001
1	 7.961684202477348e-002	 1.671440813406267e+000	-4.128979728003370e+001
1	 6.358086010527686e-002	 1.672127603595793e+000	-4.100322939427029e+001
1	 4.759927800607747e-002	 1.672658837977463e+000	-4.063169682932787e+001
1	 3.167402625791174e-002	 1.673036184490139e+000	-4.017401409610730e+001
1	 1.580698822110221e-002	 1.673261334208274e+000	-3.962906703687288e+001
1	 0.000000000000000e+000	 1.673336000014533e+000	-3.899581225795057e+001
1	 1.611814418683190e-001	 1.672252186546373e+000	-4.142554260631945e+001
1	 1.448392151340877e-001	 1.673746801155640e+000	-4.154468595733588e+001
1	 1.285412093120838e-001	 1.675077263216021e+000	-4.158521824848958e+001
1	 1.122895966920915e-001	 1.676245110792036e+000	-4.154563062759916e+001
1	 9.608650325442086e-002	 1.677251912000235e+000	-4.142448662128616e+001
1	 7.993400837458460e-002	 1.678099263627101e+000	-4.122042192997662e+001
1	 6.383414457160815e-002	 1.678788789754250e+000	-4.093214413980493e+001
1	 4.778889729913253e-002	 1.679322140392283e+000	-4.055843235431432e+001
1	 3.180020477843861e-002	 1.679700990124582e+000	-4.009813674890393e+001
1	 1.586995787248308e-002	 1.679927036762280e+000	-3.955017805102682e+001
1	 0.000000000000000e+000	 1.680002000011600e+000	-3.891354694919018e+001
1	 1.618209860423831e-001	 1.678887436429775e+000	-4.132965191944877e+001
1	 1.454139157645546e-001	 1.680387981448981e+000	-4.144993661388630e+001
1	 1.290512418610575e-001	 1.681723722586136e+000	-4.149096706270448e+001
1	 1.127351452409571e-001	 1.682896204008598e+000	-4.145124213140920e+001
1	 9.646776032009645e-002	 1.683907000054997e+000	-4.132933369756427e+001
1	 8.025117472460075e-002	 1.684757713847654e+000	-4.112388642637443e+001
1	 6.408742903818900e-002	 1.685449975912325e+000	-4.083361746280690e+001
1	 4.797851659244794e-002	 1.685985442806634e+000	-4.045731604318531e+001
1	 3.192638329919379e-002	 1.686365795758486e+000	-3.999384302925169e+001
1	 1.593292752400839e-002	 1.686592739315701e+000	-3.944213036773749e+001
1	 0.000000000000000e+000	 1.686668000008066e+000	-3.880118047853875e+001
1	 1.624605302163164e-001	 1.685522686313308e+000	-4.120693350922435e+001
1	 1.459886163949389e-001	 1.687029161742404e+000	-4.132829548990865e+001
1	 1.295612744100057e-001	 1.688370181956273e+000	-4.136978341323193e+001
1	 1.131806937898572e-001	 1.689547297225114e+000	-4.132987278551445e+001
1	 9.684901738586264e-002	 1.690562088109642e+000	-4.120711401187840e+001
1	 8.056834107475359e-002	 1.691416164068020e+000	-4.100013216671161e+001
1	 6.434071350493623e-002	 1.692111162070146e+000	-4.070762667790365e+001
1	 4.816813588593695e-002	 1.692648745220673e+000	-4.032837092788757e+001
1	 3.205256182010117e-002	 1.693030601392032e+000	-3.986121177458138e+001
1	 1.599589717563000e-002	 1.693258441868734e+000	-3.930506899536999e+001
1	 0.000000000000000e+000	 1.693334000004133e+000	-3.865893465733323e+001
1	 1.631000743901845e-001	 1.692157936196906e+000	-4.105728696399577e+001
1	 1.465633170252818e-001	 1.693670342035869e+000	-4.117965391441778e+001
1	 1.300713069589412e-001	 1.695016641326421e+000	-4.122155844172934e+001
1	 1.136262423387744e-001	 1.696198390441608e+000	-4.118142195188997e+001
1	 9.723027445167415e-002	 1.697217176164229e+000	-4.105774387955216e+001
1	 8.088550742497476e-002	 1.698074614288291e+000	-4.084910146763822e+001
1	 6.459399797176668e-002	 1.698772348227841e+000	-4.055414945554007e+001
1	 4.835775517951275e-002	 1.699312047634556e+000	-4.017161967912368e+001
1	 3.217874034108466e-002	 1.699695407025399e+000	-3.970032058578620e+001
1	 1.605886682729975e-002	 1.699924144421573e+000	-3.913913666788226e+001
1	 0.000000000000000e+000	 1.700000000000000e+000	-3.848702781787114e+001
1	 1.637396185640525e-001	 1.698793186080504e+000	-4.088061344088683e+001
1	 1.471380176556247e-001	 1.700311522329333e+000	-4.100390491424076e+001
1	 1.305813395078766e-001	 1.701663100696570e+000	-4.104618499059639e+001
1	 1.140717908876917e-001	 1.702849483658101e+000	-4.100579056482494e+001
1	 9.761153151748563e-002	 1.703872264218816e+000	-4.088114092335331e+001
1	 8.120267377519592e-002	 1.704733064508563e+000	-4.067073754701816e+001
1	 6.484728243859711e-002	 1.705433534385534e+000	-4.037316381502861e+001
1	 4.854737447308854e-002	 1.705975350048439e+000	-3.998708461340401e+001
1	 3.230491886206814e-002	 1.706360212658766e+000	-3.951124585137173e+001
1	 1.612183647896950e-002	 1.706589846974412e+000	-3.894447388924159e+001
1	 0.000000000000000e+000	 1.706665999995867e+000	-3.828567488135330e+001
1	 1.643791627379858e-001	 1.705428435964037e+000	-4.067681563527821e+001
1	 1.477127182860090e-001	 1.706952702622757e+000	-4.080094318099161e+001
1	 1.310913720568248e-001	 1.708309560066706e+000	-4.084355756988818e+001
1	 1.145173394365917e-001	 1.709500576874617e+000	-4.080288110033431e+001
1	 9.799278858325179e-002	 1.710527352273461e+000	-4.067722404805902e+001
1	 8.151984012534874e-002	 1.711391514728928e+000	-4.046498450640045e+001
1	 6.510056690534437e-002	 1.712094720543356e+000	-4.016464811776306e+001
1	 4.873699376657754e-002	 1.712638652462478e+000	-3.977478769994159e+001
1	 3.243109738297553e-002	 1.713025018292312e+000	-3.929406277104089e+001
1	 1.618480613059111e-002	 1.713255549527444e+000	-3.872121897680584e+001
1	 0.000000000000000e+000	 1.713331999991934e+000	-3.805508742424119e+001
1	 1.650187069120498e-001	 1.712063685847439e+000	-4.044579775099892e+001
1	 1.482874189164758e-001	 1.713593882916097e+000	-4.057066503881087e+001
1	 1.316014046057985e-001	 1.714956019436821e+000	-4.061357232500310e+001
1	 1.149628879854574e-001	 1.716151670091179e+000	-4.057259754628342e+001
1	 9.837404564892738e-002	 1.717182440328223e+000	-4.044591341561608e+001
1	 8.183700647536490e-002	 1.718049964949481e+000	-4.023178731389238e+001
1	 6.535385137192523e-002	 1.718755906701431e+000	-3.992858106058954e+001
1	 4.892661305989297e-002	 1.719301954876830e+000	-3.953475056737720e+001
1	 3.255727590373070e-002	 1.719689823926216e+000	-3.904884537872839e+001
1	 1.624777578211642e-002	 1.719921252080867e+000	-3.846950810369455e+001
1	 0.000000000000000e+000	 1.719997999988401e+000	-3.779547374307163e+001
1	 1.656582510863099e-001	 1.718698935730644e+000	-4.018746547120782e+001
1	 1.488621195470669e-001	 1.720235063209314e+000	-4.031296841285127e+001
1	 1.321114371548103e-001	 1.721602478806902e+000	-4.035612700511177e+001
1	 1.154084365342713e-001	 1.722802763307809e+000	-4.031484537320604e+001
1	 9.875530271446709e-002	 1.723837528383160e+000	-4.018713042086984e+001
1	 8.215417282517604e-002	 1.724708415170315e+000	-3.997109178743382e+001
1	 6.560713583825652e-002	 1.725417092859887e+000	-3.966494166933263e+001
1	 4.911623235294803e-002	 1.725965257291649e+000	-3.926699451035783e+001
1	 3.268345442425758e-002	 1.726354629560658e+000	-3.877566656510768e+001
1	 1.631074543349728e-002	 1.726586954634872e+000	-3.818947534018199e+001
1	 0.000000000000000e+000	 1.726663999985468e+000	-3.750703891776929e+001
1	 1.662977952608313e-001	 1.725334185613589e+000	-3.990172592994918e+001
1	 1.494368201778233e-001	 1.726876243502368e+000	-4.002775279849330e+001
1	 1.326214697038732e-001	 1.728248938176940e+000	-4.007112093232099e+001
1	 1.158539850830164e-001	 1.729453856524530e+000	-4.002953150579410e+001
1	 9.913655977982550e-002	 1.730492616438330e+000	-3.990079766785984e+001
1	 8.247133917471385e-002	 1.731366865391524e+000	-3.968284457845646e+001
1	 6.586042030425503e-002	 1.732078279018852e+000	-3.937370929246760e+001
1	 4.930585164565591e-002	 1.732628559707094e+000	-3.897154049595603e+001
1	 3.280963294448005e-002	 1.733019435195818e+000	-3.847459809957140e+001
1	 1.637371508468555e-002	 1.733252657189655e+000	-3.788125269413001e+001
1	 0.000000000000000e+000	 1.733329999983334e+000	-3.718998487349887e+001
1	 1.733329999983334e+000	 0.000000000000000e+000	 1.460783967369707e+001
1	 1.733252657189655e+000	 1.637371508468560e-002	 1.405987077943455e+001
1	 1.733019435195817e+000	 3.280963294448016e-002	 1.351096253218544e+001
1	 1.732628559707093e+000	 4.930585164565578e-002	 1.296240237764621e+001
1	 1.732078279018852e+000	 6.586042030425496e-002	 1.241548474395202e+001
1	 1.731366865391524e+000	 8.247133917471382e-002	 1.187150972437314e+001
1	 1.730492616438330e+000	 9.913655977982551e-002	 1.133178171551325e+001
1	 1.729453856524530e+000	 1.158539850830164e-001	 1.079760801193099e+001
1	 1.728248938176940e+000	 1.326214697038731e-001	 1.027029735823229e+001
1	 1.726876243502368e+000	 1.494368201778232e-001	 9.751158459806339e+000
1	 1.725334185613589e+000	 1.662977952608313e-001	 9.241498453510362e+000
1	 1.739996999982150e+000	 0.000000000000000e+000	 1.432923896306919e+001
1	 1.739919359700741e+000	 1.643669418203721e-002	 1.379395320836516e+001
1	 1.739685240652657e+000	 3.293583039301111e-002	 1.325739022804951e+001
1	 1.739292861718604e+000	 4.949549938368804e-002	 1.272086487981667e+001
1	 1.738740464456275e+000	 6.611374276632483e-002	 1.218569916998682e+001
1	 1.738026314480604e+000	 8.278855310363308e-002	 1.165322089571347e+001
1	 1.737148702856828e+000	 9.951787403924238e-002	 1.112476224131349e+001
1	 1.736105947505125e+000	 1.162996004706390e-001	 1.060165832967433e+001
1	 1.734896394615545e+000	 1.331315787655219e-001	 1.008524572982306e+001
1	 1.733518420071906e+000	 1.500116070224829e-001	 9.576860921871297e+000
1	 1.731970430883254e+000	 1.669374353768737e-001	 9.077838720686595e+000
1	 1.746663999981866e+000	 0.000000000000000e+000	 1.405653162195358e+001
1	 1.746586062212704e+000	 1.649967327917074e-002	 1.353390415865668e+001
1	 1.746351046110308e+000	 3.306202784119438e-002	 1.300966594753493e+001
1	 1.745957163730827e+000	 4.968514712131888e-002	 1.248515929769190e+001
1	 1.745402649894287e+000	 6.636706522800251e-002	 1.196173353372148e+001
1	 1.744685763570132e+000	 8.310576703221921e-002	 1.144074359016311e+001
1	 1.743804789275623e+000	 9.989918829842162e-002	 1.092354855897525e+001
1	 1.742758038485864e+000	 1.167452158581424e-001	 1.041151019103639e+001
1	 1.741543851054149e+000	 1.336416878271795e-001	 9.905991352816916e+000
1	 1.740160596641313e+000	 1.505863938672744e-001	 9.408354439500547e+000
1	 1.738606676152682e+000	 1.675770754931521e-001	 8.919959745973140e+000
1	 1.753330999982383e+000	 0.000000000000000e+000	 1.378943333054030e+001
1	 1.753252764725449e+000	 1.656265237610888e-002	 1.327947743649762e+001
1	 1.753016851568687e+000	 3.318822528906295e-002	 1.276757843544085e+001
1	 1.752621465743698e+000	 4.987479485858096e-002	 1.225510613033461e+001
1	 1.752064835332843e+000	 6.662038768931183e-002	 1.174343690948750e+001
1	 1.751345212660085e+000	 8.342298096048077e-002	 1.123395228603987e+001
1	 1.750460875694719e+000	 1.002805025573522e-001	 1.072803738963765e+001
1	 1.749410129466778e+000	 1.171908312454938e-001	 1.022707941137841e+001
1	 1.748191307492805e+000	 1.341517968887906e-001	 9.732466003255432e+000
1	 1.746802773210664e+000	 1.511611807121225e-001	 9.245583633462704e+000
1	 1.745242921421967e+000	 1.682167156095753e-001	 8.767815899071568e+000
1	 1.759997999983599e+000	 0.000000000000000e+000	 1.352766407711775e+001
1	 1.759919467238878e+000	 1.662563147287437e-002	 1.303043057847768e+001
1	 1.759682657027710e+000	 3.331442273664976e-002	 1.253091963756708e+001
1	 1.759285767757147e+000	 5.006444259550699e-002	 1.203052859665757e+001
1	 1.758727020771897e+000	 6.687371015027672e-002	 1.153066065848536e+001
1	 1.758004661750444e+000	 8.374019488842645e-002	 1.103272336360190e+001
1	 1.757116962114120e+000	 1.006618168160231e-001	 1.053812701935001e+001
1	 1.756062220447895e+000	 1.176364466326602e-001	 1.004828308165061e+001
1	 1.754838763931569e+000	 1.346619059503003e-001	 9.564602490928031e+000
1	 1.753444949780036e+000	 1.517359675569519e-001	 9.088493963647780e+000
1	 1.751879166691197e+000	 1.688563557260526e-001	 8.621362241086260e+000
1	 1.766664999985416e+000	 0.000000000000000e+000	 1.327094807678354e+001
1	 1.766586169752895e+000	 1.668861056948992e-002	 1.278652478119939e+001
1	 1.766348462487290e+000	 3.344062018398774e-002	 1.229948464031462e+001
1	 1.765950069771108e+000	 5.025409033212962e-002	 1.181125258410326e+001
1	 1.765389206211403e+000	 6.712703261092110e-002	 1.132325838563387e+001
1	 1.764664110841186e+000	 8.405740881606484e-002	 1.083693506915977e+001
1	 1.763773048533831e+000	 1.010431310744234e-001	 1.035371726954381e+001
1	 1.762714311429247e+000	 1.180820620196086e-001	 9.875039544323000e+000
1	 1.761486220370494e+000	 1.351720150116536e-001	 9.402334639866810e+000
1	 1.760087126349500e+000	 1.523107544016878e-001	 8.937031713233429e+000
1	 1.758515411960465e+000	 1.694959958424926e-001	 8.480554511478184e+000
1	 1.773331999987732e+000	 0.000000000000000e+000	 1.301901369198927e+001
1	 1.773252872267407e+000	 1.675158966597828e-002	 1.254752483247714e+001
1	 1.773014267947344e+000	 3.356681763110986e-002	 1.207307161164894e+001
1	 1.772614371785513e+000	 5.044373806848151e-002	 1.159710659848091e+001
1	 1.772051391651317e+000	 6.738035507126874e-002	 1.112108589739280e+001
1	 1.771323559932291e+000	 8.437462274340453e-002	 1.064646747999884e+001
1	 1.770429134953857e+000	 1.014244453325420e-001	 1.017470946817076e+001
1	 1.769366402410864e+000	 1.185276774063061e-001	 9.707268369859937e+000
1	 1.768133676809635e+000	 1.356821240727953e-001	 9.245597269280504e+000
1	 1.766729302919135e+000	 1.528855412462549e-001	 8.791143973209335e+000
1	 1.765151657229859e+000	 1.701356359588047e-001	 8.345349115313574e+000
1	 1.779998999990449e+000	 0.000000000000000e+000	 1.277159335487058e+001
1	 1.779919574782316e+000	 1.681456876236214e-002	 1.231319904408290e+001
1	 1.779680073407788e+000	 3.369301507804907e-002	 1.185148174338976e+001
1	 1.779278673800295e+000	 5.063338580459535e-002	 1.138792171493110e+001
1	 1.778713577091589e+000	 6.763367753134363e-002	 1.092400116053377e+001
1	 1.777983009023737e+000	 8.469183667045423e-002	 1.046120247008965e+001
1	 1.777085221374202e+000	 1.018057595903678e-001	 1.000100642148921e+001
1	 1.776018493392776e+000	 1.189732927927196e-001	 9.544890333722382e+000
1	 1.774781133249046e+000	 1.361922331336704e-001	 9.094326174917663e+000
1	 1.773371479489014e+000	 1.534603280905781e-001	 8.650778627248558e+000
1	 1.771787902499474e+000	 1.707752760748979e-001	 8.215703110798419e+000
1	 1.786665999993466e+000	 0.000000000000000e+000	 1.252842349131659e+001
1	 1.786586277297526e+000	 1.687754785866422e-002	 1.208331918599714e+001
1	 1.786345878868537e+000	 3.381921252483833e-002	 1.163451919479316e+001
1	 1.785942975815387e+000	 5.082303354050381e-002	 1.118353152998797e+001
1	 1.785375762532177e+000	 6.788699999116955e-002	 1.073186426183372e+001
1	 1.784642458115503e+000	 8.500905059722247e-002	 1.028102367656597e+001
1	 1.783741307794869e+000	 1.021870738478898e-001	 9.832512386482796e+000
1	 1.782670584375014e+000	 1.194189081788164e-001	 9.387827393886001e+000
1	 1.781428589688781e+000	 1.367023421942238e-001	 8.948458110846568e+000
1	 1.780013656059212e+000	 1.540351149345822e-001	 8.515884336918409e+000
1	 1.778424147769398e+000	 1.714149161906810e-001	 8.091574197092703e+000
1	 1.793332999996683e+000	 0.000000000000000e+000	 1.228924444673265e+001
1	 1.793252979812941e+000	 1.694052695490725e-002	 1.185766042212688e+001
1	 1.793011684329505e+000	 3.394540997151059e-002	 1.142199103739193e+001
1	 1.792607277830720e+000	 5.101268127623954e-002	 1.098377211471085e+001
1	 1.792037947973034e+000	 6.814032245077047e-002	 1.054453736866764e+001
1	 1.791301907207566e+000	 8.532626452371793e-002	 1.010581646695063e+001
1	 1.790397394215866e+000	 1.025683881050970e-001	 9.669133043893744e+000
1	 1.789322675357607e+000	 1.198645235645632e-001	 9.236002668859953e+000
1	 1.788076046128894e+000	 1.372124512544006e-001	 8.807930771641754e+000
1	 1.786655832629805e+000	 1.546099017781922e-001	 8.386410527220313e+000
1	 1.785060393039723e+000	 1.720545563060633e-001	 7.972920702396149e+000
1	 1.800000000000000e+000	 0.000000000000000e+000	 1.205380041345317e+001
1	 1.799919682328466e+000	 1.700350605111395e-002	 1.163600124745192e+001
1	 1.799677489790610e+000	 3.407160741809879e-002	 1.121370720106183e+001
1	 1.799271579846228e+000	 5.120232901183521e-002	 1.078848196885749e+001
1	 1.798700133414114e+000	 6.839364491017019e-002	 1.036188469047718e+001
1	 1.797961356299908e+000	 8.564347844994921e-002	 9.935467907109848e+000
1	 1.797053480637194e+000	 1.029497023619785e-001	 9.510775471855842e+000
1	 1.795974766340585e+000	 1.203101389499273e-001	 9.089340416194622e+000
1	 1.794723502569440e+000	 1.377225603141456e-001	 8.672682774966715e+000
1	 1.793298009200867e+000	 1.551846886213329e-001	 8.262307372451780e+000
1	 1.791696638310540e+000	 1.726941964209536e-001	 7.859701572298665e+000
1	 1.725334185613589e+000	 1.662977952608313e-001	 9.241498453510362e+000
1	 1.723621479941080e+000	 1.831995735777232e-001	 8.736942437878287e+000
1	 1.721736388281684e+000	 2.001423762404914e-001	 8.232936600312328e+000
1	 1.719677426276633e+000	 2.171238590659275e-001	 7.730723054746977e+000
1	 1.717443146220116e+000	 2.341416328608902e-001	 7.231513316629201e+000
1	 1.715032138482888e+000	 2.511932639628145e-001	 6.736485963926783e+000
1	 1.712443032933547e+000	 2.682762748280447e-001	 6.246784292711397e+000
1	 1.709674500355791e+000	 2.853881446684482e-001	 5.763513971607651e+000
1	 1.706725253859903e+000	 3.025263101366982e-001	 5.287740699532415e+000
1	 1.703594050286686e+000	 3.196881660605542e-001	 4.820487871281745e+000
1	 1.700279691602013e+000	 3.368710662263961e-001	 4.362734255641624e+000
1	 1.731970430883254e+000	 1.669374353768737e-001	 9.077838720686595e+000
1	 1.730251137539157e+000	 1.839042239088101e-001	 8.583697335868534e+000
1	 1.728358795150721e+000	 2.009121945807593e-001	 8.089760562924358e+000
1	 1.726291913649813e+000	 2.179589941929544e-001	 7.597269709964818e+000
1	 1.724049039762244e+000	 2.350422243625717e-001	 7.107434990997403e+000
1	 1.721628758436840e+000	 2.521594420663184e-001	 6.621433173390301e+000
1	 1.719029694272197e+000	 2.693081602310289e-001	 6.140405220492975e+000
1	 1.716250512939384e+000	 2.864858483727273e-001	 5.665453933747762e+000
1	 1.713289922598861e+000	 3.036899332845457e-001	 5.197641598764376e+000
1	 1.710146675309802e+000	 3.209177997738291e-001	 4.737987639959143e+000
1	 1.706819568430031e+000	 3.381667914486827e-001	 4.287466288480337e+000
1	 1.738606676152682e+000	 1.675770754931521e-001	 8.919959745973140e+000
1	 1.736880795136925e+000	 1.846088742402069e-001	 8.436217657225244e+000
1	 1.734981202019403e+000	 2.016820129213816e-001	 7.952329783849090e+000
1	 1.732906401022620e+000	 2.187941293203549e-001	 7.469535874740837e+000
1	 1.730654933303999e+000	 2.359428158646245e-001	 6.989044065377294e+000
1	 1.728225378390438e+000	 2.531256201701740e-001	 6.512028512735805e+000
1	 1.725616355610525e+000	 2.703400456343321e-001	 6.039627026022931e+000
1	 1.722826525522695e+000	 2.875835520772833e-001	 5.572938697592019e+000
1	 1.719854591337579e+000	 3.048535564326230e-001	 5.113021538567020e+000
1	 1.716699300332726e+000	 3.221474334872859e-001	 4.660890123818913e+000
1	 1.713359445257894e+000	 3.394625166711073e-001	 4.217513251061443e+000
1	 1.745242921421967e+000	 1.682167156095753e-001	 8.767815899071568e+000
1	 1.743510452734483e+000	 1.853135245718127e-001	 8.294465906957161e+000
1	 1.741603608887835e+000	 2.024518312622533e-001	 7.820614767536691e+000
1	 1.739520888395156e+000	 2.196292644480248e-001	 7.347499929076659e+000
1	 1.737260826845480e+000	 2.368434073669490e-001	 6.876326683635549e+000
1	 1.734821998343771e+000	 2.540917982742895e-001	 6.408265790432877e+000
1	 1.732203016948608e+000	 2.713719310378722e-001	 5.944451095750436e+000
1	 1.729402538105790e+000	 2.886812557820459e-001	 5.485977153791147e+000
1	 1.726419260076111e+000	 3.060171795808724e-001	 5.033896853058120e+000
1	 1.723251925355489e+000	 3.233770672008791e-001	 4.589219052945932e+000
1	 1.719899322085622e+000	 3.407582418936351e-001	 4.152906235353306e+000
1	 1.751879166691197e+000	 1.688563557260526e-001	 8.621362241086260e+000
1	 1.750140110331933e+000	 1.860181749035265e-001	 8.158405158207636e+000
1	 1.748226015756122e+000	 2.032216496032693e-001	 7.694586465362112e+000
1	 1.746135375767526e+000	 2.204643995758591e-001	 7.231140580566166e+000
1	 1.743866720386786e+000	 2.377439988694453e-001	 6.769269199590841e+000
1	 1.741418618296932e+000	 2.550579763785728e-001	 6.310138908767136e+000
1	 1.738789678286527e+000	 2.724038164415678e-001	 5.854878795117173e+000
1	 1.735978550688731e+000	 2.897789594869453e-001	 5.404578058282261e+000
1	 1.732983928814502e+000	 3.071808027292359e-001	 4.960283628856542e+000
1	 1.729804550378127e+000	 3.246067009145631e-001	 4.522997797860492e+000
1	 1.726439198913232e+000	 3.420539671162316e-001	 4.093675862210165e+000
1	 1.758515411960465e+000	 1.694959958424926e-001	 8.480554511478184e+000
1	 1.756769767929376e+000	 1.867228252352476e-001	 8.027999041534184e+000
1	 1.754848422624370e+000	 2.039914679443244e-001	 7.574216267192118e+000
1	 1.752749863139835e+000	 2.212995347037537e-001	 7.120436858214255e+000
1	 1.750472613928017e+000	 2.386445903720133e-001	 6.667858173052390e+000
1	 1.748015238250009e+000	 2.560241544829318e-001	 6.217641862069866e+000
1	 1.745376339624358e+000	 2.734357018453367e-001	 5.770911468953246e+000
1	 1.742554563271583e+000	 2.908766631919111e-001	 5.328750034831067e+000
1	 1.739548597552804e+000	 3.083444258776562e-001	 4.892197709751992e+000
1	 1.736357175400671e+000	 3.258363346282924e-001	 4.462249376302421e+000
1	 1.732979075740743e+000	 3.433496923388628e-001	 4.039852290261350e+000
1	 1.765151657229859e+000	 1.701356359588047e-001	 8.345349115313574e+000
1	 1.763399425526912e+000	 1.874274755668750e-001	 7.903211734430476e+000
1	 1.761470829492683e+000	 2.047612862853135e-001	 7.459475993142505e+000
1	 1.759364350512185e+000	 2.221346698316040e-001	 7.015368106394990e+000
1	 1.757078507469271e+000	 2.395451818745535e-001	 6.572080365947731e+000
1	 1.754611858203091e+000	 2.569903325872746e-001	 6.130768734987677e+000
1	 1.751963000962180e+000	 2.744675872490972e-001	 5.692550441864975e+000
1	 1.749130575854412e+000	 2.919743668968733e-001	 5.258501577516037e+000
1	 1.746113266291066e+000	 3.095080490260753e-001	 4.829654701269957e+000
1	 1.742909800423157e+000	 3.270659683420218e-001	 4.406996459862884e+000
1	 1.739518952568174e+000	 3.446454175614939e-001	 3.991465224600254e+000
1	 1.771787902499474e+000	 1.707752760748979e-001	 8.215703110798419e+000
1	 1.770029083124643e+000	 1.881321258983079e-001	 7.784007951083722e+000
1	 1.768093236361167e+000	 2.055311046261315e-001	 7.350337885520465e+000
1	 1.765978837884681e+000	 2.229698049593054e-001	 6.915913978945279e+000
1	 1.763684401010645e+000	 2.404457733769656e-001	 6.481922738537511e+000
1	 1.761208478156271e+000	 2.579565106915091e-001	 6.049513700791300e+000
1	 1.758549662300072e+000	 2.754994726527677e-001	 5.619797018613414e+000
1	 1.755706588437281e+000	 2.930720706017621e-001	 5.193841053157223e+000
1	 1.752677935029338e+000	 3.106716721744358e-001	 4.772669975133528e+000
1	 1.749462425445618e+000	 3.282956020557054e-001	 4.357261380466710e+000
1	 1.746058829395541e+000	 3.459411427840905e-001	 3.948543925277769e+000
1	 1.778424147769398e+000	 1.714149161906810e-001	 8.091574197092703e+000
1	 1.776658740722669e+000	 1.888367762294454e-001	 7.670352932360808e+000
1	 1.774715643229925e+000	 2.063009229666732e-001	 7.246774600947871e+000
1	 1.772593325257429e+000	 2.238049400867535e-001	 6.822054433391251e+000
1	 1.770290294552242e+000	 2.413463648791500e-001	 6.397372445714897e+000
1	 1.767805098109637e+000	 2.589226887955433e-001	 5.973871019721675e+000
1	 1.765136323638111e+000	 2.765313580562662e-001	 5.552652484484467e+000
1	 1.762282601020255e+000	 2.941697743065070e-001	 5.134776703690403e+000
1	 1.759242603767669e+000	 3.118352953226800e-001	 4.721258673625613e+000
1	 1.756015050468088e+000	 3.295252357692979e-001	 4.313066136709733e+000
1	 1.752598706222864e+000	 3.472368680066182e-001	 3.911117215605775e+000
1	 1.785060393039723e+000	 1.720545563060633e-001	 7.972920702396149e+000
1	 1.783288398321091e+000	 1.895414265601867e-001	 7.562212436018782e+000
1	 1.781338050099065e+000	 2.070707413068336e-001	 7.148759202659375e+000
1	 1.779207812630531e+000	 2.246400752138435e-001	 6.733769725303087e+000
1	 1.776896188094157e+000	 2.422469563810069e-001	 6.318416833387899e+000
1	 1.774401718063279e+000	 2.598888668992851e-001	 5.903835037373740e+000
1	 1.771722984976377e+000	 2.775632434595108e-001	 5.491118105651045e+000
1	 1.768858613603400e+000	 2.952674780110384e-001	 5.081316648488747e+000
1	 1.765807272506106e+000	 3.129989184707498e-001	 4.675435713853803e+000
1	 1.762567675490600e+000	 3.307548694827538e-001	 4.274432400054747e+000
1	 1.759138583050161e+000	 3.485325932290429e-001	 3.879213490275276e+000
1	 1.791696638310540e+000	 1.726941964209536e-001	 7.859701572298665e+000
1	 1.789918055920010e+000	 1.902460768904308e-001	 7.459552727131864e+000
1	 1.787960456968690e+000	 2.078405596465076e-001	 7.056265152972470e+000
1	 1.785822300004091e+000	 2.254752103404711e-001	 6.651040402775234e+000
1	 1.783502081636491e+000	 2.431475478824360e-001	 6.245043434941548e+000
1	 1.780998338017287e+000	 2.608550450026427e-001	 5.839400183115250e+000
1	 1.778309646314947e+000	 2.785951288624201e-001	 5.435195129526906e+000
1	 1.775434626186778e+000	 2.963651817152860e-001	 5.033468886632117e+000
1	 1.772371941244703e+000	 3.141625416185883e-001	 4.635215791920433e+000
1	 1.769120300513189e+000	 3.319845031960277e-001	 4.241381520889861e+000
1	 1.765678459877450e+000	 3.498283184513297e-001	 3.852860723294134e+000
1	 1.700279691602013e+000	 3.368710662263961e-001	 4.362734255641624e+000
1	 1.696780487790798e+000	 3.540749052345567e-001	 3.915857752344687e+000
1	 1.693095819381501e+000	 3.712943765690969e-001	 3.481202363145250e+000
1	 1.689224633001393e+000	 3.885267107333296e-001	 3.059432123394624e+000
1	 1.685165925907488e+000	 4.057691007109044e-001	 2.651176173280989e+000
1	 1.680918747307537e+000	 4.230187029988018e-001	 2.257027328634927e+000
1	 1.676482199660132e+000	 4.402726386897363e-001	 1.877540679192560e+000
1	 1.671855439951955e+000	 4.575279946036862e-001	 1.513232217646438e+000
1	 1.667037680950171e+000	 4.747818244681850e-001	 1.164577502832028e+000
1	 1.662028192427957e+000	 4.920311501469236e-001	 8.320103604043457e-001
1	 1.656826302361175e+000	 5.092729629161171e-001	 5.159216243591215e-001
1	 1.706819568430031e+000	 3.381667914486827e-001	 4.287466288480337e+000
1	 1.703306905444065e+000	 3.554368025040349e-001	 3.847548477133573e+000
1	 1.699608064497652e+000	 3.727225060132112e-001	 3.419675727459123e+000
1	 1.695721988166405e+000	 3.900211218270627e-001	 3.004516642814316e+000
1	 1.691647669850424e+000	 4.073298321324640e-001	 2.602704429463578e+000
1	 1.687384155100361e+000	 4.246457824892795e-001	 2.214835448491079e+000
1	 1.682930542922536e+000	 4.419660829169301e-001	 1.841467795686291e+000
1	 1.678285987061092e+000	 4.592878090302757e-001	 1.483119912784309e+000
1	 1.673449697255204e+000	 4.766080032244467e-001	 1.140269233459793e+000
1	 1.668420940469325e+000	 4.939236759081699e-001	 8.133508674810271e-001
1	 1.663199042094462e+000	 5.112318067850482e-001	 5.027563264291550e-001
1	 1.713359445257894e+000	 3.394625166711073e-001	 4.217513251061443e+000
1	 1.709833323097210e+000	 3.567986997736140e-001	 3.784454253244690e+000
1	 1.706120309613704e+000	 3.741506354573975e-001	 3.363253621350379e+000
1	 1.702219343331335e+000	 3.915155329208471e-001	 2.954586639708714e+000
1	 1.698129413793288e+000	 4.088905635540621e-001	 2.559092607753733e+000
1	 1.693849562893120e+000	 4.262728619797906e-001	 2.177373367831681e+000
1	 1.689378886184878e+000	 4.436595271441607e-001	 1.809991861534434e+000
1	 1.684716534170167e+000	 4.610476234569134e-001	 1.457470718002222e+000
1	 1.679861713560173e+000	 4.784341819807756e-001	 1.120290877657431e+000
1	 1.674813688510627e+000	 4.958162016695114e-001	 7.988902548392752e-001
1	 1.669571781827683e+000	 5.131906506541094e-001	 4.936624428069574e-001
1	 1.719899322085622e+000	 3.407582418936351e-001	 4.152906235353306e+000
1	 1.716359740750236e+000	 3.581605970432687e-001	 3.726613041890561e+000
1	 1.712632554729648e+000	 3.755787649016377e-001	 3.311979896357326e+000
1	 1.708716698496162e+000	 3.930099440146698e-001	 2.909690852729105e+000
1	 1.704611157736048e+000	 4.104512949756887e-001	 2.520393307015243e+000
1	 1.700314970685772e+000	 4.278999414703268e-001	 2.144696495785148e+000
1	 1.695827229447108e+000	 4.453529713714187e-001	 1.783170023807331e+000
1	 1.691147081279122e+000	 4.628074378835871e-001	 1.436342424320114e+000
1	 1.686273729865016e+000	 4.802603607371551e-001	 1.104699755469752e+000
1	 1.681206436551799e+000	 4.977087274309236e-001	 7.886842364607588e-001
1	 1.675944521560770e+000	 5.151494945232681e-001	 4.886929269603211e-001
1	 1.726439198913232e+000	 3.420539671162316e-001	 4.093675862210165e+000
1	 1.722886158403147e+000	 3.595224943129740e-001	 3.674062229084664e+000
1	 1.719144799845473e+000	 3.770068943459138e-001	 3.265897739567411e+000
1	 1.715214053660861e+000	 3.945043551085180e-001	 2.869877282024813e+000
1	 1.711092901678671e+000	 4.120120263973348e-001	 2.486658329118864e+000
1	 1.706780378478273e+000	 4.295270209608801e-001	 2.116859401904929e+000
1	 1.702275572709173e+000	 4.470464155986954e-001	 1.761058563666638e+000
1	 1.697577628387899e+000	 4.645672523102848e-001	 1.419791947091901e+000
1	 1.692685746169670e+000	 4.820865394935684e-001	 1.093552318411870e+000
1	 1.687599184592773e+000	 4.996012531923834e-001	 7.827876821328916e-001
1	 1.682317261293658e+000	 5.171083383924920e-001	 4.878999299909124e-001
1	 1.732979075740743e+000	 3.433496923388628e-001	 4.039852290261350e+000
1	 1.729412576055947e+000	 3.608843915827041e-001	 3.626838636494853e+000
1	 1.725657044961170e+000	 3.784350237902079e-001	 3.225049686154500e+000
1	 1.721711408825414e+000	 3.959987662023791e-001	 2.835193203177963e+000
1	 1.717574645621123e+000	 4.135727578189902e-001	 2.457938693980808e+000
1	 1.713245786270582e+000	 4.311541004514415e-001	 2.093915832011434e+000
1	 1.708723915971023e+000	 4.487398598259810e-001	 1.743712912703942e+000
1	 1.704008175496442e+000	 4.663270667369946e-001	 1.407875342528269e+000
1	 1.699097762474073e+000	 4.839127182499985e-001	 1.086904165857286e+000
1	 1.693991932633487e+000	 5.014937789538670e-001	 7.812546333779039e-001
1	 1.688690001026278e+000	 5.190671822617484e-001	 4.913348157740478e-001
1	 1.739518952568174e+000	 3.446454175614939e-001	 3.991465224600254e+000
1	 1.735938993708639e+000	 3.622462888524344e-001	 3.584978532051740e+000
1	 1.732169290076729e+000	 3.798631532345022e-001	 3.189477631633545e+000
1	 1.728208763989794e+000	 3.974931772962400e-001	 2.805685180823871e+000
1	 1.724056389563372e+000	 4.151334892406455e-001	 2.434284654261723e+000
1	 1.719711194062654e+000	 4.327811799420031e-001	 2.075918723676431e+000
1	 1.715172259232606e+000	 4.504333040532667e-001	 1.731187668911010e+000
1	 1.710438722604692e+000	 4.680868811637045e-001	 1.400647823846856e+000
1	 1.705509778778163e+000	 4.857388970064288e-001	 1.084810061056606e+000
1	 1.700384680673871e+000	 5.033863047153503e-001	 7.841383190225232e-001
1	 1.695062740758567e+000	 5.210260261310048e-001	 4.990481757569067e-001
1	 1.746058829395541e+000	 3.459411427840905e-001	 3.948543925277769e+000
1	 1.742465411361228e+000	 3.636081861221397e-001	 3.548517640318964e+000
1	 1.738681535192140e+000	 3.812912826787783e-001	 3.159222843839853e+000
1	 1.734706119153983e+000	 3.989875883900884e-001	 2.781399081965187e+000
1	 1.730538133505383e+000	 4.166942206622915e-001	 2.415745709735623e+000
1	 1.726176601854446e+000	 4.344082594325562e-001	 2.062920221359580e+000
1	 1.721620602493873e+000	 4.521267482805432e-001	 1.723536612291091e+000
1	 1.716869269712593e+000	 4.698466955904023e-001	 1.398163777059321e+000
1	 1.711921795081877e+000	 4.875650757628420e-001	 1.087323946795815e+000
1	 1.706777428713864e+000	 5.052788304768102e-001	 7.914911704177855e-001
1	 1.701435480490456e+000	 5.229848700002288e-001	 5.110898434243144e-001
1	 1.752598706222864e+000	 3.472368680066182e-001	 3.911117215605775e+000
1	 1.748991829013715e+000	 3.649700833917944e-001	 3.517491152630895e+000
1	 1.745193780307393e+000	 3.827194121230186e-001	 3.134325974639966e+000
1	 1.741203474317956e+000	 4.004819994839109e-001	 2.762380088988218e+000
1	 1.737019877447124e+000	 4.182549520839182e-001	 2.402370621336919e+000
1	 1.732642009645917e+000	 4.360353389230924e-001	 2.054971691206009e+000
1	 1.728068945754770e+000	 4.538201925078013e-001	 1.720812720120531e+000
1	 1.723299816820085e+000	 4.716065100170760e-001	 1.400476776405176e+000
1	 1.718333811385152e+000	 4.893912545192214e-001	 1.094498960704494e+000
1	 1.713170176753398e+000	 5.071713562382227e-001	 8.033648363180467e-001
1	 1.707808220221878e+000	 5.249437138693874e-001	 5.275089084404571e-001
1	 1.759138583050161e+000	 3.485325932290429e-001	 3.879213490275276e+000
1	 1.755518246666106e+000	 3.663319806613735e-001	 3.491933737004709e+000
1	 1.751706025422479e+000	 3.841475415672048e-001	 3.114827071381592e+000
1	 1.747700829481692e+000	 4.019764105776953e-001	 2.748672712388582e+000
1	 1.743501621388562e+000	 4.198156835055162e-001	 2.394207424894042e+000
1	 1.739107417437024e+000	 4.376624184136038e-001	 2.052123735513923e+000
1	 1.734517289015250e+000	 4.555136367350319e-001	 1.723068181870247e+000
1	 1.729730363927113e+000	 4.733663244437137e-001	 1.407639599441251e+000
1	 1.724745827687928e+000	 4.912174332755505e-001	 1.106387450222061e+000
1	 1.719562924792408e+000	 5.090638819995640e-001	 8.198101974281342e-001
1	 1.714180959952767e+000	 5.269025577384489e-001	 5.483537304752570e-001
1	 1.765678459877450e+000	 3.498283184513297e-001	 3.852860723294134e+000
1	 1.762044664318403e+000	 3.676938779308519e-001	 3.471879547831569e+000
1	 1.758218270537386e+000	 3.855756710113191e-001	 3.100765588088697e+000
1	 1.754198184645169e+000	 4.034708216714287e-001	 2.740320803214297e+000
1	 1.749983365329663e+000	 4.213764149270760e-001	 2.391303444558239e+000
1	 1.745572825227723e+000	 4.392894979040814e-001	 2.054426206880479e+000
1	 1.740965632275259e+000	 4.572070809622258e-001	 1.730354413795218e+000
1	 1.736160911033618e+000	 4.751261388703035e-001	 1.419704241795682e+000
1	 1.731157843990141e+000	 4.930436120318121e-001	 1.123040987231859e+000
1	 1.725955672830829e+000	 5.109564077608105e-001	 8.408773806272285e-001
1	 1.720553699683057e+000	 5.288614016073798e-001	 5.736719527235922e-001
1	 1.656826302361175e+000	 5.092729629161171e-001	 5.159216243591215e-001
1	 1.651431397679850e+000	 5.265042245356668e-001	 2.185968188947458e-001
1	 1.645842924156249e+000	 5.437218678370922e-001	-5.731560360816166e-002
1	 1.640060388744116e+000	 5.609227988524841e-001	-3.109461466861183e-001
1	 1.634083361056793e+000	 5.781038985210186e-001	-5.414705586269527e-001
1	 1.627911474392944e+000	 5.952620241932002e-001	-7.481117715395008e-001
1	 1.621544426721645e+000	 6.123940111778623e-001	-9.301418019897686e-001
1	 1.614981981624948e+000	 6.294966743307519e-001	-1.086883608702261e+000
1	 1.608223969196076e+000	 6.465668096834393e-001	-1.217712902824613e+000
1	 1.601270286891380e+000	 6.636011961111936e-001	-1.322059906265755e+000
1	 1.594120900334306e+000	 6.805965970383868e-001	-1.399411053644143e+000
1	 1.663199042094462e+000	 5.112318067850482e-001	 5.027563264291550e-001
1	 1.657783386702546e+000	 5.285293459288381e-001	 2.107662968370210e-001
1	 1.652173417934089e+000	 5.458132143736451e-001	-5.998094646940291e-002
1	 1.646368640846407e+000	 5.630803062510660e-001	-3.086249471173378e-001
1	 1.640368623397428e+000	 5.803274905032655e-001	-5.343521701386667e-001
1	 1.634172997475358e+000	 5.975516123930078e-001	-7.363979616903204e-001
1	 1.627781459887553e+000	 6.147494950566041e-001	-9.140484677518138e-001
1	 1.621193773306730e+000	 6.319179410986118e-001	-1.066642507202708e+000
1	 1.614409767172589e+000	 6.490537342270052e-001	-1.193573394686285e+000
1	 1.607429338547067e+000	 6.661536409274684e-001	-1.294290708682976e+000
1	 1.600252452921389e+000	 6.832144121753601e-001	-1.368302000248074e+000
1	 1.669571781827683e+000	 5.131906506541094e-001	 4.936624428069574e-001
1	 1.664135375725177e+000	 5.305544673221825e-001	 2.068801085243137e-001
1	 1.658503911711865e+000	 5.479045609104210e-001	-5.883350952758506e-002
1	 1.652676892948635e+000	 5.652378136499248e-001	-3.026282844420893e-001
1	 1.646653885738001e+000	 5.825510824858480e-001	-5.237028047606153e-001
1	 1.640434520557706e+000	 5.998412005932102e-001	-7.213063548082320e-001
1	 1.634018493053394e+000	 6.171049789358011e-001	-8.947408512101893e-001
1	 1.627405564988432e+000	 6.343392078669852e-001	-1.043362730891517e+000
1	 1.620595565149006e+000	 6.515406587711398e-001	-1.166584785871426e+000
1	 1.613588390202636e+000	 6.687060857443629e-001	-1.263877940185392e+000
1	 1.606384005508325e+000	 6.858322273129968e-001	-1.334772964305227e+000
1	 1.675944521560770e+000	 5.151494945232681e-001	 4.886929269603211e-001
1	 1.670487364747675e+000	 5.325795887156569e-001	 2.069874396899804e-001
1	 1.664834405489513e+000	 5.499959074473638e-001	-5.382871579084420e-002
1	 1.658985145050743e+000	 5.673953210489919e-001	-2.929170210721344e-001
1	 1.652939148078459e+000	 5.847746744686813e-001	-5.094895838057072e-001
1	 1.646696043639944e+000	 6.021307887937087e-001	-7.028111386196689e-001
1	 1.640255526219127e+000	 6.194604628153395e-001	-8.722010012111825e-001
1	 1.633617356670030e+000	 6.367604746357437e-001	-1.017034970815888e+000
1	 1.626781363125316e+000	 6.540275833157008e-001	-1.136747176266463e+000
1	 1.619747441858088e+000	 6.712585305617219e-001	-1.230831860880223e+000
1	 1.612515558095128e+000	 6.884500424511315e-001	-1.298845101458898e+000
1	 1.682317261293658e+000	 5.171083383924920e-001	 4.878999299909124e-001
1	 1.676839353769976e+000	 5.346047101092180e-001	 2.111367307911002e-001
1	 1.671164899266971e+000	 5.520872539844181e-001	-4.492266371066069e-002
1	 1.665293397152670e+000	 5.695528284481980e-001	-2.794526124432178e-001
1	 1.659224410418750e+000	 5.869982664516829e-001	-4.916801267742363e-001
1	 1.652957566722031e+000	 6.044203769944051e-001	-6.808868919660348e-001
1	 1.646492559384722e+000	 6.218159466951052e-001	-8.464112386021698e-001
1	 1.639829148351499e+000	 6.391817414047586e-001	-9.876500590750333e-001
1	 1.632967161101506e+000	 6.565145078605460e-001	-1.104060664244412e+000
1	 1.625906493513425e+000	 6.738109753793903e-001	-1.195162575410788e+000
1	 1.618647110681814e+000	 6.910678575895980e-001	-1.260539246796253e+000
1	 1.688690001026278e+000	 5.190671822617484e-001	 4.913348157740478e-001
1	 1.683191342792014e+000	 5.366298315028224e-001	 2.193756910709568e-001
1	 1.677495393044174e+000	 5.541786005215282e-001	-3.207211443706208e-002
1	 1.671601649254359e+000	 5.717103358474733e-001	-2.621970958253847e-001
1	 1.665509672758822e+000	 5.892218584347682e-001	-4.702425419535533e-001
1	 1.659219089803919e+000	 6.067099651952000e-001	-6.555085774238788e-001
1	 1.652729592550140e+000	 6.241714305749843e-001	-8.173541510993039e-001
1	 1.646040940032815e+000	 6.416030081739023e-001	-9.551989661586988e-001
1	 1.639152959077564e+000	 6.590014324055339e-001	-1.068525346693501e+000
1	 1.632065545168649e+000	 6.763634201972142e-001	-1.156880035889858e+000
1	 1.624778663268401e+000	 6.936856727282307e-001	-1.219875920896786e+000
1	 1.695062740758567e+000	 5.210260261310048e-001	 4.990481757569067e-001
1	 1.689543331813722e+000	 5.386549528964267e-001	 2.317513123042911e-001
1	 1.683825886821062e+000	 5.562699470586384e-001	-1.523447936112292e-002
1	 1.677909901355751e+000	 5.738678432467484e-001	-2.411130793855920e-001
1	 1.671794935098621e+000	 5.914454504178531e-001	-4.451454172299106e-001
1	 1.665480612885564e+000	 6.089995533959950e-001	-6.266515340914199e-001
1	 1.658966625715349e+000	 6.265269144548639e-001	-7.850125882708294e-001
1	 1.652252731713956e+000	 6.440242749430456e-001	-9.196727983456510e-001
1	 1.645338757053478e+000	 6.614883569505218e-001	-1.030141319044988e+000
1	 1.638224596823758e+000	 6.789158650150375e-001	-1.115994044766993e+000
1	 1.630910215854901e+000	 6.963034878668630e-001	-1.176875335744452e+000
1	 1.701435480490456e+000	 5.229848700002288e-001	 5.110898434243144e-001
1	 1.695895320835035e+000	 5.406800742899879e-001	 2.483098822339253e-001
1	 1.690156380597569e+000	 5.583612935956929e-001	 5.632192062335088e-003
1	 1.684218153456787e+000	 5.760253506459545e-001	-2.161637314962945e-001
1	 1.678080197438097e+000	 5.936690424008546e-001	-4.163578111066342e-001
1	 1.671742135966923e+000	 6.112891415966912e-001	-5.942914705371609e-001
1	 1.665203658880313e+000	 6.288823983346294e-001	-7.493696566332783e-001
1	 1.658464523394895e+000	 6.464455417120607e-001	-8.810627951607026e-001
1	 1.651524555029236e+000	 6.639752814953672e-001	-9.889086753004621e-001
1	 1.644383648478757e+000	 6.814683098327062e-001	-1.072514257631272e+000
1	 1.637041768441332e+000	 6.989213030053300e-001	-1.131557400506878e+000
1	 1.707808220221878e+000	 5.249437138693874e-001	 5.275089084404571e-001
1	 1.702247309855889e+000	 5.427051956834623e-001	 2.690969977061617e-001
1	 1.696486874373634e+000	 5.604526401326357e-001	 3.056922421964511e-002
1	 1.690526405557408e+000	 5.781828580450215e-001	-1.873127702832253e-001
1	 1.684365459777196e+000	 5.958926343836883e-001	-3.838492439236350e-001
1	 1.678003659047950e+000	 6.135787297971899e-001	-5.584044579064569e-001
1	 1.671440692044997e+000	 6.312378822141678e-001	-7.104087148573485e-001
1	 1.664676315075607e+000	 6.488668084808190e-001	-8.393603268885969e-001
1	 1.657710353004827e+000	 6.664622060399285e-001	-9.448275080585166e-001
1	 1.650542700133645e+000	 6.840207546500652e-001	-1.026450185951421e+000
1	 1.643173321027709e+000	 7.015391181434645e-001	-1.083941727185198e+000
1	 1.714180959952767e+000	 5.269025577384489e-001	 5.483537304752570e-001
1	 1.708599298876214e+000	 5.447303170768069e-001	 2.941575775135629e-001
1	 1.702817368149193e+000	 5.625439866694116e-001	 5.961732697749443e-002
1	 1.696834657657558e+000	 5.803403654438809e-001	-1.545244534064040e-001
1	 1.690650722115867e+000	 5.981162263662708e-001	-3.475896892724713e-001
1	 1.684265182128602e+000	 6.158683179973924e-001	-5.189669231817952e-001
1	 1.677677725209364e+000	 6.335933660933647e-001	-6.681133690808075e-001
1	 1.670888106756072e+000	 6.512880752491927e-001	-7.945568921434107e-001
1	 1.663896150980237e+000	 6.689491305840634e-001	-8.978979085407843e-001
1	 1.656701751788424e+000	 6.865731994669597e-001	-9.778111997547067e-001
1	 1.649304873614048e+000	 7.041569332811017e-001	-1.034047636137869e+000
1	 1.720553699683057e+000	 5.288614016073798e-001	 5.736719527235922e-001
1	 1.714951287895949e+000	 5.467554384699779e-001	 3.235358749520310e-001
1	 1.709147861924184e+000	 5.646353332059646e-001	 9.281660706352933e-002
1	 1.703142909757176e+000	 5.824978728424625e-001	-1.177635680682781e-001
1	 1.696935984454057e+000	 6.003398183485178e-001	-3.075495656024924e-001
1	 1.690526705208835e+000	 6.181579061972001e-001	-4.759556425928355e-001
1	 1.683914758373382e+000	 6.359488499721072e-001	-6.224674683255075e-001
1	 1.677099898436262e+000	 6.537093420170529e-001	-7.466441154919243e-001
1	 1.670081948955454e+000	 6.714360551276295e-001	-8.481199666174391e-001
1	 1.662860803443096e+000	 6.891256442832350e-001	-9.266065302463589e-001
1	 1.655436426200365e+000	 7.067747484180751e-001	-9.818941614817226e-001
1	 1.594120900334306e+000	 6.805965970383868e-001	-1.399411053644142e+000
1	 1.586776960647991e+000	 6.975472228038634e-001	-1.465317650499372e+000
1	 1.579237515303806e+000	 7.144523655646381e-001	-1.535668652864107e+000
1	 1.571502739887311e+000	 7.313087553462129e-001	-1.610480773725665e+000
1	 1.563572880804545e+000	 7.481131139287018e-001	-1.689783305066955e+000
1	 1.555448255818969e+000	 7.648621567133505e-001	-1.773618300787594e+000
1	 1.547129254530897e+000	 7.815525946160573e-001	-1.862040737928050e+000
1	 1.538616338798039e+000	 7.981811359858799e-001	-1.955118655463429e+000
1	 1.529910043095903e+000	 8.147444885464511e-001	-2.052933269977766e+000
1	 1.521010974816841e+000	 8.312393613581415e-001	-2.155579067576432e+000
1	 1.511919814506641e+000	 8.476624667987508e-001	-2.263163871444682e+000
1	 1.600252452921389e+000	 6.832144121753601e-001	-1.368302000248074e+000
1	 1.592880265846325e+000	 7.002302360404402e-001	-1.431021092535259e+000
1	 1.585311821129488e+000	 7.172004019571125e-001	-1.498194776673701e+000
1	 1.577547295031810e+000	 7.341216273734027e-001	-1.569855323300304e+000
1	 1.569586934907099e+000	 7.509906214602354e-001	-1.646045824093616e+000
1	 1.561431059741056e+000	 7.678040869851310e-001	-1.726820332269123e+000
1	 1.553080060632540e+000	 7.845587222130090e-001	-1.812243983980965e+000
1	 1.544534401215737e+000	 8.012512228320780e-001	-1.902393100019952e+000
1	 1.535794618021945e+000	 8.178782839027143e-001	-1.997355267237242e+000
1	 1.526861320779763e+000	 8.344366018271732e-001	-2.097229399165003e+000
1	 1.517735192652611e+000	 8.509228763379011e-001	-2.202125775349992e+000
1	 1.606384005508325e+000	 6.858322273129968e-001	-1.334772964305227e+000
1	 1.598983571044472e+000	 7.029132492777178e-001	-1.394533290136253e+000
1	 1.591386126954937e+000	 7.199484383503170e-001	-1.458749268597978e+000
1	 1.583591850176024e+000	 7.369344994013459e-001	-1.527468692710719e+000
1	 1.575600989009313e+000	 7.538681289925396e-001	-1.600748326888626e+000
1	 1.567413863662745e+000	 7.707460172576940e-001	-1.678654004359333e+000
1	 1.559030866733727e+000	 7.875648498107523e-001	-1.761260708256609e+000
1	 1.550452463632922e+000	 8.043213096790730e-001	-1.848652635902419e+000
1	 1.541679192947415e+000	 8.210120792597763e-001	-1.940923245830063e+000
1	 1.532711666742066e+000	 8.376338422970052e-001	-2.038175287135679e+000
1	 1.523550570797915e+000	 8.541832858778508e-001	-2.140520810784720e+000
1	 1.612515558095128e+000	 6.884500424511315e-001	-1.298845101458899e+000
1	 1.605086876242463e+000	 7.055962625155204e-001	-1.355886301984804e+000
1	 1.597460432780201e+000	 7.226964747440691e-001	-1.417374387440393e+000
1	 1.589636405320017e+000	 7.397473714298536e-001	-1.483372642803706e+000
1	 1.581615043111267e+000	 7.567456365254215e-001	-1.553951383759740e+000
1	 1.573396667584132e+000	 7.736879475308442e-001	-1.629188010396840e+000
1	 1.564981672834569e+000	 7.905709774090889e-001	-1.709167047504444e+000
1	 1.556370526049719e+000	 8.073913965266647e-001	-1.793980171119606e+000
1	 1.547563767872459e+000	 8.241458746174377e-001	-1.883726220998614e+000
1	 1.538562012703903e+000	 8.408310827674368e-001	-1.978511198720608e+000
1	 1.529365948942723e+000	 8.574436954184008e-001	-2.078448251162370e+000
1	 1.618647110681814e+000	 6.910678575895980e-001	-1.260539246796253e+000
1	 1.611190181440331e+000	 7.082792757536738e-001	-1.315111701001235e+000
1	 1.603534738605327e+000	 7.254445111381856e-001	-1.374111751687180e+000
1	 1.595680960463853e+000	 7.425602434587380e-001	-1.437618150131123e+000
1	 1.587629097213043e+000	 7.596231440586885e-001	-1.505714647236337e+000
1	 1.579379471505315e+000	 7.766298778043861e-001	-1.578490002859347e+000
1	 1.570932478935180e+000	 7.935771050078214e-001	-1.656037984828342e+000
1	 1.562288588466257e+000	 8.104614833746550e-001	-1.738457357434548e+000
1	 1.553448342797217e+000	 8.272796699754988e-001	-1.825851859200901e+000
1	 1.544412358665429e+000	 8.440283232382685e-001	-1.918330169757425e+000
1	 1.535181327087197e+000	 8.607041049593510e-001	-2.016005865677168e+000
1	 1.624778663268401e+000	 6.936856727282307e-001	-1.219875920896786e+000
1	 1.617293486638105e+000	 7.109622889920020e-001	-1.272240583509559e+000
1	 1.609609044430361e+000	 7.281925475324854e-001	-1.329002351589373e+000
1	 1.601725515607597e+000	 7.453731154878104e-001	-1.390255421748726e+000
1	 1.593643151314718e+000	 7.625006515921481e-001	-1.456096869386861e+000
1	 1.585362275426390e+000	 7.795718080781234e-001	-1.526626613003536e+000
1	 1.576883285035673e+000	 7.965832326067517e-001	-1.601947371454547e+000
1	 1.568206650882666e+000	 8.135315702228443e-001	-1.682164614068516e+000
1	 1.559332917721832e+000	 8.304134653337596e-001	-1.767386503560694e+000
1	 1.550262704626801e+000	 8.472255637093004e-001	-1.857723831697981e+000
1	 1.540996705231507e+000	 8.639645145005013e-001	-1.953289947686948e+000
1	 1.630910215854901e+000	 6.963034878668630e-001	-1.176875335744451e+000
1	 1.623396791835816e+000	 7.136453022303302e-001	-1.227303578196474e+000
1	 1.615683350255351e+000	 7.309405839267845e-001	-1.282086560972386e+000
1	 1.607770070751310e+000	 7.481859875168831e-001	-1.341333909681030e+000
1	 1.599657205416376e+000	 7.653781591256081e-001	-1.405155918745628e+000
1	 1.591345079347454e+000	 7.825137383518612e-001	-1.473663470061956e+000
1	 1.582834091136160e+000	 7.995893602056818e-001	-1.546967948008673e+000
1	 1.574124713299071e+000	 8.166016570710337e-001	-1.625181150870266e+000
1	 1.565217492646447e+000	 8.335472606920200e-001	-1.708415198743366e+000
1	 1.556113050588172e+000	 8.504228041803321e-001	-1.796782438007992e+000
1	 1.546812083375814e+000	 8.672249240416514e-001	-1.890395342455935e+000
1	 1.637041768441332e+000	 6.989213030053300e-001	-1.131557400506878e+000
1	 1.629500097033497e+000	 7.163283154684836e-001	-1.180330854869079e+000
1	 1.621757656080346e+000	 7.336886203209018e-001	-1.233404148780106e+000
1	 1.613814625895058e+000	 7.509988595457676e-001	-1.290902325061259e+000
1	 1.605671259518095e+000	 7.682556666588754e-001	-1.352948796859258e+000
1	 1.597327883268604e+000	 7.854556686254028e-001	-1.419665220008446e+000
1	 1.588784897236754e+000	 8.025954878044141e-001	-1.491171365314504e+000
1	 1.580042775715603e+000	 8.196717439190239e-001	-1.567584990964627e+000
1	 1.571102067571203e+000	 8.366810560500813e-001	-1.649021715272979e+000
1	 1.561963396549698e+000	 8.536200446511639e-001	-1.735594889973348e+000
1	 1.552627461520289e+000	 8.704853335826015e-001	-1.827415474273948e+000
1	 1.643173321027709e+000	 7.015391181434645e-001	-1.083941727185199e+000
1	 1.635603402231177e+000	 7.190113287062864e-001	-1.131352133016490e+000
1	 1.627831961905391e+000	 7.364366567146536e-001	-1.182994290360588e+000
1	 1.619859181038904e+000	 7.538117315742755e-001	-1.239008651954620e+000
1	 1.611685313619956e+000	 7.711331741917576e-001	-1.299531654462650e+000
1	 1.603310687189938e+000	 7.883975988985532e-001	-1.364695543903461e+000
1	 1.594735703337569e+000	 8.056016154027513e-001	-1.434628204727184e+000
1	 1.585960838132388e+000	 8.227418307666160e-001	-1.509452992893974e+000
1	 1.576986642496242e+000	 8.398148514077428e-001	-1.589288573304665e+000
1	 1.567813742511534e+000	 8.568172851215961e-001	-1.674248761928581e+000
1	 1.558442839665096e+000	 8.737457431231520e-001	-1.764442372968410e+000
1	 1.649304873614048e+000	 7.041569332811017e-001	-1.034047636137868e+000
1	 1.641706707428888e+000	 7.216943419435641e-001	-1.080396690180452e+000
1	 1.633906267730533e+000	 7.391846931078582e-001	-1.130895578499997e+000
1	 1.625903736182912e+000	 7.566246036022185e-001	-1.185700160873252e+000
1	 1.617699367722041e+000	 7.740106817240621e-001	-1.244959807294125e+000
1	 1.609293491111552e+000	 7.913395291711169e-001	-1.308817175830194e+000
1	 1.600686509438716e+000	 8.086077430004947e-001	-1.377407998012810e+000
1	 1.591878900549555e+000	 8.258119176136108e-001	-1.450860872265844e+000
1	 1.582871217421709e+000	 8.429486467648052e-001	-1.529297065866894e+000
1	 1.573664088473836e+000	 8.600145255914281e-001	-1.612830325922624e+000
1	 1.564258217810401e+000	 8.770061526631022e-001	-1.701566699825161e+000
1	 1.655436426200365e+000	 7.067747484180751e-001	-9.818941614817228e-001
1	 1.647810012626662e+000	 7.243773551801414e-001	-1.027493370139987e+000
1	 1.639980573555821e+000	 7.419327295003327e-001	-1.077146034211306e+000
1	 1.631948291327146e+000	 7.594374756294089e-001	-1.131023421990853e+000
1	 1.623713421824428e+000	 7.768881892555959e-001	-1.189287751559086e+000
1	 1.615276295033542e+000	 7.942814594428974e-001	-1.252091920431996e+000
1	 1.606637315540310e+000	 8.116138705974469e-001	-1.319579246786239e+000
1	 1.597796962967233e+000	 8.288820044598098e-001	-1.391883222919477e+000
1	 1.588755792347744e+000	 8.460824421210691e-001	-1.469127281587256e+000
1	 1.579514434436758e+000	 8.632117660604604e-001	-1.551424575836515e+000
1	 1.570073595956371e+000	 8.802665622022525e-001	-1.638877772932944e+000
1	 1.511919814506641e+000	 8.476624667987508e-001	-2.263163871444682e+000
1	 1.502635909414624e+000	 8.640129693766441e-001	-2.377370819112095e+000
1	 1.493161437663220e+000	 8.802851242522312e-001	-2.499675277959454e+000
1	 1.483497301674313e+000	 8.964756653057330e-001	-2.629897962595102e+000
1	 1.473644477357683e+000	 9.125813378375239e-001	-2.767812787133418e+000
1	 1.463604014020220e+000	 9.285989006069539e-001	-2.913146816893753e+000
1	 1.453377034207980e+000	 9.445251278751972e-001	-3.065580301013335e+000
1	 1.442964733480680e+000	 9.603568114495741e-001	-3.224746786802460e+000
1	 1.432368380118340e+000	 9.760907627267612e-001	-3.390233316475058e+000
1	 1.421589314759868e+000	 9.917238147322857e-001	-3.561580706688041e+000
1	 1.410628949973539e+000	 1.007252824153679e+000	-3.738283911121091e+000
1	 1.517735192652611e+000	 8.509228763379011e-001	-2.202125775349992e+000
1	 1.508415578379102e+000	 8.673362687296659e-001	-2.313501423416431e+000
1	 1.498904664459498e+000	 8.836710120661887e-001	-2.432610657017262e+000
1	 1.489203356786712e+000	 8.999238276650293e-001	-2.559282134073954e+000
1	 1.479312635024218e+000	 9.160914483078293e-001	-2.693298492387398e+000
1	 1.469233552514910e+000	 9.321706202869717e-001	-2.834396296766134e+000
1	 1.458967236122551e+000	 9.481581054562910e-001	-2.982266065780904e+000
1	 1.448514886005403e+000	 9.640506832832556e-001	-3.136552378971086e+000
1	 1.437877775321736e+000	 9.798451529000368e-001	-3.296854065136359e+000
1	 1.427057249867028e+000	 9.955383351508511e-001	-3.462724472150950e+000
1	 1.416054727642790e+000	 1.011127074632929e+000	-3.633671818538208e+000
1	 1.523550570797915e+000	 8.541832858778508e-001	-2.140520810784720e+000
1	 1.514195247342880e+000	 8.706595680834878e-001	-2.249201684050322e+000
1	 1.504647891255046e+000	 8.870568998809448e-001	-2.365263160151438e+000
1	 1.494909411898361e+000	 9.033719900251217e-001	-2.488542707710452e+000
1	 1.484980792689991e+000	 9.196015587789251e-001	-2.618832550776352e+000
1	 1.474863091008834e+000	 9.357423399677712e-001	-2.755879609971200e+000
1	 1.464557438036359e+000	 9.517910830381531e-001	-2.899385521967959e+000
1	 1.454065038529374e+000	 9.677445551176858e-001	-3.049006738125113e+000
1	 1.443387170524401e+000	 9.835995430740369e-001	-3.204354702914779e+000
1	 1.432525184973485e+000	 9.993528555701080e-001	-3.364996112588555e+000
1	 1.421480505311373e+000	 1.015001325112831e+000	-3.530453254327453e+000
1	 1.529365948942723e+000	 8.574436954184008e-001	-2.078448251162370e+000
1	 1.519974916306132e+000	 8.739828674379097e-001	-2.184575322852048e+000
1	 1.510391118050047e+000	 8.904427876963005e-001	-2.297740874834890e+000
1	 1.500615467009447e+000	 9.068201523858109e-001	-2.417792046164021e+000
1	 1.490648950355192e+000	 9.231116692506125e-001	-2.544531502083372e+000
1	 1.480492629502183e+000	 9.393140596491543e-001	-2.677717367789115e+000
1	 1.470147639949596e+000	 9.554240606205862e-001	-2.817063239220417e+000
1	 1.459615191052782e+000	 9.714384269526708e-001	-2.962238271707151e+000
1	 1.448896565726516e+000	 9.873539332485685e-001	-3.112867347118011e+000
1	 1.437993120079414e+000	 1.003167375989869e+000	-3.268531319962029e+000
1	 1.426906282979456e+000	 1.018875575593200e+000	-3.428767342703008e+000
1	 1.535181327087197e+000	 8.607041049593510e-001	-2.016005865677168e+000
1	 1.525754585269033e+000	 8.773061667927314e-001	-2.119724490036708e+000
1	 1.516134344844684e+000	 8.938286755120547e-001	-2.230150250767839e+000
1	 1.506321522120159e+000	 9.102683147468972e-001	-2.347140809542495e+000
1	 1.496317108020012e+000	 9.266217797226927e-001	-2.470510120246853e+000
1	 1.486122167995148e+000	 9.428857793309232e-001	-2.600028353962764e+000
1	 1.475737841862451e+000	 9.590570382033947e-001	-2.735421899668434e+000
1	 1.465165343575815e+000	 9.751322987880163e-001	-2.876373441492621e+000
1	 1.454405960928265e+000	 9.911083234234417e-001	-3.022522113173413e+000
1	 1.443461055184991e+000	 1.006981896409945e+000	-3.173463730188103e+000
1	 1.432332060647205e+000	 1.022749826073854e+000	-3.328751099828167e+000
1	 1.540996705231507e+000	 8.639645145005013e-001	-1.953289947686948e+000
1	 1.531534254231759e+000	 8.806294661477532e-001	-2.054749793850867e+000
1	 1.521877571639137e+000	 8.972145633280085e-001	-2.162596130780733e+000
1	 1.512027577230683e+000	 9.137164771081806e-001	-2.276697987527311e+000
1	 1.501985265684642e+000	 9.301318901949668e-001	-2.396881446680068e+000
1	 1.491751706487921e+000	 9.464574990128795e-001	-2.522929559181270e+000
1	 1.481328043775115e+000	 9.626900157863823e-001	-2.654582333541870e+000
1	 1.470715496098660e+000	 9.788261706235283e-001	-2.791536800302356e+000
1	 1.459915356129833e+000	 9.948627135984642e-001	-2.933447152401552e+000
1	 1.448928990290392e+000	 1.010796416830149e+000	-3.079924961934332e+000
1	 1.437757838314787e+000	 1.026624076554607e+000	-3.230539473591695e+000
1	 1.546812083375814e+000	 8.672249240416514e-001	-1.890395342455935e+000
1	 1.537313923194485e+000	 8.839527655027748e-001	-1.989750329558589e+000
1	 1.527620798433591e+000	 9.006004511439616e-001	-2.095181781040270e+000
1	 1.517733632341208e+000	 9.171646394694619e-001	-2.206570930774086e+000
1	 1.507653423349271e+000	 9.336420006672358e-001	-2.323756822838942e+000
1	 1.497381244980695e+000	 9.500292186948257e-001	-2.446536214785851e+000
1	 1.486918245687779e+000	 9.663229933693520e-001	-2.574663553982152e+000
1	 1.476265648621504e+000	 9.825200424590115e-001	-2.707851027887082e+000
1	 1.465424751331400e+000	 9.986171037734436e-001	-2.845768688937142e+000
1	 1.454396925395793e+000	 1.014610937250293e+000	-2.988044654539349e+000
1	 1.443183615982369e+000	 1.030498327035279e+000	-3.134265382487399e+000
1	 1.552627461520289e+000	 8.704853335826015e-001	-1.827415474273949e+000
1	 1.543093592157386e+000	 8.872760648575966e-001	-1.924823707775816e+000
1	 1.533364025228227e+000	 9.039863389597144e-001	-2.028008920576209e+000
1	 1.523439687451919e+000	 9.206128018305413e-001	-2.136865381607648e+000
1	 1.513321581014091e+000	 9.371521111393001e-001	-2.251245922058225e+000
1	 1.503010783473660e+000	 9.536009383765636e-001	-2.370961825718036e+000
1	 1.492508447600634e+000	 9.699559709521071e-001	-2.495782791071829e+000
1	 1.481815801144537e+000	 9.862139142942725e-001	-2.625436966005327e+000
1	 1.470934146533150e+000	 1.002371493948190e+000	-2.759611055820711e+000
1	 1.459864860501370e+000	 1.018425457670188e+000	-2.897950505080719e+000
1	 1.448609393650117e+000	 1.034372577515684e+000	-3.040059753619661e+000
1	 1.558442839665096e+000	 8.737457431231520e-001	-1.764442372968410e+000
1	 1.548873261120638e+000	 8.905993642120184e-001	-1.860066082170383e+000
1	 1.539107252023228e+000	 9.073722267750666e-001	-1.961177750147499e+000
1	 1.529145742563005e+000	 9.240609641912194e-001	-2.067685504029650e+000
1	 1.518989738679292e+000	 9.406622216109617e-001	-2.179456780674665e+000
1	 1.508640321967009e+000	 9.571726580578954e-001	-2.296318202730227e+000
1	 1.498098649513870e+000	 9.735889485344519e-001	-2.418055525102470e+000
1	 1.487365953667945e+000	 9.899077861291162e-001	-2.544413652716168e+000
1	 1.476443541735266e+000	 1.006125884122511e+000	-2.675096730281935e+000
1	 1.465332795607299e+000	 1.022239978089648e+000	-2.809768304613126e+000
1	 1.454035171318200e+000	 1.038246827995640e+000	-2.948051559858089e+000
1	 1.564258217810401e+000	 8.770061526631022e-001	-1.701566699825161e+000
1	 1.554652930084415e+000	 8.939226635658399e-001	-1.795572176544274e+000
1	 1.544850478818776e+000	 9.107581145898186e-001	-1.894786980464360e+000
1	 1.534851797674654e+000	 9.275091265512968e-001	-1.999133913056909e+000
1	 1.524657896345065e+000	 9.441723320820211e-001	-2.108495828456051e+000
1	 1.514269860460932e+000	 9.607443777386230e-001	-2.222715493877825e+000
1	 1.503688851427678e+000	 9.772219261161892e-001	-2.341595519100085e+000
1	 1.492916106191916e+000	 9.936016579633485e-001	-2.464898355906933e+000
1	 1.481952936937929e+000	 1.009880274296215e+000	-2.592346368236047e+000
1	 1.470800730713755e+000	 1.026054498508483e+000	-2.723621973598031e+000
1	 1.459460948986784e+000	 1.042121078474962e+000	-2.858367856163502e+000
1	 1.570073595956371e+000	 8.802665622022525e-001	-1.638877772932943e+000
1	 1.560432599048893e+000	 8.972459629188613e-001	-1.731435311313878e+000
1	 1.550593705615053e+000	 9.141440024037704e-001	-1.828933859783031e+000
1	 1.540557852787052e+000	 9.309572889105736e-001	-1.931311703407880e+000
1	 1.530326054011600e+000	 9.476824425522793e-001	-2.038467918354019e+000
1	 1.519899398955622e+000	 9.643160974185487e-001	-2.150262215311511e+000
1	 1.509279053342249e+000	 9.808549036971231e-001	-2.266514850628181e+000
1	 1.498466258716638e+000	 9.972955297967757e-001	-2.387006606075840e+000
1	 1.487462332141325e+000	 1.013634664469111e+000	-2.511478838013535e+000
1	 1.476268665820915e+000	 1.029869018926507e+000	-2.639633596546203e+000
1	 1.464886726656035e+000	 1.045995328953468e+000	-2.771133815106527e+000
1	 1.410628949973539e+000	 1.007252824153679e+000	-3.738283911121089e+000
1	 1.399488769361377e+000	 1.022674673023736e+000	-3.922948151625023e+000
1	 1.388170325810758e+000	 1.037986269689500e+000	-4.118591059363522e+000
1	 1.376675242076157e+000	 1.053184551797793e+000	-4.325289988842295e+000
1	 1.365005210482521e+000	 1.068266488614319e+000	-4.543119216030662e+000
1	 1.353161992161219e+000	 1.083229082987748e+000	-4.772149546204271e+000
1	 1.341147416219812e+000	 1.098069373291773e+000	-5.012447919772496e+000
1	 1.328963378846395e+000	 1.112784435342554e+000	-5.264077017001237e+000
1	 1.316611842349339e+000	 1.127371384288980e+000	-5.527094862556530e+000
1	 1.304094834133428e+000	 1.141827376473227e+000	-5.801554430804308e+000
1	 1.291414445613439e+000	 1.156149611259114e+000	-6.087503252812248e+000
1	 1.416054727642790e+000	 1.011127074632929e+000	-3.633671818538208e+000
1	 1.404871697957502e+000	 1.026608241386256e+000	-3.812468510154996e+000
1	 1.393509719671491e+000	 1.041978731866286e+000	-4.002250436288070e+000
1	 1.381970421780917e+000	 1.057235471940954e+000	-4.203033168626852e+000
1	 1.370255503120003e+000	 1.072375419218692e+000	-4.414826340600119e+000
1	 1.358366731594048e+000	 1.087395565020072e+000	-4.637633355103840e+000
1	 1.346305943346006e+000	 1.102292936327329e+000	-4.871451095878105e+000
1	 1.334075041857377e+000	 1.117064597709183e+000	-5.116269643256035e+000
1	 1.321675996984263e+000	 1.131707653218370e+000	-5.372071995005091e+000
1	 1.309110843929558e+000	 1.146219248259358e+000	-5.638833792978540e+000
1	 1.296381682152357e+000	 1.160596571423735e+000	-5.916523056288819e+000
1	 1.421480505311373e+000	 1.015001325112831e+000	-3.530453254327453e+000
1	 1.410254626553004e+000	 1.030541809749378e+000	-3.703651961530371e+000
1	 1.398849113531651e+000	 1.045971194043619e+000	-3.887831475040272e+000
1	 1.387265601485157e+000	 1.061286392084600e+000	-4.082944495652662e+000
1	 1.375505795757022e+000	 1.076484349823485e+000	-4.288934719425410e+000
1	 1.363571471026473e+000	 1.091562047052749e+000	-4.505736646977857e+000
1	 1.351464470471854e+000	 1.106516499363172e+000	-4.733275402496300e+000
1	 1.339186704868070e+000	 1.121344760076036e+000	-4.971466562977668e+000
1	 1.326740151618949e+000	 1.136043922147925e+000	-5.220215998225092e+000
1	 1.314126853725497e+000	 1.150611120045603e+000	-5.479419722089760e+000
1	 1.301348918691124e+000	 1.165043531588422e+000	-5.748963755433052e+000
1	 1.426906282979456e+000	 1.018875575593200e+000	-3.428767342703008e+000
1	 1.415637555148037e+000	 1.034475378112925e+000	-3.596640232257236e+000
1	 1.404188507391379e+000	 1.049963656221326e+000	-3.775476998500546e+000
1	 1.392560781189007e+000	 1.065337312228566e+000	-3.965166394648902e+000
1	 1.380756088393693e+000	 1.080593280428541e+000	-4.165584897416259e+000
1	 1.368776210458593e+000	 1.095728529085633e+000	-4.376596619564363e+000
1	 1.356622997597439e+000	 1.110740062399165e+000	-4.598053238607230e+000
1	 1.344298367878539e+000	 1.125624922442983e+000	-4.829793942008214e+000
1	 1.331804306253448e+000	 1.140380191077526e+000	-5.071645389173204e+000
1	 1.319142863521279e+000	 1.155002991831848e+000	-5.323421690507455e+000
1	 1.306316155229757e+000	 1.169490491753078e+000	-5.584924403766357e+000
1	 1.432332060647205e+000	 1.022749826073854e+000	-3.328751099828167e+000
1	 1.421020483742758e+000	 1.038408946476717e+000	-3.491572901359929e+000
1	 1.409527901250820e+000	 1.053956118399235e+000	-3.665327665454928e+000
1	 1.397855960892595e+000	 1.069388232372687e+000	-3.849839132283408e+000
1	 1.386006381030130e+000	 1.084702211033705e+000	-4.044915289904549e+000
1	 1.373980949890507e+000	 1.099895011118573e+000	-4.250348391740749e+000
1	 1.361781524722843e+000	 1.114963625435166e+000	-4.465914997042749e+000
1	 1.349410030888850e+000	 1.129905084809896e+000	-4.691376034487845e+000
1	 1.336868460887806e+000	 1.144716460007051e+000	-4.926476889002403e+000
1	 1.324158873316935e+000	 1.159394863617986e+000	-5.170947511843473e+000
1	 1.311283391768273e+000	 1.173937451917599e+000	-5.424502553922252e+000
1	 1.437757838314787e+000	 1.026624076554607e+000	-3.230539473591695e+000
1	 1.426403412337323e+000	 1.042342514840577e+000	-3.388587440901778e+000
1	 1.414867295110117e+000	 1.057948580577176e+000	-3.557522011429317e+000
1	 1.403151140596052e+000	 1.073439152516799e+000	-3.737100857882767e+000
1	 1.391256673666448e+000	 1.088811141638818e+000	-3.927062222827130e+000
1	 1.379185689322312e+000	 1.104061493151422e+000	-4.127125042749912e+000
1	 1.366940051848146e+000	 1.119187188471039e+000	-4.336989102340254e+000
1	 1.354521693899067e+000	 1.134185247176644e+000	-4.556335218926544e+000
1	 1.341932615522074e+000	 1.149052728936382e+000	-4.784825456946865e+000
1	 1.329174883112497e+000	 1.163786735403905e+000	-5.022103372251388e+000
1	 1.316250628306690e+000	 1.178384412081889e+000	-5.267794285966425e+000
1	 1.443183615982369e+000	 1.030498327035279e+000	-3.134265382487399e+000
1	 1.431786340931887e+000	 1.046276083204328e+000	-3.287819255591532e+000
1	 1.420206688969413e+000	 1.061941042754976e+000	-3.452196488602369e+000
1	 1.408446320299508e+000	 1.077490072660739e+000	-3.627087643234245e+000
1	 1.396506966302761e+000	 1.092920072243724e+000	-3.812159972002279e+000
1	 1.384390428754105e+000	 1.108227975184033e+000	-4.007057650541044e+000
1	 1.372098578973432e+000	 1.123410751506642e+000	-4.211402047742626e+000
1	 1.359633356909255e+000	 1.138465409543098e+000	-4.424792033462190e+000
1	 1.346996770156299e+000	 1.153388997865399e+000	-4.646804323442316e+000
1	 1.334190892908001e+000	 1.168178607189497e+000	-4.876993861019062e+000
1	 1.321217864845022e+000	 1.182831372245845e+000	-5.114894235078005e+000
1	 1.448609393650117e+000	 1.034372577515684e+000	-3.040059753619661e+000
1	 1.437169269526609e+000	 1.050209651567791e+000	-3.189401721499938e+000
1	 1.425546082828852e+000	 1.065933504932463e+000	-3.349485504821436e+000
1	 1.413741500003090e+000	 1.081540992804341e+000	-3.519933521492719e+000
1	 1.401757258939182e+000	 1.097029002848268e+000	-3.700340801523296e+000
1	 1.389595168185988e+000	 1.112394457216257e+000	-3.890275329248814e+000
1	 1.377257106098781e+000	 1.127634314541839e+000	-4.089278431366755e+000
1	 1.364745019919480e+000	 1.142745571909127e+000	-4.296865210326135e+000
1	 1.352060924790529e+000	 1.157725266793980e+000	-4.512525022502399e+000
1	 1.339206902703474e+000	 1.172570478974651e+000	-4.735722000474263e+000
1	 1.326185101383289e+000	 1.187278332409369e+000	-4.965895618608809e+000
1	 1.454035171318200e+000	 1.038246827995640e+000	-2.948051559858089e+000
1	 1.442552198121641e+000	 1.054143219930787e+000	-3.093466223909497e+000
1	 1.430885476688577e+000	 1.069925967109467e+000	-3.249521461745097e+000
1	 1.419036679706928e+000	 1.085591912947441e+000	-3.415770525217254e+000
1	 1.407007551575826e+000	 1.101137933452291e+000	-3.591735001292633e+000
1	 1.394799907618056e+000	 1.116560939247946e+000	-3.776905265834067e+000
1	 1.382415633224277e+000	 1.131857877576488e+000	-3.970740991561996e+000
1	 1.369856682929806e+000	 1.147025734274602e+000	-4.172671709537387e+000
1	 1.357125079424815e+000	 1.162061535722006e+000	-4.382097423369761e+000
1	 1.344222912498953e+000	 1.176962350759256e+000	-4.598389275220383e+000
1	 1.331152337921506e+000	 1.191725292572359e+000	-4.820890262536708e+000
1	 1.459460948986784e+000	 1.042121078474962e+000	-2.858367856163502e+000
1	 1.447935126717141e+000	 1.058076788293140e+000	-3.000142194319681e+000
1	 1.436224870548732e+000	 1.073918429285816e+000	-3.152434792134990e+000
1	 1.424331859411153e+000	 1.089642833089873e+000	-3.314728723558333e+000
1	 1.412257844212809e+000	 1.105246864055639e+000	-3.486470923718900e+000
1	 1.400004647050408e+000	 1.120727421278952e+000	-3.667072755906298e+000
1	 1.387574160350000e+000	 1.136081440610451e+000	-3.855910641480324e+000
1	 1.374968345940299e+000	 1.151305896639394e+000	-4.052326751844860e+000
1	 1.362189234059203e+000	 1.166397804649358e+000	-4.255629761461554e+000
1	 1.349238922294467e+000	 1.181354222543202e+000	-4.465095660720201e+000
1	 1.336119574459690e+000	 1.196172252734715e+000	-4.679968627328895e+000
1	 1.464886726656035e+000	 1.045995328953468e+000	-2.771133815106527e+000
1	 1.453318055313266e+000	 1.062010356654672e+000	-2.909557146630065e+000
1	 1.441564264409459e+000	 1.077910891461337e+000	-3.058353996318370e+000
1	 1.429627039115891e+000	 1.093693753231475e+000	-3.216936258619552e+000
1	 1.417508136850242e+000	 1.109355794658154e+000	-3.384675019598085e+000
1	 1.405209386483143e+000	 1.124893903309127e+000	-3.560901238750686e+000
1	 1.392732687476031e+000	 1.140305003643589e+000	-3.744906502877833e+000
1	 1.380080008951025e+000	 1.155586059003373e+000	-3.935943850937943e+000
1	 1.367253388693743e+000	 1.170734073575915e+000	-4.133228668626900e+000
1	 1.354254932090051e+000	 1.185746094326380e+000	-4.335939651244440e+000
1	 1.341086810997859e+000	 1.200619212896339e+000	-4.543219833230451e+000
1	 1.291414445613439e+000	 1.156149611259114e+000	-6.087503252812248e+000
1	 1.278574769382549e+000	 1.170333215629018e+000	-6.371623535156383e+000
1	 1.265576131551744e+000	 1.184377640798316e+000	-6.640978465371337e+000
1	 1.252420808518344e+000	 1.198280228121825e+000	-6.896061585964018e+000
1	 1.239111135684223e+000	 1.212038368913644e+000	-7.137379540940703e+000
1	 1.225649506076354e+000	 1.225649506076354e+000	-7.365451572435517e+000
1	 1.212038368913644e+000	 1.239111135684222e+000	-7.580808999777585e+000
1	 1.198280228121825e+000	 1.252420808518344e+000	-7.783994681919003e+000
1	 1.184377640798316e+000	 1.265576131551744e+000	-7.975562464181549e+000
1	 1.170333215629018e+000	 1.278574769382549e+000	-8.156076610319078e+000
1	 1.156149611259114e+000	 1.291414445613438e+000	-8.326111220921220e+000
1	 1.296381682152357e+000	 1.160596571423735e+000	-5.916523056288819e+000
1	 1.283492619987396e+000	 1.174834730950531e+000	-6.191811821835330e+000
1	 1.270443984799997e+000	 1.188933175944304e+000	-6.451873362718756e+000
1	 1.257238061743312e+000	 1.202889237533783e+000	-6.697307630139198e+000
1	 1.243877195201993e+000	 1.216700296999137e+000	-6.928731839858633e+000
1	 1.230363787407445e+000	 1.230363787407445e+000	-7.146779767568933e+000
1	 1.216700296999137e+000	 1.243877195201994e+000	-7.352101019328489e+000
1	 1.202889237533783e+000	 1.257238061743312e+000	-7.545360278428257e+000
1	 1.188933175944304e+000	 1.270443984799997e+000	-7.727236530105472e+000
1	 1.174834730950530e+000	 1.283492619987395e+000	-7.898422265574228e+000
1	 1.160596571423735e+000	 1.296381682152357e+000	-8.059622666890578e+000
1	 1.301348918691124e+000	 1.165043531588422e+000	-5.748963755433052e+000
1	 1.288410470592122e+000	 1.179336246272075e+000	-6.015532470945320e+000
1	 1.275311838048155e+000	 1.193488711090297e+000	-6.266432930530619e+000
1	 1.262055314968202e+000	 1.207498246945725e+000	-6.502370618134179e+000
1	 1.248643254719702e+000	 1.221362225084596e+000	-6.724072444882340e+000
1	 1.235078068738490e+000	 1.235078068738489e+000	-6.932285842983417e+000
1	 1.221362225084597e+000	 1.248643254719702e+000	-7.127777827316761e+000
1	 1.207498246945725e+000	 1.262055314968202e+000	-7.311334026513251e+000
1	 1.193488711090297e+000	 1.275311838048155e+000	-7.483757685403785e+000
1	 1.179336246272075e+000	 1.288410470592122e+000	-7.645868640782003e+000
1	 1.165043531588422e+000	 1.301348918691123e+000	-7.798502272488836e+000
1	 1.306316155229757e+000	 1.169490491753078e+000	-5.584924403766356e+000
1	 1.293328321196732e+000	 1.183837761593561e+000	-5.842873370406149e+000
1	 1.280179691296205e+000	 1.198044246236214e+000	-6.084733755299510e+000
1	 1.266872568192991e+000	 1.212107256357580e+000	-6.311315701905503e+000
1	 1.253409314237314e+000	 1.226024153169964e+000	-6.523454943188305e+000
1	 1.239792350069438e+000	 1.239792350069438e+000	-6.722011693841148e+000
1	 1.226024153169964e+000	 1.253409314237314e+000	-6.907869502808920e+000
1	 1.212107256357580e+000	 1.266872568192991e+000	-7.081934068354848e+000
1	 1.198044246236215e+000	 1.280179691296205e+000	-7.245132018009541e+000
1	 1.183837761593561e+000	 1.293328321196732e+000	-7.398409655824833e+000
1	 1.169490491753078e+000	 1.306316155229757e+000	-7.542731679433699e+000
1	 1.311283391768273e+000	 1.173937451917599e+000	-5.424502553922252e+000
1	 1.298246171801226e+000	 1.188339276914900e+000	-5.673921076433849e+000
1	 1.285047544544136e+000	 1.202599781381977e+000	-5.906851263057058e+000
1	 1.271689821417654e+000	 1.216716265769280e+000	-6.124207046208355e+000
1	 1.258175373754790e+000	 1.230686081255180e+000	-6.326932109984618e+000
1	 1.244506631400244e+000	 1.244506631400243e+000	-6.515998580497110e+000
1	 1.230686081255180e+000	 1.258175373754790e+000	-6.692405669105223e+000
1	 1.216716265769280e+000	 1.271689821417654e+000	-6.857178271238938e+000
1	 1.202599781381977e+000	 1.285047544544136e+000	-7.011365523609983e+000
1	 1.188339276914900e+000	 1.298246171801226e+000	-7.156039322713363e+000
1	 1.173937451917600e+000	 1.311283391768273e+000	-7.292292807613352e+000
1	 1.316250628306690e+000	 1.178384412081889e+000	-5.267794285966425e+000
1	 1.303164022405607e+000	 1.192840792236000e+000	-5.508760838669155e+000
1	 1.289915397791938e+000	 1.207155316527504e+000	-5.732859741270767e+000
1	 1.276507074642168e+000	 1.221325275180754e+000	-5.941107847224142e+000
1	 1.262941433272095e+000	 1.235348009340186e+000	-6.134555923832077e+000
1	 1.249220912730856e+000	 1.249220912730856e+000	-6.314287140476806e+000
1	 1.235348009340186e+000	 1.262941433272095e+000	-6.481415502339090e+000
1	 1.221325275180754e+000	 1.276507074642168e+000	-6.637084232742946e+000
1	 1.207155316527504e+000	 1.289915397791938e+000	-6.782464107387321e+000
1	 1.192840792235999e+000	 1.303164022405607e+000	-6.918751743847997e+000
1	 1.178384412081889e+000	 1.316250628306690e+000	-7.047167849837875e+000
1	 1.321217864845022e+000	 1.182831372245845e+000	-5.114894235078004e+000
1	 1.308081873009877e+000	 1.197342307556770e+000	-5.347476624738055e+000
1	 1.294783251039599e+000	 1.211710851672715e+000	-5.562832360246698e+000
1	 1.281324327866507e+000	 1.225934284591933e+000	-5.762080350767424e+000
1	 1.267707492789194e+000	 1.240009937424922e+000	-5.946377581619479e+000
1	 1.253935194061230e+000	 1.253935194061230e+000	-6.116917400184433e+000
1	 1.240009937424922e+000	 1.267707492789194e+000	-6.274927739883331e+000
1	 1.225934284591933e+000	 1.281324327866507e+000	-6.421669285806061e+000
1	 1.211710851672716e+000	 1.294783251039599e+000	-6.558433585719863e+000
1	 1.197342307556771e+000	 1.308081873009878e+000	-6.686541110319952e+000
1	 1.182831372245845e+000	 1.321217864845022e+000	-6.807339266708654e+000
1	 1.326185101383289e+000	 1.187278332409369e+000	-4.965895618608809e+000
1	 1.312999723614040e+000	 1.201843822877124e+000	-5.190151144260805e+000
1	 1.299651104287106e+000	 1.216266386817533e+000	-5.396841194051045e+000
1	 1.286141581090649e+000	 1.230543294002748e+000	-5.587185870084262e+000
1	 1.272473552306048e+000	 1.244671865509330e+000	-5.762447513202380e+000
1	 1.258649475391316e+000	 1.258649475391316e+000	-5.923928786347573e+000
1	 1.244671865509330e+000	 1.272473552306049e+000	-6.072970688566737e+000
1	 1.230543294002748e+000	 1.286141581090648e+000	-6.210950503685390e+000
1	 1.216266386817532e+000	 1.299651104287106e+000	-6.339279687845317e+000
1	 1.201843822877123e+000	 1.312999723614040e+000	-6.459401700250028e+000
1	 1.187278332409369e+000	 1.326185101383289e+000	-6.572789781603464e+000
1	 1.331152337921506e+000	 1.191725292572359e+000	-4.820890262536708e+000
1	 1.317917574218097e+000	 1.206345338196968e+000	-5.036865872323647e+000
1	 1.304518957534450e+000	 1.220821921961874e+000	-5.234957240963659e+000
1	 1.290958834314567e+000	 1.235152303413128e+000	-5.416484803251652e+000
1	 1.277239611822623e+000	 1.249333793593351e+000	-5.582815395714170e+000
1	 1.263363756721067e+000	 1.263363756721067e+000	-5.735360137205884e+000
1	 1.249333793593351e+000	 1.277239611822623e+000	-5.875572232707257e+000
1	 1.235152303413128e+000	 1.290958834314567e+000	-6.004944704800737e+000
1	 1.220821921961874e+000	 1.304518957534450e+000	-6.125008057486431e+000
1	 1.206345338196968e+000	 1.317917574218097e+000	-6.237327877165183e+000
1	 1.191725292572359e+000	 1.331152337921506e+000	-6.343502375773652e+000
1	 1.336119574459690e+000	 1.196172252734715e+000	-4.679968627328895e+000
1	 1.322835424822050e+000	 1.210846853516214e+000	-4.887701072426456e+000
1	 1.309386810781618e+000	 1.225377457105661e+000	-5.077250443474807e+000
1	 1.295776087538239e+000	 1.239761312823005e+000	-5.250036650188978e+000
1	 1.282005671338881e+000	 1.253995721676927e+000	-5.407530167558125e+000
1	 1.268078038050434e+000	 1.268078038050434e+000	-5.551249713449990e+000
1	 1.253995721676926e+000	 1.282005671338881e+000	-5.682759841965559e+000
1	 1.239761312823005e+000	 1.295776087538239e+000	-5.803668457471724e+000
1	 1.225377457105661e+000	 1.309386810781618e+000	-5.915624254440797e+000
1	 1.210846853516214e+000	 1.322835424822051e+000	-6.020314088410753e+000
1	 1.196172252734716e+000	 1.336119574459690e+000	-6.119460283550612e+000
1	 1.341086810997859e+000	 1.200619212896339e+000	-4.543219833230451e+000
1	 1.327753275425902e+000	 1.215348368834772e+000	-4.742735818920855e+000
1	 1.314254664028600e+000	 1.229932992248813e+000	-4.923789707838136e+000
1	 1.300593340761641e+000	 1.244370322232309e+000	-5.087900029291400e+000
1	 1.286771730854787e+000	 1.258657649759996e+000	-5.236640042087934e+000
1	 1.272792319379371e+000	 1.272792319379371e+000	-5.371635208917423e+000
1	 1.258657649759996e+000	 1.286771730854787e+000	-5.494560579024560e+000
1	 1.244370322232309e+000	 1.300593340761641e+000	-5.607138084549604e+000
1	 1.229932992248813e+000	 1.314254664028600e+000	-5.711133756134825e+000
1	 1.215348368834772e+000	 1.327753275425902e+000	-5.808354863598178e+000
1	 1.200619212896339e+000	 1.341086810997858e+000	-5.900646987659039e+000
1	 1.156149611259114e+000	 1.291414445613438e+000	-8.326111220921220e+000
1	 1.141827376473228e+000	 1.304094834133428e+000	-8.481606317596041e+000
1	 1.127371384288980e+000	 1.316611842349339e+000	-8.619854670810478e+000
1	 1.112784435342554e+000	 1.328963378846395e+000	-8.743590279927737e+000
1	 1.098069373291773e+000	 1.341147416219812e+000	-8.855609444359331e+000
1	 1.083229082987748e+000	 1.353161992161219e+000	-8.958766061854751e+000
1	 1.068266488614319e+000	 1.365005210482521e+000	-9.055966845176190e+000
1	 1.053184551797793e+000	 1.376675242076157e+000	-9.150166467409143e+000
1	 1.037986269689500e+000	 1.388170325810758e+000	-9.244362646283500e+000
1	 1.022674673023736e+000	 1.399488769361377e+000	-9.341591177975261e+000
1	 1.007252824153679e+000	 1.410628949973538e+000	-9.444920930918267e+000
1	 1.160596571423735e+000	 1.296381682152357e+000	-8.059622666890578e+000
1	 1.146219248259359e+000	 1.309110843929558e+000	-8.207106984815283e+000
1	 1.131707653218370e+000	 1.321675996984262e+000	-8.338373281930304e+000
1	 1.117064597709183e+000	 1.334075041857377e+000	-8.456097219340888e+000
1	 1.102292936327329e+000	 1.346305943346006e+000	-8.563014615194584e+000
1	 1.087395565020072e+000	 1.358366731594048e+000	-8.661916845840553e+000
1	 1.072375419218692e+000	 1.370255503120003e+000	-8.755646168357849e+000
1	 1.057235471940954e+000	 1.381970421780917e+000	-8.847090974470214e+000
1	 1.041978731866286e+000	 1.393509719671491e+000	-8.939180985987353e+000
1	 1.026608241386256e+000	 1.404871697957502e+000	-9.034882402001026e+000
1	 1.011127074632929e+000	 1.416054727642790e+000	-9.137193008119919e+000
1	 1.165043531588422e+000	 1.301348918691123e+000	-7.798502272488836e+000
1	 1.150611120045602e+000	 1.314126853725497e+000	-7.938236717991691e+000
1	 1.136043922147926e+000	 1.326740151618949e+000	-8.062753805580195e+000
1	 1.121344760076035e+000	 1.339186704868070e+000	-8.174668403474314e+000
1	 1.106516499363172e+000	 1.351464470471854e+000	-8.276653508070460e+000
1	 1.091562047052749e+000	 1.363571471026473e+000	-8.371435751873211e+000
1	 1.076484349823485e+000	 1.375505795757022e+000	-8.461790835560432e+000
1	 1.061286392084600e+000	 1.387265601485157e+000	-8.550538893961384e+000
1	 1.045971194043619e+000	 1.398849113531651e+000	-8.640539805846627e+000
1	 1.030541809749378e+000	 1.410254626553004e+000	-8.734688457508709e+000
1	 1.015001325112831e+000	 1.421480505311373e+000	-8.835909970170160e+000
1	 1.169490491753078e+000	 1.306316155229757e+000	-7.542731679433699e+000
1	 1.155002991831848e+000	 1.319142863521279e+000	-7.674965260273747e+000
1	 1.140380191077526e+000	 1.331804306253448e+000	-7.792954972039201e+000
1	 1.125624922442983e+000	 1.344298367878539e+000	-7.899252457609928e+000
1	 1.110740062399165e+000	 1.356622997597439e+000	-7.996465572430943e+000
1	 1.095728529085632e+000	 1.368776210458593e+000	-8.087254003099313e+000
1	 1.080593280428541e+000	 1.380756088393693e+000	-8.174324812631575e+000
1	 1.065337312228566e+000	 1.392560781189007e+000	-8.260427921948956e+000
1	 1.049963656221326e+000	 1.404188507391379e+000	-8.348351537227355e+000
1	 1.034475378112924e+000	 1.415637555148037e+000	-8.440917532840897e+000
1	 1.018875575593200e+000	 1.426906282979456e+000	-8.540976799678473e+000
1	 1.173937451917600e+000	 1.311283391768273e+000	-7.292292807613352e+000
1	 1.159394863617986e+000	 1.324158873316934e+000	-7.417262813270924e+000
1	 1.144716460007052e+000	 1.336868460887806e+000	-7.528936136917640e+000
1	 1.129905084809896e+000	 1.349410030888850e+000	-7.629798785475080e+000
1	 1.114963625435166e+000	 1.361781524722843e+000	-7.722391175200479e+000
1	 1.099895011118573e+000	 1.373980949890507e+000	-7.809303864792612e+000
1	 1.084702211033704e+000	 1.386006381030130e+000	-7.893173217510932e+000
1	 1.069388232372687e+000	 1.397855960892596e+000	-7.976677001592694e+000
1	 1.053956118399235e+000	 1.409527901250820e+000	-8.062529938361561e+000
1	 1.038408946476717e+000	 1.421020483742758e+000	-8.153479207497368e+000
1	 1.022749826073853e+000	 1.432332060647205e+000	-8.252299918985829e+000
1	 1.178384412081889e+000	 1.316250628306690e+000	-7.047167849837875e+000
1	 1.163786735403906e+000	 1.329174883112497e+000	-7.165100028403193e+000
1	 1.149052728936382e+000	 1.341932615522073e+000	-7.270657269357841e+000
1	 1.134185247176644e+000	 1.354521693899066e+000	-7.366257554553605e+000
1	 1.119187188471039e+000	 1.366940051848147e+000	-7.454371583471313e+000
1	 1.104061493151423e+000	 1.379185689322312e+000	-7.537518624690610e+000
1	 1.088811141638818e+000	 1.391256673666449e+000	-7.618262298491484e+000
1	 1.073439152516800e+000	 1.403151140596052e+000	-7.699206299614563e+000
1	 1.057948580577175e+000	 1.414867295110117e+000	-7.782990069310255e+000
1	 1.042342514840577e+000	 1.426403412337323e+000	-7.872284425885398e+000
1	 1.026624076554608e+000	 1.437757838314787e+000	-7.969787162998140e+000
1	 1.182831372245845e+000	 1.321217864845022e+000	-6.807339266708654e+000
1	 1.168178607189497e+000	 1.334190892908000e+000	-6.918447998445613e+000
1	 1.153388997865399e+000	 1.346996770156299e+000	-7.018078940501172e+000
1	 1.138465409543097e+000	 1.359633356909255e+000	-7.108579681729455e+000
1	 1.123410751506643e+000	 1.372098578973432e+000	-7.192348947583059e+000
1	 1.108227975184033e+000	 1.384390428754105e+000	-7.271832573774000e+000
1	 1.092920072243724e+000	 1.396506966302761e+000	-7.349519412971272e+000
1	 1.077490072660739e+000	 1.408446320299507e+000	-7.427937183298308e+000
1	 1.061941042754975e+000	 1.420206688969413e+000	-7.509648267491994e+000
1	 1.046276083204328e+000	 1.431786340931888e+000	-7.597245471662268e+000
1	 1.030498327035279e+000	 1.443183615982369e+000	-7.693347752633213e+000
1	 1.187278332409369e+000	 1.326185101383289e+000	-6.572789781603464e+000
1	 1.172570478974651e+000	 1.339206902703475e+000	-6.677278249262687e+000
1	 1.157725266793980e+000	 1.352060924790529e+000	-6.771162312213796e+000
1	 1.142745571909126e+000	 1.364745019919480e+000	-6.856716819251554e+000
1	 1.127634314541839e+000	 1.377257106098782e+000	-6.936266284581170e+000
1	 1.112394457216257e+000	 1.389595168185987e+000	-7.012180987478643e+000
1	 1.097029002848268e+000	 1.401757258939182e+000	-7.086873006682330e+000
1	 1.081540992804341e+000	 1.413741500003090e+000	-7.162792198005771e+000
1	 1.065933504932463e+000	 1.425546082828852e+000	-7.242422123761081e+000
1	 1.050209651567791e+000	 1.437169269526609e+000	-7.328275942654695e+000
1	 1.034372577515684e+000	 1.448609393650118e+000	-7.422892268864038e+000
1	 1.191725292572359e+000	 1.331152337921506e+000	-6.343502375773653e+000
1	 1.176962350759256e+000	 1.344222912498952e+000	-6.441562731727959e+000
1	 1.162061535722006e+000	 1.357125079424815e+000	-6.529869126065335e+000
1	 1.147025734274602e+000	 1.369856682929806e+000	-6.610621341014198e+000
1	 1.131857877576487e+000	 1.382415633224277e+000	-6.686067462046201e+000
1	 1.116560939247946e+000	 1.394799907618056e+000	-6.758500107327711e+000
1	 1.101137933452292e+000	 1.407007551575827e+000	-6.830252593385100e+000
1	 1.085591912947441e+000	 1.419036679706928e+000	-6.903695045196943e+000
1	 1.069925967109467e+000	 1.430885476688577e+000	-6.981230459021171e+000
1	 1.054143219930787e+000	 1.442552198121641e+000	-7.065290726339060e+000
1	 1.038246827995640e+000	 1.454035171318201e+000	-7.158332627343381e+000
1	 1.196172252734716e+000	 1.336119574459690e+000	-6.119460283550612e+000
1	 1.181354222543202e+000	 1.349238922294467e+000	-6.211273813823834e+000
1	 1.166397804649358e+000	 1.362189234059203e+000	-6.294161692553094e+000
1	 1.151305896639394e+000	 1.374968345940300e+000	-6.370246329142383e+000
1	 1.136081440610451e+000	 1.387574160349999e+000	-6.441697182284022e+000
1	 1.120727421278952e+000	 1.400004647050408e+000	-6.510727122973912e+000
1	 1.105246864055639e+000	 1.412257844212808e+000	-6.579588735015630e+000
1	 1.089642833089873e+000	 1.424331859411152e+000	-6.650570560939791e+000
1	 1.073918429285816e+000	 1.436224870548732e+000	-6.725993301361259e+000
1	 1.058076788293140e+000	 1.447935126717141e+000	-6.808205975869519e+000
1	 1.042121078474962e+000	 1.459460948986784e+000	-6.899582053594507e+000
1	 1.200619212896339e+000	 1.341086810997858e+000	-5.900646987659039e+000
1	 1.185746094326380e+000	 1.354254932090050e+000	-5.986384272916960e+000
1	 1.170734073575915e+000	 1.367253388693742e+000	-6.064002880565745e+000
1	 1.155586059003373e+000	 1.380080008951025e+000	-6.135545560876215e+000
1	 1.140305003643589e+000	 1.392732687476031e+000	-6.203100966867023e+000
1	 1.124893903309127e+000	 1.405209386483143e+000	-6.268800154640612e+000
1	 1.109355794658154e+000	 1.417508136850241e+000	-6.334813022273888e+000
1	 1.093693753231475e+000	 1.429627039115892e+000	-6.403344694898141e+000
1	 1.077910891461337e+000	 1.441564264409459e+000	-6.476631863698676e+000
1	 1.062010356654672e+000	 1.453318055313266e+000	-6.556939086637880e+000
1	 1.045995328953468e+000	 1.464886726656035e+000	-6.646555058752815e+000
1	 1.007252824153679e+000	 1.410628949973538e+000	-9.444920930918267e+000
1	 9.917238147322854e-001	 1.421589314759868e+000	-9.560472897210032e+000
1	 9.760907627267612e-001	 1.432368380118340e+000	-9.693438516978587e+000
1	 9.603568114495741e-001	 1.442964733480680e+000	-9.845521656307938e+000
1	 9.445251278751973e-001	 1.453377034207980e+000	-1.001843404515144e+001
1	 9.285989006069539e-001	 1.463604014020220e+000	-1.021389254142999e+001
1	 9.125813378375239e-001	 1.473644477357683e+000	-1.043361640222983e+001
1	 8.964756653057331e-001	 1.483497301674313e+000	-1.067932456763847e+001
1	 8.802851242522309e-001	 1.493161437663220e+000	-1.095273296267136e+001
1	 8.640129693766441e-001	 1.502635909414624e+000	-1.125555182264343e+001
1	 8.476624667987510e-001	 1.511919814506641e+000	-1.158948304722339e+001
1	 1.011127074632929e+000	 1.416054727642790e+000	-9.137193008119919e+000
1	 9.955383351508508e-001	 1.427057249867028e+000	-9.252118674836414e+000
1	 9.798451529000372e-001	 1.437877775321736e+000	-9.384740684743136e+000
1	 9.640506832832554e-001	 1.448514886005403e+000	-9.536697979764936e+000
1	 9.481581054562910e-001	 1.458967236122552e+000	-9.709637128198413e+000
1	 9.321706202869717e-001	 1.469233552514910e+000	-9.905209696966209e+000
1	 9.160914483078293e-001	 1.479312635024218e+000	-1.012506963022734e+001
1	 8.999238276650297e-001	 1.489203356786712e+000	-1.037087063966876e+001
1	 8.836710120661887e-001	 1.498904664459498e+000	-1.064426361172271e+001
1	 8.673362687296657e-001	 1.508415578379102e+000	-1.094689403685934e+001
1	 8.509228763379010e-001	 1.517735192652611e+000	-1.128039946599493e+001
1	 1.015001325112831e+000	 1.421480505311373e+000	-8.835909970170160e+000
1	 9.993528555701078e-001	 1.432525184973485e+000	-8.950098945718070e+000
1	 9.835995430740369e-001	 1.443387170524400e+000	-9.082237803803478e+000
1	 9.677445551176854e-001	 1.454065038529375e+000	-9.233910386023602e+000
1	 9.517910830381530e-001	 1.464557438036359e+000	-9.406708095772176e+000
1	 9.357423399677713e-001	 1.474863091008833e+000	-9.602227359909396e+000
1	 9.196015587789252e-001	 1.484980792689991e+000	-9.822067095929247e+000
1	 9.033719900251219e-001	 1.494909411898361e+000	-1.006782618977660e+001
1	 8.870568998809447e-001	 1.504647891255046e+000	-1.034110098938949e+001
1	 8.706595680834880e-001	 1.514195247342880e+000	-1.064348281895137e+001
1	 8.541832858778508e-001	 1.523550570797915e+000	-1.097655551873822e+001
1	 1.018875575593200e+000	 1.426906282979456e+000	-8.540976799678473e+000
1	 1.003167375989868e+000	 1.437993120079414e+000	-8.654316941792876e+000
1	 9.873539332485689e-001	 1.448896565726516e+000	-8.785833143550129e+000
1	 9.714384269526708e-001	 1.459615191052782e+000	-8.937063856889424e+000
1	 9.554240606205866e-001	 1.470147639949597e+000	-9.109555202695221e+000
1	 9.393140596491543e-001	 1.480492629502183e+000	-9.304858503264763e+000
1	 9.231116692506126e-001	 1.490648950355192e+000	-9.524527819299642e+000
1	 9.068201523858113e-001	 1.500615467009447e+000	-9.770117496440950e+000
1	 8.904427876963000e-001	 1.510391118050047e+000	-1.004317972629262e+001
1	 8.739828674379098e-001	 1.519974916306132e+000	-1.034526212679824e+001
1	 8.574436954184010e-001	 1.529365948942723e+000	-1.067790534673121e+001
1	 1.022749826073853e+000	 1.432332060647205e+000	-8.252299918985829e+000
1	 1.006981896409945e+000	 1.443461055184991e+000	-8.364677361256710e+000
1	 9.911083234234418e-001	 1.454405960928265e+000	-8.495431439063838e+000
1	 9.751322987880163e-001	 1.465165343575815e+000	-8.646064813910956e+000
1	 9.590570382033951e-001	 1.475737841862451e+000	-8.818088093939332e+000
1	 9.428857793309232e-001	 1.486122167995148e+000	-9.013017418695597e+000
1	 9.266217797226927e-001	 1.496317108020013e+000	-9.232372047335554e+000
1	 9.102683147468975e-001	 1.506321522120159e+000	-9.477671955189813e+000
1	 8.938286755120545e-001	 1.516134344844683e+000	-9.750435443548803e+000
1	 8.773061667927314e-001	 1.525754585269033e+000	-1.005217676744525e+001
1	 8.607041049593510e-001	 1.535181327087197e+000	-1.038440378611617e+001
1	 1.026624076554608e+000	 1.437757838314787e+000	-7.969787162998140e+000
1	 1.010796416830149e+000	 1.448928990290392e+000	-8.081086340896439e+000
1	 9.948627135984640e-001	 1.459915356129833e+000	-8.210938863459633e+000
1	 9.788261706235282e-001	 1.470715496098660e+000	-8.360821091213513e+000
1	 9.626900157863823e-001	 1.481328043775115e+000	-8.532217778395186e+000
1	 9.464574990128795e-001	 1.491751706487922e+000	-8.726619691641920e+000
1	 9.301318901949669e-001	 1.501985265684642e+000	-8.945521230913966e+000
1	 9.137164771081805e-001	 1.512027577230683e+000	-9.190418057523855e+000
1	 8.972145633280082e-001	 1.521877571639137e+000	-9.462804734080496e+000
1	 8.806294661477533e-001	 1.531534254231759e+000	-9.764172381080735e+000
1	 8.639645145005009e-001	 1.540996705231506e+000	-1.009600635478836e+001
1	 1.030498327035279e+000	 1.443183615982369e+000	-7.693347752633213e+000
1	 1.014610937250293e+000	 1.454396925395793e+000	-7.803451429047717e+000
1	 9.986171037734440e-001	 1.465424751331400e+000	-7.932263000854996e+000
1	 9.825200424590114e-001	 1.476265648621505e+000	-8.081241908946037e+000
1	 9.663229933693518e-001	 1.486918245687779e+000	-8.251856603233541e+000
1	 9.500292186948255e-001	 1.497381244980695e+000	-8.445582176999791e+000
1	 9.336420006672358e-001	 1.507653423349272e+000	-8.663898002161616e+000
1	 9.171646394694617e-001	 1.517733632341207e+000	-8.908285370313855e+000
1	 9.006004511439614e-001	 1.527620798433591e+000	-9.180225144348528e+000
1	 8.839527655027748e-001	 1.537313923194485e+000	-9.481195425375045e+000
1	 8.672249240416515e-001	 1.546812083375814e+000	-9.812669239580501e+000
1	 1.034372577515684e+000	 1.448609393650118e+000	-7.422892268864038e+000
1	 1.018425457670188e+000	 1.459864860501370e+000	-7.531681559160091e+000
1	 1.002371493948190e+000	 1.470934146533150e+000	-7.659312819945035e+000
1	 9.862139142942723e-001	 1.481815801144537e+000	-7.807237847323679e+000
1	 9.699559709521071e-001	 1.492508447600634e+000	-7.976918228842546e+000
1	 9.536009383765637e-001	 1.503010783473660e+000	-8.169822975347747e+000
1	 9.371521111392999e-001	 1.513321581014091e+000	-8.387426152332765e+000
1	 9.206128018305414e-001	 1.523439687451919e+000	-8.631204515661672e+000
1	 9.039863389597143e-001	 1.533364025228227e+000	-8.902635156494110e+000
1	 8.872760648575968e-001	 1.543093592157386e+000	-9.203193160171255e+000
1	 8.704853335826015e-001	 1.552627461520289e+000	-9.534349283735354e+000
1	 1.038246827995640e+000	 1.454035171318201e+000	-7.158332627343381e+000
1	 1.022239978089648e+000	 1.465332795607299e+000	-7.265687023953936e+000
1	 1.006125884122511e+000	 1.476443541735265e+000	-7.391998648169595e+000
1	 9.899077861291159e-001	 1.487365953667944e+000	-7.538720821252951e+000
1	 9.735889485344518e-001	 1.498098649513870e+000	-7.707317604326263e+000
1	 9.571726580578953e-001	 1.508640321967009e+000	-7.899261409705330e+000
1	 9.406622216109615e-001	 1.518989738679292e+000	-8.116030610183227e+000
1	 9.240609641912196e-001	 1.529145742563005e+000	-8.359107151212138e+000
1	 9.073722267750664e-001	 1.539107252023227e+000	-8.629974170881566e+000
1	 8.905993642120184e-001	 1.548873261120638e+000	-8.930113632518415e+000
1	 8.737457431231518e-001	 1.558442839665096e+000	-9.261003974658381e+000
1	 1.042121078474962e+000	 1.459460948986784e+000	-6.899582053594507e+000
1	 1.026054498508483e+000	 1.470800730713755e+000	-7.005379450153964e+000
1	 1.009880274296215e+000	 1.481952936937929e+000	-7.130232146456498e+000
1	 9.936016579633483e-001	 1.492916106191916e+000	-7.275604055521380e+000
1	 9.772219261161895e-001	 1.503688851427678e+000	-7.442970943549375e+000
1	 9.607443777386231e-001	 1.514269860460932e+000	-7.633818002809956e+000
1	 9.441723320820210e-001	 1.524657896345065e+000	-7.849637420825266e+000
1	 9.275091265512970e-001	 1.534851797674654e+000	-8.091925950904235e+000
1	 9.107581145898184e-001	 1.544850478818776e+000	-8.362182489030023e+000
1	 8.939226635658397e-001	 1.554652930084415e+000	-8.661905662038381e+000
1	 8.770061526631022e-001	 1.564258217810401e+000	-8.992591431944073e+000
1	 1.045995328953468e+000	 1.464886726656035e+000	-6.646555058752815e+000
1	 1.029869018926506e+000	 1.476268665820915e+000	-6.750671773784290e+000
1	 1.013634664469111e+000	 1.487462332141325e+000	-6.873926284526214e+000
1	 9.972955297967756e-001	 1.498466258716638e+000	-7.017802060539674e+000
1	 9.808549036971231e-001	 1.509279053342249e+000	-7.183795701714937e+000
1	 9.643160974185489e-001	 1.519899398955622e+000	-7.373414454898768e+000
1	 9.476824425522794e-001	 1.530326054011600e+000	-7.588173725054320e+000
1	 9.309572889105739e-001	 1.540557852787053e+000	-7.829594586149772e+000
1	 9.141440024037704e-001	 1.550593705615053e+000	-8.099201296924765e+000
1	 8.972459629188613e-001	 1.560432599048893e+000	-8.398518826618712e+000
1	 8.802665622022525e-001	 1.570073595956371e+000	-8.729070395668018e+000
1	 8.476624667987510e-001	 1.511919814506641e+000	-1.158948304722339e+001
1	 8.312393613581415e-001	 1.521010974816841e+000	-1.195705413129202e+001
1	 8.147444885464512e-001	 1.529910043095903e+000	-1.235961640127772e+001
1	 7.981811359858797e-001	 1.538616338798039e+000	-1.279690400481867e+001
1	 7.815525946160575e-001	 1.547129254530897e+000	-1.326860130338710e+001
1	 7.648621567133508e-001	 1.555448255818969e+000	-1.377434429037344e+001
1	 7.481131139287017e-001	 1.563572880804544e+000	-1.431372206482420e+001
1	 7.313087553462125e-001	 1.571502739887311e+000	-1.488627835697805e+001
1	 7.144523655646381e-001	 1.579237515303805e+000	-1.549151310168905e+001
1	 6.975472228038638e-001	 1.586776960647991e+000	-1.612888405578014e+001
1	 6.805965970383868e-001	 1.594120900334306e+000	-1.679780845534219e+001
1	 8.509228763379010e-001	 1.517735192652611e+000	-1.128039946599493e+001
1	 8.344366018271733e-001	 1.526861320779763e+000	-1.164708425315896e+001
1	 8.178782839027142e-001	 1.535794618021944e+000	-1.204821984732411e+001
1	 8.012512228320780e-001	 1.544534401215738e+000	-1.248369283409837e+001
1	 7.845587222130093e-001	 1.553080060632541e+000	-1.295334149216041e+001
1	 7.678040869851311e-001	 1.561431059741056e+000	-1.345695692900220e+001
1	 7.509906214602353e-001	 1.569586934907099e+000	-1.399428427397170e+001
1	 7.341216273734027e-001	 1.577547295031810e+000	-1.456502392531208e+001
1	 7.172004019571124e-001	 1.585311821129488e+000	-1.516883284782154e+001
1	 7.002302360404403e-001	 1.592880265846325e+000	-1.580532591770124e+001
1	 6.832144121753598e-001	 1.600252452921389e+000	-1.647407731111049e+001
1	 8.541832858778508e-001	 1.523550570797915e+000	-1.097655551873822e+001
1	 8.376338422970054e-001	 1.532711666742066e+000	-1.134241855483109e+001
1	 8.210120792597762e-001	 1.541679192947415e+000	-1.174226980481536e+001
1	 8.043213096790726e-001	 1.550452463632922e+000	-1.217614097078099e+001
1	 7.875648498107525e-001	 1.559030866733727e+000	-1.264401685446410e+001
1	 7.707460172576941e-001	 1.567413863662744e+000	-1.314583622351954e+001
1	 7.538681289925395e-001	 1.575600989009313e+000	-1.368149273665927e+001
1	 7.369344994013454e-001	 1.583591850176024e+000	-1.425083592487964e+001
1	 7.199484383503170e-001	 1.591386126954937e+000	-1.485367222591674e+001
1	 7.029132492777179e-001	 1.598983571044472e+000	-1.548976606899386e+001
1	 6.858322273129970e-001	 1.606384005508325e+000	-1.615884100686318e+001
1	 8.574436954184010e-001	 1.529365948942723e+000	-1.067790534673121e+001
1	 8.408310827674369e-001	 1.538562012703903e+000	-1.104302117927263e+001
1	 8.241458746174377e-001	 1.547563767872459e+000	-1.144173933978833e+001
1	 8.073913965266649e-001	 1.556370526049720e+000	-1.187422941311381e+001
1	 7.905709774090891e-001	 1.564981672834569e+000	-1.234061541800907e+001
1	 7.736879475308445e-001	 1.573396667584132e+000	-1.284097641674167e+001
1	 7.567456365254215e-001	 1.581615043111268e+000	-1.337534718502149e+001
1	 7.397473714298533e-001	 1.589636405320017e+000	-1.394371894001380e+001
1	 7.226964747440688e-001	 1.597460432780201e+000	-1.454604012405824e+001
1	 7.055962625155205e-001	 1.605086876242463e+000	-1.518221724163605e+001
1	 6.884500424511314e-001	 1.612515558095128e+000	-1.585211574704260e+001
1	 8.607041049593510e-001	 1.535181327087197e+000	-1.038440378611617e+001
1	 8.440283232382684e-001	 1.544412358665429e+000	-1.074885681276380e+001
1	 8.272796699754990e-001	 1.553448342797217e+000	-1.114660192639064e+001
1	 8.104614833746549e-001	 1.562288588466257e+000	-1.157793944726363e+001
1	 7.935771050078215e-001	 1.570932478935180e+000	-1.204312539191336e+001
1	 7.766298778043863e-001	 1.579379471505314e+000	-1.254237183871902e+001
1	 7.596231440586885e-001	 1.587629097213042e+000	-1.307584735525216e+001
1	 7.425602434587377e-001	 1.595680960463853e+000	-1.364367748558465e+001
1	 7.254445111381856e-001	 1.603534738605327e+000	-1.424594529565522e+001
1	 7.082792757536738e-001	 1.611190181440331e+000	-1.488269197468727e+001
1	 6.910678575895980e-001	 1.618647110681815e+000	-1.555391749055692e+001
1	 8.639645145005009e-001	 1.540996705231506e+000	-1.009600635478836e+001
1	 8.472255637093006e-001	 1.550262704626801e+000	-1.045989067464885e+001
1	 8.304134653337593e-001	 1.559332917721832e+000	-1.085683143918025e+001
1	 8.135315702228441e-001	 1.568206650882666e+000	-1.128725264188426e+001
1	 7.965832326067517e-001	 1.576883285035673e+000	-1.175153516327933e+001
1	 7.795718080781237e-001	 1.585362275426389e+000	-1.225001690509025e+001
1	 7.625006515921482e-001	 1.593643151314718e+000	-1.278299298752667e+001
1	 7.453731154878102e-001	 1.601725515607597e+000	-1.335071600830952e+001
1	 7.281925475324853e-001	 1.609609044430361e+000	-1.395339636198214e+001
1	 7.109622889920020e-001	 1.617293486638105e+000	-1.459120261792860e+001
1	 6.936856727282305e-001	 1.624778663268400e+000	-1.526426195541288e+001
1	 8.672249240416515e-001	 1.546812083375814e+000	-9.812669239580497e+000
1	 8.504228041803323e-001	 1.556113050588172e+000	-1.017608850731560e+001
1	 8.335472606920200e-001	 1.565217492646447e+000	-1.057240214559845e+001
1	 8.166016570710336e-001	 1.574124713299071e+000	-1.100215084280659e+001
1	 7.995893602056821e-001	 1.582834091136160e+000	-1.146583329384810e+001
1	 7.825137383518610e-001	 1.591345079347453e+000	-1.196390611547320e+001
1	 7.653781591256081e-001	 1.599657205416376e+000	-1.249678382592737e+001
1	 7.481859875168829e-001	 1.607770070751310e+000	-1.306483888803418e+001
1	 7.309405839267849e-001	 1.615683350255352e+000	-1.366840181466441e+001
1	 7.136453022303304e-001	 1.623396791835816e+000	-1.430776133542051e+001
1	 6.963034878668631e-001	 1.630910215854901e+000	-1.498316462324414e+001
1	 8.704853335826015e-001	 1.552627461520289e+000	-9.534349283735354e+000
1	 8.536200446511640e-001	 1.561963396549699e+000	-9.897416566400185e+000
1	 8.366810560500814e-001	 1.571102067571204e+000	-1.029328869861214e+001
1	 8.196717439190238e-001	 1.580042775715602e+000	-1.072261616784730e+001
1	 8.025954878044144e-001	 1.588784897236754e+000	-1.118600851672874e+001
1	 7.854556686254030e-001	 1.597327883268604e+000	-1.168403405189254e+001
1	 7.682556666588754e-001	 1.605671259518095e+000	-1.221721961837080e+001
1	 7.509988595457673e-001	 1.613814625895058e+000	-1.278605043898522e+001
1	 7.336886203209017e-001	 1.621757656080346e+000	-1.339097001810486e+001
1	 7.163283154684836e-001	 1.629500097033496e+000	-1.403238010898128e+001
1	 6.989213030053297e-001	 1.637041768441332e+000	-1.471064074373848e+001
1	 8.737457431231518e-001	 1.558442839665096e+000	-9.261003974658381e+000
1	 8.568172851215963e-001	 1.567813742511534e+000	-9.623841611210839e+000
1	 8.398148514077427e-001	 1.576986642496242e+000	-1.001946612952084e+001
1	 8.227418307666160e-001	 1.585960838132388e+000	-1.044863100173423e+001
1	 8.056016154027514e-001	 1.594735703337569e+000	-1.091204973320043e+001
1	 7.883975988985537e-001	 1.603310687189938e+000	-1.141039537724153e+001
1	 7.711331741917573e-001	 1.611685313619956e+000	-1.194430011653549e+001
1	 7.538117315742753e-001	 1.619859181038905e+000	-1.251435491099423e+001
1	 7.364366567146536e-001	 1.627831961905391e+000	-1.312110921185862e+001
1	 7.190113287062863e-001	 1.635603402231177e+000	-1.376507074158685e+001
1	 7.015391181434644e-001	 1.643173321027709e+000	-1.444670533896474e+001
1	 8.770061526631022e-001	 1.564258217810401e+000	-8.992591431944073e+000
1	 8.600145255914282e-001	 1.573664088473836e+000	-9.355330895365968e+000
1	 8.429486467648053e-001	 1.582871217421709e+000	-9.750909840924104e+000
1	 8.258119176136107e-001	 1.591878900549556e+000	-1.018017799114506e+001
1	 8.086077430004947e-001	 1.600686509438716e+000	-1.064394600958769e+001
1	 7.913395291711171e-001	 1.609293491111551e+000	-1.114298483377936e+001
1	 7.740106817240618e-001	 1.617699367722041e+000	-1.167802507579219e+001
1	 7.566246036022185e-001	 1.625903736182913e+000	-1.224975649069467e+001
1	 7.391846931078581e-001	 1.633906267730533e+000	-1.285882751295258e+001
1	 7.216943419435642e-001	 1.641706707428889e+000	-1.350584486069519e+001
1	 7.041569332811017e-001	 1.649304873614048e+000	-1.419137320760409e+001
1	 8.802665622022525e-001	 1.570073595956371e+000	-8.729070395668018e+000
1	 8.632117660604605e-001	 1.579514434436757e+000	-9.091852157638813e+000
1	 8.460824421210690e-001	 1.588755792347743e+000	-9.487595599845013e+000
1	 8.288820044598098e-001	 1.597796962967234e+000	-9.917240039856432e+000
1	 8.116138705974474e-001	 1.606637315540310e+000	-1.038168657420236e+001
1	 7.942814594428975e-001	 1.615276295033541e+000	-1.088179724166107e+001
1	 7.768881892555959e-001	 1.623713421824429e+000	-1.141839425513598e+001
1	 7.594374756294086e-001	 1.631948291327146e+000	-1.199225930269263e+001
1	 7.419327295003328e-001	 1.639980573555821e+000	-1.260413291815534e+001
1	 7.243773551801412e-001	 1.647810012626662e+000	-1.325471392149704e+001
1	 7.067747484180751e-001	 1.655436426200365e+000	-1.394465892908683e+001
1	 6.805965970383868e-001	 1.594120900334306e+000	-1.679780845534219e+001
1	 6.636011961111934e-001	 1.601270286891380e+000	-1.751235755042301e+001
1	 6.465668096834394e-001	 1.608223969196076e+000	-1.828269989142383e+001
1	 6.294966743307516e-001	 1.614981981624948e+000	-1.910263520672207e+001
1	 6.123940111778622e-001	 1.621544426721644e+000	-1.996591479918642e+001
1	 5.952620241932003e-001	 1.627911474392944e+000	-2.086625116606135e+001
1	 5.781038985210186e-001	 1.634083361056792e+000	-2.179732751680175e+001
1	 5.609227988524843e-001	 1.640060388744116e+000	-2.275280717241691e+001
1	 5.437218678370922e-001	 1.645842924156250e+000	-2.372634283051075e+001
1	 5.265042245356669e-001	 1.651431397679850e+000	-2.471158568086673e+001
1	 5.092729629161171e-001	 1.656826302361175e+000	-2.570219435710885e+001
1	 6.832144121753598e-001	 1.600252452921389e+000	-1.647407731111049e+001
1	 6.661536409274683e-001	 1.607429338547066e+000	-1.718902724415051e+001
1	 6.490537342270052e-001	 1.614409767172589e+000	-1.796007007720243e+001
1	 6.319179410986119e-001	 1.621193773306730e+000	-1.878094640209829e+001
1	 6.147494950566040e-001	 1.627781459887554e+000	-1.964534698357325e+001
1	 5.975516123930077e-001	 1.634172997475357e+000	-2.054692254832253e+001
1	 5.803274905032655e-001	 1.640368623397429e+000	-2.147929347086715e+001
1	 5.630803062510660e-001	 1.646368640846407e+000	-2.243605933946000e+001
1	 5.458132143736448e-001	 1.652173417934089e+000	-2.341080838589919e+001
1	 5.285293459288381e-001	 1.657783386702547e+000	-2.439712676378899e+001
1	 5.112318067850481e-001	 1.663199042094462e+000	-2.538860766048300e+001
1	 6.858322273129970e-001	 1.606384005508325e+000	-1.615884100686318e+001
1	 6.687060857443627e-001	 1.613588390202636e+000	-1.687468949064855e+001
1	 6.515406587711398e-001	 1.620595565149006e+000	-1.764692425362398e+001
1	 6.343392078669849e-001	 1.627405564988432e+000	-1.846923345083605e+001
1	 6.171049789358011e-001	 1.634018493053393e+000	-1.933525411394055e+001
1	 5.998412005932101e-001	 1.640434520557706e+000	-2.023858209681599e+001
1	 5.825510824858481e-001	 1.646653885738002e+000	-2.117278191689962e+001
1	 5.652378136499249e-001	 1.652676892948636e+000	-2.213139647517203e+001
1	 5.479045609104207e-001	 1.658503911711865e+000	-2.310795663835864e+001
1	 5.305544673221824e-001	 1.664135375725176e+000	-2.409599066760186e+001
1	 5.131906506541093e-001	 1.669571781827682e+000	-2.508903347857527e+001
1	 6.884500424511314e-001	 1.612515558095128e+000	-1.585211574704260e+001
1	 6.712585305617217e-001	 1.619747441858088e+000	-1.656936460570372e+001
1	 6.540275833157010e-001	 1.626781363125316e+000	-1.734328838626546e+001
1	 6.367604746357436e-001	 1.633617356670030e+000	-1.816752942974818e+001
1	 6.194604628153395e-001	 1.640255526219128e+000	-1.903567776200758e+001
1	 6.021307887937086e-001	 1.646696043639945e+000	-1.994128118337668e+001
1	 5.847746744686816e-001	 1.652939148078460e+000	-2.087785525299739e+001
1	 5.673953210489919e-001	 1.658985145050743e+000	-2.183889315047937e+001
1	 5.499959074473635e-001	 1.664834405489513e+000	-2.281787539818944e+001
1	 5.325795887156568e-001	 1.670487364747675e+000	-2.380827942816048e+001
1	 5.151494945232681e-001	 1.675944521560770e+000	-2.480358897833280e+001
1	 6.910678575895980e-001	 1.618647110681815e+000	-1.555391749055692e+001
1	 6.738109753793902e-001	 1.625906493513425e+000	-1.627307259727201e+001
1	 6.565145078605460e-001	 1.632967161101506e+000	-1.704918804726709e+001
1	 6.391817414047586e-001	 1.639829148351499e+000	-1.787586691445910e+001
1	 6.218159466951049e-001	 1.646492559384722e+000	-1.874665886958744e+001
1	 6.044203769944051e-001	 1.652957566722031e+000	-1.965507040144060e+001
1	 5.869982664516829e-001	 1.659224410418750e+000	-2.059457493178558e+001
1	 5.695528284481979e-001	 1.665293397152670e+000	-2.155862280638779e+001
1	 5.520872539844181e-001	 1.671164899266971e+000	-2.254065114516732e+001
1	 5.346047101092180e-001	 1.676839353769976e+000	-2.353409353524389e+001
1	 5.171083383924920e-001	 1.682317261293657e+000	-2.453238955135609e+001
1	 6.936856727282305e-001	 1.624778663268400e+000	-1.526426195541288e+001
1	 6.763634201972141e-001	 1.632065545168648e+000	-1.598583317128753e+001
1	 6.590014324055339e-001	 1.639152959077564e+000	-1.676464842275457e+001
1	 6.416030081739019e-001	 1.646040940032816e+000	-1.759427798885993e+001
1	 6.241714305749840e-001	 1.652729592550140e+000	-1.846823776047255e+001
1	 6.067099651952000e-001	 1.659219089803919e+000	-1.937999958072965e+001
1	 5.892218584347683e-001	 1.665509672758822e+000	-2.032300147825588e+001
1	 5.717103358474736e-001	 1.671601649254359e+000	-2.129065777530499e+001
1	 5.541786005215280e-001	 1.677495393044175e+000	-2.227636905364612e+001
1	 5.366298315028222e-001	 1.683191342792013e+000	-2.327353196172805e+001
1	 5.190671822617483e-001	 1.688690001026278e+000	-2.427554884739801e+001
1	 6.963034878668631e-001	 1.630910215854901e+000	-1.498316462324414e+001
1	 6.789158650150372e-001	 1.638224596823758e+000	-1.570766573733979e+001
1	 6.614883569505218e-001	 1.645338757053478e+000	-1.648969432009626e+001
1	 6.440242749430453e-001	 1.652252731713956e+000	-1.732279425435443e+001
1	 6.265269144548638e-001	 1.658966625715349e+000	-1.820045415205273e+001
1	 6.089995533959948e-001	 1.665480612885564e+000	-1.911611780161031e+001
1	 5.914454504178532e-001	 1.671794935098621e+000	-2.006319450720427e+001
1	 5.738678432467487e-001	 1.677909901355751e+000	-2.103506930187837e+001
1	 5.562699470586383e-001	 1.683825886821061e+000	-2.202511301709892e+001
1	 5.386549528964268e-001	 1.689543331813722e+000	-2.302669219210106e+001
1	 5.210260261310047e-001	 1.695062740758567e+000	-2.403317880710694e+001
1	 6.989213030053297e-001	 1.637041768441332e+000	-1.471064074373849e+001
1	 6.814683098327063e-001	 1.644383648478757e+000	-1.543858941422316e+001
1	 6.639752814953673e-001	 1.651524555029236e+000	-1.622435017499591e+001
1	 6.464455417120605e-001	 1.658464523394895e+000	-1.706144683889303e+001
1	 6.288823983346291e-001	 1.665203658880313e+000	-1.794334716667095e+001
1	 6.112891415966912e-001	 1.671742135966922e+000	-1.886347340912543e+001
1	 5.936690424008549e-001	 1.678080197438097e+000	-1.981521274027691e+001
1	 5.760253506459544e-001	 1.684218153456787e+000	-2.079192756336676e+001
1	 5.583612935956925e-001	 1.690156380597569e+000	-2.178696567210527e+001
1	 5.406800742899878e-001	 1.695895320835035e+000	-2.279367025033574e+001
1	 5.229848700002286e-001	 1.701435480490455e+000	-2.380538969403381e+001
1	 7.015391181434644e-001	 1.643173321027709e+000	-1.444670533896474e+001
1	 6.840207546500652e-001	 1.650542700133645e+000	-1.517862303536283e+001
1	 6.664622060399287e-001	 1.657710353004827e+000	-1.596864005842750e+001
1	 6.488668084808190e-001	 1.664676315075607e+000	-1.681026640580710e+001
1	 6.312378822141675e-001	 1.671440692044997e+000	-1.769695534272547e+001
1	 6.135787297971900e-001	 1.678003659047950e+000	-1.862211402671495e+001
1	 5.958926343836886e-001	 1.684365459777196e+000	-1.957911402263400e+001
1	 5.781828580450218e-001	 1.690526405557409e+000	-2.056130168955543e+001
1	 5.604526401326355e-001	 1.696486874373634e+000	-2.156200842180092e+001
1	 5.427051956834623e-001	 1.702247309855889e+000	-2.257456072713986e+001
1	 5.249437138693874e-001	 1.707808220221878e+000	-2.359229012592351e+001
1	 7.041569332811017e-001	 1.649304873614048e+000	-1.419137320760409e+001
1	 6.865731994669597e-001	 1.656701751788424e+000	-1.492778515411925e+001
1	 6.689491305840634e-001	 1.663896150980237e+000	-1.572258768341439e+001
1	 6.512880752491925e-001	 1.670888106756072e+000	-1.656928316244504e+001
1	 6.335933660933646e-001	 1.677677725209364e+000	-1.746131664552531e+001
1	 6.158683179973926e-001	 1.684265182128603e+000	-1.839208656962826e+001
1	 5.981162263662709e-001	 1.690650722115867e+000	-1.935495533924237e+001
1	 5.803403654438809e-001	 1.696834657657558e+000	-2.034325978222666e+001
1	 5.625439866694115e-001	 1.702817368149193e+000	-2.135032145880724e+001
1	 5.447303170768068e-001	 1.708599298876215e+000	-2.236945680659912e+001
1	 5.269025577384487e-001	 1.714180959952767e+000	-2.339398710530628e+001
1	 7.067747484180751e-001	 1.655436426200365e+000	-1.394465892908683e+001
1	 6.891256442832350e-001	 1.662860803443096e+000	-1.468609404897429e+001
1	 6.714360551276295e-001	 1.670081948955455e+000	-1.548621641165849e+001
1	 6.537093420170530e-001	 1.677099898436262e+000	-1.633852686861708e+001
1	 6.359488499721071e-001	 1.683914758373383e+000	-1.723646847790235e+001
1	 6.181579061972000e-001	 1.690526705208835e+000	-1.817343725804006e+001
1	 6.003398183485179e-001	 1.696935984454056e+000	-1.914279283080555e+001
1	 5.824978728424627e-001	 1.703142909757176e+000	-2.013786893419815e+001
1	 5.646353332059645e-001	 1.709147861924183e+000	-2.115198378764769e+001
1	 5.467554384699780e-001	 1.714951287895949e+000	-2.217845029222564e+001
1	 5.288614016073797e-001	 1.720553699683057e+000	-2.321058604941227e+001
1	 5.092729629161171e-001	 1.656826302361175e+000	-2.570219435710885e+001
1	 4.920311501469236e-001	 1.662028192427957e+000	-2.668994527065189e+001
1	 4.747818244681851e-001	 1.667037680950171e+000	-2.766873576513525e+001
1	 4.575279946036860e-001	 1.671855439951955e+000	-2.863543710593150e+001
1	 4.402726386897362e-001	 1.676482199660132e+000	-2.958695057817636e+001
1	 4.230187029988017e-001	 1.680918747307537e+000	-3.052021097020354e+001
1	 4.057691007109044e-001	 1.685165925907489e+000	-3.143218993898462e+001
1	 3.885267107333296e-001	 1.689224633001393e+000	-3.231989925400295e+001
1	 3.712943765690968e-001	 1.693095819381501e+000	-3.318039391636569e+001
1	 3.540749052345564e-001	 1.696780487790798e+000	-3.401077515030410e+001
1	 3.368710662263960e-001	 1.700279691602014e+000	-3.480819326459210e+001
1	 5.112318067850481e-001	 1.663199042094462e+000	-2.538860766048300e+001
1	 4.939236759081701e-001	 1.668420940469325e+000	-2.637709888717917e+001
1	 4.766080032244467e-001	 1.673449697255204e+000	-2.735662986649187e+001
1	 4.592878090302757e-001	 1.678285987061092e+000	-2.832409724224545e+001
1	 4.419660829169300e-001	 1.682930542922536e+000	-2.927642767915635e+001
1	 4.246457824892794e-001	 1.687384155100361e+000	-3.021058131703689e+001
1	 4.073298321324640e-001	 1.691647669850424e+000	-3.112355510756195e+001
1	 3.900211218270629e-001	 1.695721988166405e+000	-3.201238603007334e+001
1	 3.727225060132111e-001	 1.699608064497652e+000	-3.287415418325717e+001
1	 3.554368025040346e-001	 1.703306905444065e+000	-3.370598574988353e+001
1	 3.381667914486827e-001	 1.706819568430031e+000	-3.450505583216677e+001
1	 5.131906506541093e-001	 1.669571781827682e+000	-2.508903347857527e+001
1	 4.958162016695114e-001	 1.674813688510627e+000	-2.607901084439454e+001
1	 4.784341819807758e-001	 1.679861713560173e+000	-2.706007293044937e+001
1	 4.610476234569132e-001	 1.684716534170166e+000	-2.802912190964479e+001
1	 4.436595271441606e-001	 1.689378886184879e+000	-2.898308975142944e+001
1	 4.262728619797906e-001	 1.693849562893120e+000	-2.991894168523637e+001
1	 4.088905635540621e-001	 1.698129413793288e+000	-3.083367954653281e+001
1	 3.915155329208472e-001	 1.702219343331335e+000	-3.172434500192999e+001
1	 3.741506354573972e-001	 1.706120309613704e+000	-3.258802265016200e+001
1	 3.567986997736138e-001	 1.709833323097210e+000	-3.342184299610994e+001
1	 3.394625166711072e-001	 1.713359445257894e+000	-3.422298529540085e+001
1	 5.151494945232681e-001	 1.675944521560770e+000	-2.480358897833280e+001
1	 4.977087274309238e-001	 1.681206436551799e+000	-2.579581173651733e+001
1	 4.802603607371552e-001	 1.686273729865015e+000	-2.677920487739151e+001
1	 4.628074378835870e-001	 1.691147081279122e+000	-2.775065649191211e+001
1	 4.453529713714186e-001	 1.695827229447108e+000	-2.870708401892993e+001
1	 4.278999414703269e-001	 1.700314970685772e+000	-2.964543775609668e+001
1	 4.104512949756888e-001	 1.704611157736048e+000	-3.056270425290939e+001
1	 3.930099440146699e-001	 1.708716698496161e+000	-3.145590958226591e+001
1	 3.755787649016374e-001	 1.712632554729648e+000	-3.232212248725176e+001
1	 3.581605970432686e-001	 1.716359740750236e+000	-3.315845740026172e+001
1	 3.407582418936350e-001	 1.719899322085622e+000	-3.396207733191115e+001
1	 5.171083383924920e-001	 1.682317261293657e+000	-2.453238955135609e+001
1	 4.996012531923835e-001	 1.687599184592773e+000	-2.552763017896653e+001
1	 4.820865394935687e-001	 1.692685746169670e+000	-2.651416350758926e+001
1	 4.645672523102847e-001	 1.697577628387900e+000	-2.748884416993355e+001
1	 4.470464155986951e-001	 1.702275572709173e+000	-2.844855547481410e+001
1	 4.295270209608801e-001	 1.706780378478274e+000	-2.939021300350807e+001
1	 4.120120263973347e-001	 1.711092901678670e+000	-3.031076808727661e+001
1	 3.945043551085182e-001	 1.715214053660861e+000	-3.120721116226704e+001
1	 3.770068943459136e-001	 1.719144799845473e+000	-3.207657499838771e+001
1	 3.595224943129738e-001	 1.722886158403147e+000	-3.291593779911734e+001
1	 3.420539671162315e-001	 1.726439198913232e+000	-3.372242616957968e+001
1	 5.190671822617483e-001	 1.688690001026278e+000	-2.427554884739801e+001
1	 5.014937789538669e-001	 1.693991932633486e+000	-2.527459284569784e+001
1	 4.839127182499985e-001	 1.699097762474072e+000	-2.626508454120418e+001
1	 4.663270667369946e-001	 1.704008175496442e+000	-2.724382596326561e+001
1	 4.487398598259808e-001	 1.708723915971023e+000	-2.820764692355106e+001
1	 4.311541004514417e-001	 1.713245786270581e+000	-2.915340873560801e+001
1	 4.135727578189902e-001	 1.717574645621123e+000	-3.007800781410413e+001
1	 3.959987662023792e-001	 1.721711408825413e+000	-3.097837914975505e+001
1	 3.784350237902078e-001	 1.725657044961170e+000	-3.185149965633708e+001
1	 3.608843915827040e-001	 1.729412576055947e+000	-3.269439138655299e+001
1	 3.433496923388628e-001	 1.732979075740743e+000	-3.350412461390794e+001
1	 5.210260261310047e-001	 1.695062740758567e+000	-2.403317880710694e+001
1	 5.033863047153504e-001	 1.700384680673872e+000	-2.503682450570069e+001
1	 4.857388970064288e-001	 1.705509778778162e+000	-2.603210165739035e+001
1	 4.680868811637042e-001	 1.710438722604692e+000	-2.701574077076246e+001
1	 4.504333040532665e-001	 1.715172259232606e+000	-2.798449902206590e+001
1	 4.327811799420031e-001	 1.719711194062654e+000	-2.893516413549236e+001
1	 4.151334892406456e-001	 1.724056389563371e+000	-2.986455814114992e+001
1	 3.974931772962400e-001	 1.728208763989794e+000	-3.076954100647224e+001
1	 3.798631532345019e-001	 1.732169290076729e+000	-3.164701413719308e+001
1	 3.622462888524343e-001	 1.735938993708639e+000	-3.249392374442522e+001
1	 3.446454175614937e-001	 1.739518952568173e+000	-3.330726407475512e+001
1	 5.229848700002286e-001	 1.701435480490455e+000	-2.380538969403381e+001
1	 5.052788304768102e-001	 1.706777428713864e+000	-2.481444805867221e+001
1	 4.875650757628420e-001	 1.711921795081876e+000	-2.581534653251849e+001
1	 4.698466955904022e-001	 1.716869269712593e+000	-2.680472541029311e+001
1	 4.521267482805431e-001	 1.721620602493873e+000	-2.777925031995920e+001
1	 4.344082594325561e-001	 1.726176601854446e+000	-2.873561630101194e+001
1	 4.166942206622915e-001	 1.730538133505383e+000	-2.967055175797657e+001
1	 3.989875883900885e-001	 1.734706119153983e+000	-3.058082228452389e+001
1	 3.812912826787781e-001	 1.738681535192139e+000	-3.146323435402218e+001
1	 3.636081861221395e-001	 1.742465411361227e+000	-3.231463887275956e+001
1	 3.459411427840904e-001	 1.746058829395541e+000	-3.313193459247466e+001
1	 5.249437138693874e-001	 1.707808220221878e+000	-2.359229012592351e+001
1	 5.071713562382227e-001	 1.713170176753398e+000	-2.460758456989395e+001
1	 4.893912545192216e-001	 1.718333811385152e+000	-2.561494887754116e+001
1	 4.716065100170758e-001	 1.723299816820086e+000	-2.661091465756642e+001
1	 4.538201925078014e-001	 1.728068945754771e+000	-2.759203729882298e+001
1	 4.360353389230924e-001	 1.732642009645917e+000	-2.855490028367903e+001
1	 4.182549520839181e-001	 1.737019877447124e+000	-2.949611937360610e+001
1	 4.004819994839111e-001	 1.741203474317956e+000	-3.041234666201102e+001
1	 3.827194121230183e-001	 1.745193780307393e+000	-3.130027448975821e+001
1	 3.649700833917943e-001	 1.748991829013714e+000	-3.215663921926385e+001
1	 3.472368680066182e-001	 1.752598706222864e+000	-3.297822486346599e+001
1	 5.269025577384487e-001	 1.714180959952767e+000	-2.339398710530628e+001
1	 5.090638819995640e-001	 1.719562924792408e+000	-2.441635330433188e+001
1	 4.912174332755506e-001	 1.724745827687927e+000	-2.543103647452862e+001
1	 4.733663244437135e-001	 1.729730363927113e+000	-2.643444128409209e+001
1	 4.555136367350318e-001	 1.734517289015250e+000	-2.742299441068264e+001
1	 4.376624184136037e-001	 1.739107417437024e+000	-2.839314912670520e+001
1	 4.198156835055162e-001	 1.743501621388562e+000	-2.934138975333555e+001
1	 4.019764105776953e-001	 1.747700829481692e+000	-3.026423597786210e+001
1	 3.841475415672045e-001	 1.751706025422478e+000	-3.115824702936246e+001
1	 3.663319806613733e-001	 1.755518246666105e+000	-3.202002570818485e+001
1	 3.485325932290428e-001	 1.759138583050161e+000	-3.284622226515710e+001
1	 5.288614016073797e-001	 1.720553699683057e+000	-2.321058604941227e+001
1	 5.109564077608105e-001	 1.725955672830829e+000	-2.424087175997527e+001
1	 4.930436120318122e-001	 1.731157843990140e+000	-2.526373521238989e+001
1	 4.751261388703033e-001	 1.736160911033619e+000	-2.627543609429729e+001
1	 4.572070809622256e-001	 1.740965632275259e+000	-2.727225411558302e+001
1	 4.392894979040813e-001	 1.745572825227723e+000	-2.825049390219343e+001
1	 4.213764149270760e-001	 1.749983365329664e+000	-2.920648975473262e+001
1	 4.034708216714287e-001	 1.754198184645169e+000	-3.013661026589526e+001
1	 3.855756710113190e-001	 1.758218270537386e+000	-3.103726279126961e+001
1	 3.676938779308517e-001	 1.762044664318403e+000	-3.190489776851928e+001
1	 3.498283184513297e-001	 1.765678459877450e+000	-3.273601288043001e+001
1	 3.368710662263960e-001	 1.700279691602014e+000	-3.480819326459210e+001
1	 3.196881660605543e-001	 1.703594050286686e+000	-3.556780589657056e+001
1	 3.025263101366981e-001	 1.706725253859904e+000	-3.628376520412107e+001
1	 2.853881446684482e-001	 1.709674500355790e+000	-3.695145088549982e+001
1	 2.682762748280446e-001	 1.712443032933547e+000	-3.756631387006157e+001
1	 2.511932639628146e-001	 1.715032138482888e+000	-3.812388161438147e+001
1	 2.341416328608904e-001	 1.717443146220116e+000	-3.861976315714680e+001
1	 2.171238590659275e-001	 1.719677426276633e+000	-3.904965392974016e+001
1	 2.001423762404916e-001	 1.721736388281684e+000	-3.940934032006630e+001
1	 1.831995735777232e-001	 1.723621479941080e+000	-3.969470398781483e+001
1	 1.662977952608313e-001	 1.725334185613589e+000	-3.990172592994919e+001
1	 3.381667914486827e-001	 1.706819568430031e+000	-3.450505583216677e+001
1	 3.209177997738292e-001	 1.710146675309803e+000	-3.526643777976185e+001
1	 3.036899332845457e-001	 1.713289922598861e+000	-3.598416308618486e+001
1	 2.864858483727275e-001	 1.716250512939384e+000	-3.665358008630625e+001
1	 2.693081602310288e-001	 1.719029694272197e+000	-3.727010754718091e+001
1	 2.521594420663184e-001	 1.721628758436840e+000	-3.782924006476242e+001
1	 2.350422243625718e-001	 1.724049039762243e+000	-3.832655321774477e+001
1	 2.179589941929544e-001	 1.726291913649813e+000	-3.875770847528975e+001
1	 2.009121945807594e-001	 1.728358795150721e+000	-3.911845785606607e+001
1	 1.839042239088101e-001	 1.730251137539158e+000	-3.940464833664628e+001
1	 1.669374353768738e-001	 1.731970430883254e+000	-3.961222600794248e+001
1	 3.394625166711072e-001	 1.713359445257894e+000	-3.422298529540085e+001
1	 3.221474334872860e-001	 1.716699300332726e+000	-3.498641918239814e+001
1	 3.048535564326230e-001	 1.719854591337579e+000	-3.570606154839446e+001
1	 2.875835520772833e-001	 1.722826525522695e+000	-3.637724712773445e+001
1	 2.703400456343320e-001	 1.725616355610525e+000	-3.699538067031344e+001
1	 2.531256201701740e-001	 1.728225378390438e+000	-3.755594240104541e+001
1	 2.359428158646247e-001	 1.730654933303998e+000	-3.805449323520945e+001
1	 2.187941293203549e-001	 1.732906401022619e+000	-3.848667974635264e+001
1	 2.016820129213818e-001	 1.734981202019402e+000	-3.884823888408737e+001
1	 1.846088742402069e-001	 1.736880795136925e+000	-3.913500243974892e+001
1	 1.675770754931522e-001	 1.738606676152682e+000	-3.934290125852741e+001
1	 3.407582418936350e-001	 1.719899322085622e+000	-3.396207733191115e+001
1	 3.233770672008791e-001	 1.723251925355489e+000	-3.472783294090440e+001
1	 3.060171795808722e-001	 1.726419260076110e+000	-3.544953643648509e+001
1	 2.886812557820460e-001	 1.729402538105790e+000	-3.612252649817267e+001
1	 2.713719310378722e-001	 1.732203016948609e+000	-3.674221178451802e+001
1	 2.540917982742895e-001	 1.734821998343772e+000	-3.730407641771217e+001
1	 2.368434073669492e-001	 1.737260826845480e+000	-3.780368522323880e+001
1	 2.196292644480247e-001	 1.739520888395156e+000	-3.823668872120980e+001
1	 2.024518312622534e-001	 1.741603608887835e+000	-3.859882786669848e+001
1	 1.853135245718126e-001	 1.743510452734483e+000	-3.888593853701398e+001
1	 1.682167156095754e-001	 1.745242921421967e+000	-3.909395576450250e+001
1	 3.420539671162315e-001	 1.726439198913232e+000	-3.372242616957968e+001
1	 3.246067009145632e-001	 1.729804550378126e+000	-3.449076063654508e+001
1	 3.071808027292358e-001	 1.732983928814503e+000	-3.521466244695306e+001
1	 2.897789594869453e-001	 1.735978550688731e+000	-3.588949155733832e+001
1	 2.724038164415676e-001	 1.738789678286527e+000	-3.651067824471485e+001
1	 2.550579763785727e-001	 1.741418618296932e+000	-3.707372857895793e+001
1	 2.377439988694454e-001	 1.743866720386786e+000	-3.757422964978957e+001
1	 2.204643995758591e-001	 1.746135375767526e+000	-3.800785454504172e+001
1	 2.032216496032694e-001	 1.748226015756122e+000	-3.837036707752642e+001
1	 1.860181749035264e-001	 1.750140110331933e+000	-3.865762625850343e+001
1	 1.688563557260526e-001	 1.751879166691197e+000	-3.886559051634249e+001
1	 3.433496923388628e-001	 1.732979075740743e+000	-3.350412461390794e+001
1	 3.258363346282925e-001	 1.736357175400671e+000	-3.427528261910513e+001
1	 3.083444258776562e-001	 1.739548597552805e+000	-3.500151314874293e+001
1	 2.908766631919112e-001	 1.742554563271583e+000	-3.567821455757483e+001
1	 2.734357018453366e-001	 1.745376339624358e+000	-3.630085623814134e+001
1	 2.560241544829318e-001	 1.748015238250009e+000	-3.686498404378764e+001
1	 2.386445903720135e-001	 1.750472613928017e+000	-3.736622546624196e+001
1	 2.212995347037537e-001	 1.752749863139834e+000	-3.780029456451842e+001
1	 2.039914679443245e-001	 1.754848422624370e+000	-3.816299664256128e+001
1	 1.867228252352475e-001	 1.756769767929376e+000	-3.845023267369185e+001
1	 1.694959958424927e-001	 1.758515411960465e+000	-3.865800347054772e+001
1	 3.446454175614937e-001	 1.739518952568173e+000	-3.330726407475512e+001
1	 3.270659683420218e-001	 1.742909800423157e+000	-3.408147803004093e+001
1	 3.095080490260753e-001	 1.746113266291067e+000	-3.481016100444245e+001
1	 2.919743668968735e-001	 1.749130575854412e+000	-3.548876666466808e+001
1	 2.744675872490970e-001	 1.751963000962180e+000	-3.611282080630359e+001
1	 2.569903325872746e-001	 1.754611858203091e+000	-3.667792669055484e+001
1	 2.395451818745536e-001	 1.757078507469270e+000	-3.717977013590723e+001
1	 2.221346698316040e-001	 1.759364350512185e+000	-3.761412436160694e+001
1	 2.047612862853136e-001	 1.761470829492683e+000	-3.797685458052650e+001
1	 1.874274755668749e-001	 1.763399425526912e+000	-3.826392233960360e+001
1	 1.701356359588048e-001	 1.765151657229859e+000	-3.847138960667703e+001
1	 3.459411427840904e-001	 1.746058829395541e+000	-3.313193459247466e+001
1	 3.282956020557055e-001	 1.749462425445618e+000	-3.390942482510834e+001
1	 3.106716721744357e-001	 1.752677935029338e+000	-3.464067739100213e+001
1	 2.930720706017621e-001	 1.755706588437281e+000	-3.532121797819512e+001
1	 2.754994726527676e-001	 1.758549662300072e+000	-3.594664586643156e+001
1	 2.579565106915092e-001	 1.761208478156271e+000	-3.651263914094329e+001
1	 2.404457733769658e-001	 1.763684401010646e+000	-3.701495966189764e+001
1	 2.229698049593054e-001	 1.765978837884682e+000	-3.744945778662002e+001
1	 2.055311046261316e-001	 1.768093236361167e+000	-3.781207684234272e+001
1	 1.881321258983078e-001	 1.770029083124643e+000	-3.809885734786085e+001
1	 1.707752760748979e-001	 1.771787902499474e+000	-3.830594098309712e+001
1	 3.472368680066182e-001	 1.752598706222864e+000	-3.297822486346599e+001
1	 3.295252357692980e-001	 1.756015050468088e+000	-3.375919979648491e+001
1	 3.118352953226799e-001	 1.759242603767669e+000	-3.449313261998933e+001
1	 2.941697743065072e-001	 1.762282601020256e+000	-3.517563755141689e+001
1	 2.765313580562660e-001	 1.765136323638111e+000	-3.580240423245711e+001
1	 2.589226887955433e-001	 1.767805098109637e+000	-3.636920278341309e+001
1	 2.413463648791502e-001	 1.770290294552241e+000	-3.687188861436925e+001
1	 2.238049400867534e-001	 1.772593325257429e+000	-3.730640699052474e+001
1	 2.063009229666734e-001	 1.774715643229926e+000	-3.766879734970889e+001
1	 1.888367762294454e-001	 1.776658740722669e+000	-3.795519737068673e+001
1	 1.714149161906811e-001	 1.778424147769398e+000	-3.816184679148667e+001
1	 3.485325932290428e-001	 1.759138583050161e+000	-3.284622226515710e+001
1	 3.307548694827539e-001	 1.762567675490601e+000	-3.363087859439968e+001
1	 3.129989184707498e-001	 1.765807272506106e+000	-3.436759595739430e+001
1	 2.952674780110385e-001	 1.768858613603399e+000	-3.505209341072717e+001
1	 2.775632434595108e-001	 1.771722984976377e+000	-3.568016763551974e+001
1	 2.598888668992851e-001	 1.774401718063279e+000	-3.624769779612545e+001
1	 2.422469563810069e-001	 1.776896188094157e+000	-3.675065015715763e+001
1	 2.246400752138434e-001	 1.779207812630530e+000	-3.718508245653027e+001
1	 2.070707413068338e-001	 1.781338050099065e+000	-3.754714803282128e+001
1	 1.895414265601866e-001	 1.783288398321091e+000	-3.783309970587282e+001
1	 1.720545563060633e-001	 1.785060393039723e+000	-3.803929341012189e+001
1	 3.498283184513297e-001	 1.765678459877450e+000	-3.273601288043001e+001
1	 3.319845031960278e-001	 1.769120300513190e+000	-3.352453574828130e+001
1	 3.141625416185881e-001	 1.772371941244703e+000	-3.426413564299100e+001
1	 2.963651817152860e-001	 1.775434626186778e+000	-3.495065257466963e+001
1	 2.785951288624198e-001	 1.778309646314946e+000	-3.558000674402227e+001
1	 2.608550450026426e-001	 1.780998338017287e+000	-3.614820316935556e+001
1	 2.431475478824362e-001	 1.783502081636492e+000	-3.665133607382389e+001
1	 2.254752103404711e-001	 1.785822300004091e+000	-3.708559303097356e+001
1	 2.078405596465077e-001	 1.787960456968690e+000	-3.744725886725543e+001
1	 1.902460768904307e-001	 1.789918055920011e+000	-3.773271932075664e+001
1	 1.726941964209537e-001	 1.791696638310540e+000	-3.793846445598017e+001
1	 1.662977952608313e-001	 1.725334185613589e+000	-3.990172592994919e+001
1	 1.494368201778233e-001	 1.726876243502368e+000	-4.002775279849330e+001
1	 1.326214697038732e-001	 1.728248938176940e+000	-4.007112093232099e+001
1	 1.158539850830164e-001	 1.729453856524530e+000	-4.002953150579411e+001
1	 9.913655977982550e-002	 1.730492616438330e+000	-3.990079766785983e+001
1	 8.247133917471385e-002	 1.731366865391524e+000	-3.968284457845646e+001
1	 6.586042030425503e-002	 1.732078279018852e+000	-3.937370929246760e+001
1	 4.930585164565591e-002	 1.732628559707094e+000	-3.897154049595603e+001
1	 3.280963294448005e-002	 1.733019435195818e+000	-3.847459809957140e+001
1	 1.637371508468555e-002	 1.733252657189655e+000	-3.788125269413001e+001
1	 0.000000000000000e+000	 1.733329999983334e+000	-3.718998487349886e+001
1	 1.669374353768738e-001	 1.731970430883254e+000	-3.961222600794248e+001
1	 1.500116070224830e-001	 1.733518420071905e+000	-3.973862714417734e+001
1	 1.331315787655221e-001	 1.734896394615545e+000	-3.978216904455925e+001
1	 1.162996004706389e-001	 1.736105947505125e+000	-3.974036119400275e+001
1	 9.951787403924237e-002	 1.737148702856828e+000	-3.961083331898136e+001
1	 8.278855310363309e-002	 1.738026314480603e+000	-3.939133551207132e+001
1	 6.611374276632490e-002	 1.738740464456275e+000	-3.907973818831032e+001
1	 4.949549938368816e-002	 1.739292861718604e+000	-3.867403187847053e+001
1	 3.293583039301100e-002	 1.739685240652657e+000	-3.817232686451437e+001
1	 1.643669418203716e-002	 1.739919359700741e+000	-3.757285266264341e+001
1	 0.000000000000000e+000	 1.739996999982150e+000	-3.687395735948888e+001
1	 1.675770754931522e-001	 1.738606676152682e+000	-3.934290125852741e+001
1	 1.505863938672745e-001	 1.740160596641313e+000	-3.946950916934620e+001
1	 1.336416878271796e-001	 1.741543851054148e+000	-3.951319489035410e+001
1	 1.167452158581423e-001	 1.742758038485864e+000	-3.947132739484319e+001
1	 9.989918829842161e-002	 1.743804789275623e+000	-3.934140113189628e+001
1	 8.310576703221921e-002	 1.744685763570131e+000	-3.912103624273857e+001
1	 6.636706522800258e-002	 1.745402649894287e+000	-3.880797859776859e+001
1	 4.968514712131898e-002	 1.745957163730827e+000	-3.840009965957072e+001
1	 3.306202784119428e-002	 1.746351046110308e+000	-3.789539617739843e+001
1	 1.649967327917068e-002	 1.746586062212705e+000	-3.729198971878229e+001
1	 0.000000000000000e+000	 1.746663999981866e+000	-3.658812604404388e+001
1	 1.682167156095754e-001	 1.745242921421967e+000	-3.909395576450250e+001
1	 1.511611807121226e-001	 1.746802773210665e+000	-3.922062550319340e+001
1	 1.341517968887908e-001	 1.748191307492805e+000	-3.926442477563045e+001
1	 1.171908312454937e-001	 1.749410129466777e+000	-3.922263270971568e+001
1	 1.002805025573522e-001	 1.750460875694719e+000	-3.909265613419574e+001
1	 8.342298096048080e-002	 1.751345212660085e+000	-3.887202989041511e+001
1	 6.662038768931190e-002	 1.752064835332843e+000	-3.855841695819186e+001
1	 4.987479485858106e-002	 1.752621465743697e+000	-3.814960840115528e+001
1	 3.318822528906285e-002	 1.753016851568687e+000	-3.764352313709285e+001
1	 1.656265237610882e-002	 1.753252764725449e+000	-3.703820753902996e+001
1	 0.000000000000000e+000	 1.753330999982383e+000	-3.633183487290638e+001
1	 1.688563557260526e-001	 1.751879166691197e+000	-3.886559051634249e+001
1	 1.517359675569521e-001	 1.753444949780036e+000	-3.899219934096006e+001
1	 1.346619059503005e-001	 1.754838763931569e+000	-3.903608157725763e+001
1	 1.176364466326601e-001	 1.756062220447895e+000	-3.899447667014496e+001
1	 1.006618168160231e-001	 1.757116962114120e+000	-3.886475100444711e+001
1	 8.374019488842646e-002	 1.758004661750443e+000	-3.864439831559816e+001
1	 6.687371015027681e-002	 1.758727020771897e+000	-3.833103991243468e+001
1	 5.006444259550710e-002	 1.759285767757147e+000	-3.792242471732309e+001
1	 3.331442273664965e-002	 1.759682657027710e+000	-3.741642912906818e+001
1	 1.662563147287431e-002	 1.759919467238878e+000	-3.681105671421634e+001
1	 0.000000000000000e+000	 1.759997999983599e+000	-3.610443773254551e+001
1	 1.694959958424927e-001	 1.758515411960465e+000	-3.865800347054772e+001
1	 1.523107544016880e-001	 1.760087126349501e+000	-3.878445050872891e+001
1	 1.351720150116537e-001	 1.761486220370494e+000	-3.882838480775542e+001
1	 1.180820620196085e-001	 1.762714311429247e+000	-3.878705579570505e+001
1	 1.010431310744234e-001	 1.763773048533831e+000	-3.865783611651884e+001
1	 8.405740881606484e-002	 1.764664110841186e+000	-3.843822214309402e+001
1	 6.712703261092116e-002	 1.765389206211404e+000	-3.812583430497885e+001
1	 5.025409033212975e-002	 1.765950069771108e+000	-3.771841723564737e+001
1	 3.344062018398762e-002	 1.766348462487290e+000	-3.721383974451249e+001
1	 1.668861056948988e-002	 1.766586169752896e+000	-3.661009461905427e+001
1	 0.000000000000000e+000	 1.766664999985416e+000	-3.590529826258589e+001
1	 1.701356359588048e-001	 1.765151657229859e+000	-3.847138960667703e+001
1	 1.528855412462550e-001	 1.766729302919135e+000	-3.859759552675929e+001
1	 1.356821240727954e-001	 1.768133676809635e+000	-3.864155067853308e+001
1	 1.185276774063060e-001	 1.769366402410864e+000	-3.860056365063710e+001
1	 1.014244453325419e-001	 1.770429134953857e+000	-3.847205958290267e+001
1	 8.437462274340456e-002	 1.771323559932291e+000	-3.825358078524210e+001
1	 6.738035507126883e-002	 1.772051391651316e+000	-3.794278717814590e+001
1	 5.044373806848163e-002	 1.772614371785513e+000	-3.753745655932815e+001
1	 3.356681763110974e-002	 1.773014267947344e+000	-3.703548470127275e+001
1	 1.675158966597823e-002	 1.773252872267407e+000	-3.643488528461512e+001
1	 0.000000000000000e+000	 1.773331999987732e+000	-3.573378967246939e+001
1	 1.707752760748979e-001	 1.771787902499474e+000	-3.830594098309712e+001
1	 1.534603280905781e-001	 1.773371479489014e+000	-3.843184767139475e+001
1	 1.361922331336705e-001	 1.774781133249046e+000	-3.847579216171481e+001
1	 1.189732927927196e-001	 1.776018493392776e+000	-3.843519089919738e+001
1	 1.018057595903678e-001	 1.777085221374202e+000	-3.830756729706390e+001
1	 8.469183667045425e-002	 1.777983009023737e+000	-3.809055246462611e+001
1	 6.763367753134368e-002	 1.778713577091589e+000	-3.778188576838847e+001
1	 5.063338580459548e-002	 1.779278673800295e+000	-3.737941523019295e+001
1	 3.369301507804896e-002	 1.779680073407788e+000	-3.688109776657369e+001
1	 1.681456876236208e-002	 1.779919574782316e+000	-3.628499927367278e+001
1	 0.000000000000000e+000	 1.779998999990449e+000	-3.558929456223465e+001
1	 1.714149161906811e-001	 1.778424147769398e+000	-3.816184679148667e+001
1	 1.540351149345823e-001	 1.780013656059212e+000	-3.828741703558949e+001
1	 1.367023421942240e-001	 1.781428589688781e+000	-3.833131905057271e+001
1	 1.194189081788163e-001	 1.782670584375014e+000	-3.829112535976216e+001
1	 1.021870738478898e-001	 1.783741307794869e+000	-3.816450297484400e+001
1	 8.500905059722247e-002	 1.784642458115502e+000	-3.794921423626926e+001
1	 6.788699999116962e-002	 1.785375762532177e+000	-3.764311750267211e+001
1	 5.082303354050392e-002	 1.785942975815386e+000	-3.724416769252789e+001
1	 3.381921252483822e-002	 1.786345878868537e+000	-3.675041668146537e+001
1	 1.687754785866416e-002	 1.786586277297526e+000	-3.616001355883522e+001
1	 0.000000000000000e+000	 1.786665999993466e+000	-3.547120474731187e+001
1	 1.720545563060633e-001	 1.785060393039723e+000	-3.803929341012189e+001
1	 1.546099017781923e-001	 1.786655832629805e+000	-3.816451058807924e+001
1	 1.372124512544007e-001	 1.788076046128894e+000	-3.820833801862109e+001
1	 1.198645235645631e-001	 1.789322675357607e+000	-3.816855205772875e+001
1	 1.025683881050970e-001	 1.790397394215865e+000	-3.804300819493842e+001
1	 8.532626452371796e-002	 1.791301907207567e+000	-3.782964200933689e+001
1	 6.814032245077055e-002	 1.792037947973034e+000	-3.752646999492997e+001
1	 5.101268127623966e-002	 1.792607277830720e+000	-3.713159025771280e+001
1	 3.394540997151047e-002	 1.793011684329505e+000	-3.664318308695511e+001
1	 1.694052695490719e-002	 1.793252979812941e+000	-3.605951140339914e+001
1	 0.000000000000000e+000	 1.793332999996683e+000	-3.537892108722345e+001
1	 1.726941964209537e-001	 1.791696638310540e+000	-3.793846445598017e+001
1	 1.551846886213330e-001	 1.793298009200866e+000	-3.806333223124316e+001
1	 1.377225603141458e-001	 1.794723502569441e+000	-3.810705267738896e+001
1	 1.203101389499272e-001	 1.795974766340585e+000	-3.806765327724032e+001
1	 1.029497023619784e-001	 1.797053480637194e+000	-3.794322243847554e+001
1	 8.564347844994923e-002	 1.797961356299908e+000	-3.773191056835985e+001
1	 6.839364491017026e-002	 1.798700133414114e+000	-3.743193104260483e+001
1	 5.120232901183534e-002	 1.799271579846228e+000	-3.704156106964484e+001
1	 3.407160741809868e-002	 1.799677489790610e+000	-3.655914245178570e+001
1	 1.700350605111390e-002	 1.799919682328466e+000	-3.598308224484917e+001
1	 0.000000000000000e+000	 1.800000000000000e+000	-3.531185331809304e+001
1	 1.800000000000000e+000	 0.000000000000000e+000	 1.205380041345317e+001
1	 1.799919682328466e+000	 1.700350605111395e-002	 1.163600124745192e+001
1	 1.799677489790610e+000	 3.407160741809879e-002	 1.121370720106183e+001
1	 1.799271579846228e+000	 5.120232901183521e-002	 1.078848196885749e+001
1	 1.798700133414114e+000	 6.839364491017019e-002	 1.036188469047718e+001
1	 1.797961356299908e+000	 8.564347844994921e-002	 9.935467907109848e+000
1	 1.797053480637194e+000	 1.029497023619785e-001	 9.510775471855842e+000
1	 1.795974766340585e+000	 1.203101389499273e-001	 9.089340416194622e+000
1	 1.794723502569440e+000	 1.377225603141456e-001	 8.672682774966715e+000
1	 1.793298009200867e+000	 1.551846886213329e-001	 8.262307372451780e+000
1	 1.791696638310540e+000	 1.726941964209536e-001	 7.859701572298665e+000
1	 1.806667000003317e+000	 0.000000000000000e+000	 1.181130776841625e+001
1	 1.806586384844004e+000	 1.706648514730794e-002	 1.140770484435981e+001
1	 1.806343295251762e+000	 3.419780486463929e-002	 1.099918307554133e+001
1	 1.805935881861839e+000	 5.139197674733068e-002	 1.058733280299231e+001
1	 1.805362318855363e+000	 6.864696736940450e-002	 1.017373760789387e+001
1	 1.804620805392491e+000	 8.596069237594195e-002	 9.759972171149888e+000
1	 1.803709567058843e+000	 1.033310166185455e-001	 9.347600087689191e+000
1	 1.802626857323959e+000	 1.207557543349033e-001	 8.938171637937735e+000
1	 1.801370959010450e+000	 1.382326693734363e-001	 8.533221519083181e+000
1	 1.799940185772448e+000	 1.557594754639656e-001	 8.134266538933057e+000
1	 1.798332883581914e+000	 1.733338365353000e-001	 7.742803275345676e+000
1	 1.813334000006534e+000	 0.000000000000000e+000	 1.155174096683891e+001
1	 1.813253087359455e+000	 1.712946424351649e-002	 1.116279142621450e+001
1	 1.813009100712867e+000	 3.432400231118209e-002	 1.076849756784591e+001
1	 1.812600183877458e+000	 5.158162448279437e-002	 1.037047387468968e+001
1	 1.812024504296691e+000	 6.890028982855627e-002	 9.970326626269022e+000
1	 1.811280254485235e+000	 8.627790630179003e-002	 9.569651682722261e+000
1	 1.810365653480736e+000	 1.037123308748993e-001	 9.170032223812147e+000
1	 1.809278948307660e+000	 1.212013697195969e-001	 8.773036445487238e+000
1	 1.808018415451863e+000	 1.387427784323799e-001	 8.380215216772033e+000
1	 1.806582362344496e+000	 1.563342623061965e-001	 7.993099699945430e+000
1	 1.804969128853802e+000	 1.739734766492057e-001	 7.613198937150672e+000
1	 1.820001000009551e+000	 0.000000000000000e+000	 1.127597444448668e+001
1	 1.819919789874721e+000	 1.719244333976776e-002	 1.090201907222795e+001
1	 1.819674906173823e+000	 3.445019975778057e-002	 1.052230077213346e+001
1	 1.819264485892985e+000	 5.177127221830193e-002	 1.013845568181021e+001
1	 1.818686689738000e+000	 6.915361228772037e-002	 9.752111047374939e+000
1	 1.817939703578042e+000	 8.659512022760428e-002	 9.364882953227333e+000
1	 1.817021739902779e+000	 1.040936451311638e-001	 8.978374006396027e+000
1	 1.815931039291598e+000	 1.216469851041414e-001	 8.594170978141127e+000
1	 1.814665871893595e+000	 1.392528874911159e-001	 8.213842405682954e+000
1	 1.813224538916936e+000	 1.569090491481683e-001	 7.838936157117154e+000
1	 1.811605374126138e+000	 1.746131167628129e-001	 7.470976962760406e+000
1	 1.826668000012267e+000	 0.000000000000000e+000	 1.098486987101082e+001
1	 1.826586492389699e+000	 1.725542243608990e-002	 1.062613479421695e+001
1	 1.826340711634530e+000	 3.457639720448812e-002	 1.026123329166837e+001
1	 1.825928787908323e+000	 5.196091995392898e-002	 9.891820685352924e+000
1	 1.825348875179192e+000	 6.940693474699157e-002	 9.519543467517453e+000
1	 1.824599152670816e+000	 8.691233415349547e-002	 9.146036997276882e+000
1	 1.823677826324880e+000	 1.044749593874626e-001	 8.772923150792952e+000
1	 1.822583130275685e+000	 1.220926004886702e-001	 8.401807927737465e+000
1	 1.821313328335564e+000	 1.397629965497843e-001	 8.034279016947160e+000
1	 1.819866715489690e+000	 1.574838359900236e-001	 7.671903324367249e+000
1	 1.818241619398854e+000	 1.752527568762638e-001	 7.316224466572495e+000
1	 1.833335000014584e+000	 0.000000000000000e+000	 1.067927638207075e+001
1	 1.833253194904292e+000	 1.731840153251111e-002	 1.033587473783828e+001
1	 1.833006517094890e+000	 3.470259465135817e-002	 9.985926411391500e+000
1	 1.832593089923372e+000	 5.215056768975115e-002	 9.631103455586969e+000
1	 1.832011060620171e+000	 6.966025720646468e-002	 9.273069899459124e+000
1	 1.831258601763462e+000	 8.722954807957448e-002	 8.913479432640598e+000
1	 1.830333912746944e+000	 1.048562736439194e-001	 8.553973041736107e+000
1	 1.829235221259832e+000	 1.225382158733166e-001	 8.196176601338582e+000
1	 1.827960784777684e+000	 1.402731056085245e-001	 7.841698422570810e+000
1	 1.826508892062683e+000	 1.580586228319053e-001	 7.492126762229499e+000
1	 1.824877864671880e+000	 1.758923969897006e-001	 7.149027295802869e+000
1	 1.840002000016400e+000	 0.000000000000000e+000	 1.036003080641025e+001
1	 1.839919897418398e+000	 1.738138062905952e-002	 1.003196437944928e+001
1	 1.839672322554802e+000	 3.482879209844406e-002	 9.697002266738606e+000
1	 1.839257391938031e+000	 5.234021542584406e-002	 9.356830815006818e+000
1	 1.838673246060836e+000	 6.991357966623446e-002	 9.013129891692715e+000
1	 1.837918050855883e+000	 8.754676200595220e-002	 8.667570578019745e+000
1	 1.836989999168880e+000	 1.052375879006579e-001	 8.321812811796923e+000
1	 1.835887312243949e+000	 1.229838312582140e-001	 7.977502982552174e+000
1	 1.834608241219874e+000	 1.407832146674763e-001	 7.636271481798199e+000
1	 1.833151068635837e+000	 1.586334096739556e-001	 7.299730211429439e+000
1	 1.831514109945151e+000	 1.765320371032654e-001	 6.969470053442929e+000
1	 1.846669000017617e+000	 0.000000000000000e+000	 1.002795788801449e+001
1	 1.846586599931918e+000	 1.744435972576330e-002	 9.715118718703398e+000
1	 1.846338128014167e+000	 3.495498954579921e-002	 9.395074008801988e+000
1	 1.845921693952203e+000	 5.252986316228332e-002	 9.069521978190178e+000
1	 1.845335431501090e+000	 7.016690212639573e-002	 8.740156645129792e+000
1	 1.844577499947983e+000	 8.786397593273947e-002	 8.408665548702670e+000
1	 1.843646085590595e+000	 1.056189021578019e-001	 8.076727418142614e+000
1	 1.842539403227947e+000	 1.234294466434957e-001	 7.746009791524388e+000
1	 1.841255697662049e+000	 1.412933237267793e-001	 7.418166586470609e+000
1	 1.839793245209076e+000	 1.592081965163174e-001	 7.094835625734815e+000
1	 1.838150355218598e+000	 1.771716772171005e-001	 6.777636120719712e+000
1	 1.853336000018133e+000	 0.000000000000000e+000	 9.683870503472280e+000
1	 1.853253302444752e+000	 1.750733882265064e-002	 9.386042466989329e+000
1	 1.853003933472884e+000	 3.508118699347702e-002	 9.080745965926967e+000
1	 1.852585995965789e+000	 5.271951089914458e-002	 8.769688688637974e+000
1	 1.851997616940836e+000	 7.042022458704333e-002	 8.454577127271707e+000
1	 1.851236949039666e+000	 8.818118986004707e-002	 8.137114350156050e+000
1	 1.850302172011993e+000	 1.060002164154751e-001	 7.818997717636803e+000
1	 1.849191494211737e+000	 1.238750620292951e-001	 7.501916543638188e+000
1	 1.847903154104124e+000	 1.418034327865733e-001	 7.187549705406021e+000
1	 1.846435421782323e+000	 1.597829833591333e-001	 6.877563204096227e+000
1	 1.844786600492154e+000	 1.778113173313480e-001	 6.573607679070740e+000
1	 1.860003000017850e+000	 0.000000000000000e+000	 9.328569874663515e+000
1	 1.859920004956799e+000	 1.757031791974967e-002	 9.045430231817344e+000
1	 1.859669738930854e+000	 3.520738444153087e-002	 8.754613801833203e+000
1	 1.859250297978689e+000	 5.290915863650345e-002	 8.457835352670806e+000
1	 1.858659802379975e+000	 7.067354704827196e-002	 8.156812183924712e+000
1	 1.857896398130836e+000	 8.849840378798594e-002	 7.853261969602979e+000
1	 1.856958258432983e+000	 1.063815306738011e-001	 7.548900540325421e+000
1	 1.855843585195231e+000	 1.243206774157455e-001	 7.245439606948813e+000
1	 1.854550610546017e+000	 1.423135418469979e-001	 6.944584427824849e+000
1	 1.853077598355501e+000	 1.603577702025460e-001	 6.648031422097159e+000
1	 1.851422845765751e+000	 1.784509574461501e-001	 6.357465731646769e+000
1	 1.866670000016666e+000	 0.000000000000000e+000	 8.962845776888791e+000
1	 1.866586707467961e+000	 1.763329701708859e-002	 8.693966697254078e+000
1	 1.866335544387978e+000	 3.533358189001417e-002	 8.417264670347533e+000
1	 1.865914599990803e+000	 5.309880637443554e-002	 8.134459170456045e+000
1	 1.865321987818409e+000	 7.092686951017646e-002	 7.847276648520840e+000
1	 1.864555847221398e+000	 8.881561771666689e-002	 7.557448465638633e+000
1	 1.863614344853473e+000	 1.067628449329038e-001	 7.266708761347150e+000
1	 1.862495676178339e+000	 1.247662928029803e-001	 6.976792258388776e+000
1	 1.861198066987645e+000	 1.428236509081927e-001	 6.689432005844274e+000
1	 1.859719774928535e+000	 1.609325570466981e-001	 6.406357062729658e+000
1	 1.858059091039319e+000	 1.790905975616489e-001	 6.129290124353499e+000
1	 1.791696638310540e+000	 1.726941964209536e-001	 7.859701572298665e+000
1	 1.789918055920010e+000	 1.902460768904308e-001	 7.459552727131864e+000
1	 1.787960456968690e+000	 2.078405596465076e-001	 7.056265152972470e+000
1	 1.785822300004091e+000	 2.254752103404711e-001	 6.651040402775234e+000
1	 1.783502081636491e+000	 2.431475478824360e-001	 6.245043434941548e+000
1	 1.780998338017287e+000	 2.608550450026427e-001	 5.839400183115250e+000
1	 1.778309646314947e+000	 2.785951288624201e-001	 5.435195129526906e+000
1	 1.775434626186778e+000	 2.963651817152860e-001	 5.033468886632117e+000
1	 1.772371941244703e+000	 3.141625416185883e-001	 4.635215791920433e+000
1	 1.769120300513189e+000	 3.319845031960277e-001	 4.241381520889861e+000
1	 1.765678459877450e+000	 3.498283184513297e-001	 3.852860723294134e+000
1	 1.798332883581914e+000	 1.733338365353000e-001	 7.742803275345676e+000
1	 1.796547713519502e+000	 1.909507272201168e-001	 7.353468567674423e+000
1	 1.794582863838879e+000	 2.086103779856293e-001	 6.960609478711347e+000
1	 1.792436787378191e+000	 2.263103454665698e-001	 6.565419073861170e+000
1	 1.790107975179323e+000	 2.440481393833731e-001	 6.169053142458939e+000
1	 1.787594957971737e+000	 2.618212231055554e-001	 5.772627765098075e+000
1	 1.784896307653890e+000	 2.796270142649396e-001	 5.377216885736393e+000
1	 1.782010638770450e+000	 2.974628854192032e-001	 4.983849893368105e+000
1	 1.778936609983506e+000	 3.153261647661564e-001	 4.593509218177564e+000
1	 1.775672925535893e+000	 3.332141369090891e-001	 4.207127947209685e+000
1	 1.772218336704760e+000	 3.511240436734559e-001	 3.825587464698971e+000
1	 1.804969128853802e+000	 1.739734766492057e-001	 7.613198937150672e+000
1	 1.803177371119533e+000	 1.916553775493431e-001	 7.235112102990078e+000
1	 1.801205270709615e+000	 2.093801963242911e-001	 6.853138025425490e+000
1	 1.799051274752824e+000	 2.271454805922235e-001	 6.468459310037158e+000
1	 1.796713868722657e+000	 2.449487308838937e-001	 6.082220665225020e+000
1	 1.794191577926644e+000	 2.627874012080904e-001	 5.695526470719827e+000
1	 1.791482968993232e+000	 2.806588996671269e-001	 5.309438352075008e+000
1	 1.788586651354454e+000	 2.985605891228380e-001	 4.924972765961858e+000
1	 1.785501278722566e+000	 3.164897879134934e-001	 4.543098601216729e+000
1	 1.782225550558774e+000	 3.344437706219683e-001	 4.164734800704053e+000
1	 1.778758213532162e+000	 3.524197688954445e-001	 3.790748009167503e+000
1	 1.811605374126138e+000	 1.746131167628129e-001	 7.470976962760406e+000
1	 1.809807028720049e+000	 1.923600278782482e-001	 7.104535468743173e+000
1	 1.807827677580853e+000	 2.101500146626242e-001	 6.733867591737114e+000
1	 1.805665762127958e+000	 2.279806157175550e-001	 6.360143516185832e+000
1	 1.803319762266476e+000	 2.458493223841091e-001	 5.984494968038499e+000
1	 1.800788197882007e+000	 2.637535793103460e-001	 5.608012788072403e+000
1	 1.798069630332990e+000	 2.816907850690671e-001	 5.231744512373686e+000
1	 1.795162663938824e+000	 2.996582928262621e-001	 4.856691964824555e+000
1	 1.792065947461933e+000	 3.176534110606569e-001	 4.483808866570703e+000
1	 1.788778175581896e+000	 3.356734043347111e-001	 4.113998467555012e+000
1	 1.785298090359737e+000	 3.537154941173297e-001	 3.748111205309555e+000
1	 1.818241619398854e+000	 1.752527568762638e-001	 7.316224466572495e+000
1	 1.816436686320991e+000	 1.930646782069702e-001	 6.961790039455186e+000
1	 1.814450084452545e+000	 2.109198330007604e-001	 6.602814731020338e+000
1	 1.812280249503562e+000	 2.288157508426863e-001	 6.240454354065238e+000
1	 1.809925655810766e+000	 2.467499138841305e-001	 5.875825760774115e+000
1	 1.807384817837828e+000	 2.647197574124209e-001	 5.510004424459827e+000
1	 1.804656291673181e+000	 2.827226704708454e-001	 5.144022029614596e+000
1	 1.801738676523593e+000	 3.007559965295466e-001	 4.778864075138022e+000
1	 1.798630616201657e+000	 3.188170342077054e-001	 4.415467495730646e+000
1	 1.795330800605327e+000	 3.369030380473631e-001	 4.054718306556306e+000
1	 1.791837967187568e+000	 3.550112193391459e-001	 3.697449276374951e+000
1	 1.824877864671880e+000	 1.758923969897006e-001	 7.149027295802869e+000
1	 1.823066343922302e+000	 1.937693285356476e-001	 6.806926442344563e+000
1	 1.821072491324651e+000	 2.116896513388310e-001	 6.459995755860683e+000
1	 1.818894736879606e+000	 2.296508859677397e-001	 6.109374737637948e+000
1	 1.816531549355510e+000	 2.476505053840687e-001	 5.756163484835036e+000
1	 1.813981437794106e+000	 2.656859355144135e-001	 5.401420284229383e+000
1	 1.811242953013821e+000	 2.837545558725471e-001	 5.046159215399579e+000
1	 1.808314689108793e+000	 3.018537002327632e-001	 4.691347768220497e+000
1	 1.805195284941788e+000	 3.199806573546970e-001	 4.337904479671409e+000
1	 1.801883425629133e+000	 3.381326717599695e-001	 3.986696595063221e+000
1	 1.798377844015737e+000	 3.563069445609279e-001	 3.638537758893273e+000
1	 1.831514109945151e+000	 1.765320371032654e-001	 6.969470053442929e+000
1	 1.829696001523926e+000	 1.944739788644186e-001	 6.639994570864863e+000
1	 1.827694898197124e+000	 2.124594696769677e-001	 6.305426742416853e+000
1	 1.825509224256060e+000	 2.304860210928375e-001	 5.966887828501877e+000
1	 1.823137442900693e+000	 2.485510968840351e-001	 5.625459299899781e+000
1	 1.820578057750842e+000	 2.666521136164224e-001	 5.282180447085345e+000
1	 1.817829614354928e+000	 2.847864412742570e-001	 4.938046000081981e+000
1	 1.814890701694459e+000	 3.029514039359832e-001	 4.594003763732690e+000
1	 1.811759953682375e+000	 3.211442805016896e-001	 4.250952273387899e+000
1	 1.808436050653380e+000	 3.393623054725760e-001	 3.909738476117374e+000
1	 1.804917720844325e+000	 3.576026697827099e-001	 3.571155442647841e+000
1	 1.838150355218598e+000	 1.771716772171005e-001	 6.777636120719712e+000
1	 1.836325659125807e+000	 1.951786291934217e-001	 6.461043597950618e+000
1	 1.834317305069919e+000	 2.132292880153019e-001	 6.139123534688775e+000
1	 1.832123711632891e+000	 2.313211562181020e-001	 5.812977031419880e+000
1	 1.829743336446300e+000	 2.494516883841405e-001	 5.483665070956173e+000
1	 1.827174677708035e+000	 2.676182917185461e-001	 5.152206146871475e+000
1	 1.824416275696517e+000	 2.858183266760604e-001	 4.819573903546195e+000
1	 1.821466714280624e+000	 3.040491076392786e-001	 4.486694792701677e+000
1	 1.818324622423470e+000	 3.223079036487412e-001	 4.154445751415708e+000
1	 1.814988675678134e+000	 3.405919391852282e-001	 3.823651906716981e+000
1	 1.811457597673414e+000	 3.588983950045264e-001	 3.495084311949650e+000
1	 1.844786600492154e+000	 1.778113173313480e-001	 6.573607679070740e+000
1	 1.842955316727885e+000	 1.958832795227951e-001	 6.270121988976614e+000
1	 1.840939711942994e+000	 2.139991063539653e-001	 5.961101748693289e+000
1	 1.838738199010071e+000	 2.321562913436554e-001	 5.647625989946135e+000
1	 1.836349229992314e+000	 2.503522798844963e-001	 5.330733355615327e+000
1	 1.833771297665687e+000	 2.685844698208832e-001	 5.011419750812273e+000
1	 1.831002937038606e+000	 2.868502120780426e-001	 4.690636006617187e+000
1	 1.828042726867321e+000	 3.051468113427203e-001	 4.369285561344006e+000
1	 1.824889291165121e+000	 3.234715267959102e-001	 4.048222164312045e+000
1	 1.821541300703462e+000	 3.418215728979717e-001	 3.728247607203611e+000
1	 1.817997474503085e+000	 3.601941202264115e-001	 3.410109488179027e+000
1	 1.851422845765751e+000	 1.784509574461501e-001	 6.357465731646769e+000
1	 1.849584974330105e+000	 1.965879298526773e-001	 6.067277514438722e+000
1	 1.847562118816300e+000	 2.147689246930893e-001	 5.771376776549616e+000
1	 1.845352686387567e+000	 2.329914264696200e-001	 5.470818582146356e+000
1	 1.842955123538719e+000	 2.512528713852133e-001	 5.166617391698198e+000
1	 1.840367917623796e+000	 2.695506479235322e-001	 4.859744739200549e+000
1	 1.837589598381211e+000	 2.878820974802886e-001	 4.551126923085331e+000
1	 1.834618739454583e+000	 3.062445150463798e-001	 4.241642715665748e+000
1	 1.831453959907378e+000	 3.246351499432544e-001	 3.932121096072730e+000
1	 1.828093925729430e+000	 3.430512066108520e-001	 3.623339011737360e+000
1	 1.824537351333421e+000	 3.614898454484002e-001	 3.316019173563073e+000
1	 1.858059091039319e+000	 1.790905975616489e-001	 6.129290124353499e+000
1	 1.856214631932410e+000	 1.972925801832065e-001	 5.852557262363012e+000
1	 1.854184525689797e+000	 2.155387430328054e-001	 5.569963790478037e+000
1	 1.851967173765350e+000	 2.338265615961181e-001	 5.282538916409711e+000
1	 1.849561017085502e+000	 2.521534628864028e-001	 4.991271085088330e+000
1	 1.846964537582364e+000	 2.705168260265918e-001	 4.697105685519843e+000
1	 1.844176259724348e+000	 2.889139828828836e-001	 4.400942772330561e+000
1	 1.841194752042445e+000	 3.073422187503292e-001	 4.103634806821860e+000
1	 1.838018628650292e+000	 3.257987730908322e-001	 3.805984422461308e+000
1	 1.834646550756102e+000	 3.442808403239147e-001	 3.508742219833506e+000
1	 1.831077228164503e+000	 3.627855706705264e-001	 3.212604596157671e+000
1	 1.765678459877450e+000	 3.498283184513297e-001	 3.852860723294134e+000
1	 1.762044664318403e+000	 3.676938779308519e-001	 3.471879547831569e+000
1	 1.758218270537386e+000	 3.855756710113191e-001	 3.100765588088697e+000
1	 1.754198184645169e+000	 4.034708216714287e-001	 2.740320803214297e+000
1	 1.749983365329663e+000	 4.213764149270760e-001	 2.391303444558239e+000
1	 1.745572825227723e+000	 4.392894979040814e-001	 2.054426206880479e+000
1	 1.740965632275259e+000	 4.572070809622258e-001	 1.730354413795218e+000
1	 1.736160911033618e+000	 4.751261388703035e-001	 1.419704241795682e+000
1	 1.731157843990141e+000	 4.930436120318121e-001	 1.123040987231859e+000
1	 1.725955672830829e+000	 5.109564077608105e-001	 8.408773806272285e-001
1	 1.720553699683057e+000	 5.288614016073798e-001	 5.736719527235922e-001
1	 1.772218336704760e+000	 3.511240436734559e-001	 3.825587464698971e+000
1	 1.768571081970627e+000	 3.690557752002125e-001	 3.451180192051335e+000
1	 1.764730515652127e+000	 3.870038004553495e-001	 3.086321893052353e+000
1	 1.760695539808388e+000	 4.049652327651022e-001	 2.731835792034818e+000
1	 1.756465109270422e+000	 4.229371463485910e-001	 2.388500230973623e+000
1	 1.752038233018001e+000	 4.409165773945200e-001	 2.057046759573499e+000
1	 1.747413975534779e+000	 4.589005251893766e-001	 1.738158260371342e+000
1	 1.742591458139577e+000	 4.768859532968367e-001	 1.432467113341355e+000
1	 1.737569860291762e+000	 4.948697907879950e-001	 1.140553404519555e+000
1	 1.732348420868631e+000	 5.128489335219466e-001	 8.629431831799720e-001
1	 1.726926439412715e+000	 5.308202454761590e-001	 6.001067720977464e-001
1	 1.778758213532162e+000	 3.524197688954445e-001	 3.790748009167503e+000
1	 1.775097499622857e+000	 3.704176724694724e-001	 3.423491591179877e+000
1	 1.771242760766789e+000	 3.884319298993078e-001	 3.065461583578006e+000
1	 1.767192894971447e+000	 4.064596438587248e-001	 2.717497644928419e+000
1	 1.762946853210942e+000	 4.244978777700678e-001	 2.380393614861184e+000
1	 1.758503640807968e+000	 4.425436568849251e-001	 2.054895554992618e+000
1	 1.753862318793922e+000	 4.605939694164907e-001	 1.741699825488568e+000
1	 1.749022005245102e+000	 4.786457677233224e-001	 1.441451201873135e+000
1	 1.743981876592904e+000	 4.966959695441106e-001	 1.154741036715582e+000
1	 1.738741168905919e+000	 5.147414592829877e-001	 8.821054708459329e-001
1	 1.733299179141840e+000	 5.327790893448082e-001	 6.240236987539078e-001
1	 1.785298090359737e+000	 3.537154941173297e-001	 3.748111205309555e+000
1	 1.781623917275190e+000	 3.717795697386566e-001	 3.388556846533442e+000
1	 1.777755005881483e+000	 3.898600593432123e-001	 3.037904630404238e+000
1	 1.773690250134468e+000	 4.079540549523091e-001	 2.697005867937781e+000
1	 1.769428597151355e+000	 4.260586091915157e-001	 2.366665350874142e+000
1	 1.764969048597762e+000	 4.441707363753049e-001	 2.047639355315624e+000
1	 1.760310662052832e+000	 4.622874136435772e-001	 1.740633681480694e+000
1	 1.755452552350340e+000	 4.804055821497718e-001	 1.446301734265877e+000
1	 1.750393892893712e+000	 4.985221483001754e-001	 1.165242649338710e+000
1	 1.745133916942836e+000	 5.166339850439580e-001	 8.979994695026407e-001
1	 1.739671918870567e+000	 5.347379332133595e-001	 6.450573760792748e-001
1	 1.791837967187568e+000	 3.550112193391459e-001	 3.697449276374951e+000
1	 1.788150334927723e+000	 3.731414670077906e-001	 3.346122809959774e+000
1	 1.784267250996319e+000	 3.912881887870808e-001	 3.003375092490335e+000
1	 1.780187605297569e+000	 4.094484660458675e-001	 2.670064354095936e+000
1	 1.775910341091791e+000	 4.276193406129448e-001	 2.347001839813126e+000
1	 1.771434456387523e+000	 4.457978158656683e-001	 2.034949787746823e+000
1	 1.766759005311653e+000	 4.639808578706453e-001	 1.734619443670674e+000
1	 1.761883099455437e+000	 4.821653965761971e-001	 1.446669116820165e+000
1	 1.756805909194333e+000	 5.003483270562067e-001	 1.171702281664539e+000
1	 1.751526664979524e+000	 5.185265108048806e-001	 9.102657304606121e-001
1	 1.746044658599031e+000	 5.366967770818458e-001	 6.628477813977811e-001
1	 1.798377844015737e+000	 3.563069445609279e-001	 3.638537758893273e+000
1	 1.794676752580552e+000	 3.745033642768991e-001	 3.295940015643237e+000
1	 1.790779496111406e+000	 3.927163182309313e-001	 2.961601042681577e+000
1	 1.786684960460875e+000	 4.109428771394136e-001	 2.636381303658712e+000
1	 1.782392085032382e+000	 4.291800720343642e-001	 2.321094044146577e+000
1	 1.777899864177388e+000	 4.474248953560228e-001	 2.016503256057544e+000
1	 1.773207348570529e+000	 4.656743020977042e-001	 1.723321678675256e+000
1	 1.768313646560540e+000	 4.839252110026103e-001	 1.442208841086477e+000
1	 1.763217925494911e+000	 5.021745058122212e-001	 1.173769150834278e+000
1	 1.757919413016124e+000	 5.204190365657796e-001	 9.185500336323360e-001
1	 1.752417398327365e+000	 5.386556209502998e-001	 6.770401289847188e-001
1	 1.804917720844325e+000	 3.576026697827099e-001	 3.571155442647841e+000
1	 1.801203170233773e+000	 3.758652615460078e-001	 3.237762613392476e+000
1	 1.797291741226853e+000	 3.941444476747818e-001	 2.912314494990059e+000
1	 1.793182315624507e+000	 4.124372882329594e-001	 2.595669146071518e+000
1	 1.788873828973259e+000	 4.307408034557834e-001	 2.288637405367841e+000
1	 1.784365271967497e+000	 4.490519748463777e-001	 1.991980854049896e+000
1	 1.779655691829604e+000	 4.673677463247631e-001	 1.706409814703433e+000
1	 1.774744193665795e+000	 4.856850254290235e-001	 1.432581391736480e+000
1	 1.769629941795594e+000	 5.040006845682356e-001	 1.171097558048242e+000
1	 1.764312161052779e+000	 5.223115623266788e-001	 9.225032928068532e-001
1	 1.758790138055704e+000	 5.406144648187536e-001	 6.872847751898621e-001
1	 1.811457597673414e+000	 3.588983950045264e-001	 3.495084311949650e+000
1	 1.807729587887482e+000	 3.772271588151418e-001	 3.171348303373253e+000
1	 1.803803986342771e+000	 3.955725771186503e-001	 2.855251333451196e+000
1	 1.799679670788585e+000	 4.139316993265181e-001	 2.547644463626498e+000
1	 1.795355572914553e+000	 4.323015348772123e-001	 2.249331763142288e+000
1	 1.790830679757990e+000	 4.506790543367409e-001	 1.961068280895073e+000
1	 1.786104035089022e+000	 4.690611905518310e-001	 1.683558053797551e+000
1	 1.781174740771349e+000	 4.874448398554490e-001	 1.417452156430227e+000
1	 1.776041958096526e+000	 5.058268633242670e-001	 1.163346796791429e+000
1	 1.770704909089630e+000	 5.242040880876013e-001	 9.217814629758453e-001
1	 1.765162877784180e+000	 5.425733086872400e-001	 6.932371256156371e-001
1	 1.817997474503085e+000	 3.601941202264115e-001	 3.410109488179028e+000
1	 1.814256005541776e+000	 3.785890560843259e-001	 3.096458272249858e+000
1	 1.810316231459269e+000	 3.970007065625548e-001	 2.790151242515505e+000
1	 1.806177025953231e+000	 4.154261104201023e-001	 2.492027916767422e+000
1	 1.801837316856396e+000	 4.338622662986603e-001	 2.202881276199779e+000
1	 1.797296087549004e+000	 4.523061338271208e-001	 1.923455758298886e+000
1	 1.792552378348927e+000	 4.707546347789177e-001	 1.654445285969126e+000
1	 1.787605287877348e+000	 4.892046542818984e-001	 1.396491337628531e+000
1	 1.782453974397853e+000	 5.076530420803319e-001	 1.150181063039820e+000
1	 1.777097657126819e+000	 5.260966138485717e-001	 9.160454496601416e-001
1	 1.771535617512930e+000	 5.445321525557915e-001	 6.945575442989275e-001
1	 1.824537351333421e+000	 3.614898454484002e-001	 3.316019173563073e+000
1	 1.820782423196752e+000	 3.799509533535859e-001	 3.012857130700166e+000
1	 1.816828476576456e+000	 3.984288360065132e-001	 2.716757638937374e+000
1	 1.812674381118566e+000	 4.169205215137248e-001	 2.428544171000870e+000
1	 1.808319060798919e+000	 4.354229977201371e-001	 2.148994344928163e+000
1	 1.803761495340678e+000	 4.539332133175258e-001	 1.878837949448971e+000
1	 1.799000721609464e+000	 4.724480790060318e-001	 1.618755005180732e+000
1	 1.794035834983939e+000	 4.909644687083838e-001	 1.369373866302142e+000
1	 1.788865990699722e+000	 5.094792208364475e-001	 1.131269367397956e+000
1	 1.783490405164487e+000	 5.279891396096127e-001	 9.049610201863881e-001
1	 1.777908357242085e+000	 5.464909964244405e-001	 6.909112648458947e-001
1	 1.831077228164503e+000	 3.627855706705264e-001	 3.212604596157671e+000
1	 1.827308840852505e+000	 3.813128506229466e-001	 2.920312852269306e+000
1	 1.823340721694443e+000	 3.998569654505436e-001	 2.634817605123685e+000
1	 1.819171736284712e+000	 4.184149326073986e-001	 2.356921825373766e+000
1	 1.814800804742252e+000	 4.369837291416522e-001	 2.087383535625853e+000
1	 1.810226903133151e+000	 4.555602928079645e-001	 1.826913879698622e+000
1	 1.805449064870776e+000	 4.741415232331826e-001	 1.576175227128810e+000
1	 1.800466382091268e+000	 4.927242831349174e-001	 1.335779317489955e+000
1	 1.795278007002279e+000	 5.113053995926306e-001	 1.106285449119231e+000
1	 1.789883153202777e+000	 5.298816653707489e-001	 8.881987168648996e-001
1	 1.784281096971782e+000	 5.484498402932200e-001	 6.819683034713285e-001
1	 1.720553699683057e+000	 5.288614016073798e-001	 5.736719527235922e-001
1	 1.714951287895949e+000	 5.467554384699779e-001	 3.235358749520310e-001
1	 1.709147861924184e+000	 5.646353332059646e-001	 9.281660706352933e-002
1	 1.703142909757176e+000	 5.824978728424625e-001	-1.177635680682781e-001
1	 1.696935984454057e+000	 6.003398183485178e-001	-3.075495656024924e-001
1	 1.690526705208835e+000	 6.181579061972001e-001	-4.759556425928355e-001
1	 1.683914758373382e+000	 6.359488499721072e-001	-6.224674683255075e-001
1	 1.677099898436262e+000	 6.537093420170529e-001	-7.466441154919243e-001
1	 1.670081948955454e+000	 6.714360551276295e-001	-8.481199666174391e-001
1	 1.662860803443096e+000	 6.891256442832350e-001	-9.266065302463589e-001
1	 1.655436426200365e+000	 7.067747484180751e-001	-9.818941614817226e-001
1	 1.726926439412715e+000	 5.308202454761590e-001	 6.001067720977464e-001
1	 1.721303276915056e+000	 5.487805598629469e-001	 3.541235060260863e-001
1	 1.715478355698569e+000	 5.667266797422572e-001	 1.272893119945151e-001
1	 1.709451161856229e+000	 5.846553802407206e-001	-7.969437457714106e-002
1	 1.703221246791734e+000	 6.025634103303735e-001	-2.661958896386684e-001
1	 1.696788228288618e+000	 6.204474943965467e-001	-4.316555014929915e-001
1	 1.690151791537024e+000	 6.383043338503186e-001	-5.755874940019864e-001
1	 1.683311690116158e+000	 6.561306087843145e-001	-6.975821662509499e-001
1	 1.676267746930466e+000	 6.739229796705319e-001	-7.973077429787315e-001
1	 1.669019855097652e+000	 6.916780890987875e-001	-8.745121901681507e-001
1	 1.661567978786661e+000	 7.093925635542742e-001	-9.290249302981881e-001
1	 1.733299179141840e+000	 5.327790893448082e-001	 6.240236987539078e-001
1	 1.727655265933628e+000	 5.508056812557428e-001	 3.825382895114073e-001
1	 1.721808849472432e+000	 5.688180262783275e-001	 1.598903704070015e-001
1	 1.715759413954782e+000	 5.868128876387013e-001	-4.323938672836761e-002
1	 1.709506509128947e+000	 6.047870023118943e-001	-2.262422832221811e-001
1	 1.703049751367984e+000	 6.227370825954985e-001	-3.885837653897764e-001
1	 1.696388824700308e+000	 6.406598177280756e-001	-5.298055148541581e-001
1	 1.689523481795759e+000	 6.585518755510625e-001	-6.495274514936784e-001
1	 1.682453544905252e+000	 6.764099042128660e-001	-7.474496432320322e-001
1	 1.675178906752058e+000	 6.942305339137208e-001	-8.233541169807196e-001
1	 1.667699531372885e+000	 7.120103786898093e-001	-8.771065651587872e-001
1	 1.739671918870567e+000	 5.347379332133595e-001	 6.450573760792748e-001
1	 1.734007254951787e+000	 5.528308026484087e-001	 4.084173235778454e-001
1	 1.728139343245877e+000	 5.709093728142304e-001	 1.902624357719110e-001
1	 1.722067666052925e+000	 5.889703950364738e-001	-8.747288764078794e-003
1	 1.715791771465766e+000	 6.070105942931632e-001	-1.880256575316068e-001
1	 1.709311274446982e+000	 6.250266707941542e-001	-3.470624605496422e-001
1	 1.702625857863253e+000	 6.430153016054911e-001	-4.854255620742823e-001
1	 1.695735273475063e+000	 6.609731423174257e-001	-6.027629016573379e-001
1	 1.688639342879789e+000	 6.788968287547734e-001	-6.988043986881236e-001
1	 1.681337958406270e+000	 6.967829787281894e-001	-7.733637546648272e-001
1	 1.673831083958972e+000	 7.146281938248470e-001	-8.263401475638593e-001
1	 1.746044658599031e+000	 5.366967770818458e-001	 6.628477813977811e-001
1	 1.740359243969655e+000	 5.548559240409877e-001	 4.314030044939967e-001
1	 1.734469837019012e+000	 5.730007193500216e-001	 2.180533785556487e-001
1	 1.728375918150747e+000	 5.911279024341080e-001	 2.343832560606791e-002
1	 1.722077033802260e+000	 6.092341862742643e-001	-1.518780050910988e-001
1	 1.715572797525657e+000	 6.273162589926120e-001	-3.074089118934275e-001
1	 1.708862891025889e+000	 6.453707854826793e-001	-4.427472282238018e-001
1	 1.701947065154075e+000	 6.633944090835324e-001	-5.575673166037337e-001
1	 1.694825140854057e+000	 6.813837532963969e-001	-6.516269633716798e-001
1	 1.687497010060242e+000	 6.993354235423485e-001	-7.247691682899915e-001
1	 1.679962636544856e+000	 7.172460089595523e-001	-7.769238233722687e-001
1	 1.752417398327365e+000	 5.386556209502998e-001	 6.770401289847188e-001
1	 1.746711232987356e+000	 5.568810454335238e-001	 4.511429302933654e-001
1	 1.740800330791946e+000	 5.750920658857573e-001	 2.429161913608752e-001
1	 1.734684170248338e+000	 5.932854098316724e-001	 5.297886064506281e-002
1	 1.728362296138499e+000	 6.114577782552818e-001	-1.181264892050060e-001
1	 1.721834320604059e+000	 6.296058471909711e-001	-2.699358284795738e-001
1	 1.715099924188238e+000	 6.477262693597538e-001	-4.020657479396532e-001
1	 1.708158856832794e+000	 6.658156758495105e-001	-5.142154407243167e-001
1	 1.701010938828034e+000	 6.838706778378773e-001	-6.061685827026712e-001
1	 1.693656061713931e+000	 7.018878683563526e-001	-6.777951054523356e-001
1	 1.686094189130473e+000	 7.198638240940923e-001	-7.290528561794029e-001
1	 1.758790138055704e+000	 5.406144648187536e-001	 6.872847751898621e-001
1	 1.753063222005010e+000	 5.589061668260598e-001	 4.672898065349484e-001
1	 1.747130824564784e+000	 5.771834124214931e-001	 2.645088961297432e-001
1	 1.740992422345786e+000	 5.954429172292369e-001	 7.954062804123216e-002
1	 1.734647558474552e+000	 6.136813702362994e-001	-8.709353144791893e-002
1	 1.728095843682236e+000	 6.318954353893305e-001	-2.349513871288930e-001
1	 1.721336957350326e+000	 6.500817532368282e-001	-3.636720768861190e-001
1	 1.714370648511223e+000	 6.682369426154887e-001	-4.729780364125531e-001
1	 1.707196736801698e+000	 6.863576023793584e-001	-5.626768606845557e-001
1	 1.699815113367292e+000	 7.044403131703569e-001	-6.326630563766973e-001
1	 1.692225741715756e+000	 7.224816392286320e-001	-6.829196795346616e-001
1	 1.765162877784180e+000	 5.425733086872400e-001	 6.932371256156371e-001
1	 1.759415211022741e+000	 5.609312882186387e-001	 4.795013541051904e-001
1	 1.753461318337636e+000	 5.792747589572844e-001	 2.824944533570395e-001
1	 1.747300674443183e+000	 5.976004246268710e-001	 1.027947583222082e-001
1	 1.740932820810489e+000	 6.159049622174005e-001	-5.909689725966422e-002
1	 1.734357366760235e+000	 6.341850235877884e-001	-2.027593142379767e-001
1	 1.727573990512178e+000	 6.524372371140165e-001	-3.278529689963644e-001
1	 1.720582440189362e+000	 6.706582093815950e-001	-4.341219559446260e-001
1	 1.713382534775026e+000	 6.888445269209819e-001	-5.213958256370312e-001
1	 1.705974165020281e+000	 7.069927579845158e-001	-5.895913127168975e-001
1	 1.698357294300641e+000	 7.250994543633379e-001	-6.387139480278941e-001
1	 1.771535617512930e+000	 5.445321525557915e-001	 6.945575442989275e-001
1	 1.765767200040672e+000	 5.629564096113043e-001	 4.874402190098045e-001
1	 1.759791812110608e+000	 5.813661054931872e-001	 2.965406732632233e-001
1	 1.753608926540618e+000	 5.997579320246437e-001	 1.224171141810059e-001
1	 1.747218083146380e+000	 6.181285541986697e-001	-3.444977969284577e-002
1	 1.740618889838102e+000	 6.364746117864440e-001	-1.736589658266636e-001
1	 1.733811023673818e+000	 6.547927209914324e-001	-2.948910520468281e-001
1	 1.726794231867214e+000	 6.730794761479584e-001	-3.979102118087098e-001
1	 1.719568332747999e+000	 6.913314514628892e-001	-4.825659945100870e-001
1	 1.712133216672855e+000	 7.095452027989848e-001	-5.487950250867830e-001
1	 1.704488846885063e+000	 7.277172694983755e-001	-5.966225872731312e-001
1	 1.777908357242085e+000	 5.464909964244405e-001	 6.909112648458947e-001
1	 1.772119189058924e+000	 5.649815310041002e-001	 4.907738841058026e-001
1	 1.766122305883807e+000	 5.834574520292573e-001	 3.063201288773676e-001
1	 1.759917178638179e+000	 6.019154394226243e-001	 1.380882056659776e-001
1	 1.753503345482292e+000	 6.203521461801902e-001	-1.346088135916639e-002
1	 1.746880412915887e+000	 6.387641999853959e-001	-1.479454058639694e-001
1	 1.740048056835272e+000	 6.571482048691891e-001	-2.650649016062848e-001
1	 1.733006023544780e+000	 6.755007429147066e-001	-3.646020455218100e-001
1	 1.725754130720593e+000	 6.938183760052232e-001	-4.464244358148362e-001
1	 1.718292268324968e+000	 7.120976476139181e-001	-5.104862593540577e-001
1	 1.710620399468956e+000	 7.303350846339110e-001	-5.568298428173837e-001
1	 1.784281096971782e+000	 5.484498402932200e-001	 6.819683034713285e-001
1	 1.778471178077622e+000	 5.670066523970694e-001	 4.891745827250142e-001
1	 1.772452799657343e+000	 5.855487985655503e-001	 3.115100709830979e-001
1	 1.766225430735958e+000	 6.040729468208824e-001	 1.494931071884866e-001
1	 1.759788607818298e+000	 6.225757381620464e-001	 3.565505380233990e-003
1	 1.753141935993637e+000	 6.410537881847428e-001	-1.259094829155777e-001
1	 1.746285089996563e+000	 6.595036887474010e-001	-2.386491134001891e-001
1	 1.739217815222061e+000	 6.779220096819685e-001	-3.344529949717108e-001
1	 1.731939928692788e+000	 6.963053005481263e-001	-4.132048312057765e-001
1	 1.724451319976577e+000	 7.146500924294711e-001	-4.748740517277277e-001
1	 1.716751952052255e+000	 7.329528997701102e-001	-5.195173280013168e-001
1	 1.655436426200365e+000	 7.067747484180751e-001	-9.818941614817228e-001
1	 1.647810012626662e+000	 7.243773551801414e-001	-1.027493370139987e+000
1	 1.639980573555821e+000	 7.419327295003327e-001	-1.077146034211306e+000
1	 1.631948291327146e+000	 7.594374756294089e-001	-1.131023421990853e+000
1	 1.623713421824428e+000	 7.768881892555959e-001	-1.189287751559086e+000
1	 1.615276295033542e+000	 7.942814594428974e-001	-1.252091920431996e+000
1	 1.606637315540310e+000	 8.116138705974469e-001	-1.319579246786239e+000
1	 1.597796962967233e+000	 8.288820044598098e-001	-1.391883222919477e+000
1	 1.588755792347744e+000	 8.460824421210691e-001	-1.469127281587256e+000
1	 1.579514434436758e+000	 8.632117660604604e-001	-1.551424575836515e+000
1	 1.570073595956371e+000	 8.802665622022525e-001	-1.638877772932944e+000
1	 1.661567978786661e+000	 7.093925635542742e-001	-9.290249302981881e-001
1	 1.653913317824509e+000	 7.270603684159012e-001	-9.740566211499386e-001
1	 1.646054879381276e+000	 7.446807658919559e-001	-1.023032625872211e+000
1	 1.637992846471639e+000	 7.622503476557206e-001	-1.076138628444050e+000
1	 1.629727475927164e+000	 7.797656967862311e-001	-1.133548772913025e+000
1	 1.621259098955966e+000	 7.972233897137646e-001	-1.195425347062276e+000
1	 1.612588121642419e+000	 8.146199981934755e-001	-1.261918481600961e+000
1	 1.603715025385502e+000	 8.319520913050783e-001	-1.333165865687619e+000
1	 1.594640367274438e+000	 8.492162374763990e-001	-1.409292479569609e+000
1	 1.585364780400401e+000	 8.664090065285576e-001	-1.490410345092243e+000
1	 1.575888974103115e+000	 8.835269717404666e-001	-1.576618294799034e+000
1	 1.667699531372885e+000	 7.120103786898093e-001	-8.771065651587869e-001
1	 1.660016623022366e+000	 7.297433816509610e-001	-9.215966064816480e-001
1	 1.652129185206822e+000	 7.474288022828487e-001	-9.699125455188593e-001
1	 1.644037401616305e+000	 7.650632196812788e-001	-1.022252500298426e+000
1	 1.635741530030153e+000	 7.826432043160948e-001	-1.078800785756630e+000
1	 1.627241902878723e+000	 8.001653199838462e-001	-1.139727556481474e+000
1	 1.618538927744937e+000	 8.176261257887096e-001	-1.205188468587175e+000
1	 1.609633087804251e+000	 8.350221781495452e-001	-1.275324361663760e+000
1	 1.600524942201681e+000	 8.523500328309214e-001	-1.350260961712354e+000
1	 1.591215126364653e+000	 8.696062469958423e-001	-1.430108605939376e+000
1	 1.581704352250523e+000	 8.867873812778637e-001	-1.514961990242812e+000
1	 1.673831083958972e+000	 7.146281938248470e-001	-8.263401475638599e-001
1	 1.666119928220147e+000	 7.324263948854949e-001	-8.702835306801642e-001
1	 1.658203491032356e+000	 7.501768386731936e-001	-9.179271563938245e-001
1	 1.650081956761026e+000	 7.678760917062715e-001	-9.694796075848424e-001
1	 1.641755584133266e+000	 7.855207118453783e-001	-1.025133625646780e+000
1	 1.633224706801671e+000	 8.031072502533370e-001	-1.085065717335487e+000
1	 1.624489733847713e+000	 8.206322533833429e-001	-1.149435784017782e+000
1	 1.615551150223324e+000	 8.380922649934034e-001	-1.218386774383996e+000
1	 1.606409517129309e+000	 8.554838281848282e-001	-1.292044361647884e+000
1	 1.597065472329349e+000	 8.728034874625036e-001	-1.370516646213440e+000
1	 1.587519730398429e+000	 8.900477908146286e-001	-1.453893884740619e+000
1	 1.679962636544856e+000	 7.172460089595523e-001	-7.769238233722690e-001
1	 1.672223233417767e+000	 7.351094081196790e-001	-8.202851134297826e-001
1	 1.664277796857779e+000	 7.529248750631739e-001	-8.672157579406314e-001
1	 1.656126511905686e+000	 7.706889637308859e-001	-9.179328476962028e-001
1	 1.647769638236373e+000	 7.883982193742738e-001	-9.726358166074416e-001
1	 1.639207510724670e+000	 8.060491805224306e-001	-1.031506017657452e+000
1	 1.630440539950598e+000	 8.236383809775704e-001	-1.094706324186386e+000
1	 1.621469212642564e+000	 8.411623518368471e-001	-1.162380757677366e+000
1	 1.612294092057161e+000	 8.586176235383101e-001	-1.234654143165992e+000
1	 1.602915818294325e+000	 8.760007279287293e-001	-1.311631793345487e+000
1	 1.593335108546665e+000	 8.933082003509443e-001	-1.393399222385666e+000
1	 1.686094189130473e+000	 7.198638240940923e-001	-7.290528561794029e-001
1	 1.678326538615143e+000	 7.377924213536876e-001	-7.717666347355976e-001
1	 1.670352102682987e+000	 7.556729114529706e-001	-8.179156233292602e-001
1	 1.662171067050169e+000	 7.735018357553108e-001	-8.677234758005795e-001
1	 1.653783692339343e+000	 7.912757269029728e-001	-9.213945949769115e-001
1	 1.645190314647578e+000	 8.089911107913198e-001	-9.791136826979767e-001
1	 1.636391346053441e+000	 8.266445085715856e-001	-1.041045317771140e+000
1	 1.627387275061813e+000	 8.442324386800688e-001	-1.107333563115515e+000
1	 1.618178666985074e+000	 8.617514188915592e-001	-1.178101603302180e+000
1	 1.608766164259413e+000	 8.791979683947067e-001	-1.253451413642118e+000
1	 1.599150486695066e+000	 8.965686098869936e-001	-1.333463461913089e+000
1	 1.692225741715756e+000	 7.224816392286320e-001	-6.829196795346616e-001
1	 1.684429843812190e+000	 7.404754345876964e-001	-7.248909791228339e-001
1	 1.676426408507879e+000	 7.584209478427667e-001	-7.701620361658401e-001
1	 1.668215622194357e+000	 7.763147077797337e-001	-8.189611345931851e-001
1	 1.659797746442048e+000	 7.941532344316662e-001	-8.714959327366667e-001
1	 1.651173118570255e+000	 8.119330410601993e-001	-9.279529923677434e-001
1	 1.642342152156093e+000	 8.296506361655833e-001	-9.884973379299183e-001
1	 1.633305337480912e+000	 8.473025255232625e-001	-1.053272047300323e+000
1	 1.624063241912885e+000	 8.648852142447658e-001	-1.122397875358714e+000
1	 1.614616510224449e+000	 8.823952088606245e-001	-1.195972911581275e+000
1	 1.604965864843464e+000	 8.998290194229611e-001	-1.274072272811310e+000
1	 1.698357294300641e+000	 7.250994543633379e-001	-6.387139480278941e-001
1	 1.690533149008824e+000	 7.431584478218801e-001	-6.798186788786828e-001
1	 1.682500714332354e+000	 7.611689842327448e-001	-7.240883264071955e-001
1	 1.674260177338134e+000	 7.791275798043420e-001	-7.717538834038368e-001
1	 1.665811800544357e+000	 7.970307419605462e-001	-8.230245603348458e-001
1	 1.657155922492560e+000	 8.148749713292620e-001	-8.780872983023111e-001
1	 1.648292958258401e+000	 8.326567637597577e-001	-9.371063141333950e-001
1	 1.639223399899707e+000	 8.503726123666218e-001	-1.000222678993756e+000
1	 1.629947816840433e+000	 8.680190095981221e-001	-1.067553931860278e+000
1	 1.620466856189266e+000	 8.855924493266703e-001	-1.139193729123193e+000
1	 1.610781242991693e+000	 9.030894289590298e-001	-1.215211531517705e+000
1	 1.704488846885063e+000	 7.277172694983755e-001	-5.966225872731318e-001
1	 1.696636454204961e+000	 7.458414610564140e-001	-6.367079563608500e-001
1	 1.688575020156310e+000	 7.639170206230866e-001	-6.798259055001208e-001
1	 1.680304732481383e+000	 7.819404518293238e-001	-7.262082266761836e-001
1	 1.671825854646140e+000	 7.999082494898043e-001	-7.760639890171155e-001
1	 1.663138726414351e+000	 8.178169015987020e-001	-8.295790405585506e-001
1	 1.654243764360219e+000	 8.356628913543031e-001	-8.869155437427768e-001
1	 1.645141462318039e+000	 8.534426992103398e-001	-9.482115460937375e-001
1	 1.635832391767555e+000	 8.711528049518190e-001	-1.013580587445829e+000
1	 1.626317202153701e+000	 8.887896897930323e-001	-1.083111345036228e+000
1	 1.616596621139586e+000	 9.063498384953834e-001	-1.156867317696301e+000
1	 1.710620399468956e+000	 7.303350846339110e-001	-5.568298428173837e-001
1	 1.702739759400515e+000	 7.485244742914734e-001	-5.957147653961994e-001
1	 1.694649325979647e+000	 7.666650570139754e-001	-6.375043007650356e-001
1	 1.686349287623989e+000	 7.847533238548667e-001	-6.824291418344479e-001
1	 1.677839908747267e+000	 8.027857570196316e-001	-7.306965326772859e-001
1	 1.669121530335487e+000	 8.207588318687129e-001	-7.824897639519965e-001
1	 1.660194570461393e+000	 8.386690189494136e-001	-8.379677033385039e-001
1	 1.651059524735752e+000	 8.565127860546102e-001	-8.972643624600576e-001
1	 1.641716966694088e+000	 8.742866003060478e-001	-9.604885016982986e-001
1	 1.632167548117586e+000	 8.919869302598986e-001	-1.027723274237296e+000
1	 1.622411999286977e+000	 9.096102480322056e-001	-1.099025910595617e+000
1	 1.716751952052255e+000	 7.329528997701102e-001	-5.195173280013168e-001
1	 1.708843064595402e+000	 7.512074875272331e-001	-5.569928317922134e-001
1	 1.700723631802261e+000	 7.694130934055929e-001	-5.972511890427376e-001
1	 1.692393842765832e+000	 7.875661958811594e-001	-6.405201065529818e-001
1	 1.683853962847609e+000	 8.056632645502203e-001	-6.870033292396537e-001
1	 1.675104334255827e+000	 8.237007621394886e-001	-7.368801340441482e-001
1	 1.666145376561775e+000	 8.416751465452835e-001	-7.903048598062002e-001
1	 1.656977587152687e+000	 8.595828728996267e-001	-8.474064745940009e-001
1	 1.647601541619870e+000	 8.774203956610007e-001	-9.082881819135650e-001
1	 1.638017894080758e+000	 8.951841707274575e-001	-9.730270671462807e-001
1	 1.628227377433699e+000	 9.128706575696799e-001	-1.041673785484486e+000
1	 1.570073595956371e+000	 8.802665622022525e-001	-1.638877772932943e+000
1	 1.560432599048893e+000	 8.972459629188613e-001	-1.731435311313878e+000
1	 1.550593705615053e+000	 9.141440024037704e-001	-1.828933859783031e+000
1	 1.540557852787052e+000	 9.309572889105736e-001	-1.931311703407880e+000
1	 1.530326054011600e+000	 9.476824425522793e-001	-2.038467918354019e+000
1	 1.519899398955622e+000	 9.643160974185487e-001	-2.150262215311511e+000
1	 1.509279053342249e+000	 9.808549036971231e-001	-2.266514850628181e+000
1	 1.498466258716638e+000	 9.972955297967757e-001	-2.387006606075840e+000
1	 1.487462332141325e+000	 1.013634664469111e+000	-2.511478838013535e+000
1	 1.476268665820915e+000	 1.029869018926507e+000	-2.639633596546203e+000
1	 1.464886726656035e+000	 1.045995328953468e+000	-2.771133815106527e+000
1	 1.575888974103115e+000	 8.835269717404666e-001	-1.576618294799033e+000
1	 1.566212268014191e+000	 9.005692622709460e-001	-1.667760487888650e+000
1	 1.556336932412184e+000	 9.175298902167840e-001	-1.763583464774066e+000
1	 1.546263907900330e+000	 9.344054512689111e-001	-1.864040865195826e+000
1	 1.535994211679030e+000	 9.511925530215972e-001	-1.969047880103272e+000
1	 1.525528937451213e+000	 9.678878170975326e-001	-2.078481078258357e+000
1	 1.514869255257719e+000	 9.844878812771145e-001	-2.192178299150549e+000
1	 1.504016411242247e+000	 1.000989401629258e+000	-2.309938613170348e+000
1	 1.492971727345584e+000	 1.017389054641061e+000	-2.431522349830666e+000
1	 1.481736600928906e+000	 1.033683539343583e+000	-2.556651194662812e+000
1	 1.470312504326076e+000	 1.049869579431027e+000	-2.685008355247630e+000
1	 1.581704352250523e+000	 8.867873812778637e-001	-1.514961990242812e+000
1	 1.571991936980199e+000	 9.038925616222086e-001	-1.604573656077325e+000
1	 1.562080159210064e+000	 9.209157780289697e-001	-1.698612058611946e+000
1	 1.551969963014387e+000	 9.378536136264144e-001	-1.797045134443683e+000
1	 1.541662369347260e+000	 9.547026634900736e-001	-1.899803179084423e+000
1	 1.531158475947617e+000	 9.714595367756689e-001	-2.006778658422193e+000
1	 1.520459457174004e+000	 9.881208588562517e-001	-2.117826085021441e+000
1	 1.509566563768664e+000	 1.004683273460882e+000	-2.232761960226598e+000
1	 1.498481122550637e+000	 1.021143444812148e+000	-2.351364782879714e+000
1	 1.487204536037667e+000	 1.037498059759795e+000	-2.473375125304012e+000
1	 1.475738281996851e+000	 1.053743829907719e+000	-2.598495777042230e+000
1	 1.587519730398429e+000	 8.900477908146286e-001	-1.453893884740620e+000
1	 1.577771605946751e+000	 9.072158609728270e-001	-1.541848810908694e+000
1	 1.567823386008530e+000	 9.243016658404997e-001	-1.633982995910172e+000
1	 1.557676018129063e+000	 9.413017759832483e-001	-1.730277622415723e+000
1	 1.547330527016136e+000	 9.582127739578679e-001	-1.830677086973131e+000
1	 1.536788014444687e+000	 9.750312564531100e-001	-1.935088797997033e+000
1	 1.526049659090967e+000	 9.917538364346820e-001	-2.043383037048755e+000
1	 1.515116716295762e+000	 1.008377145291788e+000	-2.155392884384322e+000
1	 1.503990517756364e+000	 1.024897834982510e+000	-2.270914209598533e+000
1	 1.492672471147086e+000	 1.041312580175275e+000	-2.389705728038050e+000
1	 1.481164059668261e+000	 1.057618080383677e+000	-2.511489123498207e+000
1	 1.593335108546665e+000	 8.933082003509443e-001	-1.393399222385666e+000
1	 1.583551274913682e+000	 9.105391603229808e-001	-1.479560327064885e+000
1	 1.573566612807418e+000	 9.276875536515454e-001	-1.569660166277846e+000
1	 1.563382073244200e+000	 9.447499383395788e-001	-1.663692124917120e+000
1	 1.552998684685506e+000	 9.617228844251389e-001	-1.761613703636793e+000
1	 1.542417552942276e+000	 9.786029761300081e-001	-1.863346305032066e+000
1	 1.531639861008467e+000	 9.953868140125507e-001	-1.968775081484329e+000
1	 1.520666868823410e+000	 1.012071017122119e+000	-2.077748845659315e+000
1	 1.509499912962644e+000	 1.028652225152283e+000	-2.190080044499591e+000
1	 1.498140406257053e+000	 1.045127100590158e+000	-2.305544797402020e+000
1	 1.486589837340203e+000	 1.061492330859036e+000	-2.423882999116628e+000
1	 1.599150486695066e+000	 8.965686098869936e-001	-1.333463461913089e+000
1	 1.589330943880827e+000	 9.138624596728466e-001	-1.417682951978303e+000
1	 1.579309839606564e+000	 9.310734414622793e-001	-1.505607984591952e+000
1	 1.569088128359639e+000	 9.481981006955713e-001	-1.597243109847183e+000
1	 1.558666842355217e+000	 9.652329948920450e-001	-1.692557942075744e+000
1	 1.548047091440238e+000	 9.821746958065160e-001	-1.791486935869869e+000
1	 1.537230062926369e+000	 9.990197915900062e-001	-1.893929222069547e+000
1	 1.526217021351479e+000	 1.015764888952013e+000	-1.999748504708181e+000
1	 1.515009308169359e+000	 1.032406615321604e+000	-2.108773019767506e+000
1	 1.503608341367459e+000	 1.048941621004579e+000	-2.220795556446656e+000
1	 1.492015615012579e+000	 1.065366581333928e+000	-2.335573541499726e+000
1	 1.604965864843464e+000	 8.998290194229611e-001	-1.274072272811310e+000
1	 1.595110612848018e+000	 9.171857590226028e-001	-1.356191799078545e+000
1	 1.585053066405808e+000	 9.344593292728730e-001	-1.441791381481291e+000
1	 1.574794183475222e+000	 9.516462630513911e-001	-1.530885705023215e+000
1	 1.564335000025114e+000	 9.687431053587454e-001	-1.623455513691873e+000
1	 1.553676629938429e+000	 9.857464154827855e-001	-1.719447377966262e+000
1	 1.542820264844534e+000	 1.002652769167193e+000	-1.818773520514598e+000
1	 1.531767173879839e+000	 1.019458760781614e+000	-1.921311701076553e+000
1	 1.520518703376387e+000	 1.036161005490611e+000	-2.026905161386984e+000
1	 1.509076276478193e+000	 1.052756141418672e+000	-2.135362630856144e+000
1	 1.497441392685288e+000	 1.069240831808488e+000	-2.246458393575942e+000
1	 1.610781242991693e+000	 9.030894289590298e-001	-1.215211531517705e+000
1	 1.600890281815093e+000	 9.205090583724286e-001	-1.295062341185651e+000
1	 1.590796293204986e+000	 9.378452170834997e-001	-1.378175794016360e+000
1	 1.580500238590789e+000	 9.550944254072040e-001	-1.464575686268010e+000
1	 1.570003157695046e+000	 9.722532158253989e-001	-1.554252913876336e+000
1	 1.559306168436700e+000	 9.893181351589695e-001	-1.647165233082439e+000
1	 1.548410466762822e+000	 1.006285746744259e+000	-1.743237077400650e+000
1	 1.537317326408363e+000	 1.023152632611062e+000	-1.842359431918508e+000
1	 1.526028098583609e+000	 1.039915395659440e+000	-1.944389765787834e+000
1	 1.514544211589143e+000	 1.056570661832571e+000	-2.049152023628627e+000
1	 1.502867170358230e+000	 1.073115082282848e+000	-2.156436676426609e+000
1	 1.616596621139586e+000	 9.063498384953834e-001	-1.156867317696301e+000
1	 1.606669950781882e+000	 9.238323577225011e-001	-1.234270404046023e+000
1	 1.596539520003932e+000	 9.412311048943297e-001	-1.314727156600305e+000
1	 1.586206293706182e+000	 9.585425877631757e-001	-1.398269465754549e+000
1	 1.575671315364859e+000	 9.757633262921642e-001	-1.484897407908447e+000
1	 1.564935706934906e+000	 9.928898548352201e-001	-1.574579000839861e+000
1	 1.554000668681096e+000	 1.009918724321349e+000	-1.667250013494204e+000
1	 1.542867478936918e+000	 1.026846504440499e+000	-1.762813831175238e+000
1	 1.531537493790904e+000	 1.043669785828230e+000	-1.861141376994296e+000
1	 1.520012146700202e+000	 1.060385182246412e+000	-1.962071090303112e+000
1	 1.508292948031304e+000	 1.076989332757142e+000	-2.065408962699224e+000
1	 1.622411999286977e+000	 9.096102480322056e-001	-1.099025910595617e+000
1	 1.612449619748222e+000	 9.271556570729985e-001	-1.173792160007220e+000
1	 1.602282746802487e+000	 9.446169927055366e-001	-1.251411892055752e+000
1	 1.591912348821241e+000	 9.619907501194712e-001	-1.331924080601347e+000
1	 1.581339473034401e+000	 9.792734367592008e-001	-1.415337017157633e+000
1	 1.570565245432902e+000	 9.964615745116900e-001	-1.501628062628742e+000
1	 1.559590870599219e+000	 1.013551701898611e+000	-1.590743451463366e+000
1	 1.548417631465376e+000	 1.030540376270066e+000	-1.682598149201517e+000
1	 1.537046888998153e+000	 1.047424175997116e+000	-1.777075764265399e+000
1	 1.525480081811258e+000	 1.064199702660327e+000	-1.874028514719377e+000
1	 1.513718725704411e+000	 1.080863583231503e+000	-1.973277250592437e+000
1	 1.628227377433699e+000	 9.128706575696799e-001	-1.041673785484486e+000
1	 1.618229288713946e+000	 9.304789564240998e-001	-1.113604121828441e+000
1	 1.608025973600485e+000	 9.480028805172917e-001	-1.188196902902589e+000
1	 1.597618403935810e+000	 9.654389124762559e-001	-1.265497181712168e+000
1	 1.587007630703517e+000	 9.827835472266669e-001	-1.345520505581254e+000
1	 1.576194783930540e+000	 1.000033294188532e+000	-1.428252665861463e+000
1	 1.565181072517051e+000	 1.017184679476191e+000	-1.513649497985864e+000
1	 1.553967783993609e+000	 1.034234248099903e+000	-1.601636732828854e+000
1	 1.542556284205236e+000	 1.051178566166237e+000	-1.692109900214951e+000
1	 1.530948016922200e+000	 1.068014223074453e+000	-1.784934285296977e+000
1	 1.519144503377449e+000	 1.084737833706065e+000	-1.879944938398597e+000
1	 1.464886726656035e+000	 1.045995328953468e+000	-2.771133815106527e+000
1	 1.453318055313266e+000	 1.062010356654672e+000	-2.909557146630065e+000
1	 1.441564264409459e+000	 1.077910891461337e+000	-3.058353996318370e+000
1	 1.429627039115891e+000	 1.093693753231475e+000	-3.216936258619552e+000
1	 1.417508136850242e+000	 1.109355794658154e+000	-3.384675019598085e+000
1	 1.405209386483143e+000	 1.124893903309127e+000	-3.560901238750686e+000
1	 1.392732687476031e+000	 1.140305003643589e+000	-3.744906502877833e+000
1	 1.380080008951025e+000	 1.155586059003373e+000	-3.935943850937943e+000
1	 1.367253388693743e+000	 1.170734073575915e+000	-4.133228668626900e+000
1	 1.354254932090051e+000	 1.185746094326380e+000	-4.335939651244440e+000
1	 1.341086810997859e+000	 1.200619212896339e+000	-4.543219833230451e+000
1	 1.470312504326076e+000	 1.049869579431027e+000	-2.685008355247630e+000
1	 1.458700983910129e+000	 1.065943925015255e+000	-2.820171734832492e+000
1	 1.446903658270865e+000	 1.081903353635911e+000	-2.965534896353940e+000
1	 1.434922218821242e+000	 1.097744673372132e+000	-3.120441371870601e+000
1	 1.422758429488212e+000	 1.113464725259729e+000	-3.284189351814042e+000
1	 1.410414125916335e+000	 1.129060385338371e+000	-3.456032477697710e+000
1	 1.397891214602434e+000	 1.144528566675812e+000	-3.635180715756074e+000
1	 1.385191671962032e+000	 1.159866221366456e+000	-3.820801310239536e+000
1	 1.372317543328472e+000	 1.175070342501603e+000	-4.012019814883709e+000
1	 1.359270941885729e+000	 1.190137966108723e+000	-4.207921200866875e+000
1	 1.346054047536028e+000	 1.205066173057170e+000	-4.407551039368172e+000
1	 1.475738281996851e+000	 1.053743829907719e+000	-2.598495777042229e+000
1	 1.464083912507682e+000	 1.069877493374972e+000	-2.730286892494139e+000
1	 1.452243052132907e+000	 1.085895815809623e+000	-2.872071777766495e+000
1	 1.440217398527168e+000	 1.101795593511933e+000	-3.023132184267838e+000
1	 1.428008722126688e+000	 1.117573655860459e+000	-3.182700453532206e+000
1	 1.415618865349959e+000	 1.133226867366784e+000	-3.349960411342477e+000
1	 1.403049741729191e+000	 1.148752129707221e+000	-3.524048350782250e+000
1	 1.390303334973312e+000	 1.164146383728749e+000	-3.704054102757182e+000
1	 1.377381697963391e+000	 1.179406611426530e+000	-3.889022192298060e+000
1	 1.364286951681511e+000	 1.194529837890341e+000	-4.077953078732780e+000
1	 1.351021284074214e+000	 1.209513133217318e+000	-4.269804477593366e+000
1	 1.481164059668261e+000	 1.057618080383677e+000	-2.511489123498207e+000
1	 1.469466841105835e+000	 1.073811061733959e+000	-2.639790383120376e+000
1	 1.457582445995505e+000	 1.089888277982609e+000	-2.777850674581633e+000
1	 1.445512578233598e+000	 1.105846513651019e+000	-2.924896480175184e+000
1	 1.433259014765612e+000	 1.121682586460487e+000	-3.080101265498934e+000
1	 1.420823604783968e+000	 1.137393349394514e+000	-3.242586465573834e+000
1	 1.408208268856266e+000	 1.152975692737969e+000	-3.411422567017726e+000
1	 1.395414997984840e+000	 1.168426546090407e+000	-3.585630284647301e+000
1	 1.382445852598486e+000	 1.183742880350852e+000	-3.764181830633182e+000
1	 1.369302961477398e+000	 1.198921709671388e+000	-3.946002274089290e+000
1	 1.355988520612435e+000	 1.213960093376932e+000	-4.129970988737624e+000
1	 1.486589837340203e+000	 1.061492330859036e+000	-2.423882999116629e+000
1	 1.474849769704496e+000	 1.077744630092348e+000	-2.548571608786720e+000
1	 1.462921839858580e+000	 1.093880740155007e+000	-2.682759284644311e+000
1	 1.450807757940463e+000	 1.109897433789529e+000	-2.825623682222225e+000
1	 1.438509307404924e+000	 1.125791517059957e+000	-2.976286291446905e+000
1	 1.426028344218313e+000	 1.141559831421708e+000	-3.133813505390289e+000
1	 1.413366795983623e+000	 1.157199255768207e+000	-3.297217791337812e+000
1	 1.400526660996592e+000	 1.172706708451582e+000	-3.465458962393671e+000
1	 1.387510007233746e+000	 1.188079149274723e+000	-3.637445547578698e+000
1	 1.374318971273393e+000	 1.203313581452015e+000	-3.812036258116830e+000
1	 1.360955757150707e+000	 1.218407053536164e+000	-3.988041547350381e+000
1	 1.492015615012579e+000	 1.065366581333928e+000	-2.335573541499726e+000
1	 1.480232698303576e+000	 1.081678198450274e+000	-2.456521580345175e+000
1	 1.468261233722049e+000	 1.097873202326953e+000	-2.586686939366089e+000
1	 1.456102937647694e+000	 1.113948353927604e+000	-2.725204821516194e+000
1	 1.443759600044565e+000	 1.129900447659014e+000	-2.871151569675918e+000
1	 1.431233083652948e+000	 1.145726313448514e+000	-3.023545808733045e+000
1	 1.418525323111224e+000	 1.161422818798085e+000	-3.181349695379691e+000
1	 1.405638324008543e+000	 1.176986870812430e+000	-3.343470273710048e+000
1	 1.392574161869159e+000	 1.192415418198297e+000	-3.508760934423727e+000
1	 1.379334981069496e+000	 1.207705453232379e+000	-3.676022975166240e+000
1	 1.365922993689046e+000	 1.222854013695160e+000	-3.844007259267490e+000
1	 1.497441392685288e+000	 1.069240831808488e+000	-2.246458393575942e+000
1	 1.485615626902984e+000	 1.085611766807872e+000	-2.363532888278376e+000
1	 1.473600627585834e+000	 1.101865664498583e+000	-2.489524574130072e+000
1	 1.461398117355220e+000	 1.117999274065383e+000	-2.623532508501524e+000
1	 1.449009892684477e+000	 1.134009378257801e+000	-2.764594645251390e+000
1	 1.436437823087822e+000	 1.149892795475079e+000	-2.911689040888073e+000
1	 1.423683850239033e+000	 1.165646381827755e+000	-3.063735172991170e+000
1	 1.410749987020669e+000	 1.181267033173103e+000	-3.219595368857126e+000
1	 1.397638316504716e+000	 1.196751687121729e+000	-3.378076342041852e+000
1	 1.384350990865711e+000	 1.212097325012632e+000	-3.537930834186573e+000
1	 1.370890230227468e+000	 1.227300973854073e+000	-3.697859359232756e+000
1	 1.502867170358230e+000	 1.073115082282848e+000	-2.156436676426609e+000
1	 1.490998555502631e+000	 1.089545335165276e+000	-2.269499674184975e+000
1	 1.478940021449855e+000	 1.105858126670033e+000	-2.391164699336900e+000
1	 1.466693297062972e+000	 1.122050194203007e+000	-2.520500904450341e+000
1	 1.454260185324599e+000	 1.138118308856462e+000	-2.656514542805059e+000
1	 1.441642562522888e+000	 1.154059277501552e+000	-2.798150229442529e+000
1	 1.428842377367014e+000	 1.169869944857368e+000	-2.944292318168085e+000
1	 1.415861650032945e+000	 1.185547195533754e+000	-3.093766392365010e+000
1	 1.402702471140401e+000	 1.201087956045174e+000	-3.245340867179469e+000
1	 1.389367000662038e+000	 1.216489196792927e+000	-3.397728700338121e+000
1	 1.375857466765991e+000	 1.231747934013053e+000	-3.549589208570929e+000
1	 1.508292948031304e+000	 1.076989332757142e+000	-2.065408962699224e+000
1	 1.496381484102426e+000	 1.093478903522620e+000	-2.174317602880529e+000
1	 1.484279415314031e+000	 1.109850588841442e+000	-2.291501372075863e+000
1	 1.471988476770880e+000	 1.126101114340615e+000	-2.416005693568823e+000
1	 1.459510477964873e+000	 1.142227239455141e+000	-2.546811739922837e+000
1	 1.446847301958099e+000	 1.158225759528081e+000	-2.682837739781697e+000
1	 1.434000904495130e+000	 1.174093507887076e+000	-2.822940403467802e+000
1	 1.420973313045347e+000	 1.189827357894538e+000	-2.965916465149485e+000
1	 1.407766625776206e+000	 1.205424224968786e+000	-3.110504339040163e+000
1	 1.394383010458481e+000	 1.220881068573418e+000	-3.255385886787046e+000
1	 1.380824703304630e+000	 1.236194894172249e+000	-3.399188292910958e+000
1	 1.513718725704411e+000	 1.080863583231503e+000	-1.973277250592437e+000
1	 1.501764412702279e+000	 1.097412471880037e+000	-2.077883835098361e+000
1	 1.489618809178282e+000	 1.113843051012946e+000	-2.190430168404968e+000
1	 1.477283656478874e+000	 1.130152034478348e+000	-2.309944055702915e+000
1	 1.464760770605238e+000	 1.146336170053981e+000	-2.435388141104943e+000
1	 1.452052041393405e+000	 1.162392241554813e+000	-2.565661251113054e+000
1	 1.439159431623343e+000	 1.178317070917030e+000	-2.699599858887094e+000
1	 1.426084976057850e+000	 1.194107520255609e+000	-2.835979667013449e+000
1	 1.412830780412118e+000	 1.209760493892720e+000	-2.973517306157709e+000
1	 1.399399020255041e+000	 1.225272940354258e+000	-3.110872146676141e+000
1	 1.385791939843404e+000	 1.240641854331811e+000	-3.246648219958265e+000
1	 1.519144503377449e+000	 1.084737833706065e+000	-1.879944938398597e+000
1	 1.507147341302099e+000	 1.101346040237664e+000	-1.980097000775526e+000
1	 1.494958203042528e+000	 1.117835513184680e+000	-2.087848156225332e+000
1	 1.482578836186885e+000	 1.134202954616346e+000	-2.202214639629367e+000
1	 1.470011063245638e+000	 1.150445100653127e+000	-2.322147052284016e+000
1	 1.457256780828759e+000	 1.166558723581895e+000	-2.446531733003885e+000
1	 1.444317958751618e+000	 1.182540633947380e+000	-2.574192251192588e+000
1	 1.431196639070430e+000	 1.198387682617118e+000	-2.703891019522994e+000
1	 1.417894935048125e+000	 1.214096762817131e+000	-2.834331023550084e+000
1	 1.404415030051720e+000	 1.229664812135602e+000	-2.964157665267670e+000
1	 1.390759176382327e+000	 1.245088814491888e+000	-3.091960717314569e+000
1	 1.341086810997859e+000	 1.200619212896339e+000	-4.543219833230451e+000
1	 1.327753275425902e+000	 1.215348368834772e+000	-4.742735818920855e+000
1	 1.314254664028600e+000	 1.229932992248813e+000	-4.923789707838136e+000
1	 1.300593340761641e+000	 1.244370322232309e+000	-5.087900029291400e+000
1	 1.286771730854787e+000	 1.258657649759996e+000	-5.236640042087934e+000
1	 1.272792319379371e+000	 1.272792319379371e+000	-5.371635208917423e+000
1	 1.258657649759996e+000	 1.286771730854787e+000	-5.494560579024560e+000
1	 1.244370322232309e+000	 1.300593340761641e+000	-5.607138084549604e+000
1	 1.229932992248813e+000	 1.314254664028600e+000	-5.711133756134825e+000
1	 1.215348368834772e+000	 1.327753275425902e+000	-5.808354863598178e+000
1	 1.200619212896339e+000	 1.341086810997858e+000	-5.900646987659039e+000
1	 1.346054047536028e+000	 1.205066173057170e+000	-4.407551039368171e+000
1	 1.332671126029660e+000	 1.219849884152589e+000	-4.598821797730604e+000
1	 1.319122517275394e+000	 1.234488527391286e+000	-4.771405766536652e+000
1	 1.305410593984761e+000	 1.248979331641002e+000	-4.926914526367022e+000
1	 1.291537790370323e+000	 1.263319577842530e+000	-5.067018349879435e+000
1	 1.277506600707852e+000	 1.277506600707852e+000	-5.193443482376381e+000
1	 1.263319577842531e+000	 1.291537790370323e+000	-5.307969323543399e+000
1	 1.248979331641001e+000	 1.305410593984762e+000	-5.412425516167688e+000
1	 1.234488527391285e+000	 1.319122517275394e+000	-5.508688947884671e+000
1	 1.219849884152589e+000	 1.332671126029660e+000	-5.598680672217877e+000
1	 1.205066173057171e+000	 1.346054047536028e+000	-5.684362755377099e+000
1	 1.351021284074214e+000	 1.209513133217318e+000	-4.269804477593366e+000
1	 1.337588976633350e+000	 1.224351399469772e+000	-4.452768331175339e+000
1	 1.323990370522037e+000	 1.239044062533178e+000	-4.616907511246648e+000
1	 1.310227847207651e+000	 1.253588341049174e+000	-4.763916448660475e+000
1	 1.296303849885549e+000	 1.267981505924611e+000	-4.895551826840302e+000
1	 1.282220882035950e+000	 1.282220882035950e+000	-5.013629687486091e+000
1	 1.267981505924611e+000	 1.296303849885550e+000	-5.120022431027102e+000
1	 1.253588341049174e+000	 1.310227847207652e+000	-5.216655718021530e+000
1	 1.239044062533178e+000	 1.323990370522037e+000	-5.305505277956559e+000
1	 1.224351399469772e+000	 1.337588976633350e+000	-5.388593632133788e+000
1	 1.209513133217318e+000	 1.351021284074214e+000	-5.467986737539301e+000
1	 1.355988520612435e+000	 1.213960093376932e+000	-4.129970988737624e+000
1	 1.342506827237006e+000	 1.228852914786463e+000	-4.304589908552956e+000
1	 1.328858223768578e+000	 1.243599597674624e+000	-4.460329932545290e+000
1	 1.315045100430375e+000	 1.258197350456951e+000	-4.598958262386965e+000
1	 1.301069909400549e+000	 1.272643434006347e+000	-4.722307513658166e+000
1	 1.286935163363761e+000	 1.286935163363761e+000	-4.832272665521823e+000
1	 1.272643434006347e+000	 1.301069909400548e+000	-4.930807899412438e+000
1	 1.258197350456951e+000	 1.315045100430375e+000	-5.019923333288315e+000
1	 1.243599597674625e+000	 1.328858223768578e+000	-5.101681658262748e+000
1	 1.228852914786463e+000	 1.342506827237006e+000	-5.178194684676533e+000
1	 1.213960093376932e+000	 1.355988520612435e+000	-5.251619804897592e+000
1	 1.360955757150707e+000	 1.218407053536164e+000	-3.988041547350382e+000
1	 1.347424677840658e+000	 1.233354430102806e+000	-4.154300807628983e+000
1	 1.333726077015066e+000	 1.248155132815760e+000	-4.301707510173746e+000
1	 1.319862353652996e+000	 1.262806359864455e+000	-4.432091667794290e+000
1	 1.305835968915399e+000	 1.277305362087850e+000	-4.547351472276543e+000
1	 1.291649444691380e+000	 1.291649444691380e+000	-4.649450106734703e+000
1	 1.277305362087850e+000	 1.305835968915399e+000	-4.740412441931668e+000
1	 1.262806359864454e+000	 1.319862353652996e+000	-4.822321623424952e+000
1	 1.248155132815760e+000	 1.333726077015067e+000	-4.897315556674717e+000
1	 1.233354430102806e+000	 1.347424677840658e+000	-4.967583297507687e+000
1	 1.218407053536164e+000	 1.360955757150707e+000	-5.035361355565111e+000
1	 1.365922993689046e+000	 1.222854013695160e+000	-3.844007259267490e+000
1	 1.352342528444339e+000	 1.237855945418944e+000	-4.001915098482861e+000
1	 1.338593930261548e+000	 1.252710667956719e+000	-4.141074222325758e+000
1	 1.324679606875580e+000	 1.267415369271808e+000	-4.263367613090329e+000
1	 1.310602028430182e+000	 1.281967290169231e+000	-4.370748803691224e+000
1	 1.296363726018903e+000	 1.296363726018903e+000	-4.465238571280700e+000
1	 1.281967290169231e+000	 1.310602028430182e+000	-4.548921510471682e+000
1	 1.267415369271808e+000	 1.324679606875580e+000	-4.623942493291336e+000
1	 1.252710667956719e+000	 1.338593930261548e+000	-4.692503023279700e+000
1	 1.237855945418944e+000	 1.352342528444340e+000	-4.756857491415168e+000
1	 1.222854013695160e+000	 1.365922993689046e+000	-4.819309341792883e+000
1	 1.370890230227468e+000	 1.227300973854073e+000	-3.697859359232755e+000
1	 1.357260379048082e+000	 1.242357460735021e+000	-3.847446647270447e+000
1	 1.343461783508072e+000	 1.257266203097635e+000	-3.978463554733789e+000
1	 1.329496860098190e+000	 1.272024378679135e+000	-4.092836308067349e+000
1	 1.315368087944978e+000	 1.286629218250599e+000	-4.192563665359441e+000
1	 1.301078007346426e+000	 1.301078007346426e+000	-4.279713509694186e+000
1	 1.286629218250599e+000	 1.315368087944978e+000	-4.356419318425836e+000
1	 1.272024378679135e+000	 1.329496860098190e+000	-4.424876515727764e+000
1	 1.257266203097635e+000	 1.343461783508072e+000	-4.487338716066296e+000
1	 1.242357460735021e+000	 1.357260379048082e+000	-4.546113866526020e+000
1	 1.227300973854073e+000	 1.370890230227468e+000	-4.603560296164191e+000
1	 1.375857466765991e+000	 1.231747934013053e+000	-3.549589208570929e+000
1	 1.362178229651917e+000	 1.246858976051181e+000	-3.690909119905270e+000
1	 1.348329636754686e+000	 1.261821738238644e+000	-3.813908509559010e+000
1	 1.334314113320891e+000	 1.276633388086560e+000	-3.920547237431624e+000
1	 1.320134147459867e+000	 1.291291146332064e+000	-4.012859288232178e+000
1	 1.305792288674046e+000	 1.305792288674046e+000	-4.092949282918282e+000
1	 1.291291146332064e+000	 1.320134147459867e+000	-4.162988863050363e+000
1	 1.276633388086560e+000	 1.334314113320891e+000	-4.225212955599495e+000
1	 1.261821738238644e+000	 1.348329636754686e+000	-4.281915926053928e+000
1	 1.246858976051181e+000	 1.362178229651917e+000	-4.335447627951208e+000
1	 1.231747934013053e+000	 1.375857466765991e+000	-4.388209357221690e+000
1	 1.380824703304630e+000	 1.236194894172249e+000	-3.399188292910958e+000
1	 1.367096080255878e+000	 1.251360491367567e+000	-3.532315985659981e+000
1	 1.353197490001439e+000	 1.266377273379880e+000	-3.647441614088661e+000
1	 1.339131366543747e+000	 1.281242397494204e+000	-3.746549173845189e+000
1	 1.324900206974929e+000	 1.295953074413737e+000	-3.831697993418675e+000
1	 1.310506570001856e+000	 1.310506570001856e+000	-3.905019181902623e+000
1	 1.295953074413737e+000	 1.324900206974929e+000	-3.968711947338377e+000
1	 1.281242397494204e+000	 1.339131366543747e+000	-4.025039793323011e+000
1	 1.266377273379879e+000	 1.353197490001439e+000	-4.076326601879948e+000
1	 1.251360491367567e+000	 1.367096080255878e+000	-4.124952610877183e+000
1	 1.236194894172249e+000	 1.380824703304631e+000	-4.173350294541261e+000
1	 1.385791939843404e+000	 1.240641854331811e+000	-3.246648219958265e+000
1	 1.372013930859996e+000	 1.255862006684323e+000	-3.371680520690743e+000
1	 1.358065343248378e+000	 1.270932808521476e+000	-3.479094929246966e+000
1	 1.343948619766823e+000	 1.285851406902192e+000	-3.570890190686934e+000
1	 1.329666266490246e+000	 1.300615002495729e+000	-3.649141208492599e+000
1	 1.315220851329954e+000	 1.315220851329954e+000	-3.715995446780005e+000
1	 1.300615002495729e+000	 1.329666266490246e+000	-3.773669201423611e+000
1	 1.285851406902192e+000	 1.343948619766822e+000	-3.824443747885494e+000
1	 1.270932808521476e+000	 1.358065343248378e+000	-3.870661373857519e+000
1	 1.255862006684323e+000	 1.372013930859996e+000	-3.914721305117690e+000
1	 1.240641854331811e+000	 1.385791939843404e+000	-3.959075533266715e+000
1	 1.390759176382327e+000	 1.245088814491888e+000	-3.091960717314569e+000
1	 1.376931781464302e+000	 1.260363522001592e+000	-3.209015811485736e+000
1	 1.362933196495552e+000	 1.275488343663569e+000	-3.308900057923427e+000
1	 1.348765872990182e+000	 1.290460416310646e+000	-3.393617674540508e+000
1	 1.334432326005897e+000	 1.305276930578148e+000	-3.465249483448849e+000
1	 1.319935132658436e+000	 1.319935132658435e+000	-3.525949285631585e+000
1	 1.305276930578149e+000	 1.334432326005897e+000	-3.577940103525205e+000
1	 1.290460416310646e+000	 1.348765872990182e+000	-3.623510299371762e+000
1	 1.275488343663570e+000	 1.362933196495552e+000	-3.665009577518529e+000
1	 1.260363522001592e+000	 1.376931781464302e+000	-3.704844879139453e+000
1	 1.245088814491889e+000	 1.390759176382327e+000	-3.745476178118547e+000
1	 1.200619212896339e+000	 1.341086810997858e+000	-5.900646987659039e+000
1	 1.185746094326380e+000	 1.354254932090050e+000	-5.986384272916960e+000
1	 1.170734073575915e+000	 1.367253388693742e+000	-6.064002880565745e+000
1	 1.155586059003373e+000	 1.380080008951025e+000	-6.135545560876215e+000
1	 1.140305003643589e+000	 1.392732687476031e+000	-6.203100966867023e+000
1	 1.124893903309127e+000	 1.405209386483143e+000	-6.268800154640612e+000
1	 1.109355794658154e+000	 1.417508136850241e+000	-6.334813022273888e+000
1	 1.093693753231475e+000	 1.429627039115892e+000	-6.403344694898141e+000
1	 1.077910891461337e+000	 1.441564264409459e+000	-6.476631863698676e+000
1	 1.062010356654672e+000	 1.453318055313266e+000	-6.556939086637880e+000
1	 1.045995328953468e+000	 1.464886726656035e+000	-6.646555058752815e+000
1	 1.205066173057171e+000	 1.346054047536028e+000	-5.684362755377099e+000
1	 1.190137966108723e+000	 1.359270941885729e+000	-5.764251707899115e+000
1	 1.175070342501603e+000	 1.372317543328472e+000	-5.836796188511939e+000
1	 1.159866221366456e+000	 1.385191671962032e+000	-5.903958795798530e+000
1	 1.144528566675812e+000	 1.397891214602435e+000	-5.967746933182168e+000
1	 1.129060385338371e+000	 1.410414125916335e+000	-6.030209447617194e+000
1	 1.113464725259729e+000	 1.422758429488212e+000	-6.093433207817481e+000
1	 1.097744673372132e+000	 1.434922218821242e+000	-6.159539629363281e+000
1	 1.081903353635911e+000	 1.446903658270865e+000	-6.230681154122976e+000
1	 1.065943925015255e+000	 1.458700983910129e+000	-6.309037691499476e+000
1	 1.049869579431026e+000	 1.470312504326076e+000	-6.396813029062509e+000
1	 1.209513133217318e+000	 1.351021284074214e+000	-5.467986737539301e+000
1	 1.194529837890342e+000	 1.364286951681511e+000	-5.542318927164785e+000
1	 1.179406611426530e+000	 1.377381697963390e+000	-5.610036102529670e+000
1	 1.164146383728749e+000	 1.390303334973312e+000	-5.673021988605952e+000
1	 1.148752129707221e+000	 1.403049741729192e+000	-5.733204007768096e+000
1	 1.133226867366785e+000	 1.415618865349959e+000	-5.792550055172752e+000
1	 1.117573655860459e+000	 1.428008722126688e+000	-5.853065214699425e+000
1	 1.101795593511933e+000	 1.440217398527168e+000	-5.916788422502574e+000
1	 1.085895815809623e+000	 1.452243052132907e+000	-5.985789085319979e+000
1	 1.069877493374973e+000	 1.464083912507682e+000	-6.062163660757161e+000
1	 1.053743829907719e+000	 1.475738281996851e+000	-6.148032206819158e+000
1	 1.213960093376932e+000	 1.355988520612435e+000	-5.251619804897592e+000
1	 1.198921709671387e+000	 1.369302961477398e+000	-5.320685716042081e+000
1	 1.183742880350852e+000	 1.382445852598486e+000	-5.383821289338622e+000
1	 1.168426546090406e+000	 1.395414997984840e+000	-5.442832639431905e+000
1	 1.152975692737969e+000	 1.408208268856267e+000	-5.499568461540389e+000
1	 1.137393349394514e+000	 1.420823604783969e+000	-5.555916941873059e+000
1	 1.121682586460487e+000	 1.433259014765612e+000	-5.613802609671454e+000
1	 1.105846513651019e+000	 1.445512578233598e+000	-5.675183137638991e+000
1	 1.089888277982609e+000	 1.457582445995505e+000	-5.742046097614478e+000
1	 1.073811061733959e+000	 1.469466841105835e+000	-5.816405678421597e+000
1	 1.057618080383677e+000	 1.481164059668260e+000	-5.900299372879308e+000
1	 1.218407053536164e+000	 1.360955757150707e+000	-5.035361355565112e+000
1	 1.203313581452016e+000	 1.374318971273392e+000	-5.099450403066680e+000
1	 1.188079149274723e+000	 1.387510007233746e+000	-5.158248975196963e+000
1	 1.172706708451582e+000	 1.400526660996592e+000	-5.213486824979587e+000
1	 1.157199255768207e+000	 1.413366795983623e+000	-5.266935159929838e+000
1	 1.141559831421708e+000	 1.426028344218314e+000	-5.320403685870811e+000
1	 1.125791517059957e+000	 1.438509307404925e+000	-5.375737593479313e+000
1	 1.109897433789529e+000	 1.450807757940463e+000	-5.434814494038619e+000
1	 1.093880740155007e+000	 1.462921839858580e+000	-5.499541310968914e+000
1	 1.077744630092348e+000	 1.474849769704496e+000	-5.571851133782111e+000
1	 1.061492330859036e+000	 1.486589837340203e+000	-5.653700041162728e+000
1	 1.222854013695160e+000	 1.365922993689046e+000	-4.819309341792882e+000
1	 1.207705453232379e+000	 1.379334981069496e+000	-4.878709886470379e+000
1	 1.192415418198296e+000	 1.392574161869159e+000	-4.933414972092582e+000
1	 1.176986870812430e+000	 1.405638324008543e+000	-4.985079224403541e+000
1	 1.161422818798085e+000	 1.418525323111225e+000	-5.035397588438225e+000
1	 1.145726313448514e+000	 1.431233083652948e+000	-5.086102504114598e+000
1	 1.129900447659014e+000	 1.443759600044566e+000	-5.138961025700597e+000
1	 1.113948353927604e+000	 1.456102937647694e+000	-5.195771891349244e+000
1	 1.097873202326952e+000	 1.468261233722049e+000	-5.258362548991125e+000
1	 1.081678198450274e+000	 1.480232698303576e+000	-5.328586144948242e+000
1	 1.065366581333929e+000	 1.492015615012579e+000	-5.408318481688669e+000
1	 1.227300973854073e+000	 1.370890230227468e+000	-4.603560296164190e+000
1	 1.212097325012632e+000	 1.384350990865711e+000	-4.658559660093549e+000
1	 1.196751687121729e+000	 1.397638316504715e+000	-4.709413703365502e+000
1	 1.181267033173102e+000	 1.410749987020669e+000	-4.757703144629038e+000
1	 1.165646381827755e+000	 1.423683850239034e+000	-4.805047877637877e+000
1	 1.149892795475079e+000	 1.436437823087822e+000	-4.853104277009400e+000
1	 1.134009378257801e+000	 1.449009892684477e+000	-4.903562449042380e+000
1	 1.117999274065384e+000	 1.461398117355220e+000	-4.958143433507507e+000
1	 1.101865664498583e+000	 1.473600627585835e+000	-5.018596362420214e+000
1	 1.085611766807872e+000	 1.485615626902985e+000	-5.086695581879262e+000
1	 1.069240831808489e+000	 1.497441392685288e+000	-5.164237743111787e+000
1	 1.231747934013053e+000	 1.375857466765991e+000	-4.388209357221690e+000
1	 1.216489196792927e+000	 1.389367000662038e+000	-4.439093838736394e+000
1	 1.201087956045174e+000	 1.402702471140401e+000	-4.486338228774754e+000
1	 1.185547195533754e+000	 1.415861650032945e+000	-4.531450545122622e+000
1	 1.169869944857368e+000	 1.428842377367014e+000	-4.575976827630504e+000
1	 1.154059277501552e+000	 1.441642562522888e+000	-4.621498572543366e+000
1	 1.138118308856462e+000	 1.454260185324599e+000	-4.669630113112676e+000
1	 1.122050194203007e+000	 1.466693297062972e+000	-4.722015952128594e+000
1	 1.105858126670033e+000	 1.478940021449855e+000	-4.780328052103751e+000
1	 1.089545335165276e+000	 1.490998555502631e+000	-4.846263088915273e+000
1	 1.073115082282848e+000	 1.502867170358230e+000	-4.921539674769083e+000
1	 1.236194894172249e+000	 1.380824703304631e+000	-4.173350294541261e+000
1	 1.220881068573418e+000	 1.394383010458481e+000	-4.220405182963173e+000
1	 1.205424224968787e+000	 1.407766625776206e+000	-4.264280269024506e+000
1	 1.189827357894538e+000	 1.420973313045347e+000	-4.306412062128243e+000
1	 1.174093507887076e+000	 1.434000904495129e+000	-4.348273931977413e+000
1	 1.158225759528081e+000	 1.446847301958099e+000	-4.391373669893272e+000
1	 1.142227239455140e+000	 1.459510477964873e+000	-4.437250997678670e+000
1	 1.126101114340616e+000	 1.471988476770880e+000	-4.487475029390607e+000
1	 1.109850588841442e+000	 1.484279415314031e+000	-4.543641691478757e+000
1	 1.093478903522619e+000	 1.496381484102427e+000	-4.607371106821852e+000
1	 1.076989332757142e+000	 1.508292948031304e+000	-4.680304948251663e+000
1	 1.240641854331811e+000	 1.385791939843404e+000	-3.959075533266715e+000
1	 1.225272940354258e+000	 1.399399020255041e+000	-4.002585123372744e+000
1	 1.209760493892720e+000	 1.412830780412117e+000	-4.043330229762616e+000
1	 1.194107520255608e+000	 1.426084976057850e+000	-4.082677032382169e+000
1	 1.178317070917029e+000	 1.439159431623343e+000	-4.122027401115537e+000
1	 1.162392241554813e+000	 1.452052041393404e+000	-4.162816582522940e+000
1	 1.146336170053981e+000	 1.464760770605239e+000	-4.206510835424960e+000
1	 1.130152034478348e+000	 1.477283656478874e+000	-4.254605020427190e+000
1	 1.113843051012946e+000	 1.489618809178283e+000	-4.308620148569579e+000
1	 1.097412471880037e+000	 1.501764412702279e+000	-4.370100894360319e+000
1	 1.080863583231503e+000	 1.513718725704410e+000	-4.440613078512325e+000
1	 1.245088814491889e+000	 1.390759176382327e+000	-3.745476178118547e+000
1	 1.229664812135602e+000	 1.404415030051719e+000	-3.785723784349149e+000
1	 1.214096762817131e+000	 1.417894935048125e+000	-3.823577225064954e+000
1	 1.198387682617119e+000	 1.431196639070430e+000	-3.860333516319383e+000
1	 1.182540633947380e+000	 1.444317958751618e+000	-3.897324185271355e+000
1	 1.166558723581895e+000	 1.457256780828759e+000	-3.935913080786203e+000
1	 1.150445100653127e+000	 1.470011063245638e+000	-3.977494134223937e+000
1	 1.134202954616346e+000	 1.482578836186884e+000	-4.023489075239970e+000
1	 1.117835513184680e+000	 1.494958203042528e+000	-4.075345107513945e+000
1	 1.101346040237664e+000	 1.507147341302099e+000	-4.134532549396180e+000
1	 1.084737833706065e+000	 1.519144503377448e+000	-4.202542444520658e+000
1	 1.045995328953468e+000	 1.464886726656035e+000	-6.646555058752815e+000
1	 1.029869018926506e+000	 1.476268665820915e+000	-6.750671773784290e+000
1	 1.013634664469111e+000	 1.487462332141325e+000	-6.873926284526214e+000
1	 9.972955297967756e-001	 1.498466258716638e+000	-7.017802060539674e+000
1	 9.808549036971231e-001	 1.509279053342249e+000	-7.183795701714937e+000
1	 9.643160974185489e-001	 1.519899398955622e+000	-7.373414454898768e+000
1	 9.476824425522794e-001	 1.530326054011600e+000	-7.588173725054320e+000
1	 9.309572889105739e-001	 1.540557852787053e+000	-7.829594586149772e+000
1	 9.141440024037704e-001	 1.550593705615053e+000	-8.099201296924765e+000
1	 8.972459629188613e-001	 1.560432599048893e+000	-8.398518826618712e+000
1	 8.802665622022525e-001	 1.570073595956371e+000	-8.729070395668018e+000
1	 1.049869579431026e+000	 1.470312504326076e+000	-6.396813029062509e+000
1	 1.033683539343583e+000	 1.481736600928906e+000	-6.499139915393780e+000
1	 1.017389054641061e+000	 1.492971727345584e+000	-6.620665071103657e+000
1	 1.000989401629258e+000	 1.504016411242247e+000	-6.762891255865617e+000
1	 9.844878812771145e-001	 1.514869255257719e+000	-6.927335567582182e+000
1	 9.678878170975326e-001	 1.525528937451213e+000	-7.115526903561578e+000
1	 9.511925530215970e-001	 1.535994211679030e+000	-7.329003414587378e+000
1	 9.344054512689113e-001	 1.546263907900330e+000	-7.569309957217249e+000
1	 9.175298902167840e-001	 1.556336932412184e+000	-7.837995549600605e+000
1	 9.005692622709460e-001	 1.566212268014191e+000	-8.136610836044142e+000
1	 8.835269717404662e-001	 1.575888974103115e+000	-8.466705565477644e+000
1	 1.053743829907719e+000	 1.475738281996851e+000	-6.148032206819158e+000
1	 1.037498059759795e+000	 1.487204536037667e+000	-6.248473395968203e+000
1	 1.021143444812148e+000	 1.498481122550637e+000	-6.368141927272825e+000
1	 1.004683273460882e+000	 1.509566563768664e+000	-6.508550489428910e+000
1	 9.881208588562515e-001	 1.520459457174004e+000	-6.671227017195239e+000
1	 9.714595367756690e-001	 1.531158475947617e+000	-6.857712116398756e+000
1	 9.547026634900736e-001	 1.541662369347260e+000	-7.069556480551839e+000
1	 9.378536136264148e-001	 1.551969963014387e+000	-7.308318304511601e+000
1	 9.209157780289695e-001	 1.562080159210064e+000	-7.575560700568611e+000
1	 9.038925616222084e-001	 1.571991936980199e+000	-7.872849122293252e+000
1	 8.867873812778638e-001	 1.581704352250523e+000	-8.201748801391117e+000
1	 1.057618080383677e+000	 1.481164059668260e+000	-5.900299372879308e+000
1	 1.041312580175275e+000	 1.492672471147086e+000	-5.998755593148158e+000
1	 1.024897834982510e+000	 1.503990517756364e+000	-6.116434050551090e+000
1	 1.008377145291788e+000	 1.515116716295762e+000	-6.254848104719692e+000
1	 9.917538364346820e-001	 1.526049659090967e+000	-6.415526971408812e+000
1	 9.750312564531100e-001	 1.536788014444687e+000	-6.600013130490482e+000
1	 9.582127739578679e-001	 1.547330527016136e+000	-6.809859724633919e+000
1	 9.413017759832485e-001	 1.557676018129063e+000	-7.046627954153024e+000
1	 9.243016658404996e-001	 1.567823386008530e+000	-7.311884473460945e+000
1	 9.072158609728270e-001	 1.577771605946751e+000	-7.607198794513734e+000
1	 8.900477908146289e-001	 1.587519730398429e+000	-7.934140702548993e+000
1	 1.061492330859036e+000	 1.486589837340203e+000	-5.653700041162728e+000
1	 1.045127100590158e+000	 1.498140406257054e+000	-5.750068667321838e+000
1	 1.028652225152283e+000	 1.509499912962645e+000	-5.865617511428734e+000
1	 1.012071017122118e+000	 1.520666868823410e+000	-6.001851447463418e+000
1	 9.953868140125510e-001	 1.531639861008467e+000	-6.160291520075263e+000
1	 9.786029761300082e-001	 1.542417552942276e+000	-6.342472354607382e+000
1	 9.617228844251389e-001	 1.552998684685507e+000	-6.549939557234913e+000
1	 9.447499383395789e-001	 1.563382073244200e+000	-6.784247110706390e+000
1	 9.276875536515453e-001	 1.573566612807418e+000	-7.046954771135479e+000
1	 9.105391603229807e-001	 1.583551274913682e+000	-7.339625471233539e+000
1	 8.933082003509443e-001	 1.593335108546665e+000	-7.663822735300264e+000
1	 1.065366581333929e+000	 1.492015615012579e+000	-5.408318481688669e+000
1	 1.048941621004579e+000	 1.503608341367459e+000	-5.502493583758309e+000
1	 1.032406615321604e+000	 1.515009308169358e+000	-5.615767273861659e+000
1	 1.015764888952013e+000	 1.526217021351479e+000	-5.749626883762880e+000
1	 9.990197915900062e-001	 1.537230062926369e+000	-5.905575937154034e+000
1	 9.821746958065158e-001	 1.548047091440238e+000	-6.085131580634497e+000
1	 9.652329948920445e-001	 1.558666842355216e+000	-6.289822004585634e+000
1	 9.481981006955714e-001	 1.569088128359639e+000	-6.521183859391422e+000
1	 9.310734414622792e-001	 1.579309839606565e+000	-6.780759672416931e+000
1	 9.138624596728466e-001	 1.589330943880827e+000	-7.070095271099101e+000
1	 8.965686098869936e-001	 1.599150486695066e+000	-7.390737217433994e+000
1	 1.069240831808489e+000	 1.497441392685288e+000	-5.164237743111787e+000
1	 1.052756141418672e+000	 1.509076276478193e+000	-5.256110134259048e+000
1	 1.036161005490611e+000	 1.520518703376387e+000	-5.366957215317934e+000
1	 1.019458760781614e+000	 1.531767173879840e+000	-5.498239817845999e+000
1	 1.002652769167193e+000	 1.542820264844534e+000	-5.651434695493236e+000
1	 9.857464154827852e-001	 1.553676629938429e+000	-5.828031994747616e+000
1	 9.687431053587454e-001	 1.564335000025115e+000	-6.029532715706527e+000
1	 9.516462630513914e-001	 1.574794183475222e+000	-6.257446168244698e+000
1	 9.344593292728730e-001	 1.585053066405808e+000	-6.513287428908778e+000
1	 9.171857590226031e-001	 1.595110612848019e+000	-6.798574803814786e+000
1	 8.998290194229609e-001	 1.604965864843464e+000	-7.114827302753917e+000
1	 1.073115082282848e+000	 1.502867170358230e+000	-4.921539674769083e+000
1	 1.056570661832571e+000	 1.514544211589144e+000	-5.010996958340772e+000
1	 1.039915395659441e+000	 1.526028098583609e+000	-5.119260146390608e+000
1	 1.023152632611062e+000	 1.537317326408362e+000	-5.247754709428796e+000
1	 1.006285746744259e+000	 1.548410466762821e+000	-5.397921481290746e+000
1	 9.893181351589695e-001	 1.559306168436700e+000	-5.571214188346771e+000
1	 9.722532158253990e-001	 1.570003157695046e+000	-5.769096969216570e+000
1	 9.550944254072042e-001	 1.580500238590789e+000	-5.993041890234954e+000
1	 9.378452170834997e-001	 1.590796293204986e+000	-6.244526461874382e+000
1	 9.205090583724285e-001	 1.600890281815093e+000	-6.525031161278351e+000
1	 9.030894289590297e-001	 1.610781242991693e+000	-6.836036965987012e+000
1	 1.076989332757142e+000	 1.508292948031304e+000	-4.680304948251663e+000
1	 1.060385182246412e+000	 1.520012146700202e+000	-4.767231563961054e+000
1	 1.043669785828230e+000	 1.531537493790905e+000	-4.872747829987184e+000
1	 1.026846504440499e+000	 1.542867478936918e+000	-4.998235090704034e+000
1	 1.009918724321349e+000	 1.554000668681096e+000	-5.145089208243320e+000
1	 9.928898548352203e-001	 1.564935706934907e+000	-5.314718168754506e+000
1	 9.757633262921642e-001	 1.575671315364859e+000	-5.508539679995718e+000
1	 9.585425877631757e-001	 1.586206293706181e+000	-5.727978765332563e+000
1	 9.412311048943298e-001	 1.596539520003933e+000	-5.974465359185186e+000
1	 9.238323577225011e-001	 1.606669950781882e+000	-6.249431908907829e+000
1	 9.063498384953833e-001	 1.616596621139586e+000	-6.554310988017857e+000
1	 1.080863583231503e+000	 1.513718725704410e+000	-4.440613078512325e+000
1	 1.064199702660327e+000	 1.525480081811258e+000	-4.524890347797979e+000
1	 1.047424175997117e+000	 1.537046888998154e+000	-4.627491000105892e+000
1	 1.030540376270066e+000	 1.548417631465377e+000	-4.749743582964179e+000
1	 1.013551701898611e+000	 1.559590870599219e+000	-4.892990031391261e+000
1	 9.964615745116900e-001	 1.570565245432902e+000	-5.058583369683505e+000
1	 9.792734367592008e-001	 1.581339473034401e+000	-5.247885405703330e+000
1	 9.619907501194712e-001	 1.591912348821241e+000	-5.462264422534882e+000
1	 9.446169927055365e-001	 1.602282746802487e+000	-5.703092872334947e+000
1	 9.271556570729986e-001	 1.612449619748221e+000	-5.971745077155194e+000
1	 9.096102480322056e-001	 1.622411999286977e+000	-6.269594941440476e+000
1	 1.084737833706065e+000	 1.519144503377448e+000	-4.202542444520658e+000
1	 1.068014223074453e+000	 1.530948016922200e+000	-4.284048615095488e+000
1	 1.051178566166237e+000	 1.542556284205236e+000	-4.383559380210237e+000
1	 1.034234248099904e+000	 1.553967783993609e+000	-4.502341912868266e+000
1	 1.017184679476191e+000	 1.565181072517051e+000	-4.641675360666556e+000
1	 1.000033294188532e+000	 1.576194783930540e+000	-4.802848661480032e+000
1	 9.827835472266669e-001	 1.587007630703517e+000	-4.987158353158016e+000
1	 9.654389124762561e-001	 1.597618403935809e+000	-5.195906381847606e+000
1	 9.480028805172913e-001	 1.608025973600485e+000	-5.430397913517296e+000
1	 9.304789564241000e-001	 1.618229288713945e+000	-5.691939153201373e+000
1	 9.128706575696799e-001	 1.628227377433698e+000	-5.981835176420075e+000
1	 8.802665622022525e-001	 1.570073595956371e+000	-8.729070395668018e+000
1	 8.632117660604605e-001	 1.579514434436757e+000	-9.091852157638813e+000
1	 8.460824421210690e-001	 1.588755792347743e+000	-9.487595599845013e+000
1	 8.288820044598098e-001	 1.597796962967234e+000	-9.917240039856432e+000
1	 8.116138705974474e-001	 1.606637315540310e+000	-1.038168657420236e+001
1	 7.942814594428975e-001	 1.615276295033541e+000	-1.088179724166107e+001
1	 7.768881892555959e-001	 1.623713421824429e+000	-1.141839425513598e+001
1	 7.594374756294086e-001	 1.631948291327146e+000	-1.199225930269263e+001
1	 7.419327295003328e-001	 1.639980573555821e+000	-1.260413291815534e+001
1	 7.243773551801412e-001	 1.647810012626662e+000	-1.325471392149704e+001
1	 7.067747484180751e-001	 1.655436426200365e+000	-1.394465892908683e+001
1	 8.835269717404662e-001	 1.575888974103115e+000	-8.466705565477644e+000
1	 8.664090065285576e-001	 1.585364780400400e+000	-8.829182354864162e+000
1	 8.492162374763993e-001	 1.594640367274438e+000	-9.224716606907915e+000
1	 8.319520913050782e-001	 1.603715025385501e+000	-9.654331880765957e+000
1	 8.146199981934758e-001	 1.612588121642420e+000	-1.011901443334826e+001
1	 7.972233897137646e-001	 1.621259098955965e+000	-1.061971222051392e+001
1	 7.797656967862306e-001	 1.629727475927164e+000	-1.115733396756331e+001
1	 7.622503476557205e-001	 1.637992846471639e+000	-1.173274830991899e+001
1	 7.446807658919559e-001	 1.646054879381276e+000	-1.234678300471440e+001
1	 7.270603684159014e-001	 1.653913317824509e+000	-1.300022421382904e+001
1	 7.093925635542742e-001	 1.661567978786661e+000	-1.369381585873401e+001
1	 8.867873812778638e-001	 1.581704352250523e+000	-8.201748801391119e+000
1	 8.696062469958423e-001	 1.591215126364653e+000	-8.563062995393386e+000
1	 8.523500328309214e-001	 1.600524942201680e+000	-8.957409572129473e+000
1	 8.350221781495452e-001	 1.609633087804250e+000	-9.385892253312443e+000
1	 8.176261257887098e-001	 1.618538927744937e+000	-9.849578607741991e+000
1	 8.001653199838463e-001	 1.627241902878722e+000	-1.034949889337518e+001
1	 7.826432043160947e-001	 1.635741530030153e+000	-1.088664496899042e+001
1	 7.650632196812786e-001	 1.644037401616305e+000	-1.146196927666301e+001
1	 7.474288022828487e-001	 1.652129185206822e+000	-1.207638389608904e+001
1	 7.297433816509610e-001	 1.660016623022366e+000	-1.273075967160587e+001
1	 7.120103786898093e-001	 1.667699531372885e+000	-1.342592541257531e+001
1	 8.900477908146289e-001	 1.587519730398429e+000	-7.934140702548992e+000
1	 8.728034874625038e-001	 1.597065472329349e+000	-8.293409938692022e+000
1	 8.554838281848283e-001	 1.606409517129309e+000	-8.685566990450800e+000
1	 8.380922649934033e-001	 1.615551150223324e+000	-9.111791699544655e+000
1	 8.206322533833427e-001	 1.624489733847713e+000	-9.573229133357266e+000
1	 8.031072502533373e-001	 1.633224706801671e+000	-1.007098827082562e+001
1	 7.855207118453781e-001	 1.641755584133266e+000	-1.060614075781278e+001
1	 7.678760917062713e-001	 1.650081956761025e+000	-1.117971973350923e+001
1	 7.501768386731937e-001	 1.658203491032357e+000	-1.179271872921872e+001
1	 7.324263948854953e-001	 1.666119928220147e+000	-1.244609064069017e+001
1	 7.146281938248470e-001	 1.673831083958972e+000	-1.314074677496656e+001
1	 8.933082003509443e-001	 1.593335108546665e+000	-7.663822735300264e+000
1	 8.760007279287294e-001	 1.602915818294325e+000	-8.020140272615222e+000
1	 8.586176235383102e-001	 1.612294092057161e+000	-8.409082926307075e+000
1	 8.411623518368468e-001	 1.621469212642563e+000	-8.831902651501174e+000
1	 8.236383809775706e-001	 1.630440539950599e+000	-9.289818235531097e+000
1	 8.060491805224308e-001	 1.639207510724670e+000	-9.784013830566336e+000
1	 7.883982193742737e-001	 1.647769638236373e+000	-1.031563755521121e+001
1	 7.706889637308856e-001	 1.656126511905686e+000	-1.088580016694545e+001
1	 7.529248750631739e-001	 1.664277796857779e+000	-1.149557380708256e+001
1	 7.351094081196791e-001	 1.672223233417767e+000	-1.214599081972518e+001
1	 7.172460089595523e-001	 1.679962636544857e+000	-1.283804264599410e+001
1	 8.965686098869936e-001	 1.599150486695066e+000	-7.390737217433994e+000
1	 8.791979683947069e-001	 1.608766164259413e+000	-7.743172291071923e+000
1	 8.617514188915589e-001	 1.618178666985074e+000	-8.127852985089710e+000
1	 8.442324386800686e-001	 1.627387275061812e+000	-8.546099396845603e+000
1	 8.266445085715856e-001	 1.636391346053441e+000	-8.999200289155542e+000
1	 8.089911107913201e-001	 1.645190314647578e+000	-9.488411472559642e+000
1	 7.912757269029727e-001	 1.653783692339343e+000	-1.001495425564411e+001
1	 7.735018357553106e-001	 1.662171067050169e+000	-1.058001396561665e+001
1	 7.556729114529706e-001	 1.670352102682987e+000	-1.118473854113289e+001
1	 7.377924213536878e-001	 1.678326538615143e+000	-1.183023719917170e+001
1	 7.198638240940923e-001	 1.686094189130473e+000	-1.251757917754911e+001
1	 8.998290194229609e-001	 1.604965864843464e+000	-7.114827302753917e+000
1	 8.823952088606245e-001	 1.614616510224449e+000	-7.462425472174711e+000
1	 8.648852142447659e-001	 1.624063241912885e+000	-7.841774285229049e+000
1	 8.473025255232624e-001	 1.633305337480912e+000	-8.254258045248061e+000
1	 8.296506361655831e-001	 1.642342152156092e+000	-8.701231779734151e+000
1	 8.119330410601997e-001	 1.651173118570255e+000	-9.184019475144865e+000
1	 7.941532344316662e-001	 1.659797746442048e+000	-9.703912378415552e+000
1	 7.763147077797333e-001	 1.668215622194357e+000	-1.026216736774683e+001
1	 7.584209478427668e-001	 1.676426408507879e+000	-1.086000539497900e+001
1	 7.404754345876963e-001	 1.684429843812191e+000	-1.149861000167100e+001
1	 7.224816392286320e-001	 1.692225741715756e+000	-1.217912591079153e+001
1	 9.030894289590297e-001	 1.610781242991693e+000	-6.836036965987011e+000
1	 8.855924493266706e-001	 1.620466856189266e+000	-7.177820456863611e+000
1	 8.680190095981221e-001	 1.629947816840433e+000	-7.550745430881879e+000
1	 8.503726123666219e-001	 1.639223399899708e+000	-7.956256495495302e+000
1	 8.326567637597575e-001	 1.648292958258401e+000	-8.395771265282463e+000
1	 8.148749713292621e-001	 1.657155922492560e+000	-8.870678452105709e+000
1	 7.970307419605464e-001	 1.665811800544357e+000	-9.382336020293437e+000
1	 7.791275798043416e-001	 1.674260177338135e+000	-9.932069409699610e+000
1	 7.611689842327447e-001	 1.682500714332355e+000	-1.052116982929066e+001
1	 7.431584478218802e-001	 1.690533149008824e+000	-1.115089262369873e+001
1	 7.250994543633376e-001	 1.698357294300641e+000	-1.182245571496891e+001
1	 9.063498384953833e-001	 1.616596621139586e+000	-6.554310988017857e+000
1	 8.887896897930325e-001	 1.626317202153701e+000	-6.889279027989876e+000
1	 8.711528049518191e-001	 1.635832391767555e+000	-7.254666485208027e+000
1	 8.534426992103396e-001	 1.645141462318039e+000	-7.651974403310571e+000
1	 8.356628913543031e-001	 1.654243764360218e+000	-8.082679339050223e+000
1	 8.178169015987024e-001	 1.663138726414351e+000	-8.548231310662919e+000
1	 7.999082494898043e-001	 1.671825854646140e+000	-9.050051809149174e+000
1	 7.819404518293236e-001	 1.680304732481384e+000	-9.589531875649447e+000
1	 7.639170206230865e-001	 1.688575020156310e+000	-1.016803024789230e+001
1	 7.458414610564141e-001	 1.696636454204960e+000	-1.078687157847896e+001
1	 7.277172694983755e-001	 1.704488846885063e+000	-1.144734472755561e+001
1	 9.096102480322056e-001	 1.622411999286977e+000	-6.269594941440476e+000
1	 8.919869302598991e-001	 1.632167548117587e+000	-6.596724089851570e+000
1	 8.742866003060481e-001	 1.641716966694088e+000	-6.953438944221917e+000
1	 8.565127860546103e-001	 1.651059524735752e+000	-7.341293149865771e+000
1	 8.386690189494137e-001	 1.660194570461393e+000	-7.761818593046294e+000
1	 8.207588318687134e-001	 1.669121530335487e+000	-8.216523210371612e+000
1	 8.027857570196315e-001	 1.677839908747267e+000	-8.706888858595455e+000
1	 7.847533238548664e-001	 1.686349287623988e+000	-9.234369248335227e+000
1	 7.666650570139753e-001	 1.694649325979646e+000	-9.800387945014803e+000
1	 7.485244742914735e-001	 1.702739759400515e+000	-1.040633644012521e+001
1	 7.303350846339108e-001	 1.710620399468956e+000	-1.105357229567926e+001
1	 9.128706575696799e-001	 1.628227377433698e+000	-5.981835176420076e+000
1	 8.951841707274577e-001	 1.638017894080757e+000	-6.300079648165790e+000
1	 8.774203956610007e-001	 1.647601541619870e+000	-6.646965711204684e+000
1	 8.595828728996265e-001	 1.656977587152687e+000	-7.024095810967815e+000
1	 8.416751465452838e-001	 1.666145376561775e+000	-7.433053582344043e+000
1	 8.237007621394887e-001	 1.675104334255827e+000	-7.875401522898608e+000
1	 8.056632645502202e-001	 1.683853962847609e+000	-8.352678723595579e+000
1	 7.875661958811588e-001	 1.692393842765832e+000	-8.866398660868834e+000
1	 7.694130934055927e-001	 1.700723631802261e+000	-9.418047053678709e+000
1	 7.512074875272330e-001	 1.708843064595402e+000	-1.000907978897938e+001
1	 7.329528997701102e-001	 1.716751952052255e+000	-1.064092091880276e+001
1	 7.067747484180751e-001	 1.655436426200365e+000	-1.394465892908683e+001
1	 6.891256442832350e-001	 1.662860803443096e+000	-1.468609404897429e+001
1	 6.714360551276295e-001	 1.670081948955455e+000	-1.548621641165849e+001
1	 6.537093420170530e-001	 1.677099898436262e+000	-1.633852686861708e+001
1	 6.359488499721071e-001	 1.683914758373383e+000	-1.723646847790235e+001
1	 6.181579061972000e-001	 1.690526705208835e+000	-1.817343725804006e+001
1	 6.003398183485179e-001	 1.696935984454056e+000	-1.914279283080555e+001
1	 5.824978728424627e-001	 1.703142909757176e+000	-2.013786893419815e+001
1	 5.646353332059645e-001	 1.709147861924183e+000	-2.115198378764769e+001
1	 5.467554384699780e-001	 1.714951287895949e+000	-2.217845029222564e+001
1	 5.288614016073797e-001	 1.720553699683057e+000	-2.321058604941227e+001
1	 7.093925635542742e-001	 1.661567978786661e+000	-1.369381585873401e+001
1	 6.916780890987874e-001	 1.669019855097652e+000	-1.443943087635465e+001
1	 6.739229796705322e-001	 1.676267746930466e+000	-1.524395786627761e+001
1	 6.561306087843143e-001	 1.683311690116159e+000	-1.610090321193237e+001
1	 6.383043338503188e-001	 1.690151791537025e+000	-1.700371494888564e+001
1	 6.204474943965466e-001	 1.696788228288618e+000	-1.794579356702162e+001
1	 6.025634103303735e-001	 1.703221246791734e+000	-1.892050270125752e+001
1	 5.846553802407206e-001	 1.709451161856229e+000	-1.992117969201497e+001
1	 5.667266797422573e-001	 1.715478355698570e+000	-2.094114599737564e+001
1	 5.487805598629469e-001	 1.721303276915057e+000	-2.197371743959888e+001
1	 5.308202454761591e-001	 1.726926439412715e+000	-2.301221426945792e+001
1	 7.120103786898093e-001	 1.667699531372885e+000	-1.342592541257531e+001
1	 6.942305339137207e-001	 1.675178906752059e+000	-1.417349495872675e+001
1	 6.764099042128660e-001	 1.682453544905252e+000	-1.498005002012708e+001
1	 6.585518755510623e-001	 1.689523481795759e+000	-1.583911048399359e+001
1	 6.406598177280756e-001	 1.696388824700307e+000	-1.674413709046099e+001
1	 6.227370825954987e-001	 1.703049751367984e+000	-1.768854227435434e+001
1	 6.047870023118943e-001	 1.709506509128947e+000	-1.866570089578788e+001
1	 5.868128876387017e-001	 1.715759413954782e+000	-1.966896084070665e+001
1	 5.688180262783273e-001	 1.721808849472432e+000	-2.069165347319805e+001
1	 5.508056812557428e-001	 1.727655265933628e+000	-2.172710392215701e+001
1	 5.327790893448081e-001	 1.733299179141840e+000	-2.276864118566566e+001
1	 7.146281938248470e-001	 1.673831083958972e+000	-1.314074677496656e+001
1	 6.967829787281894e-001	 1.681337958406270e+000	-1.388803441930021e+001
1	 6.788968287547734e-001	 1.688639342879789e+000	-1.469422843824196e+001
1	 6.609731423174254e-001	 1.695735273475064e+000	-1.555287011529322e+001
1	 6.430153016054910e-001	 1.702625857863253e+000	-1.645744054509132e+001
1	 6.250266707941541e-001	 1.709311274446982e+000	-1.740137150613571e+001
1	 6.070105942931632e-001	 1.715791771465766e+000	-1.837805622325512e+001
1	 5.889703950364740e-001	 1.722067666052925e+000	-1.938086000083003e+001
1	 5.709093728142300e-001	 1.728139343245877e+000	-2.040313070850501e+001
1	 5.528308026484086e-001	 1.734007254951787e+000	-2.143820910187215e+001
1	 5.347379332133595e-001	 1.739671918870567e+000	-2.247943896139708e+001
1	 7.172460089595523e-001	 1.679962636544857e+000	-1.283804264599410e+001
1	 6.993354235423483e-001	 1.687497010060242e+000	-1.358280105849993e+001
1	 6.813837532963969e-001	 1.694825140854057e+000	-1.438623254621310e+001
1	 6.633944090835321e-001	 1.701947065154074e+000	-1.524190760323351e+001
1	 6.453707854826792e-001	 1.708862891025889e+000	-1.614333525264343e+001
1	 6.273162589926119e-001	 1.715572797525657e+000	-1.708397394159442e+001
1	 6.092341862742645e-001	 1.722077033802260e+000	-1.805724232766631e+001
1	 5.911279024341078e-001	 1.728375918150746e+000	-1.905652993742496e+001
1	 5.730007193500214e-001	 1.734469837019012e+000	-2.007520767880956e+001
1	 5.548559240409877e-001	 1.740359243969655e+000	-2.110663818974079e+001
1	 5.366967770818458e-001	 1.746044658599031e+000	-2.214418600611790e+001
1	 7.198638240940923e-001	 1.686094189130473e+000	-1.251757917754911e+001
1	 7.018878683563526e-001	 1.693656061713931e+000	-1.325755028710430e+001
1	 6.838706778378775e-001	 1.701010938828034e+000	-1.405580555999195e+001
1	 6.658156758495102e-001	 1.708158856832794e+000	-1.490595243817930e+001
1	 6.477262693597536e-001	 1.715099924188238e+000	-1.580153537225009e+001
1	 6.296058471909712e-001	 1.721834320604060e+000	-1.673604673030079e+001
1	 6.114577782552817e-001	 1.728362296138498e+000	-1.770293760026092e+001
1	 5.932854098316726e-001	 1.734684170248338e+000	-1.869562846647290e+001
1	 5.750920658857573e-001	 1.740800330791946e+000	-1.970751974206763e+001
1	 5.568810454335235e-001	 1.746711232987356e+000	-2.073200213943053e+001
1	 5.386556209502997e-001	 1.752417398327365e+000	-2.176246686182657e+001
1	 7.224816392286320e-001	 1.692225741715756e+000	-1.217912591079153e+001
1	 7.044403131703568e-001	 1.699815113367292e+000	-1.291204106083653e+001
1	 6.863576023793586e-001	 1.707196736801698e+000	-1.370269441722006e+001
1	 6.682369426154885e-001	 1.714370648511223e+000	-1.454473803111763e+001
1	 6.500817532368282e-001	 1.721336957350326e+000	-1.543175920586933e+001
1	 6.318954353893304e-001	 1.728095843682236e+000	-1.635729141117886e+001
1	 6.136813702362994e-001	 1.734647558474552e+000	-1.731482509350556e+001
1	 5.954429172292370e-001	 1.740992422345786e+000	-1.829781836339040e+001
1	 5.771834124214930e-001	 1.747130824564785e+000	-1.929970754116592e+001
1	 5.589061668260594e-001	 1.753063222005010e+000	-2.031391754324382e+001
1	 5.406144648187535e-001	 1.758790138055704e+000	-2.133387209195240e+001
1	 7.250994543633376e-001	 1.698357294300641e+000	-1.182245571496891e+001
1	 7.069927579845159e-001	 1.705974165020281e+000	-1.254603581637360e+001
1	 6.888445269209820e-001	 1.713382534775026e+000	-1.332664971004792e+001
1	 6.706582093815950e-001	 1.720582440189363e+000	-1.415800164288516e+001
1	 6.524372371140166e-001	 1.727573990512178e+000	-1.503372912350064e+001
1	 6.341850235877884e-001	 1.734357366760234e+000	-1.594741383327267e+001
1	 6.159049622174005e-001	 1.740932820810489e+000	-1.689259243695310e+001
1	 5.976004246268710e-001	 1.747300674443183e+000	-1.786276727350434e+001
1	 5.792747589572844e-001	 1.753461318337636e+000	-1.885141690852025e+001
1	 5.609312882186387e-001	 1.759415211022741e+000	-1.985200653033127e+001
1	 5.425733086872400e-001	 1.765162877784180e+000	-2.085799817266070e+001
1	 7.277172694983755e-001	 1.704488846885063e+000	-1.144734472755561e+001
1	 7.095452027989849e-001	 1.712133216672855e+000	-1.215930040873577e+001
1	 6.913314514628894e-001	 1.719568332747999e+000	-1.292742561940296e+001
1	 6.730794761479583e-001	 1.726794231867214e+000	-1.374548431492264e+001
1	 6.547927209914322e-001	 1.733811023673818e+000	-1.460717149001540e+001
1	 6.364746117864439e-001	 1.740618889838102e+000	-1.550612407822121e+001
1	 6.181285541986700e-001	 1.747218083146380e+000	-1.643593175491608e+001
1	 5.997579320246437e-001	 1.753608926540618e+000	-1.739014762445886e+001
1	 5.813661054931871e-001	 1.759791812110608e+000	-1.836229877273566e+001
1	 5.629564096113042e-001	 1.765767200040672e+000	-1.934589666710348e+001
1	 5.445321525557914e-001	 1.771535617512930e+000	-2.033444738650319e+001
1	 7.303350846339108e-001	 1.710620399468956e+000	-1.105357229567926e+001
1	 7.120976476139183e-001	 1.718292268324968e+000	-1.175160405002288e+001
1	 6.938183760052235e-001	 1.725754130720593e+000	-1.250477985067117e+001
1	 6.755007429147064e-001	 1.733006023544780e+000	-1.330693080151873e+001
1	 6.571482048691891e-001	 1.740048056835272e+000	-1.415181659356094e+001
1	 6.387641999853959e-001	 1.746880412915887e+000	-1.503313638440298e+001
1	 6.203521461801904e-001	 1.753503345482293e+000	-1.594453958591213e+001
1	 6.019154394226245e-001	 1.759917178638180e+000	-1.687963654050786e+001
1	 5.834574520292573e-001	 1.766122305883808e+000	-1.783200906727175e+001
1	 5.649815310041002e-001	 1.772119189058925e+000	-1.879522085978510e+001
1	 5.464909964244404e-001	 1.777908357242085e+000	-1.976282771835660e+001
1	 7.329528997701102e-001	 1.716751952052255e+000	-1.064092091880276e+001
1	 7.146500924294713e-001	 1.724451319976578e+000	-1.132271924946323e+001
1	 6.963053005481267e-001	 1.731939928692788e+000	-1.205847357075705e+001
1	 6.779220096819681e-001	 1.739217815222061e+000	-1.284208950350616e+001
1	 6.595036887474008e-001	 1.746285089996563e+000	-1.366739857549757e+001
1	 6.410537881847429e-001	 1.753141935993637e+000	-1.452816907270393e+001
1	 6.225757381620465e-001	 1.759788607818298e+000	-1.541811680383503e+001
1	 6.040729468208826e-001	 1.766225430735958e+000	-1.633091575864132e+001
1	 5.855487985655503e-001	 1.772452799657344e+000	-1.726020864106591e+001
1	 5.670066523970694e-001	 1.778471178077622e+000	-1.819961725905554e+001
1	 5.484498402932199e-001	 1.784281096971782e+000	-1.914275275358954e+001
1	 5.288614016073797e-001	 1.720553699683057e+000	-2.321058604941227e+001
1	 5.109564077608105e-001	 1.725955672830829e+000	-2.424087175997527e+001
1	 4.930436120318122e-001	 1.731157843990140e+000	-2.526373521238989e+001
1	 4.751261388703033e-001	 1.736160911033619e+000	-2.627543609429729e+001
1	 4.572070809622256e-001	 1.740965632275259e+000	-2.727225411558302e+001
1	 4.392894979040813e-001	 1.745572825227723e+000	-2.825049390219343e+001
1	 4.213764149270760e-001	 1.749983365329664e+000	-2.920648975473262e+001
1	 4.034708216714287e-001	 1.754198184645169e+000	-3.013661026589526e+001
1	 3.855756710113190e-001	 1.758218270537386e+000	-3.103726279126961e+001
1	 3.676938779308517e-001	 1.762044664318403e+000	-3.190489776851928e+001
1	 3.498283184513297e-001	 1.765678459877450e+000	-3.273601288043001e+001
1	 5.308202454761591e-001	 1.726926439412715e+000	-2.301221426945792e+001
1	 5.128489335219464e-001	 1.732348420868630e+000	-2.404914737181040e+001
1	 4.948697907879952e-001	 1.737569860291762e+000	-2.507888494592901e+001
1	 4.768859532968365e-001	 1.742591458139576e+000	-2.609755302513109e+001
1	 4.589005251893766e-001	 1.747413975534780e+000	-2.710129593991944e+001
1	 4.409165773945198e-001	 1.752038233018001e+000	-2.808628149708002e+001
1	 4.229371463485911e-001	 1.756465109270422e+000	-2.904870601968039e+001
1	 4.049652327651024e-001	 1.760695539808388e+000	-2.998479924155631e+001
1	 3.870038004553492e-001	 1.764730515652127e+000	-3.089082905037924e+001
1	 3.690557752002124e-001	 1.768571081970627e+000	-3.176310607388747e+001
1	 3.511240436734558e-001	 1.772218336704760e+000	-3.259798810437224e+001
1	 5.327790893448081e-001	 1.733299179141840e+000	-2.276864118566566e+001
1	 5.147414592829877e-001	 1.738741168905919e+000	-2.380880633438175e+001
1	 4.966959695441108e-001	 1.743981876592904e+000	-2.484193048312677e+001
1	 4.786457677233223e-001	 1.749022005245103e+000	-2.586404624758421e+001
1	 4.605939694164905e-001	 1.753862318793922e+000	-2.687120355267551e+001
1	 4.425436568849251e-001	 1.758503640807968e+000	-2.785947501429377e+001
1	 4.244978777700678e-001	 1.762946853210943e+000	-2.882496117871943e+001
1	 4.064596438587249e-001	 1.767192894971447e+000	-2.976379561298838e+001
1	 3.884319298993076e-001	 1.771242760766789e+000	-3.067214983999469e+001
1	 3.704176724694722e-001	 1.775097499622856e+000	-3.154623811262606e+001
1	 3.524197688954444e-001	 1.778758213532161e+000	-3.238232202175146e+001
1	 5.347379332133595e-001	 1.739671918870567e+000	-2.247943896139708e+001
1	 5.166339850439580e-001	 1.745133916942836e+000	-2.351939798701481e+001
1	 4.985221483001757e-001	 1.750393892893712e+000	-2.455240888781916e+001
1	 4.804055821497716e-001	 1.755452552350340e+000	-2.557445063206205e+001
1	 4.622874136435771e-001	 1.760310662052832e+000	-2.658151924187577e+001
1	 4.441707363753049e-001	 1.764969048597763e+000	-2.756963329550718e+001
1	 4.260586091915158e-001	 1.769428597151354e+000	-2.853483928467866e+001
1	 4.079540549523092e-001	 1.773690250134467e+000	-2.947321682016627e+001
1	 3.898600593432121e-001	 1.777755005881483e+000	-3.038088367920674e+001
1	 3.717795697386564e-001	 1.781623917275190e+000	-3.125400068888396e+001
1	 3.537154941173296e-001	 1.785298090359737e+000	-3.208877644016403e+001
1	 5.366967770818458e-001	 1.746044658599031e+000	-2.214418600611790e+001
1	 5.185265108048808e-001	 1.751526664979524e+000	-2.318047824835342e+001
1	 5.003483270562070e-001	 1.756805909194333e+000	-2.420986398237407e+001
1	 4.821653965761968e-001	 1.761883099455437e+000	-2.522830783952578e+001
1	 4.639808578706451e-001	 1.766759005311653e+000	-2.623179197780856e+001
1	 4.457978158656681e-001	 1.771434456387523e+000	-2.721632162298536e+001
1	 4.276193406129448e-001	 1.775910341091791e+000	-2.817793046291544e+001
1	 4.094484660458677e-001	 1.780187605297570e+000	-2.911268588816515e+001
1	 3.912881887870805e-001	 1.784267250996319e+000	-3.001669407248213e+001
1	 3.731414670077904e-001	 1.788150334927723e+000	-3.088610488726053e+001
1	 3.550112193391459e-001	 1.791837967187569e+000	-3.171711664464643e+001
1	 5.386556209502997e-001	 1.752417398327365e+000	-2.176246686182657e+001
1	 5.204190365657798e-001	 1.757919413016124e+000	-2.279160949673109e+001
1	 5.021745058122215e-001	 1.763217925494912e+000	-2.381384622480350e+001
1	 4.839252110026102e-001	 1.768313646560540e+000	-2.482516619802020e+001
1	 4.656743020977039e-001	 1.773207348570528e+000	-2.582157729152365e+001
1	 4.474248953560228e-001	 1.777899864177388e+000	-2.679911160247960e+001
1	 4.291800720343642e-001	 1.782392085032381e+000	-2.775383080090138e+001
1	 4.109428771394136e-001	 1.786684960460876e+000	-2.868183132560894e+001
1	 3.927163182309312e-001	 1.790779496111406e+000	-2.957924941901597e+001
1	 3.745033642768990e-001	 1.794676752580552e+000	-3.044226599497392e+001
1	 3.563069445609279e-001	 1.798377844015737e+000	-3.126711133444422e+001
1	 5.406144648187535e-001	 1.758790138055704e+000	-2.133387209195240e+001
1	 5.223115623266789e-001	 1.764312161052779e+000	-2.235236045314043e+001
1	 5.040006845682359e-001	 1.769629941795594e+000	-2.336391258854672e+001
1	 4.856850254290233e-001	 1.774744193665795e+000	-2.436458058188879e+001
1	 4.673677463247629e-001	 1.779655691829604e+000	-2.535043715597382e+001
1	 4.490519748463777e-001	 1.784365271967498e+000	-2.631758104866494e+001
1	 4.307408034557834e-001	 1.788873828973259e+000	-2.726214224020667e+001
1	 4.124372882329595e-001	 1.793182315624507e+000	-2.818028702532689e+001
1	 3.941444476747816e-001	 1.797291741226853e+000	-2.906822292405467e+001
1	 3.758652615460078e-001	 1.801203170233773e+000	-2.992220342572330e+001
1	 3.576026697827099e-001	 1.804917720844325e+000	-3.073853256115886e+001
1	 5.425733086872400e-001	 1.765162877784180e+000	-2.085799817266070e+001
1	 5.242040880876014e-001	 1.770704909089630e+000	-2.186230606674039e+001
1	 5.058268633242670e-001	 1.776041958096526e+000	-2.285962644485771e+001
1	 4.874448398554488e-001	 1.781174740771349e+000	-2.384611229360367e+001
1	 4.690611905518310e-001	 1.786104035089022e+000	-2.481793986972804e+001
1	 4.506790543367408e-001	 1.790830679757990e+000	-2.577131387306102e+001
1	 4.323015348772123e-001	 1.795355572914553e+000	-2.670247247082660e+001
1	 4.139316993265182e-001	 1.799679670788585e+000	-2.760769216715959e+001
1	 3.955725771186502e-001	 1.803803986342771e+000	-2.848329251214095e+001
1	 3.772271588151415e-001	 1.807729587887482e+000	-2.932564064520053e+001
1	 3.588983950045264e-001	 1.811457597673414e+000	-3.013115566823240e+001
1	 5.445321525557914e-001	 1.771535617512930e+000	-2.033444738650319e+001
1	 5.260966138485715e-001	 1.777097657126819e+000	-2.132102740283331e+001
1	 5.076530420803319e-001	 1.782453974397854e+000	-2.230055744773081e+001
1	 4.892046542818982e-001	 1.787605287877348e+000	-2.326932894814600e+001
1	 4.707546347789175e-001	 1.792552378348927e+000	-2.422365994319719e+001
1	 4.523061338271208e-001	 1.797296087549003e+000	-2.515989997437142e+001
1	 4.338622662986603e-001	 1.801837316856396e+000	-2.607443482778752e+001
1	 4.154261104201024e-001	 1.806177025953231e+000	-2.696369112286436e+001
1	 3.970007065625546e-001	 1.810316231459269e+000	-2.782414074222902e+001
1	 3.785890560843259e-001	 1.814256005541777e+000	-2.865230509820925e+001
1	 3.601941202264115e-001	 1.817997474503085e+000	-2.944475923173906e+001
1	 5.464909964244404e-001	 1.777908357242085e+000	-1.976282771835660e+001
1	 5.279891396096128e-001	 1.783490405164487e+000	-2.072811153325169e+001
1	 5.094792208364476e-001	 1.788865990699722e+000	-2.168628142130211e+001
1	 4.909644687083836e-001	 1.794035834983939e+000	-2.263380435987327e+001
1	 4.724480790060316e-001	 1.799000721609464e+000	-2.356717798730444e+001
1	 4.539332133175257e-001	 1.803761495340678e+000	-2.448293513118130e+001
1	 4.354229977201372e-001	 1.808319060798918e+000	-2.537764818997624e+001
1	 4.169205215137250e-001	 1.812674381118566e+000	-2.624793336306738e+001
1	 3.984288360065130e-001	 1.816828476576456e+000	-2.709045472462773e+001
1	 3.799509533535858e-001	 1.820782423196752e+000	-2.790192813735016e+001
1	 3.614898454484001e-001	 1.824537351333421e+000	-2.867912500244927e+001
1	 5.484498402932199e-001	 1.784281096971782e+000	-1.914275275358954e+001
1	 5.298816653707491e-001	 1.789883153202778e+000	-2.008315142909322e+001
1	 5.113053995926307e-001	 1.795278007002279e+000	-2.101638024966280e+001
1	 4.927242831349172e-001	 1.800466382091268e+000	-2.193911843181162e+001
1	 4.741415232331826e-001	 1.805449064870776e+000	-2.284808060454318e+001
1	 4.555602928079645e-001	 1.810226903133151e+000	-2.374002089695444e+001
1	 4.369837291416522e-001	 1.814800804742252e+000	-2.461173688113777e+001
1	 4.184149326073985e-001	 1.819171736284711e+000	-2.546007336620681e+001
1	 3.998569654505434e-001	 1.823340721694442e+000	-2.628192603972164e+001
1	 3.813128506229466e-001	 1.827308840852505e+000	-2.707424495323692e+001
1	 3.627855706705263e-001	 1.831077228164503e+000	-2.783403784913697e+001
1	 3.498283184513297e-001	 1.765678459877450e+000	-3.273601288043001e+001
1	 3.319845031960278e-001	 1.769120300513190e+000	-3.352453574828130e+001
1	 3.141625416185881e-001	 1.772371941244703e+000	-3.426413564299100e+001
1	 2.963651817152860e-001	 1.775434626186778e+000	-3.495065257466963e+001
1	 2.785951288624198e-001	 1.778309646314946e+000	-3.558000674402227e+001
1	 2.608550450026426e-001	 1.780998338017287e+000	-3.614820316935556e+001
1	 2.431475478824362e-001	 1.783502081636492e+000	-3.665133607382389e+001
1	 2.254752103404711e-001	 1.785822300004091e+000	-3.708559303097356e+001
1	 2.078405596465077e-001	 1.787960456968690e+000	-3.744725886725543e+001
1	 1.902460768904307e-001	 1.789918055920011e+000	-3.773271932075664e+001
1	 1.726941964209537e-001	 1.791696638310540e+000	-3.793846445598017e+001
1	 3.511240436734558e-001	 1.772218336704760e+000	-3.259798810437224e+001
1	 3.332141369090890e-001	 1.775672925535893e+000	-3.338932562800092e+001
1	 3.153261647661564e-001	 1.778936609983506e+000	-3.413088431715882e+001
1	 2.974628854192032e-001	 1.782010638770450e+000	-3.481862478696863e+001
1	 2.796270142649395e-001	 1.784896307653890e+000	-3.544858976776251e+001
1	 2.618212231055554e-001	 1.787594957971737e+000	-3.601690851582922e+001
1	 2.440481393833732e-001	 1.790107975179323e+000	-3.651980098692550e+001
1	 2.263103454665696e-001	 1.792436787378191e+000	-3.695358177094415e+001
1	 2.086103779856294e-001	 1.794582863838879e+000	-3.731466378671371e+001
1	 1.909507272201167e-001	 1.796547713519502e+000	-3.759956173648381e+001
1	 1.733338365353001e-001	 1.798332883581914e+000	-3.780489532019814e+001
1	 3.524197688954444e-001	 1.778758213532161e+000	-3.238232202175146e+001
1	 3.344437706219684e-001	 1.782225550558773e+000	-3.317422643663500e+001
1	 3.164897879134932e-001	 1.785501278722566e+000	-3.391582483156633e+001
1	 2.985605891228380e-001	 1.788586651354454e+000	-3.460318190179837e+001
1	 2.806588996671267e-001	 1.791482968993232e+000	-3.523244474221858e+001
1	 2.627874012080904e-001	 1.794191577926644e+000	-3.579984710830185e+001
1	 2.449487308838938e-001	 1.796713868722657e+000	-3.630171344320418e+001
1	 2.271454805922235e-001	 1.799051274752824e+000	-3.673446266956226e+001
1	 2.093801963242912e-001	 1.801205270709615e+000	-3.709461174514623e+001
1	 1.916553775493431e-001	 1.803177371119533e+000	-3.737877898206532e+001
1	 1.739734766492058e-001	 1.804969128853802e+000	-3.758368712976955e+001
1	 3.537154941173296e-001	 1.785298090359737e+000	-3.208877644016403e+001
1	 3.356734043347111e-001	 1.788778175581896e+000	-3.287904971932377e+001
1	 3.176534110606567e-001	 1.792065947461933e+000	-3.361880171224423e+001
1	 2.996582928262621e-001	 1.795162663938824e+000	-3.430418490339006e+001
1	 2.816907850690670e-001	 1.798069630332990e+000	-3.493143283176460e+001
1	 2.637535793103460e-001	 1.800788197882008e+000	-3.549686426811736e+001
1	 2.458493223841093e-001	 1.803319762266476e+000	-3.599688716250857e+001
1	 2.279806157175549e-001	 1.805665762127958e+000	-3.642800236083146e+001
1	 2.101500146626243e-001	 1.807827677580852e+000	-3.678680708945000e+001
1	 1.923600278782481e-001	 1.809807028720049e+000	-3.706999820766907e+001
1	 1.746131167628130e-001	 1.811605374126138e+000	-3.727437522827032e+001
1	 3.550112193391459e-001	 1.791837967187569e+000	-3.171711664464643e+001
1	 3.369030380473631e-001	 1.795330800605328e+000	-3.250360977251477e+001
1	 3.188170342077054e-001	 1.798630616201657e+000	-3.323966175503194e+001
1	 3.007559965295466e-001	 1.801738676523592e+000	-3.392149680550501e+001
1	 2.827226704708454e-001	 1.804656291673181e+000	-3.454541722767495e+001
1	 2.647197574124207e-001	 1.807384817837827e+000	-3.510780757481449e+001
1	 2.467499138841306e-001	 1.809925655810766e+000	-3.560513858424064e+001
1	 2.288157508426862e-001	 1.812280249503562e+000	-3.603397088572530e+001
1	 2.109198330007605e-001	 1.814450084452546e+000	-3.639095848283692e+001
1	 1.930646782069701e-001	 1.816436686320991e+000	-3.667285200679176e+001
1	 1.752527568762639e-001	 1.818241619398853e+000	-3.687650174291201e+001
1	 3.563069445609279e-001	 1.798377844015737e+000	-3.126711133444422e+001
1	 3.381326717599695e-001	 1.801883425629134e+000	-3.204772359393638e+001
1	 3.199806573546968e-001	 1.805195284941788e+000	-3.277825398430809e+001
1	 3.018537002327632e-001	 1.808314689108793e+000	-3.345498261453370e+001
1	 2.837545558725469e-001	 1.811242953013821e+000	-3.407426311126996e+001
1	 2.656859355144134e-001	 1.813981437794106e+000	-3.463252682506850e+001
1	 2.476505053840688e-001	 1.816531549355510e+000	-3.512628681790582e+001
1	 2.296508859677397e-001	 1.818894736879607e+000	-3.555214163023866e+001
1	 2.116896513388311e-001	 1.821072491324651e+000	-3.590677882634973e+001
1	 1.937693285356475e-001	 1.823066343922303e+000	-3.618697831728360e+001
1	 1.758923969897006e-001	 1.824877864671881e+000	-3.638961546119622e+001
1	 3.576026697827099e-001	 1.804917720844325e+000	-3.073853256115886e+001
1	 3.393623054725760e-001	 1.808436050653380e+000	-3.151121083365932e+001
1	 3.211442805016893e-001	 1.811759953682375e+000	-3.223442961261561e+001
1	 3.029514039359832e-001	 1.814890701694459e+000	-3.290450929339625e+001
1	 2.847864412742568e-001	 1.817829614354928e+000	-3.351783761786162e+001
1	 2.666521136164224e-001	 1.820578057750842e+000	-3.407087399252095e+001
1	 2.485510968840352e-001	 1.823137442900694e+000	-3.456015359473898e+001
1	 2.304860210928375e-001	 1.825509224256060e+000	-3.498229126478765e+001
1	 2.124594696769679e-001	 1.827694898197124e+000	-3.533398518208777e+001
1	 1.944739788644185e-001	 1.829696001523927e+000	-3.561202032452624e+001
1	 1.765320371032655e-001	 1.831514109945151e+000	-3.581327171025238e+001
1	 3.588983950045264e-001	 1.811457597673414e+000	-3.013115566823240e+001
1	 3.405919391852283e-001	 1.814988675678134e+000	-3.089389374621801e+001
1	 3.223079036487410e-001	 1.818324622423470e+000	-3.160804200116133e+001
1	 3.040491076392786e-001	 1.821466714280624e+000	-3.226994572622135e+001
1	 2.858183266760603e-001	 1.824416275696517e+000	-3.287600980148153e+001
1	 2.676182917185462e-001	 1.827174677708035e+000	-3.342270318848372e+001
1	 2.494516883841406e-001	 1.829743336446300e+000	-3.390656322037865e+001
1	 2.313211562181019e-001	 1.832123711632891e+000	-3.432419968491953e+001
1	 2.132292880153021e-001	 1.834317305069920e+000	-3.467229869809302e+001
1	 1.951786291934216e-001	 1.836325659125807e+000	-3.494762636670587e+001
1	 1.771716772171005e-001	 1.838150355218598e+000	-3.514703223878604e+001
1	 3.601941202264115e-001	 1.817997474503085e+000	-2.944475923173906e+001
1	 3.418215728979718e-001	 1.821541300703462e+000	-3.019559714376600e+001
1	 3.234715267959101e-001	 1.824889291165121e+000	-3.089894662117088e+001
1	 3.051468113427203e-001	 1.828042726867322e+000	-3.155116268379377e+001
1	 2.868502120780425e-001	 1.831002937038606e+000	-3.214865060037005e+001
1	 2.685844698208832e-001	 1.833771297665686e+000	-3.268787062349109e+001
1	 2.503522798844964e-001	 1.836349229992314e+000	-3.316534252856301e+001
1	 2.321562913436554e-001	 1.838738199010071e+000	-3.357764995330521e+001
1	 2.139991063539654e-001	 1.840939711942993e+000	-3.392144453485747e+001
1	 1.958832795227951e-001	 1.842955316727885e+000	-3.419344984213322e+001
1	 1.778113173313480e-001	 1.844786600492154e+000	-3.439046510157957e+001
1	 3.614898454484001e-001	 1.824537351333421e+000	-2.867912500244927e+001
1	 3.430512066108521e-001	 1.828093925729429e+000	-2.941614835023714e+001
1	 3.246351499432543e-001	 1.831453959907378e+000	-3.010700101607177e+001
1	 3.062445150463800e-001	 1.834618739454583e+000	-3.074803278973854e+001
1	 2.878820974802883e-001	 1.837589598381210e+000	-3.133563280320753e+001
1	 2.695506479235322e-001	 1.840367917623796e+000	-3.186623456967384e+001
1	 2.512528713852136e-001	 1.842955123538720e+000	-3.233632083582030e+001
1	 2.329914264696200e-001	 1.845352686387568e+000	-3.274242824297707e+001
1	 2.147689246930894e-001	 1.847562118816300e+000	-3.308115179341352e+001
1	 1.965879298526772e-001	 1.849584974330105e+000	-3.334914911855568e+001
1	 1.784509574461501e-001	 1.851422845765750e+000	-3.354314454647238e+001
1	 3.627855706705263e-001	 1.831077228164503e+000	-2.783403784913697e+001
1	 3.442808403239148e-001	 1.834646550756103e+000	-2.855537715649061e+001
1	 3.257987730908322e-001	 1.838018628650293e+000	-2.923206476448749e+001
1	 3.073422187503291e-001	 1.841194752042445e+000	-2.986043048743551e+001
1	 2.889139828828835e-001	 1.844176259724348e+000	-3.043683101606760e+001
1	 2.705168260265918e-001	 1.846964537582363e+000	-3.095765532394641e+001
1	 2.521534628864030e-001	 1.849561017085502e+000	-3.141932989713133e+001
1	 2.338265615961181e-001	 1.851967173765351e+000	-3.181832378178429e+001
1	 2.155387430328055e-001	 1.854184525689797e+000	-3.215115344496160e+001
1	 1.972925801832064e-001	 1.856214631932410e+000	-3.241438744441305e+001
1	 1.790905975616490e-001	 1.858059091039320e+000	-3.260465090376645e+001
1	 1.726941964209537e-001	 1.791696638310540e+000	-3.793846445598017e+001
1	 1.551846886213330e-001	 1.793298009200866e+000	-3.806333223124316e+001
1	 1.377225603141458e-001	 1.794723502569441e+000	-3.810705267738896e+001
1	 1.203101389499272e-001	 1.795974766340585e+000	-3.806765327724032e+001
1	 1.029497023619784e-001	 1.797053480637194e+000	-3.794322243847554e+001
1	 8.564347844994923e-002	 1.797961356299908e+000	-3.773191056835985e+001
1	 6.839364491017026e-002	 1.798700133414114e+000	-3.743193104260483e+001
1	 5.120232901183534e-002	 1.799271579846228e+000	-3.704156106964484e+001
1	 3.407160741809868e-002	 1.799677489790610e+000	-3.655914245178570e+001
1	 1.700350605111390e-002	 1.799919682328466e+000	-3.598308224484917e+001
1	 0.000000000000000e+000	 1.800000000000000e+000	-3.531185331809304e+001
1	 1.733338365353001e-001	 1.798332883581914e+000	-3.780489532019814e+001
1	 1.557594754639657e-001	 1.799940185772448e+000	-3.792946803489156e+001
1	 1.382326693734365e-001	 1.801370959010450e+000	-3.797304257702623e+001
1	 1.207557543349032e-001	 1.802626857323959e+000	-3.793386495463557e+001
1	 1.033310166185455e-001	 1.803709567058843e+000	-3.781022609950091e+001
1	 8.596069237594199e-002	 1.804620805392491e+000	-3.760046304918900e+001
1	 6.864696736940455e-002	 1.805362318855363e+000	-3.730296004492045e+001
1	 5.139197674733079e-002	 1.805935881861839e+000	-3.691614954562849e+001
1	 3.419780486463918e-002	 1.806343295251763e+000	-3.643851315873750e+001
1	 1.706648514730789e-002	 1.806586384844004e+000	-3.586858248833686e+001
1	 0.000000000000000e+000	 1.806667000003317e+000	-3.520493990157904e+001
1	 1.739734766492058e-001	 1.804969128853802e+000	-3.758368712976955e+001
1	 1.563342623061966e-001	 1.806582362344496e+000	-3.770800771822398e+001
1	 1.387427784323800e-001	 1.808018415451863e+000	-3.775137895007934e+001
1	 1.212013697195968e-001	 1.809278948307660e+000	-3.771215385855651e+001
1	 1.037123308748993e-001	 1.810365653480736e+000	-3.758872161826898e+001
1	 8.627790630179005e-002	 1.811280254485235e+000	-3.737950880880931e+001
1	 6.890028982855632e-002	 1.812024504296691e+000	-3.708298060538913e+001
1	 5.158162448279448e-002	 1.812600183877458e+000	-3.669764189638163e+001
1	 3.432400231118199e-002	 1.813009100712867e+000	-3.622203832775577e+001
1	 1.712946424351644e-002	 1.813253087359456e+000	-3.565475727454858e+001
1	 0.000000000000000e+000	 1.813334000006534e+000	-3.499442873967270e+001
1	 1.746131167628130e-001	 1.811605374126138e+000	-3.727437522827032e+001
1	 1.569090491481685e-001	 1.813224538916936e+000	-3.739841435811513e+001
1	 1.392528874911161e-001	 1.814665871893596e+000	-3.744150683574563e+001
1	 1.216469851041413e-001	 1.815931039291598e+000	-3.740200224906756e+001
1	 1.040936451311638e-001	 1.817021739902778e+000	-3.727828470986235e+001
1	 8.659512022760428e-002	 1.817939703578042e+000	-3.706877417343764e+001
1	 6.915361228772043e-002	 1.818686689738000e+000	-3.677192768614953e+001
1	 5.177127221830204e-002	 1.819264485892985e+000	-3.638624056051123e+001
1	 3.445019975778045e-002	 1.819674906173823e+000	-3.591024747775228e+001
1	 1.719244333976770e-002	 1.819919789874721e+000	-3.534252351785167e+001
1	 0.000000000000000e+000	 1.820001000009551e+000	-3.468168511721791e+001
1	 1.752527568762639e-001	 1.818241619398853e+000	-3.687650174291201e+001
1	 1.574838359900237e-001	 1.819866715489690e+000	-3.700015887011472e+001
1	 1.397629965497844e-001	 1.821313328335564e+000	-3.704287937523304e+001
1	 1.220926004886701e-001	 1.822583130275685e+000	-3.700289994484671e+001
1	 1.044749593874626e-001	 1.823677826324880e+000	-3.687849728360112e+001
1	 8.691233415349546e-002	 1.824599152670816e+000	-3.666798946471783e+001
1	 6.940693474699164e-002	 1.825348875179193e+000	-3.636973719883684e+001
1	 5.196091995392911e-002	 1.825928787908323e+000	-3.598214502116118e+001
1	 3.457639720448801e-002	 1.826340711634531e+000	-3.550366239704606e+001
1	 1.725542243608985e-002	 1.826586492389699e+000	-3.493278474633387e+001
1	 0.000000000000000e+000	 1.826668000012267e+000	-3.426805438690177e+001
1	 1.758923969897006e-001	 1.824877864671881e+000	-3.638961546119622e+001
1	 1.580586228319054e-001	 1.826508892062683e+000	-3.651271986591806e+001
1	 1.402731056085246e-001	 1.827960784777684e+000	-3.655495766444323e+001
1	 1.225382158733166e-001	 1.829235221259832e+000	-3.651434418574868e+001
1	 1.048562736439193e-001	 1.830333912746944e+000	-3.638894733041603e+001
1	 8.722954807957452e-002	 1.831258601763462e+000	-3.617688892707282e+001
1	 6.966025720646474e-002	 1.832011060620171e+000	-3.587634598731808e+001
1	 5.215056768975129e-002	 1.832593089923371e+000	-3.548555185975195e+001
1	 3.470259465135805e-002	 1.833006517094890e+000	-3.500279728392673e+001
1	 1.731840153251105e-002	 1.833253194904292e+000	-3.442643134520220e+001
1	 0.000000000000000e+000	 1.833335000014584e+000	-3.375486233167508e+001
1	 1.765320371032655e-001	 1.831514109945151e+000	-3.581327171025238e+001
1	 1.586334096739557e-001	 1.833151068635837e+000	-3.593558351393802e+001
1	 1.407832146674764e-001	 1.834608241219873e+000	-3.597721060985888e+001
1	 1.229838312582139e-001	 1.835887312243949e+000	-3.593583949835641e+001
1	 1.052375879006579e-001	 1.836989999168881e+000	-3.580922881266803e+001
1	 8.754676200595221e-002	 1.837918050855882e+000	-3.559521065663589e+001
1	 6.991357966623453e-002	 1.838673246060836e+000	-3.529169181080265e+001
1	 5.234021542584418e-002	 1.839257391938031e+000	-3.489665480855000e+001
1	 3.482879209844394e-002	 1.839672322554802e+000	-3.440815888416154e+001
1	 1.738138062905946e-002	 1.839919897418398e+000	-3.382434079488955e+001
1	 0.000000000000000e+000	 1.840002000016400e+000	-3.314341551929424e+001
1	 1.771716772171005e-001	 1.838150355218598e+000	-3.514703223878604e+001
1	 1.592081965163175e-001	 1.839793245209076e+000	-3.526824340289372e+001
1	 1.412933237267795e-001	 1.841255697662048e+000	-3.530911478755002e+001
1	 1.234294466434957e-001	 1.842539403227947e+000	-3.526689756444563e+001
1	 1.056189021578019e-001	 1.843646085590595e+000	-3.513894155635570e+001
1	 8.786397593273948e-002	 1.844577499947983e+000	-3.492269653172136e+001
1	 7.016690212639581e-002	 1.845335431501090e+000	-3.461571332731936e+001
1	 5.252986316228345e-002	 1.845921693952204e+000	-3.421564480209742e+001
1	 3.495498954579909e-002	 1.846338128014166e+000	-3.372024662552243e+001
1	 1.744435972576324e-002	 1.846586599931918e+000	-3.312737790400389e+001
1	 0.000000000000000e+000	 1.846669000017617e+000	-3.243500164918143e+001
1	 1.778113173313480e-001	 1.844786600492154e+000	-3.439046510157957e+001
1	 1.597829833591335e-001	 1.846435421782323e+000	-3.451020040834600e+001
1	 1.418034327865735e-001	 1.847903154104124e+000	-3.455015430522592e+001
1	 1.238750620292950e-001	 1.849191494211738e+000	-3.450703709228764e+001
1	 1.060002164154750e-001	 1.850302172011993e+000	-3.437769114564857e+001
1	 8.818118986004712e-002	 1.851236949039666e+000	-3.415909214479736e+001
1	 7.042022458704338e-002	 1.851997616940835e+000	-3.384835007754901e+001
1	 5.271951089914469e-002	 1.852585995965789e+000	-3.344271002753510e+001
1	 3.508118699347691e-002	 1.853003933472884e+000	-3.293955274941212e+001
1	 1.750733882265058e-002	 1.853253302444752e+000	-3.233639503725019e+001
1	 0.000000000000000e+000	 1.853336000018133e+000	-3.163088989180012e+001
1	 1.784509574461501e-001	 1.851422845765750e+000	-3.354314454647238e+001
1	 1.603577702025461e-001	 1.853077598355501e+000	-3.366096256210246e+001
1	 1.423135418469980e-001	 1.854550610546017e+000	-3.369982066725245e+001
1	 1.243206774157454e-001	 1.855843585195231e+000	-3.365578369071989e+001
1	 1.063815306738011e-001	 1.856958258432983e+000	-3.352508881969031e+001
1	 8.849840378798599e-002	 1.857896398130836e+000	-3.330414673591955e+001
1	 7.067354704827203e-002	 1.858659802379975e+000	-3.298954246900610e+001
1	 5.290915863650356e-002	 1.859250297978689e+000	-3.257803597384005e+001
1	 3.520738444153076e-002	 1.859669738930854e+000	-3.206656243965796e+001
1	 1.757031791974962e-002	 1.859920004956799e+000	-3.145223233844962e+001
1	 0.000000000000000e+000	 1.860003000017850e+000	-3.073233122073064e+001
1	 1.790905975616490e-001	 1.858059091039320e+000	-3.260465090376645e+001
1	 1.609325570466982e-001	 1.859719774928535e+000	-3.272004492442078e+001
1	 1.428236509081929e-001	 1.861198066987645e+000	-3.275761264256260e+001
1	 1.247662928029802e-001	 1.862495676178339e+000	-3.271266974591598e+001
1	 1.067628449329038e-001	 1.863614344853473e+000	-3.258075137160876e+001
1	 8.881561771666691e-002	 1.864555847221398e+000	-3.235761312759197e+001
1	 7.092686951017656e-002	 1.865321987818410e+000	-3.203923176055766e+001
1	 5.309880637443565e-002	 1.865914599990803e+000	-3.162180548000912e+001
1	 3.533358189001407e-002	 1.866335544387978e+000	-3.110175394854520e+001
1	 1.763329701708853e-002	 1.866586707467961e+000	-3.047571794877915e+001
1	 0.000000000000000e+000	 1.866670000016666e+000	-2.974055873762994e+001
1	 1.866670000016666e+000	 0.000000000000000e+000	 8.962845776888791e+000
1	 1.866586707467961e+000	 1.763329701708859e-002	 8.693966697254078e+000
1	 1.866335544387978e+000	 3.533358189001417e-002	 8.417264670347535e+000
1	 1.865914599990803e+000	 5.309880637443554e-002	 8.134459170456047e+000
1	 1.865321987818409e+000	 7.092686951017646e-002	 7.847276648520838e+000
1	 1.864555847221398e+000	 8.881561771666689e-002	 7.557448465638633e+000
1	 1.863614344853473e+000	 1.067628449329038e-001	 7.266708761347150e+000
1	 1.862495676178339e+000	 1.247662928029803e-001	 6.976792258388776e+000
1	 1.861198066987645e+000	 1.428236509081927e-001	 6.689432005844274e+000
1	 1.859719774928535e+000	 1.609325570466981e-001	 6.406357062729658e+000
1	 1.858059091039319e+000	 1.790905975616489e-001	 6.129290124353499e+000
1	 1.873336000292277e+000	 0.000000000000000e+000	 8.612603689746351e+000
1	 1.873252410300538e+000	 1.769626667091117e-002	 8.357186720373017e+000
1	 1.873000350301068e+000	 3.545976041553836e-002	 8.093851186325944e+000
1	 1.872577902684386e+000	 5.328842567514051e-002	 7.824324256087451e+000
1	 1.871983174255770e+000	 7.118015398689008e-002	 7.550343278740444e+000
1	 1.871214297721295e+000	 8.913278407965511e-002	 7.273653773018395e+000
1	 1.870269433187636e+000	 1.071441020144599e-001	 6.996007347469248e+000
1	 1.869146769674352e+000	 1.252118413706765e-001	 6.719159553208852e+000
1	 1.867844526637251e+000	 1.433336834789610e-001	 6.444867670938621e+000
1	 1.866360955501386e+000	 1.615072577019092e-001	 6.174888434104868e+000
1	 1.864694341202229e+000	 1.797301417633638e-001	 5.910975690283178e+000
1	 1.880002002233555e+000	 0.000000000000000e+000	 8.301593078210708e+000
1	 1.879918114798716e+000	 1.775923634067771e-002	 8.058775750879944e+000
1	 1.879665157879561e+000	 3.558593897297273e-002	 7.807956100798072e+000
1	 1.879241207043032e+000	 5.347804502374515e-002	 7.550877273659368e+000
1	 1.878644362357717e+000	 7.143343852751721e-002	 7.289292620482796e+000
1	 1.877872749885155e+000	 8.944995052259598e-002	 7.024963652026965e+000
1	 1.876924523184993e+000	 1.075253591920342e-001	 6.759657923164360e+000
1	 1.875797864832641e+000	 1.256573900504839e-001	 6.495146848718747e+000
1	 1.874490987948056e+000	 1.438437161779620e-001	 6.233203452473008e+000
1	 1.873002137734208e+000	 1.620819585015041e-001	 5.975600051261892e+000
1	 1.871329593023718e+000	 1.803696861256440e-001	 5.724105876271399e+000
1	 1.886668007507166e+000	 0.000000000000000e+000	 8.027552221307220e+000
1	 1.886583822629083e+000	 1.782220604206420e-002	 7.796818002951422e+000
1	 1.886329968789800e+000	 3.571211759374478e-002	 7.557976848639235e+000
1	 1.885904514732690e+000	 5.366766446750050e-002	 7.312796080020554e+000
1	 1.885305553789637e+000	 7.168672319520088e-002	 7.063050092143833e+000
1	 1.884531205377647e+000	 8.976711712458953e-002	 6.810518183610971e+000
1	 1.883579616509333e+000	 1.079066165607449e-001	 6.556982318039760e+000
1	 1.882448963315952e+000	 1.261029389535964e-001	 6.304224818612161e+000
1	 1.881137452581612e+000	 1.443537491325187e-001	 6.054025997697328e+000
1	 1.879643323287192e+000	 1.626566595889847e-001	 5.808161723749036e+000
1	 1.877964848162459e+000	 1.810092308082161e-001	 5.568400927894208e+000
1	 1.893334017779778e+000	 0.000000000000000e+000	 7.788251199543248e+000
1	 1.893249535458222e+000	 1.788517579074664e-002	 7.569424621234313e+000
1	 1.892994784698134e+000	 3.583829630928196e-002	 7.342333384908629e+000
1	 1.892567827419305e+000	 5.385728405365761e-002	 7.108777103815992e+000
1	 1.891966750216917e+000	 7.194000805308420e-002	 6.870556198287393e+000
1	 1.891189665863440e+000	 9.008428396473578e-002	 6.629469512555461e+000
1	 1.890234714824445e+000	 1.082878742157101e-001	 6.387311866722041e+000
1	 1.889100066787036e+000	 1.265484881912075e-001	 6.145871546169560e+000
1	 1.887783922199470e+000	 1.448637824699540e-001	 5.906927730933935e+000
1	 1.886284513820528e+000	 1.632313611078529e-001	 5.672247867774771e+000
1	 1.884600108277127e+000	 1.816487759708070e-001	 5.443584987903731e+000
1	 1.900000034718056e+000	 0.000000000000000e+000	 7.581491336170868e+000
1	 1.899915254952724e+000	 1.794814560240101e-002	 7.374733207561890e+000
1	 1.899659607270910e+000	 3.596447515101178e-002	 7.159467788937964e+000
1	 1.899231146768825e+000	 5.404690382946741e-002	 6.937535018845934e+000
1	 1.898627953304946e+000	 7.219329316431017e-002	 6.710766264157426e+000
1	 1.897848133007199e+000	 9.040145112213464e-002	 6.480981635023218e+000
1	 1.896889819794116e+000	 1.086691322520480e-001	 6.249987241293465e+000
1	 1.895751176908643e+000	 1.269940378745112e-001	 6.019572393462940e+000
1	 1.894430398463179e+000	 1.453738163175911e-001	 5.791506751432180e+000
1	 1.892925710994409e+000	 1.638060632016107e-001	 5.567537424606624e+000
1	 1.891235375026396e+000	 1.822883217731431e-001	 5.349386027087145e+000
1	 1.906666059988667e+000	 0.000000000000000e+000	 7.405104650207932e+000
1	 1.906580982779173e+000	 1.801111549270333e-002	 7.210907357630423e+000
1	 1.906324438174477e+000	 3.609065415036176e-002	 7.007843876751585e+000
1	 1.905894474447200e+000	 5.423652384218103e-002	 6.797802424298815e+000
1	 1.905289164719112e+000	 7.244657859202193e-002	 6.582650175777823e+000
1	 1.904506608473595e+000	 9.071861867588625e-002	 6.364230190565471e+000
1	 1.903544933082137e+000	 1.090503907648768e-001	 6.144358287254450e+000
1	 1.902402295343521e+000	 1.274395881147012e-001	 5.924819873313208e+000
1	 1.901076883034290e+000	 1.458838508027529e-001	 5.707366733371964e+000
1	 1.899566916469028e+000	 1.643807660137600e-001	 5.493713780686977e+000
1	 1.897870650068940e+000	 1.829278683749511e-001	 5.285535776581239e+000
1	 1.913332095258278e+000	 0.000000000000000e+000	 7.256953320929201e+000
1	 1.913246720604157e+000	 1.807408547732959e-002	 7.076136207390836e+000
1	 1.912989279075178e+000	 3.621683333875934e-002	 6.885946821614627e+000
1	 1.912557812120374e+000	 5.442614413904941e-002	 6.688329531690213e+000
1	 1.911950386124803e+000	 7.269986439936249e-002	 6.485192125502353e+000
1	 1.911165093927295e+000	 9.103578670509054e-002	 6.278402258494387e+000
1	 1.910200056352294e+000	 1.094316498493146e-001	 6.069783862925853e+000
1	 1.909053423754420e+000	 1.278851390229714e-001	 5.861113523933232e+000
1	 1.907723377574352e+000	 1.463938860527626e-001	 5.654116827964974e+000
1	 1.906208131904575e+000	 1.649554696878029e-001	 5.450464689424349e+000
1	 1.904505935063431e+000	 1.835674159359577e-001	 5.251769661606060e+000
1	 1.919998142193556e+000	 0.000000000000000e+000	 7.134929163548637e+000
1	 1.919912470094263e+000	 1.813705557195578e-002	 6.968633988920741e+000
1	 1.919654131639363e+000	 3.634301274763202e-002	 6.792282782510761e+000
1	 1.919221161454297e+000	 5.461576476732363e-002	 6.607883858344058e+000
1	 1.918611619187405e+000	 7.295315064947493e-002	 6.417390362882126e+000
1	 1.917823591032968e+000	 9.135295528884752e-002	 6.222696158510598e+000
1	 1.916855191268378e+000	 1.098129096004796e-001	 6.025631682208332e+000
1	 1.915704563804088e+000	 1.283306907105153e-001	 5.827959786190196e+000
1	 1.914369883744916e+000	 1.469039221949428e-001	 5.631371567601535e+000
1	 1.912849358961241e+000	 1.655301743672412e-001	 5.437482194619578e+000
1	 1.911141231668546e+000	 1.842069646158895e-001	 5.247826736584060e+000
1	 1.926664202461167e+000	 0.000000000000000e+000	 7.036953115820278e+000
1	 1.926578232916076e+000	 1.820002579225790e-002	 6.886639595544827e+000
1	 1.926318997533378e+000	 3.646919240840733e-002	 6.725378540357065e+000
1	 1.925884524114915e+000	 5.480538577425467e-002	 6.555249927257072e+000
1	 1.925272865572307e+000	 7.320643740550233e-002	 6.378256950721498e+000
1	 1.924482101455281e+000	 9.167012450625717e-002	 6.196321255483831e+000
1	 1.923510339494176e+000	 1.101941701134900e-001	 6.011278160615572e+000
1	 1.922355717155276e+000	 1.287762432885269e-001	 5.824871883424593e+000
1	 1.921016403207533e+000	 1.474139593566169e-001	 5.638750771994313e+000
1	 1.919490599299220e+000	 1.661048801955769e-001	 5.454462555486154e+000
1	 1.917776541542956e+000	 1.848465145744731e-001	 5.273449621610032e+000
1	 1.933330277727777e+000	 0.000000000000000e+000	 6.960974735294045e+000
1	 1.933244010736185e+000	 1.826299615391194e-002	 6.828416155980706e+000
1	 1.932983878423570e+000	 3.659537235251269e-002	 6.683781141768587e+000
1	 1.932547901768176e+000	 5.499500720709358e-002	 6.529228973192364e+000
1	 1.931934126944898e+000	 7.345972473058775e-002	 6.366817526196797e+000
1	 1.931140626858904e+000	 9.198729443641959e-002	 6.198497768283900e+000
1	 1.930165502693479e+000	 1.105754314834639e-001	 6.026108264503524e+000
1	 1.929006885470733e+000	 1.292217968681999e-001	 5.851369703763282e+000
1	 1.927662937623752e+000	 1.479239976651078e-001	 5.675879456269203e+000
1	 1.926131854578702e+000	 1.666795873163121e-001	 5.501106173227587e+000
1	 1.924411866345337e+000	 1.854860659714353e-001	 5.328384440240134e+000
1	 1.858059091039319e+000	 1.790905975616489e-001	 6.129290124353499e+000
1	 1.856214631932410e+000	 1.972925801832065e-001	 5.852557262363012e+000
1	 1.854184525689797e+000	 2.155387430328054e-001	 5.569963790478037e+000
1	 1.851967173765350e+000	 2.338265615961181e-001	 5.282538916409711e+000
1	 1.849561017085502e+000	 2.521534628864028e-001	 4.991271085088330e+000
1	 1.846964537582364e+000	 2.705168260265918e-001	 4.697105685519841e+000
1	 1.844176259724348e+000	 2.889139828828836e-001	 4.400942772330560e+000
1	 1.841194752042445e+000	 3.073422187503292e-001	 4.103634806821860e+000
1	 1.838018628650292e+000	 3.257987730908322e-001	 3.805984422461309e+000
1	 1.834646550756102e+000	 3.442808403239147e-001	 3.508742219833506e+000
1	 1.831077228164503e+000	 3.627855706705264e-001	 3.212604596157672e+000
1	 1.864694341202229e+000	 1.797301417633638e-001	 5.910975690283178e+000
1	 1.862843295411997e+000	 1.979971248515647e-001	 5.647367122391617e+000
1	 1.860805939527940e+000	 2.163084459382945e-001	 5.377743154158702e+000
1	 1.858580669295420e+000	 2.346615714940180e-001	 5.103106152187642e+000
1	 1.856165920073323e+000	 2.530539193436879e-001	 4.824417842211339e+000
1	 1.853560168372646e+000	 2.714828592509105e-001	 4.542597054343598e+000
1	 1.850761933392588e+000	 2.899457135538024e-001	 4.258517483785537e+000
1	 1.847769778552278e+000	 3.084397578530240e-001	 3.973005471757987e+000
1	 1.844582313016268e+000	 3.269622217524142e-001	 3.686837811534143e+000
1	 1.841198193211864e+000	 3.455102896525821e-001	 3.400739584538575e+000
1	 1.837616124336330e+000	 3.640811015977279e-001	 3.115382031559824e+000
1	 1.871329593023718e+000	 1.803696861256440e-001	 5.724105876271399e+000
1	 1.869471960548609e+000	 1.987016696966989e-001	 5.472851703621665e+000
1	 1.867427355021387e+000	 2.170781490368015e-001	 5.215386408323740e+000
1	 1.865194166478905e+000	 2.354965816012088e-001	 4.952685441869972e+000
1	 1.862770824712498e+000	 2.539543760265665e-001	 4.685684241207522e+000
1	 1.860155800812049e+000	 2.724488927171559e-001	 4.415276026384637e+000
1	 1.857347608707542e+000	 2.909774444830102e-001	 4.142309613974763e+000
1	 1.854344806706239e+000	 3.095372972303986e-001	 3.867587250960182e+000
1	 1.851145999023604e+000	 3.281256707050956e-001	 3.591862473854971e+000
1	 1.847749837306038e+000	 3.467397392887961e-001	 3.315837997937493e+000
1	 1.844155022143435e+000	 3.653766328489503e-001	 3.040163641540238e+000
1	 1.877964848162459e+000	 1.810092308082161e-001	 5.568400927894209e+000
1	 1.876100628999242e+000	 1.994062148945999e-001	 5.328767530041306e+000
1	 1.874048773825298e+000	 2.178478525206209e-001	 5.082690729235949e+000
1	 1.871807666968964e+000	 2.363315921263249e-001	 4.831119018984560e+000
1	 1.869375732654024e+000	 2.548548331600489e-001	 4.574962005828414e+000
1	 1.866751436549240e+000	 2.734149266667451e-001	 4.315088273296817e+000
1	 1.863933287315374e+000	 2.920091759283613e-001	 4.052323261519303e+000
1	 1.860919838147821e+000	 3.106348371567720e-001	 3.787447167048017e+000
1	 1.857709688312956e+000	 3.292891202396840e-001	 3.521192867537927e+000
1	 1.854301484676263e+000	 3.479691895398752e-001	 3.254243876018715e+000
1	 1.850693923220269e+000	 3.666721647480424e-001	 2.987232329566696e+000
1	 1.884600108277127e+000	 1.816487759708070e-001	 5.443584987903732e+000
1	 1.882729302420894e+000	 2.001107606212587e-001	 5.214874512777628e+000
1	 1.880670197594831e+000	 2.186175565820469e-001	 4.979456108733594e+000
1	 1.878421172418757e+000	 2.371666032780017e-001	 4.738251299106607e+000
1	 1.875980645548895e+000	 2.557552909691455e-001	 4.492144345986142e+000
1	 1.873347077232879e+000	 2.743809613410961e-001	 4.241980194301037e+000
1	 1.870518970862248e+000	 2.930409081477106e-001	 3.988562431003482e+000
1	 1.867494874520521e+000	 3.117323779064631e-001	 3.732651263734748e+000
1	 1.864273382524977e+000	 3.304525706469872e-001	 3.474961523448797e+000
1	 1.860853136960182e+000	 3.491986407131379e-001	 3.216160695550325e+000
1	 1.857232829201285e+000	 3.679676976188531e-001	 2.956866984177209e+000
1	 1.891235375026396e+000	 1.822883217731431e-001	 5.349386027087145e+000
1	 1.889357982470562e+000	 2.008153070526660e-001	 5.130935889919424e+000
1	 1.887291627985147e+000	 2.193872614133742e-001	 4.905485304096650e+000
1	 1.885034684481444e+000	 2.380016152648743e-001	 4.673928840856568e+000
1	 1.882585565048103e+000	 2.566557496788663e-001	 4.437125930978619e+000
1	 1.879942724511631e+000	 2.753469969816266e-001	 4.195898902738078e+000
1	 1.877104660994329e+000	 2.940726413989127e-001	 3.951031033961551e+000
1	 1.874069917467834e+000	 3.128299197537908e-001	 3.703264622359080e+000
1	 1.870837083300321e+000	 3.316160222178131e-001	 3.453299078395982e+000
1	 1.867404795795433e+000	 3.504280931159031e-001	 3.201789045046739e+000
1	 1.863771741720931e+000	 3.692632317852310e-001	 2.949342548841932e+000
1	 1.897870650068940e+000	 1.829278683749511e-001	 5.285535776581239e+000
1	 1.895986670805243e+000	 2.015198543648128e-001	 5.076718167606307e+000
1	 1.893913066651407e+000	 2.201569672068973e-001	 4.860583788968247e+000
1	 1.891648204810182e+000	 2.388366282955775e-001	 4.638000307719496e+000
1	 1.889190492802647e+000	 2.575562095142218e-001	 4.409802863278035e+000
1	 1.886538380034160e+000	 2.763130338297541e-001	 4.176792212904115e+000
1	 1.883690359357781e+000	 2.951043759398224e-001	 3.939732889843992e+000
1	 1.880644968633256e+000	 3.139274629730742e-001	 3.699351378069042e+000
1	 1.877400792279645e+000	 3.327794752429694e-001	 3.456334307622786e+000
1	 1.873956462819656e+000	 3.516575470554891e-001	 3.211326674663322e+000
1	 1.870310662413659e+000	 3.705587675710250e-001	 2.964930090355015e+000
1	 1.904505935063431e+000	 1.835674159359577e-001	 5.251769661606060e+000
1	 1.902615369081935e+000	 2.022244027336899e-001	 5.051991062353240e+000
1	 1.900534515248767e+000	 2.209266741549104e-001	 4.844559705305761e+000
1	 1.898261735058134e+000	 2.396716425787466e-001	 4.630316430664792e+000
1	 1.895795430463519e+000	 2.584566707002221e-001	 4.410072652869048e+000
1	 1.893134045449130e+000	 2.772790721268962e-001	 4.184608627163106e+000
1	 1.890276067598770e+000	 2.961361120282944e-001	 3.954671726963620e+000
1	 1.887220029660281e+000	 3.150250078386322e-001	 3.720974735666625e+000
1	 1.883964511103600e+000	 3.339429300132639e-001	 3.484194156618530e+000
1	 1.880508139670492e+000	 3.528870028392147e-001	 3.244968545044644e+000
1	 1.876849592913921e+000	 3.718543053000839e-001	 3.003896865791909e+000
1	 1.911141231668546e+000	 1.842069646158895e-001	 5.247826736584060e+000
1	 1.909244078957633e+000	 2.029289523352882e-001	 5.056527444580851e+000
1	 1.907155975432390e+000	 2.216963824497081e-001	 4.857223816335823e+000
1	 1.904875276878457e+000	 2.405066583230165e-001	 4.650729971547472e+000
1	 1.902400379681716e+000	 2.593571334618774e-001	 4.437834192123730e+000
1	 1.899729722405203e+000	 2.782451121144706e-001	 4.219297323328127e+000
1	 1.896861787363458e+000	 2.971678499221833e-001	 3.995851183421742e+000
1	 1.893795102192404e+000	 3.161225546247839e-001	 3.768196985121267e+000
1	 1.890528241412844e+000	 3.351063868195044e-001	 3.537003772265250e+000
1	 1.887059827985581e+000	 3.541164607743985e-001	 3.302906875151940e+000
1	 1.883388534856166e+000	 3.731498452962564e-001	 3.066506388068384e+000
1	 1.917776541542956e+000	 1.848465145744731e-001	 5.273449621610032e+000
1	 1.915872802089337e+000	 2.036335033455986e-001	 5.090103283321548e+000
1	 1.913777448857434e+000	 2.224660922835847e-001	 4.898389460489480e+000
1	 1.911488831924310e+000	 2.413416757370221e-001	 4.699095687271802e+000
1	 1.909005342108230e+000	 2.602575980241982e-001	 4.492987731199671e+000
1	 1.906325412551045e+000	 2.792111540338950e-001	 4.280808142305737e+000
1	 1.903447520298011e+000	 2.981995898793440e-001	 4.063274808015781e+000
1	 1.900370187873122e+000	 3.172201036058480e-001	 3.841079516760739e+000
1	 1.897091984848029e+000	 3.362698459524989e-001	 3.614886533335641e+000
1	 1.893611529402563e+000	 3.553459211683593e-001	 3.385331189095065e+000
1	 1.889927489874846e+000	 3.744453878833915e-001	 3.153018490133373e+000
1	 1.924411866345337e+000	 1.854860659714353e-001	 5.328384440240134e+000
1	 1.922501540134042e+000	 2.043380559406118e-001	 5.152497592073702e+000
1	 1.920398937179060e+000	 2.232358038488349e-001	 4.967872506293293e+000
1	 1.918102401848856e+000	 2.421766950293987e-001	 4.775270294698584e+000
1	 1.915610319394058e+000	 2.611580646121946e-001	 4.575434853948758e+000
1	 1.912921117535318e+000	 2.801771981265868e-001	 4.369091575997304e+000
1	 1.910033268048593e+000	 2.992313321576312e-001	 4.156946061127558e+000
1	 1.906945288345930e+000	 3.183176550561437e-001	 3.939682836146867e+000
1	 1.903655743049810e+000	 3.374333077030550e-001	 3.717964080358372e+000
1	 1.900163245559078e+000	 3.565753843284157e-001	 3.492428361992374e+000
1	 1.896466459604412e+000	 3.757409333853379e-001	 3.263689387830804e+000
1	 1.831077228164503e+000	 3.627855706705264e-001	 3.212604596157672e+000
1	 1.827308840852505e+000	 3.813128506229466e-001	 2.920312852269307e+000
1	 1.823340721694443e+000	 3.998569654505436e-001	 2.634817605123685e+000
1	 1.819171736284712e+000	 4.184149326073986e-001	 2.356921825373767e+000
1	 1.814800804742252e+000	 4.369837291416522e-001	 2.087383535625852e+000
1	 1.810226903133151e+000	 4.555602928079645e-001	 1.826913879698622e+000
1	 1.805449064870776e+000	 4.741415232331826e-001	 1.576175227128811e+000
1	 1.800466382091268e+000	 4.927242831349174e-001	 1.335779317489955e+000
1	 1.795278007002279e+000	 5.113053995926306e-001	 1.106285449119231e+000
1	 1.789883153202777e+000	 5.298816653707489e-001	 8.881987168648996e-001
1	 1.784281096971782e+000	 5.484498402932200e-001	 6.819683034713283e-001
1	 1.837616124336330e+000	 3.640811015977279e-001	 3.115382031559824e+000
1	 1.833834279867261e+000	 3.826745436747856e-001	 2.833556062707545e+000
1	 1.829851990296648e+000	 4.012848807454483e-001	 2.558263513043338e+000
1	 1.825668117167858e+000	 4.199091196129332e-001	 2.290290149233552e+000
1	 1.821281576743510e+000	 4.385442265302251e-001	 2.030377452211163e+000
1	 1.816691341433165e+000	 4.571871283165070e-001	 1.779220720779792e+000
1	 1.811896441198450e+000	 4.758347135269936e-001	 1.537467210113723e+000
1	 1.806895964933474e+000	 4.944838336758576e-001	 1.305714309647661e+000
1	 1.801689061818373e+000	 5.131313045118566e-001	 1.084507764876767e+000
1	 1.796274942643831e+000	 5.317739073461716e-001	 8.743399476046663e-001
1	 1.790652881104421e+000	 5.504083904318716e-001	 6.756481791808250e-001
1	 1.844155022143435e+000	 3.653766328489503e-001	 3.040163641540238e+000
1	 1.840359720513974e+000	 3.840362370671486e-001	 2.767682623463061e+000
1	 1.836363260527303e+000	 4.027127963974043e-001	 2.501455884662663e+000
1	 1.832164499675755e+000	 4.214033069920676e-001	 2.242262934485949e+000
1	 1.827762350365629e+000	 4.401047243089640e-001	 1.990838950184737e+000
1	 1.823155781349956e+000	 4.588139642317981e-001	 1.747872884591851e+000
1	 1.818343819138624e+000	 4.775279042441487e-001	 1.514005608922523e+000
1	 1.813325549383706e+000	 4.962433846567469e-001	 1.289828095194087e+000
1	 1.808100118237819e+000	 5.149572098876430e-001	 1.075879642785135e+000
1	 1.802666733683369e+000	 5.336661497947700e-001	 8.726461536712313e-001
1	 1.797024666830474e+000	 5.523669410603160e-001	 6.805584608769647e-001
1	 1.850693923220269e+000	 3.666721647480424e-001	 2.987232329566696e+000
1	 1.846885164423731e+000	 3.853979311404336e-001	 2.723050678332037e+000
1	 1.842874534013948e+000	 4.041407127633728e-001	 2.464820981509467e+000
1	 1.838660885432222e+000	 4.228974951183376e-001	 2.213327333281737e+000
1	 1.834243127228527e+000	 4.416652228679883e-001	 1.969308745705802e+000
1	 1.829620224499362e+000	 4.604408009605448e-001	 1.733457230368893e+000
1	 1.824791200302876e+000	 4.792210958079453e-001	 1.506415915974907e+000
1	 1.819755137049102e+000	 4.980029365174732e-001	 1.288777206427378e+000
1	 1.814511177863141e+000	 5.167831161764661e-001	 1.081080984004341e+000
1	 1.809058527919111e+000	 5.355583931896024e-001	 8.838128622347768e-001
1	 1.803396455742680e+000	 5.543254926681835e-001	 6.974024930899565e-001
1	 1.857232829201285e+000	 3.679676976188531e-001	 2.956866984177209e+000
1	 1.853410613227614e+000	 3.867596262350392e-001	 2.700013298081756e+000
1	 1.849385812384124e+000	 4.055686302003154e-001	 2.448779034321759e+000
1	 1.845157276061076e+000	 4.243916843652784e-001	 2.203963611015035e+000
1	 1.840723908952120e+000	 4.432257225974156e-001	 1.966319915390288e+000
1	 1.836084672497222e+000	 4.620676389094542e-001	 1.736552329509002e+000
1	 1.831238586302786e+000	 4.809142886416813e-001	 1.515314793295464e+000
1	 1.826184729536804e+000	 4.997624896979254e-001	 1.303208909588291e+000
1	 1.820922242296858e+000	 5.186090238348022e-001	 1.100782095955004e+000
1	 1.815450326948778e+000	 5.374506380037266e-001	 9.085257880269984e-001
1	 1.809768249433779e+000	 5.562840457451034e-001	 7.268736991138058e-001
1	 1.863771741720931e+000	 3.692632317852310e-001	 2.949342548841932e+000
1	 1.859936068556710e+000	 3.881213226913631e-001	 2.698918568899007e+000
1	 1.855897097265371e+000	 4.069965490651931e-001	 2.453744348323730e+000
1	 1.851653673186138e+000	 4.258858751064262e-001	 2.214645266641533e+000
1	 1.847204697156331e+000	 4.447862238873650e-001	 1.982398029861204e+000
1	 1.842549126959376e+000	 4.636944784852327e-001	 1.757728610523736e+000
1	 1.837685978749934e+000	 4.826074831686547e-001	 1.541310227007482e+000
1	 1.832614328453952e+000	 5.015220446379923e-001	 1.333761367022361e+000
1	 1.827333313141492e+000	 5.204349333191274e-001	 1.135643860254377e+000
1	 1.821842132370091e+000	 5.393428847102000e-001	 9.474610051380303e-001
1	 1.816140049496512e+000	 5.582426007807066e-001	 7.696557547353734e-001
1	 1.870310662413659e+000	 3.705587675710250e-001	 2.964930090355015e+000
1	 1.866461532042101e+000	 3.894830208498033e-001	 2.720109678977532e+000
1	 1.862408390285230e+000	 4.084244697149676e-001	 2.480125406286425e+000
1	 1.858150078431226e+000	 4.273800677153165e-001	 2.245839150464710e+000
1	 1.853685493461075e+000	 4.463467271279551e-001	 2.018061284488720e+000
1	 1.849013589501663e+000	 4.653213200945875e-001	 1.797548500937702e+000
1	 1.844133379255898e+000	 4.843006798121632e-001	 1.585001678575768e+000
1	 1.839043935407688e+000	 5.032816017775624e-001	 1.381063795929901e+000
1	 1.833744391999562e+000	 5.222608450859181e-001	 1.186317897118157e+000
1	 1.828233945780770e+000	 5.412351337820803e-001	 1.001285115198097e+000
1	 1.822511857523616e+000	 5.602011582646226e-001	 8.264227583074509e-001
1	 1.876849592913921e+000	 3.718543053000839e-001	 3.003896865791909e+000
1	 1.872987005314874e+000	 3.908447210507583e-001	 2.763925003289676e+000
1	 1.868919693071243e+000	 4.098523925065999e-001	 2.528324969427037e+000
1	 1.864646493420159e+000	 4.288742625654853e-001	 2.298005579451980e+000
1	 1.860166299486271e+000	 4.479072327093041e-001	 2.073820627388576e+000
1	 1.855478061739920e+000	 4.669481641442252e-001	 1.856566566212211e+000
1	 1.850580789432260e+000	 4.859938789955048e-001	 1.646980232877624e+000
1	 1.845473552005150e+000	 5.050411615565242e-001	 1.445736623786698e+000
1	 1.840155480473591e+000	 5.240867595916503e-001	 1.253446726314965e+000
1	 1.834625768778536e+000	 5.431273856924254e-001	 1.070655412032400e+000
1	 1.828883675107834e+000	 5.621597186864816e-001	 8.978393972554781e-001
1	 1.883388534856166e+000	 3.731498452962564e-001	 3.066506388068384e+000
1	 1.879512490006111e+000	 3.922064236346262e-001	 2.830698186586801e+000
1	 1.875431007250949e+000	 4.112803177970515e-001	 2.598740176200219e+000
1	 1.871142919776756e+000	 4.303684600304681e-001	 2.371598450141346e+000
1	 1.866647116851838e+000	 4.494677410215305e-001	 2.150179884745894e+000
1	 1.861942545289986e+000	 4.685750110408526e-001	 1.935329645766164e+000
1	 1.857028210890599e+000	 4.876870811419775e-001	 1.727828743180009e+000
1	 1.851903179853479e+000	 5.068007244147664e-001	 1.528391640517102e+000
1	 1.846566580166098e+000	 5.259126772928005e-001	 1.337663924757311e+000
1	 1.841017602961110e+000	 5.450196409142923e-001	 1.156220042875174e+000
1	 1.835255503841901e+000	 5.641182825359137e-001	 9.845611111047108e-001
1	 1.889927489874846e+000	 3.744453878833915e-001	 3.153018490133373e+000
1	 1.886037987746898e+000	 3.935681289418047e-001	 2.920758224671105e+000
1	 1.881942334451890e+000	 4.127082459432837e-001	 2.691762639031611e+000
1	 1.877639359124836e+000	 4.318626604838007e-001	 2.467065349196649e+000
1	 1.873127947177695e+000	 4.510282524547534e-001	 2.247635883529098e+000
1	 1.868407041767702e+000	 4.702018611911770e-001	 2.034376986164082e+000
1	 1.863475645242494e+000	 4.893802866748787e-001	 1.828121973097318e+000
1	 1.858332820559816e+000	 5.085602907921776e-001	 1.629632147498147e+000
1	 1.852977692679604e+000	 5.277385986458443e-001	 1.439594280810733e+000
1	 1.847409449926213e+000	 5.469118999207399e-001	 1.258618166226673e+000
1	 1.841627345318559e+000	 5.660768503025488e-001	 1.087234251112436e+000
1	 1.896466459604412e+000	 3.757409333853379e-001	 3.263689387830804e+000
1	 1.892563500168320e+000	 3.949298373126922e-001	 3.034429543981101e+000
1	 1.888453676301606e+000	 4.141361773022581e-001	 2.807778539044592e+000
1	 1.884135813088218e+000	 4.333568642990193e-001	 2.584847661668902e+000
1	 1.879608792083759e+000	 4.525887673990907e-001	 2.366678571657331e+000
1	 1.874871552788905e+000	 4.718287150019048e-001	 2.154240371540513e+000
1	 1.869923094099525e+000	 4.910734960175069e-001	 1.948426735603284e+000
1	 1.864762475731302e+000	 5.103198611286467e-001	 1.750053103471429e+000
1	 1.859388819616633e+000	 5.295645241072586e-001	 1.559853945400884e+000
1	 1.853801311271564e+000	 5.488041631848249e-001	 1.378480106434046e+000
1	 1.847999201130549e+000	 5.680354224760175e-001	 1.206496236587424e+000
1	 1.784281096971782e+000	 5.484498402932200e-001	 6.819683034713283e-001
1	 1.778471178077622e+000	 5.670066523970694e-001	 4.891745827250140e-001
1	 1.772452799657343e+000	 5.855487985655503e-001	 3.115100709830974e-001
1	 1.766225430735958e+000	 6.040729468208824e-001	 1.494931071884866e-001
1	 1.759788607818298e+000	 6.225757381620464e-001	 3.565505380234240e-003
1	 1.753141935993637e+000	 6.410537881847428e-001	-1.259094829155774e-001
1	 1.746285089996563e+000	 6.595036887474010e-001	-2.386491134001891e-001
1	 1.739217815222061e+000	 6.779220096819685e-001	-3.344529949717108e-001
1	 1.731939928692788e+000	 6.963053005481263e-001	-4.132048312057761e-001
1	 1.724451319976577e+000	 7.146500924294711e-001	-4.748740517277277e-001
1	 1.716751952052255e+000	 7.329528997701102e-001	-5.195173280013168e-001
1	 1.790652881104421e+000	 5.504083904318716e-001	 6.756481791808250e-001
1	 1.784822214610746e+000	 5.690314701215915e-001	 4.899382827728243e-001
1	 1.778782344168420e+000	 5.876398315029393e-001	 3.188224030238496e-001
1	 1.772532736906307e+000	 6.062301306994240e-001	 1.627992195709897e-001
1	 1.766072927674071e+000	 6.247989967148147e-001	 2.229127152906704e-002
1	 1.759402520150737e+000	 6.433430330588842e-001	-1.023570474430756e-001
1	 1.752521187909348e+000	 6.618588194193653e-001	-2.108814011147217e-001
1	 1.745428675435680e+000	 6.803429133788516e-001	-3.030993239043654e-001
1	 1.738124799098968e+000	 6.987918521752770e-001	-3.789119296673988e-001
1	 1.730609448072687e+000	 7.172021545045108e-001	-4.383055104941565e-001
1	 1.722882585203459e+000	 7.355703223635137e-001	-4.813530201076882e-001
1	 1.797024666830474e+000	 5.523669410603160e-001	 6.805584608769647e-001
1	 1.791173252732014e+000	 5.710562883525208e-001	 5.010499362506019e-001
1	 1.785111890262170e+000	 5.897308649633422e-001	 3.356519522003557e-001
1	 1.778840044653666e+000	 6.083873151175759e-001	 1.848437888053283e-001
1	 1.772357249100997e+000	 6.270222558237740e-001	 4.902803884603334e-002
1	 1.765663105872937e+000	 6.456322785057757e-001	-7.147138072829672e-002
1	 1.758757287380994e+000	 6.642139506806133e-001	-1.764111229817774e-001
1	 1.751639537201736e+000	 6.827638176815222e-001	-2.656302050356655e-001
1	 1.744309671050979e+000	 7.012784044246840e-001	-3.390516962965486e-001
1	 1.736767577707839e+000	 7.197542172182364e-001	-3.966842953215524e-001
1	 1.729013219886742e+000	 7.381877456119868e-001	-4.386237899222359e-001
1	 1.803396455742680e+000	 5.543254926681835e-001	 6.974024930899565e-001
1	 1.797524294029003e+000	 5.730811075960470e-001	 5.232130944057299e-001
1	 1.791441439520828e+000	 5.918218994694956e-001	 3.626950877186950e-001
1	 1.785147355554737e+000	 6.105445006146021e-001	 2.163085926396278e-001
1	 1.778641573670060e+000	 6.292455160446953e-001	 8.443556990582896e-002
1	 1.771923694725325e+000	 6.479215250976735e-001	-3.262216691934466e-002
1	 1.764993389970501e+000	 6.665690831198611e-001	-1.346448426916503e-001
1	 1.757850402072950e+000	 6.851847231951276e-001	-2.214965090317293e-001
1	 1.750494546095071e+000	 7.037649579178936e-001	-2.931267240426057e-001
1	 1.742925710421627e+000	 7.223062812085587e-001	-3.495721178061831e-001
1	 1.735143857634843e+000	 7.408051701697699e-001	-3.909578382210499e-001
1	 1.809768249433779e+000	 5.562840457451034e-001	 7.268736991138058e-001
1	 1.803875340089290e+000	 5.751059283583608e-001	 5.571213855588844e-001
1	 1.797770993526625e+000	 5.939129355441349e-001	 4.006383581482513e-001
1	 1.791454671186225e+000	 6.127016877297664e-001	 2.578657947468880e-001
1	 1.784925902952252e+000	 6.314687779333502e-001	 1.291643242439441e-001
1	 1.778184288272990e+000	 6.502107734068342e-001	 1.481202241998863e-002
1	 1.771229497236867e+000	 6.689242173258243e-001	-8.499749111707415e-002
1	 1.764061271602043e+000	 6.876056305248131e-001	-1.701568489681229e-001
1	 1.756679425777497e+000	 7.062515132764518e-001	-2.406466191150521e-001
1	 1.749083847753641e+000	 7.248583471133897e-001	-2.965368695366463e-001
1	 1.741274499980501e+000	 7.434225966911037e-001	-3.379886087397799e-001
1	 1.816140049496512e+000	 5.582426007807066e-001	 7.696557547353734e-001
1	 1.810226392500453e+000	 5.771307511456527e-001	 6.034586888851835e-001
1	 1.804100553861794e+000	 5.960039737099959e-001	 4.501586634299203e-001
1	 1.797761993124833e+000	 6.148588770023328e-001	 3.101781131299877e-001
1	 1.791210238518562e+000	 6.336920420455107e-001	 1.838556213246743e-001
1	 1.784444888081018e+000	 6.525000240055143e-001	 7.144388400541518e-002
1	 1.777465610739092e+000	 6.712793538872184e-001	-2.689221972674901e-002
1	 1.770272147341734e+000	 6.900265402757259e-001	-1.110774446868070e-001
1	 1.762864311644508e+000	 7.087380711219047e-001	-1.811278781155727e-001
1	 1.755241991243472e+000	 7.274104155706407e-001	-2.371525138282191e-001
1	 1.747405148456453e+000	 7.460400258302280e-001	-2.793546963308358e-001
1	 1.822511857523616e+000	 5.602011582646226e-001	 8.264227583074509e-001
1	 1.816577452850068e+000	 5.791555764641130e-001	 6.628993045383893e-001
1	 1.810430122108566e+000	 5.980950144898148e-001	 5.119234232646593e-001
1	 1.804069322947262e+000	 6.170160689715646e-001	 3.738989849827578e-001
1	 1.797494581939978e+000	 6.359153089369478e-001	 2.491418000796190e-001
1	 1.790705495714499e+000	 6.547892774659703e-001	 1.378775352510506e-001
1	 1.783701732036173e+000	 6.736344933927593e-001	 4.023974291642919e-002
1	 1.776483030844745e+000	 6.924474530530120e-001	-4.373199000750493e-002
1	 1.769049205242356e+000	 7.112246320757975e-001	-1.140937677557872e-001
1	 1.761400142430712e+000	 7.299624872182238e-001	-1.709989797354627e-001
1	 1.753535804595439e+000	 7.486574582413831e-001	-2.146997570532828e-001
1	 1.828883675107834e+000	 5.621597186864816e-001	 8.978393972554781e-001
1	 1.822928522725712e+000	 5.811804048199316e-001	 7.361081202075478e-001
1	 1.816759699849174e+000	 6.001860584063269e-001	 5.865907419707807e-001
1	 1.810376662230218e+000	 6.191732641767258e-001	 4.496727280939694e-001
1	 1.803778934787489e+000	 6.381385791634338e-001	 3.256463751006474e-001
1	 1.796966112738519e+000	 6.570785343604584e-001	 2.147086634920001e-001
1	 1.789937862687110e+000	 6.759896364311618e-001	 1.169592316479290e-001
1	 1.782693923663795e+000	 6.948683694618180e-001	 3.239847727628129e-002
1	 1.775234108117294e+000	 7.137111967596770e-001	-3.907420709727899e-002
1	 1.767558302854952e+000	 7.325145626940495e-001	-9.766205828744658e-002
1	 1.759666469930197e+000	 7.512748945788091e-001	-1.436724201481922e-001
1	 1.835255503841901e+000	 5.641182825359137e-001	 9.845611111047108e-001
1	 1.829279603714964e+000	 5.832052367192995e-001	 8.237407741931123e-001
1	 1.823089288665850e+000	 6.022771059822683e-001	 6.748095698963743e-001
1	 1.816684012550403e+000	 6.213304631570801e-001	 5.381346988784295e-001
1	 1.810063298632084e+000	 6.403618532807395e-001	 4.139841895689130e-001
1	 1.803226740718167e+000	 6.593677952612349e-001	 3.025246720886416e-001
1	 1.796174004250901e+000	 6.783447835911425e-001	 2.038192822582026e-001
1	 1.788904827351605e+000	 6.972892901072900e-001	 1.178257026846278e-001
1	 1.781419021815571e+000	 7.161977657950887e-001	 4.439434774751432e-002
1	 1.773716474055784e+000	 7.350666426360299e-001	-1.673330089131200e-002
1	 1.765797145993466e+000	 7.538923354967473e-001	-6.592620185340975e-002
1	 1.841627345318559e+000	 5.660768503025488e-001	 1.087234251112436e+000
1	 1.835630697405398e+000	 5.852300726684062e-001	 9.264438150871348e-001
1	 1.829418890140827e+000	 6.043681577403747e-001	 7.772198614703055e-001
1	 1.822991375484519e+000	 6.234876664518915e-001	 6.399114471170593e-001
1	 1.816347675044753e+000	 6.425851318446370e-001	 5.147615649991831e-001
1	 1.809487381218530e+000	 6.616570607405571e-001	 4.019048234883378e-001
1	 1.802410158286545e+000	 6.806999354614165e-001	 3.013652661847895e-001
1	 1.795115743460896e+000	 6.997102155945745e-001	 2.130543396877690e-001
1	 1.787603947883441e+000	 7.186843398035789e-001	 1.367690165133383e-001
1	 1.779874657572799e+000	 7.376187276820769e-001	 7.219008014841058e-002
1	 1.771927834317984e+000	 7.565097816494371e-001	 1.888057898686348e-002
1	 1.847999201130549e+000	 5.680354224760175e-001	 1.206496236587424e+000
1	 1.841981805384595e+000	 5.872549131734429e-001	 1.044854858139555e+000
1	 1.835748505856336e+000	 6.064592142033818e-001	 8.944527299733067e-001
1	 1.829298752609273e+000	 6.256448746004242e-001	 7.556208674859367e-001
1	 1.822632065596483e+000	 6.448084154108978e-001	 6.285764478765755e-001
1	 1.815748035804696e+000	 6.639463313706805e-001	 5.134203793183335e-001
1	 1.808646326353042e+000	 6.830550926306998e-001	 4.101350224091735e-001
1	 1.801326673544389e+000	 7.021311465288183e-001	 3.185820717562146e-001
1	 1.793788887867155e+000	 7.211709194066933e-001	 2.385006053372719e-001
1	 1.786032854945589e+000	 7.401708184701011e-001	 1.695053090460730e-001
1	 1.778058536436490e+000	 7.591272336911190e-001	 1.110848835612034e-001
1	 1.716751952052255e+000	 7.329528997701102e-001	-5.195173280013168e-001
1	 1.708843064595402e+000	 7.512074875272331e-001	-5.569928317922135e-001
1	 1.700723631802261e+000	 7.694130934055929e-001	-5.972511890427378e-001
1	 1.692393842765832e+000	 7.875661958811594e-001	-6.405201065529816e-001
1	 1.683853962847609e+000	 8.056632645502203e-001	-6.870033292396538e-001
1	 1.675104334255827e+000	 8.237007621394886e-001	-7.368801340441482e-001
1	 1.666145376561775e+000	 8.416751465452835e-001	-7.903048598062002e-001
1	 1.656977587152687e+000	 8.595828728996267e-001	-8.474064745940009e-001
1	 1.647601541619870e+000	 8.774203956610007e-001	-9.082881819135649e-001
1	 1.638017894080758e+000	 8.951841707274575e-001	-9.730270671462807e-001
1	 1.628227377433699e+000	 9.128706575696799e-001	-1.041673785484486e+000
1	 1.722882585203459e+000	 7.355703223635137e-001	-4.813530201076882e-001
1	 1.714945454593828e+000	 7.538900984437293e-001	-5.175156300693604e-001
1	 1.706797026776825e+000	 7.721607177277033e-001	-5.563357736920872e-001
1	 1.698437491520715e+000	 7.903786461158098e-001	-5.980403280025030e-001
1	 1.689867115134611e+000	 8.085403405970330e-001	-6.428316278299029e-001
1	 1.681086241048800e+000	 8.266422512662486e-001	-6.908869545743995e-001
1	 1.672095290332883e+000	 8.446808233706905e-001	-7.423580619731132e-001
1	 1.662894762150299e+000	 8.626524993834223e-001	-7.973707403813860e-001
1	 1.653485234147826e+000	 8.805537211015636e-001	-8.560244210153961e-001
1	 1.643867362778795e+000	 8.983809317669451e-001	-9.183918215264708e-001
1	 1.634041883558781e+000	 9.161305782067851e-001	-9.845186341959309e-001
1	 1.729013219886742e+000	 7.381877456119868e-001	-4.386237899222353e-001
1	 1.721047846117197e+000	 7.565727100316283e-001	-4.739397177855275e-001
1	 1.712870423269022e+000	 7.749083427374959e-001	-5.117712314059786e-001
1	 1.704481141785743e+000	 7.931910970543670e-001	-5.523505429221707e-001
1	 1.695880268924100e+000	 8.114174173639178e-001	-5.958843971401137e-001
1	 1.687068149336424e+000	 8.295837411291850e-001	-6.425535431476669e-001
1	 1.678045205590631e+000	 8.476865009483131e-001	-6.925122444413018e-001
1	 1.668811938626363e+000	 8.657221266354052e-001	-7.458878291388029e-001
1	 1.659368928145872e+000	 8.836870473262150e-001	-8.027802817782992e-001
1	 1.649716832938384e+000	 9.015776936063482e-001	-8.632618781244029e-001
1	 1.639856391136701e+000	 9.193904996595568e-001	-9.273768643175278e-001
1	 1.735143857634843e+000	 7.408051701697699e-001	-3.909578382210496e-001
1	 1.727150240691201e+000	 7.592553229614557e-001	-4.259619407737221e-001
1	 1.718943822797304e+000	 7.776559691217415e-001	-4.633200088293863e-001
1	 1.710524795071942e+000	 7.960035493998001e-001	-5.032757155776629e-001
1	 1.701893425719475e+000	 8.142944955699942e-001	-5.460459994502539e-001
1	 1.693050060614283e+000	 8.325252324635154e-001	-5.918205066324949e-001
1	 1.683995123822598e+000	 8.506921800294127e-001	-6.407610740803715e-001
1	 1.674729118060264e+000	 8.687917554228226e-001	-6.930012547043051e-001
1	 1.665252625085009e+000	 8.868203751181280e-001	-7.486458863038472e-001
1	 1.655566306021953e+000	 9.047744570447024e-001	-8.077707057538520e-001
1	 1.645670901621129e+000	 9.226504227428251e-001	-8.704220098534006e-001
1	 1.741274499980501e+000	 7.434225966911037e-001	-3.379886087397801e-001
1	 1.733252639841535e+000	 7.619379379037399e-001	-3.732834204574469e-001
1	 1.725017226880129e+000	 7.804035975672117e-001	-4.107479037175124e-001
1	 1.716568452890335e+000	 7.988160038550789e-001	-4.506432802924197e-001
1	 1.707906587024137e+000	 8.171715759343821e-001	-4.932024299774497e-001
1	 1.699031976377965e+000	 8.354667260044575e-001	-5.386292921137309e-001
1	 1.689945046516368e+000	 8.536978613652514e-001	-5.870983100862872e-001
1	 1.680646301931392e+000	 8.718613865129233e-001	-6.387539205767128e-001
1	 1.671136326436242e+000	 8.899537052604761e-001	-6.937100892681942e-001
1	 1.661415783491934e+000	 9.079712228810429e-001	-7.520498946122393e-001
1	 1.651485416465734e+000	 9.259103482714212e-001	-8.138251611715655e-001
1	 1.747405148456453e+000	 7.460400258302280e-001	-2.793546963308358e-001
1	 1.739355045093891e+000	 7.646205555290072e-001	-3.156094789633585e-001
1	 1.731090637035950e+000	 7.831512287606772e-001	-3.538240062519372e-001
1	 1.722612116751946e+000	 8.016284611231731e-001	-3.942830982057977e-001
1	 1.713919754341489e+000	 8.200486591762006e-001	-4.372412883055439e-001
1	 1.705013898123057e+000	 8.384082224872302e-001	-4.829221722146490e-001
1	 1.695894975159521e+000	 8.567035457070906e-001	-5.315178024094912e-001
1	 1.686563491719131e+000	 8.749310206729553e-001	-5.831881306561362e-001
1	 1.677020033670570e+000	 8.930870385364330e-001	-6.380605001750255e-001
1	 1.667265266810758e+000	 9.111679919144055e-001	-6.962291892403897e-001
1	 1.657299937124190e+000	 9.291702770601759e-001	-7.577550078600726e-001
1	 1.753535804595439e+000	 7.486574582413831e-001	-2.146997570532828e-001
1	 1.745457457973962e+000	 7.673031765077846e-001	-2.526495658098066e-001
1	 1.737164054783222e+000	 7.858988633889095e-001	-2.923206415917031e-001
1	 1.728655788167798e+000	 8.044409219070525e-001	-3.340274149411774e-001
1	 1.719932929174930e+000	 8.229257460145701e-001	-3.780517504159170e-001
1	 1.710995827345145e+000	 8.413497226470509e-001	-4.246422307279899e-001
1	 1.701844911239638e+000	 8.597092338061929e-001	-4.740134902161082e-001
1	 1.692480688902867e+000	 8.780006586701662e-001	-5.263455997584650e-001
1	 1.682903748258998e+000	 8.962203757291724e-001	-5.817835051402344e-001
1	 1.673114757440853e+000	 9.143647649438252e-001	-6.404365207887744e-001
1	 1.663114465050167e+000	 9.324302099239195e-001	-7.023778806812727e-001
1	 1.759666469930197e+000	 7.512748945788091e-001	-1.436724201481922e-001
1	 1.751559880007443e+000	 7.699858015105993e-001	-1.841171861327388e-001
1	 1.743237481640399e+000	 7.886465021386789e-001	-2.260133136291170e-001
1	 1.734699468648917e+000	 8.072533869096865e-001	-2.697108191617602e-001
1	 1.725946113027860e+000	 8.258028371686097e-001	-3.155245413048001e-001
1	 1.716977765539816e+000	 8.442912272191379e-001	-3.637333485482715e-001
1	 1.707794856244301e+000	 8.627149264138195e-001	-4.145794003813992e-001
1	 1.698397894961988e+000	 8.810703012718046e-001	-4.682674639093121e-001
1	 1.688787471672527e+000	 8.993537176218677e-001	-5.249642882196742e-001
1	 1.678964256844652e+000	 9.175615427683384e-001	-5.847980386070263e-001
1	 1.668929001697338e+000	 9.356901476774830e-001	-6.478577926462442e-001
1	 1.765797145993466e+000	 7.538923354967473e-001	-6.592620185340975e-002
1	 1.757662312720026e+000	 7.726684312079784e-001	-1.097298304114509e-001
1	 1.749310919125939e+000	 7.913941456967579e-001	-1.546806499208694e-001
1	 1.740743159706326e+000	 8.100658568340448e-001	-2.011702019924416e-001
1	 1.731959307403683e+000	 8.286799333574388e-001	-2.495519081728052e-001
1	 1.722959714202657e+000	 8.472327369387087e-001	-3.001401898980822e-001
1	 1.713744811661092e+000	 8.657206242812326e-001	-3.532096460146817e-001
1	 1.704315111375880e+000	 8.841399492451175e-001	-4.089942904228910e-001
1	 1.694671205382161e+000	 9.024870649976924e-001	-4.676868522912965e-001
1	 1.684813766484584e+000	 9.207583261869791e-001	-5.294381411733014e-001
1	 1.674743548519371e+000	 9.389500911356974e-001	-5.943564792309087e-001
1	 1.771927834317984e+000	 7.565097816494371e-001	 1.888057898686348e-002
1	 1.763764757637406e+000	 7.753510662704486e-001	-2.920890565780534e-002
1	 1.755384368758295e+000	 7.941417947499168e-001	-7.810434776596033e-002
1	 1.746786862851048e+000	 8.128783323830974e-001	-1.282447172866819e-001
1	 1.737972513805797e+000	 8.315570353001780e-001	-1.800275941727612e-001
1	 1.728941674829252e+000	 8.501742525409822e-001	-2.338081888411902e-001
1	 1.719694778977591e+000	 8.687263281596939e-001	-2.898984250149728e-001
1	 1.710232339623929e+000	 8.872096033573542e-001	-3.485660877709213e-001
1	 1.700554950858902e+000	 9.056204186398202e-001	-4.100340395023771e-001
1	 1.690663287823079e+000	 9.239551159987846e-001	-4.744795063796094e-001
1	 1.680558106969941e+000	 9.422100411133936e-001	-5.420334377546291e-001
1	 1.778058536436490e+000	 7.591272336911190e-001	 1.110848835612034e-001
1	 1.769867216285273e+000	 7.780337073685373e-001	 5.772033196661728e-002
1	 1.761457832055922e+000	 7.968894499849266e-001	 3.930878597404037e-003
1	 1.752830579594108e+000	 8.156908142598141e-001	-5.077574271793871e-002
1	 1.743985733737606e+000	 8.344341437159465e-001	-1.068468127023324e-001
1	 1.734923648915190e+000	 8.531157747611763e-001	-1.646835360755286e-001
1	 1.725644759681382e+000	 8.717320388004651e-001	-2.246400186565552e-001
1	 1.716149581185522e+000	 8.902792643757621e-001	-2.870223152467828e-001
1	 1.706438709573752e+000	 9.087537793314253e-001	-3.520875512923470e-001
1	 1.696512822322570e+000	 9.271519130027890e-001	-4.200431211885582e-001
1	 1.686372678502719e+000	 9.454699984254018e-001	-4.910459659415661e-001
1	 1.628227377433699e+000	 9.128706575696799e-001	-1.041673785484486e+000
1	 1.618229288713946e+000	 9.304789564240998e-001	-1.113604121828441e+000
1	 1.608025973600485e+000	 9.480028805172917e-001	-1.188196902902589e+000
1	 1.597618403935810e+000	 9.654389124762559e-001	-1.265497181712168e+000
1	 1.587007630703517e+000	 9.827835472266669e-001	-1.345520505581254e+000
1	 1.576194783930540e+000	 1.000033294188532e+000	-1.428252665861463e+000
1	 1.565181072517051e+000	 1.017184679476191e+000	-1.513649497985864e+000
1	 1.553967783993609e+000	 1.034234248099903e+000	-1.601636732828855e+000
1	 1.542556284205236e+000	 1.051178566166237e+000	-1.692109900214951e+000
1	 1.530948016922200e+000	 1.068014223074453e+000	-1.784934285296977e+000
1	 1.519144503377449e+000	 1.084737833706065e+000	-1.879944938398598e+000
1	 1.634041883558781e+000	 9.161305782067851e-001	-9.845186341959312e-001
1	 1.624008091012704e+000	 9.338017574444000e-001	-1.053767602028876e+000
1	 1.613768339196110e+000	 9.513882606129945e-001	-1.125511271661681e+000
1	 1.603323603421993e+000	 9.688865577788064e-001	-1.199799008561135e+000
1	 1.592674938427071e+000	 9.862931313506641e-001	-1.276651669348539e+000
1	 1.581823478273663e+000	 1.003604478283490e+000	-1.356061351785038e+000
1	 1.570770436178989e+000	 1.020817112286156e+000	-1.437991193371891e+000
1	 1.559517104271456e+000	 1.037927566030934e+000	-1.522375219510247e+000
1	 1.548064853273591e+000	 1.054932393361736e+000	-1.609118242051514e+000
1	 1.536415132111450e+000	 1.071828171498351e+000	-1.698095808951011e+000
1	 1.524569467450388e+000	 1.088611503233817e+000	-1.789154205616397e+000
1	 1.639856391136701e+000	 9.193904996595568e-001	-9.273768643175276e-001
1	 1.629786894755408e+000	 9.371245592960400e-001	-9.944832108407022e-001
1	 1.619510706226610e+000	 9.547736415556311e-001	-1.063951693404979e+000
1	 1.609028804333805e+000	 9.723342039438019e-001	-1.135833485451720e+000
1	 1.598342247566829e+000	 9.898027163525364e-001	-1.210151846244299e+000
1	 1.587452174023388e+000	 1.007175663271671e+000	-1.286901874122244e+000
1	 1.576359801237752e+000	 1.024449546004611e+000	-1.366050307393988e+000
1	 1.565066425936167e+000	 1.041620884885633e+000	-1.447535373796731e+000
1	 1.553573423718674e+000	 1.058686221496000e+000	-1.531266689340425e+000
1	 1.541882248667110e+000	 1.075642120876025e+000	-1.617125207236916e+000
1	 1.529994432879242e+000	 1.092485173730273e+000	-1.704963217496460e+000
1	 1.645670901621129e+000	 9.226504227428251e-001	-8.704220098534006e-001
1	 1.635565701386777e+000	 9.404473628095780e-001	-9.359614254109442e-001
1	 1.625253076127579e+000	 9.581590241914136e-001	-1.003762651520818e+000
1	 1.614734008097527e+000	 9.757818518330338e-001	-1.073876205299494e+000
1	 1.604009559539578e+000	 9.933123031095723e-001	-1.146324885072255e+000
1	 1.593080872586826e+000	 1.010746850045776e+000	-1.221103529867784e+000
1	 1.581949169090591e+000	 1.028081981539577e+000	-1.298178826325051e+000
1	 1.570615750374966e+000	 1.045314205587259e+000	-1.377489163924841e+000
1	 1.559081996917497e+000	 1.062440051507424e+000	-1.458944539346584e+000
1	 1.547349367955814e+000	 1.079456072160909e+000	-1.542426510636330e+000
1	 1.535419401020091e+000	 1.096358846163799e+000	-1.627788201753040e+000
1	 1.651485416465734e+000	 9.259103482714212e-001	-8.138251611715655e-001
1	 1.641344512351543e+000	 9.437701688155739e-001	-8.784097581525314e-001
1	 1.630995450334611e+000	 9.615444093665555e-001	-9.451851848816864e-001
1	 1.620439216139437e+000	 9.792295023082919e-001	-1.014198877476496e+000
1	 1.609676875762099e+000	 9.968218924990583e-001	-1.085470352216648e+000
1	 1.598709575371082e+000	 1.014318039498504e+000	-1.158990974230620e+000
1	 1.587538541134759e+000	 1.031714419799078e+000	-1.234723774114225e+000
1	 1.576165078975069e+000	 1.049007529059066e+000	-1.312603313376886e+000
1	 1.564590574247075e+000	 1.066193884334401e+000	-1.392535599498616e+000
1	 1.552816491344194e+000	 1.083270026306436e+000	-1.474398051263955e+000
1	 1.540844373229018e+000	 1.100232521502765e+000	-1.558039514918958e+000
1	 1.657299937124190e+000	 9.291702770601759e-001	-7.577550078600724e-001
1	 1.647123329094427e+000	 9.470929781445850e-001	-8.220328087255351e-001
1	 1.636737830283300e+000	 9.649297979272700e-001	-8.884569482251048e-001
1	 1.626144429885816e+000	 9.826771562313674e-001	-9.570693958761991e-001
1	 1.615344197651177e+000	 1.000331485398282e+000	-1.027883606686420e+000
1	 1.604338283783265e+000	 1.017889232522554e+000	-1.100884301963838e+000
1	 1.593127918767508e+000	 1.035346861691141e+000	-1.176027299320749e+000
1	 1.581714413123700e+000	 1.052700856224312e+000	-1.253239392750102e+000
1	 1.570099157084421e+000	 1.069947720915326e+000	-1.332418283538052e+000
1	 1.558283620198885e+000	 1.087083984266036e+000	-1.413432562655080e+000
1	 1.546269350862104e+000	 1.104106200715540e+000	-1.496121745145461e+000
1	 1.663114465050167e+000	 9.324302099239195e-001	-7.023778806812728e-001
1	 1.652902153060155e+000	 9.504157916271708e-001	-7.670323149245563e-001
1	 1.642480217409241e+000	 9.683151907197707e-001	-8.338122712639948e-001
1	 1.631849650762943e+000	 9.861248144640504e-001	-9.027519055462484e-001
1	 1.621011526623595e+000	 1.003841082684531e+000	-9.738558735801844e-001
1	 1.609966999230480e+000	 1.021460430010627e+000	-1.047099126982835e+000
1	 1.598717303386091e+000	 1.038979308123788e+000	-1.122426760218258e+000
1	 1.587263754208078e+000	 1.056394188006254e+000	-1.199753909692393e+000
1	 1.575607746806549e+000	 1.073701562188593e+000	-1.278965705644814e+000
1	 1.563750755886520e+000	 1.090897946993144e+000	-1.359917277453435e+000
1	 1.551694335275432e+000	 1.107979884770492e+000	-1.442433812838836e+000
1	 1.668929001697338e+000	 9.356901476774830e-001	-6.478577926462442e-001
1	 1.658680985693452e+000	 9.537386100938892e-001	-7.136072024989995e-001
1	 1.648222613148027e+000	 9.717005885902698e-001	-7.814822165572855e-001
1	 1.637554880197098e+000	 9.895724778681321e-001	-8.515068679237453e-001
1	 1.626678864096137e+000	 1.007350685235092e+000	-9.236743160106130e-001
1	 1.615595723119837e+000	 1.025031632855421e+000	-9.979466603139673e-001
1	 1.604306696387759e+000	 1.042611760005043e+000	-1.074254808114648e+000
1	 1.592813103615424e+000	 1.060087525328149e+000	-1.152498396952171e+000
1	 1.581116344790473e+000	 1.077455409092595e+000	-1.232545772589082e+000
1	 1.569217899773733e+000	 1.094711915441191e+000	-1.314234023050332e+000
1	 1.557119327825082e+000	 1.111853574635990e+000	-1.397369069186595e+000
1	 1.674743548519371e+000	 9.389500911356974e-001	-5.943564792309087e-001
1	 1.664459828439043e+000	 9.570614343752996e-001	-6.619536339321849e-001
1	 1.653965018935251e+000	 9.750859923849811e-001	-7.316946361713500e-001
1	 1.643260119614560e+000	 9.930201473054020e-001	-8.035911247074065e-001
1	 1.632346211485587e+000	 1.010860293927253e+000	-8.776221055257478e-001
1	 1.621224456858440e+000	 1.028602841949637e+000	-9.537337864143334e-001
1	 1.609896099169767e+000	 1.046244218242930e+000	-1.031839468930499e+000
1	 1.598362462732960e+000	 1.063780869113253e+000	-1.111819498588212e+000
1	 1.586624952413206e+000	 1.081209262565728e+000	-1.193521273957406e+000
1	 1.574685053227157e+000	 1.098525890563611e+000	-1.276759315225375e+000
1	 1.562544329867139e+000	 1.115727271280403e+000	-1.361315392624777e+000
1	 1.680558106969941e+000	 9.422100411133936e-001	-5.420334377546291e-001
1	 1.670238682741653e+000	 9.603842653019601e-001	-6.122650562046539e-001
1	 1.659707436206509e+000	 9.784714029501168e-001	-6.846742271613806e-001
1	 1.648965370441609e+000	 9.964678236376521e-001	-7.592579603995061e-001
1	 1.638013570208727e+000	 1.014369909638300e+000	-8.359784910638684e-001
1	 1.626853201853401e+000	 1.032174058185975e+000	-9.147631379021379e-001
1	 1.615485513129365e+000	 1.049876683745474e+000	-9.955042230789122e-001
1	 1.603911832947905e+000	 1.067474220284823e+000	-1.078059054384124e+000
1	 1.592133571051763e+000	 1.084963123546384e+000	-1.162249970499896e+000
1	 1.580152217613425e+000	 1.102339873313836e+000	-1.247864449837042e+000
1	 1.567969342757683e+000	 1.119600975672099e+000	-1.334655283296399e+000
1	 1.686372678502719e+000	 9.454699984254018e-001	-4.910459659415661e-001
1	 1.676017550046008e+000	 9.637071037044297e-001	-5.647322475662581e-001
1	 1.665449866397395e+000	 9.818568211318917e-001	-6.406425859013557e-001
1	 1.654670634104525e+000	 9.999155077266720e-001	-7.187571635499411e-001
1	 1.643680941682342e+000	 1.017879533245523e+000	-7.990188664772824e-001
1	 1.632481959511823e+000	 1.035745282457134e+000	-8.813331687361965e-001
1	 1.621074939663807e+000	 1.053509157420699e+000	-9.655680836874367e-001
1	 1.609461215647480e+000	 1.071167579766116e+000	-1.051554182511133e+000
1	 1.597642202083156e+000	 1.088716992972960e+000	-1.139084680643887e+000
1	 1.585619394299172e+000	 1.106153864645299e+000	-1.227915592610434e+000
1	 1.573394367852796e+000	 1.123474688779447e+000	-1.317765955549526e+000
1	 1.519144503377449e+000	 1.084737833706065e+000	-1.879944938398597e+000
1	 1.507147341302099e+000	 1.101346040237664e+000	-1.980097000775526e+000
1	 1.494958203042528e+000	 1.117835513184680e+000	-2.087848156225332e+000
1	 1.482578836186885e+000	 1.134202954616346e+000	-2.202214639629367e+000
1	 1.470011063245638e+000	 1.150445100653127e+000	-2.322147052284016e+000
1	 1.457256780828759e+000	 1.166558723581895e+000	-2.446531733003885e+000
1	 1.444317958751618e+000	 1.182540633947380e+000	-2.574192251192588e+000
1	 1.431196639070430e+000	 1.198387682617118e+000	-2.703891019522993e+000
1	 1.417894935048125e+000	 1.214096762817131e+000	-2.834331023550084e+000
1	 1.404415030051720e+000	 1.229664812135602e+000	-2.964157665267670e+000
1	 1.390759176382327e+000	 1.245088814491888e+000	-3.091960717314570e+000
1	 1.524569467450388e+000	 1.088611503233817e+000	-1.789154205616397e+000
1	 1.512529462727118e+000	 1.105279018753723e+000	-1.885134726034365e+000
1	 1.500296796260080e+000	 1.121827376683695e+000	-1.988368938617950e+000
1	 1.487873221878177e+000	 1.138253267315839e+000	-2.097866205323329e+000
1	 1.475260568600199e+000	 1.154553415115096e+000	-2.212569696630555e+000
1	 1.462460739809040e+000	 1.170724580841963e+000	-2.331357781489190e+000
1	 1.449475712354419e+000	 1.186763563651418e+000	-2.453045540517202e+000
1	 1.436307535584875e+000	 1.202667203165244e+000	-2.576386400056977e+000
1	 1.422958330309948e+000	 1.218432381514966e+000	-2.700073884370188e+000
1	 1.409430287693609e+000	 1.234056025352699e+000	-2.822743482937873e+000
1	 1.395725668080095e+000	 1.249535107827180e+000	-2.942974629522678e+000
1	 1.529994432879242e+000	 1.092485173730273e+000	-1.704963217496460e+000
1	 1.517911585497376e+000	 1.109211998253325e+000	-1.797498312833555e+000
1	 1.505635390812015e+000	 1.125819241180998e+000	-1.896932301275156e+000
1	 1.493167608892833e+000	 1.142303581028267e+000	-2.002271032446099e+000
1	 1.480510075266928e+000	 1.158661730604541e+000	-2.112453002880908e+000
1	 1.467664700090127e+000	 1.174890439143936e+000	-2.226350756263020e+000
1	 1.454633467246502e+000	 1.190986494411673e+000	-2.342772409272429e+000
1	 1.441418433376919e+000	 1.206946724783770e+000	-2.460463300630227e+000
1	 1.428021726837531e+000	 1.222768001297256e+000	-2.578107760600574e+000
1	 1.414445546589267e+000	 1.238447239668167e+000	-2.694330997888650e+000
1	 1.400692161019491e+000	 1.253981402274614e+000	-2.807701100557408e+000
1	 1.535419401020091e+000	 1.096358846163799e+000	-1.627788201753040e+000
1	 1.523293710958232e+000	 1.113144979719667e+000	-1.717612751547194e+000
1	 1.510973988032811e+000	 1.129811107674509e+000	-1.813967595391350e+000
1	 1.498461998554266e+000	 1.146353896766162e+000	-1.915858393117708e+000
1	 1.485759584558018e+000	 1.162770048148489e+000	-2.022221690355600e+000
1	 1.472868662972828e+000	 1.179056299529222e+000	-2.131926320568435e+000
1	 1.459791224717125e+000	 1.195209427283813e+000	-2.243774936118324e+000
1	 1.446529333724109e+000	 1.211226248542506e+000	-2.356505665953749e+000
1	 1.433085125896549e+000	 1.227103623247825e+000	-2.468793897179722e+000
1	 1.419460807992339e+000	 1.242838456179720e+000	-2.579254177438019e+000
1	 1.405658656441975e+000	 1.258427698945665e+000	-2.686442234701453e+000
1	 1.540844373229018e+000	 1.100232521502765e+000	-1.558039514918958e+000
1	 1.528675840455049e+000	 1.117077964135948e+000	-1.645897036931270e+000
1	 1.516312589256935e+000	 1.133802977162149e+000	-1.739898114103200e+000
1	 1.503756392185890e+000	 1.150404215542052e+000	-1.839051501489036e+000
1	 1.491009097785662e+000	 1.166878368773969e+000	-1.942294483495171e+000
1	 1.478072629757950e+000	 1.183222163039228e+000	-2.048494269271699e+000
1	 1.464948986055546e+000	 1.199432363323505e+000	-2.156449521608608e+000
1	 1.451640237903991e+000	 1.215505775511260e+000	-2.264892016962755e+000
1	 1.438148528752678e+000	 1.231439248450499e+000	-2.372488433892479e+000
1	 1.424476073156471e+000	 1.247229675985073e+000	-2.477842266834662e+000
1	 1.410625155589007e+000	 1.262873998951811e+000	-2.579495861822889e+000
1	 1.546269350862104e+000	 1.104106200715540e+000	-1.496121745145461e+000
1	 1.534057975333185e+000	 1.121010952485367e+000	-1.582764273087365e+000
1	 1.521651195818862e+000	 1.137794850641838e+000	-1.675141198529899e+000
1	 1.509050791111123e+000	 1.154454538368468e+000	-1.772267619761854e+000
1	 1.496258616262053e+000	 1.170986693508005e+000	-1.873084216755323e+000
1	 1.483276601746298e+000	 1.187388030715361e+000	-1.976458631519944e+000
1	 1.470106752551023e+000	 1.203655303586418e+000	-2.081186987492301e+000
1	 1.456751147194114e+000	 1.219785306759841e+000	-2.185995545638325e+000
1	 1.443211936671595e+000	 1.235774877989101e+000	-2.289542494584207e+000
1	 1.429491343335313e+000	 1.251620900181940e+000	-2.390419871733695e+000
1	 1.415591659702049e+000	 1.267320303404528e+000	-2.487155611980004e+000
1	 1.551694335275432e+000	 1.107979884770492e+000	-1.442433812838836e+000
1	 1.539440116938005e+000	 1.124943945751123e+000	-1.528621776217463e+000
1	 1.526989809053061e+000	 1.141786729111496e+000	-1.620108341581907e+000
1	 1.514345196653381e+000	 1.158504866257943e+000	-1.715918161978057e+000
1	 1.501508141299385e+000	 1.175095023377626e+000	-1.814997937294398e+000
1	 1.488480580238682e+000	 1.191553903599028e+000	-1.916217771238380e+000
1	 1.475264525492813e+000	 1.207878249128222e+000	-2.018372673925410e+000
1	 1.461862062872021e+000	 1.224064843358056e+000	-2.120184207833825e+000
1	 1.448275350918976e+000	 1.240110512947457e+000	-2.220302274497656e+000
1	 1.434506619782508e+000	 1.256012129868037e+000	-2.317307038936930e+000
1	 1.420558170022561e+000	 1.271766613415290e+000	-2.409710988456266e+000
1	 1.557119327825082e+000	 1.111853574635990e+000	-1.397369069186595e+000
1	 1.544822266614867e+000	 1.128876944916414e+000	-1.483871175224081e+000
1	 1.532328430294005e+000	 1.145778613569043e+000	-1.575205289592907e+000
1	 1.519639610136075e+000	 1.162555200223005e+000	-1.670408795632154e+000
1	 1.506757674209851e+000	 1.179203359409859e+000	-1.768437005507752e+000
1	 1.493684566535907e+000	 1.195719782731637e+000	-1.868164485519961e+000
1	 1.480422306170173e+000	 1.212101201004582e+000	-1.968386534644314e+000
1	 1.466972986215262e+000	 1.228344386375714e+000	-2.067820814154568e+000
1	 1.453338772760495e+000	 1.244446154409389e+000	-2.165109125778175e+000
1	 1.439521903751706e+000	 1.260403366141076e+000	-2.258819335439962e+000
1	 1.425524687792004e+000	 1.276212930095576e+000	-2.347447439263642e+000
1	 1.562544329867139e+000	 1.115727271280403e+000	-1.361315392624777e+000
1	 1.550204425709133e+000	 1.132809950964440e+000	-1.448908510208129e+000
1	 1.537667060876166e+000	 1.149770505012400e+000	-1.540832141827798e+000
1	 1.524934032882624e+000	 1.166605541276186e+000	-1.636139541160600e+000
1	 1.512007216305645e+000	 1.183311702631730e+000	-1.733797193461069e+000
1	 1.498888561938780e+000	 1.199885669154594e+000	-1.832686100959445e+000
1	 1.485580095872362e+000	 1.216324160271170e+000	-1.931603230150207e+000
1	 1.472083918501383e+000	 1.232623936882623e+000	-2.029263118938668e+000
1	 1.458402203461830e+000	 1.248781803458724e+000	-2.124299641192404e+000
1	 1.444537196496551e+000	 1.264794610098774e+000	-2.215267925827712e+000
1	 1.430491214251839e+000	 1.280659254556861e+000	-2.300646427152011e+000
1	 1.567969342757683e+000	 1.119600975672099e+000	-1.334655283296399e+000
1	 1.555586595566164e+000	 1.136742964878400e+000	-1.424124328915575e+000
1	 1.543005702134014e+000	 1.153762404439487e+000	-1.517383447918757e+000
1	 1.530228466216443e+000	 1.170655890430016e+000	-1.613504869359201e+000
1	 1.517256768898960e+000	 1.187420054070268e+000	-1.711468781274125e+000
1	 1.504092567748108e+000	 1.204051563909306e+000	-1.810164567980882e+000
1	 1.490737895888636e+000	 1.220547127983652e+000	-1.908392218953152e+000
1	 1.477194861007929e+000	 1.236903495948591e+000	-2.004863907384679e+000
1	 1.463465644288655e+000	 1.253117461179285e+000	-2.098205736103522e+000
1	 1.449552499270689e+000	 1.269185862838843e+000	-2.186959648057975e+000
1	 1.435457750643527e+000	 1.285105587910620e+000	-2.269585498160508e+000
1	 1.573394367852796e+000	 1.123474688779447e+000	-1.317765955549526e+000
1	 1.560968777531320e+000	 1.140675987641491e+000	-1.409903781182595e+000
1	 1.548344355402024e+000	 1.157754312848225e+000	-1.505248303278932e+000
1	 1.535522911460947e+000	 1.174706248697026e+000	-1.602893796778876e+000
1	 1.522506333301989e+000	 1.191528414752497e+000	-1.701836651504018e+000
1	 1.509296585264699e+000	 1.208217468037181e+000	-1.800976553207895e+000
1	 1.495895707508254e+000	 1.224770105197696e+000	-1.899117846922559e+000
1	 1.482305815012449e+000	 1.241183064643427e+000	-1.994971080871313e+000
1	 1.468529096506648e+000	 1.257453128654897e+000	-2.087154728745234e+000
1	 1.454567813327771e+000	 1.273577125459001e+000	-2.174197087672523e+000
1	 1.440424298208528e+000	 1.289551931268331e+000	-2.254538348746367e+000
1	 1.390759176382327e+000	 1.245088814491888e+000	-3.091960717314569e+000
1	 1.376931781464302e+000	 1.260363522001592e+000	-3.209015811485736e+000
1	 1.362933196495552e+000	 1.275488343663569e+000	-3.308900057923426e+000
1	 1.348765872990182e+000	 1.290460416310646e+000	-3.393617674540508e+000
1	 1.334432326005897e+000	 1.305276930578148e+000	-3.465249483448848e+000
1	 1.319935132658436e+000	 1.319935132658435e+000	-3.525949285631584e+000
1	 1.305276930578149e+000	 1.334432326005897e+000	-3.577940103525205e+000
1	 1.290460416310646e+000	 1.348765872990182e+000	-3.623510299371762e+000
1	 1.275488343663570e+000	 1.362933196495552e+000	-3.665009577518529e+000
1	 1.260363522001592e+000	 1.376931781464302e+000	-3.704844879139454e+000
1	 1.245088814491889e+000	 1.390759176382327e+000	-3.745476178118547e+000
1	 1.395725668080095e+000	 1.249535107827180e+000	-2.942974629522678e+000
1	 1.381848894632969e+000	 1.264864362313474e+000	-3.052486246735249e+000
1	 1.367800319804291e+000	 1.280043195699931e+000	-3.145298548282289e+000
1	 1.353582403862687e+000	 1.295068734594818e+000	-3.223408320915100e+000
1	 1.339197670847297e+000	 1.309938159601035e+000	-3.288888939684226e+000
1	 1.324648707076913e+000	 1.324648707076912e+000	-3.343886737921242e+000
1	 1.309938159601035e+000	 1.339197670847297e+000	-3.390617244953478e+000
1	 1.295068734594818e+000	 1.353582403862687e+000	-3.431361299428834e+000
1	 1.280043195699931e+000	 1.367800319804292e+000	-3.468461046448319e+000
1	 1.264864362313473e+000	 1.381848894632969e+000	-3.504315826998454e+000
1	 1.249535107827180e+000	 1.395725668080095e+000	-3.541377968443875e+000
1	 1.400692161019491e+000	 1.253981402274614e+000	-2.807701100557408e+000
1	 1.386766009030979e+000	 1.269365203751116e+000	-2.910377663679507e+000
1	 1.372667444329943e+000	 1.284598048875522e+000	-2.996811871077169e+000
1	 1.358398935939528e+000	 1.299677054031539e+000	-3.068976576028134e+000
1	 1.343963016880310e+000	 1.314599389789641e+000	-3.128920661625225e+000
1	 1.329362282674131e+000	 1.329362282674130e+000	-3.178765433719438e+000
1	 1.314599389789641e+000	 1.343963016880310e+000	-3.220700882403185e+000
1	 1.299677054031539e+000	 1.358398935939528e+000	-3.256981819868987e+000
1	 1.284598048875522e+000	 1.372667444329943e+000	-3.289923902799364e+000
1	 1.269365203751116e+000	 1.386766009030979e+000	-3.321899547734948e+000
1	 1.253981402274614e+000	 1.400692161019491e+000	-3.355333748135567e+000
1	 1.405658656441975e+000	 1.258427698945665e+000	-2.686442234701453e+000
1	 1.391683125887454e+000	 1.273866047439626e+000	-2.782955967116137e+000
1	 1.377534571289138e+000	 1.289152904328944e+000	-2.863665734921445e+000
1	 1.363215470424692e+000	 1.304285375772770e+000	-2.930504105964793e+000
1	 1.348728365296131e+000	 1.319260622309147e+000	-2.985478580748063e+000
1	 1.334075860628347e+000	 1.334075860628347e+000	-3.030668035830974e+000
1	 1.319260622309147e+000	 1.348728365296131e+000	-3.068219037559402e+000
1	 1.304285375772770e+000	 1.363215470424692e+000	-3.100342033855814e+000
1	 1.289152904328944e+000	 1.377534571289138e+000	-3.129307432122724e+000
1	 1.273866047439626e+000	 1.391683125887454e+000	-3.157441571598587e+000
1	 1.258427698945666e+000	 1.405658656441974e+000	-3.187122598769644e+000
1	 1.410625155589007e+000	 1.262873998951811e+000	-2.579495861822889e+000
1	 1.396600246431514e+000	 1.278366894504106e+000	-2.670483296152157e+000
1	 1.382401701898505e+000	 1.293707763198798e+000	-2.746082647765508e+000
1	 1.368032008522168e+000	 1.308893700970471e+000	-2.808169995386175e+000
1	 1.353493717285959e+000	 1.323921858324734e+000	-2.858694718409059e+000
1	 1.338789442117826e+000	 1.338789442117826e+000	-2.899676018111029e+000
1	 1.323921858324734e+000	 1.353493717285959e+000	-2.933199311945714e+000
1	 1.308893700970470e+000	 1.368032008522168e+000	-2.961412508501419e+000
1	 1.293707763198798e+000	 1.382401701898506e+000	-2.986522171008456e+000
1	 1.278366894504106e+000	 1.396600246431514e+000	-3.010789577564589e+000
1	 1.262873998951811e+000	 1.410625155589007e+000	-3.036526686505477e+000
1	 1.415591659702049e+000	 1.267320303404528e+000	-2.487155611980004e+000
1	 1.401517371892282e+000	 1.282867746069662e+000	-2.573218089866733e+000
1	 1.387268837374675e+000	 1.298262626623684e+000	-2.644281972630115e+000
1	 1.372848551435941e+000	 1.313502030776599e+000	-2.702150792383456e+000
1	 1.358259074040989e+000	 1.328583099001582e+000	-2.748699218906948e+000
1	 1.343503028320826e+000	 1.343503028320826e+000	-2.785869685863279e+000
1	 1.328583099001582e+000	 1.358259074040988e+000	-2.815668893825186e+000
1	 1.313502030776599e+000	 1.372848551435941e+000	-2.840164197477882e+000
1	 1.298262626623683e+000	 1.387268837374675e+000	-2.861479884656713e+000
1	 1.282867746069663e+000	 1.401517371892282e+000	-2.881793355156067e+000
1	 1.267320303404527e+000	 1.415591659702049e+000	-2.903331207494082e+000
1	 1.420558170022561e+000	 1.271766613415290e+000	-2.409710988456266e+000
1	 1.406434503498881e+000	 1.287368603261401e+000	-2.491415151592020e+000
1	 1.392135978934277e+000	 1.302817495742201e+000	-2.558479982167063e+000
1	 1.377665100370002e+000	 1.318110366343118e+000	-2.612620552388013e+000
1	 1.363024436752418e+000	 1.333244345504872e+000	-2.655620381850159e+000
1	 1.348216620415608e+000	 1.348216620415608e+000	-2.689328195809236e+000
1	 1.333244345504872e+000	 1.363024436752418e+000	-2.715654564956278e+000
1	 1.318110366343118e+000	 1.377665100370002e+000	-2.736568433784088e+000
1	 1.302817495742201e+000	 1.392135978934277e+000	-2.754093544920921e+000
1	 1.287368603261400e+000	 1.406434503498881e+000	-2.770304767070001e+000
1	 1.271766613415290e+000	 1.420558170022561e+000	-2.787324334435438e+000
1	 1.425524687792004e+000	 1.276212930095576e+000	-2.347447439263641e+000
1	 1.411351642480431e+000	 1.291869467204425e+000	-2.425325711846407e+000
1	 1.397003127793942e+000	 1.307372371692950e+000	-2.488889912075788e+000
1	 1.382481656528336e+000	 1.322718708821985e+000	-2.539750881160940e+000
1	 1.367789806611446e+000	 1.337905598999786e+000	-2.579584693844991e+000
1	 1.352930219580434e+000	 1.352930219580434e+000	-2.610129575638760e+000
1	 1.337905598999786e+000	 1.367789806611446e+000	-2.633182707207082e+000
1	 1.322718708821984e+000	 1.382481656528336e+000	-2.650596922664757e+000
1	 1.307372371692951e+000	 1.397003127793941e+000	-2.664277308811405e+000
1	 1.291869467204424e+000	 1.411351642480431e+000	-2.676177712586811e+000
1	 1.276212930095576e+000	 1.425524687792005e+000	-2.688297164256480e+000
1	 1.430491214251839e+000	 1.280659254556861e+000	-2.300646427152011e+000
1	 1.416268790066055e+000	 1.296370339023840e+000	-2.375197489952468e+000
1	 1.401870285170298e+000	 1.311927255614532e+000	-2.435722013403686e+000
1	 1.387298221114932e+000	 1.327327059365160e+000	-2.483710976884255e+000
1	 1.372555184809268e+000	 1.342566860651502e+000	-2.520716859521901e+000
1	 1.357643826993563e+000	 1.357643826993563e+000	-2.548350743152001e+000
1	 1.342566860651503e+000	 1.372555184809268e+000	-2.568279309031661e+000
1	 1.327327059365160e+000	 1.387298221114932e+000	-2.582221734676980e+000
1	 1.311927255614533e+000	 1.401870285170298e+000	-2.591946497448495e+000
1	 1.296370339023840e+000	 1.416268790066055e+000	-2.599268091744999e+000
1	 1.280659254556861e+000	 1.430491214251839e+000	-2.606043666882769e+000
1	 1.435457750643527e+000	 1.285105587910620e+000	-2.269585498160508e+000
1	 1.421185947484873e+000	 1.300871219844750e+000	-2.341274754371926e+000
1	 1.406737452279978e+000	 1.316482148645548e+000	-2.399183603757509e+000
1	 1.392114795333778e+000	 1.331935419124604e+000	-2.444667671375616e+000
1	 1.377320572537081e+000	 1.347228131625204e+000	-2.479139831915688e+000
1	 1.362357443833257e+000	 1.362357443833257e+000	-2.504067525003157e+000
1	 1.347228131625204e+000	 1.377320572537081e+000	-2.520969971811295e+000
1	 1.331935419124604e+000	 1.392114795333778e+000	-2.531415298901801e+000
1	 1.316482148645548e+000	 1.406737452279977e+000	-2.537017575453945e+000
1	 1.300871219844750e+000	 1.421185947484873e+000	-2.539433770261601e+000
1	 1.285105587910620e+000	 1.435457750643527e+000	-2.540360635076892e+000
1	 1.440424298208528e+000	 1.289551931268331e+000	-2.254538348746367e+000
1	 1.426103115966008e+000	 1.305372110792263e+000	-2.323798381788475e+000
1	 1.411604630339610e+000	 1.321037051924598e+000	-2.379479117451977e+000
1	 1.396931380388861e+000	 1.336543789252277e+000	-2.422785470447910e+000
1	 1.382085970986084e+000	 1.351889413086072e+000	-2.454974842215345e+000
1	 1.367071071277777e+000	 1.367071071277777e+000	-2.477354675054931e+000
1	 1.351889413086072e+000	 1.382085970986084e+000	-2.491279916064609e+000
1	 1.336543789252277e+000	 1.396931380388861e+000	-2.498150396296379e+000
1	 1.321037051924597e+000	 1.411604630339610e+000	-2.499408130770191e+000
1	 1.305372110792263e+000	 1.426103115966009e+000	-2.496534545181152e+000
1	 1.289551931268331e+000	 1.440424298208528e+000	-2.491047635318128e+000
1	 1.245088814491889e+000	 1.390759176382327e+000	-3.745476178118547e+000
1	 1.229664812135602e+000	 1.404415030051719e+000	-3.785723784349149e+000
1	 1.214096762817131e+000	 1.417894935048125e+000	-3.823577225064954e+000
1	 1.198387682617119e+000	 1.431196639070430e+000	-3.860333516319383e+000
1	 1.182540633947380e+000	 1.444317958751618e+000	-3.897324185271355e+000
1	 1.166558723581895e+000	 1.457256780828759e+000	-3.935913080786203e+000
1	 1.150445100653127e+000	 1.470011063245638e+000	-3.977494134223938e+000
1	 1.134202954616346e+000	 1.482578836186884e+000	-4.023489075239970e+000
1	 1.117835513184680e+000	 1.494958203042528e+000	-4.075345107513946e+000
1	 1.101346040237664e+000	 1.507147341302099e+000	-4.134532549396180e+000
1	 1.084737833706065e+000	 1.519144503377448e+000	-4.202542444520658e+000
1	 1.249535107827180e+000	 1.395725668080095e+000	-3.541377968443875e+000
1	 1.234056025352699e+000	 1.409430287693609e+000	-3.578411505970315e+000
1	 1.218432381514966e+000	 1.422958330309948e+000	-3.613320355510401e+000
1	 1.202667203165244e+000	 1.436307535584875e+000	-3.647348001581895e+000
1	 1.186763563651419e+000	 1.449475712354419e+000	-3.681772075759550e+000
1	 1.170724580841963e+000	 1.462460739809040e+000	-3.717902257797320e+000
1	 1.154553415115096e+000	 1.475260568600200e+000	-3.757078127008894e+000
1	 1.138253267315839e+000	 1.487873221878177e+000	-3.800666968543627e+000
1	 1.121827376683695e+000	 1.500296796260079e+000	-3.850061539285592e+000
1	 1.105279018753723e+000	 1.512529462727118e+000	-3.906677798179949e+000
1	 1.088611503233817e+000	 1.524569467450388e+000	-3.971952605852568e+000
1	 1.253981402274614e+000	 1.400692161019491e+000	-3.355333748135567e+000
1	 1.238447239668167e+000	 1.414445546589267e+000	-3.388924052018209e+000
1	 1.222768001297256e+000	 1.428021726837530e+000	-3.420510951054980e+000
1	 1.206946724783770e+000	 1.441418433376919e+000	-3.451314251936550e+000
1	 1.190986494411673e+000	 1.454633467246502e+000	-3.482589174505760e+000
1	 1.174890439143936e+000	 1.467664700090127e+000	-3.515624278565247e+000
1	 1.158661730604541e+000	 1.480510075266929e+000	-3.551739338447165e+000
1	 1.142303581028268e+000	 1.493167608892833e+000	-3.592283169948552e+000
1	 1.125819241180998e+000	 1.505635390812016e+000	-3.638631414333598e+000
1	 1.109211998253325e+000	 1.517911585497376e+000	-3.692184284186521e+000
1	 1.092485173730272e+000	 1.529994432879242e+000	-3.754364275967540e+000
1	 1.258427698945666e+000	 1.405658656441974e+000	-3.187122598769644e+000
1	 1.242838456179720e+000	 1.419460807992339e+000	-3.216979075526798e+000
1	 1.227103623247825e+000	 1.433085125896548e+000	-3.244817647018354e+000
1	 1.211226248542506e+000	 1.446529333724109e+000	-3.271863948983057e+000
1	 1.195209427283812e+000	 1.459791224717125e+000	-3.299381915479239e+000
1	 1.179056299529222e+000	 1.472868662972828e+000	-3.328671666934405e+000
1	 1.162770048148490e+000	 1.485759584558018e+000	-3.361067340906582e+000
1	 1.146353896766162e+000	 1.498461998554265e+000	-3.397934870281883e+000
1	 1.129811107674509e+000	 1.510973988032811e+000	-3.440669713742385e+000
1	 1.113144979719667e+000	 1.523293710958232e+000	-3.490694543432891e+000
1	 1.096358846163799e+000	 1.535419401020091e+000	-3.549456894833984e+000
1	 1.262873998951811e+000	 1.410625155589007e+000	-3.036526686505477e+000
1	 1.247229675985073e+000	 1.424476073156471e+000	-3.062298179530957e+000
1	 1.231439248450499e+000	 1.438148528752678e+000	-3.085913719584476e+000
1	 1.215505775511260e+000	 1.451640237903991e+000	-3.108633936334472e+000
1	 1.199432363323505e+000	 1.464948986055546e+000	-3.131762251090694e+000
1	 1.183222163039228e+000	 1.478072629757949e+000	-3.156642662039307e+000
1	 1.166878368773969e+000	 1.491009097785662e+000	-3.184657464598153e+000
1	 1.150404215542052e+000	 1.503756392185891e+000	-3.217224911891572e+000
1	 1.133802977162149e+000	 1.516312589256935e+000	-3.255796820470502e+000
1	 1.117077964135948e+000	 1.528675840455049e+000	-3.301856126514976e+000
1	 1.100232521502765e+000	 1.540844373229018e+000	-3.356914397849268e+000
1	 1.267320303404527e+000	 1.415591659702049e+000	-2.903331207494082e+000
1	 1.251620900181940e+000	 1.429491343335313e+000	-2.924606847300762e+000
1	 1.235774877989102e+000	 1.443211936671596e+000	-2.943477003927300e+000
1	 1.219785306759841e+000	 1.456751147194113e+000	-2.961266128614297e+000
1	 1.203655303586418e+000	 1.470106752551023e+000	-2.979347554952443e+000
1	 1.187388030715362e+000	 1.483276601746298e+000	-2.999141117628064e+000
1	 1.170986693508005e+000	 1.496258616262053e+000	-3.022110696169611e+000
1	 1.154454538368468e+000	 1.509050791111123e+000	-3.049761689121019e+000
1	 1.137794850641837e+000	 1.521651195818862e+000	-3.083638424219029e+000
1	 1.121010952485367e+000	 1.534057975333186e+000	-3.125321510281511e+000
1	 1.104106200715540e+000	 1.546269350862104e+000	-3.176425136628715e+000
1	 1.271766613415290e+000	 1.420558170022561e+000	-2.787324334435437e+000
1	 1.256012129868037e+000	 1.434506619782509e+000	-2.803634374044110e+000
1	 1.240110512947457e+000	 1.448275350918975e+000	-2.817189814059713e+000
1	 1.224064843358056e+000	 1.461862062872021e+000	-2.829407422368993e+000
1	 1.207878249128222e+000	 1.475264525492813e+000	-2.841760526684825e+000
1	 1.191553903599029e+000	 1.488480580238682e+000	-2.855776403504551e+000
1	 1.175095023377626e+000	 1.501508141299385e+000	-2.873033579433133e+000
1	 1.158504866257943e+000	 1.514345196653381e+000	-2.895159050878361e+000
1	 1.141786729111495e+000	 1.526989809053061e+000	-2.923825428301806e+000
1	 1.124943945751123e+000	 1.539440116938005e+000	-2.960748011366773e+000
1	 1.107979884770492e+000	 1.551694335275432e+000	-3.007681801460891e+000
1	 1.276212930095576e+000	 1.425524687792005e+000	-2.688297164256480e+000
1	 1.260403366141076e+000	 1.439521903751706e+000	-2.699113800041360e+000
1	 1.244446154409390e+000	 1.453338772760495e+000	-2.706738864363299e+000
1	 1.228344386375714e+000	 1.466972986215262e+000	-2.712709608848400e+000
1	 1.212101201004582e+000	 1.480422306170173e+000	-2.718629098719060e+000
1	 1.195719782731637e+000	 1.493684566535906e+000	-2.726163309037317e+000
1	 1.179203359409859e+000	 1.506757674209851e+000	-2.737038118175023e+000
1	 1.162555200223005e+000	 1.519639610136075e+000	-2.753036205248825e+000
1	 1.145778613569043e+000	 1.532328430294006e+000	-2.775993858468938e+000
1	 1.128876944916414e+000	 1.544822266614867e+000	-2.807797701536409e+000
1	 1.111853574635990e+000	 1.557119327825082e+000	-2.850381345389927e+000
1	 1.280659254556861e+000	 1.430491214251839e+000	-2.606043666882769e+000
1	 1.264794610098774e+000	 1.444537196496550e+000	-2.610781845177805e+000
1	 1.248781803458724e+000	 1.458402203461829e+000	-2.611815192757852e+000
1	 1.232623936882623e+000	 1.472083918501383e+000	-2.610829288609349e+000
1	 1.216324160271170e+000	 1.485580095872362e+000	-2.609586345047760e+000
1	 1.199885669154594e+000	 1.498888561938780e+000	-2.609921948685316e+000
1	 1.183311702631730e+000	 1.512007216305645e+000	-2.613741680996258e+000
1	 1.166605541276186e+000	 1.524934032882625e+000	-2.623017626100715e+000
1	 1.149770505012400e+000	 1.537667060876166e+000	-2.639784773635578e+000
1	 1.132809950964440e+000	 1.550204425709133e+000	-2.666137324802906e+000
1	 1.115727271280403e+000	 1.562544329867139e+000	-2.704224909883791e+000
1	 1.285105587910620e+000	 1.435457750643527e+000	-2.540360635076892e+000
1	 1.269185862838843e+000	 1.449552499270689e+000	-2.538378844839278e+000
1	 1.253117461179285e+000	 1.463465644288655e+000	-2.532114085471334e+000
1	 1.236903495948591e+000	 1.477194861007929e+000	-2.523427787897431e+000
1	 1.220547127983651e+000	 1.490737895888636e+000	-2.514270391875851e+000
1	 1.204051563909306e+000	 1.504092567748108e+000	-2.506677669490829e+000
1	 1.187420054070267e+000	 1.517256768898960e+000	-2.502766908135183e+000
1	 1.170655890430016e+000	 1.530228466216443e+000	-2.504732961636315e+000
1	 1.153762404439487e+000	 1.543005702134015e+000	-2.514844178469831e+000
1	 1.136742964878399e+000	 1.555586595566163e+000	-2.535438216266534e+000
1	 1.119600975672099e+000	 1.567969342757683e+000	-2.568917752050914e+000
1	 1.289551931268331e+000	 1.440424298208528e+000	-2.491047635318128e+000
1	 1.273577125459001e+000	 1.454567813327771e+000	-2.481648687138399e+000
1	 1.257453128654896e+000	 1.468529096506647e+000	-2.467335003370914e+000
1	 1.241183064643427e+000	 1.482305815012449e+000	-2.450171076764441e+000
1	 1.224770105197696e+000	 1.495895707508254e+000	-2.432324330125734e+000
1	 1.208217468037181e+000	 1.509296585264699e+000	-2.416060960492538e+000
1	 1.191528414752497e+000	 1.522506333301989e+000	-2.403741620223655e+000
1	 1.174706248697026e+000	 1.535522911460947e+000	-2.397816944840669e+000
1	 1.157754312848225e+000	 1.548344355402024e+000	-2.400822937795069e+000
1	 1.140675987641491e+000	 1.560968777531320e+000	-2.415376222641287e+000
1	 1.123474688779447e+000	 1.573394367852797e+000	-2.444169173367287e+000
1	 1.084737833706065e+000	 1.519144503377448e+000	-4.202542444520658e+000
1	 1.068014223074453e+000	 1.530948016922200e+000	-4.284048615095488e+000
1	 1.051178566166237e+000	 1.542556284205236e+000	-4.383559380210237e+000
1	 1.034234248099904e+000	 1.553967783993609e+000	-4.502341912868266e+000
1	 1.017184679476191e+000	 1.565181072517051e+000	-4.641675360666556e+000
1	 1.000033294188532e+000	 1.576194783930540e+000	-4.802848661480031e+000
1	 9.827835472266669e-001	 1.587007630703517e+000	-4.987158353158016e+000
1	 9.654389124762561e-001	 1.597618403935809e+000	-5.195906381847606e+000
1	 9.480028805172913e-001	 1.608025973600485e+000	-5.430397913517296e+000
1	 9.304789564241000e-001	 1.618229288713945e+000	-5.691939153201374e+000
1	 9.128706575696799e-001	 1.628227377433698e+000	-5.981835176420076e+000
1	 1.088611503233817e+000	 1.524569467450388e+000	-3.971952605852568e+000
1	 1.071828171498351e+000	 1.536415132111450e+000	-4.050511196097376e+000
1	 1.054932393361736e+000	 1.548064853273591e+000	-4.146809137478940e+000
1	 1.037927566030934e+000	 1.559517104271456e+000	-4.262052140901352e+000
1	 1.020817112286157e+000	 1.570770436178989e+000	-4.397456355621561e+000
1	 1.003604478283490e+000	 1.581823478273663e+000	-4.554246301576399e+000
1	 9.862931313506642e-001	 1.592674938427072e+000	-4.733652797407761e+000
1	 9.688865577788065e-001	 1.603323603421993e+000	-4.936910888537470e+000
1	 9.513882606129946e-001	 1.613768339196110e+000	-5.165257779603619e+000
1	 9.338017574444000e-001	 1.624008091012704e+000	-5.419930775515597e+000
1	 9.161305782067855e-001	 1.634041883558782e+000	-5.702165235320360e+000
1	 1.092485173730272e+000	 1.529994432879242e+000	-3.754364275967540e+000
1	 1.075642120876025e+000	 1.541882248667110e+000	-3.829773449048765e+000
1	 1.058686221496000e+000	 1.553573423718674e+000	-3.922818412708842e+000
1	 1.041620884885633e+000	 1.565066425936168e+000	-4.034651691108778e+000
1	 1.024449546004611e+000	 1.576359801237752e+000	-4.166434744120501e+000
1	 1.007175663271671e+000	 1.587452174023388e+000	-4.319336003579958e+000
1	 9.898027163525365e-001	 1.598342247566829e+000	-4.494528906928379e+000
1	 9.723342039438022e-001	 1.609028804333806e+000	-4.693189932358173e+000
1	 9.547736415556308e-001	 1.619510706226610e+000	-4.916496639537618e+000
1	 9.371245592960398e-001	 1.629786894755407e+000	-5.165625719934588e+000
1	 9.193904996595567e-001	 1.639856391136701e+000	-5.441751060694108e+000
1	 1.096358846163799e+000	 1.535419401020091e+000	-3.549456894833984e+000
1	 1.079456072160909e+000	 1.547349367955814e+000	-3.621556661015049e+000
1	 1.062440051507424e+000	 1.559081996917497e+000	-3.711351113284585e+000
1	 1.045314205587258e+000	 1.570615750374966e+000	-3.819947795947939e+000
1	 1.028081981539576e+000	 1.581949169090591e+000	-3.948461719222147e+000
1	 1.010746850045776e+000	 1.593080872586826e+000	-4.098013486771901e+000
1	 9.933123031095723e-001	 1.604009559539578e+000	-4.269727422329543e+000
1	 9.757818518330342e-001	 1.614734008097527e+000	-4.464729699305572e+000
1	 9.581590241914133e-001	 1.625253076127579e+000	-4.684146477252138e+000
1	 9.404473628095779e-001	 1.635565701386777e+000	-4.929102048988630e+000
1	 9.226504227428253e-001	 1.645670901621128e+000	-5.200717002130174e+000
1	 1.100232521502765e+000	 1.540844373229018e+000	-3.356914397849268e+000
1	 1.083270026306435e+000	 1.552816491344194e+000	-3.425586025481717e+000
1	 1.066193884334401e+000	 1.564590574247075e+000	-3.512174452848976e+000
1	 1.049007529059066e+000	 1.576165078975069e+000	-3.617750383772624e+000
1	 1.031714419799079e+000	 1.587538541134760e+000	-3.743390550283551e+000
1	 1.014318039498504e+000	 1.598709575371082e+000	-3.890175918870944e+000
1	 9.968218924990582e-001	 1.609676875762099e+000	-4.059189897516711e+000
1	 9.792295023082922e-001	 1.620439216139437e+000	-4.251516547237775e+000
1	 9.615444093665553e-001	 1.630995450334611e+000	-4.468238801813450e+000
1	 9.437701688155737e-001	 1.641344512351542e+000	-4.710436699318473e+000
1	 9.259103482714212e-001	 1.651485416465734e+000	-4.979185629016560e+000
1	 1.104106200715540e+000	 1.546269350862104e+000	-3.176425136628715e+000
1	 1.087083984266036e+000	 1.558283620198885e+000	-3.241590573479074e+000
1	 1.069947720915326e+000	 1.570099157084421e+000	-3.325058892954724e+000
1	 1.052700856224312e+000	 1.581714413123700e+000	-3.427872031185825e+000
1	 1.035346861691141e+000	 1.593127918767508e+000	-3.551076546171343e+000
1	 1.017889232522554e+000	 1.604338283783265e+000	-3.695721890242663e+000
1	 1.000331485398282e+000	 1.615344197651177e+000	-3.862858685020812e+000
1	 9.826771562313678e-001	 1.626144429885816e+000	-4.053537002430668e+000
1	 9.649297979272699e-001	 1.636737830283300e+000	-4.268804655289093e+000
1	 9.470929781445853e-001	 1.647123329094427e+000	-4.509705500925024e+000
1	 9.291702770601759e-001	 1.657299937124190e+000	-4.777277761223483e+000
1	 1.107979884770492e+000	 1.551694335275432e+000	-3.007681801460891e+000
1	 1.090897946993144e+000	 1.563750755886520e+000	-3.069303106156257e+000
1	 1.073701562188594e+000	 1.575607746806549e+000	-3.149778085943969e+000
1	 1.056394188006254e+000	 1.587263754208078e+000	-3.250127916395633e+000
1	 1.038979308123788e+000	 1.598717303386091e+000	-3.371377019247420e+000
1	 1.021460430010627e+000	 1.609966999230480e+000	-3.514551388651818e+000
1	 1.003841082684530e+000	 1.621011526623595e+000	-3.680676921637209e+000
1	 9.861248144640508e-001	 1.631849650762943e+000	-3.870777756205579e+000
1	 9.683151907197705e-001	 1.642480217409241e+000	-4.085874620450194e+000
1	 9.504157916271706e-001	 1.652902153060155e+000	-4.326983196013829e+000
1	 9.324302099239196e-001	 1.663114465050168e+000	-4.595112499140701e+000
1	 1.111853574635990e+000	 1.557119327825082e+000	-2.850381345389927e+000
1	 1.094711915441191e+000	 1.569217899773733e+000	-2.908460128769419e+000
1	 1.077455409092595e+000	 1.581116344790473e+000	-2.986108819026046e+000
1	 1.060087525328149e+000	 1.592813103615424e+000	-3.084335773548990e+000
1	 1.042611760005043e+000	 1.604306696387760e+000	-3.204151250109563e+000
1	 1.025031632855421e+000	 1.615595723119837e+000	-3.346565774544088e+000
1	 1.007350685235092e+000	 1.626678864096137e+000	-3.512588514365627e+000
1	 9.895724778681322e-001	 1.637554880197098e+000	-3.703225661628006e+000
1	 9.717005885902695e-001	 1.648222613148027e+000	-3.919478828312227e+000
1	 9.537386100938896e-001	 1.658680985693452e+000	-4.162343457444786e+000
1	 9.356901476774832e-001	 1.668929001697338e+000	-4.432807253085130e+000
1	 1.115727271280403e+000	 1.562544329867139e+000	-2.704224909883791e+000
1	 1.098525890563611e+000	 1.574685053227156e+000	-2.758801786049497e+000
1	 1.081209262565728e+000	 1.586624952413206e+000	-2.833830959523586e+000
1	 1.063780869113253e+000	 1.598362462732960e+000	-2.930315848020121e+000
1	 1.046244218242930e+000	 1.609896099169767e+000	-3.049260453069491e+000
1	 1.028602841949637e+000	 1.621224456858440e+000	-3.191667756844499e+000
1	 1.010860293927253e+000	 1.632346211485587e+000	-3.358538126644139e+000
1	 9.930201473054026e-001	 1.643260119614560e+000	-3.550867730275443e+000
1	 9.750859923849807e-001	 1.653965018935252e+000	-3.769646965518556e+000
1	 9.570614343752997e-001	 1.664459828439043e+000	-4.015858906796058e+000
1	 9.389500911356973e-001	 1.674743548519371e+000	-4.290477772094082e+000
1	 1.119600975672099e+000	 1.567969342757683e+000	-2.568917752050914e+000
1	 1.102339873313836e+000	 1.580152217613425e+000	-2.620071798915951e+000
1	 1.084963123546385e+000	 1.592133571051762e+000	-2.692727401259218e+000
1	 1.067474220284823e+000	 1.603911832947904e+000	-2.787890852630051e+000
1	 1.049876683745474e+000	 1.615485513129365e+000	-2.906567742349414e+000
1	 1.032174058185975e+000	 1.626853201853401e+000	-3.049761369260002e+000
1	 1.014369909638300e+000	 1.638013570208727e+000	-3.218471164869775e+000
1	 9.964678236376523e-001	 1.648965370441609e+000	-3.413691129072557e+000
1	 9.784714029501171e-001	 1.659707436206510e+000	-3.636408281570000e+000
1	 9.603842653019601e-001	 1.670238682741653e+000	-3.887601132052244e+000
1	 9.422100411133937e-001	 1.680558106969942e+000	-4.168238172118764e+000
1	 1.123474688779447e+000	 1.573394367852797e+000	-2.444169173367287e+000
1	 1.106153864645299e+000	 1.585619394299173e+000	-2.492017402503979e+000
1	 1.088716992972960e+000	 1.597642202083156e+000	-2.562584012054907e+000
1	 1.071167579766116e+000	 1.609461215647480e+000	-2.656885924774733e+000
1	 1.053509157420699e+000	 1.621074939663807e+000	-2.775938098980605e+000
1	 1.035745282457134e+000	 1.632481959511823e+000	-2.920751947073774e+000
1	 1.017879533245523e+000	 1.643680941682343e+000	-3.092333765198972e+000
1	 9.999155077266725e-001	 1.654670634104525e+000	-3.291683177191970e+000
1	 9.818568211318918e-001	 1.665449866397395e+000	-3.519791595904701e+000
1	 9.637071037044300e-001	 1.676017550046008e+000	-3.777640704925433e+000
1	 9.454699984254019e-001	 1.686372678502719e+000	-4.066200963633242e+000
1	 9.128706575696799e-001	 1.628227377433698e+000	-5.981835176420076e+000
1	 8.951841707274577e-001	 1.638017894080757e+000	-6.300079648165790e+000
1	 8.774203956610007e-001	 1.647601541619870e+000	-6.646965711204684e+000
1	 8.595828728996265e-001	 1.656977587152687e+000	-7.024095810967815e+000
1	 8.416751465452838e-001	 1.666145376561775e+000	-7.433053582344043e+000
1	 8.237007621394887e-001	 1.675104334255827e+000	-7.875401522898609e+000
1	 8.056632645502202e-001	 1.683853962847609e+000	-8.352678723595579e+000
1	 7.875661958811588e-001	 1.692393842765832e+000	-8.866398660868834e+000
1	 7.694130934055927e-001	 1.700723631802261e+000	-9.418047053678707e+000
1	 7.512074875272330e-001	 1.708843064595402e+000	-1.000907978897938e+001
1	 7.329528997701102e-001	 1.716751952052255e+000	-1.064092091880276e+001
1	 9.161305782067855e-001	 1.634041883558782e+000	-5.702165235320360e+000
1	 8.983809317669452e-001	 1.643867362778795e+000	-6.011883112420480e+000
1	 8.805537211015639e-001	 1.653485234147827e+000	-6.349381849586259e+000
1	 8.626524993834223e-001	 1.662894762150299e+000	-6.716313572277056e+000
1	 8.446808233706907e-001	 1.672095290332883e+000	-7.114314528772620e+000
1	 8.266422512662489e-001	 1.681086241048800e+000	-7.545002625559644e+000
1	 8.085403405970330e-001	 1.689867115134612e+000	-8.009975017346758e+000
1	 7.903786461158097e-001	 1.698437491520715e+000	-8.510805755886102e+000
1	 7.721607177277033e-001	 1.706797026776825e+000	-9.049043501573785e+000
1	 7.538900984437295e-001	 1.714945454593828e+000	-9.626209301587666e+000
1	 7.355703223635138e-001	 1.722882585203459e+000	-1.024379443810205e+001
1	 9.193904996595567e-001	 1.639856391136701e+000	-5.441751060694108e+000
1	 9.015776936063481e-001	 1.649716832938383e+000	-5.744746987442489e+000
1	 8.836870473262152e-001	 1.659368928145872e+000	-6.074938160988494e+000
1	 8.657221266354049e-001	 1.668811938626362e+000	-6.434031910137779e+000
1	 8.476865009483131e-001	 1.678045205590631e+000	-6.823722371390608e+000
1	 8.295837411291853e-001	 1.687068149336423e+000	-7.245687880386414e+000
1	 8.114174173639180e-001	 1.695880268924100e+000	-7.701588415540910e+000
1	 7.931910970543666e-001	 1.704481141785743e+000	-8.193063098392711e+000
1	 7.749083427374958e-001	 1.712870423269022e+000	-8.721727754971164e+000
1	 7.565727100316281e-001	 1.721047846117197e+000	-9.289172542283950e+000
1	 7.381877456119866e-001	 1.729013219886742e+000	-9.896959643795778e+000
1	 9.226504227428253e-001	 1.645670901621128e+000	-5.200717002130174e+000
1	 9.047744570447027e-001	 1.655566306021953e+000	-5.498841305510062e+000
1	 8.868203751181282e-001	 1.665252625085010e+000	-5.823848974687850e+000
1	 8.687917554228225e-001	 1.674729118060264e+000	-6.177508020002462e+000
1	 8.506921800294128e-001	 1.683995123822599e+000	-6.561575697042365e+000
1	 8.325252324635154e-001	 1.693050060614283e+000	-6.977795748071886e+000
1	 8.142944955699941e-001	 1.701893425719475e+000	-7.427895693649358e+000
1	 7.960035493997998e-001	 1.710524795071942e+000	-7.913584179301389e+000
1	 7.776559691217416e-001	 1.718943822797304e+000	-8.436548381909843e+000
1	 7.592553229614560e-001	 1.727150240691201e+000	-8.998451480250123e+000
1	 7.408051701697700e-001	 1.735143857634843e+000	-9.600930193892397e+000
1	 9.259103482714212e-001	 1.651485416465734e+000	-4.979185629016560e+000
1	 9.079712228810430e-001	 1.661415783491934e+000	-5.274333672537672e+000
1	 8.899537052604762e-001	 1.671136326436241e+000	-5.596325566575285e+000
1	 8.718613865129231e-001	 1.680646301931392e+000	-5.946995436682245e+000
1	 8.536978613652514e-001	 1.689945046516368e+000	-6.328168845051519e+000
1	 8.354667260044577e-001	 1.699031976377965e+000	-6.741659875877330e+000
1	 8.171715759343823e-001	 1.707906587024138e+000	-7.189268269344973e+000
1	 7.988160038550786e-001	 1.716568452890335e+000	-7.672776609463495e+000
1	 7.804035975672117e-001	 1.725017226880129e+000	-8.193947570747648e+000
1	 7.619379379037400e-001	 1.733252639841535e+000	-8.754521228534038e+000
1	 7.434225966911037e-001	 1.741274499980501e+000	-9.356212437482622e+000
1	 9.291702770601759e-001	 1.657299937124190e+000	-4.777277761223483e+000
1	 9.111679919144056e-001	 1.667265266810758e+000	-5.071389310043066e+000
1	 8.930870385364329e-001	 1.677020033670570e+000	-5.392576212064182e+000
1	 8.749310206729554e-001	 1.686563491719130e+000	-5.742744097843351e+000
1	 8.567035457070905e-001	 1.695894975159520e+000	-6.123791980940040e+000
1	 8.384082224872305e-001	 1.705013898123057e+000	-6.537609181199677e+000
1	 8.200486591762006e-001	 1.713919754341490e+000	-6.986072295533307e+000
1	 8.016284611231731e-001	 1.722612116751946e+000	-7.471042221767289e+000
1	 7.831512287606770e-001	 1.731090637035950e+000	-7.994361240922644e+000
1	 7.646205555290072e-001	 1.739355045093891e+000	-8.557850163058667e+000
1	 7.460400258302277e-001	 1.747405148456453e+000	-9.163305541576117e+000
1	 9.324302099239196e-001	 1.663114465050168e+000	-4.595112499140701e+000
1	 9.143647649438255e-001	 1.673114757440853e+000	-4.890171096231120e+000
1	 8.962203757291724e-001	 1.682903748258998e+000	-5.212806237885758e+000
1	 8.780006586701662e-001	 1.692480688902867e+000	-5.565000406166734e+000
1	 8.597092338061930e-001	 1.701844911239638e+000	-5.948731168596743e+000
1	 8.413497226470509e-001	 1.710995827345145e+000	-6.365967933381046e+000
1	 8.229257460145700e-001	 1.719932929174930e+000	-6.818668751425381e+000
1	 8.044409219070522e-001	 1.728655788167799e+000	-7.308777171087841e+000
1	 7.858988633889094e-001	 1.737164054783222e+000	-7.838219151383613e+000
1	 7.673031765077846e-001	 1.745457457973962e+000	-8.408900039128850e+000
1	 7.486574582413830e-001	 1.753535804595439e+000	-9.022701615267865e+000
1	 9.356901476774832e-001	 1.668929001697338e+000	-4.432807253085129e+000
1	 9.175615427683381e-001	 1.678964256844651e+000	-4.730839606216163e+000
1	 8.993537176218678e-001	 1.688787471672527e+000	-5.057218072797912e+000
1	 8.810703012718043e-001	 1.698397894961988e+000	-5.414007290204956e+000
1	 8.627149264138193e-001	 1.707794856244301e+000	-5.803268440932026e+000
1	 8.442912272191381e-001	 1.716977765539817e+000	-6.227055833802300e+000
1	 8.258028371686094e-001	 1.725946113027861e+000	-6.687413531700864e+000
1	 8.072533869096863e-001	 1.734699468648917e+000	-7.186372032141171e+000
1	 7.886465021386790e-001	 1.743237481640400e+000	-7.725945006746990e+000
1	 7.699858015105995e-001	 1.751559880007444e+000	-8.308126105493985e+000
1	 7.512748945788093e-001	 1.759666469930197e+000	-8.934885831302633e+000
1	 9.389500911356973e-001	 1.674743548519371e+000	-4.290477772094082e+000
1	 9.207583261869795e-001	 1.684813766484584e+000	-4.593553151404345e+000
1	 9.024870649976925e-001	 1.694671205382161e+000	-4.926011297234930e+000
1	 8.841399492451179e-001	 1.704315111375880e+000	-5.290004263967323e+000
1	 8.657206242812326e-001	 1.713744811661092e+000	-5.687681869056447e+000
1	 8.472327369387090e-001	 1.722959714202656e+000	-6.121188094303175e+000
1	 8.286799333574388e-001	 1.731959307403683e+000	-6.592657533808650e+000
1	 8.100658568340449e-001	 1.740743159706326e+000	-7.104211895293735e+000
1	 7.913941456967576e-001	 1.749310919125939e+000	-7.657956561236117e+000
1	 7.726684312079784e-001	 1.757662312720026e+000	-8.255977216027789e+000
1	 7.538923354967474e-001	 1.765797145993466e+000	-8.900336545097860e+000
1	 9.422100411133937e-001	 1.680558106969942e+000	-4.168238172118764e+000
1	 9.239551159987848e-001	 1.690663287823079e+000	-4.478467818055273e+000
1	 9.056204186398202e-001	 1.700554950858902e+000	-4.819382691922815e+000
1	 8.872096033573542e-001	 1.710232339623929e+000	-5.193227485263955e+000
1	 8.687263281596938e-001	 1.719694778977591e+000	-5.602245630018924e+000
1	 8.501742525409826e-001	 1.728941674829252e+000	-6.048675513969807e+000
1	 8.315570353001780e-001	 1.737972513805797e+000	-6.534746743448970e+000
1	 8.128783323830974e-001	 1.746786862851048e+000	-7.062676460377104e+000
1	 7.941417947499166e-001	 1.755384368758295e+000	-7.634665720455585e+000
1	 7.753510662704489e-001	 1.763764757637405e+000	-8.252895939082753e+000
1	 7.565097816494371e-001	 1.771927834317984e+000	-8.919525411289271e+000
1	 9.454699984254019e-001	 1.686372678502719e+000	-4.066200963633241e+000
1	 9.271519130027892e-001	 1.696512822322570e+000	-4.385737505044246e+000
1	 9.087537793314252e-001	 1.706438709573753e+000	-4.737526285486488e+000
1	 8.902792643757620e-001	 1.716149581185522e+000	-5.123909812839841e+000
1	 8.717320388004656e-001	 1.725644759681382e+000	-5.547230073139304e+000
1	 8.531157747611764e-001	 1.734923648915190e+000	-6.009824554328421e+000
1	 8.344341437159466e-001	 1.743985733737606e+000	-6.514022318282608e+000
1	 8.156908142598138e-001	 1.752830579594108e+000	-7.062140128555701e+000
1	 7.968894499849265e-001	 1.761457832055922e+000	-7.656478641054446e+000
1	 7.780337073685373e-001	 1.769867216285273e+000	-8.299318664574901e+000
1	 7.591272336911190e-001	 1.778058536436490e+000	-8.992917497857848e+000
1	 7.329528997701102e-001	 1.716751952052255e+000	-1.064092091880276e+001
1	 7.146500924294713e-001	 1.724451319976578e+000	-1.132271924946323e+001
1	 6.963053005481267e-001	 1.731939928692788e+000	-1.205847357075705e+001
1	 6.779220096819681e-001	 1.739217815222061e+000	-1.284208950350616e+001
1	 6.595036887474008e-001	 1.746285089996563e+000	-1.366739857549757e+001
1	 6.410537881847429e-001	 1.753141935993637e+000	-1.452816907270393e+001
1	 6.225757381620465e-001	 1.759788607818298e+000	-1.541811680383504e+001
1	 6.040729468208826e-001	 1.766225430735958e+000	-1.633091575864132e+001
1	 5.855487985655503e-001	 1.772452799657344e+000	-1.726020864106591e+001
1	 5.670066523970694e-001	 1.778471178077622e+000	-1.819961725905554e+001
1	 5.484498402932199e-001	 1.784281096971782e+000	-1.914275275358954e+001
1	 7.355703223635138e-001	 1.722882585203459e+000	-1.024379443810205e+001
1	 7.172021545045106e-001	 1.730609448072686e+000	-1.091057015660949e+001
1	 6.987918521752771e-001	 1.738124799098968e+000	-1.163016341442866e+001
1	 6.803429133788512e-001	 1.745428675435680e+000	-1.239654863804917e+001
1	 6.618588194193650e-001	 1.752521187909347e+000	-1.320362349393320e+001
1	 6.433430330588841e-001	 1.759402520150736e+000	-1.404521972086793e+001
1	 6.247989967148149e-001	 1.766072927674072e+000	-1.491511388062368e+001
1	 6.062301306994241e-001	 1.772532736906307e+000	-1.580703800725008e+001
1	 5.876398315029389e-001	 1.778782344168420e+000	-1.671469013600829e+001
1	 5.690314701215915e-001	 1.784822214610746e+000	-1.763174469364110e+001
1	 5.504083904318715e-001	 1.790652881104421e+000	-1.855186273242424e+001
1	 7.381877456119866e-001	 1.729013219886742e+000	-9.896959643795778e+000
1	 7.197542172182362e-001	 1.736767577707839e+000	-1.055346626361476e+001
1	 7.012784044246840e-001	 1.744309671050978e+000	-1.126191484700056e+001
1	 6.827638176815221e-001	 1.751639537201736e+000	-1.201633003572198e+001
1	 6.642139506806132e-001	 1.758757287380995e+000	-1.281065729469685e+001
1	 6.456322785057757e-001	 1.765663105872937e+000	-1.363877375251243e+001
1	 6.270222558237740e-001	 1.772357249100997e+000	-1.449449896420909e+001
1	 6.083873151175759e-001	 1.778840044653666e+000	-1.537160557653725e+001
1	 5.897308649633422e-001	 1.785111890262170e+000	-1.626382987655792e+001
1	 5.710562883525207e-001	 1.791173252732014e+000	-1.716488220515684e+001
1	 5.523669410603161e-001	 1.797024666830474e+000	-1.806845721777378e+001
1	 7.408051701697700e-001	 1.735143857634843e+000	-9.600930193892397e+000
1	 7.223062812085586e-001	 1.742925710421628e+000	-1.025195242200870e+001
1	 7.037649579178940e-001	 1.750494546095071e+000	-1.095430477928852e+001
1	 6.851847231951275e-001	 1.757850402072951e+000	-1.170204372507442e+001
1	 6.665690831198611e-001	 1.764993389970501e+000	-1.248914437247421e+001
1	 6.479215250976732e-001	 1.771923694725325e+000	-1.330951136393799e+001
1	 6.292455160446951e-001	 1.778641573670060e+000	-1.415698967204284e+001
1	 6.105445006146022e-001	 1.785147355554737e+000	-1.502537530554161e+001
1	 5.918218994694955e-001	 1.791441439520828e+000	-1.590842590139038e+001
1	 5.730811075960469e-001	 1.797524294029003e+000	-1.679987118416544e+001
1	 5.543254926681834e-001	 1.803396455742680e+000	-1.769342327501367e+001
1	 7.434225966911037e-001	 1.741274499980501e+000	-9.356212437482622e+000
1	 7.248583471133896e-001	 1.749083847753640e+000	-1.000656572815108e+001
1	 7.062515132764518e-001	 1.756679425777496e+000	-1.070790190807355e+001
1	 6.876056305248127e-001	 1.764061271602043e+000	-1.145429104645823e+001
1	 6.689242173258243e-001	 1.771229497236867e+000	-1.223971994164354e+001
1	 6.502107734068341e-001	 1.778184288272990e+000	-1.305810305847431e+001
1	 6.314687779333503e-001	 1.784925902952253e+000	-1.390329339282226e+001
1	 6.127016877297666e-001	 1.791454671186225e+000	-1.476909324312275e+001
1	 5.939129355441347e-001	 1.797770993526625e+000	-1.564926486945908e+001
1	 5.751059283583608e-001	 1.803875340089290e+000	-1.653754102142101e+001
1	 5.562840457451034e-001	 1.809768249433779e+000	-1.742763531669760e+001
1	 7.460400258302277e-001	 1.747405148456453e+000	-9.163305541576117e+000
1	 7.274104155706407e-001	 1.755241991243472e+000	-9.817835657771683e+000
1	 7.087380711219047e-001	 1.762864311644508e+000	-1.052326685855984e+001
1	 6.900265402757256e-001	 1.770272147341734e+000	-1.127366480266407e+001
1	 6.712793538872184e-001	 1.777465610739092e+000	-1.206301019539988e+001
1	 6.525000240055142e-001	 1.784444888081018e+000	-1.288520981444652e+001
1	 6.336920420455108e-001	 1.791210238518562e+000	-1.373410746369901e+001
1	 6.148588770023327e-001	 1.797761993124833e+000	-1.460349483485738e+001
1	 5.960039737099959e-001	 1.804100553861794e+000	-1.548712225706985e+001
1	 5.771307511456527e-001	 1.810226392500453e+000	-1.637870931564952e+001
1	 5.582426007807066e-001	 1.816140049496512e+000	-1.727195532162188e+001
1	 7.486574582413830e-001	 1.753535804595439e+000	-9.022701615267865e+000
1	 7.299624872182234e-001	 1.761400142430711e+000	-9.686284197679060e+000
1	 7.112246320757975e-001	 1.769049205242356e+000	-1.040095232383390e+001
1	 6.924474530530118e-001	 1.776483030844745e+000	-1.116074940638852e+001
1	 6.736344933927588e-001	 1.783701732036173e+000	-1.195963246153179e+001
1	 6.547892774659702e-001	 1.790705495714499e+000	-1.279148324960829e+001
1	 6.359153089369479e-001	 1.797494581939978e+000	-1.365011934376137e+001
1	 6.170160689715646e-001	 1.804069322947262e+000	-1.452930510600557e+001
1	 5.980950144898145e-001	 1.810430122108566e+000	-1.542276255080786e+001
1	 5.791555764641129e-001	 1.816577452850068e+000	-1.632418207696081e+001
1	 5.602011582646226e-001	 1.822511857523617e+000	-1.722723304928034e+001
1	 7.512748945788093e-001	 1.759666469930197e+000	-8.934885831302633e+000
1	 7.325145626940491e-001	 1.767558302854952e+000	-9.612425974706943e+000
1	 7.137111967596772e-001	 1.775234108117293e+000	-1.034150320140052e+001
1	 6.948683694618177e-001	 1.782693923663795e+000	-1.111612102460849e+001
1	 6.759896364311617e-001	 1.789937862687110e+000	-1.193019535493046e+001
1	 6.570785343604583e-001	 1.796966112738519e+000	-1.277756578212696e+001
1	 6.381385791634338e-001	 1.803778934787489e+000	-1.365200678387706e+001
1	 6.191732641767257e-001	 1.810376662230218e+000	-1.454723884063849e+001
1	 6.001860584063267e-001	 1.816759699849174e+000	-1.545693943642007e+001
1	 5.811804048199316e-001	 1.822928522725712e+000	-1.637475392599227e+001
1	 5.621597186864817e-001	 1.828883675107834e+000	-1.729430624982326e+001
1	 7.538923354967474e-001	 1.765797145993466e+000	-8.900336545097860e+000
1	 7.350666426360297e-001	 1.773716474055784e+000	-9.596768381968090e+000
1	 7.161977657950889e-001	 1.781419021815571e+000	-1.034545672686509e+001
1	 6.972892901072898e-001	 1.788904827351606e+000	-1.114034771993982e+001
1	 6.783447835911426e-001	 1.796174004250901e+000	-1.197529892691357e+001
1	 6.593677952612350e-001	 1.803226740718167e+000	-1.284409078820419e+001
1	 6.403618532807395e-001	 1.810063298632084e+000	-1.374043799298819e+001
1	 6.213304631570803e-001	 1.816684012550403e+000	-1.465800075702446e+001
1	 6.022771059822680e-001	 1.823089288665851e+000	-1.559039598375006e+001
1	 5.832052367192991e-001	 1.829279603714964e+000	-1.653120828889461e+001
1	 5.641182825359137e-001	 1.835255503841901e+000	-1.747400086962794e+001
1	 7.565097816494371e-001	 1.771927834317984e+000	-8.919525411289271e+000
1	 7.376187276820767e-001	 1.779874657572799e+000	-9.639811702476973e+000
1	 7.186843398035792e-001	 1.787603947883441e+000	-1.041334260483328e+001
1	 6.997102155945745e-001	 1.795115743460896e+000	-1.123398958905194e+001
1	 6.806999354614164e-001	 1.802410158286546e+000	-1.209553481143916e+001
1	 6.616570607405570e-001	 1.809487381218530e+000	-1.299168275641568e+001
1	 6.425851318446371e-001	 1.816347675044753e+000	-1.391607180094401e+001
1	 6.234876664518918e-001	 1.822991375484520e+000	-1.486228567936324e+001
1	 6.043681577403745e-001	 1.829418890140827e+000	-1.582386482782403e+001
1	 5.852300726684062e-001	 1.835630697405398e+000	-1.679431758825459e+001
1	 5.660768503025488e-001	 1.841627345318559e+000	-1.776713125259111e+001
1	 7.591272336911190e-001	 1.778058536436490e+000	-8.992917497857848e+000
1	 7.401708184701011e-001	 1.786032854945589e+000	-9.742049230209110e+000
1	 7.211709194066933e-001	 1.793788887867156e+000	-1.054568313709336e+001
1	 7.021311465288181e-001	 1.801326673544389e+000	-1.139759889821063e+001
1	 6.830550926306996e-001	 1.808646326353043e+000	-1.229148636828562e+001
1	 6.639463313706804e-001	 1.815748035804697e+000	-1.322095743884797e+001
1	 6.448084154108978e-001	 1.822632065596484e+000	-1.417955781795303e+001
1	 6.256448746004242e-001	 1.829298752609273e+000	-1.516077870595598e+001
1	 6.064592142033819e-001	 1.835748505856337e+000	-1.615806834617655e+001
1	 5.872549131734427e-001	 1.841981805384595e+000	-1.716484343005891e+001
1	 5.680354224760176e-001	 1.847999201130549e+000	-1.817450033724221e+001
1	 5.484498402932199e-001	 1.784281096971782e+000	-1.914275275358954e+001
1	 5.298816653707491e-001	 1.789883153202778e+000	-2.008315142909323e+001
1	 5.113053995926307e-001	 1.795278007002279e+000	-2.101638024966281e+001
1	 4.927242831349172e-001	 1.800466382091268e+000	-2.193911843181162e+001
1	 4.741415232331826e-001	 1.805449064870776e+000	-2.284808060454317e+001
1	 4.555602928079645e-001	 1.810226903133151e+000	-2.374002089695444e+001
1	 4.369837291416522e-001	 1.814800804742252e+000	-2.461173688113777e+001
1	 4.184149326073985e-001	 1.819171736284711e+000	-2.546007336620681e+001
1	 3.998569654505434e-001	 1.823340721694442e+000	-2.628192603972164e+001
1	 3.813128506229466e-001	 1.827308840852505e+000	-2.707424495323692e+001
1	 3.627855706705263e-001	 1.831077228164503e+000	-2.783403784913697e+001
1	 5.504083904318715e-001	 1.790652881104421e+000	-1.855186273242424e+001
1	 5.317739073461716e-001	 1.796274942643831e+000	-1.946886744200431e+001
1	 5.131313045118567e-001	 1.801689061818372e+000	-2.037870271322386e+001
1	 4.944838336758576e-001	 1.806895964933475e+000	-2.127823411754627e+001
1	 4.758347135269936e-001	 1.811896441198451e+000	-2.216436687048777e+001
1	 4.571871283165069e-001	 1.816691341433165e+000	-2.303404953155660e+001
1	 4.385442265302251e-001	 1.821281576743510e+000	-2.388427756108003e+001
1	 4.199091196129334e-001	 1.825668117167858e+000	-2.471209673046482e+001
1	 4.012848807454481e-001	 1.829851990296648e+000	-2.551460638285725e+001
1	 3.826745436747854e-001	 1.833834279867260e+000	-2.628896254159950e+001
1	 3.640811015977278e-001	 1.837616124336330e+000	-2.703238086428420e+001
1	 5.523669410603161e-001	 1.797024666830474e+000	-1.806845721777378e+001
1	 5.336661497947700e-001	 1.802666733683369e+000	-1.896866838440356e+001
1	 5.149572098876430e-001	 1.808100118237819e+000	-1.986179322285807e+001
1	 4.962433846567466e-001	 1.813325549383705e+000	-2.074479620976794e+001
1	 4.775279042441486e-001	 1.818343819138624e+000	-2.161468396609077e+001
1	 4.588139642317982e-001	 1.823155781349956e+000	-2.246850875295093e+001
1	 4.401047243089640e-001	 1.827762350365629e+000	-2.330337182465419e+001
1	 4.214033069920677e-001	 1.832164499675755e+000	-2.411642663581291e+001
1	 4.027127963974042e-001	 1.836363260527303e+000	-2.490488189993209e+001
1	 3.840362370671483e-001	 1.840359720513975e+000	-2.566600449721107e+001
1	 3.653766328489503e-001	 1.844155022143435e+000	-2.639712222972373e+001
1	 5.543254926681834e-001	 1.803396455742680e+000	-1.769342327501367e+001
1	 5.355583931896026e-001	 1.809058527919111e+000	-1.858347626190229e+001
1	 5.167831161764662e-001	 1.814511177863141e+000	-1.946658546805591e+001
1	 4.980029365174731e-001	 1.819755137049102e+000	-2.033972780560133e+001
1	 4.792210958079450e-001	 1.824791200302876e+000	-2.119992311052506e+001
1	 4.604408009605449e-001	 1.829620224499363e+000	-2.204423761688095e+001
1	 4.416652228679882e-001	 1.834243127228526e+000	-2.286978728716806e+001
1	 4.228974951183376e-001	 1.838660885432222e+000	-2.367374099587704e+001
1	 4.041407127633725e-001	 1.842874534013948e+000	-2.445332356362177e+001
1	 3.853979311404335e-001	 1.846885164423731e+000	-2.520581863967533e+001
1	 3.666721647480425e-001	 1.850693923220270e+000	-2.592857143114580e+001
1	 5.562840457451034e-001	 1.809768249433779e+000	-1.742763531669760e+001
1	 5.374506380037267e-001	 1.815450326948778e+000	-1.831419992528262e+001
1	 5.186090238348023e-001	 1.820922242296858e+000	-1.919399980893022e+001
1	 4.997624896979254e-001	 1.826184729536804e+000	-2.006393881203156e+001
1	 4.809142886416810e-001	 1.831238586302786e+000	-2.092096277202714e+001
1	 4.620676389094542e-001	 1.836084672497223e+000	-2.176206315337289e+001
1	 4.432257225974157e-001	 1.840723908952121e+000	-2.258428053538158e+001
1	 4.243916843652784e-001	 1.845157276061076e+000	-2.338470795068520e+001
1	 4.055686302003150e-001	 1.849385812384124e+000	-2.416049407148228e+001
1	 3.867596262350390e-001	 1.853410613227614e+000	-2.490884624116136e+001
1	 3.679676976188531e-001	 1.857232829201285e+000	-2.562703334931185e+001
1	 5.582426007807066e-001	 1.816140049496512e+000	-1.727195532162188e+001
1	 5.393428847102001e-001	 1.821842132370091e+000	-1.816173529819259e+001
1	 5.204349333191276e-001	 1.827333313141492e+000	-1.904494350679765e+001
1	 5.015220446379921e-001	 1.832614328453952e+000	-1.991832617386736e+001
1	 4.826074831686546e-001	 1.837685978749934e+000	-2.077866888798582e+001
1	 4.636944784852327e-001	 1.842549126959377e+000	-2.162280057393702e+001
1	 4.447862238873651e-001	 1.847204697156331e+000	-2.244759731705758e+001
1	 4.258858751064263e-001	 1.851653673186138e+000	-2.324998603405884e+001
1	 4.069965490651929e-001	 1.855897097265371e+000	-2.402694798692549e+001
1	 3.881213226913629e-001	 1.859936068556710e+000	-2.477552213695331e+001
1	 3.692632317852309e-001	 1.863771741720931e+000	-2.549280833643085e+001
1	 5.602011582646226e-001	 1.822511857523617e+000	-1.722723304928034e+001
1	 5.412351337820803e-001	 1.828233945780770e+000	-1.812696560004989e+001
1	 5.222608450859182e-001	 1.833744391999562e+000	-1.902031094990682e+001
1	 5.032816017775622e-001	 1.839043935407688e+000	-1.990377409690733e+001
1	 4.843006798121632e-001	 1.844133379255899e+000	-2.077389508039739e+001
1	 4.653213200945875e-001	 1.849013589501663e+000	-2.162725347440881e+001
1	 4.463467271279553e-001	 1.853685493461075e+000	-2.246047272652691e+001
1	 4.273800677153167e-001	 1.858150078431226e+000	-2.327022433748490e+001
1	 4.084244697149673e-001	 1.862408390285230e+000	-2.405323187722668e+001
1	 3.894830208498031e-001	 1.866461532042101e+000	-2.480627483367645e+001
1	 3.705587675710249e-001	 1.870310662413659e+000	-2.552619229093132e+001
1	 5.621597186864817e-001	 1.828883675107834e+000	-1.729430624982326e+001
1	 5.431273856924253e-001	 1.834625768778536e+000	-1.821076156427230e+001
1	 5.240867595916505e-001	 1.840155480473590e+000	-1.912098387443432e+001
1	 5.050411615565240e-001	 1.845473552005149e+000	-2.002115426642845e+001
1	 4.859938789955047e-001	 1.850580789432260e+000	-2.090748286680681e+001
1	 4.669481641442250e-001	 1.855478061739920e+000	-2.177621403353787e+001
1	 4.479072327093042e-001	 1.860166299486271e+000	-2.262363138636213e+001
1	 4.288742625654854e-001	 1.864646493420159e+000	-2.344606267055040e+001
1	 4.098523925065996e-001	 1.868919693071243e+000	-2.423988444863979e+001
1	 3.908447210507582e-001	 1.872987005314873e+000	-2.500152661525449e+001
1	 3.718543053000838e-001	 1.876849592913921e+000	-2.572747673066532e+001
1	 5.641182825359137e-001	 1.835255503841901e+000	-1.747400086962794e+001
1	 5.450196409142923e-001	 1.841017602961110e+000	-1.841398165194834e+001
1	 5.259126772928003e-001	 1.846566580166098e+000	-1.934783158086334e+001
1	 5.068007244147662e-001	 1.851903179853479e+000	-2.027132606110672e+001
1	 4.876870811419773e-001	 1.857028210890599e+000	-2.118026186683821e+001
1	 4.685750110408526e-001	 1.861942545289987e+000	-2.207046320742687e+001
1	 4.494677410215306e-001	 1.866647116851838e+000	-2.293778762525406e+001
1	 4.303684600304682e-001	 1.871142919776756e+000	-2.377813171802620e+001
1	 4.112803177970513e-001	 1.875431007250949e+000	-2.458743667869069e+001
1	 3.922064236346260e-001	 1.879512490006111e+000	-2.536169364665155e+001
1	 3.731498452962563e-001	 1.883388534856166e+000	-2.609694886458351e+001
1	 5.660768503025488e-001	 1.841627345318559e+000	-1.776713125259111e+001
1	 5.469118999207399e-001	 1.847409449926213e+000	-1.873747226105824e+001
1	 5.277385986458446e-001	 1.852977692679605e+000	-1.970171114585629e+001
1	 5.085602907921774e-001	 1.858332820559816e+000	-2.065513676248686e+001
1	 4.893802866748787e-001	 1.863475645242494e+000	-2.159305000442802e+001
1	 4.702018611911770e-001	 1.868407041767702e+000	-2.251077091992290e+001
1	 4.510282524547534e-001	 1.873127947177695e+000	-2.340364565218885e+001
1	 4.318626604838010e-001	 1.877639359124836e+000	-2.426705319368015e+001
1	 4.127082459432835e-001	 1.881942334451890e+000	-2.509641194571561e+001
1	 3.935681289418045e-001	 1.886037987746897e+000	-2.588718607545823e+001
1	 3.744453878833915e-001	 1.889927489874846e+000	-2.663489166291908e+001
1	 5.680354224760176e-001	 1.847999201130549e+000	-1.817450033724221e+001
1	 5.488041631848251e-001	 1.853801311271564e+000	-1.918206793135449e+001
1	 5.295645241072590e-001	 1.859388819616633e+000	-2.018346762973175e+001
1	 5.103198611286465e-001	 1.864762475731302e+000	-2.117342176010303e+001
1	 4.910734960175067e-001	 1.869923094099526e+000	-2.214665370585993e+001
1	 4.718287150019048e-001	 1.874871552788906e+000	-2.309789624905842e+001
1	 4.525887673990908e-001	 1.879608792083759e+000	-2.402189972700730e+001
1	 4.333568642990193e-001	 1.884135813088218e+000	-2.491343999089973e+001
1	 4.141361773022579e-001	 1.888453676301606e+000	-2.576732615571229e+001
1	 3.949298373126922e-001	 1.892563500168320e+000	-2.657840813136741e+001
1	 3.757409333853378e-001	 1.896466459604412e+000	-2.734158392591656e+001
1	 3.627855706705263e-001	 1.831077228164503e+000	-2.783403784913697e+001
1	 3.442808403239148e-001	 1.834646550756103e+000	-2.855537715649061e+001
1	 3.257987730908322e-001	 1.838018628650293e+000	-2.923206476448749e+001
1	 3.073422187503291e-001	 1.841194752042445e+000	-2.986043048743551e+001
1	 2.889139828828835e-001	 1.844176259724348e+000	-3.043683101606760e+001
1	 2.705168260265918e-001	 1.846964537582363e+000	-3.095765532394641e+001
1	 2.521534628864030e-001	 1.849561017085502e+000	-3.141932989713133e+001
1	 2.338265615961181e-001	 1.851967173765351e+000	-3.181832378178429e+001
1	 2.155387430328055e-001	 1.854184525689797e+000	-3.215115344496159e+001
1	 1.972925801832064e-001	 1.856214631932410e+000	-3.241438744441305e+001
1	 1.790905975616490e-001	 1.858059091039320e+000	-3.260465090376645e+001
1	 3.640811015977278e-001	 1.837616124336330e+000	-2.703238086428420e+001
1	 3.455102896525823e-001	 1.841198193211864e+000	-2.773881039397184e+001
1	 3.269622217524142e-001	 1.844582313016268e+000	-2.840179990352603e+001
1	 3.084397578530240e-001	 1.847769778552278e+000	-2.901769249893798e+001
1	 2.899457135538023e-001	 1.850761933392588e+000	-2.958284738157647e+001
1	 2.714828592509105e-001	 1.853560168372646e+000	-3.009364552686855e+001
1	 2.530539193436880e-001	 1.856165920073323e+000	-3.054649519612239e+001
1	 2.346615714940181e-001	 1.858580669295420e+000	-3.093783727535236e+001
1	 2.163084459382946e-001	 1.860805939527940e+000	-3.126415043555221e+001
1	 1.979971248515646e-001	 1.862843295411997e+000	-3.152195610942863e+001
1	 1.797301417633639e-001	 1.864694341202229e+000	-3.170782328018177e+001
1	 3.653766328489503e-001	 1.844155022143435e+000	-2.639712222972373e+001
1	 3.467397392887963e-001	 1.847749837306038e+000	-2.709194519816459e+001
1	 3.281256707050955e-001	 1.851145999023604e+000	-2.774376980869988e+001
1	 3.095372972303986e-001	 1.854344806706239e+000	-2.834903291056575e+001
1	 2.909774444830101e-001	 1.857347608707543e+000	-2.890418156480735e+001
1	 2.724488927171557e-001	 1.860155800812049e+000	-2.940567874316327e+001
1	 2.539543760265666e-001	 1.862770824712498e+000	-2.985000886883431e+001
1	 2.354965816012087e-001	 1.865194166478905e+000	-3.023368319269881e+001
1	 2.170781490368016e-001	 1.867427355021387e+000	-3.055324499910268e+001
1	 1.987016696966988e-001	 1.869471960548609e+000	-3.080527463592485e+001
1	 1.803696861256440e-001	 1.871329593023718e+000	-3.098639436417404e+001
1	 3.666721647480425e-001	 1.850693923220270e+000	-2.592857143114580e+001
1	 3.479691895398753e-001	 1.854301484676264e+000	-2.661497206036602e+001
1	 3.292891202396838e-001	 1.857709688312956e+000	-2.725809844641152e+001
1	 3.106348371567720e-001	 1.860919838147821e+000	-2.785456062310384e+001
1	 2.920091759283612e-001	 1.863933287315374e+000	-2.840097781930779e+001
1	 2.734149266667451e-001	 1.866751436549240e+000	-2.889398392745597e+001
1	 2.548548331600491e-001	 1.869375732654024e+000	-2.933023282157031e+001
1	 2.363315921263248e-001	 1.871807666968964e+000	-2.970640351854755e+001
1	 2.178478525206209e-001	 1.874048773825298e+000	-3.001920517702016e+001
1	 1.994062148945998e-001	 1.876100628999242e+000	-3.026538192865655e+001
1	 1.810092308082162e-001	 1.877964848162459e+000	-3.044171753728950e+001
1	 3.679676976188531e-001	 1.857232829201285e+000	-2.562703334931185e+001
1	 3.491986407131379e-001	 1.860853136960182e+000	-2.630807853822081e+001
1	 3.304525706469872e-001	 1.864273382524976e+000	-2.694490778281108e+001
1	 3.117323779064631e-001	 1.867494874520521e+000	-2.753438274671416e+001
1	 2.930409081477106e-001	 1.870518970862248e+000	-2.807337810838766e+001
1	 2.743809613410961e-001	 1.873347077232878e+000	-2.855878655021012e+001
1	 2.557552909691456e-001	 1.875980645548894e+000	-2.898752360355222e+001
1	 2.371666032780017e-001	 1.878421172418758e+000	-2.935653234430564e+001
1	 2.186175565820471e-001	 1.880670197594831e+000	-2.966278793386134e+001
1	 2.001107606212586e-001	 1.882729302420894e+000	-2.990330200103233e+001
1	 1.816487759708071e-001	 1.884600108277128e+000	-3.007512686091325e+001
1	 3.692632317852309e-001	 1.863771741720931e+000	-2.549280833643085e+001
1	 3.504280931159031e-001	 1.867404795795433e+000	-2.617144930270102e+001
1	 3.316160222178131e-001	 1.870837083300321e+000	-2.680431781434146e+001
1	 3.128299197537909e-001	 1.874069917467834e+000	-2.738860462775617e+001
1	 2.940726413989126e-001	 1.877104660994329e+000	-2.792152214067216e+001
1	 2.753469969816266e-001	 1.879942724511631e+000	-2.840030865420243e+001
1	 2.566557496788665e-001	 1.882585565048103e+000	-2.882223249623623e+001
1	 2.380016152648743e-001	 1.885034684481444e+000	-2.918459600186131e+001
1	 2.193872614133744e-001	 1.887291627985147e+000	-2.948473934697017e+001
1	 2.008153070526659e-001	 1.889357982470562e+000	-2.972004423166313e+001
1	 1.822883217731432e-001	 1.891235375026396e+000	-2.988793741049848e+001
1	 3.705587675710249e-001	 1.870310662413659e+000	-2.552619229093132e+001
1	 3.516575470554892e-001	 1.873956462819656e+000	-2.620526618410030e+001
1	 3.327794752429693e-001	 1.877400792279644e+000	-2.683644659764379e+001
1	 3.139274629730742e-001	 1.880644968633256e+000	-2.741732987504828e+001
1	 2.951043759398223e-001	 1.883690359357782e+000	-2.794554740490974e+001
1	 2.763130338297540e-001	 1.886538380034160e+000	-2.841876890981026e+001
1	 2.575562095142220e-001	 1.889190492802647e+000	-2.883470560075167e+001
1	 2.388366282955775e-001	 1.891648204810183e+000	-2.919111319456768e+001
1	 2.201569672068974e-001	 1.893913066651406e+000	-2.948579479212527e+001
1	 2.015198543648128e-001	 1.895986670805244e+000	-2.971660361551061e+001
1	 1.829278683749512e-001	 1.897870650068939e+000	-2.988144560276530e+001
1	 3.718543053000838e-001	 1.876849592913921e+000	-2.572747673066532e+001
1	 3.528870028392147e-001	 1.880508139670492e+000	-2.640970821706385e+001
1	 3.339429300132638e-001	 1.883964511103601e+000	-2.704141027883483e+001
1	 3.150250078386324e-001	 1.887220029660280e+000	-2.762066038557626e+001
1	 2.961361120282943e-001	 1.890276067598770e+000	-2.814558920404886e+001
1	 2.772790721268962e-001	 1.893134045449129e+000	-2.861438266914226e+001
1	 2.584566707002223e-001	 1.895795430463520e+000	-2.902528392350500e+001
1	 2.396716425787466e-001	 1.898261735058134e+000	-2.937659512548078e+001
1	 2.209266741549105e-001	 1.900534515248767e+000	-2.966667912529878e+001
1	 2.022244027336898e-001	 1.902615369081935e+000	-2.989396100977209e+001
1	 1.835674159359578e-001	 1.904505935063431e+000	-3.005692951603681e+001
1	 3.731498452962563e-001	 1.883388534856166e+000	-2.609694886458351e+001
1	 3.541164607743986e-001	 1.887059827985581e+000	-2.678495168467910e+001
1	 3.351063868195043e-001	 1.890528241412844e+000	-2.741932312217473e+001
1	 3.161225546247840e-001	 1.893795102192404e+000	-2.799869636966744e+001
1	 2.971678499221832e-001	 1.896861787363458e+000	-2.852178068860614e+001
1	 2.782451121144706e-001	 1.899729722405203e+000	-2.898736201903718e+001
1	 2.593571334618776e-001	 1.902400379681715e+000	-2.939430345999750e+001
1	 2.405066583230164e-001	 1.904875276878457e+000	-2.974154562291863e+001
1	 2.216963824497082e-001	 1.907155975432390e+000	-3.002810686061497e+001
1	 2.029289523352882e-001	 1.909244078957634e+000	-3.025308337462569e+001
1	 1.842069646158896e-001	 1.911141231668545e+000	-3.041564920388269e+001
1	 3.744453878833915e-001	 1.889927489874846e+000	-2.663489166291908e+001
1	 3.553459211683593e-001	 1.893611529402563e+000	-2.733117016164740e+001
1	 3.362698459524988e-001	 1.897091984848029e+000	-2.797029753813958e+001
1	 3.172201036058481e-001	 1.900370187873122e+000	-2.855153637564015e+001
1	 2.981995898793438e-001	 1.903447520298011e+000	-2.907425288933791e+001
1	 2.792111540338949e-001	 1.906325412551045e+000	-2.953791583296074e+001
1	 2.602575980241983e-001	 1.909005342108230e+000	-2.994209527689744e+001
1	 2.413416757370221e-001	 1.911488831924311e+000	-3.028646126340758e+001
1	 2.224660922835849e-001	 1.913777448857435e+000	-3.057078234460342e+001
1	 2.036335033455984e-001	 1.915872802089337e+000	-3.079492400896582e+001
1	 1.848465145744732e-001	 1.917776541542956e+000	-3.095884700223283e+001
1	 3.757409333853378e-001	 1.896466459604412e+000	-2.734158392591656e+001
1	 3.565753843284157e-001	 1.900163245559079e+000	-2.804853455656333e+001
1	 3.374333077030549e-001	 1.903655743049810e+000	-2.869444411090940e+001
1	 3.183176550561437e-001	 1.906945288345930e+000	-2.927927731394563e+001
1	 2.992313321576309e-001	 1.910033268048593e+000	-2.980313474923742e+001
1	 2.801771981265868e-001	 1.912921117535318e+000	-3.026624982182700e+001
1	 2.611580646121947e-001	 1.915610319394058e+000	-3.066898559241119e+001
1	 2.421766950293987e-001	 1.918102401848856e+000	-3.101183149207570e+001
1	 2.232358038488350e-001	 1.920398937179060e+000	-3.129539992684122e+001
1	 2.043380559406117e-001	 1.922501540134042e+000	-3.152042278124580e+001
1	 1.854860659714354e-001	 1.924411866345337e+000	-3.168774783011836e+001
1	 1.790905975616490e-001	 1.858059091039320e+000	-3.260465090376645e+001
1	 1.609325570466982e-001	 1.859719774928535e+000	-3.272004492442078e+001
1	 1.428236509081929e-001	 1.861198066987645e+000	-3.275761264256260e+001
1	 1.247662928029802e-001	 1.862495676178339e+000	-3.271266974591598e+001
1	 1.067628449329038e-001	 1.863614344853473e+000	-3.258075137160876e+001
1	 8.881561771666691e-002	 1.864555847221398e+000	-3.235761312759197e+001
1	 7.092686951017656e-002	 1.865321987818410e+000	-3.203923176055766e+001
1	 5.309880637443565e-002	 1.865914599990803e+000	-3.162180548000912e+001
1	 3.533358189001407e-002	 1.866335544387978e+000	-3.110175394854519e+001
1	 1.763329701708853e-002	 1.866586707467961e+000	-3.047571794877916e+001
1	 0.000000000000000e+000	 1.866670000016666e+000	-2.974055873762994e+001
1	 1.797301417633639e-001	 1.864694341202229e+000	-3.170782328018177e+001
1	 1.615072577019093e-001	 1.866360955501386e+000	-3.182037627521202e+001
1	 1.433336834789612e-001	 1.867844526637250e+000	-3.185670776040335e+001
1	 1.252118413706765e-001	 1.869146769674353e+000	-3.181138822895136e+001
1	 1.071441020144599e-001	 1.870269433187636e+000	-3.167924749056896e+001
1	 8.913278407965512e-002	 1.871214297721295e+000	-3.145537577675790e+001
1	 7.118015398689018e-002	 1.871983174255770e+000	-3.113512442709621e+001
1	 5.328842567514063e-002	 1.872577902684386e+000	-3.071410616824577e+001
1	 3.545976041553825e-002	 1.873000350301069e+000	-3.018819499784839e+001
1	 1.769626667091111e-002	 1.873252410300538e+000	-2.955352568589690e+001
1	 0.000000000000000e+000	 1.873336000292277e+000	-2.880649290653896e+001
1	 1.803696861256440e-001	 1.871329593023718e+000	-3.098639436417404e+001
1	 1.620819585015042e-001	 1.873002137734208e+000	-3.109598574191279e+001
1	 1.438437161779622e-001	 1.874490987948056e+000	-3.113143482079632e+001
1	 1.256573900504839e-001	 1.875797864832641e+000	-3.108667726113199e+001
1	 1.075253591920342e-001	 1.876924523184994e+000	-3.095592679548471e+001
1	 8.944995052259598e-002	 1.877872749885155e+000	-3.073367683660686e+001
1	 7.143343852751727e-002	 1.878644362357717e+000	-3.041470162107283e+001
1	 5.347804502374528e-002	 1.879241207043033e+000	-2.999405690092625e+001
1	 3.558593897297262e-002	 1.879665157879560e+000	-2.946708019619646e+001
1	 1.775923634067765e-002	 1.879918114798716e+000	-2.882939062162964e+001
1	 0.000000000000000e+000	 1.880002002233555e+000	-2.807688830141521e+001
1	 1.810092308082162e-001	 1.877964848162459e+000	-3.044171753728950e+001
1	 1.626566595889848e-001	 1.879643323287192e+000	-3.054847088236572e+001
1	 1.443537491325189e-001	 1.881137452581612e+000	-3.058345163050663e+001
1	 1.261029389535963e-001	 1.882448963315952e+000	-3.054007045448515e+001
1	 1.079066165607448e-001	 1.883579616509333e+000	-3.041201388891954e+001
1	 8.976711712458955e-002	 1.884531205377647e+000	-3.019324685696901e+001
1	 7.168672319520096e-002	 1.885305553789637e+000	-2.987801470748280e+001
1	 5.366766446750064e-002	 1.885904514732689e+000	-2.946084477409134e+001
1	 3.571211759374466e-002	 1.886329968789800e+000	-2.893654746837570e+001
1	 1.782220604206414e-002	 1.886583822629083e+000	-2.830021691980472e+001
1	 0.000000000000000e+000	 1.886668007507166e+000	-2.754723117566625e+001
1	 1.816487759708071e-001	 1.884600108277128e+000	-3.007512686091325e+001
1	 1.632313611078530e-001	 1.886284513820528e+000	-3.017940649520024e+001
1	 1.448637824699542e-001	 1.887783922199470e+000	-3.021439238783971e+001
1	 1.265484881912075e-001	 1.889100066787036e+000	-3.017307956025547e+001
1	 1.082878742157101e-001	 1.890234714824445e+000	-3.004871586236499e+001
1	 9.008428396473579e-002	 1.891189665863439e+000	-2.983480583147707e+001
1	 7.194000805308426e-002	 1.891966750216917e+000	-2.952511405635393e+001
1	 5.385728405365773e-002	 1.892567827419305e+000	-2.911366805570051e+001
1	 3.583829630928184e-002	 1.892994784698134e+000	-2.859476068107029e+001
1	 1.788517579074657e-002	 1.893249535458222e+000	-2.796295205484684e+001
1	 0.000000000000000e+000	 1.893334017779778e+000	-2.721307105457472e+001
1	 1.822883217731432e-001	 1.891235375026396e+000	-2.988793741049848e+001
1	 1.638060632016108e-001	 1.892925710994410e+000	-2.999034501438058e+001
1	 1.453738163175913e-001	 1.894430398463179e+000	-3.002586809207249e+001
1	 1.269940378745112e-001	 1.895751176908643e+000	-2.998719484765882e+001
1	 1.086691322520480e-001	 1.896889819794116e+000	-2.986722259866292e+001
1	 9.040145112213467e-002	 1.897848133007199e+000	-2.965906337794681e+001
1	 7.219329316431025e-002	 1.898627953304946e+000	-2.935604905535790e+001
1	 5.404690382946755e-002	 1.899231146768825e+000	-2.895173598474844e+001
1	 3.596447515101166e-002	 1.899659607270911e+000	-2.843990918281128e+001
1	 1.794814560240096e-002	 1.899915254952724e+000	-2.781458604696116e+001
1	 0.000000000000000e+000	 1.900000034718056e+000	-2.707001962022418e+001
1	 1.829278683749512e-001	 1.897870650068939e+000	-2.988144560276530e+001
1	 1.643807660137601e-001	 1.899566916469028e+000	-2.998281689545150e+001
1	 1.458838508027531e-001	 1.901076883034290e+000	-3.001946694426740e+001
1	 1.274395881147012e-001	 1.902402295343521e+000	-2.998388547466445e+001
1	 1.090503907648768e-001	 1.903544933082137e+000	-2.986870706806440e+001
1	 9.071861867588626e-002	 1.904506608473594e+000	-2.966671891496378e+001
1	 7.244657859202201e-002	 1.905289164719112e+000	-2.937086812215217e+001
1	 5.423652384218115e-002	 1.905894474447200e+000	-2.897426857460981e+001
1	 3.609065415036164e-002	 1.906324438174477e+000	-2.847020735360674e+001
1	 1.801111549270328e-002	 1.906580982779173e+000	-2.785215071341179e+001
1	 0.000000000000000e+000	 1.906666059988667e+000	-2.711374961989303e+001
1	 1.835674159359578e-001	 1.904505935063431e+000	-3.005692951603681e+001
1	 1.649554696878030e-001	 1.906208131904575e+000	-3.015833099368379e+001
1	 1.463938860527627e-001	 1.907723377574352e+000	-3.019675473968588e+001
1	 1.278851390229712e-001	 1.909053423754419e+000	-3.016459985100655e+001
1	 1.094316498493146e-001	 1.910200056352295e+000	-3.005432561808061e+001
1	 9.103578670509055e-002	 1.911165093927295e+000	-2.985846183476930e+001
1	 7.269986439936259e-002	 1.911950386124803e+000	-2.956961871646943e+001
1	 5.442614413904955e-002	 1.912557812120374e+000	-2.918049642050942e+001
1	 3.621683333875921e-002	 1.912989279075178e+000	-2.868389416401885e+001
1	 1.807408547732953e-002	 1.913246720604157e+000	-2.807271893550092e+001
1	 0.000000000000000e+000	 1.913332095258278e+000	-2.733999379733840e+001
1	 1.842069646158896e-001	 1.911141231668545e+000	-3.041564920388269e+001
1	 1.655301743672413e-001	 1.912849358961241e+000	-3.051837493432105e+001
1	 1.469039221949430e-001	 1.914369883744917e+000	-3.055927525199915e+001
1	 1.283306907105152e-001	 1.915704563804088e+000	-3.053076599360549e+001
1	 1.098129096004796e-001	 1.916855191268378e+000	-3.042521825727949e+001
1	 9.135295528884754e-002	 1.917823591032968e+000	-3.023497167253098e+001
1	 7.295315064947502e-002	 1.918611619187405e+000	-2.995234735195141e+001
1	 5.461576476732376e-002	 1.919221161454297e+000	-2.956966051101610e+001
1	 3.634301274763190e-002	 1.919654131639363e+000	-2.907923274345557e+001
1	 1.813705557195572e-002	 1.919912470094263e+000	-2.847340394086970e+001
1	 0.000000000000000e+000	 1.919998142193556e+000	-2.774454384641660e+001
1	 1.848465145744732e-001	 1.917776541542956e+000	-3.095884700223283e+001
1	 1.661048801955770e-001	 1.919490599299220e+000	-3.106441547511440e+001
1	 1.474139593566171e-001	 1.921016403207533e+000	-3.110855060950090e+001
1	 1.287762432885268e-001	 1.922355717155276e+000	-3.108379187459416e+001
1	 1.101941701134899e-001	 1.923510339494176e+000	-3.098250893317226e+001
1	 9.167012450625718e-002	 1.924482101455281e+000	-3.079691827209372e+001
1	 7.320643740550242e-002	 1.925272865572307e+000	-3.051909960773999e+001
1	 5.480538577425480e-002	 1.925884524114915e+000	-3.014101204346415e+001
1	 3.646919240840720e-002	 1.926318997533377e+000	-2.965450995745230e+001
1	 1.820002579225783e-002	 1.926578232916076e+000	-2.905135860074228e+001
1	 0.000000000000000e+000	 1.926664202461167e+000	-2.832324938649317e+001
1	 1.854860659714354e-001	 1.924411866345337e+000	-3.168774783011836e+001
1	 1.666795873163122e-001	 1.926131854578701e+000	-3.179789886133673e+001
1	 1.479239976651079e-001	 1.927662937623752e+000	-3.184608166351199e+001
1	 1.292217968681999e-001	 1.929006885470733e+000	-3.182506576211849e+001
1	 1.105754314834638e-001	 1.930165502693479e+000	-3.172730580433229e+001
1	 9.198729443641961e-002	 1.931140626858904e+000	-3.154496194828791e+001
1	 7.345972473058783e-002	 1.931934126944898e+000	-3.126992013982675e+001
1	 5.499500720709370e-002	 1.932547901768176e+000	-3.089381224320702e+001
1	 3.659537235251258e-002	 1.932983878423570e+000	-3.040803599373066e+001
1	 1.826299615391188e-002	 1.933244010736185e+000	-2.980377474175958e+001
1	 0.000000000000000e+000	 1.933330277727777e+000	-2.907201695911923e+001
1	 1.933330277727777e+000	 0.000000000000000e+000	 6.960974735294045e+000
1	 1.933244010736185e+000	 1.826299615391194e-002	 6.828416155980706e+000
1	 1.932983878423570e+000	 3.659537235251269e-002	 6.683781141768587e+000
1	 1.932547901768176e+000	 5.499500720709358e-002	 6.529228973192364e+000
1	 1.931934126944898e+000	 7.345972473058775e-002	 6.366817526196799e+000
1	 1.931140626858904e+000	 9.198729443641959e-002	 6.198497768283901e+000
1	 1.930165502693479e+000	 1.105754314834639e-001	 6.026108264503524e+000
1	 1.929006885470733e+000	 1.292217968681999e-001	 5.851369703763282e+000
1	 1.927662937623752e+000	 1.479239976651078e-001	 5.675879456269204e+000
1	 1.926131854578702e+000	 1.666795873163121e-001	 5.501106173227587e+000
1	 1.924411866345337e+000	 1.854860659714353e-001	 5.328384440240134e+000
1	 1.939997367452674e+000	 0.000000000000000e+000	 6.820308994263506e+000
1	 1.939910802969274e+000	 1.832597609816482e-002	 6.707482966074047e+000
1	 1.939649773590140e+000	 3.672157149831520e-002	 6.581450551424968e+000
1	 1.939212293468885e+000	 5.518465749610362e-002	 6.444423394380605e+000
1	 1.938596402042668e+000	 7.371305060054145e-002	 6.298489313741409e+000
1	 1.937800165571101e+000	 9.230451263318919e-002	 6.145606154997653e+000
1	 1.936821678689428e+000	 1.109567508736156e-001	 5.987595669775665e+000
1	 1.935659065974620e+000	 1.296674182522145e-001	 5.826137435015702e+000
1	 1.934310483522944e+000	 1.484341135914297e-001	 5.662762824475458e+000
1	 1.932774120537524e+000	 1.672543818963984e-001	 5.498849045492345e+000
1	 1.931048200924337e+000	 1.861257146959755e-001	 5.335613254249402e+000
1	 1.946664462180621e+000	 0.000000000000000e+000	 6.535105104872319e+000
1	 1.946577600205163e+000	 1.838895608939119e-002	 6.443280639820982e+000
1	 1.946315673758754e+000	 3.684777073830725e-002	 6.337429358992445e+000
1	 1.945876690170387e+000	 5.537430792675014e-002	 6.219754161020371e+000
1	 1.945258682139485e+000	 7.396637665979743e-002	 6.092319068102287e+000
1	 1.944459709280108e+000	 9.262173106713360e-002	 5.957042703381232e+000
1	 1.943477859679464e+000	 1.113380705490088e-001	 5.815691809277195e+000
1	 1.942311251469391e+000	 1.301130399697187e-001	 5.669874820138778e+000
1	 1.940958034409342e+000	 1.489442298996580e-001	 5.521035502947008e+000
1	 1.939416391479402e+000	 1.678291769069628e-001	 5.370446680149420e+000
1	 1.937684540481774e+000	 1.867653638997075e-001	 5.219204049020286e+000
1	 1.953331550244001e+000	 0.000000000000000e+000	 6.113470633451414e+000
1	 1.953244390776765e+000	 1.845193601748950e-002	 6.042876880721851e+000
1	 1.952981567263933e+000	 3.697396985182642e-002	 5.957826005583943e+000
1	 1.952541080209884e+000	 5.556395816736879e-002	 5.860451624990394e+000
1	 1.951920955576322e+000	 7.421970246526730e-002	 5.752740746319723e+000
1	 1.951119246331762e+000	 9.293894918333730e-002	 5.636527138204858e+000
1	 1.950134034015393e+000	 1.117193898425177e-001	 5.513484751597784e+000
1	 1.948963430313926e+000	 1.305586612410130e-001	 5.385121204940267e+000
1	 1.947605578650012e+000	 1.494543456971768e-001	 5.252771347670660e+000
1	 1.946058655780713e+000	 1.684039713421516e-001	 5.117590916638257e+000
1	 1.944320873404466e+000	 1.874050124632389e-001	 4.980550300305807e+000
1	 1.959998619975199e+000	 0.000000000000000e+000	 5.563401373133277e+000
1	 1.959911163016998e+000	 1.851491577235820e-002	 5.513241764488002e+000
1	 1.959647442440198e+000	 3.710016861821019e-002	 5.448664358447126e+000
1	 1.959205451924581e+000	 5.575360788629519e-002	 5.371673518310303e+000
1	 1.958583210694151e+000	 7.447302757386257e-002	 5.284126532007157e+000
1	 1.957778765071903e+000	 9.325616642688481e-002	 5.187727142814329e+000
1	 1.956790190049017e+000	 1.121007080870163e-001	 5.084019135442501e+000
1	 1.955615590867101e+000	 1.310042812863982e-001	 4.974379991235791e+000
1	 1.954253104612022e+000	 1.499644600913703e-001	 4.860014626574887e+000
1	 1.952700901817834e+000	 1.689787641961107e-001	 4.741949228895594e+000
1	 1.950957188079231e+000	 1.880446592671768e-001	 4.621025205033591e+000
1	 1.966665659706596e+000	 0.000000000000000e+000	 4.892783214647518e+000
1	 1.966577905258778e+000	 1.857789524389573e-002	 4.861249369947155e+000
1	 1.966313287622068e+000	 3.722636681679614e-002	 4.815885120568901e+000
1	 1.965869793651682e+000	 5.594325675186496e-002	 4.758506160166860e+000
1	 1.965245435833949e+000	 7.472635154249477e-002	 4.690787858641937e+000
1	 1.964438253846368e+000	 9.357338224286060e-002	 4.614259217636590e+000
1	 1.963446316132142e+000	 1.124820246153790e-001	 4.530296882398288e+000
1	 1.962267721487796e+000	 1.314498993261747e-001	 4.440119223006257e+000
1	 1.960900600662440e+000	 1.504745721896228e-001	 4.344780498274756e+000
1	 1.959343117967145e+000	 1.695535544629860e-001	 4.245165115942704e+000
1	 1.957593472892883e+000	 1.886843031921286e-001	 4.141982003030205e+000
1	 1.973332657770577e+000	 0.000000000000000e+000	 4.109393980076697e+000
1	 1.973244605835021e+000	 1.864087432200055e-002	 4.093679377653914e+000
1	 1.972979091144063e+000	 3.735256422692177e-002	 4.065347212363117e+000
1	 1.972534093728390e+000	 5.613290443241377e-002	 4.025965640029928e+000
1	 1.971907619336688e+000	 7.497967392807546e-002	 3.976976412579397e+000
1	 1.971097701000996e+000	 9.389059607634927e-002	 3.919689521667705e+000
1	 1.970102400616569e+000	 1.128633387604796e-001	 3.855277895566295e+000
1	 1.968919810534888e+000	 1.318955145806430e-001	 3.784772160924245e+000
1	 1.967548055168334e+000	 1.509846810993184e-001	 3.709055481312158e+000
1	 1.965985292605024e+000	 1.701283411369238e-001	 3.628858484711626e+000
1	 1.964229716232241e+000	 1.893239431187017e-001	 3.544754292348102e+000
1	 1.979999602499524e+000	 0.000000000000000e+000	 3.220905220423026e+000
1	 1.979911253078643e+000	 1.870385289657111e-002	 3.217218636946569e+000
1	 1.979644841340705e+000	 3.747876062792465e-002	 3.202829126080250e+000
1	 1.979198340491908e+000	 5.632255059627724e-002	 3.178998977405530e+000
1	 1.978569749543343e+000	 7.523299428751624e-002	 3.146885116255074e+000
1	 1.977757094881625e+000	 9.420780737243521e-002	 3.107534697334482e+000
1	 1.976758431854105e+000	 1.132446498551925e-001	 3.061880744383819e+000
1	 1.975571846367256e+000	 1.323411262701039e-001	 3.010737845517728e+000
1	 1.974195456496769e+000	 1.514947859278415e-001	 2.954797914108428e+000
1	 1.972627414107849e+000	 1.707031232120700e-001	 2.894626025288592e+000
1	 1.970865906484120e+000	 1.899635779275032e-001	 2.830656338340044e+000
1	 1.986666482225822e+000	 0.000000000000000e+000	 2.234883977813682e+000
1	 1.986577835322561e+000	 1.876683085750586e-002	 2.238462702172752e+000
1	 1.986310526546514e+000	 3.760495579914228e-002	 2.234030253564697e+000
1	 1.985862522279442e+000	 5.651219491179096e-002	 2.222485258761448e+000
1	 1.985231814794886e+000	 7.548631217772855e-002	 2.204649092028681e+000
1	 1.984416423834092e+000	 9.452501557620295e-002	 2.181262679108678e+000
1	 1.983414398196552e+000	 1.136259572323918e-001	 2.152983335951197e+000
1	 1.982223817343778e+000	 1.327867336148577e-001	 2.120381649229625e+000
1	 1.980842793014816e+000	 1.520048857825762e-001	 2.083938405841826e+000
1	 1.979269470851998e+000	 1.712778996825705e-001	 2.044041578746668e+000
1	 1.977502032035339e+000	 1.906032064991406e-001	 2.000983376624295e+000
1	 1.993333285281853e+000	 0.000000000000000e+000	 1.158794513152076e+000
1	 1.993244340899691e+000	 1.882980809470324e-002	 1.163917338786141e+000
1	 1.992976135096009e+000	 3.773114951991224e-002	 1.164572187966549e+000
1	 1.992526627428193e+000	 5.670183704729064e-002	 1.161236752144936e+000
1	 1.991893803432292e+000	 7.573962715562399e-002	 1.154346607110488e+000
1	 1.991075676204236e+000	 9.484222013273701e-002	 1.144293486244588e+000
1	 1.990070287995715e+000	 1.140072602249516e-001	 1.131423573171215e+000
1	 1.988875711823331e+000	 1.332323358352051e-001	 1.116035817626232e+000
1	 1.987490053089539e+000	 1.525149797709067e-001	 1.098380278455991e+000
1	 1.985911451213851e+000	 1.718526695425716e-001	 1.078656497736667e+000
1	 1.984138081272714e+000	 1.912428277142212e-001	 1.057011910078813e+000
1	 2.000000000000000e+000	 0.000000000000000e+000	 0.000000000000000e+000
1	 1.999910758142949e+000	 1.889278449806171e-002	 0.000000000000000e+000
1	 1.999641655323712e+000	 3.785734156957202e-002	 0.000000000000000e+000
1	 1.999190644275366e+000	 5.689147667111187e-002	 0.000000000000000e+000
1	 1.998555703796535e+000	 7.599293877811417e-002	 0.000000000000000e+000
1	 1.997734840337895e+000	 9.515942048712189e-002	 0.000000000000000e+000
1	 1.996726089603397e+000	 1.143885581657462e-001	 0.000000000000000e+000
1	 1.995527518164795e+000	 1.336779321514466e-001	 0.000000000000000e+000
1	 1.994137225088007e+000	 1.530250670002173e-001	 0.000000000000000e+000
1	 1.992553343569784e+000	 1.724274317862191e-001	 0.000000000000000e+000
1	 1.990774042583062e+000	 1.918824404533523e-001	 0.000000000000000e+000
1	 1.924411866345337e+000	 1.854860659714353e-001	 5.328384440240134e+000
1	 1.922501540134042e+000	 2.043380559406118e-001	 5.152497592073701e+000
1	 1.920398937179060e+000	 2.232358038488349e-001	 4.967872506293292e+000
1	 1.918102401848856e+000	 2.421766950293987e-001	 4.775270294698585e+000
1	 1.915610319394058e+000	 2.611580646121946e-001	 4.575434853948758e+000
1	 1.912921117535318e+000	 2.801771981265868e-001	 4.369091575997303e+000
1	 1.910033268048593e+000	 2.992313321576312e-001	 4.156946061127557e+000
1	 1.906945288345930e+000	 3.183176550561437e-001	 3.939682836146865e+000
1	 1.903655743049810e+000	 3.374333077030550e-001	 3.717964080358371e+000
1	 1.900163245559078e+000	 3.565753843284157e-001	 3.492428361992375e+000
1	 1.896466459604412e+000	 3.757409333853379e-001	 3.263689387830805e+000
1	 1.931048200924337e+000	 1.861257146959755e-001	 5.335613254249402e+000
1	 1.929131286952813e+000	 2.050427157553048e-001	 5.168368351936560e+000
1	 1.927021433171348e+000	 2.240056325498700e-001	 4.992141860127991e+000
1	 1.924716978238935e+000	 2.430118413962970e-001	 4.807663600339427e+000
1	 1.922216301837717e+000	 2.620586682346834e-001	 4.615650659196859e+000
1	 1.919517826266314e+000	 2.811433892335523e-001	 4.416806262836498e+000
1	 1.916620018030578e+000	 3.002632314483342e-001	 4.211818650843818e+000
1	 1.913521389429823e+000	 3.194153735338842e-001	 4.001359951885677e+000
1	 1.910220500136607e+000	 3.385969465114715e-001	 3.786085063247018e+000
1	 1.906715958768053e+000	 3.578050345906109e-001	 3.566630536540834e+000
1	 1.903006424446688e+000	 3.770366760460168e-001	 3.343613471909925e+000
1	 1.937684540481774e+000	 1.867653638997075e-001	 5.219204049020286e+000
1	 1.935761038744943e+000	 2.057473760980256e-001	 5.063261653786098e+000
1	 1.933643934131447e+000	 2.247754618278888e-001	 4.898351824962139e+000
1	 1.931331559590807e+000	 2.438469883892481e-001	 4.725163173813646e+000
1	 1.928822289236666e+000	 2.629592725323993e-001	 4.544375436545225e+000
1	 1.926114539945610e+000	 2.821095810650167e-001	 4.356658504708246e+000
1	 1.923206772953378e+000	 3.012951315128971e-001	 4.162671452714021e+000
1	 1.920097495446545e+000	 3.205130928349259e-001	 3.963061564235444e+000
1	 1.916785262147738e+000	 3.397605861927041e-001	 3.758463359334221e+000
1	 1.913268676892355e+000	 3.590346857752013e-001	 3.549497624201203e+000
1	 1.909546394194761e+000	 3.783324196787251e-001	 3.336770445445714e+000
1	 1.944320873404466e+000	 1.874050124632389e-001	 4.980550300305807e+000
1	 1.942390783908820e+000	 2.064520357355793e-001	 4.838312747563028e+000
1	 1.940266428470466e+000	 2.255452903356298e-001	 4.687375870524030e+000
1	 1.937946134329452e+000	 2.446821345466726e-001	 4.528377134990051e+000
1	 1.935428270030934e+000	 2.638598759292083e-001	 4.361948373948812e+000
1	 1.932711247029466e+000	 2.830757719300687e-001	 4.188714966100797e+000
1	 1.929793521290675e+000	 3.023270305454238e-001	 4.009295009683144e+000
1	 1.926673594888409e+000	 3.216108110381967e-001	 3.824298493036821e+000
1	 1.923350017595366e+000	 3.409242247103263e-001	 3.634326463411069e+000
1	 1.919821388465220e+000	 3.602643357302445e-001	 3.439970195545909e+000
1	 1.916086357404184e+000	 3.796281620158600e-001	 3.241810361616091e+000
1	 1.950957188079231e+000	 1.880446592671768e-001	 4.621025205033591e+000
1	 1.949020510842833e+000	 2.071566934347714e-001	 4.494640147275362e+000
1	 1.946888904599510e+000	 2.263151167258317e-001	 4.360074324153732e+000
1	 1.944560690879855e+000	 2.455172784069913e-001	 4.217904105640329e+000
1	 1.942034232660551e+000	 2.647604768489764e-001	 4.068702856354450e+000
1	 1.939307935974137e+000	 2.840419601377974e-001	 3.913040254386461e+000
1	 1.936380251516154e+000	 3.033589267400191e-001	 3.751481604234413e+000
1	 1.933249676247729e+000	 3.227085262226244e-001	 3.584587144995492e+000
1	 1.929914754991652e+000	 3.420878600279121e-001	 3.412911354996505e+000
1	 1.926374082019887e+000	 3.614939823037993e-001	 3.237002254087860e+000
1	 1.922626302630512e+000	 3.809239007898189e-001	 3.057400704864832e+000
1	 1.957593472892883e+000	 1.886843031921286e-001	 4.141982003030205e+000
1	 1.955650207945371e+000	 2.078613479624075e-001	 4.033345893120211e+000
1	 1.953511350929684e+000	 2.270849396512331e-001	 3.917294572503193e+000
1	 1.951175217666995e+000	 2.463524185086249e-001	 3.794333349896264e+000
1	 1.948640165565545e+000	 2.656610737155694e-001	 3.664966544090679e+000
1	 1.945904595235886e+000	 2.850081439972916e-001	 3.529696935317262e+000
1	 1.942966952103496e+000	 3.043908182907876e-001	 3.389025210162411e+000
1	 1.939825728016818e+000	 3.238062364671364e-001	 3.243449400905040e+000
1	 1.936479462848755e+000	 3.432514901090352e-001	 3.093464320180942e+000
1	 1.932926746089595e+000	 3.627236233439242e-001	 2.939560991915785e+000
1	 1.929166218429299e+000	 3.822196337329991e-001	 2.782226079502410e+000
1	 1.964229716232241e+000	 1.893239431187017e-001	 3.544754292348102e+000
1	 1.962279863614822e+000	 2.085659980852931e-001	 3.455515808386265e+000
1	 1.960133755872096e+000	 2.278547577645727e-001	 3.359871259213373e+000
1	 1.957789703115855e+000	 2.471875533899939e-001	 3.258244911895961e+000
1	 1.955246057185943e+000	 2.665616649528533e-001	 3.151061449674902e+000
1	 1.952501213270967e+000	 2.859743218176405e-001	 3.038745548183219e+000
1	 1.949553611526384e+000	 3.054227033918336e-001	 2.921721445271205e+000
1	 1.946401738687989e+000	 3.249039398506607e-001	 2.800412505071502e+000
1	 1.943044129678839e+000	 3.444151129172695e-001	 2.675240776964782e+000
1	 1.939479369207581e+000	 3.639532566986775e-001	 2.546626550136229e+000
1	 1.935706093356100e+000	 3.835153585777981e-001	 2.414987904440507e+000
1	 1.970865906484120e+000	 1.899635779275032e-001	 2.830656338340044e+000
1	 1.968909466249573e+000	 2.092706425702335e-001	 2.762219751257293e+000
1	 1.966756107837849e+000	 2.286245697185889e-001	 2.688626478660326e+000
1	 1.964404135651418e+000	 2.480226815895192e-001	 2.610209750683219e+000
1	 1.961851895961775e+000	 2.674622489846945e-001	 2.527304013074343e+000
1	 1.959097778535640e+000	 2.869404919079331e-001	 2.440244620640384e+000
1	 1.956140218258501e+000	 3.064545802372620e-001	 2.349367524973765e+000
1	 1.952977696753554e+000	 3.260016344521250e-001	 2.255008956888467e+000
1	 1.949608743994064e+000	 3.455787264161886e-001	 2.157505104013154e+000
1	 1.946031939907083e+000	 3.651828802161176e-001	 2.057191784010940e+000
1	 1.942245915966470e+000	 3.848110730566133e-001	 1.954404113918370e+000
1	 1.977502032035339e+000	 1.906032064991406e-001	 2.000983376624295e+000
1	 1.975539004248015e+000	 2.099752801840344e-001	 1.954511861632081e+000
1	 1.973378395238052e+000	 2.293943741660205e-001	 1.904369965859534e+000
1	 1.971018503698665e+000	 2.488578016456213e-001	 1.850789872422715e+000
1	 1.968457670333070e+000	 2.683628242349581e-001	 1.794005175455023e+000
1	 1.965694279486164e+000	 2.879066525772582e-001	 1.734250683215630e+000
1	 1.962726760773528e+000	 3.074864470211772e-001	 1.671762216772586e+000
1	 1.959553590705827e+000	 3.270993183504568e-001	 1.606776404512918e+000
1	 1.956173294306592e+000	 3.467423285693666e-001	 1.539530472745852e+000
1	 1.952584446721340e+000	 3.664124917443030e-001	 1.470262032681777e+000
1	 1.948785674815963e+000	 3.861067749018420e-001	 1.399208864083556e+000
1	 1.984138081272714e+000	 1.912428277142212e-001	 1.057011910078813e+000
1	 1.982168466008534e+000	 2.106799096935011e-001	 1.033430803073985e+000
1	 1.980000606483809e+000	 2.301641697596058e-001	 1.007899282615288e+000
1	 1.977632795682577e+000	 2.496929120967210e-001	 9.805384599905241e-001
1	 1.975063368739857e+000	 2.692633891275107e-001	 9.514704514530398e-001
1	 1.972290704578797e+000	 2.888728021347050e-001	 9.208182834946804e-001
1	 1.969313227545150e+000	 3.085183019376837e-001	 8.887057956003287e-001
1	 1.966129409037122e+000	 3.281969896245840e-001	 8.552575405928989e-001
1	 1.962737769128583e+000	 3.479059173403772e-001	 8.205986826871687e-001
1	 1.959136878183591e+000	 3.676420891312922e-001	 7.848548933774712e-001
1	 1.955325358460134e+000	 3.874024618458816e-001	 7.481522452924566e-001
1	 1.990774042583062e+000	 1.918824404533523e-001	 0.000000000000000e+000
1	 1.988797839929520e+000	 2.113845298654391e-001	 0.000000000000000e+000
1	 1.986622729986227e+000	 2.309339551520839e-001	 0.000000000000000e+000
1	 1.984247000028138e+000	 2.505280114812390e-001	 0.000000000000000e+000
1	 1.981668979622164e+000	 2.701639420862183e-001	 0.000000000000000e+000
1	 1.978887042269796e+000	 2.898389388893622e-001	 0.000000000000000e+000
1	 1.975899607047047e+000	 3.095501431808861e-001	 0.000000000000000e+000
1	 1.972705140239751e+000	 3.292946463534344e-001	 0.000000000000000e+000
1	 1.969302156972200e+000	 3.490694906927942e-001	 0.000000000000000e+000
1	 1.965689222827072e+000	 3.688716702251433e-001	 0.000000000000000e+000
1	 1.961864955454538e+000	 3.886981316211295e-001	 0.000000000000000e+000
1	 1.896466459604412e+000	 3.757409333853379e-001	 3.263689387830805e+000
1	 1.892563500168320e+000	 3.949298373126922e-001	 3.034429543981102e+000
1	 1.888453676301606e+000	 4.141361773022581e-001	 2.807778539044591e+000
1	 1.884135813088218e+000	 4.333568642990193e-001	 2.584847661668902e+000
1	 1.879608792083759e+000	 4.525887673990907e-001	 2.366678571657331e+000
1	 1.874871552788905e+000	 4.718287150019048e-001	 2.154240371540513e+000
1	 1.869923094099525e+000	 4.910734960175069e-001	 1.948426735603284e+000
1	 1.864762475731302e+000	 5.103198611286467e-001	 1.750053103471429e+000
1	 1.859388819616633e+000	 5.295645241072586e-001	 1.559853945400884e+000
1	 1.853801311271564e+000	 5.488041631848249e-001	 1.378480106434046e+000
1	 1.847999201130549e+000	 5.680354224760175e-001	 1.206496236587424e+000
1	 1.903006424446688e+000	 3.770366760460168e-001	 3.343613471909925e+000
1	 1.899090005654519e+000	 3.962917529111596e-001	 3.119533517072446e+000
1	 1.894966009059619e+000	 4.155643259668070e-001	 2.897375039316118e+000
1	 1.890633255694253e+000	 4.348512955053325e-001	 2.678312145778173e+000
1	 1.886090623257090e+000	 4.541495198259258e-001	 2.463444749148732e+000
1	 1.881337047591688e+000	 4.734558163907507e-001	 2.253795447825488e+000
1	 1.876371524141627e+000	 4.927669630364044e-001	 2.050306467466678e+000
1	 1.871193109380035e+000	 5.120796992403628e-001	 1.853836671523476e+000
1	 1.865800922211312e+000	 5.313907274419983e-001	 1.665158648375754e+000
1	 1.860194145342777e+000	 5.506967144176710e-001	 1.484955882716806e+000
1	 1.854372026624021e+000	 5.699942927092772e-001	 1.313820018832544e+000
1	 1.909546394194761e+000	 3.783324196787251e-001	 3.336770445445714e+000
1	 1.905616516036455e+000	 3.976536695313453e-001	 3.122542502948584e+000
1	 1.901478346702779e+000	 4.169924757028027e-001	 2.909577488479332e+000
1	 1.897130703174315e+000	 4.363457278328529e-001	 2.699072747213307e+000
1	 1.892572459292788e+000	 4.557102734237521e-001	 2.492149472704273e+000
1	 1.887802547244642e+000	 4.750829190003875e-001	 2.289849504867612e+000
1	 1.882819959021162e+000	 4.944604313259012e-001	 2.093132191123474e+000
1	 1.877623747852923e+000	 5.138395386724858e-001	 1.902871318490689e+000
1	 1.872213029616325e+000	 5.332169321469448e-001	 1.719852124467211e+000
1	 1.866586984209952e+000	 5.525892670705059e-001	 1.544768394554910e+000
1	 1.860744856898537e+000	 5.719531644122836e-001	 1.378219654285334e+000
1	 1.916086357404184e+000	 3.796281620158600e-001	 3.241810361616091e+000
1	 1.912143019893252e+000	 3.990155847898394e-001	 3.041826739169327e+000
1	 1.907990677835036e+000	 4.184206240109177e-001	 2.842501633373899e+000
1	 1.903628144158436e+000	 4.378401586662455e-001	 2.645016403073643e+000
1	 1.899054288848237e+000	 4.572710254611572e-001	 2.450476888825746e+000
1	 1.894268040433766e+000	 4.767100199832762e-001	 2.259910237329498e+000
1	 1.889268387454018e+000	 4.961538979223016e-001	 2.074261788605522e+000
1	 1.884054379897014e+000	 5.155993763451566e-001	 1.894392033661593e+000
1	 1.878625130611152e+000	 5.350431350260875e-001	 1.721073650424071e+000
1	 1.872979816686288e+000	 5.544818178312048e-001	 1.554988625736543e+000
1	 1.867117680802294e+000	 5.739120341568522e-001	 1.396725471226055e+000
1	 1.922626302630512e+000	 3.809239007898189e-001	 3.057400704864832e+000
1	 1.918669505804034e+000	 4.003774963032317e-001	 2.875777748290576e+000
1	 1.914502991060339e+000	 4.198487683918247e-001	 2.694288015604603e+000
1	 1.910125567276648e+000	 4.393345853901751e-001	 2.514058005776878e+000
1	 1.905536100580816e+000	 4.588317732067282e-001	 2.336141905687510e+000
1	 1.900733515845056e+000	 4.783371164918771e-001	 2.161518548998349e+000
1	 1.895716798156077e+000	 4.978473598619106e-001	 1.991088435206535e+000
1	 1.890484994259351e+000	 5.173592091785162e-001	 1.825670816295896e+000
1	 1.885037213975278e+000	 5.368693328834175e-001	 1.666000858442525e+000
1	 1.879372631584984e+000	 5.563743633876412e-001	 1.512726886252842e+000
1	 1.873490487183485e+000	 5.758708985147968e-001	 1.366407717011449e+000
1	 1.929166218429299e+000	 3.822196337329991e-001	 2.782226079502410e+000
1	 1.925195962347924e+000	 4.017394016881122e-001	 2.622807961901401e+000
1	 1.921015274982634e+000	 4.212769063461962e-001	 2.463101536856991e+000
1	 1.916622961158985e+000	 4.408290053893066e-001	 2.304139915578774e+000
1	 1.912017883147906e+000	 4.603925139290530e-001	 2.146889658863308e+000
1	 1.907198962164510e+000	 4.799642056786505e-001	 1.992247977797024e+000
1	 1.902165179843225e+000	 4.995408141810327e-001	 1.841039989923476e+000
1	 1.896915579686980e+000	 5.191190340927052e-001	 1.694016037706691e+000
1	 1.891449268488183e+000	 5.386955225229246e-001	 1.551849076160060e+000
1	 1.885765417719239e+000	 5.582669004276901e-001	 1.415132136529608e+000
1	 1.879863264890306e+000	 5.778297540579320e-001	 1.284375872920158e+000
1	 1.935706093356100e+000	 3.835153585777981e-001	 2.414987904440507e+000
1	 1.931722378104047e+000	 4.031012985610708e-001	 2.281350352072087e+000
1	 1.927527518205872e+000	 4.227050353747045e-001	 2.147131032787591e+000
1	 1.923120314435480e+000	 4.423234160483052e-001	 2.013231482712909e+000
1	 1.918499625206888e+000	 4.619532448967189e-001	 1.880494987599880e+000
1	 1.913664368078124e+000	 4.815912846960572e-001	 1.749704132148208e+000
1	 1.908613521231345e+000	 5.012342579159725e-001	 1.621578397935783e+000
1	 1.903346124926945e+000	 5.208788480078646e-001	 1.496771815942741e+000
1	 1.897861282929353e+000	 5.405217007485994e-001	 1.375870679687456e+000
1	 1.892158163902252e+000	 5.601594256392254e-001	 1.259391325009691e+000
1	 1.886236002770952e+000	 5.797885973580729e-001	 1.147777982535764e+000
1	 1.942245915966470e+000	 3.848110730566133e-001	 1.954404113918370e+000
1	 1.938248741651528e+000	 4.044631845386976e-001	 1.849858070043758e+000
1	 1.934039709333999e+000	 4.241331529780222e-001	 1.744588855290302e+000
1	 1.929617615736164e+000	 4.438178147518357e-001	 1.639328578928126e+000
1	 1.924981315415146e+000	 4.635139633783134e-001	 1.534761921394066e+000
1	 1.920129722271896e+000	 4.832183506965573e-001	 1.431524138429988e+000
1	 1.915061811036321e+000	 5.029276881030343e-001	 1.330199104845237e+000
1	 1.909776618726292e+000	 5.226386478441352e-001	 1.231317402780563e+000
1	 1.904273246078267e+000	 5.423478643644319e-001	 1.135354459378634e+000
1	 1.898550858947221e+000	 5.620519357101217e-001	 1.042728738779034e+000
1	 1.892608689673620e+000	 5.817474249870338e-001	 9.537999933557468e-001
1	 1.948785674815963e+000	 3.861067749018420e-001	 1.399208864083556e+000
1	 1.944775041569488e+000	 4.058250572375823e-001	 1.326804091991786e+000
1	 1.940551836970966e+000	 4.255612566568219e-001	 1.253710462947563e+000
1	 1.936114853691072e+000	 4.453121988845630e-001	 1.180453138208607e+000
1	 1.931462942430058e+000	 4.650746666424240e-001	 1.107523176636786e+000
1	 1.926595013431823e+000	 4.848454008326115e-001	 1.035376099268587e+000
1	 1.921510037974037e+000	 5.046211017785234e-001	 9.644304824068909e-001
1	 1.916207049832067e+000	 5.243984305216578e-001	 8.950665827441027e-001
1	 1.910685146714410e+000	 5.441740101744127e-001	 8.276249980462463e-001
1	 1.904943491667344e+000	 5.639444273282532e-001	 7.624053669373565e-001
1	 1.898981314446504e+000	 5.837062335166293e-001	 6.996651113234594e-001
1	 1.955325358460134e+000	 3.874024618458816e-001	 7.481522452924566e-001
1	 1.951301266437051e+000	 4.071869142743148e-001	 7.106808717017926e-001
1	 1.947063889720720e+000	 4.269893439117760e-001	 6.727540194782570e-001
1	 1.942612016930235e+000	 4.468065658311523e-001	 6.346527064661968e-001
1	 1.937944494909006e+000	 4.666353519576381e-001	 5.966396630940344e-001
1	 1.933060230243902e+000	 4.864724322566804e-001	 5.589585624200977e-001
1	 1.927958190760378e+000	 5.063144959787437e-001	 5.218332654881751e-001
1	 1.922637406991314e+000	 5.261581929605732e-001	 4.854670838771274e-001
1	 1.917096973617263e+000	 5.460001349825318e-001	 4.500420613384522e-001
1	 1.911336050875822e+000	 5.658368971814942e-001	 4.157182764217730e-001
1	 1.905353865937798e+000	 5.856650195186739e-001	 3.826331679873556e-001
1	 1.961864955454538e+000	 3.886981316211295e-001	 0.000000000000000e+000
1	 1.957827404833344e+000	 4.085487532654855e-001	 0.000000000000000e+000
1	 1.953575856187211e+000	 4.284174122435571e-001	 0.000000000000000e+000
1	 1.949109094083688e+000	 4.483009129762684e-001	 0.000000000000000e+000
1	 1.944425961509372e+000	 4.681960165925432e-001	 0.000000000000000e+000
1	 1.939525361394130e+000	 4.880994421212243e-001	 0.000000000000000e+000
1	 1.934406258111227e+000	 5.080078677400004e-001	 0.000000000000000e+000
1	 1.929067678951077e+000	 5.279179320810223e-001	 0.000000000000000e+000
1	 1.923508715566310e+000	 5.478262355927795e-001	 0.000000000000000e+000
1	 1.917728525385851e+000	 5.677293419577193e-001	 0.000000000000000e+000
1	 1.911726332995700e+000	 5.876237795649825e-001	 0.000000000000000e+000
1	 1.847999201130549e+000	 5.680354224760175e-001	 1.206496236587424e+000
1	 1.841981805384595e+000	 5.872549131734429e-001	 1.044854858139555e+000
1	 1.835748505856336e+000	 6.064592142033818e-001	 8.944527299733067e-001
1	 1.829298752609273e+000	 6.256448746004242e-001	 7.556208674859367e-001
1	 1.822632065596483e+000	 6.448084154108978e-001	 6.285764478765756e-001
1	 1.815748035804696e+000	 6.639463313706805e-001	 5.134203793183334e-001
1	 1.808646326353042e+000	 6.830550926306998e-001	 4.101350224091734e-001
1	 1.801326673544389e+000	 7.021311465288183e-001	 3.185820717562147e-001
1	 1.793788887867155e+000	 7.211709194066933e-001	 2.385006053372719e-001
1	 1.786032854945589e+000	 7.401708184701011e-001	 1.695053090460728e-001
1	 1.778058536436490e+000	 7.591272336911190e-001	 1.110848835612034e-001
1	 1.854372026624021e+000	 5.699942927092772e-001	 1.313820018832544e+000
1	 1.848333879887951e+000	 5.892800618231178e-001	 1.152649479556607e+000
1	 1.842079084825410e+000	 6.085505888878965e-001	 1.002261781925880e+000
1	 1.835607089603429e+000	 6.278024110375446e-001	 8.629682820598164e-001
1	 1.828917412519633e+000	 6.470320373212148e-001	 7.349602816515591e-001
1	 1.822009643150254e+000	 6.662359503868776e-001	 6.183065160677462e-001
1	 1.814883443452677e+000	 6.854106082127709e-001	 5.129508042960406e-001
1	 1.807538548820397e+000	 7.045524458853990e-001	 4.187098689519152e-001
1	 1.799974769088290e+000	 7.236578774226530e-001	 3.352713343296531e-001
1	 1.792191989486165e+000	 7.427232976405553e-001	 2.621919102271237e-001
1	 1.784190171538583e+000	 7.617450840619972e-001	 1.988957689889889e-001
1	 1.860744856898537e+000	 5.719531644122836e-001	 1.378219654285334e+000
1	 1.854685959156884e+000	 5.913052119922639e-001	 1.221036909971709e+000
1	 1.848409668544039e+000	 6.106419651415646e-001	 1.073952085129117e+000
1	 1.841915431330562e+000	 6.299599490934507e-001	 9.372536248499077e-001
1	 1.835202764158619e+000	 6.492556608998898e-001	 8.111076832612076e-001
1	 1.828271255193945e+000	 6.685255711209363e-001	 6.955556037654241e-001
1	 1.821120565232174e+000	 6.877661255621314e-001	 5.905115651155312e-001
1	 1.813750428757426e+000	 7.069737470586097e-001	 4.957604016364148e-001
1	 1.806160654951032e+000	 7.261448373044901e-001	 4.109556056696312e-001
1	 1.798351128648357e+000	 7.452757787260291e-001	 3.356175200548227e-001
1	 1.790321811241721e+000	 7.643629363969243e-001	 2.691317281674079e-001
1	 1.867117680802294e+000	 5.739120341568522e-001	 1.396725471226055e+000
1	 1.861038032075868e+000	 5.933303601367139e-001	 1.247036061773020e+000
1	 1.854740245934266e+000	 6.127333393043351e-001	 1.106561924357484e+000
1	 1.848223766751578e+000	 6.321174849923246e-001	 9.755654429481433e-001
1	 1.841488109514515e+000	 6.514792822554775e-001	 8.541884272978051e-001
1	 1.834532860978315e+000	 6.708151895659438e-001	 7.424496580837035e-001
1	 1.827357680776868e+000	 6.901216405565783e-001	 6.402425963151134e-001
1	 1.819962302484917e+000	 7.093950458111605e-001	 5.473332651640229e-001
1	 1.812346534630249e+000	 7.286317947000452e-001	 4.633583121403442e-001
1	 1.804510261653793e+000	 7.478282572597389e-001	 3.878232592705969e-001
1	 1.796453444815625e+000	 7.669807861147554e-001	 3.201009486467228e-001
1	 1.873490487183485e+000	 5.758708985147968e-001	 1.366407717011449e+000
1	 1.867390087529377e+000	 5.953555027123006e-001	 1.227705959461039e+000
1	 1.861070805918133e+000	 6.148247077161561e-001	 1.097169468538175e+000
1	 1.854532084827383e+000	 6.342750149583490e-001	 9.750315172248009e-001
1	 1.847773437588392e+000	 6.537028974965337e-001	 8.614104483239872e-001
1	 1.840794449545912e+000	 6.731048017149862e-001	 7.563073568119851e-001
1	 1.833594779172092e+000	 6.924771490739101e-001	 6.596039293633857e-001
1	 1.826174159132310e+000	 7.118163379057594e-001	 5.710604487940023e-001
1	 1.818532397300815e+000	 7.311187452571608e-001	 4.903139709414981e-001
1	 1.810669377724103e+000	 7.503807287749005e-001	 4.168766812508392e-001
1	 1.802585061530014e+000	 7.695986286343437e-001	 3.501344380511717e-001
1	 1.879863264890306e+000	 5.778297540579320e-001	 1.284375872920158e+000
1	 1.873742114401887e+000	 5.973806361748562e-001	 1.160145051853744e+000
1	 1.867401337417683e+000	 6.169160667169766e-001	 1.042892087419350e+000
1	 1.860840374518883e+000	 6.364325352157069e-001	 9.328181905867297e-001
1	 1.854058737381323e+000	 6.559265027316127e-001	 8.300191878650687e-001
1	 1.847056009939280e+000	 6.753944035611510e-001	 7.344834127389941e-001
1	 1.839831849503180e+000	 6.948326469919245e-001	 6.460897416826829e-001
1	 1.832385987829046e+000	 7.142376191051162e-001	 5.646057818326794e-001
1	 1.824718232137600e+000	 7.336056846236778e-001	 4.896862171923286e-001
1	 1.816828466080916e+000	 7.529331888047299e-001	 4.208713200072718e-001
1	 1.808716650654608e+000	 7.722164593745430e-001	 3.575856336926275e-001
1	 1.886236002770952e+000	 5.797885973580729e-001	 1.147777982535764e+000
1	 1.880094101577871e+000	 5.994057569802134e-001	 1.041490537882485e+000
1	 1.873731829354958e+000	 6.190074126467445e-001	 9.408856817418021e-001
1	 1.867148624786985e+000	 6.385900419885805e-001	 8.461297095105846e-001
1	 1.860343997894379e+000	 6.581500940692703e-001	 7.572969543069966e-001
1	 1.853317531200968e+000	 6.776839910975244e-001	 6.743679589292320e-001
1	 1.846068880855466e+000	 6.971881301884189e-001	 5.972277743230510e-001
1	 1.838597777704565e+000	 7.166588851719399e-001	 5.256643907224116e-001
1	 1.830904028315475e+000	 7.360926084474380e-001	 4.593673074452448e-001
1	 1.822987515945862e+000	 7.554856328824438e-001	 3.979262471209425e-001
1	 1.814848201459126e+000	 7.748342737542070e-001	 3.408300198997591e-001
1	 1.892608689673620e+000	 5.817474249870338e-001	 9.537999933557468e-001
1	 1.886446037941803e+000	 6.014308615842047e-001	 8.689177056660284e-001
1	 1.880062270652001e+000	 6.210987418454090e-001	 7.883440266034991e-001
1	 1.873456824592595e+000	 6.407475315011525e-001	 7.122075785459933e-001
1	 1.866629208128634e+000	 6.603736676180615e-001	 6.405622954029697e-001
1	 1.859579002373519e+000	 6.799735603171935e-001	 5.733859461088505e-001
1	 1.852305862314284e+000	 6.995435945411912e-001	 5.105787611076647e-001
1	 1.844809517888308e+000	 7.190801318689394e-001	 4.519621668256642e-001
1	 1.837089775009311e+000	 7.385795123762833e-001	 3.972776329800491e-001
1	 1.829146516540569e+000	 7.580380565412579e-001	 3.461856374042576e-001
1	 1.820979703213291e+000	 7.774520671921900e-001	 2.982647528853155e-001
1	 1.898981314446504e+000	 5.837062335166293e-001	 6.996651113234594e-001
1	 1.892797912378158e+000	 6.034559464426624e-001	 6.396392845584538e-001
1	 1.886392650230855e+000	 6.231900506529178e-001	 5.824981277146043e-001
1	 1.879764962896621e+000	 6.429049999776058e-001	 5.283299274912625e-001
1	 1.872914357085160e+000	 6.625972194865417e-001	 4.771693830996559e-001
1	 1.865840412499481e+000	 6.822631072132447e-001	 4.289965518829408e-001
1	 1.858542782964969e+000	 7.018990359280392e-001	 3.837358689865411e-001
1	 1.851021197509714e+000	 7.215013549588242e-001	 3.412552446588973e-001
1	 1.843275461393978e+000	 7.410663920580548e-001	 3.013652426545179e-001
1	 1.835305457086669e+000	 7.605904553143885e-001	 2.638183430910654e-001
1	 1.827111145186820e+000	 7.800698351073454e-001	 2.283082929786823e-001
1	 1.905353865937798e+000	 5.856650195186739e-001	 3.826331679873556e-001
1	 1.899149713771413e+000	 6.054810080114197e-001	 3.509048098739072e-001
1	 1.892722957013562e+000	 6.252813354092200e-001	 3.206155902482072e-001
1	 1.886073028659967e+000	 6.450624436421223e-001	 2.918108909518772e-001
1	 1.879199433765028e+000	 6.648207457832659e-001	 2.645074104017207e-001
1	 1.872101750621401e+000	 6.845526277787645e-001	 2.386926015142917e-001
1	 1.864779631892853e+000	 7.042544502267606e-001	 2.143241493424999e-001
1	 1.857232805698227e+000	 7.239225502043032e-001	 1.913294903376274e-001
1	 1.849461076644348e+000	 7.435532431405942e-001	 1.696053750929612e-001
1	 1.841464326805790e+000	 7.631428247350516e-001	 1.490174763597881e-001
1	 1.833242516649435e+000	 7.826875729185272e-001	 1.294000440554607e-001
1	 1.911726332995700e+000	 5.876237795649825e-001	 0.000000000000000e+000
1	 1.905501431006039e+000	 6.075060427463086e-001	 0.000000000000000e+000
1	 1.899053179922165e+000	 6.273725924542639e-001	 0.000000000000000e+000
1	 1.892381010843542e+000	 6.472198587188855e-001	 0.000000000000000e+000
1	 1.885484427169312e+000	 6.670442426167896e-001	 0.000000000000000e+000
1	 1.878363005781824e+000	 6.868421180068403e-001	 0.000000000000000e+000
1	 1.871016398183272e+000	 7.066098333151537e-001	 0.000000000000000e+000
1	 1.863444331583285e+000	 7.263437133680856e-001	 0.000000000000000e+000
1	 1.855646609935292e+000	 7.460400612717433e-001	 0.000000000000000e+000
1	 1.847623114919561e+000	 7.656951603364637e-001	 0.000000000000000e+000
1	 1.839373806870855e+000	 7.853052760445893e-001	 0.000000000000000e+000
1	 1.778058536436490e+000	 7.591272336911190e-001	 1.110848835612034e-001
1	 1.769867216285273e+000	 7.780337073685373e-001	 5.772033196661728e-002
1	 1.761457832055922e+000	 7.968894499849266e-001	 3.930878597403912e-003
1	 1.752830579594108e+000	 8.156908142598141e-001	-5.077574271793858e-002
1	 1.743985733737606e+000	 8.344341437159465e-001	-1.068468127023324e-001
1	 1.734923648915190e+000	 8.531157747611763e-001	-1.646835360755286e-001
1	 1.725644759681382e+000	 8.717320388004651e-001	-2.246400186565552e-001
1	 1.716149581185522e+000	 8.902792643757621e-001	-2.870223152467828e-001
1	 1.706438709573752e+000	 9.087537793314253e-001	-3.520875512923470e-001
1	 1.696512822322570e+000	 9.271519130027890e-001	-4.200431211885582e-001
1	 1.686372678502719e+000	 9.454699984254018e-001	-4.910459659415661e-001
1	 1.784190171538583e+000	 7.617450840619972e-001	 1.988957689889889e-001
1	 1.775970603618635e+000	 7.807167567163823e-001	 1.404465587228171e-001
1	 1.767532219626498e+000	 7.996375233636357e-001	 8.195910789231169e-002
1	 1.758875216083226e+000	 8.185037241456411e-001	 2.289564428247373e-002
1	 1.749999868774379e+000	 8.373116899757885e-001	-3.723370423282042e-002
1	 1.740906533350988e+000	 8.560577446280370e-001	-9.886972530023508e-002
1	 1.731595645866143e+000	 8.747382068562040e-001	-1.624030096133052e-001
1	 1.722067723245688e+000	 8.933493925412196e-001	-2.281729137294937e-001
1	 1.712323363691582e+000	 9.118876168640174e-001	-2.964666014198567e-001
1	 1.702363247016608e+000	 9.303491965016510e-001	-3.675181666489259e-001
1	 1.692188134909175e+000	 9.487304518441456e-001	-4.415078411263247e-001
1	 1.790321811241721e+000	 7.643629363969243e-001	 2.691317281674081e-001
1	 1.782073995531895e+000	 7.833998080771781e-001	 2.071961911574683e-001
1	 1.773606611755243e+000	 8.023855988040650e-001	 1.455690856620454e-001
1	 1.764919857108205e+000	 8.213166361418183e-001	 8.368849474255614e-002
1	 1.756014008324126e+000	 8.401892383944618e-001	 2.104163755016966e-002
1	 1.746889422276294e+000	 8.589997167020528e-001	-4.283389816138841e-002
1	 1.737546536516372e+000	 8.777443771672542e-001	-1.083489972151577e-001
1	 1.727985869746704e+000	 8.964195230099687e-001	-1.758619353800794e-001
1	 1.718208022225071e+000	 9.150214567476976e-001	-2.456773782926904e-001
1	 1.708213676100544e+000	 9.335464823992025e-001	-3.180454641467838e-001
1	 1.698003595679197e+000	 9.519909077089775e-001	-3.931609732066997e-001
1	 1.796453444815625e+000	 7.669807861147554e-001	 3.201009486467230e-001
1	 1.788177381344190e+000	 7.860828567557169e-001	 2.565528601796421e-001
1	 1.779680997812046e+000	 8.051336714972515e-001	 1.936058752936913e-001
1	 1.770964492091011e+000	 8.241295453259533e-001	 1.306951743715699e-001
1	 1.762028141862216e+000	 8.430667839364915e-001	 6.730464328264162e-002
1	 1.752872305221204e+000	 8.619416858350344e-001	 2.968108545875650e-003
1	 1.743497421218200e+000	 8.807505444731013e-001	-6.272950050348460e-002
1	 1.733904010332051e+000	 8.994896504095807e-001	-1.301510660387925e-001
1	 1.724092674876353e+000	 9.181552934985529e-001	-1.996062759205975e-001
1	 1.714064099336459e+000	 9.367437651004994e-001	-2.713507009453943e-001
1	 1.703819050636108e+000	 9.552513603143963e-001	-3.455849582229078e-001
1	 1.802585061530014e+000	 7.695986286343437e-001	 3.501344380511717e-001
1	 1.794280750374658e+000	 7.887658980567923e-001	 2.871192893687303e-001
1	 1.785755367166793e+000	 8.078817366342320e-001	 2.249300954772702e-001
1	 1.777009110453612e+000	 8.269424467756533e-001	 1.630202586935484e-001
1	 1.768042258864021e+000	 8.459443215664022e-001	 1.008898014684741e-001
1	 1.758855171715808e+000	 8.648836468787908e-001	 3.808655896566808e-002
1	 1.749448289557761e+000	 8.837567035132303e-001	-2.579269820210801e-002
1	 1.739822134645212e+000	 9.025597693676257e-001	-9.110121444624340e-002
1	 1.729977311347563e+000	 9.212891216326701e-001	-1.581412761258059e-001
1	 1.719914506486442e+000	 9.399410390105988e-001	-2.271633180225948e-001
1	 1.709634489603235e+000	 9.585118039549020e-001	-2.983651123179344e-001
1	 1.808716650654608e+000	 7.722164593745430e-001	 3.575856336926275e-001
1	 1.800384091942436e+000	 7.914489272851957e-001	 2.975169681343272e-001
1	 1.791829709189373e+000	 8.106297894060444e-001	 2.384176536793554e-001
1	 1.783053701617973e+000	 8.297553355685250e-001	 1.797803235747714e-001
1	 1.774056348804909e+000	 8.488218462487185e-001	 1.211405027759985e-001
1	 1.764838011290203e+000	 8.678255946851337e-001	 6.207771294047682e-002
1	 1.755399131121186e+000	 8.867628490271263e-001	 2.216513178779091e-003
1	 1.745740232329667e+000	 9.056298745116745e-001	-5.877252655201609e-002
1	 1.735861921340835e+000	 9.244229356661369e-001	-1.211719224110539e-001
1	 1.725764887312575e+000	 9.431382985345573e-001	-1.852164468630332e-001
1	 1.715449902403902e+000	 9.617722329249945e-001	-2.510923748257868e-001
1	 1.814848201459126e+000	 7.748342737542070e-001	 3.408300198997590e-001
1	 1.806487395366662e+000	 7.941319397457214e-001	 2.863858313353767e-001
1	 1.797904013249672e+000	 8.133778250037248e-001	 2.329594848836564e-001
1	 1.789098255006059e+000	 8.325682067821764e-001	 1.801037398902994e-001
1	 1.780070401160249e+000	 8.516993529479654e-001	 1.274088874107585e-001
1	 1.770820813474479e+000	 8.707675241058726e-001	 7.450372284895698e-002
1	 1.761349935494609e+000	 8.897689757542748e-001	 2.105646238564000e-002
1	 1.751658293028898e+000	 9.086999604692971e-001	-3.322439954196059e-002
1	 1.741746494558303e+000	 9.275567301150403e-001	-8.858929434558842e-002
1	 1.731615231576942e+000	 9.463355380774317e-001	-1.452468475010932e-001
1	 1.721265278861435e+000	 9.650326415191733e-001	-2.033632132764014e-001
1	 1.820979703213291e+000	 7.774520671921900e-001	 2.982647528853155e-001
1	 1.812590649966475e+000	 7.968149307431615e-001	 2.523839452100716e-001
1	 1.803978268717579e+000	 8.161258386183107e-001	 2.074612954774757e-001
1	 1.795142760039838e+000	 8.353810554942145e-001	 1.631304722343980e-001
1	 1.786084405405412e+000	 8.545768366286670e-001	 1.190556954936968e-001
1	 1.776803567798732e+000	 8.737094299928179e-001	 7.493253247457747e-002
1	 1.767300692264160e+000	 8.927750784341609e-001	 3.048864758516180e-002
1	 1.757576306386385e+000	 9.117700218680643e-001	-1.451549559066695e-002
1	 1.747631020702102e+000	 9.306904994954678e-001	-6.028598245720643e-002
1	 1.737465529041629e+000	 9.495327520442786e-001	-1.069948477856895e-001
1	 1.727080608799158e+000	 9.682930240319374e-001	-1.547795302731226e-001
1	 1.827111145186820e+000	 7.800698351073454e-001	 2.283082929786823e-001
1	 1.818693845061012e+000	 7.994978955823091e-001	 1.941871994717790e-001
1	 1.810052464962980e+000	 8.188738254408386e-001	 1.608433121658975e-001
1	 1.801187206141276e+000	 8.381938767822470e-001	 1.280118815821233e-001
1	 1.792098351015767e+000	 8.574542922553488e-001	 9.545012037581606e-002
1	 1.782786263793054e+000	 8.766513071977802e-001	 6.293777785851806e-002
1	 1.773251391015974e+000	 8.957811518062694e-001	 3.027768162264194e-002
1	 1.763494262045610e+000	 9.148400533355463e-001	-2.703755345456335e-003
1	 1.753515489474366e+000	 9.338242383235065e-001	-3.615606361880483e-002
1	 1.743315769468720e+000	 9.527299348401539e-001	-7.020428383902742e-002
1	 1.732895882040398e+000	 9.715533747577873e-001	-1.049485721998813e-001
1	 1.833242516649435e+000	 7.826875729185272e-001	 1.294000440554607e-001
1	 1.824796969969410e+000	 8.021808295679572e-001	 1.104890054301361e-001
1	 1.816126591355764e+000	 8.216217806623462e-001	 9.204003579900660e-002
1	 1.807231582732339e+000	 8.410066657238807e-001	 7.391053181173792e-002
1	 1.798112227466683e+000	 8.603317147925348e-001	 5.596966482219747e-002
1	 1.788768890987538e+000	 8.795931505725696e-001	 3.809869009145169e-002
1	 1.779202021336181e+000	 8.987871906100857e-001	 2.019123835014104e-002
1	 1.769412149650055e+000	 9.179100494993141e-001	 2.153588851938379e-003
1	 1.759399890577228e+000	 9.369579411152434e-001	-1.609507691816512e-002
1	 1.749165942620299e+000	 9.559270808701148e-001	-3.462244168204537e-002
1	 1.738711088408478e+000	 9.748136879912216e-001	-5.348283971629388e-002
1	 1.839373806870855e+000	 7.853052760445893e-001	 0.000000000000000e+000
1	 1.830900014010807e+000	 8.048637280048985e-001	 0.000000000000000e+000
1	 1.822200637265818e+000	 8.243696994738701e-001	 0.000000000000000e+000
1	 1.813275879234993e+000	 8.438194173967231e-001	 0.000000000000000e+000
1	 1.804126024233530e+000	 8.632090992047500e-001	 0.000000000000000e+000
1	 1.794751438912278e+000	 8.825349549689966e-001	 0.000000000000000e+000
1	 1.785152572810915e+000	 9.017931895850956e-001	 0.000000000000000e+000
1	 1.775329958843201e+000	 9.209800049869374e-001	 0.000000000000000e+000
1	 1.765284213712824e+000	 9.400916023867665e-001	 0.000000000000000e+000
1	 1.755016038258451e+000	 9.591241845392181e-001	 0.000000000000000e+000
1	 1.744526217726725e+000	 9.780739580267407e-001	 0.000000000000000e+000
1	 1.686372678502719e+000	 9.454699984254018e-001	-4.910459659415661e-001
1	 1.676017550046008e+000	 9.637071037044297e-001	-5.647322475662580e-001
1	 1.665449866397395e+000	 9.818568211318917e-001	-6.406425859013557e-001
1	 1.654670634104525e+000	 9.999155077266720e-001	-7.187571635499411e-001
1	 1.643680941682342e+000	 1.017879533245523e+000	-7.990188664772824e-001
1	 1.632481959511823e+000	 1.035745282457134e+000	-8.813331687361964e-001
1	 1.621074939663807e+000	 1.053509157420699e+000	-9.655680836874367e-001
1	 1.609461215647480e+000	 1.071167579766116e+000	-1.051554182511133e+000
1	 1.597642202083156e+000	 1.088716992972960e+000	-1.139084680643887e+000
1	 1.585619394299172e+000	 1.106153864645299e+000	-1.227915592610434e+000
1	 1.573394367852796e+000	 1.123474688779447e+000	-1.317765955549526e+000
1	 1.692188134909175e+000	 9.487304518441456e-001	-4.415078411263247e-001
1	 1.681797296790355e+000	 9.670304477830335e-001	-5.181438366636548e-001
1	 1.671193170483049e+000	 9.852427545133563e-001	-5.970146547453817e-001
1	 1.660376766005977e+000	 1.003363716491180e+000	-6.780846889237849e-001
1	 1.649349175627830e+000	 1.021389690954367e+000	-7.612789820284964e-001
1	 1.638111573765636e+000	 1.039317050204487e+000	-8.464831371165408e-001
1	 1.626665216808004e+000	 1.057142183893234e+000	-9.335432989807825e-001
1	 1.615011442862724e+000	 1.074861501310506e+000	-1.022266206990005e+000
1	 1.603151671428428e+000	 1.092471433671216e+000	-1.112419319861142e+000
1	 1.591087402990088e+000	 1.109968436397971e+000	-1.203731012788285e+000
1	 1.578820218538282e+000	 1.127348991396634e+000	-1.295890847172604e+000
1	 1.698003595679197e+000	 9.519909077089775e-001	-3.931609732066998e-001
1	 1.687577047871365e+000	 9.703537943549184e-001	-4.708030307920078e-001
1	 1.676936478877901e+000	 9.886286904350722e-001	-5.506144548591627e-001
1	 1.666082902188611e+000	 1.006811927842678e+000	-6.325480425873888e-001
1	 1.655017413825931e+000	 1.024899851296698e+000	-7.165164952875655e-001
1	 1.643741192242959e+000	 1.042888820631569e+000	-8.023923522293696e-001
1	 1.632255498146073e+000	 1.060775213091481e+000	-8.900079966770244e-001
1	 1.620561674241674e+000	 1.078555425626313e+000	-9.791557348709786e-001
1	 1.608661144906720e+000	 1.096225877186315e+000	-1.069587948515684e+000
1	 1.596555415782833e+000	 1.113783011012618e+000	-1.161017321152811e+000
1	 1.584246073293903e+000	 1.131223296920624e+000	-1.253117138614715e+000
1	 1.703819050636108e+000	 9.552513603143963e-001	-3.455849582229078e-001
1	 1.693356793174896e+000	 9.736771376045056e-001	-4.221553435079878e-001
1	 1.682679781531623e+000	 9.920146229719017e-001	-5.007627894710803e-001
1	 1.671789032667180e+000	 1.010260135747011e+000	-5.813525959855317e-001
1	 1.660685646357755e+000	 1.028410008129908e+000	-6.638305217402575e-001
1	 1.649370805092509e+000	 1.046460587487910e+000	-7.480627376278777e-001
1	 1.637845773895593e+000	 1.064408238657718e+000	-8.338758515907819e-001
1	 1.626111900072022e+000	 1.082249346249206e+000	-9.210570056140929e-001
1	 1.614170612877078e+000	 1.099980316947971e+000	-1.009354045378506e+000
1	 1.602023423109025e+000	 1.117597581813683e+000	-1.098475762906783e+000
1	 1.589671922625073e+000	 1.135097598571297e+000	-1.188092212354893e+000
1	 1.709634489603235e+000	 9.585118039549020e-001	-2.983651123179344e-001
1	 1.699136522586807e+000	 9.770004717162161e-001	-3.716538107556634e-001
1	 1.688423068393885e+000	 9.954005461987061e-001	-4.467896582704222e-001
1	 1.677495147456441e+000	 1.013708334170022e+000	-5.237144642006687e-001
1	 1.666353863304406e+000	 1.031920155311388e+000	-6.023323422420299e-001
1	 1.655000402463004e+000	 1.050032344523041e+000	-6.825096801111482e-001
1	 1.643436034274148e+000	 1.068041254234226e+000	-7.640751775284529e-001
1	 1.631662110641460e+000	 1.085943256714852e+000	-8.468199531477284e-001
1	 1.619680065698537e+000	 1.103734746385898e+000	-9.304977208918612e-001
1	 1.607491415400281e+000	 1.121412142125609e+000	-1.014825035982315e+000
1	 1.595097757037207e+000	 1.138971889568530e+000	-1.099481610775282e+000
1	 1.715449902403902e+000	 9.617722329249945e-001	-2.510923748257868e-001
1	 1.704916225992957e+000	 9.803237908744716e-001	-3.187588630211789e-001
1	 1.694166329414357e+000	 9.987864541903470e-001	-3.880341007906293e-001
1	 1.683201236571147e+000	 1.017156517077555e+000	-4.588603227053444e-001
1	 1.672022054746992e+000	 1.035430286698532e+000	-5.311451952564967e-001
1	 1.660629974503159e+000	 1.053604085486492e+000	-6.047617995399157e-001
1	 1.649026269499319e+000	 1.071674253463287e+000	-6.795486767445657e-001
1	 1.637212296237679e+000	 1.089637150558919e+000	-7.553099369989962e-001
1	 1.625189493730138e+000	 1.107489158929809e+000	-8.318154319750019e-001
1	 1.612959383088218e+000	 1.125226685272839e+000	-9.088009914893684e-001
1	 1.600523567035720e+000	 1.142846163132202e+000	-9.859687241839480e-001
1	 1.721265278861435e+000	 9.650326415191733e-001	-2.033632132764014e-001
1	 1.710695893279204e+000	 9.836470892636930e-001	-2.629382000152064e-001
1	 1.699909554542710e+000	 1.002172341021685e+000	-3.238440428887261e-001
1	 1.688907290026054e+000	 1.020604678435454e+000	-3.860272277368640e-001
1	 1.677690210766617e+000	 1.038940396148730e+000	-4.494040732003761e-001
1	 1.666259511361695e+000	 1.057175804127793e+000	-5.138607232015294e-001
1	 1.654616469788687e+000	 1.075307229987180e+000	-5.792531943492715e-001
1	 1.642762447148372e+000	 1.093331021317075e+000	-6.454074787369672e-001
1	 1.630698887330922e+000	 1.111243548009421e+000	-7.121197024650682e-001
1	 1.618427316604453e+000	 1.129041204579818e+000	-7.791563400826862e-001
1	 1.605949343126026e+000	 1.146720412482190e+000	-8.462544850010914e-001
1	 1.727080608799158e+000	 9.682930240319374e-001	-1.547795302731226e-001
1	 1.716475514331406e+000	 9.869703610683014e-001	-2.036666678251627e-001
1	 1.705652733728614e+000	 1.005558200767583e+000	-2.535761462498338e-001
1	 1.694613297835917e+000	 1.024052812209563e+000	-3.044624402109518e-001
1	 1.683358321444389e+000	 1.042450477519377e+000	-3.562555228004318e-001
1	 1.671889003187328e+000	 1.060747494196473e+000	-4.088608646195936e-001
1	 1.660206625359837e+000	 1.078940177448188e+000	-4.621594775533292e-001
1	 1.648312553661232e+000	 1.097024862524986e+000	-5.160080036067555e-001
1	 1.636208236859930e+000	 1.114997907054446e+000	-5.702388490633943e-001
1	 1.623895206380604e+000	 1.132855693370989e+000	-6.246603641110495e-001
1	 1.611375075813539e+000	 1.150594630838373e+000	-6.790570679670958e-001
1	 1.732895882040398e+000	 9.715533747577873e-001	-1.049485721998813e-001
1	 1.722255079035424e+000	 9.902936004727183e-001	-1.404261384805212e-001
1	 1.711395856921740e+000	 1.008944027502901e+000	-1.765956608473758e-001
1	 1.700319250015491e+000	 1.027500912365726e+000	-2.134232530933009e-001
1	 1.689026376861413e+000	 1.045960524667863e+000	-2.508574493705257e-001
1	 1.677518440128775e+000	 1.064319149442063e+000	-2.888292067063365e-001
1	 1.665796726430350e+000	 1.082573089488590e+000	-3.272519396393814e-001
1	 1.653862606063951e+000	 1.100718667718323e+000	-3.660215872353777e-001
1	 1.641717532676200e+000	 1.118752229494599e+000	-4.050167126613007e-001
1	 1.629363042848288e+000	 1.136670144970794e+000	-4.440986354161777e-001
1	 1.616800755603675e+000	 1.154468811420628e+000	-4.831115962340656e-001
1	 1.738711088408478e+000	 9.748136879912216e-001	-5.348283971629388e-002
1	 1.728034577277114e+000	 9.936168016613646e-001	-7.270539187615095e-002
1	 1.717138914071758e+000	 1.012329815302501e+000	-9.227628029150907e-002
1	 1.706025136579531e+000	 1.030948972869786e+000	-1.121768221500164e-001
1	 1.694694367098797e+000	 1.049470531451580e+000	-1.323789249191010e-001
1	 1.683147812334755e+000	 1.067890763614093e+000	-1.528450891584765e-001
1	 1.671386763217806e+000	 1.086205959750667e+000	-1.735284285518596e-001
1	 1.659412594644220e+000	 1.104412430432750e+000	-1.943727072934778e-001
1	 1.647226765138773e+000	 1.122506508759595e+000	-2.153123949221519e-001
1	 1.634830816439122e+000	 1.140484552703678e+000	-2.362727386522316e-001
1	 1.622226373001848e+000	 1.158342947448835e+000	-2.571698532064773e-001
1	 1.744526217726725e+000	 9.780739580267407e-001	 0.000000000000000e+000
1	 1.733813998942337e+000	 9.969399588186622e-001	 0.000000000000000e+000
1	 1.722881895128340e+000	 1.015715558241244e+000	 0.000000000000000e+000
1	 1.711730947542792e+000	 1.034396987687588e+000	 0.000000000000000e+000
1	 1.700362282237645e+000	 1.052980491727922e+000	 0.000000000000000e+000
1	 1.688777109953985e+000	 1.071462330462093e+000	 0.000000000000000e+000
1	 1.676976725939789e+000	 1.089838781876700e+000	 0.000000000000000e+000
1	 1.664962509689733e+000	 1.108106144203938e+000	 0.000000000000000e+000
1	 1.652735924606690e+000	 1.126260738279147e+000	 0.000000000000000e+000
1	 1.640298517584723e+000	 1.144298909894085e+000	 0.000000000000000e+000
1	 1.627651918513473e+000	 1.162217032142869e+000	 0.000000000000000e+000
1	 1.573394367852796e+000	 1.123474688779447e+000	-1.317765955549526e+000
1	 1.560968777531320e+000	 1.140675987641491e+000	-1.409903781182595e+000
1	 1.548344355402024e+000	 1.157754312848225e+000	-1.505248303278932e+000
1	 1.535522911460947e+000	 1.174706248697026e+000	-1.602893796778876e+000
1	 1.522506333301989e+000	 1.191528414752497e+000	-1.701836651504018e+000
1	 1.509296585264699e+000	 1.208217468037181e+000	-1.800976553207896e+000
1	 1.495895707508254e+000	 1.224770105197696e+000	-1.899117846922559e+000
1	 1.482305815012449e+000	 1.241183064643427e+000	-1.994971080871313e+000
1	 1.468529096506648e+000	 1.257453128654897e+000	-2.087154728745234e+000
1	 1.454567813327771e+000	 1.273577125459001e+000	-2.174197087672523e+000
1	 1.440424298208528e+000	 1.289551931268331e+000	-2.254538348746367e+000
1	 1.578820218538282e+000	 1.127348991396634e+000	-1.295890847172604e+000
1	 1.566351778566836e+000	 1.144609608940324e+000	-1.389925383213462e+000
1	 1.553683821116071e+000	 1.161746828754073e+000	-1.486555480779703e+000
1	 1.540818162423808e+000	 1.178757223356185e+000	-1.584905872934395e+000
1	 1.527756696593324e+000	 1.195637400653814e+000	-1.683998902753927e+000
1	 1.514501394738202e+000	 1.212384006141222e+000	-1.782755638214485e+000
1	 1.501054304053116e+000	 1.228993725073395e+000	-1.879997177612827e+000
1	 1.487417546811380e+000	 1.245463284612102e+000	-1.974446143964807e+000
1	 1.473593319290200e+000	 1.261789455941541e+000	-2.064728366331381e+000
1	 1.459583890624727e+000	 1.277969056350728e+000	-2.149374745532652e+000
1	 1.445391601592109e+000	 1.293998951279851e+000	-2.226823301224588e+000
1	 1.584246073293903e+000	 1.131223296920624e+000	-1.253117138614715e+000
1	 1.571734783640297e+000	 1.148543233190479e+000	-1.346679413064735e+000
1	 1.559023290835383e+000	 1.165739347655439e+000	-1.442231618144885e+000
1	 1.546113417358764e+000	 1.182808201054727e+000	-1.538942630073941e+000
1	 1.533007063823095e+000	 1.199746389638040e+000	-1.635877664460298e+000
1	 1.519706208115996e+000	 1.216550547371352e+000	-1.731999313351356e+000
1	 1.506212904467642e+000	 1.233217348118006e+000	-1.826168775093968e+000
1	 1.492529282444869e+000	 1.249743507792146e+000	-1.917147275622435e+000
1	 1.478657545872725e+000	 1.266125786481637e+000	-2.003597679291602e+000
1	 1.464599971684596e+000	 1.282360990537607e+000	-2.084086286876824e+000
1	 1.450358908702072e+000	 1.298445974627835e+000	-2.157084817871069e+000
1	 1.589671922625073e+000	 1.135097598571297e+000	-1.188092212354893e+000
1	 1.577117783332126e+000	 1.152476853507997e+000	-1.278774892901351e+000
1	 1.564362755216589e+000	 1.169731862565275e+000	-1.370870047172764e+000
1	 1.551408666999837e+000	 1.186859174703291e+000	-1.463604254028762e+000
1	 1.538257425803892e+000	 1.203855374514287e+000	-1.556102373033269e+000
1	 1.524911016290401e+000	 1.220717084435966e+000	-1.647388492043965e+000
1	 1.511371499725030e+000	 1.237440966940041e+000	-1.736387063959191e+000
1	 1.497641012968119e+000	 1.254023726693041e+000	-1.821924231411099e+000
1	 1.483721767392554e+000	 1.270462112686509e+000	-1.902729337705695e+000
1	 1.469616047729940e+000	 1.286752920333694e+000	-1.977436621823464e+000
1	 1.455326210846296e+000	 1.302892993529981e+000	-2.044587094811623e+000
1	 1.595097757037207e+000	 1.138971889568530e+000	-1.099481610775282e+000
1	 1.582500768222747e+000	 1.156410463008918e+000	-1.184839501180293e+000
1	 1.569702204916320e+000	 1.173724366496536e+000	-1.271082944154979e+000
1	 1.556703902081051e+000	 1.190910137212508e+000	-1.357509656995668e+000
1	 1.543507773348307e+000	 1.207964348091664e+000	-1.443320768987073e+000
1	 1.530115810153738e+000	 1.224883610043461e+000	-1.527621667958869e+000
1	 1.516530080798473e+000	 1.241664574148013e+000	-1.609423026445289e+000
1	 1.502752729436335e+000	 1.258303933824269e+000	-1.687642006409320e+000
1	 1.488785974988019e+000	 1.274798426967479e+000	-1.761103641029966e+000
1	 1.474632109983321e+000	 1.291144838053048e+000	-1.828542391588679e+000
1	 1.460293499332663e+000	 1.307340000203990e+000	-1.888603877032248e+000
1	 1.600523567035720e+000	 1.142846163132202e+000	-9.859687241839480e-001
1	 1.587883728892580e+000	 1.160344054809284e+000	-1.063519251824654e+000
1	 1.575041630591203e+000	 1.177716852462174e+000	-1.141501005432510e+000
1	 1.561999113336428e+000	 1.194961081493018e+000	-1.219296154676592e+000
1	 1.548758097268932e+000	 1.212073303179280e+000	-1.296198580830941e+000
1	 1.535320580598326e+000	 1.229050116902231e+000	-1.371414610774078e+000
1	 1.521688638661166e+000	 1.245888162350435e+000	-1.444063915166181e+000
1	 1.507864422904721e+000	 1.262584121695313e+000	-1.513180569938350e+000
1	 1.493850159797450e+000	 1.279134721735873e+000	-1.577714279805697e+000
1	 1.479648149667302e+000	 1.295536736009724e+000	-1.636531762092343e+000
1	 1.465260765469056e+000	 1.311786986867562e+000	-1.688418288737578e+000
1	 1.605949343126026e+000	 1.146720412482190e+000	-8.462544850010914e-001
1	 1.593266655922049e+000	 1.164277622025134e+000	-9.134781797353759e-001
1	 1.580381022897869e+000	 1.181709313475142e+000	-9.807731293604168e-001
1	 1.567294291499992e+000	 1.199012000455454e+000	-1.047619149795099e+000
1	 1.554008388378355e+000	 1.216182232586246e+000	-1.113419215202621e+000
1	 1.540525318516483e+000	 1.233216597720671e+000	-1.177500067956546e+000
1	 1.526847164286307e+000	 1.250111724155819e+000	-1.239112971517489e+000
1	 1.512976084428482e+000	 1.266864282815654e+000	-1.297434605528650e+000
1	 1.498914312959179e+000	 1.283470989403013e+000	-1.351568102068696e+000
1	 1.484664158004444e+000	 1.299928606517779e+000	-1.400544221633518e+000
1	 1.470228000563354e+000	 1.316233945738397e+000	-1.443322667052363e+000
1	 1.611375075813539e+000	 1.150594630838373e+000	-6.790570679670958e-001
1	 1.598649539891577e+000	 1.168211157772510e+000	-7.333980324952105e-001
1	 1.585720372492949e+000	 1.185701742548394e+000	-7.875661045337424e-001
1	 1.572589427305767e+000	 1.203062887010452e+000	-8.411518218427753e-001
1	 1.559258637489170e+000	 1.220291129121669e+000	-8.936834531008228e-001
1	 1.545730014800531e+000	 1.237383045207176e+000	-9.446274724081950e-001
1	 1.532005648647089e+000	 1.254335252172679e+000	-9.933891496215710e-001
1	 1.518087705062822e+000	 1.271144409694776e+000	-1.039313256001236e+000
1	 1.503978425611540e+000	 1.287807222380225e+000	-1.081684884352066e+000
1	 1.489680126217312e+000	 1.304320441891270e+000	-1.119730382542439e+000
1	 1.475195195923441e+000	 1.320680869034195e+000	-1.152618398988245e+000
1	 1.616800755603675e+000	 1.154468811420628e+000	-4.831115962340656e-001
1	 1.604032371381585e+000	 1.172144655167453e+000	-5.219779681224319e-001
1	 1.591059670033068e+000	 1.189694132694881e+000	-5.605643041311250e-001
1	 1.577884511487775e+000	 1.207113734068648e+000	-5.985848229127230e-001
1	 1.564508835413967e+000	 1.224399985594661e+000	-6.357091520765266e-001
1	 1.550934660342789e+000	 1.241549452070141e+000	-6.715626558461956e-001
1	 1.537164082716710e+000	 1.258558739009527e+000	-7.057268456855796e-001
1	 1.523199275862945e+000	 1.275424494842162e+000	-7.377398735461910e-001
1	 1.509042488892863e+000	 1.292143413078832e+000	-7.670971071762546e-001
1	 1.494696045528467e+000	 1.308712234444254e+000	-7.932517867171942e-001
1	 1.480162342857196e+000	 1.325127748972656e+000	-8.156157616012969e-001
1	 1.622226373001848e+000	 1.158342947448835e+000	-2.571698532064773e-001
1	 1.609415140972496e+000	 1.176078107326003e+000	-2.779342587364018e-001
1	 1.596398906174859e+000	 1.193686476927557e+000	-2.984693862361103e-001
1	 1.583179534780040e+000	 1.211164534540678e+000	-3.186259794809536e-001
1	 1.569758972965336e+000	 1.228508794814330e+000	-3.382309542470263e-001
1	 1.556139246035576e+000	 1.245715811017961e+000	-3.570875677860903e-001
1	 1.542322457468363e+000	 1.262782177274876e+000	-3.749756326490103e-001
1	 1.528310787884055e+000	 1.279704530767292e+000	-3.916517746842545e-001
1	 1.514106493941479e+000	 1.296479553910158e+000	-4.068497349240266e-001
1	 1.499711907160471e+000	 1.313103976490788e+000	-4.202807149562362e-001
1	 1.485129432672502e+000	 1.329574577771481e+000	-4.316337652667597e-001
1	 1.627651918513473e+000	 1.162217032142869e+000	 0.000000000000000e+000
1	 1.614797839244732e+000	 1.180011507364201e+000	 0.000000000000000e+000
1	 1.601738071574950e+000	 1.197678768259376e+000	 0.000000000000000e+000
1	 1.588474487916584e+000	 1.215215281337177e+000	 0.000000000000000e+000
1	 1.575009040955869e+000	 1.232617549589786e+000	 0.000000000000000e+000
1	 1.561343762771212e+000	 1.249882114759033e+000	 0.000000000000000e+000
1	 1.547480763875244e+000	 1.267005559577238e+000	 0.000000000000000e+000
1	 1.533422232181358e+000	 1.283984509979651e+000	 0.000000000000000e+000
1	 1.519170431895721e+000	 1.300815637285527e+000	 0.000000000000000e+000
1	 1.504727702335888e+000	 1.317495660344928e+000	 0.000000000000000e+000
1	 1.490096456677240e+000	 1.334021347648369e+000	 0.000000000000000e+000
1	 1.440424298208528e+000	 1.289551931268331e+000	-2.254538348746367e+000
1	 1.426103115966008e+000	 1.305372110792263e+000	-2.323798381788475e+000
1	 1.411604630339610e+000	 1.321037051924598e+000	-2.379479117451977e+000
1	 1.396931380388861e+000	 1.336543789252277e+000	-2.422785470447910e+000
1	 1.382085970986084e+000	 1.351889413086072e+000	-2.454974842215345e+000
1	 1.367071071277777e+000	 1.367071071277777e+000	-2.477354675054931e+000
1	 1.351889413086072e+000	 1.382085970986084e+000	-2.491279916064609e+000
1	 1.336543789252277e+000	 1.396931380388861e+000	-2.498150396296379e+000
1	 1.321037051924597e+000	 1.411604630339610e+000	-2.499408130770191e+000
1	 1.305372110792263e+000	 1.426103115966009e+000	-2.496534545181152e+000
1	 1.289551931268331e+000	 1.440424298208528e+000	-2.491047635318128e+000
1	 1.445391601592109e+000	 1.293998951279851e+000	-2.226823301224588e+000
1	 1.431021032751211e+000	 1.309873686694677e+000	-2.293138809209475e+000
1	 1.416472549095766e+000	 1.325592648378173e+000	-2.346170553497688e+000
1	 1.401748698441228e+000	 1.341152860691077e+000	-2.386968844772823e+000
1	 1.386852094642795e+000	 1.356551403910124e+000	-2.416631439306343e+000
1	 1.371785416051495e+000	 1.371785416051494e+000	-2.436301344428895e+000
1	 1.356551403910124e+000	 1.386852094642795e+000	-2.447164542775235e+000
1	 1.341152860691077e+000	 1.401748698441228e+000	-2.450447640189057e+000
1	 1.325592648378172e+000	 1.416472549095766e+000	-2.447415442368973e+000
1	 1.309873686694677e+000	 1.431021032751211e+000	-2.439368465517561e+000
1	 1.293998951279852e+000	 1.445391601592110e+000	-2.427640386418103e+000
1	 1.450358908702072e+000	 1.298445974627835e+000	-2.157084817871069e+000
1	 1.435938953225800e+000	 1.314375265974459e+000	-2.219129217262928e+000
1	 1.421340471503854e+000	 1.330148248249615e+000	-2.268421566385404e+000
1	 1.406566020107614e+000	 1.345761935587832e+000	-2.305865109133375e+000
1	 1.391618221875167e+000	 1.361213398231795e+000	-2.332405448998377e+000
1	 1.376499764362070e+000	 1.376499764362070e+000	-2.349028604419519e+000
1	 1.361213398231795e+000	 1.391618221875167e+000	-2.356758991888556e+000
1	 1.345761935587833e+000	 1.406566020107614e+000	-2.356657341160302e+000
1	 1.330148248249616e+000	 1.421340471503854e+000	-2.349818547093399e+000
1	 1.314375265974459e+000	 1.435938953225800e+000	-2.337369462806252e+000
1	 1.298445974627835e+000	 1.450358908702072e+000	-2.320466638977765e+000
1	 1.455326210846296e+000	 1.302892993529981e+000	-2.044587094811623e+000
1	 1.440856868784037e+000	 1.318876840753897e+000	-2.101203461262570e+000
1	 1.426208389045570e+000	 1.334703843566746e+000	-2.145835630230865e+000
1	 1.411383336958204e+000	 1.350371005876853e+000	-2.179247332599449e+000
1	 1.396384344342898e+000	 1.365875387892865e+000	-2.202239527520789e+000
1	 1.381214107959740e+000	 1.381214107959740e+000	-2.215648706173564e+000
1	 1.365875387892865e+000	 1.396384344342898e+000	-2.220345132263074e+000
1	 1.350371005876853e+000	 1.411383336958204e+000	-2.217231023080208e+000
1	 1.334703843566746e+000	 1.426208389045570e+000	-2.207238675085239e+000
1	 1.318876840753896e+000	 1.440856868784036e+000	-2.191328538122539e+000
1	 1.302892993529981e+000	 1.455326210846295e+000	-2.170487242498685e+000
1	 1.460293499332663e+000	 1.307340000203990e+000	-1.888603877032248e+000
1	 1.445774770820179e+000	 1.323378403155276e+000	-1.938802624763816e+000
1	 1.431076293202615e+000	 1.339259426357381e+000	-1.978021130207704e+000
1	 1.416200640563178e+000	 1.354980063492449e+000	-2.006891181379023e+000
1	 1.401150453705688e+000	 1.370537364735112e+000	-2.026076617420910e+000
1	 1.385928438594741e+000	 1.385928438594741e+000	-2.036271879276228e+000
1	 1.370537364735112e+000	 1.401150453705688e+000	-2.038200506103630e+000
1	 1.354980063492449e+000	 1.416200640563178e+000	-2.032613580713235e+000
1	 1.339259426357381e+000	 1.431076293202615e+000	-2.020288127428075e+000
1	 1.323378403155276e+000	 1.445774770820179e+000	-2.002025465896254e+000
1	 1.307340000203990e+000	 1.460293499332663e+000	-1.978649524487339e+000
1	 1.465260765469056e+000	 1.311786986867562e+000	-1.688418288737578e+000
1	 1.450692650728490e+000	 1.327879945300884e+000	-1.731374889067280e+000
1	 1.435944175456685e+000	 1.343814988649339e+000	-1.764591271183683e+000
1	 1.421017922492720e+000	 1.359589100368930e+000	-1.788574866579912e+000
1	 1.405916541623238e+000	 1.375199320600313e+000	-1.803859934447182e+000
1	 1.390642748017308e+000	 1.390642748017308e+000	-1.811006357755736e+000
1	 1.375199320600312e+000	 1.405916541623238e+000	-1.810598394091092e+000
1	 1.359589100368930e+000	 1.421017922492720e+000	-1.803243383980640e+000
1	 1.343814988649339e+000	 1.435944175456685e+000	-1.789570419553442e+000
1	 1.327879945300884e+000	 1.450692650728490e+000	-1.770228976475659e+000
1	 1.311786986867562e+000	 1.465260765469056e+000	-1.745887512194159e+000
1	 1.470228000563354e+000	 1.316233945738397e+000	-1.443322667052363e+000
1	 1.455610499903227e+000	 1.332381459313008e+000	-1.478375405290332e+000
1	 1.440812027289479e+000	 1.348370522470437e+000	-1.505163988151041e+000
1	 1.425835174317011e+000	 1.364198108440607e+000	-1.524079092991132e+000
1	 1.410682599755248e+000	 1.379861247330245e+000	-1.535532954678395e+000
1	 1.395357027977678e+000	 1.395357027977678e+000	-1.539958405560335e+000
1	 1.379861247330246e+000	 1.410682599755248e+000	-1.537807879211005e+000
1	 1.364198108440607e+000	 1.425835174317012e+000	-1.529552380147958e+000
1	 1.348370522470437e+000	 1.440812027289478e+000	-1.515680421797893e+000
1	 1.332381459313007e+000	 1.455610499903227e+000	-1.496696935068336e+000
1	 1.316233945738397e+000	 1.470228000563354e+000	-1.473122149955403e+000
1	 1.475195195923441e+000	 1.320680869034195e+000	-1.152618398988245e+000
1	 1.460528309738652e+000	 1.336882937313932e+000	-1.179266168947513e+000
1	 1.445679840182694e+000	 1.352926019848496e+000	-1.199361858409472e+000
1	 1.430652387606235e+000	 1.368807079641790e+000	-1.213187008861038e+000
1	 1.415448619761416e+000	 1.384523136766689e+000	-1.221039401893067e+000
1	 1.400071270226088e+000	 1.400071270226088e+000	-1.223232341519593e+000
1	 1.384523136766689e+000	 1.415448619761416e+000	-1.220093909310472e+000
1	 1.368807079641790e+000	 1.430652387606236e+000	-1.211966193984785e+000
1	 1.352926019848495e+000	 1.445679840182694e+000	-1.199204497176220e+000
1	 1.336882937313932e+000	 1.460528309738653e+000	-1.182176517141669e+000
1	 1.320680869034195e+000	 1.475195195923441e+000	-1.161261512238144e+000
1	 1.480162342857196e+000	 1.325127748972656e+000	-8.156157616012969e-001
1	 1.465446071629025e+000	 1.341384371425945e+000	-8.335158969821837e-001
1	 1.450547605618029e+000	 1.357481472811331e+000	-8.468120154608255e-001
1	 1.435469553930574e+000	 1.373416005906789e+000	-8.556841566482897e-001
1	 1.420214593301443e+000	 1.389184980751421e+000	-8.603232351736058e-001
1	 1.404785466512774e+000	 1.404785466512774e+000	-8.609305638014924e-001
1	 1.389184980751421e+000	 1.420214593301443e+000	-8.577173584122199e-001
1	 1.373416005906789e+000	 1.435469553930574e+000	-8.509042259430104e-001
1	 1.357481472811331e+000	 1.450547605618029e+000	-8.407206364344997e-001
1	 1.341384371425946e+000	 1.465446071629025e+000	-8.274043803643453e-001
1	 1.325127748972656e+000	 1.480162342857196e+000	-8.112010124868718e-001
1	 1.485129432672502e+000	 1.329574577771481e+000	-4.316337652667597e-001
1	 1.470363776968606e+000	 1.345885753771334e+000	-4.405999071929019e-001
1	 1.455415315077183e+000	 1.362036873386762e+000	-4.471460645766544e-001
1	 1.440286664860211e+000	 1.378024879169914e+000	-4.513584247235818e-001
1	 1.424980512035029e+000	 1.393846771126218e+000	-4.533286367388134e-001
1	 1.409499608587972e+000	 1.409499608587972e+000	-4.531535738766020e-001
1	 1.393846771126218e+000	 1.424980512035029e+000	-4.509350868138932e-001
1	 1.378024879169914e+000	 1.440286664860211e+000	-4.467797483984859e-001
1	 1.362036873386762e+000	 1.455415315077183e+000	-4.407985904445119e-001
1	 1.345885753771334e+000	 1.470363776968606e+000	-4.331068331671886e-001
1	 1.329574577771481e+000	 1.485129432672502e+000	-4.238236078672668e-001
1	 1.490096456677240e+000	 1.334021347648369e+000	 0.000000000000000e+000
1	 1.475281417151654e+000	 1.350387076472384e+000	 0.000000000000000e+000
1	 1.460282960041853e+000	 1.366592213602607e+000	 0.000000000000000e+000
1	 1.445103711965328e+000	 1.382633691365476e+000	 0.000000000000000e+000
1	 1.429746367621873e+000	 1.398508499732860e+000	 0.000000000000000e+000
1	 1.414213688201919e+000	 1.414213688201919e+000	 0.000000000000000e+000
1	 1.398508499732861e+000	 1.429746367621873e+000	 0.000000000000000e+000
1	 1.382633691365476e+000	 1.445103711965328e+000	 0.000000000000000e+000
1	 1.366592213602607e+000	 1.460282960041853e+000	 0.000000000000000e+000
1	 1.350387076472384e+000	 1.475281417151654e+000	 0.000000000000000e+000
1	 1.334021347648369e+000	 1.490096456677241e+000	 0.000000000000000e+000
1	 1.289551931268331e+000	 1.440424298208528e+000	-2.491047635318128e+000
1	 1.273577125459001e+000	 1.454567813327771e+000	-2.481648687138399e+000
1	 1.257453128654896e+000	 1.468529096506647e+000	-2.467335003370914e+000
1	 1.241183064643427e+000	 1.482305815012449e+000	-2.450171076764441e+000
1	 1.224770105197696e+000	 1.495895707508254e+000	-2.432324330125734e+000
1	 1.208217468037181e+000	 1.509296585264699e+000	-2.416060960492538e+000
1	 1.191528414752497e+000	 1.522506333301989e+000	-2.403741620223655e+000
1	 1.174706248697026e+000	 1.535522911460947e+000	-2.397816944840670e+000
1	 1.157754312848225e+000	 1.548344355402024e+000	-2.400822937795069e+000
1	 1.140675987641491e+000	 1.560968777531320e+000	-2.415376222641286e+000
1	 1.123474688779447e+000	 1.573394367852797e+000	-2.444169173367287e+000
1	 1.293998951279852e+000	 1.445391601592110e+000	-2.427640386418103e+000
1	 1.277969056350728e+000	 1.459583890624728e+000	-2.411106207619381e+000
1	 1.261789455941542e+000	 1.473593319290200e+000	-2.389172486760717e+000
1	 1.245463284612102e+000	 1.487417546811380e+000	-2.364076595697631e+000
1	 1.228993725073395e+000	 1.501054304053116e+000	-2.338170980413423e+000
1	 1.212384006141222e+000	 1.514501394738202e+000	-2.313918589186760e+000
1	 1.195637400653813e+000	 1.527756696593324e+000	-2.293888117942266e+000
1	 1.178757223356185e+000	 1.540818162423809e+000	-2.280749083648168e+000
1	 1.161746828754073e+000	 1.553683821116071e+000	-2.277266737006094e+000
1	 1.144609608940324e+000	 1.566351778566835e+000	-2.286296826023136e+000
1	 1.127348991396634e+000	 1.578820218538282e+000	-2.310780222363675e+000
1	 1.298445974627835e+000	 1.450358908702072e+000	-2.320466638977765e+000
1	 1.282360990537607e+000	 1.464599971684597e+000	-2.298198898837494e+000
1	 1.266125786481637e+000	 1.478657545872725e+000	-2.270361777901880e+000
1	 1.249743507792146e+000	 1.492529282444869e+000	-2.239278740370532e+000
1	 1.233217348118006e+000	 1.506212904467643e+000	-2.207395393879821e+000
1	 1.216550547371352e+000	 1.519706208115996e+000	-2.177274689312520e+000
1	 1.199746389638040e+000	 1.533007063823095e+000	-2.151591926173484e+000
1	 1.182808201054727e+000	 1.546113417358764e+000	-2.133129574971842e+000
1	 1.165739347655438e+000	 1.559023290835383e+000	-2.124771928456334e+000
1	 1.148543233190479e+000	 1.571734783640297e+000	-2.129499593917668e+000
1	 1.131223296920624e+000	 1.584246073293903e+000	-2.150383839100968e+000
1	 1.302892993529981e+000	 1.455326210846295e+000	-2.170487242498685e+000
1	 1.286752920333694e+000	 1.469616047729940e+000	-2.144038396957932e+000
1	 1.270462112686508e+000	 1.483721767392554e+000	-2.112127660693973e+000
1	 1.254023726693041e+000	 1.497641012968118e+000	-2.077078761739013e+000
1	 1.237440966940040e+000	 1.511371499725030e+000	-2.041339600277563e+000
1	 1.220717084435967e+000	 1.524911016290401e+000	-2.007477406647841e+000
1	 1.203855374514287e+000	 1.538257425803892e+000	-1.978173701367919e+000
1	 1.186859174703290e+000	 1.551408666999836e+000	-1.956219068752688e+000
1	 1.169731862565275e+000	 1.564362755216590e+000	-1.944507756101602e+000
1	 1.152476853507997e+000	 1.577117783332126e+000	-1.946032110812236e+000
1	 1.135097598571297e+000	 1.589671922625073e+000	-1.963876868110748e+000
1	 1.307340000203990e+000	 1.460293499332663e+000	-1.978649524487339e+000
1	 1.291144838053048e+000	 1.474632109983321e+000	-1.949720783367174e+000
1	 1.274798426967479e+000	 1.488785974988019e+000	-1.915677846120914e+000
1	 1.258303933824268e+000	 1.502752729436335e+000	-1.878759820426949e+000
1	 1.241664574148013e+000	 1.516530080798473e+000	-1.841327007889010e+000
1	 1.224883610043462e+000	 1.530115810153738e+000	-1.805856205697574e+000
1	 1.207964348091664e+000	 1.543507773348307e+000	-1.774935814810247e+000
1	 1.190910137212508e+000	 1.556703902081050e+000	-1.751260765893118e+000
1	 1.173724366496536e+000	 1.569702204916320e+000	-1.737627274670949e+000
1	 1.156410463008918e+000	 1.582500768222747e+000	-1.736927438701852e+000
1	 1.138971889568530e+000	 1.595097757037207e+000	-1.752143687920096e+000
1	 1.311786986867562e+000	 1.465260765469056e+000	-1.745887512194159e+000
1	 1.295536736009724e+000	 1.479648149667302e+000	-1.716326841191056e+000
1	 1.279134721735873e+000	 1.493850159797450e+000	-1.682203254866151e+000
1	 1.262584121695312e+000	 1.507864422904721e+000	-1.645587286978584e+000
1	 1.245888162350435e+000	 1.521688638661166e+000	-1.608662713184122e+000
1	 1.229050116902231e+000	 1.535320580598325e+000	-1.573722180761579e+000
1	 1.212073303179280e+000	 1.548758097268932e+000	-1.543162657346175e+000
1	 1.194961081493018e+000	 1.561999113336428e+000	-1.519480709142159e+000
1	 1.177716852462174e+000	 1.575041630591203e+000	-1.505267619467421e+000
1	 1.160344054809283e+000	 1.587883728892580e+000	-1.503204358826561e+000
1	 1.142846163132202e+000	 1.600523567035720e+000	-1.516056418017410e+000
1	 1.316233945738397e+000	 1.470228000563354e+000	-1.473122149955403e+000
1	 1.299928606517779e+000	 1.484664158004445e+000	-1.444922306727920e+000
1	 1.283470989403013e+000	 1.498914312959180e+000	-1.412878294327975e+000
1	 1.266864282815654e+000	 1.512976084428482e+000	-1.378809036162351e+000
1	 1.250111724155819e+000	 1.526847164286307e+000	-1.344633804344388e+000
1	 1.233216597720671e+000	 1.540525318516483e+000	-1.312368360841811e+000
1	 1.216182232586246e+000	 1.554008388378355e+000	-1.284120938074405e+000
1	 1.199012000455454e+000	 1.567294291499993e+000	-1.262088068220165e+000
1	 1.181709313475142e+000	 1.580381022897870e+000	-1.248550270825377e+000
1	 1.164277622025134e+000	 1.593266655922050e+000	-1.245867608620615e+000
1	 1.146720412482190e+000	 1.605949343126026e+000	-1.256475121717562e+000
1	 1.320680869034195e+000	 1.475195195923441e+000	-1.161261512238144e+000
1	 1.304320441891271e+000	 1.489680126217312e+000	-1.136558115913488e+000
1	 1.287807222380225e+000	 1.503978425611540e+000	-1.108861130162412e+000
1	 1.271144409694777e+000	 1.518087705062822e+000	-1.079655735462850e+000
1	 1.254335252172679e+000	 1.532005648647089e+000	-1.050509658793857e+000
1	 1.237383045207176e+000	 1.545730014800532e+000	-1.023070008529576e+000
1	 1.220291129121670e+000	 1.559258637489170e+000	-9.990599771419819e-001
1	 1.203062887010452e+000	 1.572589427305767e+000	-9.802754193146250e-001
1	 1.185701742548394e+000	 1.585720372492949e+000	-9.685813133472286e-001
1	 1.168211157772510e+000	 1.598649539891577e+000	-9.659081139837374e-001
1	 1.150594630838373e+000	 1.611375075813539e+000	-9.742480050212941e-001
1	 1.325127748972656e+000	 1.480162342857196e+000	-8.112010124868718e-001
1	 1.308712234444254e+000	 1.494696045528466e+000	-7.922706459314066e-001
1	 1.292143413078832e+000	 1.509042488892863e+000	-7.712939524798571e-001
1	 1.275424494842161e+000	 1.523199275862945e+000	-7.493411278936071e-001
1	 1.258558739009527e+000	 1.537164082716710e+000	-7.275422348738992e-001
1	 1.241549452070141e+000	 1.550934660342789e+000	-7.070849130109541e-001
1	 1.224399985594661e+000	 1.564508835413966e+000	-6.892119927779972e-001
1	 1.207113734068648e+000	 1.577884511487775e+000	-6.752190190763436e-001
1	 1.189694132694881e+000	 1.591059670033068e+000	-6.664516900386036e-001
1	 1.172144655167453e+000	 1.604032371381585e+000	-6.643032169811179e-001
1	 1.154468811420629e+000	 1.616800755603675e+000	-6.702116115599938e-001
1	 1.329574577771481e+000	 1.485129432672502e+000	-4.238236078672668e-001
1	 1.313103976490788e+000	 1.499711907160471e+000	-4.130819520795150e-001
1	 1.296479553910158e+000	 1.514106493941479e+000	-4.013032368165603e-001
1	 1.279704530767292e+000	 1.528310787884055e+000	-3.890623092602267e-001
1	 1.262782177274876e+000	 1.542322457468363e+000	-3.769663577956995e-001
1	 1.245715811017962e+000	 1.556139246035576e+000	-3.656536773242242e-001
1	 1.228508794814330e+000	 1.569758972965335e+000	-3.557923826969924e-001
1	 1.211164534540678e+000	 1.583179534780040e+000	-3.480790732412759e-001
1	 1.193686476927557e+000	 1.596398906174859e+000	-3.432374514589152e-001
1	 1.176078107326003e+000	 1.609415140972496e+000	-3.420168990765204e-001
1	 1.158342947448835e+000	 1.622226373001849e+000	-3.451910137152530e-001
1	 1.334021347648369e+000	 1.490096456677241e+000	 0.000000000000000e+000
1	 1.317495660344928e+000	 1.504727702335888e+000	 0.000000000000000e+000
1	 1.300815637285527e+000	 1.519170431895721e+000	 0.000000000000000e+000
1	 1.283984509979651e+000	 1.533422232181358e+000	 0.000000000000000e+000
1	 1.267005559577238e+000	 1.547480763875244e+000	 0.000000000000000e+000
1	 1.249882114759033e+000	 1.561343762771212e+000	 0.000000000000000e+000
1	 1.232617549589786e+000	 1.575009040955869e+000	 0.000000000000000e+000
1	 1.215215281337177e+000	 1.588474487916584e+000	 0.000000000000000e+000
1	 1.197678768259375e+000	 1.601738071574951e+000	 0.000000000000000e+000
1	 1.180011507364201e+000	 1.614797839244733e+000	 0.000000000000000e+000
1	 1.162217032142869e+000	 1.627651918513473e+000	 0.000000000000000e+000
1	 1.123474688779447e+000	 1.573394367852797e+000	-2.444169173367287e+000
1	 1.106153864645299e+000	 1.585619394299173e+000	-2.492017402503979e+000
1	 1.088716992972960e+000	 1.597642202083156e+000	-2.562584012054907e+000
1	 1.071167579766116e+000	 1.609461215647480e+000	-2.656885924774733e+000
1	 1.053509157420699e+000	 1.621074939663807e+000	-2.775938098980605e+000
1	 1.035745282457134e+000	 1.632481959511823e+000	-2.920751947073774e+000
1	 1.017879533245523e+000	 1.643680941682343e+000	-3.092333765198972e+000
1	 9.999155077266725e-001	 1.654670634104525e+000	-3.291683177191970e+000
1	 9.818568211318918e-001	 1.665449866397395e+000	-3.519791595904701e+000
1	 9.637071037044300e-001	 1.676017550046008e+000	-3.777640704925433e+000
1	 9.454699984254019e-001	 1.686372678502719e+000	-4.066200963633241e+000
1	 1.127348991396634e+000	 1.578820218538282e+000	-2.310780222363675e+000
1	 1.109968436397971e+000	 1.591087402990088e+000	-2.355481116569269e+000
1	 1.092471433671216e+000	 1.603151671428428e+000	-2.423843349184214e+000
1	 1.074861501310506e+000	 1.615011442862725e+000	-2.516886466888782e+000
1	 1.057142183893234e+000	 1.626665216808005e+000	-2.635626949663745e+000
1	 1.039317050204486e+000	 1.638111573765636e+000	-2.781076644217913e+000
1	 1.021389690954367e+000	 1.649349175627829e+000	-2.954241210012915e+000
1	 1.003363716491180e+000	 1.660376766005978e+000	-3.156118580986363e+000
1	 9.852427545133561e-001	 1.671193170483048e+000	-3.387697446009859e+000
1	 9.670304477830336e-001	 1.681797296790355e+000	-3.649955751044871e+000
1	 9.487304518441457e-001	 1.692188134909175e+000	-3.943859225877461e+000
1	 1.131223296920624e+000	 1.584246073293903e+000	-2.150383839100968e+000
1	 1.113783011012618e+000	 1.596555415782833e+000	-2.192002382834799e+000
1	 1.096225877186315e+000	 1.608661144906721e+000	-2.257509441245928e+000
1	 1.078555425626313e+000	 1.620561674241674e+000	-2.347903570179632e+000
1	 1.060775213091481e+000	 1.632255498146073e+000	-2.464179445342698e+000
1	 1.042888820631569e+000	 1.643741192242959e+000	-2.607326342901185e+000
1	 1.024899851296698e+000	 1.655017413825931e+000	-2.778326633558560e+000
1	 1.006811927842678e+000	 1.666082902188611e+000	-2.978154293106996e+000
1	 9.886286904350721e-001	 1.676936478877901e+000	-3.207773432377515e+000
1	 9.703537943549183e-001	 1.687577047871365e+000	-3.468136849441330e+000
1	 9.519909077089775e-001	 1.698003595679197e+000	-3.760184606833587e+000
1	 1.135097598571297e+000	 1.589671922625073e+000	-1.963876868110748e+000
1	 1.117597581813682e+000	 1.602023423109025e+000	-2.002313379609852e+000
1	 1.099980316947971e+000	 1.614170612877078e+000	-2.064150344518184e+000
1	 1.082249346249206e+000	 1.626111900072022e+000	-2.150341879936528e+000
1	 1.064408238657718e+000	 1.637845773895593e+000	-2.261837698121109e+000
1	 1.046460587487910e+000	 1.649370805092509e+000	-2.399581666348440e+000
1	 1.028410008129908e+000	 1.660685646357755e+000	-2.564510380570456e+000
1	 1.010260135747011e+000	 1.671789032667180e+000	-2.757551755682778e+000
1	 9.920146229719017e-001	 1.682679781531623e+000	-2.979623635165059e+000
1	 9.736771376045057e-001	 1.693356793174897e+000	-3.231632422779448e+000
1	 9.552513603143963e-001	 1.703819050636108e+000	-3.514471738935276e+000
1	 1.138971889568530e+000	 1.595097757037207e+000	-1.752143687920096e+000
1	 1.121412142125609e+000	 1.607491415400281e+000	-1.787136058164265e+000
1	 1.103734746385898e+000	 1.619680065698536e+000	-1.844326112364283e+000
1	 1.085943256714852e+000	 1.631662110641459e+000	-1.924600245296904e+000
1	 1.068041254234226e+000	 1.643436034274148e+000	-2.028840210834717e+000
1	 1.050032344523041e+000	 1.655000402463004e+000	-2.157921793011442e+000
1	 1.031920155311388e+000	 1.666353863304406e+000	-2.312713490614410e+000
1	 1.013708334170022e+000	 1.677495147456441e+000	-2.494075217898606e+000
1	 9.954005461987061e-001	 1.688423068393885e+000	-2.702857023956238e+000
1	 9.770004717162162e-001	 1.699136522586807e+000	-2.939897833208032e+000
1	 9.585118039549021e-001	 1.709634489603235e+000	-3.206024209406972e+000
1	 1.142846163132202e+000	 1.600523567035720e+000	-1.516056418017410e+000
1	 1.125226685272839e+000	 1.612959383088218e+000	-1.547182311709232e+000
1	 1.107489158929809e+000	 1.625189493730138e+000	-1.598588926353403e+000
1	 1.089637150558919e+000	 1.637212296237679e+000	-1.671071812670361e+000
1	 1.071674253463287e+000	 1.649026269499319e+000	-1.765421932980836e+000
1	 1.053604085486492e+000	 1.660629974503159e+000	-1.882424475243812e+000
1	 1.035430286698531e+000	 1.672022054746992e+000	-2.022857679786749e+000
1	 1.017156517077555e+000	 1.683201236571147e+000	-2.187491681035584e+000
1	 9.987864541903467e-001	 1.694166329414357e+000	-2.377087366497210e+000
1	 9.803237908744715e-001	 1.704916225992957e+000	-2.592395255184734e+000
1	 9.617722329249945e-001	 1.715449902403902e+000	-2.834154397607574e+000
1	 1.146720412482190e+000	 1.605949343126026e+000	-1.256475121717562e+000
1	 1.129041204579818e+000	 1.618427316604453e+000	-1.283154141029083e+000
1	 1.111243548009421e+000	 1.630698887330922e+000	-1.327483224781206e+000
1	 1.093331021317074e+000	 1.642762447148372e+000	-1.390144117307645e+000
1	 1.075307229987180e+000	 1.654616469788688e+000	-1.471814315533234e+000
1	 1.057175804127793e+000	 1.666259511361695e+000	-1.573166057597319e+000
1	 1.038940396148730e+000	 1.677690210766617e+000	-1.694865322764680e+000
1	 1.020604678435454e+000	 1.688907290026054e+000	-1.837570844586317e+000
1	 1.002172341021685e+000	 1.699909554542709e+000	-2.001933139224281e+000
1	 9.836470892636930e-001	 1.710695893279204e+000	-2.188593550800927e+000
1	 9.650326415191733e-001	 1.721265278861435e+000	-2.398183315573907e+000
1	 1.150594630838373e+000	 1.611375075813539e+000	-9.742480050212941e-001
1	 1.132855693370989e+000	 1.623895206380605e+000	-9.957438168409811e-001
1	 1.114997907054446e+000	 1.636208236859930e+000	-1.031545828649201e+000
1	 1.097024862524986e+000	 1.648312553661232e+000	-1.082199173056601e+000
1	 1.078940177448188e+000	 1.660206625359837e+000	-1.148245364668105e+000
1	 1.060747494196473e+000	 1.671889003187328e+000	-1.230221494748237e+000
1	 1.042450477519376e+000	 1.683358321444389e+000	-1.328659435200559e+000
1	 1.024052812209563e+000	 1.694613297835917e+000	-1.444085053420660e+000
1	 1.005558200767583e+000	 1.705652733728614e+000	-1.577017439541751e+000
1	 9.869703610683014e-001	 1.716475514331406e+000	-1.727968147548783e+000
1	 9.682930240319377e-001	 1.727080608799159e+000	-1.897440451690271e+000
1	 1.154468811420629e+000	 1.616800755603675e+000	-6.702116115599938e-001
1	 1.136670144970795e+000	 1.629363042848288e+000	-6.856340389571985e-001
1	 1.118752229494600e+000	 1.641717532676200e+000	-7.113060651615074e-001
1	 1.100718667718322e+000	 1.653862606063951e+000	-7.476135603464421e-001
1	 1.082573089488589e+000	 1.665796726430349e+000	-7.949396944255571e-001
1	 1.064319149442063e+000	 1.677518440128775e+000	-8.536643690617062e-001
1	 1.045960524667862e+000	 1.689026376861413e+000	-9.241636564508531e-001
1	 1.027500912365726e+000	 1.700319250015491e+000	-1.006809245977373e+000
1	 1.008944027502901e+000	 1.711395856921740e+000	-1.101967899809866e+000
1	 9.902936004727182e-001	 1.722255079035423e+000	-1.210000918474685e+000
1	 9.715533747577871e-001	 1.732895882040398e+000	-1.331263617411674e+000
1	 1.158342947448835e+000	 1.622226373001849e+000	-3.451910137152530e-001
1	 1.140484552703679e+000	 1.634830816439122e+000	-3.534980923228234e-001
1	 1.122506508759595e+000	 1.647226765138774e+000	-3.672858887953025e-001
1	 1.104412430432750e+000	 1.659412594644220e+000	-3.867585124410599e-001
1	 1.086205959750667e+000	 1.671386763217806e+000	-4.121185783310224e-001
1	 1.067890763614093e+000	 1.683147812334755e+000	-4.435669078025534e-001
1	 1.049470531451580e+000	 1.694694367098797e+000	-4.813022326326961e-001
1	 1.030948972869787e+000	 1.706025136579531e+000	-5.255209034579660e-001
1	 1.012329815302501e+000	 1.717138914071758e+000	-5.764166030029488e-001
1	 9.936168016613649e-001	 1.728034577277114e+000	-6.341800646633046e-001
1	 9.748136879912218e-001	 1.738711088408478e+000	-6.989987969706875e-001
1	 1.162217032142869e+000	 1.627651918513473e+000	 0.000000000000000e+000
1	 1.144298909894084e+000	 1.640298517584723e+000	 0.000000000000000e+000
1	 1.126260738279148e+000	 1.652735924606690e+000	 0.000000000000000e+000
1	 1.108106144203938e+000	 1.664962509689734e+000	 0.000000000000000e+000
1	 1.089838781876700e+000	 1.676976725939790e+000	 0.000000000000000e+000
1	 1.071462330462093e+000	 1.688777109953985e+000	 0.000000000000000e+000
1	 1.052980491727922e+000	 1.700362282237645e+000	 0.000000000000000e+000
1	 1.034396987687588e+000	 1.711730947542792e+000	 0.000000000000000e+000
1	 1.015715558241244e+000	 1.722881895128340e+000	 0.000000000000000e+000
1	 9.969399588186622e-001	 1.733813998942337e+000	 0.000000000000000e+000
1	 9.780739580267407e-001	 1.744526217726725e+000	 0.000000000000000e+000
1	 9.454699984254019e-001	 1.686372678502719e+000	-4.066200963633241e+000
1	 9.271519130027892e-001	 1.696512822322570e+000	-4.385737505044246e+000
1	 9.087537793314252e-001	 1.706438709573753e+000	-4.737526285486487e+000
1	 8.902792643757620e-001	 1.716149581185522e+000	-5.123909812839841e+000
1	 8.717320388004656e-001	 1.725644759681382e+000	-5.547230073139304e+000
1	 8.531157747611764e-001	 1.734923648915190e+000	-6.009824554328421e+000
1	 8.344341437159466e-001	 1.743985733737606e+000	-6.514022318282608e+000
1	 8.156908142598138e-001	 1.752830579594108e+000	-7.062140128555701e+000
1	 7.968894499849265e-001	 1.761457832055922e+000	-7.656478641054445e+000
1	 7.780337073685373e-001	 1.769867216285273e+000	-8.299318664574900e+000
1	 7.591272336911190e-001	 1.778058536436490e+000	-8.992917497857848e+000
1	 9.487304518441457e-001	 1.692188134909175e+000	-3.943859225877461e+000
1	 9.303491965016513e-001	 1.702363247016608e+000	-4.269789182334949e+000
1	 9.118876168640173e-001	 1.712323363691582e+000	-4.629186775477601e+000
1	 8.933493925412196e-001	 1.722067723245688e+000	-5.024460468490592e+000
1	 8.747382068562042e-001	 1.731595645866144e+000	-5.458018760334319e+000
1	 8.560577446280374e-001	 1.740906533350988e+000	-5.932266075099069e+000
1	 8.373116899757883e-001	 1.749999868774379e+000	-6.449598700234784e+000
1	 8.185037241456409e-001	 1.758875216083226e+000	-7.012400781386254e+000
1	 7.996375233636354e-001	 1.767532219626498e+000	-7.623040381305738e+000
1	 7.807167567163826e-001	 1.775970603618635e+000	-8.283865610040550e+000
1	 7.617450840619970e-001	 1.784190171538584e+000	-8.997200833305335e+000
1	 9.519909077089775e-001	 1.698003595679197e+000	-3.760184606833588e+000
1	 9.335464823992025e-001	 1.708213676100543e+000	-4.084392967222885e+000
1	 9.150214567476976e-001	 1.718208022225071e+000	-4.442312944356726e+000
1	 8.964195230099689e-001	 1.727985869746704e+000	-4.836350503756866e+000
1	 8.777443771672541e-001	 1.737546536516372e+000	-5.268912084653030e+000
1	 8.589997167020532e-001	 1.746889422276294e+000	-5.742400474958465e+000
1	 8.401892383944617e-001	 1.756014008324126e+000	-6.259210734507122e+000
1	 8.213166361418183e-001	 1.764919857108205e+000	-6.821726174326797e+000
1	 8.023855988040649e-001	 1.773606611755243e+000	-7.432314399466920e+000
1	 7.833998080771785e-001	 1.782073995531895e+000	-8.093323422626805e+000
1	 7.643629363969243e-001	 1.790321811241722e+000	-8.807077855538678e+000
1	 9.552513603143963e-001	 1.703819050636108e+000	-3.514471738935276e+000
1	 9.367437651004996e-001	 1.714064099336459e+000	-3.828687545254703e+000
1	 9.181552934985530e-001	 1.724092674876353e+000	-4.175881641122996e+000
1	 8.994896504095808e-001	 1.733904010332052e+000	-4.558389710993179e+000
1	 8.807505444731012e-001	 1.743497421218201e+000	-4.978548234102148e+000
1	 8.619416858350344e-001	 1.752872305221203e+000	-5.438690464397689e+000
1	 8.430667839364915e-001	 1.762028141862217e+000	-5.941142456896928e+000
1	 8.241295453259528e-001	 1.770964492091011e+000	-6.488219148067596e+000
1	 8.051336714972514e-001	 1.779680997812046e+000	-7.082220497576496e+000
1	 7.860828567557172e-001	 1.788177381344190e+000	-7.725427698482801e+000
1	 7.669807861147552e-001	 1.796453444815625e+000	-8.420099462671786e+000
1	 9.585118039549021e-001	 1.709634489603235e+000	-3.206024209406972e+000
1	 9.399410390105990e-001	 1.719914506486441e+000	-3.501822591788788e+000
1	 9.212891216326701e-001	 1.729977311347563e+000	-3.828882809477074e+000
1	 9.025597693676256e-001	 1.739822134645212e+000	-4.189403142188942e+000
1	 8.837567035132306e-001	 1.749448289557761e+000	-4.585582871436603e+000
1	 8.648836468787912e-001	 1.758855171715808e+000	-5.019618484055298e+000
1	 8.459443215664021e-001	 1.768042258864021e+000	-5.493699919122181e+000
1	 8.269424467756527e-001	 1.777009110453612e+000	-6.010006865447600e+000
1	 8.078817366342320e-001	 1.785755367166793e+000	-6.570705116586834e+000
1	 7.887658980567921e-001	 1.794280750374657e+000	-7.177942990069923e+000
1	 7.695986286343436e-001	 1.802585061530013e+000	-7.833847817281259e+000
1	 9.617722329249945e-001	 1.715449902403902e+000	-2.834154397607574e+000
1	 9.431382985345579e-001	 1.725764887312575e+000	-3.102958573360110e+000
1	 9.244229356661369e-001	 1.735861921340835e+000	-3.400319251847890e+000
1	 9.056298745116742e-001	 1.745740232329667e+000	-3.728230834452952e+000
1	 8.867628490271267e-001	 1.755399131121187e+000	-4.088688820051508e+000
1	 8.678255946851337e-001	 1.764838011290203e+000	-4.483686350122683e+000
1	 8.488218462487185e-001	 1.774056348804909e+000	-4.915210793002846e+000
1	 8.297553355685249e-001	 1.783053701617973e+000	-5.385240373829675e+000
1	 8.106297894060444e-001	 1.791829709189373e+000	-5.895740856508082e+000
1	 7.914489272851957e-001	 1.800384091942436e+000	-6.448662283804723e+000
1	 7.722164593745428e-001	 1.808716650654608e+000	-7.045935781434330e+000
1	 9.650326415191733e-001	 1.721265278861435e+000	-2.398183315573907e+000
1	 9.463355380774321e-001	 1.731615231576942e+000	-2.631266552954117e+000
1	 9.275567301150404e-001	 1.741746494558303e+000	-2.889206398064316e+000
1	 9.086999604692969e-001	 1.751658293028898e+000	-3.173727540901445e+000
1	 8.897689757542746e-001	 1.761349935494609e+000	-3.486555756057508e+000
1	 8.707675241058728e-001	 1.770820813474479e+000	-3.829414906730587e+000
1	 8.516993529479655e-001	 1.780070401160249e+000	-4.204023982434842e+000
1	 8.325682067821763e-001	 1.789098255006060e+000	-4.612094176091095e+000
1	 8.133778250037246e-001	 1.797904013249672e+000	-5.055326005997594e+000
1	 7.941319397457213e-001	 1.806487395366663e+000	-5.535406487983041e+000
1	 7.748342737542070e-001	 1.814848201459126e+000	-6.054006362835544e+000
1	 9.682930240319377e-001	 1.727080608799159e+000	-1.897440451690271e+000
1	 9.495327520442785e-001	 1.737465529041629e+000	-2.085927999099303e+000
1	 9.306904994954675e-001	 1.747631020702102e+000	-2.294572078564525e+000
1	 9.117700218680644e-001	 1.757576306386385e+000	-2.524762466825857e+000
1	 8.927750784341609e-001	 1.767300692264160e+000	-2.777889906398252e+000
1	 8.737094299928181e-001	 1.776803567798732e+000	-3.055343685156426e+000
1	 8.545768366286672e-001	 1.786084405405412e+000	-3.358509242976743e+000
1	 8.353810554942143e-001	 1.795142760039838e+000	-3.688765810030597e+000
1	 8.161258386183103e-001	 1.803978268717579e+000	-4.047484081177658e+000
1	 7.968149307431616e-001	 1.812590649966475e+000	-4.436023930748286e+000
1	 7.774520671921896e-001	 1.820979703213290e+000	-4.855732171835677e+000
1	 9.715533747577871e-001	 1.732895882040398e+000	-1.331263617411674e+000
1	 9.527299348401541e-001	 1.743315769468720e+000	-1.466134598690821e+000
1	 9.338242383235065e-001	 1.753515489474366e+000	-1.615456302038257e+000
1	 9.148400533355462e-001	 1.763494262045610e+000	-1.780219011018631e+000
1	 8.957811518062693e-001	 1.773251391015973e+000	-1.961413752869482e+000
1	 8.766513071977804e-001	 1.782786263793054e+000	-2.160030569693569e+000
1	 8.574542922553489e-001	 1.792098351015767e+000	-2.377056808874018e+000
1	 8.381938767822468e-001	 1.801187206141276e+000	-2.613475435997847e+000
1	 8.188738254408385e-001	 1.810052464962980e+000	-2.870263373467985e+000
1	 7.994978955823092e-001	 1.818693845061012e+000	-3.148389867871787e+000
1	 7.800698351073454e-001	 1.827111145186820e+000	-3.448814889051956e+000
1	 9.748136879912218e-001	 1.738711088408478e+000	-6.989987969706875e-001
1	 9.559270808701150e-001	 1.749165942620299e+000	-7.710880734590770e-001
1	 9.369579411152436e-001	 1.759399890577228e+000	-8.509110374009975e-001
1	 9.179100494993139e-001	 1.769412149650055e+000	-9.389945121384373e-001
1	 8.987871906100859e-001	 1.779202021336181e+000	-1.035865741905433e+000
1	 8.795931505725697e-001	 1.788768890987538e+000	-1.142051470032098e+000
1	 8.603317147925348e-001	 1.798112227466683e+000	-1.258077027350451e+000
1	 8.410066657238805e-001	 1.807231582732339e+000	-1.384465432556813e+000
1	 8.216217806623460e-001	 1.816126591355764e+000	-1.521736506226961e+000
1	 8.021808295679572e-001	 1.824796969969410e+000	-1.670406000121857e+000
1	 7.826875729185272e-001	 1.833242516649435e+000	-1.830984743357345e+000
1	 9.780739580267407e-001	 1.744526217726725e+000	 0.000000000000000e+000
1	 9.591241845392182e-001	 1.755016038258451e+000	 0.000000000000000e+000
1	 9.400916023867665e-001	 1.765284213712824e+000	 0.000000000000000e+000
1	 9.209800049869374e-001	 1.775329958843201e+000	 0.000000000000000e+000
1	 9.017931895850956e-001	 1.785152572810915e+000	 0.000000000000000e+000
1	 8.825349549689967e-001	 1.794751438912278e+000	 0.000000000000000e+000
1	 8.632090992047501e-001	 1.804126024233531e+000	 0.000000000000000e+000
1	 8.438194173967226e-001	 1.813275879234992e+000	 0.000000000000000e+000
1	 8.243696994738701e-001	 1.822200637265818e+000	 0.000000000000000e+000
1	 8.048637280048987e-001	 1.830900014010807e+000	 0.000000000000000e+000
1	 7.853052760445892e-001	 1.839373806870855e+000	 0.000000000000000e+000
1	 7.591272336911190e-001	 1.778058536436490e+000	-8.992917497857848e+000
1	 7.401708184701011e-001	 1.786032854945589e+000	-9.742049230209110e+000
1	 7.211709194066933e-001	 1.793788887867156e+000	-1.054568313709335e+001
1	 7.021311465288181e-001	 1.801326673544389e+000	-1.139759889821063e+001
1	 6.830550926306996e-001	 1.808646326353043e+000	-1.229148636828563e+001
1	 6.639463313706804e-001	 1.815748035804697e+000	-1.322095743884797e+001
1	 6.448084154108978e-001	 1.822632065596484e+000	-1.417955781795303e+001
1	 6.256448746004242e-001	 1.829298752609273e+000	-1.516077870595598e+001
1	 6.064592142033819e-001	 1.835748505856337e+000	-1.615806834617654e+001
1	 5.872549131734427e-001	 1.841981805384595e+000	-1.716484343005891e+001
1	 5.680354224760176e-001	 1.847999201130549e+000	-1.817450033724221e+001
1	 7.617450840619970e-001	 1.784190171538584e+000	-8.997200833305335e+000
1	 7.427232976405556e-001	 1.792191989486165e+000	-9.767314983948573e+000
1	 7.236578774226532e-001	 1.799974769088290e+000	-1.059260401184627e+001
1	 7.045524458853989e-001	 1.807538548820397e+000	-1.146682180410713e+001
1	 6.854106082127708e-001	 1.814883443452677e+000	-1.238363297501708e+001
1	 6.662359503868772e-001	 1.822009643150254e+000	-1.333662481584776e+001
1	 6.470320373212150e-001	 1.828917412519633e+000	-1.431931915942812e+001
1	 6.278024110375445e-001	 1.835607089603428e+000	-1.532518413746445e+001
1	 6.085505888878960e-001	 1.842079084825410e+000	-1.634764580933473e+001
1	 5.892800618231178e-001	 1.848333879887951e+000	-1.738009964185945e+001
1	 5.699942927092772e-001	 1.854372026624021e+000	-1.841592182037173e+001
1	 7.643629363969243e-001	 1.790321811241722e+000	-8.807077855538678e+000
1	 7.452757787260289e-001	 1.798351128648356e+000	-9.577313555769942e+000
1	 7.261448373044902e-001	 1.806160654951032e+000	-1.040197307022578e+001
1	 7.069737470586095e-001	 1.813750428757426e+000	-1.127493248216179e+001
1	 6.877661255621314e-001	 1.821120565232174e+000	-1.218998104697650e+001
1	 6.685255711209364e-001	 1.828271255193945e+000	-1.314083294274239e+001
1	 6.492556608998900e-001	 1.835202764158619e+000	-1.412113893489384e+001
1	 6.299599490934508e-001	 1.841915431330562e+000	-1.512449793345555e+001
1	 6.106419651415644e-001	 1.848409668544040e+000	-1.614446842192185e+001
1	 5.913052119922638e-001	 1.854685959156884e+000	-1.717457973766950e+001
1	 5.719531644122837e-001	 1.860744856898537e+000	-1.820834318459782e+001
1	 7.669807861147552e-001	 1.796453444815625e+000	-8.420099462671786e+000
1	 7.478282572597390e-001	 1.804510261653793e+000	-9.169423741495232e+000
1	 7.286317947000455e-001	 1.812346534630249e+000	-9.971021267154832e+000
1	 7.093950458111602e-001	 1.819962302484917e+000	-1.081903675851327e+001
1	 6.901216405565783e-001	 1.827357680776867e+000	-1.170753243686910e+001
1	 6.708151895659436e-001	 1.834532860978315e+000	-1.263049929150244e+001
1	 6.514792822554776e-001	 1.841488109514515e+000	-1.358186826132957e+001
1	 6.321174849923246e-001	 1.848223766751578e+000	-1.455552131196197e+001
1	 6.127333393043349e-001	 1.854740245934267e+000	-1.554530238816739e+001
1	 5.933303601367137e-001	 1.861038032075868e+000	-1.654502822247650e+001
1	 5.739120341568522e-001	 1.867117680802294e+000	-1.754849898145344e+001
1	 7.695986286343436e-001	 1.802585061530013e+000	-7.833847817281259e+000
1	 7.503807287749006e-001	 1.810669377724103e+000	-8.541057721867272e+000
1	 7.311187452571608e-001	 1.818532397300815e+000	-9.297014717705652e+000
1	 7.118163379057592e-001	 1.826174159132310e+000	-1.009627707209143e+001
1	 6.924771490739102e-001	 1.833594779172092e+000	-1.093332676301110e+001
1	 6.731048017149861e-001	 1.840794449545912e+000	-1.180257997557034e+001
1	 6.537028974965337e-001	 1.847773437588392e+000	-1.269839751902103e+001
1	 6.342750149583490e-001	 1.854532084827382e+000	-1.361509514511337e+001
1	 6.148247077161557e-001	 1.861070805918133e+000	-1.454695374915352e+001
1	 5.953555027123004e-001	 1.867390087529377e+000	-1.548822943584699e+001
1	 5.758708985147967e-001	 1.873490487183485e+000	-1.643316343273267e+001
1	 7.722164593745428e-001	 1.808716650654608e+000	-7.045935781434330e+000
1	 7.529331888047300e-001	 1.816828466080916e+000	-7.689660457869930e+000
1	 7.336056846236779e-001	 1.824718232137600e+000	-8.377254058312733e+000
1	 7.142376191051160e-001	 1.832385987829046e+000	-9.103831806964541e+000
1	 6.948326469919245e-001	 1.839831849503180e+000	-9.864440717694684e+000
1	 6.753944035611510e-001	 1.847056009939280e+000	-1.065406903876408e+001
1	 6.559265027316127e-001	 1.854058737381323e+000	-1.146765562516455e+001
1	 6.364325352157069e-001	 1.860840374518883e+000	-1.230009922123993e+001
1	 6.169160667169764e-001	 1.867401337417683e+000	-1.314626763685041e+001
1	 5.973806361748560e-001	 1.873742114401887e+000	-1.400100680096635e+001
1	 5.778297540579321e-001	 1.879863264890306e+000	-1.485914967724485e+001
1	 7.748342737542070e-001	 1.814848201459126e+000	-6.054006362835544e+000
1	 7.554856328824438e-001	 1.822987515945862e+000	-6.612709097946908e+000
1	 7.360926084474382e-001	 1.830904028315475e+000	-7.209073820551239e+000
1	 7.166588851719398e-001	 1.838597777704565e+000	-7.838914637817442e+000
1	 6.971881301884186e-001	 1.846068880855466e+000	-8.497987389151261e+000
1	 6.776839910975245e-001	 1.853317531200967e+000	-9.181997758157891e+000
1	 6.581500940692702e-001	 1.860343997894379e+000	-9.886609321741576e+000
1	 6.385900419885806e-001	 1.867148624786985e+000	-1.060745152146389e+001
1	 6.190074126467443e-001	 1.873731829354958e+000	-1.134012754279241e+001
1	 5.994057569802131e-001	 1.880094101577871e+000	-1.208022208841213e+001
1	 5.797885973580729e-001	 1.886236002770953e+000	-1.282330903234164e+001
1	 7.774520671921896e-001	 1.820979703213290e+000	-4.855732171835676e+000
1	 7.580380565412580e-001	 1.829146516540570e+000	-5.307712396843922e+000
1	 7.385795123762832e-001	 1.837089775009310e+000	-5.789841817193720e+000
1	 7.190801318689393e-001	 1.844809517888308e+000	-6.298773888257157e+000
1	 6.995435945411911e-001	 1.852305862314285e+000	-6.831115596797959e+000
1	 6.799735603171933e-001	 1.859579002373519e+000	-7.383433960614578e+000
1	 6.603736676180615e-001	 1.866629208128634e+000	-7.952262477334640e+000
1	 6.407475315011527e-001	 1.873456824592596e+000	-8.534107510446386e+000
1	 6.210987418454086e-001	 1.880062270652001e+000	-9.125454601058571e+000
1	 6.014308615842045e-001	 1.886446037941803e+000	-9.722774694317984e+000
1	 5.817474249870337e-001	 1.892608689673620e+000	-1.032253026986985e+001
1	 7.800698351073454e-001	 1.827111145186820e+000	-3.448814889051956e+000
1	 7.605904553143884e-001	 1.835305457086669e+000	-3.772210145805993e+000
1	 7.410663920580549e-001	 1.843275461393978e+000	-4.116958540258104e+000
1	 7.215013549588241e-001	 1.851021197509715e+000	-4.480691901649756e+000
1	 7.018990359280389e-001	 1.858542782964969e+000	-4.861009239461458e+000
1	 6.822631072132447e-001	 1.865840412499482e+000	-5.255481352654995e+000
1	 6.625972194865419e-001	 1.872914357085160e+000	-5.661655402561348e+000
1	 6.429049999776058e-001	 1.879764962896621e+000	-6.077059440964182e+000
1	 6.231900506529177e-001	 1.886392650230855e+000	-6.499206885224464e+000
1	 6.034559464426624e-001	 1.892797912378159e+000	-6.925600932597429e+000
1	 5.837062335166292e-001	 1.898981314446504e+000	-7.353738906218821e+000
1	 7.826875729185272e-001	 1.833242516649435e+000	-1.830984743357345e+000
1	 7.631428247350517e-001	 1.841464326805790e+000	-2.003772613870418e+000
1	 7.435532431405945e-001	 1.849461076644348e+000	-2.187856570774116e+000
1	 7.239225502043030e-001	 1.857232805698227e+000	-2.381984424200932e+000
1	 7.042544502267606e-001	 1.864779631892853e+000	-2.584886656280816e+000
1	 6.845526277787646e-001	 1.872101750621401e+000	-2.795278863359308e+000
1	 6.648207457832661e-001	 1.879199433765029e+000	-3.011864178813885e+000
1	 6.450624436421225e-001	 1.886073028659967e+000	-3.233335671994174e+000
1	 6.252813354092197e-001	 1.892722957013562e+000	-3.458378718965918e+000
1	 6.054810080114195e-001	 1.899149713771413e+000	-3.685673340901922e+000
1	 5.856650195186739e-001	 1.905353865937798e+000	-3.913896506136474e+000
1	 7.853052760445892e-001	 1.839373806870855e+000	 0.000000000000000e+000
1	 7.656951603364636e-001	 1.847623114919561e+000	 0.000000000000000e+000
1	 7.460400612717434e-001	 1.855646609935292e+000	 0.000000000000000e+000
1	 7.263437133680853e-001	 1.863444331583285e+000	 0.000000000000000e+000
1	 7.066098333151536e-001	 1.871016398183272e+000	 0.000000000000000e+000
1	 6.868421180068403e-001	 1.878363005781824e+000	 0.000000000000000e+000
1	 6.670442426167896e-001	 1.885484427169312e+000	 0.000000000000000e+000
1	 6.472198587188857e-001	 1.892381010843541e+000	 0.000000000000000e+000
1	 6.273725924542637e-001	 1.899053179922165e+000	 0.000000000000000e+000
1	 6.075060427463085e-001	 1.905501431006039e+000	 0.000000000000000e+000
1	 5.876237795649825e-001	 1.911726332995700e+000	 0.000000000000000e+000
1	 5.680354224760176e-001	 1.847999201130549e+000	-1.817450033724221e+001
1	 5.488041631848251e-001	 1.853801311271564e+000	-1.918206793135449e+001
1	 5.295645241072590e-001	 1.859388819616633e+000	-2.018346762973175e+001
1	 5.103198611286465e-001	 1.864762475731302e+000	-2.117342176010303e+001
1	 4.910734960175067e-001	 1.869923094099526e+000	-2.214665370585993e+001
1	 4.718287150019048e-001	 1.874871552788906e+000	-2.309789624905841e+001
1	 4.525887673990908e-001	 1.879608792083759e+000	-2.402189972700730e+001
1	 4.333568642990193e-001	 1.884135813088218e+000	-2.491343999089973e+001
1	 4.141361773022579e-001	 1.888453676301606e+000	-2.576732615571229e+001
1	 3.949298373126922e-001	 1.892563500168320e+000	-2.657840813136741e+001
1	 3.757409333853378e-001	 1.896466459604412e+000	-2.734158392591656e+001
1	 5.699942927092772e-001	 1.854372026624021e+000	-1.841592182037173e+001
1	 5.506967144176710e-001	 1.860194145342777e+000	-1.944999746833671e+001
1	 5.313907274419987e-001	 1.865800922211313e+000	-2.047779670514196e+001
1	 5.120796992403625e-001	 1.871193109380035e+000	-2.149355251838525e+001
1	 4.927669630364041e-001	 1.876371524141626e+000	-2.249148833447393e+001
1	 4.734558163907506e-001	 1.881337047591688e+000	-2.346582745684525e+001
1	 4.541495198259259e-001	 1.886090623257090e+000	-2.441080231027508e+001
1	 4.348512955053326e-001	 1.890633255694253e+000	-2.532066347775890e+001
1	 4.155643259668068e-001	 1.894966009059619e+000	-2.618968851728670e+001
1	 3.962917529111595e-001	 1.899090005654519e+000	-2.701219054667944e+001
1	 3.770366760460168e-001	 1.903006424446688e+000	-2.778252658550466e+001
1	 5.719531644122837e-001	 1.860744856898537e+000	-1.820834318459782e+001
1	 5.525892670705060e-001	 1.866586984209952e+000	-1.924060220765454e+001
1	 5.332169321469450e-001	 1.872213029616325e+000	-2.026652766254886e+001
1	 5.138395386724857e-001	 1.877623747852923e+000	-2.128009551399243e+001
1	 4.944604313259011e-001	 1.882819959021162e+000	-2.227526391875922e+001
1	 4.750829190003874e-001	 1.887802547244642e+000	-2.324598332386589e+001
1	 4.557102734237521e-001	 1.892572459292788e+000	-2.418620636924045e+001
1	 4.363457278328530e-001	 1.897130703174315e+000	-2.508989758008671e+001
1	 4.169924757028024e-001	 1.901478346702779e+000	-2.595104283503983e+001
1	 3.976536695313452e-001	 1.905616516036455e+000	-2.676365859708353e+001
1	 3.783324196787251e-001	 1.909546394194761e+000	-2.752180089511496e+001
1	 5.739120341568522e-001	 1.867117680802294e+000	-1.754849898145344e+001
1	 5.544818178312048e-001	 1.872979816686288e+000	-1.855063398292543e+001
1	 5.350431350260877e-001	 1.878625130611152e+000	-1.954647178113444e+001
1	 5.155993763451565e-001	 1.884054379897014e+000	-2.052996121449142e+001
1	 4.961538979223014e-001	 1.889268387454018e+000	-2.149502742362709e+001
1	 4.767100199832761e-001	 1.894268040433766e+000	-2.243558217677388e+001
1	 4.572710254611572e-001	 1.899054288848237e+000	-2.334553400388830e+001
1	 4.378401586662455e-001	 1.903628144158436e+000	-2.421879812416304e+001
1	 4.184206240109175e-001	 1.907990677835037e+000	-2.504930615244803e+001
1	 3.990155847898393e-001	 1.912143019893252e+000	-2.583101557100652e+001
1	 3.796281620158599e-001	 1.916086357404184e+000	-2.655791895393413e+001
1	 5.758708985147967e-001	 1.873490487183485e+000	-1.643316343273267e+001
1	 5.563743633876412e-001	 1.879372631584984e+000	-1.737688376265720e+001
1	 5.368693328834177e-001	 1.885037213975278e+000	-1.831447836766271e+001
1	 5.173592091785159e-001	 1.890484994259351e+000	-1.924009647109308e+001
1	 4.978473598619105e-001	 1.895716798156078e+000	-2.014786005258241e+001
1	 4.783371164918770e-001	 1.900733515845056e+000	-2.103187397032740e+001
1	 4.588317732067284e-001	 1.905536100580816e+000	-2.188623590218952e+001
1	 4.393345853901752e-001	 1.910125567276648e+000	-2.270504609039881e+001
1	 4.198487683918245e-001	 1.914502991060339e+000	-2.348241687548213e+001
1	 4.003774963032317e-001	 1.918669505804034e+000	-2.421248200591269e+001
1	 3.809239007898188e-001	 1.922626302630512e+000	-2.488940571085769e+001
1	 5.778297540579321e-001	 1.879863264890306e+000	-1.485914967724485e+001
1	 5.582669004276902e-001	 1.885765417719239e+000	-1.571618090100106e+001
1	 5.386955225229247e-001	 1.891449268488184e+000	-1.656743402095258e+001
1	 5.191190340927049e-001	 1.896915579686979e+000	-1.740748380601290e+001
1	 4.995408141810325e-001	 1.902165179843225e+000	-1.823087656657181e+001
1	 4.799642056786503e-001	 1.907198962164509e+000	-1.903213964577017e+001
1	 4.603925139290531e-001	 1.912017883147906e+000	-1.980579074548916e+001
1	 4.408290053893068e-001	 1.916622961158985e+000	-2.054634707264330e+001
1	 4.212769063461959e-001	 1.921015274982634e+000	-2.124833429216899e+001
1	 4.017394016881121e-001	 1.925195962347924e+000	-2.190629527389440e+001
1	 3.822196337329991e-001	 1.929166218429299e+000	-2.251479862131800e+001
1	 5.797885973580729e-001	 1.886236002770953e+000	-1.282330903234164e+001
1	 5.601594256392255e-001	 1.892158163902251e+000	-1.356539240318672e+001
1	 5.405217007485995e-001	 1.897861282929353e+000	-1.430226191075535e+001
1	 5.208788480078644e-001	 1.903346124926945e+000	-1.502914071377290e+001
1	 5.012342579159722e-001	 1.908613521231345e+000	-1.574122461614717e+001
1	 4.815912846960570e-001	 1.913664368078124e+000	-1.643369050173600e+001
1	 4.619532448967190e-001	 1.918499625206889e+000	-1.710170462547897e+001
1	 4.423234160483053e-001	 1.923120314435479e+000	-1.774043074799785e+001
1	 4.227050353747044e-001	 1.927527518205872e+000	-1.834503810146567e+001
1	 4.031012985610707e-001	 1.931722378104048e+000	-1.891070917526767e+001
1	 3.835153585777980e-001	 1.935706093356100e+000	-1.943264731070318e+001
1	 5.817474249870337e-001	 1.892608689673620e+000	-1.032253026986985e+001
1	 5.620519357101217e-001	 1.898550858947220e+000	-1.092142220530177e+001
1	 5.423478643644321e-001	 1.904273246078267e+000	-1.151592107070028e+001
1	 5.226386478441351e-001	 1.909776618726293e+000	-1.210211897612236e+001
1	 5.029276881030343e-001	 1.915061811036321e+000	-1.267608408662895e+001
1	 4.832183506965573e-001	 1.920129722271896e+000	-1.323386757738176e+001
1	 4.635139633783135e-001	 1.924981315415146e+000	-1.377151047248877e+001
1	 4.438178147518359e-001	 1.929617615736164e+000	-1.428505035690000e+001
1	 4.241331529780221e-001	 1.934039709333999e+000	-1.477052795123124e+001
1	 4.044631845386975e-001	 1.938248741651527e+000	-1.522399353998112e+001
1	 3.848110730566132e-001	 1.942245915966469e+000	-1.564151324420573e+001
1	 5.837062335166292e-001	 1.898981314446504e+000	-7.353738906218821e+000
1	 5.639444273282532e-001	 1.904943491667344e+000	-7.781210468078132e+000
1	 5.441740101744128e-001	 1.910685146714410e+000	-8.205405704983647e+000
1	 5.243984305216576e-001	 1.916207049832067e+000	-8.623503990262387e+000
1	 5.046211017785232e-001	 1.921510037974037e+000	-9.032666455972183e+000
1	 4.848454008326115e-001	 1.926595013431823e+000	-9.430041047472026e+000
1	 4.650746666424240e-001	 1.931462942430058e+000	-9.812767494826737e+000
1	 4.453121988845631e-001	 1.936114853691072e+000	-1.017798219323569e+001
1	 4.255612566568218e-001	 1.940551836970967e+000	-1.052282298508490e+001
1	 4.058250572375821e-001	 1.944775041569487e+000	-1.084443383665721e+001
1	 3.861067749018419e-001	 1.948785674815963e+000	-1.113996940295675e+001
1	 5.856650195186739e-001	 1.905353865937798e+000	-3.913896506136474e+000
1	 5.658368971814944e-001	 1.911336050875822e+000	-4.141732884369711e+000
1	 5.460001349825319e-001	 1.917096973617263e+000	-4.367744508485147e+000
1	 5.261581929605731e-001	 1.922637406991314e+000	-4.590414110066946e+000
1	 5.063144959787436e-001	 1.927958190760378e+000	-4.808214165040367e+000
1	 4.864724322566803e-001	 1.933060230243902e+000	-5.019609629131502e+000
1	 4.666353519576381e-001	 1.937944494909006e+000	-5.223060628920289e+000
1	 4.468065658311524e-001	 1.942612016930235e+000	-5.417025104245599e+000
1	 4.269893439117758e-001	 1.947063889720721e+000	-5.599961397937467e+000
1	 4.071869142743147e-001	 1.951301266437051e+000	-5.770330789086386e+000
1	 3.874024618458815e-001	 1.955325358460134e+000	-5.926599966290978e+000
1	 5.876237795649825e-001	 1.911726332995700e+000	 0.000000000000000e+000
1	 5.677293419577194e-001	 1.917728525385851e+000	 0.000000000000000e+000
1	 5.478262355927797e-001	 1.923508715566310e+000	 0.000000000000000e+000
1	 5.279179320810222e-001	 1.929067678951077e+000	 0.000000000000000e+000
1	 5.080078677400003e-001	 1.934406258111227e+000	 0.000000000000000e+000
1	 4.880994421212242e-001	 1.939525361394130e+000	 0.000000000000000e+000
1	 4.681960165925433e-001	 1.944425961509372e+000	 0.000000000000000e+000
1	 4.483009129762685e-001	 1.949109094083688e+000	 0.000000000000000e+000
1	 4.284174122435568e-001	 1.953575856187211e+000	 0.000000000000000e+000
1	 4.085487532654853e-001	 1.957827404833344e+000	 0.000000000000000e+000
1	 3.886981316211295e-001	 1.961864955454538e+000	 0.000000000000000e+000
1	 3.757409333853378e-001	 1.896466459604412e+000	-2.734158392591656e+001
1	 3.565753843284157e-001	 1.900163245559079e+000	-2.804853455656333e+001
1	 3.374333077030549e-001	 1.903655743049810e+000	-2.869444411090940e+001
1	 3.183176550561437e-001	 1.906945288345930e+000	-2.927927731394563e+001
1	 2.992313321576309e-001	 1.910033268048593e+000	-2.980313474923743e+001
1	 2.801771981265868e-001	 1.912921117535318e+000	-3.026624982182700e+001
1	 2.611580646121947e-001	 1.915610319394058e+000	-3.066898559241119e+001
1	 2.421766950293987e-001	 1.918102401848856e+000	-3.101183149207570e+001
1	 2.232358038488350e-001	 1.920398937179060e+000	-3.129539992684123e+001
1	 2.043380559406117e-001	 1.922501540134042e+000	-3.152042278124581e+001
1	 1.854860659714354e-001	 1.924411866345337e+000	-3.168774783011837e+001
1	 3.770366760460168e-001	 1.903006424446688e+000	-2.778252658550466e+001
1	 3.578050345906110e-001	 1.906715958768053e+000	-2.849270091643771e+001
1	 3.385969465114715e-001	 1.910220500136607e+000	-2.913901257224455e+001
1	 3.194153735338842e-001	 1.913521389429823e+000	-2.972209084171895e+001
1	 3.002632314483341e-001	 1.916620018030578e+000	-3.024272975585452e+001
1	 2.811433892335524e-001	 1.919517826266315e+000	-3.070188324231438e+001
1	 2.620586682346835e-001	 1.922216301837717e+000	-3.110066015262446e+001
1	 2.430118413962970e-001	 1.924716978238935e+000	-3.144031917475902e+001
1	 2.240056325498701e-001	 1.927021433171347e+000	-3.172226364367462e+001
1	 2.050427157553048e-001	 1.929131286952813e+000	-3.194803626217185e+001
1	 1.861257146959756e-001	 1.931048200924337e+000	-3.211931374429054e+001
1	 3.783324196787251e-001	 1.909546394194761e+000	-2.752180089511496e+001
1	 3.590346857752014e-001	 1.913268676892355e+000	-2.821815030795047e+001
1	 3.397605861927039e-001	 1.916785262147738e+000	-2.885021690065815e+001
1	 3.205130928349259e-001	 1.920097495446545e+000	-2.941914822835661e+001
1	 3.012951315128967e-001	 1.923206772953377e+000	-2.992627417660646e+001
1	 2.821095810650167e-001	 1.926114539945610e+000	-3.037310081624220e+001
1	 2.629592725323994e-001	 1.928822289236666e+000	-3.076130413683661e+001
1	 2.438469883892480e-001	 1.931331559590807e+000	-3.109272367378065e+001
1	 2.247754618278889e-001	 1.933643934131447e+000	-3.136935604374776e+001
1	 2.057473760980255e-001	 1.935761038744943e+000	-3.159334840305845e+001
1	 1.867653638997075e-001	 1.937684540481774e+000	-3.176699184318571e+001
1	 3.796281620158599e-001	 1.916086357404184e+000	-2.655791895393413e+001
1	 3.602643357302445e-001	 1.919821388465220e+000	-2.722365757527204e+001
1	 3.409242247103262e-001	 1.923350017595366e+000	-2.782698290104905e+001
1	 3.216108110381968e-001	 1.926673594888409e+000	-2.836941627465187e+001
1	 3.023270305454236e-001	 1.929793521290676e+000	-2.885266773120909e+001
1	 2.830757719300686e-001	 1.932711247029466e+000	-2.927862905860460e+001
1	 2.638598759292085e-001	 1.935428270030935e+000	-2.964936674747921e+001
1	 2.446821345466725e-001	 1.937946134329452e+000	-2.996711484643558e+001
1	 2.255452903356299e-001	 1.940266428470466e+000	-3.023426773837480e+001
1	 2.064520357355792e-001	 1.942390783908820e+000	-3.045337285357608e+001
1	 1.874050124632389e-001	 1.944320873404466e+000	-3.062712333479398e+001
1	 3.809239007898188e-001	 1.922626302630512e+000	-2.488940571085769e+001
1	 3.614939823037994e-001	 1.926374082019887e+000	-2.550800666277729e+001
1	 3.420878600279120e-001	 1.929914754991651e+000	-2.606824327232178e+001
1	 3.227085262226244e-001	 1.933249676247730e+000	-2.657186798632523e+001
1	 3.033589267400189e-001	 1.936380251516154e+000	-2.702081714512078e+001
1	 2.840419601377973e-001	 1.939307935974137e+000	-2.741720375261457e+001
1	 2.647604768489766e-001	 1.942034232660551e+000	-2.776331015014816e+001
1	 2.455172784069913e-001	 1.944560690879855e+000	-2.806158061050387e+001
1	 2.263151167258319e-001	 1.946888904599510e+000	-2.831461386808989e+001
1	 2.071566934347713e-001	 1.949020510842834e+000	-2.852515560098589e+001
1	 1.880446592671768e-001	 1.950957188079231e+000	-2.869609088015468e+001
1	 3.822196337329991e-001	 1.929166218429299e+000	-2.251479862131800e+001
1	 3.627236233439242e-001	 1.932926746089595e+000	-2.306999033248892e+001
1	 3.432514901090351e-001	 1.936479462848755e+000	-2.357293735966417e+001
1	 3.238062364671366e-001	 1.939825728016818e+000	-2.402548233577886e+001
1	 3.043908182907874e-001	 1.942966952103496e+000	-2.442963589584236e+001
1	 2.850081439972916e-001	 1.945904595235886e+000	-2.478756965607093e+001
1	 2.656610737155696e-001	 1.948640165565544e+000	-2.510160911602890e+001
1	 2.463524185086248e-001	 1.951175217666995e+000	-2.537422649919798e+001
1	 2.270849396512333e-001	 1.953511350929684e+000	-2.560803354707151e+001
1	 2.078613479624075e-001	 1.955650207945372e+000	-2.580577428150052e+001
1	 1.886843031921287e-001	 1.957593472892883e+000	-2.597031774962760e+001
1	 3.835153585777980e-001	 1.935706093356100e+000	-1.943264731070318e+001
1	 3.639532566986776e-001	 1.939479369207581e+000	-1.990840988690633e+001
1	 3.444151129172693e-001	 1.943044129678839e+000	-2.034001091151859e+001
1	 3.249039398506607e-001	 1.946401738687988e+000	-2.072924402834799e+001
1	 3.054227033918336e-001	 1.949553611526385e+000	-2.107804396401889e+001
1	 2.859743218176406e-001	 1.952501213270967e+000	-2.138848021331880e+001
1	 2.665616649528536e-001	 1.955246057185943e+000	-2.166275067117593e+001
1	 2.471875533899939e-001	 1.957789703115855e+000	-2.190317522469228e+001
1	 2.278547577645728e-001	 1.960133755872095e+000	-2.211218931833573e+001
1	 2.085659980852930e-001	 1.962279863614822e+000	-2.229233750504460e+001
1	 1.893239431187017e-001	 1.964229716232240e+000	-2.244626699563145e+001
1	 3.848110730566132e-001	 1.942245915966469e+000	-1.564151324420573e+001
1	 3.651828802161178e-001	 1.946031939907083e+000	-1.602207489709176e+001
1	 3.455787264161885e-001	 1.949608743994064e+000	-1.636841584113173e+001
1	 3.260016344521249e-001	 1.952977696753554e+000	-1.668214327294735e+001
1	 3.064545802372619e-001	 1.956140218258500e+000	-1.696496758923260e+001
1	 2.869404919079331e-001	 1.959097778535641e+000	-1.721869727266742e+001
1	 2.674622489846945e-001	 1.961851895961775e+000	-1.744523375248316e+001
1	 2.480226815895191e-001	 1.964404135651418e+000	-1.764656625003347e+001
1	 2.286245697185891e-001	 1.966756107837849e+000	-1.782476661944209e+001
1	 2.092706425702335e-001	 1.968909466249573e+000	-1.798198419309968e+001
1	 1.899635779275033e-001	 1.970865906484120e+000	-1.812044064145805e+001
1	 3.861067749018419e-001	 1.948785674815963e+000	-1.113996940295675e+001
1	 3.664124917443031e-001	 1.952584446721340e+000	-1.140980293588871e+001
1	 3.467423285693665e-001	 1.956173294306592e+000	-1.165710999257693e+001
1	 3.270993183504568e-001	 1.959553590705827e+000	-1.188317555700774e+001
1	 3.074864470211771e-001	 1.962726760773528e+000	-1.208933903036966e+001
1	 2.879066525772582e-001	 1.965694279486164e+000	-1.227699080913519e+001
1	 2.683628242349583e-001	 1.968457670333070e+000	-1.244756887018940e+001
1	 2.488578016456213e-001	 1.971018503698664e+000	-1.260255536923393e+001
1	 2.293943741660206e-001	 1.973378395238052e+000	-1.274347325846788e+001
1	 2.099752801840343e-001	 1.975539004248015e+000	-1.287188292932526e+001
1	 1.906032064991407e-001	 1.977502032035339e+000	-1.298937888579805e+001
1	 3.874024618458815e-001	 1.955325358460134e+000	-5.926599966290978e+000
1	 3.676420891312922e-001	 1.959136878183590e+000	-6.070419316151231e+000
1	 3.479059173403771e-001	 1.962737769128583e+000	-6.205056911137654e+000
1	 3.281969896245841e-001	 1.966129409037122e+000	-6.331341425593511e+000
1	 3.085183019376836e-001	 1.969313227545150e+000	-6.450096330457159e+000
1	 2.888728021347050e-001	 1.972290704578797e+000	-6.562138652398226e+000
1	 2.692633891275109e-001	 1.975063368739857e+000	-6.668277776760543e+000
1	 2.496929120967210e-001	 1.977632795682577e+000	-6.769314295355639e+000
1	 2.301641697596060e-001	 1.980000606483809e+000	-6.866038900014025e+000
1	 2.106799096935010e-001	 1.982168466008534e+000	-6.959231322667217e+000
1	 1.912428277142213e-001	 1.984138081272714e+000	-7.049659322604490e+000
1	 3.886981316211295e-001	 1.961864955454538e+000	 0.000000000000000e+000
1	 3.688716702251434e-001	 1.965689222827072e+000	-2.756833863463078e-003
1	 3.490694906927941e-001	 1.969302156972200e+000	-1.122561795286146e-002
1	 3.292946463534344e-001	 1.972705140239751e+000	-2.564626460985557e-002
1	 3.095501431808860e-001	 1.975899607047047e+000	-4.618308586010678e-002
1	 2.898389388893622e-001	 1.978887042269796e+000	-7.292621981654955e-002
1	 2.701639420862184e-001	 1.981668979622164e+000	-1.058931420023947e-001
1	 2.505280114812389e-001	 1.984247000028137e+000	-1.450302563992880e-001
1	 2.309339551520840e-001	 1.986622729986227e+000	-1.902145610024704e-001
1	 2.113845298654391e-001	 1.988797839929521e+000	-2.412553826562251e-001
1	 1.918824404533524e-001	 1.990774042583062e+000	-2.978961759487558e-001
1	 1.854860659714354e-001	 1.924411866345337e+000	-3.168774783011837e+001
1	 1.666795873163122e-001	 1.926131854578701e+000	-3.179789886133673e+001
1	 1.479239976651079e-001	 1.927662937623752e+000	-3.184608166351199e+001
1	 1.292217968681999e-001	 1.929006885470733e+000	-3.182506576211849e+001
1	 1.105754314834638e-001	 1.930165502693479e+000	-3.172730580433228e+001
1	 9.198729443641961e-002	 1.931140626858904e+000	-3.154496194828791e+001
1	 7.345972473058783e-002	 1.931934126944898e+000	-3.126992013982675e+001
1	 5.499500720709370e-002	 1.932547901768176e+000	-3.089381224320702e+001
1	 3.659537235251258e-002	 1.932983878423570e+000	-3.040803599373066e+001
1	 1.826299615391188e-002	 1.933244010736185e+000	-2.980377474175958e+001
1	 0.000000000000000e+000	 1.933330277727777e+000	-2.907201695911923e+001
1	 1.861257146959756e-001	 1.931048200924337e+000	-3.211931374429054e+001
1	 1.672543818963985e-001	 1.932774120537524e+000	-3.223446160110456e+001
1	 1.484341135914299e-001	 1.934310483522944e+000	-3.228624609613950e+001
1	 1.296674182522143e-001	 1.935659065974620e+000	-3.226775885902660e+001
1	 1.109567508736156e-001	 1.936821678689428e+000	-3.217164564058155e+001
1	 9.230451263318920e-002	 1.937800165571101e+000	-3.199012992478567e+001
1	 7.371305060054152e-002	 1.938596402042668e+000	-3.171503653527622e+001
1	 5.518465749610375e-002	 1.939212293468885e+000	-3.133781519337201e+001
1	 3.672157149831509e-002	 1.939649773590140e+000	-3.084956398626785e+001
1	 1.832597609816476e-002	 1.939910802969275e+000	-3.024105270567050e+001
1	 0.000000000000000e+000	 1.939997367452674e+000	-2.950274601885182e+001
1	 1.867653638997075e-001	 1.937684540481774e+000	-3.176699184318571e+001
1	 1.678291769069630e-001	 1.939416391479403e+000	-3.188574586773378e+001
1	 1.489442298996582e-001	 1.940958034409341e+000	-3.193936310103967e+001
1	 1.301130399697185e-001	 1.942311251469391e+000	-3.192133355225686e+001
1	 1.113380705490088e-001	 1.943477859679464e+000	-3.182461824627826e+001
1	 9.262173106713363e-002	 1.944459709280108e+000	-3.164167459463232e+001
1	 7.396637665979752e-002	 1.945258682139485e+000	-3.136448183754780e+001
1	 5.537430792675029e-002	 1.945876690170387e+000	-3.098456650843055e+001
1	 3.684777073830714e-002	 1.946315673758754e+000	-3.049302787365748e+001
1	 1.838895608939113e-002	 1.946577600205162e+000	-2.988056330229482e+001
1	 0.000000000000000e+000	 1.946664462180621e+000	-2.913749352211972e+001
1	 1.874050124632389e-001	 1.944320873404466e+000	-3.062712333479398e+001
1	 1.684039713421517e-001	 1.946058655780712e+000	-3.074760040160527e+001
1	 1.494543456971769e-001	 1.947605578650012e+000	-3.080124163640454e+001
1	 1.305586612410129e-001	 1.948963430313925e+000	-3.078200929690123e+001
1	 1.117193898425177e-001	 1.950134034015393e+000	-3.068330113305046e+001
1	 9.293894918333731e-002	 1.951119246331762e+000	-3.049797606194097e+001
1	 7.421970246526738e-002	 1.951920955576322e+000	-3.021837996027310e+001
1	 5.556395816736891e-002	 1.952541080209884e+000	-2.983637152354588e+001
1	 3.697396985182630e-002	 1.952981567263934e+000	-2.934334814270931e+001
1	 1.845193601748944e-002	 1.953244390776765e+000	-2.873027175072652e+001
1	 0.000000000000000e+000	 1.953331550244001e+000	-2.798769459325488e+001
1	 1.880446592671768e-001	 1.950957188079231e+000	-2.869609088015468e+001
1	 1.689787641961108e-001	 1.952700901817834e+000	-2.881592206888612e+001
1	 1.499644600913704e-001	 1.954253104612022e+000	-2.886773930551211e+001
1	 1.310042812863981e-001	 1.955615590867102e+000	-2.884604859256582e+001
1	 1.121007080870163e-001	 1.956790190049017e+000	-2.874480317491990e+001
1	 9.325616642688482e-002	 1.957778765071903e+000	-2.855742807248248e+001
1	 7.447302757386264e-002	 1.958583210694152e+000	-2.827684474680087e+001
1	 5.575360788629531e-002	 1.959205451924581e+000	-2.789549585220227e+001
1	 3.710016861821008e-002	 1.959647442440198e+000	-2.740537002364426e+001
1	 1.851491577235813e-002	 1.959911163016998e+000	-2.679802665504399e+001
1	 0.000000000000000e+000	 1.959998619975199e+000	-2.606462062353220e+001
1	 1.886843031921287e-001	 1.957593472892883e+000	-2.597031774962760e+001
1	 1.695535544629862e-001	 1.959343117967145e+000	-2.608665490422385e+001
1	 1.504745721896229e-001	 1.960900600662440e+000	-2.613476139025281e+001
1	 1.314498993261746e-001	 1.962267721487796e+000	-2.610975611159100e+001
1	 1.124820246153789e-001	 1.963446316132141e+000	-2.600626393444703e+001
1	 9.357338224286063e-002	 1.964438253846369e+000	-2.581843764028911e+001
1	 7.472635154249487e-002	 1.965245435833950e+000	-2.553997999902697e+001
1	 5.594325675186510e-002	 1.965869793651682e+000	-2.516416591819656e+001
1	 3.722636681679602e-002	 1.966313287622068e+000	-2.468386462528747e+001
1	 1.857789524389567e-002	 1.966577905258778e+000	-2.409156184178568e+001
1	 0.000000000000000e+000	 1.966665659706596e+000	-2.337938190899292e+001
1	 1.893239431187017e-001	 1.964229716232240e+000	-2.244626699563145e+001
1	 1.701283411369239e-001	 1.965985292605024e+000	-2.255578917214809e+001
1	 1.509846810993186e-001	 1.967548055168333e+000	-2.259825990354943e+001
1	 1.318955145806430e-001	 1.968919810534888e+000	-2.256947784429308e+001
1	 1.128633387604796e-001	 1.970102400616570e+000	-2.246485300198054e+001
1	 9.389059607634927e-002	 1.971097701000996e+000	-2.227942468141920e+001
1	 7.497967392807554e-002	 1.971907619336689e+000	-2.200787950543093e+001
1	 5.613290443241391e-002	 1.972534093728390e+000	-2.164456947688417e+001
1	 3.735256422692166e-002	 1.972979091144063e+000	-2.118353004758690e+001
1	 1.864087432200049e-002	 1.973244605835021e+000	-2.061849816086286e+001
1	 0.000000000000000e+000	 1.973332657770577e+000	-1.994293023587900e+001
1	 1.899635779275033e-001	 1.970865906484120e+000	-1.812044064145805e+001
1	 1.707031232120701e-001	 1.972627414107849e+000	-1.821936044674795e+001
1	 1.514947859278417e-001	 1.974195456496769e+000	-1.825423266022498e+001
1	 1.323411262701038e-001	 1.975571846367256e+000	-1.822160026082107e+001
1	 1.132446498551925e-001	 1.976758431854105e+000	-1.811776934770347e+001
1	 9.420780737243523e-002	 1.977757094881625e+000	-1.793882165471405e+001
1	 7.523299428751630e-002	 1.978569749543343e+000	-1.768062706832994e+001
1	 5.632255059627736e-002	 1.979198340491909e+000	-1.733885612592362e+001
1	 3.747876062792453e-002	 1.979644841340705e+000	-1.690899247197374e+001
1	 1.870385289657105e-002	 1.979911253078644e+000	-1.638634525074765e+001
1	 0.000000000000000e+000	 1.979999602499524e+000	-1.576606141487897e+001
1	 1.906032064991407e-001	 1.977502032035339e+000	-1.298937888579805e+001
1	 1.712778996825707e-001	 1.979269470851999e+000	-1.307344870919902e+001
1	 1.520048857825763e-001	 1.980842793014815e+000	-1.309872236589301e+001
1	 1.327867336148576e-001	 1.982223817343778e+000	-1.306254948925216e+001
1	 1.136259572323918e-001	 1.983414398196552e+000	-1.296224068617452e+001
1	 9.452501557620298e-002	 1.984416423834092e+000	-1.279507320937671e+001
1	 7.548631217772864e-002	 1.985231814794886e+000	-1.255829653036493e+001
1	 5.651219491179111e-002	 1.985862522279442e+000	-1.224913780575016e+001
1	 3.760495579914217e-002	 1.986310526546513e+000	-1.186480723006857e+001
1	 1.876683085750579e-002	 1.986577835322561e+000	-1.140250326874804e+001
1	 0.000000000000000e+000	 1.986666482225822e+000	-1.085941776535006e+001
1	 1.912428277142213e-001	 1.984138081272714e+000	-7.049659322604490e+000
1	 1.718526695425717e-001	 1.985911451213851e+000	-7.114177462725601e+000
1	 1.525149797709069e-001	 1.987490053089539e+000	-7.127815723457858e+000
1	 1.332323358352050e-001	 1.988875711823331e+000	-7.088790509542654e+000
1	 1.140072602249516e-001	 1.990070287995715e+000	-6.995522853077520e+000
1	 9.484222013273704e-002	 1.991075676204236e+000	-6.846635839217136e+000
1	 7.573962715562410e-002	 1.991893803432292e+000	-6.640951800230594e+000
1	 5.670183704729077e-002	 1.992526627428193e+000	-6.377489290015327e+000
1	 3.773114951991211e-002	 1.992976135096009e+000	-6.055459851221593e+000
1	 1.882980809470318e-002	 1.993244340899691e+000	-5.674264587160513e+000
1	 0.000000000000000e+000	 1.993333285281853e+000	-5.233490550658286e+000
1	 1.918824404533524e-001	 1.990774042583062e+000	-2.978961759487558e-001
1	 1.724274317862193e-001	 1.992553343569785e+000	-3.377128646030732e-001
1	 1.530250670002175e-001	 1.994137225088007e+000	-3.376425568093593e-001
1	 1.336779321514465e-001	 1.995527518164795e+000	-2.968263629735162e-001
1	 1.143885581657461e-001	 1.996726089603397e+000	-2.148991938950926e-001
1	 9.515942048712194e-002	 1.997734840337895e+000	-9.197754340274086e-002
1	 7.599293877811425e-002	 1.998555703796535e+000	 7.135312234006555e-002
1	 5.689147667111200e-002	 1.999190644275366e+000	 2.740513337921989e-001
1	 3.785734156957191e-002	 1.999641655323712e+000	 5.146329106360894e-001
1	 1.889278449806165e-002	 1.999910758142949e+000	 7.911845439241825e-001
1	 0.000000000000000e+000	 2.000000000000000e+000	 1.101377634259672e+000
