label=Stress xy
num_items=45

0:-6.5998687845373700e-03
1:5.3780553494978149e-03
2:8.2666752355003564e-03
3:-2.7218496677043839e-02
4:-8.9660167686255107e-03
5:3.5979453226500690e-03
6:-2.2362205736825166e-02
7:-9.9507916652937026e-03
8:1.7289101998340840e-04
9:0.0000000000000000e+00
10:0.0000000000000000e+00
11:0.0000000000000000e+00
12:0.0000000000000000e+00
13:0.0000000000000000e+00
14:0.0000000000000000e+00
15:0.0000000000000000e+00
16:0.0000000000000000e+00
17:0.0000000000000000e+00
18:0.0000000000000000e+00
19:0.0000000000000000e+00
20:0.0000000000000000e+00
21:0.0000000000000000e+00
22:0.0000000000000000e+00
23:0.0000000000000000e+00
24:0.0000000000000000e+00
25:0.0000000000000000e+00
26:0.0000000000000000e+00
27:0.0000000000000000e+00
28:0.0000000000000000e+00
29:0.0000000000000000e+00
30:0.0000000000000000e+00
31:0.0000000000000000e+00
32:0.0000000000000000e+00
33:0.0000000000000000e+00
34:0.0000000000000000e+00
35:0.0000000000000000e+00
36:0.0000000000000000e+00
37:0.0000000000000000e+00
38:0.0000000000000000e+00
39:0.0000000000000000e+00
40:0.0000000000000000e+00
41:0.0000000000000000e+00
42:0.0000000000000000e+00
43:0.0000000000000000e+00
44:0.0000000000000000e+00
