label=Stress xy
num_items=576

0:8.2237984049587496e+00
1:1.2229277925228255e+00
2:1.7825418899071379e+00
3:9.5559698543746503e+00
4:5.2181977738745404e+00
5:6.4471215853933375e+00
6:1.0976516723087075e+01
7:9.2348658384857600e+00
8:1.1066122028101928e+01
9:2.4750112623002321e+00
10:1.1322196943112910e+00
11:2.4500579904298343e+00
12:6.7658254293980518e+00
13:4.9693990874316629e+00
14:6.1637851576067701e+00
15:1.1001413421452483e+01
16:8.7851780735090284e+00
17:9.8899376857415415e+00
18:2.2910495786409024e+00
19:6.9065319521452451e-01
20:2.1596769631289336e+00
21:6.0370063267768321e+00
22:4.4046101401208491e+00
23:5.7594078837299847e+00
24:9.8018035209621583e+00
25:8.1256271495769958e+00
26:9.3544184873824339e+00
27:2.2168090786759409e+00
28:7.3046934489789939e-01
29:1.9825645976255177e+00
30:5.7300930628167848e+00
31:4.1258623104456493e+00
32:5.2784714834264621e+00
33:9.2364287332553534e+00
34:7.5184308515005123e+00
35:8.5756778339435140e+00
36:1.9985980914771773e+00
37:6.5960543095444635e-01
38:1.8390679172914093e+00
39:5.2382757602923711e+00
40:3.7924288221332092e+00
41:4.8631334060919746e+00
42:8.4801117234513690e+00
43:6.9262379793100264e+00
44:7.8870121325441813e+00
45:1.8550444513514286e+00
46:5.9864062888470571e-01
47:1.6564392355087887e+00
48:4.8174202937989463e+00
49:3.4582778275853157e+00
50:4.4122078481782374e+00
51:7.7793243008599591e+00
52:6.3176360681169594e+00
53:7.1678903798967371e+00
54:1.6781037591846459e+00
55:5.4585150581565323e-01
56:1.4971212133111089e+00
57:4.3720327102017009e+00
58:3.1325448184275628e+00
59:3.9776290597885735e+00
60:7.0659489191468445e+00
61:5.7192845401852974e+00
62:6.4582424666311793e+00
63:1.5147515196196615e+00
64:4.8590282167260135e-01
65:1.3265311808159930e+00
66:3.9342370260014858e+00
67:2.8008107196528242e+00
68:3.5362690160427173e+00
69:6.3538205721976535e+00
70:5.1157316619122355e+00
71:5.7459349000123963e+00
72:1.3462624353586250e+00
73:4.2994215984815121e-01
74:1.1607924730511199e+00
75:3.4944239083012363e+00
76:2.4722379056966171e+00
77:3.0975144198763518e+00
78:5.6425062547647915e+00
79:4.5145148630186922e+00
80:5.0342779161250775e+00
81:1.1795399431693276e+00
82:3.7203865156199001e-01
83:9.9315316945353116e-01
84:3.0549838427347265e+00
85:2.1421761785457294e+00
86:2.6578135505415936e+00
87:4.9304760766830107e+00
88:3.9123250184054728e+00
89:4.3224482230001566e+00
90:1.0124358643079923e+00
91:3.1522847963705303e-01
92:8.2609732396143887e-01
93:2.6156255428013697e+00
94:1.8128922167908179e+00
95:2.2184368815504065e+00
96:4.2187870807675605e+00
97:3.3105564777125909e+00
98:3.6108056272011835e+00
99:8.4480459141378361e-01
100:2.5723814189726468e-01
101:6.5933493880077076e-01
102:2.1759219411947583e+00
103:1.4828897105867433e+00
104:1.7791022634802423e+00
105:3.5070632567558020e+00
106:2.7085186344196348e+00
107:2.8988003326593637e+00
108:6.7916485019736683e-01
109:2.0145201488208642e-01
110:4.9068827886400435e-01
111:1.7371879333223372e+00
112:1.1540433666877847e+00
113:1.3387735113416510e+00
114:2.7951642920609752e+00
115:2.1067120327130304e+00
116:2.1870600966470159e+00
117:5.0823253288090342e-01
118:1.4157839006934125e-01
119:3.2853616014771880e-01
120:1.2957139093510150e+00
121:8.2355677170697916e-01
122:9.0323464132149867e-01
123:2.0833299801745477e+00
124:1.5053167378043451e+00
125:1.4773615970616363e+00
126:3.4947146760355707e-01
127:8.6043001905178329e-02
128:1.4630337621990286e-01
129:8.6142578098158396e-01
130:4.9216387656580984e-01
131:4.4869691469756612e-01
132:1.3730128393568131e+00
133:8.9897257978015233e-01
134:7.5283336527797762e-01
135:1.6882907009652115e-01
136:3.1837687510360979e-02
137:-2.0258085909552470e-02
138:4.1082870626008017e-01
139:1.7297192102283532e-01
140:2.6687593029484091e-02
141:6.5384407931769195e-01
142:3.1156787632485861e-01
143:6.7540978658710976e-02
144:1.1562153931172691e+01
145:1.0684636108079641e+01
146:1.2714300181787346e+01
147:1.2035621878907349e+01
148:1.1629371038387836e+01
149:1.3836331883701821e+01
150:1.2413850866008696e+01
151:1.2563404046454190e+01
152:1.5032198701765813e+01
153:1.2550071737361442e+01
154:1.0268545467846524e+01
155:1.1378335610589273e+01
156:1.3725589553475407e+01
157:1.1583186403662951e+01
158:1.2743576202593848e+01
159:1.4983998598771597e+01
160:1.2927302787297906e+01
161:1.4084876461053193e+01
162:1.1291990841483454e+01
163:9.5645423383342028e+00
164:1.0731219449027117e+01
165:1.2614627629582824e+01
166:1.0776339867479523e+01
167:1.1877145169909271e+01
168:1.3904079332430479e+01
169:1.1976598580480232e+01
170:1.3033178343753569e+01
171:1.0584662062996491e+01
172:8.8365722269242859e+00
173:9.8621280309353878e+00
174:1.1724945605289825e+01
175:9.9788841039622902e+00
176:1.0982567583518870e+01
177:1.2879081235755702e+01
178:1.1126270207784005e+01
179:1.2099303501497504e+01
180:9.7427165310448594e+00
181:8.1414262614912243e+00
182:9.0575793831915092e+00
183:1.0834990042061898e+01
184:9.1816374159737890e+00
185:1.0057238497318796e+01
186:1.1921952514702250e+01
187:1.0219791563792269e+01
188:1.1058094636492987e+01
189:8.9267841422201464e+00
190:7.4273340603252525e+00
191:8.2380140015393533e+00
192:9.9096023969947886e+00
193:8.3821097619073548e+00
194:9.1596483774612079e+00
195:1.0894251028889206e+01
196:9.3376383180130702e+00
197:1.0080958085311677e+01
198:8.1117405582014079e+00
199:6.7227976909176590e+00
200:7.4203970696693071e+00
201:9.0113319992750629e+00
202:7.5844341102549171e+00
203:8.2461896633101848e+00
204:9.9103737333125732e+00
205:8.4458250006206494e+00
206:9.0720409060439771e+00
207:7.2924366173943156e+00
208:6.0139568171088120e+00
209:6.6033577605750517e+00
210:8.0984194198605586e+00
211:6.7858143227026710e+00
212:7.3402686350569484e+00
213:8.9045314398199995e+00
214:7.5577393754422841e+00
215:8.0771853863379999e+00
216:6.4759834344665368e+00
217:5.3068818108896743e+00
218:5.7857066637037597e+00
219:7.1921816844774389e+00
220:5.9875712689507203e+00
221:6.4311865866970228e+00
222:7.9083677466605318e+00
223:6.6682481305866874e+00
224:7.0766535046670942e+00
225:5.6581486412472515e+00
226:4.5991353841990934e+00
227:4.9683167180013532e+00
228:6.2832593180102148e+00
229:5.1891971830624879e+00
230:5.5232266200446745e+00
231:6.9083597724946300e+00
232:5.7792587311200085e+00
233:6.0781462427504946e+00
234:4.8408039969420891e+00
235:3.8916468314056374e+00
236:4.1510405119528082e+00
237:5.3752224801024706e+00
238:4.3908925857511498e+00
239:4.6151560880731832e+00
240:5.9096501089715980e+00
241:4.8901355384904015e+00
242:5.0792569152722162e+00
243:4.0235283559471036e+00
244:3.1840210540337033e+00
245:3.3332043824402802e+00
246:4.4671936140094903e+00
247:3.5924807986310592e+00
248:3.7064107780456350e+00
249:4.9108496243857118e+00
250:4.0009621477931878e+00
251:4.0796696304719395e+00
252:3.2056620396532232e+00
253:2.4764335776108481e+00
254:2.5163023389332406e+00
255:3.5584072552722334e+00
256:2.7942094626771663e+00
257:2.7992035761265077e+00
258:3.9111824051285131e+00
259:3.1119070310625627e+00
260:3.0819182457196992e+00
261:2.3889265057968068e+00
262:1.7695872275091951e+00
263:1.6997554955449634e+00
264:2.6513280786282234e+00
265:1.9962811255723745e+00
266:1.8906266457535126e+00
267:2.9136129551462706e+00
268:2.2232066903341701e+00
269:2.0820778256695136e+00
270:1.5714223551501760e+00
271:1.0575657614384504e+00
272:8.7218933867566628e-01
273:1.7421404829944809e+00
274:1.1948503831901158e+00
275:9.7592451304023831e-01
276:1.9132234075540031e+00
277:1.3314117922316218e+00
278:1.0778484652700233e+00
279:7.4890921607462246e-01
280:3.6624294012588265e-01
281:8.8366355180224954e-02
282:8.3124862217176521e-01
283:4.1887855030464660e-01
284:1.2709730226015403e-01
285:9.1253439654541413e-01
286:4.7415199128628127e-01
287:1.7215754267760514e-01
288:1.2446160663093574e+01
289:1.2576522038533920e+01
290:1.5032054021952622e+01
291:1.2182904314411232e+01
292:1.1688504555833836e+01
293:1.3833621032770131e+01
294:1.1830513275770103e+01
295:1.0791234661100354e+01
296:1.2705817909479697e+01
297:1.4981570427018937e+01
298:1.2925603219026927e+01
299:1.4082573765658060e+01
300:1.3712259429886826e+01
301:1.1574414358304912e+01
302:1.2733454023724432e+01
303:1.2521877507290553e+01
304:1.0250792455590814e+01
305:1.1360539123270863e+01
306:1.3902068590565003e+01
307:1.1976527843433866e+01
308:1.3034232663659035e+01
309:1.2606153821697726e+01
310:1.0776360739248723e+01
311:1.1882045211907950e+01
312:1.1277746196208408e+01
313:9.5651733278681803e+00
314:1.0740310002387250e+01
315:1.2879921302495323e+01
316:1.1126134803863083e+01
317:1.2098750056001181e+01
318:1.1728813839205579e+01
319:9.9782575027379874e+00
320:1.0979919176652995e+01
321:1.0591777341592190e+01
322:8.8354143308495665e+00
323:9.8570855901012315e+00
324:1.1921577902566870e+01
325:1.0219882957525073e+01
326:1.1058331699888075e+01
327:1.0833133422167545e+01
328:9.1820098767934208e+00
329:1.0058418869942749e+01
330:9.7390763431902574e+00
331:8.1420286556172297e+00
332:9.0599023576852034e+00
333:1.0894386252438771e+01
334:9.3375852479949941e+00
335:1.0080872526800954e+01
336:9.9103465054087021e+00
337:8.3819102864820252e+00
338:9.1591965461147424e+00
339:8.9283605140934679e+00
340:7.4270439028461421e+00
341:8.2370839654687789e+00
342:9.9103388976456976e+00
343:8.4458535444340015e+00
344:9.0720664527549904e+00
345:9.0110915369552291e+00
346:7.5845361005732475e+00
347:8.2463396271078011e+00
348:8.1111613715642576e+00
349:6.7229349493075397e+00
350:7.4207281913530734e+00
351:8.9045340867930367e+00
352:7.5577255173465696e+00
353:8.0771803473622388e+00
354:8.0984764979520349e+00
355:6.7857668338029145e+00
356:7.3402289297173979e+00
357:7.2926183590117617e+00
358:6.0138973743848174e+00
359:6.6032565104211294e+00
360:7.9083722554034175e+00
361:6.6682546662970577e+00
362:7.0766533641636320e+00
363:7.1921795758902451e+00
364:5.9875931320911011e+00
365:6.4311938099766781e+00
366:6.4759404534202556e+00
367:5.3069079518657540e+00
368:5.7857334067041268e+00
369:6.9083558746725338e+00
370:5.7792559386400377e+00
371:6.0781472252595670e+00
372:6.2832522541379499e+00
373:5.1891882302207426e+00
374:5.5232276220891912e+00
375:5.6581542576949024e+00
376:4.5991255939788465e+00
377:4.9683125391769662e+00
378:5.9096524829698183e+00
379:4.8901367361271486e+00
380:5.0792562239754808e+00
381:5.3752285184623938e+00
382:4.3908962906880067e+00
383:4.6151542982687950e+00
384:4.8408067378141251e+00
385:3.8916505519737759e+00
386:4.1510396021564118e+00
387:4.9108484013453690e+00
388:4.0009615935876486e+00
389:4.0796699732701391e+00
390:4.4671899937481774e+00
391:3.5924790767880022e+00
392:3.7064119668899913e+00
393:4.0235251359242437e+00
394:3.1840193061325390e+00
395:3.3332059030272725e+00
396:3.9111830167239958e+00
397:3.1119074212440090e+00
398:3.0819182582633720e+00
399:3.5584094041937187e+00
400:2.7942108994108983e+00
401:2.7992036075933093e+00
402:3.2056648515120316e+00
403:2.4764356049661944e+00
404:2.5163023518540135e+00
405:2.9136128309463771e+00
406:2.2232066059564293e+00
407:2.0820778295435605e+00
408:2.6513275805282177e+00
409:1.9962807989559739e+00
410:1.8906267054790982e+00
411:2.3889257157571828e+00
412:1.7695867325850241e+00
413:1.6997556770205575e+00
414:1.9132233892795725e+00
415:1.3314116172702395e+00
416:1.0778481939598961e+00
417:1.7421404246755756e+00
418:1.1948495669735770e+00
419:9.7592320662007181e-01
420:1.5714222920557366e+00
421:1.0575642420091216e+00
422:8.7218683795400009e-01
423:9.1253415867331711e-01
424:4.7415192680011486e-01
425:1.7215765324068988e-01
426:8.3124752421159798e-01
427:4.1887849089272677e-01
428:1.2709828878232354e-01
429:7.4890719195799815e-01
430:3.6624323696390210e-01
431:8.8368986089363943e-02
432:1.1311209794663251e+01
433:9.3495340570865935e+00
434:1.1039894377444146e+01
435:1.0007185608309779e+01
436:5.3145138731574013e+00
437:6.3588023755028118e+00
438:8.8125819833673802e+00
439:1.3044816136444224e+00
440:1.6182656609823176e+00
441:1.0962338280783076e+01
442:8.7738225013002289e+00
443:9.8784960333879734e+00
444:6.6965475363770972e+00
445:4.9868701669833460e+00
446:6.1852527221350391e+00
447:2.3596788679083929e+00
448:1.1732951112043817e+00
449:2.5098418920203285e+00
450:9.7882866622039106e+00
451:8.1226988462477703e+00
452:9.3615914187471105e+00
453:6.0359078737867966e+00
454:4.3900283879936115e+00
455:5.7540301741455062e+00
456:2.3094855461125423e+00
457:6.6677717614701348e-01
458:2.1393509616160657e+00
459:9.2439189421497368e+00
460:7.5187216461607971e+00
461:8.5710882556182018e+00
462:5.7334373278634114e+00
463:4.1310004735677710e+00
464:5.2786948612529390e+00
465:2.2128376585977603e+00
466:7.3938868616062037e-01
467:1.9886382922383294e+00
468:8.4760795405449123e+00
469:6.9262969124735392e+00
470:7.8892910553107622e+00
471:5.2357701216527719e+00
472:3.7907367415170450e+00
473:4.8637213167536384e+00
474:1.9990061568505952e+00
475:6.5664802708637016e-01
476:1.8375490371564187e+00
477:7.7811416860680271e+00
478:6.3175358378577133e+00
479:7.1669269727420160e+00
480:4.8187205235417636e+00
481:3.4587523802811768e+00
482:4.4117839337921883e+00
483:1.8552559630495724e+00
484:5.9948452114388062e-01
485:1.6567154896858580e+00
486:7.0652493422398432e+00
487:5.7193591357415645e+00
488:6.4586032113085885e+00
489:4.3714896204626319e+00
490:3.1324465172957447e+00
491:3.9778343861159096e+00
492:1.6779426708891167e+00
493:5.4566251999300752e-01
494:1.4971100310067893e+00
495:6.3540560210995078e+00
496:5.1156923139475952e+00
497:5.7458173670763832e+00
498:3.9344310343967237e+00
499:2.8008179294027604e+00
500:3.5361895107237222e+00
501:1.5148173221670655e+00
502:4.8592489395430161e-01
503:1.3265130780900731e+00
504:5.6424407761774820e+00
505:4.5145342371765151e+00
506:5.0343119581788551e+00
507:3.4943655536918694e+00
508:2.4722446553461506e+00
509:3.0975402760918120e+00
510:1.3462444388689585e+00
511:4.2994832990456316e-01
512:1.1608009991184616e+00
513:4.9304906952047922e+00
514:3.9123178011737370e+00
515:4.3224412875717544e+00
516:3.0549981442117291e+00
517:2.1421721509029545e+00
518:2.6578079155080010e+00
519:1.1795410019334733e+00
520:3.7203308246935851e-01
521:9.9315229840566455e-01
522:4.2187864847726964e+00
523:3.3105592110906912e+00
524:3.6108056520831600e+00
525:2.6156244579790267e+00
526:1.8128943165443556e+00
527:2.2184371065971655e+00
528:1.0124392278370309e+00
529:3.1523175230078332e-01
530:8.2609642506754644e-01
531:3.5070612284400227e+00
532:2.7085173901975068e+00
533:2.8988017841687364e+00
534:2.1759205829071648e+00
535:1.4828890351585855e+00
536:1.7791037945760202e+00
537:8.4480201426381107e-01
538:2.5723733615781730e-01
539:6.5933704016578676e-01
540:2.7951668744923275e+00
541:2.1067137437533745e+00
542:2.1870596533760112e+00
543:1.7371900981196786e+00
544:1.1540439200268815e+00
545:1.3387715250746530e+00
546:6.7916732441090222e-01
547:2.0145176007925480e-01
548:4.9068472166687027e-01
549:2.0833287614436813e+00
550:1.5053161541433990e+00
551:1.4773621403350590e+00
552:1.2957113655857055e+00
553:8.2355590617999574e-01
554:9.0323615945887836e-01
555:5.0822852330575241e-01
556:1.4157709160184453e-01
557:3.2853849177746053e-01
558:1.3730132171234644e+00
559:8.9897120233106698e-01
560:7.5283063227715719e-01
561:8.6142758061247271e-01
562:4.9216376145877483e-01
563:4.4869481808901268e-01
564:3.4947457268751786e-01
565:8.6044197494965224e-02
566:1.4630212913319551e-01
567:6.5384188625428052e-01
568:3.1156842088986281e-01
569:6.7543927114332991e-02
570:4.1082699356986829e-01
571:1.7297256370629732e-01
572:2.6689059656276326e-02
573:1.6882798055421755e-01
574:3.1838164552211445e-02
575:-2.0258771411689296e-02
