x	y	stress_yy
 1.000000000000000e+000	 0.000000000000000e+000	 3.147730471131724e+001
 9.999607948607566e-001	 8.854871081647989e-003	 3.147182045290039e+001
 9.998426119589265e-001	 1.774123199891274e-002	 3.145570889127890e+001
 9.996446072361988e-001	 2.665819249913576e-002	 3.142884944875873e+001
 9.993659466433188e-001	 3.560484091004572e-002	 3.139112418735928e+001
 9.990058067093818e-001	 4.458024417780557e-002	 3.134241795674873e+001
 9.985633751160035e-001	 5.358344792087626e-002	 3.128261854350975e+001
 9.980378512759272e-001	 6.261347650004139e-002	 3.121161682156552e+001
 9.974284469156017e-001	 7.166933310492560e-002	 3.112930690358582e+001
 9.967343866612562e-001	 8.074999985732717e-002	 3.103558629318554e+001
 9.959549086279672e-001	 8.985443793167208e-002	 3.093035603771891e+001
 1.025000000000000e+000	 0.000000000000000e+000	 2.951284624386733e+001
 1.024959814732242e+000	 9.076242858200138e-003	 2.951033493297578e+001
 1.024838677257766e+000	 1.818476279791112e-002	 2.949764895664636e+001
 1.024635722416802e+000	 2.732464731015810e-002	 2.947466589228858e+001
 1.024350095308862e+000	 3.649496193086307e-002	 2.944126574279326e+001
 1.023980951876270e+000	 4.569475027984317e-002	 2.939733108476499e+001
 1.023527459492681e+000	 5.492303411602097e-002	 2.934274721836222e+001
 1.022988797556156e+000	 6.417881340919977e-002	 2.927740231857889e+001
 1.022364158086304e+000	 7.346106642874495e-002	 2.920118758779319e+001
 1.021652746325009e+000	 8.276874984949986e-002	 2.911399740939898e+001
 1.020853781340225e+000	 9.210079887525120e-002	 2.901572950232675e+001
 1.050000000000000e+000	 0.000000000000000e+000	 2.776508116815533e+001
 1.049958834603733e+000	 9.297614634757053e-003	 2.776528928430366e+001
 1.049834742556624e+000	 1.862829359692863e-002	 2.775576847786471e+001
 1.049626837597447e+000	 2.799110212122364e-002	 2.773639442182281e+001
 1.049334243974483e+000	 3.738508295175749e-002	 2.770704500309855e+001
 1.048956097043280e+000	 4.680925638200162e-002	 2.766760047125830e+001
 1.048491543869534e+000	 5.626262031134031e-002	 2.761794358911218e+001
 1.047939743836623e+000	 6.574415031859668e-002	 2.755795978503847e+001
 1.047299869257318e+000	 7.525279975287688e-002	 2.748753730686454e+001
 1.046571105989159e+000	 8.478749984206949e-002	 2.740656737712367e+001
 1.045752654052973e+000	 9.434715981932203e-002	 2.731494434949778e+001
 1.075000000000000e+000	 0.000000000000000e+000	 2.621876663702311e+001
 1.074957854475228e+000	 9.518986411318733e-003	 2.622148048475942e+001
 1.074830807855502e+000	 1.907182439596528e-002	 2.621490478874173e+001
 1.074617952778136e+000	 2.865755693233238e-002	 2.619891324655582e+001
 1.074318392640181e+000	 3.827520397272898e-002	 2.617338156038857e+001
 1.073931242210410e+000	 4.792376248428091e-002	 2.613818758639633e+001
 1.073455628246560e+000	 5.760220650683429e-002	 2.609321148624575e+001
 1.072890690117328e+000	 6.730948722823207e-002	 2.603833588067014e+001
 1.072235580428645e+000	 7.704453307732143e-002	 2.597344600487519e+001
 1.071489465653705e+000	 8.680624983503610e-002	 2.589842986561713e+001
 1.070651526766214e+000	 9.659352076388458e-002	 2.581317839976655e+001
 1.100000000000000e+000	 0.000000000000000e+000	 2.486004551668774e+001
 1.099956874346727e+000	 9.740358187885179e-003	 2.486508837380472e+001
 1.099826873154398e+000	 1.951535519502105e-002	 2.486127518620122e+001
 1.099609067958868e+000	 2.932401174348432e-002	 2.484847759423021e+001
 1.099302541305955e+000	 3.916532499377757e-002	 2.482656903527889e+001
 1.098906387377661e+000	 4.903826858668107e-002	 2.479542489397865e+001
 1.098419712623762e+000	 5.894179270250287e-002	 2.475492265487583e+001
 1.097841636398272e+000	 6.887482413810600e-002	 2.470494205741171e+001
 1.097171291600285e+000	 7.883626640207853e-002	 2.464536525304857e+001
 1.096407825318649e+000	 8.882499982839963e-002	 2.457607696436888e+001
 1.095550399479947e+000	 9.883988170893882e-002	 2.449696464596314e+001
 1.125000000000000e+000	 0.000000000000000e+000	 2.367629241858903e+001
 1.124955894218232e+000	 9.961729964456389e-003	 2.368352200120074e+001
 1.124822938453314e+000	 1.995888599409595e-002	 2.368232360104849e+001
 1.124600183139643e+000	 2.999046655467946e-002	 2.367256670907662e+001
 1.124286689971807e+000	 4.005544601490320e-002	 2.365412240705442e+001
 1.123881532545033e+000	 5.015277468920206e-002	 2.362686351881170e+001
 1.123383797001138e+000	 6.028137889834612e-002	 2.359066476422894e+001
 1.122792582679455e+000	 7.044016104821843e-002	 2.354540291583492e+001
 1.122107002772237e+000	 8.062799972714824e-002	 2.349095695785212e+001
 1.121326184983990e+000	 9.084374982216013e-002	 2.342720824752011e+001
 1.120449272194170e+000	 1.010862426544848e-001	 2.335404067851499e+001
 1.150000000000000e+000	 0.000000000000000e+000	 2.265597981403946e+001
 1.149954914089741e+000	 1.018310174103236e-002	 2.266528601719327e+001
 1.149819003752249e+000	 2.040241679318999e-002	 2.266658726820096e+001
 1.149591298320462e+000	 3.065692136591780e-002	 2.265975080654378e+001
 1.149270838637736e+000	 4.094556703610592e-002	 2.264464525729297e+001
 1.148856677712526e+000	 5.126728079184391e-002	 2.262114078355671e+001
 1.148347881378689e+000	 6.162096509436398e-002	 2.258910924198153e+001
 1.147743528960876e+000	 7.200549795856938e-002	 2.254842434116437e+001
 1.147042713944502e+000	 8.241973305253054e-002	 2.249896180281951e+001
 1.146244544649727e+000	 9.286249981631760e-002	 2.244059952553321e+001
 1.145348144908886e+000	 1.033326036005224e-001	 2.237321775092661e+001
 1.175000000000000e+000	 0.000000000000000e+000	 2.178856124062093e+001
 1.174953933961256e+000	 1.040447351761311e-002	 2.179986411927001e+001
 1.174815069051203e+000	 2.084594759230317e-002	 2.180358041774050e+001
 1.174582413501324e+000	 3.132337617719934e-002	 2.179957501253113e+001
 1.174254987303741e+000	 4.183568805738571e-002	 2.178771396111114e+001
 1.173831822880139e+000	 5.238178689460660e-002	 2.176786465576692e+001
 1.173311965756415e+000	 6.296055129055647e-002	 2.173989598080851e+001
 1.172694475242536e+000	 7.357083486915882e-002	 2.170367847299606e+001
 1.171978425117080e+000	 8.421146637822542e-002	 2.165908448503376e+001
 1.171162904315861e+000	 9.488124981087201e-002	 2.160598835196686e+001
 1.170247017624094e+000	 1.055789645470518e-001	 2.154426656030411e+001
 1.200000000000000e+000	 0.000000000000000e+000	 2.106436910778189e+001
 1.199952953832774e+000	 1.062584529419862e-002	 2.107761706807309e+001
 1.199811134350176e+000	 2.128947839143546e-002	 2.108369250458418e+001
 1.199573528682229e+000	 3.198983098852408e-002	 2.108245781021723e+001
 1.199239135969825e+000	 4.272580907874258e-002	 2.107377635450460e+001
 1.198806968047874e+000	 5.349629299749015e-002	 2.105751263904527e+001
 1.198276050134315e+000	 6.430013748692358e-002	 2.103353245661321e+001
 1.197645421524434e+000	 7.513617177998677e-002	 2.100170305380098e+001
 1.196914136289970e+000	 8.600319970423290e-002	 2.096189329704994e+001
 1.196081263982393e+000	 9.689999980582338e-002	 2.091397384190437e+001
 1.195145890339793e+000	 1.078253254940729e-001	 2.085781730531436e+001
 1.225000000000000e+000	 0.000000000000000e+000	 2.047452501603481e+001
 1.224951973704298e+000	 1.084721707078889e-002	 2.048969319115908e+001
 1.224807199649169e+000	 2.173300919058689e-002	 2.049809889982781e+001
 1.224564643863177e+000	 3.265628579989203e-002	 2.049960192197042e+001
 1.224223284635985e+000	 4.361593010017651e-002	 2.049406280976889e+001
 1.223782113215730e+000	 5.461079910049455e-002	 2.048134304487651e+001
 1.223240134512389e+000	 6.563972368346535e-002	 2.046130519962701e+001
 1.222596367806571e+000	 7.670150869105327e-002	 2.043381310210180e+001
 1.221849847463172e+000	 8.779493303055296e-002	 2.039873200490879e+001
 1.220999623649321e+000	 9.891874980117170e-002	 2.035592875751299e+001
 1.220044763055984e+000	 1.100716864415856e-001	 2.030527198194474e+001
 1.250000000000000e+000	 0.000000000000000e+000	 2.001086083784987e+001
 1.249950993575827e+000	 1.106858884738393e-002	 2.002794962630776e+001
 1.249803264948180e+000	 2.217653998975746e-002	 2.003868229912840e+001
 1.249555759044169e+000	 3.332274061130316e-002	 2.004291588543010e+001
 1.249207433302222e+000	 4.450605112168751e-002	 2.004050798186992e+001
 1.248757258383706e+000	 5.572530520361980e-002	 2.003131691183939e+001
 1.248204218890639e+000	 6.697930988018173e-002	 2.001520188897699e+001
 1.247547314088946e+000	 7.826684560235826e-002	 1.999202318486805e+001
 1.246785558636687e+000	 8.958666635718561e-002	 1.996164230078875e+001
 1.245917983316646e+000	 1.009374997969170e-001	 1.992392214333610e+001
 1.244943635772666e+000	 1.123180473895901e-001	 1.987872720377165e+001
 9.959549086279672e-001	 8.985443793167208e-002	 3.093035603771891e+001
 9.950892650105072e-001	 9.898158769347730e-002	 3.081222252989544e+001
 9.941367226775285e-001	 1.081303688543235e-001	 3.068217427594518e+001
 9.930965637671555e-001	 1.172996806447691e-001	 3.054022278090391e+001
 9.919680862820068e-001	 1.264884020066532e-001	 3.038638578426965e+001
 9.907506046851591e-001	 1.356953918032302e-001	 3.022068736069733e+001
 9.894434504957537e-001	 1.449194890479377e-001	 3.004315801622286e+001
 9.880459728836375e-001	 1.541595131519814e-001	 2.985383477974896e+001
 9.865575392624050e-001	 1.634142641909075e-001	 2.965276128952606e+001
 9.849775358802030e-001	 1.726825231903044e-001	 2.943998787436056e+001
 9.833053684076398e-001	 1.819630524307584e-001	 2.921557162928587e+001
 1.020853781340225e+000	 9.210079887525120e-002	 2.901572950232675e+001
 1.019966496631707e+000	 1.014561273807282e-001	 2.891419436814859e+001
 1.018990140739942e+000	 1.108336280703762e-001	 2.880123367555599e+001
 1.017923977856507e+000	 1.202321726555192e-001	 2.867684340951881e+001
 1.016767288434090e+000	 1.296506120515437e-001	 2.854102534113998e+001
 1.015519369797344e+000	 1.390877765932872e-001	 2.839378713716715e+001
 1.014179536753393e+000	 1.485424762695244e-001	 2.823514246575707e+001
 1.012747122201329e+000	 1.580135009767428e-001	 2.806511109822702e+001
 1.011221477740089e+000	 1.674996207923786e-001	 2.788371900652579e+001
 1.009601974274024e+000	 1.769995862676611e-001	 2.769099845615631e+001
 1.007888002615511e+000	 1.865121287401930e-001	 2.748698809428106e+001
 1.045752654052973e+000	 9.434715981932203e-002	 2.731494434949778e+001
 1.044843728253489e+000	 1.039306670685564e-001	 2.722845269419001e+001
 1.043843558803008e+000	 1.135368872870630e-001	 2.713101151206411e+001
 1.042751391946564e+000	 1.231646646669310e-001	 2.702260167936795e+001
 1.041566490586910e+000	 1.328128220970941e-001	 2.690320942440803e+001
 1.040288134910280e+000	 1.424801613839724e-001	 2.677282644590830e+001
 1.038915623011773e+000	 1.521654634916778e-001	 2.663145002833110e+001
 1.037448271519734e+000	 1.618674888019789e-001	 2.647908315389627e+001
 1.035885416218438e+000	 1.715849773942019e-001	 2.631573461103017e+001
 1.034226412668443e+000	 1.813166493452170e-001	 2.614141909897445e+001
 1.032470636823890e+000	 1.910612050496422e-001	 2.595615732828296e+001
 1.070651526766214e+000	 9.659352076388458e-002	 2.581317839976655e+001
 1.069720959875853e+000	 1.064052067569619e-001	 2.574030571215446e+001
 1.068696976866728e+000	 1.162401465043839e-001	 2.565694717374700e+001
 1.067578806037326e+000	 1.260971566790045e-001	 2.556306891693673e+001
 1.066365692740468e+000	 1.359750321433043e-001	 2.545864200524433e+001
 1.065056900023964e+000	 1.458725461752858e-001	 2.534364256057326e+001
 1.063651709270896e+000	 1.557884507143977e-001	 2.521805188812526e+001
 1.062149420838853e+000	 1.657214766276897e-001	 2.508185659871150e+001
 1.060549354697454e+000	 1.756703339963775e-001	 2.493504872819163e+001
 1.058850851063458e+000	 1.856337124229718e-001	 2.477762585376692e+001
 1.057053271032776e+000	 1.956102813591062e-001	 2.460959120685311e+001
 1.095550399479947e+000	 9.883988170893882e-002	 2.449696464596314e+001
 1.094598191498799e+000	 1.088797464459448e-001	 2.443640570844151e+001
 1.093550394931101e+000	 1.189434057223389e-001	 2.436581296502427e+001
 1.092406220128793e+000	 1.290296486917397e-001	 2.428513812634130e+001
 1.091164894894763e+000	 1.391372421901744e-001	 2.419433742534927e+001
 1.089825665138398e+000	 1.492649309672275e-001	 2.409337175355030e+001
 1.088387795530761e+000	 1.594114379376843e-001	 2.398220679555828e+001
 1.086850570158686e+000	 1.695754644538753e-001	 2.386081316174870e+001
 1.085213293177134e+000	 1.797556905989053e-001	 2.372916651872162e+001
 1.083475289459071e+000	 1.899507755009255e-001	 2.358724771730229e+001
 1.081635905242169e+000	 2.001593576685848e-001	 2.343504291779951e+001
 1.120449272194170e+000	 1.010862426544848e-001	 2.335404067851499e+001
 1.119475423122327e+000	 1.113542861355051e-001	 2.330459970924239e+001
 1.118403812996127e+000	 1.216466649409280e-001	 2.324556600466455e+001
 1.117233634220965e+000	 1.319621407051365e-001	 2.317687713625826e+001
 1.115964097049795e+000	 1.422994522377043e-001	 2.309847480022737e+001
 1.114594430253582e+000	 1.526573157597975e-001	 2.301030496276989e+001
 1.113123881791367e+000	 1.630344251615375e-001	 2.291231800437098e+001
 1.111551719479234e+000	 1.734294522805356e-001	 2.280446886285690e+001
 1.109877231657481e+000	 1.838410472017855e-001	 2.268671717493801e+001
 1.108099727855280e+000	 1.942678385790784e-001	 2.255902741596177e+001
 1.106218539452070e+000	 2.047084339780781e-001	 2.242136903759119e+001
 1.145348144908886e+000	 1.033326036005224e-001	 2.237321775092661e+001
 1.144352654746438e+000	 1.138288258256427e-001	 2.233379961752000e+001
 1.143257231061806e+000	 1.243499241601512e-001	 2.228521944161761e+001
 1.142061048313842e+000	 1.348946327191951e-001	 2.222740090160319e+001
 1.140763299205563e+000	 1.454616622858941e-001	 2.216027141333859e+001
 1.139363195369515e+000	 1.560497005529956e-001	 2.208376228457999e+001
 1.137859968052715e+000	 1.666574123859574e-001	 2.199780886909023e+001
 1.136252868800494e+000	 1.772834401076706e-001	 2.190235072018167e+001
 1.134541170138493e+000	 1.879264038050179e-001	 2.179733174341492e+001
 1.132724166252086e+000	 1.985849016574302e-001	 2.168270034817093e+001
 1.130801173662478e+000	 2.092575102875861e-001	 2.155840959780611e+001
 1.170247017624094e+000	 1.055789645470518e-001	 2.154426656030411e+001
 1.169229886371130e+000	 1.163033655163576e-001	 2.151386892824667e+001
 1.168110649128139e+000	 1.270531833800085e-001	 2.147473011137834e+001
 1.166888462407425e+000	 1.378271247339154e-001	 2.142676010712218e+001
 1.165562501362070e+000	 1.486238723347436e-001	 2.136987227269875e+001
 1.164131960486198e+000	 1.594420853468220e-001	 2.130398348880751e+001
 1.162596054314805e+000	 1.702803996109438e-001	 2.122901432366798e+001
 1.160954018122470e+000	 1.811374279352804e-001	 2.114488919715373e+001
 1.159205108620171e+000	 1.920117604086026e-001	 2.105153654474153e+001
 1.157348604649489e+000	 2.029019647359810e-001	 2.094888898098918e+001
 1.155383807873393e+000	 2.138065865971087e-001	 2.083688346224545e+001
 1.195145890339793e+000	 1.078253254940729e-001	 2.085781730531436e+001
 1.194107117996405e+000	 1.187779052076498e-001	 2.083552360423692e+001
 1.192964067195126e+000	 1.297564426004999e-001	 2.080490023530528e+001
 1.191715876501712e+000	 1.407596167492974e-001	 2.076584369553457e+001
 1.190361703519314e+000	 1.517860823842530e-001	 2.071825347290466e+001
 1.188900725603630e+000	 1.628344701412766e-001	 2.066203221943715e+001
 1.187332140577637e+000	 1.739033868364969e-001	 2.059708592529057e+001
 1.185655167445159e+000	 1.849914157633649e-001	 2.052332409360434e+001
 1.183869047102515e+000	 1.960971170125395e-001	 2.044065991581110e+001
 1.181973043047488e+000	 2.072190278147308e-001	 2.034901044712576e+001
 1.179966442084816e+000	 2.183556629066459e-001	 2.024829678190893e+001
 1.220044763055984e+000	 1.100716864415856e-001	 2.030527198194474e+001
 1.218984349622261e+000	 1.212524448995195e-001	 2.029024508963357e+001
 1.217817485262765e+000	 1.324597018216254e-001	 2.026729115675724e+001
 1.216543290596704e+000	 1.436921087653410e-001	 2.023629333100509e+001
 1.215160905677295e+000	 1.549482924344223e-001	 2.019713739038077e+001
 1.213669490721811e+000	 1.662268549363595e-001	 2.014971192581944e+001
 1.212068226841211e+000	 1.775263740626166e-001	 2.009390852547665e+001
 1.210356316768562e+000	 1.888454035919240e-001	 2.002962196041747e+001
 1.208532985585524e+000	 2.001824736168288e-001	 1.995675037142151e+001
 1.206597481446085e+000	 2.115360908936797e-001	 1.987519545660709e+001
 1.204549076296746e+000	 2.229047392161979e-001	 1.978486265956503e+001
 1.244943635772666e+000	 1.123180473895901e-001	 1.987872720377165e+001
 1.243861581248701e+000	 1.237269845919664e-001	 1.987020376177529e+001
 1.242670903331058e+000	 1.351629610433850e-001	 1.985414742889356e+001
 1.241370704692402e+000	 1.466246007820463e-001	 1.983042812699938e+001
 1.239960107836013e+000	 1.581105024852513e-001	 1.979891805519638e+001
 1.238438255840743e+000	 1.696192397320706e-001	 1.975949188213381e+001
 1.236804313105526e+000	 1.811493612893030e-001	 1.971202694064343e+001
 1.235057466092679e+000	 1.926993914209580e-001	 1.965640342442386e+001
 1.233196924069199e+000	 2.042678302214703e-001	 1.959250458648421e+001
 1.231221919845279e+000	 2.158531539728276e-001	 1.952021693904401e+001
 1.229131710509183e+000	 2.274538155257646e-001	 1.943943045457310e+001
 9.833053684076398e-001	 1.819630524307584e-001	 2.921557162928587e+001
 9.815404625233627e-001	 1.912545957719429e-001	 2.898391099139986e+001
 9.796822644929402e-001	 2.005558789966087e-001	 2.874065221124051e+001
 9.777302417428043e-001	 2.098656101739950e-001	 2.848597314552796e+001
 9.756838834310224e-001	 2.191824800423045e-001	 2.822006043069317e+001
 9.735427010105086e-001	 2.285051624109132e-001	 2.794310945975633e+001
 9.713062287851814e-001	 2.378323145820489e-001	 2.765532434857263e+001
 9.689740244583480e-001	 2.471625777918797e-001	 2.735691789123433e+001
 9.665456696725904e-001	 2.564945776709277e-001	 2.704811150443359e+001
 9.640207705404181e-001	 2.658269247236918e-001	 2.672913516060665e+001
 9.613989581649598e-001	 2.751582148273362e-001	 2.640022730969528e+001
 1.007888002615511e+000	 1.865121287401930e-001	 2.748698809428106e+001
 1.006078974084998e+000	 1.960359606660597e-001	 2.728487345807185e+001
 1.004174321104526e+000	 2.055697759725002e-001	 2.707152365190143e+001
 1.002173497786187e+000	 2.151122504304847e-001	 2.684708698600259e+001
 1.000075980516999e+000	 2.246620420466706e-001	 2.661172003554673e+001
 9.978812685361965e-001	 2.342177914756685e-001	 2.636558763957494e+001
 9.955888845052953e-001	 2.437781224522616e-001	 2.610886289030976e+001
 9.931983750701838e-001	 2.533416422435220e-001	 2.584172711262216e+001
 9.907093114145075e-001	 2.629069421207347e-001	 2.556436983343813e+001
 9.881212898035868e-001	 2.724725978510111e-001	 2.527698874088526e+001
 9.854339321181277e-001	 2.820371702084442e-001	 2.497978963299135e+001
 1.032470636823890e+000	 1.910612050496422e-001	 2.595615732828296e+001
 1.030617485647049e+000	 2.008173255599959e-001	 2.578091421353892e+001
 1.028666377716457e+000	 2.105836729480256e-001	 2.559478640475805e+001
 1.026616753829864e+000	 2.203588906864322e-001	 2.539789360791451e+001
 1.024468077603237e+000	 2.301416040503285e-001	 2.519036330038757e+001
 1.022219836062135e+000	 2.399304205395593e-001	 2.497233075161304e+001
 1.019871540225668e+000	 2.497239303214634e-001	 2.474393903510030e+001
 1.017422725682307e+000	 2.595207066940173e-001	 2.450533903157124e+001
 1.014872953156760e+000	 2.693193065692688e-001	 2.425668942298832e+001
 1.012221809067160e+000	 2.791182709769418e-001	 2.399815667724923e+001
 1.009468906071790e+000	 2.889161255880586e-001	 2.372991502333771e+001
 1.057053271032776e+000	 1.956102813591062e-001	 2.460959120685311e+001
 1.055155997209518e+000	 2.055986904537517e-001	 2.445875164495182e+001
 1.053158434328735e+000	 2.155975699231847e-001	 2.429736594273456e+001
 1.051060009873835e+000	 2.256055309418376e-001	 2.412552606050398e+001
 1.048860174689739e+000	 2.356211660532781e-001	 2.394333125631610e+001
 1.046558403588324e+000	 2.456430496025855e-001	 2.375088812807071e+001
 1.044154195946299e+000	 2.556697381896545e-001	 2.354831064792397e+001
 1.041647076294716e+000	 2.656997711433656e-001	 2.333572018876238e+001
 1.039036594899347e+000	 2.757316710165301e-001	 2.311324554248630e+001
 1.036322328331137e+000	 2.857639441014842e-001	 2.288102292985878e+001
 1.033503880025945e+000	 2.957950809661792e-001	 2.263919600168539e+001
 1.081635905242169e+000	 2.001593576685848e-001	 2.343504291779951e+001
 1.079694508772404e+000	 2.103800553473268e-001	 2.330632738393534e+001
 1.077650490941359e+000	 2.206114668979778e-001	 2.316739285461262e+001
 1.075503265918101e+000	 2.308521711967009e-001	 2.301830432647763e+001
 1.073252271776503e+000	 2.411007280555194e-001	 2.285913363892896e+001
 1.070896971114763e+000	 2.513556786647472e-001	 2.268995953741169e+001
 1.068436851667188e+000	 2.616155460568348e-001	 2.251086772996452e+001
 1.065871426907412e+000	 2.718788355915671e-001	 2.232195093674237e+001
 1.063200236642269e+000	 2.821440354625184e-001	 2.212330893224208e+001
 1.060422847595518e+000	 2.924096172246379e-001	 2.191504857996621e+001
 1.057538853980594e+000	 3.026740363428060e-001	 2.169728385926575e+001
 1.106218539452070e+000	 2.047084339780781e-001	 2.242136903759119e+001
 1.104233020335707e+000	 2.151614202407214e-001	 2.231267039053320e+001
 1.102142547554328e+000	 2.256253638724046e-001	 2.219406894326732e+001
 1.099946521962661e+000	 2.360988114510220e-001	 2.206560344051029e+001
 1.097644368863529e+000	 2.465802900570525e-001	 2.192731903226181e+001
 1.095235538641453e+000	 2.570683077260444e-001	 2.177926735810981e+001
 1.092719507388336e+000	 2.675613539230043e-001	 2.162150662569626e+001
 1.090095777520394e+000	 2.780579000386215e-001	 2.145410168304817e+001
 1.087363878385527e+000	 2.885563999072340e-001	 2.127712408448180e+001
 1.084523366860303e+000	 2.990552903464032e-001	 2.109065214979248e+001
 1.081573827935737e+000	 3.095529917179392e-001	 2.089477101644678e+001
 1.130801173662478e+000	 2.092575102875861e-001	 2.155840959780611e+001
 1.128771531899427e+000	 2.199427851339355e-001	 2.146777876533458e+001
 1.126634604167643e+000	 2.306392608464652e-001	 2.136755078935077e+001
 1.124389778007517e+000	 2.413454517048012e-001	 2.125773880968144e+001
 1.122036465950817e+000	 2.520598520578772e-001	 2.113836195047901e+001
 1.119574106168393e+000	 2.627809367864770e-001	 2.100944542538544e+001
 1.117002163109742e+000	 2.735071617881630e-001	 2.087102063774207e+001
 1.114320128133663e+000	 2.842369644845291e-001	 2.072312527553253e+001
 1.111527520129119e+000	 2.949687643506766e-001	 2.056580340074682e+001
 1.108623886125492e+000	 3.057009634667800e-001	 2.039910553285548e+001
 1.105608801891373e+000	 3.164319470915787e-001	 2.022308872608642e+001
 1.155383807873393e+000	 2.138065865971087e-001	 2.083688346224545e+001
 1.153310043463564e+000	 2.247241500269691e-001	 2.076251664941432e+001
 1.151126660781304e+000	 2.356531578201598e-001	 2.067884817918661e+001
 1.148833034052665e+000	 2.465920919580380e-001	 2.058586617385603e+001
 1.146428563038369e+000	 2.575394140579937e-001	 2.048356433466696e+001
 1.143912673695583e+000	 2.684935658460451e-001	 2.037194206772039e+001
 1.141284818831406e+000	 2.794529696523109e-001	 2.025100460579242e+001
 1.138544478747219e+000	 2.904160289292898e-001	 2.012076312573329e+001
 1.135691161873047e+000	 3.013811287928465e-001	 1.998123486111416e+001
 1.132724405391086e+000	 3.123466365857683e-001	 1.983244320978809e+001
 1.129643775847504e+000	 3.233109024637244e-001	 1.967441783603224e+001
 1.179966442084816e+000	 2.183556629066459e-001	 2.024829678190893e+001
 1.177848555028117e+000	 2.295055149198221e-001	 2.018852401178106e+001
 1.175618717395311e+000	 2.406670547934880e-001	 2.011973522917766e+001
 1.173276290098108e+000	 2.518387322107329e-001	 2.004189407101814e+001
 1.170820660126183e+000	 2.630189760574019e-001	 1.995496936252845e+001
 1.168251241223024e+000	 2.742061949047486e-001	 1.985893526380852e+001
 1.165567474553330e+000	 2.853987775154480e-001	 1.975377141315974e+001
 1.162768829361061e+000	 2.965950933729035e-001	 1.963946306682172e+001
 1.159854803617310e+000	 3.077934932337433e-001	 1.951600123476455e+001
 1.156824924657083e+000	 3.189923097033681e-001	 1.938338281217933e+001
 1.153678749804127e+000	 3.301898578343763e-001	 1.924161070630902e+001
 1.204549076296746e+000	 2.229047392161979e-001	 1.978486265956503e+001
 1.202387066593088e+000	 2.342868798124946e-001	 1.973813748326014e+001
 1.200110774009665e+000	 2.456809517664502e-001	 1.968267239293984e+001
 1.197719546143846e+000	 2.570853724628856e-001	 1.961840702113515e+001
 1.195212757214259e+000	 2.684985380561020e-001	 1.954528581199211e+001
 1.192589808750716e+000	 2.799188239625877e-001	 1.946325818845156e+001
 1.189850130275511e+000	 2.913445853775743e-001	 1.937227871701998e+001
 1.186993179975190e+000	 3.027741578153702e-001	 1.927230726976140e+001
 1.184018445361908e+000	 3.142058576733673e-001	 1.916330918313414e+001
 1.180925443923484e+000	 3.256379828195793e-001	 1.904525541329230e+001
 1.177713723761245e+000	 3.370688132035347e-001	 1.891812268746724e+001
 1.229131710509183e+000	 2.274538155257646e-001	 1.943943045457310e+001
 1.226925578158476e+000	 2.390682447049866e-001	 1.940432069031100e+001
 1.224602830624363e+000	 2.506948487390461e-001	 1.936073782757951e+001
 1.222162802189878e+000	 2.623320127144961e-001	 1.930859792795850e+001
 1.219604854302598e+000	 2.739781000540936e-001	 1.924782150118899e+001
 1.216928376278658e+000	 2.856314530195622e-001	 1.917833369294727e+001
 1.214132785997951e+000	 2.972903932386898e-001	 1.910006447102537e+001
 1.211217530589606e+000	 3.089532222566900e-001	 1.901294880952812e+001
 1.208182087106841e+000	 3.206182221117185e-001	 1.891692687068828e+001
 1.205025963190290e+000	 3.322836559344022e-001	 1.881194418389584e+001
 1.201748697718857e+000	 3.439477685711992e-001	 1.869795182152953e+001
 9.613989581649598e-001	 2.751582148273362e-001	 2.640022730969528e+001
 9.586798891490923e-001	 2.844870297499801e-001	 2.606831986231967e+001
 9.558632460948671e-001	 2.938119376861946e-001	 2.572649525966167e+001
 9.529487380907489e-001	 3.031314938110319e-001	 2.537510864275326e+001
 9.499361011842371e-001	 3.124442408536596e-001	 2.501452496002214e+001
 9.468250988417171e-001	 3.217487096881426e-001	 2.464511876337170e+001
 9.436155223939605e-001	 3.310434199417802e-001	 2.426727398891644e+001
 9.403071914665515e-001	 3.403268806206379e-001	 2.388138372239463e+001
 9.368999543945392e-001	 3.495975907518841e-001	 2.348784994931260e+001
 9.333936886206079e-001	 3.588540400425037e-001	 2.308708328990450e+001
 9.297883010760839e-001	 3.680947095539379e-001	 2.267950271902575e+001
 9.854339321181277e-001	 2.820371702084442e-001	 2.497978963299135e+001
 9.826468863761853e-001	 2.915992055051701e-001	 2.468766971147078e+001
 9.797598272449696e-001	 3.011572361404365e-001	 2.438580776137174e+001
 9.767724565401573e-001	 3.107097811686687e-001	 2.407451738919325e+001
 9.736845037104360e-001	 3.202553468872610e-001	 2.375412155299947e+001
 9.704957263088511e-001	 3.297924274421272e-001	 2.342495239420738e+001
 9.672059104494433e-001	 3.393195054512463e-001	 2.308735105509922e+001
 9.638148712484377e-001	 3.488350526458336e-001	 2.274166748204150e+001
 9.603224532492585e-001	 3.583375305287336e-001	 2.238826021441892e+001
 9.567285308306592e-001	 3.678253910496042e-001	 2.202749615932197e+001
 9.530330085972487e-001	 3.772970772964199e-001	 2.165975035205453e+001
 1.009468906071790e+000	 2.889161255880586e-001	 2.372991502333771e+001
 1.006613883603867e+000	 2.987113812587859e-001	 2.347400660698136e+001
 1.003656408395746e+000	 3.085025345930624e-001	 2.320852185924381e+001
 1.000596174990316e+000	 3.182880685246870e-001	 2.293373429720641e+001
 9.974329062374505e-001	 3.280664529192809e-001	 2.264992635792502e+001
 9.941663537768565e-001	 3.378361451946070e-001	 2.235738926512471e+001
 9.907962985058438e-001	 3.475955909593247e-001	 2.205642288264698e+001
 9.873225510312766e-001	 3.573432246697985e-001	 2.174733555458979e+001
 9.837449521049575e-001	 3.670774703045501e-001	 2.143044393210569e+001
 9.800633730417054e-001	 3.767967420559097e-001	 2.110607278684895e+001
 9.762777161194137e-001	 3.864994450383867e-001	 2.077455481108965e+001
 1.033503880025945e+000	 2.957950809661792e-001	 2.263919600168539e+001
 1.030580880832138e+000	 3.058235570108274e-001	 2.241618871804723e+001
 1.027552989547197e+000	 3.158478330440721e-001	 2.218376156079455e+001
 1.024419893441225e+000	 3.258663558790867e-001	 2.194214928646805e+001
 1.021181308765282e+000	 3.358775589497192e-001	 2.169159516294331e+001
 1.017836981245734e+000	 3.458798629455819e-001	 2.143235087031588e+001
 1.014386686563162e+000	 3.558716764660150e-001	 2.116467638952668e+001
 1.010830230815070e+000	 3.658513966925323e-001	 2.088883987862747e+001
 1.007167450961636e+000	 3.758174100793332e-001	 2.060511753660823e+001
 1.003398215253746e+000	 3.857680930614207e-001	 2.031379345473025e+001
 9.995224236425787e-001	 3.957018127798380e-001	 2.001515945533493e+001
 1.057538853980594e+000	 3.026740363428060e-001	 2.169728385926575e+001
 1.054547878060998e+000	 3.129357327612945e-001	 2.150410943025549e+001
 1.051449570699323e+000	 3.231931314934659e-001	 2.130166250497285e+001
 1.048243611892883e+000	 3.334446432318680e-001	 2.109014030214717e+001
 1.044929711293928e+000	 3.436886649785759e-001	 2.086974816499253e+001
 1.041507608715483e+000	 3.539235806950523e-001	 2.064069949564294e+001
 1.037977074621398e+000	 3.641477619713174e-001	 2.040321567827888e+001
 1.034337910599817e+000	 3.743595687140354e-001	 2.015752599080408e+001
 1.030589949819293e+000	 3.845573498530832e-001	 1.990386750495081e+001
 1.026733057466782e+000	 3.947394440661367e-001	 1.964248497471211e+001
 1.022767131166744e+000	 4.049041805207738e-001	 1.937363071302109e+001
 1.081573827935737e+000	 3.095529917179392e-001	 2.089477101644678e+001
 1.078514875290446e+000	 3.200479085101873e-001	 2.072858232154000e+001
 1.075346151852123e+000	 3.305384299412435e-001	 2.055325955866678e+001
 1.072067330345292e+000	 3.410229305830306e-001	 2.036896353429611e+001
 1.068678113823391e+000	 3.514997710058511e-001	 2.017586281327239e+001
 1.065178236186105e+000	 3.619672984430177e-001	 1.997413368623107e+001
 1.061567462680552e+000	 3.724238474752318e-001	 1.976396012662207e+001
 1.057845590385517e+000	 3.828677407343076e-001	 1.954553373715879e+001
 1.054012448677930e+000	 3.932972896257999e-001	 1.931905368552769e+001
 1.050067899680813e+000	 4.037107950700578e-001	 1.908472662921095e+001
 1.046011838691909e+000	 4.141065482611943e-001	 1.884276662929413e+001
 1.105608801891373e+000	 3.164319470915787e-001	 2.022308872608642e+001
 1.102481872520483e+000	 3.271600842575055e-001	 2.008124114127321e+001
 1.099242733005597e+000	 3.378837283874052e-001	 1.993038907453565e+001
 1.095891048798451e+000	 3.486012179325746e-001	 1.977065795644990e+001
 1.092426516353670e+000	 3.593108770315449e-001	 1.960218062965058e+001
 1.088848863657598e+000	 3.700110161894785e-001	 1.942509734872297e+001
 1.085157850740624e+000	 3.806999329777582e-001	 1.923955577058617e+001
 1.081353270172171e+000	 3.913759127533490e-001	 1.904571093514465e+001
 1.077434947537546e+000	 4.020372293974834e-001	 1.884372523599928e+001
 1.073402741895838e+000	 4.126821460731841e-001	 1.863376838102523e+001
 1.069256546218074e+000	 4.233089160010993e-001	 1.841601734264006e+001
 1.129643775847504e+000	 3.233109024637244e-001	 1.967441783603224e+001
 1.126448869751110e+000	 3.342722600032497e-001	 1.955445255798433e+001
 1.123139314159746e+000	 3.452290268319507e-001	 1.942560362656592e+001
 1.119714767252360e+000	 3.561795052805002e-001	 1.928796205078773e+001
 1.116174918884764e+000	 3.671219830556570e-001	 1.914162592433682e+001
 1.112519491129963e+000	 3.780547339344345e-001	 1.898670045750116e+001
 1.108748238801613e+000	 3.889760184788967e-001	 1.882329800043799e+001
 1.104860949959779e+000	 3.998840847711595e-001	 1.865153805752186e+001
 1.100857446398142e+000	 4.107771691681337e-001	 1.847154729252060e+001
 1.096737584111859e+000	 4.216534970755158e-001	 1.828345952436026e+001
 1.092501253745239e+000	 4.325112837404888e-001	 1.808741571325467e+001
 1.153678749804127e+000	 3.301898578343763e-001	 1.924161070630902e+001
 1.150415866982325e+000	 3.413844357474193e-001	 1.914123981361347e+001
 1.147035895314569e+000	 3.525743252748803e-001	 1.903209740368239e+001
 1.143538485707019e+000	 3.637577926268072e-001	 1.891424094264889e+001
 1.139923321416674e+000	 3.749330890781875e-001	 1.878773467209717e+001
 1.136190118603200e+000	 3.860984516778857e-001	 1.865264967263206e+001
 1.132338626863521e+000	 3.972521039786472e-001	 1.850906391961537e+001
 1.128368629748340e+000	 4.083922567877391e-001	 1.835706233076428e+001
 1.124279945259717e+000	 4.195171089377507e-001	 1.819673680531598e+001
 1.120072426328874e+000	 4.306248480770524e-001	 1.802818625447459e+001
 1.115745961273404e+000	 4.417136514793630e-001	 1.785151662286721e+001
 1.177713723761245e+000	 3.370688132035347e-001	 1.891812268746724e+001
 1.174382864214129e+000	 3.484966114900147e-001	 1.883521572622398e+001
 1.170932476470067e+000	 3.599196237161938e-001	 1.874364073883593e+001
 1.167362204162428e+000	 3.713360799714957e-001	 1.864342245735323e+001
 1.163671723949401e+000	 3.827441950991367e-001	 1.853459209750378e+001
 1.159860746077309e+000	 3.941421694198320e-001	 1.841718745357224e+001
 1.155929014926346e+000	 4.055281894770098e-001	 1.829125298624126e+001
 1.151876309537855e+000	 4.169004288030879e-001	 1.815683990304867e+001
 1.147702444122272e+000	 4.282570487063346e-001	 1.801400623112204e+001
 1.143407268546884e+000	 4.395961990777945e-001	 1.786281688185976e+001
 1.138990668802569e+000	 4.509160192177217e-001	 1.770334370723826e+001
 1.201748697718857e+000	 3.439477685711992e-001	 1.869795182152953e+001
 1.198349861446522e+000	 3.556087872310357e-001	 1.863052373238959e+001
 1.194829057626238e+000	 3.672649221558912e-001	 1.855452249460052e+001
 1.191185922618588e+000	 3.789143673145657e-001	 1.846994085020297e+001
 1.187420126482944e+000	 3.905553011185042e-001	 1.837677774995427e+001
 1.183531373552289e+000	 4.021858871602737e-001	 1.827503847922969e+001
 1.179519402990089e+000	 4.138042749739844e-001	 1.816473477765542e+001
 1.175383989328324e+000	 4.254086008172058e-001	 1.804588495208506e+001
 1.171124942985805e+000	 4.369969884738851e-001	 1.791851398253723e+001
 1.166742110765889e+000	 4.485675500777415e-001	 1.778265362071788e+001
 1.162235376332733e+000	 4.601183869555650e-001	 1.763834248075800e+001
 9.297883010760839e-001	 3.680947095539379e-001	 2.267950271902575e+001
 9.260837285441588e-001	 3.773180723910820e-001	 2.227813163614210e+001
 9.222799380044704e-001	 3.865225944084202e-001	 2.186960767996885e+001
 9.183769269585734e-001	 3.957067349304587e-001	 2.145439635834488e+001
 9.143747237357484e-001	 4.048689474837915e-001	 2.103297165673904e+001
 9.102733877783561e-001	 4.140076805434687e-001	 2.060581567740571e+001
 9.060730099062140e-001	 4.231213782919207e-001	 2.017341826294360e+001
 9.017737125594310e-001	 4.322084813897780e-001	 1.973627660459554e+001
 8.973756500191497e-001	 4.412674277578940e-001	 1.929489483566545e+001
 8.928790086056802e-001	 4.502966533698553e-001	 1.884978361046516e+001
 8.882840068535240e-001	 4.592945930542355e-001	 1.840145966924238e+001
 9.530330085972487e-001	 3.772970772964199e-001	 2.165975035205453e+001
 9.492358217518436e-001	 3.867510242020995e-001	 2.130097420243124e+001
 9.453369364486188e-001	 3.961856592678930e-001	 2.093505623227865e+001
 9.413363501266671e-001	 4.055994033014218e-001	 2.056242505070632e+001
 9.372340918235037e-001	 4.149906711674479e-001	 2.018351754473828e+001
 9.330302224675480e-001	 4.243578725528999e-001	 1.979877855307662e+001
 9.287248351491141e-001	 4.336994127447715e-001	 1.940866052485399e+001
 9.243180553693137e-001	 4.430136934202114e-001	 1.901362316366312e+001
 9.198100412663191e-001	 4.522991134480962e-001	 1.861413305718646e+001
 9.152009838184486e-001	 4.615540697013547e-001	 1.821066329278469e+001
 9.104911070235671e-001	 4.707769578792765e-001	 1.780369305943902e+001
 9.762777161194137e-001	 3.864994450383867e-001	 2.077455481108965e+001
 9.723879149605194e-001	 3.961839760128773e-001	 2.045522123085983e+001
 9.683939348937277e-001	 4.058487241273528e-001	 2.012875146826540e+001
 9.642957732956735e-001	 4.154920716725499e-001	 1.979553861294100e+001
 9.600934599121022e-001	 4.251123948513972e-001	 1.945598385187914e+001
 9.557870571574938e-001	 4.347080645627024e-001	 1.911049617688298e+001
 9.513766603926590e-001	 4.442774471980220e-001	 1.875949207755621e+001
 9.468623981797121e-001	 4.538189054510224e-001	 1.840339522006855e+001
 9.422444325138554e-001	 4.633307991386039e-001	 1.804263611196807e+001
 9.375229590314146e-001	 4.728114860330361e-001	 1.767765175334635e+001
 9.326982071936175e-001	 4.822593227043255e-001	 1.730888527469674e+001
 9.995224236425787e-001	 3.957018127798380e-001	 2.001515945533493e+001
 9.955400081701847e-001	 4.056169278234152e-001	 1.973234685372203e+001
 9.914509333397977e-001	 4.155117889867996e-001	 1.944239807049049e+001
 9.872551964655910e-001	 4.253847400438425e-001	 1.914567194864056e+001
 9.829528280015432e-001	 4.352341185356398e-001	 1.884253526645810e+001
 9.785438918481941e-001	 4.450582565728766e-001	 1.853336247782333e+001
 9.740284856368491e-001	 4.548554816516726e-001	 1.821853543857019e+001
 9.694067409906274e-001	 4.646241174822118e-001	 1.789844311908367e+001
 9.646788237617590e-001	 4.743624848294172e-001	 1.757348130335675e+001
 9.598449342445783e-001	 4.840689023649001e-001	 1.724405227476025e+001
 9.549053073636764e-001	 4.937416875293824e-001	 1.691056448881137e+001
 1.022767131166744e+000	 4.049041805207738e-001	 1.937363071302109e+001
 1.018692101380841e+000	 4.150498796337134e-001	 1.912462773092776e+001
 1.014507931786828e+000	 4.251748538462336e-001	 1.886848270995633e+001
 1.010214619636420e+000	 4.352774084153001e-001	 1.860552142223007e+001
 1.005812196091827e+000	 4.453558422201752e-001	 1.833607743097231e+001
 1.001300726539648e+000	 4.554084485834224e-001	 1.806049186291869e+001
 9.966803108816846e-001	 4.654335161057233e-001	 1.777911316725774e+001
 9.919510838020585e-001	 4.754293295137790e-001	 1.749229686123913e+001
 9.871132150100294e-001	 4.853941705205361e-001	 1.720040526262048e+001
 9.821669094579395e-001	 4.953263186969460e-001	 1.690380720915444e+001
 9.771124075337430e-001	 5.052240523544471e-001	 1.660287776534905e+001
 1.046011838691909e+000	 4.141065482611943e-001	 1.884276662929413e+001
 1.041844194592487e+000	 4.244828314437720e-001	 1.862505388026951e+001
 1.037564930234820e+000	 4.348379187056547e-001	 1.840018715850372e+001
 1.033174042808162e+000	 4.451700767869224e-001	 1.816846025221003e+001
 1.028671564182954e+000	 4.554775659050036e-001	 1.793017461387614e+001
 1.024057561231856e+000	 4.657586405943395e-001	 1.768563916409956e+001
 1.019332136127165e+000	 4.760115505601737e-001	 1.743517008239619e+001
 1.014495426614006e+000	 4.862345415457245e-001	 1.717909058507371e+001
 1.009547606258667e+000	 4.964258562119604e-001	 1.691773069029053e+001
 1.004488884671499e+000	 5.065837350291744e-001	 1.665142697045064e+001
 9.993195077038174e-001	 5.167064171795196e-001	 1.638052229211552e+001
 1.069256546218074e+000	 4.233089160010993e-001	 1.841601734264006e+001
 1.064996287805123e+000	 4.339157832535907e-001	 1.822725113852415e+001
 1.060621928683773e+000	 4.445009835650630e-001	 1.803131273437445e+001
 1.056133465980814e+000	 4.550627451587095e-001	 1.782846494006262e+001
 1.051530932274924e+000	 4.655992895901252e-001	 1.761897811980405e+001
 1.046814395924818e+000	 4.761088326056281e-001	 1.740313002680322e+001
 1.041983961373291e+000	 4.865895850150241e-001	 1.718120562528550e+001
 1.037039769426470e+000	 4.970397535780479e-001	 1.695349689995944e+001
 1.031981997507672e+000	 5.074575419036904e-001	 1.672030265298050e+001
 1.026810859885255e+000	 5.178411513615848e-001	 1.648192828851634e+001
 1.021526607873900e+000	 5.281887820046000e-001	 1.623868558504249e+001
 1.092501253745239e+000	 4.325112837404888e-001	 1.808741571325467e+001
 1.088148381018750e+000	 4.433487350631697e-001	 1.792541352113694e+001
 1.083678927133686e+000	 4.541640484244581e-001	 1.775621439302096e+001
 1.079092889154379e+000	 4.649554135306615e-001	 1.758005109121202e+001
 1.074390300367736e+000	 4.757210132755397e-001	 1.739716383891397e+001
 1.069571230618534e+000	 4.864590246172885e-001	 1.720780018513331e+001
 1.064635786620062e+000	 4.971676194702746e-001	 1.701221485735285e+001
 1.059584112239450e+000	 5.078449656107494e-001	 1.681066960197054e+001
 1.054416388757044e+000	 5.184892275957259e-001	 1.660343301252637e+001
 1.049132835099209e+000	 5.290985676941776e-001	 1.639078034576629e+001
 1.043733708043990e+000	 5.396711468296881e-001	 1.617299332562061e+001
 1.115745961273404e+000	 4.417136514793630e-001	 1.785151662286721e+001
 1.111300474233367e+000	 4.527816868725090e-001	 1.771424403694496e+001
 1.106735925584561e+000	 4.638271132838406e-001	 1.756974305656472e+001
 1.102052312328856e+000	 4.748480819027782e-001	 1.741821725836471e+001
 1.097249668461392e+000	 4.858427369612474e-001	 1.725987760256249e+001
 1.092328065313005e+000	 4.968092166293202e-001	 1.709494232762404e+001
 1.087287611867478e+000	 5.077456539259249e-001	 1.692363683305594e+001
 1.082128455052946e+000	 5.186501776438288e-001	 1.674619355026861e+001
 1.076850780006782e+000	 5.295209132880669e-001	 1.656285180148419e+001
 1.071454810313361e+000	 5.403559840269526e-001	 1.637385764668846e+001
 1.065940808214088e+000	 5.511535116547843e-001	 1.617946371865340e+001
 1.138990668802569e+000	 4.509160192177217e-001	 1.770334370723826e+001
 1.134452567448973e+000	 4.622146386816085e-001	 1.758890275007703e+001
 1.129792924036396e+000	 4.734901781432100e-001	 1.746719500495334e+001
 1.125011735504244e+000	 4.847407502750597e-001	 1.733839566117529e+001
 1.120109036555891e+000	 4.959644606472480e-001	 1.720268723012201e+001
 1.115084900008229e+000	 5.071594086417234e-001	 1.706025946923746e+001
 1.109939437115540e+000	 5.183236883819750e-001	 1.691130929447226e+001
 1.104672797866959e+000	 5.294553896772863e-001	 1.675604068107355e+001
 1.099285171256888e+000	 5.405525989807135e-001	 1.659466455264813e+001
 1.093776785527711e+000	 5.516134003599099e-001	 1.642739865844860e+001
 1.088147908384193e+000	 5.626358764798881e-001	 1.625446743885750e+001
 1.162235376332733e+000	 4.601183869555650e-001	 1.763834248075800e+001
 1.157604660665571e+000	 4.716475904904681e-001	 1.754496107442575e+001
 1.152849922489192e+000	 4.831532430025667e-001	 1.744426734017887e+001
 1.147971158680544e+000	 4.946334186475059e-001	 1.733640881955227e+001
 1.142968404651231e+000	 5.060861843335416e-001	 1.722154033017949e+001
 1.137841734704208e+000	 5.175096006544980e-001	 1.709982391872110e+001
 1.132591262364247e+000	 5.289017228384252e-001	 1.697142880253710e+001
 1.127217140681487e+000	 5.402606017111219e-001	 1.683653129995752e+001
 1.121719562507361e+000	 5.515842846736656e-001	 1.669531474902681e+001
 1.116098760742258e+000	 5.628708166930494e-001	 1.654796941462224e+001
 1.110355008554307e+000	 5.741182413050000e-001	 1.639469238387123e+001
 8.882840068535240e-001	 4.592945930542355e-001	 1.840145966924238e+001
 8.835908956630776e-001	 4.682596813065159e-001	 1.795135550400531e+001
 8.787999584278389e-001	 4.771903531077780e-001	 1.750089234805796e+001
 8.739115111371586e-001	 4.860850447508235e-001	 1.705074179901855e+001
 8.689259024546857e-001	 4.949421946742139e-001	 1.660157914142453e+001
 8.638435137714190e-001	 5.037602443012850e-001	 1.615408269797665e+001
 8.586647592332958e-001	 5.125376388839766e-001	 1.570893316946689e+001
 8.533900857430298e-001	 5.212728283505859e-001	 1.526681296432887e+001
 8.480199729359590e-001	 5.299642681565353e-001	 1.482840551878522e+001
 8.425549331296910e-001	 5.386104201372433e-001	 1.439439460859924e+001
 8.369955112473729e-001	 5.472097533621585e-001	 1.396546365346945e+001
 9.104911070235671e-001	 4.707769578792765e-001	 1.780369305943902e+001
 9.056806680544064e-001	 4.799661733393891e-001	 1.740374381568541e+001
 9.007699573891274e-001	 4.891201119369574e-001	 1.700230484788763e+001
 8.957592989168137e-001	 4.982371708721023e-001	 1.659997805983228e+001
 8.906490500177037e-001	 5.073157495443472e-001	 1.619736966002247e+001
 8.854396016175711e-001	 5.163542504126110e-001	 1.579508958828932e+001
 8.801313782159997e-001	 5.253510798601304e-001	 1.539375093085607e+001
 8.747248378882713e-001	 5.343046490634090e-001	 1.499396932466770e+001
 8.692204722606065e-001	 5.432133748642543e-001	 1.459636235183026e+001
 8.636188064585517e-001	 5.520756806439684e-001	 1.420154892503994e+001
 8.579203990283327e-001	 5.608899971987366e-001	 1.381014866491070e+001
 9.326982071936175e-001	 4.822593227043255e-001	 1.730888527469674e+001
 9.277704404455582e-001	 4.916726653720899e-001	 1.695355967068250e+001
 9.227399563500828e-001	 5.010498707658233e-001	 1.659565593705160e+001
 9.176070866960092e-001	 5.103892969929658e-001	 1.623570905729123e+001
 9.123721975801660e-001	 5.196893044140037e-001	 1.587425893266136e+001
 9.070356894631004e-001	 5.289482565234378e-001	 1.551184988172568e+001
 9.015979971980448e-001	 5.381645208358032e-001	 1.514903012808404e+001
 8.960595900328476e-001	 5.473364697758095e-001	 1.478635127699351e+001
 8.904209715846124e-001	 5.564624815716490e-001	 1.442436778159960e+001
 8.846826797868249e-001	 5.655409411505087e-001	 1.406363639953129e+001
 8.788452868087893e-001	 5.745702410353089e-001	 1.370471564064499e+001
 9.549053073636764e-001	 4.937416875293824e-001	 1.691056448881137e+001
 9.498602128365320e-001	 5.033791574046180e-001	 1.659472160648779e+001
 9.447099553107050e-001	 5.129796295943757e-001	 1.627525089343495e+001
 9.394548744747452e-001	 5.225414231134140e-001	 1.595262299018754e+001
 9.340953451420719e-001	 5.320628592831831e-001	 1.562731406453827e+001
 9.286317773080073e-001	 5.415422626337657e-001	 1.529980538172183e+001
 9.230646161794308e-001	 5.509779618109950e-001	 1.497058286252802e+001
 9.173943421767584e-001	 5.603682904877874e-001	 1.464013662990962e+001
 9.116214709079762e-001	 5.697115882787196e-001	 1.430896054468581e+001
 9.057465531145107e-001	 5.790062016568640e-001	 1.397755173097236e+001
 8.997701745887435e-001	 5.882504848718763e-001	 1.364641009200362e+001
 9.771124075337430e-001	 5.052240523544471e-001	 1.660287776534905e+001
 9.719499852273285e-001	 5.150856494369737e-001	 1.632173180720432e+001
 9.666799542709936e-001	 5.249093884226143e-001	 1.603594370714566e+001
 9.613026622530214e-001	 5.346935492334473e-001	 1.574592216160525e+001
 9.558184927034219e-001	 5.444364141518853e-001	 1.545208200127201e+001
 9.502278651522912e-001	 5.541362687435947e-001	 1.515484382982851e+001
 9.445312351601576e-001	 5.637914027857061e-001	 1.485463365032303e+001
 9.387290943200036e-001	 5.734001111993425e-001	 1.455188247962462e+001
 9.328219702306989e-001	 5.829606949854662e-001	 1.424702595144347e+001
 9.268104264416097e-001	 5.924714621630345e-001	 1.394050390843030e+001
 9.206950623681951e-001	 6.019307287084381e-001	 1.363275998389998e+001
 9.993195077038174e-001	 5.167064171795196e-001	 1.638052229211552e+001
 9.940397576179476e-001	 5.267921414691568e-001	 1.612961125392269e+001
 9.886499532309492e-001	 5.368391472505394e-001	 1.587307611249000e+001
 9.831504500308382e-001	 5.468456753530651e-001	 1.561126585622129e+001
 9.775416402642159e-001	 5.568099690201106e-001	 1.534453621330044e+001
 9.718239529959529e-001	 5.667302748529245e-001	 1.507324935703173e+001
 9.659978541402254e-001	 5.766048437599363e-001	 1.479777359850019e+001
 9.600638464625833e-001	 5.864319319104749e-001	 1.451848306688517e+001
 9.540224695527798e-001	 5.962098016918889e-001	 1.423575737779352e+001
 9.478742997681207e-001	 6.059367226690197e-001	 1.394998129001041e+001
 9.416199501471442e-001	 6.156109725449948e-001	 1.366154435109828e+001
 1.021526607873900e+000	 5.281887820046000e-001	 1.623868558504249e+001
 1.016129530008389e+000	 5.384986335011673e-001	 1.601384333374390e+001
 1.010619952190571e+000	 5.487689060781508e-001	 1.578242457229819e+001
 1.004998237808195e+000	 5.589978014722677e-001	 1.554472066839285e+001
 9.992647878244538e-001	 5.691835238878588e-001	 1.530103033448705e+001
 9.934200408389919e-001	 5.793242809617556e-001	 1.505165939794449e+001
 9.874644731196336e-001	 5.894182847336852e-001	 1.479692055815008e+001
 9.813985986044971e-001	 5.994637526211848e-001	 1.453713313083100e+001
 9.752229688742190e-001	 6.094589083979873e-001	 1.427262277983586e+001
 9.689381730940443e-001	 6.194019831748200e-001	 1.400372123665682e+001
 9.625448379255903e-001	 6.292912163815461e-001	 1.376617078649551e+001
 1.043733708043990e+000	 5.396711468296881e-001	 1.617299332562061e+001
 1.038219302398653e+000	 5.502051255330052e-001	 1.597032464765001e+001
 1.032589951149860e+000	 5.606986649054486e-001	 1.576015403020904e+001
 1.026846025585093e+000	 5.711499275910553e-001	 1.554271717134038e+001
 1.020987935384136e+000	 5.815570787551299e-001	 1.531825771920333e+001
 1.015016128681408e+000	 5.919182870700874e-001	 1.508702710531473e+001
 1.008931092098383e+000	 6.022317257069533e-001	 1.484928436441653e+001
 1.002733350745746e+000	 6.124955733314719e-001	 1.460529594108048e+001
 9.964234681950166e-001	 6.227080151037618e-001	 1.435533548319197e+001
 9.900020464193808e-001	 6.328672436804355e-001	 1.416391428699748e+001
 9.834697257035339e-001	 6.429714602180920e-001	 1.398603666927287e+001
 1.065940808214088e+000	 5.511535116547843e-001	 1.617946371865340e+001
 1.060309074788740e+000	 5.619116175646708e-001	 1.599532196739171e+001
 1.054559950108815e+000	 5.726284237324327e-001	 1.580277744391874e+001
 1.048693813361531e+000	 5.833020537094278e-001	 1.560201200268241e+001
 1.042711082943262e+000	 5.939306336219241e-001	 1.539321605477577e+001
 1.036612216523202e+000	 6.045122931779202e-001	 1.517658846271948e+001
 1.030397711076473e+000	 6.150451666797403e-001	 1.495233642149131e+001
 1.024068102886329e+000	 6.255273940413364e-001	 1.472488509235091e+001
 1.017623967515173e+000	 6.359571218092122e-001	 1.456985410079469e+001
 1.011065919744130e+000	 6.463325041858656e-001	 1.440845786232507e+001
 1.004394613480975e+000	 6.566517040546329e-001	 1.424084336317151e+001
 1.088147908384193e+000	 5.626358764798881e-001	 1.625446743885750e+001
 1.082398847178649e+000	 5.736181095961634e-001	 1.608543446296003e+001
 1.076529949067438e+000	 5.845581825591033e-001	 1.590712027354234e+001
 1.070541601137510e+000	 5.954541798273849e-001	 1.571965459255810e+001
 1.064434230501831e+000	 6.063041884882412e-001	 1.552317630710271e+001
 1.058208304364373e+000	 6.171062992852540e-001	 1.531783342427637e+001
 1.051864330053904e+000	 6.278586076520466e-001	 1.512606589830591e+001
 1.045402855026247e+000	 6.385592147507784e-001	 1.498773501197250e+001
 1.038824466834687e+000	 6.492062285143386e-001	 1.484190816782585e+001
 1.032129793068291e+000	 6.597977646911112e-001	 1.468867868086575e+001
 1.025319501257913e+000	 6.703319478911681e-001	 1.452814269125319e+001
 1.110355008554307e+000	 5.741182413050000e-001	 1.639469238387123e+001
 1.104488619568381e+000	 5.853246016274840e-001	 1.623756046276258e+001
 1.098499948025726e+000	 5.964879413854602e-001	 1.607028923137152e+001
 1.092389388913029e+000	 6.076063059449269e-001	 1.589295788437527e+001
 1.086157378059845e+000	 6.186777433540810e-001	 1.570565539279702e+001
 1.079804392204922e+000	 6.297003053920890e-001	 1.554402284649142e+001
 1.073330949030676e+000	 6.406720486238721e-001	 1.542120876388059e+001
 1.066737607165499e+000	 6.515910354597975e-001	 1.528992067415073e+001
 1.060024966153559e+000	 6.624553352191407e-001	 1.515019883155984e+001
 1.053193666391866e+000	 6.732630251961717e-001	 1.500208676212932e+001
 1.046244389034349e+000	 6.840121917276982e-001	 1.484563125317126e+001
 8.369955112473729e-001	 5.472097533621585e-001	 1.396546365346945e+001
 8.313422847138690e-001	 5.557607449888236e-001	 1.354525707312091e+001
 8.255958633264966e-001	 5.642618811166034e-001	 1.312194769890460e+001
 8.197568890991045e-001	 5.727116576387266e-001	 1.269596695422181e+001
 8.138260360782970e-001	 5.811085810912835e-001	 1.226775089003822e+001
 8.078040101335782e-001	 5.894511694987999e-001	 1.183773977328099e+001
 8.016915487208972e-001	 5.977379532152195e-001	 1.140637766593148e+001
 7.954894206196911e-001	 6.059674757593236e-001	 1.097411199543845e+001
 7.891984256435694e-001	 6.141382946436214e-001	 1.054139311710707e+001
 7.828193943248221e-001	 6.222489821957408e-001	 1.010867386913837e+001
 7.763531875729710e-001	 6.302981263713646e-001	 9.717340678145785e+000
 8.579203990283327e-001	 5.608899971987366e-001	 1.381014866491070e+001
 8.521258418306248e-001	 5.696547636152222e-001	 1.341047267356180e+001
 8.462357599078701e-001	 5.783684281454594e-001	 1.300768722224810e+001
 8.402508113242636e-001	 5.870294490800073e-001	 1.260221205351523e+001
 8.341716869775759e-001	 5.956362956183594e-001	 1.219447154481533e+001
 8.279991103840489e-001	 6.041874487356548e-001	 1.178489430702784e+001
 8.217338374360311e-001	 6.126814020446862e-001	 1.137391277361461e+001
 8.153766561324449e-001	 6.211166626522042e-001	 1.096196278102115e+001
 8.089283862822418e-001	 6.294917520085318e-001	 1.058523953144107e+001
 8.023898791810186e-001	 6.378052067494873e-001	 1.023840792403929e+001
 7.957620172610354e-001	 6.460555795296462e-001	 9.890788976588407e+000
 8.788452868087893e-001	 5.745702410353089e-001	 1.370471564064499e+001
 8.729093989469730e-001	 5.835487822418006e-001	 1.332412941479742e+001
 8.668756564889211e-001	 5.924749751746506e-001	 1.294041507546574e+001
 8.607447335491761e-001	 6.013472405217495e-001	 1.255398141016880e+001
 8.545173378766735e-001	 6.101640101459926e-001	 1.216524186374591e+001
 8.481942106343934e-001	 6.189237279731327e-001	 1.177461414638902e+001
 8.417761261510836e-001	 6.276248508748117e-001	 1.140387147809619e+001
 8.352638916451532e-001	 6.362658495457498e-001	 1.108078510396116e+001
 8.286583469208936e-001	 6.448452093740826e-001	 1.075615538465462e+001
 8.219603640372099e-001	 6.533614313038200e-001	 1.043032093005276e+001
 8.151708469490998e-001	 6.618130326884288e-001	 1.010362048536007e+001
 8.997701745887435e-001	 5.882504848718763e-001	 1.364641009200362e+001
 8.936929560629136e-001	 5.974428008685592e-001	 1.328357107089103e+001
 8.875155530696498e-001	 6.065815222041773e-001	 1.291757347339940e+001
 8.812386557738414e-001	 6.156650319639527e-001	 1.254881581322774e+001
 8.748629887755890e-001	 6.246917246741829e-001	 1.217770129870918e+001
 8.683893108846116e-001	 6.336600072112341e-001	 1.187597672655180e+001
 8.618184148660554e-001	 6.425682997055963e-001	 1.157456710937239e+001
 8.551511271578163e-001	 6.514150364399606e-001	 1.127125193099989e+001
 8.483883075595256e-001	 6.601986667402745e-001	 1.096635315256288e+001
 8.415308488933959e-001	 6.689176558587388e-001	 1.066019295945734e+001
 8.345796766371638e-001	 6.775704858477131e-001	 1.035309347359905e+001
 9.206950623681951e-001	 6.019307287084381e-001	 1.363275998389998e+001
 9.144765131784466e-001	 6.113368194954976e-001	 1.328641497084239e+001
 9.081554496500564e-001	 6.206880692340399e-001	 1.293686924993387e+001
 9.017325779982595e-001	 6.299828234066174e-001	 1.262586038950575e+001
 8.952086396743232e-001	 6.392194392029306e-001	 1.234776902857548e+001
 8.885844111347037e-001	 6.483962864499585e-001	 1.206714131820821e+001
 8.818607035809464e-001	 6.575117485370403e-001	 1.178428261909882e+001
 8.750383626704336e-001	 6.665642233348363e-001	 1.149949883803913e+001
 8.681182681981372e-001	 6.755521241071069e-001	 1.121309615325365e+001
 8.611013337495770e-001	 6.844738804142437e-001	 1.092538074130284e+001
 8.539885063252279e-001	 6.933279390074986e-001	 1.063665850597977e+001
 9.416199501471442e-001	 6.156109725449948e-001	 1.366154435109828e+001
 9.352600702935722e-001	 6.252308381226158e-001	 1.333243596468628e+001
 9.287953462301402e-001	 6.347946162642376e-001	 1.307762926081240e+001
 9.222265002224308e-001	 6.443006148497432e-001	 1.281972271506774e+001
 9.155542905728753e-001	 6.537471537322354e-001	 1.255900546568746e+001
 9.087795113846693e-001	 6.631325656893063e-001	 1.229576745341306e+001
 9.019029922957563e-001	 6.724551973691435e-001	 1.203029915875394e+001
 8.949255981830057e-001	 6.817134102303772e-001	 1.176289134063613e+001
 8.878482288367287e-001	 6.909055814745805e-001	 1.149383477685776e+001
 8.806718186057532e-001	 7.000301049703350e-001	 1.122342000676350e+001
 8.733973360132922e-001	 7.090853921677851e-001	 1.095193707654202e+001
 9.625448379255903e-001	 6.292912163815461e-001	 1.376617078649551e+001
 9.560436274082902e-001	 6.391248567499139e-001	 1.353088651010275e+001
 9.494352428099019e-001	 6.489011632947709e-001	 1.329227654394778e+001
 9.427204224463547e-001	 6.586184062933302e-001	 1.305061536287337e+001
 9.358999414712462e-001	 6.682748682620973e-001	 1.280617818890525e+001
 9.289746116345087e-001	 6.778688449292772e-001	 1.255924074026879e+001
 9.219452810104857e-001	 6.873986462019059e-001	 1.231007898209894e+001
 9.148128336955315e-001	 6.968625971265827e-001	 1.205896887925349e+001
 9.075781894752996e-001	 7.062590388426943e-001	 1.180618615163114e+001
 9.002423034619242e-001	 7.155863295270125e-001	 1.155200603238529e+001
 8.928061657013564e-001	 7.248428453285732e-001	 1.129670302941195e+001
 9.834697257035339e-001	 6.429714602180920e-001	 1.398603666927287e+001
 9.768271845226005e-001	 6.530188753773920e-001	 1.376584752600775e+001
 9.700751393893412e-001	 6.630077103256394e-001	 1.354239936475431e+001
 9.632143446700322e-001	 6.729361977373788e-001	 1.331595342595717e+001
 9.562455923694354e-001	 6.828025827925167e-001	 1.308677136734014e+001
 9.491697118842221e-001	 6.926051241698716e-001	 1.285511502533773e+001
 9.419875697251342e-001	 7.023420950353277e-001	 1.262124617897785e+001
 9.347000692080125e-001	 7.120117840234539e-001	 1.238542631660927e+001
 9.273081501138503e-001	 7.216124962114487e-001	 1.214791640585689e+001
 9.198127883180901e-001	 7.311425540842760e-001	 1.190897666717369e+001
 9.122149953894206e-001	 7.406002984898628e-001	 1.166886635134610e+001
 1.004394613480975e+000	 6.566517040546329e-001	 1.424084336317151e+001
 9.976107416365034e-001	 6.669128940050499e-001	 1.403477139481628e+001
 9.907150359684585e-001	 6.771142573568437e-001	 1.382551220779378e+001
 9.837082668934620e-001	 6.872539891818885e-001	 1.361331414028704e+001
 9.765912432674427e-001	 6.973302973234932e-001	 1.339842560621443e+001
 9.693648121338088e-001	 7.073414034110890e-001	 1.318109486880229e+001
 9.620298584397017e-001	 7.172855438694087e-001	 1.296156981739197e+001
 9.545873047204478e-001	 7.271609709209900e-001	 1.274009774785896e+001
 9.470381107523809e-001	 7.369659535808441e-001	 1.251692514700843e+001
 9.393832731742510e-001	 7.466987786421258e-001	 1.229229748129603e+001
 9.316238250774851e-001	 7.563577516516536e-001	 1.206645899020721e+001
 1.025319501257913e+000	 6.703319478911681e-001	 1.452814269125319e+001
 1.018394298749999e+000	 6.808069126328878e-001	 1.433526629386880e+001
 1.011354932547253e+000	 6.912208043883834e-001	 1.413928026338587e+001
 1.004202189116645e+000	 7.015717806268595e-001	 1.394042033956713e+001
 9.969368941652685e-001	 7.118580118550271e-001	 1.373892198399285e+001
 9.895599123832697e-001	 7.220776826529298e-001	 1.353502016552416e+001
 9.820721471541882e-001	 7.322289927041487e-001	 1.332894914981053e+001
 9.744745402328375e-001	 7.423101578191911e-001	 1.312094229320373e+001
 9.667680713908915e-001	 7.523194109508806e-001	 1.291123184142434e+001
 9.589537580304068e-001	 7.622550032005616e-001	 1.270004873330969e+001
 9.510326547655491e-001	 7.721152048139458e-001	 1.248762240995350e+001
 1.046244389034349e+000	 6.840121917276982e-001	 1.484563125317126e+001
 1.039177855863086e+000	 6.947009312609056e-001	 1.466508061593884e+001
 1.031994829125725e+000	 7.053273514202587e-001	 1.448150435703242e+001
 1.024696111339581e+000	 7.158895720722919e-001	 1.429512589546420e+001
 1.017282545062913e+000	 7.263857263871183e-001	 1.410616800505846e+001
 1.009755012632604e+000	 7.368139618953938e-001	 1.391485261157654e+001
 1.002114435868594e+000	 7.471724415395479e-001	 1.372140059472386e+001
 9.943617757451818e-001	 7.574593447180572e-001	 1.352603159538594e+001
 9.864980320293816e-001	 7.676728683215576e-001	 1.332896382842172e+001
 9.785242428865577e-001	 7.778112277595839e-001	 1.313041390132306e+001
 9.704414844536136e-001	 7.878726579767392e-001	 1.293059663902895e+001
 7.763531875729710e-001	 6.302981263713646e-001	 9.717340678145785e+000
 7.698006963084499e-001	 6.382843315578651e-001	 9.306537384016117e+000
 7.631628410692363e-001	 6.462062193673844e-001	 8.900584707702471e+000
 7.564405715924579e-001	 6.540624294185955e-001	 8.500069620836499e+000
 7.496348663729668e-001	 6.618516201064839e-001	 8.105574295733479e+000
 7.427467321968387e-001	 6.695724693589141e-001	 7.717675539444358e+000
 7.357772036510777e-001	 6.772236753791964e-001	 7.336944235452476e+000
 7.287273426100213e-001	 6.848039573737852e-001	 6.963944793903694e+000
 7.215982376989777e-001	 6.923120562642573e-001	 6.599234611239154e+000
 7.143910037356573e-001	 6.997467353827421e-001	 6.243363540075486e+000
 7.071067811500000e-001	 7.071067811500000e-001	 5.896873370156279e+000
 7.957620172610354e-001	 6.460555795296462e-001	 9.890788976588407e+000
 7.890457137156018e-001	 6.542414398460118e-001	 9.516546444474832e+000
 7.822419120960088e-001	 6.623613748509768e-001	 9.146298871504332e+000
 7.753515858828121e-001	 6.704139901536806e-001	 8.780582314528438e+000
 7.683757380332352e-001	 6.783979106089841e-001	 8.419928512938089e+000
 7.613154005030054e-001	 6.863117810929479e-001	 8.064864377617811e+000
 7.541716337438018e-001	 6.941542672639653e-001	 7.715911487182786e+000
 7.469455261768200e-001	 7.019240563086515e-001	 7.373585592292592e+000
 7.396381936430017e-001	 7.096198576716234e-001	 7.038396128812815e+000
 7.322507788304987e-001	 7.172404037683132e-001	 6.710845740577579e+000
 7.247844506799999e-001	 7.247844506800000e-001	 6.391429812479681e+000
 8.151708469490998e-001	 6.618130326884288e-001	 1.010362048536007e+001
 8.082907311227530e-001	 6.701985481345644e-001	 9.761940693085929e+000
 8.013209831227810e-001	 6.785165303348899e-001	 9.423439857376970e+000
 7.942626001731662e-001	 6.867655508890120e-001	 9.088604870221639e+000
 7.871166096935036e-001	 6.949442011116654e-001	 8.757918757566573e+000
 7.798840688091724e-001	 7.030510928271078e-001	 8.431860221737804e+000
 7.725660638365259e-001	 7.110848591488147e-001	 8.110903190828108e+000
 7.651637097436191e-001	 7.190441552435632e-001	 7.795516375749051e+000
 7.576781495870251e-001	 7.269276590790097e-001	 7.486162835627169e+000
 7.501105539253400e-001	 7.347340721538892e-001	 7.183299552202099e+000
 7.424621202100000e-001	 7.424621202100000e-001	 6.887377013862813e+000
 8.345796766371638e-001	 6.775704858477131e-001	 1.035309347359905e+001
 8.275357485299048e-001	 6.861556564235237e-001	 1.004026189856897e+001
 8.204000541495530e-001	 6.946716858191245e-001	 9.729830899167762e+000
 8.131736144635205e-001	 7.031171116245892e-001	 9.422239809091563e+000
 8.058574813537724e-001	 7.114904916145273e-001	 9.117924517910653e+000
 7.984527371153392e-001	 7.197904045613931e-001	 8.817317065656399e+000
 7.909604939292499e-001	 7.280154510337445e-001	 8.520845244100977e+000
 7.833818933104180e-001	 7.361642541785204e-001	 8.228932205335822e+000
 7.757181055310489e-001	 7.442354604864162e-001	 7.941996078236709e+000
 7.679703290201809e-001	 7.522277405394702e-001	 7.660449593382214e+000
 7.601397897400000e-001	 7.601397897400000e-001	 7.384699716970350e+000
 8.539885063252279e-001	 6.933279390074986e-001	 1.063665850597977e+001
 8.467807659370565e-001	 7.021127647128891e-001	 1.034921866197007e+001
 8.394791251763255e-001	 7.108268413036801e-001	 1.006343681944844e+001
 8.320846287538747e-001	 7.194686723604122e-001	 9.779706229492126e+000
 8.245983530140408e-001	 7.280367821175700e-001	 9.498417092275773e+000
 8.170214054215058e-001	 7.365297162958036e-001	 9.219956202645207e+000
 8.093549240219742e-001	 7.449460429187544e-001	 8.944706602152886e+000
 8.016000768772170e-001	 7.532843531135226e-001	 8.673047238071531e+000
 7.937580614750727e-001	 7.615432618938425e-001	 8.405352629883433e+000
 7.858301041150225e-001	 7.697214089250561e-001	 8.141992543721788e+000
 7.778174592700000e-001	 7.778174592700000e-001	 7.883331675219701e+000
 8.733973360132922e-001	 7.090853921677851e-001	 1.095193707654202e+001
 8.660257833442079e-001	 7.180698730026608e-001	 1.068666787973660e+001
 8.585581962030977e-001	 7.269819967885570e-001	 1.042234829743420e+001
 8.509956430442287e-001	 7.358202330964818e-001	 1.015932685393540e+001
 8.433392246743089e-001	 7.445830726207935e-001	 9.897949387868390e+000
 8.355900737276727e-001	 7.532690280303399e-001	 9.638558747682236e+000
 8.277493541146984e-001	 7.618766348038450e-001	 9.381494493414133e+000
 8.198182604440162e-001	 7.704044520485703e-001	 9.127092605157902e+000
 8.117980174190966e-001	 7.788510633012893e-001	 8.875685198642788e+000
 8.036898792098638e-001	 7.872150773106473e-001	 8.627600248309749e+000
 7.954951288000000e-001	 7.954951288000000e-001	 8.383161318252988e+000
 8.928061657013564e-001	 7.248428453285732e-001	 1.129670302941195e+001
 8.852708007513596e-001	 7.340269812928388e-001	 1.105059862465166e+001
 8.776372672298698e-001	 7.431371522737549e-001	 1.080476818891399e+001
 8.699066573345831e-001	 7.521717938327970e-001	 1.055951676559661e+001
 8.620800963345776e-001	 7.611293631241980e-001	 1.031514705026321e+001
 8.541587420338394e-001	 7.700083397650016e-001	 1.007195913509240e+001
 8.461437842074225e-001	 7.788072266890158e-001	 9.830250259454967e+000
 8.380364440108148e-001	 7.875245509836628e-001	 9.590314566959892e+000
 8.298379733631203e-001	 7.961588647087557e-001	 9.352442869289519e+000
 8.215496543047051e-001	 8.047087456962433e-001	 9.116922417123881e+000
 8.131727983300000e-001	 8.131727983300000e-001	 8.884036678434331e+000
 9.122149953894206e-001	 7.406002984898628e-001	 1.166886635134610e+001
 9.045158181585112e-001	 7.499840895834230e-001	 1.143911808452181e+001
 8.967163382566421e-001	 7.592923077592741e-001	 1.120899959257218e+001
 8.888176716249373e-001	 7.685233545693583e-001	 1.097877358271136e+001
 8.808209679948459e-001	 7.776756536277827e-001	 1.074870072527904e+001
 8.727274103400066e-001	 7.867476514997894e-001	 1.051903944627661e+001
 8.645382143001467e-001	 7.957378185742671e-001	 1.029004572592807e+001
 8.562546275776137e-001	 8.046446499188008e-001	 1.006197290352026e+001
 8.478779293071440e-001	 8.134666661162425e-001	 9.835071488755331e+000
 8.394094293995461e-001	 8.222024140818445e-001	 9.609588979829823e+000
 8.308504678599999e-001	 8.308504678599999e-001	 9.385769688432584e+000
 9.316238250774851e-001	 7.563577516516536e-001	 1.206645899020721e+001
 9.237608355656627e-001	 7.659411978744137e-001	 1.185043925852866e+001
 9.157954092834143e-001	 7.754474632451146e-001	 1.163343540802037e+001
 9.077286859152912e-001	 7.848749153061655e-001	 1.141566886117346e+001
 8.995618396551142e-001	 7.942219441315488e-001	 1.119735928811977e+001
 8.912960786461730e-001	 8.034869632347023e-001	 1.097872444647464e+001
 8.829326443928710e-001	 8.126684104595988e-001	 1.075998002714343e+001
 8.744728111444128e-001	 8.217647488539838e-001	 1.054133950625964e+001
 8.659178852511675e-001	 8.307744675237494e-001	 1.032301400340395e+001
 8.572692044943875e-001	 8.396960824674506e-001	 1.010521214623030e+001
 8.485281373899998e-001	 8.485281373899998e-001	 9.888139941606264e+000
 9.510326547655491e-001	 7.721152048139458e-001	 1.248762240995350e+001
 9.430058529728143e-001	 7.818983061658105e-001	 1.228287016014985e+001
 9.348744803101866e-001	 7.916026187312760e-001	 1.207654917243746e+001
 9.266397002056452e-001	 8.012264760432185e-001	 1.186884054987609e+001
 9.183027113153827e-001	 8.107682346354952e-001	 1.165992390160057e+001
 9.098647469523398e-001	 8.202262749697410e-001	 1.144997722927157e+001
 9.013270744855951e-001	 8.295990023450108e-001	 1.123917681947041e+001
 8.926909947112116e-001	 8.388848477892122e-001	 1.102769714212180e+001
 8.839578411951915e-001	 8.480822689312765e-001	 1.081571075500777e+001
 8.751289795892289e-001	 8.571897508530619e-001	 1.060338821441440e+001
 8.662058069199999e-001	 8.662058069199999e-001	 1.039089799193321e+001
 9.704414844536136e-001	 7.878726579767392e-001	 1.293059663902895e+001
 9.622508703799659e-001	 7.978554144576137e-001	 1.273480431572931e+001
 9.539535513369589e-001	 8.077577742177586e-001	 1.253688699681281e+001
 9.455507144959997e-001	 8.175780367805178e-001	 1.233698635141168e+001
 9.370435829756513e-001	 8.273145251396229e-001	 1.213524278738660e+001
 9.284334152585064e-001	 8.369655867049053e-001	 1.193179538376279e+001
 9.197215045783193e-001	 8.465295942305033e-001	 1.172678182913205e+001
 9.109091782780108e-001	 8.560049467244858e-001	 1.152033836602129e+001
 9.019977971392151e-001	 8.653900703388234e-001	 1.131259974120661e+001
 8.929887546840701e-001	 8.746834192386782e-001	 1.110369916192900e+001
 8.838834764499999e-001	 8.838834764499999e-001	 1.089376825794872e+001
 7.071067811500000e-001	 7.071067811500000e-001	 5.896873370156279e+000
 6.997467353827424e-001	 7.143910037356571e-001	 5.566561151977829e+000
 6.923120562642576e-001	 7.215982376989775e-001	 5.242996456720015e+000
 6.848039573737854e-001	 7.287273426100208e-001	 4.926659425001603e+000
 6.772236753791966e-001	 7.357772036510774e-001	 4.618023658296097e+000
 6.695724693589144e-001	 7.427467321968385e-001	 4.317555796873209e+000
 6.618516201064841e-001	 7.496348663729666e-001	 4.025715108449529e+000
 6.540624294185958e-001	 7.564405715924577e-001	 3.742953088118837e+000
 6.462062193673847e-001	 7.631628410692362e-001	 3.469713070104053e+000
 6.382843315578655e-001	 7.698006963084497e-001	 3.206429851844021e+000
 6.302981263713646e-001	 7.763531875729710e-001	 2.953529330902008e+000
 7.247844506799999e-001	 7.247844506800000e-001	 6.391429812479681e+000
 7.172404037683134e-001	 7.322507788304985e-001	 6.084366329394482e+000
 7.096198576716237e-001	 7.396381936430012e-001	 5.783184781340199e+000
 7.019240563086520e-001	 7.469455261768198e-001	 5.488325978140784e+000
 6.941542672639656e-001	 7.541716337438016e-001	 5.200224786504381e+000
 6.863117810929484e-001	 7.613154005030052e-001	 4.919309751269737e+000
 6.783979106089845e-001	 7.683757380332349e-001	 4.646002726624666e+000
 6.704139901536809e-001	 7.753515858828121e-001	 4.380718517791151e+000
 6.623613748509768e-001	 7.822419120960085e-001	 4.123864533643033e+000
 6.542414398460121e-001	 7.890457137156015e-001	 3.875840450697180e+000
 6.460555795296461e-001	 7.957620172610354e-001	 3.637037888891140e+000
 7.424621202100000e-001	 7.424621202100000e-001	 6.887377013862813e+000
 7.347340721538893e-001	 7.501105539253395e-001	 6.600424626432027e+000
 7.269276590790101e-001	 7.576781495870252e-001	 6.318521818987653e+000
 7.190441552435638e-001	 7.651637097436188e-001	 6.042071285804938e+000
 7.110848591488148e-001	 7.725660638365257e-001	 5.771470346103329e+000
 7.030510928271080e-001	 7.798840688091719e-001	 5.507110607813581e+000
 6.949442011116658e-001	 7.871166096935036e-001	 5.249377640623034e+000
 6.867655508890121e-001	 7.942626001731660e-001	 4.998650658717111e+000
 6.785165303348903e-001	 8.013209831227807e-001	 4.755302213607316e+000
 6.701985481345649e-001	 8.082907311227530e-001	 4.519697897413925e+000
 6.618130326884288e-001	 8.151708469490996e-001	 4.292196056945485e+000
 7.601397897400000e-001	 7.601397897400000e-001	 7.384699716970350e+000
 7.522277405394704e-001	 7.679703290201808e-001	 7.114950489380790e+000
 7.442354604864165e-001	 7.757181055310487e-001	 6.849449871646316e+000
 7.361642541785206e-001	 7.833818933104179e-001	 6.588563541578353e+000
 7.280154510337445e-001	 7.909604939292501e-001	 6.332652343216443e+000
 7.197904045613931e-001	 7.984527371153388e-001	 6.082071992440723e+000
 7.114904916145276e-001	 8.058574813537719e-001	 5.837172791209897e+000
 7.031171116245893e-001	 8.131736144635202e-001	 5.598299350764123e+000
 6.946716858191248e-001	 8.204000541495526e-001	 5.365790324110733e+000
 6.861556564235243e-001	 8.275357485299045e-001	 5.139978148087869e+000
 6.775704858477131e-001	 8.345796766371638e-001	 4.921188795275963e+000
 7.778174592700000e-001	 7.778174592700000e-001	 7.883331675219701e+000
 7.697214089250566e-001	 7.858301041150223e-001	 7.628087118455336e+000
 7.615432618938427e-001	 7.937580614750724e-001	 7.376319933569269e+000
 7.532843531135228e-001	 8.016000768772167e-001	 7.128359774463127e+000
 7.449460429187547e-001	 8.093549240219740e-001	 6.884531976832022e+000
 7.365297162958037e-001	 8.170214054215056e-001	 6.645157305046921e+000
 7.280367821175702e-001	 8.245983530140403e-001	 6.410551707048256e+000
 7.194686723604128e-001	 8.320846287538743e-001	 6.181026077513376e+000
 7.108268413036804e-001	 8.394791251763250e-001	 5.956886029542429e+000
 7.021127647128895e-001	 8.467807659370562e-001	 5.738431675084029e+000
 6.933279390074987e-001	 8.539885063252281e-001	 5.525957414301489e+000
 7.954951288000000e-001	 7.954951288000000e-001	 8.383161318252988e+000
 7.872150773106477e-001	 8.036898792098633e-001	 8.139914384025195e+000
 7.788510633012895e-001	 8.117980174190961e-001	 7.899401836582147e+000
 7.704044520485704e-001	 8.198182604440156e-001	 7.661918200499795e+000
 7.618766348038453e-001	 8.277493541146982e-001	 7.427754172929776e+000
 7.532690280303401e-001	 8.355900737276725e-001	 7.197196411269658e+000
 7.445830726207940e-001	 8.433392246743090e-001	 6.970527328265447e+000
 7.358202330964820e-001	 8.509956430442286e-001	 6.748024894736620e+000
 7.269819967885574e-001	 8.585581962030974e-001	 6.529962450092048e+000
 7.180698730026613e-001	 8.660257833442077e-001	 6.316608520786665e+000
 7.090853921677852e-001	 8.733973360132923e-001	 6.108226646848303e+000
 8.131727983300000e-001	 8.131727983300000e-001	 8.884036678434331e+000
 8.047087456962437e-001	 8.215496543047046e-001	 8.650455710293294e+000
 7.961588647087559e-001	 8.298379733631198e-001	 8.418893072086219e+000
 7.875245509836631e-001	 8.380364440108147e-001	 8.189608963306378e+000
 7.788072266890160e-001	 8.461437842074221e-001	 7.962860222851307e+000
 7.700083397650022e-001	 8.541587420338392e-001	 7.738900157081692e+000
 7.611293631241981e-001	 8.620800963345772e-001	 7.517978374772633e+000
 7.521717938327973e-001	 8.699066573345825e-001	 7.300340629070990e+000
 7.431371522737553e-001	 8.776372672298695e-001	 7.086228666554138e+000
 7.340269812928392e-001	 8.852708007513591e-001	 6.875880083466546e+000
 7.248428453285735e-001	 8.928061657013564e-001	 6.669528189192621e+000
 8.308504678599999e-001	 8.308504678599999e-001	 9.385769688432584e+000
 8.222024140818448e-001	 8.394094293995459e-001	 9.159684080207772e+000
 8.134666661162426e-001	 8.478779293071436e-001	 8.934926486847957e+000
 8.046446499188011e-001	 8.562546275776136e-001	 8.711723503485215e+000
 7.957378185742673e-001	 8.645382143001462e-001	 8.490298808261377e+000
 7.867476514997895e-001	 8.727274103400060e-001	 8.270873030457519e+000
 7.776756536277830e-001	 8.808209679948457e-001	 8.053663625011016e+000
 7.685233545693584e-001	 8.888176716249369e-001	 7.838884753458860e+000
 7.592923077592746e-001	 8.967163382566420e-001	 7.626747171327614e+000
 7.499840895834233e-001	 9.045158181585108e-001	 7.417458121974197e+000
 7.406002984898628e-001	 9.122149953894206e-001	 7.211221236863977e+000
 8.485281373899998e-001	 8.485281373899998e-001	 9.888139941606264e+000
 8.396960824674509e-001	 8.572692044943873e-001	 9.667527289759148e+000
 8.307744675237496e-001	 8.659178852511674e-001	 9.447577016815430e+000
 8.217647488539841e-001	 8.744728111444123e-001	 9.228482756853675e+000
 8.126684104595990e-001	 8.829326443928707e-001	 9.010435647989493e+000
 8.034869632347024e-001	 8.912960786461726e-001	 8.793624240331436e+000
 7.942219441315490e-001	 8.995618396551139e-001	 8.578234409855137e+000
 7.848749153061657e-001	 9.077286859152911e-001	 8.364449278157867e+000
 7.754474632451148e-001	 9.157954092834140e-001	 8.152449138040383e+000
 7.659411978744141e-001	 9.237608355656626e-001	 7.942411384846225e+000
 7.563577516516535e-001	 9.316238250774851e-001	 7.734510453473218e+000
 8.662058069199999e-001	 8.662058069199999e-001	 1.039089799193321e+001
 8.571897508530622e-001	 8.751289795892283e-001	 1.017387255889439e+001
 8.480822689312767e-001	 8.839578411951911e-001	 9.956867596385466e+000
 8.388848477892126e-001	 8.926909947112113e-001	 9.740044348810162e+000
 8.295990023450112e-001	 9.013270744855947e-001	 9.523561963625291e+000
 8.202262749697412e-001	 9.098647469523393e-001	 9.307577438948767e+000
 8.107682346354957e-001	 9.183027113153826e-001	 9.092245576650212e+000
 8.012264760432187e-001	 9.266397002056450e-001	 8.877718940810684e+000
 7.916026187312764e-001	 9.348744803101864e-001	 8.664147821423903e+000
 7.818983061658108e-001	 9.430058529728141e-001	 8.451680203194325e+000
 7.721152048139458e-001	 9.510326547655491e-001	 8.240461739275370e+000
 8.838834764499999e-001	 8.838834764499999e-001	 1.089376825794872e+001
 8.746834192386785e-001	 8.929887546840698e-001	 1.067857058912120e+001
 8.653900703388238e-001	 9.019977971392147e-001	 1.046277435855859e+001
 8.560049467244862e-001	 9.109091782780103e-001	 1.024650892537574e+001
 8.465295942305037e-001	 9.197215045783189e-001	 1.002990192924249e+001
 8.369655867049055e-001	 9.284334152585062e-001	 9.813079277534651e+000
 8.273145251396232e-001	 9.370435829756509e-001	 9.596165137565098e+000
 8.175780367805180e-001	 9.455507144959993e-001	 9.379281933706661e+000
 8.077577742177590e-001	 9.539535513369584e-001	 9.162550349202975e+000
 7.978554144576140e-001	 9.622508703799657e-001	 8.946089332448107e+000
 7.878726579767392e-001	 9.704414844536136e-001	 8.730016107505572e+000
 6.302981263713646e-001	 7.763531875729710e-001	 2.953529330902008e+000
 6.222489821957411e-001	 7.828193943248218e-001	 2.725963700076191e+000
 6.141382946436216e-001	 7.891984256435691e-001	 2.499244735278956e+000
 6.059674757593239e-001	 7.954894206196910e-001	 2.279343099185746e+000
 5.977379532152197e-001	 8.016915487208970e-001	 2.066598119249382e+000
 5.894511694988003e-001	 8.078040101335779e-001	 1.861343486178611e+000
 5.811085810912838e-001	 8.138260360782966e-001	 1.663906901502761e+000
 5.727116576387268e-001	 8.197568890991044e-001	 1.474609734199856e+000
 5.642618811166037e-001	 8.255958633264965e-001	 1.293766686962651e+000
 5.557607449888239e-001	 8.313422847138690e-001	 1.121685472656732e+000
 5.472097533621585e-001	 8.369955112473729e-001	 9.586665014939088e-001
 6.460555795296461e-001	 7.957620172610354e-001	 3.637037888891140e+000
 6.378052067494876e-001	 8.023898791810181e-001	 3.415428989912944e+000
 6.294917520085319e-001	 8.089283862822417e-001	 3.199999534380986e+000
 6.211166626522043e-001	 8.153766561324445e-001	 2.986769513959575e+000
 6.126814020446862e-001	 8.217338374360307e-001	 2.775395210945693e+000
 6.041874487356550e-001	 8.279991103840486e-001	 2.571144156730671e+000
 5.956362956183596e-001	 8.341716869775757e-001	 2.374345802361490e+000
 5.870294490800078e-001	 8.402508113242636e-001	 2.185323400331729e+000
 5.783684281454596e-001	 8.462357599078700e-001	 2.004393665836810e+000
 5.696547636152226e-001	 8.521258418306247e-001	 1.831866448132228e+000
 5.608899971987366e-001	 8.579203990283327e-001	 1.668044412536075e+000
 6.618130326884288e-001	 8.151708469490996e-001	 4.292196056945485e+000
 6.533614313038202e-001	 8.219603640372094e-001	 4.072939743160022e+000
 6.448452093740830e-001	 8.286583469208937e-001	 3.859514771828700e+000
 6.362658495457501e-001	 8.352638916451532e-001	 3.652168436709614e+000
 6.276248508748119e-001	 8.417761261510836e-001	 3.451143012020391e+000
 6.189237279731330e-001	 8.481942106343930e-001	 3.249939237131144e+000
 6.101640101459929e-001	 8.545173378766732e-001	 3.052865653479888e+000
 6.013472405217497e-001	 8.607447335491757e-001	 2.863204297881172e+000
 5.924749751746509e-001	 8.668756564889208e-001	 2.681274521113740e+000
 5.835487822418011e-001	 8.729093989469728e-001	 2.507388929510661e+000
 5.745702410353087e-001	 8.788452868087893e-001	 2.341853061078739e+000
 6.775704858477131e-001	 8.345796766371638e-001	 4.921188795275963e+000
 6.689176558587390e-001	 8.415308488933956e-001	 4.703668167937687e+000
 6.601986667402746e-001	 8.483883075595253e-001	 4.491632454064764e+000
 6.514150364399609e-001	 8.551511271578162e-001	 4.285321292896157e+000
 6.425682997055967e-001	 8.618184148660554e-001	 4.084969407906214e+000
 6.336600072112343e-001	 8.683893108846114e-001	 3.890806468437306e+000
 6.246917246741831e-001	 8.748629887755888e-001	 3.702704523421053e+000
 6.156650319639528e-001	 8.812386557738409e-001	 3.511535052796032e+000
 6.065815222041778e-001	 8.875155530696496e-001	 3.327736061815764e+000
 5.974428008685595e-001	 8.936929560629136e-001	 3.151623519194894e+000
 5.882504848718763e-001	 8.997701745887436e-001	 2.983506438152384e+000
 6.933279390074987e-001	 8.539885063252281e-001	 5.525957414301489e+000
 6.844738804142442e-001	 8.611013337495768e-001	 5.309612183315654e+000
 6.755521241071072e-001	 8.681182681981370e-001	 5.098407138119738e+000
 6.665642233348365e-001	 8.750383626704334e-001	 4.892574200554597e+000
 6.575117485370404e-001	 8.818607035809462e-001	 4.692340477084604e+000
 6.483962864499588e-001	 8.885844111347033e-001	 4.497928134053837e+000
 6.392194392029307e-001	 8.952086396743229e-001	 4.309554280171279e+000
 6.299828234066175e-001	 9.017325779982593e-001	 4.127430856229050e+000
 6.206880692340401e-001	 9.081554496500560e-001	 3.946824218983726e+000
 6.113368194954979e-001	 9.144765131784466e-001	 3.767655403898905e+000
 6.019307287084381e-001	 9.206950623681951e-001	 3.596128614160293e+000
 7.090853921677852e-001	 8.733973360132923e-001	 6.108226646848303e+000
 7.000301049703352e-001	 8.806718186057527e-001	 5.892548932197422e+000
 6.909055814745804e-001	 8.878482288367283e-001	 5.681668420111819e+000
 6.817134102303775e-001	 8.949255981830054e-001	 5.475809219325428e+000
 6.724551973691439e-001	 9.019029922957562e-001	 5.275190720226435e+000
 6.631325656893067e-001	 9.087795113846692e-001	 5.080027484158370e+000
 6.537471537322357e-001	 9.155542905728752e-001	 4.890529139825772e+000
 6.443006148497434e-001	 9.222265002224305e-001	 4.706900286777893e+000
 6.347946162642378e-001	 9.287953462301400e-001	 4.529340405927658e+000
 6.252308381226162e-001	 9.352600702935721e-001	 4.358043777052382e+000
 6.156109725449946e-001	 9.416199501471442e-001	 4.182585952280600e+000
 7.248428453285735e-001	 8.928061657013564e-001	 6.669528189192621e+000
 7.155863295270126e-001	 9.002423034619237e-001	 6.454058778728756e+000
 7.062590388426944e-001	 9.075781894752993e-001	 6.243045387520442e+000
 6.968625971265833e-001	 9.148128336955314e-001	 6.036704184418511e+000
 6.873986462019063e-001	 9.219452810104855e-001	 5.835246713621628e+000
 6.778688449292777e-001	 9.289746116345086e-001	 5.638879798475003e+000
 6.682748682620977e-001	 9.358999414712461e-001	 5.447805452255042e+000
 6.586184062933308e-001	 9.427204224463548e-001	 5.262220795876623e+000
 6.489011632947711e-001	 9.494352428099017e-001	 5.082317982449204e+000
 6.391248567499143e-001	 9.560436274082900e-001	 4.908284128591927e+000
 6.292912163815461e-001	 9.625448379255903e-001	 4.740301252408831e+000
 7.406002984898628e-001	 9.122149953894206e-001	 7.211221236863977e+000
 7.311425540842764e-001	 9.198127883180900e-001	 6.995546242208803e+000
 7.216124962114491e-001	 9.273081501138502e-001	 6.783987949892156e+000
 7.120117840234544e-001	 9.347000692080125e-001	 6.576754432616908e+000
 7.023420950353280e-001	 9.419875697251338e-001	 6.374049228794230e+000
 6.926051241698719e-001	 9.491697118842216e-001	 6.176071261329065e+000
 6.828025827925170e-001	 9.562455923694352e-001	 5.983014763272791e+000
 6.729361977373792e-001	 9.632143446700319e-001	 5.795069210247680e+000
 6.630077103256398e-001	 9.700751393893409e-001	 5.612419259531301e+000
 6.530188753773923e-001	 9.768271845226001e-001	 5.435244695678867e+000
 6.429714602180920e-001	 9.834697257035339e-001	 5.263720382549297e+000
 7.563577516516535e-001	 9.316238250774851e-001	 7.734510453473218e+000
 7.466987786421260e-001	 9.393832731742509e-001	 7.518258314261272e+000
 7.369659535808448e-001	 9.470381107523809e-001	 7.305785503209028e+000
 7.271609709209903e-001	 9.545873047204474e-001	 7.097291812529068e+000
 7.172855438694089e-001	 9.620298584397016e-001	 6.892972587165476e+000
 7.073414034110893e-001	 9.693648121338085e-001	 6.693018659084189e+000
 6.973302973234935e-001	 9.765912432674426e-001	 6.497616288317317e+000
 6.872539891818889e-001	 9.837082668934617e-001	 6.306947110628246e+000
 6.771142573568441e-001	 9.907150359684579e-001	 6.121188091649026e+000
 6.669128940050503e-001	 9.976107416365030e-001	 5.940511487332410e+000
 6.566517040546327e-001	 1.004394613480975e+000	 5.765084810549116e+000
 7.721152048139458e-001	 9.510326547655491e-001	 8.240461739275370e+000
 7.622550032005621e-001	 9.589537580304064e-001	 8.023300533087403e+000
 7.523194109508807e-001	 9.667680713908911e-001	 7.809583308823464e+000
 7.423101578191916e-001	 9.744745402328375e-001	 7.599501367056124e+000
 7.322289927041491e-001	 9.820721471541880e-001	 7.393241644758143e+000
 7.220776826529302e-001	 9.895599123832692e-001	 7.190986665648746e+000
 7.118580118550275e-001	 9.969368941652685e-001	 6.992914497183350e+000
 7.015717806268598e-001	 1.004202189116645e+000	 6.799198714013874e+000
 6.912208043883839e-001	 1.011354932547253e+000	 6.610008367733943e+000
 6.808069126328884e-001	 1.018394298749998e+000	 6.425507962713876e+000
 6.703319478911681e-001	 1.025319501257913e+000	 6.245857437819495e+000
 7.878726579767392e-001	 9.704414844536136e-001	 8.730016107505572e+000
 7.778112277595841e-001	 9.785242428865572e-001	 8.511651128807950e+000
 7.676728683215578e-001	 9.864980320293814e-001	 8.296396906921462e+000
 7.574593447180578e-001	 9.943617757451815e-001	 8.084436013962375e+000
 7.471724415395483e-001	 1.002114435868594e+000	 7.875946738736332e+000
 7.368139618953942e-001	 1.009755012632604e+000	 7.671103053721320e+000
 7.263857263871186e-001	 1.017282545062913e+000	 7.470074588586528e+000
 7.158895720722922e-001	 1.024696111339581e+000	 7.273026610032385e+000
 7.053273514202589e-001	 1.031994829125725e+000	 7.080120007728152e+000
 6.947009312609062e-001	 1.039177855863086e+000	 6.891511286112610e+000
 6.840121917276981e-001	 1.046244389034349e+000	 6.707352561813174e+000
 5.472097533621585e-001	 8.369955112473729e-001	 9.586665014939088e-001
 5.386104201372436e-001	 8.425549331296908e-001	 8.139273764502453e-001
 5.299642681565356e-001	 8.480199729359587e-001	 6.721622534309957e-001
 5.212728283505861e-001	 8.533900857430294e-001	 5.335956354365889e-001
 5.125376388839769e-001	 8.586647592332954e-001	 3.984501624730665e-001
 5.037602443012851e-001	 8.638435137714188e-001	 2.669463564467352e-001
 4.949421946742142e-001	 8.689259024546853e-001	 1.393023707618344e-001
 4.860850447508239e-001	 8.739115111371586e-001	 1.573374504386106e-002
 4.771903531077782e-001	 8.787999584278387e-001	-1.035468345963872e-001
 4.682596813065162e-001	 8.835908956630775e-001	-2.183297693696007e-001
 4.592945930542355e-001	 8.882840068535240e-001	-3.284087753087057e-001
 5.608899971987366e-001	 8.579203990283327e-001	 1.668044412536075e+000
 5.520756806439687e-001	 8.636188064585515e-001	 1.516687021539841e+000
 5.432133748642545e-001	 8.692204722606064e-001	 1.369037521332909e+000
 5.343046490634094e-001	 8.747248378882714e-001	 1.225328304459651e+000
 5.253510798601307e-001	 8.801313782159999e-001	 1.085789024236410e+000
 5.163542504126112e-001	 8.854396016175710e-001	 9.506463373108861e-001
 5.073157495443477e-001	 8.906490500177036e-001	 8.201236521504948e-001
 4.982371708721027e-001	 8.957592989168134e-001	 6.944408838802021e-001
 4.891201119369577e-001	 9.007699573891272e-001	 5.738142158694191e-001
 4.799661733393895e-001	 9.056806680544066e-001	 4.584558684487485e-001
 4.707769578792765e-001	 9.104911070235670e-001	 3.485738751153631e-001
 5.745702410353087e-001	 8.788452868087893e-001	 2.341853061078739e+000
 5.655409411505090e-001	 8.846826797868248e-001	 2.183785490409049e+000
 5.564624815716492e-001	 8.904209715846120e-001	 2.030110295803680e+000
 5.473364697758097e-001	 8.960595900328475e-001	 1.881068180810846e+000
 5.381645208358035e-001	 9.015979971980446e-001	 1.736896261785374e+000
 5.289482565234381e-001	 9.070356894631005e-001	 1.597827807352376e+000
 5.196893044140040e-001	 9.123721975801654e-001	 1.464091985004593e+000
 5.103892969929661e-001	 9.176070866960089e-001	 1.335913615246322e+000
 5.010498707658238e-001	 9.227399563500829e-001	 1.213512933677965e+000
 4.916726653720901e-001	 9.277704404455577e-001	 1.097105361387930e+000
 4.822593227043255e-001	 9.326982071936176e-001	 9.869012840012306e-001
 5.882504848718763e-001	 8.997701745887436e-001	 2.983506438152384e+000
 5.790062016568643e-001	 9.057465531145107e-001	 2.818622768422209e+000
 5.697115882787198e-001	 9.116214709079761e-001	 2.658769766526967e+000
 5.603682904877877e-001	 9.173943421767583e-001	 2.504196867172850e+000
 5.509779618109953e-001	 9.230646161794306e-001	 2.355149096144113e+000
 5.415422626337660e-001	 9.286317773080069e-001	 2.211866805925057e+000
 5.320628592831833e-001	 9.340953451420716e-001	 2.074585419637708e+000
 5.225414231134143e-001	 9.394548744747449e-001	 1.943535183703964e+000
 5.129796295943760e-001	 9.447099553107049e-001	 1.818940929618877e+000
 5.033791574046184e-001	 9.498602128365317e-001	 1.701021845194125e+000
 4.937416875293824e-001	 9.549053073636764e-001	 1.589991255608914e+000
 6.019307287084381e-001	 9.206950623681951e-001	 3.596128614160293e+000
 5.924714621630346e-001	 9.268104264416094e-001	 3.424309629706144e+000
 5.829606949854665e-001	 9.328219702306987e-001	 3.258116326880659e+000
 5.734001111993428e-001	 9.387290943200031e-001	 3.097807291204119e+000
 5.637914027857065e-001	 9.445312351601574e-001	 2.943635901933288e+000
 5.541362687435950e-001	 9.502278651522911e-001	 2.795850063107300e+000
 5.444364141518856e-001	 9.558184927034217e-001	 2.654691944069699e+000
 5.346935492334475e-001	 9.613026622530213e-001	 2.520397729874870e+000
 5.249093884226146e-001	 9.666799542709933e-001	 2.393197381959447e+000
 5.150856494369740e-001	 9.719499852273283e-001	 2.273314409432085e+000
 5.052240523544471e-001	 9.771124075337430e-001	 2.160965651307123e+000
 6.156109725449946e-001	 9.416199501471442e-001	 4.182585952280600e+000
 6.059367226690199e-001	 9.478742997681203e-001	 4.003699771731608e+000
 5.962098016918892e-001	 9.540224695527798e-001	 3.830993662414932e+000
 5.864319319104754e-001	 9.600638464625831e-001	 3.664735780540896e+000
 5.766048437599364e-001	 9.659978541402249e-001	 3.505188301414410e+000
 5.667302748529249e-001	 9.718239529959529e-001	 3.352607145177159e+000
 5.568099690201109e-001	 9.775416402642156e-001	 3.207241713170162e+000
 5.468456753530654e-001	 9.831504500308380e-001	 3.069334635322795e+000
 5.368391472505396e-001	 9.886499532309486e-001	 2.939121528947064e+000
 5.267921414691571e-001	 9.940397576179475e-001	 2.816830769283395e+000
 5.167064171795196e-001	 9.993195077038174e-001	 2.702683272117125e+000
 6.292912163815461e-001	 9.625448379255903e-001	 4.740301252408831e+000
 6.194019831748203e-001	 9.689381730940442e-001	 4.559417758428183e+000
 6.094589083979877e-001	 9.752229688742187e-001	 4.380016653876848e+000
 5.994637526211853e-001	 9.813985986044971e-001	 4.207589954104337e+000
 5.894182847336855e-001	 9.874644731196336e-001	 4.042409072354948e+000
 5.793242809617558e-001	 9.934200408389917e-001	 3.884738407199287e+000
 5.691835238878591e-001	 9.992647878244535e-001	 3.734835074001036e+000
 5.589978014722682e-001	 1.004998237808195e+000	 3.592948648538880e+000
 5.487689060781512e-001	 1.010619952190571e+000	 3.459320923159663e+000
 5.384986335011676e-001	 1.016129530008389e+000	 3.334185675805808e+000
 5.281887820046000e-001	 1.021526607873900e+000	 3.217768452228846e+000
 6.429714602180920e-001	 9.834697257035339e-001	 5.263720382549297e+000
 6.328672436804357e-001	 9.900020464193806e-001	 5.084042463804504e+000
 6.227080151037622e-001	 9.964234681950164e-001	 4.907595718146649e+000
 6.124955733314724e-001	 1.002733350745746e+000	 4.728773052814508e+000
 6.022317257069536e-001	 1.008931092098383e+000	 4.557696493187464e+000
 5.919182870700878e-001	 1.015016128681408e+000	 4.394639377196556e+000
 5.815570787551302e-001	 1.020987935384135e+000	 4.239867013455607e+000
 5.711499275910558e-001	 1.026846025585093e+000	 4.093636420374230e+000
 5.606986649054490e-001	 1.032589951149860e+000	 3.956196078917265e+000
 5.502051255330056e-001	 1.038219302398653e+000	 3.827785699350660e+000
 5.396711468296881e-001	 1.043733708043990e+000	 3.708636002281210e+000
 6.566517040546327e-001	 1.004394613480975e+000	 5.765084810549116e+000
 6.463325041858661e-001	 1.011065919744129e+000	 5.580319178224638e+000
 6.359571218092126e-001	 1.017623967515172e+000	 5.401867440731600e+000
 6.255273940413370e-001	 1.024068102886329e+000	 5.229868507334105e+000
 6.150451666797407e-001	 1.030397711076473e+000	 5.053265645023297e+000
 6.045122931779204e-001	 1.036612216523202e+000	 4.884522092300219e+000
 5.939306336219243e-001	 1.042711082943261e+000	 4.724548549942881e+000
 5.833020537094281e-001	 1.048693813361531e+000	 4.573609972544638e+000
 5.726284237324332e-001	 1.054559950108815e+000	 4.431962038767293e+000
 5.619116175646711e-001	 1.060309074788740e+000	 4.299850915053423e+000
 5.511535116547843e-001	 1.065940808214088e+000	 4.177513034732147e+000
 6.703319478911681e-001	 1.025319501257913e+000	 6.245857437819495e+000
 6.597977646911116e-001	 1.032129793068291e+000	 6.056191508543606e+000
 6.492062285143391e-001	 1.038824466834687e+000	 5.873178949868774e+000
 6.385592147507786e-001	 1.045402855026246e+000	 5.696955866147186e+000
 6.278586076520470e-001	 1.051864330053904e+000	 5.527652640250945e+000
 6.171062992852544e-001	 1.058208304364372e+000	 5.356433822310343e+000
 6.063041884882415e-001	 1.064434230501831e+000	 5.190925505681896e+000
 5.954541798273856e-001	 1.070541601137510e+000	 5.034915537338065e+000
 5.845581825591038e-001	 1.076529949067437e+000	 4.888667299175881e+000
 5.736181095961640e-001	 1.082398847178649e+000	 4.752433932957710e+000
 5.626358764798881e-001	 1.088147908384193e+000	 4.626458116734361e+000
 6.840121917276981e-001	 1.046244389034349e+000	 6.707352561813174e+000
 6.732630251961720e-001	 1.053193666391865e+000	 6.512980218275655e+000
 6.624553352191411e-001	 1.060024966153559e+000	 6.325569800822311e+000
 6.515910354597979e-001	 1.066737607165498e+000	 6.145254257453267e+000
 6.406720486238724e-001	 1.073330949030676e+000	 5.972160314856439e+000
 6.297003053920893e-001	 1.079804392204921e+000	 5.806408523323786e+000
 6.186777433540814e-001	 1.086157378059845e+000	 5.640895026320706e+000
 6.076063059449275e-001	 1.092389388913029e+000	 5.479450136557595e+000
 5.964879413854606e-001	 1.098499948025726e+000	 5.328210465135905e+000
 5.853246016274843e-001	 1.104488619568381e+000	 5.187436644524874e+000
 5.741182413050000e-001	 1.110355008554307e+000	 5.057378124666062e+000
 4.592945930542355e-001	 8.882840068535240e-001	-3.284087753087057e-001
 4.502966533698555e-001	 8.928790086056798e-001	-4.389880557502460e-001
 4.412674277578943e-001	 8.973756500191494e-001	-5.433315288428315e-001
 4.322084813897783e-001	 9.017737125594308e-001	-6.412667368957178e-001
 4.231213782919210e-001	 9.060730099062139e-001	-7.326261386085433e-001
 4.140076805434690e-001	 9.102733877783561e-001	-8.172472673634853e-001
 4.048689474837919e-001	 9.143747237357484e-001	-8.949728808734533e-001
 3.957067349304591e-001	 9.183769269585731e-001	-9.656511020202696e-001
 3.865225944084205e-001	 9.222799380044702e-001	-1.029135550737904e+000
 3.773180723910823e-001	 9.260837285441587e-001	-1.085285466816114e+000
 3.680947095539379e-001	 9.297883010760839e-001	-1.133965823525548e+000
 4.707769578792765e-001	 9.104911070235670e-001	 3.485738751153631e-001
 4.615540697013549e-001	 9.152009838184482e-001	 2.367894324690816e-001
 4.522991134480965e-001	 9.198100412663188e-001	 1.309873775955039e-001
 4.430136934202115e-001	 9.243180553693133e-001	 3.133837712781674e-002
 4.336994127447718e-001	 9.287248351491138e-001	-6.199169944966792e-002
 4.243578725529003e-001	 9.330302224675480e-001	-1.488419392454640e-001
 4.149906711674483e-001	 9.372340918235038e-001	-2.290565368161629e-001
 4.055994033014224e-001	 9.413363501266676e-001	-3.024849362616675e-001
 3.961856592678934e-001	 9.453369364486188e-001	-3.689819644093464e-001
 3.867510242020997e-001	 9.492358217518436e-001	-4.284079549604763e-001
 3.772970772964199e-001	 9.530330085972488e-001	-4.806288634935876e-001
 4.822593227043255e-001	 9.326982071936176e-001	 9.869012840012306e-001
 4.728114860330365e-001	 9.375229590314141e-001	 8.728292537297046e-001
 4.633307991386043e-001	 9.422444325138553e-001	 7.644919611067138e-001
 4.538189054510228e-001	 9.468623981797121e-001	 6.620589200845549e-001
 4.442774471980224e-001	 9.513766603926590e-001	 5.656949558262335e-001
 4.347080645627028e-001	 9.557870571574939e-001	 4.755600435363226e-001
 4.251123948513977e-001	 9.600934599121022e-001	 3.918091558494163e-001
 4.154920716725502e-001	 9.642957732956731e-001	 3.145921189533638e-001
 4.058487241273531e-001	 9.683939348937276e-001	 2.440534776037524e-001
 3.961839760128776e-001	 9.723879149605192e-001	 1.803323691616739e-001
 3.864994450383867e-001	 9.762777161194137e-001	 1.235624067639148e-001
 4.937416875293824e-001	 9.549053073636764e-001	 1.589991255608914e+000
 4.840689023649002e-001	 9.598449342445778e-001	 1.472603193541644e+000
 4.743624848294175e-001	 9.646788237617586e-001	 1.360707622843860e+000
 4.646241174822121e-001	 9.694067409906272e-001	 1.254473524423728e+000
 4.548554816516731e-001	 9.740284856368491e-001	 1.154065288214132e+000
 4.450582565728770e-001	 9.785438918481938e-001	 1.059642549713894e+000
 4.352341185356400e-001	 9.829528280015428e-001	 9.713600350795502e-001
 4.253847400438429e-001	 9.872551964655910e-001	 8.893674149510150e-001
 4.155117889868000e-001	 9.914509333397975e-001	 8.138091671725327e-001
 4.056169278234155e-001	 9.955400081701846e-001	 7.448244485481735e-001
 3.957018127798380e-001	 9.995224236425787e-001	 6.825469757451291e-001
 5.052240523544471e-001	 9.771124075337430e-001	 2.160965651307123e+000
 4.953263186969465e-001	 9.821669094579394e-001	 2.039281627294038e+000
 4.853941705205365e-001	 9.871132150100292e-001	 1.922852923836035e+000
 4.754293295137795e-001	 9.919510838020585e-001	 1.811848592013069e+000
 4.654335161057235e-001	 9.966803108816844e-001	 1.706433179491356e+000
 4.554084485834228e-001	 1.001300726539648e+000	 1.606766564219129e+000
 4.453558422201756e-001	 1.005812196091827e+000	 1.513003796688238e+000
 4.352774084153004e-001	 1.010214619636420e+000	 1.425294950952589e+000
 4.251748538462340e-001	 1.014507931786828e+000	 1.343784984571077e+000
 4.150498796337138e-001	 1.018692101380841e+000	 1.268613607619940e+000
 4.049041805207738e-001	 1.022767131166744e+000	 1.199915160895008e+000
 5.167064171795196e-001	 9.993195077038174e-001	 2.702683272117125e+000
 5.065837350291749e-001	 1.004488884671498e+000	 2.575767010268396e+000
 4.964258562119608e-001	 1.009547606258667e+000	 2.453873678335589e+000
 4.862345415457248e-001	 1.014495426614006e+000	 2.337172986425669e+000
 4.760115505601740e-001	 1.019332136127165e+000	 2.225830218797559e+000
 4.657586405943398e-001	 1.024057561231856e+000	 2.120006064161795e+000
 4.554775659050040e-001	 1.028671564182954e+000	 2.019856454584839e+000
 4.451700767869229e-001	 1.033174042808162e+000	 1.925532413196493e+000
 4.348379187056552e-001	 1.037564930234820e+000	 1.837179910875125e+000
 4.244828314437724e-001	 1.041844194592487e+000	 1.754939732061996e+000
 4.141065482611941e-001	 1.046011838691909e+000	 1.678947349832052e+000
 5.281887820046000e-001	 1.021526607873900e+000	 3.217768452228846e+000
 5.178411513615852e-001	 1.026810859885255e+000	 3.084722999389845e+000
 5.074575419036908e-001	 1.031981997507672e+000	 2.956472600206684e+000
 4.970397535780482e-001	 1.037039769426470e+000	 2.833188200145762e+000
 4.865895850150245e-001	 1.041983961373291e+000	 2.715036386616685e+000
 4.761088326056285e-001	 1.046814395924818e+000	 2.602179215331357e+000
 4.655992895901255e-001	 1.051530932274924e+000	 2.494774045328426e+000
 4.550627451587098e-001	 1.056133465980814e+000	 2.392973382870419e+000
 4.445009835650633e-001	 1.060621928683773e+000	 2.296924734395963e+000
 4.339157832535910e-001	 1.064996287805123e+000	 2.206770468685024e+000
 4.233089160010993e-001	 1.069256546218074e+000	 2.122647688372151e+000
 5.396711468296881e-001	 1.043733708043990e+000	 3.708636002281210e+000
 5.290985676941781e-001	 1.049132835099209e+000	 3.568599857307711e+000
 5.184892275957262e-001	 1.054416388757043e+000	 3.433135164669194e+000
 5.078449656107498e-001	 1.059584112239450e+000	 3.302414670641959e+000
 4.971676194702749e-001	 1.064635786620062e+000	 3.176606821654991e+000
 4.864590246172889e-001	 1.069571230618535e+000	 3.055875586167049e+000
 4.757210132755402e-001	 1.074390300367736e+000	 2.940380285292632e+000
 4.649554135306619e-001	 1.079092889154379e+000	 2.830275432393421e+000
 4.541640484244586e-001	 1.083678927133686e+000	 2.725710581825239e+000
 4.433487350631701e-001	 1.088148381018749e+000	 2.626830187007213e+000
 4.325112837404888e-001	 1.092501253745239e+000	 2.533773467953433e+000
 5.511535116547843e-001	 1.065940808214088e+000	 4.177513034732147e+000
 5.403559840269530e-001	 1.071454810313361e+000	 4.029656680965917e+000
 5.295209132880673e-001	 1.076850780006782e+000	 3.886152237323798e+000
 5.186501776438292e-001	 1.082128455052946e+000	 3.747174806931453e+000
 5.077456539259251e-001	 1.087287611867478e+000	 3.612895241859751e+000
 4.968092166293206e-001	 1.092328065313005e+000	 3.483479959981660e+000
 4.858427369612477e-001	 1.097249668461392e+000	 3.359090770684355e+000
 4.748480819027786e-001	 1.102052312328856e+000	 3.239884709661538e+000
 4.638271132838410e-001	 1.106735925584561e+000	 3.126013882986308e+000
 4.527816868725094e-001	 1.111300474233366e+000	 3.017625320638181e+000
 4.417136514793630e-001	 1.115745961273404e+000	 2.914860839633370e+000
 5.626358764798881e-001	 1.088147908384193e+000	 4.626458116734361e+000
 5.516134003599104e-001	 1.093776785527711e+000	 4.469980908307835e+000
 5.405525989807140e-001	 1.099285171256888e+000	 4.317639932276769e+000
 5.294553896772867e-001	 1.104672797866958e+000	 4.169613196564822e+000
 5.183236883819754e-001	 1.109939437115540e+000	 4.026074497557584e+000
 5.071594086417237e-001	 1.115084900008229e+000	 3.887193231402903e+000
 4.959644606472484e-001	 1.120109036555890e+000	 3.753134214295466e+000
 4.847407502750601e-001	 1.125011735504244e+000	 3.624057511979085e+000
 4.734901781432104e-001	 1.129792924036396e+000	 3.500118278677598e+000
 4.622146386816088e-001	 1.134452567448973e+000	 3.381466605636691e+000
 4.509160192177217e-001	 1.138990668802569e+000	 3.268247379433052e+000
 5.741182413050000e-001	 1.110355008554307e+000	 5.057378124666062e+000
 5.628708166930497e-001	 1.116098760742258e+000	 4.891505484176435e+000
 5.515842846736662e-001	 1.121719562507361e+000	 4.729557087289199e+000
 5.402606017111223e-001	 1.127217140681487e+000	 4.571714387772674e+000
 5.289017228384256e-001	 1.132591262364247e+000	 4.418154658216566e+000
 5.175096006544985e-001	 1.137841734704207e+000	 4.269050795241774e+000
 5.060861843335420e-001	 1.142968404651231e+000	 4.124571133844035e+000
 4.946334186475063e-001	 1.147971158680544e+000	 3.984879271117110e+000
 4.831532430025670e-001	 1.152849922489192e+000	 3.850133899574836e+000
 4.716475904904685e-001	 1.157604660665570e+000	 3.720488650265096e+000
 4.601183869555650e-001	 1.162235376332733e+000	 3.596091945840386e+000
 3.680947095539379e-001	 9.297883010760839e-001	-1.133965823525548e+000
 3.588540400425035e-001	 9.333936886206078e-001	-1.188788438007807e+000
 3.495975907518841e-001	 9.368999543945393e-001	-1.238042232581887e+000
 3.403268806206379e-001	 9.403071914665515e-001	-1.281599065121887e+000
 3.310434199417802e-001	 9.436155223939605e-001	-1.319334958343727e+000
 3.217487096881428e-001	 9.468250988417173e-001	-1.351130206979513e+000
 3.124442408536598e-001	 9.499361011842370e-001	-1.376869477397353e+000
 3.031314938110321e-001	 9.529487380907488e-001	-1.396441899614038e+000
 2.938119376861949e-001	 9.558632460948670e-001	-1.409741151667800e+000
 2.844870297499803e-001	 9.586798891490923e-001	-1.416665536334956e+000
 2.751582148273362e-001	 9.613989581649598e-001	-1.417118050193426e+000
 3.772970772964199e-001	 9.530330085972488e-001	-4.806288634935876e-001
 3.678253910496041e-001	 9.567285308306593e-001	-5.401754006817330e-001
 3.583375305287336e-001	 9.603224532492585e-001	-5.944140035373261e-001
 3.488350526458336e-001	 9.638148712484372e-001	-6.432243559528561e-001
 3.393195054512464e-001	 9.672059104494429e-001	-6.864900747068783e-001
 3.297924274421274e-001	 9.704957263088510e-001	-7.240988129596978e-001
 3.202553468872612e-001	 9.736845037104359e-001	-7.559423564645712e-001
 3.107097811686690e-001	 9.767724565401574e-001	-7.819167124440305e-001
 3.011572361404367e-001	 9.797598272449695e-001	-8.019221910963178e-001
 2.915992055051704e-001	 9.826468863761853e-001	-8.158634797162132e-001
 2.820371702084442e-001	 9.854339321181277e-001	-8.236497094310299e-001
 3.864994450383867e-001	 9.762777161194137e-001	 1.235624067639148e-001
 3.767967420559097e-001	 9.800633730417054e-001	 5.772000896373983e-002
 3.670774703045501e-001	 9.837449521049575e-001	-3.062810347101279e-003
 3.573432246697985e-001	 9.873225510312768e-001	-5.867280429687716e-002
 3.475955909593249e-001	 9.907962985058438e-001	-1.090004456243170e-001
 3.378361451946071e-001	 9.941663537768565e-001	-1.539400269753910e-001
 3.280664529192809e-001	 9.974329062374506e-001	-1.933897541542582e-001
 3.182880685246873e-001	 1.000596174990316e+000	-2.272518322742957e-001
 3.085025345930627e-001	 1.003656408395746e+000	-2.554325447784206e-001
 2.987113812587863e-001	 1.006613883603867e+000	-2.778423253081861e-001
 2.889161255880585e-001	 1.009468906071790e+000	-2.943958224240838e-001
 3.957018127798380e-001	 9.995224236425787e-001	 6.825469757451291e-001
 3.857680930614206e-001	 1.003398215253747e+000	 6.089263858632407e-001
 3.758174100793333e-001	 1.007167450961636e+000	 5.401289466286541e-001
 3.658513966925324e-001	 1.010830230815070e+000	 4.762615600010928e-001
 3.558716764660150e-001	 1.014386686563162e+000	 4.174276035581684e-001
 3.458798629455820e-001	 1.017836981245734e+000	 3.637268329332883e-001
 3.358775589497193e-001	 1.021181308765282e+000	 3.152552910949821e-001
 3.258663558790869e-001	 1.024419893441224e+000	 2.721052245212786e-001
 3.158478330440724e-001	 1.027552989547197e+000	 2.343650063027211e-001
 3.058235570108276e-001	 1.030580880832138e+000	 2.021190661917435e-001
 2.957950809661792e-001	 1.033503880025945e+000	 1.754478276003202e-001
 4.049041805207738e-001	 1.022767131166744e+000	 1.199915160895008e+000
 3.947394440661366e-001	 1.026733057466782e+000	 1.117115014008568e+000
 3.845573498530832e-001	 1.030589949819293e+000	 1.038912980423051e+000
 3.743595687140354e-001	 1.034337910599817e+000	 9.654103124693575e-001
 3.641477619713174e-001	 1.037977074621398e+000	 8.967049158350117e-001
 3.539235806950524e-001	 1.041507608715483e+000	 8.328912542872964e-001
 3.436886649785762e-001	 1.044929711293928e+000	 7.740602610661380e-001
 3.334446432318681e-001	 1.048243611892883e+000	 7.202992569993427e-001
 3.231931314934661e-001	 1.051449570699323e+000	 6.716918753760530e-001
 3.129357327612948e-001	 1.054547878060998e+000	 6.283179935951436e-001
 3.026740363428060e-001	 1.057538853980594e+000	 5.902536715926565e-001
 4.141065482611941e-001	 1.046011838691909e+000	 1.678947349832052e+000
 4.037107950700578e-001	 1.050067899680813e+000	 1.585639567663123e+000
 3.932972896257999e-001	 1.054012448677930e+000	 1.496715771528926e+000
 3.828677407343075e-001	 1.057845590385517e+000	 1.412272233412027e+000
 3.724238474752319e-001	 1.061567462680552e+000	 1.332402039391846e+000
 3.619672984430179e-001	 1.065178236186105e+000	 1.257194996216935e+000
 3.514997710058514e-001	 1.068678113823391e+000	 1.186737544406162e+000
 3.410229305830307e-001	 1.072067330345292e+000	 1.121112677932854e+000
 3.305384299412438e-001	 1.075346151852123e+000	 1.060399870526332e+000
 3.200479085101875e-001	 1.078514875290446e+000	 1.004675008610954e+000
 3.095529917179391e-001	 1.081573827935737e+000	 9.540103308841195e-001
 4.233089160010993e-001	 1.069256546218074e+000	 2.122647688372151e+000
 4.126821460731842e-001	 1.073402741895839e+000	 2.017570634158300e+000
 4.020372293974833e-001	 1.077434947537546e+000	 1.916673919261374e+000
 3.913759127533490e-001	 1.081353270172171e+000	 1.820049481302132e+000
 3.806999329777584e-001	 1.085157850740624e+000	 1.727786216171130e+000
 3.700110161894786e-001	 1.088848863657598e+000	 1.639969886025565e+000
 3.593108770315451e-001	 1.092426516353670e+000	 1.556683033705593e+000
 3.486012179325749e-001	 1.095891048798451e+000	 1.478004903624120e+000
 3.378837283874055e-001	 1.099242733005597e+000	 1.404011369166299e+000
 3.271600842575059e-001	 1.102481872520483e+000	 1.334774866617499e+000
 3.164319470915787e-001	 1.105608801891373e+000	 1.270364335624187e+000
 4.325112837404888e-001	 1.092501253745239e+000	 2.533773467953433e+000
 4.216534970755158e-001	 1.096737584111859e+000	 2.415725829523330e+000
 4.107771691681337e-001	 1.100857446398142e+000	 2.301664980180238e+000
 3.998840847711595e-001	 1.104860949959779e+000	 2.191679148295217e+000
 3.889760184788968e-001	 1.108748238801613e+000	 2.085853648493417e+000
 3.780547339344346e-001	 1.112519491129963e+000	 1.984270790660714e+000
 3.671219830556572e-001	 1.116174918884764e+000	 1.887009795291690e+000
 3.561795052805005e-001	 1.119714767252360e+000	 1.794146715232049e+000
 3.452290268319511e-001	 1.123139314159746e+000	 1.705754363852987e+000
 3.342722600032499e-001	 1.126448869751110e+000	 1.621902249677182e+000
 3.233109024637242e-001	 1.129643775847504e+000	 1.542656517459850e+000
 4.417136514793630e-001	 1.115745961273404e+000	 2.914860839633370e+000
 4.306248480770524e-001	 1.120072426328874e+000	 2.782696149662367e+000
 4.195171089377507e-001	 1.124279945259717e+000	 2.654334451709898e+000
 4.083922567877392e-001	 1.128368629748340e+000	 2.529860871303630e+000
 3.972521039786474e-001	 1.132338626863521e+000	 2.409357732350855e+000
 3.860984516778858e-001	 1.136190118603200e+000	 2.292904466750636e+000
 3.749330890781878e-001	 1.139923321416675e+000	 2.180577530297577e+000
 3.637577926268075e-001	 1.143538485707019e+000	 2.072450324932539e+000
 3.525743252748805e-001	 1.147035895314569e+000	 1.968593127377241e+000
 3.413844357474197e-001	 1.150415866982325e+000	 1.869073024173339e+000
 3.301898578343763e-001	 1.153678749804127e+000	 1.773953853130137e+000
 4.509160192177217e-001	 1.138990668802569e+000	 3.268247379433052e+000
 4.395961990777943e-001	 1.143407268546884e+000	 3.120869094856085e+000
 4.282570487063345e-001	 1.147702444122272e+000	 2.977119451642530e+000
 4.169004288030879e-001	 1.151876309537855e+000	 2.837081062123018e+000
 4.055281894770099e-001	 1.155929014926346e+000	 2.700833833563212e+000
 3.941421694198321e-001	 1.159860746077309e+000	 2.568454877983797e+000
 3.827441950991368e-001	 1.163671723949401e+000	 2.440018428253242e+000
 3.713360799714960e-001	 1.167362204162428e+000	 2.315595760508821e+000
 3.599196237161940e-001	 1.170932476470066e+000	 2.195255122943882e+000
 3.484966114900150e-001	 1.174382864214129e+000	 2.079061670982351e+000
 3.370688132035346e-001	 1.177713723761245e+000	 1.967077408844860e+000
 4.601183869555650e-001	 1.162235376332733e+000	 3.596091945840386e+000
 4.485675500777414e-001	 1.166742110765889e+000	 3.432449019324062e+000
 4.369969884738851e-001	 1.171124942985806e+000	 3.272269556100884e+000
 4.254086008172059e-001	 1.175383989328324e+000	 3.115634229943713e+000
 4.138042749739846e-001	 1.179519402990089e+000	 2.962621090794477e+000
 4.021858871602738e-001	 1.183531373552290e+000	 2.813305474402664e+000
 3.905553011185043e-001	 1.187420126482944e+000	 2.667759918245944e+000
 3.789143673145659e-001	 1.191185922618587e+000	 2.526054083790663e+000
 3.672649221558915e-001	 1.194829057626238e+000	 2.388254685130420e+000
 3.556087872310361e-001	 1.198349861446522e+000	 2.254425424024228e+000
 3.439477685711992e-001	 1.201748697718857e+000	 2.124626931337691e+000
 2.751582148273362e-001	 9.613989581649598e-001	-1.417118050193426e+000
 2.658269247236917e-001	 9.640207705404181e-001	-1.417465423509911e+000
 2.564945776709277e-001	 9.665456696725904e-001	-1.416221600496965e+000
 2.471625777918798e-001	 9.689740244583481e-001	-1.413330345611336e+000
 2.378323145820490e-001	 9.713062287851813e-001	-1.408735293428093e+000
 2.285051624109133e-001	 9.735427010105086e-001	-1.402380045377375e+000
 2.191824800423046e-001	 9.756838834310223e-001	-1.394208264041791e+000
 2.098656101739952e-001	 9.777302417428042e-001	-1.384163764909477e+000
 2.005558789966090e-001	 9.796822644929403e-001	-1.372190605483006e+000
 1.912545957719432e-001	 9.815404625233627e-001	-1.358233171658591e+000
 1.819630524307584e-001	 9.833053684076398e-001	-1.342236261294790e+000
 2.820371702084442e-001	 9.854339321181277e-001	-8.236497094310299e-001
 2.724725978510110e-001	 9.881212898035869e-001	-8.371496201438605e-001
 2.629069421207347e-001	 9.907093114145075e-001	-8.484971653758980e-001
 2.533416422435220e-001	 9.931983750701838e-001	-8.576393822765992e-001
 2.437781224522617e-001	 9.955888845052949e-001	-8.645236721835896e-001
 2.342177914756686e-001	 9.978812685361965e-001	-8.690978850834439e-001
 2.246620420466708e-001	 1.000075980516999e+000	-8.713104012114313e-001
 2.151122504304848e-001	 1.002173497786187e+000	-8.711102097144708e-001
 2.055697759725005e-001	 1.004174321104526e+000	-8.684469843090298e-001
 1.960359606660600e-001	 1.006078974084998e+000	-8.632711558760909e-001
 1.865121287401930e-001	 1.007888002615511e+000	-8.555339819447233e-001
 2.889161255880585e-001	 1.009468906071790e+000	-2.943958224240838e-001
 2.791182709769418e-001	 1.012221809067160e+000	-3.215825013777077e-001
 2.693193065692688e-001	 1.014872953156760e+000	-3.460802654318715e-001
 2.595207066940173e-001	 1.017422725682307e+000	-3.678388933193742e-001
 2.497239303214635e-001	 1.019871540225668e+000	-3.868090179047005e-001
 2.399304205395594e-001	 1.022219836062135e+000	-4.029421989133163e-001
 2.301416040503286e-001	 1.024468077603237e+000	-4.161909923674341e-001
 2.203588906864324e-001	 1.026616753829864e+000	-4.265090166821584e-001
 2.105836729480258e-001	 1.028666377716458e+000	-4.338510153829288e-001
 2.008173255599963e-001	 1.030617485647050e+000	-4.381729164158840e-001
 1.910612050496423e-001	 1.032470636823890e+000	-4.394318880325756e-001
 2.957950809661792e-001	 1.033503880025945e+000	 1.754478276003202e-001
 2.857639441014841e-001	 1.036322328331137e+000	 1.340609138354110e-001
 2.757316710165300e-001	 1.039036594899347e+000	 9.587700625802888e-002
 2.656997711433657e-001	 1.041647076294716e+000	 6.094409165962254e-002
 2.556697381896546e-001	 1.044154195946299e+000	 2.930881582191117e-002
 2.456430496025857e-001	 1.046558403588324e+000	 1.016422010478053e-003
 2.356211660532782e-001	 1.048860174689739e+000	-2.388930679548003e-002
 2.256055309418379e-001	 1.051060009873836e+000	-4.536610191748904e-002
 2.155975699231850e-001	 1.053158434328735e+000	-6.337325922915105e-002
 2.055986904537520e-001	 1.055155997209519e+000	-7.787168564366116e-002
 1.956102813591062e-001	 1.057053271032776e+000	-8.882394184773775e-002
 3.026740363428060e-001	 1.057538853980594e+000	 5.902536715926565e-001
 2.924096172246379e-001	 1.060422847595518e+000	 5.341715532981255e-001
 2.821440354625185e-001	 1.063200236642269e+000	 4.817860528118528e-001
 2.718788355915671e-001	 1.065871426907411e+000	 4.331434080174105e-001
 2.616155460568349e-001	 1.068436851667188e+000	 3.882880309920804e-001
 2.513556786647473e-001	 1.070896971114763e+000	 3.472624572462902e-001
 2.411007280555196e-001	 1.073252271776503e+000	 3.101072991554163e-001
 2.308521711967011e-001	 1.075503265918101e+000	 2.768612035734104e-001
 2.206114668979780e-001	 1.077650490941359e+000	 2.475608136083838e-001
 2.103800553473271e-001	 1.079694508772404e+000	 2.222407345309886e-001
 2.001593576685848e-001	 1.081635905242169e+000	 2.009335037767282e-001
 3.095529917179391e-001	 1.081573827935737e+000	 9.540103308841195e-001
 2.990552903464032e-001	 1.084523366860303e+000	 8.827545197074834e-001
 2.885563999072340e-001	 1.087363878385527e+000	 8.156702739661941e-001
 2.780579000386217e-001	 1.090095777520394e+000	 7.528025488522566e-001
 2.675613539230043e-001	 1.092719507388336e+000	 6.941939901201401e-001
 2.570683077260445e-001	 1.095235538641453e+000	 6.398848936257954e-001
 2.465802900570527e-001	 1.097644368863529e+000	 5.899131695253651e-001
 2.360988114510223e-001	 1.099946521962662e+000	 5.443143110951044e-001
 2.256253638724049e-001	 1.102142547554328e+000	 5.031213681249900e-001
 2.151614202407218e-001	 1.104233020335707e+000	 4.663649248272204e-001
 2.047084339780781e-001	 1.106218539452070e+000	 4.340730821922338e-001
 3.164319470915787e-001	 1.105608801891373e+000	 1.270364335624187e+000
 3.057009634667799e-001	 1.108623886125492e+000	 1.183471028167260e+000
 2.949687643506767e-001	 1.111527520129120e+000	 1.101207240357534e+000
 2.842369644845292e-001	 1.114320128133663e+000	 1.023617093510359e+000
 2.735071617881630e-001	 1.117002163109742e+000	 9.507419161832056e-001
 2.627809367864772e-001	 1.119574106168393e+000	 8.826202135941479e-001
 2.520598520578775e-001	 1.122036465950817e+000	 8.192876421801653e-001
 2.413454517048013e-001	 1.124389778007516e+000	 7.607769892300260e-001
 2.306392608464655e-001	 1.126634604167643e+000	 7.071181575146017e-001
 2.199427851339359e-001	 1.128771531899427e+000	 6.583381548291784e-001
 2.092575102875861e-001	 1.130801173662478e+000	 6.144610883500524e-001
 3.233109024637242e-001	 1.129643775847504e+000	 1.542656517459850e+000
 3.123466365857683e-001	 1.132724405391085e+000	 1.439674989974825e+000
 3.013811287928464e-001	 1.135691161873047e+000	 1.341765483852507e+000
 2.904160289292899e-001	 1.138544478747219e+000	 1.248971719687956e+000
 2.794529696523110e-001	 1.141284818831407e+000	 1.161334141508775e+000
 2.684935658460452e-001	 1.143912673695583e+000	 1.078889895677173e+000
 2.575394140579940e-001	 1.146428563038369e+000	 1.001672815426222e+000
 2.465920919580383e-001	 1.148833034052665e+000	 9.297134109369153e-001
 2.356531578201600e-001	 1.151126660781304e+000	 8.630388648513648e-001
 2.247241500269694e-001	 1.153310043463564e+000	 8.016730331079450e-001
 2.138065865971087e-001	 1.155383807873393e+000	 7.456364509721676e-001
 3.301898578343763e-001	 1.153678749804127e+000	 1.773953853130137e+000
 3.189923097033681e-001	 1.156824924657083e+000	 1.654445023434783e+000
 3.077934932337433e-001	 1.159854803617310e+000	 1.540436689086643e+000
 2.965950933729035e-001	 1.162768829361061e+000	 1.431972589020026e+000
 2.853987775154481e-001	 1.165567474553330e+000	 1.329092700550965e+000
 2.742061949047488e-001	 1.168251241223025e+000	 1.231833227390165e+000
 2.630189760574022e-001	 1.170820660126182e+000	 1.140226593798338e+000
 2.518387322107331e-001	 1.173276290098108e+000	 1.054301444762339e+000
 2.406670547934883e-001	 1.175618717395311e+000	 9.740826520610915e-001
 2.295055149198224e-001	 1.177848555028117e+000	 8.995913260771349e-001
 2.183556629066459e-001	 1.179966442084816e+000	 8.308448332008647e-001
 3.370688132035346e-001	 1.177713723761245e+000	 1.967077408844860e+000
 3.256379828195793e-001	 1.180925443923485e+000	 1.830612544981090e+000
 3.142058576733674e-001	 1.184018445361908e+000	 1.700063943182517e+000
 3.027741578153703e-001	 1.186993179975190e+000	 1.575475767087049e+000
 2.913445853775744e-001	 1.189850130275511e+000	 1.456887931714799e+000
 2.799188239625878e-001	 1.192589808750716e+000	 1.344336100239439e+000
 2.684985380561021e-001	 1.195212757214259e+000	 1.237851687424630e+000
 2.570853724628858e-001	 1.197719546143846e+000	 1.137461869576899e+000
 2.456809517664505e-001	 1.200110774009664e+000	 1.043189600855019e+000
 2.342868798124949e-001	 1.202387066593088e+000	 9.550536357649245e-001
 2.229047392161979e-001	 1.204549076296746e+000	 8.730685576582393e-001
 3.439477685711992e-001	 1.201748697718857e+000	 2.124626931337691e+000
 3.322836559344022e-001	 1.205025963190290e+000	 1.970786489364432e+000
 3.206182221117185e-001	 1.208182087106841e+000	 1.823266595501136e+000
 3.089532222566901e-001	 1.211217530589606e+000	 1.682112233020839e+000
 2.972903932386899e-001	 1.214132785997952e+000	 1.547363646961596e+000
 2.856314530195623e-001	 1.216928376278658e+000	 1.419056349323381e+000
 2.739781000540938e-001	 1.219604854302597e+000	 1.297221131467675e+000
 2.623320127144964e-001	 1.222162802189878e+000	 1.181884083543185e+000
 2.506948487390464e-001	 1.224602830624363e+000	 1.073066620751650e+000
 2.390682447049869e-001	 1.226925578158476e+000	 9.707855162526561e-001
 2.274538155257646e-001	 1.229131710509183e+000	 8.750529404986382e-001
 1.819630524307584e-001	 9.833053684076398e-001	-1.342236261294790e+000
 1.726825231903044e-001	 9.849775358802030e-001	-1.326318860225406e+000
 1.634142641909075e-001	 9.865575392624050e-001	-1.310043996884648e+000
 1.541595131519815e-001	 9.880459728836374e-001	-1.293397575061583e+000
 1.449194890479378e-001	 9.894434504957537e-001	-1.276363863928252e+000
 1.356953918032303e-001	 9.907506046851591e-001	-1.258925578325983e+000
 1.264884020066533e-001	 9.919680862820067e-001	-1.241063958501874e+000
 1.172996806447693e-001	 9.930965637671554e-001	-1.222758849190755e+000
 1.081303688543237e-001	 9.941367226775285e-001	-1.203988777942679e+000
 9.898158769347758e-002	 9.950892650105071e-001	-1.184731032599748e+000
 8.985443793167208e-002	 9.959549086279671e-001	-1.164961737832547e+000
 1.865121287401930e-001	 1.007888002615511e+000	-8.555339819447233e-001
 1.769995862676611e-001	 1.009601974274025e+000	-8.523078006241566e-001
 1.674996207923786e-001	 1.011221477740089e+000	-8.479524747618922e-001
 1.580135009767428e-001	 1.012747122201329e+000	-8.424564601283598e-001
 1.485424762695244e-001	 1.014179536753393e+000	-8.358072210002150e-001
 1.390877765932874e-001	 1.015519369797345e+000	-8.279912942006156e-001
 1.296506120515439e-001	 1.016767288434090e+000	-8.189943521534822e-001
 1.202321726555194e-001	 1.017923977856507e+000	-8.088012648847154e-001
 1.108336280703764e-001	 1.018990140739942e+000	-7.973961609068986e-001
 1.014561273807284e-001	 1.019966496631707e+000	-7.847624869296974e-001
 9.210079887525120e-002	 1.020853781340225e+000	-7.708830663432955e-001
 1.910612050496423e-001	 1.032470636823890e+000	-4.394318880325756e-001
 1.813166493452170e-001	 1.034226412668443e+000	-4.489137203659660e-001
 1.715849773942018e-001	 1.035885416218438e+000	-4.565278874831601e-001
 1.618674888019790e-001	 1.037448271519734e+000	-4.622650198879302e-001
 1.521654634916778e-001	 1.038915623011773e+000	-4.661153900537797e-001
 1.424801613839725e-001	 1.040288134910280e+000	-4.680689606923442e-001
 1.328128220970943e-001	 1.041566490586910e+000	-4.681154315960677e-001
 1.231646646669312e-001	 1.042751391946564e+000	-4.662442850237831e-001
 1.135368872870632e-001	 1.043843558803008e+000	-4.624448296051780e-001
 1.039306670685567e-001	 1.044843728253489e+000	-4.567062427401415e-001
 9.434715981932204e-002	 1.045752654052973e+000	-4.490176114786319e-001
 1.956102813591062e-001	 1.057053271032776e+000	-8.882394184773775e-002
 1.856337124229718e-001	 1.058850851063458e+000	-1.110409838226730e-001
 1.756703339963775e-001	 1.060549354697454e+000	-1.306821482262818e-001
 1.657214766276897e-001	 1.062149420838853e+000	-1.477398839961717e-001
 1.557884507143978e-001	 1.063651709270896e+000	-1.622069072572975e-001
 1.458725461752860e-001	 1.065056900023964e+000	-1.740762342502319e-001
 1.359750321433046e-001	 1.066365692740468e+000	-1.833412123887888e-001
 1.260971566790047e-001	 1.067578806037326e+000	-1.899955494535484e-001
 1.162401465043842e-001	 1.068696976866727e+000	-1.940333409307476e-001
 1.064052067569623e-001	 1.069720959875853e+000	-1.954490955133568e-001
 9.659352076388458e-002	 1.070651526766214e+000	-1.942377587818241e-001
 2.001593576685848e-001	 1.081635905242169e+000	 2.009335037767282e-001
 1.899507755009255e-001	 1.083475289459071e+000	 1.659443639301335e-001
 1.797556905989053e-001	 1.085213293177134e+000	 1.342116148716273e-001
 1.695754644538754e-001	 1.086850570158686e+000	 1.057413265723044e-001
 1.594114379376844e-001	 1.088387795530760e+000	 8.053868354061645e-002
 1.492649309672277e-001	 1.089825665138398e+000	 5.860796684178767e-002
 1.391372421901746e-001	 1.091164894894762e+000	 3.995253843677051e-002
 1.290296486917399e-001	 1.092406220128793e+000	 2.457482780039702e-002
 1.189434057223391e-001	 1.093550394931100e+000	 1.247632077033479e-002
 1.088797464459452e-001	 1.094598191498799e+000	 3.657550575700559e-003
 9.883988170893882e-002	 1.095550399479947e+000	-1.881909008836235e-003
 2.047084339780781e-001	 1.106218539452070e+000	 4.340730821922338e-001
 1.942678385790784e-001	 1.108099727855280e+000	 3.862658949700855e-001
 1.838410472017855e-001	 1.109877231657481e+000	 3.423703048214018e-001
 1.734294522805357e-001	 1.111551719479233e+000	 3.023912207821013e-001
 1.630344251615376e-001	 1.113123881791367e+000	 2.663320538871920e-001
 1.526573157597976e-001	 1.114594430253582e+000	 2.341947137797405e-001
 1.422994522377045e-001	 1.115964097049794e+000	 2.059796080965416e-001
 1.319621407051368e-001	 1.117233634220965e+000	 1.816856445522797e-001
 1.216466649409282e-001	 1.118403812996127e+000	 1.613102356379761e-001
 1.113542861355054e-001	 1.119475423122327e+000	 1.448493058472085e-001
 1.010862426544848e-001	 1.120449272194170e+000	 1.322973013393840e-001
 2.092575102875861e-001	 1.130801173662478e+000	 6.144610883500524e-001
 1.985849016574302e-001	 1.132724166252086e+000	 5.537814053596454e-001
 1.879264038050179e-001	 1.134541170138493e+000	 4.976454176139584e-001
 1.772834401076707e-001	 1.136252868800495e+000	 4.460571777617812e-001
 1.666574123859575e-001	 1.137859968052715e+000	 3.990186325304427e-001
 1.560497005529958e-001	 1.139363195369515e+000	 3.565296336009238e-001
 1.454616622858942e-001	 1.140763299205563e+000	 3.185879517224953e-001
 1.348946327191954e-001	 1.142061048313842e+000	 2.851892939519688e-001
 1.243499241601514e-001	 1.143257231061806e+000	 2.563273238973419e-001
 1.138288258256430e-001	 1.144352654746437e+000	 2.319936848448955e-001
 1.033326036005224e-001	 1.145348144908886e+000	 2.121780256407960e-001
 2.138065865971087e-001	 1.155383807873393e+000	 7.456364509721676e-001
 2.029019647359810e-001	 1.157348604649489e+000	 6.720218274887272e-001
 1.920117604086025e-001	 1.159205108620171e+000	 6.035619153081895e-001
 1.811374279352804e-001	 1.160954018122470e+000	 5.402602010418762e-001
 1.702803996109440e-001	 1.162596054314806e+000	 4.821174610364664e-001
 1.594420853468221e-001	 1.164131960486198e+000	 4.291317862222140e-001
 1.486238723347438e-001	 1.165562501362070e+000	 3.812986106696584e-001
 1.378271247339157e-001	 1.166888462407425e+000	 3.386107437043036e-001
 1.270531833800087e-001	 1.168110649128139e+000	 3.010584054241119e-001
 1.163033655163579e-001	 1.169229886371130e+000	 2.686292654609577e-001
 1.055789645470518e-001	 1.170247017624094e+000	 2.413084848245699e-001
 2.183556629066459e-001	 1.179966442084816e+000	 8.308448332008647e-001
 2.072190278147308e-001	 1.181973043047488e+000	 7.442252783744370e-001
 1.960971170125395e-001	 1.183869047102514e+000	 6.633522399825422e-001
 1.849914157633649e-001	 1.185655167445159e+000	 5.882289160132979e-001
 1.739033868364970e-001	 1.187332140577637e+000	 5.188551924544217e-001
 1.628344701412768e-001	 1.188900725603630e+000	 4.552276818485379e-001
 1.517860823842533e-001	 1.190361703519314e+000	 3.973397660343897e-001
 1.407596167492976e-001	 1.191715876501712e+000	 3.451816428866391e-001
 1.297564426005002e-001	 1.192964067195126e+000	 2.987403768639429e-001
 1.187779052076502e-001	 1.194107117996405e+000	 2.579999531704780e-001
 1.078253254940729e-001	 1.195145890339793e+000	 2.229413353340396e-001
 2.229047392161979e-001	 1.204549076296746e+000	 8.730685576582393e-001
 2.115360908936796e-001	 1.206597481446085e+000	 7.733669387812496e-001
 2.001824736168288e-001	 1.208532985585524e+000	 6.799861627129493e-001
 1.888454035919241e-001	 1.210356316768562e+000	 5.929294044319042e-001
 1.775263740626167e-001	 1.212068226841211e+000	 5.121959268797608e-001
 1.662268549363596e-001	 1.213669490721812e+000	 4.377811329844972e-001
 1.549482924344224e-001	 1.215160905677294e+000	 3.696766223545507e-001
 1.436921087653412e-001	 1.216543290596704e+000	 3.078702524206790e-001
 1.324597018216257e-001	 1.217817485262765e+000	 2.523462037989701e-001
 1.212524448995198e-001	 1.218984349622261e+000	 2.030850496452991e-001
 1.100716864415856e-001	 1.220044763055984e+000	 1.600638287680576e-001
 2.274538155257646e-001	 1.229131710509183e+000	 8.750529404986382e-001
 2.158531539728275e-001	 1.231221919845279e+000	 7.621853468464068e-001
 2.042678302214702e-001	 1.233196924069199e+000	 6.561970506733886e-001
 1.926993914209580e-001	 1.235057466092678e+000	 5.570914587820613e-001
 1.811493612893031e-001	 1.236804313105527e+000	 4.648674667497762e-001
 1.696192397320707e-001	 1.238438255840743e+000	 3.795195242045130e-001
 1.581105024852516e-001	 1.239960107836013e+000	 3.010377052654161e-001
 1.466246007820466e-001	 1.241370704692402e+000	 2.294077838882361e-001
 1.351629610433853e-001	 1.242670903331058e+000	 1.646113138539805e-001
 1.237269845919668e-001	 1.243861581248700e+000	 1.066257131340321e-001
 1.123180473895901e-001	 1.244943635772666e+000	 5.542435236512667e-002
 8.985443793167208e-002	 9.959549086279671e-001	-1.164961737832547e+000
 8.074999985732721e-002	 9.967343866612564e-001	-1.142578966773286e+000
 7.166933310492567e-002	 9.974284469156016e-001	-1.123142024082492e+000
 6.261347650004150e-002	 9.980378512759273e-001	-1.106648291198841e+000
 5.358344792087640e-002	 9.985633751160036e-001	-1.093090857788491e+000
 4.458024417780574e-002	 9.990058067093818e-001	-1.082458649268860e+000
 3.560484091004591e-002	 9.993659466433187e-001	-1.074736555428077e+000
 2.665819249913598e-002	 9.996446072361988e-001	-1.069905559929672e+000
 1.774123199891299e-002	 9.998426119589264e-001	-1.067942870499268e+000
 8.854871081648272e-003	 9.999607948607566e-001	-1.068822049594885e+000
 0.000000000000000e+000	 1.000000000000000e+000	-1.072513145369624e+000
 9.210079887525120e-002	 1.020853781340225e+000	-7.708830663432955e-001
 8.276874984949990e-002	 1.021652746325009e+000	-7.591615460762362e-001
 7.346106642874500e-002	 1.022364158086303e+000	-7.490372512014442e-001
 6.417881340919990e-002	 1.022988797556156e+000	-7.405130569134414e-001
 5.492303411602111e-002	 1.023527459492681e+000	-7.335885438368449e-001
 4.569475027984334e-002	 1.023980951876270e+000	-7.282600969983474e-001
 3.649496193086327e-002	 1.024350095308862e+000	-7.245210054586431e-001
 2.732464731015833e-002	 1.024635722416802e+000	-7.223615624531417e-001
 1.818476279791137e-002	 1.024838677257766e+000	-7.217691658902581e-001
 9.076242858200427e-003	 1.024959814732242e+000	-7.227284190655995e-001
 0.000000000000000e+000	 1.025000000000000e+000	-7.252212314504567e-001
 9.434715981932204e-002	 1.045752654052973e+000	-4.490176114786319e-001
 8.478749984206953e-002	 1.046571105989159e+000	-4.473192065034820e-001
 7.525279975287695e-002	 1.047299869257318e+000	-4.459306551054169e-001
 6.574415031859678e-002	 1.047939743836623e+000	-4.448599124954488e-001
 5.626262031134045e-002	 1.048491543869533e+000	-4.441126130814585e-001
 4.680925638200178e-002	 1.048956097043280e+000	-4.436921416474818e-001
 3.738508295175770e-002	 1.049334243974482e+000	-4.435997047619693e-001
 2.799110212122388e-002	 1.049626837597447e+000	-4.438344023183202e-001
 1.862829359692890e-002	 1.049834742556624e+000	-4.443932991119771e-001
 9.297614634757350e-003	 1.049958834603732e+000	-4.452714963635053e-001
 0.000000000000000e+000	 1.050000000000000e+000	-4.464622030997191e-001
 9.659352076388458e-002	 1.070651526766214e+000	-1.942377587818241e-001
 8.680624983503614e-002	 1.071489465653705e+000	-2.019748765212752e-001
 7.704453307732150e-002	 1.072235580428645e+000	-2.087908738219348e-001
 6.730948722823218e-002	 1.072890690117328e+000	-2.146984025331324e-001
 5.760220650683443e-002	 1.073455628246560e+000	-2.197087462746290e-001
 4.792376248428110e-002	 1.073931242210410e+000	-2.238318645128504e-001
 3.827520397272920e-002	 1.074318392640181e+000	-2.270764364376584e-001
 2.865755693233262e-002	 1.074617952778136e+000	-2.294499045965513e-001
 1.907182439596554e-002	 1.074830807855502e+000	-2.309585182445245e-001
 9.518986411319036e-003	 1.074957854475228e+000	-2.316073763715479e-001
 0.000000000000000e+000	 1.075000000000000e+000	-2.314004703684457e-001
 9.883988170893882e-002	 1.095550399479947e+000	-1.881909008836235e-003
 8.882499982839968e-002	 1.096407825318649e+000	-1.851298608024202e-002
 7.883626640207862e-002	 1.097171291600285e+000	-3.304395715287615e-002
 6.887482413810608e-002	 1.097841636398272e+000	-4.549181501860123e-002
 5.894179270250304e-002	 1.098419712623762e+000	-5.587311767397268e-002
 4.903826858668123e-002	 1.098906387377661e+000	-6.420400591821034e-002
 3.916532499377777e-002	 1.099302541305955e+000	-7.050022032645319e-002
 2.932401174348456e-002	 1.099609067958868e+000	-7.477711760648247e-002
 1.951535519502132e-002	 1.099826873154398e+000	-7.704968635015856e-002
 9.740358187885490e-003	 1.099956874346727e+000	-7.733256219287807e-002
 0.000000000000000e+000	 1.100000000000000e+000	-7.564004239305512e-002
 1.010862426544848e-001	 1.120449272194170e+000	 1.322973013393840e-001
 9.084374982216018e-002	 1.121326184983990e+000	 1.072718113269310e-001
 8.062799972714832e-002	 1.122107002772237e+000	 8.547745685572318e-002
 7.044016104821856e-002	 1.122792582679455e+000	 6.689323458530137e-002
 6.028137889834626e-002	 1.123383797001138e+000	 5.149765979133436e-002
 5.015277468920224e-002	 1.123881532545033e+000	 3.926877467749794e-002
 4.005544601490342e-002	 1.124286689971807e+000	 3.018415773861902e-002
 2.999046655467971e-002	 1.124600183139643e+000	 2.422093411250061e-002
 1.995888599409624e-002	 1.124822938453314e+000	 2.135578685789923e-002
 9.961729964456708e-003	 1.124955894218232e+000	 2.156496909526634e-002
 0.000000000000000e+000	 1.125000000000000e+000	 2.482431694739967e-002
 1.033326036005224e-001	 1.145348144908886e+000	 2.121780256407960e-001
 9.286249981631764e-002	 1.146244544649727e+000	 1.792192281805932e-001
 8.241973305253061e-002	 1.147042713944502e+000	 1.505783362875234e-001
 7.200549795856950e-002	 1.147743528960876e+000	 1.262306432876289e-001
 6.162096509436412e-002	 1.148347881378689e+000	 1.061500604627136e-001
 5.126728079184410e-002	 1.148856677712526e+000	 9.030915075936380e-002
 4.094556703610614e-002	 1.149270838637736e+000	 7.867916397465198e-002
 3.065692136591806e-002	 1.149591298320462e+000	 7.123007330286246e-002
 2.040241679319028e-002	 1.149819003752249e+000	 6.793061312973940e-002
 1.018310174103269e-002	 1.149954914089742e+000	 6.874831796101601e-002
 0.000000000000000e+000	 1.150000000000000e+000	 7.364956237268558e-002
 1.055789645470518e-001	 1.170247017624094e+000	 2.413084848245699e-001
 9.488124981087207e-002	 1.171162904315862e+000	 2.008422401707772e-001
 8.421146637822551e-002	 1.171978425117080e+000	 1.657398078950547e-001
 7.357083486915894e-002	 1.172694475242536e+000	 1.359730639227336e-001
 6.296055129055662e-002	 1.173311965756414e+000	 1.115116153913482e-001
 5.238178689460680e-002	 1.173831822880140e+000	 9.232285929451993e-002
 4.183568805738594e-002	 1.174254987303741e+000	 7.837204302641714e-002
 3.132337617719960e-002	 1.174582413501324e+000	 6.962232666077166e-002
 2.084594759230346e-002	 1.174815069051203e+000	 6.603484679938720e-002
 1.040447351761344e-002	 1.174953933961256e+000	 6.756878182735077e-002
 0.000000000000000e+000	 1.175000000000000e+000	 7.418141841428423e-002
 1.078253254940729e-001	 1.195145890339793e+000	 2.229413353340396e-001
 9.689999980582342e-002	 1.196081263982393e+000	 1.753611212790799e-001
 8.600319970423299e-002	 1.196914136289970e+000	 1.341528905716631e-001
 7.513617177998691e-002	 1.197645421524434e+000	 9.928536808514508e-002
 6.430013748692375e-002	 1.198276050134315e+000	 7.072413559748557e-002
 5.349629299749035e-002	 1.198806968047874e+000	 4.843171495246119e-002
 4.272580907874281e-002	 1.199239135969825e+000	 3.236765354651582e-002
 3.198983098852434e-002	 1.199573528682229e+000	 2.248861192403505e-002
 2.128947839143576e-002	 1.199811134350176e+000	 1.874845326543317e-002
 1.062584529419896e-002	 1.199952953832775e+000	 2.109833455607123e-002
 0.000000000000000e+000	 1.200000000000000e+000	 2.948679922650704e-002
 1.100716864415856e-001	 1.220044763055984e+000	 1.600638287680576e-001
 9.891874980117174e-002	 1.220999623649321e+000	 1.057333112999759e-001
 8.779493303055304e-002	 1.221849847463172e+000	 5.874809819384690e-002
 7.670150869105340e-002	 1.222596367806571e+000	 1.907401156194105e-002
 6.563972368346552e-002	 1.223240134512389e+000	-1.332713282462449e-002
 5.461079910049475e-002	 1.223782113215730e+000	-3.849741823202858e-002
 4.361593010017675e-002	 1.224223284635985e+000	-5.648271690747892e-002
 3.265628579989229e-002	 1.224564643863177e+000	-6.733257754032725e-002
 2.173300919058720e-002	 1.224807199649169e+000	-7.110011050507488e-002
 1.084721707078924e-002	 1.224951973704298e+000	-6.784187114813448e-002
 0.000000000000000e+000	 1.225000000000000e+000	-5.761774137493551e-002
 1.123180473895901e-001	 1.244943635772666e+000	 5.542435236512667e-002
 1.009374997969171e-001	 1.245917983316647e+000	-5.320300740844421e-003
 8.958666635718569e-002	 1.246785558636688e+000	-5.777850987727120e-002
 7.826684560235840e-002	 1.247547314088946e+000	-1.019871240866781e-001
 6.697930988018191e-002	 1.248204218890639e+000	-1.379878522143688e-001
 5.572530520362001e-002	 1.248757258383706e+000	-1.658271317955409e-001
 4.450605112168776e-002	 1.249207433302222e+000	-1.855559947636626e-001
 3.332274061130344e-002	 1.249555759044169e+000	-1.972299302991408e-001
 2.217653998975778e-002	 1.249803264948180e+000	-2.009087451339560e-001
 1.106858884738428e-002	 1.249950993575827e+000	-1.966564216218984e-001
 0.000000000000000e+000	 1.250000000000000e+000	-1.845409738792613e-001
 1.250000000000000e+000	 0.000000000000000e+000	 2.001086083784987e+001
 1.249950993575827e+000	 1.106858884738393e-002	 2.002794962630776e+001
 1.249803264948180e+000	 2.217653998975746e-002	 2.003868229912840e+001
 1.249555759044169e+000	 3.332274061130316e-002	 2.004291588543010e+001
 1.249207433302222e+000	 4.450605112168751e-002	 2.004050798186992e+001
 1.248757258383706e+000	 5.572530520361980e-002	 2.003131691183939e+001
 1.248204218890639e+000	 6.697930988018173e-002	 2.001520188897699e+001
 1.247547314088946e+000	 7.826684560235826e-002	 1.999202318486805e+001
 1.246785558636687e+000	 8.958666635718561e-002	 1.996164230078875e+001
 1.245917983316646e+000	 1.009374997969170e-001	 1.992392214333610e+001
 1.244943635772666e+000	 1.123180473895901e-001	 1.987872720377165e+001
 1.275000000000000e+000	 0.000000000000000e+000	 1.933316661986725e+001
 1.274950013447356e+000	 1.128996062397897e-002	 1.935214278738203e+001
 1.274799330247192e+000	 2.262007078892803e-002	 1.936513813399601e+001
 1.274546874225160e+000	 3.398919542271432e-002	 1.937203395879026e+001
 1.274191581968459e+000	 4.539617214319853e-002	 1.937271096237783e+001
 1.273732403551682e+000	 5.683981130674506e-002	 1.936704927972183e+001
 1.273168303268888e+000	 6.831889607689813e-002	 1.935492851497337e+001
 1.272498260371322e+000	 7.983218251366328e-002	 1.933622777842501e+001
 1.271721269810203e+000	 9.137839968381827e-002	 1.931082572567480e+001
 1.270836342983972e+000	 1.029562497926623e-001	 1.927860059909813e+001
 1.269842508489349e+000	 1.145644083375946e-001	 1.923943027172445e+001
 1.300000000000000e+000	 0.000000000000000e+000	 1.871595937720442e+001
 1.299949033318879e+000	 1.151133240056925e-002	 1.873619715135870e+001
 1.299795395546183e+000	 2.306360158807946e-002	 1.875065826898914e+001
 1.299537989406108e+000	 3.465565023408224e-002	 1.875922044374908e+001
 1.299175730634619e+000	 4.628629316463247e-002	 1.876176054188262e+001
 1.298707548719537e+000	 5.795431740974946e-002	 1.875815461091287e+001
 1.298132387646963e+000	 6.965848227343988e-002	 1.874827791055398e+001
 1.297449206653458e+000	 8.139751942472973e-002	 1.873200494595748e+001
 1.296656980983405e+000	 9.317013301013832e-002	 1.870920950340512e+001
 1.295754702650900e+000	 1.049749997880106e-001	 1.867976468856110e+001
 1.294741381205540e+000	 1.168107692851074e-001	 1.864354296739703e+001
 1.325000000000000e+000	 0.000000000000000e+000	 1.815602341433715e+001
 1.324948053190397e+000	 1.173270417715475e-002	 1.817699354108602e+001
 1.324791460845157e+000	 2.350713238721176e-002	 1.819239234063113e+001
 1.324529104587013e+000	 3.532210504540698e-002	 1.820209422968593e+001
 1.324159879300702e+000	 4.717641418598934e-002	 1.820597252917442e+001
 1.323682693887272e+000	 5.906882351263301e-002	 1.820389948845211e+001
 1.323096472024863e+000	 7.099806846980700e-002	 1.819574631194653e+001
 1.322400152935356e+000	 8.296285633555769e-002	 1.818138318834399e+001
 1.321592692156295e+000	 9.496186633614580e-002	 1.816067932245143e+001
 1.320673062317432e+000	 1.069937497829620e-001	 1.813350296986274e+001
 1.319640253921239e+000	 1.190571302321284e-001	 1.809972147456027e+001
 1.350000000000000e+000	 0.000000000000000e+000	 1.765038123540933e+001
 1.349947073061912e+000	 1.195407595373549e-002	 1.767157260170457e+001
 1.349787526144111e+000	 2.395066318632493e-002	 1.768739943731460e+001
 1.349520219767875e+000	 3.598855985668854e-002	 1.769773314831570e+001
 1.349144027966708e+000	 4.806653520726912e-002	 1.770244379690841e+001
 1.348657839054886e+000	 6.018332961539571e-002	 1.770140012082773e+001
 1.348060556402588e+000	 7.233765466599949e-002	 1.769446955536063e+001
 1.347351099217016e+000	 8.452819324614716e-002	 1.768151825811469e+001
 1.346528403328873e+000	 9.675359966184070e-002	 1.766241113668345e+001
 1.345591421983566e+000	 1.090124997775164e-001	 1.763701187935543e+001
 1.344539126636447e+000	 1.213034911786578e-001	 1.760518298901470e+001
 1.375000000000000e+000	 0.000000000000000e+000	 1.719627188971767e+001
 1.374946092933421e+000	 1.217544773031147e-002	 1.721718972804242e+001
 1.374783591443046e+000	 2.439419398541897e-002	 1.723295158901092e+001
 1.374511334948693e+000	 3.665501466792687e-002	 1.724342615272359e+001
 1.374128176632637e+000	 4.895665622847185e-002	 1.724848050736171e+001
 1.373632984222379e+000	 6.129783571803756e-002	 1.724798016343683e+001
 1.373024640780139e+000	 7.367724086201738e-002	 1.724178907082779e+001
 1.372302045498437e+000	 8.609353015649812e-002	 1.722976963876663e+001
 1.371464114501138e+000	 9.854533298722298e-002	 1.721178275893625e+001
 1.370509781649304e+000	 1.110312497716739e-001	 1.718768783184487e+001
 1.369437999351162e+000	 1.235498521246955e-001	 1.715734279664300e+001
 1.400000000000000e+000	 0.000000000000000e+000	 1.679113163732306e+001
 1.399945112804926e+000	 1.239681950688268e-002	 1.681129589053596e+001
 1.399779656741962e+000	 2.483772478449388e-002	 1.682651475462917e+001
 1.399502450129468e+000	 3.732146947912201e-002	 1.683665446724270e+001
 1.399112325298488e+000	 4.984677724959747e-002	 1.684157942585994e+001
 1.398608129389751e+000	 6.241234182055856e-002	 1.684115219653986e+001
 1.397988725157516e+000	 7.501682705786059e-002	 1.683523352560998e+001
 1.397252991779620e+000	 8.765886706661052e-002	 1.682368235449868e+001
 1.396399825673090e+000	 1.003370663122927e-001	 1.680635583788812e+001
 1.395428141314644e+000	 1.130499997654344e-001	 1.678310936537094e+001
 1.394336872065386e+000	 1.257962130702414e-001	 1.675379658679535e+001
 1.425000000000000e+000	 0.000000000000000e+000	 1.643257664986079e+001
 1.424944132676425e+000	 1.261819128344913e-002	 1.645152047947474e+001
 1.424775722040858e+000	 2.528125558354965e-002	 1.646573181070580e+001
 1.424493565310201e+000	 3.798792429027395e-002	 1.647507472155511e+001
 1.424096473964263e+000	 5.073689827064606e-002	 1.647941120121150e+001
 1.423583274557002e+000	 6.352684792295871e-002	 1.647860115290414e+001
 1.422952809534717e+000	 7.635641325352920e-002	 1.647250239988113e+001
 1.422203938060564e+000	 8.922420397648445e-002	 1.646097069471134e+001
 1.421335536844730e+000	 1.021287996370498e-001	 1.644385973210931e+001
 1.420346500979588e+000	 1.150687497587979e-001	 1.642102116548520e+001
 1.419235744779119e+000	 1.280425740152957e-001	 1.639230462742381e+001
 1.450000000000000e+000	 0.000000000000000e+000	 1.611838750092212e+001
 1.449943152547921e+000	 1.283956306001081e-002	 1.613565592397961e+001
 1.449771787339736e+000	 2.572478638258629e-002	 1.614840729988508e+001
 1.449484680490890e+000	 3.865437910138269e-002	 1.615650382954098e+001
 1.449080622629961e+000	 5.162701929161755e-002	 1.615980537575213e+001
 1.448558419724132e+000	 6.464135402523800e-002	 1.615816945982905e+001
 1.447916893911744e+000	 7.769599944902315e-002	 1.615145126147597e+001
 1.447154884341269e+000	 9.078954088611986e-002	 1.613950362217883e+001
 1.446271248016056e+000	 1.039205329614943e-001	 1.612217705231261e+001
 1.445264860644134e+000	 1.170874997517645e-001	 1.609931974218945e+001
 1.444134617492359e+000	 1.302889349598582e-001	 1.607077757727147e+001
 1.475000000000000e+000	 0.000000000000000e+000	 1.584649523368505e+001
 1.474942172419411e+000	 1.306093483656772e-002	 1.586164387515277e+001
 1.474767852638594e+000	 2.616831718160380e-002	 1.587249373040138e+001
 1.474475795671536e+000	 3.932083391244823e-002	 1.587890540587203e+001
 1.474064771295581e+000	 5.251714031251198e-002	 1.588073691979167e+001
 1.473533564891141e+000	 6.575586012739645e-002	 1.587784369215171e+001
 1.472880978288596e+000	 7.903558564434252e-002	 1.587007853812214e+001
 1.472105830621736e+000	 9.235487779551677e-002	 1.585729166513604e+001
 1.471206959187071e+000	 1.057122662856263e-001	 1.583933067388356e+001
 1.470183220308284e+000	 1.191062497443342e-001	 1.581604056345678e+001
 1.469033490205108e+000	 1.325352959039290e-001	 1.578726374089023e+001
 1.500000000000000e+000	 0.000000000000000e+000	 1.561496882178226e+001
 1.499941192290897e+000	 1.328230661311987e-002	 1.562756277091246e+001
 1.499763917937433e+000	 2.661184798060218e-002	 1.563607924561339e+001
 1.499466910852138e+000	 3.998728872347057e-002	 1.564037754094543e+001
 1.499048919961124e+000	 5.340726133332931e-002	 1.564031411261622e+001
 1.498508710058030e+000	 6.687036622943403e-002	 1.563574255995217e+001
 1.497845062665274e+000	 8.037517183948720e-002	 1.562651361244901e+001
 1.497056776901965e+000	 9.392021470467514e-002	 1.561247512015670e+001
 1.496142670357773e+000	 1.075039996094456e-001	 1.559347204815757e+001
 1.495101579972037e+000	 1.211249997365068e-001	 1.556934647540049e+001
 1.493932362917365e+000	 1.347816568475081e-001	 1.553993759815648e+001
 1.244943635772666e+000	 1.123180473895901e-001	 1.987872720377165e+001
 1.243861581248701e+000	 1.237269845919664e-001	 1.987020376177529e+001
 1.242670903331058e+000	 1.351629610433850e-001	 1.985414742889356e+001
 1.241370704692402e+000	 1.466246007820463e-001	 1.983042812699938e+001
 1.239960107836013e+000	 1.581105024852513e-001	 1.979891805519638e+001
 1.238438255840743e+000	 1.696192397320706e-001	 1.975949188213381e+001
 1.236804313105526e+000	 1.811493612893030e-001	 1.971202694064343e+001
 1.235057466092679e+000	 1.926993914209580e-001	 1.965640342442386e+001
 1.233196924069199e+000	 2.042678302214703e-001	 1.959250458648421e+001
 1.231221919845279e+000	 2.158531539728276e-001	 1.952021693904401e+001
 1.229131710509183e+000	 2.274538155257646e-001	 1.943943045457310e+001
 1.269842508489349e+000	 1.145644083375946e-001	 1.923943027172445e+001
 1.268738812875140e+000	 1.262015242844133e-001	 1.923784801728591e+001
 1.267524321399351e+000	 1.378662202651446e-001	 1.922925227984174e+001
 1.266198118788100e+000	 1.495570927987517e-001	 1.921352161579969e+001
 1.264759309994731e+000	 1.612727125360804e-001	 1.919053442005735e+001
 1.263207020959674e+000	 1.730116245277817e-001	 1.916016898032474e+001
 1.261540399369842e+000	 1.847723485159893e-001	 1.912230353428940e+001
 1.259758615416796e+000	 1.965533792499919e-001	 1.907681632971404e+001
 1.257860862552875e+000	 2.083531868261118e-001	 1.902358568755500e+001
 1.255846358244472e+000	 2.201702170519754e-001	 1.896249006818587e+001
 1.253714344721621e+000	 2.320028918353312e-001	 1.889340814080815e+001
 1.294741381205540e+000	 1.168107692851074e-001	 1.864354296739703e+001
 1.293616044500996e+000	 1.286760639762829e-001	 1.864561066955836e+001
 1.292377739466991e+000	 1.405694794862700e-001	 1.864079280701846e+001
 1.291025532883092e+000	 1.524895848147953e-001	 1.862896359151457e+001
 1.289558512152712e+000	 1.644349225862497e-001	 1.860999685673250e+001
 1.287975786077856e+000	 1.764040093228646e-001	 1.858376611073407e+001
 1.286276485633416e+000	 1.883953357421090e-001	 1.855014459150484e+001
 1.284459764740199e+000	 2.004073670785511e-001	 1.850900532572737e+001
 1.282524801035884e+000	 2.124385434304010e-001	 1.846022119088242e+001
 1.280470796643069e+000	 2.244872801309243e-001	 1.840366498077709e+001
 1.278296978933551e+000	 2.365519681448832e-001	 1.833920947459574e+001
 1.319640253921239e+000	 1.190571302321284e-001	 1.809972147456027e+001
 1.318493276126270e+000	 1.311506036675752e-001	 1.810508831013397e+001
 1.317231157533977e+000	 1.432727387067615e-001	 1.810370321876287e+001
 1.315852946977379e+000	 1.554220768301773e-001	 1.809543630018530e+001
 1.314357714309955e+000	 1.675971326357590e-001	 1.808015705482354e+001
 1.312744551195288e+000	 1.797963941173192e-001	 1.805773443393081e+001
 1.311012571896248e+000	 1.920183229676621e-001	 1.802803689313634e+001
 1.309160914062888e+000	 2.042613549066356e-001	 1.799093244950952e+001
 1.307188739518228e+000	 2.165239000343380e-001	 1.794628874226068e+001
 1.305095235041068e+000	 2.288043432096741e-001	 1.789397309719291e+001
 1.302879613144973e+000	 2.411010444544205e-001	 1.783385259501537e+001
 1.344539126636447e+000	 1.213034911786578e-001	 1.760518298901470e+001
 1.343370507750963e+000	 1.336251433582901e-001	 1.761351062203171e+001
 1.342084575600310e+000	 1.459759979266188e-001	 1.761522585930906e+001
 1.340680361070961e+000	 1.583545688448975e-001	 1.761019491866897e+001
 1.339156916466462e+000	 1.707593426846086e-001	 1.759828319239979e+001
 1.337513316311972e+000	 1.831887789111456e-001	 1.757935529473254e+001
 1.335748658158338e+000	 1.956413101926486e-001	 1.755327511299412e+001
 1.333862063384863e+000	 2.081153427342453e-001	 1.751990586257357e+001
 1.331852677999906e+000	 2.206092566379227e-001	 1.747911014583588e+001
 1.329719673438471e+000	 2.331214062882249e-001	 1.743075001511314e+001
 1.327462247355889e+000	 2.456501207639431e-001	 1.737468703989959e+001
 1.369437999351162e+000	 1.235498521246955e-001	 1.715734279664300e+001
 1.368247739375074e+000	 1.360996830484277e-001	 1.716830410422077e+001
 1.366937993665990e+000	 1.486792571458420e-001	 1.717279861500954e+001
 1.365507775163839e+000	 1.612870608589561e-001	 1.717068889292058e+001
 1.363956118622231e+000	 1.739215527327984e-001	 1.716183644493703e+001
 1.362282081427904e+000	 1.865811637043437e-001	 1.714610176552603e+001
 1.360484744419686e+000	 1.992642974170684e-001	 1.712334438500604e+001
 1.358563212706124e+000	 2.119693305613803e-001	 1.709342292202285e+001
 1.356516616480918e+000	 2.246946132411551e-001	 1.705619514028534e+001
 1.354344111835278e+000	 2.374384693665767e-001	 1.701151800970823e+001
 1.352044881566296e+000	 2.501991970734510e-001	 1.695924777210482e+001
 1.394336872065386e+000	 1.257962130702414e-001	 1.675379658679535e+001
 1.393124970998602e+000	 1.385742227379879e-001	 1.676707449876758e+001
 1.391791411731016e+000	 1.513825163644311e-001	 1.677403745521756e+001
 1.390335189256011e+000	 1.642195528723530e-001	 1.677454459253790e+001
 1.388755320777263e+000	 1.770837627803283e-001	 1.676845375340627e+001
 1.387050846543088e+000	 1.899735484969137e-001	 1.675562152773424e+001
 1.385220830680293e+000	 2.028872846409217e-001	 1.673590329785019e+001
 1.383264362026671e+000	 2.158233183880406e-001	 1.670915328808779e+001
 1.381180554961264e+000	 2.287799698440352e-001	 1.667522461894900e+001
 1.378968550231487e+000	 2.417555324447296e-001	 1.663396936600643e+001
 1.376627515776197e+000	 2.547482733829443e-001	 1.658523862370587e+001
 1.419235744779119e+000	 1.280425740152957e-001	 1.639230462742381e+001
 1.418002202621548e+000	 1.410487624269708e-001	 1.640759106775718e+001
 1.416644829795389e+000	 1.540857755823861e-001	 1.641672081097116e+001
 1.415162603347478e+000	 1.671520448850881e-001	 1.641954979114357e+001
 1.413554522931558e+000	 1.802459728271983e-001	 1.641593240624781e+001
 1.411819611657522e+000	 1.933659332888554e-001	 1.640572155523438e+001
 1.409956916940157e+000	 2.065102718642082e-001	 1.638876867962595e+001
 1.407965511346504e+000	 2.196773062142262e-001	 1.636492380981666e+001
 1.405844493440945e+000	 2.328653264465631e-001	 1.633403561626276e+001
 1.403592988627099e+000	 2.460725955226834e-001	 1.629595146574862e+001
 1.401210149985591e+000	 2.592973496924230e-001	 1.625051748290699e+001
 1.444134617492359e+000	 1.302889349598582e-001	 1.607077757727147e+001
 1.442879434243912e+000	 1.435233021153764e-001	 1.608777249673965e+001
 1.441498247859108e+000	 1.567890347997070e-001	 1.609877556967546e+001
 1.439990017438240e+000	 1.700845368971616e-001	 1.610363975224510e+001
 1.438353725085116e+000	 1.834081828734086e-001	 1.610221621631364e+001
 1.436588376771207e+000	 1.967583180801688e-001	 1.609435438224977e+001
 1.434693003199280e+000	 2.101332590869282e-001	 1.607990195652474e+001
 1.432666660665624e+000	 2.235312940399371e-001	 1.605870497431557e+001
 1.430508431919961e+000	 2.369506830487387e-001	 1.603060784731936e+001
 1.428217427022114e+000	 2.503896586004382e-001	 1.599545341698220e+001
 1.425792784194477e+000	 2.638464260018870e-001	 1.595308301334123e+001
 1.469033490205108e+000	 1.325352959039290e-001	 1.578726374089023e+001
 1.467756665865694e+000	 1.459978418032046e-001	 1.580567423172458e+001
 1.466351665922175e+000	 1.594922940163938e-001	 1.581826449405453e+001
 1.464817431528297e+000	 1.730170289085734e-001	 1.582488473009205e+001
 1.463152927237936e+000	 1.865703929189590e-001	 1.582538310354441e+001
 1.461357141884141e+000	 2.001507028708540e-001	 1.581960576772743e+001
 1.459429089457661e+000	 2.137562463090816e-001	 1.580739689875449e+001
 1.457367809984029e+000	 2.273852818651732e-001	 1.578859873403181e+001
 1.455172370398310e+000	 2.410360396505621e-001	 1.576305161628740e+001
 1.452841865416533e+000	 2.547067216779940e-001	 1.573059404335750e+001
 1.450375418402855e+000	 2.683955023113362e-001	 1.569106272394962e+001
 1.493932362917365e+000	 1.347816568475081e-001	 1.553993759815648e+001
 1.492633897486894e+000	 1.484723814904555e-001	 1.555947708247599e+001
 1.491205083984588e+000	 1.621955532324464e-001	 1.557337489920813e+001
 1.489644845617649e+000	 1.759495209193235e-001	 1.558147872044751e+001
 1.487952129390019e+000	 1.897326029638495e-001	 1.558363391937874e+001
 1.486125906996327e+000	 2.035430876609110e-001	 1.557968359327775e+001
 1.484165175715299e+000	 2.173792335306682e-001	 1.556946859187167e+001
 1.482068959301720e+000	 2.312392696899346e-001	 1.555282755130890e+001
 1.479836308875994e+000	 2.451213962520331e-001	 1.552959693398856e+001
 1.477466303810354e+000	 2.590237847553507e-001	 1.549961107449421e+001
 1.474958052610726e+000	 2.729445786207708e-001	 1.546270223187239e+001
 1.229131710509183e+000	 2.274538155257646e-001	 1.943943045457310e+001
 1.226925578158476e+000	 2.390682447049866e-001	 1.940432069031100e+001
 1.224602830624363e+000	 2.506948487390461e-001	 1.936073782757951e+001
 1.222162802189878e+000	 2.623320127144961e-001	 1.930859792795850e+001
 1.219604854302598e+000	 2.739781000540936e-001	 1.924782150118899e+001
 1.216928376278658e+000	 2.856314530195622e-001	 1.917833369294727e+001
 1.214132785997951e+000	 2.972903932386898e-001	 1.910006447102537e+001
 1.211217530589606e+000	 3.089532222566900e-001	 1.901294880952812e+001
 1.208182087106841e+000	 3.206182221117185e-001	 1.891692687068828e+001
 1.205025963190290e+000	 3.322836559344022e-001	 1.881194418389584e+001
 1.201748697718857e+000	 3.439477685711992e-001	 1.869795182152953e+001
 1.253714344721621e+000	 2.320028918353312e-001	 1.889340814080815e+001
 1.251464089723864e+000	 2.438496095974737e-001	 1.887196205959320e+001
 1.249094887239062e+000	 2.557087457116228e-001	 1.883985416876617e+001
 1.246606058235910e+000	 2.675786529660630e-001	 1.879485215753752e+001
 1.243996951390936e+000	 2.794576620520075e-001	 1.874114492276459e+001
 1.241266943806600e+000	 2.913440820764148e-001	 1.867864726355710e+001
 1.238415441720392e+000	 3.032362010996294e-001	 1.860727883263057e+001
 1.235441881204021e+000	 3.151322866977698e-001	 1.852696433430370e+001
 1.232345728851775e+000	 3.270305865497554e-001	 1.843763372030409e+001
 1.229126482457096e+000	 3.389293290488262e-001	 1.833922238295467e+001
 1.225783671676468e+000	 3.508267239383701e-001	 1.823167134530605e+001
 1.278296978933551e+000	 2.365519681448832e-001	 1.833920947459574e+001
 1.276002601288834e+000	 2.486309744901317e-001	 1.832382471416252e+001
 1.273586943853415e+000	 2.607226426845269e-001	 1.830054333101401e+001
 1.271049314281647e+000	 2.728252932180849e-001	 1.826925055905910e+001
 1.268389048479012e+000	 2.849372240504742e-001	 1.822983205489073e+001
 1.265605511334292e+000	 2.970567111338884e-001	 1.818217397321187e+001
 1.262698097442573e+000	 3.091820089612281e-001	 1.812616304576331e+001
 1.259666231818150e+000	 3.213113511395163e-001	 1.806168666381335e+001
 1.256509370596372e+000	 3.334429509884362e-001	 1.798863296426346e+001
 1.253227001723497e+000	 3.455750021638407e-001	 1.790689091941435e+001
 1.249818645633586e+000	 3.577056793060471e-001	 1.781577571718326e+001
 1.302879613144973e+000	 2.411010444544205e-001	 1.783385259501537e+001
 1.300541112853388e+000	 2.534123393829606e-001	 1.782414414210876e+001
 1.298079000467422e+000	 2.657365396577586e-001	 1.780663168427858e+001
 1.295492570327091e+000	 2.780719334705618e-001	 1.778119289851117e+001
 1.292781145566826e+000	 2.904167860494935e-001	 1.774770562847765e+001
 1.289944078861733e+000	 3.027693401919828e-001	 1.770604796174137e+001
 1.286980753164496e+000	 3.151278168234857e-001	 1.765609831093201e+001
 1.283890582431992e+000	 3.274904155819298e-001	 1.759773549895956e+001
 1.280673012340635e+000	 3.398553154277612e-001	 1.753083884833272e+001
 1.277327520989495e+000	 3.522206752794461e-001	 1.745528827463725e+001
 1.273853619590210e+000	 3.645846346742306e-001	 1.737096438422054e+001
 1.327462247355889e+000	 2.456501207639431e-001	 1.737468703989959e+001
 1.325079624417525e+000	 2.581937042759605e-001	 1.737028958611751e+001
 1.322571057081084e+000	 2.707504366313178e-001	 1.735818813833083e+001
 1.319935826372239e+000	 2.833185737234933e-001	 1.733825301547929e+001
 1.317173242654377e+000	 2.958963480490658e-001	 1.731035443921090e+001
 1.314282646388923e+000	 3.084819692506980e-001	 1.727436261250318e+001
 1.311263408886161e+000	 3.210736246864024e-001	 1.723014780272419e+001
 1.308114933045548e+000	 3.336694800250100e-001	 1.717758042921951e+001
 1.304836654084563e+000	 3.462676798677306e-001	 1.711653115550194e+001
 1.301428040255088e+000	 3.588663483956419e-001	 1.704687098611115e+001
 1.297888593546341e+000	 3.714635900429203e-001	 1.696847136819979e+001
 1.352044881566296e+000	 2.501991970734510e-001	 1.695924777210482e+001
 1.349618135981244e+000	 2.629750691691311e-001	 1.695981405764919e+001
 1.347063113694399e+000	 2.757643336052045e-001	 1.695278392522582e+001
 1.344379082417094e+000	 2.885652139768798e-001	 1.693802052817332e+001
 1.341565339741666e+000	 3.013759100491908e-001	 1.691538665028524e+001
 1.338621213915864e+000	 3.141945983100343e-001	 1.688474478547683e+001
 1.335546064607567e+000	 3.270194325499778e-001	 1.684595722237281e+001
 1.332339283658817e+000	 3.398485444687570e-001	 1.679888613391621e+001
 1.329000295828156e+000	 3.526800443083439e-001	 1.674339367208829e+001
 1.325528559520277e+000	 3.655120215124287e-001	 1.667934206781929e+001
 1.321923567501977e+000	 3.783425454121162e-001	 1.660659373615795e+001
 1.376627515776197e+000	 2.547482733829443e-001	 1.658523862370587e+001
 1.374156647544547e+000	 2.677564340624728e-001	 1.659043792901299e+001
 1.371555170307368e+000	 2.807782305794187e-001	 1.658815613261678e+001
 1.368822338461654e+000	 2.938118542307213e-001	 1.657824940892741e+001
 1.365957436828692e+000	 3.068554720498686e-001	 1.656057328198697e+001
 1.362959781442554e+000	 3.199072273699915e-001	 1.653498270581202e+001
 1.359828720328715e+000	 3.329652404142125e-001	 1.650133215014718e+001
 1.356563634271800e+000	 3.460276089131709e-001	 1.645947569174400e+001
 1.353163937571413e+000	 3.590924087496013e-001	 1.640926711127006e+001
 1.349629078785063e+000	 3.721576946298061e-001	 1.635055999594096e+001
 1.345958541457119e+000	 3.852215007818184e-001	 1.628320784795577e+001
 1.401210149985591e+000	 2.592973496924230e-001	 1.625051748290699e+001
 1.398695159107433e+000	 2.725377989559853e-001	 1.626003425259087e+001
 1.396047226919992e+000	 2.857921275539604e-001	 1.626219315501859e+001
 1.393265594505920e+000	 2.990584944850177e-001	 1.625684356717175e+001
 1.390349533915456e+000	 3.123350340510991e-001	 1.624383392598420e+001
 1.387298348968993e+000	 3.256198564305695e-001	 1.622301180898924e+001
 1.384111376049605e+000	 3.389110482791060e-001	 1.619422402087615e+001
 1.380787984884495e+000	 3.522066733582516e-001	 1.615731668608690e+001
 1.377327579314336e+000	 3.655047731915030e-001	 1.611213534757257e+001
 1.373729598049444e+000	 3.788033677477742e-001	 1.605852507181660e+001
 1.369993515411769e+000	 3.921004561520270e-001	 1.599633056021939e+001
 1.425792784194477e+000	 2.638464260018870e-001	 1.595308301334123e+001
 1.423233670669902e+000	 2.773191638496688e-001	 1.596661559876259e+001
 1.420539283532269e+000	 2.908060245288296e-001	 1.597292165011303e+001
 1.417708850549891e+000	 3.043051347397688e-001	 1.597184392382095e+001
 1.414741631001957e+000	 3.178145960528824e-001	 1.596322393744933e+001
 1.411636916495181e+000	 3.313324854917684e-001	 1.594690205027403e+001
 1.408394031770235e+000	 3.448568561446586e-001	 1.592271755027921e+001
 1.405012335496905e+000	 3.583857378039991e-001	 1.589050874771779e+001
 1.401491221056923e+000	 3.719171376340487e-001	 1.585011307537262e+001
 1.397830117313421e+000	 3.854490408663330e-001	 1.580136719564083e+001
 1.394028489365924e+000	 3.989794115227418e-001	 1.574410711455010e+001
 1.450375418402855e+000	 2.683955023113362e-001	 1.569106272394962e+001
 1.447772182231955e+000	 2.821005287435232e-001	 1.570832223234671e+001
 1.445031340144201e+000	 2.958199215040264e-001	 1.571849482153138e+001
 1.442152106593569e+000	 3.095517749949749e-001	 1.572141680013143e+001
 1.439133728088196e+000	 3.232941580552186e-001	 1.571692292967732e+001
 1.435975484021120e+000	 3.370451145535882e-001	 1.570484650473534e+001
 1.432676687490608e+000	 3.508026640108701e-001	 1.568501943997579e+001
 1.429236686109027e+000	 3.645648022504134e-001	 1.565727236434166e+001
 1.425654862799175e+000	 3.783295020772385e-001	 1.562143472247050e+001
 1.421930636576994e+000	 3.920947139854825e-001	 1.557733488350864e+001
 1.418063463319586e+000	 4.058583668939629e-001	 1.552480025744172e+001
 1.474958052610726e+000	 2.729445786207708e-001	 1.546270223187239e+001
 1.472310693793589e+000	 2.868818936375483e-001	 1.548341147139760e+001
 1.469523396755786e+000	 3.008338184795506e-001	 1.549718187335873e+001
 1.466595362636951e+000	 3.147984152506359e-001	 1.550384346767309e+001
 1.463525825174173e+000	 3.287737200581075e-001	 1.550322441924227e+001
 1.460314051546808e+000	 3.427577436160289e-001	 1.549515110726189e+001
 1.456959343210721e+000	 3.567484718777407e-001	 1.547944821199368e+001
 1.453461036720863e+000	 3.707438666974945e-001	 1.545593880918471e+001
 1.449818504541092e+000	 3.847418665210725e-001	 1.542444447230458e+001
 1.446031155840162e+000	 3.987403871052226e-001	 1.538478538275700e+001
 1.442098437272754e+000	 4.127373222656903e-001	 1.533678044820608e+001
 1.201748697718857e+000	 3.439477685711992e-001	 1.869795182152953e+001
 1.198349861446522e+000	 3.556087872310357e-001	 1.863052373238959e+001
 1.194829057626238e+000	 3.672649221558912e-001	 1.855452249460052e+001
 1.191185922618588e+000	 3.789143673145657e-001	 1.846994085020297e+001
 1.187420126482944e+000	 3.905553011185042e-001	 1.837677774995427e+001
 1.183531373552289e+000	 4.021858871602737e-001	 1.827503847922969e+001
 1.179519402990089e+000	 4.138042749739844e-001	 1.816473477765542e+001
 1.175383989328324e+000	 4.254086008172058e-001	 1.804588495208506e+001
 1.171124942985805e+000	 4.369969884738851e-001	 1.791851398253723e+001
 1.166742110765889e+000	 4.485675500777415e-001	 1.778265362071788e+001
 1.162235376332733e+000	 4.601183869555650e-001	 1.763834248075800e+001
 1.225783671676468e+000	 3.508267239383701e-001	 1.823167134530605e+001
 1.222316858678915e+000	 3.627209629714752e-001	 1.817256576873584e+001
 1.218725638782410e+000	 3.746102205949435e-001	 1.810479947407168e+001
 1.215009641074746e+000	 3.864926546569513e-001	 1.802835516903175e+001
 1.211168529016486e+000	 3.983664071371730e-001	 1.794322185442426e+001
 1.207202001027271e+000	 4.102296049000269e-001	 1.784939496392135e+001
 1.203109791053832e+000	 4.220803604703062e-001	 1.774687649760992e+001
 1.198891669118793e+000	 4.339167728307316e-001	 1.763567514890534e+001
 1.194547441849339e+000	 4.457369282409295e-001	 1.751580642441781e+001
 1.190076952984894e+000	 4.575389010772938e-001	 1.738729275636668e+001
 1.185480083862899e+000	 4.693207546931507e-001	 1.725016360714549e+001
 1.249818645633586e+000	 3.577056793060471e-001	 1.781577571718326e+001
 1.246283855910719e+000	 3.698331387123256e-001	 1.776471131035213e+001
 1.242622219937908e+000	 3.819555190343213e-001	 1.770489306311654e+001
 1.238833359530156e+000	 3.940709419995868e-001	 1.763629366605462e+001
 1.234916931549213e+000	 4.061775131560259e-001	 1.755889219451670e+001
 1.230872628501380e+000	 4.182733226399084e-001	 1.747267426247765e+001
 1.226700179116658e+000	 4.303564459667100e-001	 1.737763217020441e+001
 1.222399348908309e+000	 4.424249448443035e-001	 1.727376504529675e+001
 1.217969940711894e+000	 4.544768680079944e-001	 1.716107897666277e+001
 1.213411795202904e+000	 4.665102520768513e-001	 1.703958714099612e+001
 1.208724791392063e+000	 4.785231224307363e-001	 1.690930992132827e+001
 1.273853619590210e+000	 3.645846346742306e-001	 1.737096438422054e+001
 1.270250853141934e+000	 3.769453144535873e-001	 1.733922985255368e+001
 1.266518801092730e+000	 3.893008174740247e-001	 1.729918250011866e+001
 1.262657077984815e+000	 4.016492293424722e-001	 1.725072869188096e+001
 1.258665334081123e+000	 4.139886191750625e-001	 1.719377573980967e+001
 1.254543255974617e+000	 4.263170403799179e-001	 1.712823199202014e+001
 1.250290567178565e+000	 4.386325314631963e-001	 1.705400692580720e+001
 1.245907028696870e+000	 4.509331168579218e-001	 1.695811592225450e+001
 1.241392439573469e+000	 4.632168077750800e-001	 1.685232527886840e+001
 1.236746637419919e+000	 4.754816030764139e-001	 1.673756247154921e+001
 1.231969498920228e+000	 4.877254901683218e-001	 1.661383885923774e+001
 1.297888593546341e+000	 3.714635900429203e-001	 1.696847136819979e+001
 1.294217850372561e+000	 3.840574901952600e-001	 1.694451475390749e+001
 1.290415382246879e+000	 3.966461159140538e-001	 1.691231566529287e+001
 1.286480796438724e+000	 4.092275166856075e-001	 1.687177029488547e+001
 1.282413736612218e+000	 4.217997251942835e-001	 1.682277549802122e+001
 1.278213883446982e+000	 4.343607581200555e-001	 1.676522888788642e+001
 1.273880955239555e+000	 4.469086169597644e-001	 1.669902893507376e+001
 1.269414708484477e+000	 4.594412888715865e-001	 1.662407507165866e+001
 1.264814938434064e+000	 4.719567475421861e-001	 1.654026779978866e+001
 1.260081479635940e+000	 4.844529540759816e-001	 1.644750880476439e+001
 1.255214206447393e+000	 4.969278579059074e-001	 1.634570107257459e+001
 1.321923567501977e+000	 3.783425454121162e-001	 1.660659373615795e+001
 1.318184847602598e+000	 3.911696659373439e-001	 1.659009396531162e+001
 1.314311963400354e+000	 4.039914143544086e-001	 1.656542914717939e+001
 1.310304514891883e+000	 4.168058040289927e-001	 1.653248540728139e+001
 1.306162139142497e+000	 4.296108312136883e-001	 1.649114923958800e+001
 1.301884510918475e+000	 4.424044758603212e-001	 1.644130760722806e+001
 1.297471343299627e+000	 4.551847024564149e-001	 1.638284804834691e+001
 1.292922388271132e+000	 4.679494608852973e-001	 1.631565878712768e+001
 1.288237437293681e+000	 4.806966873093129e-001	 1.623962884997384e+001
 1.283416321850965e+000	 4.934243050755545e-001	 1.615464818683364e+001
 1.278458913973558e+000	 5.061302256434931e-001	 1.606060779763100e+001
 1.345958541457119e+000	 3.852215007818184e-001	 1.628320784795577e+001
 1.342151844832046e+000	 3.982818416798387e-001	 1.627386489948697e+001
 1.338208544553154e+000	 4.113367127950889e-001	 1.625644162232476e+001
 1.334128233344292e+000	 4.243840913726280e-001	 1.623081417109879e+001
 1.329910541671959e+000	 4.374219372332774e-001	 1.619685876401663e+001
 1.325555138389096e+000	 4.504481936007150e-001	 1.615445178900228e+001
 1.321061731358780e+000	 4.634607879531473e-001	 1.610346991563836e+001
 1.316430068056832e+000	 4.764576328990545e-001	 1.604379021293239e+001
 1.311659936152317e+000	 4.894366270764604e-001	 1.597529027290980e+001
 1.306751164064996e+000	 5.023956560751326e-001	 1.589784834001884e+001
 1.301703621498723e+000	 5.153325933810786e-001	 1.581134344631279e+001
 1.369993515411769e+000	 3.921004561520270e-001	 1.599633056021939e+001
 1.366118842060906e+000	 4.053940174227450e-001	 1.599386393144933e+001
 1.362105125705279e+000	 4.186820112360948e-001	 1.598340919666708e+001
 1.357951951795951e+000	 4.319623787165131e-001	 1.596483262710540e+001
 1.353658944200606e+000	 4.452330432530504e-001	 1.593800024183556e+001
 1.349225765858845e+000	 4.584919113412370e-001	 1.590277791910465e+001
 1.344652119417017e+000	 4.717368734499621e-001	 1.585903151414730e+001
 1.339937747841579e+000	 4.849658049128583e-001	 1.580662698349997e+001
 1.335082435009975e+000	 4.981765668436284e-001	 1.574543051582676e+001
 1.330086006278031e+000	 5.113670070747158e-001	 1.567530866924546e+001
 1.324948329022888e+000	 5.245349611186642e-001	 1.559612851512307e+001
 1.394028489365924e+000	 3.989794115227418e-001	 1.574410711455010e+001
 1.390085839289178e+000	 4.125061931660621e-001	 1.574825441900116e+001
 1.386001706856731e+000	 4.260273096774265e-001	 1.574451355817474e+001
 1.381775670246860e+000	 4.395406660606481e-001	 1.573274099939814e+001
 1.377407346728437e+000	 4.530441492730074e-001	 1.571279263088612e+001
 1.372896393327723e+000	 4.665356290818870e-001	 1.568452387804682e+001
 1.368242507474335e+000	 4.800129589468590e-001	 1.564778982695099e+001
 1.363445427625372e+000	 4.934739769267081e-001	 1.560244535500084e+001
 1.358504933866654e+000	 5.069165066108172e-001	 1.554834526881395e+001
 1.353420848490073e+000	 5.203383580743043e-001	 1.548534444931638e+001
 1.348193036546053e+000	 5.337373288562498e-001	 1.541329800401746e+001
 1.418063463319586e+000	 4.058583668939629e-001	 1.552480025744172e+001
 1.414052836516859e+000	 4.196183689097904e-001	 1.553531594147847e+001
 1.409898288007508e+000	 4.333726081190837e-001	 1.553805133430121e+001
 1.405599388697018e+000	 4.471189534050329e-001	 1.553285317139213e+001
 1.401155749255452e+000	 4.608552552931484e-001	 1.551956727061807e+001
 1.396567020795728e+000	 4.745793468226651e-001	 1.549803865327708e+001
 1.391832895530735e+000	 4.882890444438381e-001	 1.546811167301511e+001
 1.386953107408211e+000	 5.019821489406043e-001	 1.542963015265840e+001
 1.381927432722353e+000	 5.156564463780266e-001	 1.538243752898428e+001
 1.376755690701119e+000	 5.293097090738980e-001	 1.532637700543079e+001
 1.371437744068218e+000	 5.429396965938355e-001	 1.526129171272145e+001
 1.442098437272754e+000	 4.127373222656903e-001	 1.533678044820608e+001
 1.438019833743952e+000	 4.267305446539297e-001	 1.535343461462290e+001
 1.433794869157610e+000	 4.407179065610665e-001	 1.536242451369478e+001
 1.429423107146426e+000	 4.546972407496676e-001	 1.536358721421077e+001
 1.424904151781650e+000	 4.686663613134736e-001	 1.535675851695547e+001
 1.420237648262862e+000	 4.826230645635711e-001	 1.534177308026900e+001
 1.415423283586218e+000	 4.965651299408994e-001	 1.531846455420306e+001
 1.410460787190097e+000	 5.104903209545468e-001	 1.528666572332796e+001
 1.405349931577071e+000	 5.243963861452564e-001	 1.524620865822217e+001
 1.400090532911170e+000	 5.382810600734967e-001	 1.519692487565106e+001
 1.394682451589383e+000	 5.521420643314209e-001	 1.513864550741643e+001
 1.162235376332733e+000	 4.601183869555650e-001	 1.763834248075800e+001
 1.157604660665571e+000	 4.716475904904681e-001	 1.754496107442575e+001
 1.152849922489192e+000	 4.831532430025667e-001	 1.744426734017887e+001
 1.147971158680544e+000	 4.946334186475059e-001	 1.733640881955227e+001
 1.142968404651231e+000	 5.060861843335416e-001	 1.722154033017949e+001
 1.137841734704208e+000	 5.175096006544980e-001	 1.709982391872110e+001
 1.132591262364247e+000	 5.289017228384252e-001	 1.697142880253710e+001
 1.127217140681487e+000	 5.402606017111219e-001	 1.683653129995752e+001
 1.121719562507361e+000	 5.515842846736656e-001	 1.669531474902681e+001
 1.116098760742258e+000	 5.628708166930494e-001	 1.654796941462224e+001
 1.110355008554307e+000	 5.741182413050000e-001	 1.639469238387123e+001
 1.185480083862899e+000	 4.693207546931507e-001	 1.725016360714549e+001
 1.180756753882166e+000	 4.810805422992081e-001	 1.716908507828474e+001
 1.175906920941978e+000	 4.928163078619167e-001	 1.708015724086696e+001
 1.170930581856822e+000	 5.045260870200347e-001	 1.698349810292041e+001
 1.165827772746534e+000	 5.162079080199817e-001	 1.687923326599728e+001
 1.160598569400124e+000	 5.278597926674586e-001	 1.676749591368306e+001
 1.155243087612865e+000	 5.394797572950754e-001	 1.664842678878074e+001
 1.149761483495895e+000	 5.510658137451465e-001	 1.652217415895906e+001
 1.144153953757676e+000	 5.626159703667706e-001	 1.638889377067648e+001
 1.138420735956605e+000	 5.741282330262800e-001	 1.624874879121626e+001
 1.132562108724172e+000	 5.856006061301156e-001	 1.610190973869178e+001
 1.208724791392063e+000	 4.785231224307363e-001	 1.690930992132827e+001
 1.203908847097765e+000	 4.905134941079478e-001	 1.683891799167135e+001
 1.198963919393784e+000	 5.024793727212670e-001	 1.676014600105089e+001
 1.193890005032145e+000	 5.144187553925634e-001	 1.667308316568605e+001
 1.188687140840915e+000	 5.263296317064221e-001	 1.657782662022643e+001
 1.183355404095165e+000	 5.382099846804193e-001	 1.647448144136953e+001
 1.177894912860660e+000	 5.500577917517255e-001	 1.636316066006312e+001
 1.172305826309545e+000	 5.618710257791709e-001	 1.624398526201874e+001
 1.166588345007307e+000	 5.736476560598756e-001	 1.611708417628385e+001
 1.160742711170352e+000	 5.853856493595105e-001	 1.598259425164304e+001
 1.154769208893534e+000	 5.970829709552312e-001	 1.584066022064316e+001
 1.231969498920228e+000	 4.877254901683218e-001	 1.661383885923774e+001
 1.227060940312370e+000	 4.999464459166876e-001	 1.655262116915505e+001
 1.222020917844610e+000	 5.121424375806170e-001	 1.648249790453039e+001
 1.216849428206511e+000	 5.243114237650922e-001	 1.640353017836706e+001
 1.211546508934374e+000	 5.364513553928624e-001	 1.631578735474194e+001
 1.206112238789327e+000	 5.485601766933796e-001	 1.621934710710726e+001
 1.200546738107633e+000	 5.606358262083755e-001	 1.611429546506887e+001
 1.194850169122437e+000	 5.726762378131957e-001	 1.600072684930296e+001
 1.189022736256255e+000	 5.846793417529804e-001	 1.587874409429539e+001
 1.183064686383501e+000	 5.966430656927413e-001	 1.574845845860973e+001
 1.176976309062392e+000	 6.085653357803470e-001	 1.560998962241367e+001
 1.255214206447393e+000	 4.969278579059074e-001	 1.634570107257459e+001
 1.250213033525979e+000	 5.093793977254275e-001	 1.630786030369632e+001
 1.245077916294454e+000	 5.218055024399670e-001	 1.624562851449752e+001
 1.239808851379922e+000	 5.342040921376208e-001	 1.617334937091740e+001
 1.234405877026911e+000	 5.465730790793024e-001	 1.609171933680669e+001
 1.228869073482613e+000	 5.589103687063400e-001	 1.600078933711127e+001
 1.223198563353783e+000	 5.712138606650258e-001	 1.590061906204845e+001
 1.217394511934570e+000	 5.834814498472204e-001	 1.579127703601260e+001
 1.211457127504519e+000	 5.957110274460854e-001	 1.567284067404810e+001
 1.205386661596051e+000	 6.079004820259717e-001	 1.554539632553176e+001
 1.199183409230746e+000	 6.200477006054626e-001	 1.540903930473023e+001
 1.278458913973558e+000	 5.061302256434931e-001	 1.606060779763100e+001
 1.273365126738593e+000	 5.188123495341673e-001	 1.603109541510747e+001
 1.268134914743319e+000	 5.314685672993172e-001	 1.599168307320551e+001
 1.262768274552376e+000	 5.440967605101497e-001	 1.594225485640196e+001
 1.257265245118527e+000	 5.566948027657426e-001	 1.588269705443666e+001
 1.251625908175022e+000	 5.692605607193008e-001	 1.581289832657572e+001
 1.245850388599111e+000	 5.817918951216760e-001	 1.572103095431208e+001
 1.239938854745945e+000	 5.942866618812448e-001	 1.561461927828896e+001
 1.233891518752100e+000	 6.067427131391905e-001	 1.549844017477924e+001
 1.227708636808003e+000	 6.191578983592024e-001	 1.537255572101408e+001
 1.221390509398596e+000	 6.315300654305784e-001	 1.527413689695917e+001
 1.301703621498723e+000	 5.153325933810786e-001	 1.581134344631279e+001
 1.296517219950213e+000	 5.282453013429074e-001	 1.578891399702607e+001
 1.291191913191203e+000	 5.411316321586673e-001	 1.575625250309266e+001
 1.285727697723875e+000	 5.539894288826783e-001	 1.571321226417871e+001
 1.280124613209222e+000	 5.668165264521828e-001	 1.565964865363896e+001
 1.274382742866554e+000	 5.796107527322612e-001	 1.559541931482263e+001
 1.268502213843616e+000	 5.923699295783261e-001	 1.552038436199384e+001
 1.262483197556562e+000	 6.050918739152694e-001	 1.543440658562570e+001
 1.256325909998997e+000	 6.177743988322954e-001	 1.533735166180513e+001
 1.250030612019355e+000	 6.304153146924331e-001	 1.525702441204714e+001
 1.243597609565942e+000	 6.430124302556941e-001	 1.518877646006530e+001
 1.324948329022888e+000	 5.245349611186642e-001	 1.559612851512307e+001
 1.319669313160837e+000	 5.376782531516471e-001	 1.557961151619910e+001
 1.314248911638107e+000	 5.507946970180175e-001	 1.555254675607861e+001
 1.308687120894418e+000	 5.638820972552071e-001	 1.551475720605716e+001
 1.302983981298996e+000	 5.769382501386230e-001	 1.546606776612038e+001
 1.297139577557209e+000	 5.899609447452218e-001	 1.540630549283221e+001
 1.291154039087298e+000	 6.029479640349763e-001	 1.533529983265190e+001
 1.285027540366422e+000	 6.158970859492940e-001	 1.525288286039895e+001
 1.278760301245211e+000	 6.288060845254002e-001	 1.517647032270097e+001
 1.272352587230109e+000	 6.416727310256637e-001	 1.513243914019407e+001
 1.265804709732784e+000	 6.544947950808098e-001	 1.507996415486630e+001
 1.348193036546053e+000	 5.337373288562498e-001	 1.541329800401746e+001
 1.342821406370466e+000	 5.471112049603871e-001	 1.540159287629627e+001
 1.337305910084030e+000	 5.604577618773676e-001	 1.537904031852731e+001
 1.331646544064004e+000	 5.737747656277357e-001	 1.534543339365266e+001
 1.325843349387848e+000	 5.870599738250631e-001	 1.530056693463956e+001
 1.319896412246986e+000	 6.003111367581823e-001	 1.524423780352109e+001
 1.313805864330157e+000	 6.135259984916263e-001	 1.517624515670035e+001
 1.307571883175523e+000	 6.267022979833186e-001	 1.510337071567830e+001
 1.301194692490741e+000	 6.398377702185053e-001	 1.506718798521562e+001
 1.294674562440264e+000	 6.529301473588941e-001	 1.502203889117222e+001
 1.288011809899122e+000	 6.659771599059257e-001	 1.496793958510888e+001
 1.371437744068218e+000	 5.429396965938355e-001	 1.526129171272145e+001
 1.365973499579100e+000	 5.565441567691268e-001	 1.525336314359423e+001
 1.360362908528973e+000	 5.701208267367177e-001	 1.523430323926861e+001
 1.354605967232635e+000	 5.836674340002644e-001	 1.520387554023469e+001
 1.348702717475778e+000	 5.971816975115032e-001	 1.516184518443136e+001
 1.342653246935887e+000	 6.106613287711427e-001	 1.510797919703770e+001
 1.336457689572195e+000	 6.241040329482765e-001	 1.504204678738370e+001
 1.330116225983865e+000	 6.375075100173433e-001	 1.501033282279512e+001
 1.323629083735587e+000	 6.508694559116101e-001	 1.497241572686557e+001
 1.316996537649820e+000	 6.641875636921250e-001	 1.492505639201061e+001
 1.310218910064956e+000	 6.774595247310413e-001	 1.486825180973934e+001
 1.394682451589383e+000	 5.521420643314209e-001	 1.513864550741643e+001
 1.389125592786738e+000	 5.659771085778665e-001	 1.513351920009287e+001
 1.383419906972935e+000	 5.797838915960678e-001	 1.511699316605933e+001
 1.377565390400310e+000	 5.935601023727930e-001	 1.508880177725553e+001
 1.371562085562787e+000	 6.073034211979435e-001	 1.504868081633381e+001
 1.365410081623910e+000	 6.210115207841032e-001	 1.499636779682626e+001
 1.359109514813409e+000	 6.346820674049265e-001	 1.496290980787212e+001
 1.352660568791450e+000	 6.483127220513676e-001	 1.493208942841491e+001
 1.346063474979750e+000	 6.619011416047149e-001	 1.489139058439965e+001
 1.339318512858777e+000	 6.754449800253554e-001	 1.484078357841290e+001
 1.332426010230286e+000	 6.889418895561570e-001	 1.478024683717321e+001
 1.110355008554307e+000	 5.741182413050000e-001	 1.639469238387123e+001
 1.104488619568381e+000	 5.853246016274840e-001	 1.623756046276258e+001
 1.098499948025726e+000	 5.964879413854602e-001	 1.607028923137152e+001
 1.092389388913029e+000	 6.076063059449269e-001	 1.589295788437527e+001
 1.086157378059845e+000	 6.186777433540810e-001	 1.570565539279702e+001
 1.079804392204922e+000	 6.297003053920890e-001	 1.554402284649142e+001
 1.073330949030676e+000	 6.406720486238721e-001	 1.542120876388059e+001
 1.066737607165499e+000	 6.515910354597975e-001	 1.528992067415073e+001
 1.060024966153559e+000	 6.624553352191407e-001	 1.515019883155984e+001
 1.053193666391866e+000	 6.732630251961717e-001	 1.500208676212932e+001
 1.046244389034349e+000	 6.840121917276982e-001	 1.484563125317126e+001
 1.132562108724172e+000	 5.856006061301156e-001	 1.610190973869178e+001
 1.126578391957822e+000	 5.970310936587155e-001	 1.594421288520284e+001
 1.120469946983697e+000	 6.084177002116505e-001	 1.577680046318321e+001
 1.114237176688216e+000	 6.197584320622394e-001	 1.559976268006005e+001
 1.107880525617529e+000	 6.310512982196433e-001	 1.545726250493636e+001
 1.101400480045157e+000	 6.422943114986125e-001	 1.534462681403644e+001
 1.094797568007167e+000	 6.534854895953677e-001	 1.522418506048619e+001
 1.088072359304516e+000	 6.646228561684838e-001	 1.509598169937356e+001
 1.081225465472260e+000	 6.757044419236223e-001	 1.496006370342406e+001
 1.074257539715345e+000	 6.867282857009384e-001	 1.481648053840289e+001
 1.067169276810782e+000	 6.976924355639771e-001	 1.466528414035911e+001
 1.154769208893534e+000	 5.970829709552312e-001	 1.584066022064316e+001
 1.148668164346859e+000	 6.087375856899423e-001	 1.568288328776613e+001
 1.142439945941363e+000	 6.203474590378212e-001	 1.551578389382096e+001
 1.136084964463200e+000	 6.319105581795070e-001	 1.538751947205630e+001
 1.129603673175109e+000	 6.434248530851262e-001	 1.528394232169067e+001
 1.122996567885389e+000	 6.548883176050125e-001	 1.517320200091022e+001
 1.116264186983754e+000	 6.662989305666851e-001	 1.505534841721591e+001
 1.109407111443731e+000	 6.776546768769276e-001	 1.493043326705813e+001
 1.102425964791258e+000	 6.889535486277861e-001	 1.479850999507563e+001
 1.095321413039221e+000	 7.001935462053028e-001	 1.465963375622374e+001
 1.088094164587713e+000	 7.113726793997586e-001	 1.451386138094057e+001
 1.176976309062392e+000	 6.085653357803470e-001	 1.560998962241367e+001
 1.170757936735493e+000	 6.204440777211642e-001	 1.545259566679159e+001
 1.164409944898726e+000	 6.322772178639721e-001	 1.533411616884402e+001
 1.157932752237980e+000	 6.440626842967306e-001	 1.523851023923450e+001
 1.151326820732587e+000	 6.557984079505302e-001	 1.513635918216746e+001
 1.144592655725618e+000	 6.674823237112890e-001	 1.502771959211405e+001
 1.137730805960439e+000	 6.791123715378246e-001	 1.491264915084069e+001
 1.130741863583143e+000	 6.906864975851281e-001	 1.479120656849288e+001
 1.123626464110552e+000	 7.022026553316326e-001	 1.466345152854508e+001
 1.116385286363495e+000	 7.136588067092649e-001	 1.452944463681974e+001
 1.109019052365140e+000	 7.250529232350426e-001	 1.438924737476215e+001
 1.199183409230746e+000	 6.200477006054626e-001	 1.540903930473023e+001
 1.192847709123722e+000	 6.321505697523810e-001	 1.529647919454087e+001
 1.186379943855785e+000	 6.442069766901031e-001	 1.520778619828016e+001
 1.179780540012557e+000	 6.562148104139098e-001	 1.511314134442970e+001
 1.173049968289960e+000	 6.681719628158551e-001	 1.501260913203461e+001
 1.166188743565844e+000	 6.800763298174418e-001	 1.490625447450380e+001
 1.159197424937220e+000	 6.919258125087856e-001	 1.479414262059794e+001
 1.152076615722752e+000	 7.037183182930858e-001	 1.467633908018447e+001
 1.144826963430145e+000	 7.154517620351613e-001	 1.455290955502100e+001
 1.137449159688166e+000	 7.271240672128243e-001	 1.442391987481100e+001
 1.129943940143065e+000	 7.387331670698292e-001	 1.428943593875560e+001
 1.221390509398596e+000	 6.315300654305784e-001	 1.527413689695917e+001
 1.214937481511548e+000	 6.438570617835928e-001	 1.519132452835236e+001
 1.208349942812540e+000	 6.561367355162148e-001	 1.510312875545277e+001
 1.201628327786929e+000	 6.683669365310444e-001	 1.500962318223214e+001
 1.194773115847230e+000	 6.805455176811015e-001	 1.491088118458712e+001
 1.187784831406066e+000	 6.926703359234707e-001	 1.480697580934854e+001
 1.180664043914098e+000	 7.047392534795686e-001	 1.469797967887642e+001
 1.173411367862558e+000	 7.167501390008007e-001	 1.458396490156496e+001
 1.166027462750034e+000	 7.287008687383724e-001	 1.446500298856281e+001
 1.158513033013235e+000	 7.405893277159814e-001	 1.434116477699238e+001
 1.150868827921487e+000	 7.524134109041186e-001	 1.421252035992990e+001
 1.243597609565942e+000	 6.430124302556941e-001	 1.518877646006530e+001
 1.237027253898969e+000	 6.555635538147999e-001	 1.510599583645438e+001
 1.230319941768991e+000	 6.680664943423065e-001	 1.501845918029422e+001
 1.223476115561099e+000	 6.805190626481347e-001	 1.492624954476212e+001
 1.216496263404397e+000	 6.929190725462685e-001	 1.482944902006594e+001
 1.209380919246286e+000	 7.052643420293764e-001	 1.472813861497217e+001
 1.202130662891074e+000	 7.175526944501734e-001	 1.462239814504180e+001
 1.194746120002561e+000	 7.297819597082726e-001	 1.451230612794486e+001
 1.187227962070220e+000	 7.419499754412658e-001	 1.439793968620154e+001
 1.179576906338700e+000	 7.540545882187359e-001	 1.427937445767482e+001
 1.171793715700407e+000	 7.660936547379107e-001	 1.415668451411423e+001
 1.265804709732784e+000	 6.544947950808098e-001	 1.507996415486630e+001
 1.259117026285987e+000	 6.672700458460021e-001	 1.501586504717092e+001
 1.252289940725139e+000	 6.799962531683786e-001	 1.494660237875369e+001
 1.245323903335064e+000	 6.926711887651808e-001	 1.486139030609706e+001
 1.238219410961460e+000	 7.052926274113565e-001	 1.476666355873298e+001
 1.230977007086501e+000	 7.178583481351585e-001	 1.466807623543267e+001
 1.223597281868146e+000	 7.303661354205998e-001	 1.456571517675444e+001
 1.216080872142761e+000	 7.428137804155021e-001	 1.445966513157632e+001
 1.208428461390704e+000	 7.551990821438418e-001	 1.435000864592460e+001
 1.200640779664564e+000	 7.675198487210884e-001	 1.423682596083297e+001
 1.192718603479824e+000	 7.797738985712054e-001	 1.412019491957023e+001
 1.288011809899122e+000	 6.659771599059257e-001	 1.496793958510888e+001
 1.281206798672601e+000	 6.789765378771995e-001	 1.490739476804910e+001
 1.274259939680982e+000	 6.919260119944309e-001	 1.484211428225051e+001
 1.267171691108825e+000	 7.048233148821824e-001	 1.477225730835657e+001
 1.259942558518420e+000	 7.176661822763657e-001	 1.469798786121155e+001
 1.252573094926714e+000	 7.304523542408168e-001	 1.461947463946805e+001
 1.245063900845315e+000	 7.431795763908479e-001	 1.452632043046113e+001
 1.237415624283159e+000	 7.558456011224886e-001	 1.442441764122704e+001
 1.229628960711485e+000	 7.684481888461001e-001	 1.431957301176569e+001
 1.221704652990824e+000	 7.809851092230381e-001	 1.421187119720299e+001
 1.213643491259739e+000	 7.934541424040027e-001	 1.410139361264408e+001
 1.310218910064956e+000	 6.774595247310413e-001	 1.486825180973934e+001
 1.303296571058811e+000	 6.906830299083917e-001	 1.481155513076762e+001
 1.296229938636522e+000	 7.038557708204638e-001	 1.475053300981436e+001
 1.289019478882384e+000	 7.169754409991397e-001	 1.468535516431392e+001
 1.281665706075276e+000	 7.300397371412957e-001	 1.461619593126550e+001
 1.274169182766923e+000	 7.430463603463514e-001	 1.454323410258177e+001
 1.266530519822581e+000	 7.559930173609181e-001	 1.446665275107041e+001
 1.258750376423753e+000	 7.688774218292318e-001	 1.438663904724401e+001
 1.250829460032563e+000	 7.816972955480408e-001	 1.430338406717971e+001
 1.242768526317482e+000	 7.944503697245857e-001	 1.420293059964179e+001
 1.234568379040151e+000	 8.071343862363026e-001	 1.409869174792899e+001
 1.332426010230286e+000	 6.889418895561570e-001	 1.478024683717321e+001
 1.325386343444616e+000	 7.023895219395790e-001	 1.472767722210514e+001
 1.318199937591758e+000	 7.157855296464767e-001	 1.467117535942294e+001
 1.310867266655738e+000	 7.291275671160524e-001	 1.461092138183345e+001
 1.303388853632028e+000	 7.424132920061466e-001	 1.454709984057999e+001
 1.295765270607129e+000	 7.556403664517626e-001	 1.447989952670332e+001
 1.287997138799943e+000	 7.688064583308097e-001	 1.440951328294440e+001
 1.280085128564544e+000	 7.819092425357325e-001	 1.433613780650841e+001
 1.272029959353938e+000	 7.949464022496640e-001	 1.425997344293673e+001
 1.263832399644536e+000	 8.079156302257307e-001	 1.418122397135863e+001
 1.255493266821059e+000	 8.208146300681053e-001	 1.410009638142113e+001
 1.046244389034349e+000	 6.840121917276982e-001	 1.484563125317126e+001
 1.039177855863086e+000	 6.947009312609056e-001	 1.466508061593884e+001
 1.031994829125725e+000	 7.053273514202587e-001	 1.448150435703242e+001
 1.024696111339581e+000	 7.158895720722919e-001	 1.429512589546420e+001
 1.017282545062913e+000	 7.263857263871183e-001	 1.410616800505846e+001
 1.009755012632604e+000	 7.368139618953938e-001	 1.391485261157654e+001
 1.002114435868594e+000	 7.471724415395479e-001	 1.372140059472386e+001
 9.943617757451818e-001	 7.574593447180572e-001	 1.352603159538594e+001
 9.864980320293816e-001	 7.676728683215576e-001	 1.332896382842172e+001
 9.785242428865577e-001	 7.778112277595839e-001	 1.313041390132306e+001
 9.704414844536136e-001	 7.878726579767392e-001	 1.293059663902895e+001
 1.067169276810782e+000	 6.976924355639771e-001	 1.466528414035911e+001
 1.059961412976264e+000	 7.085949498887223e-001	 1.449929274594786e+001
 1.052634725704365e+000	 7.194338984519825e-001	 1.433028181417518e+001
 1.045190033562748e+000	 7.302073635176232e-001	 1.415845156621630e+001
 1.037628195960836e+000	 7.409134409191581e-001	 1.398400126994351e+001
 1.029950112882250e+000	 7.515502411378567e-001	 1.380712906064157e+001
 1.022156724583329e+000	 7.621158903749963e-001	 1.362803176742896e+001
 1.014249011257859e+000	 7.726085316170226e-001	 1.344690474569739e+001
 1.006227992668192e+000	 7.830263256923838e-001	 1.326394171585971e+001
 9.980947277430015e-001	 7.933674523188051e-001	 1.307933460867488e+001
 9.898503141419284e-001	 8.036301111397820e-001	 1.289327341739545e+001
 1.088094164587713e+000	 7.113726793997586e-001	 1.451386138094057e+001
 1.080744970090029e+000	 7.224889685159561e-001	 1.436101932541585e+001
 1.073274622283663e+000	 7.335404454830685e-001	 1.420517684264673e+001
 1.065683955786623e+000	 7.445251549622904e-001	 1.404651150081722e+001
 1.057973846859497e+000	 7.554411554505387e-001	 1.388519959000747e+001
 1.050145213132646e+000	 7.662865203796947e-001	 1.372141596601993e+001
 1.042199013298805e+000	 7.770593392098837e-001	 1.355533390076697e+001
 1.034136246771246e+000	 7.877577185155213e-001	 1.338712493949841e+001
 1.025957953307664e+000	 7.983797830628679e-001	 1.321695876512103e+001
 1.017665212600037e+000	 8.089236768778390e-001	 1.304500306984017e+001
 1.009259143830745e+000	 8.193875643028223e-001	 1.287142343432567e+001
 1.109019052365140e+000	 7.250529232350426e-001	 1.438924737476215e+001
 1.101528527204382e+000	 7.363829871426078e-001	 1.424822110576471e+001
 1.093914518863619e+000	 7.476469925135162e-001	 1.410422683416697e+001
 1.086177878011206e+000	 7.588429464062944e-001	 1.395741998127915e+001
 1.078319497758898e+000	 7.699688699812600e-001	 1.380795434828248e+001
 1.070340313383791e+000	 7.810227996209073e-001	 1.365598198272047e+001
 1.062241302015021e+000	 7.920027880442102e-001	 1.350165305243984e+001
 1.054023482285344e+000	 8.029069054135530e-001	 1.334511572722545e+001
 1.045687913947796e+000	 8.137332404330094e-001	 1.318651606834602e+001
 1.037235697457663e+000	 8.244799014366854e-001	 1.302599792620026e+001
 1.028667973520062e+000	 8.351450174658596e-001	 1.286370284622559e+001
 1.129943940143065e+000	 7.387331670698292e-001	 1.428943593875560e+001
 1.122312084319322e+000	 7.502770057686764e-001	 1.415896255092436e+001
 1.114554415444232e+000	 7.617535395433264e-001	 1.402556719811478e+001
 1.106671800236498e+000	 7.731607378496347e-001	 1.388938362489099e+001
 1.098665148659037e+000	 7.844965845113215e-001	 1.375054359590542e+001
 1.090535413635686e+000	 7.957590788614946e-001	 1.360917678464044e+001
 1.082283590731976e+000	 8.069462368779755e-001	 1.346541067052148e+001
 1.073910717800153e+000	 8.180560923111186e-001	 1.331937044461255e+001
 1.065417874588589e+000	 8.290866978028090e-001	 1.317117892407596e+001
 1.056806182315881e+000	 8.400361259953443e-001	 1.302095647554724e+001
 1.048076803209881e+000	 8.509024706288946e-001	 1.286882094754579e+001
 1.150868827921487e+000	 7.524134109041186e-001	 1.421252035992990e+001
 1.143095641434849e+000	 7.641710243941629e-001	 1.409140240892293e+001
 1.135194312025504e+000	 7.758600865724981e-001	 1.396742245083167e+001
 1.127165722462498e+000	 7.874785292923111e-001	 1.384069299010233e+001
 1.119010799559916e+000	 7.990242990407236e-001	 1.371132417319942e+001
 1.110730513888330e+000	 8.104953581014566e-001	 1.357942369921208e+001
 1.102325879449672e+000	 8.218896857111799e-001	 1.344509673978784e+001
 1.093797953315672e+000	 8.332052792082173e-001	 1.330844586857332e+001
 1.085147835230044e+000	 8.444401551722667e-001	 1.316957100030770e+001
 1.076376667174689e+000	 8.555923505538156e-001	 1.302856933968295e+001
 1.067485632900202e+000	 8.666599237919267e-001	 1.288553534005024e+001
 1.171793715700407e+000	 7.660936547379107e-001	 1.415668451411423e+001
 1.163879198550964e+000	 7.780650430190667e-001	 1.404378529366355e+001
 1.155834208607433e+000	 7.899666336010321e-001	 1.392809825964286e+001
 1.147659644689206e+000	 8.017963207343241e-001	 1.380971508177686e+001
 1.139356450461533e+000	 8.135520135694663e-001	 1.368872467492510e+001
 1.130925614141723e+000	 8.252316373407933e-001	 1.356521313119402e+001
 1.122368168168108e+000	 8.368331345438231e-001	 1.343926366236844e+001
 1.113685188831901e+000	 8.483544661048491e-001	 1.331095655281007e+001
 1.104877795872160e+000	 8.597936125413818e-001	 1.318036912293510e+001
 1.095947152034090e+000	 8.711485751120991e-001	 1.304757570334691e+001
 1.086894462591023e+000	 8.824173769549563e-001	 1.291264761966350e+001
 1.192718603479824e+000	 7.797738985712054e-001	 1.412019491957023e+001
 1.184662755667667e+000	 7.919590616433879e-001	 1.401443415283003e+001
 1.176474105190020e+000	 8.040731806289281e-001	 1.390597432434998e+001
 1.168153566916623e+000	 8.161141121756732e-001	 1.379488664536664e+001
 1.159702101363890e+000	 8.280797280975498e-001	 1.368123915603162e+001
 1.151120714395866e+000	 8.399679165795047e-001	 1.356509667869551e+001
 1.142410456887284e+000	 8.517765833759055e-001	 1.344652078253999e+001
 1.133572424348842e+000	 8.635036530010144e-001	 1.332556975967451e+001
 1.124607756514936e+000	 8.751470699101543e-001	 1.320229861277583e+001
 1.115517636894081e+000	 8.867047996701951e-001	 1.307675905430956e+001
 1.106303292282346e+000	 8.981748301179827e-001	 1.294899951733387e+001
 1.213643491259739e+000	 7.934541424040027e-001	 1.410139361264408e+001
 1.205446312784956e+000	 8.058530802671269e-001	 1.400174351497453e+001
 1.197114001773265e+000	 8.181797276561860e-001	 1.389949799512085e+001
 1.188647489144748e+000	 8.304319036163587e-001	 1.379470815479232e+001
 1.180047752266984e+000	 8.426074426249737e-001	 1.368742148853694e+001
 1.171315814650759e+000	 8.547041958175911e-001	 1.357768185788735e+001
 1.162452745607200e+000	 8.667200322074268e-001	 1.346552947792059e+001
 1.153459659866493e+000	 8.786528398967128e-001	 1.335100091631868e+001
 1.144337717158373e+000	 8.905005272785853e-001	 1.323412910497432e+001
 1.135088121754663e+000	 9.022610242281036e-001	 1.311494336414539e+001
 1.125712121974170e+000	 9.139322832810067e-001	 1.299346943911752e+001
 1.234568379040151e+000	 8.071343862363026e-001	 1.409869174792899e+001
 1.226229869902834e+000	 8.197470988902831e-001	 1.400417342334232e+001
 1.217753898357167e+000	 8.322862746828059e-001	 1.390717853940769e+001
 1.209141411373581e+000	 8.447496950563804e-001	 1.380773841172541e+001
 1.200393403170818e+000	 8.571351571517381e-001	 1.370588029228478e+001
 1.191510914906401e+000	 8.694404750550522e-001	 1.360162736418331e+001
 1.182495034327856e+000	 8.816634810383871e-001	 1.349499874986459e+001
 1.173346895384854e+000	 8.938020267919447e-001	 1.338600953293211e+001
 1.164067677802472e+000	 9.058539846466738e-001	 1.327467079355058e+001
 1.154658606615837e+000	 9.178172487858248e-001	 1.316098965740226e+001
 1.145120951666496e+000	 9.296897364440285e-001	 1.304496935811874e+001
 1.255493266821059e+000	 8.208146300681053e-001	 1.410009638142113e+001
 1.247013427021299e+000	 8.336411175128567e-001	 1.402024397631397e+001
 1.238393794941728e+000	 8.463928217087878e-001	 1.392758198217334e+001
 1.229635333603122e+000	 8.590674864957385e-001	 1.383258968494245e+001
 1.220739054075391e+000	 8.716628716778430e-001	 1.373527437262572e+001
 1.211706015162792e+000	 8.841767542918875e-001	 1.363563880730310e+001
 1.202537323049252e+000	 8.966069298687862e-001	 1.353368125481792e+001
 1.193234130903926e+000	 9.089512136867098e-001	 1.342939552915565e+001
 1.183797638447231e+000	 9.212074420144201e-001	 1.332277105149386e+001
 1.174229091477602e+000	 9.333734733433581e-001	 1.321379292385364e+001
 1.164529781359323e+000	 9.454471896070471e-001	 1.310244201723578e+001
 9.704414844536136e-001	 7.878726579767392e-001	 1.293059663902895e+001
 9.622508703799659e-001	 7.978554144576137e-001	 1.273480431572931e+001
 9.539535513369589e-001	 8.077577742177586e-001	 1.253688699681281e+001
 9.455507144959997e-001	 8.175780367805178e-001	 1.233698635141168e+001
 9.370435829756513e-001	 8.273145251396229e-001	 1.213524278738660e+001
 9.284334152585064e-001	 8.369655867049053e-001	 1.193179538376279e+001
 9.197215045783193e-001	 8.465295942305033e-001	 1.172678182913205e+001
 9.109091782780108e-001	 8.560049467244858e-001	 1.152033836602129e+001
 9.019977971392151e-001	 8.653900703388234e-001	 1.131259974120661e+001
 8.929887546840701e-001	 8.746834192386782e-001	 1.110369916192900e+001
 8.838834764499999e-001	 8.838834764499999e-001	 1.089376825794872e+001
 9.898503141419284e-001	 8.036301111397820e-001	 1.289327341739545e+001
 9.814958877873232e-001	 8.138125227497113e-001	 1.270742466128009e+001
 9.730326223639019e-001	 8.239129297045711e-001	 1.251937402023545e+001
 9.644617287864992e-001	 8.339295975181714e-001	 1.232925103168913e+001
 9.557844546360500e-001	 8.438608156441199e-001	 1.213718381872780e+001
 9.470020835647985e-001	 8.537048984404441e-001	 1.194329903868736e+001
 9.381159346711736e-001	 8.634601861163657e-001	 1.174772183820261e+001
 9.291273618449546e-001	 8.731250456601144e-001	 1.155057581468321e+001
 9.200377530834090e-001	 8.826978717467007e-001	 1.135198298415995e+001
 9.108485297791161e-001	 8.921770876245893e-001	 1.115206375542224e+001
 9.015611459802497e-001	 9.015611459802499e-001	 1.095093691034556e+001
 1.009259143830745e+000	 8.193875643028223e-001	 1.287142343432567e+001
 1.000740905195092e+000	 8.297696310419911e-001	 1.269506914359549e+001
 9.921116933911856e-001	 8.400680851917207e-001	 1.251644806701987e+001
 9.833727430772900e-001	 8.502811582562883e-001	 1.233567757670485e+001
 9.745253262967095e-001	 8.604071061491755e-001	 1.215287346048251e+001
 9.655707518713412e-001	 8.704442101766072e-001	 1.196814988687502e+001
 9.565103647642882e-001	 8.803907780028872e-001	 1.178161937704346e+001
 9.473455454121889e-001	 8.902451445964075e-001	 1.159339278365540e+001
 9.380777090279429e-001	 9.000056731552174e-001	 1.140357927657903e+001
 9.287083048745726e-001	 9.096707560110856e-001	 1.121228633528826e+001
 9.192388155110001e-001	 9.192388155110001e-001	 1.101961974783907e+001
 1.028667973520062e+000	 8.351450174658596e-001	 1.286370284622559e+001
 1.019985922603272e+000	 8.457267393344534e-001	 1.269642561515355e+001
 1.011190764418811e+000	 8.562232406792081e-001	 1.252682888893701e+001
 1.002283757368371e+000	 8.666327189948679e-001	 1.235501782056326e+001
 9.932661979576301e-001	 8.769533966547899e-001	 1.218109579161256e+001
 9.841394201781343e-001	 8.871835219133940e-001	 1.200516439383699e+001
 9.749047948576630e-001	 8.973213698900683e-001	 1.182732341828306e+001
 9.655637289797133e-001	 9.073652435333653e-001	 1.164767085185756e+001
 9.561176649728167e-001	 9.173134745643741e-001	 1.146630288120896e+001
 9.465680799704389e-001	 9.271644243981667e-001	 1.128331390377033e+001
 9.369164850422498e-001	 9.369164850422498e-001	 1.109879654578479e+001
 1.048076803209881e+000	 8.509024706288946e-001	 1.286882094754579e+001
 1.039230940011862e+000	 8.616838476270980e-001	 1.271023297078868e+001
 1.030269835446777e+000	 8.723783961670335e-001	 1.254928519761153e+001
 1.021194771659744e+000	 8.829842797339111e-001	 1.238607048892576e+001
 1.012007069618811e+000	 8.934996871609621e-001	 1.222067972955906e+001
 1.002708088485178e+000	 9.039228336508046e-001	 1.205320182671054e+001
 9.932992249512984e-001	 9.142519617779084e-001	 1.188372371654306e+001
 9.837819125475279e-001	 9.244853424709876e-001	 1.171233037877664e+001
 9.741576209180305e-001	 9.346212759741704e-001	 1.153910485911888e+001
 9.644278550667154e-001	 9.446580927858329e-001	 1.136412829933921e+001
 9.545941545740001e-001	 9.545941545740000e-001	 1.118747997476763e+001
 1.067485632900202e+000	 8.666599237919267e-001	 1.288553534005024e+001
 1.058475957420865e+000	 8.776409559199254e-001	 1.273527650747761e+001
 1.049348906475084e+000	 8.885335516551964e-001	 1.258263021362613e+001
 1.040105785951407e+000	 8.993358404734171e-001	 1.242767693614205e+001
 1.030747941280253e+000	 9.100459776676934e-001	 1.227049495401715e+001
 1.021276756792472e+000	 9.206621453888393e-001	 1.211116036320206e+001
 1.011693655045194e+000	 9.311825536664080e-001	 1.194974710098441e+001
 1.002000096115633e+000	 9.416054414092745e-001	 1.178632697896087e+001
 9.921975768635849e-001	 9.519290773846070e-001	 1.162096972439984e+001
 9.822876301634016e-001	 9.621517611740839e-001	 1.145374302976331e+001
 9.722718241062499e-001	 9.722718241062499e-001	 1.128471261012621e+001
 1.086894462591023e+000	 8.824173769549563e-001	 1.291264761966350e+001
 1.077720974830279e+000	 8.935980642129352e-001	 1.277038378129083e+001
 1.068427977503733e+000	 9.046887071436971e-001	 1.262571769250734e+001
 1.059016800243362e+000	 9.156874012133862e-001	 1.247871733911718e+001
 1.049488812941955e+000	 9.265922681749825e-001	 1.232944826744919e+001
 1.039845425100016e+000	 9.374014571274981e-001	 1.217797361742916e+001
 1.030088085139350e+000	 9.481131455555667e-001	 1.202435416508065e+001
 1.020218279684028e+000	 9.587255403482260e-001	 1.186864837424625e+001
 1.010237532809479e+000	 9.692368787956833e-001	 1.171091245728769e+001
 1.000147405260498e+000	 9.796454295629198e-001	 1.155120044449290e+001
 9.899494936390003e-001	 9.899494936390003e-001	 1.138956426188566e+001
 1.106303292282346e+000	 8.981748301179827e-001	 1.294899951733387e+001
 1.096965992240104e+000	 9.095551725061274e-001	 1.281442090045481e+001
 1.087507048532722e+000	 9.208438626325353e-001	 1.267743836902892e+001
 1.077927814535607e+000	 9.320389619538184e-001	 1.253810729182432e+001
 1.068229684603918e+000	 9.431385586828309e-001	 1.239648033870138e+001
 1.058414093407812e+000	 9.541407688667805e-001	 1.225260753146347e+001
 1.048482515233766e+000	 9.650437374453846e-001	 1.210653630483611e+001
 1.038436463252713e+000	 9.758456392878420e-001	 1.195831157732798e+001
 1.028277488755713e+000	 9.865446802073991e-001	 1.180797583169432e+001
 1.018007180358004e+000	 9.971390979523406e-001	 1.165556920468791e+001
 1.007627163172250e+000	 1.007627163172250e+000	 1.150112958574992e+001
 1.125712121974170e+000	 9.139322832810067e-001	 1.299346943911752e+001
 1.116211009650340e+000	 9.255122807995019e-001	 1.286628920189022e+001
 1.106586119562053e+000	 9.369990181217114e-001	 1.273671676934567e+001
 1.096838828828143e+000	 9.483905226947137e-001	 1.260479475210923e+001
 1.086970556266141e+000	 9.596848491912374e-001	 1.247056278348809e+001
 1.076982761715857e+000	 9.708800806066867e-001	 1.233405758843825e+001
 1.066876945328443e+000	 9.819743293358620e-001	 1.219531306339523e+001
 1.056654646821688e+000	 9.929657382281226e-001	 1.205436036668617e+001
 1.046317444702288e+000	 1.003852481619755e+000	 1.191122801920108e+001
 1.035866955455921e+000	 1.014632766342347e+000	 1.176594201496711e+001
 1.025304832706000e+000	 1.025304832706000e+000	 1.161852594123289e+001
 1.145120951666496e+000	 9.296897364440285e-001	 1.304496935811874e+001
 1.135456027060987e+000	 9.414693890930587e-001	 1.292492226572940e+001
 1.125665190591725e+000	 9.531541736112253e-001	 1.280250834731714e+001
 1.115749843120970e+000	 9.647420834360720e-001	 1.267775729898922e+001
 1.105711427928626e+000	 9.762311397002026e-001	 1.255069554177608e+001
 1.095551430024153e+000	 9.876193923472171e-001	 1.242134630906828e+001
 1.085271375423380e+000	 9.989049212269989e-001	 1.228972974569179e+001
 1.074872830390953e+000	 1.010085837169068e+000	 1.215586301829915e+001
 1.064357400649202e+000	 1.021160283032751e+000	 1.201976043671385e+001
 1.053726730554248e+000	 1.032126434732938e+000	 1.188143358582672e+001
 1.042982502240250e+000	 1.042982502240250e+000	 1.174089146760678e+001
 1.164529781359323e+000	 9.454471896070471e-001	 1.310244201723578e+001
 1.154701044472046e+000	 9.574264973867980e-001	 1.298928322838225e+001
 1.144744261621738e+000	 9.693093291010766e-001	 1.287379690719882e+001
 1.134660857414088e+000	 9.810936441778934e-001	 1.275599966422228e+001
 1.124452299591371e+000	 9.927774302097261e-001	 1.263590451742992e+001
 1.114120098332699e+000	 1.004358704088371e+000	 1.251352099851841e+001
 1.103665805518577e+000	 1.015835513118795e+000	 1.238885527163304e+001
 1.093091013960509e+000	 1.027205936110678e+000	 1.226191026418513e+001
 1.082397356596456e+000	 1.038468084446386e+000	 1.213268580935261e+001
 1.071586505652984e+000	 1.049620103124114e+000	 1.200117879981743e+001
 1.060660171775000e+000	 1.060660171775000e+000	 1.186738335225530e+001
 8.838834764499999e-001	 8.838834764499999e-001	 1.089376825794872e+001
 8.746834192386785e-001	 8.929887546840698e-001	 1.067857058912120e+001
 8.653900703388238e-001	 9.019977971392147e-001	 1.046277435855859e+001
 8.560049467244862e-001	 9.109091782780103e-001	 1.024650892537574e+001
 8.465295942305037e-001	 9.197215045783189e-001	 1.002990192924249e+001
 8.369655867049055e-001	 9.284334152585062e-001	 9.813079277534651e+000
 8.273145251396232e-001	 9.370435829756509e-001	 9.596165137565098e+000
 8.175780367805180e-001	 9.455507144959993e-001	 9.379281933706661e+000
 8.077577742177590e-001	 9.539535513369584e-001	 9.162550349202975e+000
 7.978554144576140e-001	 9.622508703799657e-001	 8.946089332448107e+000
 7.878726579767392e-001	 9.704414844536136e-001	 8.730016107505572e+000
 9.015611459802497e-001	 9.015611459802499e-001	 1.095093691034556e+001
 8.921770876245896e-001	 9.108485297791160e-001	 1.074453769080209e+001
 8.826978717467009e-001	 9.200377530834085e-001	 1.053743971308117e+001
 8.731250456601146e-001	 9.291273618449544e-001	 1.032975964649515e+001
 8.634601861163660e-001	 9.381159346711733e-001	 1.012161236742749e+001
 8.537048984404446e-001	 9.470020835647984e-001	 9.913110965863833e+000
 8.438608156441203e-001	 9.557844546360496e-001	 9.704366757240523e+000
 8.339295975181719e-001	 9.644617287864988e-001	 9.495489299377596e+000
 8.239129297045714e-001	 9.730326223639015e-001	 9.286586414246481e+000
 8.138125227497115e-001	 9.814958877873230e-001	 9.077764214310028e+000
 8.036301111397820e-001	 9.898503141419285e-001	 8.869127133157010e+000
 9.192388155110001e-001	 9.192388155110001e-001	 1.101961974783907e+001
 9.096707560110861e-001	 9.287083048745725e-001	 1.082170354345804e+001
 9.000056731552177e-001	 9.380777090279423e-001	 1.062299535767683e+001
 8.902451445964078e-001	 9.473455454121887e-001	 1.042359897592589e+001
 8.803907780028876e-001	 9.565103647642879e-001	 1.022361630647965e+001
 8.704442101766075e-001	 9.655707518713408e-001	 1.002314740687669e+001
 8.604071061491759e-001	 9.745253262967092e-001	 9.822290515913698e+000
 8.502811582562885e-001	 9.833727430772894e-001	 9.621142090934955e+000
 8.400680851917209e-001	 9.921116933911853e-001	 9.419796850121079e+000
 8.297696310419914e-001	 1.000740905195092e+000	 9.218347819467342e+000
 8.193875643028225e-001	 1.009259143830745e+000	 9.016886384126828e+000
 9.369164850422498e-001	 9.369164850422498e-001	 1.109879654578479e+001
 9.271644243981670e-001	 9.465680799704386e-001	 1.090907972962742e+001
 9.173134745643742e-001	 9.561176649728163e-001	 1.071848489483698e+001
 9.073652435333655e-001	 9.655637289797128e-001	 1.052710272669481e+001
 8.973213698900685e-001	 9.749047948576630e-001	 1.033502193811754e+001
 8.871835219133946e-001	 9.841394201781341e-001	 1.014232931650101e+001
 8.769533966547897e-001	 9.932661979576292e-001	 9.949109776415400e+000
 8.666327189948685e-001	 1.002283757368371e+000	 9.755446417824592e+000
 8.562232406792086e-001	 1.011190764418811e+000	 9.561420589487016e+000
 8.457267393344540e-001	 1.019985922603271e+000	 9.367111957178359e+000
 8.351450174658597e-001	 1.028667973520062e+000	 9.172598576364131e+000
 9.545941545740001e-001	 9.545941545740000e-001	 1.118747997476763e+001
 9.446580927858330e-001	 9.644278550667149e-001	 1.100570888050949e+001
 9.346212759741711e-001	 9.741576209180304e-001	 1.082298113553124e+001
 9.244853424709878e-001	 9.837819125475276e-001	 1.063937408739617e+001
 9.142519617779087e-001	 9.932992249512981e-001	 1.045496300486876e+001
 9.039228336508052e-001	 1.002708088485177e+000	 1.026982114574346e+001
 8.934996871609626e-001	 1.012007069618810e+000	 1.008401983082161e+001
 8.829842797339111e-001	 1.021194771659743e+000	 9.897628523661291e+000
 8.723783961670338e-001	 1.030269835446777e+000	 9.710714915707325e+000
 8.616838476270986e-001	 1.039230940011862e+000	 9.523345016392257e+000
 8.509024706288946e-001	 1.048076803209881e+000	 9.335583247785189e+000
 9.722718241062499e-001	 9.722718241062499e-001	 1.128471261012621e+001
 9.621517611740841e-001	 9.822876301634012e-001	 1.111066185335883e+001
 9.519290773846075e-001	 9.921975768635845e-001	 1.093558344389109e+001
 9.416054414092748e-001	 1.002000096115632e+000	 1.075954113350335e+001
 9.311825536664083e-001	 1.011693655045194e+000	 1.058259647726920e+001
 9.206621453888395e-001	 1.021276756792471e+000	 1.040480892295517e+001
 9.100459776676937e-001	 1.030747941280252e+000	 1.022623590688573e+001
 8.993358404734174e-001	 1.040105785951407e+000	 1.004693295584961e+001
 8.885335516551967e-001	 1.049348906475084e+000	 9.866953794602145e+000
 8.776409559199258e-001	 1.058475957420865e+000	 9.686350458504368e+000
 8.666599237919266e-001	 1.067485632900202e+000	 9.505173410822017e+000
 9.899494936390003e-001	 9.899494936390003e-001	 1.138956426188566e+001
 9.796454295629200e-001	 1.000147405260498e+000	 1.122303521130188e+001
 9.692368787956835e-001	 1.010237532809479e+000	 1.105541536639213e+001
 9.587255403482263e-001	 1.020218279684027e+000	 1.088675460532636e+001
 9.481131455555671e-001	 1.030088085139350e+000	 1.071710047993384e+001
 9.374014571274983e-001	 1.039845425100016e+000	 1.054649832728320e+001
 9.265922681749832e-001	 1.049488812941954e+000	 1.037499138806747e+001
 9.156874012133863e-001	 1.059016800243361e+000	 1.020262093131701e+001
 9.046887071436974e-001	 1.068427977503733e+000	 1.002942638494364e+001
 8.935980642129355e-001	 1.077720974830278e+000	 9.855445471602355e+000
 8.824173769549563e-001	 1.086894462591023e+000	 9.680714349340597e+000
 1.007627163172250e+000	 1.007627163172250e+000	 1.150112958574992e+001
 9.971390979523412e-001	 1.018007180358004e+000	 1.134194896843577e+001
 9.865446802073997e-001	 1.028277488755713e+000	 1.118162251059547e+001
 9.758456392878422e-001	 1.038436463252712e+000	 1.102018591986808e+001
 9.650437374453851e-001	 1.048482515233766e+000	 1.085767243593543e+001
 9.541407688667807e-001	 1.058414093407811e+000	 1.069411296491644e+001
 9.431385586828313e-001	 1.068229684603917e+000	 1.052953622092696e+001
 9.320389619538186e-001	 1.077927814535606e+000	 1.036396887427516e+001
 9.208438626325358e-001	 1.087507048532722e+000	 1.019743570574080e+001
 9.095551725061275e-001	 1.096965992240103e+000	 1.002995976637000e+001
 8.981748301179828e-001	 1.106303292282346e+000	 9.861562542199303e+000
 1.025304832706000e+000	 1.025304832706000e+000	 1.161852594123289e+001
 1.014632766342347e+000	 1.035866955455920e+000	 1.146654456819293e+001
 1.003852481619755e+000	 1.046317444702287e+000	 1.131337064333013e+001
 9.929657382281232e-001	 1.056654646821688e+000	 1.115902538835077e+001
 9.819743293358627e-001	 1.066876945328443e+000	 1.100352740314473e+001
 9.708800806066874e-001	 1.076982761715857e+000	 1.084689282365097e+001
 9.596848491912375e-001	 1.086970556266141e+000	 1.068913548727124e+001
 9.483905226947140e-001	 1.096838828828143e+000	 1.053026710524698e+001
 9.369990181217119e-001	 1.106586119562053e+000	 1.037029744139173e+001
 9.255122807995023e-001	 1.116211009650340e+000	 1.020923449655346e+001
 9.139322832810067e-001	 1.125712121974170e+000	 1.004708469816342e+001
 1.042982502240250e+000	 1.042982502240250e+000	 1.174089146760678e+001
 1.032126434732938e+000	 1.053726730554247e+000	 1.159598306729567e+001
 1.021160283032751e+000	 1.064357400649201e+000	 1.144984398228049e+001
 1.010085837169069e+000	 1.074872830390953e+000	 1.130248061501106e+001
 9.989049212269993e-001	 1.085271375423379e+000	 1.115389657975587e+001
 9.876193923472173e-001	 1.095551430024153e+000	 1.100409288461831e+001
 9.762311397002028e-001	 1.105711427928626e+000	 1.085306812150633e+001
 9.647420834360724e-001	 1.115749843120970e+000	 1.070081866341324e+001
 9.531541736112257e-001	 1.125665190591725e+000	 1.054733886834528e+001
 9.414693890930591e-001	 1.135456027060987e+000	 1.039262128920991e+001
 9.296897364440283e-001	 1.145120951666496e+000	 1.023665688896380e+001
 1.060660171775000e+000	 1.060660171775000e+000	 1.186738335225530e+001
 1.049620103124114e+000	 1.071586505652983e+000	 1.172944350131542e+001
 1.038468084446386e+000	 1.082397356596456e+000	 1.159024365841505e+001
 1.027205936110678e+000	 1.093091013960508e+000	 1.144977505601534e+001
 1.015835513118795e+000	 1.103665805518576e+000	 1.130802595925934e+001
 1.004358704088372e+000	 1.114120098332699e+000	 1.116498187284078e+001
 9.927774302097264e-001	 1.124452299591371e+000	 1.102062575625388e+001
 9.810936441778938e-001	 1.134660857414088e+000	 1.087493824672445e+001
 9.693093291010769e-001	 1.144744261621738e+000	 1.072789788909699e+001
 9.574264973867984e-001	 1.154701044472046e+000	 1.057948137193195e+001
 9.454471896070471e-001	 1.164529781359323e+000	 1.042966376904990e+001
 7.878726579767392e-001	 9.704414844536136e-001	 8.730016107505572e+000
 7.778112277595841e-001	 9.785242428865572e-001	 8.511651128807950e+000
 7.676728683215578e-001	 9.864980320293814e-001	 8.296396906921462e+000
 7.574593447180578e-001	 9.943617757451815e-001	 8.084436013962375e+000
 7.471724415395483e-001	 1.002114435868594e+000	 7.875946738736332e+000
 7.368139618953942e-001	 1.009755012632604e+000	 7.671103053721320e+000
 7.263857263871186e-001	 1.017282545062913e+000	 7.470074588586528e+000
 7.158895720722922e-001	 1.024696111339581e+000	 7.273026610032385e+000
 7.053273514202589e-001	 1.031994829125725e+000	 7.080120007728152e+000
 6.947009312609062e-001	 1.039177855863086e+000	 6.891511286112610e+000
 6.840121917276981e-001	 1.046244389034349e+000	 6.707352561813174e+000
 8.036301111397820e-001	 9.898503141419285e-001	 8.869127133157010e+000
 7.933674523188057e-001	 9.980947277430013e-001	 8.661690921000972e+000
 7.830263256923841e-001	 1.006227992668192e+000	 8.456396476483883e+000
 7.726085316170229e-001	 1.014249011257858e+000	 8.253392034472055e+000
 7.621158903749967e-001	 1.022156724583329e+000	 8.052822450777548e+000
 7.515502411378573e-001	 1.029950112882250e+000	 7.854829207688652e+000
 7.409134409191585e-001	 1.037628195960835e+000	 7.659550424670420e+000
 7.302073635176236e-001	 1.045190033562748e+000	 7.467120873954245e+000
 7.194338984519830e-001	 1.052634725704365e+000	 7.277672000729554e+000
 7.085949498887226e-001	 1.059961412976264e+000	 7.091331947642258e+000
 6.976924355639771e-001	 1.067169276810782e+000	 6.908225583300957e+000
 8.193875643028225e-001	 1.009259143830745e+000	 9.016886384126828e+000
 8.089236768778395e-001	 1.017665212600036e+000	 8.818650814079629e+000
 7.983797830628682e-001	 1.025957953307663e+000	 8.621621637409136e+000
 7.877577185155218e-001	 1.034136246771246e+000	 8.425913113534682e+000
 7.770593392098842e-001	 1.042199013298805e+000	 8.231637001271517e+000
 7.662865203796951e-001	 1.050145213132645e+000	 8.038902603079759e+000
 7.554411554505389e-001	 1.057973846859497e+000	 7.847816813149533e+000
 7.445251549622911e-001	 1.065683955786622e+000	 7.658484168974519e+000
 7.335404454830686e-001	 1.073274622283663e+000	 7.471006906060820e+000
 7.224889685159565e-001	 1.080744970090029e+000	 7.285485015416552e+000
 7.113726793997586e-001	 1.088094164587713e+000	 7.102016303463851e+000
 8.351450174658597e-001	 1.028667973520062e+000	 9.172598576364131e+000
 8.244799014366857e-001	 1.037235697457663e+000	 8.981951787127645e+000
 8.137332404330099e-001	 1.045687913947796e+000	 8.791607973739955e+000
 8.029069054135536e-001	 1.054023482285344e+000	 8.601647722493160e+000
 7.920027880442107e-001	 1.062241302015020e+000	 8.412149972936355e+000
 7.810227996209075e-001	 1.070340313383791e+000	 8.223192101068253e+000
 7.699688699812601e-001	 1.078319497758898e+000	 8.034850005062564e+000
 7.588429464062950e-001	 1.086177878011206e+000	 7.847198193109973e+000
 7.476469925135166e-001	 1.093914518863618e+000	 7.660309872957352e+000
 7.363829871426080e-001	 1.101528527204381e+000	 7.474257042726722e+000
 7.250529232350426e-001	 1.109019052365140e+000	 7.289110582598431e+000
 8.509024706288946e-001	 1.048076803209881e+000	 9.335583247785189e+000
 8.400361259953446e-001	 1.056806182315880e+000	 9.151021723533681e+000
 8.290866978028095e-001	 1.065417874588589e+000	 8.965890192684435e+000
 8.180560923111190e-001	 1.073910717800152e+000	 8.780235814716463e+000
 8.069462368779758e-001	 1.082283590731976e+000	 8.594104932754890e+000
 7.957590788614948e-001	 1.090535413635685e+000	 8.407543195984106e+000
 7.844965845113219e-001	 1.098665148659037e+000	 8.220595683319390e+000
 7.731607378496351e-001	 1.106671800236498e+000	 8.033307027849768e+000
 7.617535395433266e-001	 1.114554415444232e+000	 7.845721541566797e+000
 7.502770057686767e-001	 1.122312084319321e+000	 7.657883339897439e+000
 7.387331670698292e-001	 1.129943940143065e+000	 7.469836465564994e+000
 8.666599237919266e-001	 1.067485632900202e+000	 9.505173410822017e+000
 8.555923505538157e-001	 1.076376667174689e+000	 9.325294783327228e+000
 8.444401551722667e-001	 1.085147835230044e+000	 9.144002204328309e+000
 8.332052792082176e-001	 1.093797953315671e+000	 8.961309599960929e+000
 8.218896857111803e-001	 1.102325879449672e+000	 8.777230887950628e+000
 8.104953581014568e-001	 1.110730513888329e+000	 8.591780139572457e+000
 7.990242990407239e-001	 1.119010799559915e+000	 8.404971741622179e+000
 7.874785292923118e-001	 1.127165722462497e+000	 8.216820557839514e+000
 7.758600865724986e-001	 1.135194312025504e+000	 8.027342089229997e+000
 7.641710243941634e-001	 1.143095641434849e+000	 7.836552632738441e+000
 7.524134109041186e-001	 1.150868827921488e+000	 7.644469437736255e+000
 8.824173769549563e-001	 1.086894462591023e+000	 9.680714349340597e+000
 8.711485751120995e-001	 1.095947152034089e+000	 9.504210842764277e+000
 8.597936125413821e-001	 1.104877795872159e+000	 9.325477192806527e+000
 8.483544661048494e-001	 1.113685188831901e+000	 9.144494235764274e+000
 8.368331345438236e-001	 1.122368168168108e+000	 8.961243585966290e+000
 8.252316373407937e-001	 1.130925614141723e+000	 8.775707837652693e+000
 8.135520135694666e-001	 1.139356450461533e+000	 8.587870765644505e+000
 8.017963207343244e-001	 1.147659644689206e+000	 8.397717524171094e+000
 7.899666336010327e-001	 1.155834208607433e+000	 8.205234843231484e+000
 7.780650430190672e-001	 1.163879198550964e+000	 8.010411221876106e+000
 7.660936547379107e-001	 1.171793715700407e+000	 7.813237117808905e+000
 8.981748301179828e-001	 1.106303292282346e+000	 9.861562542199303e+000
 8.867047996701954e-001	 1.115517636894080e+000	 9.687214992904002e+000
 8.751470699101551e-001	 1.124607756514936e+000	 9.509847679983269e+000
 8.635036530010147e-001	 1.133572424348841e+000	 9.329408446061242e+000
 8.517765833759061e-001	 1.142410456887283e+000	 9.145846677602503e+000
 8.399679165795053e-001	 1.151120714395866e+000	 8.959113547129569e+000
 8.280797280975500e-001	 1.159702101363889e+000	 8.769162253033883e+000
 8.161141121756733e-001	 1.168153566916622e+000	 8.575948256273346e+000
 8.040731806289283e-001	 1.176474105190019e+000	 8.379429513260527e+000
 7.919590616433885e-001	 1.184662755667666e+000	 8.179566704260898e+000
 7.797738985712054e-001	 1.192718603479824e+000	 7.976323456634891e+000
 9.139322832810067e-001	 1.125712121974170e+000	 1.004708469816342e+001
 9.022610242281041e-001	 1.135088121754663e+000	 9.873757090056728e+000
 8.905005272785858e-001	 1.144337717158373e+000	 9.696645582544036e+000
 8.786528398967133e-001	 1.153459659866492e+000	 9.515665075804476e+000
 8.667200322074272e-001	 1.162452745607199e+000	 9.330732759831657e+000
 8.547041958175916e-001	 1.171315814650759e+000	 9.141768397451335e+000
 8.426074426249740e-001	 1.180047752266984e+000	 8.948694603758801e+000
 8.304319036163591e-001	 1.188647489144747e+000	 8.751437121193172e+000
 8.181797276561865e-001	 1.197114001773264e+000	 8.549925089480000e+000
 8.058530802671273e-001	 1.205446312784956e+000	 8.344091309691212e+000
 7.934541424040027e-001	 1.213643491259739e+000	 8.133872501690764e+000
 9.296897364440283e-001	 1.145120951666496e+000	 1.023665688896380e+001
 9.178172487858249e-001	 1.154658606615837e+000	 1.006329135194906e+001
 9.058539846466741e-001	 1.164067677802471e+000	 9.885402263282298e+000
 8.938020267919450e-001	 1.173346895384854e+000	 9.702871589183452e+000
 8.816634810383874e-001	 1.182495034327856e+000	 9.515584312563110e+000
 8.694404750550524e-001	 1.191510914906401e+000	 9.323428757343526e+000
 8.571351571517384e-001	 1.200393403170818e+000	 9.126296908047802e+000
 8.447496950563811e-001	 1.209141411373581e+000	 8.924084723797677e+000
 8.322862746828065e-001	 1.217753898357167e+000	 8.716692445875669e+000
 8.197470988902837e-001	 1.226229869902834e+000	 8.504024898029616e+000
 8.071343862363025e-001	 1.234568379040151e+000	 8.285991778719820e+000
 9.454471896070471e-001	 1.164529781359323e+000	 1.042966376904990e+001
 9.333734733433584e-001	 1.174229091477602e+000	 1.025527599427259e+001
 9.212074420144205e-001	 1.183797638447231e+000	 1.007564857725685e+001
 9.089512136867101e-001	 1.193234130903926e+000	 9.890630518021293e+000
 8.966069298687867e-001	 1.202537323049252e+000	 9.700074541731770e+000
 8.841767542918881e-001	 1.211706015162792e+000	 9.503837464868877e+000
 8.716628716778435e-001	 1.220739054075391e+000	 9.301780555534215e+000
 8.590674864957391e-001	 1.229635333603122e+000	 9.093769886955652e+000
 8.463928217087883e-001	 1.238393794941727e+000	 8.879676683271416e+000
 8.336411175128573e-001	 1.247013427021299e+000	 8.659377656697620e+000
 8.208146300681053e-001	 1.255493266821059e+000	 8.506476608307702e+000
 6.840121917276981e-001	 1.046244389034349e+000	 6.707352561813174e+000
 6.732630251961720e-001	 1.053193666391865e+000	 6.512980218275655e+000
 6.624553352191411e-001	 1.060024966153559e+000	 6.325569800822311e+000
 6.515910354597979e-001	 1.066737607165498e+000	 6.145254257453267e+000
 6.406720486238724e-001	 1.073330949030676e+000	 5.972160314856439e+000
 6.297003053920893e-001	 1.079804392204921e+000	 5.806408523323786e+000
 6.186777433540814e-001	 1.086157378059845e+000	 5.640895026320706e+000
 6.076063059449275e-001	 1.092389388913029e+000	 5.479450136557595e+000
 5.964879413854606e-001	 1.098499948025726e+000	 5.328210465135905e+000
 5.853246016274843e-001	 1.104488619568381e+000	 5.187436644524874e+000
 5.741182413050000e-001	 1.110355008554307e+000	 5.057378124666062e+000
 6.976924355639771e-001	 1.067169276810782e+000	 6.908225583300957e+000
 6.867282857009388e-001	 1.074257539715344e+000	 6.713459756859878e+000
 6.757044419236228e-001	 1.081225465472260e+000	 6.523938155152650e+000
 6.646228561684843e-001	 1.088072359304516e+000	 6.339770013218971e+000
 6.534854895953681e-001	 1.094797568007166e+000	 6.161059972184195e+000
 6.422943114986129e-001	 1.101400480045156e+000	 5.987908143011347e+000
 6.310512982196438e-001	 1.107880525617529e+000	 5.820410174108220e+000
 6.197584320622396e-001	 1.114237176688216e+000	 5.652667456582945e+000
 6.084177002116509e-001	 1.120469946983696e+000	 5.485829281112593e+000
 5.970310936587159e-001	 1.126578391957822e+000	 5.327788319069037e+000
 5.856006061301156e-001	 1.132562108724173e+000	 5.178795817816256e+000
 7.113726793997586e-001	 1.088094164587713e+000	 7.102016303463851e+000
 7.001935462053034e-001	 1.095321413039221e+000	 6.905363224277003e+000
 6.889535486277866e-001	 1.102425964791257e+000	 6.712290202011258e+000
 6.776546768769279e-001	 1.109407111443731e+000	 6.522882860387938e+000
 6.662989305666857e-001	 1.116264186983754e+000	 6.337223822878110e+000
 6.548883176050131e-001	 1.122996567885389e+000	 6.155392795824355e+000
 6.434248530851268e-001	 1.129603673175110e+000	 5.977466653091353e+000
 6.319105581795076e-001	 1.136084964463200e+000	 5.803519521876893e+000
 6.203474590378216e-001	 1.142439945941363e+000	 5.628333099868090e+000
 6.087375856899427e-001	 1.148668164346859e+000	 5.451570394504349e+000
 5.970829709552312e-001	 1.154769208893534e+000	 5.282249420756501e+000
 7.250529232350426e-001	 1.109019052365140e+000	 7.289110582598431e+000
 7.136588067092652e-001	 1.116385286363495e+000	 7.089180153163458e+000
 7.022026553316330e-001	 1.123626464110552e+000	 6.891215967378590e+000
 6.906864975851287e-001	 1.130741863583143e+000	 6.695280094950251e+000
 6.791123715378250e-001	 1.137730805960439e+000	 6.501433167556795e+000
 6.674823237112892e-001	 1.144592655725618e+000	 6.309734481901127e+000
 6.557984079505307e-001	 1.151326820732587e+000	 6.120242101995169e+000
 6.440626842967311e-001	 1.157932752237980e+000	 5.933012960288091e+000
 6.322772178639726e-001	 1.164409944898726e+000	 5.748102957263888e+000
 6.204440777211645e-001	 1.170757936735492e+000	 5.560450423888987e+000
 6.085653357803471e-001	 1.176976309062392e+000	 5.369463262355713e+000
 7.387331670698292e-001	 1.129943940143065e+000	 7.469836465564994e+000
 7.271240672128245e-001	 1.137449159688166e+000	 7.265335369996974e+000
 7.154517620351615e-001	 1.144826963430144e+000	 7.061234119974292e+000
 7.037183182930865e-001	 1.152076615722752e+000	 6.857571246475790e+000
 6.919258125087863e-001	 1.159197424937220e+000	 6.654385375357622e+000
 6.800763298174423e-001	 1.166188743565844e+000	 6.451715350926266e+000
 6.681719628158557e-001	 1.173049968289960e+000	 6.249600356470789e+000
 6.562148104139101e-001	 1.179780540012556e+000	 6.048080031347117e+000
 6.442069766901035e-001	 1.186379943855784e+000	 5.847194584223121e+000
 6.321505697523815e-001	 1.192847709123722e+000	 5.646984902115190e+000
 6.200477006054628e-001	 1.199183409230746e+000	 5.442045975454031e+000
 7.524134109041186e-001	 1.150868827921488e+000	 7.644469437736255e+000
 7.405893277159817e-001	 1.158513033013234e+000	 7.434194877474315e+000
 7.287008687383727e-001	 1.166027462750033e+000	 7.222798458280927e+000
 7.167501390008011e-001	 1.173411367862558e+000	 7.010295147788691e+000
 7.047392534795690e-001	 1.180664043914099e+000	 6.796701514071450e+000
 6.926703359234713e-001	 1.187784831406066e+000	 6.582035870353672e+000
 6.805455176811017e-001	 1.194773115847230e+000	 6.366318414429081e+000
 6.683669365310447e-001	 1.201628327786929e+000	 6.149571362359932e+000
 6.561367355162152e-001	 1.208349942812540e+000	 5.931819076048801e+000
 6.438570617835934e-001	 1.214937481511547e+000	 5.713088184301379e+000
 6.315300654305786e-001	 1.221390509398596e+000	 5.493407697023461e+000
 7.660936547379107e-001	 1.171793715700407e+000	 7.813237117808905e+000
 7.540545882187365e-001	 1.179576906338700e+000	 7.596071106634932e+000
 7.419499754412664e-001	 1.187227962070220e+000	 7.376303702529769e+000
 7.297819597082732e-001	 1.194746120002561e+000	 7.153926247177056e+000
 7.175526944501738e-001	 1.202130662891074e+000	 6.928933162762996e+000
 7.052643420293767e-001	 1.209380919246285e+000	 6.701322118463101e+000
 6.929190725462689e-001	 1.216496263404397e+000	 6.471094189409997e+000
 6.805190626481352e-001	 1.223476115561098e+000	 6.238254007687683e+000
 6.680664943423071e-001	 1.230319941768991e+000	 6.002809904927411e+000
 6.555635538148004e-001	 1.237027253898968e+000	 5.764774046108513e+000
 6.430124302556941e-001	 1.243597609565942e+000	 5.524162554200410e+000
 7.797738985712054e-001	 1.192718603479824e+000	 7.976323456634891e+000
 7.675198487210887e-001	 1.200640779664563e+000	 7.751227616129161e+000
 7.551990821438421e-001	 1.208428461390704e+000	 7.522090677003283e+000
 7.428137804155026e-001	 1.216080872142761e+000	 7.288880256159247e+000
 7.303661354206004e-001	 1.223597281868146e+000	 7.051568507273029e+000
 7.178583481351588e-001	 1.230977007086501e+000	 6.810132309726318e+000
 7.052926274113571e-001	 1.238219410961460e+000	 6.564553447808357e+000
 6.926711887651813e-001	 1.245323903335064e+000	 6.314818779707094e+000
 6.799962531683790e-001	 1.252289940725139e+000	 6.104825959118863e+000
 6.672700458460026e-001	 1.259117026285986e+000	 5.983029517338472e+000
 6.544947950808100e-001	 1.265804709732783e+000	 5.862521021460421e+000
 7.934541424040027e-001	 1.213643491259739e+000	 8.133872501690764e+000
 7.809851092230387e-001	 1.221704652990824e+000	 7.899883305355169e+000
 7.684481888461006e-001	 1.229628960711485e+000	 7.660450956237881e+000
 7.558456011224889e-001	 1.237415624283158e+000	 7.415519212998680e+000
 7.431795763908485e-001	 1.245063900845315e+000	 7.165037805151716e+000
 7.304523542408172e-001	 1.252573094926714e+000	 6.952527555299978e+000
 7.176661822763661e-001	 1.259942558518420e+000	 6.820959798032012e+000
 7.048233148821829e-001	 1.267171691108826e+000	 6.689428166891718e+000
 6.919260119944316e-001	 1.274259939680982e+000	 6.558007099507694e+000
 6.789765378771997e-001	 1.281206798672600e+000	 6.426766048448252e+000
 6.659771599059257e-001	 1.288011809899122e+000	 6.295769277681165e+000
 8.071343862363025e-001	 1.234568379040151e+000	 8.285991778719820e+000
 7.944503697245862e-001	 1.242768526317482e+000	 8.042216199141494e+000
 7.816972955480415e-001	 1.250829460032563e+000	 7.803960279255315e+000
 7.688774218292324e-001	 1.258750376423753e+000	 7.668494682750304e+000
 7.559930173609185e-001	 1.266530519822581e+000	 7.531832262824162e+000
 7.430463603463520e-001	 1.274169182766922e+000	 7.394056654233690e+000
 7.300397371412961e-001	 1.281665706075276e+000	 7.255248115315128e+000
 7.169754409991401e-001	 1.289019478882383e+000	 7.115483275460142e+000
 7.038557708204642e-001	 1.296229938636522e+000	 6.974834892459438e+000
 6.906830299083921e-001	 1.303296571058811e+000	 6.833371620332430e+000
 6.774595247310413e-001	 1.310218910064956e+000	 6.691157788223901e+000
 8.208146300681053e-001	 1.255493266821059e+000	 8.506476608307702e+000
 8.079156302257311e-001	 1.263832399644536e+000	 8.370232990511287e+000
 7.949464022496643e-001	 1.272029959353938e+000	 8.231686616709627e+000
 7.819092425357329e-001	 1.280085128564544e+000	 8.090921638030382e+000
 7.688064583308102e-001	 1.287997138799943e+000	 7.948020286157966e+000
 7.556403664517630e-001	 1.295765270607128e+000	 7.803062589275232e+000
 7.424132920061470e-001	 1.303388853632028e+000	 7.656126095513305e+000
 7.291275671160530e-001	 1.310867266655738e+000	 7.507285604653037e+000
 7.157855296464771e-001	 1.318199937591758e+000	 7.356612908789821e+000
 7.023895219395795e-001	 1.325386343444616e+000	 7.204176542634947e+000
 6.889418895561570e-001	 1.332426010230286e+000	 7.050041544090160e+000
 5.741182413050000e-001	 1.110355008554307e+000	 5.057378124666062e+000
 5.628708166930497e-001	 1.116098760742258e+000	 4.891505484176435e+000
 5.515842846736662e-001	 1.121719562507361e+000	 4.729557087289199e+000
 5.402606017111223e-001	 1.127217140681487e+000	 4.571714387772674e+000
 5.289017228384256e-001	 1.132591262364247e+000	 4.418154658216566e+000
 5.175096006544985e-001	 1.137841734704207e+000	 4.269050795241774e+000
 5.060861843335420e-001	 1.142968404651231e+000	 4.124571133844035e+000
 4.946334186475063e-001	 1.147971158680544e+000	 3.984879271117110e+000
 4.831532430025670e-001	 1.152849922489192e+000	 3.850133899574836e+000
 4.716475904904685e-001	 1.157604660665570e+000	 3.720488650265096e+000
 4.601183869555650e-001	 1.162235376332733e+000	 3.596091945840386e+000
 5.856006061301156e-001	 1.132562108724173e+000	 5.178795817816256e+000
 5.741282330262805e-001	 1.138420735956605e+000	 4.988379819347263e+000
 5.626159703667710e-001	 1.144153953757676e+000	 4.802191611914894e+000
 5.510658137451469e-001	 1.149761483495895e+000	 4.620426159088453e+000
 5.394797572950757e-001	 1.155243087612864e+000	 4.443273713063211e+000
 5.278597926674591e-001	 1.160598569400124e+000	 4.270919611034907e+000
 5.162079080199823e-001	 1.165827772746534e+000	 4.103544081609466e+000
 5.045260870200352e-001	 1.170930581856823e+000	 3.941322061497038e+000
 4.928163078619172e-001	 1.175906920941978e+000	 3.784423022710544e+000
 4.810805422992083e-001	 1.180756753882165e+000	 3.633010810460091e+000
 4.693207546931507e-001	 1.185480083862899e+000	 3.487243491904947e+000
 5.970829709552312e-001	 1.154769208893534e+000	 5.282249420756501e+000
 5.853856493595110e-001	 1.160742711170352e+000	 5.067197294830919e+000
 5.736476560598761e-001	 1.166588345007308e+000	 4.856660701903440e+000
 5.618710257791714e-001	 1.172305826309545e+000	 4.650848455525825e+000
 5.500577917517258e-001	 1.177894912860660e+000	 4.449964132212802e+000
 5.382099846804195e-001	 1.183355404095164e+000	 4.254205858467227e+000
 5.263296317064224e-001	 1.188687140840915e+000	 4.063766108747355e+000
 5.144187553925638e-001	 1.193890005032144e+000	 3.878831514630558e+000
 5.024793727212673e-001	 1.198963919393784e+000	 3.699582685394392e+000
 4.905134941079483e-001	 1.203908847097765e+000	 3.526194040206814e+000
 4.785231224307363e-001	 1.208724791392063e+000	 3.358833652084122e+000
 6.085653357803471e-001	 1.176976309062392e+000	 5.369463262355713e+000
 5.966430656927416e-001	 1.183064686383501e+000	 5.129665369576515e+000
 5.846793417529809e-001	 1.189022736256255e+000	 4.894655904005397e+000
 5.726762378131962e-001	 1.194850169122436e+000	 4.664657876138151e+000
 5.606358262083760e-001	 1.200546738107633e+000	 4.439888537604672e+000
 5.485601766933801e-001	 1.206112238789327e+000	 4.220559158327690e+000
 5.364513553928626e-001	 1.211546508934373e+000	 4.006874815539077e+000
 5.243114237650927e-001	 1.216849428206511e+000	 3.799034194911432e+000
 5.121424375806174e-001	 1.222020917844609e+000	 3.597229404029495e+000
 4.999464459166881e-001	 1.227060940312370e+000	 3.401645798393019e+000
 4.877254901683218e-001	 1.231969498920228e+000	 3.212461820107679e+000
 6.200477006054628e-001	 1.199183409230746e+000	 5.442045975454031e+000
 6.079004820259722e-001	 1.205386661596051e+000	 5.177376599958648e+000
 5.957110274460858e-001	 1.211457127504519e+000	 4.917754588159383e+000
 5.834814498472208e-001	 1.217394511934570e+000	 4.663417501237293e+000
 5.712138606650262e-001	 1.223198563353783e+000	 4.414596622855147e+000
 5.589103687063406e-001	 1.228869073482613e+000	 4.171516725931776e+000
 5.465730790793028e-001	 1.234405877026911e+000	 3.934395852196282e+000
 5.342040921376213e-001	 1.239808851379921e+000	 3.703445104786099e+000
 5.218055024399675e-001	 1.245077916294454e+000	 3.478868454116694e+000
 5.093793977254281e-001	 1.250213033525979e+000	 3.266570973728057e+000
 4.969278579059074e-001	 1.255214206447393e+000	 3.191512220949054e+000
 6.315300654305786e-001	 1.221390509398596e+000	 5.493407697023461e+000
 6.191578983592029e-001	 1.227708636808003e+000	 5.211819085465821e+000
 6.067427131391908e-001	 1.233891518752100e+000	 4.927430327202309e+000
 5.942866618812454e-001	 1.239938854745945e+000	 4.648587212279001e+000
 5.817918951216763e-001	 1.245850388599110e+000	 4.375535419468833e+000
 5.692605607193010e-001	 1.251625908175021e+000	 4.148293862552749e+000
 5.566948027657430e-001	 1.257265245118527e+000	 4.029319159663423e+000
 5.440967605101501e-001	 1.262768274552376e+000	 3.919011304197398e+000
 5.314685672993177e-001	 1.268134914743319e+000	 3.817041385640681e+000
 5.188123495341680e-001	 1.273365126738593e+000	 3.723084753279004e+000
 5.061302256434931e-001	 1.278458913973559e+000	 3.636821684164160e+000
 6.430124302556941e-001	 1.243597609565942e+000	 5.524162554200410e+000
 6.304153146924334e-001	 1.250030612019355e+000	 5.228500251349147e+000
 6.177743988322958e-001	 1.256325909998997e+000	 5.065543707991925e+000
 6.050918739152699e-001	 1.262483197556562e+000	 4.906414418069245e+000
 5.923699295783265e-001	 1.268502213843615e+000	 4.757291299661175e+000
 5.796107527322617e-001	 1.274382742866553e+000	 4.617808767982610e+000
 5.668165264521832e-001	 1.280124613209222e+000	 4.487603522306900e+000
 5.539894288826788e-001	 1.285727697723874e+000	 4.366315343363526e+000
 5.411316321586678e-001	 1.291191913191203e+000	 4.253587864635776e+000
 5.282453013429078e-001	 1.296517219950213e+000	 4.149069316147378e+000
 5.153325933810786e-001	 1.301703621498723e+000	 4.052413239443157e+000
 6.544947950808100e-001	 1.265804709732783e+000	 5.862521021460421e+000
 6.416727310256640e-001	 1.272352587230109e+000	 5.692747186690421e+000
 6.288060845254007e-001	 1.278760301245210e+000	 5.529379712668921e+000
 6.158970859492947e-001	 1.285027540366421e+000	 5.363457044793382e+000
 6.029479640349766e-001	 1.291154039087298e+000	 5.203482099166574e+000
 5.899609447452221e-001	 1.297139577557208e+000	 5.053437777366663e+000
 5.769382501386235e-001	 1.302983981298995e+000	 4.912931216642245e+000
 5.638820972552076e-001	 1.308687120894417e+000	 4.781572909974121e+000
 5.507946970180179e-001	 1.314248911638106e+000	 4.658977529729806e+000
 5.376782531516476e-001	 1.319669313160837e+000	 4.544764722059855e+000
 5.245349611186642e-001	 1.324948329022888e+000	 4.438559870654655e+000
 6.659771599059257e-001	 1.288011809899122e+000	 6.295769277681165e+000
 6.529301473588947e-001	 1.294674562440264e+000	 6.117896706294312e+000
 6.398377702185056e-001	 1.301194692490741e+000	 5.946893000125901e+000
 6.267022979833191e-001	 1.307571883175522e+000	 5.782830250627006e+000
 6.135259984916267e-001	 1.313805864330157e+000	 5.614843405931519e+000
 6.003111367581827e-001	 1.319896412246986e+000	 5.455215293895228e+000
 5.870599738250637e-001	 1.325843349387847e+000	 5.305368360091471e+000
 5.737747656277362e-001	 1.331646544064004e+000	 5.164882227458082e+000
 5.604577618773681e-001	 1.337305910084030e+000	 5.033341063927028e+000
 5.471112049603875e-001	 1.342821406370465e+000	 4.910334429338630e+000
 5.337373288562498e-001	 1.348193036546053e+000	 4.795458089782498e+000
 6.774595247310413e-001	 1.310218910064956e+000	 6.691157788223901e+000
 6.641875636921253e-001	 1.316996537649819e+000	 6.505350783181589e+000
 6.508694559116106e-001	 1.323629083735587e+000	 6.326872761145845e+000
 6.375075100173437e-001	 1.330116225983865e+000	 6.155805028543960e+000
 6.241040329482768e-001	 1.336457689572194e+000	 5.991307002952919e+000
 6.106613287711432e-001	 1.342653246935887e+000	 5.823104714760865e+000
 5.971816975115039e-001	 1.348702717475778e+000	 5.664910351755065e+000
 5.836674340002649e-001	 1.354605967232635e+000	 5.516271046097813e+000
 5.701208267367182e-001	 1.360362908528973e+000	 5.376738879887716e+000
 5.565441567691274e-001	 1.365973499579099e+000	 5.245871786545868e+000
 5.429396965938355e-001	 1.371437744068218e+000	 5.123234417593965e+000
 6.889418895561570e-001	 1.332426010230286e+000	 7.050041544090160e+000
 6.754449800253557e-001	 1.339318512858777e+000	 6.856444855585462e+000
 6.619011416047155e-001	 1.346063474979750e+000	 6.670635456690360e+000
 6.483127220513681e-001	 1.352660568791450e+000	 6.492704300005463e+000
 6.346820674049272e-001	 1.359109514813409e+000	 6.322729416158078e+000
 6.210115207841035e-001	 1.365410081623910e+000	 6.157004348325011e+000
 6.073034211979440e-001	 1.371562085562787e+000	 5.991487765605626e+000
 5.935601023727936e-001	 1.377565390400310e+000	 5.835702515791721e+000
 5.797838915960681e-001	 1.383419906972935e+000	 5.689166975790412e+000
 5.659771085778672e-001	 1.389125592786738e+000	 5.551405874963737e+000
 5.521420643314210e-001	 1.394682451589383e+000	 5.421951216241195e+000
 4.601183869555650e-001	 1.162235376332733e+000	 3.596091945840386e+000
 4.485675500777414e-001	 1.166742110765889e+000	 3.432449019324062e+000
 4.369969884738851e-001	 1.171124942985806e+000	 3.272269556100884e+000
 4.254086008172059e-001	 1.175383989328324e+000	 3.115634229943713e+000
 4.138042749739846e-001	 1.179519402990089e+000	 2.962621090794477e+000
 4.021858871602738e-001	 1.183531373552290e+000	 2.813305474402664e+000
 3.905553011185043e-001	 1.187420126482944e+000	 2.667759918245944e+000
 3.789143673145659e-001	 1.191185922618587e+000	 2.526054083790663e+000
 3.672649221558915e-001	 1.194829057626238e+000	 2.388254685130420e+000
 3.556087872310361e-001	 1.198349861446522e+000	 2.254425424024228e+000
 3.439477685711992e-001	 1.201748697718857e+000	 2.124626931337691e+000
 4.693207546931507e-001	 1.185480083862899e+000	 3.487243491904947e+000
 4.575389010772938e-001	 1.190076952984894e+000	 3.298181559209923e+000
 4.457369282409294e-001	 1.194547441849339e+000	 3.113268955837106e+000
 4.339167728307316e-001	 1.198891669118793e+000	 2.932605987315896e+000
 4.220803604703062e-001	 1.203109791053832e+000	 2.756289391643909e+000
 4.102296049000272e-001	 1.207202001027271e+000	 2.584412242709447e+000
 3.983664071371732e-001	 1.211168529016486e+000	 2.417063861400409e+000
 3.864926546569516e-001	 1.215009641074747e+000	 2.254329734438702e+000
 3.746102205949438e-001	 1.218725638782410e+000	 2.096291440959355e+000
 3.627209629714756e-001	 1.222316858678915e+000	 1.943026586833166e+000
 3.508267239383701e-001	 1.225783671676468e+000	 1.794608746712154e+000
 4.785231224307363e-001	 1.208724791392063e+000	 3.358833652084122e+000
 4.665102520768511e-001	 1.213411795202904e+000	 3.145054678000580e+000
 4.544768680079944e-001	 1.217969940711893e+000	 2.936086719846070e+000
 4.424249448443035e-001	 1.222399348908308e+000	 2.732049741167768e+000
 4.303564459667101e-001	 1.226700179116658e+000	 2.533059204829930e+000
 4.182733226399086e-001	 1.230872628501379e+000	 2.339225969942021e+000
 4.061775131560261e-001	 1.234916931549213e+000	 2.150656197874656e+000
 3.940709419995870e-001	 1.238833359530156e+000	 1.967451267386497e+000
 3.819555190343216e-001	 1.242622219937907e+000	 1.789707698861894e+000
 3.698331387123260e-001	 1.246283855910719e+000	 1.617517087635747e+000
 3.577056793060472e-001	 1.249818645633586e+000	 1.450966046361096e+000
 4.877254901683218e-001	 1.231969498920228e+000	 3.212461820107679e+000
 4.754816030764138e-001	 1.236746637419919e+000	 2.974607657631820e+000
 4.632168077750800e-001	 1.241392439573469e+000	 2.742203687007997e+000
 4.509331168579218e-001	 1.245907028696870e+000	 2.515389574957899e+000
 4.386325314631963e-001	 1.250290567178565e+000	 2.302697201104801e+000
 4.263170403799181e-001	 1.254543255974617e+000	 2.211697367822912e+000
 4.139886191750629e-001	 1.258665334081123e+000	 2.125136832512128e+000
 4.016492293424726e-001	 1.262657077984815e+000	 2.042779988816847e+000
 3.893008174740251e-001	 1.266518801092731e+000	 1.964401130427313e+000
 3.769453144535877e-001	 1.270250853141934e+000	 1.889784760623335e+000
 3.645846346742306e-001	 1.273853619590210e+000	 1.818725870431880e+000
 4.969278579059074e-001	 1.255214206447393e+000	 3.191512220949054e+000
 4.844529540759813e-001	 1.260081479635939e+000	 3.066626118409122e+000
 4.719567475421861e-001	 1.264814938434064e+000	 2.947621459980911e+000
 4.594412888715865e-001	 1.269414708484477e+000	 2.834214659945880e+000
 4.469086169597646e-001	 1.273880955239555e+000	 2.726130605726268e+000
 4.343607581200557e-001	 1.278213883446981e+000	 2.623103120813615e+000
 4.217997251942837e-001	 1.282413736612218e+000	 2.524875395649347e+000
 4.092275166856078e-001	 1.286480796438724e+000	 2.431200386105461e+000
 3.966461159140542e-001	 1.290415382246879e+000	 2.341841179317580e+000
 3.840574901952604e-001	 1.294217850372560e+000	 2.256571326721072e+000
 3.714635900429202e-001	 1.297888593546341e+000	 2.175175144240370e+000
 5.061302256434931e-001	 1.278458913973559e+000	 3.636821684164160e+000
 4.934243050755545e-001	 1.283416321850965e+000	 3.499890434847614e+000
 4.806966873093129e-001	 1.288237437293681e+000	 3.369211908012679e+000
 4.679494608852974e-001	 1.292922388271132e+000	 3.244488921338034e+000
 4.551847024564149e-001	 1.297471343299626e+000	 3.125432945014344e+000
 4.424044758603214e-001	 1.301884510918474e+000	 3.011764595047991e+000
 4.296108312136885e-001	 1.306162139142497e+000	 2.903214093047487e+000
 4.168058040289931e-001	 1.310304514891883e+000	 2.799521692106131e+000
 4.039914143544089e-001	 1.314311963400354e+000	 2.700438068503216e+000
 3.911696659373444e-001	 1.318184847602598e+000	 2.605724679050588e+000
 3.783425454121162e-001	 1.321923567501977e+000	 2.515154084015635e+000
 5.153325933810786e-001	 1.301703621498723e+000	 4.052413239443157e+000
 5.023956560751326e-001	 1.306751164064996e+000	 3.904970127976756e+000
 4.894366270764604e-001	 1.311659936152317e+000	 3.764115128564551e+000
 4.764576328990547e-001	 1.316430068056832e+000	 3.629535943738759e+000
 4.634607879531474e-001	 1.321061731358781e+000	 3.500929164236171e+000
 4.504481936007152e-001	 1.325555138389096e+000	 3.378000793992917e+000
 4.374219372332777e-001	 1.329910541671959e+000	 3.260466740033843e+000
 4.243840913726282e-001	 1.334128233344292e+000	 3.148053266837247e+000
 4.113367127950892e-001	 1.338208544553154e+000	 3.040497414866366e+000
 3.982818416798393e-001	 1.342151844832047e+000	 2.937547383070737e+000
 3.852215007818186e-001	 1.345958541457120e+000	 2.838962875270516e+000
 5.245349611186642e-001	 1.324948329022888e+000	 4.438559870654655e+000
 5.113670070747159e-001	 1.330086006278032e+000	 4.282132073697397e+000
 4.981765668436284e-001	 1.335082435009975e+000	 4.132592640187591e+000
 4.849658049128583e-001	 1.339937747841579e+000	 3.989612616972498e+000
 4.717368734499622e-001	 1.344652119417017e+000	 3.852872231232605e+000
 4.584919113412371e-001	 1.349225765858845e+000	 3.722061448512827e+000
 4.452330432530506e-001	 1.353658944200606e+000	 3.596880493943542e+000
 4.319623787165133e-001	 1.357951951795950e+000	 3.477040336195947e+000
 4.186820112360953e-001	 1.362105125705279e+000	 3.362263133833189e+000
 4.053940174227453e-001	 1.366118842060906e+000	 3.252282643837896e+000
 3.921004561520270e-001	 1.369993515411769e+000	 3.146844592210191e+000
 5.337373288562498e-001	 1.348193036546053e+000	 4.795458089782498e+000
 5.203383580743043e-001	 1.353420848490073e+000	 4.631569471504853e+000
 5.069165066108171e-001	 1.358504933866653e+000	 4.474835000547865e+000
 4.934739769267081e-001	 1.363445427625372e+000	 4.324907504837924e+000
 4.800129589468591e-001	 1.368242507474335e+000	 4.181449341368590e+000
 4.665356290818872e-001	 1.372896393327723e+000	 4.044132988645782e+000
 4.530441492730075e-001	 1.377407346728437e+000	 3.912641600498518e+000
 4.395406660606483e-001	 1.381775670246859e+000	 3.786669520761759e+000
 4.260273096774269e-001	 1.386001706856730e+000	 3.665922758465035e+000
 4.125061931660624e-001	 1.390085839289177e+000	 3.550119423282260e+000
 3.989794115227419e-001	 1.394028489365924e+000	 3.438990121120616e+000
 5.429396965938355e-001	 1.371437744068218e+000	 5.123234417593965e+000
 5.293097090738980e-001	 1.376755690701119e+000	 4.953408088252201e+000
 5.156564463780266e-001	 1.381927432722353e+000	 4.790967820061141e+000
 5.019821489406044e-001	 1.386953107408211e+000	 4.635546635449193e+000
 4.882890444438383e-001	 1.391832895530736e+000	 4.486787491471982e+000
 4.745793468226653e-001	 1.396567020795728e+000	 4.344343908080429e+000
 4.608552552931487e-001	 1.401155749255452e+000	 4.207880555808295e+000
 4.471189534050331e-001	 1.405599388697018e+000	 4.077073802348943e+000
 4.333726081190841e-001	 1.409898288007507e+000	 3.951612217624896e+000
 4.196183689097908e-001	 1.414052836516859e+000	 3.831197037082714e+000
 4.058583668939629e-001	 1.418063463319586e+000	 3.715542583073708e+000
 5.521420643314210e-001	 1.394682451589383e+000	 5.421951216241195e+000
 5.382810600734966e-001	 1.400090532911170e+000	 5.247711877537071e+000
 5.243963861452564e-001	 1.405349931577071e+000	 5.081057174163488e+000
 5.104903209545469e-001	 1.410460787190097e+000	 4.921598712542871e+000
 4.965651299408994e-001	 1.415423283586218e+000	 4.768958496378293e+000
 4.826230645635714e-001	 1.420237648262862e+000	 4.622769592184959e+000
 4.686663613134737e-001	 1.424904151781650e+000	 4.482676752171316e+000
 4.546972407496678e-001	 1.429423107146426e+000	 4.348336993903582e+000
 4.407179065610668e-001	 1.433794869157610e+000	 4.219420136327334e+000
 4.267305446539302e-001	 1.438019833743952e+000	 4.095609291854652e+000
 4.127373222656903e-001	 1.442098437272754e+000	 3.976601314361929e+000
 3.439477685711992e-001	 1.201748697718857e+000	 2.124626931337691e+000
 3.322836559344022e-001	 1.205025963190290e+000	 1.970786489364432e+000
 3.206182221117185e-001	 1.208182087106841e+000	 1.823266595501136e+000
 3.089532222566901e-001	 1.211217530589606e+000	 1.682112233020839e+000
 2.972903932386899e-001	 1.214132785997952e+000	 1.547363646961596e+000
 2.856314530195623e-001	 1.216928376278658e+000	 1.419056349323381e+000
 2.739781000540938e-001	 1.219604854302597e+000	 1.297221131467675e+000
 2.623320127144964e-001	 1.222162802189878e+000	 1.181884083543185e+000
 2.506948487390464e-001	 1.224602830624363e+000	 1.073066620751650e+000
 2.390682447049869e-001	 1.226925578158476e+000	 9.707855162526561e-001
 2.274538155257646e-001	 1.229131710509183e+000	 8.750529404986382e-001
 3.508267239383701e-001	 1.225783671676468e+000	 1.794608746712154e+000
 3.389293290488262e-001	 1.229126482457096e+000	 1.623536276822644e+000
 3.270305865497554e-001	 1.232345728851775e+000	 1.459692056318713e+000
 3.151322866977699e-001	 1.235441881204021e+000	 1.303129024275448e+000
 3.032362010996295e-001	 1.238415441720391e+000	 1.153894389990050e+000
 2.913440820764150e-001	 1.241266943806600e+000	 1.012029648005131e+000
 2.794576620520077e-001	 1.243996951390936e+000	 8.775706014577281e-001
 2.675786529660633e-001	 1.246606058235909e+000	 7.505473935363182e-001
 2.557087457116231e-001	 1.249094887239062e+000	 6.309845468147667e-001
 2.438496095974740e-001	 1.251464089723863e+000	 5.644128084107781e-001
 2.320028918353312e-001	 1.253714344721621e+000	 5.296330733131661e-001
 3.577056793060472e-001	 1.249818645633586e+000	 1.450966046361096e+000
 3.455750021638407e-001	 1.253227001723497e+000	 1.361776915759890e+000
 3.334429509884362e-001	 1.256509370596373e+000	 1.283257103245051e+000
 3.213113511395164e-001	 1.259666231818150e+000	 1.209710375864893e+000
 3.091820089612282e-001	 1.262698097442573e+000	 1.140972486773606e+000
 2.970567111338885e-001	 1.265605511334292e+000	 1.076888750839082e+000
 2.849372240504744e-001	 1.268389048479012e+000	 1.017314165012801e+000
 2.728252932180851e-001	 1.271049314281647e+000	 9.621135018423912e-001
 2.607226426845272e-001	 1.273586943853415e+000	 9.111613766351479e-001
 2.486309744901321e-001	 1.276002601288834e+000	 8.643422888389679e-001
 2.365519681448832e-001	 1.278296978933551e+000	 8.215506382665921e-001
 3.645846346742306e-001	 1.273853619590210e+000	 1.818725870431880e+000
 3.522206752794460e-001	 1.277327520989495e+000	 1.724255826544678e+000
 3.398553154277613e-001	 1.280673012340635e+000	 1.635341777623198e+000
 3.274904155819298e-001	 1.283890582431992e+000	 1.551799212812638e+000
 3.151278168234858e-001	 1.286980753164496e+000	 1.473453276588526e+000
 3.027693401919829e-001	 1.289944078861733e+000	 1.400138933857400e+000
 2.904167860494938e-001	 1.292781145566826e+000	 1.331701106381747e+000
 2.780719334705619e-001	 1.295492570327090e+000	 1.267994780977282e+000
 2.657365396577590e-001	 1.298079000467422e+000	 1.208885090001294e+000
 2.534123393829610e-001	 1.300541112853388e+000	 1.154247364711721e+000
 2.411010444544205e-001	 1.302879613144973e+000	 1.103967162137560e+000
 3.714635900429202e-001	 1.297888593546341e+000	 2.175175144240370e+000
 3.588663483956419e-001	 1.301428040255088e+000	 2.070923213855966e+000
 3.462676798677306e-001	 1.304836654084563e+000	 1.972584594563133e+000
 3.336694800250100e-001	 1.308114933045548e+000	 1.879963113264869e+000
 3.210736246864024e-001	 1.311263408886161e+000	 1.792872557653720e+000
 3.084819692506983e-001	 1.314282646388924e+000	 1.711136858806345e+000
 2.958963480490661e-001	 1.317173242654377e+000	 1.634590243622254e+000
 2.833185737234936e-001	 1.319935826372239e+000	 1.563077357562449e+000
 2.707504366313181e-001	 1.322571057081083e+000	 1.496453358218955e+000
 2.581937042759608e-001	 1.325079624417524e+000	 1.434583980309831e+000
 2.456501207639431e-001	 1.327462247355889e+000	 1.377345572760372e+000
 3.783425454121162e-001	 1.321923567501977e+000	 2.515154084015635e+000
 3.655120215124286e-001	 1.325528559520277e+000	 2.402143080000178e+000
 3.526800443083439e-001	 1.329000295828156e+000	 2.295351621415785e+000
 3.398485444687571e-001	 1.332339283658817e+000	 2.194571038178772e+000
 3.270194325499780e-001	 1.335546064607567e+000	 2.099602990847562e+000
 3.141945983100346e-001	 1.338621213915864e+000	 2.010259670798512e+000
 3.013759100491911e-001	 1.341565339741666e+000	 1.926363968658884e+000
 2.885652139768801e-001	 1.344379082417094e+000	 1.847749611463906e+000
 2.757643336052048e-001	 1.347063113694398e+000	 1.774261269081958e+000
 2.629750691691316e-001	 1.349618135981245e+000	 1.705754630522046e+000
 2.501991970734510e-001	 1.352044881566296e+000	 1.642096450805920e+000
 3.852215007818186e-001	 1.345958541457120e+000	 2.838962875270516e+000
 3.721576946298060e-001	 1.349629078785063e+000	 2.718218809690534e+000
 3.590924087496013e-001	 1.353163937571413e+000	 2.603950183334972e+000
 3.460276089131709e-001	 1.356563634271800e+000	 2.495934971961568e+000
 3.329652404142126e-001	 1.359828720328715e+000	 2.393961916502426e+000
 3.199072273699916e-001	 1.362959781442553e+000	 2.297830740929933e+000
 3.068554720498689e-001	 1.365957436828692e+000	 2.207352336685449e+000
 2.938118542307215e-001	 1.368822338461654e+000	 2.122348914150043e+000
 2.807782305794190e-001	 1.371555170307368e+000	 2.042654121718548e+000
 2.677564340624732e-001	 1.374156647544547e+000	 1.968113133111948e+000
 2.547482733829443e-001	 1.376627515776197e+000	 1.898582703635587e+000
 3.921004561520270e-001	 1.369993515411769e+000	 3.146844592210191e+000
 3.788033677477742e-001	 1.373729598049444e+000	 3.019398487379573e+000
 3.655047731915029e-001	 1.377327579314336e+000	 2.898634016101424e+000
 3.522066733582517e-001	 1.380787984884495e+000	 2.784314920413375e+000
 3.389110482791062e-001	 1.384111376049604e+000	 2.676216207084074e+000
 3.256198564305696e-001	 1.387298348968993e+000	 2.574124383299198e+000
 3.123350340510994e-001	 1.390349533915456e+000	 2.477837657106080e+000
 2.990584944850179e-001	 1.393265594505920e+000	 2.387166103112434e+000
 2.857921275539608e-001	 1.396047226919992e+000	 2.301931794018283e+000
 2.725377989559857e-001	 1.398695159107433e+000	 2.221968898641289e+000
 2.592973496924230e-001	 1.401210149985591e+000	 2.147123747170239e+000
 3.989794115227419e-001	 1.394028489365924e+000	 3.438990121120616e+000
 3.854490408663330e-001	 1.397830117313421e+000	 3.305879664523192e+000
 3.719171376340487e-001	 1.401491221056923e+000	 3.179607885896614e+000
 3.583857378039991e-001	 1.405012335496905e+000	 3.059923391641742e+000
 3.448568561446588e-001	 1.408394031770235e+000	 2.946586617869931e+000
 3.313324854917685e-001	 1.411636916495181e+000	 2.839370084058635e+000
 3.178145960528828e-001	 1.414741631001957e+000	 2.738058609551490e+000
 3.043051347397691e-001	 1.417708850549892e+000	 2.642449493415394e+000
 2.908060245288300e-001	 1.420539283532269e+000	 2.552352658255743e+000
 2.773191638496692e-001	 1.423233670669902e+000	 2.467590758676829e+000
 2.638464260018870e-001	 1.425792784194477e+000	 2.387999255152536e+000
 4.058583668939629e-001	 1.418063463319586e+000	 3.715542583073708e+000
 3.920947139854824e-001	 1.421930636576994e+000	 3.577813642037851e+000
 3.783295020772386e-001	 1.425654862799175e+000	 3.447031739268495e+000
 3.645648022504135e-001	 1.429236686109028e+000	 3.322929421289671e+000
 3.508026640108703e-001	 1.432676687490608e+000	 3.205251695185259e+000
 3.370451145535883e-001	 1.435975484021120e+000	 3.093756300393141e+000
 3.232941580552189e-001	 1.439133728088196e+000	 2.988213941317529e+000
 3.095517749949752e-001	 1.442152106593569e+000	 2.888408481291489e+000
 2.958199215040268e-001	 1.445031340144200e+000	 2.794137098515693e+000
 2.821005287435235e-001	 1.447772182231954e+000	 2.705210404688344e+000
 2.683955023113362e-001	 1.450375418402855e+000	 2.621452527127803e+000
 4.127373222656903e-001	 1.442098437272754e+000	 3.976601314361929e+000
 3.987403871052226e-001	 1.446031155840163e+000	 3.835309324512289e+000
 3.847418665210725e-001	 1.449818504541092e+000	 3.701024438101089e+000
 3.707438666974945e-001	 1.453461036720863e+000	 3.573462195241042e+000
 3.567484718777408e-001	 1.456959343210722e+000	 3.452351293815848e+000
 3.427577436160290e-001	 1.460314051546807e+000	 3.337433879600426e+000
 3.287737200581077e-001	 1.463525825174172e+000	 3.228465795059495e+000
 3.147984152506362e-001	 1.466595362636951e+000	 3.125216787377772e+000
 3.008338184795510e-001	 1.469523396755786e+000	 3.027470676375443e+000
 2.868818936375487e-001	 1.472310693793589e+000	 2.935025483056491e+000
 2.729445786207708e-001	 1.474958052610726e+000	 2.847693519627313e+000
 2.274538155257646e-001	 1.229131710509183e+000	 8.750529404986382e-001
 2.158531539728275e-001	 1.231221919845279e+000	 7.621853468464068e-001
 2.042678302214702e-001	 1.233196924069199e+000	 6.561970506733886e-001
 1.926993914209580e-001	 1.235057466092678e+000	 5.570914587820613e-001
 1.811493612893031e-001	 1.236804313105527e+000	 4.648674667497762e-001
 1.696192397320707e-001	 1.238438255840743e+000	 3.795195242045130e-001
 1.581105024852516e-001	 1.239960107836013e+000	 3.010377052654161e-001
 1.466246007820466e-001	 1.241370704692402e+000	 2.294077838882361e-001
 1.351629610433853e-001	 1.242670903331058e+000	 1.646113138539805e-001
 1.237269845919668e-001	 1.243861581248700e+000	 1.066257131340321e-001
 1.123180473895901e-001	 1.244943635772666e+000	 5.542435236512667e-002
 2.320028918353312e-001	 1.253714344721621e+000	 5.296330733131661e-001
 2.201702170519754e-001	 1.255846358244472e+000	 4.750633090370205e-001
 2.083531868261118e-001	 1.257860862552874e+000	 4.244688300936054e-001
 1.965533792499919e-001	 1.259758615416796e+000	 3.777827258703211e-001
 1.847723485159895e-001	 1.261540399369842e+000	 3.349472957769575e-001
 1.730116245277818e-001	 1.263207020959674e+000	 2.959139479215597e-001
 1.612727125360806e-001	 1.264759309994731e+000	 2.606430785934069e-001
 1.495570927987519e-001	 1.266198118788100e+000	 2.291039334210479e-001
 1.378662202651449e-001	 1.267524321399351e+000	 2.012744510978652e-001
 1.262015242844137e-001	 1.268738812875139e+000	 1.771410905860553e-001
 1.145644083375946e-001	 1.269842508489349e+000	 1.566986427257751e-001
 2.365519681448832e-001	 1.278296978933551e+000	 8.215506382665921e-001
 2.244872801309242e-001	 1.280470796643069e+000	 7.595836785243905e-001
 2.124385434304010e-001	 1.282524801035884e+000	 7.021373874655161e-001
 2.004073670785511e-001	 1.284459764740199e+000	 6.491340360205407e-001
 1.883953357421092e-001	 1.286276485633416e+000	 6.005053052400734e-001
 1.764040093228648e-001	 1.287975786077856e+000	 5.561921952236274e-001
 1.644349225862499e-001	 1.289558512152712e+000	 5.161449137550362e-001
 1.524895848147956e-001	 1.291025532883092e+000	 4.803227455383996e-001
 1.405694794862704e-001	 1.292377739466991e+000	 4.486939029522440e-001
 1.286760639762833e-001	 1.293616044500996e+000	 4.212353592627628e-001
 1.168107692851074e-001	 1.294741381205540e+000	 3.979326652526361e-001
 2.411010444544205e-001	 1.302879613144973e+000	 1.103967162137560e+000
 2.288043432096740e-001	 1.305095235041069e+000	 1.034961794585516e+000
 2.165239000343380e-001	 1.307188739518228e+000	 9.709582468145059e-001
 2.042613549066356e-001	 1.309160914062888e+000	 9.118679142154347e-001
 1.920183229676622e-001	 1.311012571896248e+000	 8.576118645620536e-001
 1.797963941173194e-001	 1.312744551195289e+000	 8.081207561991495e-001
 1.675971326357593e-001	 1.314357714309955e+000	 7.633347347643306e-001
 1.554220768301776e-001	 1.315852946977379e+000	 7.232033093649941e-001
 1.432727387067618e-001	 1.317231157533977e+000	 6.876852091598291e-001
 1.311506036675756e-001	 1.318493276126271e+000	 6.567482213177813e-001
 1.190571302321284e-001	 1.319640253921239e+000	 6.303690113455370e-001
 2.456501207639431e-001	 1.327462247355889e+000	 1.377345572760372e+000
 2.331214062882249e-001	 1.329719673438472e+000	 1.301674281488896e+000
 2.206092566379227e-001	 1.331852677999906e+000	 1.231422834438534e+000
 2.081153427342454e-001	 1.333862063384863e+000	 1.166491668610842e+000
 1.956413101926487e-001	 1.335748658158338e+000	 1.106791218037738e+000
 1.831887789111457e-001	 1.337513316311971e+000	 1.052241840253529e+000
 1.707593426846089e-001	 1.339156916466462e+000	 1.002773720053517e+000
 1.583545688448978e-001	 1.340680361070962e+000	 9.583267514919698e-001
 1.459759979266191e-001	 1.342084575600310e+000	 9.188503991044442e-001
 1.336251433582905e-001	 1.343370507750963e+000	 8.843035393624203e-001
 1.213034911786578e-001	 1.344539126636447e+000	 8.546542833912038e-001
 2.501991970734510e-001	 1.352044881566296e+000	 1.642096450805920e+000
 2.374384693665767e-001	 1.354344111835278e+000	 1.560145969102542e+000
 2.246946132411551e-001	 1.356516616480918e+000	 1.483971192485115e+000
 2.119693305613804e-001	 1.358563212706124e+000	 1.413461492056094e+000
 1.992642974170685e-001	 1.360484744419686e+000	 1.348516623264273e+000
 1.865811637043440e-001	 1.362282081427904e+000	 1.289046659702514e+000
 1.739215527327986e-001	 1.363956118622231e+000	 1.234971902868112e+000
 1.612870608589564e-001	 1.365507775163839e+000	 1.186222768876148e+000
 1.486792571458423e-001	 1.366937993665990e+000	 1.142739653147952e+000
 1.360996830484281e-001	 1.368247739375074e+000	 1.104472774124235e+000
 1.235498521246955e-001	 1.369437999351162e+000	 1.071381997074853e+000
 2.547482733829443e-001	 1.376627515776197e+000	 1.898582703635587e+000
 2.417555324447295e-001	 1.378968550231487e+000	 1.810754517393753e+000
 2.287799698440352e-001	 1.381180554961264e+000	 1.728996566821937e+000
 2.158233183880407e-001	 1.383264362026671e+000	 1.653187025960407e+000
 2.028872846409218e-001	 1.385220830680293e+000	 1.583214903524715e+000
 1.899735484969138e-001	 1.387050846543088e+000	 1.518979983083813e+000
 1.770837627803285e-001	 1.388755320777263e+000	 1.460392737801716e+000
 1.642195528723533e-001	 1.390335189256011e+000	 1.407374220771531e+000
 1.513825163644314e-001	 1.391791411731016e+000	 1.359855932007406e+000
 1.385742227379883e-001	 1.393124970998602e+000	 1.317779663186962e+000
 1.257962130702414e-001	 1.394336872065386e+000	 1.281097321264579e+000
 2.592973496924230e-001	 1.401210149985591e+000	 2.147123747170239e+000
 2.460725955226833e-001	 1.403592988627099e+000	 2.053834554139977e+000
 2.328653264465631e-001	 1.405844493440945e+000	 1.966849511973576e+000
 2.196773062142262e-001	 1.407965511346504e+000	 1.886035443752829e+000
 2.065102718642084e-001	 1.409956916940157e+000	 1.811270520973395e+000
 1.933659332888555e-001	 1.411819611657522e+000	 1.742444209172741e+000
 1.802459728271986e-001	 1.413554522931558e+000	 1.679457186642520e+000
 1.671520448850885e-001	 1.415162603347478e+000	 1.622221237300096e+000
 1.540857755823864e-001	 1.416644829795389e+000	 1.570659118828897e+000
 1.410487624269712e-001	 1.418002202621548e+000	 1.524704407231024e+000
 1.280425740152957e-001	 1.419235744779119e+000	 1.484301318960021e+000
 2.638464260018870e-001	 1.425792784194477e+000	 2.387999255152536e+000
 2.503896586004381e-001	 1.428217427022114e+000	 2.289681384599824e+000
 2.369506830487388e-001	 1.430508431919961e+000	 2.197841571409788e+000
 2.235312940399371e-001	 1.432666660665624e+000	 2.112335111914739e+000
 2.101332590869283e-001	 1.434693003199280e+000	 2.033029228457514e+000
 1.967583180801690e-001	 1.436588376771207e+000	 1.959803019547814e+000
 1.834081828734088e-001	 1.438353725085115e+000	 1.892547381546192e+000
 1.700845368971620e-001	 1.439990017438240e+000	 1.831164902997141e+000
 1.567890347997074e-001	 1.441498247859109e+000	 1.775569732771619e+000
 1.435233021153768e-001	 1.442879434243912e+000	 1.725687423215081e+000
 1.302889349598582e-001	 1.444134617492359e+000	 1.681454749522668e+000
 2.683955023113362e-001	 1.450375418402855e+000	 2.621452527127803e+000
 2.547067216779939e-001	 1.452841865416533e+000	 2.518554323930268e+000
 2.410360396505621e-001	 1.455172370398310e+000	 2.422248583566860e+000
 2.273852818651732e-001	 1.457367809984029e+000	 2.332378878704336e+000
 2.137562463090816e-001	 1.459429089457661e+000	 2.248801349966664e+000
 2.001507028708542e-001	 1.461357141884142e+000	 2.171384659709236e+000
 1.865703929189592e-001	 1.463152927237936e+000	 2.100009915682851e+000
 1.730170289085737e-001	 1.464817431528297e+000	 2.034570565759838e+000
 1.594922940163942e-001	 1.466351665922175e+000	 1.974972264938804e+000
 1.459978418032050e-001	 1.467756665865694e+000	 1.921132715877678e+000
 1.325352959039290e-001	 1.469033490205109e+000	 1.872981484238375e+000
 2.729445786207708e-001	 1.474958052610726e+000	 2.847693519627313e+000
 2.590237847553507e-001	 1.477466303810354e+000	 2.740679696361568e+000
 2.451213962520330e-001	 1.479836308875993e+000	 2.640313657267161e+000
 2.312392696899346e-001	 1.482068959301720e+000	 2.546427034008435e+000
 2.173792335306684e-001	 1.484165175715299e+000	 2.458864733037769e+000
 2.035430876609112e-001	 1.486125906996327e+000	 2.377484892085450e+000
 1.897326029638498e-001	 1.487952129390018e+000	 2.302158804818887e+000
 1.759495209193238e-001	 1.489644845617649e+000	 2.232770814900092e+000
 1.621955532324469e-001	 1.491205083984588e+000	 2.169218180715572e+000
 1.484723814904559e-001	 1.492633897486894e+000	 2.111410912089157e+000
 1.347816568475081e-001	 1.493932362917365e+000	 2.059271580323555e+000
 1.123180473895901e-001	 1.244943635772666e+000	 5.542435236512667e-002
 1.009374997969171e-001	 1.245917983316647e+000	-5.320300740844421e-003
 8.958666635718569e-002	 1.246785558636688e+000	-5.777850987727120e-002
 7.826684560235840e-002	 1.247547314088946e+000	-1.019871240866781e-001
 6.697930988018191e-002	 1.248204218890639e+000	-1.379878522143688e-001
 5.572530520362001e-002	 1.248757258383706e+000	-1.658271317955409e-001
 4.450605112168776e-002	 1.249207433302222e+000	-1.855559947636626e-001
 3.332274061130344e-002	 1.249555759044169e+000	-1.972299302991408e-001
 2.217653998975778e-002	 1.249803264948180e+000	-2.009087451339560e-001
 1.106858884738428e-002	 1.249950993575827e+000	-1.966564216218984e-001
 0.000000000000000e+000	 1.250000000000000e+000	-1.845409738792613e-001
 1.145644083375946e-001	 1.269842508489349e+000	 1.566986427257751e-001
 1.029562497926623e-001	 1.270836342983972e+000	 1.246066726937267e-001
 9.137839968381835e-002	 1.271721269810203e+000	 9.747460159768476e-002
 7.983218251366342e-002	 1.272498260371321e+000	 7.532111095645774e-002
 6.831889607689830e-002	 1.273168303268888e+000	 5.817139413248029e-002
 5.683981130674527e-002	 1.273732403551682e+000	 4.605692517294244e-002
 4.539617214319878e-002	 1.274191581968459e+000	 3.901521825810776e-002
 3.398919542271459e-002	 1.274546874225160e+000	 3.708957865811800e-002
 2.262007078892834e-002	 1.274799330247191e+000	 4.032884609020881e-002
 1.128996062397933e-002	 1.274950013447355e+000	 4.878713135684171e-002
 0.000000000000000e+000	 1.275000000000000e+000	 6.252354713293772e-002
 1.168107692851074e-001	 1.294741381205540e+000	 3.979326652526361e-001
 1.049749997880107e-001	 1.295754702650900e+000	 3.640279595759172e-001
 9.317013301013843e-002	 1.296656980983405e+000	 3.352314015081878e-001
 8.139751942472988e-002	 1.297449206653458e+000	 3.115520072454804e-001
 6.965848227344004e-002	 1.298132387646963e+000	 2.930058267535320e-001
 5.795431740974968e-002	 1.298707548719538e+000	 2.796157081943332e-001
 4.628629316463272e-002	 1.299175730634619e+000	 2.714110520064340e-001
 3.465565023408253e-002	 1.299537989406108e+000	 2.684275555908030e-001
 2.306360158807978e-002	 1.299795395546184e+000	 2.707069495448398e-001
 1.151133240056961e-002	 1.299949033318879e+000	 2.782967263761764e-001
 0.000000000000000e+000	 1.300000000000000e+000	 2.912498626157124e-001
 1.190571302321284e-001	 1.319640253921239e+000	 6.303690113455370e-001
 1.069937497829620e-001	 1.320673062317432e+000	 5.940311626374931e-001
 9.496186633614591e-002	 1.321592692156296e+000	 5.628998696120970e-001
 8.296285633555782e-002	 1.322400152935356e+000	 5.369749991101644e-001
 7.099806846980716e-002	 1.323096472024863e+000	 5.162640162627198e-001
 5.906882351263323e-002	 1.323682693887272e+000	 5.007817430871787e-001
 4.717641418598959e-002	 1.324159879300702e+000	 4.905501057545744e-001
 3.532210504540729e-002	 1.324529104587013e+000	 4.855978715318034e-001
 2.350713238721209e-002	 1.324791460845157e+000	 4.859603763964684e-001
 1.173270417715513e-002	 1.324948053190398e+000	 4.916792443104153e-001
 0.000000000000000e+000	 1.325000000000000e+000	 5.028020991258743e-001
 1.213034911786578e-001	 1.344539126636447e+000	 8.546542833912038e-001
 1.090124997775164e-001	 1.345591421983566e+000	 8.153054813201628e-001
 9.675359966184079e-002	 1.346528403328873e+000	 7.812119789021065e-001
 8.452819324614727e-002	 1.347351099217016e+000	 7.523649864785504e-001
 7.233765466599967e-002	 1.348060556402588e+000	 7.287639205258436e-001
 6.018332961539593e-002	 1.348657839054886e+000	 7.104161550064916e-001
 4.806653520726939e-002	 1.349144027966708e+000	 6.973367603761869e-001
 3.598855985668883e-002	 1.349520219767875e+000	 6.895482313073030e-001
 2.395066318632527e-002	 1.349787526144111e+000	 6.870802041859493e-001
 1.195407595373588e-002	 1.349947073061912e+000	 6.899691654246248e-001
 0.000000000000000e+000	 1.350000000000000e+000	 6.982581516235957e-001
 1.235498521246955e-001	 1.369437999351162e+000	 1.071381997074853e+000
 1.110312497716739e-001	 1.370509781649304e+000	 1.028484833210281e+000
 9.854533298722308e-002	 1.371464114501138e+000	 9.908421462820299e-001
 8.609353015649825e-002	 1.372302045498437e+000	 9.584369615551664e-001
 7.367724086201755e-002	 1.373024640780139e+000	 9.312611623450861e-001
 6.129783571803779e-002	 1.373632984222379e+000	 9.093152327074479e-001
 4.895665622847211e-002	 1.374128176632637e+000	 8.926079867350113e-001
 3.665501466792717e-002	 1.374511334948693e+000	 8.811562855845486e-001
 2.439419398541931e-002	 1.374783591443046e+000	 8.749847433510487e-001
 1.217544773031186e-002	 1.374946092933421e+000	 8.741254228938783e-001
 0.000000000000000e+000	 1.375000000000000e+000	 8.786175227083622e-001
 1.257962130702414e-001	 1.394336872065386e+000	 1.281097321264579e+000
 1.130499997654344e-001	 1.395428141314644e+000	 1.234152789918840e+000
 1.003370663122928e-001	 1.396399825673090e+000	 1.192412371503330e+000
 8.765886706661068e-002	 1.397252991779620e+000	 1.155851357725058e+000
 7.501682705786078e-002	 1.397988725157515e+000	 1.124454595089571e+000
 6.241234182055879e-002	 1.398608129389751e+000	 1.098216217509195e+000
 4.984677724959775e-002	 1.399112325298489e+000	 1.077139364435826e+000
 3.732146947912232e-002	 1.399502450129469e+000	 1.061235885707500e+000
 2.483772478449423e-002	 1.399779656741962e+000	 1.050526034289186e+000
 1.239681950688308e-002	 1.399945112804926e+000	 1.045038148078960e+000
 0.000000000000000e+000	 1.400000000000000e+000	 1.044808321937055e+000
 1.280425740152957e-001	 1.419235744779119e+000	 1.484301318960021e+000
 1.150687497587980e-001	 1.420346500979588e+000	 1.432846993395260e+000
 1.021287996370500e-001	 1.421335536844730e+000	 1.386496835160723e+000
 8.922420397648460e-002	 1.422203938060564e+000	 1.345218835415030e+000
 7.635641325352938e-002	 1.422952809534717e+000	 1.308991282470346e+000
 6.352684792295894e-002	 1.423583274557002e+000	 1.277802482894870e+000
 5.073689827064633e-002	 1.424096473964263e+000	 1.251650467022714e+000
 3.798792429027427e-002	 1.424493565310201e+000	 1.230542680128793e+000
 2.528125558355001e-002	 1.424775722040858e+000	 1.214495660518857e+000
 1.261819128344953e-002	 1.424944132676426e+000	 1.203534705773296e+000
 0.000000000000000e+000	 1.425000000000000e+000	 1.197693528371395e+000
 1.302889349598582e-001	 1.444134617492359e+000	 1.681454749522668e+000
 1.170874997517646e-001	 1.445264860644134e+000	 1.625063115380651e+000
 1.039205329614944e-001	 1.446271248016057e+000	 1.573626021033666e+000
 9.078954088612001e-002	 1.447154884341270e+000	 1.527104572866162e+000
 7.769599944902336e-002	 1.447916893911744e+000	 1.485470963165956e+000
 6.464135402523823e-002	 1.448558419724132e+000	 1.448708178290506e+000
 5.162701929161783e-002	 1.449080622629961e+000	 1.416809690087508e+000
 3.865437910138302e-002	 1.449484680490890e+000	 1.389779131900321e+000
 2.572478638258666e-002	 1.449771787339736e+000	 1.367629960479696e+000
 1.283956306001122e-002	 1.449943152547921e+000	 1.350385105113999e+000
 0.000000000000000e+000	 1.450000000000000e+000	 1.338076605275800e+000
 1.325352959039290e-001	 1.469033490205109e+000	 1.872981484238375e+000
 1.191062497443342e-001	 1.470183220308284e+000	 1.811258414205823e+000
 1.057122662856264e-001	 1.471206959187071e+000	 1.754290419206086e+000
 9.235487779551692e-002	 1.472105830621737e+000	 1.702032120556146e+000
 7.903558564434268e-002	 1.472880978288596e+000	 1.654450061418597e+000
 6.575586012739669e-002	 1.473533564891142e+000	 1.611522400595253e+000
 5.251714031251225e-002	 1.474064771295581e+000	 1.573238588384778e+000
 3.932083391244855e-002	 1.474475795671536e+000	 1.539599025910663e+000
 2.616831718160417e-002	 1.474767852638594e+000	 1.510614709318539e+000
 1.306093483656814e-002	 1.474942172419411e+000	 1.486306860230514e+000
 0.000000000000000e+000	 1.475000000000000e+000	 1.466706543829107e+000
 1.347816568475081e-001	 1.493932362917365e+000	 2.059271580323555e+000
 1.211249997365069e-001	 1.495101579972037e+000	 1.991854935908015e+000
 1.075039996094458e-001	 1.496142670357773e+000	 1.928943858874514e+000
 9.392021470467529e-002	 1.497056776901965e+000	 1.870486870179685e+000
 8.037517183948741e-002	 1.497845062665274e+000	 1.816445296570310e+000
 6.687036622943428e-002	 1.498508710058030e+000	 1.766792948558796e+000
 5.340726133332961e-002	 1.499048919961125e+000	 1.721515779234591e+000
 3.998728872347090e-002	 1.499466910852138e+000	 1.680611525398499e+000
 2.661184798060256e-002	 1.499763917937433e+000	 1.644089332497478e+000
 1.328230661312030e-002	 1.499941192290897e+000	 1.611969364828851e+000
 0.000000000000000e+000	 1.500000000000000e+000	 1.584282402464897e+000
 1.500000000000000e+000	 0.000000000000000e+000	 1.561496882178226e+001
 1.499941192290897e+000	 1.328230661311987e-002	 1.562756277091246e+001
 1.499763917937433e+000	 2.661184798060218e-002	 1.563607924561339e+001
 1.499466910852138e+000	 3.998728872347057e-002	 1.564037754094543e+001
 1.499048919961124e+000	 5.340726133332931e-002	 1.564031411261622e+001
 1.498508710058030e+000	 6.687036622943403e-002	 1.563574255995217e+001
 1.497845062665274e+000	 8.037517183948720e-002	 1.562651361244901e+001
 1.497056776901965e+000	 9.392021470467514e-002	 1.561247512015670e+001
 1.496142670357773e+000	 1.075039996094456e-001	 1.559347204815757e+001
 1.495101579972037e+000	 1.211249997365068e-001	 1.556934647540049e+001
 1.493932362917365e+000	 1.347816568475081e-001	 1.553993759815648e+001
 1.525000000000000e+000	 0.000000000000000e+000	 1.532334258654121e+001
 1.524940212162383e+000	 1.350367838967202e-002	 1.533683465232436e+001
 1.524759983236273e+000	 2.705537877960056e-002	 1.534619136182840e+001
 1.524458026032741e+000	 4.065374353449290e-002	 1.535127780178470e+001
 1.524033068626668e+000	 5.429738235414668e-002	 1.535195631380950e+001
 1.523483855224919e+000	 6.798487233147164e-002	 1.534808647103782e+001
 1.522809147041952e+000	 8.171475803463191e-002	 1.533952505809271e+001
 1.522007723182194e+000	 9.548555161383354e-002	 1.532612605465288e+001
 1.521078381528475e+000	 1.092957329332650e-001	 1.530774062288684e+001
 1.520019939635790e+000	 1.231437497286795e-001	 1.528421709902616e+001
 1.518831235629623e+000	 1.370280177910873e-001	 1.525540098935390e+001
 1.550000000000000e+000	 0.000000000000000e+000	 1.504777940423981e+001
 1.549939232033873e+000	 1.372505016622894e-002	 1.506243953215140e+001
 1.549756048535131e+000	 2.749890957861807e-002	 1.507291899451575e+001
 1.549449141213386e+000	 4.132019834555844e-002	 1.507908879017619e+001
 1.549017217292289e+000	 5.518750337504109e-002	 1.508081725812524e+001
 1.548459000391928e+000	 6.909937843363008e-002	 1.507797004737800e+001
 1.547773231418804e+000	 8.305434422995126e-002	 1.507041008993700e+001
 1.546958669462661e+000	 9.705088852323041e-002	 1.505799757712073e+001
 1.546014092699490e+000	 1.110874662573969e-001	 1.504058993953385e+001
 1.544938299299939e+000	 1.251624997212491e-001	 1.501804183096213e+001
 1.543730108342372e+000	 1.392743787351581e-001	 1.499020511648029e+001
 1.575000000000000e+000	 0.000000000000000e+000	 1.478768943208640e+001
 1.574938251905368e+000	 1.394642194279062e-002	 1.480376131896429e+001
 1.574752113834008e+000	 2.794244037765472e-002	 1.481561959283922e+001
 1.574440256394075e+000	 4.198665315666719e-002	 1.482314129426155e+001
 1.574001365957986e+000	 5.607762439601259e-002	 1.482620088041811e+001
 1.573434145559058e+000	 7.021388453590936e-002	 1.482467018781635e+001
 1.572737315795831e+000	 8.439393042544521e-002	 1.481841839781608e+001
 1.571909615743366e+000	 9.861622543286584e-002	 1.480731200529082e+001
 1.570949803870817e+000	 1.128791995818414e-001	 1.479121479070748e+001
 1.569856658964486e+000	 1.271812497142157e-001	 1.476998779591928e+001
 1.568628981055612e+000	 1.415207396797206e-001	 1.474348930397206e+001
 1.600000000000000e+000	 0.000000000000000e+000	 1.454251969246374e+001
 1.599937271776867e+000	 1.416779371935706e-002	 1.456022201788204e+001
 1.599748179132905e+000	 2.838597117671049e-002	 1.457368995508327e+001
 1.599431371574808e+000	 4.265310796781913e-002	 1.458280672483278e+001
 1.598985514623761e+000	 5.696774541706116e-002	 1.458745303242331e+001
 1.598409290726310e+000	 7.132839063830954e-002	 1.458750702273551e+001
 1.597701400173032e+000	 8.573351662111382e-002	 1.458284423790187e+001
 1.596860562024311e+000	 1.001815623427397e-001	 1.457333757786659e+001
 1.595885515042457e+000	 1.146709329065986e-001	 1.455885726414175e+001
 1.594775018629429e+000	 1.291999997075793e-001	 1.453927080706720e+001
 1.593527853769345e+000	 1.437671006247749e-001	 1.451444297688774e+001
 1.625000000000000e+000	 0.000000000000000e+000	 1.431175123714636e+001
 1.624936291648372e+000	 1.438916549592827e-002	 1.433127880006823e+001
 1.624744244431821e+000	 2.882950197578540e-002	 1.434656320179758e+001
 1.624422486755583e+000	 4.331956277901426e-002	 1.435749399051293e+001
 1.623969663289613e+000	 5.785786643818681e-002	 1.436395825838110e+001
 1.623384435893682e+000	 7.244289674083053e-002	 1.436584058855403e+001
 1.622665484550409e+000	 8.707310281695706e-002	 1.436302300452411e+001
 1.621811508305494e+000	 1.017468992528522e-001	 1.435538492214190e+001
 1.620821226214409e+000	 1.164626662316683e-001	 1.434280310460924e+001
 1.619693378294770e+000	 1.312187497013398e-001	 1.432515162076815e+001
 1.618426726483569e+000	 1.460134615703208e-001	 1.430230180701405e+001
 1.650000000000000e+000	 0.000000000000000e+000	 1.409489656931637e+001
 1.649935311519882e+000	 1.461053727250425e-002	 1.411642133863674e+001
 1.649740309730756e+000	 2.927303277487944e-002	 1.413370602411031e+001
 1.649413601936402e+000	 4.398601759025260e-002	 1.414664665701136e+001
 1.648953811955542e+000	 5.874798745938951e-002	 1.415513686378647e+001
 1.648359581061175e+000	 7.355740284347238e-002	 1.415906780454192e+001
 1.647629568927959e+000	 8.841268901297490e-002	 1.415832811364330e+001
 1.646762454586914e+000	 1.033122361632031e-001	 1.415280384274424e+001
 1.645756937386674e+000	 1.182543995570506e-001	 1.414237840656977e+001
 1.644611737960507e+000	 1.332374996954972e-001	 1.412693253178981e+001
 1.643325599198285e+000	 1.482598225163584e-001	 1.410634420932588e+001
 1.675000000000000e+000	 0.000000000000000e+000	 1.389149729644346e+001
 1.674934331391396e+000	 1.483190904908500e-002	 1.391516938313306e+001
 1.674736375029710e+000	 2.971656357399260e-002	 1.393461617846111e+001
 1.674404717117263e+000	 4.465247240153415e-002	 1.394974036077401e+001
 1.673937960621547e+000	 5.963810848066932e-002	 1.396044224663880e+001
 1.673334726228788e+000	 7.467190894623507e-002	 1.396661972036898e+001
 1.672593653305685e+000	 8.975227520916740e-002	 1.396816816541561e+001
 1.671713400868574e+000	 1.048775730737926e-001	 1.396498039795306e+001
 1.670692648559251e+000	 1.200461328827455e-001	 1.395694660299976e+001
 1.669530097626642e+000	 1.352562496900517e-001	 1.394395427342429e+001
 1.668224471913492e+000	 1.505061834628878e-001	 1.392588815219619e+001
 1.700000000000000e+000	 0.000000000000000e+000	 1.370112199026380e+001
 1.699933351262914e+000	 1.505328082567050e-002	 1.372707054803198e+001
 1.699732440328683e+000	 3.016009437312491e-002	 1.374882020238698e+001
 1.699395832298168e+000	 4.531892721285889e-002	 1.376628045084106e+001
 1.698922109287631e+000	 6.052822950202618e-002	 1.377935846416944e+001
 1.698309871396523e+000	 7.578641504911861e-002	 1.378795900651673e+001
 1.697557737683585e+000	 9.109186140553453e-002	 1.379198435711969e+001
 1.696664347150472e+000	 1.064429099846206e-001	 1.379133423399016e+001
 1.695628359732141e+000	 1.218378662087530e-001	 1.378590571991303e+001
 1.694448457293173e+000	 1.372749996850030e-001	 1.377559319112608e+001
 1.693123344629191e+000	 1.527525444099089e-001	 1.376028824905796e+001
 1.725000000000000e+000	 0.000000000000000e+000	 1.352336423284763e+001
 1.724932371134438e+000	 1.527465260226077e-002	 1.355169829353983e+001
 1.724728505627676e+000	 3.060362517227634e-002	 1.357587132893553e+001
 1.724386947479116e+000	 4.598538202422683e-002	 1.359579983576033e+001
 1.723906257953791e+000	 6.141835052346012e-002	 1.361139801115836e+001
 1.723285016564378e+000	 7.690092115212302e-002	 1.362257766291514e+001
 1.722521822061660e+000	 9.243144760207629e-002	 1.362924812104635e+001
 1.721615293432609e+000	 1.080082468956870e-001	 1.363131615111082e+001
 1.720564070905344e+000	 1.236295995350730e-001	 1.362868586961904e+001
 1.719366816960102e+000	 1.392937496803514e-001	 1.362125866192056e+001
 1.718022217345382e+000	 1.549989053574217e-001	 1.360893310296507e+001
 1.750000000000000e+000	 0.000000000000000e+000	 1.335784083014689e+001
 1.749931391005967e+000	 1.549602437885581e-002	 1.338865007947081e+001
 1.749724570926687e+000	 3.104715597144690e-002	 1.341534757984286e+001
 1.749378062660108e+000	 4.665183683563796e-002	 1.343785701505111e+001
 1.748890406620027e+000	 6.230847154497111e-002	 1.345609978868056e+001
 1.748260161732354e+000	 7.801542725524825e-002	 1.346999492398210e+001
 1.747485906439909e+000	 9.377103379879266e-002	 1.347945896485484e+001
 1.746566239714984e+000	 1.095735838069920e-001	 1.348440587831572e+001
 1.745499782078859e+000	 1.254213328617057e-001	 1.348474695884461e+001
 1.744285176627427e+000	 1.413124996760966e-001	 1.348039073500615e+001
 1.742921090062065e+000	 1.572452663054261e-001	 1.347124287876229e+001
 1.493932362917365e+000	 1.347816568475081e-001	 1.553993759815648e+001
 1.492633897486894e+000	 1.484723814904555e-001	 1.555947708247599e+001
 1.491205083984588e+000	 1.621955532324464e-001	 1.557337489920813e+001
 1.489644845617649e+000	 1.759495209193235e-001	 1.558147872044751e+001
 1.487952129390019e+000	 1.897326029638495e-001	 1.558363391937874e+001
 1.486125906996327e+000	 2.035430876609110e-001	 1.557968359327775e+001
 1.484165175715299e+000	 2.173792335306682e-001	 1.556946859187167e+001
 1.482068959301720e+000	 2.312392696899346e-001	 1.555282755130890e+001
 1.479836308875994e+000	 2.451213962520331e-001	 1.552959693398856e+001
 1.477466303810354e+000	 2.590237847553507e-001	 1.549961107449421e+001
 1.474958052610726e+000	 2.729445786207708e-001	 1.546270223187239e+001
 1.518831235629623e+000	 1.370280177910873e-001	 1.525540098935390e+001
 1.517511129108093e+000	 1.509469211777063e-001	 1.527694391677543e+001
 1.516058502047001e+000	 1.648988124484992e-001	 1.529282697878387e+001
 1.514472259707000e+000	 1.788820129300736e-001	 1.530289813319948e+001
 1.512751331542102e+000	 1.928948130087401e-001	 1.530700296752032e+001
 1.510894672108513e+000	 2.069354724509679e-001	 1.530498471756332e+001
 1.508901261972938e+000	 2.210022207522550e-001	 1.529668429154055e+001
 1.506770108619411e+000	 2.350932575146959e-001	 1.528194029983778e+001
 1.504500247353678e+000	 2.492067528535041e-001	 1.526058909075984e+001
 1.502090742204176e+000	 2.633408478327075e-001	 1.523246479250428e+001
 1.499540686818598e+000	 2.774936549302055e-001	 1.519739936161923e+001
 1.543730108342372e+000	 1.392743787351581e-001	 1.499020511648029e+001
 1.542388360729875e+000	 1.534214608655346e-001	 1.501376669621137e+001
 1.540911920110067e+000	 1.676020716651860e-001	 1.503166306263268e+001
 1.539299673797057e+000	 1.818145049414854e-001	 1.504374262005914e+001
 1.537550533694922e+000	 1.960570230542905e-001	 1.504985132042191e+001
 1.535663437221447e+000	 2.103278572416532e-001	 1.504983267709389e+001
 1.533637348231319e+000	 2.246252079744083e-001	 1.504352778423262e+001
 1.531471257937817e+000	 2.389472453399320e-001	 1.503077534192384e+001
 1.529164185832027e+000	 2.532921094553274e-001	 1.501141168740714e+001
 1.526715180598594e+000	 2.676579109102633e-001	 1.498527083266188e+001
 1.524123321026977e+000	 2.820427312396547e-001	 1.495218450862696e+001
 1.568628981055612e+000	 1.415207396797206e-001	 1.474348930397206e+001
 1.567265592352239e+000	 1.558960005539401e-001	 1.476907514295139e+001
 1.565765338173787e+000	 1.703053308825069e-001	 1.478900318203329e+001
 1.564127087887818e+000	 1.847469969535589e-001	 1.480312243653529e+001
 1.562349735848479e+000	 1.992192331005007e-001	 1.481127937669063e+001
 1.560432202335132e+000	 2.137202420329666e-001	 1.481331793619838e+001
 1.558373434490442e+000	 2.282481951971283e-001	 1.480907952637793e+001
 1.556172407256935e+000	 2.428012331656429e-001	 1.479840305622911e+001
 1.553828124311042e+000	 2.573774660575030e-001	 1.478112495869707e+001
 1.551339618993610e+000	 2.719749739880181e-001	 1.475707922343804e+001
 1.548705955235862e+000	 2.865918075491187e-001	 1.472609743637817e+001
 1.593527853769345e+000	 1.437671006247749e-001	 1.451444297688774e+001
 1.592142823975186e+000	 1.583705402429230e-001	 1.454204936542164e+001
 1.590618756238160e+000	 1.730085901004619e-001	 1.456401805683127e+001
 1.588954501979286e+000	 1.876794889662941e-001	 1.458019884572671e+001
 1.587148938002775e+000	 2.023814431473708e-001	 1.459043887829661e+001
 1.585200967449566e+000	 2.171126268249083e-001	 1.459458265511716e+001
 1.583109520750306e+000	 2.318711824204149e-001	 1.459247203965836e+001
 1.580873556576769e+000	 2.466552209918284e-001	 1.458394627280680e+001
 1.578492062790723e+000	 2.614628226600309e-001	 1.456884199372350e+001
 1.575964057389221e+000	 2.762920370659718e-001	 1.454699326735173e+001
 1.573288589445256e+000	 2.911408838585972e-001	 1.451823161888666e+001
 1.618426726483569e+000	 1.460134615703208e-001	 1.430230180701405e+001
 1.617020055598714e+000	 1.608450799324833e-001	 1.433191598244095e+001
 1.615472174303186e+000	 1.757118493190510e-001	 1.435592519631841e+001
 1.613781916071458e+000	 1.906119809796910e-001	 1.437418019466149e+001
 1.611948140157806e+000	 2.055436531949007e-001	 1.438652896108353e+001
 1.609969732564749e+000	 2.205050116174782e-001	 1.439281671339344e+001
 1.607845607010913e+000	 2.354941696442681e-001	 1.439288590598812e+001
 1.605574705897316e+000	 2.505092088184888e-001	 1.438657623837884e+001
 1.603156001271070e+000	 2.655481792629110e-001	 1.437372467019007e+001
 1.600588495785431e+000	 2.806091001441247e-001	 1.435416544296613e+001
 1.597871223655156e+000	 2.956899601680906e-001	 1.432773010911811e+001
 1.643325599198285e+000	 1.482598225163584e-001	 1.410634420932588e+001
 1.641897287222824e+000	 1.633196196226208e-001	 1.413794459970617e+001
 1.640325592368866e+000	 1.784151085382742e-001	 1.416398535457782e+001
 1.638609330164335e+000	 1.935444729937495e-001	 1.418431834733264e+001
 1.636747342313575e+000	 2.087058632430905e-001	 1.419879256432364e+001
 1.634738497680683e+000	 2.238973964106764e-001	 1.420725409477454e+001
 1.632581693272261e+000	 2.391171568686880e-001	 1.420954612658709e+001
 1.630275855218577e+000	 2.543631966456237e-001	 1.420550894840640e+001
 1.627819939752082e+000	 2.696335358661434e-001	 1.419497995830320e+001
 1.625212934182237e+000	 2.849261632224766e-001	 1.417779367943059e+001
 1.622453857865564e+000	 3.002390364775985e-001	 1.415378178300874e+001
 1.668224471913492e+000	 1.505061834628878e-001	 1.392588815219619e+001
 1.666774518847517e+000	 1.657941593133357e-001	 1.395944460181631e+001
 1.665179010435198e+000	 1.811183677581315e-001	 1.398749930326067e+001
 1.663436744257918e+000	 1.964769650084698e-001	 1.400990543716337e+001
 1.661546544470082e+000	 2.118680732919400e-001	 1.402651316180520e+001
 1.659507262797366e+000	 2.272897812045028e-001	 1.403716959585336e+001
 1.657317779534351e+000	 2.427401440936744e-001	 1.404171880710719e+001
 1.654977004540552e+000	 2.582171844732335e-001	 1.404000180763164e+001
 1.652483878233760e+000	 2.737188924697281e-001	 1.403185655566000e+001
 1.649837372579640e+000	 2.892432263010273e-001	 1.401711796464582e+001
 1.647036492076480e+000	 3.047881127871212e-001	 1.399561791984057e+001
 1.693123344629191e+000	 1.527525444099089e-001	 1.376028824905796e+001
 1.691651750472792e+000	 1.682686990046280e-001	 1.379576222735317e+001
 1.690032428502185e+000	 1.838216269786229e-001	 1.382580488911796e+001
 1.688264158352205e+000	 1.994094570238517e-001	 1.385027090601966e+001
 1.686345746627326e+000	 2.150302833414494e-001	 1.386901178135330e+001
 1.684276027914798e+000	 2.306821659989574e-001	 1.388187582512384e+001
 1.682053865797183e+000	 2.463631313192275e-001	 1.388870813524763e+001
 1.679678153863241e+000	 2.620711723013179e-001	 1.388935058527767e+001
 1.677147816716104e+000	 2.778042490736651e-001	 1.388364181905766e+001
 1.674461810977640e+000	 2.935602893797772e-001	 1.387141725270854e+001
 1.671619126287902e+000	 3.093371890966585e-001	 1.385250908434825e+001
 1.718022217345382e+000	 1.549989053574217e-001	 1.360893310296507e+001
 1.716528982098648e+000	 1.707432386964976e-001	 1.364627789830300e+001
 1.714885846569825e+000	 1.865248861997484e-001	 1.367827434739908e+001
 1.713091572447198e+000	 2.023419490398954e-001	 1.370477880069983e+001
 1.711144948785307e+000	 2.181924933916187e-001	 1.372564428352284e+001
 1.709044793032979e+000	 2.340745507940402e-001	 1.374072046298807e+001
 1.706789952060757e+000	 2.499861185453472e-001	 1.374985362118626e+001
 1.704379303186644e+000	 2.659251601298772e-001	 1.375288663501360e+001
 1.701811755199113e+000	 2.818896056779544e-001	 1.374965896310210e+001
 1.699086249376236e+000	 2.978773524587260e-001	 1.374000664027406e+001
 1.696201760499832e+000	 3.138862654062104e-001	 1.372376227994712e+001
 1.742921090062065e+000	 1.572452663054261e-001	 1.347124287876229e+001
 1.741406213725087e+000	 1.732177783889446e-001	 1.351040377838471e+001
 1.739739264638117e+000	 1.892281454215080e-001	 1.354431184553055e+001
 1.737918986542895e+000	 2.052744410566007e-001	 1.357282530115368e+001
 1.735944150944025e+000	 2.213547034424478e-001	 1.359579887354645e+001
 1.733813558151911e+000	 2.374669355897513e-001	 1.361308375662004e+001
 1.731526038325072e+000	 2.536091057720335e-001	 1.362452757454532e+001
 1.729080452510761e+000	 2.697791479589111e-001	 1.362997435320839e+001
 1.726475693682788e+000	 2.859749622825958e-001	 1.362926449893589e+001
 1.723710687775430e+000	 3.021944155378738e-001	 1.362223478494491e+001
 1.720784394712270e+000	 3.184353417157770e-001	 1.360871834597015e+001
 1.474958052610726e+000	 2.729445786207708e-001	 1.546270223187239e+001
 1.472310693793589e+000	 2.868818936375483e-001	 1.548341147139760e+001
 1.469523396755786e+000	 3.008338184795506e-001	 1.549718187335873e+001
 1.466595362636951e+000	 3.147984152506359e-001	 1.550384346767309e+001
 1.463525825174173e+000	 3.287737200581075e-001	 1.550322441924227e+001
 1.460314051546808e+000	 3.427577436160289e-001	 1.549515110726189e+001
 1.456959343210721e+000	 3.567484718777407e-001	 1.547944821199368e+001
 1.453461036720863e+000	 3.707438666974945e-001	 1.545593880918471e+001
 1.449818504541092e+000	 3.847418665210725e-001	 1.542444447230458e+001
 1.446031155840162e+000	 3.987403871052226e-001	 1.538478538275700e+001
 1.442098437272754e+000	 4.127373222656903e-001	 1.533678044820608e+001
 1.499540686818598e+000	 2.774936549302055e-001	 1.519739936161923e+001
 1.496849205355224e+000	 2.916632585315759e-001	 1.522050417663116e+001
 1.494015453367372e+000	 3.058477154550846e-001	 1.523673617325165e+001
 1.491038618680334e+000	 3.200450555063187e-001	 1.524592166480628e+001
 1.487917922260148e+000	 3.342532820610352e-001	 1.524788486199132e+001
 1.484652619072495e+000	 3.484703726785303e-001	 1.524244795001436e+001
 1.481241998930835e+000	 3.626942797446992e-001	 1.522943117360865e+001
 1.477685387332699e+000	 3.769229311446957e-001	 1.520865293012418e+001
 1.473982146283010e+000	 3.911542309650638e-001	 1.517992987088498e+001
 1.470131675103331e+000	 4.053860602251623e-001	 1.514307701098668e+001
 1.466133411225922e+000	 4.196162776376646e-001	 1.509790784769172e+001
 1.524123321026977e+000	 2.820427312396547e-001	 1.495218450862696e+001
 1.521387716917276e+000	 2.964446234254375e-001	 1.497760667138749e+001
 1.518507509979304e+000	 3.108616124303102e-001	 1.499623257087148e+001
 1.515481874724011e+000	 3.252916957615901e-001	 1.500788490600867e+001
 1.512310019346388e+000	 3.397328440634880e-001	 1.501238402350142e+001
 1.508991186598434e+000	 3.541830017405330e-001	 1.500954799243365e+001
 1.505524654651208e+000	 3.686400876111747e-001	 1.499919268717739e+001
 1.501909737944821e+000	 3.831019955914700e-001	 1.498113187882021e+001
 1.498145788025261e+000	 3.975665954087250e-001	 1.495517733532225e+001
 1.494232194366904e+000	 4.120317333449102e-001	 1.492113893059559e+001
 1.490168385179583e+000	 4.264952330096262e-001	 1.487882476268158e+001
 1.548705955235862e+000	 2.865918075491187e-001	 1.472609743637817e+001
 1.545926228479745e+000	 3.012259883191330e-001	 1.475375924672130e+001
 1.542999566591581e+000	 3.158755094052278e-001	 1.477471199487807e+001
 1.539925130767982e+000	 3.305383360164504e-001	 1.478877486797878e+001
 1.536702116432889e+000	 3.452124060654656e-001	 1.479576443916798e+001
 1.533329754124623e+000	 3.598956308020364e-001	 1.479549473931418e+001
 1.529807310371839e+000	 3.745858954771670e-001	 1.478777733745447e+001
 1.526134088557231e+000	 3.892810600378177e-001	 1.477242143021864e+001
 1.522309429767849e+000	 4.039789598520568e-001	 1.474923394046148e+001
 1.518332713630881e+000	 4.186774064644663e-001	 1.471801962531639e+001
 1.514203359133739e+000	 4.333741883815753e-001	 1.467858119386468e+001
 1.573288589445256e+000	 2.911408838585972e-001	 1.451823161888666e+001
 1.570464740042631e+000	 3.060073532126624e-001	 1.454805567945890e+001
 1.567491623204205e+000	 3.208894063798373e-001	 1.457126864154472e+001
 1.564368386812248e+000	 3.357849762708995e-001	 1.458768628362058e+001
 1.561094213519653e+000	 3.506919680669683e-001	 1.459712149608049e+001
 1.557668321651062e+000	 3.656082598630408e-001	 1.459938434967423e+001
 1.554089966092728e+000	 3.805317033426761e-001	 1.459428217313150e+001
 1.550358439169927e+000	 3.954601244837386e-001	 1.458161964023848e+001
 1.546473071510771e+000	 4.103913242950587e-001	 1.456119886661735e+001
 1.542433232895262e+000	 4.253230795838304e-001	 1.453281951644245e+001
 1.538238333088388e+000	 4.402531437535119e-001	 1.449627891930802e+001
 1.597871223655156e+000	 2.956899601680906e-001	 1.432773010911811e+001
 1.595003251605933e+000	 3.107887181060257e-001	 1.435963911790796e+001
 1.591983679817174e+000	 3.259033033541385e-001	 1.438504587724937e+001
 1.588811642856808e+000	 3.410316165249371e-001	 1.440376286079685e+001
 1.585486310606679e+000	 3.561715300679961e-001	 1.441559936750758e+001
 1.582006889177752e+000	 3.713208889235460e-001	 1.442036158643107e+001
 1.578372621813876e+000	 3.864775112077024e-001	 1.441785267114959e+001
 1.574582789782909e+000	 4.016391889292327e-001	 1.440787282415864e+001
 1.570636713254029e+000	 4.168036887377309e-001	 1.439021939146116e+001
 1.566533752160047e+000	 4.319687527030029e-001	 1.436468696763093e+001
 1.562273307043531e+000	 4.471320991254358e-001	 1.433106751158143e+001
 1.622453857865564e+000	 3.002390364775985e-001	 1.415378178300874e+001
 1.619541763169654e+000	 3.155700829992230e-001	 1.418769834159374e+001
 1.616475736430489e+000	 3.309172003281314e-001	 1.421523251346667e+001
 1.613254898901663e+000	 3.462782567785636e-001	 1.423619357210498e+001
 1.609878407693968e+000	 3.616510920685486e-001	 1.425038731697427e+001
 1.606345456704692e+000	 3.770335179835523e-001	 1.425761613428736e+001
 1.602655277535283e+000	 3.924233190722454e-001	 1.425767906789266e+001
 1.598807140396178e+000	 4.078182533743001e-001	 1.425037190060583e+001
 1.594800354997622e+000	 4.232160531800732e-001	 1.423548724628172e+001
 1.590634271425236e+000	 4.386144258219835e-001	 1.421281465290557e+001
 1.586308280999167e+000	 4.540110544973471e-001	 1.418214071696201e+001
 1.647036492076480e+000	 3.047881127871212e-001	 1.399561791984057e+001
 1.644080274733790e+000	 3.203514478922541e-001	 1.403146435594426e+001
 1.640967793044150e+000	 3.359310973018163e-001	 1.406105941534276e+001
 1.637698154946812e+000	 3.515248970317786e-001	 1.408420927691169e+001
 1.634270504781519e+000	 3.671306540686263e-001	 1.410071633331757e+001
 1.630684024231883e+000	 3.827461470430597e-001	 1.411037924735907e+001
 1.626937933256947e+000	 3.983691269363053e-001	 1.411299301893045e+001
 1.623031491009734e+000	 4.139973178189406e-001	 1.410834906294654e+001
 1.618963996741549e+000	 4.296284176220859e-001	 1.409623529855125e+001
 1.614734790690830e+000	 4.452600989407723e-001	 1.407643624991297e+001
 1.610343254955297e+000	 4.608900098692461e-001	 1.404873315888879e+001
 1.671619126287902e+000	 3.093371890966585e-001	 1.385250908434825e+001
 1.668618786298344e+000	 3.251328127851191e-001	 1.389020728744442e+001
 1.665459849658157e+000	 3.409449942751929e-001	 1.392179640951350e+001
 1.662141410992255e+000	 3.567715372845824e-001	 1.394707964144347e+001
 1.658662601869332e+000	 3.726102160682288e-001	 1.396585606264870e+001
 1.655022591759323e+000	 3.884587761020676e-001	 1.397792069260105e+001
 1.651220588978871e+000	 4.043149347998822e-001	 1.398306455349026e+001
 1.647255841623576e+000	 4.201763822631545e-001	 1.398107474437976e+001
 1.643127638485812e+000	 4.360407820637686e-001	 1.397173452720606e+001
 1.638835309956827e+000	 4.519057720593694e-001	 1.395482342495039e+001
 1.634378228911922e+000	 4.677689652411324e-001	 1.393011733228923e+001
 1.696201760499832e+000	 3.138862654062104e-001	 1.372376227994712e+001
 1.693157297863315e+000	 3.299141776778182e-001	 1.376323354877680e+001
 1.689951906272511e+000	 3.459588912482614e-001	 1.379674946080812e+001
 1.686584667037993e+000	 3.620181775369751e-001	 1.382411032669528e+001
 1.683054698957408e+000	 3.780897780673564e-001	 1.384511200710139e+001
 1.679361159287015e+000	 3.941714051605767e-001	 1.385954595902156e+001
 1.675503244701052e+000	 4.102607426629759e-001	 1.386719929375704e+001
 1.671480192237705e+000	 4.263554467069416e-001	 1.386785484693460e+001
 1.667291280230410e+000	 4.424531465051216e-001	 1.386129126094630e+001
 1.662935829223229e+000	 4.585514451777746e-001	 1.384728308016501e+001
 1.658413202869040e+000	 4.746479206130062e-001	 1.382560085926840e+001
 1.720784394712270e+000	 3.184353417157770e-001	 1.360871834597015e+001
 1.717695809428702e+000	 3.346955425703510e-001	 1.364988324695032e+001
 1.714443962887209e+000	 3.509727882210215e-001	 1.368525809094959e+001
 1.711027923084025e+000	 3.672648177889563e-001	 1.371464041737562e+001
 1.707446796045747e+000	 3.835693400660090e-001	 1.373782296368738e+001
 1.703699726814957e+000	 3.998840342185867e-001	 1.375459370610697e+001
 1.699785900423492e+000	 4.162065505255865e-001	 1.376473591251932e+001
 1.695704542852120e+000	 4.325345111503019e-001	 1.376802820798249e+001
 1.691454921975343e+000	 4.488655109461449e-001	 1.376424465325280e+001
 1.687036348490034e+000	 4.651971182959881e-001	 1.375315483670753e+001
 1.682448176826651e+000	 4.815268759848673e-001	 1.373452398002505e+001
 1.442098437272754e+000	 4.127373222656903e-001	 1.533678044820608e+001
 1.438019833743952e+000	 4.267305446539297e-001	 1.535343461462290e+001
 1.433794869157610e+000	 4.407179065610665e-001	 1.536242451369478e+001
 1.429423107146426e+000	 4.546972407496676e-001	 1.536358721421077e+001
 1.424904151781650e+000	 4.686663613134736e-001	 1.535675851695547e+001
 1.420237648262862e+000	 4.826230645635711e-001	 1.534177308026900e+001
 1.415423283586218e+000	 4.965651299408994e-001	 1.531846455420306e+001
 1.410460787190097e+000	 5.104903209545468e-001	 1.528666572332796e+001
 1.405349931577071e+000	 5.243963861452564e-001	 1.524620865822217e+001
 1.400090532911170e+000	 5.382810600734967e-001	 1.519692487565106e+001
 1.394682451589383e+000	 5.521420643314209e-001	 1.513864550741643e+001
 1.466133411225922e+000	 4.196162776376646e-001	 1.509790784769172e+001
 1.461986830971045e+000	 4.338427203983612e-001	 1.511867838119104e+001
 1.457691450307712e+000	 4.480632050033768e-001	 1.513173711404497e+001
 1.453246825595835e+000	 4.622755280946554e-001	 1.513690790711014e+001
 1.448652554307849e+000	 4.764774673341675e-001	 1.513401306873102e+001
 1.443908275729996e+000	 4.906667823048522e-001	 1.512287348936025e+001
 1.439013671641701e+000	 5.048412154383312e-001	 1.510330878550698e+001
 1.433968466971982e+000	 5.189984929688458e-001	 1.507513745307140e+001
 1.428772430431791e+000	 5.331363259128185e-001	 1.503817703009791e+001
 1.423425375121222e+000	 5.472524110733930e-001	 1.499224426895345e+001
 1.417927159110548e+000	 5.613444320692591e-001	 1.493715531790939e+001
 1.490168385179583e+000	 4.264952330096262e-001	 1.487882476268158e+001
 1.485953828198727e+000	 4.409548961429656e-001	 1.490335883571913e+001
 1.481588031458489e+000	 4.554085034460164e-001	 1.492014575534026e+001
 1.477070544045993e+000	 4.698538154400996e-001	 1.492899631821474e+001
 1.472400956834864e+000	 4.842885733554154e-001	 1.492971947025886e+001
 1.467578903198001e+000	 4.987105000467547e-001	 1.492212244999762e+001
 1.462604059698101e+000	 5.131173009364221e-001	 1.490601094200678e+001
 1.457476146754822e+000	 5.275066649838112e-001	 1.488118924049689e+001
 1.452194929287490e+000	 5.418762656810238e-001	 1.484746042307397e+001
 1.446760217332268e+000	 5.562237620738788e-001	 1.480462653468366e+001
 1.441171866632713e+000	 5.705467998076025e-001	 1.475248878171557e+001
 1.514203359133739e+000	 4.333741883815753e-001	 1.467858119386468e+001
 1.509920825426997e+000	 4.480670718877428e-001	 1.470654584313906e+001
 1.505484612609940e+000	 4.627538018889853e-001	 1.472674021511378e+001
 1.500894262496902e+000	 4.774321027860002e-001	 1.473896217610337e+001
 1.496149359362695e+000	 4.920996793772169e-001	 1.474300742942828e+001
 1.491249530666879e+000	 5.067542177892785e-001	 1.473866966720513e+001
 1.486194447755419e+000	 5.213933864351721e-001	 1.472574073298894e+001
 1.480983826538615e+000	 5.360148369994430e-001	 1.470401079533439e+001
 1.475617428144168e+000	 5.506162054498724e-001	 1.467326853231404e+001
 1.470095059544309e+000	 5.651951130749543e-001	 1.463330132700127e+001
 1.464416574155878e+000	 5.797491675464509e-001	 1.458389547389460e+001
 1.538238333088388e+000	 4.402531437535119e-001	 1.449627891930802e+001
 1.533887822655857e+000	 4.551792476326931e-001	 1.452735975341180e+001
 1.529381193762066e+000	 4.700991003322836e-001	 1.455065947513752e+001
 1.524717980948561e+000	 4.850103901323571e-001	 1.456596314500767e+001
 1.519897761891341e+000	 4.999107853995722e-001	 1.457305333404505e+001
 1.514920158136628e+000	 5.147979355324238e-001	 1.457171028368148e+001
 1.509784835813656e+000	 5.296694719345810e-001	 1.456171207731115e+001
 1.504491506323362e+000	 5.445230090157411e-001	 1.454283482356198e+001
 1.499039927001826e+000	 5.593561452193646e-001	 1.451485285132694e+001
 1.493429901757345e+000	 5.741664640766195e-001	 1.447753891656528e+001
 1.487661281680043e+000	 5.889515352858046e-001	 1.443066442085030e+001
 1.562273307043531e+000	 4.471320991254358e-001	 1.433106751158143e+001
 1.557854819885305e+000	 4.622914233778162e-001	 1.436496751806367e+001
 1.553277774914866e+000	 4.774443987759112e-001	 1.439108793648093e+001
 1.548541699400969e+000	 4.925886774791703e-001	 1.440920113745420e+001
 1.543646164420804e+000	 5.077218914224814e-001	 1.441907666106862e+001
 1.538590785607250e+000	 5.228416532761904e-001	 1.442048138459430e+001
 1.533375223872810e+000	 5.379455574346491e-001	 1.441317970266602e+001
 1.527999186109062e+000	 5.530311810327058e-001	 1.439693372000209e+001
 1.522462425860463e+000	 5.680960849895000e-001	 1.437150345670943e+001
 1.516764743971375e+000	 5.831378150788742e-001	 1.433664706618794e+001
 1.510905989205208e+000	 5.981539030256633e-001	 1.429212106561193e+001
 1.586308280999167e+000	 4.540110544973471e-001	 1.418214071696201e+001
 1.581821817115343e+000	 4.694035991231121e-001	 1.421857915976488e+001
 1.577174356068340e+000	 4.847896972198681e-001	 1.424725197865512e+001
 1.572365417854128e+000	 5.001669648264399e-001	 1.426791896212096e+001
 1.567394566951083e+000	 5.155329974459445e-001	 1.428033671228228e+001
 1.562261413078743e+000	 5.308853710205783e-001	 1.428425882012034e+001
 1.556965611932882e+000	 5.462216429353759e-001	 1.427943605400270e+001
 1.551506865895716e+000	 5.615393530503368e-001	 1.426561656159093e+001
 1.545884924720079e+000	 5.768360247602786e-001	 1.424254608518486e+001
 1.540099586186401e+000	 5.921091660817187e-001	 1.420996819052015e+001
 1.534150696731373e+000	 6.073562707660271e-001	 1.416762450899890e+001
 1.610343254955297e+000	 4.608900098692461e-001	 1.404873315888879e+001
 1.605788814345970e+000	 4.765157748685813e-001	 1.408744455806498e+001
 1.601070937222489e+000	 4.921349956641541e-001	 1.411841682689329e+001
 1.596189136308037e+000	 5.077452521741660e-001	 1.414139727188582e+001
 1.591142969482178e+000	 5.233441034699612e-001	 1.415612964229144e+001
 1.585932040551108e+000	 5.389290887655879e-001	 1.416235431253446e+001
 1.580555999993871e+000	 5.544977284367622e-001	 1.415980847880626e+001
 1.575014545683324e+000	 5.700475250686342e-001	 1.414822636990727e+001
 1.569307423580675e+000	 5.855759645317008e-001	 1.412733947239974e+001
 1.563434428402421e+000	 6.010805170851530e-001	 1.409687677009321e+001
 1.557395404258538e+000	 6.165586385068962e-001	 1.405656499784524e+001
 1.634378228911922e+000	 4.677689652411324e-001	 1.393011733228923e+001
 1.629755811577185e+000	 4.836279506142233e-001	 1.397085051874013e+001
 1.624967518377312e+000	 4.994802941087698e-001	 1.400388369584785e+001
 1.620012854762697e+000	 5.153235395223482e-001	 1.402895178116475e+001
 1.614891372014088e+000	 5.311552094945315e-001	 1.404578574875731e+001
 1.609602668024345e+000	 5.469728065112189e-001	 1.405411281855526e+001
 1.604146388055778e+000	 5.627738139388072e-001	 1.405365666073471e+001
 1.598522225471885e+000	 5.785556970875980e-001	 1.404413761524284e+001
 1.592729922442250e+000	 5.943159043037664e-001	 1.402527292653230e+001
 1.586769270619436e+000	 6.100518680891769e-001	 1.399677699353361e+001
 1.580640111786703e+000	 6.257610062482703e-001	 1.395857927457564e+001
 1.658413202869040e+000	 4.746479206130062e-001	 1.382560085926840e+001
 1.653722808808989e+000	 4.907401263600381e-001	 1.386811809797956e+001
 1.648864099532809e+000	 5.068255925537145e-001	 1.390298718166132e+001
 1.643836573218106e+000	 5.229018268709869e-001	 1.392993072522073e+001
 1.638639774546815e+000	 5.389663155196559e-001	 1.394866699826244e+001
 1.633273295498454e+000	 5.550165242574712e-001	 1.395891012105209e+001
 1.627736776118604e+000	 5.710498994415113e-001	 1.396037027641808e+001
 1.622029905261401e+000	 5.870638691072281e-001	 1.395275393771006e+001
 1.616152421304804e+000	 6.030558440764752e-001	 1.393576411289162e+001
 1.610104112837447e+000	 6.190232190937902e-001	 1.390910060480241e+001
 1.603884819315868e+000	 6.349633739901497e-001	 1.387270505775215e+001
 1.682448176826651e+000	 4.815268759848673e-001	 1.373452398002505e+001
 1.677689806041381e+000	 4.978523021060258e-001	 1.377860015592753e+001
 1.672760680688981e+000	 5.141708909989885e-001	 1.381509287757434e+001
 1.667660291674265e+000	 5.304801142200817e-001	 1.384371253724608e+001
 1.662388177080357e+000	 5.467774215453340e-001	 1.386416476424486e+001
 1.656943922973434e+000	 5.630602420043450e-001	 1.387615062717718e+001
 1.651327164182347e+000	 5.793259849448745e-001	 1.387936685310334e+001
 1.645537585051869e+000	 5.955720411275248e-001	 1.387350606368347e+001
 1.639574920168338e+000	 6.117957838498270e-001	 1.385825702840825e+001
 1.633438955056452e+000	 6.279945700989933e-001	 1.383260257570928e+001
 1.627129526846032e+000	 6.441657417325339e-001	 1.379395578984756e+001
 1.394682451589383e+000	 5.521420643314209e-001	 1.513864550741643e+001
 1.389125592786738e+000	 5.659771085778665e-001	 1.513351920009287e+001
 1.383419906972935e+000	 5.797838915960678e-001	 1.511699316605933e+001
 1.377565390400310e+000	 5.935601023727930e-001	 1.508880177725553e+001
 1.371562085562787e+000	 6.073034211979435e-001	 1.504868081633381e+001
 1.365410081623910e+000	 6.210115207841032e-001	 1.499636779682626e+001
 1.359109514813409e+000	 6.346820674049265e-001	 1.496290980787212e+001
 1.352660568791450e+000	 6.483127220513676e-001	 1.493208942841491e+001
 1.346063474979750e+000	 6.619011416047149e-001	 1.489139058439965e+001
 1.339318512858777e+000	 6.754449800253554e-001	 1.484078357841290e+001
 1.332426010230286e+000	 6.889418895561570e-001	 1.478024683717321e+001
 1.417927159110548e+000	 5.613444320692591e-001	 1.493715531790939e+001
 1.412277685994379e+000	 5.754100603868140e-001	 1.493161346553806e+001
 1.406476905416907e+000	 5.894469564555899e-001	 1.491514677081166e+001
 1.400524813568007e+000	 6.034527707454682e-001	 1.488749599938634e+001
 1.394421453649835e+000	 6.174251448845146e-001	 1.484840280602790e+001
 1.388166916311995e+000	 6.313617127971888e-001	 1.481524066651211e+001
 1.381761340054712e+000	 6.452601018617062e-001	 1.479303015101915e+001
 1.375204911599156e+000	 6.591179340855364e-001	 1.476145985741694e+001
 1.368497866224071e+000	 6.729328272979883e-001	 1.472050655038994e+001
 1.361640488067935e+000	 6.867023963587892e-001	 1.467015485621332e+001
 1.354633110395864e+000	 7.004242543815206e-001	 1.461039734789271e+001
 1.441171866632713e+000	 5.705467998076025e-001	 1.475248878171557e+001
 1.435429779203020e+000	 5.848430121961762e-001	 1.474733191180015e+001
 1.429533903861879e+000	 5.991100213154564e-001	 1.473171858509215e+001
 1.423484236736704e+000	 6.133454391184369e-001	 1.470539538243069e+001
 1.417280821737884e+000	 6.275468685713478e-001	 1.467405125211316e+001
 1.410923751001080e+000	 6.417119048105252e-001	 1.466007599565469e+001
 1.404413165297016e+000	 6.558381363187450e-001	 1.463722011181670e+001
 1.397749254407861e+000	 6.699231461199927e-001	 1.460546691675420e+001
 1.390932257469392e+000	 6.839645129915987e-001	 1.456480736110905e+001
 1.383962463278093e+000	 6.979598126926291e-001	 1.451524010977096e+001
 1.376840210562442e+000	 7.119066192073804e-001	 1.445677161051525e+001
 1.464416574155878e+000	 5.797491675464509e-001	 1.458389547389460e+001
 1.458581872412662e+000	 5.942759640059531e-001	 1.457989509005949e+001
 1.452590902307851e+000	 6.087730861756668e-001	 1.456590100103365e+001
 1.446443659906401e+000	 6.232381074916983e-001	 1.454166503930060e+001
 1.440140189826932e+000	 6.376685922584426e-001	 1.453223067846400e+001
 1.433680585691166e+000	 6.520620968241120e-001	 1.451773822417032e+001
 1.427064990540319e+000	 6.664161707760430e-001	 1.449479569315665e+001
 1.420293597217567e+000	 6.807283581547373e-001	 1.446340042385081e+001
 1.413366648715714e+000	 6.949961986855461e-001	 1.442355727080317e+001
 1.406284438489250e+000	 7.092172290268756e-001	 1.437527866846671e+001
 1.399047310730021e+000	 7.233889840337363e-001	 1.431858468368085e+001
 1.487661281680043e+000	 5.889515352858046e-001	 1.443066442085030e+001
 1.481733965623303e+000	 6.037089158161452e-001	 1.442856491093069e+001
 1.475647900754824e+000	 6.184361510362215e-001	 1.441692963830674e+001
 1.469403083077098e+000	 6.331307758652528e-001	 1.440849635964230e+001
 1.462999557916980e+000	 6.477903159457991e-001	 1.440207769885111e+001
 1.456437420382251e+000	 6.624122888379491e-001	 1.438761872763687e+001
 1.449716815784622e+000	 6.769942052336002e-001	 1.436512317653321e+001
 1.442837940028272e+000	 6.915335701897695e-001	 1.433460212693688e+001
 1.435801039963035e+000	 7.060278843798304e-001	 1.429607407047769e+001
 1.428606413701408e+000	 7.204746453615282e-001	 1.424956495716631e+001
 1.421254410898599e+000	 7.348713488605884e-001	 1.419510823205712e+001
 1.510905989205208e+000	 5.981539030256633e-001	 1.429212106561193e+001
 1.504886058834944e+000	 6.131418676267519e-001	 1.429264146296755e+001
 1.498704899202796e+000	 6.280992158971203e-001	 1.428786941443965e+001
 1.492362506248796e+000	 6.430234442391006e-001	 1.428929448442850e+001
 1.485858926008029e+000	 6.579120396334174e-001	 1.428305256479802e+001
 1.479194255074336e+000	 6.727624808520368e-001	 1.426915372576750e+001
 1.472368641029925e+000	 6.875722396914165e-001	 1.424761525445809e+001
 1.465382282839978e+000	 7.023387822250898e-001	 1.421846171037100e+001
 1.458235431211356e+000	 7.170595700744518e-001	 1.418172496968489e+001
 1.450928388914566e+000	 7.317320616965873e-001	 1.413744425810614e+001
 1.443461511068178e+000	 7.463537136879365e-001	 1.408566617202917e+001
 1.534150696731373e+000	 6.073562707660271e-001	 1.416762450899890e+001
 1.528038152047586e+000	 6.225748194377736e-001	 1.417146012039495e+001
 1.521761897651768e+000	 6.377622807583634e-001	 1.417843323758122e+001
 1.515321929421493e+000	 6.529161126132413e-001	 1.418020074483867e+001
 1.508718294100077e+000	 6.680337633212978e-001	 1.417465548876307e+001
 1.501951089767421e+000	 6.831126728663750e-001	 1.416182088512765e+001
 1.495020466276228e+000	 6.981502741494923e-001	 1.414172751447443e+001
 1.487926625652684e+000	 7.131439942606983e-001	 1.411441316311550e+001
 1.480669822460677e+000	 7.280912557694100e-001	 1.407992285269480e+001
 1.473250364128724e+000	 7.429894780320526e-001	 1.403830885806210e+001
 1.465668611238756e+000	 7.578360785157806e-001	 1.398963071323652e+001
 1.557395404258538e+000	 6.165586385068962e-001	 1.405656499784524e+001
 1.551190245261227e+000	 6.320077712492102e-001	 1.406852400216542e+001
 1.544818896101741e+000	 6.474253456199506e-001	 1.407815050672948e+001
 1.538281352595190e+000	 6.628087809876752e-001	 1.408077392205667e+001
 1.531577662193125e+000	 6.781554870094398e-001	 1.407642366198025e+001
 1.524707924461507e+000	 6.934628648809638e-001	 1.406513622608641e+001
 1.517672291523532e+000	 7.087283086078268e-001	 1.404695523803493e+001
 1.510470968466389e+000	 7.239492062965944e-001	 1.402193147242266e+001
 1.503104213710998e+000	 7.391229414647055e-001	 1.399012286993407e+001
 1.495572339343882e+000	 7.542468943679244e-001	 1.395159454054824e+001
 1.487875711410334e+000	 7.693184433441207e-001	 1.390641875459872e+001
 1.580640111786703e+000	 6.257610062482703e-001	 1.395857927457564e+001
 1.574342338475868e+000	 6.414407230610618e-001	 1.397596986816255e+001
 1.567875894552713e+000	 6.570884104818818e-001	 1.398663361704057e+001
 1.561240775769887e+000	 6.727014493624020e-001	 1.399060575149532e+001
 1.554437030287174e+000	 6.882772106978441e-001	 1.398792853543146e+001
 1.547464759156591e+000	 7.038130568958028e-001	 1.397865130268384e+001
 1.540324116771835e+000	 7.193063430664205e-001	 1.396283048183219e+001
 1.533015311281095e+000	 7.347544183327788e-001	 1.394052960925469e+001
 1.525538604962320e+000	 7.501546271603375e-001	 1.391181933018042e+001
 1.517894314560039e+000	 7.655043107042022e-001	 1.387677738752722e+001
 1.510082811582912e+000	 7.808008081729571e-001	 1.383548859833898e+001
 1.603884819315868e+000	 6.349633739901497e-001	 1.387270505775215e+001
 1.597494431691509e+000	 6.508736748733279e-001	 1.389133573914647e+001
 1.590932893004685e+000	 6.667514753441571e-001	 1.390352429040453e+001
 1.584200198945584e+000	 6.825941177374222e-001	 1.390931853480868e+001
 1.577296398382222e+000	 6.983989343865098e-001	 1.390877333725613e+001
 1.570221593852676e+000	 7.141632489108925e-001	 1.390195062772732e+001
 1.562975942021138e+000	 7.298843775252734e-001	 1.388891941292612e+001
 1.555559654096801e+000	 7.455596303692508e-001	 1.386975577584083e+001
 1.547972996214641e+000	 7.611863128563067e-001	 1.384454286300098e+001
 1.540216289777197e+000	 7.767617270408865e-001	 1.381337085923283e+001
 1.532289911756491e+000	 7.922831730022893e-001	 1.377633694974487e+001
 1.627129526846032e+000	 6.441657417325339e-001	 1.379395578984756e+001
 1.620646524908150e+000	 6.603066266860092e-001	 1.381430914757583e+001
 1.613989891457657e+000	 6.764145402067767e-001	 1.382849148067853e+001
 1.607159622122281e+000	 6.924867861127354e-001	 1.383656295658922e+001
 1.600155766478270e+000	 7.085206580754373e-001	 1.383859080295426e+001
 1.592978428549762e+000	 7.245134409262325e-001	 1.383464931859385e+001
 1.585627767271442e+000	 7.404624119843857e-001	 1.382481987228923e+001
 1.578103996913506e+000	 7.563648424060108e-001	 1.380919088915847e+001
 1.570407387467962e+000	 7.722179985526128e-001	 1.378785782441024e+001
 1.562538264995355e+000	 7.880191433779770e-001	 1.376092312429358e+001
 1.554497011931069e+000	 8.037655378321177e-001	 1.372849617409219e+001
 1.332426010230286e+000	 6.889418895561570e-001	 1.478024683717321e+001
 1.325386343444616e+000	 7.023895219395790e-001	 1.472767722210514e+001
 1.318199937591758e+000	 7.157855296464767e-001	 1.467117535942294e+001
 1.310867266655738e+000	 7.291275671160524e-001	 1.461092138183345e+001
 1.303388853632028e+000	 7.424132920061466e-001	 1.454709984057999e+001
 1.295765270607129e+000	 7.556403664517626e-001	 1.447989952670332e+001
 1.287997138799943e+000	 7.688064583308097e-001	 1.440951328294440e+001
 1.280085128564544e+000	 7.819092425357325e-001	 1.433613780650841e+001
 1.272029959353938e+000	 7.949464022496640e-001	 1.425997344293673e+001
 1.263832399644536e+000	 8.079156302257307e-001	 1.418122397135863e+001
 1.255493266821059e+000	 8.208146300681053e-001	 1.410009638142113e+001
 1.354633110395864e+000	 7.004242543815206e-001	 1.461039734789271e+001
 1.347476115830716e+000	 7.140960139710572e-001	 1.456657272899358e+001
 1.340169936547323e+000	 7.277152884728083e-001	 1.451856391272157e+001
 1.332715054429446e+000	 7.412796932332970e-001	 1.446653596818326e+001
 1.325112001189150e+000	 7.547868468713274e-001	 1.441065861894035e+001
 1.317361358447709e+000	 7.682343725574867e-001	 1.435110608064349e+001
 1.309463757777677e+000	 7.816198993009828e-001	 1.428805688901565e+001
 1.301419880705692e+000	 7.949410632424673e-001	 1.422169371837506e+001
 1.293230458675645e+000	 8.081955089514592e-001	 1.415220319091481e+001
 1.284896272971888e+000	 8.213808907269707e-001	 1.407977567698287e+001
 1.276418154602220e+000	 8.344948738999106e-001	 1.400460508663366e+001
 1.376840210562442e+000	 7.119066192073804e-001	 1.445677161051525e+001
 1.369565888217805e+000	 7.258025060031214e-001	 1.442078670182896e+001
 1.362139935503848e+000	 7.396450472997965e-001	 1.438036971891952e+001
 1.354562842204066e+000	 7.534318193512490e-001	 1.433567118594503e+001
 1.346835148747114e+000	 7.671604017372468e-001	 1.428684652187066e+001
 1.338957446289043e+000	 7.808283786639605e-001	 1.423405589401353e+001
 1.330930376756053e+000	 7.944333402718961e-001	 1.417746406163080e+001
 1.322754632847353e+000	 8.079728839499134e-001	 1.411724020971172e+001
 1.314430957997716e+000	 8.214446156539167e-001	 1.405355777316230e+001
 1.305960146299434e+000	 8.348461512288031e-001	 1.398659425159912e+001
 1.297343042383386e+000	 8.481751177322187e-001	 1.391653101499578e+001
 1.399047310730021e+000	 7.233889840337363e-001	 1.431858468368085e+001
 1.391655660605885e+000	 7.375089980357721e-001	 1.428957704819880e+001
 1.384109934461334e+000	 7.515748061274419e-001	 1.425589308013551e+001
 1.376410629979597e+000	 7.655839454699086e-001	 1.421766925683907e+001
 1.368558296305920e+000	 7.795339566039046e-001	 1.417504719546949e+001
 1.360553534131129e+000	 7.934223847711833e-001	 1.412817352201218e+001
 1.352396995735073e+000	 8.072467812435499e-001	 1.407719973001336e+001
 1.344089384989528e+000	 8.210047046580709e-001	 1.402228202917029e+001
 1.335631457320152e+000	 8.346937223570361e-001	 1.396358118393705e+001
 1.327024019627176e+000	 8.483114117312283e-001	 1.390126234233517e+001
 1.318267930164557e+000	 8.618553615650291e-001	 1.383549485518636e+001
 1.421254410898599e+000	 7.348713488605884e-001	 1.419510823205712e+001
 1.413745432994954e+000	 7.492154900690090e-001	 1.417225559002176e+001
 1.406079933419780e+000	 7.635045649557439e-001	 1.414448554231595e+001
 1.398258417756038e+000	 7.777360715892758e-001	 1.411192099844383e+001
 1.390281443865568e+000	 7.919075114713010e-001	 1.407469025759436e+001
 1.382149621973968e+000	 8.060163908791559e-001	 1.403292689269818e+001
 1.373863614714737e+000	 8.200602222159443e-001	 1.398676962387092e+001
 1.365424137132218e+000	 8.340365253669396e-001	 1.393636218134808e+001
 1.356831956642953e+000	 8.479428290608175e-001	 1.388185315804479e+001
 1.348087892955113e+000	 8.617766722342460e-001	 1.382339585190334e+001
 1.339192817945733e+000	 8.755356053983423e-001	 1.376114809822077e+001
 1.443461511068178e+000	 7.463537136879365e-001	 1.408566617202917e+001
 1.435835205385014e+000	 7.609219821028320e-001	 1.406818391629151e+001
 1.428049932379187e+000	 7.754343237847030e-001	 1.404554595340200e+001
 1.420106205533392e+000	 7.898881977093507e-001	 1.401786208605297e+001
 1.412004591426058e+000	 8.042810663394359e-001	 1.398524776157253e+001
 1.403745709817560e+000	 8.186103969878779e-001	 1.394782397061647e+001
 1.395330233695044e+000	 8.328736631890793e-001	 1.390571713489659e+001
 1.386758889275422e+000	 8.470683460765198e-001	 1.385905898402280e+001
 1.378032455966119e+000	 8.611919357652610e-001	 1.380798642156600e+001
 1.369151766283245e+000	 8.752419327378559e-001	 1.375264138047869e+001
 1.360117705726915e+000	 8.892158492321584e-001	 1.369317066804043e+001
 1.465668611238756e+000	 7.578360785157806e-001	 1.398963071323652e+001
 1.457924977776064e+000	 7.726284741372415e-001	 1.397676961284367e+001
 1.450019931339554e+000	 7.873640826143185e-001	 1.395851687984516e+001
 1.441953993311657e+000	 8.020403238301329e-001	 1.393496965436369e+001
 1.433727738987390e+000	 8.166546212083095e-001	 1.390623098139276e+001
 1.425341797661905e+000	 8.312044030973499e-001	 1.387240972373107e+001
 1.416796852675995e+000	 8.456871041629545e-001	 1.383362046358810e+001
 1.408093641419141e+000	 8.601001667868111e-001	 1.378998339291151e+001
 1.399232955289649e+000	 8.744410424703665e-001	 1.374162419251720e+001
 1.390215639611572e+000	 8.887071932420584e-001	 1.368867390013361e+001
 1.381042593508102e+000	 9.028960930664768e-001	 1.363126876750315e+001
 1.487875711410334e+000	 7.693184433441207e-001	 1.390641875459872e+001
 1.480014750168104e+000	 7.843349661722373e-001	 1.389746282975590e+001
 1.471989930300882e+000	 7.992938414445909e-001	 1.388288134403198e+001
 1.463801781090832e+000	 8.141924499516231e-001	 1.386275920349138e+001
 1.455450886549564e+000	 8.290281760779212e-001	 1.383718748479034e+001
 1.446937885507002e+000	 8.437984092075711e-001	 1.380626336197598e+001
 1.438263471657590e+000	 8.585005451375705e-001	 1.377009002157597e+001
 1.429428393563373e+000	 8.731319874978141e-001	 1.372877656600365e+001
 1.420433454613544e+000	 8.876901491761340e-001	 1.368243790533316e+001
 1.411279512940094e+000	 9.021724537468535e-001	 1.363119463753206e+001
 1.401967481289294e+000	 9.165763369012980e-001	 1.357517291727010e+001
 1.510082811582912e+000	 7.808008081729571e-001	 1.383548859833898e+001
 1.502104522561134e+000	 7.960414582078191e-001	 1.382975315162403e+001
 1.493959929263171e+000	 8.112236002755202e-001	 1.381815984958289e+001
 1.485649568870919e+000	 8.263445760738210e-001	 1.380078177798298e+001
 1.477174034112580e+000	 8.414017309482718e-001	 1.377769846458920e+001
 1.468533973352852e+000	 8.563924153185417e-001	 1.374899581946315e+001
 1.459730090639828e+000	 8.713139861129265e-001	 1.371476606315781e+001
 1.450763145708121e+000	 8.861638082095285e-001	 1.367510764280564e+001
 1.441633953937804e+000	 9.009392558825637e-001	 1.363012513613036e+001
 1.432343386268812e+000	 9.156377142522409e-001	 1.357992914344492e+001
 1.422892369070492e+000	 9.302565807366219e-001	 1.352463616773193e+001
 1.532289911756491e+000	 7.922831730022893e-001	 1.377633694974487e+001
 1.524194294955155e+000	 8.077479502439875e-001	 1.377316673998852e+001
 1.515929928226421e+000	 8.231533591071063e-001	 1.376390766532085e+001
 1.507497356651917e+000	 8.384967021967261e-001	 1.374862139113368e+001
 1.498897181676438e+000	 8.537752858193607e-001	 1.372737630210135e+001
 1.490130061199455e+000	 8.689864214302617e-001	 1.370024745562919e+001
 1.481196709622710e+000	 8.841274270890234e-001	 1.366731652278627e+001
 1.472097897853381e+000	 8.991956289219537e-001	 1.362867171669485e+001
 1.462834453262429e+000	 9.141883625896550e-001	 1.358440770838220e+001
 1.453407259597724e+000	 9.291029747582211e-001	 1.353462553013358e+001
 1.443817256851695e+000	 9.439368245724484e-001	 1.347943246641984e+001
 1.554497011931069e+000	 8.037655378321177e-001	 1.372849617409219e+001
 1.546284067350165e+000	 8.194544422807419e-001	 1.372726372069543e+001
 1.537899927190630e+000	 8.350831179393492e-001	 1.371971234204261e+001
 1.529345144433827e+000	 8.506488283203388e-001	 1.370589267007623e+001
 1.520620329241138e+000	 8.661488406911879e-001	 1.368586233937777e+001
 1.511726149046811e+000	 8.815804275427315e-001	 1.365968595342638e+001
 1.502663328606235e+000	 8.969408680658605e-001	 1.362743503791505e+001
 1.493432649999157e+000	 9.122274496350905e-001	 1.358918798107151e+001
 1.484034952587419e+000	 9.274374692974083e-001	 1.354502996096498e+001
 1.474471132926832e+000	 9.425682352647933e-001	 1.349505285981488e+001
 1.464742144632903e+000	 9.576170684087775e-001	 1.343935516535249e+001
 1.255493266821059e+000	 8.208146300681053e-001	 1.410009638142113e+001
 1.247013427021299e+000	 8.336411175128567e-001	 1.402024397631397e+001
 1.238393794941728e+000	 8.463928217087878e-001	 1.392758198217334e+001
 1.229635333603122e+000	 8.590674864957385e-001	 1.383258968494245e+001
 1.220739054075391e+000	 8.716628716778430e-001	 1.373527437262572e+001
 1.211706015162792e+000	 8.841767542918875e-001	 1.363563880730310e+001
 1.202537323049252e+000	 8.966069298687862e-001	 1.353368125481792e+001
 1.193234130903926e+000	 9.089512136867098e-001	 1.342939552915565e+001
 1.183797638447231e+000	 9.212074420144201e-001	 1.332277105149386e+001
 1.174229091477602e+000	 9.333734733433581e-001	 1.321379292385364e+001
 1.164529781359323e+000	 9.454471896070471e-001	 1.310244201723578e+001
 1.276418154602220e+000	 8.344948738999106e-001	 1.400460508663366e+001
 1.267796984139968e+000	 8.475351361353408e-001	 1.393347371781479e+001
 1.259033691526450e+000	 8.604993687346021e-001	 1.385927651318046e+001
 1.250129255832787e+000	 8.733852779348662e-001	 1.378217441040401e+001
 1.241084704980055e+000	 8.861905862036693e-001	 1.368721782123642e+001
 1.231901115419247e+000	 8.989130335284116e-001	 1.358986996253870e+001
 1.222579611770688e+000	 9.115503786988557e-001	 1.349035129153279e+001
 1.213121366423021e+000	 9.241004005811424e-001	 1.338865283178258e+001
 1.203527599092000e+000	 9.365608993818458e-001	 1.328476079633208e+001
 1.193799576339370e+000	 9.489296979005983e-001	 1.317865666652143e+001
 1.183938611052150e+000	 9.612046427698152e-001	 1.307031728626813e+001
 1.297343042383386e+000	 8.481751177322187e-001	 1.391653101499578e+001
 1.288580541258456e+000	 8.614291547582270e-001	 1.384868585874662e+001
 1.279673588110835e+000	 8.746059157607187e-001	 1.377772974602313e+001
 1.270623178061991e+000	 8.877030693741959e-001	 1.370383008666490e+001
 1.261430355884161e+000	 9.007183007295979e-001	 1.362715762897377e+001
 1.252096215675079e+000	 9.136493127649379e-001	 1.354788625172789e+001
 1.242621900491466e+000	 9.264938275288274e-001	 1.345436133075278e+001
 1.233008601941451e+000	 9.392495874753766e-001	 1.335539582577646e+001
 1.223257559736129e+000	 9.519143567489734e-001	 1.325439681654081e+001
 1.213370061200551e+000	 9.644859224574401e-001	 1.315134185188500e+001
 1.203347440744476e+000	 9.769620959320846e-001	 1.304620341478867e+001
 1.318267930164557e+000	 8.618553615650291e-001	 1.383549485518636e+001
 1.309364098376765e+000	 8.753231733815162e-001	 1.377100893600831e+001
 1.300313484694886e+000	 8.887124627871379e-001	 1.370336605168135e+001
 1.291117100290734e+000	 9.020208608137283e-001	 1.363274016638327e+001
 1.281776006787710e+000	 9.152460152556290e-001	 1.355930874654328e+001
 1.272291315930287e+000	 9.283855920014662e-001	 1.348325254417002e+001
 1.262664189211584e+000	 9.414372763587006e-001	 1.340475537234931e+001
 1.252895837459215e+000	 9.543987743694122e-001	 1.332400387330136e+001
 1.242987520379617e+000	 9.672678141158019e-001	 1.323051167854181e+001
 1.232940546061146e+000	 9.800421470138830e-001	 1.313067811554870e+001
 1.222756270436300e+000	 9.927195490938553e-001	 1.302892745400987e+001
 1.339192817945733e+000	 8.755356053983423e-001	 1.376114809822077e+001
 1.330147655494894e+000	 8.892171920052078e-001	 1.370008835116719e+001
 1.320953381278602e+000	 9.028190098138598e-001	 1.363582458102142e+001
 1.311611022519015e+000	 9.163386522534631e-001	 1.356853739289170e+001
 1.302121657690702e+000	 9.297737297817618e-001	 1.349841106221694e+001
 1.292486416184872e+000	 9.431218712379963e-001	 1.342563330926022e+001
 1.282706477931043e+000	 9.563807251884756e-001	 1.335039506537428e+001
 1.272783072976315e+000	 9.695479612632498e-001	 1.327289023144472e+001
 1.262717481022464e+000	 9.826212714823324e-001	 1.319331542894157e+001
 1.252511030921156e+000	 9.955983715699278e-001	 1.311186974403462e+001
 1.242165100127623e+000	 1.008477002255128e+000	 1.301735060944580e+001
 1.360117705726915e+000	 8.892158492321584e-001	 1.369317066804043e+001
 1.350931212612843e+000	 9.031112106293023e-001	 1.363559823269783e+001
 1.341593277861981e+000	 9.169255568408838e-001	 1.357477350958848e+001
 1.332104944746835e+000	 9.306564436934001e-001	 1.351088383563271e+001
 1.322467308593137e+000	 9.443014443079969e-001	 1.344412039062017e+001
 1.312681516438834e+000	 9.578581504745284e-001	 1.337467796271576e+001
 1.302748766649843e+000	 9.713241740181526e-001	 1.330275470532894e+001
 1.292670308492750e+000	 9.846971481568890e-001	 1.322855188576836e+001
 1.282447441664671e+000	 9.979747288485642e-001	 1.315227362613054e+001
 1.272081515780578e+000	 1.011154596125574e+000	 1.307412663689603e+001
 1.261573929818444e+000	 1.024234455415901e+000	 1.299431994373094e+001
 1.381042593508102e+000	 9.028960930664768e-001	 1.363126876750315e+001
 1.371714769730612e+000	 9.170052292537990e-001	 1.357723925970129e+001
 1.362233174445026e+000	 9.310321038682108e-001	 1.351990783876711e+001
 1.352598866974193e+000	 9.449742351335393e-001	 1.345946866848366e+001
 1.342812959495014e+000	 9.588291588343341e-001	 1.339611993266779e+001
 1.332876616692172e+000	 9.725944297110625e-001	 1.333006359153105e+001
 1.322791055367983e+000	 9.862676228477311e-001	 1.326150512898404e+001
 1.312557544008519e+000	 9.998463350503296e-001	 1.319065329132358e+001
 1.302177402306237e+000	 1.013328186214498e+000	 1.311771981776849e+001
 1.291652000639415e+000	 1.026710820680821e+000	 1.304291916333716e+001
 1.280982759508765e+000	 1.039991908576176e+000	 1.296646821458443e+001
 1.401967481289294e+000	 9.165763369012980e-001	 1.357517291727010e+001
 1.392498326848202e+000	 9.308992478786984e-001	 1.352473668051509e+001
 1.382873071027735e+000	 9.451386508958403e-001	 1.347094739385311e+001
 1.373092789201091e+000	 9.592920265738814e-001	 1.341400614703783e+001
 1.363158610396335e+000	 9.733568733607738e-001	 1.335411823181113e+001
 1.353071716944887e+000	 9.873307089475988e-001	 1.329149288895680e+001
 1.342833344085465e+000	 1.001211071677212e+000	 1.322634304586711e+001
 1.332444779523624e+000	 1.014995521943572e+000	 1.315888504507817e+001
 1.321907362947162e+000	 1.028681643580132e+000	 1.308933836425812e+001
 1.311222485497666e+000	 1.042267045235669e+000	 1.301792532816087e+001
 1.300391589198583e+000	 1.055749361735952e+000	 1.294487081308377e+001
 1.422892369070492e+000	 9.302565807366219e-001	 1.352463616773193e+001
 1.413281883965611e+000	 9.447932665040006e-001	 1.347783850615160e+001
 1.403512967610108e+000	 9.592451979237721e-001	 1.342763499876575e+001
 1.393586711427527e+000	 9.736098180144253e-001	 1.337423376436057e+001
 1.383504261297098e+000	 9.878845878873157e-001	 1.331784731061613e+001
 1.373266817196979e+000	 1.002066988184137e+000	 1.325869227168708e+001
 1.362875632802286e+000	 1.016154520506594e+000	 1.319698913585373e+001
 1.352332015038063e+000	 1.030144708836616e+000	 1.313296196371654e+001
 1.341637323587446e+000	 1.044035100945469e+000	 1.306683809743694e+001
 1.330792970355330e+000	 1.057823269790119e+000	 1.299884786155689e+001
 1.319800418887901e+000	 1.071506814895229e+000	 1.292922425595668e+001
 1.443817256851695e+000	 9.439368245724484e-001	 1.347943246641984e+001
 1.434065441082840e+000	 9.586872851297054e-001	 1.343631386082897e+001
 1.424152864192146e+000	 9.733517449520064e-001	 1.338973480948107e+001
 1.414080633653502e+000	 9.879276094551719e-001	 1.333991056711449e+001
 1.403849912197303e+000	 1.002412302413959e+000	 1.328706096937824e+001
 1.393461917448448e+000	 1.016803267420677e+000	 1.323141016076925e+001
 1.382917921518449e+000	 1.031097969335878e+000	 1.317318631218582e+001
 1.372219250551837e+000	 1.045293895729462e+000	 1.311262132858778e+001
 1.361367284227090e+000	 1.059388558310506e+000	 1.304995054728497e+001
 1.350363455212408e+000	 1.073379494344171e+000	 1.298541242740697e+001
 1.339209248576718e+000	 1.087264268054008e+000	 1.291924823113510e+001
 1.464742144632903e+000	 9.576170684087775e-001	 1.343935516535249e+001
 1.454848998199890e+000	 9.725813037558125e-001	 1.339995147388495e+001
 1.444792760773848e+000	 9.874582919805433e-001	 1.335703079031332e+001
 1.434574555879015e+000	 1.002245400896121e+000	 1.331081561601682e+001
 1.424195563096952e+000	 1.016940016940706e+000	 1.326153323057038e+001
 1.413657017699293e+000	 1.031539546657219e+000	 1.320941540986438e+001
 1.402960210233953e+000	 1.046041418165064e+000	 1.315469813337403e+001
 1.392106486064946e+000	 1.060443082622109e+000	 1.309762128108681e+001
 1.381097244866093e+000	 1.074742015675245e+000	 1.303842832062886e+001
 1.369933940068900e+000	 1.088935718897823e+000	 1.297736598516413e+001
 1.358618078265032e+000	 1.103021721212288e+000	 1.291468394266913e+001
 1.164529781359323e+000	 9.454471896070471e-001	 1.310244201723578e+001
 1.154701044472046e+000	 9.574264973867980e-001	 1.298928322838225e+001
 1.144744261621738e+000	 9.693093291010766e-001	 1.287379690719882e+001
 1.134660857414088e+000	 9.810936441778934e-001	 1.275599966422228e+001
 1.124452299591371e+000	 9.927774302097261e-001	 1.263590451742992e+001
 1.114120098332699e+000	 1.004358704088371e+000	 1.251352099851841e+001
 1.103665805518577e+000	 1.015835513118795e+000	 1.238885527163304e+001
 1.093091013960509e+000	 1.027205936110678e+000	 1.226191026418513e+001
 1.082397356596456e+000	 1.038468084446386e+000	 1.213268580935261e+001
 1.071586505652984e+000	 1.049620103124114e+000	 1.200117879981743e+001
 1.060660171775000e+000	 1.060660171775000e+000	 1.186738335225530e+001
 1.183938611052150e+000	 9.612046427698152e-001	 1.307031728626813e+001
 1.173946061883105e+000	 9.733836056803343e-001	 1.296218975705260e+001
 1.163823332651751e+000	 9.854644845907676e-001	 1.285184323159759e+001
 1.153571871707206e+000	 9.974452049195919e-001	 1.273926695211898e+001
 1.143193171254116e+000	 1.009323720719159e+000	 1.262444617240560e+001
 1.132688766641246e+000	 1.021098015829463e+000	 1.250736229849837e+001
 1.122060235613774e+000	 1.032766105010550e+000	 1.238799304276838e+001
 1.111309197530064e+000	 1.044326035052265e+000	 1.226631259096456e+001
 1.100437312543711e+000	 1.055775885860012e+000	 1.214229178175680e+001
 1.089446280751720e+000	 1.067113771515287e+000	 1.201589829825619e+001
 1.078337841309750e+000	 1.078337841309750e+000	 1.188709687095344e+001
 1.203347440744476e+000	 9.769620959320846e-001	 1.304620341478867e+001
 1.193191079293752e+000	 9.893407139732818e-001	 1.294218125715993e+001
 1.182902403681423e+000	 1.001619640079800e+000	 1.283606205111446e+001
 1.172482886000033e+000	 1.013796765660581e+000	 1.272780781660516e+001
 1.161934042916601e+000	 1.025870011227853e+000	 1.261737616996904e+001
 1.151257434949542e+000	 1.037837327569805e+000	 1.250472049910418e+001
 1.140454665708711e+000	 1.049696696901566e+000	 1.238979015303102e+001
 1.129527381099330e+000	 1.061446133993143e+000	 1.227253064534325e+001
 1.118477268490625e+000	 1.073083687272977e+000	 1.215288387100244e+001
 1.107306055850047e+000	 1.084607439905870e+000	 1.203078833588649e+001
 1.096015510844000e+000	 1.096015510844000e+000	 1.190617939845755e+001
 1.222756270436300e+000	 9.927195490938553e-001	 1.302892745400987e+001
 1.212436096703989e+000	 1.005297822265641e+000	 1.292813631042379e+001
 1.201981474710754e+000	 1.017774795568173e+000	 1.282538382321038e+001
 1.191393900292569e+000	 1.030148326400861e+000	 1.272060490651703e+001
 1.180674914578825e+000	 1.042416301735808e+000	 1.261372963592461e+001
 1.169826103257588e+000	 1.054576639309397e+000	 1.250468345824891e+001
 1.158849095803388e+000	 1.066627288791843e+000	 1.239338741675181e+001
 1.147745564668305e+000	 1.078566232933310e+000	 1.227975839119838e+001
 1.136517224437199e+000	 1.090391488685283e+000	 1.216370935214516e+001
 1.125165830947963e+000	 1.102101108295863e+000	 1.204514962879504e+001
 1.113693180377750e+000	 1.113693180377750e+000	 1.192398518970832e+001
 1.242165100127623e+000	 1.008477002255128e+000	 1.301735060944580e+001
 1.231681114113813e+000	 1.021254930557411e+000	 1.291896464497576e+001
 1.221060545739743e+000	 1.033929951055887e+000	 1.281876714611839e+001
 1.210304914584815e+000	 1.046499887140433e+000	 1.271666600952222e+001
 1.199415786240788e+000	 1.058962592243023e+000	 1.261256383811642e+001
 1.188394771565383e+000	 1.071315951048240e+000	 1.250635818569288e+001
 1.177243525897804e+000	 1.083557880681380e+000	 1.239794181796196e+001
 1.165963748236990e+000	 1.095686331872768e+000	 1.228720298945076e+001
 1.154557180383433e+000	 1.107699290096928e+000	 1.217402573555690e+001
 1.143025606045469e+000	 1.119594776685267e+000	 1.205829017901983e+001
 1.131370849911000e+000	 1.131370849911000e+000	 1.193987285002175e+001
 1.261573929818444e+000	 1.024234455415901e+000	 1.299431994373094e+001
 1.250926131523227e+000	 1.037212038848592e+000	 1.291231509824266e+001
 1.240139616768392e+000	 1.050085106542942e+000	 1.281519659416882e+001
 1.229215928876769e+000	 1.062851447879295e+000	 1.271502211836327e+001
 1.218156657902490e+000	 1.075508882749499e+000	 1.261295648319465e+001
 1.206963439872927e+000	 1.088055262786333e+000	 1.250886936982444e+001
 1.195637955991960e+000	 1.100488472570177e+000	 1.240262526657018e+001
 1.184181931805385e+000	 1.112806430811516e+000	 1.229408378290794e+001
 1.172597136329328e+000	 1.125007091507914e+000	 1.218309997959396e+001
 1.160885381142566e+000	 1.137088445074080e+000	 1.206952471409272e+001
 1.149048519443750e+000	 1.149048519443750e+000	 1.195320500044490e+001
 1.280982759508765e+000	 1.039991908576176e+000	 1.296646821458443e+001
 1.270171148932229e+000	 1.053169147139185e+000	 1.288458250163807e+001
 1.259218687796699e+000	 1.066240262029339e+000	 1.280146218719912e+001
 1.248126943168433e+000	 1.079203008617448e+000	 1.271472567289762e+001
 1.236897529563932e+000	 1.092055173255236e+000	 1.261400416822115e+001
 1.225532108180222e+000	 1.104794574523678e+000	 1.251135803837020e+001
 1.214032386085856e+000	 1.117419064458234e+000	 1.240662346761428e+001
 1.202400115373490e+000	 1.129926529749554e+000	 1.229963137339377e+001
 1.190637092274882e+000	 1.142314892918240e+000	 1.219020777484057e+001
 1.178745156239252e+000	 1.154582113462304e+000	 1.207817417753206e+001
 1.166726188976000e+000	 1.166726188976000e+000	 1.196334797353388e+001
 1.300391589198583e+000	 1.055749361735952e+000	 1.294487081308377e+001
 1.289416166340821e+000	 1.069126255429189e+000	 1.286225298100647e+001
 1.278297758824665e+000	 1.082395417515077e+000	 1.277840534283126e+001
 1.267037957459805e+000	 1.095554569354892e+000	 1.269346173092671e+001
 1.255638401225113e+000	 1.108601463760233e+000	 1.260755727916055e+001
 1.244100776487265e+000	 1.121533886260272e+000	 1.251298033904125e+001
 1.232426816179491e+000	 1.134349656345551e+000	 1.240913489177386e+001
 1.220618298941304e+000	 1.147046628686883e+000	 1.230308678152353e+001
 1.208677048220096e+000	 1.159622694327905e+000	 1.219463289245013e+001
 1.196604931335528e+000	 1.172075781849937e+000	 1.208356526496331e+001
 1.184403858507750e+000	 1.184403858507750e+000	 1.196967153637548e+001
 1.319800418887901e+000	 1.071506814895229e+000	 1.292922425595668e+001
 1.308661183749000e+000	 1.085083363718604e+000	 1.284505606286868e+001
 1.297376829852291e+000	 1.098550573000156e+000	 1.275966235140763e+001
 1.285948971750886e+000	 1.111906130091627e+000	 1.267316652072587e+001
 1.274379272886033e+000	 1.125147754264491e+000	 1.258569332736892e+001
 1.262669444794058e+000	 1.138273197996117e+000	 1.249736867345521e+001
 1.250821246272866e+000	 1.151280248232129e+000	 1.240831939104263e+001
 1.238836482508829e+000	 1.164166727623501e+000	 1.230370068061609e+001
 1.226717004164970e+000	 1.176930495736912e+000	 1.219566658998580e+001
 1.214464706431394e+000	 1.189569450236980e+000	 1.208503000116991e+001
 1.202081528039000e+000	 1.202081528039000e+000	 1.197154863804832e+001
 1.339209248576718e+000	 1.087264268054008e+000	 1.291924823113510e+001
 1.327906201156769e+000	 1.101040472007430e+000	 1.283274240431586e+001
 1.316455900879575e+000	 1.114705728484575e+000	 1.274501474291593e+001
 1.304859986041677e+000	 1.128257690827653e+000	 1.265617875411568e+001
 1.293120144546693e+000	 1.141694044768010e+000	 1.256634936188500e+001
 1.281238113100601e+000	 1.155012509731212e+000	 1.247564270217550e+001
 1.269215676365981e+000	 1.168210840117968e+000	 1.238417591413484e+001
 1.257054666076063e+000	 1.181286826559410e+000	 1.229206692783322e+001
 1.244756960109504e+000	 1.194238297145257e+000	 1.219260706892693e+001
 1.232324481526851e+000	 1.207063118623434e+000	 1.208190535392237e+001
 1.219759197569750e+000	 1.219759197569750e+000	 1.196835517904359e+001
 1.358618078265032e+000	 1.103021721212288e+000	 1.291468394266913e+001
 1.347151218564126e+000	 1.116997580295668e+000	 1.282508228368321e+001
 1.335534971906517e+000	 1.130860883968336e+000	 1.273426177513067e+001
 1.323771000332177e+000	 1.144609251562969e+000	 1.264232656178302e+001
 1.311861016207092e+000	 1.158240335270790e+000	 1.254938226817960e+001
 1.299806781406892e+000	 1.171751821465558e+000	 1.245553580022147e+001
 1.287610106458835e+000	 1.185141432003066e+000	 1.236089514261384e+001
 1.275272849643007e+000	 1.198406925494608e+000	 1.226556915264243e+001
 1.262796916053697e+000	 1.211546098552944e+000	 1.216966735078237e+001
 1.250184256621897e+000	 1.224556787009297e+000	 1.207329970864962e+001
 1.237436867100000e+000	 1.237436867100000e+000	 1.195946980044999e+001
 1.060660171775000e+000	 1.060660171775000e+000	 1.186738335225530e+001
 1.049620103124114e+000	 1.071586505652983e+000	 1.172944350131542e+001
 1.038468084446386e+000	 1.082397356596456e+000	 1.159024365841505e+001
 1.027205936110678e+000	 1.093091013960508e+000	 1.144977505601534e+001
 1.015835513118795e+000	 1.103665805518576e+000	 1.130802595925934e+001
 1.004358704088372e+000	 1.114120098332699e+000	 1.116498187284078e+001
 9.927774302097264e-001	 1.124452299591371e+000	 1.102062575625388e+001
 9.810936441778938e-001	 1.134660857414088e+000	 1.087493824672445e+001
 9.693093291010769e-001	 1.144744261621738e+000	 1.072789788909699e+001
 9.574264973867984e-001	 1.154701044472046e+000	 1.057948137193195e+001
 9.454471896070471e-001	 1.164529781359323e+000	 1.042966376904990e+001
 1.078337841309750e+000	 1.078337841309750e+000	 1.188709687095344e+001
 1.067113771515287e+000	 1.089446280751720e+000	 1.175366140923178e+001
 1.055775885860012e+000	 1.100437312543710e+000	 1.161823249017507e+001
 1.044326035052265e+000	 1.111309197530064e+000	 1.148075906448663e+001
 1.032766105010551e+000	 1.122060235613774e+000	 1.134118764073349e+001
 1.021098015829463e+000	 1.132688766641246e+000	 1.119946254537383e+001
 1.009323720719160e+000	 1.143193171254116e+000	 1.105552619059144e+001
 9.974452049195923e-001	 1.153571871707205e+000	 1.090931934913294e+001
 9.854644845907680e-001	 1.163823332651751e+000	 1.076078143531973e+001
 9.733836056803347e-001	 1.173946061883104e+000	 1.060985079138830e+001
 9.612046427698152e-001	 1.183938611052150e+000	 1.045646497829566e+001
 1.096015510844000e+000	 1.096015510844000e+000	 1.190617939845755e+001
 1.084607439905871e+000	 1.107306055850046e+000	 1.177579869446493e+001
 1.073083687272977e+000	 1.118477268490624e+000	 1.164272288223289e+001
 1.061446133993143e+000	 1.129527381099329e+000	 1.150685889888508e+001
 1.049696696901567e+000	 1.140454665708711e+000	 1.136811173607393e+001
 1.037837327569805e+000	 1.151257434949542e+000	 1.122638475335463e+001
 1.025870011227854e+000	 1.161934042916601e+000	 1.108157999883543e+001
 1.013796765660582e+000	 1.172482886000033e+000	 1.093359853619450e+001
 1.001619640079800e+000	 1.182902403681422e+000	 1.078234077713163e+001
 9.893407139732823e-001	 1.193191079293752e+000	 1.062770681830616e+001
 9.769620959320847e-001	 1.203347440744476e+000	 1.046959678179660e+001
 1.113693180377750e+000	 1.113693180377750e+000	 1.192398518970832e+001
 1.102101108295864e+000	 1.125165830947962e+000	 1.179529474708344e+001
 1.090391488685283e+000	 1.136517224437199e+000	 1.166323854569170e+001
 1.078566232933311e+000	 1.147745564668305e+000	 1.152768173008526e+001
 1.066627288791843e+000	 1.158849095803387e+000	 1.138848796794360e+001
 1.054576639309398e+000	 1.169826103257588e+000	 1.124551981702967e+001
 1.042416301735808e+000	 1.180674914578824e+000	 1.109863909893431e+001
 1.030148326400862e+000	 1.191393900292569e+000	 1.094770727859278e+001
 1.017774795568173e+000	 1.201981474710753e+000	 1.079258584853702e+001
 1.005297822265641e+000	 1.212436096703988e+000	 1.063313671683060e+001
 9.927195490938553e-001	 1.222756270436300e+000	 1.046922259762019e+001
 1.131370849911000e+000	 1.131370849911000e+000	 1.193987285002175e+001
 1.119594776685267e+000	 1.143025606045469e+000	 1.181158841649276e+001
 1.107699290096929e+000	 1.154557180383433e+000	 1.167929782952001e+001
 1.095686331872769e+000	 1.165963748236990e+000	 1.154282461723136e+001
 1.083557880681380e+000	 1.177243525897803e+000	 1.140199127181687e+001
 1.071315951048240e+000	 1.188394771565382e+000	 1.125661967034862e+001
 1.058962592243023e+000	 1.199415786240788e+000	 1.110653150194250e+001
 1.046499887140433e+000	 1.210304914584814e+000	 1.095154870013919e+001
 1.033929951055888e+000	 1.221060545739743e+000	 1.079149387936170e+001
 1.021254930557411e+000	 1.231681114113813e+000	 1.062619077429030e+001
 1.008477002255128e+000	 1.242165100127623e+000	 1.045546468098588e+001
 1.149048519443750e+000	 1.149048519443750e+000	 1.195320500044490e+001
 1.137088445074080e+000	 1.160885381142565e+000	 1.182411805302475e+001
 1.125007091507914e+000	 1.172597136329327e+000	 1.169041413302356e+001
 1.112806430811517e+000	 1.184181931805385e+000	 1.155187528556247e+001
 1.100488472570177e+000	 1.195637955991959e+000	 1.140828293345554e+001
 1.088055262786334e+000	 1.206963439872927e+000	 1.125941835221796e+001
 1.075508882749499e+000	 1.218156657902490e+000	 1.110506315101223e+001
 1.062851447879295e+000	 1.229215928876768e+000	 1.094499975830154e+001
 1.050085106542943e+000	 1.240139616768392e+000	 1.077901191095893e+001
 1.037212038848592e+000	 1.250926131523227e+000	 1.061399570356503e+001
 1.024234455415901e+000	 1.261573929818444e+000	 1.051988916629789e+001
 1.166726188976000e+000	 1.166726188976000e+000	 1.196334797353388e+001
 1.154582113462304e+000	 1.178745156239252e+000	 1.183232154574628e+001
 1.142314892918240e+000	 1.190637092274882e+000	 1.169609628081982e+001
 1.129926529749554e+000	 1.202400115373489e+000	 1.155441283352679e+001
 1.117419064458234e+000	 1.214032386085855e+000	 1.140701162297803e+001
 1.104794574523678e+000	 1.225532108180221e+000	 1.125363336218601e+001
 1.092055173255236e+000	 1.236897529563932e+000	 1.109401959320444e+001
 1.079203008617448e+000	 1.248126943168432e+000	 1.092791322650275e+001
 1.066240262029339e+000	 1.259218687796699e+000	 1.082125902370584e+001
 1.053169147139185e+000	 1.270171148932229e+000	 1.072403962074227e+001
 1.039991908576176e+000	 1.280982759508765e+000	 1.062331579385963e+001
 1.184403858507750e+000	 1.184403858507750e+000	 1.196967153637548e+001
 1.172075781849937e+000	 1.196604931335528e+000	 1.183563635688203e+001
 1.159622694327906e+000	 1.208677048220096e+000	 1.169584886423247e+001
 1.147046628686883e+000	 1.220618298941304e+000	 1.155000837657189e+001
 1.134349656345552e+000	 1.232426816179490e+000	 1.139781433632527e+001
 1.121533886260272e+000	 1.244100776487265e+000	 1.123896689472353e+001
 1.108601463760234e+000	 1.255638401225113e+000	 1.111035837206169e+001
 1.095554569354892e+000	 1.267037957459804e+000	 1.101510051530034e+001
 1.082395417515077e+000	 1.278297758824665e+000	 1.091524702717734e+001
 1.069126255429189e+000	 1.289416166340820e+000	 1.081095573748639e+001
 1.055749361735952e+000	 1.300391589198583e+000	 1.070238809490999e+001
 1.202081528039000e+000	 1.202081528039000e+000	 1.197154863804832e+001
 1.189569450236981e+000	 1.214464706431394e+000	 1.183349955319986e+001
 1.176930495736912e+000	 1.226717004164969e+000	 1.168917255256325e+001
 1.164166727623502e+000	 1.238836482508828e+000	 1.153822563413006e+001
 1.151280248232130e+000	 1.250821246272865e+000	 1.138537028633713e+001
 1.138273197996117e+000	 1.262669444794058e+000	 1.129441843728303e+001
 1.125147754264492e+000	 1.274379272886033e+000	 1.119784884262500e+001
 1.111906130091627e+000	 1.285948971750886e+000	 1.109580038367550e+001
 1.098550573000156e+000	 1.297376829852290e+000	 1.098841742336783e+001
 1.085083363718604e+000	 1.308661183749000e+000	 1.087584934725876e+001
 1.071506814895229e+000	 1.319800418887901e+000	 1.075825009312191e+001
 1.219759197569750e+000	 1.219759197569750e+000	 1.196835517904359e+001
 1.207063118623434e+000	 1.232324481526850e+000	 1.182534783466722e+001
 1.194238297145258e+000	 1.244756960109503e+000	 1.167556437729621e+001
 1.181286826559410e+000	 1.257054666076062e+000	 1.156036311476044e+001
 1.168210840117968e+000	 1.269215676365980e+000	 1.146929715282200e+001
 1.155012509731213e+000	 1.281238113100600e+000	 1.137178303094609e+001
 1.141694044768011e+000	 1.293120144546692e+000	 1.126794351299576e+001
 1.128257690827653e+000	 1.304859986041676e+000	 1.115790823992541e+001
 1.114705728484576e+000	 1.316455900879574e+000	 1.104181327879689e+001
 1.101040472007431e+000	 1.327906201156768e+000	 1.091980065744549e+001
 1.087264268054008e+000	 1.339209248576718e+000	 1.079201788617597e+001
 1.237436867100000e+000	 1.237436867100000e+000	 1.195946980044999e+001
 1.224556787009298e+000	 1.250184256621897e+000	 1.181167190487767e+001
 1.211546098552944e+000	 1.262796916053697e+000	 1.172813086688359e+001
 1.198406925494609e+000	 1.275272849643007e+000	 1.163725140099655e+001
 1.185141432003066e+000	 1.287610106458834e+000	 1.153913019988484e+001
 1.171751821465559e+000	 1.299806781406892e+000	 1.143387264578732e+001
 1.158240335270790e+000	 1.311861016207091e+000	 1.132159238933128e+001
 1.144609251562970e+000	 1.323771000332176e+000	 1.120241090968866e+001
 1.130860883968337e+000	 1.335534971906517e+000	 1.107645705739682e+001
 1.116997580295668e+000	 1.347151218564126e+000	 1.094386658122021e+001
 1.103021721212288e+000	 1.358618078265032e+000	 1.080478164047421e+001
 9.454471896070471e-001	 1.164529781359323e+000	 1.042966376904990e+001
 9.333734733433584e-001	 1.174229091477602e+000	 1.025527599427259e+001
 9.212074420144205e-001	 1.183797638447231e+000	 1.007564857725685e+001
 9.089512136867101e-001	 1.193234130903926e+000	 9.890630518021293e+000
 8.966069298687867e-001	 1.202537323049252e+000	 9.700074541731770e+000
 8.841767542918881e-001	 1.211706015162792e+000	 9.503837464868877e+000
 8.716628716778435e-001	 1.220739054075391e+000	 9.301780555534215e+000
 8.590674864957391e-001	 1.229635333603122e+000	 9.093769886955652e+000
 8.463928217087883e-001	 1.238393794941727e+000	 8.879676683271416e+000
 8.336411175128573e-001	 1.247013427021299e+000	 8.659377656697620e+000
 8.208146300681053e-001	 1.255493266821059e+000	 8.506476608307702e+000
 9.612046427698152e-001	 1.183938611052150e+000	 1.045646497829566e+001
 9.489296979005989e-001	 1.193799576339370e+000	 1.027171907118374e+001
 9.365608993818463e-001	 1.203527599092000e+000	 1.008160643126332e+001
 9.241004005811428e-001	 1.213121366423021e+000	 9.885976293136499e+000
 9.115503786988564e-001	 1.222579611770688e+000	 9.684681563883588e+000
 8.989130335284120e-001	 1.231901115419247e+000	 9.477579201007773e+000
 8.861905862036696e-001	 1.241084704980054e+000	 9.264530584605494e+000
 8.733852779348668e-001	 1.250129255832787e+000	 9.046912439202554e+000
 8.604993687346023e-001	 1.259033691526449e+000	 8.929207887086518e+000
 8.475351361353412e-001	 1.267796984139967e+000	 8.810734287822889e+000
 8.344948738999105e-001	 1.276418154602220e+000	 8.691612605588599e+000
 9.769620959320847e-001	 1.203347440744476e+000	 1.046959678179660e+001
 9.644859224574407e-001	 1.213370061200551e+000	 1.027532190905641e+001
 9.519143567489734e-001	 1.223257559736129e+000	 1.007555355325166e+001
 9.392495874753768e-001	 1.233008601941451e+000	 9.870140320917942e+000
 9.264938275288280e-001	 1.242621900491466e+000	 9.658934437721898e+000
 9.136493127649386e-001	 1.252096215675078e+000	 9.463803433832371e+000
 9.007183007295984e-001	 1.261430355884161e+000	 9.342651999442140e+000
 8.877030693741965e-001	 1.270623178061991e+000	 9.220656817692495e+000
 8.746059157607192e-001	 1.279673588110835e+000	 9.097966116038815e+000
 8.614291547582276e-001	 1.288580541258456e+000	 8.974725428475836e+000
 8.481751177322187e-001	 1.297343042383386e+000	 8.851077215454328e+000
 9.927195490938553e-001	 1.222756270436300e+000	 1.046922259762019e+001
 9.800421470138834e-001	 1.232940546061146e+000	 1.026622991104425e+001
 9.672678141158025e-001	 1.242987520379617e+000	 1.005761763837857e+001
 9.543987743694129e-001	 1.252895837459215e+000	 9.870550465575363e+000
 9.414372763587012e-001	 1.262664189211584e+000	 9.746354466274866e+000
 9.283855920014668e-001	 1.272291315930287e+000	 9.621138464788869e+000
 9.152460152556292e-001	 1.281776006787710e+000	 9.495077676617241e+000
 9.020208608137288e-001	 1.291117100290733e+000	 9.368345220716376e+000
 8.887124627871383e-001	 1.300313484694886e+000	 9.241111693121091e+000
 8.753231733815166e-001	 1.309364098376765e+000	 9.113544745894084e+000
 8.618553615650291e-001	 1.318267930164557e+000	 8.985808672529567e+000
 1.008477002255128e+000	 1.242165100127623e+000	 1.045546468098588e+001
 9.955983715699281e-001	 1.252511030921155e+000	 1.026586959585283e+001
 9.826212714823328e-001	 1.262717481022464e+000	 1.013930404106991e+001
 9.695479612632505e-001	 1.272783072976315e+000	 1.001143974099208e+001
 9.563807251884761e-001	 1.282706477931042e+000	 9.882478159175248e+000
 9.431218712379967e-001	 1.292486416184872e+000	 9.752619425699068e+000
 9.297737297817622e-001	 1.302121657690702e+000	 9.622061866658074e+000
 9.163386522534633e-001	 1.311611022519015e+000	 9.491001536937414e+000
 9.028190098138601e-001	 1.320953381278601e+000	 9.359631757519166e+000
 8.892171920052082e-001	 1.330147655494893e+000	 9.228142658546997e+000
 8.755356053983423e-001	 1.339192817945733e+000	 9.096720729355234e+000
 1.024234455415901e+000	 1.261573929818444e+000	 1.051988916629789e+001
 1.011154596125574e+000	 1.272081515780578e+000	 1.039022942148154e+001
 9.979747288485645e-001	 1.282447441664671e+000	 1.025911640448585e+001
 9.846971481568897e-001	 1.292670308492750e+000	 1.012677620402240e+001
 9.713241740181531e-001	 1.302748766649843e+000	 9.993433991904160e+000
 9.578581504745288e-001	 1.312681516438834e+000	 9.859313512531761e+000
 9.443014443079975e-001	 1.322467308593137e+000	 9.724636574577540e+000
 9.306564436934005e-001	 1.332104944746835e+000	 9.589622546213494e+000
 9.169255568408845e-001	 1.341593277861981e+000	 9.454487855213889e+000
 9.031112106293027e-001	 1.350931212612843e+000	 9.319445495244462e+000
 8.892158492321584e-001	 1.360117705726915e+000	 9.184704539625695e+000
 1.039991908576176e+000	 1.280982759508765e+000	 1.062331579385963e+001
 1.026710820680821e+000	 1.291652000639415e+000	 1.048942662695112e+001
 1.013328186214498e+000	 1.302177402306237e+000	 1.035412677670129e+001
 9.998463350503301e-001	 1.312557544008519e+000	 1.021766647120207e+001
 9.862676228477316e-001	 1.322791055367983e+000	 1.008029497380190e+001
 9.725944297110630e-001	 1.332876616692172e+000	 9.942260033715142e+000
 9.588291588343346e-001	 1.342812959495014e+000	 9.803807338993806e+000
 9.449742351335400e-001	 1.352598866974193e+000	 9.665179973294583e+000
 9.310321038682112e-001	 1.362233174445025e+000	 9.526617877860005e+000
 9.170052292537995e-001	 1.371714769730612e+000	 9.388357320110938e+000
 9.028960930664768e-001	 1.381042593508102e+000	 9.250630370222627e+000
 1.055749361735952e+000	 1.300391589198583e+000	 1.070238809490999e+001
 1.042267045235670e+000	 1.311222485497665e+000	 1.056460351731176e+001
 1.028681643580133e+000	 1.321907362947162e+000	 1.042544546267149e+001
 1.014995521943573e+000	 1.332444779523623e+000	 1.028518869756813e+001
 1.001211071677212e+000	 1.342833344085464e+000	 1.014410698422087e+001
 9.873307089475990e-001	 1.353071716944887e+000	 1.000247249129684e+001
 9.733568733607741e-001	 1.363158610396334e+000	 9.860555207234386e+000
 9.592920265738816e-001	 1.373092789201090e+000	 9.718622357606970e+000
 9.451386508958405e-001	 1.382873071027734e+000	 9.576937828034605e+000
 9.308992478786990e-001	 1.392498326848201e+000	 9.435761594129229e+000
 9.165763369012980e-001	 1.401967481289294e+000	 9.295349159932430e+000
 1.071506814895229e+000	 1.319800418887901e+000	 1.075825009312191e+001
 1.057823269790120e+000	 1.330792970355330e+000	 1.061687354200052e+001
 1.044035100945469e+000	 1.341637323587446e+000	 1.047415515825717e+001
 1.030144708836617e+000	 1.352332015038063e+000	 1.033039466941583e+001
 1.016154520506595e+000	 1.362875632802286e+000	 1.018589076737759e+001
 1.002066988184138e+000	 1.373266817196979e+000	 1.004094047847170e+001
 9.878845878873158e-001	 1.383504261297097e+000	 9.895838536166323e+000
 9.736098180144259e-001	 1.393586711427526e+000	 9.750876758056352e+000
 9.592451979237725e-001	 1.403512967610107e+000	 9.606343428728080e+000
 9.447932665040012e-001	 1.413281883965611e+000	 9.462522690077467e+000
 9.302565807366219e-001	 1.422892369070492e+000	 9.319693940629515e+000
 1.087264268054008e+000	 1.339209248576718e+000	 1.079201788617597e+001
 1.073379494344171e+000	 1.350363455212408e+000	 1.064732338582782e+001
 1.059388558310507e+000	 1.361367284227090e+000	 1.050131295088384e+001
 1.045293895729462e+000	 1.372219250551837e+000	 1.035431171507750e+001
 1.031097969335878e+000	 1.382917921518449e+000	 1.020664375373925e+001
 1.016803267420678e+000	 1.393461917448448e+000	 1.005863141210755e+001
 1.002412302413960e+000	 1.403849912197303e+000	 9.910594636432611e+000
 9.879276094551726e-001	 1.414080633653502e+000	 9.762850309587419e+000
 9.733517449520069e-001	 1.424152864192145e+000	 9.615711592879283e+000
 9.586872851297061e-001	 1.434065441082840e+000	 9.469487275732140e+000
 9.439368245724484e-001	 1.443817256851695e+000	 9.324481134878813e+000
 1.103021721212288e+000	 1.358618078265032e+000	 1.080478164047421e+001
 1.088935718897824e+000	 1.369933940068900e+000	 1.065701488073657e+001
 1.074742015675246e+000	 1.381097244866093e+000	 1.050795214871551e+001
 1.060443082622109e+000	 1.392106486064946e+000	 1.035794445191948e+001
 1.046041418165064e+000	 1.402960210233953e+000	 1.020734172529175e+001
 1.031539546657220e+000	 1.413657017699293e+000	 1.005649211676840e+001
 1.016940016940706e+000	 1.424195563096951e+000	 9.905741275753682e+000
 1.002245400896121e+000	 1.434574555879014e+000	 9.755431646323856e+000
 9.874582919805436e-001	 1.444792760773847e+000	 9.605901766950789e+000
 9.725813037558133e-001	 1.454848998199890e+000	 9.457485578511255e+000
 9.576170684087774e-001	 1.464742144632903e+000	 9.310511742314972e+000
 8.208146300681053e-001	 1.255493266821059e+000	 8.506476608307702e+000
 8.079156302257311e-001	 1.263832399644536e+000	 8.370232990511287e+000
 7.949464022496643e-001	 1.272029959353938e+000	 8.231686616709627e+000
 7.819092425357329e-001	 1.280085128564544e+000	 8.090921638030382e+000
 7.688064583308102e-001	 1.287997138799943e+000	 7.948020286157966e+000
 7.556403664517630e-001	 1.295765270607128e+000	 7.803062589275232e+000
 7.424132920061470e-001	 1.303388853632028e+000	 7.656126095513305e+000
 7.291275671160530e-001	 1.310867266655738e+000	 7.507285604653037e+000
 7.157855296464771e-001	 1.318199937591758e+000	 7.356612908789821e+000
 7.023895219395795e-001	 1.325386343444616e+000	 7.204176542634947e+000
 6.889418895561570e-001	 1.332426010230286e+000	 7.050041544090160e+000
 8.344948738999105e-001	 1.276418154602220e+000	 8.691612605588599e+000
 8.213808907269712e-001	 1.284896272971888e+000	 8.549881400490566e+000
 8.081955089514598e-001	 1.293230458675645e+000	 8.406404764615477e+000
 7.949410632424677e-001	 1.301419880705692e+000	 8.261286826701911e+000
 7.816198993009832e-001	 1.309463757777676e+000	 8.114629140949949e+000
 7.682343725574871e-001	 1.317361358447709e+000	 7.966530375916119e+000
 7.547868468713279e-001	 1.325112001189150e+000	 7.817086012113852e+000
 7.412796932332975e-001	 1.332715054429446e+000	 7.666388049112574e+000
 7.277152884728088e-001	 1.340169936547322e+000	 7.514524722892870e+000
 7.140960139710576e-001	 1.347476115830715e+000	 7.361580234174262e+000
 7.004242543815207e-001	 1.354633110395864e+000	 7.207634488391453e+000
 8.481751177322187e-001	 1.297343042383386e+000	 8.851077215454328e+000
 8.348461512288039e-001	 1.305960146299434e+000	 8.704391740191127e+000
 8.214446156539169e-001	 1.314430957997715e+000	 8.556507714331136e+000
 8.079728839499137e-001	 1.322754632847353e+000	 8.407549565210442e+000
 7.944333402718966e-001	 1.330930376756053e+000	 8.257638495887726e+000
 7.808283786639609e-001	 1.338957446289043e+000	 8.106892146168860e+000
 7.671604017372472e-001	 1.346835148747114e+000	 7.955424263537872e+000
 7.534318193512495e-001	 1.354562842204065e+000	 7.803344384840315e+000
 7.396450472997973e-001	 1.362139935503848e+000	 7.650757529523642e+000
 7.258025060031219e-001	 1.369565888217805e+000	 7.497763905196647e+000
 7.119066192073804e-001	 1.376840210562442e+000	 7.344458626223947e+000
 8.618553615650291e-001	 1.318267930164557e+000	 8.985808672529567e+000
 8.483114117312290e-001	 1.327024019627176e+000	 8.834661283218862e+000
 8.346937223570364e-001	 1.335631457320152e+000	 8.682852321263814e+000
 8.210047046580712e-001	 1.344089384989528e+000	 8.530526859530211e+000
 8.072467812435505e-001	 1.352396995735073e+000	 8.377826101735751e+000
 7.934223847711839e-001	 1.360553534131129e+000	 8.224887014752911e+000
 7.795339566039050e-001	 1.368558296305920e+000	 8.071841972024330e+000
 7.655839454699093e-001	 1.376410629979596e+000	 7.918818408991524e+000
 7.515748061274427e-001	 1.384109934461334e+000	 7.765938491391071e+000
 7.375089980357725e-001	 1.391655660605884e+000	 7.613318797227336e+000
 7.233889840337364e-001	 1.399047310730021e+000	 7.461070013179928e+000
 8.755356053983423e-001	 1.339192817945733e+000	 9.096720729355234e+000
 8.617766722342464e-001	 1.348087892955113e+000	 8.941564595080894e+000
 8.479428290608178e-001	 1.356831956642953e+000	 8.786274465159824e+000
 8.340365253669401e-001	 1.365424137132218e+000	 8.631016430189707e+000
 8.200602222159450e-001	 1.373863614714737e+000	 8.475952071159634e+000
 8.060163908791564e-001	 1.382149621973968e+000	 8.321238062152656e+000
 7.919075114713015e-001	 1.390281443865568e+000	 8.167025785373818e+000
 7.777360715892765e-001	 1.398258417756038e+000	 8.013460959460286e+000
 7.635045649557446e-001	 1.406079933419779e+000	 7.860683281979727e+000
 7.492154900690093e-001	 1.413745432994954e+000	 7.708826086974527e+000
 7.348713488605884e-001	 1.421254410898599e+000	 7.558016018354765e+000
 8.892158492321584e-001	 1.360117705726915e+000	 9.184704539625695e+000
 8.752419327378564e-001	 1.369151766283244e+000	 9.025955279962219e+000
 8.611919357652612e-001	 1.378032455966118e+000	 8.867590663616776e+000
 8.470683460765203e-001	 1.386758889275422e+000	 8.709798195767498e+000
 8.328736631890796e-001	 1.395330233695044e+000	 8.552760235502918e+000
 8.186103969878785e-001	 1.403745709817559e+000	 8.396653568020000e+000
 8.042810663394364e-001	 1.412004591426058e+000	 8.241648990367063e+000
 7.898881977093513e-001	 1.420106205533392e+000	 8.087910911746221e+000
 7.754343237847035e-001	 1.428049932379187e+000	 7.935596969336743e+000
 7.609219821028326e-001	 1.435835205385014e+000	 7.784857660546118e+000
 7.463537136879365e-001	 1.443461511068178e+000	 7.635835992539142e+000
 9.028960930664768e-001	 1.381042593508102e+000	 9.250630370222627e+000
 8.887071932420589e-001	 1.390215639611572e+000	 9.088667568704723e+000
 8.744410424703669e-001	 1.399232955289649e+000	 8.927599538913359e+000
 8.601001667868117e-001	 1.408093641419141e+000	 8.767635621524839e+000
 8.456871041629551e-001	 1.416796852675995e+000	 8.608979378220720e+000
 8.312044030973503e-001	 1.425341797661905e+000	 8.451828132449837e+000
 8.166546212083098e-001	 1.433727738987390e+000	 8.296372524963330e+000
 8.020403238301337e-001	 1.441953993311656e+000	 8.142796085196117e+000
 7.873640826143192e-001	 1.450019931339554e+000	 7.991274819513783e+000
 7.726284741372420e-001	 1.457924977776063e+000	 7.841976817283186e+000
 7.578360785157806e-001	 1.465668611238756e+000	 7.695061875666083e+000
 9.165763369012980e-001	 1.401967481289294e+000	 9.295349159932430e+000
 9.021724537468538e-001	 1.411279512940094e+000	 9.130517764579093e+000
 8.876901491761343e-001	 1.420433454613544e+000	 8.967083153480600e+000
 8.731319874978147e-001	 1.429428393563373e+000	 8.805276947265181e+000
 8.585005451375708e-001	 1.438263471657590e+000	 8.645324357856341e+000
 8.437984092075715e-001	 1.446937885507002e+000	 8.487443696842240e+000
 8.290281760779218e-001	 1.455450886549564e+000	 8.331845899854205e+000
 8.141924499516240e-001	 1.463801781090832e+000	 8.178734068090140e+000
 7.992938414445915e-001	 1.471989930300882e+000	 8.028303028059384e+000
 7.843349661722376e-001	 1.480014750168104e+000	 7.880738910563363e+000
 7.693184433441208e-001	 1.487875711410334e+000	 7.736218749860319e+000
 9.302565807366219e-001	 1.422892369070492e+000	 9.319693940629515e+000
 9.156377142522415e-001	 1.432343386268811e+000	 9.152305561488515e+000
 9.009392558825640e-001	 1.441633953937804e+000	 8.986808227537875e+000
 8.861638082095286e-001	 1.450763145708120e+000	 8.823456306853156e+000
 8.713139861129269e-001	 1.459730090639827e+000	 8.662497131931978e+000
 8.563924153185423e-001	 1.468533973352852e+000	 8.504170474688943e+000
 8.414017309482723e-001	 1.477174034112580e+000	 8.348708038704075e+000
 8.263445760738215e-001	 1.485649568870919e+000	 8.196332969926091e+000
 8.112236002755208e-001	 1.493959929263171e+000	 8.047259386967619e+000
 7.960414582078198e-001	 1.502104522561134e+000	 7.901691932062864e+000
 7.808008081729572e-001	 1.510082811582913e+000	 7.759825343688722e+000
 9.439368245724484e-001	 1.443817256851695e+000	 9.324481134878813e+000
 9.291029747582215e-001	 1.453407259597724e+000	 9.154815247546093e+000
 9.141883625896556e-001	 1.462834453262429e+000	 8.987527250847363e+000
 8.991956289219543e-001	 1.472097897853381e+000	 8.822894750383854e+000
 8.841274270890238e-001	 1.481196709622709e+000	 8.661187691805202e+000
 8.689864214302624e-001	 1.490130061199455e+000	 8.502667801421836e+000
 8.537752858193614e-001	 1.498897181676438e+000	 8.347588045325750e+000
 8.384967021967265e-001	 1.507497356651917e+000	 8.196192108287747e+000
 8.231533591071070e-001	 1.515929928226420e+000	 8.048713893631469e+000
 8.077479502439880e-001	 1.524194294955155e+000	 7.905377045213213e+000
 7.922831730022893e-001	 1.532289911756491e+000	 7.766394492563058e+000
 9.576170684087774e-001	 1.464742144632903e+000	 9.310511742314972e+000
 9.425682352647938e-001	 1.474471132926832e+000	 9.138816805488368e+000
 9.274374692974090e-001	 1.484034952587418e+000	 8.969979499175279e+000
 9.122274496350911e-001	 1.493432649999157e+000	 8.804301178738125e+000
 8.969408680658608e-001	 1.502663328606234e+000	 8.642074917395121e+000
 8.815804275427319e-001	 1.511726149046811e+000	 8.483584911417216e+000
 8.661488406911886e-001	 1.520620329241137e+000	 8.329105905098620e+000
 8.506488283203394e-001	 1.529345144433827e+000	 8.178902636838640e+000
 8.350831179393496e-001	 1.537899927190630e+000	 8.033229307599836e+000
 8.194544422807425e-001	 1.546284067350165e+000	 7.892329072932875e+000
 8.037655378321177e-001	 1.554497011931069e+000	 7.756433559679818e+000
 6.889418895561570e-001	 1.332426010230286e+000	 7.050041544090160e+000
 6.754449800253557e-001	 1.339318512858777e+000	 6.856444855585462e+000
 6.619011416047155e-001	 1.346063474979750e+000	 6.670635456690360e+000
 6.483127220513681e-001	 1.352660568791450e+000	 6.492704300005463e+000
 6.346820674049272e-001	 1.359109514813409e+000	 6.322729416158078e+000
 6.210115207841035e-001	 1.365410081623910e+000	 6.157004348325011e+000
 6.073034211979440e-001	 1.371562085562787e+000	 5.991487765605626e+000
 5.935601023727936e-001	 1.377565390400310e+000	 5.835702515791721e+000
 5.797838915960681e-001	 1.383419906972935e+000	 5.689166975790412e+000
 5.659771085778672e-001	 1.389125592786738e+000	 5.551405874963737e+000
 5.521420643314210e-001	 1.394682451589383e+000	 5.421951216241195e+000
 7.004242543815207e-001	 1.354633110395864e+000	 7.207634488391453e+000
 6.867023963587897e-001	 1.361640488067934e+000	 7.018596171340275e+000
 6.729328272979888e-001	 1.368497866224071e+000	 6.836610243468456e+000
 6.591179340855368e-001	 1.375204911599155e+000	 6.661775066865812e+000
 6.452601018617067e-001	 1.381761340054712e+000	 6.494176548401271e+000
 6.313617127971893e-001	 1.388166916311995e+000	 6.333888000108556e+000
 6.174251448845152e-001	 1.394421453649835e+000	 6.174311848566481e+000
 6.034527707454689e-001	 1.400524813568007e+000	 6.017474877727982e+000
 5.894469564555904e-001	 1.406476905416907e+000	 5.868820383690414e+000
 5.754100603868146e-001	 1.412277685994379e+000	 5.727842520905015e+000
 5.613444320692591e-001	 1.417927159110548e+000	 5.594044411086065e+000
 7.119066192073804e-001	 1.376840210562442e+000	 7.344458626223947e+000
 6.979598126926294e-001	 1.383962463278092e+000	 7.159685324315369e+000
 6.839645129915994e-001	 1.390932257469392e+000	 6.981270384708970e+000
 6.699231461199932e-001	 1.397749254407861e+000	 6.809319998789917e+000
 6.558381363187456e-001	 1.404413165297015e+000	 6.643928336550580e+000
 6.417119048105255e-001	 1.410923751001080e+000	 6.485177382453788e+000
 6.275468685713481e-001	 1.417280821737884e+000	 6.333136794561736e+000
 6.133454391184371e-001	 1.423484236736704e+000	 6.178319082728849e+000
 5.991100213154569e-001	 1.429533903861879e+000	 6.028488980769644e+000
 5.848430121961767e-001	 1.435429779203020e+000	 5.885257726669020e+000
 5.705467998076025e-001	 1.441171866632713e+000	 5.748097742152839e+000
 7.233889840337364e-001	 1.399047310730021e+000	 7.461070013179928e+000
 7.092172290268761e-001	 1.406284438489250e+000	 7.280269042588191e+000
 6.949961986855466e-001	 1.413366648715713e+000	 7.105171774148999e+000
 6.807283581547381e-001	 1.420293597217566e+000	 6.935892664424348e+000
 6.664161707760437e-001	 1.427064990540319e+000	 6.772534550222788e+000
 6.520620968241124e-001	 1.433680585691165e+000	 6.615188459467901e+000
 6.376685922584429e-001	 1.440140189826932e+000	 6.463933445411187e+000
 6.232381074916989e-001	 1.446443659906401e+000	 6.317497303851753e+000
 6.087730861756673e-001	 1.452590902307851e+000	 6.167473521216128e+000
 5.942759640059538e-001	 1.458581872412662e+000	 6.022989019553792e+000
 5.797491675464509e-001	 1.464416574155878e+000	 5.883483675237590e+000
 7.348713488605884e-001	 1.421254410898599e+000	 7.558016018354765e+000
 7.204746453615288e-001	 1.428606413701408e+000	 7.380894505682115e+000
 7.060278843798309e-001	 1.435801039963035e+000	 7.208859990762011e+000
 6.915335701897702e-001	 1.442837940028272e+000	 7.042035647171707e+000
 6.769942052336008e-001	 1.449716815784622e+000	 6.880533398861872e+000
 6.624122888379498e-001	 1.456437420382251e+000	 6.724453705530043e+000
 6.477903159457995e-001	 1.462999557916980e+000	 6.573885371470555e+000
 6.331307758652532e-001	 1.469403083077098e+000	 6.428905378183808e+000
 6.184361510362220e-001	 1.475647900754824e+000	 6.285061849295312e+000
 6.037089158161457e-001	 1.481733965623303e+000	 6.140360915110774e+000
 5.889515352858046e-001	 1.487661281680043e+000	 5.999561655869897e+000
 7.463537136879365e-001	 1.443461511068178e+000	 7.635835992539142e+000
 7.317320616965880e-001	 1.450928388914566e+000	 7.462100079070591e+000
 7.170595700744522e-001	 1.458235431211356e+000	 7.292871092201136e+000
 7.023387822250906e-001	 1.465382282839978e+000	 7.128281390209332e+000
 6.875722396914171e-001	 1.472368641029925e+000	 6.968452420983184e+000
 6.727624808520373e-001	 1.479194255074336e+000	 6.813494481372036e+000
 6.579120396334179e-001	 1.485858926008029e+000	 6.663506500197967e+000
 6.430234442391010e-001	 1.492362506248795e+000	 6.518575845267463e+000
 6.280992158971209e-001	 1.498704899202796e+000	 6.378778154648509e+000
 6.131418676267526e-001	 1.504886058834944e+000	 6.236685918048647e+000
 5.981539030256632e-001	 1.510905989205208e+000	 6.095679110871739e+000
 7.578360785157806e-001	 1.465668611238756e+000	 7.695061875666083e+000
 7.429894780320530e-001	 1.473250364128723e+000	 7.524415981908019e+000
 7.280912557694106e-001	 1.480669822460677e+000	 7.357732336111655e+000
 7.131439942606987e-001	 1.487926625652684e+000	 7.195152964688260e+000
 6.981502741494928e-001	 1.495020466276228e+000	 7.036809292577294e+000
 6.831126728663755e-001	 1.501951089767421e+000	 6.882821876021106e+000
 6.680337633212983e-001	 1.508718294100077e+000	 6.733300159237576e+000
 6.529161126132418e-001	 1.515321929421492e+000	 6.588342255383942e+000
 6.377622807583638e-001	 1.521761897651768e+000	 6.448034752134030e+000
 6.225748194377742e-001	 1.528038152047585e+000	 6.311265432145367e+000
 6.073562707660272e-001	 1.534150696731373e+000	 6.171172358865657e+000
 7.693184433441208e-001	 1.487875711410334e+000	 7.736218749860319e+000
 7.542468943679248e-001	 1.495572339343881e+000	 7.568364894964343e+000
 7.391229414647058e-001	 1.503104213710998e+000	 7.403962836847620e+000
 7.239492062965953e-001	 1.510470968466390e+000	 7.243164769138303e+000
 7.087283086078272e-001	 1.517672291523531e+000	 7.086112563119044e+000
 6.934628648809641e-001	 1.524707924461506e+000	 6.932937473345346e+000
 6.781554870094404e-001	 1.531577662193125e+000	 6.783759867450143e+000
 6.628087809876758e-001	 1.538281352595190e+000	 6.638688980585733e+000
 6.474253456199510e-001	 1.544818896101740e+000	 6.497822694878943e+000
 6.320077712492108e-001	 1.551190245261226e+000	 6.361247344196981e+000
 6.165586385068961e-001	 1.557395404258538e+000	 6.225367439244737e+000
 7.808008081729572e-001	 1.510082811582913e+000	 7.759825343688722e+000
 7.655043107042029e-001	 1.517894314560039e+000	 7.594462514917520e+000
 7.501546271603380e-001	 1.525538604962319e+000	 7.432074164243484e+000
 7.347544183327793e-001	 1.533015311281095e+000	 7.272823167160500e+000
 7.193063430664211e-001	 1.540324116771835e+000	 7.116862326635081e+000
 7.038130568958033e-001	 1.547464759156591e+000	 6.964334050962080e+000
 6.882772106978444e-001	 1.554437030287173e+000	 6.815370056147249e+000
 6.727014493624028e-001	 1.561240775769887e+000	 6.670091093326597e+000
 6.570884104818823e-001	 1.567875894552712e+000	 6.528606701651600e+000
 6.414407230610622e-001	 1.574342338475868e+000	 6.391014986991502e+000
 6.257610062482705e-001	 1.580640111786703e+000	 6.257402426723139e+000
 7.922831730022893e-001	 1.532289911756491e+000	 7.766394492563058e+000
 7.767617270408872e-001	 1.540216289777197e+000	 7.603218060447676e+000
 7.611863128563070e-001	 1.547972996214641e+000	 7.442570890318435e+000
 7.455596303692516e-001	 1.555559654096801e+000	 7.284627069668497e+000
 7.298843775252740e-001	 1.562975942021138e+000	 7.129550834417405e+000
 7.141632489108930e-001	 1.570221593852676e+000	 6.977496218372185e+000
 6.983989343865104e-001	 1.577296398382222e+000	 6.828606727609383e+000
 6.825941177374227e-001	 1.584200198945583e+000	 6.683015040345202e+000
 6.667514753441579e-001	 1.590932893004684e+000	 6.540842732778803e+000
 6.508736748733286e-001	 1.597494431691509e+000	 6.402200031312026e+000
 6.349633739901497e-001	 1.603884819315868e+000	 6.267185591465650e+000
 8.037655378321177e-001	 1.554497011931069e+000	 7.756433559679818e+000
 7.880191433779774e-001	 1.562538264995355e+000	 7.595134734950979e+000
 7.722179985526132e-001	 1.570407387467961e+000	 7.435951089120186e+000
 7.563648424060114e-001	 1.578103996913506e+000	 7.279068467223429e+000
 7.404624119843860e-001	 1.585627767271441e+000	 7.124663055218783e+000
 7.245134409262329e-001	 1.592978428549761e+000	 6.972901000397098e+000
 7.085206580754382e-001	 1.600155766478270e+000	 6.823938057159595e+000
 6.924867861127358e-001	 1.607159622122280e+000	 6.677919258788103e+000
 6.764145402067773e-001	 1.613989891457657e+000	 6.534978615749118e+000
 6.603066266860097e-001	 1.620646524908149e+000	 6.395238840987870e+000
 6.441657417325339e-001	 1.627129526846032e+000	 6.258811102583216e+000
 5.521420643314210e-001	 1.394682451589383e+000	 5.421951216241195e+000
 5.382810600734966e-001	 1.400090532911170e+000	 5.247711877537071e+000
 5.243963861452564e-001	 1.405349931577071e+000	 5.081057174163488e+000
 5.104903209545469e-001	 1.410460787190097e+000	 4.921598712542871e+000
 4.965651299408994e-001	 1.415423283586218e+000	 4.768958496378293e+000
 4.826230645635714e-001	 1.420237648262862e+000	 4.622769592184959e+000
 4.686663613134737e-001	 1.424904151781650e+000	 4.482676752171316e+000
 4.546972407496678e-001	 1.429423107146426e+000	 4.348336993903582e+000
 4.407179065610668e-001	 1.433794869157610e+000	 4.219420136327334e+000
 4.267305446539302e-001	 1.438019833743952e+000	 4.095609291854652e+000
 4.127373222656903e-001	 1.442098437272754e+000	 3.976601314361929e+000
 5.613444320692591e-001	 1.417927159110548e+000	 5.594044411086065e+000
 5.472524110733930e-001	 1.423425375121222e+000	 5.417464660076206e+000
 5.331363259128185e-001	 1.428772430431791e+000	 5.248591570845878e+000
 5.189984929688458e-001	 1.433968466971983e+000	 5.087001598922392e+000
 5.048412154383313e-001	 1.439013671641701e+000	 4.932282363708272e+000
 4.906667823048524e-001	 1.443908275729996e+000	 4.784033360916721e+000
 4.764774673341679e-001	 1.448652554307849e+000	 4.641866629701200e+000
 4.622755280946558e-001	 1.453246825595834e+000	 4.505407373871699e+000
 4.480632050033773e-001	 1.457691450307712e+000	 4.374294536738490e+000
 4.338427203983615e-001	 1.461986830971045e+000	 4.248181329267516e+000
 4.196162776376646e-001	 1.466133411225922e+000	 4.126735711376657e+000
 5.705467998076025e-001	 1.441171866632713e+000	 5.748097742152839e+000
 5.562237620738787e-001	 1.446760217332268e+000	 5.570034940332829e+000
 5.418762656810238e-001	 1.452194929287489e+000	 5.399773558477335e+000
 5.275066649838113e-001	 1.457476146754822e+000	 5.236853507946973e+000
 5.131173009364223e-001	 1.462604059698101e+000	 5.080826682361023e+000
 4.987105000467548e-001	 1.467578903198001e+000	 4.931257718293838e+000
 4.842885733554156e-001	 1.472400956834864e+000	 4.787724707892600e+000
 4.698538154401000e-001	 1.477070544045993e+000	 4.649819862768015e+000
 4.554085034460169e-001	 1.481588031458489e+000	 4.517150128666422e+000
 4.409548961429659e-001	 1.485953828198727e+000	 4.389337750582569e+000
 4.264952330096262e-001	 1.490168385179584e+000	 4.266020788125871e+000
 5.797491675464509e-001	 1.464416574155878e+000	 5.883483675237590e+000
 5.651951130749543e-001	 1.470095059544309e+000	 5.704834959512547e+000
 5.506162054498724e-001	 1.475617428144168e+000	 5.534055266576095e+000
 5.360148369994429e-001	 1.480983826538615e+000	 5.370646532221774e+000
 5.213933864351722e-001	 1.486194447755420e+000	 5.214123545346203e+000
 5.067542177892787e-001	 1.491249530666879e+000	 5.064014758299206e+000
 4.920996793772173e-001	 1.496149359362695e+000	 4.919863046265423e+000
 4.774321027860006e-001	 1.500894262496902e+000	 4.781226414986631e+000
 4.627538018889859e-001	 1.505484612609940e+000	 4.647678656298901e+000
 4.480670718877432e-001	 1.509920825426997e+000	 4.518809951121513e+000
 4.333741883815754e-001	 1.514203359133739e+000	 4.394227419693362e+000
 5.889515352858046e-001	 1.487661281680043e+000	 5.999561655869897e+000
 5.741664640766192e-001	 1.493429901757344e+000	 5.821263604246609e+000
 5.593561452193646e-001	 1.499039927001826e+000	 5.650875103172496e+000
 5.445230090157411e-001	 1.504491506323362e+000	 5.487858643717034e+000
 5.296694719345811e-001	 1.509784835813656e+000	 5.331690494044035e+000
 5.147979355324239e-001	 1.514920158136628e+000	 5.181861560846643e+000
 4.999107853995727e-001	 1.519897761891342e+000	 5.037878196803535e+000
 4.850103901323574e-001	 1.524717980948560e+000	 4.899262953321763e+000
 4.700991003322840e-001	 1.529381193762066e+000	 4.765555278008269e+000
 4.551792476326934e-001	 1.533887822655857e+000	 4.636312156481899e+000
 4.402531437535119e-001	 1.538238333088388e+000	 4.511108698307115e+000
 5.981539030256632e-001	 1.510905989205208e+000	 6.095679110871739e+000
 5.831378150788742e-001	 1.516764743971375e+000	 5.918707433866599e+000
 5.680960849894999e-001	 1.522462425860463e+000	 5.749658810308344e+000
 5.530311810327057e-001	 1.527999186109062e+000	 5.587954779970669e+000
 5.379455574346491e-001	 1.533375223872810e+000	 5.433031637561315e+000
 5.228416532761906e-001	 1.538590785607250e+000	 5.284341346709613e+000
 5.077218914224817e-001	 1.543646164420804e+000	 5.141352396841908e+000
 4.925886774791707e-001	 1.548541699400969e+000	 5.003550602167539e+000
 4.774443987759117e-001	 1.553277774914866e+000	 4.870439842183328e+000
 4.622914233778167e-001	 1.557854819885305e+000	 4.741542743284994e+000
 4.471320991254359e-001	 1.562273307043531e+000	 4.616401301251168e+000
 6.073562707660272e-001	 1.534150696731373e+000	 6.171172358865657e+000
 5.921091660817187e-001	 1.540099586186401e+000	 5.996541614290815e+000
 5.768360247602784e-001	 1.545884924720079e+000	 5.829820423581251e+000
 5.615393530503368e-001	 1.551506865895717e+000	 5.670387831545197e+000
 5.462216429353762e-001	 1.556965611932881e+000	 5.517638670327920e+000
 5.308853710205788e-001	 1.562261413078743e+000	 5.370984527455814e+000
 5.155329974459447e-001	 1.567394566951083e+000	 5.229854653509906e+000
 5.001669648264403e-001	 1.572365417854128e+000	 5.093696808609024e+000
 4.847896972198684e-001	 1.577174356068340e+000	 4.961978047076728e+000
 4.694035991231128e-001	 1.581821817115343e+000	 4.834185439855804e+000
 4.540110544973472e-001	 1.586308280999167e+000	 4.709826734421974e+000
 6.165586385068961e-001	 1.557395404258538e+000	 6.225367439244737e+000
 6.010805170851529e-001	 1.563434428402422e+000	 6.054130768279105e+000
 5.855759645317007e-001	 1.569307423580675e+000	 5.890763145760150e+000
 5.700475250686342e-001	 1.575014545683324e+000	 5.734599541055752e+000
 5.544977284367622e-001	 1.580555999993871e+000	 5.584991798565241e+000
 5.389290887655882e-001	 1.585932040551108e+000	 5.441309661358288e+000
 5.233441034699614e-001	 1.591142969482178e+000	 5.302941731059864e+000
 5.077452521741661e-001	 1.596189136308037e+000	 5.169296363116794e+000
 4.921349956641547e-001	 1.601070937222489e+000	 5.039802496785072e+000
 4.765157748685817e-001	 1.605788814345969e+000	 4.913910419379405e+000
 4.608900098692462e-001	 1.610343254955298e+000	 4.791092464521563e+000
 6.257610062482705e-001	 1.580640111786703e+000	 6.257402426723139e+000
 6.100518680891768e-001	 1.586769270619437e+000	 6.090829750664814e+000
 5.943159043037662e-001	 1.592729922442250e+000	 5.931880143316350e+000
 5.785556970875980e-001	 1.598522225471885e+000	 5.780021322872152e+000
 5.627738139388073e-001	 1.604146388055779e+000	 5.634560585007191e+000
 5.469728065112193e-001	 1.609602668024345e+000	 5.494824324960737e+000
 5.311552094945318e-001	 1.614891372014088e+000	 5.360159051078780e+000
 5.153235395223486e-001	 1.620012854762697e+000	 5.229932330180421e+000
 4.994802941087702e-001	 1.624967518377312e+000	 5.103533664054555e+000
 4.836279506142236e-001	 1.629755811577184e+000	 4.980375296602585e+000
 4.677689652411324e-001	 1.634378228911922e+000	 4.859892951351062e+000
 6.349633739901497e-001	 1.603884819315868e+000	 6.267185591465650e+000
 6.190232190937902e-001	 1.610104112837447e+000	 6.105984356175850e+000
 6.030558440764752e-001	 1.616152421304804e+000	 5.952555273691901e+000
 5.870638691072284e-001	 1.622029905261401e+000	 5.806075011542395e+000
 5.710498994415116e-001	 1.627736776118604e+000	 5.665804720167676e+000
 5.550165242574715e-001	 1.633273295498454e+000	 5.531025908855627e+000
 5.389663155196562e-001	 1.638639774546815e+000	 5.401041514420398e+000
 5.229018268709871e-001	 1.643836573218106e+000	 5.275176898017138e+000
 5.068255925537150e-001	 1.648864099532809e+000	 5.152780769364291e+000
 4.907401263600386e-001	 1.653722808808989e+000	 5.033226037865206e+000
 4.746479206130062e-001	 1.658413202869040e+000	 4.915910590339752e+000
 6.441657417325339e-001	 1.627129526846032e+000	 6.258811102583216e+000
 6.279945700989932e-001	 1.633438955056451e+000	 6.099127409897035e+000
 6.117957838498271e-001	 1.639574920168338e+000	 5.952163750229961e+000
 5.955720411275249e-001	 1.645537585051869e+000	 5.812173546065623e+000
 5.793259849448746e-001	 1.651327164182347e+000	 5.678174727498915e+000
 5.630602420043452e-001	 1.656943922973434e+000	 5.549402345251521e+000
 5.467774215453343e-001	 1.662388177080357e+000	 5.425114252686194e+000
 5.304801142200819e-001	 1.667660291674264e+000	 5.304592155448479e+000
 5.141708909989889e-001	 1.672760680688981e+000	 5.187142584659705e+000
 4.978523021060263e-001	 1.677689806041381e+000	 5.072097793129801e+000
 4.815268759848673e-001	 1.682448176826651e+000	 4.958816574286132e+000
 4.127373222656903e-001	 1.442098437272754e+000	 3.976601314361929e+000
 3.987403871052226e-001	 1.446031155840163e+000	 3.835309324512289e+000
 3.847418665210725e-001	 1.449818504541092e+000	 3.701024438101089e+000
 3.707438666974945e-001	 1.453461036720863e+000	 3.573462195241042e+000
 3.567484718777408e-001	 1.456959343210722e+000	 3.452351293815848e+000
 3.427577436160290e-001	 1.460314051546807e+000	 3.337433879600426e+000
 3.287737200581077e-001	 1.463525825174172e+000	 3.228465795059495e+000
 3.147984152506362e-001	 1.466595362636951e+000	 3.125216787377772e+000
 3.008338184795510e-001	 1.469523396755786e+000	 3.027470676375443e+000
 2.868818936375487e-001	 1.472310693793589e+000	 2.935025483056491e+000
 2.729445786207708e-001	 1.474958052610726e+000	 2.847693519627313e+000
 4.196162776376646e-001	 1.466133411225922e+000	 4.126735711376657e+000
 4.053860602251623e-001	 1.470131675103331e+000	 3.983161671689204e+000
 3.911542309650638e-001	 1.473982146283010e+000	 3.847082152186019e+000
 3.769229311446958e-001	 1.477685387332699e+000	 3.718190225527742e+000
 3.626942797446992e-001	 1.481241998930835e+000	 3.596192551012120e+000
 3.484703726785305e-001	 1.484652619072495e+000	 3.480809693594003e+000
 3.342532820610354e-001	 1.487917922260148e+000	 3.371776399524403e+000
 3.200450555063190e-001	 1.491038618680334e+000	 3.268841829167057e+000
 3.058477154550850e-001	 1.494015453367372e+000	 3.171769747654454e+000
 2.916632585315764e-001	 1.496849205355224e+000	 3.080338674145719e+000
 2.774936549302054e-001	 1.499540686818598e+000	 2.994341990543630e+000
 4.264952330096262e-001	 1.490168385179584e+000	 4.266020788125871e+000
 4.120317333449102e-001	 1.494232194366904e+000	 4.121215446020816e+000
 3.975665954087251e-001	 1.498145788025262e+000	 3.984330194859429e+000
 3.831019955914701e-001	 1.501909737944822e+000	 3.855034775469462e+000
 3.686400876111748e-001	 1.505524654651208e+000	 3.733013018373219e+000
 3.541830017405331e-001	 1.508991186598434e+000	 3.617963191717310e+000
 3.397328440634883e-001	 1.512310019346387e+000	 3.509598303643298e+000
 3.252916957615905e-001	 1.515481874724010e+000	 3.407646359663915e+000
 3.108616124303107e-001	 1.518507509979303e+000	 3.311850575717956e+000
 2.964446234254379e-001	 1.521387716917276e+000	 3.221969547685362e+000
 2.820427312396547e-001	 1.524123321026976e+000	 3.137777378242581e+000
 4.333741883815754e-001	 1.514203359133739e+000	 4.394227419693362e+000
 4.186774064644662e-001	 1.518332713630881e+000	 4.249255927939441e+000
 4.039789598520567e-001	 1.522309429767849e+000	 4.112569118459684e+000
 3.892810600378178e-001	 1.526134088557231e+000	 3.983812507615812e+000
 3.745858954771670e-001	 1.529807310371839e+000	 3.862646278998183e+000
 3.598956308020366e-001	 1.533329754124622e+000	 3.748745660302666e+000
 3.452124060654659e-001	 1.536702116432889e+000	 3.641801252349309e+000
 3.305383360164507e-001	 1.539925130767982e+000	 3.541519310813849e+000
 3.158755094052283e-001	 1.542999566591581e+000	 3.447621981363580e+000
 3.012259883191334e-001	 1.545926228479745e+000	 3.359847488997601e+000
 2.865918075491187e-001	 1.548705955235862e+000	 3.277950282499345e+000
 4.402531437535119e-001	 1.538238333088388e+000	 4.511108698307115e+000
 4.253230795838304e-001	 1.542433232895262e+000	 4.367051527600870e+000
 4.103913242950587e-001	 1.546473071510771e+000	 4.231583420591335e+000
 3.954601244837387e-001	 1.550358439169926e+000	 4.104324748685950e+000
 3.805317033426763e-001	 1.554089966092728e+000	 3.984911202869706e+000
 3.656082598630410e-001	 1.557668321651062e+000	 3.872994199591994e+000
 3.506919680669687e-001	 1.561094213519652e+000	 3.768241236372710e+000
 3.357849762708998e-001	 1.564368386812248e+000	 3.670336197708879e+000
 3.208894063798377e-001	 1.567491623204204e+000	 3.578979611993133e+000
 3.060073532126628e-001	 1.570464740042630e+000	 3.493888860267041e+000
 2.911408838585973e-001	 1.573288589445256e+000	 3.414798337748027e+000
 4.471320991254359e-001	 1.562273307043531e+000	 4.616401301251168e+000
 4.319687527030028e-001	 1.566533752160047e+000	 4.474355082598147e+000
 4.168036887377308e-001	 1.570636713254029e+000	 4.341142779104583e+000
 4.016391889292327e-001	 1.574582789782909e+000	 4.216358669247785e+000
 3.864775112077025e-001	 1.578372621813876e+000	 4.099613078632151e+000
 3.713208889235464e-001	 1.582006889177752e+000	 3.990532814973989e+000
 3.561715300679963e-001	 1.585486310606679e+000	 3.888761550256483e+000
 3.410316165249374e-001	 1.588811642856808e+000	 3.793960150653355e+000
 3.259033033541388e-001	 1.591983679817174e+000	 3.705806954950818e+000
 3.107887181060262e-001	 1.595003251605934e+000	 3.623998002320777e+000
 2.956899601680905e-001	 1.597871223655156e+000	 3.548247210415614e+000
 4.540110544973472e-001	 1.586308280999167e+000	 4.709826734421974e+000
 4.386144258219834e-001	 1.590634271425237e+000	 4.570905037701010e+000
 4.232160531800732e-001	 1.594800354997621e+000	 4.441003174803952e+000
 4.078182533743002e-001	 1.598807140396178e+000	 4.319688356153590e+000
 3.924233190722454e-001	 1.602655277535282e+000	 4.206544642481001e+000
 3.770335179835526e-001	 1.606345456704692e+000	 4.101173409018543e+000
 3.616510920685490e-001	 1.609878407693967e+000	 4.003193754188763e+000
 3.462782567785638e-001	 1.613254898901663e+000	 3.912242853405331e+000
 3.309172003281319e-001	 1.616475736430489e+000	 3.827976258739586e+000
 3.155700829992234e-001	 1.619541763169653e+000	 3.750068145336972e+000
 3.002390364775985e-001	 1.622453857865564e+000	 3.678211505589280e+000
 4.608900098692462e-001	 1.610343254955298e+000	 4.791092464521563e+000
 4.452600989407723e-001	 1.614734790690830e+000	 4.656426518947185e+000
 4.296284176220858e-001	 1.618963996741549e+000	 4.530907913615860e+000
 4.139973178189407e-001	 1.623031491009734e+000	 4.414075788936949e+000
 3.983691269363054e-001	 1.626937933256947e+000	 4.305487014912664e+000
 3.827461470430598e-001	 1.630684024231883e+000	 4.204716684672448e+000
 3.671306540686266e-001	 1.634270504781519e+000	 4.111358549700940e+000
 3.515248970317790e-001	 1.637698154946812e+000	 4.025025397396496e+000
 3.359310973018168e-001	 1.640967793044150e+000	 3.945349371740872e+000
 3.203514478922546e-001	 1.644080274733790e+000	 3.871982237998176e+000
 3.047881127871212e-001	 1.647036492076480e+000	 3.804595592489334e+000
 4.677689652411324e-001	 1.634378228911922e+000	 4.859892951351062e+000
 4.519057720593694e-001	 1.638835309956827e+000	 4.730632312961045e+000
 4.360407820637686e-001	 1.643127638485812e+000	 4.610588558565052e+000
 4.201763822631546e-001	 1.647255841623576e+000	 4.499271730056446e+000
 4.043149347998824e-001	 1.651220588978870e+000	 4.396210554819884e+000
 3.884587761020679e-001	 1.655022591759324e+000	 4.300952968760842e+000
 3.726102160682291e-001	 1.658662601869333e+000	 4.213066578098336e+000
 3.567715372845828e-001	 1.662141410992255e+000	 4.132139060579783e+000
 3.409449942751933e-001	 1.665459849658157e+000	 4.057778506929141e+000
 3.251328127851196e-001	 1.668618786298344e+000	 3.989613703483347e+000
 3.093371890966585e-001	 1.671619126287902e+000	 3.927294357106741e+000
 4.746479206130062e-001	 1.658413202869040e+000	 4.915910590339752e+000
 4.585514451777746e-001	 1.662935829223229e+000	 4.793223761113777e+000
 4.424531465051217e-001	 1.667291280230410e+000	 4.679765780709169e+000
 4.263554467069418e-001	 1.671480192237705e+000	 4.575016537727568e+000
 4.102607426629760e-001	 1.675503244701051e+000	 4.478475639318407e+000
 3.941714051605769e-001	 1.679361159287015e+000	 4.389662963880267e+000
 3.780897780673568e-001	 1.683054698957408e+000	 4.308119149462002e+000
 3.620181775369755e-001	 1.686584667037993e+000	 4.233406018550851e+000
 3.459588912482618e-001	 1.689951906272510e+000	 4.165106940090150e+000
 3.299141776778187e-001	 1.693157297863315e+000	 4.102827129721993e+000
 3.138862654062104e-001	 1.696201760499832e+000	 4.046193889393503e+000
 4.815268759848673e-001	 1.682448176826651e+000	 4.958816574286132e+000
 4.651971182959880e-001	 1.687036348490034e+000	 4.843891577041466e+000
 4.488655109461449e-001	 1.691454921975343e+000	 4.738150137136827e+000
 4.325345111503020e-001	 1.695704542852121e+000	 4.641040909082554e+000
 4.162065505255868e-001	 1.699785900423492e+000	 4.552033376730893e+000
 3.998840342185868e-001	 1.703699726814957e+000	 4.470618435843401e+000
 3.835693400660092e-001	 1.707446796045747e+000	 4.396308909164897e+000
 3.672648177889567e-001	 1.711027923084024e+000	 4.328639994716776e+000
 3.509727882210220e-001	 1.714443962887209e+000	 4.267169648191159e+000
 3.346955425703515e-001	 1.717695809428702e+000	 4.211478900483147e+000
 3.184353417157770e-001	 1.720784394712270e+000	 4.161172111551204e+000
 2.729445786207708e-001	 1.474958052610726e+000	 2.847693519627313e+000
 2.590237847553507e-001	 1.477466303810354e+000	 2.740679696361568e+000
 2.451213962520330e-001	 1.479836308875993e+000	 2.640313657267161e+000
 2.312392696899346e-001	 1.482068959301720e+000	 2.546427034008435e+000
 2.173792335306684e-001	 1.484165175715299e+000	 2.458864733037769e+000
 2.035430876609112e-001	 1.486125906996327e+000	 2.377484892085450e+000
 1.897326029638498e-001	 1.487952129390018e+000	 2.302158804818887e+000
 1.759495209193238e-001	 1.489644845617649e+000	 2.232770814900092e+000
 1.621955532324469e-001	 1.491205083984588e+000	 2.169218180715572e+000
 1.484723814904559e-001	 1.492633897486894e+000	 2.111410912089157e+000
 1.347816568475081e-001	 1.493932362917365e+000	 2.059271580323555e+000
 2.774936549302054e-001	 1.499540686818598e+000	 2.994341990543630e+000
 2.633408478327074e-001	 1.502090742204176e+000	 2.888755149137280e+000
 2.492067528535041e-001	 1.504500247353678e+000	 2.790536956281644e+000
 2.350932575146959e-001	 1.506770108619411e+000	 2.699502157368353e+000
 2.210022207522551e-001	 1.508901261972938e+000	 2.615479001821444e+000
 2.069354724509681e-001	 1.510894672108512e+000	 2.538309216911930e+000
 1.928948130087403e-001	 1.512751331542102e+000	 2.467847948227848e+000
 1.788820129300739e-001	 1.514472259707000e+000	 2.403963668055433e+000
 1.648988124484995e-001	 1.516058502047001e+000	 2.346538052977877e+000
 1.509469211777067e-001	 1.517511129108093e+000	 2.295465832037010e+000
 1.370280177910873e-001	 1.518831235629623e+000	 2.250654606839987e+000
 2.820427312396547e-001	 1.524123321026976e+000	 3.137777378242581e+000
 2.676579109102633e-001	 1.526715180598594e+000	 3.034297448408178e+000
 2.532921094553274e-001	 1.529164185832027e+000	 2.938825040646000e+000
 2.389472453399321e-001	 1.531471257937816e+000	 2.851157903166070e+000
 2.246252079744084e-001	 1.533637348231319e+000	 2.771107594797510e+000
 2.103278572416534e-001	 1.535663437221447e+000	 2.698499474917913e+000
 1.960570230542908e-001	 1.537550533694922e+000	 2.633172658432152e+000
 1.818145049414857e-001	 1.539299673797057e+000	 2.574979937092105e+000
 1.676020716651864e-001	 1.540911920110067e+000	 2.523787668497475e+000
 1.534214608655350e-001	 1.542388360729875e+000	 2.479475634164547e+000
 1.392743787351581e-001	 1.543730108342372e+000	 2.441936868085818e+000
 2.865918075491187e-001	 1.548705955235862e+000	 3.277950282499345e+000
 2.719749739880180e-001	 1.551339618993610e+000	 3.177265810942524e+000
 2.573774660575030e-001	 1.553828124311042e+000	 3.085147049449325e+000
 2.428012331656429e-001	 1.556172407256935e+000	 3.001374612584286e+000
 2.282481951971284e-001	 1.558373434490442e+000	 2.925743309563144e+000
 2.137202420329668e-001	 1.560432202335132e+000	 2.858062149105771e+000
 1.992192331005010e-001	 1.562349735848479e+000	 2.798154307642857e+000
 1.847469969535592e-001	 1.564127087887819e+000	 2.745857062205472e+000
 1.703053308825072e-001	 1.565765338173787e+000	 2.701021689379436e+000
 1.558960005539406e-001	 1.567265592352239e+000	 2.663513331755277e+000
 1.415207396797206e-001	 1.568628981055612e+000	 2.633210833342566e+000
 2.911408838585973e-001	 1.573288589445256e+000	 3.414798337748027e+000
 2.762920370659718e-001	 1.575964057389222e+000	 3.317607280663167e+000
 2.614628226600309e-001	 1.578492062790723e+000	 3.229460606476035e+000
 2.466552209918285e-001	 1.580873556576769e+000	 3.150121635024222e+000
 2.318711824204150e-001	 1.583109520750306e+000	 3.079368342439968e+000
 2.171126268249085e-001	 1.585200967449566e+000	 3.016993379753838e+000
 2.023814431473711e-001	 1.587148938002775e+000	 2.962804053064888e+000
 1.876794889662944e-001	 1.588954501979286e+000	 2.916622266648500e+000
 1.730085901004622e-001	 1.590618756238159e+000	 2.878284430430854e+000
 1.583705402429235e-001	 1.592142823975185e+000	 2.847641333307296e+000
 1.437671006247749e-001	 1.593527853769345e+000	 2.824557983827551e+000
 2.956899601680905e-001	 1.597871223655156e+000	 3.548247210415614e+000
 2.806091001441247e-001	 1.600588495785431e+000	 3.455257665020429e+000
 2.655481792629111e-001	 1.603156001271070e+000	 3.371712705998583e+000
 2.505092088184888e-001	 1.605574705897316e+000	 3.297358173627250e+000
 2.354941696442682e-001	 1.607845607010912e+000	 3.231955103957092e+000
 2.205050116174784e-001	 1.609969732564750e+000	 3.175279760010531e+000
 2.055436531949010e-001	 1.611948140157806e+000	 3.127123622666698e+000
 1.906119809796914e-001	 1.613781916071458e+000	 3.087293342650716e+000
 1.757118493190514e-001	 1.615472174303186e+000	 3.055610655106702e+000
 1.608450799324837e-001	 1.617020055598714e+000	 3.031912258286103e+000
 1.460134615703208e-001	 1.618426726483569e+000	 3.016049657929480e+000
 3.002390364775985e-001	 1.622453857865564e+000	 3.678211505589280e+000
 2.849261632224765e-001	 1.625212934182237e+000	 3.590142386240005e+000
 2.696335358661434e-001	 1.627819939752082e+000	 3.511840518043551e+000
 2.543631966456239e-001	 1.630275855218577e+000	 3.443034053930987e+000
 2.391171568686881e-001	 1.632581693272261e+000	 3.383466960198930e+000
 2.238973964106766e-001	 1.634738497680683e+000	 3.332899059161825e+000
 2.087058632430907e-001	 1.636747342313575e+000	 3.291106029516669e+000
 1.935444729937499e-001	 1.638609330164335e+000	 3.257879365889276e+000
 1.784151085382746e-001	 1.640325592368866e+000	 3.233026299097196e+000
 1.633196196226213e-001	 1.641897287222824e+000	 3.216369678718031e+000
 1.482598225163585e-001	 1.643325599198285e+000	 3.207747819604651e+000
 3.047881127871212e-001	 1.647036492076480e+000	 3.804595592489334e+000
 2.892432263010272e-001	 1.649837372579640e+000	 3.722177256339815e+000
 2.737188924697281e-001	 1.652483878233760e+000	 3.649772121544378e+000
 2.582171844732336e-001	 1.654977004540552e+000	 3.587090423690344e+000
 2.427401440936745e-001	 1.657317779534351e+000	 3.533858907763618e+000
 2.272897812045030e-001	 1.659507262797366e+000	 3.489820881128308e+000
 2.118680732919404e-001	 1.661546544470082e+000	 3.454736222148460e+000
 1.964769650084701e-001	 1.663436744257918e+000	 3.428381345978426e+000
 1.811183677581319e-001	 1.665179010435199e+000	 3.410549129116115e+000
 1.657941593133362e-001	 1.666774518847516e+000	 3.401048794372186e+000
 1.505061834628878e-001	 1.668224471913492e+000	 3.399705757961271e+000
 3.093371890966585e-001	 1.671619126287902e+000	 3.927294357106741e+000
 2.935602893797771e-001	 1.674461810977640e+000	 3.851269183762669e+000
 2.778042490736651e-001	 1.677147816716104e+000	 3.785427172804144e+000
 2.620711723013180e-001	 1.679678153863241e+000	 3.729460390950019e+000
 2.463631313192277e-001	 1.682053865797183e+000	 3.683078189166729e+000
 2.306821659989576e-001	 1.684276027914798e+000	 3.646007264859843e+000
 2.150302833414497e-001	 1.686345746627326e+000	 3.617991677541602e+000
 1.994094570238521e-001	 1.688264158352205e+000	 3.598792819561816e+000
 1.838216269786233e-001	 1.690032428502185e+000	 3.588189343560924e+000
 1.682686990046285e-001	 1.691651750472792e+000	 3.585977048367667e+000
 1.527525444099089e-001	 1.693123344629191e+000	 3.591968725116146e+000
 3.138862654062104e-001	 1.696201760499832e+000	 4.046193889393503e+000
 2.978773524587259e-001	 1.699086249376236e+000	 3.977316818563190e+000
 2.818896056779544e-001	 1.701811755199113e+000	 3.918717515830960e+000
 2.659251601298772e-001	 1.704379303186644e+000	 3.870069606631996e+000
 2.499861185453474e-001	 1.706789952060757e+000	 3.831064854730976e+000
 2.340745507940405e-001	 1.709044793032980e+000	 3.801413232521772e+000
 2.181924933916190e-001	 1.711144948785307e+000	 3.780842942538649e+000
 2.023419490398958e-001	 1.713091572447198e+000	 3.769100391832510e+000
 1.865248861997488e-001	 1.714885846569825e+000	 3.765950120941501e+000
 1.707432386964981e-001	 1.716528982098648e+000	 3.771174689249415e+000
 1.549989053574216e-001	 1.718022217345382e+000	 3.784574518585248e+000
 3.184353417157770e-001	 1.720784394712270e+000	 4.161172111551204e+000
 3.021944155378737e-001	 1.723710687775430e+000	 4.100211142292572e+000
 2.859749622825958e-001	 1.726475693682788e+000	 4.049547740359170e+000
 2.697791479589111e-001	 1.729080452510761e+000	 4.008836797187136e+000
 2.536091057720337e-001	 1.731526038325072e+000	 3.977752276314387e+000
 2.374669355897515e-001	 1.733813558151911e+000	 3.955987290693797e+000
 2.213547034424480e-001	 1.735944150944025e+000	 3.943254128854521e+000
 2.052744410566011e-001	 1.737918986542895e+000	 3.939284231636408e+000
 1.892281454215084e-001	 1.739739264638118e+000	 3.943828121300384e+000
 1.732177783889451e-001	 1.741406213725087e+000	 3.956655284886653e+000
 1.572452663054261e-001	 1.742921090062064e+000	 3.977554013755047e+000
 1.347816568475081e-001	 1.493932362917365e+000	 2.059271580323555e+000
 1.211249997365069e-001	 1.495101579972037e+000	 1.991854935908015e+000
 1.075039996094458e-001	 1.496142670357773e+000	 1.928943858874514e+000
 9.392021470467529e-002	 1.497056776901965e+000	 1.870486870179685e+000
 8.037517183948741e-002	 1.497845062665274e+000	 1.816445296570310e+000
 6.687036622943428e-002	 1.498508710058030e+000	 1.766792948558796e+000
 5.340726133332961e-002	 1.499048919961125e+000	 1.721515779234591e+000
 3.998728872347090e-002	 1.499466910852138e+000	 1.680611525398499e+000
 2.661184798060256e-002	 1.499763917937433e+000	 1.644089332497478e+000
 1.328230661312030e-002	 1.499941192290897e+000	 1.611969364828851e+000
 0.000000000000000e+000	 1.500000000000000e+000	 1.584282402464897e+000
 1.370280177910873e-001	 1.518831235629623e+000	 2.250654606839987e+000
 1.231437497286795e-001	 1.520019939635790e+000	 2.189703176932564e+000
 1.092957329332651e-001	 1.521078381528475e+000	 2.133857849141720e+000
 9.548555161383368e-002	 1.522007723182194e+000	 2.083059368352576e+000
 8.171475803463210e-002	 1.522809147041951e+000	 2.037261478970094e+000
 6.798487233147189e-002	 1.523483855224919e+000	 1.996430604185707e+000
 5.429738235414697e-002	 1.524033068626668e+000	 1.960545505191862e+000
 4.065374353449325e-002	 1.524458026032741e+000	 1.929596921877699e+000
 2.705537877960094e-002	 1.524759983236272e+000	 1.903587196529960e+000
 1.350367838967245e-002	 1.524940212162382e+000	 1.882529882054157e+000
 0.000000000000000e+000	 1.525000000000000e+000	 1.866449336213987e+000
 1.392743787351581e-001	 1.543730108342372e+000	 2.441936868085818e+000
 1.251624997212492e-001	 1.544938299299939e+000	 2.387755298597062e+000
 1.110874662573970e-001	 1.546014092699489e+000	 2.339198153708332e+000
 9.705088852323057e-002	 1.546958669462661e+000	 2.296198854781050e+000
 8.305434422995146e-002	 1.547773231418804e+000	 2.258704081870294e+000
 6.909937843363034e-002	 1.548459000391928e+000	 2.226673452423816e+000
 5.518750337504139e-002	 1.549017217292288e+000	 2.200079178995196e+000
 4.132019834555879e-002	 1.549449141213386e+000	 2.178905707552989e+000
 2.749890957861846e-002	 1.549756048535131e+000	 2.163149337963353e+000
 1.372505016622937e-002	 1.549939232033873e+000	 2.152817828209976e+000
 0.000000000000000e+000	 1.550000000000000e+000	 2.147929983902127e+000
 1.415207396797206e-001	 1.568628981055612e+000	 2.633210833342566e+000
 1.271812497142158e-001	 1.569856658964486e+000	 2.586103325322272e+000
 1.128791995818416e-001	 1.570949803870817e+000	 2.545057524438660e+000
 9.861622543286597e-002	 1.571909615743367e+000	 2.509999964270912e+000
 8.439393042544542e-002	 1.572737315795831e+000	 2.480870761792684e+000
 7.021388453590964e-002	 1.573434145559058e+000	 2.457623293653449e+000
 5.607762439601290e-002	 1.574001365957986e+000	 2.440223850492228e+000
 4.198665315666754e-002	 1.574440256394076e+000	 2.428651270920939e+000
 2.794244037765511e-002	 1.574752113834009e+000	 2.422896556809183e+000
 1.394642194279106e-002	 1.574938251905368e+000	 2.422962471491006e+000
 0.000000000000000e+000	 1.575000000000000e+000	 2.428863122500713e+000
 1.437671006247749e-001	 1.593527853769345e+000	 2.824557983827551e+000
 1.291999997075793e-001	 1.594775018629429e+000	 2.784829097124047e+000
 1.146709329065987e-001	 1.595885515042456e+000	 2.751519202253994e+000
 1.001815623427399e-001	 1.596860562024310e+000	 2.724548364998651e+000
 8.573351662111400e-002	 1.597701400173032e+000	 2.703850624898146e+000
 7.132839063830979e-002	 1.598409290726309e+000	 2.689373667272192e+000
 5.696774541706148e-002	 1.598985514623761e+000	 2.681078472242915e+000
 4.265310796781948e-002	 1.599431371574808e+000	 2.678938942456257e+000
 2.838597117671090e-002	 1.599748179132905e+000	 2.682941511195261e+000
 1.416779371935751e-002	 1.599937271776867e+000	 2.693084732565628e+000
 0.000000000000000e+000	 1.600000000000000e+000	 2.709378855420427e+000
 1.460134615703208e-001	 1.618426726483569e+000	 3.016049657929480e+000
 1.312187497013398e-001	 1.619693378294770e+000	 2.984005053028925e+000
 1.164626662316684e-001	 1.620821226214409e+000	 2.958657648743927e+000
 1.017468992528523e-001	 1.621811508305493e+000	 2.939921448252292e+000
 8.707310281695728e-002	 1.622665484550408e+000	 2.927724884706565e+000
 7.244289674083079e-002	 1.623384435893682e+000	 2.922010487155506e+000
 5.785786643818713e-002	 1.623969663289613e+000	 2.922734522387644e+000
 4.331956277901462e-002	 1.624422486755583e+000	 2.929866614459386e+000
 2.882950197578580e-002	 1.624744244431821e+000	 2.943389343664817e+000
 1.438916549592873e-002	 1.624936291648372e+000	 2.963297826693585e+000
 0.000000000000000e+000	 1.625000000000000e+000	 2.989599279708196e+000
 1.482598225163585e-001	 1.643325599198285e+000	 3.207747819604651e+000
 1.332374996954973e-001	 1.644611737960508e+000	 3.183694943270288e+000
 1.182543995570507e-001	 1.645756937386673e+000	 3.166539211266940e+000
 1.033122361632033e-001	 1.646762454586914e+000	 3.156188955468293e+000
 8.841268901297512e-002	 1.647629568927959e+000	 3.152567460024299e+000
 7.355740284347266e-002	 1.648359581061175e+000	 3.155612619347387e+000
 5.874798745938984e-002	 1.648953811955541e+000	 3.165276570891110e+000
 4.398601759025297e-002	 1.649413601936402e+000	 3.181525304554674e+000
 2.927303277487985e-002	 1.649740309730756e+000	 3.204338250538629e+000
 1.461053727250472e-002	 1.649935311519882e+000	 3.233707847468873e+000
 0.000000000000000e+000	 1.650000000000000e+000	 3.269639092589992e+000
 1.505061834628878e-001	 1.668224471913492e+000	 3.399705757961271e+000
 1.352562496900517e-001	 1.669530097626642e+000	 3.383954477705903e+000
 1.200461328827456e-001	 1.670692648559252e+000	 3.375222728490125e+000
 1.048775730737928e-001	 1.671713400868574e+000	 3.373413549116070e+000
 8.975227520916763e-002	 1.672593653305685e+000	 3.378445519325883e+000
 7.467190894623535e-002	 1.673334726228788e+000	 3.390252408018195e+000
 5.963810848066963e-002	 1.673937960621547e+000	 3.408782795077892e+000
 4.465247240153452e-002	 1.674404717117263e+000	 3.433999668725915e+000
 2.971656357399303e-002	 1.674736375029710e+000	 3.465880000289893e+000
 1.483190904908547e-002	 1.674934331391396e+000	 3.504414298287357e+000
 0.000000000000000e+000	 1.675000000000000e+000	 3.549606143696156e+000
 1.527525444099089e-001	 1.693123344629191e+000	 3.591968725116146e+000
 1.372749996850031e-001	 1.694448457293173e+000	 3.584831917021719e+000
 1.218378662087531e-001	 1.695628359732141e+000	 3.584760082498818e+000
 1.064429099846207e-001	 1.696664347150472e+000	 3.591651333210306e+000
 9.109186140553478e-002	 1.697557737683585e+000	 3.605419977101644e+000
 7.578641504911890e-002	 1.698309871396523e+000	 3.625996155014070e+000
 6.052822950202649e-002	 1.698922109287630e+000	 3.653325449679495e+000
 4.531892721285927e-002	 1.699395832298169e+000	 3.687368469083908e+000
 3.016009437312533e-002	 1.699732440328683e+000	 3.728100406180248e+000
 1.505328082567098e-002	 1.699933351262914e+000	 3.775510576920362e+000
 0.000000000000000e+000	 1.700000000000000e+000	 3.829601938561204e+000
 1.549989053574216e-001	 1.718022217345382e+000	 3.784574518585248e+000
 1.392937496803514e-001	 1.719366816960102e+000	 3.786368612527351e+000
 1.236295995350731e-001	 1.720564070905344e+000	 3.795196702896862e+000
 1.080082468956872e-001	 1.721615293432609e+000	 3.810952328561077e+000
 9.243144760207650e-002	 1.722521822061659e+000	 3.833545947045221e+000
 7.690092115212330e-002	 1.723285016564378e+000	 3.862904557706662e+000
 6.141835052346044e-002	 1.723906257953790e+000	 3.898971296007734e+000
 4.598538202422721e-002	 1.724386947479116e+000	 3.941705000958898e+000
 3.060362517227677e-002	 1.724728505627675e+000	 3.991079757796580e+000
 1.527465260226126e-002	 1.724932371134438e+000	 4.047084417950920e+000
 0.000000000000000e+000	 1.725000000000000e+000	 4.109722098340751e+000
 1.572452663054261e-001	 1.742921090062064e+000	 3.977554013755047e+000
 1.413124996760967e-001	 1.744285176627427e+000	 3.988599499682364e+000
 1.254213328617058e-001	 1.745499782078859e+000	 4.006572027697921e+000
 1.095735838069922e-001	 1.746566239714984e+000	 4.031360907288691e+000
 9.377103379879290e-002	 1.747485906439909e+000	 4.062873156396108e+000
 7.801542725524854e-002	 1.748260161732354e+000	 4.101033109312472e+000
 6.230847154497145e-002	 1.748890406620027e+000	 4.145781994341919e+000
 4.665183683563836e-002	 1.749378062660108e+000	 4.197077483384754e+000
 3.104715597144734e-002	 1.749724570926687e+000	 4.254893215599505e+000
 1.549602437885631e-002	 1.749931391005967e+000	 4.319218297287406e+000
 0.000000000000000e+000	 1.750000000000000e+000	 4.390056780124459e+000
 1.750000000000000e+000	 0.000000000000000e+000	 1.335784083014689e+001
 1.749931391005967e+000	 1.549602437885581e-002	 1.338865007947081e+001
 1.749724570926687e+000	 3.104715597144690e-002	 1.341534757984286e+001
 1.749378062660108e+000	 4.665183683563796e-002	 1.343785701505111e+001
 1.748890406620027e+000	 6.230847154497111e-002	 1.345609978868056e+001
 1.748260161732354e+000	 7.801542725524825e-002	 1.346999492398210e+001
 1.747485906439909e+000	 9.377103379879266e-002	 1.347945896485484e+001
 1.746566239714984e+000	 1.095735838069920e-001	 1.348440587831572e+001
 1.745499782078859e+000	 1.254213328617057e-001	 1.348474695884461e+001
 1.744285176627427e+000	 1.413124996760966e-001	 1.348039073500615e+001
 1.742921090062065e+000	 1.572452663054261e-001	 1.347124287876229e+001
 1.775000000000000e+000	 0.000000000000000e+000	 1.328686086909098e+001
 1.774930410877498e+000	 1.571739615545324e-002	 1.331351565987672e+001
 1.774720636225708e+000	 3.149068677062703e-002	 1.333619932197477e+001
 1.774369177841122e+000	 4.731829164707072e-002	 1.335483554892898e+001
 1.773874555286303e+000	 6.319859256652066e-002	 1.336934552086400e+001
 1.773235306900391e+000	 7.912993335843395e-002	 1.337964779487023e+001
 1.772449990818246e+000	 9.511061999559638e-002	 1.338565819657684e+001
 1.771517185997479e+000	 1.111389207184163e-001	 1.338728971331116e+001
 1.770435493252530e+000	 1.272130661884946e-001	 1.338445238925736e+001
 1.769203536294951e+000	 1.433312496720404e-001	 1.337705322304135e+001
 1.767819962778993e+000	 1.594916272536765e-001	 1.336499606818243e+001
 1.800000000000000e+000	 0.000000000000000e+000	 1.322768122237816e+001
 1.799929430749029e+000	 1.593876793205066e-002	 1.324970920723576e+001
 1.799716701524729e+000	 3.193421756980716e-002	 1.326791291694819e+001
 1.799360293022134e+000	 4.798474645850345e-002	 1.328221640318160e+001
 1.798858703952579e+000	 6.408871358807020e-002	 1.329254096847018e+001
 1.798210452068427e+000	 8.024443946161962e-002	 1.329880504662523e+001
 1.797414075196582e+000	 9.645020619240008e-002	 1.330092408439909e+001
 1.796468132279973e+000	 1.127042576298405e-001	 1.329881042482704e+001
 1.795371204426202e+000	 1.290047995152835e-001	 1.329237319268575e+001
 1.794121895962474e+000	 1.453499996679842e-001	 1.328151818252192e+001
 1.792718835495921e+000	 1.617379882019268e-001	 1.326614774971842e+001
 1.825000000000000e+000	 0.000000000000000e+000	 1.317996802863711e+001
 1.824928450620559e+000	 1.616013970864808e-002	 1.319690112522009e+001
 1.824712766823750e+000	 3.237774836898728e-002	 1.321016318246138e+001
 1.824351408203147e+000	 4.865120126993620e-002	 1.321967895995004e+001
 1.823842852618855e+000	 6.497883460961976e-002	 1.322537022980888e+001
 1.823185597236464e+000	 8.135894556480529e-002	 1.322715564662981e+001
 1.822378159574919e+000	 9.778979238920375e-002	 1.322495061872274e+001
 1.821419078562467e+000	 1.142695945412647e-001	 1.321866718112672e+001
 1.820306915599873e+000	 1.307965328420725e-001	 1.320821387084842e+001
 1.819040255629999e+000	 1.473687496639279e-001	 1.319349560480885e+001
 1.817617708212850e+000	 1.639843491501772e-001	 1.317441356099394e+001
 1.850000000000000e+000	 0.000000000000000e+000	 1.314340547305706e+001
 1.849927470492090e+000	 1.638151148524551e-002	 1.315477927964627e+001
 1.849708832122770e+000	 3.282127916816741e-002	 1.316264181282874e+001
 1.849342523384160e+000	 4.931765608136893e-002	 1.316691889155964e+001
 1.848827001285130e+000	 6.586895563116929e-002	 1.316753310625134e+001
 1.848160742404501e+000	 8.247345166799099e-002	 1.316440367773096e+001
 1.847342243953256e+000	 9.912937858600747e-002	 1.315744631756203e+001
 1.846370024844962e+000	 1.158349314526890e-001	 1.314657309020557e+001
 1.845242626773545e+000	 1.325882661688615e-001	 1.313169227751267e+001
 1.843958615297522e+000	 1.493874996598717e-001	 1.311270824605771e+001
 1.842516580929779e+000	 1.662307100984275e-001	 1.308952131783693e+001
 1.875000000000000e+000	 0.000000000000000e+000	 1.311769458428380e+001
 1.874926490363621e+000	 1.660288326184293e-002	 1.312304783433240e+001
 1.874704897421792e+000	 3.326480996734755e-002	 1.312505625387305e+001
 1.874333638565173e+000	 4.998411089280167e-002	 1.312364707450772e+001
 1.873811149951406e+000	 6.675907665271885e-002	 1.311874405535954e+001
 1.873135887572538e+000	 8.358795777117666e-002	 1.311026733054232e+001
 1.872306328331592e+000	 1.004689647828112e-001	 1.309813325803670e+001
 1.871320971127457e+000	 1.174002683641133e-001	 1.308225427047543e+001
 1.870178337947217e+000	 1.343799994956504e-001	 1.306253872835792e+001
 1.868876974965046e+000	 1.514062496558155e-001	 1.303889077623229e+001
 1.867415453646707e+000	 1.684770710466778e-001	 1.301121020239919e+001
 1.900000000000000e+000	 0.000000000000000e+000	 1.292722626562409e+001
 1.899925510235152e+000	 1.682425503844034e-002	 1.293886592222882e+001
 1.899700962720813e+000	 3.370834076652769e-002	 1.294782972539951e+001
 1.899324753746186e+000	 5.065056570423442e-002	 1.295384431404081e+001
 1.898795298617682e+000	 6.764919767426840e-002	 1.295664244728884e+001
 1.898111032740575e+000	 8.470246387436234e-002	 1.295596343458261e+001
 1.897270412709929e+000	 1.018085509796149e-001	 1.295155356186231e+001
 1.896271917409951e+000	 1.189656052755375e-001	 1.294316651291005e+001
 1.895114049120888e+000	 1.361717328224393e-001	 1.293056378483135e+001
 1.893795334632570e+000	 1.534249996517592e-001	 1.291351509666122e+001
 1.892314326363635e+000	 1.707234319949282e-001	 1.289179879006699e+001
 1.925000000000000e+000	 0.000000000000000e+000	 1.274776647068255e+001
 1.924924530106683e+000	 1.704562681503777e-002	 1.276511812229704e+001
 1.924697028019834e+000	 3.415187156570781e-002	 1.277962069767431e+001
 1.924315868927199e+000	 5.131702051566717e-002	 1.279099154092796e+001
 1.923779447283957e+000	 6.853931869581795e-002	 1.279895442465845e+001
 1.923086177908611e+000	 8.581696997754799e-002	 1.280323999651783e+001
 1.922234497088266e+000	 1.031481371764186e-001	 1.280358622164967e+001
 1.921222863692445e+000	 1.205309421869617e-001	 1.279973881997876e+001
 1.920049760294560e+000	 1.379634661492283e-001	 1.279145169730736e+001
 1.918713694300094e+000	 1.554437496477030e-001	 1.277848736916017e+001
 1.917213199080564e+000	 1.729697929431785e-001	 1.276061737630781e+001
 1.950000000000000e+000	 0.000000000000000e+000	 1.257906044738142e+001
 1.949923549978213e+000	 1.726699859163519e-002	 1.260203393502286e+001
 1.949693093318855e+000	 3.459540236488794e-002	 1.262197271309105e+001
 1.949306984108212e+000	 5.198347532709990e-002	 1.263858483749750e+001
 1.948763595950233e+000	 6.942943971736748e-002	 1.265158511729779e+001
 1.948061323076648e+000	 8.693147608073368e-002	 1.266069557811529e+001
 1.947198581466602e+000	 1.044877233732223e-001	 1.266564592117084e+001
 1.946173809974940e+000	 1.220962790983860e-001	 1.266617397685036e+001
 1.944985471468231e+000	 1.397551994760172e-001	 1.266202615172472e+001
 1.943632053967617e+000	 1.574624996436467e-001	 1.265295786792088e+001
 1.942112071797492e+000	 1.752161538914288e-001	 1.263873399373073e+001
 1.975000000000000e+000	 0.000000000000000e+000	 1.242086634248231e+001
 1.974922569849744e+000	 1.748837036823261e-002	 1.244937434960769e+001
 1.974689158617876e+000	 3.503893316406807e-002	 1.247464935536006e+001
 1.974298099289225e+000	 5.264993013853264e-002	 1.249639013169789e+001
 1.973747744616509e+000	 7.031956073891704e-002	 1.251430254500339e+001
 1.973036468244684e+000	 8.804598218391935e-002	 1.252810003673793e+001
 1.972162665844939e+000	 1.058273095700260e-001	 1.253750409941586e+001
 1.971124756257434e+000	 1.236616160098102e-001	 1.254224474678553e+001
 1.969921182641903e+000	 1.415469328028062e-001	 1.254206097708781e+001
 1.968550413635141e+000	 1.594812496395905e-001	 1.253670122824653e+001
 1.967010944514421e+000	 1.774625148396792e-001	 1.252592382383276e+001
 2.000000000000000e+000	 0.000000000000000e+000	 1.227295439540870e+001
 1.999921589721275e+000	 1.770974214483003e-002	 1.230691205630854e+001
 1.999685223916896e+000	 3.548246396324820e-002	 1.233742551689576e+001
 1.999289214470237e+000	 5.331638494996539e-002	 1.236418426722462e+001
 1.998731893282784e+000	 7.120968176046656e-002	 1.238688524989888e+001
 1.998011613412721e+000	 8.916048828710502e-002	 1.240523335833790e+001
 1.997126750223276e+000	 1.071668957668297e-001	 1.241894193005587e+001
 1.996075702539929e+000	 1.252269529212345e-001	 1.242773323379798e+001
 1.994856893815574e+000	 1.433386661295951e-001	 1.243133894935848e+001
 1.993468773302665e+000	 1.614999996355342e-001	 1.242950063888966e+001
 1.991909817231349e+000	 1.797088757879295e-001	 1.242197020849726e+001
 1.742921090062065e+000	 1.572452663054261e-001	 1.347124287876229e+001
 1.741406213725087e+000	 1.732177783889446e-001	 1.351040377838471e+001
 1.739739264638117e+000	 1.892281454215080e-001	 1.354431184553055e+001
 1.737918986542895e+000	 2.052744410566007e-001	 1.357282530115368e+001
 1.735944150944025e+000	 2.213547034424478e-001	 1.359579887354645e+001
 1.733813558151911e+000	 2.374669355897513e-001	 1.361308375662004e+001
 1.731526038325072e+000	 2.536091057720335e-001	 1.362452757454532e+001
 1.729080452510761e+000	 2.697791479589111e-001	 1.362997435320839e+001
 1.726475693682788e+000	 2.859749622825958e-001	 1.362926449893589e+001
 1.723710687775430e+000	 3.021944155378738e-001	 1.362223478494491e+001
 1.720784394712270e+000	 3.184353417157770e-001	 1.360871834597015e+001
 1.767819962778993e+000	 1.594916272536765e-001	 1.336499606818243e+001
 1.766283445351817e+000	 1.756923180816826e-001	 1.340007117878591e+001
 1.764592682706736e+000	 1.919314046435942e-001	 1.343025409203203e+001
 1.762746400638945e+000	 2.082069330736586e-001	 1.345540837120399e+001
 1.760743353103111e+000	 2.245169134936454e-001	 1.347539371885201e+001
 1.758582323271217e+000	 2.408593203858372e-001	 1.349006591883885e+001
 1.756262124589759e+000	 2.572320929990908e-001	 1.349927678494793e+001
 1.753781601835235e+000	 2.736331357883019e-001	 1.350287411654752e+001
 1.751139632166797e+000	 2.900603188875702e-001	 1.350070166180599e+001
 1.748335126174922e+000	 3.065114786173201e-001	 1.349259908895371e+001
 1.745367028924961e+000	 3.229844180255974e-001	 1.347840196608523e+001
 1.792718835495921e+000	 1.617379882019268e-001	 1.326614774971842e+001
 1.791160676978547e+000	 1.781668577744254e-001	 1.329707477212270e+001
 1.789446100775357e+000	 1.946346638656997e-001	 1.332347436726366e+001
 1.787573814734995e+000	 2.111394250907599e-001	 1.334521555766133e+001
 1.785542555262198e+000	 2.276791235449205e-001	 1.336216312972794e+001
 1.783351088390523e+000	 2.442517051820444e-001	 1.337417755919713e+001
 1.780998210854445e+000	 2.608550802263233e-001	 1.338111494332169e+001
 1.778482751159709e+000	 2.774871236179322e-001	 1.338282694037365e+001
 1.775803570650804e+000	 2.941456754928580e-001	 1.337916071698263e+001
 1.772959564574414e+000	 3.108285416971645e-001	 1.336995890384946e+001
 1.769949663137651e+000	 3.275334943359103e-001	 1.335505956037111e+001
 1.817617708212850e+000	 1.639843491501772e-001	 1.317441356099394e+001
 1.816037908605277e+000	 1.806413974671730e-001	 1.320112233709936e+001
 1.814299518843976e+000	 1.973379230878244e-001	 1.322367297028233e+001
 1.812401228831045e+000	 2.140719171079046e-001	 1.324194006666598e+001
 1.810341757421285e+000	 2.308413335962730e-001	 1.325579361338789e+001
 1.808119853509829e+000	 2.476440899783729e-001	 1.326509888701978e+001
 1.805734297119132e+000	 2.644780674537310e-001	 1.326971636896568e+001
 1.803183900484183e+000	 2.813411114478015e-001	 1.326950166841335e+001
 1.800467509134812e+000	 2.982310320984592e-001	 1.326430545341715e+001
 1.797584002973906e+000	 3.151456047774064e-001	 1.325397339069181e+001
 1.794532297350343e+000	 3.320825706467159e-001	 1.323834609469638e+001
 1.842516580929779e+000	 1.662307100984275e-001	 1.308952131783693e+001
 1.840915140232007e+000	 1.831159371599254e-001	 1.311193398342603e+001
 1.839152936912596e+000	 2.000411823099683e-001	 1.313056267307975e+001
 1.837228642927096e+000	 2.170044091250926e-001	 1.314528770818569e+001
 1.835140959580371e+000	 2.340035436477028e-001	 1.315598440056964e+001
 1.832888618629135e+000	 2.510364747748227e-001	 1.316252294350084e+001
 1.830470383383819e+000	 2.681010546813140e-001	 1.316476830988973e+001
 1.827885049808657e+000	 2.851950992779102e-001	 1.316258015829479e+001
 1.825131447618820e+000	 3.023163887043739e-001	 1.315581274735999e+001
 1.822208441373397e+000	 3.194626678580462e-001	 1.314431485930568e+001
 1.819114931563034e+000	 3.366316469580142e-001	 1.312792973309650e+001
 1.867415453646707e+000	 1.684770710466778e-001	 1.301121020239919e+001
 1.865792371858737e+000	 1.855904768526825e-001	 1.302924132975168e+001
 1.864006354981215e+000	 2.027444415321316e-001	 1.304386788905347e+001
 1.862056057023146e+000	 2.199369011423241e-001	 1.305497605576062e+001
 1.859940161739459e+000	 2.371657536992101e-001	 1.306244659730032e+001
 1.857657383748441e+000	 2.544288595713938e-001	 1.306615474624560e+001
 1.855206469648505e+000	 2.717240419090723e-001	 1.306597008090030e+001
 1.852586199133131e+000	 2.890490871082582e-001	 1.306175641395429e+001
 1.849795386102829e+000	 3.064017453106021e-001	 1.305337168987412e+001
 1.846832879772890e+000	 3.237797309390840e-001	 1.304066789169684e+001
 1.843697565775724e+000	 3.411807232698052e-001	 1.302349095789612e+001
 1.892314326363635e+000	 1.707234319949282e-001	 1.289179879006699e+001
 1.890669603485467e+000	 1.880650165454445e-001	 1.291527596995038e+001
 1.888859773049835e+000	 2.054477007543140e-001	 1.293471831499266e+001
 1.886883471119196e+000	 2.228693931595990e-001	 1.294993982915646e+001
 1.884739363898545e+000	 2.403279637507948e-001	 1.296076405988457e+001
 1.882426148867748e+000	 2.578212443680863e-001	 1.296702442273205e+001
 1.879942555913192e+000	 2.753470291370057e-001	 1.296856451199052e+001
 1.877287348457605e+000	 2.929030749388453e-001	 1.296523839631250e+001
 1.874459324586836e+000	 3.104871019171435e-001	 1.295668278322884e+001
 1.871457318172382e+000	 3.280967940205198e-001	 1.294272853467159e+001
 1.868280199988416e+000	 3.457297995820888e-001	 1.292472175929531e+001
 1.917213199080564e+000	 1.729697929431785e-001	 1.276061737630781e+001
 1.915546835112197e+000	 1.905395562382112e-001	 1.278819220652083e+001
 1.913713191118454e+000	 2.081509599765156e-001	 1.281168399784363e+001
 1.911710885215246e+000	 2.258018851769173e-001	 1.283090832661780e+001
 1.909538566057631e+000	 2.434901738024568e-001	 1.284569072514997e+001
 1.907194913987054e+000	 2.612136291649000e-001	 1.285586701059953e+001
 1.904678642177878e+000	 2.789700163651144e-001	 1.286128359905928e+001
 1.901988497782079e+000	 2.967570627696717e-001	 1.286179780380433e+001
 1.899123263070844e+000	 3.145724585239985e-001	 1.285727811669938e+001
 1.896081756571874e+000	 3.324138571023534e-001	 1.284760447177378e+001
 1.892862834201107e+000	 3.502788758948651e-001	 1.283266848999586e+001
 1.942112071797492e+000	 1.752161538914288e-001	 1.263873399373073e+001
 1.940424066738927e+000	 1.930140959309828e-001	 1.267045516694587e+001
 1.938566609187074e+000	 2.108542191987364e-001	 1.269802929002849e+001
 1.936538299311296e+000	 2.287343771942789e-001	 1.272127355247334e+001
 1.934337768216718e+000	 2.466523838541962e-001	 1.274001553163231e+001
 1.931963679106360e+000	 2.646060139618351e-001	 1.275409352611039e+001
 1.929414728442565e+000	 2.825930035933983e-001	 1.276335687352735e+001
 1.926689647106553e+000	 3.006110506007373e-001	 1.276766625158713e+001
 1.923787201554852e+000	 3.186578151311670e-001	 1.276689396141317e+001
 1.920706194971366e+000	 3.367309201845848e-001	 1.276092419212815e+001
 1.917445468413798e+000	 3.548279522081341e-001	 1.274965326568081e+001
 1.967010944514421e+000	 1.774625148396792e-001	 1.252592382383276e+001
 1.965301298365657e+000	 1.954886356237591e-001	 1.256183042144648e+001
 1.963420027255694e+000	 2.135574784209764e-001	 1.259351005089423e+001
 1.961365713407346e+000	 2.316668692116840e-001	 1.262078156120824e+001
 1.959136970375806e+000	 2.498145939060131e-001	 1.264347464084374e+001
 1.956732444225666e+000	 2.679983987588914e-001	 1.266143015583511e+001
 1.954150814707251e+000	 2.862159908218574e-001	 1.267450047146243e+001
 1.951390796431027e+000	 3.044650384320423e-001	 1.268254975633585e+001
 1.948451140038860e+000	 3.227431717386489e-001	 1.268545426782282e+001
 1.945330633370858e+000	 3.410479832672143e-001	 1.268310261776478e+001
 1.942028102626488e+000	 3.593770285218957e-001	 1.267539601745576e+001
 1.991909817231349e+000	 1.797088757879295e-001	 1.242197020849726e+001
 1.990178529992387e+000	 1.979631753165402e-001	 1.246209180301948e+001
 1.988273445324313e+000	 2.162607376432357e-001	 1.249789049766762e+001
 1.986193127503396e+000	 2.345993612291324e-001	 1.252918685289621e+001
 1.983936172534892e+000	 2.529768039579074e-001	 1.255581274009146e+001
 1.981501209344972e+000	 2.713907835560692e-001	 1.257761168473914e+001
 1.978886900971938e+000	 2.898389780504917e-001	 1.259443919221889e+001
 1.976091945755501e+000	 3.083190262635864e-001	 1.260616305509694e+001
 1.973115078522868e+000	 3.268285283464442e-001	 1.261266364080710e+001
 1.969955071770350e+000	 3.453650463502415e-001	 1.261383415863453e+001
 1.966610736839180e+000	 3.639261048361500e-001	 1.260958090494269e+001
 1.720784394712270e+000	 3.184353417157770e-001	 1.360871834597015e+001
 1.717695809428702e+000	 3.346955425703510e-001	 1.364988324695032e+001
 1.714443962887209e+000	 3.509727882210215e-001	 1.368525809094959e+001
 1.711027923084025e+000	 3.672648177889563e-001	 1.371464041737562e+001
 1.707446796045747e+000	 3.835693400660090e-001	 1.373782296368738e+001
 1.703699726814957e+000	 3.998840342185867e-001	 1.375459370610697e+001
 1.699785900423492e+000	 4.162065505255865e-001	 1.376473591251932e+001
 1.695704542852120e+000	 4.325345111503019e-001	 1.376802820798249e+001
 1.691454921975343e+000	 4.488655109461449e-001	 1.376424465325280e+001
 1.687036348490034e+000	 4.651971182959881e-001	 1.375315483670753e+001
 1.682448176826651e+000	 4.815268759848673e-001	 1.373452398002505e+001
 1.745367028924961e+000	 3.229844180255974e-001	 1.347840196608523e+001
 1.742234320994296e+000	 3.394769074630900e-001	 1.351799031092670e+001
 1.738936019502071e+000	 3.559866851939452e-001	 1.355197271269576e+001
 1.735471179130182e+000	 3.725114580410630e-001	 1.358014827864259e+001
 1.731838893134178e+000	 3.890489020647538e-001	 1.360231098666870e+001
 1.728038294342963e+000	 4.055966632766609e-001	 1.361824971650740e+001
 1.724068556145973e+000	 4.221523583882386e-001	 1.362774829353167e+001
 1.719928893466559e+000	 4.387135755936855e-001	 1.363058554564586e+001
 1.715618563720287e+000	 4.552778753871787e-001	 1.362653537369829e+001
 1.711136867756843e+000	 4.718427914142042e-001	 1.361536683583045e+001
 1.706483150784262e+000	 4.884058313567285e-001	 1.359684424615455e+001
 1.769949663137651e+000	 3.275334943359103e-001	 1.335505956037111e+001
 1.766772832559885e+000	 3.442582723564071e-001	 1.339317894134046e+001
 1.763428076116914e+000	 3.610005821675034e-001	 1.342588757127912e+001
 1.759914435176295e+000	 3.777580982938316e-001	 1.345298615123510e+001
 1.756230990222532e+000	 3.945284640641586e-001	 1.347426991106621e+001
 1.752376861870848e+000	 4.113092923353629e-001	 1.348952863073529e+001
 1.748351211868279e+000	 4.280981662514562e-001	 1.349854667468982e+001
 1.744153244080758e+000	 4.448926400375424e-001	 1.350110303981660e+001
 1.739782205464916e+000	 4.616902398285627e-001	 1.349697141744297e+001
 1.735237387023252e+000	 4.784884645326172e-001	 1.348592026983399e+001
 1.730518124741380e+000	 4.952847867286022e-001	 1.346771292161091e+001
 1.794532297350343e+000	 3.320825706467159e-001	 1.323834609469638e+001
 1.791311344125469e+000	 3.490396372503026e-001	 1.327509524150722e+001
 1.787920132731737e+000	 3.660144791416965e-001	 1.330664009830908e+001
 1.784357691222366e+000	 3.830047385472624e-001	 1.333278299090397e+001
 1.780623087310807e+000	 4.000080260642229e-001	 1.335332041745570e+001
 1.776715429398611e+000	 4.170219213946926e-001	 1.336804305953835e+001
 1.772633867590408e+000	 4.340439741152394e-001	 1.337673580674275e+001
 1.768377594694716e+000	 4.510717044818725e-001	 1.337917779536800e+001
 1.763945847209231e+000	 4.681026042702975e-001	 1.337514246170455e+001
 1.759337906289262e+000	 4.851341376512273e-001	 1.336439761039363e+001
 1.754553098698004e+000	 5.021637421004885e-001	 1.334670549832257e+001
 1.819114931563034e+000	 3.366316469580142e-001	 1.312792973309650e+001
 1.815849855691049e+000	 3.538210021447762e-001	 1.316339882609739e+001
 1.812412189346542e+000	 3.710283761165244e-001	 1.319388155127889e+001
 1.808800947268393e+000	 3.882513788013551e-001	 1.321918189503369e+001
 1.805015184399005e+000	 4.054875880649472e-001	 1.323909764489511e+001
 1.801053996926252e+000	 4.227345504546500e-001	 1.325342038996856e+001
 1.796916523312362e+000	 4.399897819795883e-001	 1.326193553541260e+001
 1.792601945308435e+000	 4.572507689266762e-001	 1.326442233153299e+001
 1.788109488953231e+000	 4.745149687123827e-001	 1.326065391803351e+001
 1.783438425554874e+000	 4.917798107700344e-001	 1.325039738394424e+001
 1.778588072654134e+000	 5.090426974723874e-001	 1.323341384372256e+001
 1.843697565775724e+000	 3.411807232698052e-001	 1.302349095789612e+001
 1.840388367256623e+000	 3.586023670398280e-001	 1.305776192037920e+001
 1.836904245961327e+000	 3.760422730919869e-001	 1.308727609184000e+001
 1.833244203314375e+000	 3.934980190561099e-001	 1.311183915986702e+001
 1.829407281487125e+000	 4.109671500663312e-001	 1.313125022702576e+001
 1.825392564453771e+000	 4.284471795152351e-001	 1.314530180029527e+001
 1.821199179034139e+000	 4.459355898445029e-001	 1.315377979506311e+001
 1.816826295921914e+000	 4.634298333719530e-001	 1.315646355428023e+001
 1.812273130696917e+000	 4.809273331548185e-001	 1.315312588335766e+001
 1.807538944820086e+000	 4.984254838890383e-001	 1.314353310136282e+001
 1.802623046609771e+000	 5.159216528442988e-001	 1.312744510904815e+001
 1.868280199988416e+000	 3.457297995820888e-001	 1.292472175929531e+001
 1.864926878822192e+000	 3.633837319354581e-001	 1.295786853057414e+001
 1.861396302576093e+000	 3.810561700680843e-001	 1.298649993684433e+001
 1.857687459360315e+000	 3.987446593115267e-001	 1.301042341215893e+001
 1.853799378575167e+000	 4.164467120683749e-001	 1.302943940427078e+001
 1.849731131981168e+000	 4.341598085764481e-001	 1.304334135268820e+001
 1.845481834755741e+000	 4.518813977099830e-001	 1.305191568181530e+001
 1.841050646535153e+000	 4.696088978177034e-001	 1.305494180981835e+001
 1.836436772440289e+000	 4.873396975976047e-001	 1.305219217383882e+001
 1.831639464084900e+000	 5.050711570082394e-001	 1.304343227214995e+001
 1.826658020564913e+000	 5.228006082162227e-001	 1.302842072382734e+001
 1.892862834201107e+000	 3.502788758948651e-001	 1.283266848999586e+001
 1.889465390387757e+000	 3.681650968316664e-001	 1.286712178528587e+001
 1.885888359190838e+000	 3.860700670448166e-001	 1.289581353236586e+001
 1.882130715406210e+000	 4.039912995676054e-001	 1.291865114460583e+001
 1.878191475663132e+000	 4.219262740710784e-001	 1.293555451499407e+001
 1.874069699508444e+000	 4.398724376382887e-001	 1.294720515660056e+001
 1.869764490477167e+000	 4.578272055760289e-001	 1.295600259888789e+001
 1.865274997148151e+000	 4.757879622639268e-001	 1.295951001185299e+001
 1.860600414183346e+000	 4.937520620407415e-001	 1.295749943401347e+001
 1.855739983349315e+000	 5.117168301276374e-001	 1.294973549542816e+001
 1.850692994519563e+000	 5.296795635881593e-001	 1.293597546871722e+001
 1.917445468413798e+000	 3.548279522081341e-001	 1.274965326568081e+001
 1.914003901953317e+000	 3.729464617284529e-001	 1.278721941810661e+001
 1.910380415805565e+000	 3.910839640221834e-001	 1.281882262572360e+001
 1.906573971452062e+000	 4.092379398243463e-001	 1.284437692623297e+001
 1.902583572751019e+000	 4.274058360744414e-001	 1.286380943963653e+001
 1.898408267035597e+000	 4.455850667007568e-001	 1.287706052040698e+001
 1.894047146198417e+000	 4.637730134426404e-001	 1.288408388475736e+001
 1.889499347760909e+000	 4.819670267106236e-001	 1.288484671226275e+001
 1.884764055926089e+000	 5.001644264842287e-001	 1.287932972114211e+001
 1.879840502613331e+000	 5.183625032472325e-001	 1.286752721656628e+001
 1.874727968473718e+000	 5.365585189601085e-001	 1.284975661966214e+001
 1.942028102626488e+000	 3.593770285218957e-001	 1.267539601745576e+001
 1.938542413518873e+000	 3.777278266258178e-001	 1.271605323097452e+001
 1.934872472420273e+000	 3.960978610001851e-001	 1.275053620578386e+001
 1.931017227497871e+000	 4.144845800817492e-001	 1.277876585367967e+001
 1.926975669838828e+000	 4.328853980784646e-001	 1.280067678950248e+001
 1.922746834562629e+000	 4.512976957638528e-001	 1.281621748060801e+001
 1.918329801919491e+000	 4.697188213098174e-001	 1.282535037015829e+001
 1.913723698373428e+000	 4.881460911577938e-001	 1.282805197346454e+001
 1.908927697668517e+000	 5.065767909280665e-001	 1.282431294667059e+001
 1.903941021876948e+000	 5.250081763670246e-001	 1.281413812712652e+001
 1.898762942427380e+000	 5.434374743320701e-001	 1.279754654486751e+001
 1.966610736839180e+000	 3.639261048361500e-001	 1.260958090494269e+001
 1.963080925084422e+000	 3.825091915237607e-001	 1.265329357176766e+001
 1.959364529034961e+000	 4.011117579788214e-001	 1.269061059490214e+001
 1.955460483543635e+000	 4.197312203398140e-001	 1.272146001815676e+001
 1.951367766926559e+000	 4.383649600831473e-001	 1.274578422753822e+001
 1.947085402089539e+000	 4.570103248275765e-001	 1.276354009789502e+001
 1.942612457640389e+000	 4.756646291775601e-001	 1.277469911206871e+001
 1.937948048985706e+000	 4.943251556054373e-001	 1.277924745175949e+001
 1.933091339410632e+000	 5.129891553722548e-001	 1.277718605937496e+001
 1.928041541140166e+000	 5.316538494870136e-001	 1.276853067019563e+001
 1.922797916380548e+000	 5.503164297040443e-001	 1.275331181425864e+001
 1.682448176826651e+000	 4.815268759848673e-001	 1.373452398002505e+001
 1.677689806041381e+000	 4.978523021060258e-001	 1.377860015592753e+001
 1.672760680688981e+000	 5.141708909989885e-001	 1.381509287757434e+001
 1.667660291674265e+000	 5.304801142200817e-001	 1.384371253724608e+001
 1.662388177080357e+000	 5.467774215453340e-001	 1.386416476424486e+001
 1.656943922973434e+000	 5.630602420043450e-001	 1.387615062717718e+001
 1.651327164182347e+000	 5.793259849448745e-001	 1.387936685310334e+001
 1.645537585051869e+000	 5.955720411275248e-001	 1.387350606368347e+001
 1.639574920168338e+000	 6.117957838498270e-001	 1.385825702840825e+001
 1.633438955056452e+000	 6.279945700989933e-001	 1.383260257570928e+001
 1.627129526846032e+000	 6.441657417325339e-001	 1.379395578984756e+001
 1.706483150784262e+000	 4.884058313567285e-001	 1.359684424615455e+001
 1.701656803273777e+000	 5.049644778520136e-001	 1.363986404454336e+001
 1.696657261845163e+000	 5.215161894442626e-001	 1.367584024372898e+001
 1.691484010130446e+000	 5.380584015691766e-001	 1.370449109857947e+001
 1.686136579613939e+000	 5.545885275710121e-001	 1.372552950835177e+001
 1.680614550448476e+000	 5.711039597512188e-001	 1.373866320225155e+001
 1.674917552246178e+000	 5.876020704482378e-001	 1.374359494263588e+001
 1.669045264842459e+000	 6.040802131478213e-001	 1.374002274603591e+001
 1.662997419032029e+000	 6.205357236231794e-001	 1.372764012213289e+001
 1.656773797275656e+000	 6.369659211041965e-001	 1.370050150599687e+001
 1.650374234376445e+000	 6.533681094749184e-001	 1.366178801466881e+001
 1.730518124741380e+000	 4.952847867286022e-001	 1.346771292161091e+001
 1.725623800505588e+000	 5.120766535978284e-001	 1.351027310778681e+001
 1.720553843000689e+000	 5.288614878892073e-001	 1.354633122172598e+001
 1.715307728585921e+000	 5.456366889178151e-001	 1.357561302077276e+001
 1.709884982146783e+000	 5.623996335961364e-001	 1.359783829992221e+001
 1.704285177922769e+000	 5.791476774974712e-001	 1.361272106075675e+001
 1.698507940309269e+000	 5.958781559509419e-001	 1.361996969883024e+001
 1.692552944632335e+000	 6.125883851674518e-001	 1.361928720972384e+001
 1.686419917895057e+000	 6.292756633958881e-001	 1.360745048475183e+001
 1.680108639494266e+000	 6.459372721088099e-001	 1.357829045065614e+001
 1.673618941906352e+000	 6.625704772167977e-001	 1.353998898390313e+001
 1.754553098698004e+000	 5.021637421004885e-001	 1.334670549832257e+001
 1.749590797736816e+000	 5.191888293434703e-001	 1.338938051067200e+001
 1.744450424155561e+000	 5.362067863338228e-001	 1.342609725109403e+001
 1.739131447040689e+000	 5.532149762659974e-001	 1.345658863167579e+001
 1.733633384678889e+000	 5.702107396207069e-001	 1.348058098095150e+001
 1.727955805396312e+000	 5.871913952431020e-001	 1.349779419630042e+001
 1.722098328371618e+000	 6.041542414529870e-001	 1.350794191562519e+001
 1.716060624421499e+000	 6.210965571864155e-001	 1.351073170858264e+001
 1.709842416757420e+000	 6.380156031679537e-001	 1.349423590745704e+001
 1.703443481712281e+000	 6.549086231128336e-001	 1.346560249746089e+001
 1.696863649435754e+000	 6.717728449581719e-001	 1.342817507944182e+001
 1.778588072654134e+000	 5.090426974723874e-001	 1.323341384372256e+001
 1.773557794967459e+000	 5.263010050889394e-001	 1.327675695661336e+001
 1.768347005309778e+000	 5.435520847781091e-001	 1.331468845275881e+001
 1.762955165494752e+000	 5.607932636137234e-001	 1.334694806298638e+001
 1.757381787210256e+000	 5.780218456447236e-001	 1.337326829854671e+001
 1.751626432869105e+000	 5.952351129881116e-001	 1.339337458704251e+001
 1.745688716433225e+000	 6.124303269543731e-001	 1.340698542849944e+001
 1.739568304209950e+000	 6.296047292047130e-001	 1.340894519330100e+001
 1.733264915619120e+000	 6.467555429393755e-001	 1.338974222510420e+001
 1.726778323929702e+000	 6.638799741162679e-001	 1.336209680578179e+001
 1.720108356964651e+000	 6.809752126990409e-001	 1.332598971580041e+001
 1.802623046609771e+000	 5.159216528442988e-001	 1.312744510904815e+001
 1.797524792197518e+000	 5.334131808342354e-001	 1.317198951819880e+001
 1.792243586463340e+000	 5.508973832220659e-001	 1.321167238361648e+001
 1.786778883948108e+000	 5.683715509609929e-001	 1.324623992999383e+001
 1.781130189740887e+000	 5.858329516681865e-001	 1.327543051125253e+001
 1.775297060341149e+000	 6.032788307324997e-001	 1.329897473005834e+001
 1.769279104494092e+000	 6.207064124551002e-001	 1.331659557836897e+001
 1.763075983997688e+000	 6.381129012223440e-001	 1.331174314610746e+001
 1.756687414480155e+000	 6.554954827101545e-001	 1.329366807496817e+001
 1.750113166146527e+000	 6.728513251191123e-001	 1.326745686847981e+001
 1.743353064493043e+000	 6.901775804394048e-001	 1.323310153794369e+001
 1.826658020564913e+000	 5.228006082162227e-001	 1.302842072382734e+001
 1.821491789426993e+000	 5.405253565793585e-001	 1.307468056027059e+001
 1.816140167616247e+000	 5.582426816656935e-001	 1.311663288943035e+001
 1.810602602400758e+000	 5.759498383078062e-001	 1.315403011555308e+001
 1.804878592270779e+000	 5.936440576910959e-001	 1.318661610540400e+001
 1.798967687812443e+000	 6.113225484762663e-001	 1.321412629141005e+001
 1.792869492554217e+000	 6.289824979551679e-001	 1.323089757264690e+001
 1.786583663784714e+000	 6.466210732393086e-001	 1.322223493849201e+001
 1.780109913340527e+000	 6.642354224802899e-001	 1.320573396727046e+001
 1.773448008362758e+000	 6.818226761213672e-001	 1.318138891101879e+001
 1.766597772020930e+000	 6.993799481792635e-001	 1.314920276138779e+001
 1.850692994519563e+000	 5.296795635881593e-001	 1.293597546871722e+001
 1.845458786655884e+000	 5.476375323243089e-001	 1.298444674692160e+001
 1.840036748768498e+000	 5.655879801089916e-001	 1.302916904711225e+001
 1.834426320852702e+000	 5.835281256541631e-001	 1.306990064881430e+001
 1.828626994799934e+000	 6.014551637134511e-001	 1.310639061150384e+001
 1.822638315282988e+000	 6.193662662194114e-001	 1.313837886140713e+001
 1.816459880613602e+000	 6.372585834545771e-001	 1.314709866727091e+001
 1.810091343571027e+000	 6.551292452556068e-001	 1.314017526064210e+001
 1.803532412200234e+000	 6.729753622497819e-001	 1.312568086485815e+001
 1.796782850578394e+000	 6.907940271230323e-001	 1.310362041532236e+001
 1.789842479548311e+000	 7.085823159186171e-001	 1.307400764164486e+001
 1.874727968473718e+000	 5.365585189601085e-001	 1.284975661966214e+001
 1.869425783884192e+000	 5.547497080690862e-001	 1.290091812487680e+001
 1.863933329920095e+000	 5.729332785519605e-001	 1.294889418836681e+001
 1.858250039303940e+000	 5.911064130000637e-001	 1.299344867020382e+001
 1.852375397328350e+000	 6.092662697352527e-001	 1.303433551164744e+001
 1.846308942752784e+000	 6.274099839619354e-001	 1.306751557574688e+001
 1.840050268672244e+000	 6.455346689533270e-001	 1.307008828778343e+001
 1.833599023356627e+000	 6.636374172712385e-001	 1.306533717345807e+001
 1.826954911059278e+000	 6.817153020186307e-001	 1.305326887213808e+001
 1.820117692793435e+000	 6.997653781241080e-001	 1.303389875718039e+001
 1.813087187075188e+000	 7.177846836574655e-001	 1.300725106140288e+001
 1.898762942427380e+000	 5.434374743320701e-001	 1.279754654486751e+001
 1.893392781111915e+000	 5.618618838136904e-001	 1.284534133409733e+001
 1.887829911071037e+000	 5.802785769946003e-001	 1.289014764804372e+001
 1.882073757754471e+000	 5.986847003455078e-001	 1.293206632182274e+001
 1.876123799856030e+000	 6.170773757565005e-001	 1.297120952286628e+001
 1.869979570221829e+000	 6.354537017038378e-001	 1.299473385360454e+001
 1.863640656730146e+000	 6.538107544514178e-001	 1.299966914083190e+001
 1.857106703141514e+000	 6.721455892862038e-001	 1.299751094584985e+001
 1.850377409917658e+000	 6.904552417868360e-001	 1.298827602358572e+001
 1.843452535007881e+000	 7.087367291245937e-001	 1.297198994714353e+001
 1.836331894601559e+000	 7.269870513958089e-001	 1.294868722500817e+001
 1.922797916380548e+000	 5.503164297040443e-001	 1.275331181425864e+001
 1.917359778339054e+000	 5.689740595581219e-001	 1.280390904066072e+001
 1.911726492221324e+000	 5.876238754369104e-001	 1.285168265281589e+001
 1.905897476204296e+000	 6.062629876904957e-001	 1.289675490497125e+001
 1.899872202382971e+000	 6.248884817771945e-001	 1.293925976255924e+001
 1.893650197690125e+000	 6.434974194451186e-001	 1.294595531316849e+001
 1.887231044787307e+000	 6.620868399488499e-001	 1.294650042332062e+001
 1.880614382925689e+000	 6.806537613005027e-001	 1.294105923879401e+001
 1.873799908775373e+000	 6.991951815543979e-001	 1.293049716311590e+001
 1.866787377221733e+000	 7.177080801244901e-001	 1.291767746585067e+001
 1.859576602127425e+000	 7.361894191336469e-001	 1.289808845086175e+001
 1.627129526846032e+000	 6.441657417325339e-001	 1.379395578984756e+001
 1.620646524908150e+000	 6.603066266860092e-001	 1.381430914757583e+001
 1.613989891457657e+000	 6.764145402067767e-001	 1.382849148067853e+001
 1.607159622122281e+000	 6.924867861127354e-001	 1.383656295658922e+001
 1.600155766478270e+000	 7.085206580754373e-001	 1.383859080295426e+001
 1.592978428549762e+000	 7.245134409262325e-001	 1.383464931859385e+001
 1.585627767271442e+000	 7.404624119843857e-001	 1.382481987228923e+001
 1.578103996913506e+000	 7.563648424060108e-001	 1.380919088915847e+001
 1.570407387467962e+000	 7.722179985526128e-001	 1.378785782441024e+001
 1.562538264995355e+000	 7.880191433779770e-001	 1.376092312429358e+001
 1.554497011931069e+000	 8.037655378321177e-001	 1.372849617409219e+001
 1.650374234376445e+000	 6.533681094749184e-001	 1.366178801466881e+001
 1.643798618125084e+000	 6.697395784986904e-001	 1.368611773199038e+001
 1.637046889910957e+000	 6.860776050693964e-001	 1.370424564187758e+001
 1.630119045299331e+000	 7.023794544880483e-001	 1.371622105750524e+001
 1.623015134574688e+000	 7.186423817643651e-001	 1.372210041595635e+001
 1.615735263247222e+000	 7.348636329415725e-001	 1.372194730127627e+001
 1.608279592522115e+000	 7.510404464434977e-001	 1.371583245526585e+001
 1.600648339730568e+000	 7.671700544427710e-001	 1.370383377575185e+001
 1.592841778721614e+000	 7.832496842489189e-001	 1.368603630210041e+001
 1.584860240213809e+000	 7.992765597150675e-001	 1.366253218776884e+001
 1.576704112105899e+000	 8.152479026619461e-001	 1.363342065972034e+001
 1.673618941906352e+000	 6.625704772167977e-001	 1.353998898390313e+001
 1.666950711341602e+000	 6.791725303109569e-001	 1.356776575517152e+001
 1.660103888363913e+000	 6.957406699316718e-001	 1.358930373011353e+001
 1.653078468476089e+000	 7.122721228630687e-001	 1.360464161995887e+001
 1.645874502670843e+000	 7.287641054530311e-001	 1.361382533398133e+001
 1.638492097944431e+000	 7.452138249566624e-001	 1.361690801454708e+001
 1.630931417772529e+000	 7.616184809023505e-001	 1.361395005979571e+001
 1.623192682547342e+000	 7.779752664792431e-001	 1.360501913366846e+001
 1.615276169974930e+000	 7.942813699448880e-001	 1.359019016302612e+001
 1.607182215431858e+000	 8.105339760517517e-001	 1.356954532162768e+001
 1.598911212280233e+000	 8.267302674912782e-001	 1.354317400077180e+001
 1.696863649435754e+000	 6.717728449581719e-001	 1.342817507944182e+001
 1.690102804557706e+000	 6.886054821228079e-001	 1.345889401540347e+001
 1.683160886816524e+000	 7.054037347936031e-001	 1.348333091051162e+001
 1.676037891652553e+000	 7.221647912377956e-001	 1.350151411567055e+001
 1.668733870766737e+000	 7.388858291414350e-001	 1.351347926440678e+001
 1.661248932641390e+000	 7.555640169715013e-001	 1.351926931982165e+001
 1.653583243022685e+000	 7.721965153609443e-001	 1.351893460905182e+001
 1.645737025363828e+000	 7.887804785154274e-001	 1.351253284492824e+001
 1.637710561227909e+000	 8.053130556405201e-001	 1.350012913455195e+001
 1.629504190649500e+000	 8.217913923880298e-001	 1.348179597453452e+001
 1.621118312454071e+000	 8.382126323201146e-001	 1.345761323268180e+001
 1.720108356964651e+000	 6.809752126990409e-001	 1.332598971580041e+001
 1.713254897773396e+000	 6.980384339342446e-001	 1.335916907549322e+001
 1.706217885268792e+000	 7.150667996551902e-001	 1.338601684096378e+001
 1.698997314828725e+000	 7.320574596122293e-001	 1.340655123427158e+001
 1.691593238862369e+000	 7.490075528295770e-001	 1.342079785512751e+001
 1.684005767338098e+000	 7.659142089860900e-001	 1.342878973966989e+001
 1.676235068272581e+000	 7.827745498192790e-001	 1.343056740660499e+001
 1.668281368180025e+000	 7.995856905513236e-001	 1.342617889037834e+001
 1.660144952480550e+000	 8.163447413358156e-001	 1.341567976107140e+001
 1.651826165866736e+000	 8.330488087239013e-001	 1.339913313074747e+001
 1.643325412627414e+000	 8.496949971484549e-001	 1.337660964600209e+001
 1.743353064493043e+000	 6.901775804394048e-001	 1.323310153794369e+001
 1.736406990988670e+000	 7.074713857452664e-001	 1.326828154513584e+001
 1.729274883720715e+000	 7.247298645164332e-001	 1.329707403927757e+001
 1.721956738004603e+000	 7.419501279863704e-001	 1.331948733544335e+001
 1.714452606957739e+000	 7.591292765174572e-001	 1.333553723185444e+001
 1.706762602034556e+000	 7.762644010004284e-001	 1.334524708040608e+001
 1.698886893522218e+000	 7.933525842773546e-001	 1.334864784439722e+001
 1.690825710995935e+000	 8.103909025869319e-001	 1.334577814310460e+001
 1.682579343732855e+000	 8.273764270307737e-001	 1.333668428287166e+001
 1.674148141083565e+000	 8.443062250593668e-001	 1.332142027441203e+001
 1.665532512800260e+000	 8.611773619762990e-001	 1.330004783605981e+001
 1.766597772020930e+000	 6.993799481792635e-001	 1.314920276138779e+001
 1.759559084203529e+000	 7.169043375558731e-001	 1.318594449888225e+001
 1.752331882172295e+000	 7.343929293773318e-001	 1.321623637923436e+001
 1.744916161180188e+000	 7.518427963602180e-001	 1.324007702325623e+001
 1.737311975052847e+000	 7.692510002050759e-001	 1.325747265088987e+001
 1.729519436730764e+000	 7.866145930145161e-001	 1.326843716342139e+001
 1.721538718771596e+000	 8.039306187351709e-001	 1.327299221271731e+001
 1.713370053811557e+000	 8.211961146222522e-001	 1.327116725710016e+001
 1.705013734984823e+000	 8.384081127253951e-001	 1.326299960350901e+001
 1.696470116299988e+000	 8.555636413944259e-001	 1.324853443562118e+001
 1.687739612972610e+000	 8.726597268036471e-001	 1.322782482764339e+001
 1.789842479548311e+000	 7.085823159186171e-001	 1.307400764164486e+001
 1.782711177417973e+000	 7.263372893660650e-001	 1.311189201738248e+001
 1.775388880623530e+000	 7.440559942378868e-001	 1.314325770383774e+001
 1.767875584355480e+000	 7.617354647337726e-001	 1.316809383159879e+001
 1.760171343147694e+000	 7.793727238924327e-001	 1.318639725688126e+001
 1.752276271426721e+000	 7.969647850283533e-001	 1.319817265537369e+001
 1.744190544020715e+000	 8.145086531927280e-001	 1.320343260290561e+001
 1.735914396626891e+000	 8.320013266572844e-001	 1.320219764253109e+001
 1.727448126236454e+000	 8.494397984196793e-001	 1.319449633764844e+001
 1.718792091516005e+000	 8.668210577290787e-001	 1.318036531080833e+001
 1.709946713144463e+000	 8.841420916304991e-001	 1.315984926789462e+001
 1.813087187075188e+000	 7.177846836574655e-001	 1.300725106140288e+001
 1.805863270632003e+000	 7.357702411758422e-001	 1.304587784084075e+001
 1.798445879074421e+000	 7.537190590980972e-001	 1.307791054523529e+001
 1.790835007530478e+000	 7.716281331070339e-001	 1.310332901072793e+001
 1.783030711242278e+000	 7.894944475795275e-001	 1.312212093613247e+001
 1.775033106122427e+000	 8.073149770419399e-001	 1.313428198836282e+001
 1.766842369269575e+000	 8.250866876500260e-001	 1.313981589446611e+001
 1.758458739441937e+000	 8.428065386920290e-001	 1.313873451982796e+001
 1.749882517487748e+000	 8.604714841136268e-001	 1.313105793214653e+001
 1.741114066731615e+000	 8.780784740633248e-001	 1.311681445080248e+001
 1.732153813315821e+000	 8.956244564568551e-001	 1.309604068128593e+001
 1.836331894601559e+000	 7.269870513958089e-001	 1.294868722500817e+001
 1.829015363845618e+000	 7.452031929852042e-001	 1.298767412473995e+001
 1.821502877524968e+000	 7.633821239579637e-001	 1.301998494186124e+001
 1.813794430705184e+000	 7.815208014800023e-001	 1.304559040597979e+001
 1.805890079336600e+000	 7.996161712663601e-001	 1.306446925700520e+001
 1.797789940817883e+000	 8.176651690552761e-001	 1.307660836211776e+001
 1.789494194518175e+000	 8.356647221070649e-001	 1.308200281910663e+001
 1.781003082256695e+000	 8.536117507264855e-001	 1.308065604561839e+001
 1.772316908738705e+000	 8.715031698072372e-001	 1.307257985388727e+001
 1.763436041946819e+000	 8.893358903971650e-001	 1.305779451054997e+001
 1.754360913486683e+000	 9.071068212827148e-001	 1.303632878118185e+001
 1.859576602127425e+000	 7.361894191336469e-001	 1.289808845086175e+001
 1.852167457058817e+000	 7.546361447941515e-001	 1.293707028888677e+001
 1.844559875975170e+000	 7.730451888174859e-001	 1.296928734429365e+001
 1.836753853879597e+000	 7.914134698526776e-001	 1.299470142057730e+001
 1.828749447430661e+000	 8.097378949529311e-001	 1.301328248979046e+001
 1.820546775513088e+000	 8.280153610683618e-001	 1.302500882101981e+001
 1.812146019766516e+000	 8.462427565638447e-001	 1.302986709497621e+001
 1.803547425071165e+000	 8.644169627606541e-001	 1.302785250421481e+001
 1.794751299989325e+000	 8.825348555005105e-001	 1.301896883853050e+001
 1.785758017161617e+000	 9.005933067305987e-001	 1.300322855510714e+001
 1.776568013657048e+000	 9.185891861080785e-001	 1.298065283303313e+001
 1.554497011931069e+000	 8.037655378321177e-001	 1.372849617409219e+001
 1.546284067350165e+000	 8.194544422807419e-001	 1.372726372069543e+001
 1.537899927190630e+000	 8.350831179393492e-001	 1.371971234204261e+001
 1.529345144433827e+000	 8.506488283203388e-001	 1.370589267007623e+001
 1.520620329241138e+000	 8.661488406911879e-001	 1.368586233937777e+001
 1.511726149046811e+000	 8.815804275427315e-001	 1.365968595342638e+001
 1.502663328606235e+000	 8.969408680658605e-001	 1.362743503791505e+001
 1.493432649999157e+000	 9.122274496350905e-001	 1.358918798107151e+001
 1.484034952587419e+000	 9.274374692974083e-001	 1.354502996096498e+001
 1.474471132926832e+000	 9.425682352647933e-001	 1.349505285981488e+001
 1.464742144632903e+000	 9.576170684087775e-001	 1.343935516535249e+001
 1.576704112105899e+000	 8.152479026619461e-001	 1.363342065972034e+001
 1.568373839745379e+000	 8.311609343174989e-001	 1.363271492384033e+001
 1.559869926154992e+000	 8.470128767716021e-001	 1.362576979431225e+001
 1.551192932215838e+000	 8.628009544439739e-001	 1.361264623908218e+001
 1.542343476805890e+000	 8.785223955630550e-001	 1.359341237465506e+001
 1.533322236894169e+000	 8.941744336552630e-001	 1.356814342137454e+001
 1.524129947589711e+000	 9.097543090427865e-001	 1.353692164529002e+001
 1.514767402144834e+000	 9.252592703483488e-001	 1.349983628657239e+001
 1.505235451912260e+000	 9.406865760053209e-001	 1.345698347447502e+001
 1.495535006255741e+000	 9.560334957715670e-001	 1.340846612887293e+001
 1.485667032413862e+000	 9.712973122453554e-001	 1.335439384845014e+001
 1.598911212280233e+000	 8.267302674912782e-001	 1.354317400077180e+001
 1.590463612140005e+000	 8.428674263536746e-001	 1.354329854843528e+001
 1.581839925118697e+000	 8.589426356032173e-001	 1.353725544020294e+001
 1.573040719997142e+000	 8.749530805669454e-001	 1.352511589994893e+001
 1.564066624369903e+000	 8.908959504342626e-001	 1.350695845481165e+001
 1.554918324740777e+000	 9.067684397671686e-001	 1.348286887958504e+001
 1.545596566572447e+000	 9.225677500191506e-001	 1.345294012721181e+001
 1.536102154289799e+000	 9.382910910611385e-001	 1.341727224535311e+001
 1.526435951236439e+000	 9.539356827128889e-001	 1.337597227904731e+001
 1.516598879584057e+000	 9.694987562781504e-001	 1.332915415950717e+001
 1.506591920194319e+000	 9.849775560819279e-001	 1.327693857914357e+001
 1.621118312454071e+000	 8.382126323201146e-001	 1.345761323268180e+001
 1.612553384534045e+000	 8.545739183892687e-001	 1.345885881073805e+001
 1.603809924081746e+000	 8.708723944341962e-001	 1.345400070910728e+001
 1.594888507777738e+000	 8.871052066892541e-001	 1.344312033493658e+001
 1.585789771933177e+000	 9.032695053048107e-001	 1.342630656221579e+001
 1.576514412586635e+000	 9.193624458784482e-001	 1.340365566536432e+001
 1.567063185554443e+000	 9.353811909949523e-001	 1.337527123841845e+001
 1.557436906434054e+000	 9.513229117734600e-001	 1.334126409980779e+001
 1.547636450559956e+000	 9.671847894201124e-001	 1.330175218274772e+001
 1.537662752911782e+000	 9.829640167845439e-001	 1.325686041131456e+001
 1.527516807974274e+000	 9.986577999184951e-001	 1.320672056230943e+001
 1.643325412627414e+000	 8.496949971484549e-001	 1.337660964600209e+001
 1.634643156927498e+000	 8.662804104242817e-001	 1.337925486325719e+001
 1.625779923044137e+000	 8.828021532645375e-001	 1.337585263982200e+001
 1.616736295557627e+000	 8.992573328108996e-001	 1.336649450053203e+001
 1.607512919495713e+000	 9.156430601746988e-001	 1.335127960960753e+001
 1.598110500431744e+000	 9.319564519891018e-001	 1.333031469351365e+001
 1.588529804535698e+000	 9.481946319701918e-001	 1.330371394890388e+001
 1.578771658577597e+000	 9.643547324853128e-001	 1.327159893564861e+001
 1.568836949882811e+000	 9.804338961269918e-001	 1.323409845499098e+001
 1.558726626238913e+000	 9.964292772907476e-001	 1.319134841291269e+001
 1.548441695753725e+000	 1.012338043755057e+000	 1.314349166883421e+001
 1.665532512800260e+000	 8.611773619762990e-001	 1.330004783605981e+001
 1.656732929320366e+000	 8.779869024587131e-001	 1.330435979900184e+001
 1.647749922005872e+000	 8.947319120942417e-001	 1.330267283992105e+001
 1.638584083336808e+000	 9.114094589318817e-001	 1.329508854250058e+001
 1.629236067057512e+000	 9.280166150439279e-001	 1.328171631140717e+001
 1.619706588276104e+000	 9.445504580991297e-001	 1.326267328449630e+001
 1.609996423516214e+000	 9.610080729448691e-001	 1.323808422956752e+001
 1.600106410720428e+000	 9.773865531966970e-001	 1.320808142568460e+001
 1.590037449205004e+000	 9.936830028335263e-001	 1.317280452911754e+001
 1.579790499565453e+000	 1.009894537796761e+000	 1.313240042400508e+001
 1.569366583532674e+000	 1.026018287591614e+000	 1.308702305788035e+001
 1.687739612972610e+000	 8.726597268036471e-001	 1.322782482764339e+001
 1.678822701712647e+000	 8.896933944925635e-001	 1.323405973434363e+001
 1.669719920966950e+000	 9.066616709233090e-001	 1.323433652728333e+001
 1.660431871115281e+000	 9.235615850522007e-001	 1.322876679659131e+001
 1.650959214618570e+000	 9.403901699124974e-001	 1.321747014413115e+001
 1.641302676119713e+000	 9.571444642085318e-001	 1.320057408511757e+001
 1.631463042495988e+000	 9.738215139189842e-001	 1.317821393373363e+001
 1.621441162862548e+000	 9.904183739076128e-001	 1.315053267277580e+001
 1.611237948526535e+000	 1.006932109539717e+000	 1.311768080739848e+001
 1.600854372891400e+000	 1.023359798302584e+000	 1.307981620307291e+001
 1.590291471311120e+000	 1.039698531428165e+000	 1.303710390792061e+001
 1.709946713144463e+000	 8.841420916304991e-001	 1.315984926789462e+001
 1.700912474104342e+000	 9.013998865258321e-001	 1.316825296334374e+001
 1.691689919927371e+000	 9.185914297517391e-001	 1.317073164630674e+001
 1.682279658893047e+000	 9.357137111718562e-001	 1.316740686710957e+001
 1.672682362178891e+000	 9.527637247804072e-001	 1.315840838781428e+001
 1.662898763962574e+000	 9.697384703173078e-001	 1.314387407330780e+001
 1.652929661475022e+000	 9.866349548925372e-001	 1.312394976582509e+001
 1.642775915003957e+000	 1.003450194618061e+000	 1.309878914294683e+001
 1.632438447847404e+000	 1.020181216245562e+000	 1.306855355915685e+001
 1.621918246216754e+000	 1.036825058808218e+000	 1.303341187109074e+001
 1.611216359089064e+000	 1.053378775264711e+000	 1.299354024665312e+001
 1.732153813315821e+000	 8.956244564568551e-001	 1.309604068128593e+001
 1.723002246495451e+000	 9.131063785585198e-001	 1.310684917713182e+001
 1.713659918887135e+000	 9.305211885795318e-001	 1.311175805210564e+001
 1.704127446670105e+000	 9.478658372908486e-001	 1.311089877636842e+001
 1.694405509738473e+000	 9.651372796476575e-001	 1.310441124116889e+001
 1.684494851804685e+000	 9.823324764254580e-001	 1.309244363946050e+001
 1.674396280453315e+000	 9.994483958655275e-001	 1.307515232936986e+001
 1.664110667144655e+000	 1.016482015328040e+000	 1.305270168056867e+001
 1.653638947167611e+000	 1.033430322951064e+000	 1.302526390364901e+001
 1.642982119541516e+000	 1.050290319313661e+000	 1.299301886264880e+001
 1.632141246866505e+000	 1.067059019101252e+000	 1.295615387092274e+001
 1.754360913486683e+000	 9.071068212827148e-001	 1.303632878118185e+001
 1.745092018885974e+000	 9.248128705906259e-001	 1.304976874257239e+001
 1.735629917846242e+000	 9.424509474066877e-001	 1.305732675666799e+001
 1.725975234446456e+000	 9.600179634091780e-001	 1.305914417873884e+001
 1.716128657297317e+000	 9.775108345142484e-001	 1.305537100394692e+001
 1.706090939646046e+000	 9.949264825329820e-001	 1.304616573754234e+001
 1.695862899430868e+000	 1.012261836837956e+000	 1.303169524731081e+001
 1.685445419284641e+000	 1.029513836037550e+000	 1.301213459833676e+001
 1.674839446487155e+000	 1.046679429656221e+000	 1.298766687019544e+001
 1.664045992865685e+000	 1.063755579818914e+000	 1.295848295673680e+001
 1.653066134643443e+000	 1.080739262937787e+000	 1.292478134867390e+001
 1.776568013657048e+000	 9.185891861080785e-001	 1.298065283303313e+001
 1.767181791275910e+000	 9.365193626221506e-001	 1.299694203503161e+001
 1.757599916804693e+000	 9.543807062332064e-001	 1.300735923155084e+001
 1.747823022222099e+000	 9.721700895268440e-001	 1.301205563364614e+001
 1.737851804855421e+000	 9.898843893801794e-001	 1.301119132062512e+001
 1.727687027486658e+000	 1.007520488639880e+000	 1.300493509986977e+001
 1.717329518407681e+000	 1.025075277809822e+000	 1.299346434829227e+001
 1.706780171423916e+000	 1.042545656746592e+000	 1.297696483550067e+001
 1.696039945806038e+000	 1.059928536361033e+000	 1.295563052880165e+001
 1.685109866189261e+000	 1.077220840323977e+000	 1.292966338021890e+001
 1.673991022419878e+000	 1.094419506774317e+000	 1.289927309575685e+001
 1.464742144632903e+000	 9.576170684087775e-001	 1.343935516535249e+001
 1.454848998199890e+000	 9.725813037558125e-001	 1.339995147388495e+001
 1.444792760773848e+000	 9.874582919805433e-001	 1.335703079031332e+001
 1.434574555879015e+000	 1.002245400896121e+000	 1.331081561601682e+001
 1.424195563096952e+000	 1.016940016940706e+000	 1.326153323057038e+001
 1.413657017699293e+000	 1.031539546657219e+000	 1.320941540986438e+001
 1.402960210233953e+000	 1.046041418165064e+000	 1.315469813337403e+001
 1.392106486064946e+000	 1.060443082622109e+000	 1.309762128108681e+001
 1.381097244866093e+000	 1.074742015675245e+000	 1.303842832062886e+001
 1.369933940068900e+000	 1.088935718897823e+000	 1.297736598516413e+001
 1.358618078265032e+000	 1.103021721212288e+000	 1.291468394266913e+001
 1.485667032413862e+000	 9.712973122453554e-001	 1.335439384845014e+001
 1.475632555316646e+000	 9.864753223822117e-001	 1.332073843090877e+001
 1.465432657355221e+000	 1.001564839009399e+000	 1.328347208738665e+001
 1.455068478104174e+000	 1.016563192337402e+000	 1.324280025862519e+001
 1.444541213996231e+000	 1.031467731467781e+000	 1.319893329131810e+001
 1.433852117949764e+000	 1.046275825894073e+000	 1.315208617175413e+001
 1.423002498949086e+000	 1.060984866994530e+000	 1.310247824836855e+001
 1.411993721577700e+000	 1.075592269514989e+000	 1.305033294368869e+001
 1.400827205504765e+000	 1.090095473040156e+000	 1.299587745619217e+001
 1.389504424925096e+000	 1.104491943451570e+000	 1.293934245262906e+001
 1.378026907953097e+000	 1.118779174370570e+000	 1.288096175139097e+001
 1.506591920194319e+000	 9.849775560819279e-001	 1.327693857914357e+001
 1.496416112432994e+000	 1.000369341008790e+000	 1.324801160999026e+001
 1.486072553936272e+000	 1.015671386038590e+000	 1.321537804054299e+001
 1.475562400329086e+000	 1.030880983779144e+000	 1.317922686837000e+001
 1.464886864895328e+000	 1.045995445995414e+000	 1.313975213193287e+001
 1.454047218200109e+000	 1.061012105131552e+000	 1.309715265913376e+001
 1.443044787664139e+000	 1.075928315824656e+000	 1.305163180451365e+001
 1.431880957090409e+000	 1.090741456408535e+000	 1.300339717556480e+001
 1.420557166143417e+000	 1.105448930405707e+000	 1.295266034865450e+001
 1.409074909781288e+000	 1.120048168005903e+000	 1.289963657509111e+001
 1.397435737641161e+000	 1.134536627529352e+000	 1.284454447789474e+001
 1.527516807974274e+000	 9.986577999184951e-001	 1.320672056230943e+001
 1.517199669548935e+000	 1.014263359635549e+000	 1.318154114181920e+001
 1.506712450517001e+000	 1.029777933068117e+000	 1.315255755079524e+001
 1.496056322553752e+000	 1.045198775221347e+000	 1.311994294410783e+001
 1.485232515794244e+000	 1.060523160523605e+000	 1.308387565973250e+001
 1.474242318450327e+000	 1.075748384369653e+000	 1.304453898159709e+001
 1.463087076379111e+000	 1.090871764655440e+000	 1.300212089080538e+001
 1.451768192603072e+000	 1.105890643302745e+000	 1.295681380567909e+001
 1.440287126782049e+000	 1.120802387771898e+000	 1.290881431109495e+001
 1.428645394637474e+000	 1.135604392560821e+000	 1.285832287762806e+001
 1.416844567329225e+000	 1.150294080688636e+000	 1.280554357104557e+001
 1.548441695753725e+000	 1.012338043755057e+000	 1.314349166883421e+001
 1.537983226664468e+000	 1.028157378262487e+000	 1.312111564806470e+001
 1.527352347097408e+000	 1.043884480097980e+000	 1.309483583812279e+001
 1.516550244778170e+000	 1.059516566664011e+000	 1.306481013570932e+001
 1.505578166692978e+000	 1.075050875052352e+000	 1.303120177020131e+001
 1.494437418700419e+000	 1.090484663608378e+000	 1.299417908020766e+001
 1.483129365094002e+000	 1.105815213486884e+000	 1.295391527820971e+001
 1.471655428115689e+000	 1.121039830197621e+000	 1.291058820370820e+001
 1.460017087420660e+000	 1.136155845138731e+000	 1.286438006533386e+001
 1.448215879493655e+000	 1.151160617116326e+000	 1.281547717241472e+001
 1.436253397017289e+000	 1.166051533848422e+000	 1.276406965652623e+001
 1.569366583532674e+000	 1.026018287591614e+000	 1.308702305788035e+001
 1.558766783779593e+000	 1.042051396889605e+000	 1.306654100864328e+001
 1.547992243677491e+000	 1.057991027128177e+000	 1.304205335354048e+001
 1.537044167002341e+000	 1.073834358107137e+000	 1.301370330065813e+001
 1.525923817591530e+000	 1.089578589581657e+000	 1.298163954777894e+001
 1.514632518950384e+000	 1.105220942847725e+000	 1.294601607206756e+001
 1.503171653808812e+000	 1.120758662318988e+000	 1.290699190753144e+001
 1.491542663628261e+000	 1.136189017093162e+000	 1.286473091066043e+001
 1.479747048059252e+000	 1.151509302506204e+000	 1.281940151468323e+001
 1.467786364349831e+000	 1.166716841672417e+000	 1.277117647291641e+001
 1.455662226705354e+000	 1.181808987008709e+000	 1.272023259171602e+001
 1.590291471311120e+000	 1.039698531428165e+000	 1.303710390792061e+001
 1.579550340894311e+000	 1.055945415516904e+000	 1.301763922630789e+001
 1.568632140257253e+000	 1.072097574158711e+000	 1.299406477705681e+001
 1.557538089226265e+000	 1.088152149550724e+000	 1.296650963512908e+001
 1.546269468489901e+000	 1.104106304111519e+000	 1.293510852974502e+001
 1.534827619200224e+000	 1.119957222087696e+000	 1.290000164663055e+001
 1.523213942523541e+000	 1.135702111151750e+000	 1.286133441771404e+001
 1.511429899140787e+000	 1.151338203989368e+000	 1.281925729865668e+001
 1.499477008697823e+000	 1.166862759874318e+000	 1.277392553463820e+001
 1.487356849206002e+000	 1.182273066229095e+000	 1.272549891485670e+001
 1.475071056393418e+000	 1.197566440169497e+000	 1.267414151623708e+001
 1.611216359089064e+000	 1.053378775264711e+000	 1.299354024665312e+001
 1.600333898008621e+000	 1.069839434144381e+000	 1.297424737971046e+001
 1.589272036836692e+000	 1.086204121189579e+000	 1.295073809371328e+001
 1.578032011449943e+000	 1.102469940994773e+000	 1.292312787277454e+001
 1.566615119388090e+000	 1.118634018641939e+000	 1.289153802746320e+001
 1.555022719449937e+000	 1.134693501328291e+000	 1.285609550905603e+001
 1.543256231238190e+000	 1.150645559985172e+000	 1.281693271089577e+001
 1.531317134653268e+000	 1.166487390886239e+000	 1.277418725722175e+001
 1.519206969336374e+000	 1.182216217243073e+000	 1.272800177987812e+001
 1.506927334062168e+000	 1.197829290786359e+000	 1.267852368334348e+001
 1.494479886081482e+000	 1.213323893330786e+000	 1.262590489856196e+001
 1.632141246866505e+000	 1.067059019101252e+000	 1.295615387092274e+001
 1.621117455122524e+000	 1.083733452772039e+000	 1.293621665699816e+001
 1.609911933415809e+000	 1.100310668220784e+000	 1.291195374069769e+001
 1.598525933673372e+000	 1.116787732439283e+000	 1.288346754514238e+001
 1.586960770286098e+000	 1.133161733172915e+000	 1.285086649983732e+001
 1.575217819699524e+000	 1.149429780569508e+000	 1.281426486638152e+001
 1.563298519952757e+000	 1.165589008819253e+000	 1.277378255092274e+001
 1.551204370165704e+000	 1.181636577783775e+000	 1.272954490370723e+001
 1.538936929974905e+000	 1.197569674612468e+000	 1.268168250611365e+001
 1.526497818918329e+000	 1.213385515344208e+000	 1.263033094560078e+001
 1.513888715769546e+000	 1.229081346492577e+000	 1.257563057903606e+001
 1.653066134643443e+000	 1.080739262937787e+000	 1.292478134867390e+001
 1.641901012236020e+000	 1.097627471399877e+000	 1.290341146280731e+001
 1.630551829994604e+000	 1.114417215252323e+000	 1.287760381923363e+001
 1.619019855896555e+000	 1.131105523884254e+000	 1.284744829826499e+001
 1.607306421183923e+000	 1.147689447704449e+000	 1.281304097435329e+001
 1.595412919948985e+000	 1.164166059811349e+000	 1.277448395272043e+001
 1.583340808667244e+000	 1.180532457653993e+000	 1.273188519235475e+001
 1.571091605678093e+000	 1.196785764681976e+000	 1.268535831570747e+001
 1.558666890613415e+000	 1.212923131982505e+000	 1.263502240546452e+001
 1.546068303774485e+000	 1.228941739902644e+000	 1.258100178880946e+001
 1.533297545457611e+000	 1.244838799654869e+000	 1.252342580963244e+001
 1.673991022419878e+000	 1.094419506774317e+000	 1.289927309575685e+001
 1.662684569349107e+000	 1.111521490027895e+000	 1.287570859223295e+001
 1.651191726573076e+000	 1.128523762284198e+000	 1.284759136557823e+001
 1.639513778119492e+000	 1.145423315329686e+000	 1.281499926050394e+001
 1.627652072081568e+000	 1.162217162236540e+000	 1.277801651154258e+001
 1.615608020198319e+000	 1.178902339053813e+000	 1.273673359006977e+001
 1.603383097381650e+000	 1.195475906489392e+000	 1.269124703729568e+001
 1.590978841190437e+000	 1.211934951580842e+000	 1.264165928354442e+001
 1.578396851251905e+000	 1.228276589353181e+000	 1.258807845418408e+001
 1.565638788630636e+000	 1.244497964461666e+000	 1.253061816260993e+001
 1.552706375145675e+000	 1.260596252817663e+000	 1.252196862748396e+001
 1.358618078265032e+000	 1.103021721212288e+000	 1.291468394266913e+001
 1.347151218564126e+000	 1.116997580295668e+000	 1.282508228368321e+001
 1.335534971906517e+000	 1.130860883968336e+000	 1.273426177513067e+001
 1.323771000332177e+000	 1.144609251562969e+000	 1.264232656178302e+001
 1.311861016207092e+000	 1.158240335270790e+000	 1.254938226817960e+001
 1.299806781406892e+000	 1.171751821465558e+000	 1.245553580022147e+001
 1.287610106458835e+000	 1.185141432003066e+000	 1.236089514261384e+001
 1.275272849643007e+000	 1.198406925494608e+000	 1.226556915264243e+001
 1.262796916053697e+000	 1.211546098552944e+000	 1.216966735078237e+001
 1.250184256621897e+000	 1.224556787009297e+000	 1.207329970864962e+001
 1.237436867100000e+000	 1.237436867100000e+000	 1.195946980044999e+001
 1.378026907953097e+000	 1.118779174370570e+000	 1.288096175139097e+001
 1.366396235971277e+000	 1.132954688583815e+000	 1.278878342589012e+001
 1.354614042933290e+000	 1.147016039451929e+000	 1.269500495637634e+001
 1.342682014622530e+000	 1.160960812298055e+000	 1.259973222238330e+001
 1.330601887867360e+000	 1.174786625773290e+000	 1.250307300697530e+001
 1.318375449713060e+000	 1.188491133199592e+000	 1.240513679329314e+001
 1.306004536551559e+000	 1.202072023887835e+000	 1.230603455627984e+001
 1.293491033209806e+000	 1.215527024429475e+000	 1.220587855008498e+001
 1.280836871997721e+000	 1.228853899960310e+000	 1.210478209166274e+001
 1.268044031716739e+000	 1.242050455394868e+000	 1.200285934109121e+001
 1.255114536630000e+000	 1.255114536630000e+000	 1.192918342308527e+001
 1.397435737641161e+000	 1.134536627529352e+000	 1.284454447789474e+001
 1.385641253378430e+000	 1.148911796872367e+000	 1.274955831453835e+001
 1.373693113960062e+000	 1.163171194935842e+000	 1.265259925892008e+001
 1.361593028912885e+000	 1.177312373033386e+000	 1.255377521421534e+001
 1.349342759527628e+000	 1.191332916275971e+000	 1.245319640827682e+001
 1.336944118019226e+000	 1.205230444933751e+000	 1.235097518472356e+001
 1.324398966644283e+000	 1.219002615772684e+000	 1.224722578853947e+001
 1.311709216776605e+000	 1.232647123364387e+000	 1.214206414669611e+001
 1.298876827941744e+000	 1.246161701367696e+000	 1.203560764433071e+001
 1.285903806811580e+000	 1.259544123780444e+000	 1.198164598235478e+001
 1.272792206160000e+000	 1.272792206160000e+000	 1.194747553899758e+001
 1.416844567329225e+000	 1.150294080688636e+000	 1.280554357104557e+001
 1.404886270785581e+000	 1.164868905161327e+000	 1.270752306427528e+001
 1.392772184986834e+000	 1.179326350420076e+000	 1.260716498446372e+001
 1.380504043203239e+000	 1.193663933768963e+000	 1.250457954703397e+001
 1.368083631187897e+000	 1.207879206778833e+000	 1.239987971095945e+001
 1.355512786325393e+000	 1.221969756668037e+000	 1.229318096398550e+001
 1.342793396737007e+000	 1.235933207657614e+000	 1.218460110168913e+001
 1.329927400343404e+000	 1.249767222299344e+000	 1.207426000090759e+001
 1.316916783885769e+000	 1.263469502775102e+000	 1.203740371941857e+001
 1.303763581906421e+000	 1.277037792166025e+000	 1.199974381445065e+001
 1.290469875690000e+000	 1.290469875690000e+000	 1.195997605131477e+001
 1.436253397017289e+000	 1.166051533848422e+000	 1.276406965652623e+001
 1.424131288192732e+000	 1.180826013450692e+000	 1.266279259592169e+001
 1.411851256013606e+000	 1.195481505904632e+000	 1.255882089225248e+001
 1.399415057493593e+000	 1.210015494504787e+000	 1.245226736171959e+001
 1.386824502848165e+000	 1.224425497281876e+000	 1.234324798100228e+001
 1.374081454631560e+000	 1.238709068402448e+000	 1.223188166620000e+001
 1.361187826829731e+000	 1.252863799542624e+000	 1.213406706089296e+001
 1.348145583910203e+000	 1.266887321234346e+000	 1.209587065554324e+001
 1.334956739829792e+000	 1.280777304182528e+000	 1.205526898423574e+001
 1.321623357001262e+000	 1.294531460551611e+000	 1.201225121708097e+001
 1.308147545220000e+000	 1.308147545220000e+000	 1.196680763836877e+001
 1.455662226705354e+000	 1.181808987008709e+000	 1.272023259171602e+001
 1.443376305599884e+000	 1.196783121740464e+000	 1.261548071606022e+001
 1.430930327040378e+000	 1.211636661389509e+000	 1.250768430190537e+001
 1.418326071783947e+000	 1.226367055240856e+000	 1.239695905486969e+001
 1.405565374508434e+000	 1.240971787785099e+000	 1.228342425634793e+001
 1.392650122937726e+000	 1.255448380136983e+000	 1.219684817832398e+001
 1.379582256922455e+000	 1.269794391427715e+000	 1.215651381587649e+001
 1.366363767477002e+000	 1.284007420169393e+000	 1.211348433725796e+001
 1.352996695773816e+000	 1.298085105589975e+000	 1.206774548798745e+001
 1.339483132096104e+000	 1.312025128937202e+000	 1.201928441264318e+001
 1.325825214750000e+000	 1.325825214750000e+000	 1.196808969483811e+001
 1.475071056393418e+000	 1.197566440169497e+000	 1.267414151623708e+001
 1.462621323007036e+000	 1.212740230030642e+000	 1.256570019034036e+001
 1.450009398067151e+000	 1.227791816874707e+000	 1.245387118812734e+001
 1.437237086074301e+000	 1.242718615977171e+000	 1.233877339355439e+001
 1.424306246168702e+000	 1.257518078288503e+000	 1.226085948511696e+001
 1.411218791243894e+000	 1.272187691871646e+000	 1.221885164751043e+001
 1.397976687015180e+000	 1.286724983312886e+000	 1.217387485894184e+001
 1.384581951043801e+000	 1.301127519104486e+000	 1.212591087193747e+001
 1.371036651717840e+000	 1.315392906997442e+000	 1.207494310739415e+001
 1.357342907190945e+000	 1.329518797322798e+000	 1.202095670115849e+001
 1.343502884280000e+000	 1.343502884280000e+000	 1.196393854777778e+001
 1.494479886081482e+000	 1.213323893330786e+000	 1.262590489856196e+001
 1.481866340414187e+000	 1.228697338321226e+000	 1.251356281107167e+001
 1.469088469093923e+000	 1.243946972360226e+000	 1.239749626804160e+001
 1.456148100364656e+000	 1.259070176713732e+000	 1.232570307632138e+001
 1.443047117828971e+000	 1.274064368792089e+000	 1.228245258922803e+001
 1.429787459550060e+000	 1.288927003606433e+000	 1.223597576669848e+001
 1.416371117107904e+000	 1.303655575198137e+000	 1.218624982826889e+001
 1.402800134610599e+000	 1.318247618039624e+000	 1.213325391456859e+001
 1.389076607661863e+000	 1.332700708404929e+000	 1.207696914129463e+001
 1.375202682285786e+000	 1.347012465708399e+000	 1.201737865003659e+001
 1.361180553810000e+000	 1.361180553810000e+000	 1.195446765581555e+001
 1.513888715769546e+000	 1.229081346492577e+000	 1.257563057903606e+001
 1.501111357821339e+000	 1.244654446612217e+000	 1.245917945961729e+001
 1.488167540120695e+000	 1.260102127846067e+000	 1.239102950909530e+001
 1.475059114655010e+000	 1.275421737450539e+000	 1.234693377662330e+001
 1.461787989489239e+000	 1.290610659295854e+000	 1.229937118637006e+001
 1.448356127856227e+000	 1.305666315341346e+000	 1.224831391409696e+001
 1.434765547200628e+000	 1.320586167083468e+000	 1.219373629182419e+001
 1.421018318177399e+000	 1.335367716974807e+000	 1.213561486994394e+001
 1.407116563605887e+000	 1.350008509812436e+000	 1.207392847589476e+001
 1.393062457380627e+000	 1.364506134094006e+000	 1.200865826924312e+001
 1.378858223340000e+000	 1.378858223340000e+000	 1.193978779302549e+001
 1.533297545457611e+000	 1.244838799654869e+000	 1.252342580963244e+001
 1.520356375228491e+000	 1.260611554903613e+000	 1.245653665048772e+001
 1.507246611147468e+000	 1.276257283332228e+000	 1.241195986778148e+001
 1.493970128945364e+000	 1.291773298187593e+000	 1.236369295445347e+001
 1.480528861149507e+000	 1.307156949799801e+000	 1.231170256169625e+001
 1.466924796162394e+000	 1.322405627076385e+000	 1.225595771365841e+001
 1.453159977293352e+000	 1.337516758968881e+000	 1.219642987838712e+001
 1.439236501744198e+000	 1.352487815910036e+000	 1.213309303507934e+001
 1.425156519549911e+000	 1.367316311219963e+000	 1.206592373746584e+001
 1.410922232475468e+000	 1.381999802479617e+000	 1.199490117316305e+001
 1.396535892870000e+000	 1.396535892870000e+000	 1.192000721883656e+001
 1.552706375145675e+000	 1.260596252817663e+000	 1.252196862748396e+001
 1.539601392635642e+000	 1.276568663195416e+000	 1.247724197603678e+001
 1.526325682174240e+000	 1.292412438818711e+000	 1.242861953226681e+001
 1.512881143235718e+000	 1.308124858924892e+000	 1.237606197273710e+001
 1.499269732809776e+000	 1.323703240303929e+000	 1.231953254434279e+001
 1.485493464468560e+000	 1.339144938811549e+000	 1.225899714472029e+001
 1.471554407386076e+000	 1.354447350854373e+000	 1.219442439874916e+001
 1.457454685310996e+000	 1.369607914845309e+000	 1.212578573094986e+001
 1.443196475493935e+000	 1.384624112627510e+000	 1.205305543359038e+001
 1.428782007570310e+000	 1.399493470865233e+000	 1.197621073032469e+001
 1.414213562400000e+000	 1.414213562400000e+000	 1.189523183519770e+001
 1.237436867100000e+000	 1.237436867100000e+000	 1.195946980044999e+001
 1.224556787009298e+000	 1.250184256621897e+000	 1.181167190487767e+001
 1.211546098552944e+000	 1.262796916053697e+000	 1.172813086688359e+001
 1.198406925494609e+000	 1.275272849643007e+000	 1.163725140099655e+001
 1.185141432003066e+000	 1.287610106458834e+000	 1.153913019988484e+001
 1.171751821465559e+000	 1.299806781406892e+000	 1.143387264578732e+001
 1.158240335270790e+000	 1.311861016207091e+000	 1.132159238933128e+001
 1.144609251562970e+000	 1.323771000332176e+000	 1.120241090968866e+001
 1.130860883968337e+000	 1.335534971906517e+000	 1.107645705739682e+001
 1.116997580295668e+000	 1.347151218564126e+000	 1.094386658122021e+001
 1.103021721212288e+000	 1.358618078265032e+000	 1.080478164047421e+001
 1.255114536630000e+000	 1.255114536630000e+000	 1.192918342308527e+001
 1.242050455394869e+000	 1.268044031716738e+000	 1.185271517199114e+001
 1.228853899960310e+000	 1.280836871997720e+000	 1.176309975432930e+001
 1.215527024429475e+000	 1.293491033209806e+000	 1.166677407205441e+001
 1.202072023887835e+000	 1.306004536551558e+000	 1.156387548698461e+001
 1.188491133199593e+000	 1.318375449713059e+000	 1.145454969195255e+001
 1.174786625773290e+000	 1.330601887867360e+000	 1.133895023385212e+001
 1.160960812298055e+000	 1.342682014622530e+000	 1.121723801823986e+001
 1.147016039451929e+000	 1.354614042933289e+000	 1.108958079693430e+001
 1.132954688583815e+000	 1.366396235971277e+000	 1.095615264010738e+001
 1.118779174370570e+000	 1.378026907953097e+000	 1.081713339440495e+001
 1.272792206160000e+000	 1.272792206160000e+000	 1.194747553899758e+001
 1.259544123780445e+000	 1.285903806811580e+000	 1.187293974908108e+001
 1.246161701367696e+000	 1.298876827941744e+000	 1.178994935877280e+001
 1.232647123364387e+000	 1.311709216776605e+000	 1.168926245890008e+001
 1.219002615772685e+000	 1.324398966644283e+000	 1.158264097519377e+001
 1.205230444933752e+000	 1.336944118019226e+000	 1.147027093783386e+001
 1.191332916275972e+000	 1.349342759527628e+000	 1.135234584731432e+001
 1.177312373033386e+000	 1.361593028912884e+000	 1.122906612290168e+001
 1.163171194935842e+000	 1.373693113960061e+000	 1.110063853437690e+001
 1.148911796872368e+000	 1.385641253378429e+000	 1.096727561867398e+001
 1.134536627529353e+000	 1.397435737641161e+000	 1.082919508307033e+001
 1.290469875690000e+000	 1.290469875690000e+000	 1.195997605131477e+001
 1.277037792166026e+000	 1.303763581906420e+000	 1.187794361254041e+001
 1.263469502775103e+000	 1.316916783885768e+000	 1.179318222134482e+001
 1.249767222299344e+000	 1.329927400343403e+000	 1.170535906944203e+001
 1.235933207657615e+000	 1.342793396737007e+000	 1.159601254654431e+001
 1.221969756668037e+000	 1.355512786325393e+000	 1.148156615694845e+001
 1.207879206778833e+000	 1.368083631187896e+000	 1.136225344619331e+001
 1.193663933768964e+000	 1.380504043203238e+000	 1.123831446844339e+001
 1.179326350420077e+000	 1.392772184986834e+000	 1.110999516170044e+001
 1.164868905161327e+000	 1.404886270785581e+000	 1.097754670826962e+001
 1.150294080688636e+000	 1.416844567329225e+000	 1.084122488225717e+001
 1.308147545220000e+000	 1.308147545220000e+000	 1.196680763836877e+001
 1.294531460551612e+000	 1.321623357001262e+000	 1.187840773158404e+001
 1.280777304182529e+000	 1.334956739829792e+000	 1.178796269268400e+001
 1.266887321234347e+000	 1.348145583910202e+000	 1.169546619073107e+001
 1.252863799542625e+000	 1.361187826829731e+000	 1.160091305280890e+001
 1.238709068402448e+000	 1.374081454631559e+000	 1.148897489202477e+001
 1.224425497281876e+000	 1.386824502848165e+000	 1.136915953291716e+001
 1.210015494504787e+000	 1.399415057493592e+000	 1.124541705261178e+001
 1.195481505904632e+000	 1.411851256013606e+000	 1.111803274003066e+001
 1.180826013450693e+000	 1.424131288192732e+000	 1.098729663361305e+001
 1.166051533848422e+000	 1.436253397017289e+000	 1.085350281232146e+001
 1.325825214750000e+000	 1.325825214750000e+000	 1.196808969483811e+001
 1.312025128937203e+000	 1.339483132096103e+000	 1.187440636962698e+001
 1.298085105589976e+000	 1.352996695773815e+000	 1.177934526603035e+001
 1.284007420169394e+000	 1.366363767477001e+000	 1.168292527192633e+001
 1.269794391427715e+000	 1.379582256922455e+000	 1.158516579116250e+001
 1.255448380136984e+000	 1.392650122937726e+000	 1.148608674770862e+001
 1.240971787785099e+000	 1.405565374508433e+000	 1.137356207680333e+001
 1.226367055240856e+000	 1.418326071783947e+000	 1.125082164259938e+001
 1.211636661389510e+000	 1.430930327040378e+000	 1.112514935503326e+001
 1.196783121740464e+000	 1.443376305599884e+000	 1.099687435056730e+001
 1.181808987008709e+000	 1.455662226705354e+000	 1.086632928188402e+001
 1.343502884280000e+000	 1.343502884280000e+000	 1.196393854777778e+001
 1.329518797322799e+000	 1.357342907190944e+000	 1.186601311778082e+001
 1.315392906997442e+000	 1.371036651717839e+000	 1.176736144680255e+001
 1.301127519104487e+000	 1.384581951043800e+000	 1.166802712366860e+001
 1.286724983312886e+000	 1.397976687015179e+000	 1.156805362303957e+001
 1.272187691871646e+000	 1.411218791243893e+000	 1.146748428524805e+001
 1.257518078288504e+000	 1.424306246168701e+000	 1.136636229545962e+001
 1.242718615977171e+000	 1.437237086074301e+000	 1.125498886915969e+001
 1.227791816874708e+000	 1.450009398067151e+000	 1.113175806266783e+001
 1.212740230030642e+000	 1.462621323007035e+000	 1.100664584672250e+001
 1.197566440169497e+000	 1.475071056393418e+000	 1.088002374649708e+001
 1.361180553810000e+000	 1.361180553810000e+000	 1.195446765581555e+001
 1.347012465708400e+000	 1.375202682285786e+000	 1.185330093850986e+001
 1.332700708404929e+000	 1.389076607661863e+000	 1.175204431604176e+001
 1.318247618039624e+000	 1.402800134610599e+000	 1.165076557904686e+001
 1.303655575198137e+000	 1.416371117107903e+000	 1.154953178537720e+001
 1.288927003606434e+000	 1.429787459550060e+000	 1.144840921607074e+001
 1.274064368792089e+000	 1.443047117828970e+000	 1.134746333148087e+001
 1.259070176713732e+000	 1.456148100364655e+000	 1.124675872760848e+001
 1.243946972360227e+000	 1.469088469093923e+000	 1.113828591709066e+001
 1.228697338321226e+000	 1.481866340414187e+000	 1.101699303543937e+001
 1.213323893330786e+000	 1.494479886081482e+000	 1.089492347183064e+001
 1.378858223340000e+000	 1.378858223340000e+000	 1.193978779302549e+001
 1.364506134094007e+000	 1.393062457380627e+000	 1.183634220592900e+001
 1.350008509812436e+000	 1.407116563605887e+000	 1.173342842941019e+001
 1.335367716974808e+000	 1.421018318177398e+000	 1.163113797452086e+001
 1.320586167083469e+000	 1.434765547200628e+000	 1.152956101204733e+001
 1.305666315341347e+000	 1.448356127856226e+000	 1.142878630504641e+001
 1.290610659295855e+000	 1.461787989489238e+000	 1.132890114236100e+001
 1.275421737450540e+000	 1.475059114655009e+000	 1.122999127319322e+001
 1.260102127846067e+000	 1.488167540120695e+000	 1.113214084281412e+001
 1.244654446612217e+000	 1.501111357821338e+000	 1.102831273496678e+001
 1.229081346492577e+000	 1.513888715769546e+000	 1.091138239199821e+001
 1.396535892870000e+000	 1.396535892870000e+000	 1.192000721883656e+001
 1.381999802479617e+000	 1.410922232475468e+000	 1.181520874304096e+001
 1.367316311219963e+000	 1.425156519549910e+000	 1.171154972386081e+001
 1.352487815910036e+000	 1.439236501744197e+000	 1.160914492818877e+001
 1.337516758968881e+000	 1.453159977293351e+000	 1.150810718594943e+001
 1.322405627076385e+000	 1.466924796162393e+000	 1.140854729962118e+001
 1.307156949799802e+000	 1.480528861149507e+000	 1.131057395554141e+001
 1.291773298187593e+000	 1.493970128945363e+000	 1.121429363710898e+001
 1.276257283332229e+000	 1.507246611147467e+000	 1.111981053999556e+001
 1.260611554903614e+000	 1.520356375228490e+000	 1.102722648947630e+001
 1.244838799654869e+000	 1.533297545457611e+000	 1.092977005459207e+001
 1.414213562400000e+000	 1.414213562400000e+000	 1.189523183519770e+001
 1.399493470865234e+000	 1.428782007570309e+000	 1.178997185618099e+001
 1.384624112627510e+000	 1.443196475493934e+000	 1.168644543130653e+001
 1.369607914845310e+000	 1.457454685310996e+000	 1.158479013468474e+001
 1.354447350854374e+000	 1.471554407386076e+000	 1.148514101719636e+001
 1.339144938811550e+000	 1.485493464468560e+000	 1.138763049340641e+001
 1.323703240303929e+000	 1.499269732809775e+000	 1.129238823105012e+001
 1.308124858924892e+000	 1.512881143235717e+000	 1.119954104323965e+001
 1.292412438818711e+000	 1.526325682174239e+000	 1.110921278353599e+001
 1.276568663195417e+000	 1.539601392635642e+000	 1.102152424402754e+001
 1.260596252817662e+000	 1.552706375145675e+000	 1.093659305655333e+001
 1.103021721212288e+000	 1.358618078265032e+000	 1.080478164047421e+001
 1.088935718897824e+000	 1.369933940068900e+000	 1.065701488073657e+001
 1.074742015675246e+000	 1.381097244866093e+000	 1.050795214871551e+001
 1.060443082622109e+000	 1.392106486064946e+000	 1.035794445191948e+001
 1.046041418165064e+000	 1.402960210233953e+000	 1.020734172529175e+001
 1.031539546657220e+000	 1.413657017699293e+000	 1.005649211676840e+001
 1.016940016940706e+000	 1.424195563096951e+000	 9.905741275753682e+000
 1.002245400896121e+000	 1.434574555879014e+000	 9.755431646323856e+000
 9.874582919805436e-001	 1.444792760773847e+000	 9.605901766950789e+000
 9.725813037558133e-001	 1.454848998199890e+000	 9.457485578511255e+000
 9.576170684087774e-001	 1.464742144632903e+000	 9.310511742314972e+000
 1.118779174370570e+000	 1.378026907953097e+000	 1.081713339440495e+001
 1.104491943451570e+000	 1.389504424925096e+000	 1.067804839292395e+001
 1.090095473040156e+000	 1.400827205504764e+000	 1.053739903335881e+001
 1.075592269514990e+000	 1.411993721577700e+000	 1.039553362156373e+001
 1.060984866994531e+000	 1.423002498949086e+000	 1.025279986860229e+001
 1.046275825894074e+000	 1.433852117949764e+000	 1.010954415972631e+001
 1.031467731467782e+000	 1.444541213996230e+000	 9.966110825551603e+000
 1.016563192337402e+000	 1.455068478104174e+000	 9.822841417303557e+000
 1.001564839009400e+000	 1.465432657355220e+000	 9.680073987986809e+000
 9.864753223822118e-001	 1.475632555316645e+000	 9.538142381309820e+000
 9.712973122453553e-001	 1.485667032413862e+000	 9.397375530161499e+000
 1.134536627529353e+000	 1.397435737641161e+000	 1.082919508307033e+001
 1.120048168005903e+000	 1.409074909781287e+000	 1.069777108834187e+001
 1.105448930405707e+000	 1.420557166143416e+000	 1.056452007855943e+001
 1.090741456408535e+000	 1.431880957090408e+000	 1.042978872189851e+001
 1.075928315824656e+000	 1.443044787664139e+000	 1.029392356870361e+001
 1.061012105131552e+000	 1.454047218200108e+000	 1.015727030237608e+001
 1.045995445995415e+000	 1.464886864895328e+000	 1.002017299174102e+001
 1.030880983779144e+000	 1.475562400329086e+000	 9.882973346833134e+000
 1.015671386038591e+000	 1.486072553936272e+000	 9.746009980021757e+000
 1.000369341008791e+000	 1.496416112432994e+000	 9.609617674373389e+000
 9.849775560819279e-001	 1.506591920194319e+000	 9.474126661116600e+000
 1.150294080688636e+000	 1.416844567329225e+000	 1.084122488225717e+001
 1.135604392560822e+000	 1.428645394637474e+000	 1.071646544999753e+001
 1.120802387771899e+000	 1.440287126782048e+000	 1.058962137726764e+001
 1.105890643302746e+000	 1.451768192603071e+000	 1.046103875679193e+001
 1.090871764655441e+000	 1.463087076379111e+000	 1.033106404015602e+001
 1.075748384369654e+000	 1.474242318450326e+000	 1.020004326908101e+001
 1.060523160523605e+000	 1.485232515794243e+000	 1.006832130746346e+001
 1.045198775221347e+000	 1.496056322553752e+000	 9.936241076189338e+000
 1.029777933068118e+000	 1.506712450517000e+000	 9.804142792712721e+000
 1.014263359635549e+000	 1.517199669548935e+000	 9.672363217366888e+000
 9.986577999184951e-001	 1.527516807974274e+000	 9.541234908345560e+000
 1.166051533848422e+000	 1.436253397017289e+000	 1.085350281232146e+001
 1.151160617116327e+000	 1.448215879493655e+000	 1.073443392179717e+001
 1.136155845138731e+000	 1.460017087420660e+000	 1.061302712283414e+001
 1.121039830197622e+000	 1.471655428115689e+000	 1.048962899403489e+001
 1.105815213486885e+000	 1.483129365094001e+000	 1.036458694981634e+001
 1.090484663608378e+000	 1.494437418700418e+000	 1.023824845053893e+001
 1.075050875052353e+000	 1.505578166692977e+000	 1.011096021269059e+001
 1.059516566664012e+000	 1.516550244778170e+000	 9.983067421205757e+000
 1.043884480097980e+000	 1.527352347097407e+000	 9.854912945983987e+000
 1.028157378262487e+000	 1.537983226664467e+000	 9.726836564648984e+000
 1.012338043755057e+000	 1.548441695753725e+000	 9.599174193560513e+000
 1.181808987008709e+000	 1.455662226705354e+000	 1.086632928188402e+001
 1.166716841672418e+000	 1.467786364349831e+000	 1.075199757781952e+001
 1.151509302506204e+000	 1.479747048059251e+000	 1.063507840231673e+001
 1.136189017093163e+000	 1.491542663628261e+000	 1.051591988107934e+001
 1.120758662318988e+000	 1.503171653808811e+000	 1.039487145335160e+001
 1.105220942847726e+000	 1.514632518950384e+000	 1.027228305936025e+001
 1.089578589581658e+000	 1.525923817591530e+000	 1.014850432710245e+001
 1.073834358107138e+000	 1.537044167002341e+000	 1.002388376063561e+001
 1.057991027128178e+000	 1.547992243677491e+000	 9.898767932009402e+000
 1.042051396889606e+000	 1.558766783779593e+000	 9.773500678959316e+000
 1.026018287591614e+000	 1.569366583532674e+000	 9.648422310450689e+000
 1.197566440169497e+000	 1.475071056393418e+000	 1.088002374649708e+001
 1.182273066229095e+000	 1.487356849206002e+000	 1.076949489664641e+001
 1.166862759874319e+000	 1.499477008697823e+000	 1.065613208505236e+001
 1.151338203989369e+000	 1.511429899140787e+000	 1.054028604637662e+001
 1.135702111151751e+000	 1.523213942523541e+000	 1.042230930781723e+001
 1.119957222087697e+000	 1.534827619200224e+000	 1.030255535231017e+001
 1.104106304111520e+000	 1.546269468489901e+000	 1.018137778036975e+001
 1.088152149550725e+000	 1.557538089226265e+000	 1.005912947280184e+001
 1.072097574158711e+000	 1.568632140257253e+000	 9.936161756511602e+000
 1.055945415516904e+000	 1.579550340894311e+000	 9.812823575603733e+000
 1.039698531428165e+000	 1.590291471311120e+000	 9.689460669946959e+000
 1.213323893330786e+000	 1.494479886081482e+000	 1.089492347183064e+001
 1.197829290786359e+000	 1.506927334062168e+000	 1.078728063120041e+001
 1.182216217243073e+000	 1.519206969336373e+000	 1.067655979783372e+001
 1.166487390886240e+000	 1.531317134653268e+000	 1.056311537853320e+001
 1.150645559985173e+000	 1.543256231238189e+000	 1.044730405338519e+001
 1.134693501328291e+000	 1.555022719449937e+000	 1.032948391315619e+001
 1.118634018641939e+000	 1.566615119388090e+000	 1.021001359462185e+001
 1.102469940994773e+000	 1.578032011449942e+000	 1.008925141614454e+001
 1.086204121189580e+000	 1.589272036836692e+000	 9.967554515804252e+000
 1.069839434144382e+000	 1.600333898008622e+000	 9.845277994365663e+000
 1.053378775264711e+000	 1.611216359089064e+000	 9.722774065336159e+000
 1.229081346492577e+000	 1.513888715769546e+000	 1.091138239199821e+001
 1.213385515344209e+000	 1.526497818918328e+000	 1.080572476551773e+001
 1.197569674612469e+000	 1.538936929974904e+000	 1.069674697891833e+001
 1.181636577783776e+000	 1.551204370165703e+000	 1.058480817630069e+001
 1.165589008819253e+000	 1.563298519952757e+000	 1.047027025801583e+001
 1.149429780569509e+000	 1.575217819699524e+000	 1.035349699068041e+001
 1.133161733172916e+000	 1.586960770286097e+000	 1.023485311441755e+001
 1.116787732439283e+000	 1.598525933673372e+000	 1.011470344972622e+001
 1.100310668220784e+000	 1.609911933415809e+000	 9.993412006369834e+000
 1.083733452772040e+000	 1.621117455122524e+000	 9.871341096655110e+000
 1.067059019101252e+000	 1.632141246866505e+000	 9.748850455443241e+000
 1.244838799654869e+000	 1.533297545457611e+000	 1.092977005459207e+001
 1.228941739902645e+000	 1.546068303774485e+000	 1.082521155075376e+001
 1.212923131982505e+000	 1.558666890613415e+000	 1.071709200388558e+001
 1.196785764681977e+000	 1.571091605678093e+000	 1.060577636312377e+001
 1.180532457653993e+000	 1.583340808667244e+000	 1.049163281949680e+001
 1.164166059811349e+000	 1.595412919948984e+000	 1.037503188697004e+001
 1.147689447704450e+000	 1.607306421183923e+000	 1.025634548000906e+001
 1.131105523884254e+000	 1.619019855896555e+000	 1.013594599015451e+001
 1.114417215252324e+000	 1.630551829994604e+000	 1.001420536408906e+001
 1.097627471399878e+000	 1.641901012236019e+000	 9.891494185658727e+000
 1.080739262937787e+000	 1.653066134643443e+000	 9.768180764280901e+000
 1.260596252817662e+000	 1.552706375145675e+000	 1.093659305655333e+001
 1.244497964461667e+000	 1.565638788630635e+000	 1.084613861348800e+001
 1.228276589353182e+000	 1.578396851251904e+000	 1.073800537705371e+001
 1.211934951580843e+000	 1.590978841190437e+000	 1.062644276059675e+001
 1.195475906489393e+000	 1.603383097381649e+000	 1.051182631982877e+001
 1.178902339053814e+000	 1.615608020198319e+000	 1.039453439158567e+001
 1.162217162236541e+000	 1.627652072081567e+000	 1.027494714011098e+001
 1.145423315329686e+000	 1.639513778119491e+000	 1.015344560173553e+001
 1.128523762284199e+000	 1.651191726573076e+000	 1.003041073052895e+001
 1.111521490027896e+000	 1.662684569349107e+000	 9.906222447478825e+000
 1.094419506774317e+000	 1.673991022419878e+000	 9.781258695725255e+000
 9.576170684087774e-001	 1.464742144632903e+000	 9.310511742314972e+000
 9.425682352647938e-001	 1.474471132926832e+000	 9.138816805488368e+000
 9.274374692974090e-001	 1.484034952587418e+000	 8.969979499175279e+000
 9.122274496350911e-001	 1.493432649999157e+000	 8.804301178738125e+000
 8.969408680658608e-001	 1.502663328606234e+000	 8.642074917395121e+000
 8.815804275427319e-001	 1.511726149046811e+000	 8.483584911417216e+000
 8.661488406911886e-001	 1.520620329241137e+000	 8.329105905098620e+000
 8.506488283203394e-001	 1.529345144433827e+000	 8.178902636838640e+000
 8.350831179393496e-001	 1.537899927190630e+000	 8.033229307599836e+000
 8.194544422807425e-001	 1.546284067350165e+000	 7.892329072932875e+000
 8.037655378321177e-001	 1.554497011931069e+000	 7.756433559679818e+000
 9.712973122453553e-001	 1.485667032413862e+000	 9.397375530161499e+000
 9.560334957715676e-001	 1.495535006255741e+000	 9.231388047574750e+000
 9.406865760053216e-001	 1.505235451912260e+000	 9.068009246055285e+000
 9.252592703483492e-001	 1.514767402144833e+000	 8.907548521854109e+000
 9.097543090427870e-001	 1.524129947589711e+000	 8.750307196630267e+000
 8.941744336552635e-001	 1.533322236894168e+000	 8.596577895317672e+000
 8.785223955630558e-001	 1.542343476805889e+000	 8.446643943858588e+000
 8.628009544439745e-001	 1.551192932215838e+000	 8.300778788211796e+000
 8.470128767716024e-001	 1.559869926154992e+000	 8.159245435970085e+000
 8.311609343174995e-001	 1.568373839745378e+000	 8.022295921844751e+000
 8.152479026619462e-001	 1.576704112105899e+000	 7.890170798194415e+000
 9.849775560819279e-001	 1.506591920194319e+000	 9.474126661116600e+000
 9.694987562781512e-001	 1.516598879584058e+000	 9.313238581424347e+000
 9.539356827128893e-001	 1.526435951236438e+000	 9.154725360626797e+000
 9.382910910611391e-001	 1.536102154289799e+000	 8.998905283436486e+000
 9.225677500191511e-001	 1.545596566572447e+000	 8.846088753651442e+000
 9.067684397671690e-001	 1.554918324740777e+000	 8.696577643473464e+000
 8.908959504342631e-001	 1.564066624369902e+000	 8.550664662817258e+000
 8.749530805669461e-001	 1.573040719997142e+000	 8.408632750091691e+000
 8.589426356032184e-001	 1.581839925118697e+000	 8.270754485859289e+000
 8.428674263536748e-001	 1.590463612140004e+000	 8.137291530701441e+000
 8.267302674912782e-001	 1.598911212280233e+000	 8.008494088533668e+000
 9.986577999184951e-001	 1.527516807974274e+000	 9.541234908345560e+000
 9.829640167845446e-001	 1.537662752911782e+000	 9.384842844186414e+000
 9.671847894201128e-001	 1.547636450559955e+000	 9.230606294755781e+000
 9.513229117734604e-001	 1.557436906434054e+000	 9.078853289843107e+000
 9.353811909949530e-001	 1.567063185554443e+000	 8.929904158493017e+000
 9.193624458784487e-001	 1.576514412586635e+000	 8.784070848537789e+000
 9.032695053048110e-001	 1.585789771933177e+000	 8.641656266275499e+000
 8.871052066892549e-001	 1.594888507777738e+000	 8.502953637851606e+000
 8.708723944341967e-001	 1.603809924081746e+000	 8.368245893823827e+000
 8.545739183892692e-001	 1.612553384534044e+000	 8.237805078309306e+000
 8.382126323201147e-001	 1.621118312454072e+000	 8.111891784028076e+000
 1.012338043755057e+000	 1.548441695753725e+000	 9.599174193560513e+000
 9.964292772907482e-001	 1.558726626238913e+000	 9.446678489597980e+000
 9.804338961269921e-001	 1.568836949882811e+000	 9.296132813441464e+000
 9.643547324853132e-001	 1.578771658577596e+000	 9.147875805944311e+000
 9.481946319701927e-001	 1.588529804535699e+000	 9.002238574224322e+000
 9.319564519891026e-001	 1.598110500431744e+000	 8.859543980153241e+000
 9.156430601746997e-001	 1.607512919495713e+000	 8.720105949178635e+000
 8.992573328109000e-001	 1.616736295557627e+000	 8.584228801113657e+000
 8.828021532645382e-001	 1.625779923044137e+000	 8.452206604450527e+000
 8.662804104242823e-001	 1.634643156927498e+000	 8.324322555671776e+000
 8.496949971484549e-001	 1.643325412627414e+000	 8.200848384943777e+000
 1.026018287591614e+000	 1.569366583532674e+000	 9.648422310450689e+000
 1.009894537796761e+000	 1.579790499565452e+000	 9.499226173544463e+000
 9.936830028335265e-001	 1.590037449205004e+000	 9.351787840607228e+000
 9.773865531966977e-001	 1.600106410720428e+000	 9.206457439222209e+000
 9.610080729448698e-001	 1.609996423516213e+000	 9.063577717413850e+000
 9.445504580991302e-001	 1.619706588276103e+000	 8.923483299819036e+000
 9.280166150439284e-001	 1.629236067057511e+000	 8.786499964407055e+000
 9.114094589318823e-001	 1.638584083336807e+000	 8.652943941465747e+000
 8.947319120942425e-001	 1.647749922005872e+000	 8.523121236488166e+000
 8.779869024587137e-001	 1.656732929320365e+000	 8.397326978509570e+000
 8.611773619762990e-001	 1.665532512800259e+000	 8.275844795353692e+000
 1.039698531428165e+000	 1.590291471311120e+000	 9.689460669946959e+000
 1.023359798302585e+000	 1.600854372891399e+000	 9.542969356549987e+000
 1.006932109539717e+000	 1.611237948526535e+000	 9.398056317066377e+000
 9.904183739076136e-001	 1.621441162862548e+000	 9.255084051440825e+000
 9.738215139189849e-001	 1.631463042495988e+000	 9.114407821715108e+000
 9.571444642085323e-001	 1.641302676119713e+000	 8.976374874584881e+000
 9.403901699124980e-001	 1.650959214618570e+000	 8.841323684753869e+000
 9.235615850522011e-001	 1.660431871115281e+000	 8.709583220884651e+000
 9.066616709233094e-001	 1.669719920966950e+000	 8.581472235862963e+000
 8.896933944925638e-001	 1.678822701712647e+000	 8.457298583002913e+000
 8.726597268036471e-001	 1.687739612972610e+000	 8.337358559728806e+000
 1.053378775264711e+000	 1.611216359089064e+000	 9.722774065336159e+000
 1.036825058808218e+000	 1.621918246216753e+000	 9.578394121658040e+000
 1.020181216245563e+000	 1.632438447847403e+000	 9.435425069555061e+000
 1.003450194618061e+000	 1.642775915003957e+000	 9.294242677199394e+000
 9.866349548925376e-001	 1.652929661475022e+000	 9.155215604289364e+000
 9.697384703173085e-001	 1.662898763962574e+000	 9.018704589677368e+000
 9.527637247804079e-001	 1.672682362178890e+000	 8.885061660073561e+000
 9.357137111718568e-001	 1.682279658893047e+000	 8.754629361710904e+000
 9.185914297517397e-001	 1.691689919927371e+000	 8.627740016771082e+000
 9.013998865258328e-001	 1.700912474104342e+000	 8.504715006281298e+000
 8.841420916304991e-001	 1.709946713144463e+000	 8.385864081094498e+000
 1.067059019101252e+000	 1.632141246866505e+000	 9.748850455443241e+000
 1.050290319313661e+000	 1.642982119541515e+000	 9.605989006321076e+000
 1.033430322951064e+000	 1.653638947167610e+000	 9.464382689839859e+000
 1.016482015328040e+000	 1.664110667144654e+000	 9.324421448750483e+000
 9.994483958655279e-001	 1.674396280453315e+000	 9.186488234811762e+000
 9.823324764254585e-001	 1.684494851804685e+000	 9.050958160155290e+000
 9.651372796476582e-001	 1.694405509738473e+000	 8.918197670034529e+000
 9.478658372908494e-001	 1.704127446670105e+000	 8.788563738933037e+000
 9.305211885795325e-001	 1.713659918887135e+000	 8.662403091917566e+000
 9.131063785585204e-001	 1.723002246495451e+000	 8.540051453029136e+000
 8.956244564568551e-001	 1.732153813315821e+000	 8.421832822405099e+000
 1.080739262937787e+000	 1.653066134643443e+000	 9.768180764280901e+000
 1.063755579818914e+000	 1.664045992865685e+000	 9.626244847058473e+000
 1.046679429656221e+000	 1.674839446487155e+000	 9.485419423006986e+000
 1.029513836037550e+000	 1.685445419284640e+000	 9.346109526528169e+000
 1.012261836837956e+000	 1.695862899430868e+000	 9.208713306831085e+000
 9.949264825329828e-001	 1.706090939646046e+000	 9.073621141679887e+000
 9.775108345142489e-001	 1.716128657297317e+000	 8.941214772864885e+000
 9.600179634091784e-001	 1.725975234446455e+000	 8.811866465463121e+000
 9.424509474066884e-001	 1.735629917846242e+000	 8.685938192864130e+000
 9.248128705906267e-001	 1.745092018885973e+000	 8.563780849438084e+000
 9.071068212827147e-001	 1.754360913486683e+000	 8.445733492624264e+000
 1.094419506774317e+000	 1.673991022419878e+000	 9.781258695725255e+000
 1.077220840323977e+000	 1.685109866189261e+000	 9.639654635764480e+000
 1.059928536361034e+000	 1.696039945806038e+000	 9.499027064129876e+000
 1.042545656746593e+000	 1.706780171423916e+000	 9.359797034886926e+000
 1.025075277809822e+000	 1.717329518407680e+000	 9.222378811277729e+000
 1.007520488639881e+000	 1.727687027486658e+000	 9.087178940477100e+000
 9.898843893801801e-001	 1.737851804855421e+000	 8.954595350442453e+000
 9.721700895268447e-001	 1.747823022222098e+000	 8.825016471016483e+000
 9.543807062332069e-001	 1.757599916804693e+000	 8.698820381350256e+000
 9.365193626221513e-001	 1.767181791275909e+000	 8.576373985612779e+000
 9.185891861080785e-001	 1.776568013657048e+000	 8.458032218849548e+000
 8.037655378321177e-001	 1.554497011931069e+000	 7.756433559679818e+000
 7.880191433779774e-001	 1.562538264995355e+000	 7.595134734950979e+000
 7.722179985526132e-001	 1.570407387467961e+000	 7.435951089120186e+000
 7.563648424060114e-001	 1.578103996913506e+000	 7.279068467223429e+000
 7.404624119843860e-001	 1.585627767271441e+000	 7.124663055218783e+000
 7.245134409262329e-001	 1.592978428549761e+000	 6.972901000397098e+000
 7.085206580754382e-001	 1.600155766478270e+000	 6.823938057159595e+000
 6.924867861127358e-001	 1.607159622122280e+000	 6.677919258788103e+000
 6.764145402067773e-001	 1.613989891457657e+000	 6.534978615749118e+000
 6.603066266860097e-001	 1.620646524908149e+000	 6.395238840987870e+000
 6.441657417325339e-001	 1.627129526846032e+000	 6.258811102583216e+000
 8.152479026619462e-001	 1.576704112105899e+000	 7.890170798194415e+000
 7.992765597150681e-001	 1.584860240213809e+000	 7.731206691548052e+000
 7.832496842489194e-001	 1.592841778721614e+000	 7.574731047650300e+000
 7.671700544427715e-001	 1.600648339730568e+000	 7.420937437142262e+000
 7.510404464434982e-001	 1.608279592522115e+000	 7.270009262648439e+000
 7.348636329415733e-001	 1.615735263247221e+000	 7.122119362387725e+000
 7.186423817643659e-001	 1.623015134574687e+000	 6.977429640343718e+000
 7.023794544880492e-001	 1.630119045299331e+000	 6.836090723647237e+000
 6.860776050693970e-001	 1.637046889910957e+000	 6.698241647736179e+000
 6.697395784986909e-001	 1.643798618125083e+000	 6.564009569768714e+000
 6.533681094749184e-001	 1.650374234376445e+000	 6.433509510675709e+000
 8.267302674912782e-001	 1.598911212280233e+000	 8.008494088533668e+000
 8.105339760517525e-001	 1.607182215431857e+000	 7.851539199923090e+000
 7.942813699448886e-001	 1.615276169974930e+000	 7.697453929219943e+000
 7.779752664792438e-001	 1.623192682547341e+000	 7.546440267690890e+000
 7.616184809023511e-001	 1.630931417772529e+000	 7.398689514247788e+000
 7.452138249566628e-001	 1.638492097944430e+000	 7.254381861320762e+000
 7.287641054530316e-001	 1.645874502670843e+000	 7.113686008522837e+000
 7.122721228630690e-001	 1.653078468476089e+000	 6.976758804789904e+000
 6.957406699316725e-001	 1.660103888363913e+000	 6.843744919584171e+000
 6.791725303109573e-001	 1.666950711341602e+000	 6.714776543659380e+000
 6.625704772167977e-001	 1.673618941906352e+000	 6.589973119790543e+000
 8.382126323201147e-001	 1.621118312454072e+000	 8.111891784028076e+000
 8.217913923880305e-001	 1.629504190649500e+000	 7.956615325468587e+000
 8.053130556405208e-001	 1.637710561227909e+000	 7.804597581781033e+000
 7.887804785154281e-001	 1.645737025363827e+000	 7.656049670208092e+000
 7.721965153609450e-001	 1.653583243022685e+000	 7.511171475704412e+000
 7.555640169715022e-001	 1.661248932641390e+000	 7.370151218118036e+000
 7.388858291414354e-001	 1.668733870766737e+000	 7.233165048439100e+000
 7.221647912377962e-001	 1.676037891652553e+000	 7.100376674827964e+000
 7.054037347936036e-001	 1.683160886816524e+000	 6.971937019039384e+000
 6.886054821228086e-001	 1.690102804557707e+000	 6.847983903761085e+000
 6.717728449581719e-001	 1.696863649435754e+000	 6.728641771287816e+000
 8.496949971484549e-001	 1.643325412627414e+000	 8.200848384943777e+000
 8.330488087239021e-001	 1.651826165866735e+000	 8.046913857134726e+000
 8.163447413358160e-001	 1.660144952480551e+000	 7.896635151099642e+000
 7.995856905513242e-001	 1.668281368180025e+000	 7.750233225946337e+000
 7.827745498192797e-001	 1.676235068272581e+000	 7.607917252768831e+000
 7.659142089860909e-001	 1.684005767338098e+000	 7.469884162171070e+000
 7.490075528295777e-001	 1.691593238862368e+000	 7.336318222174160e+000
 7.320574596122300e-001	 1.698997314828724e+000	 7.207390647252358e+000
 7.150667996551907e-001	 1.706217885268792e+000	 7.083259239141007e+000
 6.980384339342454e-001	 1.713254897773396e+000	 6.964068059958310e+000
 6.809752126990409e-001	 1.720108356964651e+000	 6.849947138081820e+000
 8.611773619762990e-001	 1.665532512800259e+000	 8.275844795353692e+000
 8.443062250593676e-001	 1.674148141083565e+000	 8.122909592525499e+000
 8.273764270307743e-001	 1.682579343732855e+000	 7.974035394235466e+000
 8.103909025869325e-001	 1.690825710995935e+000	 7.829453728077549e+000
 7.933525842773551e-001	 1.698886893522218e+000	 7.689383761917210e+000
 7.762644010004290e-001	 1.706762602034556e+000	 7.554031830776245e+000
 7.591292765174580e-001	 1.714452606957739e+000	 7.423590995460160e+000
 7.419501279863707e-001	 1.721956738004602e+000	 7.298240633707762e+000
 7.247298645164338e-001	 1.729274883720715e+000	 7.178146064534052e+000
 7.074713857452670e-001	 1.736406990988670e+000	 7.063458206333519e+000
 6.901775804394048e-001	 1.743353064493043e+000	 6.954313269204139e+000
 8.726597268036471e-001	 1.687739612972610e+000	 8.337358559728806e+000
 8.555636413944262e-001	 1.696470116299987e+000	 8.185073600487369e+000
 8.384081127253956e-001	 1.705013734984823e+000	 8.037262968272435e+000
 8.211961146222528e-001	 1.713370053811557e+000	 7.894169496698412e+000
 8.039306187351715e-001	 1.721538718771596e+000	 7.756023071750875e+000
 7.866145930145165e-001	 1.729519436730763e+000	 7.623040137035845e+000
 7.692510002050765e-001	 1.737311975052847e+000	 7.495423232176302e+000
 7.518427963602187e-001	 1.744916161180187e+000	 7.373360565166754e+000
 7.343929293773328e-001	 1.752331882172295e+000	 7.257025619390663e+000
 7.169043375558738e-001	 1.759559084203529e+000	 7.146576795890691e+000
 6.993799481792635e-001	 1.766597772020930e+000	 7.042157091374831e+000
 8.841420916304991e-001	 1.709946713144463e+000	 8.385864081094498e+000
 8.668210577290790e-001	 1.718792091516004e+000	 8.233873463236400e+000
 8.494397984196800e-001	 1.727448126236454e+000	 8.086778696550702e+000
 8.320013266572854e-001	 1.735914396626891e+000	 7.944834669289983e+000
 8.145086531927285e-001	 1.744190544020715e+000	 7.808282717793346e+000
 7.969647850283537e-001	 1.752276271426720e+000	 7.677350109091602e+000
 7.793727238924332e-001	 1.760171343147693e+000	 7.552249558105387e+000
 7.617354647337733e-001	 1.767875584355479e+000	 7.433178780285073e+000
 7.440559942378873e-001	 1.775388880623529e+000	 7.320320080427561e+000
 7.263372893660658e-001	 1.782711177417974e+000	 7.213839978287837e+000
 7.085823159186171e-001	 1.789842479548311e+000	 7.113888871490183e+000
 8.956244564568551e-001	 1.732153813315821e+000	 8.421832822405099e+000
 8.780784740633255e-001	 1.741114066731615e+000	 8.269773499859905e+000
 8.604714841136274e-001	 1.749882517487748e+000	 8.123039814419741e+000
 8.428065386920298e-001	 1.758458739441937e+000	 7.981899468833735e+000
 8.250866876500265e-001	 1.766842369269574e+000	 7.846605993072283e+000
 8.073149770419406e-001	 1.775033106122427e+000	 7.717398203262874e+000
 7.894944475795278e-001	 1.783030711242278e+000	 7.594499696709481e+000
 7.716281331070347e-001	 1.790835007530478e+000	 7.478118383883608e+000
 7.537190590980979e-001	 1.798445879074421e+000	 7.368446058153218e+000
 7.357702411758429e-001	 1.805863270632003e+000	 7.265658003897598e+000
 7.177846836574655e-001	 1.813087187075188e+000	 7.169912643534498e+000
 9.071068212827147e-001	 1.754360913486683e+000	 8.445733492624264e+000
 8.893358903971655e-001	 1.763436041946819e+000	 8.293234972843990e+000
 8.715031698072377e-001	 1.772316908738705e+000	 8.146500196326157e+000
 8.536117507264862e-001	 1.781003082256695e+000	 8.005810451564917e+000
 8.356647221070654e-001	 1.789494194518175e+000	 7.871432216631963e+000
 8.176651690552768e-001	 1.797789940817883e+000	 7.743616593402642e+000
 7.996161712663609e-001	 1.805890079336600e+000	 7.622598779403106e+000
 7.815208014800029e-001	 1.813794430705184e+000	 7.508597578203473e+000
 7.633821239579643e-001	 1.821502877524968e+000	 7.401814949159538e+000
 7.452031929852050e-001	 1.829015363845618e+000	 7.302435597179750e+000
 7.269870513958089e-001	 1.836331894601559e+000	 7.210626603068101e+000
 9.185891861080785e-001	 1.776568013657048e+000	 8.458032218849548e+000
 9.005933067305993e-001	 1.785758017161617e+000	 8.304716279110949e+000
 8.825348555005111e-001	 1.794751299989325e+000	 8.157610565870129e+000
 8.644169627606548e-001	 1.803547425071165e+000	 8.017010736144217e+000
 8.462427565638451e-001	 1.812146019766516e+000	 7.883196981907038e+000
 8.280153610683624e-001	 1.820546775513088e+000	 7.756433438551849e+000
 8.097378949529320e-001	 1.828749447430661e+000	 7.636967632556447e+000
 7.914134698526782e-001	 1.836753853879596e+000	 7.525029969317484e+000
 7.730451888174862e-001	 1.844559875975170e+000	 7.420833261991549e+000
 7.546361447941521e-001	 1.852167457058817e+000	 7.324572302050660e+000
 7.361894191336470e-001	 1.859576602127425e+000	 7.236423472129020e+000
 6.441657417325339e-001	 1.627129526846032e+000	 6.258811102583216e+000
 6.279945700989932e-001	 1.633438955056451e+000	 6.099127409897035e+000
 6.117957838498271e-001	 1.639574920168338e+000	 5.952163750229961e+000
 5.955720411275249e-001	 1.645537585051869e+000	 5.812173546065623e+000
 5.793259849448746e-001	 1.651327164182347e+000	 5.678174727498915e+000
 5.630602420043452e-001	 1.656943922973434e+000	 5.549402345251521e+000
 5.467774215453343e-001	 1.662388177080357e+000	 5.425114252686194e+000
 5.304801142200819e-001	 1.667660291674264e+000	 5.304592155448479e+000
 5.141708909989889e-001	 1.672760680688981e+000	 5.187142584659705e+000
 4.978523021060263e-001	 1.677689806041381e+000	 5.072097793129801e+000
 4.815268759848673e-001	 1.682448176826651e+000	 4.958816574286132e+000
 6.533681094749184e-001	 1.650374234376445e+000	 6.433509510675709e+000
 6.369659211041965e-001	 1.656773797275656e+000	 6.281122153303860e+000
 6.205357236231793e-001	 1.662997419032029e+000	 6.143293716171086e+000
 6.040802131478216e-001	 1.669045264842459e+000	 6.014780580003771e+000
 5.876020704482378e-001	 1.674917552246178e+000	 5.890446535608901e+000
 5.711039597512191e-001	 1.680614550448476e+000	 5.769490563120176e+000
 5.545885275710125e-001	 1.686136579613939e+000	 5.651137122830104e+000
 5.380584015691770e-001	 1.691484010130446e+000	 5.534637227117242e+000
 5.215161894442632e-001	 1.696657261845163e+000	 5.419269430955586e+000
 5.049644778520140e-001	 1.701656803273777e+000	 5.304340740519690e+000
 4.884058313567285e-001	 1.706483150784262e+000	 5.189187439643023e+000
 6.625704772167977e-001	 1.673618941906352e+000	 6.589973119790543e+000
 6.459372721088099e-001	 1.680108639494266e+000	 6.444756086157310e+000
 6.292756633958880e-001	 1.686419917895057e+000	 6.312856933569491e+000
 6.125883851674518e-001	 1.692552944632335e+000	 6.195356683287803e+000
 5.958781559509421e-001	 1.698507940309268e+000	 6.081936388808694e+000
 5.791476774974713e-001	 1.704285177922769e+000	 5.970055341215568e+000
 5.623996335961367e-001	 1.709884982146782e+000	 5.858902684980996e+000
 5.456366889178155e-001	 1.715307728585921e+000	 5.747696858874607e+000
 5.288614878892080e-001	 1.720553843000689e+000	 5.635686605681914e+000
 5.120766535978290e-001	 1.725623800505588e+000	 5.522151894973412e+000
 4.952847867286022e-001	 1.730518124741380e+000	 5.406404758737041e+000
 6.717728449581719e-001	 1.696863649435754e+000	 6.728641771287816e+000
 6.549086231128336e-001	 1.703443481712282e+000	 6.590461143716137e+000
 6.380156031679536e-001	 1.709842416757420e+000	 6.464816171579717e+000
 6.210965571864157e-001	 1.716060624421499e+000	 6.353327721562494e+000
 6.041542414529870e-001	 1.722098328371618e+000	 6.252103187866059e+000
 5.871913952431023e-001	 1.727955805396312e+000	 6.150586662573056e+000
 5.702107396207071e-001	 1.733633384678889e+000	 6.047930032748600e+000
 5.532149762659978e-001	 1.739131447040690e+000	 5.943317266133984e+000
 5.362067863338235e-001	 1.744450424155561e+000	 5.835965441972012e+000
 5.191888293434709e-001	 1.749590797736816e+000	 5.725125689710559e+000
 5.021637421004885e-001	 1.754553098698004e+000	 5.610084035454197e+000
 6.809752126990409e-001	 1.720108356964651e+000	 6.849947138081820e+000
 6.638799741162675e-001	 1.726778323929701e+000	 6.718660858378089e+000
 6.467555429393755e-001	 1.733264915619120e+000	 6.599175560124429e+000
 6.296047292047130e-001	 1.739568304209950e+000	 6.491572778146900e+000
 6.124303269543733e-001	 1.745688716433226e+000	 6.400397204693721e+000
 5.952351129881119e-001	 1.751626432869105e+000	 6.310565963517450e+000
 5.780218456447240e-001	 1.757381787210257e+000	 6.217729873004307e+000
 5.607932636137237e-001	 1.762955165494752e+000	 6.121036514762205e+000
 5.435520847781096e-001	 1.768347005309777e+000	 6.019669437175632e+000
 5.263010050889398e-001	 1.773557794967459e+000	 5.912849111816075e+000
 5.090426974723873e-001	 1.778588072654134e+000	 5.799833792355833e+000
 6.901775804394048e-001	 1.743353064493043e+000	 6.954313269204139e+000
 6.728513251191122e-001	 1.750113166146527e+000	 6.829770919870923e+000
 6.554954827101545e-001	 1.756687414480155e+000	 6.716341264416653e+000
 6.381129012223440e-001	 1.763075983997688e+000	 6.614120246441766e+000
 6.207064124551003e-001	 1.769279104494092e+000	 6.526260657606504e+000
 6.032788307324999e-001	 1.775297060341149e+000	 6.449466703443784e+000
 5.858329516681867e-001	 1.781130189740887e+000	 6.367805084996776e+000
 5.683715509609933e-001	 1.786778883948108e+000	 6.280385064382307e+000
 5.508973832220664e-001	 1.792243586463339e+000	 6.186354775244913e+000
 5.334131808342359e-001	 1.797524792197518e+000	 6.084902198649402e+000
 5.159216528442988e-001	 1.802623046609771e+000	 5.975256036100494e+000
 6.993799481792635e-001	 1.766597772020930e+000	 7.042157091374831e+000
 6.818226761213673e-001	 1.773448008362758e+000	 6.924199691217199e+000
 6.642354224802897e-001	 1.780109913340527e+000	 6.816711988187158e+000
 6.466210732393085e-001	 1.786583663784714e+000	 6.719804627997492e+000
 6.289824979551683e-001	 1.792869492554218e+000	 6.633567690584717e+000
 6.113225484762667e-001	 1.798967687812443e+000	 6.566754889615322e+000
 5.936440576910962e-001	 1.804878592270780e+000	 6.497651235327481e+000
 5.759498383078067e-001	 1.810602602400758e+000	 6.420886268784604e+000
 5.582426816656939e-001	 1.816140167616246e+000	 6.335570807878721e+000
 5.405253565793593e-001	 1.821491789426993e+000	 6.240858495063140e+000
 5.228006082162227e-001	 1.826658020564913e+000	 6.135946686121570e+000
 7.085823159186171e-001	 1.789842479548311e+000	 7.113888871490183e+000
 6.907940271230324e-001	 1.796782850578394e+000	 7.002348684494568e+000
 6.729753622497819e-001	 1.803532412200234e+000	 6.900679458196319e+000
 6.551292452556069e-001	 1.810091343571026e+000	 6.809006851753675e+000
 6.372585834545771e-001	 1.816459880613601e+000	 6.727436049608984e+000
 6.193662662194119e-001	 1.822638315282988e+000	 6.661889561068205e+000
 6.014551637134514e-001	 1.828626994799934e+000	 6.606757052797663e+000
 5.835281256541633e-001	 1.834426320852701e+000	 6.542056837344076e+000
 5.655879801089923e-001	 1.840036748768498e+000	 6.466860498175583e+000
 5.476375323243092e-001	 1.845458786655884e+000	 6.380285474994284e+000
 5.296795635881594e-001	 1.850692994519563e+000	 6.281495969901773e+000
 7.177846836574655e-001	 1.813087187075188e+000	 7.169912643534498e+000
 6.997653781241079e-001	 1.820117692793435e+000	 7.064612999998814e+000
 6.817153020186306e-001	 1.826954911059278e+000	 6.968628871475680e+000
 6.636374172712387e-001	 1.833599023356627e+000	 6.882101259562534e+000
 6.455346689533271e-001	 1.840050268672244e+000	 6.805150742741984e+000
 6.274099839619357e-001	 1.846308942752784e+000	 6.737877328087125e+000
 6.092662697352529e-001	 1.852375397328350e+000	 6.694604866729133e+000
 5.911064130000641e-001	 1.858250039303940e+000	 6.643407260944739e+000
 5.729332785519611e-001	 1.863933329920095e+000	 6.579760830159369e+000
 5.547497080690866e-001	 1.869425783884191e+000	 6.502744930625892e+000
 5.365585189601084e-001	 1.874727968473718e+000	 6.411488787841717e+000
 7.269870513958089e-001	 1.836331894601559e+000	 7.210626603068101e+000
 7.087367291245936e-001	 1.843452535007881e+000	 7.111381732052839e+000
 6.904552417868359e-001	 1.850377409917658e+000	 7.020939308602083e+000
 6.721455892862039e-001	 1.857106703141514e+000	 6.939456023092922e+000
 6.538107544514182e-001	 1.863640656730146e+000	 6.867068155173460e+000
 6.354537017038380e-001	 1.869979570221829e+000	 6.803891395182496e+000
 6.170773757565008e-001	 1.876123799856030e+000	 6.745832700715928e+000
 5.986847003455083e-001	 1.882073757754471e+000	 6.628848055247717e+000
 5.802785769946008e-001	 1.887829911071037e+000	 6.497985023016755e+000
 5.618618838136911e-001	 1.893392781111914e+000	 6.354472694383557e+000
 5.434374743320700e-001	 1.898762942427380e+000	 6.199460213717971e+000
 7.361894191336470e-001	 1.859576602127425e+000	 7.236423472129020e+000
 7.177080801244898e-001	 1.866787377221733e+000	 7.143038344379984e+000
 6.991951815543979e-001	 1.873799908775373e+000	 7.057984115975908e+000
 6.806537613005028e-001	 1.880614382925689e+000	 6.915531217480462e+000
 6.620868399488499e-001	 1.887231044787306e+000	 6.765143744276471e+000
 6.434974194451190e-001	 1.893650197690125e+000	 6.620559752318234e+000
 6.248884817771947e-001	 1.899872202382971e+000	 6.482083065482894e+000
 6.062629876904960e-001	 1.905897476204296e+000	 6.372707391595864e+000
 5.876238754369109e-001	 1.911726492221324e+000	 6.249676525120093e+000
 5.689740595581225e-001	 1.917359778339053e+000	 6.114304449329103e+000
 5.503164297040443e-001	 1.922797916380548e+000	 5.967821599454021e+000
 4.815268759848673e-001	 1.682448176826651e+000	 4.958816574286132e+000
 4.651971182959880e-001	 1.687036348490034e+000	 4.843891577041466e+000
 4.488655109461449e-001	 1.691454921975343e+000	 4.738150137136827e+000
 4.325345111503020e-001	 1.695704542852121e+000	 4.641040909082554e+000
 4.162065505255868e-001	 1.699785900423492e+000	 4.552033376730893e+000
 3.998840342185868e-001	 1.703699726814957e+000	 4.470618435843401e+000
 3.835693400660092e-001	 1.707446796045747e+000	 4.396308909164897e+000
 3.672648177889567e-001	 1.711027923084024e+000	 4.328639994716776e+000
 3.509727882210220e-001	 1.714443962887209e+000	 4.267169648191159e+000
 3.346955425703515e-001	 1.717695809428702e+000	 4.211478900483147e+000
 3.184353417157770e-001	 1.720784394712270e+000	 4.161172111551204e+000
 4.884058313567285e-001	 1.706483150784262e+000	 5.189187439643023e+000
 4.718427914142042e-001	 1.711136867756843e+000	 5.074859697723195e+000
 4.552778753871787e-001	 1.715618563720287e+000	 4.968588700854005e+000
 4.387135755936855e-001	 1.719928893466559e+000	 4.869795662020666e+000
 4.221523583882387e-001	 1.724068556145973e+000	 4.777924664432515e+000
 4.055966632766611e-001	 1.728038294342963e+000	 4.692443254339551e+000
 3.890489020647542e-001	 1.731838893134178e+000	 4.612842962376153e+000
 3.725114580410633e-001	 1.735471179130182e+000	 4.538639754222886e+000
 3.559866851939456e-001	 1.738936019502071e+000	 4.469374411553369e+000
 3.394769074630905e-001	 1.742234320994296e+000	 4.404612844395741e+000
 3.229844180255973e-001	 1.745367028924961e+000	 4.343946336198311e+000
 4.952847867286022e-001	 1.730518124741380e+000	 5.406404758737041e+000
 4.784884645326171e-001	 1.735237387023252e+000	 5.293656474990515e+000
 4.616902398285628e-001	 1.739782205464916e+000	 5.187810605006570e+000
 4.448926400375425e-001	 1.744153244080758e+000	 5.088259655834926e+000
 4.280981662514563e-001	 1.748351211868279e+000	 4.994421109043052e+000
 4.113092923353631e-001	 1.752376861870848e+000	 4.905738024372124e+000
 3.945284640641589e-001	 1.756230990222532e+000	 4.821679567816599e+000
 3.777580982938320e-001	 1.759914435176295e+000	 4.741741464996838e+000
 3.610005821675038e-001	 1.763428076116914e+000	 4.665446380879099e+000
 3.442582723564077e-001	 1.766772832559885e+000	 4.592344227068628e+000
 3.275334943359103e-001	 1.769949663137652e+000	 4.522012398067856e+000
 5.021637421004885e-001	 1.754553098698004e+000	 5.610084035454197e+000
 4.851341376512272e-001	 1.759337906289263e+000	 5.499928555680253e+000
 4.681026042702975e-001	 1.763945847209230e+000	 5.395492600626960e+000
 4.510717044818727e-001	 1.768377594694717e+000	 5.296138687061501e+000
 4.340439741152395e-001	 1.772633867590408e+000	 5.201256475276865e+000
 4.170219213946927e-001	 1.776715429398610e+000	 5.110263384182384e+000
 4.000080260642233e-001	 1.780623087310807e+000	 5.022605126585673e+000
 3.830047385472627e-001	 1.784357691222365e+000	 4.937756165617333e+000
 3.660144791416969e-001	 1.787920132731738e+000	 4.855220093442731e+000
 3.490396372503031e-001	 1.791311344125469e+000	 4.774529933584277e+000
 3.320825706467159e-001	 1.794532297350343e+000	 4.695248368351622e+000
 5.090426974723873e-001	 1.778588072654134e+000	 5.799833792355833e+000
 4.917798107700342e-001	 1.783438425554874e+000	 5.693315489827271e+000
 4.745149687123827e-001	 1.788109488953231e+000	 5.591304245534430e+000
 4.572507689266763e-001	 1.792601945308435e+000	 5.493131281572468e+000
 4.399897819795885e-001	 1.796916523312362e+000	 5.398157198578972e+000
 4.227345504546504e-001	 1.801053996926252e+000	 5.305772602856878e+000
 4.054875880649476e-001	 1.805015184399005e+000	 5.215398649327938e+000
 3.882513788013554e-001	 1.808800947268392e+000	 5.126487501350174e+000
 3.710283761165248e-001	 1.812412189346542e+000	 5.038522708637192e+000
 3.538210021447767e-001	 1.815849855691048e+000	 4.951019504702972e+000
 3.366316469580142e-001	 1.819114931563034e+000	 4.863525025437723e+000
 5.159216528442988e-001	 1.802623046609771e+000	 5.975256036100494e+000
 4.984254838890382e-001	 1.807538944820087e+000	 5.873450203784650e+000
 4.809273331548185e-001	 1.812273130696917e+000	 5.774908383882502e+000
 4.634298333719531e-001	 1.816826295921914e+000	 5.678929179286998e+000
 4.459355898445030e-001	 1.821199179034140e+000	 5.584842873742728e+000
 4.284471795152355e-001	 1.825392564453771e+000	 5.492012071604025e+000
 4.109671500663315e-001	 1.829407281487125e+000	 5.399832248929885e+000
 3.934980190561102e-001	 1.833244203314375e+000	 5.307732217035598e+000
 3.760422730919875e-001	 1.836904245961326e+000	 5.215174499832462e+000
 3.586023670398286e-001	 1.840388367256622e+000	 5.121655626484603e+000
 3.411807232698052e-001	 1.843697565775724e+000	 5.026706341097500e+000
 5.228006082162227e-001	 1.826658020564913e+000	 6.135946686121570e+000
 5.050711570082394e-001	 1.831639464084900e+000	 6.039959435992225e+000
 4.873396975976047e-001	 1.836436772440289e+000	 5.945961587847696e+000
 4.696088978177033e-001	 1.841050646535153e+000	 5.853217780615585e+000
 4.518813977099832e-001	 1.845481834755741e+000	 5.761026704952927e+000
 4.341598085764483e-001	 1.849731131981168e+000	 5.668721756246225e+000
 4.164467120683752e-001	 1.853799378575167e+000	 5.575671594320079e+000
 3.987446593115271e-001	 1.857687459360315e+000	 5.481280611063807e+000
 3.810561700680848e-001	 1.861396302576093e+000	 5.384989307403624e+000
 3.633837319354587e-001	 1.864926878822192e+000	 5.286274581255566e+000
 3.457297995820888e-001	 1.868280199988415e+000	 5.184649928289212e+000
 5.296795635881594e-001	 1.850692994519563e+000	 6.281495969901773e+000
 5.117168301276374e-001	 1.855739983349315e+000	 6.192464138789064e+000
 4.937520620407415e-001	 1.860600414183346e+000	 6.104114564900497e+000
 4.757879622639269e-001	 1.865274997148151e+000	 6.015676558116365e+000
 4.578272055760290e-001	 1.869764490477168e+000	 5.926415920760314e+000
 4.398724376382889e-001	 1.874069699508444e+000	 5.835635614452697e+000
 4.219262740710786e-001	 1.878191475663132e+000	 5.709755716565152e+000
 4.039912995676059e-001	 1.882130715406210e+000	 5.580241772053802e+000
 3.860700670448169e-001	 1.885888359190839e+000	 5.457723714620220e+000
 3.681650968316670e-001	 1.889465390387757e+000	 5.342357530771325e+000
 3.502788758948651e-001	 1.892862834201107e+000	 5.234212424729214e+000
 5.365585189601084e-001	 1.874727968473718e+000	 6.411488787841717e+000
 5.183625032472324e-001	 1.879840502613331e+000	 6.265299040142948e+000
 5.001644264842287e-001	 1.884764055926089e+000	 6.120664562220218e+000
 4.819670267106238e-001	 1.889499347760909e+000	 5.982058454662133e+000
 4.637730134426404e-001	 1.894047146198417e+000	 5.850130939811268e+000
 4.455850667007572e-001	 1.898408267035597e+000	 5.725438621240053e+000
 4.274058360744420e-001	 1.902583572751019e+000	 5.608444620609367e+000
 4.092379398243468e-001	 1.906573971452062e+000	 5.499518915247243e+000
 3.910839640221839e-001	 1.910380415805565e+000	 5.398938871098175e+000
 3.729464617284536e-001	 1.914003901953317e+000	 5.306889965294698e+000
 3.548279522081341e-001	 1.917445468413798e+000	 5.223466692234298e+000
 5.434374743320700e-001	 1.898762942427380e+000	 6.199460213717971e+000
 5.250081763670245e-001	 1.903941021876948e+000	 6.061847891170138e+000
 5.065767909280665e-001	 1.908927697668517e+000	 5.930686737236705e+000
 4.881460911577939e-001	 1.913723698373428e+000	 5.806777586483719e+000
 4.697188213098175e-001	 1.918329801919491e+000	 5.690823386632916e+000
 4.512976957638532e-001	 1.922746834562629e+000	 5.583429105050538e+000
 4.328853980784649e-001	 1.926975669838828e+000	 5.485101850132922e+000
 4.144845800817497e-001	 1.931017227497871e+000	 5.396251202485066e+000
 3.960978610001855e-001	 1.934872472420273e+000	 5.317189750339090e+000
 3.777278266258183e-001	 1.938542413518873e+000	 5.248133823244753e+000
 3.593770285218957e-001	 1.942028102626488e+000	 5.189204417680147e+000
 5.503164297040443e-001	 1.922797916380548e+000	 5.967821599454021e+000
 5.316538494870134e-001	 1.928041541140166e+000	 5.841416828080137e+000
 5.129891553722548e-001	 1.933091339410632e+000	 5.722713418024151e+000
 4.943251556054373e-001	 1.937948048985706e+000	 5.612571577533354e+000
 4.756646291775603e-001	 1.942612457640389e+000	 5.511749139761066e+000
 4.570103248275768e-001	 1.947085402089539e+000	 5.420901443699071e+000
 4.383649600831476e-001	 1.951367766926559e+000	 5.340581439548564e+000
 4.197312203398145e-001	 1.955460483543635e+000	 5.271240013235663e+000
 4.011117579788219e-001	 1.959364529034961e+000	 5.213226524313017e+000
 3.825091915237612e-001	 1.963080925084422e+000	 5.166789551052256e+000
 3.639261048361499e-001	 1.966610736839179e+000	 5.132077836131811e+000
 3.184353417157770e-001	 1.720784394712270e+000	 4.161172111551204e+000
 3.021944155378737e-001	 1.723710687775430e+000	 4.100211142292572e+000
 2.859749622825958e-001	 1.726475693682788e+000	 4.049547740359170e+000
 2.697791479589111e-001	 1.729080452510761e+000	 4.008836797187136e+000
 2.536091057720337e-001	 1.731526038325072e+000	 3.977752276314387e+000
 2.374669355897515e-001	 1.733813558151911e+000	 3.955987290693797e+000
 2.213547034424480e-001	 1.735944150944025e+000	 3.943254128854521e+000
 2.052744410566011e-001	 1.737918986542895e+000	 3.939284231636408e+000
 1.892281454215084e-001	 1.739739264638118e+000	 3.943828121300384e+000
 1.732177783889451e-001	 1.741406213725087e+000	 3.956655284886653e+000
 1.572452663054261e-001	 1.742921090062064e+000	 3.977554013755047e+000
 3.229844180255973e-001	 1.745367028924961e+000	 4.343946336198311e+000
 3.065114786173200e-001	 1.748335126174922e+000	 4.272416312927308e+000
 2.900603188875702e-001	 1.751139632166796e+000	 4.208668374934481e+000
 2.736331357883021e-001	 1.753781601835235e+000	 4.152358430333258e+000
 2.572320929990909e-001	 1.756262124589759e+000	 4.103164290318881e+000
 2.408593203858374e-001	 1.758582323271217e+000	 4.060785696062995e+000
 2.245169134936457e-001	 1.760743353103111e+000	 4.024944291130209e+000
 2.082069330736590e-001	 1.762746400638945e+000	 3.995383541322300e+000
 1.919314046435947e-001	 1.764592682706737e+000	 3.971868603940865e+000
 1.756923180816831e-001	 1.766283445351817e+000	 3.954186148526782e+000
 1.594916272536765e-001	 1.767819962778993e+000	 3.942144131199244e+000
 3.275334943359103e-001	 1.769949663137652e+000	 4.522012398067856e+000
 3.108285416971643e-001	 1.772959564574414e+000	 4.440371881824652e+000
 2.941456754928580e-001	 1.775803570650804e+000	 4.363994694874096e+000
 2.774871236179322e-001	 1.778482751159709e+000	 4.292536907498494e+000
 2.608550802263234e-001	 1.780998210854445e+000	 4.225679372071000e+000
 2.442517051820447e-001	 1.783351088390523e+000	 4.163127699468439e+000
 2.276791235449207e-001	 1.785542555262198e+000	 4.104612177588658e+000
 2.111394250907602e-001	 1.787573814734995e+000	 4.049887634067271e+000
 1.946346638657002e-001	 1.789446100775357e+000	 3.998733245371104e+000
 1.781668577744259e-001	 1.791160676978547e+000	 3.950952294519233e+000
 1.617379882019268e-001	 1.792718835495921e+000	 3.906371879745481e+000
 3.320825706467159e-001	 1.794532297350343e+000	 4.695248368351622e+000
 3.151456047774062e-001	 1.797584002973905e+000	 4.603984123650069e+000
 2.982310320984593e-001	 1.800467509134812e+000	 4.515458601971417e+000
 2.813411114478016e-001	 1.803183900484183e+000	 4.429327183979033e+000
 2.644780674537312e-001	 1.805734297119132e+000	 4.345272961369550e+000
 2.476440899783732e-001	 1.808119853509829e+000	 4.263006662704114e+000
 2.308413335962732e-001	 1.810341757421284e+000	 4.182266517837685e+000
 2.140719171079049e-001	 1.812401228831045e+000	 4.102818063230356e+000
 1.973379230878249e-001	 1.814299518843976e+000	 4.024453890510787e+000
 1.806413974671735e-001	 1.816037908605277e+000	 3.946993340737501e+000
 1.639843491501772e-001	 1.817617708212850e+000	 3.870282146865745e+000
 3.366316469580142e-001	 1.819114931563034e+000	 4.863525025437723e+000
 3.194626678580462e-001	 1.822208441373398e+000	 4.763151646938345e+000
 3.023163887043739e-001	 1.825131447618820e+000	 4.662984051664606e+000
 2.851950992779102e-001	 1.827885049808657e+000	 4.562676080875928e+000
 2.681010546813142e-001	 1.830470383383819e+000	 4.461912267602096e+000
 2.510364747748229e-001	 1.832888618629136e+000	 4.360407711760047e+000
 2.340035436477032e-001	 1.835140959580372e+000	 4.257907890269493e+000
 2.170044091250931e-001	 1.837228642927095e+000	 4.154188404644220e+000
 2.000411823099688e-001	 1.839152936912596e+000	 4.049054668626602e+000
 1.831159371599259e-001	 1.840915140232007e+000	 3.942341538506150e+000
 1.662307100984275e-001	 1.842516580929779e+000	 3.833912888830768e+000
 3.411807232698052e-001	 1.843697565775724e+000	 5.026706341097500e+000
 3.237797309390840e-001	 1.846832879772890e+000	 4.917765905168852e+000
 3.064017453106021e-001	 1.849795386102829e+000	 4.806487582793569e+000
 2.890490871082581e-001	 1.852586199133131e+000	 4.692522827374631e+000
 2.717240419090724e-001	 1.855206469648505e+000	 4.575556818439435e+000
 2.544288595713941e-001	 1.857657383748441e+000	 4.455308285875890e+000
 2.371657536992104e-001	 1.859940161739458e+000	 4.331529265474541e+000
 2.199369011423246e-001	 1.862056057023146e+000	 4.204004788450123e+000
 2.027444415321320e-001	 1.864006354981216e+000	 4.072552507708853e+000
 1.855904768526831e-001	 1.865792371858737e+000	 3.937022263703881e+000
 1.684770710466778e-001	 1.867415453646707e+000	 3.797295592790312e+000
 3.457297995820888e-001	 1.868280199988415e+000	 5.184649928289212e+000
 3.280967940205198e-001	 1.871457318172382e+000	 5.067711667493117e+000
 3.104871019171435e-001	 1.874459324586836e+000	 4.945878805533748e+000
 2.929030749388453e-001	 1.877287348457605e+000	 4.817142732383648e+000
 2.753470291370059e-001	 1.879942555913192e+000	 4.691331642176408e+000
 2.578212443680865e-001	 1.882426148867748e+000	 4.569410346407316e+000
 2.403279637507950e-001	 1.884739363898545e+000	 4.450979618082640e+000
 2.228693931595993e-001	 1.886883471119196e+000	 4.335567906409358e+000
 2.054477007543144e-001	 1.888859773049835e+000	 4.222633285999286e+000
 1.880650165454450e-001	 1.890669603485467e+000	 4.111565512434460e+000
 1.707234319949282e-001	 1.892314326363635e+000	 4.001688176723245e+000
 3.502788758948651e-001	 1.892862834201107e+000	 5.234212424729214e+000
 3.324138571023533e-001	 1.896081756571874e+000	 5.121327465459298e+000
 3.145724585239986e-001	 1.899123263070844e+000	 5.013402112253865e+000
 2.967570627696717e-001	 1.901988497782079e+000	 4.910283534295618e+000
 2.789700163651145e-001	 1.904678642177878e+000	 4.811738305453915e+000
 2.612136291649003e-001	 1.907194913987054e+000	 4.717454021852313e+000
 2.434901738024571e-001	 1.909538566057632e+000	 4.627041053642492e+000
 2.258018851769177e-001	 1.911710885215246e+000	 4.540034423522411e+000
 2.081509599765160e-001	 1.913713191118455e+000	 4.455895804414985e+000
 1.905395562382118e-001	 1.915546835112197e+000	 4.374015628628830e+000
 1.729697929431785e-001	 1.917213199080564e+000	 4.293715300753267e+000
 3.548279522081341e-001	 1.917445468413798e+000	 5.223466692234298e+000
 3.367309201845848e-001	 1.920706194971366e+000	 5.136582511288549e+000
 3.186578151311670e-001	 1.923787201554852e+000	 5.055105149978267e+000
 3.006110506007374e-001	 1.926689647106553e+000	 4.978901238530710e+000
 2.825930035933985e-001	 1.929414728442565e+000	 4.907753520646574e+000
 2.646060139618354e-001	 1.931963679106360e+000	 4.841362504663508e+000
 2.466523838541966e-001	 1.934337768216718e+000	 4.779348255046251e+000
 2.287343771942794e-001	 1.936538299311297e+000	 4.721252316474076e+000
 2.108542191987369e-001	 1.938566609187074e+000	 4.666539762668285e+000
 1.930140959309833e-001	 1.940424066738927e+000	 4.614601362001772e+000
 1.752161538914289e-001	 1.942112071797492e+000	 4.564755851856154e+000
 3.593770285218957e-001	 1.942028102626488e+000	 5.189204417680147e+000
 3.410479832672141e-001	 1.945330633370858e+000	 5.128040171111099e+000
 3.227431717386489e-001	 1.948451140038860e+000	 5.072853904231220e+000
 3.044650384320423e-001	 1.951390796431027e+000	 5.023532298123883e+000
 2.862159908218576e-001	 1.954150814707252e+000	 4.979874698827495e+000
 2.679983987588918e-001	 1.956732444225666e+000	 4.941594804171861e+000
 2.498145939060134e-001	 1.959136970375805e+000	 4.908322497274278e+000
 2.316668692116844e-001	 1.961365713407346e+000	 4.879605818688871e+000
 2.135574784209770e-001	 1.963420027255694e+000	 4.854913069069514e+000
 1.954886356237597e-001	 1.965301298365657e+000	 4.833635034093676e+000
 1.774625148396792e-001	 1.967010944514421e+000	 4.815087323323794e+000
 3.639261048361499e-001	 1.966610736839179e+000	 5.132077836131811e+000
 3.453650463502414e-001	 1.969955071770350e+000	 5.096311648036398e+000
 3.268285283464441e-001	 1.973115078522868e+000	 5.067219156576444e+000
 3.083190262635864e-001	 1.976091945755501e+000	 5.044707715538292e+000
 2.898389780504919e-001	 1.978886900971938e+000	 5.028593736025834e+000
 2.713907835560694e-001	 1.981501209344972e+000	 5.018604411050609e+000
 2.529768039579077e-001	 1.983936172534892e+000	 5.014379593329842e+000
 2.345993612291328e-001	 1.986193127503396e+000	 5.015473818000542e+000
 2.162607376432362e-001	 1.988273445324313e+000	 5.021358461813980e+000
 1.979631753165408e-001	 1.990178529992387e+000	 5.031424030258674e+000
 1.797088757879294e-001	 1.991909817231349e+000	 5.044982563979959e+000
 1.572452663054261e-001	 1.742921090062064e+000	 3.977554013755047e+000
 1.413124996760967e-001	 1.744285176627427e+000	 3.988599499682364e+000
 1.254213328617058e-001	 1.745499782078859e+000	 4.006572027697921e+000
 1.095735838069922e-001	 1.746566239714984e+000	 4.031360907288691e+000
 9.377103379879290e-002	 1.747485906439909e+000	 4.062873156396108e+000
 7.801542725524854e-002	 1.748260161732354e+000	 4.101033109312472e+000
 6.230847154497145e-002	 1.748890406620027e+000	 4.145781994341919e+000
 4.665183683563836e-002	 1.749378062660108e+000	 4.197077483384754e+000
 3.104715597144734e-002	 1.749724570926687e+000	 4.254893215599505e+000
 1.549602437885631e-002	 1.749931391005967e+000	 4.319218297287406e+000
 0.000000000000000e+000	 1.750000000000000e+000	 4.390056780124459e+000
 1.594916272536765e-001	 1.767819962778993e+000	 3.942144131199244e+000
 1.433312496720404e-001	 1.769203536294951e+000	 3.920370683102800e+000
 1.272130661884947e-001	 1.770435493252530e+000	 3.904498356119942e+000
 1.111389207184165e-001	 1.771517185997479e+000	 3.894422746753207e+000
 9.511061999559660e-002	 1.772449990818245e+000	 3.890058637777289e+000
 7.912993335843424e-002	 1.773235306900391e+000	 3.891339566485613e+000
 6.319859256652100e-002	 1.773874555286303e+000	 3.898217361138790e+000
 4.731829164707111e-002	 1.774369177841121e+000	 3.910661647907225e+000
 3.149068677062747e-002	 1.774720636225708e+000	 3.928659330594040e+000
 1.571739615545374e-002	 1.774930410877497e+000	 3.952214045413105e+000
 0.000000000000000e+000	 1.775000000000000e+000	 3.981345593075250e+000
 1.617379882019268e-001	 1.792718835495921e+000	 3.906371879745481e+000
 1.453499996679842e-001	 1.794121895962475e+000	 3.851836300771128e+000
 1.290047995152837e-001	 1.795371204426202e+000	 3.802129337855571e+000
 1.127042576298407e-001	 1.796468132279973e+000	 3.757153003678194e+000
 9.645020619240032e-002	 1.797414075196582e+000	 3.716830030687460e+000
 8.024443946161992e-002	 1.798210452068428e+000	 3.681103398257769e+000
 6.408871358807056e-002	 1.798858703952579e+000	 3.649935826434545e+000
 4.798474645850386e-002	 1.799360293022134e+000	 3.623309238698213e+000
 3.193421756980761e-002	 1.799716701524729e+000	 3.601224196168760e+000
 1.593876793205117e-002	 1.799929430749029e+000	 3.583699305659317e+000
 0.000000000000000e+000	 1.800000000000000e+000	 3.570770603966576e+000
 1.639843491501772e-001	 1.817617708212850e+000	 3.870282146865745e+000
 1.473687496639280e-001	 1.819040255629999e+000	 3.783057843578359e+000
 1.307965328420726e-001	 1.820306915599874e+000	 3.699542115662554e+000
 1.142695945412649e-001	 1.821419078562467e+000	 3.619643519906064e+000
 9.778979238920400e-002	 1.822378159574919e+000	 3.543292923037673e+000
 8.135894556480561e-002	 1.823185597236464e+000	 3.470442986331110e+000
 6.497883460962012e-002	 1.823842852618855e+000	 3.401067615134067e+000
 4.865120126993660e-002	 1.824351408203147e+000	 3.335161375891864e+000
 3.237774836898775e-002	 1.824712766823750e+000	 3.272738883229582e+000
 1.616013970864860e-002	 1.824928450620560e+000	 3.213834159638580e+000
 0.000000000000000e+000	 1.825000000000000e+000	 3.158499970294212e+000
 1.662307100984275e-001	 1.842516580929779e+000	 3.833912888830768e+000
 1.493874996598718e-001	 1.843958615297522e+000	 3.714089644742404e+000
 1.325882661688616e-001	 1.845242626773545e+000	 3.596806450353501e+000
 1.158349314526892e-001	 1.846370024844962e+000	 3.481978533327665e+000
 9.912937858600771e-002	 1.847342243953256e+000	 3.369545079108292e+000
 8.247345166799128e-002	 1.848160742404501e+000	 3.259468671486519e+000
 6.586895563116967e-002	 1.848827001285130e+000	 3.151734696376785e+000
 4.931765608136935e-002	 1.849342523384160e+000	 3.046350711514899e+000
 3.282127916816788e-002	 1.849708832122771e+000	 2.943345784788883e+000
 1.638151148524603e-002	 1.849927470492090e+000	 2.842769803891049e+000
 0.000000000000000e+000	 1.850000000000000e+000	 2.744692759959519e+000
 1.684770710466778e-001	 1.867415453646707e+000	 3.797295592790312e+000
 1.514062496558155e-001	 1.868876974965046e+000	 3.644979356986315e+000
 1.343799994956505e-001	 1.870178337947216e+000	 3.493985212926001e+000
 1.174002683641134e-001	 1.871320971127456e+000	 3.344235184812107e+000
 1.004689647828114e-001	 1.872306328331592e+000	 3.195676961124319e+000
 8.358795777117696e-002	 1.873135887572538e+000	 3.048283289645090e+000
 6.675907665271923e-002	 1.873811149951406e+000	 2.902051333920886e+000
 4.998411089280209e-002	 1.874333638565173e+000	 2.757001994026796e+000
 3.326480996734802e-002	 1.874704897421792e+000	 2.613179194491757e+000
 1.660288326184346e-002	 1.874926490363621e+000	 2.470649142222974e+000
 0.000000000000000e+000	 1.875000000000000e+000	 2.329499557242480e+000
 1.707234319949282e-001	 1.892314326363635e+000	 4.001688176723245e+000
 1.534249996517593e-001	 1.893795334632570e+000	 3.884935494793955e+000
 1.361717328224395e-001	 1.895114049120888e+000	 3.774682170856058e+000
 1.189656052755377e-001	 1.896271917409951e+000	 3.669997955161562e+000
 1.018085509796151e-001	 1.897270412709929e+000	 3.569891673109767e+000
 8.470246387436264e-002	 1.898111032740574e+000	 3.473313923217005e+000
 6.764919767426876e-002	 1.898795298617682e+000	 3.379159829760179e+000
 5.065056570423484e-002	 1.899324753746186e+000	 3.286271842580965e+000
 3.370834076652816e-002	 1.899700962720813e+000	 3.193442576653152e+000
 1.682425503844089e-002	 1.899925510235152e+000	 3.099417684153388e+000
 0.000000000000000e+000	 1.900000000000000e+000	 3.002898751929852e+000
 1.729697929431785e-001	 1.917213199080564e+000	 4.293715300753267e+000
 1.554437496477031e-001	 1.918713694300094e+000	 4.207630233697289e+000
 1.379634661492284e-001	 1.920049760294560e+000	 4.129579713222650e+000
 1.205309421869620e-001	 1.921222863692446e+000	 4.058605499278919e+000
 1.031481371764188e-001	 1.922234497088265e+000	 3.993685183338270e+000
 8.581696997754833e-002	 1.923086177908611e+000	 3.933734996973389e+000
 6.853931869581832e-002	 1.923779447283957e+000	 3.877612678172381e+000
 5.131702051566758e-002	 1.924315868927198e+000	 3.824120387547408e+000
 3.415187156570829e-002	 1.924697028019833e+000	 3.772007666718390e+000
 1.704562681503832e-002	 1.924924530106682e+000	 3.719974431292807e+000
 0.000000000000000e+000	 1.925000000000000e+000	 3.666673991023498e+000
 1.752161538914289e-001	 1.942112071797492e+000	 4.564755851856154e+000
 1.574624996436468e-001	 1.943632053967618e+000	 4.510075585752952e+000
 1.397551994760174e-001	 1.944985471468231e+000	 4.465058389763145e+000
 1.220962790983862e-001	 1.946173809974940e+000	 4.428717556738126e+000
 1.044877233732226e-001	 1.947198581466602e+000	 4.399998850194631e+000
 8.693147608073400e-002	 1.948061323076647e+000	 4.377783426711923e+000
 6.942943971736786e-002	 1.948763595950233e+000	 4.360890819235412e+000
 5.198347532710035e-002	 1.949306984108212e+000	 4.348081973107791e+000
 3.459540236488842e-002	 1.949693093318854e+000	 4.338062326775241e+000
 1.726699859163575e-002	 1.949923549978214e+000	 4.329484929262867e+000
 0.000000000000000e+000	 1.950000000000000e+000	 4.320953586676640e+000
 1.774625148396792e-001	 1.967010944514421e+000	 4.815087323323794e+000
 1.594812496395906e-001	 1.968550413635142e+000	 4.792525004588017e+000
 1.415469328028063e-001	 1.969921182641903e+000	 4.781349506763813e+000
 1.236616160098104e-001	 1.971124756257434e+000	 4.780545178559729e+000
 1.058273095700262e-001	 1.972162665844939e+000	 4.789025359269211e+000
 8.804598218391967e-002	 1.973036468244684e+000	 4.805635418243377e+000
 7.031956073891740e-002	 1.973747744616508e+000	 4.829155858550524e+000
 5.264993013853308e-002	 1.974298099289225e+000	 4.858305476297245e+000
 3.503893316406856e-002	 1.974689158617875e+000	 4.891744567215415e+000
 1.748837036823317e-002	 1.974922569849744e+000	 4.928078172271675e+000
 0.000000000000000e+000	 1.975000000000000e+000	 4.965859354224648e+000
 1.797088757879294e-001	 1.991909817231349e+000	 5.044982563979959e+000
 1.614999996355343e-001	 1.993468773302665e+000	 5.055227147606742e+000
 1.433386661295952e-001	 1.994856893815574e+000	 5.078679424007878e+000
 1.252269529212347e-001	 1.996075702539929e+000	 5.114294320498975e+000
 1.071668957668299e-001	 1.997126750223276e+000	 5.160952153684280e+000
 8.916048828710535e-002	 1.998011613412721e+000	 5.217461789307907e+000
 7.120968176046696e-002	 1.998731893282784e+000	 5.282563869685059e+000
 5.331638494996584e-002	 1.999289214470238e+000	 5.354934099830730e+000
 3.548246396324870e-002	 1.999685223916897e+000	 5.433186583536793e+000
 1.770974214483060e-002	 1.999921589721275e+000	 5.515877200807332e+000
 0.000000000000000e+000	 2.000000000000000e+000	 5.601507018236080e+000
 2.000000000000000e+000	 0.000000000000000e+000	 1.227295439540870e+001
 1.999921589721275e+000	 1.770974214483003e-002	 1.230691205630854e+001
 1.999685223916896e+000	 3.548246396324820e-002	 1.233742551689576e+001
 1.999289214470237e+000	 5.331638494996539e-002	 1.236418426722462e+001
 1.998731893282784e+000	 7.120968176046656e-002	 1.238688524989888e+001
 1.998011613412721e+000	 8.916048828710502e-002	 1.240523335833790e+001
 1.997126750223276e+000	 1.071668957668297e-001	 1.241894193005587e+001
 1.996075702539929e+000	 1.252269529212345e-001	 1.242773323379798e+001
 1.994856893815574e+000	 1.433386661295951e-001	 1.243133894935848e+001
 1.993468773302665e+000	 1.614999996355342e-001	 1.242950063888966e+001
 1.991909817231349e+000	 1.797088757879295e-001	 1.242197020849726e+001
 2.025000000000000e+000	 0.000000000000000e+000	 1.222648123957971e+001
 2.024920609592803e+000	 1.793111392142746e-002	 1.225611602910195e+001
 2.024681289215908e+000	 3.592599476242833e-002	 1.228241286767741e+001
 2.024280329651229e+000	 5.398283976139813e-002	 1.230507125729584e+001
 2.023716041949021e+000	 7.209980278201611e-002	 1.232379860010265e+001
 2.022986758580697e+000	 9.027499439029069e-002	 1.233831069825852e+001
 2.022090834601524e+000	 1.085064819636334e-001	 1.234833224798970e+001
 2.021026648822303e+000	 1.267922898326587e-001	 1.235359732663745e+001
 2.019792604989089e+000	 1.451303994563840e-001	 1.235384987149611e+001
 2.018387132969990e+000	 1.635187496314780e-001	 1.234884414921471e+001
 2.016808689948031e+000	 1.819552367361798e-001	 1.233834521452417e+001
 2.050000000000000e+000	 0.000000000000000e+000	 1.218032644937305e+001
 2.049919629464327e+000	 1.815248569802488e-002	 1.220629739022920e+001
 2.049677354514900e+000	 3.636952556160845e-002	 1.222901542027098e+001
 2.049271444832177e+000	 5.464929457283087e-002	 1.224818969038311e+001
 2.048700190615181e+000	 7.298992380356564e-002	 1.226353771488458e+001
 2.047961903748552e+000	 9.138950049347637e-002	 1.227478587361891e+001
 2.047054918979599e+000	 1.098460681604371e-001	 1.228166990740209e+001
 2.045977595104440e+000	 1.283576267440829e-001	 1.228393540559919e+001
 2.044728316162292e+000	 1.469221327831730e-001	 1.228133828458266e+001
 2.043305492636919e+000	 1.655374996274218e-001	 1.227364525581113e+001
 2.041707562664222e+000	 1.842015976844301e-001	 1.226063428225609e+001
 2.075000000000000e+000	 0.000000000000000e+000	 1.213463701047774e+001
 2.074918649335845e+000	 1.837385747462230e-002	 1.215757779011052e+001
 2.074673419813873e+000	 3.681305636078857e-002	 1.217732952120363e+001
 2.074262560013082e+000	 5.531574938426360e-002	 1.219361065171712e+001
 2.073684339281263e+000	 7.388004482511519e-002	 1.220614847228565e+001
 2.072937048916287e+000	 9.250400659666204e-002	 1.221467962117433e+001
 2.072019003357499e+000	 1.111856543572408e-001	 1.221895058174814e+001
 2.070928541386338e+000	 1.299229636555072e-001	 1.221871817118638e+001
 2.069664027335182e+000	 1.487138661099619e-001	 1.221375001915754e+001
 2.068223852303450e+000	 1.675562496233655e-001	 1.220382503515575e+001
 2.066606435379921e+000	 1.864479586326804e-001	 1.218873386318984e+001
 2.100000000000000e+000	 0.000000000000000e+000	 1.208955290926422e+001
 2.099917669207360e+000	 1.859522925121972e-002	 1.211007284868490e+001
 2.099669485112827e+000	 3.725658715996871e-002	 1.212744644134846e+001
 2.099253675193943e+000	 5.598220419569634e-002	 1.214140109117902e+001
 2.098668487947270e+000	 7.477016584666474e-002	 1.215167354026573e+001
 2.097912194083901e+000	 9.361851269984770e-002	 1.215801037731774e+001
 2.096983087735225e+000	 1.125252405540445e-001	 1.216016853777615e+001
 2.095879487667998e+000	 1.314883005669314e-001	 1.215791579427441e+001
 2.094599738507760e+000	 1.505055994367509e-001	 1.215103123612272e+001
 2.093142211969584e+000	 1.695749996193093e-001	 1.213930573647853e+001
 2.091505308095129e+000	 1.886943195809308e-001	 1.212254240585676e+001
 2.125000000000000e+000	 0.000000000000000e+000	 1.204520754450909e+001
 2.124916689078869e+000	 1.881660102781714e-002	 1.206389251014422e+001
 2.124665550411762e+000	 3.770011795914884e-002	 1.207945267449239e+001
 2.124244790374762e+000	 5.664865900712907e-002	 1.209162406655618e+001
 2.123652636613199e+000	 7.566028686821429e-002	 1.210015256553188e+001
 2.122887339251394e+000	 9.473301880303341e-002	 1.210479441339522e+001
 2.121947172112776e+000	 1.138648267508482e-001	 1.210531671827510e+001
 2.120830433949419e+000	 1.330536374783557e-001	 1.210149794726562e+001
 2.119535449680023e+000	 1.522973327635398e-001	 1.209312840730968e+001
 2.118060571635321e+000	 1.715937496152530e-001	 1.208001071277708e+001
 2.116404180809845e+000	 1.909406805291811e-001	 1.206196023835016e+001
 2.150000000000000e+000	 0.000000000000000e+000	 1.200172811039464e+001
 2.149915708950374e+000	 1.903797280441457e-002	 1.201914137291862e+001
 2.149661615710677e+000	 3.814364875832895e-002	 1.203343021507374e+001
 2.149235905555537e+000	 5.731511381856181e-002	 1.204433896982680e+001
 2.148636785279050e+000	 7.655040788976383e-002	 1.205162234919263e+001
 2.147862484418765e+000	 9.584752490621905e-002	 1.205504596158078e+001
 2.146911256490152e+000	 1.152044129476518e-001	 1.205438681904907e+001
 2.145781380230602e+000	 1.346189743897799e-001	 1.204943383307010e+001
 2.144471160851976e+000	 1.540890660903287e-001	 1.203998829740207e+001
 2.142978931300662e+000	 1.736124996111968e-001	 1.202586435664409e+001
 2.141303053524069e+000	 1.931870414774315e-001	 1.200688945904843e+001
 2.175000000000000e+000	 0.000000000000000e+000	 1.195923595309484e+001
 2.174914728821873e+000	 1.925934458101199e-002	 1.197591899690419e+001
 2.174657681009575e+000	 3.858717955750909e-002	 1.198945681676543e+001
 2.174227020736269e+000	 5.798156862999455e-002	 1.199960173783857e+001
 2.173620933944825e+000	 7.744052891131338e-002	 1.200611701029805e+001
 2.172837629586016e+000	 9.696203100940472e-002	 1.200877733207023e+001
 2.171875340867353e+000	 1.165439991444556e-001	 1.200736936058292e+001
 2.170732326511546e+000	 1.361843113012042e-001	 1.200169221208814e+001
 2.169406872023616e+000	 1.558807994171177e-001	 1.199155794710519e+001
 2.167897290965605e+000	 1.756312496071405e-001	 1.197679204052054e+001
 2.166201926237801e+000	 1.954334024256818e-001	 1.195723383487450e+001
 2.199999999999999e+000	 0.000000000000000e+000	 1.191784690304843e+001
 2.199913748693369e+000	 1.948071635760941e-002	 1.193432018974321e+001
 2.199653746308452e+000	 3.903071035668922e-002	 1.194760623342762e+001
 2.199218135916958e+000	 5.864802344142729e-002	 1.195746504862290e+001
 2.198605082610522e+000	 7.833064993286290e-002	 1.196366813822950e+001
 2.197812774753146e+000	 9.807653711259042e-002	 1.196599902228440e+001
 2.196839425244380e+000	 1.178835853412592e-001	 1.196425375482191e+001
 2.195683272792251e+000	 1.377496482126284e-001	 1.195824142735280e+001
 2.194342583194942e+000	 1.576725327439066e-001	 1.194778465746290e+001
 2.192815650630152e+000	 1.776499996030843e-001	 1.193272006102249e+001
 2.191100798951041e+000	 1.976797633739321e-001	 1.191289870649223e+001
 2.224999999999999e+000	 0.000000000000000e+000	 1.187767158483179e+001
 2.224912768564859e+000	 1.970208813420683e-002	 1.189443527380482e+001
 2.224649811607310e+000	 3.947424115586935e-002	 1.190794844381627e+001
 2.224209251097604e+000	 5.931447825286004e-002	 1.191797850447446e+001
 2.223589231276142e+000	 7.922077095441245e-002	 1.192430493481581e+001
 2.222787919920156e+000	 9.919104321577607e-002	 1.192671981871048e+001
 2.221803509621232e+000	 1.192231715380629e-001	 1.192502836744914e+001
 2.220634219072718e+000	 1.393149851240526e-001	 1.191904942797746e+001
 2.219278294365958e+000	 1.594642660706956e-001	 1.190861597523183e+001
 2.217734010294301e+000	 1.796687495990280e-001	 1.189357558702108e+001
 2.215999671663790e+000	 1.999261243221825e-001	 1.187379089989397e+001
 2.250000000000000e+000	 0.000000000000000e+000	 1.183881570637343e+001
 2.249911788436345e+000	 1.992345991080426e-002	 1.185635033536682e+001
 2.249645876906150e+000	 3.991777195504948e-002	 1.187054986131111e+001
 2.249200366278207e+000	 5.998093306429280e-002	 1.188118880282549e+001
 2.248573379941687e+000	 8.011089197596204e-002	 1.188805434697509e+001
 2.247763065087045e+000	 1.003055493189618e-001	 1.189094689195385e+001
 2.246767593997911e+000	 1.205627577348667e-001	 1.188968057601126e+001
 2.245585165352948e+000	 1.408803220354769e-001	 1.188408379104033e+001
 2.244214005536660e+000	 1.612559993974846e-001	 1.187399967923074e+001
 2.242652369958055e+000	 1.816874995949719e-001	 1.185928661118394e+001
 2.240898544376048e+000	 2.021724852704328e-001	 1.183981864388225e+001
 1.991909817231349e+000	 1.797088757879295e-001	 1.242197020849726e+001
 1.990178529992387e+000	 1.979631753165402e-001	 1.246209180301948e+001
 1.988273445324313e+000	 2.162607376432357e-001	 1.249789049766762e+001
 1.986193127503396e+000	 2.345993612291324e-001	 1.252918685289621e+001
 1.983936172534892e+000	 2.529768039579074e-001	 1.255581274009146e+001
 1.981501209344972e+000	 2.713907835560692e-001	 1.257761168473914e+001
 1.978886900971938e+000	 2.898389780504917e-001	 1.259443919221889e+001
 1.976091945755501e+000	 3.083190262635864e-001	 1.260616305509694e+001
 1.973115078522868e+000	 3.268285283464442e-001	 1.261266364080710e+001
 1.969955071770350e+000	 3.453650463502415e-001	 1.261383415863453e+001
 1.966610736839180e+000	 3.639261048361500e-001	 1.260958090494269e+001
 2.016808689948031e+000	 1.819552367361798e-001	 1.233834521452417e+001
 2.015055761618825e+000	 2.004377150093213e-001	 1.237681220689374e+001
 2.013126863392606e+000	 2.189639968654950e-001	 1.241100350260171e+001
 2.011020541599093e+000	 2.375318532465809e-001	 1.244074916861633e+001
 2.008735374693610e+000	 2.561390140098016e-001	 1.246589105911684e+001
 2.006269974463903e+000	 2.747831683532467e-001	 1.248628315627972e+001
 2.003622987236254e+000	 2.934619652791262e-001	 1.250179189262775e+001
 2.000793095079617e+000	 3.121730140951304e-001	 1.251229645378441e+001
 1.997779017006543e+000	 3.309138849542394e-001	 1.251768906049659e+001
 1.994579510169543e+000	 3.496821094332687e-001	 1.251787522881437e+001
 1.991193371051617e+000	 3.684751811504042e-001	 1.251277400734589e+001
 2.041707562664222e+000	 1.842015976844301e-001	 1.226063428225609e+001
 2.039932993244682e+000	 2.029122547020977e-001	 1.229771558898638e+001
 2.037980281460246e+000	 2.216672560877351e-001	 1.233054824303951e+001
 2.035847955694086e+000	 2.404643452639859e-001	 1.235897174069597e+001
 2.033534576851590e+000	 2.593012240616184e-001	 1.238283786238462e+001
 2.031038739582085e+000	 2.781755531503032e-001	 1.240201101145306e+001
 2.028359073499827e+000	 2.970849525075852e-001	 1.241636853340996e+001
 2.025494244403021e+000	 3.160270019264354e-001	 1.242580101445096e+001
 2.022442955489553e+000	 3.349992415617212e-001	 1.243021255810298e+001
 2.019203948568140e+000	 3.539991725158980e-001	 1.242952103884864e+001
 2.015776005263546e+000	 3.730242574641658e-001	 1.242365833162509e+001
 2.066606435379921e+000	 1.864479586326804e-001	 1.218873386318984e+001
 2.064810224869957e+000	 2.053867943948692e-001	 1.222467983479264e+001
 2.062833699527232e+000	 2.243705153099559e-001	 1.225638405369034e+001
 2.060675369788373e+000	 2.433968372813476e-001	 1.228369537853721e+001
 2.058333779008834e+000	 2.624634341133578e-001	 1.230647547000078e+001
 2.055807504699518e+000	 2.815679379472383e-001	 1.232459912787809e+001
 2.053095159762659e+000	 3.007079397358692e-001	 1.233795460756491e+001
 2.050195393725710e+000	 3.198809897575009e-001	 1.234644391465782e+001
 2.047106893971896e+000	 3.390845981688897e-001	 1.234998307649416e+001
 2.043828386966140e+000	 3.583162355981295e-001	 1.234850238946338e+001
 2.040358639474969e+000	 3.775733337774347e-001	 1.234194664095896e+001
 2.091505308095129e+000	 1.886943195809308e-001	 1.212254240585676e+001
 2.089687456494649e+000	 2.078613340876359e-001	 1.215758535077171e+001
 2.087687117593565e+000	 2.270737745321575e-001	 1.218837330175087e+001
 2.085502783881955e+000	 2.463293292986658e-001	 1.221476442282090e+001
 2.083132981165341e+000	 2.656256441650199e-001	 1.223663021908603e+001
 2.080576269816199e+000	 2.849603227440519e-001	 1.225385587254773e+001
 2.077831246024749e+000	 3.043309269639778e-001	 1.226634055613032e+001
 2.074896543047685e+000	 3.237349775883274e-001	 1.227399772465897e+001
 2.071770832453574e+000	 3.431699547757446e-001	 1.227675538156362e+001
 2.068452825363542e+000	 3.626332986799630e-001	 1.227455632011375e+001
 2.064941273685884e+000	 3.821224100902110e-001	 1.226735833802571e+001
 2.116404180809845e+000	 1.909406805291811e-001	 1.206196023835016e+001
 2.114564688118759e+000	 2.103358737803979e-001	 1.209631491605470e+001
 2.112540535659244e+000	 2.297770337543399e-001	 1.212638120852342e+001
 2.110330197974832e+000	 2.492618213159407e-001	 1.215202653778441e+001
 2.107932183321110e+000	 2.687878542166046e-001	 1.217313222748077e+001
 2.105345034932133e+000	 2.883527075407444e-001	 1.218959383774800e+001
 2.102567332286097e+000	 3.079539141919112e-001	 1.220132147712117e+001
 2.099597692368946e+000	 3.275889654189145e-001	 1.220824009018385e+001
 2.096434770934586e+000	 3.472553113822861e-001	 1.221028971969947e+001
 2.093077263760348e+000	 3.669503617613986e-001	 1.220742574199987e+001
 2.089523907896292e+000	 3.866714864024947e-001	 1.219961907444429e+001
 2.141303053524069e+000	 1.931870414774315e-001	 1.200688945904843e+001
 2.139441919742287e+000	 2.128104134731551e-001	 1.204075354449862e+001
 2.137393953724271e+000	 2.324802929765031e-001	 1.207027568347968e+001
 2.135157612067005e+000	 2.521943133331722e-001	 1.209533251799156e+001
 2.132731385476141e+000	 2.719500642681119e-001	 1.211581517393583e+001
 2.130113800047317e+000	 2.917450923373155e-001	 1.213162959540148e+001
 2.127303418546704e+000	 3.115769014196695e-001	 1.214269685477518e+001
 2.124298841689493e+000	 3.314429532492624e-001	 1.214895343735164e+001
 2.121098709414933e+000	 3.513406679885143e-001	 1.215035149915109e+001
 2.117701702156558e+000	 3.712674248424365e-001	 1.214685909668637e+001
 2.114106542106193e+000	 3.912205627142856e-001	 1.213846038746389e+001
 2.166201926237801e+000	 1.954334024256818e-001	 1.195723383487450e+001
 2.164319151365234e+000	 2.152849531659074e-001	 1.199078835625388e+001
 2.162247371788643e+000	 2.351835521986470e-001	 1.201992716976816e+001
 2.159985026158471e+000	 2.551268053503602e-001	 1.204453610842886e+001
 2.157530587630436e+000	 2.751122743195417e-001	 1.206451609346246e+001
 2.154882565161751e+000	 2.951374771337653e-001	 1.207978346835259e+001
 2.152039504806568e+000	 3.151998886472524e-001	 1.209027030747102e+001
 2.148999991009326e+000	 3.352969410793710e-001	 1.209592469793619e+001
 2.145762647894613e+000	 3.554260245944289e-001	 1.209671099337039e+001
 2.142326140552169e+000	 3.755844879230764e-001	 1.209261003826531e+001
 2.138689176315586e+000	 3.957696390255839e-001	 1.208361936170932e+001
 2.191100798951041e+000	 1.976797633739321e-001	 1.191289870649223e+001
 2.189196382987598e+000	 2.177594928586550e-001	 1.194630845808845e+001
 2.187100789852364e+000	 2.378868114207717e-001	 1.197520850025530e+001
 2.184812440249234e+000	 2.580592973675049e-001	 1.199949383686778e+001
 2.182329789783993e+000	 2.782744843708941e-001	 1.201907518663572e+001
 2.179651330275435e+000	 2.985298619300938e-001	 1.203387931724697e+001
 2.176775591065690e+000	 3.188228758746602e-001	 1.204384935283401e+001
 2.173701140328445e+000	 3.391509289092404e-001	 1.204894505336292e+001
 2.170426586373629e+000	 3.595113812000301e-001	 1.204914306457986e+001
 2.166950578947184e+000	 3.799015510033184e-001	 1.204443713718985e+001
 2.163271810524472e+000	 4.003187153363895e-001	 1.203483831398919e+001
 2.215999671663790e+000	 1.999261243221825e-001	 1.187379089989397e+001
 2.214073614609379e+000	 2.202340325513978e-001	 1.190720483178026e+001
 2.211954207915429e+000	 2.405900706428772e-001	 1.193599476327165e+001
 2.209639854339290e+000	 2.609917893846062e-001	 1.196006485752857e+001
 2.207128991936814e+000	 2.814366944221692e-001	 1.197933564175371e+001
 2.204420095388370e+000	 3.019222467263009e-001	 1.199374434177867e+001
 2.201511677324071e+000	 3.224458631018926e-001	 1.200324518867725e+001
 2.198402289646850e+000	 3.430049167388706e-001	 1.200780969596431e+001
 2.195090524851978e+000	 3.635967378053179e-001	 1.200742690597649e+001
 2.191575017341603e+000	 3.842186140831626e-001	 1.200210360407420e+001
 2.187854444732851e+000	 4.048677916467026e-001	 1.199186449935305e+001
 2.240898544376048e+000	 2.021724852704328e-001	 1.183981864388225e+001
 2.238950846230580e+000	 2.227085722441359e-001	 1.187337022994985e+001
 2.236807625977843e+000	 2.432933298649636e-001	 1.190216317730828e+001
 2.234467268428643e+000	 2.639242814016641e-001	 1.192611080516645e+001
 2.231928194088898e+000	 2.845989044733670e-001	 1.194514346885314e+001
 2.229188860500555e+000	 3.053146315223869e-001	 1.195920889518735e+001
 2.226247763581711e+000	 3.260688503289499e-001	 1.196827248854677e+001
 2.223103438964543e+000	 3.468589045682617e-001	 1.197231760615181e+001
 2.219754463329662e+000	 3.676820944102924e-001	 1.197134580112200e+001
 2.216199455735425e+000	 3.885356771626091e-001	 1.196537703190687e+001
 2.212437078940723e+000	 4.094168679565229e-001	 1.195444983674461e+001
 1.966610736839180e+000	 3.639261048361500e-001	 1.260958090494269e+001
 1.963080925084422e+000	 3.825091915237607e-001	 1.265329357176766e+001
 1.959364529034961e+000	 4.011117579788214e-001	 1.269061059490214e+001
 1.955460483543635e+000	 4.197312203398140e-001	 1.272146001815676e+001
 1.951367766926559e+000	 4.383649600831473e-001	 1.274578422753822e+001
 1.947085402089539e+000	 4.570103248275765e-001	 1.276354009789502e+001
 1.942612457640389e+000	 4.756646291775601e-001	 1.277469911206871e+001
 1.937948048985706e+000	 4.943251556054373e-001	 1.277924745175949e+001
 1.933091339410632e+000	 5.129891553722548e-001	 1.277718605937496e+001
 1.928041541140166e+000	 5.316538494870136e-001	 1.276853067019563e+001
 1.922797916380548e+000	 5.503164297040443e-001	 1.275331181425864e+001
 1.991193371051617e+000	 3.684751811504042e-001	 1.251277400734589e+001
 1.987619436649766e+000	 3.872905564217012e-001	 1.255562925438963e+001
 1.983856585649486e+000	 4.061256549574481e-001	 1.259239649869530e+001
 1.979903739589275e+000	 4.249778605978572e-001	 1.262301794873798e+001
 1.975759864014198e+000	 4.438445220877912e-001	 1.264745043542769e+001
 1.971423969616384e+000	 4.627229538912394e-001	 1.266566554240005e+001
 1.966895113361246e+000	 4.816104370452150e-001	 1.267764970766534e+001
 1.962172399597961e+000	 5.005042200529608e-001	 1.268340429582653e+001
 1.957254981152735e+000	 5.194015198162859e-001	 1.268294564014165e+001
 1.952142060403382e+000	 5.382995226068031e-001	 1.267630505377249e+001
 1.946832890333715e+000	 5.571953850757715e-001	 1.266352880963417e+001
 2.015776005263546e+000	 3.730242574641658e-001	 1.242365833162509e+001
 2.012157948214703e+000	 3.920719213190587e-001	 1.246567843917122e+001
 2.008348642263703e+000	 4.111395519354208e-001	 1.250189454962731e+001
 2.004346995634707e+000	 4.302245008551946e-001	 1.253226316666715e+001
 2.000151961101730e+000	 4.493240840916975e-001	 1.255675572156989e+001
 1.995762537143223e+000	 4.684355829541525e-001	 1.257535868723362e+001
 1.991177769082197e+000	 4.875562449121282e-001	 1.258807366235909e+001
 1.986396750210409e+000	 5.066832844997707e-001	 1.259491742501661e+001
 1.981418622895133e+000	 5.258138842596520e-001	 1.259592195487551e+001
 1.976242579666991e+000	 5.449451957259967e-001	 1.259113442344712e+001
 1.970867864287377e+000	 5.640743404469928e-001	 1.258061715176752e+001
 2.040358639474969e+000	 3.775733337774347e-001	 1.234194664095896e+001
 2.036696459779233e+000	 3.968532862158332e-001	 1.238313756325545e+001
 2.032840698877614e+000	 4.161534489127393e-001	 1.241878512086917e+001
 2.028790251679932e+000	 4.354711411118264e-001	 1.244886025633606e+001
 2.024544058189155e+000	 4.548036460948663e-001	 1.247334917003017e+001
 2.020101104670055e+000	 4.741482120163162e-001	 1.249225341796627e+001
 2.015460424803240e+000	 4.935020527783000e-001	 1.250558997854394e+001
 2.010621100823051e+000	 5.128623489458675e-001	 1.251339128744662e+001
 2.005582264637823e+000	 5.322262487023534e-001	 1.251570523997938e+001
 2.000343098930994e+000	 5.515908688445946e-001	 1.251259516020366e+001
 1.994902838241532e+000	 5.709532958177074e-001	 1.250413973630661e+001
 2.064941273685884e+000	 3.821224100902110e-001	 1.226735833802571e+001
 2.061234971343355e+000	 4.016346511120246e-001	 1.230771001288757e+001
 2.057332755491217e+000	 4.211673458894039e-001	 1.234275582245063e+001
 2.053233507724950e+000	 4.407177813677525e-001	 1.237248130459612e+001
 2.048936155276472e+000	 4.602832080972976e-001	 1.239688761047774e+001
 2.044439672196880e+000	 4.798608410777304e-001	 1.241599158616862e+001
 2.039743080524377e+000	 4.994478606437301e-001	 1.242982582197985e+001
 2.034845451435886e+000	 5.190414133912505e-001	 1.243843866866338e+001
 2.029745906380808e+000	 5.386386131443898e-001	 1.244189421978646e+001
 2.024443618195390e+000	 5.582365419625964e-001	 1.244027225964258e+001
 2.018937812196181e+000	 5.778322511879159e-001	 1.243366817614762e+001
 2.089523907896292e+000	 3.866714864024947e-001	 1.219961907444429e+001
 2.085773482907070e+000	 4.064160160076331e-001	 1.223910571464427e+001
 2.081824812104512e+000	 4.261812428654142e-001	 1.227350107556261e+001
 2.077676763769761e+000	 4.459644216229730e-001	 1.230280545943719e+001
 2.073328252363684e+000	 4.657627700989915e-001	 1.232703516256190e+001
 2.068778239723697e+000	 4.855734701383950e-001	 1.234622254082299e+001
 2.064025736245607e+000	 5.053936685084186e-001	 1.236041604159485e+001
 2.059069802048916e+000	 5.252204778359207e-001	 1.236968020120675e+001
 2.053909548124086e+000	 5.450509775857614e-001	 1.237409560727026e+001
 2.048544137460180e+000	 5.648822150800023e-001	 1.237375882523852e+001
 2.042972786151324e+000	 5.847112065576181e-001	 1.236878228865570e+001
 2.114106542106193e+000	 3.912205627142856e-001	 1.213846038746389e+001
 2.110311994470377e+000	 4.111973809026583e-001	 1.217704075518189e+001
 2.106316868717501e+000	 4.311951398407705e-001	 1.221072171655950e+001
 2.102120019814364e+000	 4.512110618774879e-001	 1.223951851945626e+001
 2.097720349450787e+000	 4.712423320999477e-001	 1.226346281207604e+001
 2.093116807250510e+000	 4.912860991983101e-001	 1.228260269242753e+001
 2.088308391966931e+000	 5.113394763723658e-001	 1.229700272278922e+001
 2.083294152662138e+000	 5.313995422798772e-001	 1.230674390838898e+001
 2.078073189867658e+000	 5.514633420264680e-001	 1.231192363958889e+001
 2.072644656725364e+000	 5.715278881968123e-001	 1.231265559695232e+001
 2.067007760106961e+000	 5.915901619268141e-001	 1.230906961866093e+001
 2.138689176315586e+000	 3.957696390255839e-001	 1.208361936170932e+001
 2.134850506033278e+000	 4.159787457971007e-001	 1.212123702720882e+001
 2.130808925330182e+000	 4.362090368154726e-001	 1.215412462827153e+001
 2.126563275858762e+000	 4.564577021312971e-001	 1.218231255163862e+001
 2.122112446537784e+000	 4.767218941001665e-001	 1.220584801635166e+001
 2.117455374777314e+000	 4.969987282574755e-001	 1.222479510716184e+001
 2.112591047688348e+000	 5.172852842355713e-001	 1.223923477154625e+001
 2.107518503275554e+000	 5.375786067231203e-001	 1.224926477953777e+001
 2.102236831611523e+000	 5.578757064665098e-001	 1.225499964566052e+001
 2.096745175990942e+000	 5.781735613130266e-001	 1.225657051235243e+001
 2.091042734063091e+000	 5.984691172955039e-001	 1.225412499435118e+001
 2.163271810524472e+000	 4.003187153363895e-001	 1.203483831398919e+001
 2.159389017595771e+000	 4.207601106909599e-001	 1.207142189959624e+001
 2.155300981942557e+000	 4.412229337895208e-001	 1.210342239645508e+001
 2.151006531902950e+000	 4.617043423844006e-001	 1.213088553519951e+001
 2.146504543624674e+000	 4.822014560996478e-001	 1.215387433655726e+001
 2.141793942304112e+000	 5.027113573158918e-001	 1.217246912872336e+001
 2.136873703409858e+000	 5.232310920980353e-001	 1.218676752689914e+001
 2.131742853889163e+000	 5.437576711656501e-001	 1.219688437419988e+001
 2.126400473355683e+000	 5.642880709058867e-001	 1.220295164322259e+001
 2.120845695256914e+000	 5.848192344286449e-001	 1.220511829766004e+001
 2.115077708019714e+000	 6.053480726636871e-001	 1.220355011344492e+001
 2.187854444732851e+000	 4.048677916467026e-001	 1.199186449935305e+001
 2.183927529157856e+000	 4.255414755842361e-001	 1.202732790972844e+001
 2.179793038554623e+000	 4.462368307629148e-001	 1.205833298940353e+001
 2.175449787946933e+000	 4.669509826367986e-001	 1.208494102943632e+001
 2.170896640711458e+000	 4.876810180983917e-001	 1.210723109478628e+001
 2.166132509830903e+000	 5.084239863735581e-001	 1.212530002565777e+001
 2.161156359131462e+000	 5.291768999597577e-001	 1.213926239952371e+001
 2.155967204502966e+000	 5.499367356074666e-001	 1.214925045302773e+001
 2.150564115100135e+000	 5.707004353445987e-001	 1.215541396305537e+001
 2.144946214523279e+000	 5.914649075436672e-001	 1.215792008636399e+001
 2.139112681976832e+000	 6.122270280313643e-001	 1.215695315726265e+001
 2.212437078940723e+000	 4.094168679565229e-001	 1.195444983674461e+001
 2.208466040719535e+000	 4.303228404769294e-001	 1.198869247636324e+001
 2.204285095166384e+000	 4.512507277356548e-001	 1.201857945891741e+001
 2.199893043990709e+000	 4.721976228884912e-001	 1.204418786372403e+001
 2.195288737798134e+000	 4.931605800963981e-001	 1.206561305400558e+001
 2.190471077357688e+000	 5.141366154304753e-001	 1.208296866220074e+001
 2.185439014853160e+000	 5.351227078207387e-001	 1.209638653442490e+001
 2.180191555116964e+000	 5.561158000485698e-001	 1.210601663327354e+001
 2.174727756844882e+000	 5.771127997826461e-001	 1.211202689825743e+001
 2.169046733790038e+000	 5.981105806580940e-001	 1.211460306326158e+001
 2.163147655934445e+000	 6.191059833985354e-001	 1.211394843052665e+001
 1.922797916380548e+000	 5.503164297040443e-001	 1.275331181425864e+001
 1.917359778339054e+000	 5.689740595581219e-001	 1.280390904066072e+001
 1.911726492221324e+000	 5.876238754369104e-001	 1.285168265281589e+001
 1.905897476204296e+000	 6.062629876904957e-001	 1.289675490497125e+001
 1.899872202382971e+000	 6.248884817771945e-001	 1.293925976255924e+001
 1.893650197690125e+000	 6.434974194451186e-001	 1.294595531316849e+001
 1.887231044787307e+000	 6.620868399488499e-001	 1.294650042332062e+001
 1.880614382925689e+000	 6.806537613005027e-001	 1.294105923879401e+001
 1.873799908775373e+000	 6.991951815543979e-001	 1.293049716311590e+001
 1.866787377221733e+000	 7.177080801244901e-001	 1.291767746585067e+001
 1.859576602127425e+000	 7.361894191336469e-001	 1.289808845086175e+001
 1.946832890333715e+000	 5.571953850757715e-001	 1.266352880963417e+001
 1.941326775566192e+000	 5.760862353022611e-001	 1.271831699153109e+001
 1.935623073371612e+000	 5.949691738788934e-001	 1.277040089367302e+001
 1.929721194654121e+000	 6.138412750351303e-001	 1.281991291480857e+001
 1.923620604909912e+000	 6.326995877975195e-001	 1.285309035817863e+001
 1.917320825158421e+000	 6.515411371860248e-001	 1.286143159832686e+001
 1.910821432844467e+000	 6.703629254459109e-001	 1.286407453878046e+001
 1.904122062709863e+000	 6.891619333144453e-001	 1.286098942892113e+001
 1.897222407633088e+000	 7.079351213216277e-001	 1.285214801419459e+001
 1.890122219435584e+000	 7.266794311240886e-001	 1.283752360790048e+001
 1.882821309653291e+000	 7.453917868712325e-001	 1.281709116466094e+001
 1.970867864287377e+000	 5.640743404469928e-001	 1.258061715176752e+001
 1.965293772793916e+000	 5.831984110459895e-001	 1.263922607882221e+001
 1.959519654522553e+000	 6.023144723205506e-001	 1.269523680128360e+001
 1.953544913104652e+000	 6.214195623795153e-001	 1.274879236798580e+001
 1.947369007437591e+000	 6.405106938176606e-001	 1.277071928163664e+001
 1.940991452627468e+000	 6.595848549268031e-001	 1.278076710609003e+001
 1.934411820902369e+000	 6.786390109428899e-001	 1.278537375454381e+001
 1.927629742494751e+000	 6.976701053283415e-001	 1.278450605062506e+001
 1.920644906491468e+000	 7.166750610888373e-001	 1.277813199429770e+001
 1.913457061650030e+000	 7.356507821236823e-001	 1.276622083397377e+001
 1.906066017179662e+000	 7.545941546088181e-001	 1.274874314079584e+001
 1.994902838241532e+000	 5.709532958177074e-001	 1.250413973630661e+001
 1.989260770022222e+000	 5.903105867893066e-001	 1.256619206094876e+001
 1.983416235674150e+000	 6.096597707618821e-001	 1.262573910731248e+001
 1.977368631555889e+000	 6.289978497236504e-001	 1.267540193615454e+001
 1.971117409966007e+000	 6.483217998376175e-001	 1.269218385649318e+001
 1.964662080097263e+000	 6.676285726674529e-001	 1.270381488522447e+001
 1.958002208961012e+000	 6.869150964397870e-001	 1.271025760178491e+001
 1.951137422280351e+000	 7.061782773421914e-001	 1.271147537308166e+001
 1.944067405350511e+000	 7.254150008560257e-001	 1.270743242325714e+001
 1.936791903865071e+000	 7.446221331232709e-001	 1.269809390619322e+001
 1.929310724706539e+000	 7.637965223464036e-001	 1.268342598068106e+001
 2.018937812196181e+000	 5.778322511879159e-001	 1.243366817614762e+001
 2.013227767251113e+000	 5.974227625322126e-001	 1.249877920791441e+001
 2.007312816826402e+000	 6.170050692028881e-001	 1.256146483853573e+001
 2.001192350007833e+000	 6.365761370675351e-001	 1.259934303708224e+001
 1.994865812495163e+000	 6.561329058573907e-001	 1.261733873630786e+001
 1.988332707567807e+000	 6.756722904079746e-001	 1.263043556544865e+001
 1.981592597020396e+000	 6.951911819366017e-001	 1.263859293309662e+001
 1.974645102066663e+000	 7.146864493559949e-001	 1.264177071667638e+001
 1.967489904210219e+000	 7.341549406231938e-001	 1.263992933218358e+001
 1.960126746080707e+000	 7.535934841228539e-001	 1.263302980715266e+001
 1.952555432233920e+000	 7.729988900839893e-001	 1.262103385678841e+001
 2.042972786151324e+000	 5.847112065576181e-001	 1.236878228865570e+001
 2.037194764480589e+000	 6.045349382747075e-001	 1.243655980062993e+001
 2.031209397979309e+000	 6.243503676435684e-001	 1.250197882889292e+001
 2.025016068460483e+000	 6.441544244111702e-001	 1.252694438579522e+001
 2.018614215025055e+000	 6.639440118769794e-001	 1.254604594383338e+001
 2.012003335039101e+000	 6.837160081483685e-001	 1.256049691149467e+001
 2.005182985080521e+000	 7.034672674333341e-001	 1.257025349181866e+001
 1.998152781853689e+000	 7.231946213697521e-001	 1.257527203822733e+001
 1.990912403070590e+000	 7.428948803903412e-001	 1.257550912430465e+001
 1.983461588296937e+000	 7.625648351224319e-001	 1.257092161729895e+001
 1.975800139761806e+000	 7.822012578215748e-001	 1.256146675528970e+001
 2.067007760106961e+000	 5.915901619268141e-001	 1.230906961866093e+001
 2.061161761710647e+000	 6.116471140167914e-001	 1.237911366516299e+001
 2.055105979132871e+000	 6.316956660839231e-001	 1.243360584480225e+001
 2.048839786913839e+000	 6.517327117545554e-001	 1.245806965305498e+001
 2.042362617555685e+000	 6.717551178963843e-001	 1.247817444257410e+001
 2.035673962511146e+000	 6.917597258886343e-001	 1.249387340828195e+001
 2.028773373141387e+000	 7.117433529299844e-001	 1.250511951141290e+001
 2.021660461641427e+000	 7.317027933834631e-001	 1.251186554514608e+001
 2.014334901931625e+000	 7.516348201574681e-001	 1.251406420449314e+001
 2.006796430513763e+000	 7.715361861220048e-001	 1.251166816040561e+001
 1.999044847290198e+000	 7.914036255591603e-001	 1.250463013805107e+001
 2.091042734063091e+000	 5.984691172955039e-001	 1.225412499435118e+001
 2.085128758941291e+000	 6.187592897584642e-001	 1.232602773910829e+001
 2.079002560287087e+000	 6.390409645239521e-001	 1.236746417855024e+001
 2.072663505367901e+000	 6.593109990976909e-001	 1.239258925038481e+001
 2.066111020087053e+000	 6.795662239156053e-001	 1.241359973789217e+001
 2.059344589983939e+000	 6.998034436287719e-001	 1.243044587469943e+001
 2.052363761202996e+000	 7.200194384265527e-001	 1.244307734246774e+001
 2.045168141429878e+000	 7.402109653971275e-001	 1.245144333620824e+001
 2.037757400793325e+000	 7.603747599245742e-001	 1.245549263434479e+001
 2.030131272731183e+000	 7.805075371215727e-001	 1.245517367349666e+001
 2.022289554819095e+000	 8.006059932967460e-001	 1.245043462793781e+001
 2.115077708019714e+000	 6.053480726636871e-001	 1.220355011344492e+001
 2.109095756172518e+000	 6.258714654997258e-001	 1.227516508682120e+001
 2.102899141441959e+000	 6.463862629636555e-001	 1.230468319554336e+001
 2.096487223822670e+000	 6.668892864405762e-001	 1.233037994707192e+001
 2.089859422619159e+000	 6.873773299346420e-001	 1.235220350531120e+001
 2.083015217457482e+000	 7.078471613687812e-001	 1.237010110372112e+001
 2.075954149265345e+000	 7.282955239230388e-001	 1.238401910513418e+001
 2.068675821219042e+000	 7.487191374107458e-001	 1.239390306681679e+001
 2.061179899655689e+000	 7.691146996916598e-001	 1.239969781077362e+001
 2.053466114949198e+000	 7.894788881211352e-001	 1.240134749927546e+001
 2.045534262348497e+000	 8.098083610343312e-001	 1.239879571557587e+001
 2.139112681976832e+000	 6.122270280313643e-001	 1.215695315726265e+001
 2.133062753404329e+000	 6.329836412405763e-001	 1.221537768582736e+001
 2.126795722597485e+000	 6.537315614030334e-001	 1.224514114100071e+001
 2.120310942278145e+000	 6.744675737832117e-001	 1.227132451298975e+001
 2.113607825152002e+000	 6.951884359534949e-001	 1.229387324387786e+001
 2.106685844931774e+000	 7.158908791086627e-001	 1.231273152678324e+001
 2.099544537328434e+000	 7.365716094194424e-001	 1.232784236499298e+001
 2.092183501008918e+000	 7.572273094243178e-001	 1.233914763683209e+001
 2.084602398518715e+000	 7.778546394587246e-001	 1.234658816627492e+001
 2.076800957167808e+000	 7.984502391206926e-001	 1.235010379928885e+001
 2.068778969878404e+000	 8.190107287719171e-001	 1.234963348588211e+001
 2.163147655934445e+000	 6.191059833985354e-001	 1.211394843052665e+001
 2.157029750636725e+000	 6.400958169810158e-001	 1.215879137842238e+001
 2.150692303753667e+000	 6.610768598420859e-001	 1.218872208701454e+001
 2.144134660734327e+000	 6.820458611255977e-001	 1.221531138523202e+001
 2.137356227685585e+000	 7.029995419721639e-001	 1.223850195263290e+001
 2.130356472406817e+000	 7.239345968484162e-001	 1.225823490053631e+001
 2.123134925392267e+000	 7.448476949157646e-001	 1.227444983053095e+001
 2.115691180799508e+000	 7.657354814378438e-001	 1.228708489921302e+001
 2.108024897382408e+000	 7.865945792257690e-001	 1.229607688917076e+001
 2.100135799387014e+000	 8.074215901202453e-001	 1.230136128621364e+001
 2.092023677408817e+000	 8.282130965095027e-001	 1.230287236282588e+001
 1.859576602127425e+000	 7.361894191336469e-001	 1.289808845086175e+001
 1.852167457058817e+000	 7.546361447941515e-001	 1.293707028888677e+001
 1.844559875975170e+000	 7.730451888174859e-001	 1.296928734429365e+001
 1.836753853879597e+000	 7.914134698526776e-001	 1.299470142057730e+001
 1.828749447430661e+000	 8.097378949529311e-001	 1.301328248979046e+001
 1.820546775513088e+000	 8.280153610683618e-001	 1.302500882101981e+001
 1.812146019766516e+000	 8.462427565638447e-001	 1.302986709497621e+001
 1.803547425071165e+000	 8.644169627606541e-001	 1.302785250421481e+001
 1.794751299989325e+000	 8.825348555005105e-001	 1.301896883853050e+001
 1.785758017161617e+000	 9.005933067305987e-001	 1.300322855510714e+001
 1.776568013657048e+000	 9.185891861080785e-001	 1.298065283303313e+001
 1.882821309653291e+000	 7.453917868712325e-001	 1.281709116466094e+001
 1.875319550272018e+000	 7.640690966028914e-001	 1.285207235062170e+001
 1.867616874425373e+000	 7.827082536768359e-001	 1.288464864273319e+001
 1.859713277054009e+000	 8.013061382252062e-001	 1.291047131206255e+001
 1.851608815524722e+000	 8.198596186393714e-001	 1.292933745327216e+001
 1.843303610208294e+000	 8.383655530813222e-001	 1.294123352254444e+001
 1.834797845014858e+000	 8.568207910204947e-001	 1.294615475480242e+001
 1.826091767885635e+000	 8.752221747946787e-001	 1.294410525940558e+001
 1.817185691239944e+000	 8.935665411936152e-001	 1.293509810027519e+001
 1.808079992376415e+000	 9.118507230638294e-001	 1.291915536002161e+001
 1.798775113827414e+000	 9.300715509331942e-001	 1.289630818768306e+001
 1.906066017179662e+000	 7.545941546088181e-001	 1.274874314079584e+001
 1.898471643485632e+000	 7.735020484116312e-001	 1.278334406375023e+001
 1.890673872875920e+000	 7.923713185361858e-001	 1.281173825068071e+001
 1.882672700228715e+000	 8.111988065977347e-001	 1.283380962584487e+001
 1.874468183619045e+000	 8.299813423258116e-001	 1.284967203226413e+001
 1.866060444903749e+000	 8.487157450942827e-001	 1.286205612214533e+001
 1.857449670263458e+000	 8.673988254771449e-001	 1.286735304983126e+001
 1.848636110700394e+000	 8.860273868287032e-001	 1.286557574213834e+001
 1.839620082490902e+000	 9.045982268867203e-001	 1.285674644558158e+001
 1.830401967591619e+000	 9.231081393970597e-001	 1.284089678462571e+001
 1.820982213998275e+000	 9.415539157583098e-001	 1.281806780277852e+001
 1.929310724706539e+000	 7.637965223464036e-001	 1.268342598068106e+001
 1.921623736699662e+000	 7.829350002203711e-001	 1.271794995292700e+001
 1.913730871326810e+000	 8.020343833955359e-001	 1.274626751803469e+001
 1.905632123403714e+000	 8.210914749702637e-001	 1.276826661463134e+001
 1.897327551713629e+000	 8.401030660122518e-001	 1.278383633506709e+001
 1.888817279599456e+000	 8.590659371072432e-001	 1.279286709062072e+001
 1.880101495512317e+000	 8.779768599337948e-001	 1.279525077990932e+001
 1.871180453515440e+000	 8.968325988627278e-001	 1.279218168773554e+001
 1.862054473742195e+000	 9.156299125798251e-001	 1.278382125628920e+001
 1.852723942807230e+000	 9.343655557302906e-001	 1.276834974928739e+001
 1.843189314169633e+000	 9.530362805834256e-001	 1.274581803464990e+001
 1.952555432233920e+000	 7.729988900839893e-001	 1.262103385678841e+001
 1.944775829914107e+000	 7.923679520291109e-001	 1.265577544840186e+001
 1.936787869778046e+000	 8.116974482548859e-001	 1.268431296677984e+001
 1.928591546579005e+000	 8.309841433427923e-001	 1.270653817215072e+001
 1.920186919808476e+000	 8.502247896986920e-001	 1.272234398152173e+001
 1.911574114295413e+000	 8.694161291202035e-001	 1.273162463185189e+001
 1.902753320761436e+000	 8.885548943904447e-001	 1.273427584647255e+001
 1.893724796330773e+000	 9.076378108967522e-001	 1.273019500449025e+001
 1.884488864993826e+000	 9.266615982729300e-001	 1.271928131288984e+001
 1.875045918023246e+000	 9.456229720635210e-001	 1.270143598104036e+001
 1.865396414341487e+000	 9.645186454085410e-001	 1.267945640147326e+001
 1.975800139761806e+000	 7.822012578215748e-001	 1.256146675528970e+001
 1.967927923128965e+000	 8.018009038378509e-001	 1.259671226099338e+001
 1.959844868229625e+000	 8.213605131142361e-001	 1.262575803667338e+001
 1.951550969754591e+000	 8.408768117153211e-001	 1.264849947432206e+001
 1.943046287903584e+000	 8.603465133851320e-001	 1.266483312143786e+001
 1.934330948991621e+000	 8.797663211331642e-001	 1.267465684233686e+001
 1.925405146010814e+000	 8.991329288470951e-001	 1.267786998276521e+001
 1.916269139146395e+000	 9.184430229307767e-001	 1.267437353754858e+001
 1.906923256245794e+000	 9.376932839660348e-001	 1.266407032099811e+001
 1.897367893239669e+000	 9.568803883967515e-001	 1.264686513977652e+001
 1.887603514513837e+000	 9.760010102336569e-001	 1.262266496791168e+001
 1.999044847290198e+000	 7.914036255591603e-001	 1.250463013805107e+001
 1.991080016344239e+000	 8.112338556465905e-001	 1.254065801693956e+001
 1.982901866681548e+000	 8.310235779735861e-001	 1.257049252362283e+001
 1.974510392930469e+000	 8.507694800878495e-001	 1.259403249475751e+001
 1.965905655998954e+000	 8.704682370715721e-001	 1.261117791690746e+001
 1.957087783688078e+000	 8.901165131461245e-001	 1.262183008616391e+001
 1.948056971260451e+000	 9.097109633037451e-001	 1.262589177112890e+001
 1.938813481962305e+000	 9.292482349648014e-001	 1.262326737899983e+001
 1.929357647498098e+000	 9.487249696591398e-001	 1.261386312447575e+001
 1.919689868456498e+000	 9.681378047299820e-001	 1.259758720118989e+001
 1.909810614686682e+000	 9.874833750587725e-001	 1.257434995535651e+001
 2.022289554819095e+000	 8.006059932967460e-001	 1.245043462793781e+001
 2.014232109559929e+000	 8.206668074553304e-001	 1.248751591793115e+001
 2.005958865133815e+000	 8.406866428329360e-001	 1.251841221439002e+001
 1.997469816106640e+000	 8.606621484603783e-001	 1.254302561409030e+001
 1.988765024094585e+000	 8.805899607580122e-001	 1.256125935379074e+001
 1.979844618384787e+000	 9.004667051590849e-001	 1.257301796832999e+001
 1.970708796510347e+000	 9.202889977603952e-001	 1.257820745215887e+001
 1.961357824778503e+000	 9.400534469988258e-001	 1.257673542404682e+001
 1.951792038750740e+000	 9.597566553522445e-001	 1.256851129468446e+001
 1.942011843673734e+000	 9.793952210632124e-001	 1.255344643688727e+001
 1.932017714860024e+000	 9.989657398838882e-001	 1.253145435808896e+001
 2.045534262348497e+000	 8.098083610343312e-001	 1.239879571557587e+001
 2.037384202776032e+000	 8.300997592640702e-001	 1.243719442432457e+001
 2.029015863586428e+000	 8.503497076922864e-001	 1.246941854620168e+001
 2.020429239283104e+000	 8.705548168329070e-001	 1.249537325593944e+001
 2.011624392190480e+000	 8.907116844444527e-001	 1.251496485400185e+001
 2.002601453081745e+000	 9.108168971720454e-001	 1.252810092332534e+001
 1.993360621760502e+000	 9.308670322170453e-001	 1.253469048957599e+001
 1.983902167594988e+000	 9.508586590328503e-001	 1.253464418466352e+001
 1.974226430003719e+000	 9.707883410453497e-001	 1.252787441323466e+001
 1.964333818891376e+000	 9.906526373964433e-001	 1.251429552185123e+001
 1.954224815033862e+000	 1.010448104709004e+000	 1.249382397054186e+001
 2.068778969878404e+000	 8.190107287719171e-001	 1.234963348588211e+001
 2.060536295992551e+000	 8.395327110728100e-001	 1.238960695971129e+001
 2.052072862039383e+000	 8.600127725516362e-001	 1.242341828930748e+001
 2.043388662459861e+000	 8.804474852054356e-001	 1.245097554741614e+001
 2.034483760286635e+000	 9.008334081308929e-001	 1.247218791393303e+001
 2.025358287778955e+000	 9.211670891850060e-001	 1.248696583145420e+001
 2.016012447010917e+000	 9.414450666736953e-001	 1.249522116443313e+001
 2.006446510411761e+000	 9.616638710668748e-001	 1.249686736168648e+001
 1.996660821257035e+000	 9.818200267384545e-001	 1.249181962197143e+001
 1.986655794109424e+000	 1.001910053729674e+000	 1.247999506234022e+001
 1.976431915208197e+000	 1.021930469534119e+000	 1.246131288896101e+001
 2.092023677408817e+000	 8.282130965095027e-001	 1.230287236282588e+001
 2.083688389209485e+000	 8.489656628815500e-001	 1.234467163518249e+001
 2.075129860492684e+000	 8.696758374109868e-001	 1.238032325070115e+001
 2.066348085636912e+000	 8.903401535779647e-001	 1.240973800226317e+001
 2.057343128383053e+000	 9.109551318173331e-001	 1.243282776698344e+001
 2.048115122476415e+000	 9.315172811979668e-001	 1.244950566073394e+001
 2.038664272261591e+000	 9.520231011303459e-001	 1.245968619637458e+001
 2.028990853228824e+000	 9.724690831008999e-001	 1.246328544543371e+001
 2.019095212510688e+000	 9.928517124315597e-001	 1.246022120296153e+001
 2.008977769327879e+000	 1.013167470062905e+000	 1.245041315526229e+001
 1.998639015383027e+000	 1.033412834359236e+000	 1.243378305019331e+001
 1.776568013657048e+000	 9.185891861080785e-001	 1.298065283303313e+001
 1.767181791275910e+000	 9.365193626221506e-001	 1.299694203503161e+001
 1.757599916804693e+000	 9.543807062332064e-001	 1.300735923155084e+001
 1.747823022222099e+000	 9.721700895268440e-001	 1.301205563364614e+001
 1.737851804855421e+000	 9.898843893801794e-001	 1.301119132062512e+001
 1.727687027486658e+000	 1.007520488639880e+000	 1.300493509986977e+001
 1.717329518407681e+000	 1.025075277809822e+000	 1.299346434829227e+001
 1.706780171423916e+000	 1.042545656746592e+000	 1.297696483550067e+001
 1.696039945806038e+000	 1.059928536361033e+000	 1.295563052880165e+001
 1.685109866189261e+000	 1.077220840323977e+000	 1.292966338021890e+001
 1.673991022419878e+000	 1.094419506774317e+000	 1.289927309575685e+001
 1.798775113827414e+000	 9.300715509331942e-001	 1.289630818768306e+001
 1.789271563665848e+000	 9.482258546533824e-001	 1.291622413264339e+001
 1.779569915763154e+000	 9.663104650593967e-001	 1.293023406485275e+001
 1.769670809997764e+000	 9.843222156441562e-001	 1.293848062397425e+001
 1.759574952413566e+000	 1.002257944245742e+000	 1.294111545161392e+001
 1.749283115327332e+000	 1.020114494746404e+000	 1.293829905932638e+001
 1.738796137384582e+000	 1.037888718781317e+000	 1.293020067792993e+001
 1.728114923563312e+000	 1.055577477455278e+000	 1.291699808819087e+001
 1.717240445125080e+000	 1.073177643065514e+000	 1.289887743298937e+001
 1.706173739513039e+000	 1.090686100828743e+000	 1.287603301113116e+001
 1.694915910196563e+000	 1.108099750610596e+000	 1.284866705302210e+001
 1.820982213998275e+000	 9.415539157583098e-001	 1.281806780277852e+001
 1.811361336056378e+000	 9.599323466846091e-001	 1.284109895202417e+001
 1.801539914722290e+000	 9.782402238855672e-001	 1.285818251021452e+001
 1.791518597774181e+000	 9.964743417614238e-001	 1.286945285983191e+001
 1.781298099972528e+000	 1.014631499111225e+000	 1.287505353071685e+001
 1.770879203168879e+000	 1.032708500852804e+000	 1.287513707601726e+001
 1.760262756362403e+000	 1.050702159752635e+000	 1.286986492910001e+001
 1.749449675703662e+000	 1.068609298163722e+000	 1.285940724146906e+001
 1.738440944445101e+000	 1.086426749769678e+000	 1.284394270178708e+001
 1.727237612837812e+000	 1.104151361333108e+000	 1.282365833615159e+001
 1.715840797974247e+000	 1.121779994446377e+000	 1.279874928982960e+001
 1.843189314169633e+000	 9.530362805834256e-001	 1.274581803464990e+001
 1.833451108447498e+000	 9.716388387158305e-001	 1.277147093126687e+001
 1.823509913682104e+000	 9.901699827117181e-001	 1.279112705227545e+001
 1.813366385551350e+000	 1.008626467878647e+000	 1.280491282991978e+001
 1.803021247532308e+000	 1.027005053976628e+000	 1.281296400098047e+001
 1.792475291011298e+000	 1.045302506959080e+000	 1.281542549043337e+001
 1.781729375341142e+000	 1.063515600723774e+000	 1.281245127570085e+001
 1.770784427844967e+000	 1.081641118871923e+000	 1.280420423152442e+001
 1.759641443766102e+000	 1.099675856473525e+000	 1.279085595554091e+001
 1.748301486163579e+000	 1.117616621837070e+000	 1.277258657469954e+001
 1.736765685752931e+000	 1.135460238281661e+000	 1.274958453271167e+001
 1.865396414341487e+000	 9.645186454085410e-001	 1.267945640147326e+001
 1.855540880839211e+000	 9.833453307470476e-001	 1.270725479888369e+001
 1.845479912642594e+000	 1.002099741537849e+000	 1.272899959085257e+001
 1.835214173329271e+000	 1.020778593995827e+000	 1.274480955945084e+001
 1.824744395092904e+000	 1.039378608841954e+000	 1.275481296027053e+001
 1.814071378854591e+000	 1.057896513065233e+000	 1.275914741356457e+001
 1.803195994320799e+000	 1.076329041694735e+000	 1.275795977558690e+001
 1.792119179987226e+000	 1.094672939579880e+000	 1.275140599014587e+001
 1.780841943088082e+000	 1.112924963177053e+000	 1.273965092043897e+001
 1.769365359490343e+000	 1.131081882340629e+000	 1.272286816129272e+001
 1.757690573532616e+000	 1.149140482116448e+000	 1.270123983198804e+001
 1.887603514513837e+000	 9.760010102336569e-001	 1.262266496791168e+001
 1.877630653231514e+000	 9.950518227782595e-001	 1.264916244228936e+001
 1.867449911603760e+000	 1.014029500363961e+000	 1.267174088710658e+001
 1.857061961107944e+000	 1.032930720112961e+000	 1.268910010800262e+001
 1.846467542654319e+000	 1.051752163707200e+000	 1.270057371098843e+001
 1.835667466698758e+000	 1.070490519171262e+000	 1.270629232863484e+001
 1.824662613301375e+000	 1.089142482665518e+000	 1.270639602445364e+001
 1.813453932130439e+000	 1.107704760287595e+000	 1.270103415086323e+001
 1.802042442411042e+000	 1.126174069880264e+000	 1.269036518699116e+001
 1.790429232818100e+000	 1.144547142843786e+000	 1.267455655642381e+001
 1.778615461313300e+000	 1.162820725950737e+000	 1.265378442507235e+001
 1.909810614686682e+000	 9.874833750587725e-001	 1.257434995535651e+001
 1.899720425624409e+000	 1.006758314809467e+000	 1.260210231339836e+001
 1.889419910565603e+000	 1.025959259190052e+000	 1.262367807525530e+001
 1.878909748887369e+000	 1.045082846230051e+000	 1.263898686141000e+001
 1.868190690216551e+000	 1.064125718572367e+000	 1.265022634120291e+001
 1.857263554543797e+000	 1.083084525277167e+000	 1.265685572062369e+001
 1.846129232282870e+000	 1.101955923636123e+000	 1.265777083387009e+001
 1.834788684274607e+000	 1.120736580995067e+000	 1.265311477559021e+001
 1.823242941734981e+000	 1.139423176583158e+000	 1.264303998535941e+001
 1.811493106146852e+000	 1.158012403346541e+000	 1.262770807063163e+001
 1.799540349094984e+000	 1.176500969784529e+000	 1.260728960931564e+001
 1.932017714860024e+000	 9.989657398838882e-001	 1.253145435808896e+001
 1.921810198017894e+000	 1.018464806840669e+000	 1.256007964786229e+001
 1.911389909528122e+000	 1.037889018016124e+000	 1.258257424332067e+001
 1.900757536667546e+000	 1.057234972347097e+000	 1.259883334230529e+001
 1.889913837779600e+000	 1.076499273437455e+000	 1.260875390564161e+001
 1.878859642389709e+000	 1.095678531382949e+000	 1.261223484901187e+001
 1.867595851265284e+000	 1.114769364606549e+000	 1.261209993151596e+001
 1.856123436419728e+000	 1.133768401702296e+000	 1.260767810011959e+001
 1.844443441059901e+000	 1.152672283285734e+000	 1.259771997618220e+001
 1.832556979476600e+000	 1.171477663848893e+000	 1.258238170070545e+001
 1.820465236877668e+000	 1.190181213617824e+000	 1.256182862361904e+001
 1.954224815033862e+000	 1.010448104709004e+000	 1.249382397054186e+001
 1.943899970411971e+000	 1.030171298871866e+000	 1.252295603839826e+001
 1.933359908491318e+000	 1.049818776842177e+000	 1.254600209698001e+001
 1.922605324448474e+000	 1.069387098464099e+000	 1.256284299903090e+001
 1.911636985343467e+000	 1.088872828302464e+000	 1.257336118051109e+001
 1.900455730236494e+000	 1.108272537488608e+000	 1.257744086879108e+001
 1.889062470248616e+000	 1.127582805576797e+000	 1.257496829291650e+001
 1.877458188565804e+000	 1.146800222409282e+000	 1.256583189550772e+001
 1.865643940385800e+000	 1.165921389987992e+000	 1.255445305566119e+001
 1.853620852807342e+000	 1.184942924350843e+000	 1.253863897705701e+001
 1.841390124661353e+000	 1.203861457450621e+000	 1.251747653811849e+001
 1.976431915208197e+000	 1.021930469534119e+000	 1.246131288896101e+001
 1.965989742806639e+000	 1.041877790903058e+000	 1.249060073139803e+001
 1.955329907455190e+000	 1.061748535668210e+000	 1.251384610479458e+001
 1.944453112230156e+000	 1.081539224581056e+000	 1.253091558654689e+001
 1.933360132908153e+000	 1.101246383167394e+000	 1.254167715776047e+001
 1.922051818084153e+000	 1.120866543594142e+000	 1.254600042778325e+001
 1.910529089232867e+000	 1.140396246546867e+000	 1.254375686125677e+001
 1.898792940712833e+000	 1.159832043116026e+000	 1.253482000722206e+001
 1.886844439712678e+000	 1.179170496689932e+000	 1.251906572980223e+001
 1.874684726139079e+000	 1.198408184852390e+000	 1.249654382138231e+001
 1.862315012446037e+000	 1.217541701282921e+000	 1.247431015130632e+001
 1.998639015383027e+000	 1.033412834359236e+000	 1.243378305019331e+001
 1.988079515201900e+000	 1.053584282934246e+000	 1.246289020172378e+001
 1.977299906419740e+000	 1.073678294494223e+000	 1.248599734898556e+001
 1.966300900012589e+000	 1.093691350697970e+000	 1.250295685625784e+001
 1.955083280473654e+000	 1.113619938032245e+000	 1.251362231218169e+001
 1.943647905932685e+000	 1.133460549699554e+000	 1.251784877065750e+001
 1.931995708218038e+000	 1.153209687516760e+000	 1.251549299470847e+001
 1.920127692860818e+000	 1.172863863822527e+000	 1.250641370282101e+001
 1.908044939040537e+000	 1.192419603391556e+000	 1.249047181725435e+001
 1.895748599471812e+000	 1.211873445353536e+000	 1.246753071379803e+001
 1.883239900231722e+000	 1.231221945114724e+000	 1.243745647243966e+001
 1.673991022419878e+000	 1.094419506774317e+000	 1.289927309575685e+001
 1.662684569349107e+000	 1.111521490027895e+000	 1.287570859223295e+001
 1.651191726573076e+000	 1.128523762284198e+000	 1.284759136557823e+001
 1.639513778119492e+000	 1.145423315329686e+000	 1.281499926050394e+001
 1.627652072081568e+000	 1.162217162236540e+000	 1.277801651154258e+001
 1.615608020198319e+000	 1.178902339053813e+000	 1.273673359006977e+001
 1.603383097381650e+000	 1.195475906489392e+000	 1.269124703729568e+001
 1.590978841190437e+000	 1.211934951580842e+000	 1.264165928354442e+001
 1.578396851251905e+000	 1.228276589353181e+000	 1.258807845418408e+001
 1.565638788630636e+000	 1.244497964461666e+000	 1.253061816260993e+001
 1.552706375145675e+000	 1.260596252817663e+000	 1.252196862748396e+001
 1.694915910196563e+000	 1.108099750610596e+000	 1.284866705302210e+001
 1.683468126462488e+000	 1.125415508655709e+000	 1.282219461962138e+001
 1.671831623151878e+000	 1.142630309315913e+000	 1.279083749884051e+001
 1.660007700342781e+000	 1.159741106774995e+000	 1.275467705251810e+001
 1.647997722979581e+000	 1.176744876768540e+000	 1.271380149522136e+001
 1.635803120448028e+000	 1.193638618296214e+000	 1.266830573639708e+001
 1.623425386096425e+000	 1.210419355324751e+000	 1.261829120765430e+001
 1.610866076703136e+000	 1.227084138479685e+000	 1.256386567550696e+001
 1.598126811890726e+000	 1.243630046723848e+000	 1.250514303994832e+001
 1.585209273487082e+000	 1.260054189020686e+000	 1.249085369561877e+001
 1.572115204833990e+000	 1.276353705980456e+000	 1.250417691398367e+001
 1.715840797974247e+000	 1.121779994446377e+000	 1.279874928982960e+001
 1.704251683576865e+000	 1.139309527282935e+000	 1.276925065191588e+001
 1.692471519731658e+000	 1.156736856346968e+000	 1.273453715408006e+001
 1.680501622567027e+000	 1.174058898219595e+000	 1.269469389164692e+001
 1.668343373878515e+000	 1.191272591299802e+000	 1.264981327949125e+001
 1.655998220698613e+000	 1.208374897537865e+000	 1.259999488902607e+001
 1.643467674812023e+000	 1.225362804159370e+000	 1.254534526947339e+001
 1.630753312216592e+000	 1.242233325377818e+000	 1.248597775375439e+001
 1.617856772530227e+000	 1.258983504093854e+000	 1.246421184234258e+001
 1.604779758344124e+000	 1.275610413579114e+000	 1.247547206571476e+001
 1.591524034522806e+000	 1.292111159142748e+000	 1.248373342703198e+001
 1.736765685752931e+000	 1.135460238281661e+000	 1.274958453271167e+001
 1.725035240692236e+000	 1.153203545909574e+000	 1.271694243301806e+001
 1.713111416312420e+000	 1.170843403377367e+000	 1.267875678011339e+001
 1.700995544792228e+000	 1.188376689663488e+000	 1.263511661983073e+001
 1.688689024778370e+000	 1.205800305830324e+000	 1.258611878854282e+001
 1.676193320950074e+000	 1.223111176778767e+000	 1.253186774469495e+001
 1.663509963528440e+000	 1.240306252993248e+000	 1.247247538375880e+001
 1.650640547730804e+000	 1.257382512275240e+000	 1.244164222965174e+001
 1.637586733170410e+000	 1.274336961463198e+000	 1.245112793810682e+001
 1.624350243201763e+000	 1.291166638136951e+000	 1.245748243185136e+001
 1.610932864212123e+000	 1.307868612304539e+000	 1.246065853746162e+001
 1.757690573532616e+000	 1.149140482116448e+000	 1.270123983198804e+001
 1.745818797808603e+000	 1.167097564535626e+000	 1.266533791968240e+001
 1.733751312894162e+000	 1.184949950407107e+000	 1.262356493780839e+001
 1.721489467018384e+000	 1.202694481106671e+000	 1.257601410047071e+001
 1.709034675679145e+000	 1.220328020360107e+000	 1.252278688771952e+001
 1.696388421202410e+000	 1.237847456018919e+000	 1.246399287133467e+001
 1.683552252245679e+000	 1.255249701826387e+000	 1.242278787739645e+001
 1.670527783245771e+000	 1.272531699171952e+000	 1.243076335260444e+001
 1.657316693811275e+000	 1.289690418831882e+000	 1.243548602681724e+001
 1.643920728059999e+000	 1.306722862694197e+000	 1.243690579180158e+001
 1.630341693901942e+000	 1.323626065465828e+000	 1.243497429455952e+001
 1.778615461313300e+000	 1.162820725950737e+000	 1.265378442507235e+001
 1.766602354925964e+000	 1.180991583161090e+000	 1.261450715134860e+001
 1.754391209476884e+000	 1.199056497436190e+000	 1.256903217584624e+001
 1.741983389245496e+000	 1.217012272549147e+000	 1.251745709951946e+001
 1.729380326580841e+000	 1.234855734889152e+000	 1.245988826933215e+001
 1.716583521455622e+000	 1.252583735258322e+000	 1.240733449958165e+001
 1.703594540963738e+000	 1.270193150658785e+000	 1.241403987951031e+001
 1.690415018761496e+000	 1.287680886067953e+000	 1.241738198371373e+001
 1.677046654452820e+000	 1.305043876199905e+000	 1.241730744120574e+001
 1.663491212918830e+000	 1.322279087250851e+000	 1.241376473949620e+001
 1.649750523592262e+000	 1.339383518626616e+000	 1.240670432733437e+001
 1.799540349094984e+000	 1.176500969784529e+000	 1.260728960931564e+001
 1.787385912044321e+000	 1.194885601785967e+000	 1.256452212905501e+001
 1.775031106060586e+000	 1.213163044464614e+000	 1.251523091515065e+001
 1.762477311473562e+000	 1.231330063990914e+000	 1.245951817486752e+001
 1.749725977483457e+000	 1.249383449417458e+000	 1.239749534643982e+001
 1.736778621709710e+000	 1.267320014496975e+000	 1.240066076462813e+001
 1.723636829682618e+000	 1.285136599490444e+000	 1.240284977632264e+001
 1.710302254277976e+000	 1.302830072963244e+000	 1.240151953235547e+001
 1.696776615095046e+000	 1.320397333567267e+000	 1.239661504221989e+001
 1.683061697778258e+000	 1.337835311806915e+000	 1.238808337222389e+001
 1.669159353283084e+000	 1.355140971786903e+000	 1.237587375267230e+001
 1.820465236877668e+000	 1.190181213617824e+000	 1.256182862361904e+001
 1.808169469163672e+000	 1.208779620410255e+000	 1.251545670270335e+001
 1.795671002645267e+000	 1.227269591492381e+000	 1.246223534128787e+001
 1.782971233702585e+000	 1.245647855431973e+000	 1.240227157335844e+001
 1.770071628386994e+000	 1.263911163945024e+000	 1.239036994274210e+001
 1.756973721964674e+000	 1.282056293734879e+000	 1.239160959215437e+001
 1.743679118402320e+000	 1.300080048321362e+000	 1.238923882570766e+001
 1.730189489795212e+000	 1.317979259857823e+000	 1.238319888053280e+001
 1.716506575737955e+000	 1.335750790933968e+000	 1.237343313119456e+001
 1.702632182638282e+000	 1.353391536362387e+000	 1.235988720423148e+001
 1.688568182974407e+000	 1.370898424946689e+000	 1.234250908982669e+001
 1.841390124661353e+000	 1.203861457450621e+000	 1.251747653811849e+001
 1.828953026284019e+000	 1.222673639033957e+000	 1.246738646600943e+001
 1.816310899230930e+000	 1.241376138519491e+000	 1.241012130420286e+001
 1.803465155932562e+000	 1.259965646872323e+000	 1.238295112831334e+001
 1.790417279291451e+000	 1.278438878471852e+000	 1.238342142421400e+001
 1.777168822220513e+000	 1.296792572972033e+000	 1.238020188743788e+001
 1.763721407122842e+000	 1.315023497151540e+000	 1.237322971318212e+001
 1.750076725313204e+000	 1.333128446751693e+000	 1.236244429920418e+001
 1.736236536381544e+000	 1.351104248300008e+000	 1.234778736801168e+001
 1.722202667498902e+000	 1.368947760917267e+000	 1.232920308621478e+001
 1.707977012666231e+000	 1.386655878105973e+000	 1.230663818073817e+001
 1.862315012446037e+000	 1.217541701282921e+000	 1.247431015130632e+001
 1.849736583405360e+000	 1.236567657657071e+000	 1.242038865853614e+001
 1.836950795817573e+000	 1.255482685545942e+000	 1.237822697451992e+001
 1.823959078163495e+000	 1.274283438311966e+000	 1.237808423376669e+001
 1.810762930196829e+000	 1.292966592997942e+000	 1.237418425508571e+001
 1.797363922477228e+000	 1.311528852208438e+000	 1.236645994748765e+001
 1.783763695844185e+000	 1.329966945980979e+000	 1.235484647170079e+001
 1.769963960831952e+000	 1.348277633644851e+000	 1.233928137025218e+001
 1.755966497025814e+000	 1.366457705665387e+000	 1.231970469477735e+001
 1.741773152360120e+000	 1.384503985471557e+000	 1.229605913023735e+001
 1.727385842358557e+000	 1.402413331264755e+000	 1.226829011572640e+001
 1.883239900231722e+000	 1.231221945114724e+000	 1.243745647243966e+001
 1.870520140527698e+000	 1.250461676279598e+000	 1.237605829244792e+001
 1.857590692405196e+000	 1.269589232571736e+000	 1.237543517575178e+001
 1.844453000395384e+000	 1.288601229750900e+000	 1.237099966839866e+001
 1.831108581103128e+000	 1.307494307523292e+000	 1.236268017476669e+001
 1.817559022734820e+000	 1.326265131444094e+000	 1.235040738372563e+001
 1.803805984566350e+000	 1.344910394809677e+000	 1.233411440679876e+001
 1.789851196351457e+000	 1.363426820537300e+000	 1.231373691365434e+001
 1.775696457670766e+000	 1.381811163030105e+000	 1.228921326458717e+001
 1.761343637221934e+000	 1.400060210025256e+000	 1.226048463965433e+001
 1.746794672051384e+000	 1.418170784423037e+000	 1.222749516413564e+001
 1.552706375145675e+000	 1.260596252817663e+000	 1.252196862748396e+001
 1.539601392635642e+000	 1.276568663195416e+000	 1.247724197603678e+001
 1.526325682174240e+000	 1.292412438818711e+000	 1.242861953226681e+001
 1.512881143235718e+000	 1.308124858924892e+000	 1.237606197273710e+001
 1.499269732809776e+000	 1.323703240303929e+000	 1.231953254434279e+001
 1.485493464468560e+000	 1.339144938811549e+000	 1.225899714472029e+001
 1.471554407386076e+000	 1.354447350854373e+000	 1.219442439874916e+001
 1.457454685310996e+000	 1.369607914845309e+000	 1.212578573094986e+001
 1.443196475493935e+000	 1.384624112627510e+000	 1.205305543359038e+001
 1.428782007570310e+000	 1.399493470865233e+000	 1.197621073032469e+001
 1.414213562400000e+000	 1.414213562400000e+000	 1.189523183519770e+001
 1.572115204833990e+000	 1.276353705980456e+000	 1.250417691398367e+001
 1.558846410042997e+000	 1.292525771487219e+000	 1.245467218756057e+001
 1.545404753201172e+000	 1.308567594305193e+000	 1.240190445513997e+001
 1.531792157526195e+000	 1.324476419662191e+000	 1.234585348215426e+001
 1.518010604470134e+000	 1.340249530808056e+000	 1.228650108903570e+001
 1.504062132774790e+000	 1.355884250546713e+000	 1.222383121190615e+001
 1.489948837478841e+000	 1.371377942739865e+000	 1.215782995996971e+001
 1.475672868877818e+000	 1.386728013780582e+000	 1.208848566944297e+001
 1.461236431437968e+000	 1.401931914035057e+000	 1.201578895386637e+001
 1.446641782665153e+000	 1.416987139250849e+000	 1.193973275064921e+001
 1.431891231930000e+000	 1.431891231930000e+000	 1.186031236371067e+001
 1.591524034522806e+000	 1.292111159142748e+000	 1.248373342703198e+001
 1.578091427450757e+000	 1.308482879778616e+000	 1.243015982489758e+001
 1.564483824228426e+000	 1.324722749791354e+000	 1.237394341445020e+001
 1.550703171816918e+000	 1.340827980399244e+000	 1.231508265765816e+001
 1.536751476130674e+000	 1.356795821312002e+000	 1.225357756464130e+001
 1.522630801081145e+000	 1.372623562281752e+000	 1.218942973504219e+001
 1.508343267571685e+000	 1.388308534625277e+000	 1.212264239669932e+001
 1.493891052444684e+000	 1.403848112715810e+000	 1.205322044148821e+001
 1.479276387382022e+000	 1.419239715442583e+000	 1.198117045820334e+001
 1.464501557760002e+000	 1.434480807636460e+000	 1.190650076236278e+001
 1.449568901460000e+000	 1.449568901460000e+000	 1.182922142282505e+001
 1.610932864212123e+000	 1.307868612304539e+000	 1.246065853746162e+001
 1.597336444858925e+000	 1.324439988069607e+000	 1.240369981891742e+001
 1.583562895256002e+000	 1.340877905277195e+000	 1.234470636320174e+001
 1.569614186107887e+000	 1.357179541136051e+000	 1.228369494864519e+001
 1.555492347791394e+000	 1.373342111815768e+000	 1.222068340309662e+001
 1.541199469387626e+000	 1.389362874016665e+000	 1.215569062636560e+001
 1.526737697664610e+000	 1.405239126510609e+000	 1.208873661055572e+001
 1.512109236011597e+000	 1.420968211650994e+000	 1.201984245818435e+001
 1.497316343326096e+000	 1.436547516850090e+000	 1.194903039799160e+001
 1.482361332854856e+000	 1.451974476022066e+000	 1.187632379834810e+001
 1.467246570990000e+000	 1.467246570990000e+000	 1.180174717817775e+001
 1.630341693901942e+000	 1.323626065465828e+000	 1.243497429455952e+001
 1.616581462267498e+000	 1.340397096360191e+000	 1.237529002260154e+001
 1.602641966283898e+000	 1.357033060762714e+000	 1.231416739691270e+001
 1.588525200399102e+000	 1.373531101872612e+000	 1.225164114355315e+001
 1.574233219452296e+000	 1.389888402319353e+000	 1.218774654742793e+001
 1.559768137694232e+000	 1.406102185751452e+000	 1.212251945618080e+001
 1.545132127757616e+000	 1.422169718395861e+000	 1.205599628255663e+001
 1.530327419578553e+000	 1.438088310586131e+000	 1.198821400515870e+001
 1.515356299270190e+000	 1.453855318257577e+000	 1.191921016753134e+001
 1.500221107949715e+000	 1.469468144407667e+000	 1.184902287550523e+001
 1.484924240520000e+000	 1.484924240520000e+000	 1.177769079274819e+001
 1.649750523592262e+000	 1.339383518626616e+000	 1.240670432733437e+001
 1.635826479676479e+000	 1.356354204650368e+000	 1.234493103915439e+001
 1.621721037312115e+000	 1.373188216247912e+000	 1.228230450993793e+001
 1.607436214690563e+000	 1.389882662608927e+000	 1.221887705579997e+001
 1.592974091113377e+000	 1.406434692822757e+000	 1.215470106874559e+001
 1.578336806000964e+000	 1.422841497486114e+000	 1.208982900238478e+001
 1.563526557850702e+000	 1.439100310281031e+000	 1.202431335668459e+001
 1.548545603145556e+000	 1.455208409521224e+000	 1.195820666171266e+001
 1.533396255214304e+000	 1.471163119665044e+000	 1.189156146033193e+001
 1.518080883044578e+000	 1.486961812793264e+000	 1.182443028980954e+001
 1.502601910049999e+000	 1.502601910049999e+000	 1.175686566230885e+001
 1.669159353283084e+000	 1.355140971786903e+000	 1.237587375267230e+001
 1.655071497085865e+000	 1.372311312940140e+000	 1.231262606210673e+001
 1.640800108340654e+000	 1.389343371732789e+000	 1.224909936879236e+001
 1.626347228982270e+000	 1.406234223344997e+000	 1.218536323163382e+001
 1.611714962774640e+000	 1.422980983325981e+000	 1.212148680995995e+001
 1.596905474307821e+000	 1.439580809220650e+000	 1.205753883142120e+001
 1.581920987943868e+000	 1.456030902166122e+000	 1.199358755948193e+001
 1.566763786712603e+000	 1.472328508456272e+000	 1.192970076049166e+001
 1.551436211158439e+000	 1.488470921072490e+000	 1.186594567032079e+001
 1.535940658139447e+000	 1.504455481178854e+000	 1.180238896055146e+001
 1.520279579580000e+000	 1.520279579580000e+000	 1.173909670421639e+001
 1.688568182974407e+000	 1.370898424946689e+000	 1.234250908982669e+001
 1.674316514495657e+000	 1.388268421229506e+000	 1.227838072644618e+001
 1.659879179369514e+000	 1.405498527217344e+000	 1.221453710110745e+001
 1.645258243274223e+000	 1.422585784080819e+000	 1.215106467813125e+001
 1.630455834436083e+000	 1.439527273829023e+000	 1.208804905406889e+001
 1.615474142614804e+000	 1.456320120955061e+000	 1.202557490813381e+001
 1.600315418037115e+000	 1.472961494051132e+000	 1.196372595277735e+001
 1.584981970279696e+000	 1.489448607391274e+000	 1.190258488441952e+001
 1.569476167102593e+000	 1.505778722479917e+000	 1.184223333434810e+001
 1.553800433234321e+000	 1.521949149564441e+000	 1.178275181980114e+001
 1.537957249110000e+000	 1.537957249110000e+000	 1.172421969525153e+001
 1.707977012666231e+000	 1.386655878105973e+000	 1.230663818073817e+001
 1.693561531905856e+000	 1.404225529518465e+000	 1.224220296989825e+001
 1.678958250398695e+000	 1.421653682701579e+000	 1.217860609897664e+001
 1.664169257566422e+000	 1.438937344816397e+000	 1.211595060974111e+001
 1.649196706097708e+000	 1.456073564331885e+000	 1.205433821506176e+001
 1.634042810921913e+000	 1.473059432689346e+000	 1.199386923222122e+001
 1.618709848130441e+000	 1.489892085936061e+000	 1.193464251690815e+001
 1.603200153846835e+000	 1.506568706326231e+000	 1.187675539793266e+001
 1.587516123046768e+000	 1.523086523887323e+000	 1.182030361270242e+001
 1.571660208329200e+000	 1.539442817950021e+000	 1.176538124350052e+001
 1.555634918639999e+000	 1.555634918639999e+000	 1.171208065460643e+001
 1.727385842358557e+000	 1.402413331264755e+000	 1.226829011572640e+001
 1.712806549316460e+000	 1.420182637807017e+000	 1.220410290355896e+001
 1.698037321428197e+000	 1.437808838185492e+000	 1.214129783555883e+001
 1.683080271858867e+000	 1.455288905551728e+000	 1.207999421191524e+001
 1.667937577759513e+000	 1.472619854834566e+000	 1.202030954966154e+001
 1.652611479229147e+000	 1.489798744423506e+000	 1.196235949919995e+001
 1.637104278223849e+000	 1.506822677820911e+000	 1.190625776204012e+001
 1.621418337414018e+000	 1.523688805261142e+000	 1.185211600981635e+001
 1.605556078990962e+000	 1.540394325294709e+000	 1.180004380464806e+001
 1.589519983424084e+000	 1.556936486335597e+000	 1.175014852090868e+001
 1.573312588170000e+000	 1.573312588170000e+000	 1.170253526846831e+001
 1.746794672051384e+000	 1.418170784423037e+000	 1.222749516413564e+001
 1.732051566727472e+000	 1.436139746095164e+000	 1.216409269115207e+001
 1.717116392458021e+000	 1.453963993669085e+000	 1.210260669390796e+001
 1.701991286151559e+000	 1.471640466286814e+000	 1.204317242049734e+001
 1.686678449421500e+000	 1.489166145337067e+000	 1.198592288828409e+001
 1.671180147536507e+000	 1.506538056157540e+000	 1.193098878397017e+001
 1.655498708317338e+000	 1.523753269705680e+000	 1.187849836539914e+001
 1.639636520981248e+000	 1.540808904196010e+000	 1.182857736518544e+001
 1.623596034935177e+000	 1.557702126702076e+000	 1.178134889625960e+001
 1.607379758518974e+000	 1.574430154721169e+000	 1.173693335941773e+001
 1.590990257700000e+000	 1.590990257700000e+000	 1.169544835296404e+001
 1.414213562400000e+000	 1.414213562400000e+000	 1.189523183519770e+001
 1.399493470865234e+000	 1.428782007570309e+000	 1.178997185618099e+001
 1.384624112627510e+000	 1.443196475493934e+000	 1.168644543130653e+001
 1.369607914845310e+000	 1.457454685310996e+000	 1.158479013468474e+001
 1.354447350854374e+000	 1.471554407386076e+000	 1.148514101719636e+001
 1.339144938811550e+000	 1.485493464468560e+000	 1.138763049340641e+001
 1.323703240303929e+000	 1.499269732809775e+000	 1.129238823105012e+001
 1.308124858924892e+000	 1.512881143235717e+000	 1.119954104323965e+001
 1.292412438818711e+000	 1.526325682174239e+000	 1.110921278353599e+001
 1.276568663195417e+000	 1.539601392635642e+000	 1.102152424402754e+001
 1.260596252817662e+000	 1.552706375145675e+000	 1.093659305655333e+001
 1.431891231930000e+000	 1.431891231930000e+000	 1.186031236371067e+001
 1.416987139250849e+000	 1.446641782665152e+000	 1.176197373418506e+001
 1.401931914035057e+000	 1.461236431437968e+000	 1.166477512166954e+001
 1.386728013780583e+000	 1.475672868877817e+000	 1.156883562782534e+001
 1.371377942739866e+000	 1.489948837478840e+000	 1.147427248964970e+001
 1.355884250546714e+000	 1.504062132774790e+000	 1.138120098514307e+001
 1.340249530808056e+000	 1.518010604470134e+000	 1.128973434055869e+001
 1.324476419662191e+000	 1.531792157526194e+000	 1.119998363935305e+001
 1.308567594305194e+000	 1.545404753201172e+000	 1.111205773295502e+001
 1.292525771487220e+000	 1.558846410042996e+000	 1.102606315347098e+001
 1.276353705980456e+000	 1.572115204833990e+000	 1.094210402844122e+001
 1.449568901460000e+000	 1.449568901460000e+000	 1.182922142282505e+001
 1.434480807636461e+000	 1.464501557760002e+000	 1.173708355842870e+001
 1.419239715442584e+000	 1.479276387382022e+000	 1.164550985212840e+001
 1.403848112715812e+000	 1.493891052444684e+000	 1.155460123880866e+001
 1.388308534625278e+000	 1.508343267571685e+000	 1.146445743678414e+001
 1.372623562281752e+000	 1.522630801081144e+000	 1.137517687198891e+001
 1.356795821312003e+000	 1.536751476130674e+000	 1.128685660276903e+001
 1.340827980399244e+000	 1.550703171816918e+000	 1.119959224536809e+001
 1.324722749791355e+000	 1.564483824228426e+000	 1.111347790019727e+001
 1.308482879778617e+000	 1.578091427450757e+000	 1.102860607898254e+001
 1.292111159142748e+000	 1.591524034522806e+000	 1.094506763288261e+001
 1.467246570990000e+000	 1.467246570990000e+000	 1.180174717817775e+001
 1.451974476022067e+000	 1.482361332854855e+000	 1.171511571870711e+001
 1.436547516850091e+000	 1.497316343326095e+000	 1.162848958665788e+001
 1.420968211650994e+000	 1.512109236011596e+000	 1.154195184327004e+001
 1.405239126510610e+000	 1.526737697664610e+000	 1.145558497128455e+001
 1.389362874016665e+000	 1.541199469387625e+000	 1.136947081743336e+001
 1.373342111815769e+000	 1.555492347791394e+000	 1.128369053456489e+001
 1.357179541136051e+000	 1.569614186107886e+000	 1.119832452346568e+001
 1.340877905277195e+000	 1.583562895256001e+000	 1.111345237444363e+001
 1.324439988069607e+000	 1.597336444858925e+000	 1.102915280874132e+001
 1.307868612304539e+000	 1.610932864212123e+000	 1.094550361985147e+001
 1.484924240520000e+000	 1.484924240520000e+000	 1.177769079274819e+001
 1.469468144407668e+000	 1.500221107949714e+000	 1.169589637147531e+001
 1.453855318257577e+000	 1.515356299270189e+000	 1.161356485457455e+001
 1.438088310586132e+000	 1.530327419578553e+000	 1.153076171080595e+001
 1.422169718395861e+000	 1.545132127757615e+000	 1.144755245890625e+001
 1.406102185751453e+000	 1.559768137694231e+000	 1.136400262816873e+001
 1.389888402319354e+000	 1.574233219452295e+000	 1.128017771770087e+001
 1.373531101872613e+000	 1.588525200399102e+000	 1.119614315439244e+001
 1.357033060762715e+000	 1.602641966283897e+000	 1.111196424963271e+001
 1.340397096360191e+000	 1.616581462267498e+000	 1.102770615482174e+001
 1.323626065465828e+000	 1.630341693901942e+000	 1.094343381572695e+001
 1.502601910049999e+000	 1.502601910049999e+000	 1.175686566230885e+001
 1.486961812793264e+000	 1.518080883044577e+000	 1.167926274769170e+001
 1.471163119665044e+000	 1.533396255214303e+000	 1.160059612904595e+001
 1.455208409521225e+000	 1.548545603145556e+000	 1.152091395238784e+001
 1.439100310281032e+000	 1.563526557850701e+000	 1.144026503300027e+001
 1.422841497486115e+000	 1.578336806000964e+000	 1.135869883390180e+001
 1.406434692822758e+000	 1.592974091113377e+000	 1.127626544204527e+001
 1.389882662608928e+000	 1.607436214690562e+000	 1.119301554225089e+001
 1.373188216247913e+000	 1.621721037312115e+000	 1.110900038888667e+001
 1.356354204650370e+000	 1.635826479676478e+000	 1.102427177531735e+001
 1.339383518626616e+000	 1.649750523592262e+000	 1.093888200115187e+001
 1.520279579580000e+000	 1.520279579580000e+000	 1.173909670421639e+001
 1.504455481178855e+000	 1.535940658139447e+000	 1.166506250895144e+001
 1.488470921072491e+000	 1.551436211158438e+000	 1.158945324895994e+001
 1.472328508456273e+000	 1.566763786712603e+000	 1.151230000632885e+001
 1.456030902166122e+000	 1.581920987943867e+000	 1.143363514290896e+001
 1.439580809220651e+000	 1.596905474307821e+000	 1.135349229648099e+001
 1.422980983325981e+000	 1.611714962774640e+000	 1.127190637371297e+001
 1.406234223344997e+000	 1.626347228982270e+000	 1.118891353988569e+001
 1.389343371732789e+000	 1.640800108340653e+000	 1.110455120537281e+001
 1.372311312940141e+000	 1.655071497085864e+000	 1.101885800887446e+001
 1.355140971786903e+000	 1.669159353283084e+000	 1.093187379741269e+001
 1.537957249110000e+000	 1.537957249110000e+000	 1.172421969525153e+001
 1.521949149564441e+000	 1.553800433234320e+000	 1.165315314802469e+001
 1.505778722479917e+000	 1.569476167102593e+000	 1.158001488066474e+001
 1.489448607391275e+000	 1.584981970279696e+000	 1.150481915970099e+001
 1.472961494051132e+000	 1.600315418037114e+000	 1.142758213350676e+001
 1.456320120955062e+000	 1.615474142614804e+000	 1.134832184598000e+001
 1.439527273829024e+000	 1.630455834436083e+000	 1.126705824608585e+001
 1.422585784080820e+000	 1.645258243274223e+000	 1.118381319320886e+001
 1.405498527217345e+000	 1.659879179369513e+000	 1.109861045827785e+001
 1.388268421229506e+000	 1.674316514495656e+000	 1.101147572063757e+001
 1.370898424946689e+000	 1.688568182974407e+000	 1.092243656065541e+001
 1.555634918639999e+000	 1.555634918639999e+000	 1.171208065460643e+001
 1.539442817950022e+000	 1.571660208329199e+000	 1.164340143026706e+001
 1.523086523887323e+000	 1.587516123046767e+000	 1.157216801640877e+001
 1.506568706326231e+000	 1.603200153846834e+000	 1.149837810238284e+001
 1.489892085936062e+000	 1.618709848130441e+000	 1.142203185340851e+001
 1.473059432689347e+000	 1.634042810921912e+000	 1.134313194159441e+001
 1.456073564331886e+000	 1.649196706097707e+000	 1.126168357189979e+001
 1.438937344816397e+000	 1.664169257566422e+000	 1.117769450295732e+001
 1.421653682701580e+000	 1.678958250398694e+000	 1.109117506269331e+001
 1.404225529518465e+000	 1.693561531905855e+000	 1.100213815869826e+001
 1.386655878105973e+000	 1.707977012666231e+000	 1.091059928331400e+001
 1.573312588170000e+000	 1.573312588170000e+000	 1.170253526846831e+001
 1.556936486335598e+000	 1.589519983424083e+000	 1.163568287268791e+001
 1.540394325294709e+000	 1.605556078990961e+000	 1.156580750659345e+001
 1.523688805261143e+000	 1.621418337414017e+000	 1.149289051117157e+001
 1.506822677820911e+000	 1.637104278223849e+000	 1.141691628959099e+001
 1.489798744423506e+000	 1.652611479229146e+000	 1.133787235539850e+001
 1.472619854834567e+000	 1.667937577759512e+000	 1.125574937474171e+001
 1.455288905551728e+000	 1.683080271858867e+000	 1.117054120251166e+001
 1.437808838185493e+000	 1.698037321428196e+000	 1.108224491231744e+001
 1.420182637807018e+000	 1.712806549316460e+000	 1.099086082022173e+001
 1.402413331264755e+000	 1.727385842358557e+000	 1.089639250218425e+001
 1.590990257700000e+000	 1.590990257700000e+000	 1.169544835296404e+001
 1.574430154721170e+000	 1.607379758518973e+000	 1.162988125774726e+001
 1.557702126702076e+000	 1.623596034935176e+000	 1.156083562320906e+001
 1.540808904196010e+000	 1.639636520981247e+000	 1.148827666162090e+001
 1.523753269705680e+000	 1.655498708317337e+000	 1.141217322637252e+001
 1.506538056157541e+000	 1.671180147536507e+000	 1.133249787718563e+001
 1.489166145337068e+000	 1.686678449421499e+000	 1.124922693844673e+001
 1.471640466286814e+000	 1.701991286151559e+000	 1.116234055052719e+001
 1.453963993669085e+000	 1.717116392458020e+000	 1.107182271397700e+001
 1.436139746095165e+000	 1.732051566727472e+000	 1.097766132649830e+001
 1.418170784423037e+000	 1.746794672051384e+000	 1.087984821262566e+001
 1.260596252817662e+000	 1.552706375145675e+000	 1.093659305655333e+001
 1.244497964461667e+000	 1.565638788630635e+000	 1.084613861348800e+001
 1.228276589353182e+000	 1.578396851251904e+000	 1.073800537705371e+001
 1.211934951580843e+000	 1.590978841190437e+000	 1.062644276059675e+001
 1.195475906489393e+000	 1.603383097381649e+000	 1.051182631982877e+001
 1.178902339053814e+000	 1.615608020198319e+000	 1.039453439158567e+001
 1.162217162236541e+000	 1.627652072081567e+000	 1.027494714011098e+001
 1.145423315329686e+000	 1.639513778119491e+000	 1.015344560173553e+001
 1.128523762284199e+000	 1.651191726573076e+000	 1.003041073052895e+001
 1.111521490027896e+000	 1.662684569349107e+000	 9.906222447478825e+000
 1.094419506774317e+000	 1.673991022419878e+000	 9.781258695725255e+000
 1.276353705980456e+000	 1.572115204833990e+000	 1.094210402844122e+001
 1.260054189020686e+000	 1.585209273487081e+000	 1.085387377711965e+001
 1.243630046723849e+000	 1.598126811890726e+000	 1.075504116644224e+001
 1.227084138479686e+000	 1.610866076703136e+000	 1.064049435481080e+001
 1.210419355324752e+000	 1.623425386096425e+000	 1.052391469948718e+001
 1.193638618296214e+000	 1.635803120448028e+000	 1.040571788990398e+001
 1.176744876768541e+000	 1.647997722979580e+000	 1.028632051630469e+001
 1.159741106774995e+000	 1.660007700342781e+000	 1.016613905901747e+001
 1.142630309315913e+000	 1.671831623151877e+000	 1.004558888014440e+001
 1.125415508655710e+000	 1.683468126462488e+000	 9.925083220340365e+000
 1.108099750610596e+000	 1.694915910196563e+000	 9.805032203322165e+000
 1.292111159142748e+000	 1.591524034522806e+000	 1.094506763288261e+001
 1.275610413579115e+000	 1.604779758344124e+000	 1.085244301640358e+001
 1.258983504093854e+000	 1.617856772530227e+000	 1.075867162320525e+001
 1.242233325377819e+000	 1.630753312216591e+000	 1.065343684841600e+001
 1.225362804159370e+000	 1.643467674812022e+000	 1.053522889367594e+001
 1.208374897537865e+000	 1.655998220698612e+000	 1.041643299063036e+001
 1.191272591299802e+000	 1.668343373878515e+000	 1.029750276637607e+001
 1.174058898219596e+000	 1.680501622567026e+000	 1.017889077765505e+001
 1.156736856346969e+000	 1.692471519731658e+000	 1.006104744725034e+001
 1.139309527282936e+000	 1.704251683576865e+000	 9.944420007012516e+000
 1.121779994446377e+000	 1.715840797974247e+000	 9.829451450275712e+000
 1.307868612304539e+000	 1.610932864212123e+000	 1.094550361985147e+001
 1.291166638136952e+000	 1.624350243201763e+000	 1.084916266146170e+001
 1.274336961463199e+000	 1.637586733170410e+000	 1.075264007353814e+001
 1.257382512275241e+000	 1.650640547730803e+000	 1.065593271361133e+001
 1.240306252993249e+000	 1.663509963528439e+000	 1.054624722976672e+001
 1.223111176778767e+000	 1.676193320950074e+000	 1.042712449416003e+001
 1.205800305830324e+000	 1.688689024778369e+000	 1.030890583643479e+001
 1.188376689663488e+000	 1.700995544792228e+000	 1.019208054473245e+001
 1.170843403377367e+000	 1.713111416312419e+000	 1.007713477726319e+001
 1.153203545909575e+000	 1.725035240692236e+000	 9.964550450203674e+000
 1.135460238281661e+000	 1.736765685752931e+000	 9.854804136626919e+000
 1.323626065465828e+000	 1.630341693901942e+000	 1.094343381572695e+001
 1.306722862694197e+000	 1.643920728059998e+000	 1.084403033526766e+001
 1.289690418831883e+000	 1.657316693811274e+000	 1.074538891581273e+001
 1.272531699171953e+000	 1.670527783245771e+000	 1.064752098235176e+001
 1.255249701826388e+000	 1.683552252245678e+000	 1.055043747168976e+001
 1.237847456018920e+000	 1.696388421202410e+000	 1.043824492713382e+001
 1.220328020360108e+000	 1.709034675679144e+000	 1.032095040418068e+001
 1.202694481106672e+000	 1.721489467018384e+000	 1.020609784178590e+001
 1.184949950407108e+000	 1.733751312894161e+000	 1.009420983008448e+001
 1.167097564535627e+000	 1.745818797808602e+000	 9.985803683993449e+000
 1.149140482116448e+000	 1.757690573532615e+000	 9.881390287237926e+000
 1.339383518626616e+000	 1.649750523592262e+000	 1.093888200115187e+001
 1.322279087250852e+000	 1.663491212918830e+000	 1.083704675535603e+001
 1.305043876199906e+000	 1.677046654452820e+000	 1.073689653625870e+001
 1.287680886067954e+000	 1.690415018761495e+000	 1.063845706583433e+001
 1.270193150658786e+000	 1.703594540963737e+000	 1.054175268676038e+001
 1.252583735258323e+000	 1.716583521455622e+000	 1.044680635898043e+001
 1.234855734889153e+000	 1.729380326580840e+000	 1.033406536528066e+001
 1.217012272549147e+000	 1.741983389245495e+000	 1.022134127454171e+001
 1.199056497436191e+000	 1.754391209476883e+000	 1.011264155571934e+001
 1.180991583161090e+000	 1.766602354925964e+000	 1.000851965786960e+001
 1.162820725950737e+000	 1.778615461313300e+000	 9.909521526802507e+000
 1.355140971786903e+000	 1.669159353283084e+000	 1.093187379741269e+001
 1.337835311806915e+000	 1.683061697778258e+000	 1.082821555390574e+001
 1.320397333567268e+000	 1.696776615095046e+000	 1.072714527400428e+001
 1.302830072963244e+000	 1.710302254277975e+000	 1.062870271492164e+001
 1.285136599490445e+000	 1.723636829682618e+000	 1.053292537868262e+001
 1.267320014496976e+000	 1.736778621709710e+000	 1.043984849873936e+001
 1.249383449417458e+000	 1.749725977483456e+000	 1.034868735557986e+001
 1.231330063990914e+000	 1.762477311473562e+000	 1.023821804244028e+001
 1.213163044464615e+000	 1.775031106060585e+000	 1.013280831345641e+001
 1.194885601785967e+000	 1.787385912044320e+000	 1.003304850792506e+001
 1.176500969784529e+000	 1.799540349094984e+000	 9.939520405437504e+000
 1.370898424946689e+000	 1.688568182974407e+000	 1.092243656065541e+001
 1.353391536362387e+000	 1.702632182638281e+000	 1.081754311023201e+001
 1.335750790933969e+000	 1.716506575737954e+000	 1.071612119389789e+001
 1.317979259857824e+000	 1.730189489795211e+000	 1.061822435068128e+001
 1.300080048321363e+000	 1.743679118402319e+000	 1.052390300331427e+001
 1.282056293734880e+000	 1.756973721964673e+000	 1.043320443506211e+001
 1.263911163945025e+000	 1.770071628386993e+000	 1.034617276896780e+001
 1.245647855431973e+000	 1.782971233702584e+000	 1.025714344474440e+001
 1.227269591492382e+000	 1.795671002645267e+000	 1.015509733110465e+001
 1.208779620410256e+000	 1.808169469163672e+000	 1.005974997142114e+001
 1.190181213617824e+000	 1.820465236877668e+000	 9.971719770784565e+000
 1.386655878105973e+000	 1.707977012666231e+000	 1.091059928331400e+001
 1.368947760917268e+000	 1.722202667498902e+000	 1.080503839469892e+001
 1.351104248300009e+000	 1.736236536381543e+000	 1.070381387481984e+001
 1.333128446751693e+000	 1.750076725313203e+000	 1.060699279903352e+001
 1.315023497151541e+000	 1.763721407122842e+000	 1.051463827966247e+001
 1.296792572972034e+000	 1.777168822220513e+000	 1.042680943319301e+001
 1.278438878471853e+000	 1.790417279291451e+000	 1.034356135100466e+001
 1.259965646872324e+000	 1.803465155932562e+000	 1.026494507365928e+001
 1.241376138519492e+000	 1.816310899230930e+000	 1.017990420109985e+001
 1.222673639033957e+000	 1.828953026284018e+000	 1.008899284126642e+001
 1.203861457450621e+000	 1.841390124661353e+000	 1.000646218292374e+001
 1.402413331264755e+000	 1.727385842358557e+000	 1.089639250218425e+001
 1.384503985471558e+000	 1.741773152360119e+000	 1.079071282315497e+001
 1.366457705665388e+000	 1.755966497025814e+000	 1.069021621226453e+001
 1.348277633644852e+000	 1.769963960831952e+000	 1.059498304328747e+001
 1.329966945980980e+000	 1.783763695844185e+000	 1.050508889420120e+001
 1.311528852208439e+000	 1.797363922477228e+000	 1.042060450490305e+001
 1.292966592997942e+000	 1.810762930196829e+000	 1.034159573955620e+001
 1.274283438311966e+000	 1.823959078163494e+000	 1.026812355359891e+001
 1.255482685545943e+000	 1.836950795817572e+000	 1.020024396544751e+001
 1.236567657657072e+000	 1.849736583405360e+000	 1.012115445727242e+001
 1.217541701282921e+000	 1.862315012446037e+000	 1.004409936873088e+001
 1.418170784423037e+000	 1.746794672051384e+000	 1.087984821262566e+001
 1.400060210025256e+000	 1.761343637221932e+000	 1.077458012107269e+001
 1.381811163030106e+000	 1.775696457670766e+000	 1.067532423408418e+001
 1.363426820537300e+000	 1.789851196351457e+000	 1.058217399317517e+001
 1.344910394809678e+000	 1.803805984566350e+000	 1.049521722490083e+001
 1.326265131444095e+000	 1.817559022734820e+000	 1.041453608923884e+001
 1.307494307523293e+000	 1.831108581103128e+000	 1.034020703367811e+001
 1.288601229750901e+000	 1.844453000395383e+000	 1.027230075305658e+001
 1.269589232571737e+000	 1.857590692405196e+000	 1.021088215518280e+001
 1.250461676279599e+000	 1.870520140527698e+000	 1.015601033226980e+001
 1.231221945114724e+000	 1.883239900231722e+000	 1.004204034209992e+001
 1.094419506774317e+000	 1.673991022419878e+000	 9.781258695725255e+000
 1.077220840323977e+000	 1.685109866189261e+000	 9.639654635764480e+000
 1.059928536361034e+000	 1.696039945806038e+000	 9.499027064129876e+000
 1.042545656746593e+000	 1.706780171423916e+000	 9.359797034886926e+000
 1.025075277809822e+000	 1.717329518407680e+000	 9.222378811277729e+000
 1.007520488639881e+000	 1.727687027486658e+000	 9.087178940477100e+000
 9.898843893801801e-001	 1.737851804855421e+000	 8.954595350442453e+000
 9.721700895268447e-001	 1.747823022222098e+000	 8.825016471016483e+000
 9.543807062332069e-001	 1.757599916804693e+000	 8.698820381350256e+000
 9.365193626221513e-001	 1.767181791275909e+000	 8.576373985612779e+000
 9.185891861080785e-001	 1.776568013657048e+000	 8.458032218849548e+000
 1.108099750610596e+000	 1.694915910196563e+000	 9.805032203322165e+000
 1.090686100828744e+000	 1.706173739513039e+000	 9.671249553258321e+000
 1.073177643065515e+000	 1.717240445125080e+000	 9.539031133970646e+000
 1.055577477455279e+000	 1.728114923563312e+000	 9.408817436026173e+000
 1.037888718781318e+000	 1.738796137384582e+000	 9.281041567365673e+000
 1.020114494746405e+000	 1.749283115327332e+000	 9.156128290236529e+000
 1.002257944245742e+000	 1.759574952413566e+000	 9.034493081479214e+000
 9.843222156441568e-001	 1.769670809997763e+000	 8.916541218411689e+000
 9.663104650593971e-001	 1.779569915763153e+000	 8.802666892455349e+000
 9.482258546533831e-001	 1.789271563665848e+000	 8.693252352544562e+000
 9.300715509331942e-001	 1.798775113827414e+000	 8.588667080249561e+000
 1.121779994446377e+000	 1.715840797974247e+000	 9.829451450275712e+000
 1.104151361333108e+000	 1.727237612837812e+000	 9.703153660324043e+000
 1.086426749769679e+000	 1.738440944445100e+000	 9.579000948322776e+000
 1.068609298163723e+000	 1.749449675703662e+000	 9.457454133506406e+000
 1.050702159752635e+000	 1.760262756362402e+000	 9.338966060568282e+000
 1.032708500852804e+000	 1.770879203168879e+000	 9.223980597322397e+000
 1.014631499111225e+000	 1.781298099972527e+000	 9.112931656998219e+000
 9.964743417614247e-001	 1.791518597774180e+000	 9.006242247497367e+000
 9.782402238855679e-001	 1.801539914722290e+000	 8.904323549838328e+000
 9.599323466846095e-001	 1.811361336056377e+000	 8.807574027907034e+000
 9.415539157583097e-001	 1.820982213998275e+000	 8.716378571515886e+000
 1.135460238281661e+000	 1.736765685752931e+000	 9.854804136626919e+000
 1.117616621837070e+000	 1.748301486163579e+000	 9.735642884420511e+000
 1.099675856473525e+000	 1.759641443766101e+000	 9.619200828254819e+000
 1.081641118871923e+000	 1.770784427844967e+000	 9.505960021831655e+000
 1.063515600723775e+000	 1.781729375341141e+000	 9.396393952108042e+000
 1.045302506959081e+000	 1.792475291011298e+000	 9.290966496221763e+000
 1.027005053976629e+000	 1.803021247532307e+000	 9.190130904346443e+000
 1.008626467878648e+000	 1.813366385551350e+000	 9.094328810894346e+000
 9.901699827117186e-001	 1.823509913682103e+000	 9.003989276377492e+000
 9.716388387158311e-001	 1.833451108447498e+000	 8.919527862124436e+000
 9.530362805834256e-001	 1.843189314169633e+000	 8.841345739929750e+000
 1.149140482116448e+000	 1.757690573532615e+000	 9.881390287237926e+000
 1.131081882340630e+000	 1.769365359490342e+000	 9.769005439509716e+000
 1.112924963177054e+000	 1.780841943088082e+000	 9.659907329300507e+000
 1.094672939579881e+000	 1.792119179987225e+000	 9.554600164283961e+000
 1.076329041694736e+000	 1.803195994320799e+000	 9.453578992729396e+000
 1.057896513065233e+000	 1.814071378854591e+000	 9.357328618206022e+000
 1.039378608841954e+000	 1.824744395092904e+000	 9.266322541531828e+000
 1.020778593995827e+000	 1.835214173329271e+000	 9.181021932478648e+000
 1.002099741537850e+000	 1.845479912642593e+000	 9.101874633629581e+000
 9.833453307470480e-001	 1.855540880839210e+000	 9.029314198670063e+000
 9.645186454085410e-001	 1.865396414341487e+000	 8.963758967265944e+000
 1.162820725950737e+000	 1.778615461313300e+000	 9.909521526802507e+000
 1.144547142843787e+000	 1.790429232818099e+000	 9.803541103321280e+000
 1.126174069880265e+000	 1.802042442411042e+000	 9.701408521783995e+000
 1.107704760287596e+000	 1.813453932130438e+000	 9.603651077113039e+000
 1.089142482665519e+000	 1.824662613301375e+000	 9.510786311550666e+000
 1.070490519171262e+000	 1.835667466698757e+000	 9.423320885637740e+000
 1.051752163707200e+000	 1.846467542654318e+000	 9.341749477772655e+000
 1.032930720112962e+000	 1.857061961107944e+000	 9.266553714954741e+000
 1.014029500363961e+000	 1.867449911603759e+000	 9.198201137201590e+000
 9.950518227782601e-001	 1.877630653231514e+000	 9.119614383199995e+000
 9.760010102336569e-001	 1.887603514513837e+000	 8.997440431258099e+000
 1.176500969784529e+000	 1.799540349094984e+000	 9.939520405437504e+000
 1.158012403346542e+000	 1.811493106146852e+000	 9.839560545040484e+000
 1.139423176583158e+000	 1.823242941734981e+000	 9.744003321355493e+000
 1.120736580995068e+000	 1.834788684274606e+000	 9.653400063665909e+000
 1.101955923636123e+000	 1.846129232282870e+000	 9.568291754530137e+000
 1.083084525277168e+000	 1.857263554543796e+000	 9.489207855512007e+000
 1.064125718572367e+000	 1.868190690216550e+000	 9.416665162845749e+000
 1.045082846230052e+000	 1.878909748887368e+000	 9.326982633486306e+000
 1.025959259190053e+000	 1.889419910565602e+000	 9.201743355762394e+000
 1.006758314809467e+000	 1.899720425624409e+000	 9.082255458661388e+000
 9.874833750587725e-001	 1.909810614686682e+000	 8.968681406202279e+000
 1.190181213617824e+000	 1.820465236877668e+000	 9.971719770784565e+000
 1.171477663848894e+000	 1.832556979476599e+000	 9.877384699362326e+000
 1.152672283285734e+000	 1.844443441059900e+000	 9.788000865696603e+000
 1.133768401702297e+000	 1.856123436419727e+000	 9.704144594439017e+000
 1.114769364606549e+000	 1.867595851265283e+000	 9.626381268556216e+000
 1.095678531382950e+000	 1.878859642389709e+000	 9.532890269470906e+000
 1.076499273437455e+000	 1.889913837779600e+000	 9.403039905083128e+000
 1.057234972347098e+000	 1.900757536667545e+000	 9.279117177406452e+000
 1.037889018016125e+000	 1.911389909528121e+000	 9.161300664801185e+000
 1.018464806840669e+000	 1.921810198017894e+000	 9.049761072985861e+000
 9.989657398838883e-001	 1.932017714860024e+000	 8.944661044105109e+000
 1.203861457450621e+000	 1.841390124661353e+000	 1.000646218292374e+001
 1.184942924350843e+000	 1.853620852807342e+000	 9.917344183224175e+000
 1.165921389987992e+000	 1.865643940385799e+000	 9.833719933723096e+000
 1.146800222409283e+000	 1.877458188565803e+000	 9.742671400298935e+000
 1.127582805576798e+000	 1.889062470248616e+000	 9.606746684495088e+000
 1.108272537488608e+000	 1.900455730236494e+000	 9.476887713987148e+000
 1.088872828302464e+000	 1.911636985343467e+000	 9.353290659192632e+000
 1.069387098464100e+000	 1.922605324448474e+000	 9.236143718055534e+000
 1.049818776842178e+000	 1.933359908491317e+000	 9.125626891103236e+000
 1.030171298871866e+000	 1.943899970411971e+000	 9.021911773483890e+000
 1.010448104709004e+000	 1.954224815033862e+000	 8.925161364238422e+000
 1.217541701282921e+000	 1.862315012446037e+000	 1.004409936873088e+001
 1.198408184852391e+000	 1.874684726139078e+000	 9.959778751859302e+000
 1.179170496689933e+000	 1.886844439712678e+000	 9.818084783668240e+000
 1.159832043116027e+000	 1.898792940712833e+000	 9.680880936052251e+000
 1.140396246546868e+000	 1.910529089232866e+000	 9.550052522405837e+000
 1.120866543594143e+000	 1.922051818084153e+000	 9.425806653440613e+000
 1.101246383167394e+000	 1.933360132908152e+000	 9.308342177649958e+000
 1.081539224581057e+000	 1.944453112230155e+000	 9.197849437096162e+000
 1.061748535668210e+000	 1.955329907455190e+000	 9.094510040740524e+000
 1.041877790903059e+000	 1.965989742806639e+000	 8.998496655616938e+000
 1.021930469534119e+000	 1.976431915208196e+000	 8.909972816096699e+000
 1.231221945114724e+000	 1.883239900231722e+000	 1.004204034209992e+001
 1.211873445353537e+000	 1.895748599471812e+000	 9.896191359281472e+000
 1.192419603391557e+000	 1.908044939040537e+000	 9.756783872755394e+000
 1.172863863822528e+000	 1.920127692860818e+000	 9.624045180514303e+000
 1.153209687516760e+000	 1.931995708218037e+000	 9.498194331547712e+000
 1.133460549699555e+000	 1.943647905932685e+000	 9.379441843064816e+000
 1.113619938032246e+000	 1.955083280473654e+000	 9.267989435380789e+000
 1.093691350697970e+000	 1.966300900012589e+000	 9.164029784869546e+000
 1.073678294494223e+000	 1.977299906419739e+000	 9.067746295335441e+000
 1.053584282934247e+000	 1.988079515201899e+000	 8.979312888100200e+000
 1.033412834359236e+000	 1.998639015383027e+000	 8.898893811051138e+000
 9.185891861080785e-001	 1.776568013657048e+000	 8.458032218849548e+000
 9.005933067305993e-001	 1.785758017161617e+000	 8.304716279110949e+000
 8.825348555005111e-001	 1.794751299989325e+000	 8.157610565870129e+000
 8.644169627606548e-001	 1.803547425071165e+000	 8.017010736144217e+000
 8.462427565638451e-001	 1.812146019766516e+000	 7.883196981907038e+000
 8.280153610683624e-001	 1.820546775513088e+000	 7.756433438551849e+000
 8.097378949529320e-001	 1.828749447430661e+000	 7.636967632556447e+000
 7.914134698526782e-001	 1.836753853879596e+000	 7.525029969317484e+000
 7.730451888174862e-001	 1.844559875975170e+000	 7.420833261991549e+000
 7.546361447941521e-001	 1.852167457058817e+000	 7.324572302050660e+000
 7.361894191336470e-001	 1.859576602127425e+000	 7.236423472129020e+000
 9.300715509331942e-001	 1.798775113827414e+000	 8.588667080249561e+000
 9.118507230638300e-001	 1.808079992376415e+000	 8.448970848144468e+000
 8.935665411936159e-001	 1.817185691239944e+000	 8.316039246389806e+000
 8.752221747946792e-001	 1.826091767885635e+000	 8.190177588706041e+000
 8.568207910204952e-001	 1.834797845014858e+000	 8.071675024818337e+000
 8.383655530813229e-001	 1.843303610208293e+000	 7.960803926885382e+000
 8.198596186393722e-001	 1.851608815524722e+000	 7.857819316733173e+000
 8.013061382252069e-001	 1.859713277054009e+000	 7.762958334898368e+000
 7.827082536768364e-001	 1.867616874425373e+000	 7.676439752349448e+000
 7.640690966028920e-001	 1.875319550272017e+000	 7.595251454345939e+000
 7.453917868712325e-001	 1.882821309653291e+000	 7.447928392240568e+000
 9.415539157583097e-001	 1.820982213998275e+000	 8.716378571515886e+000
 9.231081393970605e-001	 1.830401967591619e+000	 8.589802344921216e+000
 9.045982268867207e-001	 1.839620082490901e+000	 8.470552025862743e+000
 8.860273868287039e-001	 1.848636110700394e+000	 8.358943448155651e+000
 8.673988254771454e-001	 1.857449670263458e+000	 8.255275565818272e+000
 8.487157450942833e-001	 1.866060444903750e+000	 8.159829816326013e+000
 8.299813423258124e-001	 1.874468183619044e+000	 8.072869526322249e+000
 8.111988065977355e-001	 1.882672700228715e+000	 7.924147970705346e+000
 7.923713185361867e-001	 1.890673872875919e+000	 7.776492882301222e+000
 7.735020484116318e-001	 1.898471643485632e+000	 7.634715011464393e+000
 7.545941546088181e-001	 1.906066017179662e+000	 7.498890770932541e+000
 9.530362805834256e-001	 1.843189314169633e+000	 8.841345739929750e+000
 9.343655557302909e-001	 1.852723942807229e+000	 8.727385139247700e+000
 9.156299125798257e-001	 1.862054473742195e+000	 8.621318707582100e+000
 8.968325988627283e-001	 1.871180453515439e+000	 8.523473672065968e+000
 8.779768599337955e-001	 1.880101495512317e+000	 8.392682428924585e+000
 8.590659371072438e-001	 1.888817279599455e+000	 8.237638693450313e+000
 8.401030660122525e-001	 1.897327551713629e+000	 8.088524597293031e+000
 8.210914749702644e-001	 1.905632123403714e+000	 7.945431235424862e+000
 8.020343833955367e-001	 1.913730871326810e+000	 7.808442735758885e+000
 7.829350002203717e-001	 1.921623736699661e+000	 7.677636215371586e+000
 7.637965223464035e-001	 1.929310724706538e+000	 7.553081749918077e+000
 9.645186454085410e-001	 1.865396414341487e+000	 8.963758967265944e+000
 9.456229720635219e-001	 1.875045918023246e+000	 8.861572624037821e+000
 9.266615982729306e-001	 1.884488864993826e+000	 8.697821711990045e+000
 9.076378108967530e-001	 1.893724796330773e+000	 8.540026424400828e+000
 8.885548943904457e-001	 1.902753320761436e+000	 8.388293920987263e+000
 8.694161291202042e-001	 1.911574114295412e+000	 8.242724300116137e+000
 8.502247896986925e-001	 1.920186919808475e+000	 8.103410520244664e+000
 8.309841433427928e-001	 1.928591546579005e+000	 7.970438335306553e+000
 8.116974482548865e-001	 1.936787869778045e+000	 7.843886243965052e+000
 7.923679520291116e-001	 1.944775829914106e+000	 7.723825452619651e+000
 7.729988900839893e-001	 1.952555432233920e+000	 7.610319852019506e+000
 9.760010102336569e-001	 1.887603514513837e+000	 8.997440431258099e+000
 9.568803883967524e-001	 1.897367893239669e+000	 8.835719266430271e+000
 9.376932839660355e-001	 1.906923256245794e+000	 8.680187586675842e+000
 9.184430229307775e-001	 1.916269139146395e+000	 8.530955592062517e+000
 8.991329288470957e-001	 1.925405146010814e+000	 8.388126195968257e+000
 8.797663211331648e-001	 1.934330948991620e+000	 8.251794937346935e+000
 8.603465133851327e-001	 1.943046287903583e+000	 8.122049907471817e+000
 8.408768117153217e-001	 1.951550969754590e+000	 7.998971691100869e+000
 8.213605131142369e-001	 1.959844868229625e+000	 7.882633321970661e+000
 8.018009038378514e-001	 1.967927923128965e+000	 7.773100252489656e+000
 7.822012578215748e-001	 1.975800139761806e+000	 7.670430337466322e+000
 9.874833750587725e-001	 1.909810614686682e+000	 8.968681406202279e+000
 9.681378047299829e-001	 1.919689868456498e+000	 8.814587069172005e+000
 9.487249696591404e-001	 1.929357647498098e+000	 8.667033768319010e+000
 9.292482349648019e-001	 1.938813481962305e+000	 8.526127973641993e+000
 9.097109633037459e-001	 1.948056971260450e+000	 8.391968543460715e+000
 8.901165131461254e-001	 1.957087783688078e+000	 8.264646641339017e+000
 8.704682370715728e-001	 1.965905655998953e+000	 8.144245667991514e+000
 8.507694800878504e-001	 1.974510392930468e+000	 8.030841208103894e+000
 8.310235779735868e-001	 1.982901866681547e+000	 7.924500991957978e+000
 8.112338556465911e-001	 1.991080016344239e+000	 7.825284871716456e+000
 7.914036255591603e-001	 1.999044847290198e+000	 7.733244812185504e+000
 9.989657398838883e-001	 1.932017714860024e+000	 8.944661044105109e+000
 9.793952210632133e-001	 1.942011843673734e+000	 8.797954999682791e+000
 9.597566553522451e-001	 1.951792038750740e+000	 8.658145237434752e+000
 9.400534469988268e-001	 1.961357824778503e+000	 8.525334693485668e+000
 9.202889977603959e-001	 1.970708796510347e+000	 8.399618360085608e+000
 9.004667051590858e-001	 1.979844618384786e+000	 8.281083207038792e+000
 8.805899607580130e-001	 1.988765024094585e+000	 8.169808118636748e+000
 8.606621484603789e-001	 1.997469816106639e+000	 8.065863846011563e+000
 8.406866428329369e-001	 2.005958865133815e+000	 7.969312974785199e+000
 8.206668074553311e-001	 2.014232109559928e+000	 7.880209907853608e+000
 8.006059932967459e-001	 2.022289554819095e+000	 7.798600863106142e+000
 1.010448104709004e+000	 1.954224815033862e+000	 8.925161364238422e+000
 9.906526373964438e-001	 1.964333818891375e+000	 8.785610640576634e+000
 9.707883410453504e-001	 1.974226430003719e+000	 8.653315269744534e+000
 9.508586590328513e-001	 1.983902167594988e+000	 8.528374848160643e+000
 9.308670322170459e-001	 1.993360621760502e+000	 8.410880688865030e+000
 9.108168971720463e-001	 2.002601453081745e+000	 8.300915747304490e+000
 8.907116844444534e-001	 2.011624392190479e+000	 8.198554563157542e+000
 8.705548168329077e-001	 2.020429239283104e+000	 8.103863218101040e+000
 8.503497076922872e-001	 2.029015863586428e+000	 8.016899309379610e+000
 8.300997592640709e-001	 2.037384202776032e+000	 7.937711938999432e+000
 8.098083610343312e-001	 2.045534262348497e+000	 7.866341718329869e+000
 1.021930469534119e+000	 1.976431915208196e+000	 8.909972816096699e+000
 1.001910053729674e+000	 1.986655794109423e+000	 8.777349705661594e+000
 9.818200267384550e-001	 1.996660821257034e+000	 8.652344970152864e+000
 9.616638710668757e-001	 2.006446510411762e+000	 8.535055058576937e+000
 9.414450666736963e-001	 2.016012447010916e+000	 8.425567789649229e+000
 9.211670891850069e-001	 2.025358287778955e+000	 8.323962281787820e+000
 9.008334081308934e-001	 2.034483760286634e+000	 8.230308899697727e+000
 8.804474852054364e-001	 2.043388662459861e+000	 8.144669217434258e+000
 8.600127725516371e-001	 2.052072862039383e+000	 8.067095997789933e+000
 8.395327110728107e-001	 2.060536295992551e+000	 7.997633187811291e+000
 8.190107287719169e-001	 2.068778969878404e+000	 7.936315930211054e+000
 1.033412834359236e+000	 1.998639015383027e+000	 8.898893811051138e+000
 1.013167470062905e+000	 2.008977769327879e+000	 8.772975588207405e+000
 9.928517124315605e-001	 2.019095212510688e+000	 8.655042837792893e+000
 9.724690831009006e-001	 2.028990853228824e+000	 8.545189051968468e+000
 9.520231011303467e-001	 2.038664272261591e+000	 8.443498738181585e+000
 9.315172811979676e-001	 2.048115122476415e+000	 8.350047353222816e+000
 9.109551318173340e-001	 2.057343128383052e+000	 8.264901254439637e+000
 8.903401535779654e-001	 2.066348085636912e+000	 8.188117667980924e+000
 8.696758374109875e-001	 2.075129860492684e+000	 8.119744673901883e+000
 8.489656628815507e-001	 2.083688389209485e+000	 8.059821207919336e+000
 8.282130965095028e-001	 2.092023677408817e+000	 8.008377079565024e+000
 7.361894191336470e-001	 1.859576602127425e+000	 7.236423472129020e+000
 7.177080801244898e-001	 1.866787377221733e+000	 7.143038344379984e+000
 6.991951815543979e-001	 1.873799908775373e+000	 7.057984115975908e+000
 6.806537613005028e-001	 1.880614382925689e+000	 6.915531217480462e+000
 6.620868399488499e-001	 1.887231044787306e+000	 6.765143744276471e+000
 6.434974194451190e-001	 1.893650197690125e+000	 6.620559752318234e+000
 6.248884817771947e-001	 1.899872202382971e+000	 6.482083065482894e+000
 6.062629876904960e-001	 1.905897476204296e+000	 6.372707391595864e+000
 5.876238754369109e-001	 1.911726492221324e+000	 6.249676525120093e+000
 5.689740595581225e-001	 1.917359778339053e+000	 6.114304449329103e+000
 5.503164297040443e-001	 1.922797916380548e+000	 5.967821599454021e+000
 7.453917868712325e-001	 1.882821309653291e+000	 7.447928392240568e+000
 7.266794311240886e-001	 1.890122219435584e+000	 7.293868212458660e+000
 7.079351213216277e-001	 1.897222407633088e+000	 7.143978713229787e+000
 6.891619333144454e-001	 1.904122062709863e+000	 6.998370540244525e+000
 6.703629254459111e-001	 1.910821432844467e+000	 6.857148362006605e+000
 6.515411371860250e-001	 1.917320825158422e+000	 6.720410829744435e+000
 6.326995877975198e-001	 1.923620604909912e+000	 6.588250548781806e+000
 6.138412750351310e-001	 1.929721194654120e+000	 6.479662083649521e+000
 5.949691738788937e-001	 1.935623073371611e+000	 6.374130544559826e+000
 5.760862353022618e-001	 1.941326775566192e+000	 6.256022136965714e+000
 5.571953850757716e-001	 1.946832890333715e+000	 6.126635848994555e+000
 7.545941546088181e-001	 1.906066017179662e+000	 7.498890770932541e+000
 7.356507821236820e-001	 1.913457061650030e+000	 7.356920467497226e+000
 7.166750610888373e-001	 1.920644906491468e+000	 7.217882462389194e+000
 6.976701053283415e-001	 1.927629742494751e+000	 7.081874193353764e+000
 6.786390109428900e-001	 1.934411820902369e+000	 6.948988378688437e+000
 6.595848549268033e-001	 1.940991452627468e+000	 6.819312969534544e+000
 6.405106938176609e-001	 1.947369007437591e+000	 6.692931112306583e+000
 6.214195623795156e-001	 1.953544913104651e+000	 6.577352138564987e+000
 6.023144723205511e-001	 1.959519654522554e+000	 6.487200037836424e+000
 5.831984110459901e-001	 1.965293772793915e+000	 6.384346393422255e+000
 5.640743404469928e-001	 1.970867864287377e+000	 6.270161642518911e+000
 7.637965223464035e-001	 1.929310724706538e+000	 7.553081749918077e+000
 7.446221331232706e-001	 1.936791903865071e+000	 7.422274540805464e+000
 7.254150008560258e-001	 1.944067405350511e+000	 7.293204049104175e+000
 7.061782773421913e-001	 1.951137422280350e+000	 7.165954692524226e+000
 6.869150964397871e-001	 1.958002208961012e+000	 7.040607395715262e+000
 6.676285726674532e-001	 1.964662080097262e+000	 6.917239535187391e+000
 6.483217998376180e-001	 1.971117409966007e+000	 6.795924893084095e+000
 6.289978497236505e-001	 1.977368631555889e+000	 6.676733619676362e+000
 6.096597707618825e-001	 1.983416235674150e+000	 6.590216427304282e+000
 5.903105867893070e-001	 1.989260770022221e+000	 6.500568213674608e+000
 5.709532958177076e-001	 1.994902838241532e+000	 6.399649474370586e+000
 7.729988900839893e-001	 1.952555432233920e+000	 7.610319852019506e+000
 7.535934841228538e-001	 1.960126746080707e+000	 7.489782295330780e+000
 7.341549406231938e-001	 1.967489904210219e+000	 7.369827434000080e+000
 7.146864493559950e-001	 1.974645102066663e+000	 7.250526847991832e+000
 6.951911819366018e-001	 1.981592597020396e+000	 7.131949820017081e+000
 6.756722904079749e-001	 1.988332707567807e+000	 7.014163273327118e+000
 6.561329058573908e-001	 1.994865812495162e+000	 6.897231717108484e+000
 6.365761370675355e-001	 2.001192350007833e+000	 6.781217199383154e+000
 6.170050692028887e-001	 2.007312816826402e+000	 6.684506652199616e+000
 5.974227625322132e-001	 2.013227767251113e+000	 6.605972954806932e+000
 5.778322511879159e-001	 2.018937812196181e+000	 6.516343113268095e+000
 7.822012578215748e-001	 1.975800139761806e+000	 7.670430337466322e+000
 7.625648351224317e-001	 1.983461588296937e+000	 7.559300743463155e+000
 7.428948803903412e-001	 1.990912403070590e+000	 7.447640201096152e+000
 7.231946213697521e-001	 1.998152781853689e+000	 7.335507629540541e+000
 7.034672674333341e-001	 2.005182985080521e+000	 7.222960816675917e+000
 6.837160081483688e-001	 2.012003335039101e+000	 7.110056349990111e+000
 6.639440118769798e-001	 2.018614215025054e+000	 6.996849553868478e+000
 6.441544244111707e-001	 2.025016068460483e+000	 6.883394433206246e+000
 6.243503676435689e-001	 2.031209397979309e+000	 6.771393432353261e+000
 6.045349382747081e-001	 2.037194764480588e+000	 6.701840667652522e+000
 5.847112065576183e-001	 2.042972786151324e+000	 6.621479997930366e+000
 7.914036255591603e-001	 1.999044847290198e+000	 7.733244812185504e+000
 7.715361861220045e-001	 2.006796430513762e+000	 7.630691747648990e+000
 7.516348201574682e-001	 2.014334901931625e+000	 7.526533347142934e+000
 7.317027933834631e-001	 2.021660461641427e+000	 7.420816040947459e+000
 7.117433529299846e-001	 2.028773373141388e+000	 7.313586264847459e+000
 6.917597258886346e-001	 2.035673962511146e+000	 7.204890384379934e+000
 6.717551178963847e-001	 2.042362617555685e+000	 7.094774624283793e+000
 6.517327117545559e-001	 2.048839786913839e+000	 6.983285003123081e+000
 6.316956660839234e-001	 2.055105979132870e+000	 6.870467273037578e+000
 6.116471140167921e-001	 2.061161761710647e+000	 6.789446405296473e+000
 5.915901619268141e-001	 2.067007760106961e+000	 6.716291605099642e+000
 8.006059932967459e-001	 2.022289554819095e+000	 7.798600863106142e+000
 7.805075371215724e-001	 2.030131272731183e+000	 7.703821741652087e+000
 7.603747599245743e-001	 2.037757400793325e+000	 7.606401085488403e+000
 7.402109653971276e-001	 2.045168141429878e+000	 7.506373003086457e+000
 7.200194384265527e-001	 2.052363761202995e+000	 7.403772716722158e+000
 6.998034436287721e-001	 2.059344589983938e+000	 7.298636480294647e+000
 6.795662239156055e-001	 2.066111020087052e+000	 7.191001501197486e+000
 6.593109990976912e-001	 2.072663505367901e+000	 7.080905866245488e+000
 6.390409645239524e-001	 2.079002560287087e+000	 6.968388471645366e+000
 6.187592897584647e-001	 2.085128758941291e+000	 6.870060510302876e+000
 5.984691172955038e-001	 2.091042734063091e+000	 6.802003792183985e+000
 8.098083610343312e-001	 2.045534262348497e+000	 7.866341718329869e+000
 7.894788881211350e-001	 2.053466114949198e+000	 7.778561470819779e+000
 7.691146996916598e-001	 2.061179899655689e+000	 7.687140663316633e+000
 7.487191374107460e-001	 2.068675821219042e+000	 7.592101245002232e+000
 7.282955239230390e-001	 2.075954149265344e+000	 7.493467359284682e+000
 7.078471613687817e-001	 2.083015217457482e+000	 7.391265255411146e+000
 6.873773299346423e-001	 2.089859422619158e+000	 7.285523203016571e+000
 6.668892864405766e-001	 2.096487223822670e+000	 7.176271409641436e+000
 6.463862629636560e-001	 2.102899141441958e+000	 7.063541941238975e+000
 6.258714654997264e-001	 2.109095756172518e+000	 6.947368645678188e+000
 6.053480726636872e-001	 2.115077708019714e+000	 6.879837116537408e+000
 8.190107287719169e-001	 2.068778969878404e+000	 7.936315930211054e+000
 7.984502391206926e-001	 2.076800957167808e+000	 7.854785749859074e+000
 7.778546394587247e-001	 2.084602398518716e+000	 7.768652191207637e+000
 7.572273094243177e-001	 2.092183501008918e+000	 7.677925202327909e+000
 7.365716094194428e-001	 2.099544537328435e+000	 7.582617978651236e+000
 7.158908791086629e-001	 2.106685844931774e+000	 7.482746868595223e+000
 6.951884359534952e-001	 2.113607825152002e+000	 7.378331281040295e+000
 6.744675737832122e-001	 2.120310942278145e+000	 7.269393594719620e+000
 6.537315614030341e-001	 2.126795722597485e+000	 7.155959069575199e+000
 6.329836412405768e-001	 2.133062753404329e+000	 7.038055760117145e+000
 6.122270280313643e-001	 2.139112681976832e+000	 6.951007133216057e+000
 8.282130965095028e-001	 2.092023677408817e+000	 8.008377079565024e+000
 8.074215901202451e-001	 2.100135799387014e+000	 7.932373236761316e+000
 7.865945792257691e-001	 2.108024897382408e+000	 7.850838484059874e+000
 7.657354814378439e-001	 2.115691180799508e+000	 7.763770922474332e+000
 7.448476949157646e-001	 2.123134925392267e+000	 7.671172926784621e+000
 7.239345968484166e-001	 2.130356472406817e+000	 7.573051045391302e+000
 7.029995419721642e-001	 2.137356227685584e+000	 7.469415900965672e+000
 6.820458611255978e-001	 2.144134660734327e+000	 7.360282091988339e+000
 6.610768598420863e-001	 2.150692303753667e+000	 7.245668095259566e+000
 6.400958169810165e-001	 2.157029750636725e+000	 7.125596169449634e+000
 6.191059833985354e-001	 2.163147655934445e+000	 7.016724672883147e+000
 5.503164297040443e-001	 1.922797916380548e+000	 5.967821599454021e+000
 5.316538494870134e-001	 1.928041541140166e+000	 5.841416828080137e+000
 5.129891553722548e-001	 1.933091339410632e+000	 5.722713418024151e+000
 4.943251556054373e-001	 1.937948048985706e+000	 5.612571577533354e+000
 4.756646291775603e-001	 1.942612457640389e+000	 5.511749139761066e+000
 4.570103248275768e-001	 1.947085402089539e+000	 5.420901443699071e+000
 4.383649600831476e-001	 1.951367766926559e+000	 5.340581439548564e+000
 4.197312203398145e-001	 1.955460483543635e+000	 5.271240013235663e+000
 4.011117579788219e-001	 1.959364529034961e+000	 5.213226524313017e+000
 3.825091915237612e-001	 1.963080925084422e+000	 5.166789551052256e+000
 3.639261048361499e-001	 1.966610736839179e+000	 5.132077836131811e+000
 5.571953850757716e-001	 1.946832890333715e+000	 6.126635848994555e+000
 5.382995226068030e-001	 1.952142060403382e+000	 6.017633027514262e+000
 5.194015198162859e-001	 1.957254981152735e+000	 5.913916757071423e+000
 5.005042200529608e-001	 1.962172399597961e+000	 5.816420330913723e+000
 4.816104370452151e-001	 1.966895113361246e+000	 5.725973160106607e+000
 4.627229538912396e-001	 1.971423969616384e+000	 5.643300559649772e+000
 4.438445220877915e-001	 1.975759864014198e+000	 5.569023766422737e+000
 4.249778605978575e-001	 1.979903739589274e+000	 5.503660183636766e+000
 4.061256549574486e-001	 1.983856585649486e+000	 5.447623845985416e+000
 3.872905564217017e-001	 1.987619436649766e+000	 5.401226099228272e+000
 3.684751811504043e-001	 1.991193371051617e+000	 5.364676487525870e+000
 5.640743404469928e-001	 1.970867864287377e+000	 6.270161642518911e+000
 5.449451957259967e-001	 1.976242579666991e+000	 6.176511313320813e+000
 5.258138842596520e-001	 1.981418622895133e+000	 6.085910446049252e+000
 5.066832844997709e-001	 1.986396750210409e+000	 5.999367436515191e+000
 4.875562449121284e-001	 1.991177769082197e+000	 5.917785086283151e+000
 4.684355829541528e-001	 1.995762537143222e+000	 5.841960294204930e+000
 4.493240840916978e-001	 2.000151961101730e+000	 5.772583987501306e+000
 4.302245008551949e-001	 2.004346995634706e+000	 5.710241287033116e+000
 4.111395519354213e-001	 2.008348642263703e+000	 5.655411900894033e+000
 3.920719213190593e-001	 2.012157948214703e+000	 5.608470739983157e+000
 3.730242574641658e-001	 2.015776005263546e+000	 5.569688748777194e+000
 5.709532958177076e-001	 1.994902838241532e+000	 6.399649474370586e+000
 5.515908688445944e-001	 2.000343098930994e+000	 6.319271454544870e+000
 5.322262487023534e-001	 2.005582264637824e+000	 6.239881441268348e+000
 5.128623489458676e-001	 2.010621100823052e+000	 6.162565012530062e+000
 4.935020527783001e-001	 2.015460424803240e+000	 6.088300234556484e+000
 4.741482120163165e-001	 2.020101104670054e+000	 6.017957258935064e+000
 4.548036460948666e-001	 2.024544058189155e+000	 5.952298167336497e+000
 4.354711411118267e-001	 2.028790251679931e+000	 5.891977058432233e+000
 4.161534489127398e-001	 2.032840698877613e+000	 5.837540371072282e+000
 3.968532862158337e-001	 2.036696459779233e+000	 5.789427437295388e+000
 3.775733337774348e-001	 2.040358639474969e+000	 5.747971258283622e+000
 5.778322511879159e-001	 2.018937812196181e+000	 6.516343113268095e+000
 5.582365419625962e-001	 2.024443618195390e+000	 6.447125007383780e+000
 5.386386131443897e-001	 2.029745906380808e+000	 6.377007166711874e+000
 5.190414133912509e-001	 2.034845451435887e+000	 6.307154492360505e+000
 4.994478606437303e-001	 2.039743080524377e+000	 6.238622250141349e+000
 4.798608410777306e-001	 2.044439672196880e+000	 6.172355573396795e+000
 4.602832080972980e-001	 2.048936155276472e+000	 6.109189221812089e+000
 4.407177813677529e-001	 2.053233507724950e+000	 6.049847590754611e+000
 4.211673458894044e-001	 2.057332755491216e+000	 5.994944965130320e+000
 4.016346511120252e-001	 2.061234971343355e+000	 5.944986011233596e+000
 3.821224100902110e-001	 2.064941273685884e+000	 5.900366499586319e+000
 5.847112065576183e-001	 2.042972786151324e+000	 6.621479997930366e+000
 5.648822150800023e-001	 2.048544137460180e+000	 6.561275798295299e+000
 5.450509775857614e-001	 2.053909548124086e+000	 6.498456074760344e+000
 5.252204778359207e-001	 2.059069802048915e+000	 6.434267253136015e+000
 5.053936685084188e-001	 2.064025736245607e+000	 6.369843793734159e+000
 4.855734701383953e-001	 2.068778239723698e+000	 6.306207599956907e+000
 4.657627700989918e-001	 2.073328252363683e+000	 6.244267691594122e+000
 4.459644216229735e-001	 2.077676763769761e+000	 6.184820137309352e+000
 4.261812428654147e-001	 2.081824812104512e+000	 6.128548240221200e+000
 4.064160160076336e-001	 2.085773482907070e+000	 6.076022969951195e+000
 3.866714864024947e-001	 2.089523907896292e+000	 6.027703634008788e+000
 5.915901619268141e-001	 2.067007760106961e+000	 6.716291605099642e+000
 5.715278881968123e-001	 2.072644656725364e+000	 6.662920373401468e+000
 5.514633420264680e-001	 2.078073189867658e+000	 6.605388167796606e+000
 5.313995422798772e-001	 2.083294152662138e+000	 6.545025200379959e+000
 5.113394763723659e-001	 2.088308391966931e+000	 6.483047180147357e+000
 4.912860991983103e-001	 2.093116807250510e+000	 6.420554627350028e+000
 4.712423320999481e-001	 2.097720349450787e+000	 6.358532461620680e+000
 4.512110618774882e-001	 2.102120019814364e+000	 6.297849858283289e+000
 4.311951398407710e-001	 2.106316868717501e+000	 6.239260366660259e+000
 4.111973809026589e-001	 2.110311994470377e+000	 6.183402283634917e+000
 3.912205627142856e-001	 2.114106542106192e+000	 6.130799275203912e+000
 5.984691172955038e-001	 2.091042734063091e+000	 6.802003792183985e+000
 5.781735613130264e-001	 2.096745175990942e+000	 6.753248416898369e+000
 5.578757064665099e-001	 2.102236831611523e+000	 6.698955483837750e+000
 5.375786067231204e-001	 2.107518503275554e+000	 6.640541312354898e+000
 5.172852842355713e-001	 2.112591047688348e+000	 6.579304972900798e+000
 4.969987282574760e-001	 2.117455374777314e+000	 6.516427507094147e+000
 4.767218941001668e-001	 2.122112446537784e+000	 6.452971430971044e+000
 4.564577021312974e-001	 2.126563275858761e+000	 6.389880515747800e+000
 4.362090368154732e-001	 2.130808925330182e+000	 6.327979839812620e+000
 4.159787457971012e-001	 2.134850506033278e+000	 6.267976105077765e+000
 3.957696390255839e-001	 2.138689176315586e+000	 6.210458210284959e+000
 6.053480726636872e-001	 2.115077708019714e+000	 6.879837116537408e+000
 5.848192344286449e-001	 2.120845695256914e+000	 6.833443140938568e+000
 5.642880709058868e-001	 2.126400473355683e+000	 6.780302549055970e+000
 5.437576711656501e-001	 2.131742853889163e+000	 6.721920147293553e+000
 5.232310920980354e-001	 2.136873703409858e+000	 6.659680538272228e+000
 5.027113573158919e-001	 2.141793942304112e+000	 6.594847246514466e+000
 4.822014560996480e-001	 2.146504543624674e+000	 6.528562137062284e+000
 4.617043423844012e-001	 2.151006531902950e+000	 6.461845121279407e+000
 4.412229337895214e-001	 2.155300981942556e+000	 6.395594143442426e+000
 4.207601106909605e-001	 2.159389017595771e+000	 6.330585441121448e+000
 4.003187153363895e-001	 2.163271810524472e+000	 6.267474071787664e+000
 6.122270280313643e-001	 2.139112681976832e+000	 6.951007133216057e+000
 5.914649075436671e-001	 2.144946214523278e+000	 6.904681649228721e+000
 5.707004353445987e-001	 2.150564115100135e+000	 6.850566799792169e+000
 5.499367356074666e-001	 2.155967204502966e+000	 6.790258316433551e+000
 5.291768999597579e-001	 2.161156359131462e+000	 6.725228561996309e+000
 5.084239863735585e-001	 2.166132509830903e+000	 6.656825561787631e+000
 4.876810180983919e-001	 2.170896640711457e+000	 6.586272337765150e+000
 4.669509826367991e-001	 2.175449787946933e+000	 6.514666539919645e+000
 4.462368307629154e-001	 2.179793038554624e+000	 6.442980368342176e+000
 4.255414755842367e-001	 2.183927529157856e+000	 6.372060778833752e+000
 4.048677916467025e-001	 2.187854444732851e+000	 6.302629964332055e+000
 6.191059833985354e-001	 2.163147655934445e+000	 7.016724672883147e+000
 5.981105806580939e-001	 2.169046733790038e+000	 6.968135276388023e+000
 5.771127997826462e-001	 2.174727756844882e+000	 6.910878976435590e+000
 5.561158000485699e-001	 2.180191555116963e+000	 6.846644925517907e+000
 5.351227078207390e-001	 2.185439014853159e+000	 6.776995531517111e+000
 5.141366154304756e-001	 2.190471077357688e+000	 6.703365394116880e+000
 4.931605800963984e-001	 2.195288737798133e+000	 6.627060554712066e+000
 4.721976228884916e-001	 2.199893043990709e+000	 6.549258053871713e+000
 4.512507277356554e-001	 2.204285095166384e+000	 6.471005789719971e+000
 4.303228404769301e-001	 2.208466040719535e+000	 6.393222669940530e+000
 4.094168679565230e-001	 2.212437078940723e+000	 6.316699049506682e+000
 3.639261048361499e-001	 1.966610736839179e+000	 5.132077836131811e+000
 3.453650463502414e-001	 1.969955071770350e+000	 5.096311648036398e+000
 3.268285283464441e-001	 1.973115078522868e+000	 5.067219156576444e+000
 3.083190262635864e-001	 1.976091945755501e+000	 5.044707715538292e+000
 2.898389780504919e-001	 1.978886900971938e+000	 5.028593736025834e+000
 2.713907835560694e-001	 1.981501209344972e+000	 5.018604411050609e+000
 2.529768039579077e-001	 1.983936172534892e+000	 5.014379593329842e+000
 2.345993612291328e-001	 1.986193127503396e+000	 5.015473818000542e+000
 2.162607376432362e-001	 1.988273445324313e+000	 5.021358461813980e+000
 1.979631753165408e-001	 1.990178529992387e+000	 5.031424030258674e+000
 1.797088757879294e-001	 1.991909817231349e+000	 5.044982563979959e+000
 3.684751811504043e-001	 1.991193371051617e+000	 5.364676487525870e+000
 3.496821094332686e-001	 1.994579510169543e+000	 5.325661202550416e+000
 3.309138849542394e-001	 1.997779017006543e+000	 5.292343652226944e+000
 3.121730140951305e-001	 2.000793095079618e+000	 5.264680410362845e+000
 2.934619652791262e-001	 2.003622987236253e+000	 5.242534422697322e+000
 2.747831683532470e-001	 2.006269974463903e+000	 5.225676723495771e+000
 2.561390140098019e-001	 2.008735374693610e+000	 5.213788311925250e+000
 2.375318532465813e-001	 2.011020541599093e+000	 5.206462179699723e+000
 2.189639968654956e-001	 2.013126863392606e+000	 5.203205481328627e+000
 2.004377150093219e-001	 2.015055761618825e+000	 5.203441838179975e+000
 1.819552367361798e-001	 2.016808689948031e+000	 5.206513767477540e+000
 3.730242574641658e-001	 2.015776005263546e+000	 5.569688748777194e+000
 3.539991725158979e-001	 2.019203948568140e+000	 5.527318699474776e+000
 3.349992415617213e-001	 2.022442955489553e+000	 5.489839717977152e+000
 3.160270019264354e-001	 2.025494244403021e+000	 5.457257755044394e+000
 2.970849525075854e-001	 2.028359073499827e+000	 5.429482268105223e+000
 2.781755531503035e-001	 2.031038739582085e+000	 5.406327932677401e+000
 2.593012240616187e-001	 2.033534576851590e+000	 5.387516520366550e+000
 2.404643452639863e-001	 2.035847955694085e+000	 5.372678934701685e+000
 2.216672560877356e-001	 2.037980281460246e+000	 5.361357395898242e+000
 2.029122547020982e-001	 2.039932993244682e+000	 5.353007765510278e+000
 1.842015976844301e-001	 2.041707562664222e+000	 5.347002001833531e+000
 3.775733337774348e-001	 2.040358639474969e+000	 5.747971258283622e+000
 3.583162355981294e-001	 2.043828386966140e+000	 5.702088277136438e+000
 3.390845981688897e-001	 2.047106893971896e+000	 5.660458200948167e+000
 3.198809897575011e-001	 2.050195393725710e+000	 5.623136564197312e+000
 3.007079397358694e-001	 2.053095159762659e+000	 5.590079361617456e+000
 2.815679379472386e-001	 2.055807504699517e+000	 5.561144757244895e+000
 2.624634341133582e-001	 2.058333779008834e+000	 5.536094967069897e+000
 2.433968372813480e-001	 2.060675369788373e+000	 5.514598306305751e+000
 2.243705153099564e-001	 2.062833699527232e+000	 5.496231392114757e+000
 2.053867943948698e-001	 2.064810224869957e+000	 5.480481492490557e+000
 1.864479586326805e-001	 2.066606435379921e+000	 5.466749011887137e+000
 3.821224100902110e-001	 2.064941273685884e+000	 5.900366499586319e+000
 3.626332986799630e-001	 2.068452825363543e+000	 5.850760238772087e+000
 3.431699547757446e-001	 2.071770832453574e+000	 5.804936556121914e+000
 3.237349775883274e-001	 2.074896543047685e+000	 5.763000825149589e+000
 3.043309269639780e-001	 2.077831246024749e+000	 5.724955650736233e+000
 2.849603227440523e-001	 2.080576269816200e+000	 5.690702578587101e+000
 2.656256441650203e-001	 2.083132981165341e+000	 5.660043985548081e+000
 2.463293292986662e-001	 2.085502783881955e+000	 5.632685141539944e+000
 2.270737745321580e-001	 2.087687117593565e+000	 5.608236433685685e+000
 2.078613340876365e-001	 2.089687456494649e+000	 5.586215743055583e+000
 1.886943195809308e-001	 2.091505308095129e+000	 5.566050964339204e+000
 3.866714864024947e-001	 2.089523907896292e+000	 6.027703634008788e+000
 3.669503617613986e-001	 2.093077263760348e+000	 5.974111866356670e+000
 3.472553113822862e-001	 2.096434770934586e+000	 5.923999634113305e+000
 3.275889654189145e-001	 2.099597692368945e+000	 5.877522452488897e+000
 3.079539141919114e-001	 2.102567332286097e+000	 5.834729655325477e+000
 2.883527075407447e-001	 2.105345034932132e+000	 5.795566107729527e+000
 2.687878542166050e-001	 2.107932183321110e+000	 5.759874107051545e+000
 2.492618213159412e-001	 2.110330197974833e+000	 5.727395462706689e+000
 2.297770337543404e-001	 2.112540535659244e+000	 5.697773745133336e+000
 2.103358737803985e-001	 2.114564688118760e+000	 5.670556694028871e+000
 1.909406805291811e-001	 2.116404180809844e+000	 5.645198775878177e+000
 3.912205627142856e-001	 2.114106542106192e+000	 6.130799275203912e+000
 3.712674248424364e-001	 2.117701702156558e+000	 6.072908177653670e+000
 3.513406679885142e-001	 2.121098709414933e+000	 6.018360413982806e+000
 3.314429532492624e-001	 2.124298841689493e+000	 5.967361989966059e+000
 3.115769014196696e-001	 2.127303418546704e+000	 5.920009132008588e+000
 2.917450923373158e-001	 2.130113800047316e+000	 5.876290005704600e+000
 2.719500642681121e-001	 2.132731385476141e+000	 5.836086630467692e+000
 2.521943133331726e-001	 2.135157612067005e+000	 5.799176980448141e+000
 2.324802929765036e-001	 2.137393953724271e+000	 5.765237261747261e+000
 2.128104134731557e-001	 2.139441919742287e+000	 5.733844355767990e+000
 1.931870414774315e-001	 2.141303053524068e+000	 5.704478418412994e+000
 3.957696390255839e-001	 2.138689176315586e+000	 6.210458210284959e+000
 3.755844879230763e-001	 2.142326140552169e+000	 6.147902631054816e+000
 3.554260245944290e-001	 2.145762647894614e+000	 6.088720685509418e+000
 3.352969410793710e-001	 2.148999991009326e+000	 6.033169263991482e+000
 3.151998886472525e-001	 2.152039504806568e+000	 5.981391692745093e+000
 2.951374771337656e-001	 2.154882565161751e+000	 5.933419461137474e+000
 2.751122743195421e-001	 2.157530587630436e+000	 5.889174152916210e+000
 2.551268053503606e-001	 2.159985026158471e+000	 5.848469571427678e+000
 2.351835521986475e-001	 2.162247371788643e+000	 5.811014048505573e+000
 2.152849531659080e-001	 2.164319151365234e+000	 5.776412926559736e+000
 1.954334024256818e-001	 2.166201926237801e+000	 5.744171203256145e+000
 4.003187153363895e-001	 2.163271810524472e+000	 6.267474071787664e+000
 3.799015510033184e-001	 2.166950578947185e+000	 6.199837782362490e+000
 3.595113812000301e-001	 2.170426586373628e+000	 6.135771684945385e+000
 3.391509289092405e-001	 2.173701140328445e+000	 6.075583992575031e+000
 3.188228758746604e-001	 2.176775591065690e+000	 6.019465381232410e+000
 2.985298619300941e-001	 2.179651330275435e+000	 5.967490728450800e+000
 2.782744843708945e-001	 2.182329789783994e+000	 5.919621064167818e+000
 2.580592973675053e-001	 2.184812440249233e+000	 5.875705723442446e+000
 2.378868114207722e-001	 2.187100789852362e+000	 5.835484690433945e+000
 2.177594928586556e-001	 2.189196382987598e+000	 5.798591122851112e+000
 1.976797633739321e-001	 2.191100798951041e+000	 5.764554045930224e+000
 4.048677916467025e-001	 2.187854444732851e+000	 6.302629964332055e+000
 3.842186140831626e-001	 2.191575017341604e+000	 6.229445897295022e+000
 3.635967378053180e-001	 2.195090524851978e+000	 6.160194687911043e+000
 3.430049167388707e-001	 2.198402289646850e+000	 6.095236353213555e+000
 3.224458631018928e-001	 2.201511677324071e+000	 6.034809210448217e+000
 3.019222467263013e-001	 2.204420095388370e+000	 5.979031629786322e+000
 2.814366944221695e-001	 2.207128991936814e+000	 5.927904007731366e+000
 2.609917893846066e-001	 2.209639854339290e+000	 5.881310950528313e+000
 2.405900706428777e-001	 2.211954207915429e+000	 5.839023656647673e+000
 2.202340325513984e-001	 2.214073614609379e+000	 5.800702487217994e+000
 1.999261243221825e-001	 2.215999671663790e+000	 5.765899713122234e+000
 4.094168679565230e-001	 2.212437078940723e+000	 6.316699049506682e+000
 3.885356771626090e-001	 2.216199455735425e+000	 6.237449523157406e+000
 3.676820944102924e-001	 2.219754463329662e+000	 6.162661562762946e+000
 3.468589045682616e-001	 2.223103438964542e+000	 6.092747512919464e+000
 3.260688503289501e-001	 2.226247763581710e+000	 6.027993664357616e+000
 3.053146315223872e-001	 2.229188860500556e+000	 5.968562023465087e+000
 2.845989044733674e-001	 2.231928194088898e+000	 5.914492311201518e+000
 2.639242814016646e-001	 2.234467268428642e+000	 5.865704180390706e+000
 2.432933298649641e-001	 2.236807625977843e+000	 5.821999640124096e+000
 2.227085722441365e-001	 2.238950846230580e+000	 5.783065675802352e+000
 2.021724852704328e-001	 2.240898544376048e+000	 5.748477053174639e+000
 1.797088757879294e-001	 1.991909817231349e+000	 5.044982563979959e+000
 1.614999996355343e-001	 1.993468773302665e+000	 5.055227147606742e+000
 1.433386661295952e-001	 1.994856893815574e+000	 5.078679424007878e+000
 1.252269529212347e-001	 1.996075702539929e+000	 5.114294320498975e+000
 1.071668957668299e-001	 1.997126750223276e+000	 5.160952153684280e+000
 8.916048828710535e-002	 1.998011613412721e+000	 5.217461789307907e+000
 7.120968176046696e-002	 1.998731893282784e+000	 5.282563869685059e+000
 5.331638494996584e-002	 1.999289214470238e+000	 5.354934099830730e+000
 3.548246396324870e-002	 1.999685223916897e+000	 5.433186583536793e+000
 1.770974214483060e-002	 1.999921589721275e+000	 5.515877200807332e+000
 0.000000000000000e+000	 2.000000000000000e+000	 5.601507018236080e+000
 1.819552367361798e-001	 2.016808689948031e+000	 5.206513767477540e+000
 1.635187496314781e-001	 2.018387132969990e+000	 5.204630313717583e+000
 1.451303994563842e-001	 2.019792604989089e+000	 5.214504764608252e+000
 1.267922898326589e-001	 2.021026648822303e+000	 5.235128909804348e+000
 1.085064819636337e-001	 2.022090834601525e+000	 5.265417783210909e+000
 9.027499439029102e-002	 2.022986758580697e+000	 5.304212849195879e+000
 7.209980278201651e-002	 2.023716041949021e+000	 5.350285260578458e+000
 5.398283976139859e-002	 2.024280329651229e+000	 5.402339179264976e+000
 3.592599476242884e-002	 2.024681289215908e+000	 5.459015150535851e+000
 1.793111392142803e-002	 2.024920609592803e+000	 5.518893522147636e+000
 0.000000000000000e+000	 2.025000000000000e+000	 5.580497899586221e+000
 1.842015976844301e-001	 2.041707562664222e+000	 5.347002001833531e+000
 1.655374996274219e-001	 2.043305492636919e+000	 5.334819589906050e+000
 1.469221327831731e-001	 2.044728316162292e+000	 5.333128337415231e+000
 1.283576267440832e-001	 2.045977595104440e+000	 5.340955098822350e+000
 1.098460681604373e-001	 2.047054918979600e+000	 5.357247678891675e+000
 9.138950049347672e-002	 2.047961903748553e+000	 5.380878050158578e+000
 7.298992380356607e-002	 2.048700190615181e+000	 5.410645646473610e+000
 5.464929457283133e-002	 2.049271444832177e+000	 5.445280723233862e+000
 3.636952556160897e-002	 2.049677354514900e+000	 5.483447775050470e+000
 1.815248569802546e-002	 2.049919629464327e+000	 5.523749001753531e+000
 0.000000000000000e+000	 2.050000000000000e+000	 5.564727813817171e+000
 1.864479586326805e-001	 2.066606435379921e+000	 5.466749011887137e+000
 1.675562496233656e-001	 2.068223852303450e+000	 5.446029154636933e+000
 1.487138661099620e-001	 2.069664027335182e+000	 5.434715683659825e+000
 1.299229636555074e-001	 2.070928541386338e+000	 5.431868768310993e+000
 1.111856543572410e-001	 2.072019003357499e+000	 5.436467084252705e+000
 9.250400659666239e-002	 2.072937048916287e+000	 5.447411067065243e+000
 7.388004482511562e-002	 2.073684339281264e+000	 5.463526246337425e+000
 5.531574938426406e-002	 2.074262560013081e+000	 5.483566650581829e+000
 3.681305636078910e-002	 2.074673419813873e+000	 5.506218273449527e+000
 1.837385747462289e-002	 2.074918649335846e+000	 5.530102591877913e+000
 0.000000000000000e+000	 2.075000000000000e+000	 5.553780126984024e+000
 1.886943195809308e-001	 2.091505308095129e+000	 5.566050964339204e+000
 1.695749996193094e-001	 2.093142211969584e+000	 5.538489536408989e+000
 1.505055994367510e-001	 2.094599738507759e+000	 5.519430765287186e+000
 1.314883005669316e-001	 2.095879487667998e+000	 5.507966430692692e+000
 1.125252405540447e-001	 2.096983087735225e+000	 5.503104223425466e+000
 9.361851269984806e-002	 2.097912194083901e+000	 5.503771040000856e+000
 7.477016584666514e-002	 2.098668487947270e+000	 5.508816362278034e+000
 5.598220419569681e-002	 2.099253675193944e+000	 5.517015712143148e+000
 3.725658715996924e-002	 2.099669485112827e+000	 5.527074171442500e+000
 1.859522925122032e-002	 2.099917669207360e+000	 5.537629957514524e+000
 0.000000000000000e+000	 2.100000000000000e+000	 5.547258044853597e+000
 1.909406805291811e-001	 2.116404180809844e+000	 5.645198775878177e+000
 1.715937496152531e-001	 2.118060571635321e+000	 5.612427828458540e+000
 1.522973327635400e-001	 2.119535449680024e+000	 5.587436057855691e+000
 1.330536374783559e-001	 2.120830433949419e+000	 5.569345192897693e+000
 1.138648267508484e-001	 2.121947172112776e+000	 5.557190125816172e+000
 9.473301880303371e-002	 2.122887339251393e+000	 5.549922252782769e+000
 7.566028686821472e-002	 2.123652636613199e+000	 5.546412904065182e+000
 5.664865900712956e-002	 2.124244790374762e+000	 5.545456853566019e+000
 3.770011795914937e-002	 2.124665550411762e+000	 5.545775897647212e+000
 1.881660102781774e-002	 2.124916689078869e+000	 5.546022493294725e+000
 0.000000000000000e+000	 2.125000000000000e+000	 5.544783445862472e+000
 1.931870414774315e-001	 2.141303053524068e+000	 5.704478418412994e+000
 1.736124996111969e-001	 2.142978931300661e+000	 5.668067888484601e+000
 1.540890660903289e-001	 2.144471160851976e+000	 5.638892636955011e+000
 1.346189743897801e-001	 2.145781380230602e+000	 5.616102721799521e+000
 1.152044129476521e-001	 2.146911256490152e+000	 5.598758463008586e+000
 9.584752490621940e-002	 2.147862484418765e+000	 5.585833833906565e+000
 7.655040788976425e-002	 2.148636785279050e+000	 5.576219946825122e+000
 5.731511381856230e-002	 2.149235905555538e+000	 5.568728622591091e+000
 3.814364875832950e-002	 2.149661615710678e+000	 5.562096033421069e+000
 1.903797280441517e-002	 2.149915708950374e+000	 5.554986408974243e+000
 0.000000000000000e+000	 2.150000000000000e+000	 5.545995795496606e+000
 1.954334024256818e-001	 2.166201926237801e+000	 5.744171203256145e+000
 1.756312496071406e-001	 2.167897290965605e+000	 5.705630524598711e+000
 1.558807994171179e-001	 2.169406872023616e+000	 5.673960258663926e+000
 1.361843113012044e-001	 2.170732326511546e+000	 5.648337212034433e+000
 1.165439991444558e-001	 2.171875340867353e+000	 5.627845396915379e+000
 9.696203100940506e-002	 2.172837629586016e+000	 5.611479478116215e+000
 7.744052891131380e-002	 2.173620933944825e+000	 5.598148319237998e+000
 5.798156862999504e-002	 2.174227020736269e+000	 5.586678617206820e+000
 3.858717955750964e-002	 2.174657681009574e+000	 5.575818614427395e+000
 1.925934458101260e-002	 2.174914728821873e+000	 5.564241877989115e+000
 0.000000000000000e+000	 2.175000000000000e+000	 5.550551135541502e+000
 1.976797633739321e-001	 2.191100798951041e+000	 5.764554045930224e+000
 1.776499996030844e-001	 2.192815650630152e+000	 5.725333668596999e+000
 1.576725327439068e-001	 2.194342583194942e+000	 5.692797434522452e+000
 1.377496482126286e-001	 2.195683272792251e+000	 5.666147356014677e+000
 1.178835853412595e-001	 2.196839425244380e+000	 5.644489438281327e+000
 9.807653711259075e-002	 2.197812774753146e+000	 5.626837186958321e+000
 7.833064993286333e-002	 2.198605082610522e+000	 5.612115219813330e+000
 5.864802344142778e-002	 2.199218135916958e+000	 5.599162971430985e+000
 3.903071035668978e-002	 2.199653746308452e+000	 5.586738479823024e+000
 1.948071635761003e-002	 2.199913748693368e+000	 5.573522244064463e+000
 0.000000000000000e+000	 2.199999999999999e+000	 5.558121142246859e+000
 1.999261243221825e-001	 2.215999671663790e+000	 5.765899713122234e+000
 1.796687495990281e-001	 2.217734010294301e+000	 5.727392537551375e+000
 1.594642660706957e-001	 2.219278294365957e+000	 5.695561501449984e+000
 1.393149851240528e-001	 2.220634219072718e+000	 5.669632315964239e+000
 1.192231715380632e-001	 2.221803509621232e+000	 5.648731314726971e+000
 9.919104321577643e-002	 2.222787919920156e+000	 5.631889026826533e+000
 7.922077095441289e-002	 2.223589231276143e+000	 5.618043859034329e+000
 5.931447825286054e-002	 2.224209251097604e+000	 5.606045875758483e+000
 3.947424115586991e-002	 2.224649811607310e+000	 5.594660665319937e+000
 1.970208813420746e-002	 2.224912768564859e+000	 5.582573281311129e+000
 0.000000000000000e+000	 2.224999999999999e+000	 5.568392247986064e+000
 2.021724852704328e-001	 2.240898544376048e+000	 5.748477053174639e+000
 1.816874995949720e-001	 2.242652369958055e+000	 5.712019784627127e+000
 1.612559993974847e-001	 2.244214005536660e+000	 5.682408687001904e+000
 1.408803220354772e-001	 2.245585165352948e+000	 5.658891697816830e+000
 1.205627577348670e-001	 2.246767593997911e+000	 5.640613847588585e+000
 1.003055493189621e-001	 2.247763065087045e+000	 5.626620903137291e+000
 8.011089197596248e-002	 2.248573379941687e+000	 5.615863125359695e+000
 5.998093306429331e-002	 2.249200366278207e+000	 5.607199129579084e+000
 3.991777195505006e-002	 2.249645876906150e+000	 5.599399836710468e+000
 1.992345991080489e-002	 2.249911788436345e+000	 5.591152503648288e+000
 0.000000000000000e+000	 2.250000000000000e+000	 5.581064821471435e+000
 2.250000000000000e+000	 0.000000000000000e+000	 1.183881570637343e+001
 2.249911788436345e+000	 1.992345991080426e-002	 1.185635033536682e+001
 2.249645876906150e+000	 3.991777195504948e-002	 1.187054986131111e+001
 2.249200366278207e+000	 5.998093306429280e-002	 1.188118880282549e+001
 2.248573379941687e+000	 8.011089197596204e-002	 1.188805434697509e+001
 2.247763065087045e+000	 1.003055493189618e-001	 1.189094689195385e+001
 2.246767593997911e+000	 1.205627577348667e-001	 1.188968057601126e+001
 2.245585165352948e+000	 1.408803220354769e-001	 1.188408379104033e+001
 2.244214005536660e+000	 1.612559993974846e-001	 1.187399967923074e+001
 2.242652369958055e+000	 1.816874995949719e-001	 1.185928661118394e+001
 2.240898544376048e+000	 2.021724852704328e-001	 1.183981864388225e+001
 2.275000000000000e+000	 0.000000000000000e+000	 1.178056062169413e+001
 2.274910808307830e+000	 2.014483168749044e-002	 1.179790256219187e+001
 2.274641942204990e+000	 4.036130275438817e-002	 1.181190891454157e+001
 2.274191481458810e+000	 6.064738787593468e-002	 1.182236214138970e+001
 2.273557528607230e+000	 8.100101299775189e-002	 1.182905792119457e+001
 2.272738210253934e+000	 1.014200554223994e-001	 1.183180569617544e+001
 2.271731678374588e+000	 1.219023439319140e-001	 1.183042920556851e+001
 2.270536111633176e+000	 1.424456589471165e-001	 1.182476700255989e+001
 2.269149716707362e+000	 1.630477327244403e-001	 1.181467295325394e+001
 2.267570729621808e+000	 1.837062495910135e-001	 1.180001671602748e+001
 2.265797417088305e+000	 2.044188462186914e-001	 1.178068419961818e+001
 2.300000000000000e+000	 0.000000000000000e+000	 1.172329953230173e+001
 2.299909828179320e+000	 2.036620346435412e-002	 1.174088451991415e+001
 2.299638007503847e+000	 4.080483355404389e-002	 1.175510951677159e+001
 2.299182596639455e+000	 6.131384268799480e-002	 1.176576463559663e+001
 2.298541677272850e+000	 8.189113402002239e-002	 1.177265377179670e+001
 2.297713355420943e+000	 1.025345615263407e-001	 1.177559515734630e+001
 2.296695762751440e+000	 1.232419301294487e-001	 1.177442189902341e+001
 2.295487057913643e+000	 1.440109958591868e-001	 1.176898249932216e+001
 2.294085427878376e+000	 1.648394660517298e-001	 1.175914135835137e+001
 2.292489089285957e+000	 1.857249995872509e-001	 1.174477925502314e+001
 2.290696289801054e+000	 2.066652071669667e-001	 1.172579380583307e+001
 2.325000000000000e+000	 0.000000000000000e+000	 1.166714182447179e+001
 2.324908848050816e+000	 2.058757524139532e-002	 1.168538804047066e+001
 2.324634072802724e+000	 4.124836435401671e-002	 1.170022594791745e+001
 2.324173711820144e+000	 6.198029750047319e-002	 1.171145302364146e+001
 2.323525825938548e+000	 8.278125504277353e-002	 1.171888111378950e+001
 2.322688500588074e+000	 1.036490676307858e-001	 1.172233699430732e+001
 2.321659847128467e+000	 1.245815163274705e-001	 1.172166291480722e+001
 2.320438004194349e+000	 1.455763327716879e-001	 1.171671712409308e+001
 2.319021139049704e+000	 1.666311993793529e-001	 1.170737437560306e+001
 2.317407448950504e+000	 1.877437495836841e-001	 1.169352641102505e+001
 2.315595162514295e+000	 2.089115681152584e-001	 1.167508242033882e+001
 2.350000000000000e+000	 0.000000000000000e+000	 1.161219222974492e+001
 2.349907867922315e+000	 2.080894701861403e-002	 1.163150083572951e+001
 2.349630138101621e+000	 4.169189515430661e-002	 1.164732889120935e+001
 2.349164827000877e+000	 6.264675231336984e-002	 1.165948095881281e+001
 2.348509974604323e+000	 8.367137606600530e-002	 1.166777657713115e+001
 2.347663645755325e+000	 1.047635737357347e-001	 1.167205082846562e+001
 2.346623931505669e+000	 1.259211025259797e-001	 1.167215488897591e+001
 2.345388950475293e+000	 1.471416696846196e-001	 1.166795655944948e+001
 2.343956850221343e+000	 1.684229327073097e-001	 1.165934077490066e+001
 2.342325808615448e+000	 1.897624995803130e-001	 1.164621009120378e+001
 2.340494035228027e+000	 2.111579290635668e-001	 1.162848514696489e+001
 2.375000000000000e+000	 0.000000000000000e+000	 1.155855106991281e+001
 2.374906887793820e+000	 2.103031879601026e-002	 1.157930671433550e+001
 2.374626203400537e+000	 4.213542595491358e-002	 1.159648562249074e+001
 2.374155942181652e+000	 6.331320712668474e-002	 1.160989917185624e+001
 2.373494123270175e+000	 8.456149708971773e-002	 1.161937434278537e+001
 2.372638790922696e+000	 1.058780798411875e-001	 1.162475429418580e+001
 2.371588015883045e+000	 1.272606887249762e-001	 1.162589892059832e+001
 2.370339896756476e+000	 1.487070065979821e-001	 1.162268538884156e+001
 2.368892561393295e+000	 1.702146660356002e-001	 1.161500865237843e+001
 2.367244168280788e+000	 1.917812495771377e-001	 1.160278194155612e+001
 2.365392907942251e+000	 2.134042900118918e-001	 1.158593722787306e+001
 2.400000000000000e+000	 0.000000000000000e+000	 1.150631448669266e+001
 2.399905907665330e+000	 2.125169057358399e-002	 1.152888578500314e+001
 2.399622268699472e+000	 4.257895675583762e-002	 1.154776018768625e+001
 2.399147057362470e+000	 6.397966194041792e-002	 1.156275562318997e+001
 2.398478271936104e+000	 8.545161811391079e-002	 1.157370627027311e+001
 2.397613936090188e+000	 1.069925859471440e-001	 1.158046314228169e+001
 2.396552100260595e+000	 1.286002749244599e-001	 1.158289465180763e+001
 2.395290843037896e+000	 1.502723435117752e-001	 1.158088715383913e+001
 2.393828272565560e+000	 1.720063993642244e-001	 1.157434546550472e+001
 2.392162527946525e+000	 1.937999995741582e-001	 1.156319336050782e+001
 2.390291780656967e+000	 2.156506509602334e-001	 1.154737403635267e+001
 2.425000000000000e+000	 0.000000000000000e+000	 1.145557465719496e+001
 2.424904927536844e+000	 2.147306235133523e-002	 1.148031464723466e+001
 2.424618333998425e+000	 4.302248755707874e-002	 1.150121356929245e+001
 2.424138172543332e+000	 6.464611675456937e-002	 1.151809564570534e+001
 2.423462420602109e+000	 8.634173913858448e-002	 1.153080201733458e+001
 2.422589081257803e+000	 1.081070920536042e-001	 1.153919133710669e+001
 2.421516184638321e+000	 1.299398611244310e-001	 1.154314034290109e+001
 2.420241789319556e+000	 1.518376804259992e-001	 1.154254440783679e+001
 2.418763983738137e+000	 1.737981326931823e-001	 1.153731806600297e+001
 2.417080887612659e+000	 1.958187495713745e-001	 1.152739551167500e+001
 2.415190653372174e+000	 2.178970119085915e-001	 1.151273107006143e+001
 2.449999999999999e+000	 0.000000000000000e+000	 1.140641999619925e+001
 2.449903947408363e+000	 2.169443412926399e-002	 1.143366657036139e+001
 2.449614399297399e+000	 4.346601835863694e-002	 1.145690384267514e+001
 2.449129287724237e+000	 6.531257156913906e-002	 1.147596207882426e+001
 2.448446569268192e+000	 8.723186016373880e-002	 1.149068915226505e+001
 2.447564226425537e+000	 1.092215981605683e-001	 1.150095114769957e+001
 2.446480269016221e+000	 1.312794473248893e-001	 1.150663294284186e+001
 2.445192735601454e+000	 1.534030173406537e-001	 1.150763876647098e+001
 2.443699694911027e+000	 1.755898660224737e-001	 1.150389273075701e+001
 2.441999247279191e+000	 1.978374995687864e-001	 1.149533933584426e+001
 2.440089526087873e+000	 2.201433728569663e-001	 1.148194394468019e+001
 2.474999999999999e+000	 0.000000000000000e+000	 1.135893534617092e+001
 2.474902967279886e+000	 2.191580590737025e-002	 1.138901166173426e+001
 2.474610464596390e+000	 4.390954916051220e-002	 1.141488632289418e+001
 2.474120402905185e+000	 6.597902638412702e-002	 1.143639539443199e+001
 2.473430717934352e+000	 8.812198118937380e-002	 1.145339325944231e+001
 2.472539371593392e+000	 1.103361042680361e-001	 1.146575323340657e+001
 2.471444353394296e+000	 1.326190335258349e-001	 1.147336815548806e+001
 2.470143681883590e+000	 1.549683542557390e-001	 1.147615095498154e+001
 2.468635406084229e+000	 1.773815993520989e-001	 1.147403519084336e+001
 2.466917606946119e+000	 1.998562495663942e-001	 1.146697556222664e+001
 2.464988398804064e+000	 2.223897338053576e-001	 1.145494838795205e+001
 2.500000000000000e+000	 0.000000000000000e+000	 1.131320215587683e+001
 2.499901987151415e+000	 2.213717768565403e-002	 1.134641702482283e+001
 2.499606529895403e+000	 4.435307996270457e-002	 1.137521370271870e+001
 2.499111518086177e+000	 6.664548119953326e-002	 1.139943381525398e+001
 2.498414866600589e+000	 8.901210221548943e-002	 1.141893803852252e+001
 2.497514516761369e+000	 1.114506103760078e-001	 1.143360672436588e+001
 2.496408437772546e+000	 1.339586197272678e-001	 1.144334050184789e+001
 2.495094628165966e+000	 1.565336911712552e-001	 1.144806085273157e+001
 2.493571117257745e+000	 1.791733326820579e-001	 1.144771065882163e+001
 2.491835966613445e+000	 2.018749995641979e-001	 1.144225471903643e+001
 2.489887271520747e+000	 2.246360947537655e-001	 1.143168023407930e+001
 2.240898544376048e+000	 2.021724852704328e-001	 1.183981864388225e+001
 2.238950846230580e+000	 2.227085722441359e-001	 1.187337022994985e+001
 2.236807625977843e+000	 2.432933298649636e-001	 1.190216317730828e+001
 2.234467268428643e+000	 2.639242814016641e-001	 1.192611080516645e+001
 2.231928194088898e+000	 2.845989044733670e-001	 1.194514346885314e+001
 2.229188860500555e+000	 3.053146315223869e-001	 1.195920889518735e+001
 2.226247763581711e+000	 3.260688503289499e-001	 1.196827248854677e+001
 2.223103438964543e+000	 3.468589045682617e-001	 1.197231760615181e+001
 2.219754463329662e+000	 3.676820944102924e-001	 1.197134580112200e+001
 2.216199455735425e+000	 3.885356771626091e-001	 1.196537703190687e+001
 2.212437078940723e+000	 4.094168679565229e-001	 1.195444983674461e+001
 2.265797417088305e+000	 2.044188462186914e-001	 1.178068419961818e+001
 2.263828077851779e+000	 2.251831119367893e-001	 1.181420184604692e+001
 2.261661044040257e+000	 2.459965890868868e-001	 1.184306438067218e+001
 2.259294682517993e+000	 2.668567734184952e-001	 1.186719432556525e+001
 2.256727396240981e+000	 2.877611145242888e-001	 1.188653170784544e+001
 2.253957625612741e+000	 3.087070163181626e-001	 1.190103439138572e+001
 2.250983849839349e+000	 3.296918375556778e-001	 1.191067837801945e+001
 2.247804588282233e+000	 3.507128923973188e-001	 1.191545807673415e+001
 2.244418401807346e+000	 3.717674510149444e-001	 1.191538653937914e+001
 2.240823894129246e+000	 3.928527402417595e-001	 1.191049566146251e+001
 2.237019713148594e+000	 4.139659442660895e-001	 1.190083634666624e+001
 2.290696289801054e+000	 2.066652071669667e-001	 1.172579380583307e+001
 2.288705309473562e+000	 2.276576516292786e-001	 1.175928093055543e+001
 2.286514462103322e+000	 2.486998483085035e-001	 1.178818992825111e+001
 2.284122096608050e+000	 2.697892654349162e-001	 1.181245251944545e+001
 2.281526598393801e+000	 2.909233245747360e-001	 1.183201842525143e+001
 2.278726390725676e+000	 3.120994011134392e-001	 1.184685569581757e+001
 2.275719936097730e+000	 3.333148247819218e-001	 1.185695100704572e+001
 2.272505737600639e+000	 3.545668802259482e-001	 1.186230992403079e+001
 2.269082340285696e+000	 3.758528076192648e-001	 1.186295712971878e+001
 2.265448332523665e+000	 3.971698033207162e-001	 1.185893661732963e+001
 2.261602347356972e+000	 4.185150205756415e-001	 1.185031184514792e+001
 2.315595162514295e+000	 2.089115681152584e-001	 1.167508242033882e+001
 2.313582541095926e+000	 2.301321913216035e-001	 1.170853118298919e+001
 2.311367880167042e+000	 2.514031075298135e-001	 1.173745237523069e+001
 2.308949510698813e+000	 2.727217574509269e-001	 1.176178691991615e+001
 2.306325800547358e+000	 2.940855346247088e-001	 1.178149426282191e+001
 2.303495155839361e+000	 3.154917859082166e-001	 1.179655269824092e+001
 2.300456022356853e+000	 3.369378120076823e-001	 1.180695966157943e+001
 2.297206886919757e+000	 3.584208680541495e-001	 1.181273198737439e+001
 2.293746278764711e+000	 3.799381642232539e-001	 1.181390613119530e+001
 2.290072770918680e+000	 4.014868663994791e-001	 1.181053835394670e+001
 2.286184981565858e+000	 4.230640968851787e-001	 1.180270486714729e+001
 2.340494035228027e+000	 2.111579290635668e-001	 1.162848514696489e+001
 2.338459772718871e+000	 2.326067310137641e-001	 1.166187660610564e+001
 2.336221298231414e+000	 2.541063667508169e-001	 1.169076472197771e+001
 2.333776924790279e+000	 2.756542494665274e-001	 1.171509963170975e+001
 2.331125002701653e+000	 2.972477446742072e-001	 1.173485054467639e+001
 2.328263920953794e+000	 3.188841707024950e-001	 1.175000606563561e+001
 2.325192108616717e+000	 3.405607992329588e-001	 1.176057448356803e+001
 2.321908036239591e+000	 3.622748558819232e-001	 1.176658402459871e+001
 2.318410217244391e+000	 3.840235208269116e-001	 1.176808306743112e+001
 2.314697209314293e+000	 4.058039294780482e-001	 1.176514031977751e+001
 2.310767615775252e+000	 4.276131731947014e-001	 1.175784495433297e+001
 2.365392907942251e+000	 2.134042900118918e-001	 1.158593722787306e+001
 2.363337004342399e+000	 2.350812707057606e-001	 1.161924148994563e+001
 2.361074716296441e+000	 2.568096259715136e-001	 1.164804039060957e+001
 2.358604338882452e+000	 2.785867414817178e-001	 1.167229330109651e+001
 2.355924204856685e+000	 3.004099547232311e-001	 1.169197924138890e+001
 2.353032686068978e+000	 3.222765554962743e-001	 1.170709720129695e+001
 2.349928194877324e+000	 3.441837864577518e-001	 1.171766642590023e+001
 2.346609185560137e+000	 3.661288437092686e-001	 1.172372666369633e+001
 2.343074155724738e+000	 3.881088774302378e-001	 1.172533837584993e+001
 2.339321647710502e+000	 4.101209925564235e-001	 1.172258290499404e+001
 2.335350249985152e+000	 4.321622495042093e-001	 1.171556260209968e+001
 2.390291780656967e+000	 2.156506509602334e-001	 1.154737403635267e+001
 2.388214235966510e+000	 2.375558103975928e-001	 1.158055039687073e+001
 2.385928134362120e+000	 2.595128851919036e-001	 1.160919320302810e+001
 2.383431752975329e+000	 2.815192334964980e-001	 1.163327108767955e+001
 2.380723407012454e+000	 3.035721647717806e-001	 1.165277293631854e+001
 2.377801451184912e+000	 3.256689402895545e-001	 1.166770820648593e+001
 2.374664281138672e+000	 3.478067736820609e-001	 1.167810721016962e+001
 2.371310334881399e+000	 3.699828315361862e-001	 1.168402135749798e+001
 2.367738094205750e+000	 3.921942340332327e-001	 1.168552336008288e+001
 2.363946086107307e+000	 4.144380556346051e-001	 1.168270739242918e+001
 2.359932884195560e+000	 4.367113258137025e-001	 1.167568920989510e+001
 2.415190653372174e+000	 2.178970119085915e-001	 1.151273107006143e+001
 2.413091467591202e+000	 2.400303500892606e-001	 1.154572814752610e+001
 2.410781552428453e+000	 2.622161444119871e-001	 1.157413736031207e+001
 2.408259167068910e+000	 2.844517255108679e-001	 1.159793663793423e+001
 2.405522609168961e+000	 3.067343748198556e-001	 1.161712479402257e+001
 2.402570216301594e+000	 3.290613250823355e-001	 1.163172184445165e+001
 2.399400367400761e+000	 3.514297609058864e-001	 1.164176928705053e+001
 2.396011484203374e+000	 3.738368193626758e-001	 1.164733034115504e+001
 2.392402032687428e+000	 3.962795906358961e-001	 1.164849014531874e+001
 2.388570524504710e+000	 4.187551187125929e-001	 1.164535591156328e+001
 2.384515518406475e+000	 4.412604021231812e-001	 1.163805703461920e+001
 2.440089526087873e+000	 2.201433728569663e-001	 1.148194394468019e+001
 2.437968699216476e+000	 2.425048897807643e-001	 1.151469980766274e+001
 2.435634970495439e+000	 2.649194036317638e-001	 1.154278742337151e+001
 2.433086581163199e+000	 2.873842175248279e-001	 1.156619406036786e+001
 2.430321811326204e+000	 3.098965848674560e-001	 1.158492853060351e+001
 2.427338981419025e+000	 3.324537098746175e-001	 1.159902150665638e+001
 2.424136453663593e+000	 3.550527481292282e-001	 1.160852579910016e+001
 2.420712633526063e+000	 3.776908071887374e-001	 1.161351659222526e+001
 2.417065971169772e+000	 4.003649472382281e-001	 1.161409163638765e+001
 2.413194962902710e+000	 4.230721817903868e-001	 1.161037139532784e+001
 2.409098152617898e+000	 4.458094784326451e-001	 1.160249914687661e+001
 2.464988398804064e+000	 2.223897338053576e-001	 1.145494838795205e+001
 2.462845930842334e+000	 2.449794294721036e-001	 1.148739067575842e+001
 2.460488388563079e+000	 2.676226628512340e-001	 1.151505829477434e+001
 2.457913995258191e+000	 2.903167095383774e-001	 1.153794790218473e+001
 2.455121013484184e+000	 3.130587949145822e-001	 1.155607838585318e+001
 2.452107746537208e+000	 3.358460946664004e-001	 1.156949118104762e+001
 2.448872539927167e+000	 3.586757353520862e-001	 1.157825054581496e+001
 2.445413782849466e+000	 3.815447950143711e-001	 1.158244379317752e+001
 2.441729909652781e+000	 4.044503038402286e-001	 1.158218147838533e+001
 2.437819401301307e+000	 4.273892448679871e-001	 1.157759753952718e+001
 2.433680786829828e+000	 4.503585547420945e-001	 1.156884938988046e+001
 2.489887271520747e+000	 2.246360947537655e-001	 1.143168023407930e+001
 2.487723162468774e+000	 2.474539691632789e-001	 1.146372627138135e+001
 2.485341806631373e+000	 2.703259220703975e-001	 1.149086520166349e+001
 2.482741409353889e+000	 2.932492015515170e-001	 1.151310312735119e+001
 2.479920215642903e+000	 3.162210049612340e-001	 1.153046909706840e+001
 2.476876511656140e+000	 3.392384794576842e-001	 1.154301542223386e+001
 2.473608626191484e+000	 3.622987225744606e-001	 1.155081795078365e+001
 2.470114932173584e+000	 3.853987828395771e-001	 1.155397629614618e+001
 2.466393848136457e+000	 4.085356604418979e-001	 1.155261401965977e+001
 2.462443839700501e+000	 4.317063079453937e-001	 1.154687876469481e+001
 2.458263421042266e+000	 4.549076310515292e-001	 1.153694234082199e+001
 2.212437078940723e+000	 4.094168679565229e-001	 1.195444983674461e+001
 2.208466040719535e+000	 4.303228404769294e-001	 1.198869247636324e+001
 2.204285095166384e+000	 4.512507277356548e-001	 1.201857945891741e+001
 2.199893043990709e+000	 4.721976228884912e-001	 1.204418786372403e+001
 2.195288737798134e+000	 4.931605800963981e-001	 1.206561305400558e+001
 2.190471077357688e+000	 5.141366154304753e-001	 1.208296866220074e+001
 2.185439014853160e+000	 5.351227078207387e-001	 1.209638653442490e+001
 2.180191555116964e+000	 5.561158000485698e-001	 1.210601663327354e+001
 2.174727756844882e+000	 5.771127997826461e-001	 1.211202689825743e+001
 2.169046733790038e+000	 5.981105806580940e-001	 1.211460306326158e+001
 2.163147655934445e+000	 6.191059833985354e-001	 1.211394843052665e+001
 2.237019713148594e+000	 4.139659442660895e-001	 1.190083634666624e+001
 2.233004552281214e+000	 4.351042053694189e-001	 1.193603018099129e+001
 2.228777151778144e+000	 4.562646247082412e-001	 1.196694098964720e+001
 2.224336300034484e+000	 4.774442631400799e-001	 1.199366474163954e+001
 2.219680834884810e+000	 4.986401420943508e-001	 1.201631627868486e+001
 2.214809644884473e+000	 5.198492444873889e-001	 1.203502928239618e+001
 2.209721670574856e+000	 5.410685156817663e-001	 1.204995619893476e+001
 2.204415905730960e+000	 5.622948644897696e-001	 1.206126812031434e+001
 2.198891398589630e+000	 5.835251642208402e-001	 1.206915462164641e+001
 2.193147253056797e+000	 6.047562537727174e-001	 1.207382355372120e+001
 2.187182629892056e+000	 6.259849387659531e-001	 1.207356563077599e+001
 2.261602347356972e+000	 4.185150205756415e-001	 1.185031184514792e+001
 2.257543063843300e+000	 4.398855702620842e-001	 1.188645788189785e+001
 2.253269208390209e+000	 4.612785216811742e-001	 1.191837205835280e+001
 2.248779556078465e+000	 4.826909033921671e-001	 1.194616943182284e+001
 2.244072931971593e+000	 5.041197040929341e-001	 1.196998454682886e+001
 2.239148212411263e+000	 5.255618735450451e-001	 1.198997138417148e+001
 2.234004326296460e+000	 5.470143235436287e-001	 1.200630326573728e+001
 2.228640256344763e+000	 5.684739289318761e-001	 1.201917271422273e+001
 2.223055040334082e+000	 5.899375286599927e-001	 1.202879126706195e+001
 2.217247772323162e+000	 6.114019268883302e-001	 1.203538924395589e+001
 2.211217603849173e+000	 6.328638941343707e-001	 1.202392628039840e+001
 2.286184981565858e+000	 4.230640968851787e-001	 1.180270486714729e+001
 2.282081575405792e+000	 4.446669351549252e-001	 1.183978600416397e+001
 2.277761265002584e+000	 4.662924186544543e-001	 1.187266505954261e+001
 2.273222812122656e+000	 4.879375436447529e-001	 1.190147638988487e+001
 2.268465029058483e+000	 5.095992660921479e-001	 1.192637447942582e+001
 2.263486779938061e+000	 5.312745026034441e-001	 1.194753387098478e+001
 2.258286982017970e+000	 5.529601314063262e-001	 1.196514905088011e+001
 2.252864606958372e+000	 5.746529933748897e-001	 1.197943428698093e+001
 2.247218682078241e+000	 5.963498931001036e-001	 1.199062341917915e+001
 2.241348291589134e+000	 6.180476000049329e-001	 1.199896960168112e+001
 2.235252577805797e+000	 6.397428495037884e-001	 1.197657107563893e+001
 2.310767615775252e+000	 4.276131731947014e-001	 1.175784495433297e+001
 2.306620086968692e+000	 4.494483000479418e-001	 1.179582633215601e+001
 2.302253321615266e+000	 4.713063156280811e-001	 1.182961408783955e+001
 2.297666068167052e+000	 4.931841838978371e-001	 1.185936210039101e+001
 2.292857126145480e+000	 5.150788280919922e-001	 1.188524504302800e+001
 2.287825347464866e+000	 5.369871316625858e-001	 1.190745829600098e+001
 2.282569637739388e+000	 5.589059392698583e-001	 1.192621781156106e+001
 2.277088957571788e+000	 5.808320578188099e-001	 1.194175993023764e+001
 2.271382323822106e+000	 6.027622575411730e-001	 1.195434114770556e+001
 2.265448810854712e+000	 6.246932731225250e-001	 1.196423783164259e+001
 2.259287551761927e+000	 6.466218048742060e-001	 1.193141815937135e+001
 2.335350249985152e+000	 4.321622495042093e-001	 1.171556260209968e+001
 2.331158598532001e+000	 4.542296649411343e-001	 1.175439193798420e+001
 2.326745378228254e+000	 4.763202126020547e-001	 1.178901484850135e+001
 2.322109324211656e+000	 4.984308241514199e-001	 1.181960497007388e+001
 2.317249223232584e+000	 5.205583900924672e-001	 1.184635742630088e+001
 2.312163914991677e+000	 5.426997607224701e-001	 1.186948872263344e+001
 2.306852293460711e+000	 5.648517471342254e-001	 1.188923659133074e+001
 2.301313308185011e+000	 5.870111222636374e-001	 1.190585978585179e+001
 2.295545965565678e+000	 6.091746219832009e-001	 1.191963782395838e+001
 2.289549330119895e+000	 6.313389462411065e-001	 1.191928676300762e+001
 2.283322525717564e+000	 6.535007602456238e-001	 1.188838944068241e+001
 2.359932884195560e+000	 4.367113258137025e-001	 1.167568920989510e+001
 2.355697110095715e+000	 4.590110298345022e-001	 1.171529711443273e+001
 2.351237434841551e+000	 4.813341095763753e-001	 1.175066457353336e+001
 2.346552580256467e+000	 5.036774644055012e-001	 1.178198522772053e+001
 2.341641320319795e+000	 5.260379520935725e-001	 1.180947492428813e+001
 2.336502482518496e+000	 5.484123897830974e-001	 1.183337159380193e+001
 2.331134949181942e+000	 5.707975549994275e-001	 1.185393507497005e+001
 2.325537658798039e+000	 5.931901867093715e-001	 1.187144688702759e+001
 2.319709607308956e+000	 6.155869864261875e-001	 1.188620994890569e+001
 2.313649849384685e+000	 6.379846193606777e-001	 1.187563939982250e+001
 2.307357499672707e+000	 6.603797156180414e-001	 1.184741039871494e+001
 2.384515518406475e+000	 4.412604021231812e-001	 1.163805703461920e+001
 2.380235621659837e+000	 4.637923947280462e-001	 1.167835731203836e+001
 2.375729491455153e+000	 4.863480065510425e-001	 1.171436194299018e+001
 2.370995836301485e+000	 5.089241046600810e-001	 1.174628483025208e+001
 2.366033417407112e+000	 5.315175140953083e-001	 1.177436282983543e+001
 2.360841050045321e+000	 5.541250188444671e-001	 1.179885560927757e+001
 2.355417604903078e+000	 5.767433628654644e-001	 1.182004545234419e+001
 2.349762009410874e+000	 5.993692511560125e-001	 1.183823700927598e+001
 2.343873249051941e+000	 6.219993508701325e-001	 1.185375699184421e+001
 2.337750368649082e+000	 6.446302924812387e-001	 1.183380454233497e+001
 2.331392473627356e+000	 6.672586709914591e-001	 1.180840989864435e+001
 2.409098152617898e+000	 4.458094784326451e-001	 1.160249914687661e+001
 2.404774133224367e+000	 4.685737596217657e-001	 1.164338908002147e+001
 2.400221548069064e+000	 4.913619035260567e-001	 1.167990701109568e+001
 2.395439092346710e+000	 5.141707449151592e-001	 1.171228737455364e+001
 2.390425514494537e+000	 5.369970760976748e-001	 1.174078833166173e+001
 2.385179617572153e+000	 5.598376479065798e-001	 1.176569161053745e+001
 2.379700260624122e+000	 5.826891707323361e-001	 1.178730229059234e+001
 2.373986360023517e+000	 6.055483156035604e-001	 1.180594853050107e+001
 2.368036890794631e+000	 6.284117153150359e-001	 1.181634474631169e+001
 2.361850887913085e+000	 6.512759656027893e-001	 1.179371797210852e+001
 2.355427447581511e+000	 6.741376263658767e-001	 1.177132001892186e+001
 2.433680786829828e+000	 4.503585547420945e-001	 1.156884938988046e+001
 2.429312644789304e+000	 4.733551245156609e-001	 1.161021001079691e+001
 2.424713604683281e+000	 4.963758005014177e-001	 1.164710113684035e+001
 2.419882348392143e+000	 5.194173851707360e-001	 1.167977801464781e+001
 2.414817611582069e+000	 5.424766381006718e-001	 1.170852041860818e+001
 2.409518185098991e+000	 5.655502769694349e-001	 1.173363247259759e+001
 2.403982916345072e+000	 5.886349786000428e-001	 1.175544241406328e+001
 2.398210710635965e+000	 6.117273800520152e-001	 1.177430229956612e+001
 2.392200532537029e+000	 6.348240797608978e-001	 1.177525942463692e+001
 2.385951407176694e+000	 6.579216387253295e-001	 1.175531833872086e+001
 2.379462421535173e+000	 6.810165817412944e-001	 1.173607588898786e+001
 2.458263421042266e+000	 4.549076310515292e-001	 1.153694234082199e+001
 2.453851156354649e+000	 4.781364894097321e-001	 1.157863868781433e+001
 2.449205661297807e+000	 5.013896974771258e-001	 1.161574691874314e+001
 2.444325604437783e+000	 5.246640254268116e-001	 1.164854338383780e+001
 2.439209708669709e+000	 5.479562001042996e-001	 1.167732978963192e+001
 2.433856752625838e+000	 5.712629060330332e-001	 1.170243300233604e+001
 2.428265572065929e+000	 5.945807864685846e-001	 1.172420479145486e+001
 2.422435061248221e+000	 6.179064445013772e-001	 1.174302151274562e+001
 2.416364174279133e+000	 6.412364442077186e-001	 1.173564189238421e+001
 2.410051926439910e+000	 6.645673118488594e-001	 1.171854701636332e+001
 2.403497395488342e+000	 6.878955371177123e-001	 1.170261553672238e+001
 2.163147655934445e+000	 6.191059833985354e-001	 1.211394843052665e+001
 2.157029750636725e+000	 6.400958169810158e-001	 1.215879137842238e+001
 2.150692303753667e+000	 6.610768598420859e-001	 1.218872208701454e+001
 2.144134660734327e+000	 6.820458611255977e-001	 1.221531138523202e+001
 2.137356227685585e+000	 7.029995419721639e-001	 1.223850195263290e+001
 2.130356472406817e+000	 7.239345968484162e-001	 1.225823490053631e+001
 2.123134925392267e+000	 7.448476949157646e-001	 1.227444983053095e+001
 2.115691180799508e+000	 7.657354814378438e-001	 1.228708489921302e+001
 2.108024897382408e+000	 7.865945792257690e-001	 1.229607688917076e+001
 2.100135799387014e+000	 8.074215901202453e-001	 1.230136128621364e+001
 2.092023677408817e+000	 8.282130965095027e-001	 1.230287236282588e+001
 2.187182629892056e+000	 6.259849387659531e-001	 1.207356563077599e+001
 2.180996747869119e+000	 6.472079927217472e-001	 1.210862943356479e+001
 2.174588884909840e+000	 6.684221582814655e-001	 1.214013566968329e+001
 2.167958379190486e+000	 6.896241484683362e-001	 1.216802174783423e+001
 2.161104630219127e+000	 7.108106479912015e-001	 1.219222354429778e+001
 2.154027099881797e+000	 7.319783145885441e-001	 1.221267546475672e+001
 2.146725313456010e+000	 7.531237804124569e-001	 1.222931051246186e+001
 2.139198860589977e+000	 7.742436534517256e-001	 1.224206036275911e+001
 2.131447396245942e+000	 7.953345189931456e-001	 1.225085544398185e+001
 2.123470641606018e+000	 8.163929411200948e-001	 1.225562502469224e+001
 2.115268384938982e+000	 8.374154642473412e-001	 1.225629730723587e+001
 2.211217603849173e+000	 6.328638941343707e-001	 1.202392628039840e+001
 2.204963745100923e+000	 6.543201684634740e-001	 1.206074254789295e+001
 2.198485466065337e+000	 6.757674567218257e-001	 1.209373820681979e+001
 2.191782097645895e+000	 6.972024358120310e-001	 1.212284382061777e+001
 2.184853032751853e+000	 7.186217540111610e-001	 1.214798850164662e+001
 2.177697727355906e+000	 7.400220323295501e-001	 1.216909998242550e+001
 2.170315701518835e+000	 7.613998659099726e-001	 1.218610469336564e+001
 2.162706540379492e+000	 7.827518254663668e-001	 1.219892784700642e+001
 2.154869895108496e+000	 8.040744587612064e-001	 1.220749352874462e+001
 2.146805483824028e+000	 8.253642921205443e-001	 1.221172479402683e+001
 2.138513092468148e+000	 8.466178319856844e-001	 1.221154377195438e+001
 2.235252577805797e+000	 6.397428495037884e-001	 1.197657107563893e+001
 2.228930742332137e+000	 6.614323442061955e-001	 1.201504933732215e+001
 2.222382047220159e+000	 6.831127551631664e-001	 1.204945258668631e+001
 2.215605816100554e+000	 7.047807231566823e-001	 1.207970458426336e+001
 2.208601435283764e+000	 7.264328600320423e-001	 1.210572771410726e+001
 2.201368354829143e+000	 7.480657500714333e-001	 1.212744306435147e+001
 2.193906089580742e+000	 7.696759514083118e-001	 1.214477051442352e+001
 2.186214220168054e+000	 7.912599974817669e-001	 1.215762882891390e+001
 2.178292393970071e+000	 8.128143985299519e-001	 1.216593575807570e+001
 2.170140326041044e+000	 8.343356431215939e-001	 1.216960814491137e+001
 2.161757799996312e+000	 8.558201997245328e-001	 1.216856203878088e+001
 2.259287551761927e+000	 6.466218048742060e-001	 1.193141815937135e+001
 2.252897739562764e+000	 6.685445199499122e-001	 1.197147224059322e+001
 2.246278628374308e+000	 6.904580536054878e-001	 1.200720537676223e+001
 2.239429534554463e+000	 7.123590105022891e-001	 1.203853456420283e+001
 2.232349837814859e+000	 7.342439660538457e-001	 1.206537549066014e+001
 2.225038982301508e+000	 7.561094678141942e-001	 1.208764262508603e+001
 2.217496477641732e+000	 7.779520369074743e-001	 1.210524931425433e+001
 2.209721899955661e+000	 7.997681694979262e-001	 1.211810788619030e+001
 2.201714892830666e+000	 8.215543382993820e-001	 1.212612976037828e+001
 2.193475168257064e+000	 8.433069941232435e-001	 1.212922556468991e+001
 2.185002507523477e+000	 8.650225674638863e-001	 1.212730525895329e+001
 2.283322525717564e+000	 6.535007602456238e-001	 1.188838944068241e+001
 2.276864736792801e+000	 6.756566956946243e-001	 1.192993731807118e+001
 2.270175209527782e+000	 6.978033520487897e-001	 1.196692663010110e+001
 2.263253253007621e+000	 7.199372978488526e-001	 1.199926764405329e+001
 2.256098240345136e+000	 7.420550720765706e-001	 1.202686937986188e+001
 2.248709609773001e+000	 7.641531855578326e-001	 1.204963970904207e+001
 2.241086865701804e+000	 7.862281224074598e-001	 1.206748546062845e+001
 2.233229579742315e+000	 8.082763415148443e-001	 1.208031253409691e+001
 2.225137391690283e+000	 8.302942780694966e-001	 1.208802601922163e+001
 2.216810010472089e+000	 8.522783451254932e-001	 1.209053032279617e+001
 2.208247215049642e+000	 8.742249352037450e-001	 1.208772930212475e+001
 2.307357499672707e+000	 6.603797156180414e-001	 1.184741039871494e+001
 2.300831734022249e+000	 6.827688714403316e-001	 1.189037406311894e+001
 2.294071790680583e+000	 7.051486504930723e-001	 1.192854970379024e+001
 2.287076971460031e+000	 7.275155851963719e-001	 1.196184089071161e+001
 2.279846642874599e+000	 7.498661781002176e-001	 1.199015000111732e+001
 2.272380237243622e+000	 7.721969033023488e-001	 1.201337832748024e+001
 2.264677253760957e+000	 7.945042079082690e-001	 1.203142619269939e+001
 2.256737259528015e+000	 8.167845135325217e-001	 1.204419307244993e+001
 2.248559890548919e+000	 8.390342178402960e-001	 1.205157772463464e+001
 2.240144852686119e+000	 8.612496961283428e-001	 1.205347832585293e+001
 2.231491922574806e+000	 8.834273029441089e-001	 1.204979261477957e+001
 2.331392473627356e+000	 6.672586709914591e-001	 1.180840989864435e+001
 2.324798731251109e+000	 6.898810471870337e-001	 1.185271522513872e+001
 2.317968371832708e+000	 7.124939489383351e-001	 1.189201108863980e+001
 2.310900689911689e+000	 7.350938725448477e-001	 1.192619439026790e+001
 2.303595045403246e+000	 7.576772841247864e-001	 1.195516088638845e+001
 2.296050864713372e+000	 7.802406210477426e-001	 1.197880530557873e+001
 2.288267641819193e+000	 8.027802934099015e-001	 1.199702147299442e+001
 2.280244939312762e+000	 8.252926855509578e-001	 1.200970244208681e+001
 2.271982389406577e+000	 8.477741576117799e-001	 1.201674063359757e+001
 2.263479694899156e+000	 8.702210471317925e-001	 1.201802798173456e+001
 2.254736630098972e+000	 8.926296706849779e-001	 1.201345608740679e+001
 2.355427447581511e+000	 6.741376263658767e-001	 1.177132001892186e+001
 2.348765728479379e+000	 6.969932229347312e-001	 1.181689664344751e+001
 2.341864952984159e+000	 7.198392473845788e-001	 1.185725024929887e+001
 2.334724408362598e+000	 7.426721598942795e-001	 1.189227109396495e+001
 2.327343447931077e+000	 7.654883901502771e-001	 1.192184833159444e+001
 2.319721492182250e+000	 7.882843387940142e-001	 1.194587013886599e+001
 2.311858029876512e+000	 8.110563789123574e-001	 1.196422384846691e+001
 2.303752619096555e+000	 8.338008575701532e-001	 1.197679609012016e+001
 2.295404888263255e+000	 8.565140973839484e-001	 1.198347293907510e+001
 2.286814537111197e+000	 8.791923981358422e-001	 1.198414007195204e+001
 2.277981337622136e+000	 9.018320384263519e-001	 1.197868292980619e+001
 2.379462421535173e+000	 6.810165817412944e-001	 1.173607588898786e+001
 2.372732725707062e+000	 7.041053986834239e-001	 1.178285709122086e+001
 2.365761534134936e+000	 7.271845458318029e-001	 1.182420947406164e+001
 2.358548126812756e+000	 7.502504472446672e-001	 1.186001667349362e+001
 2.351091850458092e+000	 7.732994961766896e-001	 1.189016125701797e+001
 2.343392119650255e+000	 7.963280565411631e-001	 1.191452485835462e+001
 2.335448417932912e+000	 8.193324644156368e-001	 1.193298831996968e+001
 2.327260298879395e+000	 8.423090295901078e-001	 1.194543184335831e+001
 2.318827387118954e+000	 8.652540371568017e-001	 1.195173514698685e+001
 2.310149379322243e+000	 8.881637491404918e-001	 1.195177763177238e+001
 2.301226045144301e+000	 9.110344061682311e-001	 1.194543855395130e+001
 2.403497395488342e+000	 6.878955371177123e-001	 1.170261553672238e+001
 2.396699722934155e+000	 7.112175744331118e-001	 1.175053812879985e+001
 2.389658115285039e+000	 7.345298442800079e-001	 1.179283373368512e+001
 2.382371845262166e+000	 7.578287345960117e-001	 1.182937938497042e+001
 2.374840252984291e+000	 7.811106022040244e-001	 1.186005107608696e+001
 2.367062747117389e+000	 8.043717742891899e-001	 1.188472390376710e+001
 2.359038805988396e+000	 8.276085499197398e-001	 1.190327221956018e+001
 2.350767978661281e+000	 8.508172016108216e-001	 1.191556978932040e+001
 2.342249885973674e+000	 8.739939769303399e-001	 1.192148996055963e+001
 2.333484221532295e+000	 8.971351001457417e-001	 1.192090583753077e+001
 2.324470752665467e+000	 9.202367739106158e-001	 1.191369046388071e+001
 2.092023677408817e+000	 8.282130965095027e-001	 1.230287236282588e+001
 2.083688389209485e+000	 8.489656628815500e-001	 1.234467163518249e+001
 2.075129860492684e+000	 8.696758374109868e-001	 1.238032325070115e+001
 2.066348085636912e+000	 8.903401535779647e-001	 1.240973800226317e+001
 2.057343128383053e+000	 9.109551318173331e-001	 1.243282776698344e+001
 2.048115122476415e+000	 9.315172811979668e-001	 1.244950566073394e+001
 2.038664272261591e+000	 9.520231011303459e-001	 1.245968619637458e+001
 2.028990853228824e+000	 9.724690831008999e-001	 1.246328544543371e+001
 2.019095212510688e+000	 9.928517124315597e-001	 1.246022120296153e+001
 2.008977769327879e+000	 1.013167470062905e+000	 1.245041315526229e+001
 1.998639015383027e+000	 1.033412834359236e+000	 1.243378305019331e+001
 2.115268384938982e+000	 8.374154642473412e-001	 1.225629730723587e+001
 2.106840482426126e+000	 8.583986146904973e-001	 1.229712571461497e+001
 2.098186858945657e+000	 8.793389022705093e-001	 1.233201167481330e+001
 2.089307508813609e+000	 9.002328219506398e-001	 1.236086431374596e+001
 2.080202496479100e+000	 9.210768555039042e-001	 1.238359358220488e+001
 2.070871957173500e+000	 9.418674732110525e-001	 1.240011041127162e+001
 2.061316097511894e+000	 9.626011355871257e-001	 1.241032687187644e+001
 2.051535196045530e+000	 9.832742951350683e-001	 1.241415633824811e+001
 2.041529603764009e+000	 1.003883398124833e+000	 1.241151365497953e+001
 2.031299744546037e+000	 1.024424886396339e+000	 1.240231530741469e+001
 2.020846115557606e+000	 1.044895199184599e+000	 1.238647959504472e+001
 2.138513092468148e+000	 8.466178319856844e-001	 1.221154377195438e+001
 2.129992575641768e+000	 8.678315664998595e-001	 1.225143607905693e+001
 2.121243857397628e+000	 8.890019671303754e-001	 1.228558844826503e+001
 2.112266931989306e+000	 9.101254903236083e-001	 1.231390823086519e+001
 2.103061864574150e+000	 9.311985791907373e-001	 1.233630334282834e+001
 2.093628791869585e+000	 9.522176652243886e-001	 1.235268242125353e+001
 2.083967922761197e+000	 9.731791700441644e-001	 1.236295498540206e+001
 2.074079538861235e+000	 9.940795071695248e-001	 1.236703160206836e+001
 2.063963995016330e+000	 1.014915083818443e+000	 1.236482405501400e+001
 2.053621719763195e+000	 1.035682302730178e+000	 1.235624551817060e+001
 2.043053215731184e+000	 1.056377564010459e+000	 1.234121073229786e+001
 2.161757799996312e+000	 8.558201997245328e-001	 1.216856203878088e+001
 2.153144668856409e+000	 8.772645183096366e-001	 1.220755423321874e+001
 2.144300855848600e+000	 8.986650319905858e-001	 1.224100646330441e+001
 2.135226355164003e+000	 9.200181586968698e-001	 1.226882419754139e+001
 2.125921232668198e+000	 9.413203028778321e-001	 1.229091320796614e+001
 2.116385626564671e+000	 9.625678572379754e-001	 1.230717972776409e+001
 2.106619748009500e+000	 9.837572045014623e-001	 1.231753061392547e+001
 2.096623881675941e+000	 1.004884719204269e+000	 1.232187351468913e+001
 2.086398386267651e+000	 1.025946769512391e+000	 1.232011704150174e+001
 2.075943694979353e+000	 1.046939719064425e+000	 1.231217094519788e+001
 2.065260315903762e+000	 1.067859928836815e+000	 1.229794629608568e+001
 2.185002507523477e+000	 8.650225674638863e-001	 1.212730525895329e+001
 2.176296762070050e+000	 8.866974701198287e-001	 1.216543454936936e+001
 2.167357854298572e+000	 9.083280968511406e-001	 1.219822147195576e+001
 2.158185778337701e+000	 9.299108270704243e-001	 1.222556950375475e+001
 2.148780600761246e+000	 9.514420265651886e-001	 1.224738216311098e+001
 2.139142461258755e+000	 9.729180492518126e-001	 1.226356316860120e+001
 2.129271573256804e+000	 9.943352389590194e-001	 1.227401660345828e+001
 2.119168224489646e+000	 1.015689931239302e+000	 1.227864708524011e+001
 2.108832777517972e+000	 1.036978455206675e+000	 1.227735994047089e+001
 2.098265670194510e+000	 1.058197135399078e+000	 1.227006138396025e+001
 2.087467416075340e+000	 1.079342293663667e+000	 1.225665870248305e+001
 2.208247215049642e+000	 8.742249352037450e-001	 1.208772930212475e+001
 2.199448855282691e+000	 8.961304219304351e-001	 1.212503411641221e+001
 2.190414852747545e+000	 9.179911617120392e-001	 1.215719193550511e+001
 2.181145201510398e+000	 9.398034954442719e-001	 1.218410413575240e+001
 2.171639968853294e+000	 9.615637502528069e-001	 1.220567187137900e+001
 2.161899295951840e+000	 9.832682412659003e-001	 1.222179623487025e+001
 2.151923398503107e+000	 1.004913273416836e+000	 1.223237842331096e+001
 2.141712567302352e+000	 1.026495143274622e+000	 1.223731991043147e+001
 2.131267168767293e+000	 1.048010140901296e+000	 1.223652262408857e+001
 2.120587645408667e+000	 1.069454551734136e+000	 1.222988912888591e+001
 2.109674516245919e+000	 1.090824658491015e+000	 1.221732281361511e+001
 2.231491922574806e+000	 8.834273029441089e-001	 1.204979261477957e+001
 2.222600948494332e+000	 9.055633737414569e-001	 1.208631259839377e+001
 2.213471851195516e+000	 9.276542265732820e-001	 1.211787888339282e+001
 2.204104624682095e+000	 9.496961638184125e-001	 1.214439063561793e+001
 2.194499336944342e+000	 9.716854739406873e-001	 1.216574653405024e+001
 2.184656130643925e+000	 9.936184332802384e-001	 1.218184493279099e+001
 2.174575223748410e+000	 1.015491307874911e+000	 1.219258402946258e+001
 2.164256910114058e+000	 1.037300355310230e+000	 1.219786203978408e+001
 2.153701560015615e+000	 1.059041826596255e+000	 1.219757737804964e+001
 2.142909620621825e+000	 1.080711968069602e+000	 1.219162884321323e+001
 2.131881616415496e+000	 1.102307023318859e+000	 1.217991581025880e+001
 2.254736630098972e+000	 8.926296706849779e-001	 1.201345608740679e+001
 2.245753041704973e+000	 9.149963255528933e-001	 1.204923210176428e+001
 2.236528849642488e+000	 9.373172914348692e-001	 1.208024578083451e+001
 2.227064047852792e+000	 9.595888321928465e-001	 1.210639396952721e+001
 2.217358705034390e+000	 9.818071976288294e-001	 1.212757275973545e+001
 2.207412965335010e+000	 1.003968625294827e+000	 1.214367765405254e+001
 2.197227048992713e+000	 1.026069342333246e+000	 1.215460373638213e+001
 2.186801252924763e+000	 1.048105567346126e+000	 1.216024584919595e+001
 2.176135951262936e+000	 1.070073512291550e+000	 1.216049877716796e+001
 2.165231595833983e+000	 1.091969384405473e+000	 1.215525743688702e+001
 2.154088716584075e+000	 1.113789388147199e+000	 1.214441707232477e+001
 2.277981337622136e+000	 9.018320384263519e-001	 1.197868292980619e+001
 2.268905134914614e+000	 9.244292773647448e-001	 1.201375705076525e+001
 2.259585848088461e+000	 9.469803562968006e-001	 1.204425840454677e+001
 2.250023471022489e+000	 9.694815005675734e-001	 1.207008140407021e+001
 2.240218073123439e+000	 9.919289213172334e-001	 1.209111944155308e+001
 2.230169800025095e+000	 1.014318817309666e+000	 1.210726505410567e+001
 2.219878874236016e+000	 1.036647376791840e+000	 1.211841009669730e+001
 2.209345595734469e+000	 1.058910779382311e+000	 1.212444592224951e+001
 2.198570342509257e+000	 1.081105197987182e+000	 1.212526356858463e+001
 2.187553571045141e+000	 1.103226800741751e+000	 1.212075395193073e+001
 2.176295816751653e+000	 1.125271752976035e+000	 1.211080806665664e+001
 2.301226045144301e+000	 9.110344061682311e-001	 1.194543855395130e+001
 2.292057228123256e+000	 9.338622291770110e-001	 1.197985407036934e+001
 2.282642846533433e+000	 9.566434211590758e-001	 1.200988472600470e+001
 2.272982894191185e+000	 9.793741689425934e-001	 1.203542239006848e+001
 2.263077441211487e+000	 1.002050645005899e+000	 1.205635764175015e+001
 2.252926634714181e+000	 1.024669009324756e+000	 1.207257993783150e+001
 2.242530699478319e+000	 1.047225411250692e+000	 1.208397778815628e+001
 2.231889938543174e+000	 1.069715991418782e+000	 1.209043893871242e+001
 2.221004733754578e+000	 1.092136883683151e+000	 1.209185056205448e+001
 2.209875546255298e+000	 1.114484217078435e+000	 1.208809945476567e+001
 2.198502916918232e+000	 1.136754117805368e+000	 1.207907224163040e+001
 2.324470752665467e+000	 9.202367739106158e-001	 1.191369046388071e+001
 2.315209321330897e+000	 9.432951809896923e-001	 1.194749187624379e+001
 2.305699844977406e+000	 9.663064860216959e-001	 1.197709480170403e+001
 2.295942317358883e+000	 9.892668373179069e-001	 1.200238845336353e+001
 2.285936809298535e+000	 1.012172368694827e+000	 1.202326048324578e+001
 2.275683469402266e+000	 1.035019201340096e+000	 1.203959715206989e+001
 2.265182524719623e+000	 1.057803445709805e+000	 1.205128350737158e+001
 2.254434281350881e+000	 1.080521203455543e+000	 1.205820356972832e+001
 2.243439124998900e+000	 1.103168569379458e+000	 1.206024052681545e+001
 2.232197521464457e+000	 1.125741633415526e+000	 1.205727693499114e+001
 2.220710017083810e+000	 1.148236482635196e+000	 1.204919492807771e+001
 1.998639015383027e+000	 1.033412834359236e+000	 1.243378305019331e+001
 1.988079515201900e+000	 1.053584282934246e+000	 1.246289020172378e+001
 1.977299906419740e+000	 1.073678294494223e+000	 1.248599734898556e+001
 1.966300900012589e+000	 1.093691350697970e+000	 1.250295685625784e+001
 1.955083280473654e+000	 1.113619938032245e+000	 1.251362231218169e+001
 1.943647905932685e+000	 1.133460549699554e+000	 1.251784877065750e+001
 1.931995708218038e+000	 1.153209687516760e+000	 1.251549299470847e+001
 1.920127692860818e+000	 1.172863863822527e+000	 1.250641370282101e+001
 1.908044939040537e+000	 1.192419603391556e+000	 1.249047181725435e+001
 1.895748599471812e+000	 1.211873445353536e+000	 1.246753071379803e+001
 1.883239900231722e+000	 1.231221945114724e+000	 1.243745647243966e+001
 2.020846115557606e+000	 1.044895199184599e+000	 1.238647959504472e+001
 2.010169287596954e+000	 1.065290774965724e+000	 1.241387787658393e+001
 1.999269905384128e+000	 1.085608053320554e+000	 1.243527691511451e+001
 1.988148687794898e+000	 1.105843476815214e+000	 1.245052241038761e+001
 1.976806428039066e+000	 1.125993492897426e+000	 1.245946119223936e+001
 1.965243993781153e+000	 1.146054555805278e+000	 1.246194147075228e+001
 1.953462327203167e+000	 1.166023128486932e+000	 1.245781308965758e+001
 1.941462445008779e+000	 1.185895684529261e+000	 1.244692778247139e+001
 1.929245438368385e+000	 1.205668710093352e+000	 1.242913943084025e+001
 1.916812472804541e+000	 1.225338705854776e+000	 1.240430432455439e+001
 1.904164788017406e+000	 1.244902188946530e+000	 1.237228142267281e+001
 2.043053215731184e+000	 1.056377564010459e+000	 1.234121073229786e+001
 2.032259059991009e+000	 1.076997266997788e+000	 1.236685209742684e+001
 2.021239904347514e+000	 1.097537812147543e+000	 1.238649482889282e+001
 2.009996475576207e+000	 1.117995602933166e+000	 1.239997789127408e+001
 1.998529575603476e+000	 1.138367047763345e+000	 1.240714128368436e+001
 1.986840081628622e+000	 1.158648561911752e+000	 1.240782629933064e+001
 1.974928946187296e+000	 1.178836569457846e+000	 1.240187578859087e+001
 1.962797197155740e+000	 1.198927505236708e+000	 1.238913442508691e+001
 1.950445937695233e+000	 1.218917816795809e+000	 1.236944897420981e+001
 1.937876346136271e+000	 1.238803966356608e+000	 1.234266856353730e+001
 1.925089675802090e+000	 1.258582432778837e+000	 1.233376385970368e+001
 2.065260315903762e+000	 1.067859928836815e+000	 1.229794629608568e+001
 2.054348832384064e+000	 1.088703759030439e+000	 1.232178717232731e+001
 2.043209903309902e+000	 1.109467570975188e+000	 1.233962990892835e+001
 2.031844263356516e+000	 1.130147729051825e+000	 1.235130666169343e+001
 2.020252723166888e+000	 1.150740602630003e+000	 1.235665052408888e+001
 2.008436169475090e+000	 1.171242568018975e+000	 1.235549579633241e+001
 1.996395565170425e+000	 1.191650010429500e+000	 1.234767825828585e+001
 1.984131949301702e+000	 1.211959325944865e+000	 1.233303544560880e+001
 1.971646437021081e+000	 1.232166923498928e+000	 1.231140692861175e+001
 1.958940219467000e+000	 1.252269226859033e+000	 1.228874398481521e+001
 1.946014563585775e+000	 1.272262676611648e+000	 1.230901167146425e+001
 2.087467416075340e+000	 1.079342293663667e+000	 1.225665870248305e+001
 2.076438604776118e+000	 1.100410251063676e+000	 1.227865985952614e+001
 2.065179902271288e+000	 1.121397329803490e+000	 1.229466329116090e+001
 2.053692051135825e+000	 1.142299855171193e+000	 1.230449426791891e+001
 2.041975870729298e+000	 1.163114157497399e+000	 1.230797889974484e+001
 2.030032257320558e+000	 1.183836574126947e+000	 1.230494441475632e+001
 2.017862184152554e+000	 1.204463451401894e+000	 1.229521944209476e+001
 2.005466701446663e+000	 1.224991146653734e+000	 1.227863429830693e+001
 1.992846936345929e+000	 1.245416030202710e+000	 1.225502127667699e+001
 1.980004092796730e+000	 1.265734487362051e+000	 1.226465371753977e+001
 1.966939451368459e+000	 1.285942920444961e+000	 1.228247845915895e+001
 2.109674516245919e+000	 1.090824658491015e+000	 1.221732281361511e+001
 2.098528377167173e+000	 1.112116743097499e+000	 1.223744923847402e+001
 2.087149901231676e+000	 1.133327088632449e+000	 1.225157830689740e+001
 2.075539838914133e+000	 1.154451981291268e+000	 1.225952832480004e+001
 2.063699018290709e+000	 1.175487712365534e+000	 1.226111833783646e+001
 2.051628345165026e+000	 1.196430580235669e+000	 1.225616841997261e+001
 2.039328803133683e+000	 1.217276892375028e+000	 1.224449996644075e+001
 2.026801453590624e+000	 1.238022967363314e+000	 1.222593599049937e+001
 2.014047435669777e+000	 1.258665136907153e+000	 1.222056061231051e+001
 2.001067966125459e+000	 1.279199747865661e+000	 1.223888271819620e+001
 1.987864339150143e+000	 1.299623164278777e+000	 1.225415628536234e+001
 2.131881616415496e+000	 1.102307023318859e+000	 1.217991581025880e+001
 2.120618149557228e+000	 1.123823235131908e+000	 1.219813658893515e+001
 2.109119900191063e+000	 1.145256847462065e+000	 1.221036036846991e+001
 2.097387626691442e+000	 1.166604107412050e+000	 1.221639840802418e+001
 2.085422165851120e+000	 1.187861267234407e+000	 1.221606260535211e+001
 2.073224433008494e+000	 1.209024586345141e+000	 1.220916579532870e+001
 2.060795422113812e+000	 1.230090333348904e+000	 1.219552205315790e+001
 2.048136205733585e+000	 1.251054788073605e+000	 1.217717168831421e+001
 2.035247934992625e+000	 1.271914243612258e+000	 1.219579443454566e+001
 2.022131839453188e+000	 1.292665008369863e+000	 1.221142141350983e+001
 2.008789226930828e+000	 1.313303408113096e+000	 1.222403831150990e+001
 2.154088716584075e+000	 1.113789388147199e+000	 1.214441707232477e+001
 2.142707921946283e+000	 1.135529727166903e+000	 1.216070527756907e+001
 2.131089899149450e+000	 1.157186606292337e+000	 1.217099686196620e+001
 2.119235414467750e+000	 1.178756233533540e+000	 1.217509595304246e+001
 2.107145313410531e+000	 1.200234822104019e+000	 1.217280721424912e+001
 2.094820520850962e+000	 1.221618592455362e+000	 1.216393615359373e+001
 2.082262041092941e+000	 1.242903774323519e+000	 1.214828943725355e+001
 2.069470957875546e+000	 1.264086608784609e+000	 1.215364698684191e+001
 2.056448434314473e+000	 1.285163350318026e+000	 1.216943233443953e+001
 2.043195712779918e+000	 1.306130268874658e+000	 1.218226139095071e+001
 2.029714114710512e+000	 1.326983651947917e+000	 1.219211874125567e+001
 2.176295816751653e+000	 1.125271752976035e+000	 1.211080806665664e+001
 2.164797694334338e+000	 1.147236219202485e+000	 1.212514065145639e+001
 2.153059898106837e+000	 1.169116365123266e+000	 1.213347704652803e+001
 2.141083202243060e+000	 1.190908359655737e+000	 1.213561416018386e+001
 2.128868460968942e+000	 1.212608376974370e+000	 1.213134933242467e+001
 2.116416608692431e+000	 1.234212598566333e+000	 1.212048065382467e+001
 2.103728660071070e+000	 1.255717215298876e+000	 1.211287013232117e+001
 2.090805710016507e+000	 1.277118429496322e+000	 1.212861667344365e+001
 2.077648933635321e+000	 1.298412457024455e+000	 1.214146449248819e+001
 2.064259586105647e+000	 1.319595529380045e+000	 1.215139533951180e+001
 2.050639002489196e+000	 1.340663895783240e+000	 1.215839276729797e+001
 2.198502916918232e+000	 1.136754117805368e+000	 1.207907224163040e+001
 2.186887466721392e+000	 1.158942711238653e+000	 1.209142993807751e+001
 2.175029897063225e+000	 1.181046123954852e+000	 1.209779195975238e+001
 2.162930990017369e+000	 1.203060485778643e+000	 1.209794790551997e+001
 2.150591608526353e+000	 1.224981931845459e+000	 1.209168770008249e+001
 2.138012696532899e+000	 1.246806604678053e+000	 1.207880192327111e+001
 2.125195279048198e+000	 1.268530656274972e+000	 1.208939850217602e+001
 2.112140462156469e+000	 1.290150250208748e+000	 1.210206967441322e+001
 2.098849432955169e+000	 1.311661563731547e+000	 1.211188224143564e+001
 2.085323459430377e+000	 1.333060789886026e+000	 1.211881699407664e+001
 2.071563890266881e+000	 1.354344139619067e+000	 1.212285652142751e+001
 2.220710017083810e+000	 1.148236482635196e+000	 1.204919492807771e+001
 2.208977239107448e+000	 1.170649203275409e+000	 1.205956215129264e+001
 2.196999896018612e+000	 1.192975882787095e+000	 1.206393432876874e+001
 2.184778777790678e+000	 1.215212611902256e+000	 1.206209365707786e+001
 2.172314756082764e+000	 1.237355486717287e+000	 1.205382255111758e+001
 2.159608784372368e+000	 1.259400610790523e+000	 1.205219804165246e+001
 2.146661898024329e+000	 1.281344097251810e+000	 1.206449549306695e+001
 2.133475214295431e+000	 1.303182070921885e+000	 1.207399611125464e+001
 2.120049932274017e+000	 1.324910670439300e+000	 1.208067800866142e+001
 2.106387332754107e+000	 1.346526050392598e+000	 1.208452108312471e+001
 2.092488778043565e+000	 1.368024383455396e+000	 1.208550702757290e+001
 1.883239900231722e+000	 1.231221945114724e+000	 1.243745647243966e+001
 1.870520140527698e+000	 1.250461676279598e+000	 1.237605829244792e+001
 1.857590692405196e+000	 1.269589232571736e+000	 1.237543517575178e+001
 1.844453000395384e+000	 1.288601229750900e+000	 1.237099966839866e+001
 1.831108581103128e+000	 1.307494307523292e+000	 1.236268017476669e+001
 1.817559022734820e+000	 1.326265131444094e+000	 1.235040738372563e+001
 1.803805984566350e+000	 1.344910394809677e+000	 1.233411440679876e+001
 1.789851196351457e+000	 1.363426820537300e+000	 1.231373691365434e+001
 1.775696457670766e+000	 1.381811163030105e+000	 1.228921326458717e+001
 1.761343637221934e+000	 1.400060210025256e+000	 1.226048463965433e+001
 1.746794672051384e+000	 1.418170784423037e+000	 1.222749516413564e+001
 1.904164788017406e+000	 1.244902188946530e+000	 1.237228142267281e+001
 1.891303697650032e+000	 1.264355694902035e+000	 1.234831197794138e+001
 1.878230588992809e+000	 1.283695779597362e+000	 1.233466718370389e+001
 1.864946922627250e+000	 1.302919021189604e+000	 1.232418486515884e+001
 1.851454232009387e+000	 1.322022022048363e+000	 1.231294592143184e+001
 1.837754122992349e+000	 1.341001410679437e+000	 1.229842612398022e+001
 1.823848273288425e+000	 1.359853843638046e+000	 1.228057533480991e+001
 1.809738431870839e+000	 1.378576007429415e+000	 1.225934547532791e+001
 1.795426418315559e+000	 1.397164620394503e+000	 1.223469064097149e+001
 1.780914122083544e+000	 1.415616434578661e+000	 1.220656721303451e+001
 1.766203501743962e+000	 1.433928237581068e+000	 1.217493396738982e+001
 1.925089675802090e+000	 1.258582432778837e+000	 1.233376385970368e+001
 1.912087254771367e+000	 1.278249713524880e+000	 1.232245607797680e+001
 1.898870485579421e+000	 1.297802326623310e+000	 1.230648925275696e+001
 1.885440844858116e+000	 1.317236812628554e+000	 1.228584456663124e+001
 1.871799882914646e+000	 1.336549736573617e+000	 1.226343089558766e+001
 1.857949223248877e+000	 1.355737689914908e+000	 1.224720931610887e+001
 1.843890562009500e+000	 1.374797292466496e+000	 1.222833463977989e+001
 1.829625667389222e+000	 1.393725194321576e+000	 1.220677470819333e+001
 1.815156378959351e+000	 1.412518077758920e+000	 1.218249902742604e+001
 1.800484606944156e+000	 1.431172659132071e+000	 1.215547886292355e+001
 1.785612331435539e+000	 1.449685690739098e+000	 1.212568733184427e+001
 1.946014563585775e+000	 1.272262676611648e+000	 1.230901167146425e+001
 1.932870811891701e+000	 1.292143732148131e+000	 1.229539570550674e+001
 1.919510382165035e+000	 1.311908873649581e+000	 1.227766406389768e+001
 1.905934767087982e+000	 1.331554604067751e+000	 1.225581718171266e+001
 1.892145533818904e+000	 1.351077451099051e+000	 1.222985838146886e+001
 1.878144323504406e+000	 1.370473969150504e+000	 1.219979386318086e+001
 1.863932850729575e+000	 1.389740741295026e+000	 1.217730513861635e+001
 1.849512902906604e+000	 1.408874381213783e+000	 1.215592104246139e+001
 1.834886339602143e+000	 1.427871535123358e+000	 1.213251885718180e+001
 1.820055091803767e+000	 1.446728883685487e+000	 1.210708442321212e+001
 1.805021161126117e+000	 1.465443143897129e+000	 1.207960489738943e+001
 1.966939451368459e+000	 1.285942920444961e+000	 1.228247845915895e+001
 1.953654369011035e+000	 1.306037750771791e+000	 1.226710300050864e+001
 1.940150278749647e+000	 1.326015420676173e+000	 1.224814531809865e+001
 1.926428689316847e+000	 1.345872395507195e+000	 1.222562483764147e+001
 1.912491184722163e+000	 1.365605165624668e+000	 1.219956350113763e+001
 1.898339423758935e+000	 1.385210248386226e+000	 1.216998573423162e+001
 1.883975139448649e+000	 1.404684190123636e+000	 1.213691840926898e+001
 1.869400138422987e+000	 1.424023568106035e+000	 1.210668758956875e+001
 1.854616300243935e+000	 1.443224992487817e+000	 1.208463795734801e+001
 1.839625576662378e+000	 1.462285108238907e+000	 1.206125681639673e+001
 1.824429990815695e+000	 1.481200597055160e+000	 1.203654506895766e+001
 1.987864339150143e+000	 1.299623164278777e+000	 1.225415628536234e+001
 1.974437926129370e+000	 1.319931769395858e+000	 1.223755204570806e+001
 1.960790175333260e+000	 1.340121967703088e+000	 1.221788942829535e+001
 1.946922611544713e+000	 1.360190186946887e+000	 1.219520659720299e+001
 1.932836835624422e+000	 1.380132880150466e+000	 1.216954386754511e+001
 1.918534524012464e+000	 1.399946527622075e+000	 1.214094365036003e+001
 1.904017428166724e+000	 1.419627638952329e+000	 1.210945039351884e+001
 1.889287373938370e+000	 1.439172754998333e+000	 1.207511051875640e+001
 1.874346260884728e+000	 1.458578449852296e+000	 1.203875115976074e+001
 1.859196061519990e+000	 1.477841332792333e+000	 1.201787662786358e+001
 1.843838820504272e+000	 1.496958050213191e+000	 1.199637455520511e+001
 2.008789226930828e+000	 1.313303408113096e+000	 1.222403831150990e+001
 1.995221483246704e+000	 1.333825788020332e+000	 1.220671876539412e+001
 1.981430071915873e+000	 1.354228514730326e+000	 1.218685537813799e+001
 1.967416533771580e+000	 1.374507978386825e+000	 1.216450480911053e+001
 1.953182486525681e+000	 1.394660594676446e+000	 1.213972550921758e+001
 1.938729624264993e+000	 1.414682806858050e+000	 1.211257764354828e+001
 1.924059716883799e+000	 1.434571087781101e+000	 1.208312301035217e+001
 1.909174609452752e+000	 1.454321941890676e+000	 1.205142495649056e+001
 1.894076221524520e+000	 1.473931907216794e+000	 1.201754828951624e+001
 1.878766546376601e+000	 1.493397557345763e+000	 1.198155918654670e+001
 1.863247650191850e+000	 1.512715503371221e+000	 1.195896793602632e+001
 2.029714114710512e+000	 1.326983651947917e+000	 1.219211874125567e+001
 2.016005040363038e+000	 1.347719806645214e+000	 1.217458083049336e+001
 2.002069968497485e+000	 1.368335061757886e+000	 1.215500458948054e+001
 1.987910455997445e+000	 1.388825769827010e+000	 1.213346493862753e+001
 1.973528137425939e+000	 1.409188309202607e+000	 1.211003823599806e+001
 1.958924724516521e+000	 1.429419086094151e+000	 1.208480217792864e+001
 1.944102005599874e+000	 1.449514536609955e+000	 1.205783569628358e+001
 1.929061844966134e+000	 1.469471128783064e+000	 1.202921885252810e+001
 1.913806182163312e+000	 1.489285364581313e+000	 1.199903272881414e+001
 1.898337031232213e+000	 1.508953781899199e+000	 1.196735931628219e+001
 1.882656479878427e+000	 1.528472956529252e+000	 1.193428140079349e+001
 2.050639002489196e+000	 1.340663895783240e+000	 1.215839276729797e+001
 2.036788597478372e+000	 1.361613825270504e+000	 1.214111756945566e+001
 2.022709865078098e+000	 1.382441608785768e+000	 1.212230079798253e+001
 2.008404378222311e+000	 1.403143561267443e+000	 1.210203540856007e+001
 1.993873788325198e+000	 1.423716023728950e+000	 1.208041544612187e+001
 1.979119824767050e+000	 1.444155365330379e+000	 1.205753592365332e+001
 1.964144294314948e+000	 1.464457985438890e+000	 1.203349269792482e+001
 1.948949080478517e+000	 1.484620315675499e+000	 1.200838234238083e+001
 1.933536142801105e+000	 1.504638821945852e+000	 1.198230201741795e+001
 1.917907516086823e+000	 1.524510006452639e+000	 1.195534933829459e+001
 1.902065309564005e+000	 1.544230409687283e+000	 1.192762224092435e+001
 2.071563890266881e+000	 1.354344139619067e+000	 1.212285652142751e+001
 2.057572154592707e+000	 1.375507843896201e+000	 1.210630988454090e+001
 2.043349761657711e+000	 1.396548155813973e+000	 1.208870993625015e+001
 2.028898300446177e+000	 1.417461352708122e+000	 1.207016744988589e+001
 2.014219439223457e+000	 1.438243738255475e+000	 1.205079394498488e+001
 1.999314925016579e+000	 1.458891644566732e+000	 1.203070154446927e+001
 1.984186583029023e+000	 1.479401434267905e+000	 1.201000282905079e+001
 1.968836315989899e+000	 1.499769502567978e+000	 1.198881068912169e+001
 1.953266103437897e+000	 1.519992279310412e+000	 1.196723817440407e+001
 1.937478000940435e+000	 1.540066231006085e+000	 1.194539834163864e+001
 1.921474139248582e+000	 1.559987862845314e+000	 1.192340410060326e+001
 2.092488778043565e+000	 1.368024383455396e+000	 1.208550702757290e+001
 2.078355711706041e+000	 1.389401862522306e+000	 1.207014017312853e+001
 2.063989658236324e+000	 1.410654702842500e+000	 1.205420002398897e+001
 2.049392222669044e+000	 1.431779144149049e+000	 1.203781496134585e+001
 2.034565090120716e+000	 1.452771452782182e+000	 1.202111377478532e+001
 2.019510025265108e+000	 1.473627923803213e+000	 1.200422549803833e+001
 2.004228871742098e+000	 1.494344883097002e+000	 1.198727924224121e+001
 1.988723551500283e+000	 1.514918689460504e+000	 1.197040402700671e+001
 1.972996064073690e+000	 1.535345736674992e+000	 1.195372860961625e+001
 1.957048485793046e+000	 1.555622455559537e+000	 1.193738131265199e+001
 1.940882968932161e+000	 1.575745316003345e+000	 1.192148985039714e+001
 1.746794672051384e+000	 1.418170784423037e+000	 1.222749516413564e+001
 1.732051566727472e+000	 1.436139746095164e+000	 1.216409269115207e+001
 1.717116392458021e+000	 1.453963993669085e+000	 1.210260669390796e+001
 1.701991286151559e+000	 1.471640466286814e+000	 1.204317242049734e+001
 1.686678449421500e+000	 1.489166145337067e+000	 1.198592288828409e+001
 1.671180147536507e+000	 1.506538056157540e+000	 1.193098878397017e+001
 1.655498708317338e+000	 1.523753269705680e+000	 1.187849836539914e+001
 1.639636520981248e+000	 1.540808904196010e+000	 1.182857736518544e+001
 1.623596034935177e+000	 1.557702126702076e+000	 1.178134889625960e+001
 1.607379758518974e+000	 1.574430154721169e+000	 1.173693335941773e+001
 1.590990257700000e+000	 1.590990257700000e+000	 1.169544835296404e+001
 1.766203501743962e+000	 1.433928237581068e+000	 1.217493396738982e+001
 1.751296584138190e+000	 1.452096854383105e+000	 1.211849475175000e+001
 1.736195463487515e+000	 1.470119149152507e+000	 1.206333732131267e+001
 1.720902300443896e+000	 1.487992027021754e+000	 1.200957888281308e+001
 1.705419321083116e+000	 1.505712435839437e+000	 1.195733506453029e+001
 1.689748815843492e+000	 1.523277367891449e+000	 1.190671983783714e+001
 1.673893138410456e+000	 1.540683861590319e+000	 1.185784543958206e+001
 1.657854704548121e+000	 1.557929003130731e+000	 1.181082229535412e+001
 1.641635990879062e+000	 1.575009928109272e+000	 1.176575894368273e+001
 1.625239533613567e+000	 1.591923823106535e+000	 1.172276196122512e+001
 1.608667927229750e+000	 1.608667927229750e+000	 1.168193588899652e+001
 1.785612331435539e+000	 1.449685690739098e+000	 1.212568733184427e+001
 1.770541601547911e+000	 1.468053962671041e+000	 1.207563066413202e+001
 1.755274534516028e+000	 1.486274304635908e+000	 1.202623798563094e+001
 1.739813314735277e+000	 1.504343587756649e+000	 1.197760871133255e+001
 1.724160192743812e+000	 1.522258726341727e+000	 1.192984132056807e+001
 1.708317484149603e+000	 1.540016679625232e+000	 1.188303329984606e+001
 1.692287568502754e+000	 1.557614453474778e+000	 1.183728108562868e+001
 1.676072888114240e+000	 1.575049102065207e+000	 1.179268000705836e+001
 1.659675946822266e+000	 1.592317729516148e+000	 1.174932422864809e+001
 1.643099308707566e+000	 1.609417491491496e+000	 1.170730669295391e+001
 1.626345596759000e+000	 1.626345596759000e+000	 1.166671906324989e+001
 1.805021161126117e+000	 1.465443143897129e+000	 1.207960489738943e+001
 1.789786618956639e+000	 1.484011070958972e+000	 1.203536926477960e+001
 1.774353605543562e+000	 1.502429460119290e+000	 1.199119616997644e+001
 1.758724329025703e+000	 1.520695148491498e+000	 1.194716747562533e+001
 1.742901064403588e+000	 1.538805016843937e+000	 1.190336474238009e+001
 1.726886152454837e+000	 1.556755991358891e+000	 1.185986919284449e+001
 1.710681998594231e+000	 1.574545045359057e+000	 1.181676167456883e+001
 1.694291071679603e+000	 1.592169200999439e+000	 1.177412262207278e+001
 1.677715902764791e+000	 1.609625530922704e+000	 1.173203201787209e+001
 1.660959083800970e+000	 1.626911159876051e+000	 1.169056935249051e+001
 1.644023266287750e+000	 1.644023266287750e+000	 1.164981358344516e+001
 1.824429990815695e+000	 1.481200597055160e+000	 1.203654506895766e+001
 1.809031636364370e+000	 1.499968179246898e+000	 1.199758736714180e+001
 1.793432676570116e+000	 1.518584615602652e+000	 1.195810656864097e+001
 1.777635343315174e+000	 1.537046709226302e+000	 1.191816721333331e+001
 1.761641936062444e+000	 1.555351307346067e+000	 1.187783416398440e+001
 1.745454820759197e+000	 1.573495303092426e+000	 1.183717259111858e+001
 1.729076428684889e+000	 1.591475637243155e+000	 1.179624795607018e+001
 1.712509255244211e+000	 1.609289299933425e+000	 1.175512599214765e+001
 1.695755858706636e+000	 1.626933332328940e+000	 1.171387268384909e+001
 1.678818858893779e+000	 1.644404828260202e+000	 1.167255424407725e+001
 1.661700935816000e+000	 1.661700935816000e+000	 1.163123708930803e+001
 1.843838820504272e+000	 1.496958050213191e+000	 1.199637455520511e+001
 1.828276653771107e+000	 1.515925287534819e+000	 1.196216934179503e+001
 1.812511747595690e+000	 1.534739771085993e+000	 1.192687070755878e+001
 1.796546357603691e+000	 1.553398269961063e+000	 1.189052608974583e+001
 1.780382807720380e+000	 1.571897597848118e+000	 1.185318386490635e+001
 1.764023489062682e+000	 1.590234614825834e+000	 1.181489335452754e+001
 1.747470858774727e+000	 1.608406229127074e+000	 1.177570482798392e+001
 1.730727438808065e+000	 1.626409398867167e+000	 1.173566950269443e+001
 1.713795814647801e+000	 1.644241133734856e+000	 1.169483954138943e+001
 1.696678633985994e+000	 1.661898496643949e+000	 1.165326804639891e+001
 1.679378605343750e+000	 1.679378605343750e+000	 1.161100905088447e+001
 1.863247650191850e+000	 1.512715503371221e+000	 1.195896793602632e+001
 1.847521671176849e+000	 1.531882395822735e+000	 1.192900672284253e+001
 1.831590818620283e+000	 1.550894926569315e+000	 1.189739658849185e+001
 1.815457371891252e+000	 1.569749830695778e+000	 1.186416807865142e+001
 1.799123679377396e+000	 1.588443888350088e+000	 1.182935328655829e+001
 1.782592157365292e+000	 1.606973926559118e+000	 1.179298587925547e+001
 1.765865288863745e+000	 1.625336821010813e+000	 1.175510112029320e+001
 1.748945622371164e+000	 1.643529497800664e+000	 1.171573588874080e+001
 1.731835770588285e+000	 1.661548935140452e+000	 1.167492869437372e+001
 1.714538409077612e+000	 1.679392165027290e+000	 1.163271968891390e+001
 1.697056274871000e+000	 1.697056274871000e+000	 1.158915067321161e+001
 1.882656479878427e+000	 1.528472956529252e+000	 1.193428140079349e+001
 1.866766688581596e+000	 1.547839504110645e+000	 1.189799783866041e+001
 1.850669889643897e+000	 1.567050082052617e+000	 1.186959835522441e+001
 1.834368386177858e+000	 1.586101391430448e+000	 1.183902266293059e+001
 1.817864551033491e+000	 1.604990178851978e+000	 1.180628676616306e+001
 1.801160825667026e+000	 1.623713238292278e+000	 1.177140886397975e+001
 1.784259718951942e+000	 1.642267412894373e+000	 1.173440939242619e+001
 1.767163805933506e+000	 1.660649596733915e+000	 1.169531106227012e+001
 1.749875726528090e+000	 1.678856736545729e+000	 1.165413889198658e+001
 1.732398184168636e+000	 1.696885833410226e+000	 1.161092023583491e+001
 1.714733944397750e+000	 1.714733944397750e+000	 1.156568480688508e+001
 1.902065309564005e+000	 1.544230409687283e+000	 1.192762224092435e+001
 1.886011705985348e+000	 1.563796612398551e+000	 1.188416775642355e+001
 1.869748960666530e+000	 1.583205237535899e+000	 1.184339598019430e+001
 1.853279400463509e+000	 1.602452952165073e+000	 1.181502455347970e+001
 1.836605422688667e+000	 1.621536469353789e+000	 1.178393328696756e+001
 1.819729493967886e+000	 1.640452550025312e+000	 1.175012509035645e+001
 1.802654149039319e+000	 1.659198004777752e+000	 1.171360574297809e+001
 1.785381989495096e+000	 1.677769695666922e+000	 1.167438395013187e+001
 1.767915682467214e+000	 1.696164537950685e+000	 1.163247139375179e+001
 1.750257959259065e+000	 1.714379501792756e+000	 1.158788277721292e+001
 1.732411613923999e+000	 1.732411613923999e+000	 1.154063586410198e+001
 1.921474139248582e+000	 1.559987862845314e+000	 1.192340410060326e+001
 1.905256723388105e+000	 1.579753720686452e+000	 1.188360787011273e+001
 1.888828031688184e+000	 1.599360393019160e+000	 1.183844795160668e+001
 1.872190414748205e+000	 1.618804512899653e+000	 1.179211342516977e+001
 1.855346294342923e+000	 1.638082759855519e+000	 1.176224624359526e+001
 1.838298162267870e+000	 1.657191861758221e+000	 1.172910121680902e+001
 1.821048579125877e+000	 1.676128596660951e+000	 1.169266963096537e+001
 1.803600173055928e+000	 1.694889794599684e+000	 1.165294634177557e+001
 1.785955638405659e+000	 1.713472339355321e+000	 1.160992984274778e+001
 1.768117734348899e+000	 1.731873170174883e+000	 1.156362232662214e+001
 1.750089283449750e+000	 1.750089283449750e+000	 1.151402973979220e+001
 1.940882968932161e+000	 1.575745316003345e+000	 1.192148985039714e+001
 1.924501740789867e+000	 1.595710828974349e+000	 1.188489384034899e+001
 1.907907102708858e+000	 1.615515548502402e+000	 1.184239814671168e+001
 1.891101429031947e+000	 1.635156073634189e+000	 1.179402181649615e+001
 1.874087165996259e+000	 1.654629050357170e+000	 1.174118322147721e+001
 1.856866830566980e+000	 1.673931173491006e+000	 1.170830758468998e+001
 1.839443009211615e+000	 1.693059188543971e+000	 1.167158370780479e+001
 1.821818356616007e+000	 1.712009893532202e+000	 1.163099274612089e+001
 1.803995594343424e+000	 1.730780140759638e+000	 1.158652014642974e+001
 1.785977509438138e+000	 1.749366838556604e+000	 1.153815572498382e+001
 1.767766952975000e+000	 1.767766952975000e+000	 1.148589373748166e+001
 1.590990257700000e+000	 1.590990257700000e+000	 1.169544835296404e+001
 1.574430154721170e+000	 1.607379758518973e+000	 1.162988125774726e+001
 1.557702126702076e+000	 1.623596034935176e+000	 1.156083562320906e+001
 1.540808904196010e+000	 1.639636520981247e+000	 1.148827666162090e+001
 1.523753269705680e+000	 1.655498708317337e+000	 1.141217322637252e+001
 1.506538056157541e+000	 1.671180147536507e+000	 1.133249787718563e+001
 1.489166145337068e+000	 1.686678449421499e+000	 1.124922693844673e+001
 1.471640466286814e+000	 1.701991286151559e+000	 1.116234055052719e+001
 1.453963993669085e+000	 1.717116392458020e+000	 1.107182271397700e+001
 1.436139746095165e+000	 1.732051566727472e+000	 1.097766132649830e+001
 1.418170784423037e+000	 1.746794672051384e+000	 1.087984821262566e+001
 1.608667927229750e+000	 1.608667927229750e+000	 1.168193588899652e+001
 1.591923823106535e+000	 1.625239533613567e+000	 1.161244408848832e+001
 1.575009928109272e+000	 1.641635990879061e+000	 1.154073383450629e+001
 1.557929003130732e+000	 1.657854704548121e+000	 1.146679115526739e+001
 1.540683861590319e+000	 1.673893138410455e+000	 1.139060457637511e+001
 1.523277367891449e+000	 1.689748815843492e+000	 1.131216516702345e+001
 1.505712435839438e+000	 1.705419321083115e+000	 1.123146658081108e+001
 1.487992027021754e+000	 1.720902300443895e+000	 1.114850509105913e+001
 1.470119149152507e+000	 1.736195463487514e+000	 1.106327962054180e+001
 1.452096854383106e+000	 1.751296584138189e+000	 1.097579176555589e+001
 1.433928237581068e+000	 1.766203501743962e+000	 1.088604581427243e+001
 1.626345596759000e+000	 1.626345596759000e+000	 1.166671906324989e+001
 1.609417491491496e+000	 1.643099308707566e+000	 1.159406659609160e+001
 1.592317729516148e+000	 1.659675946822266e+000	 1.152043044774889e+001
 1.575049102065208e+000	 1.676072888114239e+000	 1.144581707938858e+001
 1.557614453474778e+000	 1.692287568502753e+000	 1.137023432394839e+001
 1.540016679625233e+000	 1.708317484149602e+000	 1.129369141366974e+001
 1.522258726341728e+000	 1.724160192743811e+000	 1.121619900370696e+001
 1.504343587756649e+000	 1.739813314735276e+000	 1.113776919173115e+001
 1.486274304635909e+000	 1.755274534516028e+000	 1.105841553346093e+001
 1.468053962671042e+000	 1.770541601547911e+000	 1.097815305406534e+001
 1.449685690739099e+000	 1.785612331435539e+000	 1.089699825539801e+001
 1.644023266287750e+000	 1.644023266287750e+000	 1.164981358344516e+001
 1.626911159876052e+000	 1.660959083800970e+000	 1.157474016493276e+001
 1.609625530922704e+000	 1.677715902764791e+000	 1.149989331638007e+001
 1.592169200999440e+000	 1.694291071679603e+000	 1.142529955970811e+001
 1.574545045359057e+000	 1.710681998594231e+000	 1.135098568060329e+001
 1.556755991358892e+000	 1.726886152454837e+000	 1.127697873770843e+001
 1.538805016843938e+000	 1.742901064403587e+000	 1.120330606933269e+001
 1.520695148491499e+000	 1.758724329025702e+000	 1.112999529762296e+001
 1.502429460119290e+000	 1.774353605543561e+000	 1.105707433015138e+001
 1.484011070958973e+000	 1.789786618956638e+000	 1.098457135888274e+001
 1.465443143897129e+000	 1.805021161126117e+000	 1.091251485649710e+001
 1.661700935816000e+000	 1.661700935816000e+000	 1.163123708930803e+001
 1.644404828260203e+000	 1.678818858893778e+000	 1.155445916259083e+001
 1.626933332328940e+000	 1.695755858706635e+000	 1.147909429310734e+001
 1.609289299933426e+000	 1.712509255244211e+000	 1.140518870165595e+001
 1.591475637243156e+000	 1.729076428684889e+000	 1.133278778192134e+001
 1.573495303092426e+000	 1.745454820759197e+000	 1.126193609164560e+001
 1.555351307346068e+000	 1.761641936062444e+000	 1.119267734273656e+001
 1.537046709226303e+000	 1.777635343315174e+000	 1.112505439028169e+001
 1.518584615602652e+000	 1.793432676570115e+000	 1.105910922044205e+001
 1.499968179246898e+000	 1.809031636364370e+000	 1.099488293721006e+001
 1.481200597055160e+000	 1.824429990815695e+000	 1.093241574802146e+001
 1.679378605343750e+000	 1.679378605343750e+000	 1.161100905088447e+001
 1.661898496643949e+000	 1.696678633985992e+000	 1.153322078283732e+001
 1.644241133734857e+000	 1.713795814647799e+000	 1.145800901941487e+001
 1.626409398867167e+000	 1.730727438808065e+000	 1.138543932827837e+001
 1.608406229127075e+000	 1.747470858774726e+000	 1.131557537576139e+001
 1.590234614825835e+000	 1.764023489062681e+000	 1.124847890033457e+001
 1.571897597848118e+000	 1.780382807720380e+000	 1.118420968640385e+001
 1.553398269961063e+000	 1.796546357603690e+000	 1.112282553843404e+001
 1.534739771085994e+000	 1.812511747595689e+000	 1.106438225539392e+001
 1.515925287534820e+000	 1.828276653771107e+000	 1.100893360552427e+001
 1.496958050213191e+000	 1.843838820504272e+000	 1.095653130143467e+001
 1.697056274871000e+000	 1.697056274871000e+000	 1.158915067321161e+001
 1.679392165027290e+000	 1.714538409077612e+000	 1.151102489843881e+001
 1.661548935140453e+000	 1.731835770588284e+000	 1.143661672823149e+001
 1.643529497800664e+000	 1.748945622371163e+000	 1.136601073452902e+001
 1.625336821010814e+000	 1.765865288863744e+000	 1.129928852995346e+001
 1.606973926559119e+000	 1.782592157365291e+000	 1.123652872387457e+001
 1.588443888350088e+000	 1.799123679377395e+000	 1.117780688018174e+001
 1.569749830695778e+000	 1.815457371891251e+000	 1.112319547677901e+001
 1.550894926569316e+000	 1.831590818620283e+000	 1.107276386681943e+001
 1.531882395822735e+000	 1.847521671176848e+000	 1.102657824169826e+001
 1.512715503371221e+000	 1.863247650191850e+000	 1.098470159582610e+001
 1.714733944397750e+000	 1.714733944397750e+000	 1.156568480688508e+001
 1.696885833410226e+000	 1.732398184168635e+000	 1.148787392306433e+001
 1.678856736545729e+000	 1.749875726528089e+000	 1.141490005880458e+001
 1.660649596733916e+000	 1.767163805933506e+000	 1.134686645675799e+001
 1.642267412894373e+000	 1.784259718951941e+000	 1.128387235807352e+001
 1.623713238292278e+000	 1.801160825667026e+000	 1.122601294136087e+001
 1.604990178851979e+000	 1.817864551033491e+000	 1.117337926471450e+001
 1.586101391430449e+000	 1.834368386177858e+000	 1.112605821083482e+001
 1.567050082052617e+000	 1.850669889643896e+000	 1.108413243528483e+001
 1.547839504110646e+000	 1.866766688581595e+000	 1.104768031791882e+001
 1.528472956529252e+000	 1.882656479878427e+000	 1.098047504124795e+001
 1.732411613923999e+000	 1.732411613923999e+000	 1.154063586410198e+001
 1.714379501792757e+000	 1.750257959259064e+000	 1.146377268164762e+001
 1.696164537950685e+000	 1.767915682467214e+000	 1.139284488290834e+001
 1.677769695666922e+000	 1.785381989495094e+000	 1.132797405631426e+001
 1.659198004777753e+000	 1.802654149039319e+000	 1.126927676200729e+001
 1.640452550025312e+000	 1.819729493967885e+000	 1.121686445399734e+001
 1.621536469353789e+000	 1.836605422688667e+000	 1.117084340670880e+001
 1.602452952165074e+000	 1.853279400463509e+000	 1.113131464597845e+001
 1.583205237535899e+000	 1.869748960666530e+000	 1.109837388456162e+001
 1.563796612398552e+000	 1.886011705985347e+000	 1.102073103849805e+001
 1.544230409687283e+000	 1.902065309564005e+000	 1.092532170809418e+001
 1.750089283449750e+000	 1.750089283449750e+000	 1.151402973979220e+001
 1.731873170174883e+000	 1.768117734348898e+000	 1.143872828860587e+001
 1.713472339355322e+000	 1.785955638405657e+000	 1.137044014158485e+001
 1.694889794599685e+000	 1.803600173055928e+000	 1.130930491626274e+001
 1.676128596660952e+000	 1.821048579125876e+000	 1.125545619011669e+001
 1.657191861758222e+000	 1.838298162267869e+000	 1.120902140620188e+001
 1.638082759855520e+000	 1.855346294342922e+000	 1.117012178448611e+001
 1.618804512899654e+000	 1.872190414748205e+000	 1.113887223896824e+001
 1.599360393019161e+000	 1.888828031688183e+000	 1.105195898874555e+001
 1.579753720686453e+000	 1.905256723388104e+000	 1.095977437445253e+001
 1.559987862845314e+000	 1.921474139248582e+000	 1.087528927333423e+001
 1.767766952975000e+000	 1.767766952975000e+000	 1.148589373748166e+001
 1.749366838556605e+000	 1.785977509438138e+000	 1.141275003336571e+001
 1.730780140759639e+000	 1.803995594343423e+000	 1.134767769168069e+001
 1.712009893532202e+000	 1.821818356616006e+000	 1.129083405029858e+001
 1.693059188543972e+000	 1.839443009211614e+000	 1.124236940991573e+001
 1.673931173491007e+000	 1.856866830566979e+000	 1.120242692344583e+001
 1.654629050357171e+000	 1.874087165996258e+000	 1.117114249240204e+001
 1.635156073634190e+000	 1.891101429031946e+000	 1.107614556951750e+001
 1.615515548502403e+000	 1.907907102708857e+000	 1.098548591266373e+001
 1.595710828974350e+000	 1.924501740789867e+000	 1.090345534635217e+001
 1.575745316003345e+000	 1.940882968932160e+000	 1.083026861699504e+001
 1.418170784423037e+000	 1.746794672051384e+000	 1.087984821262566e+001
 1.400060210025256e+000	 1.761343637221932e+000	 1.077458012107269e+001
 1.381811163030106e+000	 1.775696457670766e+000	 1.067532423408418e+001
 1.363426820537300e+000	 1.789851196351457e+000	 1.058217399317517e+001
 1.344910394809678e+000	 1.803805984566350e+000	 1.049521722490083e+001
 1.326265131444095e+000	 1.817559022734820e+000	 1.041453608923884e+001
 1.307494307523293e+000	 1.831108581103128e+000	 1.034020703367811e+001
 1.288601229750901e+000	 1.844453000395383e+000	 1.027230075305658e+001
 1.269589232571737e+000	 1.857590692405196e+000	 1.021088215518280e+001
 1.250461676279599e+000	 1.870520140527698e+000	 1.015601033226980e+001
 1.231221945114724e+000	 1.883239900231722e+000	 1.004204034209992e+001
 1.433928237581068e+000	 1.766203501743962e+000	 1.088604581427243e+001
 1.415616434578662e+000	 1.780914122083543e+000	 1.079294116214837e+001
 1.397164620394504e+000	 1.795426418315558e+000	 1.070528754120461e+001
 1.378576007429416e+000	 1.809738431870839e+000	 1.062316925992527e+001
 1.359853843638046e+000	 1.823848273288425e+000	 1.054666565971779e+001
 1.341001410679438e+000	 1.837754122992348e+000	 1.047585106872605e+001
 1.322022022048364e+000	 1.851454232009386e+000	 1.041079476037460e+001
 1.302919021189604e+000	 1.864946922627249e+000	 1.035156091668525e+001
 1.283695779597363e+000	 1.878230588992808e+000	 1.028157976865116e+001
 1.264355694902036e+000	 1.891303697650032e+000	 1.016659561595903e+001
 1.244902188946530e+000	 1.904164788017406e+000	 1.005174734469161e+001
 1.449685690739099e+000	 1.785612331435539e+000	 1.089699825539801e+001
 1.431172659132072e+000	 1.800484606944155e+000	 1.081574519451782e+001
 1.412518077758921e+000	 1.815156378959350e+000	 1.073939694268605e+001
 1.393725194321577e+000	 1.829625667389221e+000	 1.066802877245629e+001
 1.374797292466496e+000	 1.843890562009499e+000	 1.060171162884358e+001
 1.355737689914908e+000	 1.857949223248877e+000	 1.054051208852811e+001
 1.336549736573618e+000	 1.871799882914645e+000	 1.048449232282289e+001
 1.317236812628554e+000	 1.885440844858115e+000	 1.038046268025332e+001
 1.297802326623311e+000	 1.898870485579421e+000	 1.026602214673856e+001
 1.278249713524880e+000	 1.912087254771366e+000	 1.015755096669403e+001
 1.258582432778837e+000	 1.925089675802090e+000	 1.005516951090671e+001
 1.465443143897129e+000	 1.805021161126117e+000	 1.091251485649710e+001
 1.446728883685487e+000	 1.820055091803766e+000	 1.084281161967590e+001
 1.427871535123359e+000	 1.834886339602142e+000	 1.077748140278089e+001
 1.408874381213784e+000	 1.849512902906604e+000	 1.071659053571341e+001
 1.389740741295026e+000	 1.863932850729574e+000	 1.066020165239124e+001
 1.370473969150504e+000	 1.878144323504406e+000	 1.059257008967323e+001
 1.351077451099052e+000	 1.892145533818904e+000	 1.047459274963778e+001
 1.331554604067752e+000	 1.905934767087981e+000	 1.036175732033589e+001
 1.311908873649581e+000	 1.919510382165034e+000	 1.025419260454980e+001
 1.292143732148132e+000	 1.932870811891701e+000	 1.015202261027251e+001
 1.272262676611648e+000	 1.946014563585775e+000	 1.005536637996221e+001
 1.481200597055160e+000	 1.824429990815695e+000	 1.093241574802146e+001
 1.462285108238908e+000	 1.839625576662378e+000	 1.087397022128329e+001
 1.443224992487817e+000	 1.854616300243934e+000	 1.081937986060531e+001
 1.424023568106036e+000	 1.869400138422987e+000	 1.076870214284946e+001
 1.404684190123637e+000	 1.883975139448649e+000	 1.067739212607306e+001
 1.385210248386227e+000	 1.898339423758935e+000	 1.056272699412952e+001
 1.365605165624668e+000	 1.912491184722162e+000	 1.045251762103891e+001
 1.345872395507196e+000	 1.926428689316847e+000	 1.034689441101425e+001
 1.326015420676174e+000	 1.940150278749647e+000	 1.024598375829204e+001
 1.306037750771791e+000	 1.953654369011034e+000	 1.014990786591600e+001
 1.285942920444961e+000	 1.966939451368459e+000	 1.005878456998454e+001
 1.496958050213191e+000	 1.843838820504272e+000	 1.095653130143467e+001
 1.477841332792333e+000	 1.859196061519989e+000	 1.090906061873686e+001
 1.458578449852296e+000	 1.874346260884727e+000	 1.086494070514617e+001
 1.439172754998333e+000	 1.889287373938369e+000	 1.075408921057067e+001
 1.419627638952329e+000	 1.904017428166724e+000	 1.064370019375682e+001
 1.399946527622076e+000	 1.918534524012463e+000	 1.053709721489636e+001
 1.380132880150467e+000	 1.932836835624421e+000	 1.043441103013444e+001
 1.360190186946887e+000	 1.946922611544713e+000	 1.033576917485959e+001
 1.340121967703089e+000	 1.960790175333259e+000	 1.024129577391518e+001
 1.319931769395858e+000	 1.974437926129369e+000	 1.015111135604438e+001
 1.299623164278777e+000	 1.987864339150143e+000	 1.006533267299272e+001
 1.512715503371221e+000	 1.863247650191850e+000	 1.098470159582610e+001
 1.493397557345764e+000	 1.878766546376600e+000	 1.092980616083432e+001
 1.473931907216795e+000	 1.894076221524520e+000	 1.082161364373132e+001
 1.454321941890676e+000	 1.909174609452752e+000	 1.071642285070538e+001
 1.434571087781102e+000	 1.924059716883798e+000	 1.061436588027979e+001
 1.414682806858051e+000	 1.938729624264992e+000	 1.051557260065042e+001
 1.394660594676446e+000	 1.953182486525680e+000	 1.042017045074692e+001
 1.374507978386826e+000	 1.967416533771579e+000	 1.032828424380332e+001
 1.354228514730327e+000	 1.981430071915872e+000	 1.024003597389605e+001
 1.333825788020333e+000	 1.995221483246703e+000	 1.015554462590074e+001
 1.313303408113096e+000	 2.008789226930828e+000	 1.007492598930990e+001
 1.528472956529252e+000	 1.882656479878427e+000	 1.098047504124795e+001
 1.508953781899199e+000	 1.898337031232211e+000	 1.087899166790193e+001
 1.489285364581314e+000	 1.913806182163311e+000	 1.077987928411983e+001
 1.469471128783066e+000	 1.929061844966134e+000	 1.068326707692531e+001
 1.449514536609956e+000	 1.944102005599873e+000	 1.058928279797762e+001
 1.429419086094151e+000	 1.958924724516520e+000	 1.049805256126892e+001
 1.409188309202608e+000	 1.973528137425939e+000	 1.040970064201420e+001
 1.388825769827011e+000	 1.987910455997445e+000	 1.032434927721127e+001
 1.368335061757886e+000	 2.002069968497485e+000	 1.024211846834527e+001
 1.347719806645215e+000	 2.016005040363038e+000	 1.016312578670510e+001
 1.326983651947916e+000	 2.029714114710512e+000	 1.008748618177420e+001
 1.544230409687283e+000	 1.902065309564005e+000	 1.092532170809418e+001
 1.524510006452640e+000	 1.917907516086823e+000	 1.083312584956304e+001
 1.504638821945853e+000	 1.933536142801104e+000	 1.074281614260343e+001
 1.484620315675499e+000	 1.948949080478516e+000	 1.065451700675708e+001
 1.464457985438891e+000	 1.964144294314948e+000	 1.056835201342376e+001
 1.444155365330379e+000	 1.979119824767049e+000	 1.048444368205410e+001
 1.423716023728951e+000	 1.993873788325197e+000	 1.040291327668937e+001
 1.403143561267443e+000	 2.008404378222311e+000	 1.032388060334120e+001
 1.382441608785769e+000	 2.022709865078098e+000	 1.024746380869937e+001
 1.361613825270505e+000	 2.036788597478372e+000	 1.017377918065529e+001
 1.340663895783240e+000	 2.050639002489196e+000	 1.010294095112085e+001
 1.559987862845314e+000	 1.921474139248582e+000	 1.087528927333423e+001
 1.540066231006086e+000	 1.937478000940434e+000	 1.079209860747283e+001
 1.519992279310412e+000	 1.953266103437896e+000	 1.071032061388528e+001
 1.499769502567979e+000	 1.968836315989899e+000	 1.063007511627508e+001
 1.479401434267906e+000	 1.984186583029023e+000	 1.055148167095287e+001
 1.458891644566733e+000	 1.999314925016578e+000	 1.047465936133778e+001
 1.438243738255476e+000	 2.014219439223456e+000	 1.039972659196855e+001
 1.417461352708123e+000	 2.028898300446176e+000	 1.032680088252996e+001
 1.396548155813973e+000	 2.043349761657711e+000	 1.025599866240140e+001
 1.375507843896202e+000	 2.057572154592706e+000	 1.018743506623130e+001
 1.354344139619067e+000	 2.071563890266881e+000	 1.012122373103785e+001
 1.575745316003345e+000	 1.940882968932160e+000	 1.083026861699504e+001
 1.555622455559537e+000	 1.957048485793046e+000	 1.075580741277013e+001
 1.535345736674993e+000	 1.972996064073689e+000	 1.068229636519436e+001
 1.514918689460505e+000	 1.988723551500282e+000	 1.060985087217436e+001
 1.494344883097003e+000	 2.004228871742098e+000	 1.053858663877263e+001
 1.473627923803214e+000	 2.019510025265108e+000	 1.046861946983032e+001
 1.452771452782183e+000	 2.034565090120716e+000	 1.040006506126857e+001
 1.431779144149050e+000	 2.049392222669043e+000	 1.033303879058968e+001
 1.410654702842501e+000	 2.063989658236324e+000	 1.026765550710050e+001
 1.389401862522308e+000	 2.078355711706041e+000	 1.020402932238108e+001
 1.368024383455396e+000	 2.092488778043565e+000	 1.014227340151813e+001
 1.231221945114724e+000	 1.883239900231722e+000	 1.004204034209992e+001
 1.211873445353537e+000	 1.895748599471812e+000	 9.896191359281472e+000
 1.192419603391557e+000	 1.908044939040537e+000	 9.756783872755394e+000
 1.172863863822528e+000	 1.920127692860818e+000	 9.624045180514303e+000
 1.153209687516760e+000	 1.931995708218037e+000	 9.498194331547712e+000
 1.133460549699555e+000	 1.943647905932685e+000	 9.379441843064816e+000
 1.113619938032246e+000	 1.955083280473654e+000	 9.267989435380789e+000
 1.093691350697970e+000	 1.966300900012589e+000	 9.164029784869546e+000
 1.073678294494223e+000	 1.977299906419739e+000	 9.067746295335441e+000
 1.053584282934247e+000	 1.988079515201899e+000	 8.979312888100200e+000
 1.033412834359236e+000	 1.998639015383027e+000	 8.898893811051138e+000
 1.244902188946530e+000	 1.904164788017406e+000	 1.005174734469161e+001
 1.225338705854776e+000	 1.916812472804541e+000	 9.906789802707056e+000
 1.205668710093352e+000	 1.929245438368385e+000	 9.768701630931538e+000
 1.185895684529262e+000	 1.941462445008779e+000	 9.637708742888528e+000
 1.166023128486933e+000	 1.953462327203166e+000	 9.514028390776126e+000
 1.146054555805279e+000	 1.965243993781153e+000	 9.397868883399436e+000
 1.125993492897427e+000	 1.976806428039065e+000	 9.289429322436453e+000
 1.105843476815215e+000	 1.988148687794897e+000	 9.188899357437879e+000
 1.085608053320555e+000	 1.999269905384127e+000	 9.096458959905313e+000
 1.065290774965725e+000	 2.010169287596954e+000	 9.012278216739205e+000
 1.044895199184599e+000	 2.020846115557606e+000	 8.936517143291589e+000
 1.258582432778837e+000	 1.925089675802090e+000	 1.005516951090671e+001
 1.238803966356609e+000	 1.937876346136270e+000	 9.922352474183189e+000
 1.218917816795809e+000	 1.950445937695232e+000	 9.785234336251676e+000
 1.198927505236709e+000	 1.962797197155740e+000	 9.655638990537206e+000
 1.178836569457846e+000	 1.974928946187296e+000	 9.533782195798169e+000
 1.158648561911752e+000	 1.986840081628622e+000	 9.419870350508166e+000
 1.138367047763346e+000	 1.998529575603476e+000	 9.314100230174221e+000
 1.117995602933167e+000	 2.009996475576207e+000	 9.216658744067861e+000
 1.097537812147544e+000	 2.021239904347514e+000	 9.127722711710476e+000
 1.076997266997789e+000	 2.032259059991008e+000	 9.047458659395721e+000
 1.056377564010459e+000	 2.043053215731184e+000	 8.976022636976451e+000
 1.272262676611648e+000	 1.946014563585775e+000	 1.005536637996221e+001
 1.252269226859034e+000	 1.958940219467000e+000	 9.939747882257768e+000
 1.232166923498929e+000	 1.971646437021081e+000	 9.806203023238577e+000
 1.211959325944866e+000	 1.984131949301701e+000	 9.677663692266354e+000
 1.191650010429500e+000	 1.996395565170424e+000	 9.557290413035350e+000
 1.171242568018976e+000	 2.008436169475089e+000	 9.445287969449675e+000
 1.150740602630004e+000	 2.020252723166887e+000	 9.341851100881019e+000
 1.130147729051826e+000	 2.031844263356515e+000	 9.247164260319218e+000
 1.109467570975189e+000	 2.043209903309901e+000	 9.161401392965782e+000
 1.088703759030439e+000	 2.054348832384063e+000	 9.084725735547572e+000
 1.067859928836815e+000	 2.065260315903762e+000	 9.017289636569357e+000
 1.285942920444961e+000	 1.966939451368459e+000	 1.005878456998454e+001
 1.265734487362051e+000	 1.980004092796729e+000	 9.946263793900400e+000
 1.245416030202710e+000	 1.992846936345929e+000	 9.831435507857036e+000
 1.224991146653735e+000	 2.005466701446662e+000	 9.703617046366560e+000
 1.204463451401895e+000	 2.017862184152553e+000	 9.584393781579621e+000
 1.183836574126948e+000	 2.030032257320558e+000	 9.473969176467348e+000
 1.163114157497400e+000	 2.041975870729298e+000	 9.372536222059459e+000
 1.142299855171193e+000	 2.053692051135824e+000	 9.280277196703670e+000
 1.121397329803491e+000	 2.065179902271288e+000	 9.197363446470869e+000
 1.100410251063676e+000	 2.076438604776118e+000	 9.123955186978611e+000
 1.079342293663667e+000	 2.087467416075340e+000	 9.060201326842801e+000
 1.299623164278777e+000	 1.987864339150143e+000	 1.006533267299272e+001
 1.279199747865662e+000	 2.001067966125458e+000	 9.955653609813075e+000
 1.258665136907154e+000	 2.014047435669777e+000	 9.849600958954751e+000
 1.238022967363315e+000	 2.026801453590623e+000	 9.733339342219267e+000
 1.217276892375029e+000	 2.039328803133682e+000	 9.614938793579213e+000
 1.196430580235670e+000	 2.051628345165026e+000	 9.505766818400705e+000
 1.175487712365535e+000	 2.063699018290709e+000	 9.406014945100599e+000
 1.154451981291268e+000	 2.075539838914133e+000	 9.315863556845356e+000
 1.133327088632449e+000	 2.087149901231675e+000	 9.235481673474189e+000
 1.112116743097499e+000	 2.098528377167173e+000	 9.165026755551972e+000
 1.090824658491015e+000	 2.109674516245919e+000	 9.104644530756602e+000
 1.313303408113096e+000	 2.008789226930828e+000	 1.007492598930990e+001
 1.292665008369864e+000	 2.022131839453188e+000	 9.967838483934434e+000
 1.271914243612259e+000	 2.035247934992624e+000	 9.864651683708022e+000
 1.251054788073606e+000	 2.048136205733584e+000	 9.765402897797655e+000
 1.230090333348905e+000	 2.060795422113811e+000	 9.648777394600000e+000
 1.209024586345141e+000	 2.073224433008494e+000	 9.540538870883710e+000
 1.187861267234408e+000	 2.085422165851120e+000	 9.442151421539784e+000
 1.166604107412051e+000	 2.097387626691442e+000	 9.353793812006348e+000
 1.145256847462065e+000	 2.109119900191063e+000	 9.275633006670299e+000
 1.123823235131909e+000	 2.120618149557228e+000	 9.207823974872801e+000
 1.102307023318859e+000	 2.131881616415496e+000	 9.150509519968992e+000
 1.326983651947916e+000	 2.029714114710512e+000	 1.008748618177420e+001
 1.306130268874659e+000	 2.043195712779917e+000	 9.982745641684703e+000
 1.285163350318026e+000	 2.056448434314472e+000	 9.882177162773738e+000
 1.264086608784609e+000	 2.069470957875546e+000	 9.785812842322633e+000
 1.242903774323520e+000	 2.082262041092940e+000	 9.685766702521745e+000
 1.221618592455363e+000	 2.094820520850962e+000	 9.578148173973581e+000
 1.200234822104020e+000	 2.107145313410531e+000	 9.480814355626613e+000
 1.178756233533540e+000	 2.119235414467751e+000	 9.393942670795905e+000
 1.157186606292338e+000	 2.131089899149449e+000	 9.317698297239021e+000
 1.135529727166904e+000	 2.142707921946283e+000	 9.252233974837445e+000
 1.113789388147199e+000	 2.154088716584075e+000	 9.197689837068724e+000
 1.340663895783240e+000	 2.050639002489196e+000	 1.010294095112085e+001
 1.319595529380046e+000	 2.064259586105647e+000	 1.000030807019629e+001
 1.298412457024456e+000	 2.077648933635320e+000	 9.902115745181177e+000
 1.277118429496323e+000	 2.090805710016507e+000	 9.808391057399563e+000
 1.255717215298877e+000	 2.103728660071070e+000	 9.719158149789678e+000
 1.234212598566333e+000	 2.116416608692430e+000	 9.618462183966246e+000
 1.212608376974371e+000	 2.128868460968941e+000	 9.521876772043516e+000
 1.190908359655738e+000	 2.141083202243059e+000	 9.436188862979300e+000
 1.169116365123267e+000	 2.153059898106837e+000	 9.361562114922368e+000
 1.147236219202486e+000	 2.164797694334337e+000	 9.298147298149473e+000
 1.125271752976035e+000	 2.176295816751653e+000	 9.246082128690702e+000
 1.354344139619067e+000	 2.071563890266881e+000	 1.012122373103785e+001
 1.333060789886026e+000	 2.085323459430376e+000	 1.002046422731833e+001
 1.311661563731547e+000	 2.098849432955168e+000	 9.924410984432418e+000
 1.290150250208748e+000	 2.112140462156468e+000	 9.833086261767981e+000
 1.268530656274973e+000	 2.125195279048198e+000	 9.746509228255011e+000
 1.246806604678054e+000	 2.138012696532898e+000	 9.661352740252818e+000
 1.224981931845459e+000	 2.150591608526352e+000	 9.565215797702050e+000
 1.203060485778643e+000	 2.162930990017368e+000	 9.480414936389300e+000
 1.181046123954853e+000	 2.175029897063224e+000	 9.407112560218716e+000
 1.158942711238654e+000	 2.186887466721392e+000	 9.345457727955344e+000
 1.136754117805368e+000	 2.198502916918232e+000	 9.295585988746208e+000
 1.368024383455396e+000	 2.092488778043565e+000	 1.014227340151813e+001
 1.346526050392599e+000	 2.106387332754106e+000	 1.004315776808067e+001
 1.324910670439301e+000	 2.120049932274017e+000	 9.949011378278605e+000
 1.303182070921886e+000	 2.133475214295430e+000	 9.859851861809602e+000
 1.281344097251811e+000	 2.146661898024328e+000	 9.775693607102539e+000
 1.259400610790523e+000	 2.159608784372368e+000	 9.696547674326292e+000
 1.237355486717287e+000	 2.172314756082764e+000	 9.610712456631653e+000
 1.215212611902257e+000	 2.184778777790677e+000	 9.526507066022591e+000
 1.192975882787096e+000	 2.196999896018612e+000	 9.454241087844753e+000
 1.170649203275409e+000	 2.208977239107448e+000	 9.394062125822499e+000
 1.148236482635196e+000	 2.220710017083810e+000	 9.346103811058846e+000
 1.033412834359236e+000	 1.998639015383027e+000	 8.898893811051138e+000
 1.013167470062905e+000	 2.008977769327879e+000	 8.772975588207405e+000
 9.928517124315605e-001	 2.019095212510688e+000	 8.655042837792893e+000
 9.724690831009006e-001	 2.028990853228824e+000	 8.545189051968468e+000
 9.520231011303467e-001	 2.038664272261591e+000	 8.443498738181585e+000
 9.315172811979676e-001	 2.048115122476415e+000	 8.350047353222816e+000
 9.109551318173340e-001	 2.057343128383052e+000	 8.264901254439637e+000
 8.903401535779654e-001	 2.066348085636912e+000	 8.188117667980924e+000
 8.696758374109875e-001	 2.075129860492684e+000	 8.119744673901883e+000
 8.489656628815507e-001	 2.083688389209485e+000	 8.059821207919336e+000
 8.282130965095028e-001	 2.092023677408817e+000	 8.008377079565024e+000
 1.044895199184599e+000	 2.020846115557606e+000	 8.936517143291589e+000
 1.024424886396339e+000	 2.031299744546037e+000	 8.813222093121951e+000
 1.003883398124834e+000	 2.041529603764009e+000	 8.697330475191663e+000
 9.832742951350689e-001	 2.051535196045529e+000	 8.588933386204602e+000
 9.626011355871265e-001	 2.061316097511893e+000	 8.488113459160029e+000
 9.418674732110532e-001	 2.070871957173500e+000	 8.394944790595325e+000
 9.210768555039051e-001	 2.080202496479100e+000	 8.309492884571860e+000
 9.002328219506407e-001	 2.089307508813609e+000	 8.231814613298852e+000
 8.793389022705098e-001	 2.098186858945657e+000	 8.161958194243585e+000
 8.583986146904981e-001	 2.106840482426126e+000	 8.099963183536616e+000
 8.374154642473412e-001	 2.115268384938982e+000	 8.045860485440079e+000
 1.056377564010459e+000	 2.043053215731184e+000	 8.976022636976451e+000
 1.035682302730179e+000	 2.053621719763194e+000	 8.854936420304885e+000
 1.014915083818444e+000	 2.063963995016330e+000	 8.740696582990989e+000
 9.940795071695259e-001	 2.074079538861236e+000	 8.633391995022567e+000
 9.731791700441653e-001	 2.083967922761197e+000	 8.533103563305932e+000
 9.522176652243896e-001	 2.093628791869585e+000	 8.439904152102937e+000
 9.311985791907380e-001	 2.103061864574148e+000	 8.353858519827952e+000
 9.101254903236087e-001	 2.112266931989306e+000	 8.275023272116323e+000
 8.890019671303761e-001	 2.121243857397628e+000	 8.203446831032952e+000
 8.678315664998603e-001	 2.129992575641767e+000	 8.139169420248397e+000
 8.466178319856844e-001	 2.138513092468148e+000	 8.082223065968256e+000
 1.067859928836815e+000	 2.065260315903762e+000	 9.017289636569357e+000
 1.046939719064425e+000	 2.075943694979352e+000	 8.898008615137046e+000
 1.025946769512391e+000	 2.086398386267651e+000	 8.785041357058871e+000
 1.004884719204270e+000	 2.096623881675940e+000	 8.678474673615414e+000
 9.837572045014631e-001	 2.106619748009500e+000	 8.578387893552231e+000
 9.625678572379760e-001	 2.116385626564670e+000	 8.484852776717499e+000
 9.413203028778328e-001	 2.125921232668197e+000	 8.397933443704153e+000
 9.200181586968704e-001	 2.135226355164003e+000	 8.317686321424864e+000
 8.986650319905866e-001	 2.144300855848600e+000	 8.244160104508595e+000
 8.772645183096371e-001	 2.153144668856408e+000	 8.177395732362756e+000
 8.558201997245326e-001	 2.161757799996312e+000	 8.117426381706355e+000
 1.079342293663667e+000	 2.087467416075340e+000	 9.060201326842801e+000
 1.058197135399078e+000	 2.098265670194510e+000	 8.942332061565431e+000
 1.036978455206676e+000	 2.108832777517972e+000	 8.830267856207247e+000
 1.015689931239302e+000	 2.119168224489647e+000	 8.724093630708486e+000
 9.943352389590204e-001	 2.129271573256804e+000	 8.623887283236849e+000
 9.729180492518131e-001	 2.139142461258754e+000	 8.529719597029452e+000
 9.514420265651892e-001	 2.148780600761245e+000	 8.441654162909872e+000
 9.299108270704248e-001	 2.158185778337700e+000	 8.359747317428557e+000
 9.083280968511410e-001	 2.167357854298572e+000	 8.284048096532008e+000
 8.866974701198294e-001	 2.176296762070050e+000	 8.214598204623105e+000
 8.650225674638863e-001	 2.185002507523477e+000	 8.151431998835408e+000
 1.090824658491015e+000	 2.109674516245919e+000	 9.104644530756602e+000
 1.069454551734137e+000	 2.120587645408667e+000	 8.987803306389255e+000
 1.048010140901297e+000	 2.131267168767293e+000	 8.876281851510571e+000
 1.026495143274623e+000	 2.141712567302352e+000	 8.770163361530948e+000
 1.004913273416837e+000	 2.151923398503107e+000	 8.669524451344332e+000
 9.832682412659007e-001	 2.161899295951840e+000	 8.574435055373158e+000
 9.615637502528079e-001	 2.171639968853294e+000	 8.484958342988417e+000
 9.398034954442726e-001	 2.181145201510397e+000	 8.401150649269818e+000
 9.179911617120399e-001	 2.190414852747544e+000	 8.323061421028813e+000
 8.961304219304360e-001	 2.199448855282691e+000	 8.250733177974936e+000
 8.742249352037450e-001	 2.208247215049642e+000	 8.184201488864721e+000
 1.102307023318859e+000	 2.131881616415496e+000	 9.150509519968992e+000
 1.080711968069602e+000	 2.142909620621825e+000	 9.034321894528084e+000
 1.059041826596255e+000	 2.153701560015614e+000	 8.922991685042216e+000
 1.037300355310231e+000	 2.164256910114057e+000	 8.816600528727689e+000
 1.015491307874912e+000	 2.174575223748410e+000	 8.715223904295195e+000
 9.936184332802392e-001	 2.184656130643925e+000	 8.618931025194373e+000
 9.716854739406878e-001	 2.194499336944341e+000	 8.527784747960864e+000
 9.496961638184135e-001	 2.204104624682095e+000	 8.441841495646965e+000
 9.276542265732828e-001	 2.213471851195516e+000	 8.361151196276808e+000
 9.055633737414577e-001	 2.222600948494332e+000	 8.285757236221800e+000
 8.834273029441089e-001	 2.231491922574806e+000	 8.215696428354239e+000
 1.113789388147199e+000	 2.154088716584075e+000	 9.197689837068724e+000
 1.091969384405474e+000	 2.165231595833983e+000	 9.081790214479497e+000
 1.070073512291550e+000	 2.176135951262935e+000	 8.970308137348544e+000
 1.048105567346128e+000	 2.186801252924763e+000	 8.863323850636297e+000
 1.026069342333247e+000	 2.197227048992712e+000	 8.760911843809963e+000
 1.003968625294828e+000	 2.207412965335010e+000	 8.663140737281880e+000
 9.818071976288300e-001	 2.217358705034390e+000	 8.570073183703673e+000
 9.595888321928472e-001	 2.227064047852791e+000	 8.481765784115860e+000
 9.373172914348700e-001	 2.236528849642489e+000	 8.398269018908582e+000
 9.149963255528941e-001	 2.245753041704973e+000	 8.319627193507014e+000
 8.926296706849778e-001	 2.254736630098971e+000	 8.245878398654154e+000
 1.125271752976035e+000	 2.176295816751653e+000	 9.246082128690702e+000
 1.103226800741752e+000	 2.187553571045140e+000	 9.130113353238654e+000
 1.081105197987183e+000	 2.198570342509257e+000	 9.018144303037396e+000
 1.058910779382311e+000	 2.209345595734469e+000	 8.910253996405105e+000
 1.036647376791840e+000	 2.219878874236016e+000	 8.806516080414410e+000
 1.014318817309667e+000	 2.230169800025095e+000	 8.706998710514821e+000
 9.919289213172341e-001	 2.240218073123438e+000	 8.611764444792538e+000
 9.694815005675743e-001	 2.250023471022488e+000	 8.520870152882424e+000
 9.469803562968012e-001	 2.259585848088461e+000	 8.434366939505654e+000
 9.244292773647455e-001	 2.268905134914613e+000	 8.352300082561504e+000
 9.018320384263519e-001	 2.277981337622136e+000	 8.274708985660773e+000
 1.136754117805368e+000	 2.198502916918232e+000	 9.295585988746208e+000
 1.114484217078436e+000	 2.209875546255298e+000	 9.179198960010403e+000
 1.092136883683152e+000	 2.221004733754577e+000	 9.066415473905920e+000
 1.069715991418784e+000	 2.231889938543174e+000	 8.957313487467275e+000
 1.047225411250693e+000	 2.242530699478319e+000	 8.851965952186578e+000
 1.024669009324757e+000	 2.252926634714181e+000	 8.750440686808249e+000
 1.002050645005900e+000	 2.263077441211487e+000	 8.652800264568416e+000
 9.793741689425942e-001	 2.272982894191185e+000	 8.559101914911523e+000
 9.566434211590766e-001	 2.282642846533432e+000	 8.469397439671736e+000
 9.338622291770118e-001	 2.292057228123255e+000	 8.383733143663887e+000
 9.110344061682311e-001	 2.301226045144301e+000	 8.302149779586582e+000
 1.148236482635196e+000	 2.220710017083810e+000	 9.346103811058846e+000
 1.125741633415527e+000	 2.232197521464456e+000	 9.228957118099002e+000
 1.103168569379458e+000	 2.243439124998900e+000	 9.115039029081405e+000
 1.080521203455544e+000	 2.254434281350881e+000	 9.004426604926557e+000
 1.057803445709806e+000	 2.265182524719623e+000	 8.897192248379366e+000
 1.035019201340097e+000	 2.275683469402266e+000	 8.793403569960667e+000
 1.012172368694828e+000	 2.285936809298535e+000	 8.693123268198912e+000
 9.892668373179077e-001	 2.295942317358883e+000	 8.596409024188976e+000
 9.663064860216967e-001	 2.305699844977406e+000	 8.503313410481590e+000
 9.432951809896932e-001	 2.315209321330896e+000	 8.413883814263517e+000
 9.202367739106159e-001	 2.324470752665467e+000	 8.328162374744691e+000
 8.282130965095028e-001	 2.092023677408817e+000	 8.008377079565024e+000
 8.074215901202451e-001	 2.100135799387014e+000	 7.932373236761316e+000
 7.865945792257691e-001	 2.108024897382408e+000	 7.850838484059874e+000
 7.657354814378439e-001	 2.115691180799508e+000	 7.763770922474332e+000
 7.448476949157646e-001	 2.123134925392267e+000	 7.671172926784621e+000
 7.239345968484166e-001	 2.130356472406817e+000	 7.573051045391302e+000
 7.029995419721642e-001	 2.137356227685584e+000	 7.469415900965672e+000
 6.820458611255978e-001	 2.144134660734327e+000	 7.360282091988339e+000
 6.610768598420863e-001	 2.150692303753667e+000	 7.245668095259566e+000
 6.400958169810165e-001	 2.157029750636725e+000	 7.125596169449634e+000
 6.191059833985354e-001	 2.163147655934445e+000	 7.016724672883147e+000
 8.374154642473412e-001	 2.115268384938982e+000	 8.045860485440079e+000
 8.163929411200946e-001	 2.123470641606018e+000	 7.963488518791371e+000
 7.953345189931456e-001	 2.131447396245942e+000	 7.877136298180444e+000
 7.742436534517256e-001	 2.139198860589977e+000	 7.786795063737566e+000
 7.531237804124570e-001	 2.146725313456010e+000	 7.692459027779666e+000
 7.319783145885445e-001	 2.154027099881797e+000	 7.594125300115253e+000
 7.108106479912019e-001	 2.161104630219127e+000	 7.491793815487545e+000
 6.896241484683368e-001	 2.167958379190486e+000	 7.385467263179129e+000
 6.684221582814661e-001	 2.174588884909840e+000	 7.275151018790017e+000
 6.472079927217480e-001	 2.180996747869118e+000	 7.160853078187974e+000
 6.259849387659531e-001	 2.187182629892056e+000	 7.042583993617694e+000
 8.466178319856844e-001	 2.138513092468148e+000	 8.082223065968256e+000
 8.253642921205442e-001	 2.146805483824028e+000	 7.993562997173671e+000
 8.040744587612064e-001	 2.154869895108496e+000	 7.902452367661461e+000
 7.827518254663669e-001	 2.162706540379492e+000	 7.808875736511925e+000
 7.613998659099727e-001	 2.170315701518835e+000	 7.712819340441585e+000
 7.400220323295502e-001	 2.177697727355906e+000	 7.614271044299096e+000
 7.186217540111615e-001	 2.184853032751853e+000	 7.513220295040735e+000
 6.972024358120316e-001	 2.191782097645894e+000	 7.409658079141908e+000
 6.757674567218264e-001	 2.198485466065337e+000	 7.303576883385849e+000
 6.543201684634744e-001	 2.204963745100922e+000	 7.194970658957598e+000
 6.328638941343707e-001	 2.211217603849173e+000	 7.083834788757991e+000
 8.558201997245326e-001	 2.161757799996312e+000	 8.117426381706355e+000
 8.343356431215939e-001	 2.170140326041044e+000	 8.022555712152338e+000
 8.128143985299519e-001	 2.178292393970071e+000	 7.926744175488053e+000
 7.912599974817669e-001	 2.186214220168053e+000	 7.829969824947896e+000
 7.696759514083118e-001	 2.193906089580743e+000	 7.732211103305500e+000
 7.480657500714335e-001	 2.201368354829143e+000	 7.633446818310487e+000
 7.264328600320427e-001	 2.208601435283764e+000	 7.533656122948894e+000
 7.047807231566827e-001	 2.215605816100554e+000	 7.432818500415124e+000
 6.831127551631671e-001	 2.222382047220160e+000	 7.330913753666338e+000
 6.614323442061960e-001	 2.228930742332137e+000	 7.227921999417885e+000
 6.397428495037884e-001	 2.235252577805797e+000	 7.123823666421117e+000
 8.650225674638863e-001	 2.185002507523477e+000	 8.151431998835408e+000
 8.433069941232435e-001	 2.193475168257064e+000	 8.050425799646252e+000
 8.215543382993820e-001	 2.201714892830667e+000	 7.949969352507304e+000
 7.997681694979264e-001	 2.209721899955661e+000	 7.850034375599826e+000
 7.779520369074741e-001	 2.217496477641732e+000	 7.750591694443957e+000
 7.561094678141944e-001	 2.225038982301508e+000	 7.651611242038705e+000
 7.342439660538458e-001	 2.232349837814859e+000	 7.553062065170797e+000
 7.123590105022898e-001	 2.239429534554463e+000	 7.454912336711900e+000
 6.904580536054884e-001	 2.246278628374308e+000	 7.357129373707497e+000
 6.685445199499128e-001	 2.252897739562763e+000	 7.259679661043196e+000
 6.466218048742060e-001	 2.259287551761928e+000	 7.162528880459985e+000
 8.742249352037450e-001	 2.208247215049642e+000	 8.184201488864721e+000
 8.522783451254931e-001	 2.216810010472089e+000	 8.077132486213577e+000
 8.302942780694966e-001	 2.225137391690283e+000	 7.972085669646271e+000
 8.082763415148443e-001	 2.233229579742314e+000	 7.869026588877825e+000
 7.862281224074600e-001	 2.241086865701803e+000	 7.767918624122691e+000
 7.641531855578329e-001	 2.248709609773001e+000	 7.668723010709803e+000
 7.420550720765711e-001	 2.256098240345137e+000	 7.571398871214410e+000
 7.199372978488531e-001	 2.263253253007621e+000	 7.475903254858478e+000
 6.978033520487903e-001	 2.270175209527782e+000	 7.382191183912715e+000
 6.756566956946249e-001	 2.276864736792801e+000	 7.290215706816974e+000
 6.535007602456237e-001	 2.283322525717564e+000	 7.199927957718853e+000
 8.834273029441089e-001	 2.231491922574806e+000	 8.215696428354239e+000
 8.612496961283427e-001	 2.240144852686119e+000	 8.102635084331077e+000
 8.390342178402960e-001	 2.248559890548920e+000	 7.993051030615984e+000
 8.167845135325217e-001	 2.256737259528015e+000	 7.886903811034809e+000
 7.945042079082694e-001	 2.264677253760958e+000	 7.784149527915699e+000
 7.721969033023490e-001	 2.272380237243623e+000	 7.684740890962371e+000
 7.498661781002181e-001	 2.279846642874600e+000	 7.588627274993907e+000
 7.275155851963726e-001	 2.287076971460031e+000	 7.495754786236152e+000
 7.051486504930726e-001	 2.294071790680582e+000	 7.406066336828818e+000
 6.827688714403323e-001	 2.300831734022249e+000	 7.319501727194541e+000
 6.603797156180413e-001	 2.307357499672706e+000	 7.235997735898259e+000
 8.926296706849778e-001	 2.254736630098971e+000	 8.245878398654154e+000
 8.702210471317924e-001	 2.263479694899155e+000	 8.126892987965116e+000
 8.477741576117799e-001	 2.271982389406577e+000	 8.012823465067035e+000
 8.252926855509581e-001	 2.280244939312762e+000	 7.903623526648609e+000
 8.027802934099018e-001	 2.288267641819193e+000	 7.799242160246099e+000
 7.802406210477429e-001	 2.296050864713371e+000	 7.699623717166920e+000
 7.576772841247869e-001	 2.303595045403246e+000	 7.604707995633199e+000
 7.350938725448480e-001	 2.310900689911689e+000	 7.514430333762924e+000
 7.124939489383357e-001	 2.317968371832707e+000	 7.428721711984520e+000
 6.898810471870346e-001	 2.324798731251109e+000	 7.347508864460534e+000
 6.672586709914591e-001	 2.331392473627356e+000	 7.270714399077722e+000
 9.018320384263519e-001	 2.277981337622136e+000	 8.274708985660773e+000
 8.791923981358421e-001	 2.286814537111197e+000	 8.149865668414229e+000
 8.565140973839484e-001	 2.295404888263255e+000	 8.031361122164034e+000
 8.338008575701534e-001	 2.303752619096555e+000	 7.919143351564626e+000
 8.110563789123576e-001	 2.311858029876512e+000	 7.813154388322198e+000
 7.882843387940145e-001	 2.319721492182250e+000	 7.713330387969875e+000
 7.654883901502774e-001	 2.327343447931077e+000	 7.619601738220719e+000
 7.426721598942798e-001	 2.334724408362597e+000	 7.531893178447811e+000
 7.198392473845794e-001	 2.341864952984158e+000	 7.450123929819540e+000
 6.969932229347319e-001	 2.348765728479379e+000	 7.374207835594362e+000
 6.741376263658767e-001	 2.355427447581511e+000	 7.304053511063887e+000
 9.110344061682311e-001	 2.301226045144301e+000	 8.302149779586582e+000
 8.881637491404917e-001	 2.310149379322243e+000	 8.171512670403256e+000
 8.652540371568017e-001	 2.318827387118954e+000	 8.048622264549460e+000
 8.423090295901078e-001	 2.327260298879394e+000	 7.933421026266291e+000
 8.193324644156370e-001	 2.335448417932912e+000	 7.825844186441456e+000
 7.963280565411635e-001	 2.343392119650254e+000	 7.725819863047267e+000
 7.732994961766900e-001	 2.351091850458091e+000	 7.633269194518060e+000
 7.502504472446678e-001	 2.358548126812756e+000	 7.548106485547940e+000
 7.271845458318036e-001	 2.365761534134936e+000	 7.470239364769972e+000
 7.041053986834246e-001	 2.372732725707061e+000	 7.399568953750681e+000
 6.810165817412944e-001	 2.379462421535173e+000	 7.335990046717575e+000
 9.202367739106159e-001	 2.324470752665467e+000	 8.328162374744691e+000
 8.971351001457416e-001	 2.333484221532295e+000	 8.191793608412183e+000
 8.739939769303398e-001	 2.342249885973674e+000	 8.064565262670012e+000
 8.508172016108218e-001	 2.350767978661280e+000	 7.946414409643057e+000
 8.276085499197399e-001	 2.359038805988395e+000	 7.837269630635880e+000
 8.043717742891903e-001	 2.367062747117389e+000	 7.737051160053570e+000
 7.811106022040246e-001	 2.374840252984291e+000	 7.645671043626664e+000
 7.578287345960121e-001	 2.382371845262165e+000	 7.563033310355938e+000
 7.345298442800083e-001	 2.389658115285038e+000	 7.489034157568547e+000
 7.112175744331125e-001	 2.396699722934155e+000	 7.423562148450406e+000
 6.878955371177123e-001	 2.403497395488342e+000	 7.366498421400699e+000
 6.191059833985354e-001	 2.163147655934445e+000	 7.016724672883147e+000
 5.981105806580939e-001	 2.169046733790038e+000	 6.968135276388023e+000
 5.771127997826462e-001	 2.174727756844882e+000	 6.910878976435590e+000
 5.561158000485699e-001	 2.180191555116963e+000	 6.846644925517907e+000
 5.351227078207390e-001	 2.185439014853159e+000	 6.776995531517111e+000
 5.141366154304756e-001	 2.190471077357688e+000	 6.703365394116880e+000
 4.931605800963984e-001	 2.195288737798133e+000	 6.627060554712066e+000
 4.721976228884916e-001	 2.199893043990709e+000	 6.549258053871713e+000
 4.512507277356554e-001	 2.204285095166384e+000	 6.471005789719971e+000
 4.303228404769301e-001	 2.208466040719535e+000	 6.393222669940530e+000
 4.094168679565230e-001	 2.212437078940723e+000	 6.316699049506682e+000
 6.259849387659531e-001	 2.187182629892056e+000	 7.042583993617694e+000
 6.047562537727171e-001	 2.193147253056797e+000	 6.998691515866095e+000
 5.835251642208401e-001	 2.198891398589630e+000	 6.948583048355001e+000
 5.622948644897696e-001	 2.204415905730961e+000	 6.891258989699129e+000
 5.410685156817665e-001	 2.209721670574856e+000	 6.828371645330329e+000
 5.198492444873892e-001	 2.214809644884472e+000	 6.761441514497889e+000
 4.986401420943512e-001	 2.219680834884810e+000	 6.691856463515816e+000
 4.774442631400803e-001	 2.224336300034484e+000	 6.620871217515108e+000
 4.562646247082417e-001	 2.228777151778144e+000	 6.549607163912695e+000
 4.351042053694196e-001	 2.233004552281214e+000	 6.479052460126518e+000
 4.139659442660896e-001	 2.237019713148595e+000	 6.410062437437915e+000
 6.328638941343707e-001	 2.211217603849173e+000	 7.083834788757991e+000
 6.114019268883301e-001	 2.217247772323162e+000	 7.026097151164845e+000
 5.899375286599927e-001	 2.223055040334081e+000	 6.980987849543717e+000
 5.684739289318763e-001	 2.228640256344763e+000	 6.928582332359192e+000
 5.470143235436290e-001	 2.234004326296460e+000	 6.870625227818676e+000
 5.255618735450454e-001	 2.239148212411263e+000	 6.808725151227421e+000
 5.041197040929345e-001	 2.244072931971593e+000	 6.744353801540025e+000
 4.826909033921675e-001	 2.248779556078466e+000	 6.678845387719332e+000
 4.612785216811748e-001	 2.253269208390210e+000	 6.613396377951072e+000
 4.398855702620848e-001	 2.257543063843300e+000	 6.549065564059871e+000
 4.185150205756415e-001	 2.261602347356972e+000	 6.486774432815882e+000
 6.397428495037884e-001	 2.235252577805797e+000	 7.123823666421117e+000
 6.180476000049326e-001	 2.241348291589134e+000	 7.051433589506992e+000
 5.963498931001037e-001	 2.247218682078241e+000	 7.009128405085084e+000
 5.746529933748897e-001	 2.252864606958373e+000	 6.959603152799264e+000
 5.529601314063263e-001	 2.258286982017971e+000	 6.904697263165899e+000
 5.312745026034443e-001	 2.263486779938061e+000	 6.846109736970295e+000
 5.095992660921482e-001	 2.268465029058483e+000	 6.785398165053521e+000
 4.879375436447532e-001	 2.273222812122655e+000	 6.723978089558978e+000
 4.662924186544548e-001	 2.277761265002584e+000	 6.663122699520565e+000
 4.446669351549258e-001	 2.282081575405792e+000	 6.603962852941653e+000
 4.230640968851787e-001	 2.286184981565858e+000	 6.547487416835651e+000
 6.466218048742060e-001	 2.259287551761928e+000	 7.162528880459985e+000
 6.246932731225249e-001	 2.265448810854711e+000	 7.075780786712330e+000
 6.027622575411730e-001	 2.271382323822106e+000	 7.034037686971373e+000
 5.808320578188102e-001	 2.277088957571788e+000	 6.985307077483044e+000
 5.589059392698584e-001	 2.282569637739387e+000	 6.931525724492868e+000
 5.369871316625859e-001	 2.287825347464866e+000	 6.874485336162749e+000
 5.150788280919926e-001	 2.292857126145480e+000	 6.815831505485029e+000
 4.931841838978376e-001	 2.297666068167052e+000	 6.757063006666807e+000
 4.713063156280816e-001	 2.302253321615265e+000	 6.699531437688094e+000
 4.494483000479425e-001	 2.306620086968692e+000	 6.644441200980825e+000
 4.276131731947014e-001	 2.310767615775252e+000	 6.592849813467820e+000
 6.535007602456237e-001	 2.283322525717564e+000	 7.199927957718853e+000
 6.313389462411063e-001	 2.289549330119895e+000	 7.116460274870444e+000
 6.091746219832009e-001	 2.295545965565678e+000	 7.056746722161190e+000
 5.870111222636374e-001	 2.301313308185010e+000	 7.006677295449059e+000
 5.648517471342256e-001	 2.306852293460711e+000	 6.952045732335013e+000
 5.426997607224704e-001	 2.312163914991677e+000	 6.894738822287320e+000
 5.205583900924674e-001	 2.317249223232584e+000	 6.836492321256799e+000
 4.984308241514204e-001	 2.322109324211656e+000	 6.778890183414911e+000
 4.763202126020553e-001	 2.326745378228254e+000	 6.723364151250980e+000
 4.542296649411349e-001	 2.331158598532000e+000	 6.671193695761713e+000
 4.321622495042093e-001	 2.335350249985153e+000	 6.623506297733628e+000
 6.603797156180413e-001	 2.307357499672706e+000	 7.235997735898259e+000
 6.379846193606776e-001	 2.313649849384685e+000	 7.156289953353009e+000
 6.155869864261875e-001	 2.319709607308956e+000	 7.078284693883402e+000
 5.931901867093715e-001	 2.325537658798039e+000	 7.024694685259934e+000
 5.707975549994278e-001	 2.331134949181942e+000	 6.967189703213920e+000
 5.484123897830977e-001	 2.336502482518496e+000	 6.907754044068462e+000
 5.260379520935729e-001	 2.341641320319794e+000	 6.848215837628616e+000
 5.036774644055017e-001	 2.346552580256467e+000	 6.790246214459557e+000
 4.813341095763758e-001	 2.351237434841550e+000	 6.735358844063004e+000
 4.590110298345030e-001	 2.355697110095715e+000	 6.684909835464518e+000
 4.367113258137025e-001	 2.359932884195560e+000	 6.640097990962481e+000
 6.672586709914591e-001	 2.331392473627356e+000	 7.270714399077722e+000
 6.446302924812386e-001	 2.337750368649082e+000	 7.194424440928962e+000
 6.219993508701324e-001	 2.343873249051940e+000	 7.099679036674878e+000
 5.993692511560126e-001	 2.349762009410874e+000	 7.040337934099033e+000
 5.767433628654646e-001	 2.355417604903078e+000	 6.977887489020049e+000
 5.541250188444674e-001	 2.360841050045321e+000	 6.914411981387934e+000
 5.315175140953088e-001	 2.366033417407113e+000	 6.851834175417717e+000
 5.089241046600814e-001	 2.370995836301485e+000	 6.791914422561465e+000
 4.863480065510432e-001	 2.375729491455153e+000	 6.736250148279111e+000
 4.637923947280468e-001	 2.380235621659837e+000	 6.686275713886144e+000
 4.412604021231812e-001	 2.384515518406475e+000	 6.643262643972259e+000
 6.741376263658767e-001	 2.355427447581511e+000	 7.304053511063887e+000
 6.512759656027893e-001	 2.361850887913085e+000	 7.230852633288614e+000
 6.284117153150359e-001	 2.368036890794632e+000	 7.129630105470394e+000
 6.055483156035606e-001	 2.373986360023517e+000	 7.054583649575848e+000
 5.826891707323364e-001	 2.379700260624122e+000	 6.985066507860962e+000
 5.598376479065801e-001	 2.385179617572152e+000	 6.915590891654456e+000
 5.369970760976752e-001	 2.390425514494537e+000	 6.848176509388388e+000
 5.141707449151598e-001	 2.395439092346710e+000	 6.784675025519563e+000
 4.913619035260574e-001	 2.400221548069063e+000	 6.726769496381025e+000
 4.685737596217664e-001	 2.404774133224367e+000	 6.675974194132582e+000
 4.458094784326451e-001	 2.409098152617898e+000	 6.633634809033949e+000
 6.810165817412944e-001	 2.379462421535173e+000	 7.335990046717575e+000
 6.579216387253294e-001	 2.385951407176694e+000	 7.265562312230519e+000
 6.348240797608978e-001	 2.392200532537029e+000	 7.165138327763187e+000
 6.117273800520153e-001	 2.398210710635965e+000	 7.068406464754527e+000
 5.886349786000431e-001	 2.403982916345072e+000	 6.989651866979827e+000
 5.655502769694353e-001	 2.409518185098991e+000	 6.912166447302154e+000
 5.424766381006722e-001	 2.414817611582069e+000	 6.838069217043149e+000
 5.194173851707366e-001	 2.419882348392142e+000	 6.769305292986993e+000
 4.963758005014184e-001	 2.424713604683281e+000	 6.707645282776583e+000
 4.733551245156617e-001	 2.429312644789304e+000	 6.654685071785916e+000
 4.503585547420944e-001	 2.433680786829828e+000	 6.611846001414318e+000
 6.878955371177123e-001	 2.403497395488342e+000	 7.366498421400699e+000
 6.645673118488593e-001	 2.410051926439911e+000	 7.298540201356621e+000
 6.412364442077186e-001	 2.416364174279133e+000	 7.198664781870200e+000
 6.179064445013772e-001	 2.422435061248221e+000	 7.082779136881788e+000
 5.945807864685849e-001	 2.428265572065930e+000	 6.992566478298491e+000
 5.712629060330334e-001	 2.433856752625838e+000	 6.905011865039477e+000
 5.479562001042998e-001	 2.439209708669709e+000	 6.822336018485069e+000
 5.246640254268120e-001	 2.444325604437782e+000	 6.746579693878299e+000
 5.013896974771264e-001	 2.449205661297806e+000	 6.679603015703709e+000
 4.781364894097328e-001	 2.453851156354649e+000	 6.623085228280227e+000
 4.549076310515292e-001	 2.458263421042266e+000	 6.578524851226533e+000
 4.094168679565230e-001	 2.212437078940723e+000	 6.316699049506682e+000
 3.885356771626090e-001	 2.216199455735425e+000	 6.237449523157406e+000
 3.676820944102924e-001	 2.219754463329662e+000	 6.162661562762946e+000
 3.468589045682616e-001	 2.223103438964542e+000	 6.092747512919464e+000
 3.260688503289501e-001	 2.226247763581710e+000	 6.027993664357616e+000
 3.053146315223872e-001	 2.229188860500556e+000	 5.968562023465087e+000
 2.845989044733674e-001	 2.231928194088898e+000	 5.914492311201518e+000
 2.639242814016646e-001	 2.234467268428642e+000	 5.865704180390706e+000
 2.432933298649641e-001	 2.236807625977843e+000	 5.821999640124096e+000
 2.227085722441365e-001	 2.238950846230580e+000	 5.783065675802352e+000
 2.021724852704328e-001	 2.240898544376048e+000	 5.748477053174639e+000
 4.139659442660896e-001	 2.237019713148595e+000	 6.410062437437915e+000
 3.928527402417594e-001	 2.240823894129246e+000	 6.338734501190956e+000
 3.717674510149444e-001	 2.244418401807346e+000	 6.270922812514038e+000
 3.507128923973190e-001	 2.247804588282233e+000	 6.207095600829524e+000
 3.296918375556780e-001	 2.250983849839349e+000	 6.147591838506139e+000
 3.087070163181628e-001	 2.253957625612741e+000	 6.092622998247661e+000
 2.877611145242892e-001	 2.256727396240980e+000	 6.042275047980962e+000
 2.668567734184957e-001	 2.259294682517993e+000	 5.996510671962820e+000
 2.459965890868874e-001	 2.261661044040256e+000	 5.955171706557937e+000
 2.251831119367900e-001	 2.263828077851780e+000	 5.917981778925523e+000
 2.044188462186914e-001	 2.265797417088305e+000	 5.884549136673871e+000
 4.185150205756415e-001	 2.261602347356972e+000	 6.486774432815882e+000
 3.971698033207161e-001	 2.265448332523665e+000	 6.422312574339561e+000
 3.758528076192648e-001	 2.269082340285696e+000	 6.360624039549525e+000
 3.545668802259483e-001	 2.272505737600639e+000	 6.302233388435655e+000
 3.333148247819220e-001	 2.275719936097731e+000	 6.247532507815269e+000
 3.120994011134395e-001	 2.278726390725676e+000	 6.196782359742384e+000
 2.909233245747364e-001	 2.281526598393801e+000	 6.150114975787232e+000
 2.697892654349166e-001	 2.284122096608050e+000	 6.107535685625478e+000
 2.486998483085041e-001	 2.286514462103322e+000	 6.068925568098237e+000
 2.276576516292792e-001	 2.288705309473562e+000	 6.034044112673751e+000
 2.066652071669667e-001	 2.290696289801054e+000	 6.002532079057952e+000
 4.230640968851787e-001	 2.286184981565858e+000	 6.547487416835651e+000
 4.014868663994790e-001	 2.290072770918680e+000	 6.488800216588989e+000
 3.799381642232539e-001	 2.293746278764711e+000	 6.432344809221808e+000
 3.584208680541498e-001	 2.297206886919758e+000	 6.378702576039784e+000
 3.369378120076825e-001	 2.300456022356853e+000	 6.328318595044154e+000
 3.154917859082169e-001	 2.303495155839361e+000	 6.281503383494268e+000
 2.940855346247092e-001	 2.306325800547358e+000	 6.238434894979667e+000
 2.727217574509273e-001	 2.308949510698812e+000	 6.199160759145774e+000
 2.514031075298141e-001	 2.311367880167042e+000	 6.163600751929778e+000
 2.301321913216042e-001	 2.313582541095925e+000	 6.131549483918371e+000
 2.089115681152584e-001	 2.315595162514295e+000	 6.102679294248063e+000
 4.276131731947014e-001	 2.310767615775252e+000	 6.592849813467820e+000
 4.058039294780481e-001	 2.314697209314293e+000	 6.538809524369914e+000
 3.840235208269116e-001	 2.318410217244391e+000	 6.486660008025663e+000
 3.622748558819232e-001	 2.321908036239591e+000	 6.437040001871657e+000
 3.405607992329590e-001	 2.325192108616717e+000	 6.390448094757680e+000
 3.188841707024953e-001	 2.328263920953795e+000	 6.347244466777202e+000
 2.972477446742077e-001	 2.331125002701653e+000	 6.307652892516991e+000
 2.756542494665278e-001	 2.333776924790279e+000	 6.271762995560607e+000
 2.541063667508174e-001	 2.336221298231415e+000	 6.239532741783282e+000
 2.326067310137648e-001	 2.338459772718871e+000	 6.210791158719514e+000
 2.111579290635668e-001	 2.340494035228026e+000	 6.185241268080445e+000
 4.321622495042093e-001	 2.335350249985153e+000	 6.623506297733628e+000
 4.101209925564234e-001	 2.339321647710502e+000	 6.572948446955192e+000
 3.881088774302378e-001	 2.343074155724738e+000	 6.524140089853471e+000
 3.661288437092686e-001	 2.346609185560137e+000	 6.477777897987043e+000
 3.441837864577519e-001	 2.349928194877324e+000	 6.434414332704811e+000
 3.222765554962745e-001	 2.353032686068978e+000	 6.394459385344890e+000
 3.004099547232315e-001	 2.355924204856685e+000	 6.358182590030783e+000
 2.785867414817183e-001	 2.358604338882453e+000	 6.325715296583280e+000
 2.568096259715142e-001	 2.361074716296441e+000	 6.297053190749091e+000
 2.350812707057613e-001	 2.363337004342400e+000	 6.272059048684828e+000
 2.134042900118918e-001	 2.365392907942251e+000	 6.250465712416712e+000
 4.367113258137025e-001	 2.359932884195560e+000	 6.640097990962481e+000
 4.144380556346050e-001	 2.363946086107308e+000	 6.591821002457747e+000
 3.921942340332327e-001	 2.367738094205750e+000	 6.545351306860662e+000
 3.699828315361861e-001	 2.371310334881398e+000	 6.501444130172657e+000
 3.478067736820611e-001	 2.374664281138672e+000	 6.460706208986429e+000
 3.256689402895547e-001	 2.377801451184911e+000	 6.423597534135178e+000
 3.035721647717810e-001	 2.380723407012454e+000	 6.390433376394824e+000
 2.815192334964985e-001	 2.383431752975329e+000	 6.361386581422598e+000
 2.595128851919042e-001	 2.385928134362120e+000	 6.336490120789276e+000
 2.375558103975934e-001	 2.388214235966509e+000	 6.315639885680203e+000
 2.156506509602334e-001	 2.390291780656967e+000	 6.298597709620875e+000
 4.412604021231812e-001	 2.384515518406475e+000	 6.643262643972259e+000
 4.187551187125927e-001	 2.388570524504710e+000	 6.596027480467661e+000
 3.962795906358961e-001	 2.392402032687428e+000	 6.550855926049293e+000
 3.738368193626758e-001	 2.396011484203374e+000	 6.508562423011603e+000
 3.514297609058866e-001	 2.399400367400761e+000	 6.469808426181092e+000
 3.290613250823358e-001	 2.402570216301593e+000	 6.435104153085383e+000
 3.067343748198559e-001	 2.405522609168960e+000	 6.404810625908063e+000
 2.844517255108684e-001	 2.408259167068911e+000	 6.379141992066682e+000
 2.622161444119877e-001	 2.410781552428453e+000	 6.358168109909445e+000
 2.400303500892613e-001	 2.413091467591202e+000	 6.341817385734336e+000
 2.178970119085915e-001	 2.415190653372174e+000	 6.329879848101288e+000
 4.458094784326451e-001	 2.409098152617898e+000	 6.633634809033949e+000
 4.230721817903867e-001	 2.413194962902710e+000	 6.586164632282967e+000
 4.003649472382280e-001	 2.417065971169771e+000	 6.541212432592686e+000
 3.776908071887375e-001	 2.420712633526063e+000	 6.499652571169288e+000
 3.550527481292284e-001	 2.424136453663594e+000	 6.462201703504776e+000
 3.324537098746178e-001	 2.427338981419026e+000	 6.429420539121933e+000
 3.098965848674565e-001	 2.430321811326204e+000	 6.401715903120270e+000
 2.873842175248283e-001	 2.433086581163198e+000	 6.379343085997904e+000
 2.649194036317644e-001	 2.435634970495439e+000	 6.362408467870798e+000
 2.425048897807650e-001	 2.437968699216476e+000	 6.350872402907799e+000
 2.201433728569663e-001	 2.440089526087873e+000	 6.344552349552899e+000
 4.503585547420944e-001	 2.433680786829828e+000	 6.611846001414318e+000
 4.273892448679870e-001	 2.437819401301307e+000	 6.562825849611376e+000
 4.044503038402286e-001	 2.441729909652781e+000	 6.516975720836771e+000
 3.815447950143713e-001	 2.445413782849466e+000	 6.475230637874237e+000
 3.586757353520864e-001	 2.448872539927167e+000	 6.438362977990236e+000
 3.358460946664006e-001	 2.452107746537207e+000	 6.406984245302257e+000
 3.130587949145826e-001	 2.455121013484184e+000	 6.381547155243467e+000
 2.903167095383779e-001	 2.457913995258190e+000	 6.362348017229069e+000
 2.676226628512345e-001	 2.460488388563079e+000	 6.349529401253052e+000
 2.449794294721043e-001	 2.462845930842333e+000	 6.343083073837149e+000
 2.223897338053576e-001	 2.464988398804064e+000	 6.342853188488016e+000
 4.549076310515292e-001	 2.458263421042266e+000	 6.578524851226533e+000
 4.317063079453936e-001	 2.462443839700501e+000	 6.526601332549314e+000
 4.085356604418978e-001	 2.466393848136456e+000	 6.478697273841257e+000
 3.853987828395771e-001	 2.470114932173583e+000	 6.435809141489509e+000
 3.622987225744608e-001	 2.473608626191483e+000	 6.398765593596933e+000
 3.392384794576846e-001	 2.476876511656139e+000	 6.368229268008583e+000
 3.162210049612343e-001	 2.479920215642903e+000	 6.344698893019045e+000
 2.932492015515175e-001	 2.482741409353888e+000	 6.328511706476336e+000
 2.703259220703981e-001	 2.485341806631372e+000	 6.319846168613164e+000
 2.474539691632796e-001	 2.487723162468774e+000	 6.318724953605422e+000
 2.246360947537655e-001	 2.489887271520747e+000	 6.325018204595921e+000
 2.021724852704328e-001	 2.240898544376048e+000	 5.748477053174639e+000
 1.816874995949720e-001	 2.242652369958055e+000	 5.712019784627127e+000
 1.612559993974847e-001	 2.244214005536660e+000	 5.682408687001904e+000
 1.408803220354772e-001	 2.245585165352948e+000	 5.658891697816830e+000
 1.205627577348670e-001	 2.246767593997911e+000	 5.640613847588585e+000
 1.003055493189621e-001	 2.247763065087045e+000	 5.626620903137291e+000
 8.011089197596248e-002	 2.248573379941687e+000	 5.615863125359695e+000
 5.998093306429331e-002	 2.249200366278207e+000	 5.607199129579084e+000
 3.991777195505006e-002	 2.249645876906150e+000	 5.599399836710468e+000
 1.992345991080489e-002	 2.249911788436345e+000	 5.591152503648288e+000
 0.000000000000000e+000	 2.250000000000000e+000	 5.581064821471435e+000
 2.044188462186914e-001	 2.265797417088305e+000	 5.884549136673871e+000
 1.837062495910136e-001	 2.267570729621807e+000	 5.849807747169971e+000
 1.630477327244405e-001	 2.269149716707362e+000	 5.820749768051962e+000
 1.424456589471168e-001	 2.270536111633177e+000	 5.796654724088739e+000
 1.219023439319143e-001	 2.271731678374588e+000	 5.776696589875607e+000
 1.014200554223997e-001	 2.272738210253934e+000	 5.759947474082837e+000
 8.100101299775234e-002	 2.273557528607230e+000	 5.745381423194091e+000
 6.064738787593518e-002	 2.274191481458810e+000	 5.731878332533925e+000
 4.036130275438873e-002	 2.274641942204990e+000	 5.718227952510924e+000
 2.014483168749108e-002	 2.274910808307830e+000	 5.703133978170469e+000
 0.000000000000000e+000	 2.275000000000000e+000	 5.685218210344565e+000
 2.066652071669667e-001	 2.290696289801054e+000	 6.002532079057952e+000
 1.857249995872511e-001	 2.292489089285958e+000	 5.970489827771003e+000
 1.648394660517300e-001	 2.294085427878376e+000	 5.943179535145927e+000
 1.440109958591870e-001	 2.295487057913643e+000	 5.919910650622383e+000
 1.232419301294489e-001	 2.296695762751440e+000	 5.899884254136404e+000
 1.025345615263411e-001	 2.297713355420943e+000	 5.882196786715254e+000
 8.189113402002285e-002	 2.298541677272851e+000	 5.865843905716726e+000
 6.131384268799531e-002	 2.299182596639455e+000	 5.849724452179095e+000
 4.080483355404448e-002	 2.299638007503847e+000	 5.832644517891124e+000
 2.036620346435478e-002	 2.299909828179321e+000	 5.813321599945814e+000
 0.000000000000000e+000	 2.300000000000000e+000	 5.790388830743922e+000
 2.089115681152584e-001	 2.315595162514295e+000	 6.102679294248063e+000
 1.877437495836842e-001	 2.317407448950504e+000	 6.074274778636163e+000
 1.666311993793531e-001	 2.319021139049704e+000	 6.049861037843259e+000
 1.455763327716881e-001	 2.320438004194349e+000	 6.028775821813727e+000
 1.245815163274709e-001	 2.321659847128467e+000	 6.010245514491510e+000
 1.036490676307862e-001	 2.322688500588073e+000	 5.993388916165200e+000
 8.278125504277401e-002	 2.323525825938549e+000	 5.977221155735418e+000
 6.198029750047370e-002	 2.324173711820143e+000	 5.960657720040110e+000
 4.124836435401730e-002	 2.324634072802725e+000	 5.942518587498681e+000
 2.058757524139598e-002	 2.324908848050816e+000	 5.921532453507346e+000
 0.000000000000000e+000	 2.325000000000000e+000	 5.896341035212982e+000
 2.111579290635668e-001	 2.340494035228026e+000	 6.185241268080445e+000
 1.897624995803131e-001	 2.342325808615447e+000	 6.161369172267960e+000
 1.684229327073099e-001	 2.343956850221343e+000	 6.140956020455126e+000
 1.471416696846198e-001	 2.345388950475293e+000	 6.123366275731034e+000
 1.259211025259800e-001	 2.346623931505669e+000	 6.107849860470623e+000
 1.047635737357351e-001	 2.347663645755324e+000	 6.093545995829102e+000
 8.367137606600578e-002	 2.348509974604323e+000	 6.079487176573523e+000
 6.264675231337037e-002	 2.349164827000877e+000	 6.064603268030131e+000
 4.169189515430721e-002	 2.349630138101621e+000	 6.047725712060513e+000
 2.080894701861470e-002	 2.349907867922315e+000	 6.027591829144079e+000
 0.000000000000000e+000	 2.350000000000000e+000	 6.002849203846104e+000
 2.134042900118918e-001	 2.365392907942251e+000	 6.250465712416712e+000
 1.917812495771378e-001	 2.367244168280787e+000	 6.231977516186255e+000
 1.702146660356004e-001	 2.368892561393295e+000	 6.216624990741735e+000
 1.487070065979823e-001	 2.370339896756475e+000	 6.203797760238474e+000
 1.272606887249765e-001	 2.371588015883045e+000	 6.192767554095434e+000
 1.058780798411878e-001	 2.372638790922696e+000	 6.182692109040861e+000
 8.456149708971820e-002	 2.373494123270175e+000	 6.172619212042666e+000
 6.331320712668530e-002	 2.374155942181652e+000	 6.161490870534100e+000
 4.213542595491417e-002	 2.374626203400537e+000	 6.148147596483567e+000
 2.103031879601092e-002	 2.374906887793820e+000	 6.131332791018902e+000
 0.000000000000000e+000	 2.375000000000000e+000	 6.109697216522847e+000
 2.156506509602334e-001	 2.390291780656967e+000	 6.298597709620875e+000
 1.937999995741583e-001	 2.392162527946525e+000	 6.286302360480547e+000
 1.720063993642245e-001	 2.393828272565560e+000	 6.277027284316200e+000
 1.502723435117755e-001	 2.395290843037897e+000	 6.270185748110167e+000
 1.286002749244602e-001	 2.396552100260595e+000	 6.265069589646131e+000
 1.069925859471443e-001	 2.397613936090189e+000	 6.260853187511846e+000
 8.545161811391125e-002	 2.398478271936103e+000	 6.256597577667453e+000
 6.397966194041847e-002	 2.399147057362471e+000	 6.251254702614004e+000
 4.257895675583822e-002	 2.399622268699472e+000	 6.243671779325046e+000
 2.125169057358466e-002	 2.399905907665329e+000	 6.232595772279264e+000
 0.000000000000000e+000	 2.400000000000000e+000	 6.216677958127494e+000
 2.178970119085915e-001	 2.415190653372174e+000	 6.329879848101288e+000
 1.958187495713746e-001	 2.417080887612659e+000	 6.324544398707035e+000
 1.737981326931824e-001	 2.418763983738137e+000	 6.322321125064261e+000
 1.518376804259994e-001	 2.420241789319555e+000	 6.322645451210410e+000
 1.299398611244313e-001	 2.421516184638321e+000	 6.324827655916243e+000
 1.081070920536046e-001	 2.422589081257802e+000	 6.328056916053381e+000
 8.634173913858495e-002	 2.423462420602109e+000	 6.331405502349867e+000
 6.464611675456990e-002	 2.424138172543332e+000	 6.333833113169428e+000
 4.302248755707935e-002	 2.424618333998426e+000	 6.334191332088845e+000
 2.147306235133592e-002	 2.424904927536844e+000	 6.331228195212717e+000
 0.000000000000000e+000	 2.425000000000000e+000	 6.323592854373427e+000
 2.201433728569663e-001	 2.440089526087873e+000	 6.344552349552899e+000
 1.978374995687866e-001	 2.441999247279191e+000	 6.346902562610720e+000
 1.755898660224739e-001	 2.443699694911027e+000	 6.352663681865014e+000
 1.534030173406540e-001	 2.445192735601454e+000	 6.361291833805453e+000
 1.312794473248896e-001	 2.446480269016221e+000	 6.372114100777972e+000
 1.092215981605687e-001	 2.447564226425537e+000	 6.384332643134039e+000
 8.723186016373929e-002	 2.448446569268191e+000	 6.397028979727249e+000
 6.531257156913961e-002	 2.449129287724237e+000	 6.409168411986993e+000
 4.346601835863755e-002	 2.449614399297399e+000	 6.419604576932007e+000
 2.169443412926468e-002	 2.449903947408362e+000	 6.427084114658160e+000
 0.000000000000000e+000	 2.449999999999999e+000	 6.430251436046621e+000
 2.223897338053576e-001	 2.464988398804064e+000	 6.342853188488016e+000
 1.998562495663943e-001	 2.466917606946119e+000	 6.353574111105539e+000
 1.773815993520991e-001	 2.468635406084229e+000	 6.368211121874567e+000
 1.549683542557393e-001	 2.470143681883591e+000	 6.386239625068410e+000
 1.326190335258352e-001	 2.471444353394295e+000	 6.407001897895616e+000
 1.103361042680365e-001	 2.472539371593392e+000	 6.429711296855046e+000
 8.812198118937427e-002	 2.473430717934351e+000	 6.453456628539483e+000
 6.597902638412759e-002	 2.474120402905185e+000	 6.477206669695431e+000
 4.390954916051283e-002	 2.474610464596391e+000	 6.499814821480030e+000
 2.191580590737095e-002	 2.474902967279885e+000	 6.520023883028489e+000
 0.000000000000000e+000	 2.474999999999999e+000	 6.536470929658661e+000
 2.246360947537655e-001	 2.489887271520747e+000	 6.325018204595921e+000
 2.018749995641979e-001	 2.491835966613445e+000	 6.344754713915393e+000
 1.791733326820581e-001	 2.493571117257746e+000	 6.369118660611475e+000
 1.565336911712554e-001	 2.495094628165967e+000	 6.397603330833560e+000
 1.339586197272681e-001	 2.496408437772546e+000	 6.429564615435799e+000
 1.114506103760082e-001	 2.497514516761370e+000	 6.464225305970134e+000
 8.901210221548993e-002	 2.498414866600590e+000	 6.500679561373837e+000
 6.664548119953383e-002	 2.499111518086177e+000	 6.537897529723206e+000
 4.435307996270520e-002	 2.499606529895404e+000	 6.574730109554431e+000
 2.213717768565474e-002	 2.499901987151415e+000	 6.609913835431989e+000
 0.000000000000000e+000	 2.500000000000000e+000	 6.642075872660490e+000
 2.500000000000000e+000	 0.000000000000000e+000	 1.131320215587683e+001
 2.499901987151415e+000	 2.213717768565403e-002	 1.134641702482283e+001
 2.499606529895403e+000	 4.435307996270457e-002	 1.137521370271870e+001
 2.499111518086177e+000	 6.664548119953326e-002	 1.139943381525398e+001
 2.498414866600589e+000	 8.901210221548943e-002	 1.141893803852252e+001
 2.497514516761369e+000	 1.114506103760078e-001	 1.143360672436588e+001
 2.496408437772546e+000	 1.339586197272678e-001	 1.144334050184789e+001
 2.495094628165966e+000	 1.565336911712552e-001	 1.144806085273157e+001
 2.493571117257745e+000	 1.791733326820579e-001	 1.144771065882163e+001
 2.491835966613445e+000	 2.018749995641979e-001	 1.144225471903643e+001
 2.489887271520747e+000	 2.246360947537655e-001	 1.143168023407930e+001
 2.525000000000000e+000	 0.000000000000000e+000	 1.128188894202755e+001
 2.524901007022946e+000	 2.235854946393780e-002	 1.131554964042477e+001
 2.524602595194425e+000	 4.479661076489691e-002	 1.134295658036158e+001
 2.524102633267189e+000	 6.731193601493948e-002	 1.136436643923211e+001
 2.523399015266866e+000	 8.990222324160503e-002	 1.138002389696749e+001
 2.522489661929405e+000	 1.125651164839795e-001	 1.139016100884827e+001
 2.521372522150882e+000	 1.352982059287007e-001	 1.139499659343421e+001
 2.520045574448461e+000	 1.580990280867712e-001	 1.139473563753851e+001
 2.518506828431417e+000	 1.809650660120168e-001	 1.138956872019173e+001
 2.516754326280969e+000	 2.038937495620014e-001	 1.137967145755376e+001
 2.514786144237676e+000	 2.268824557021734e-001	 1.136520397073977e+001
 2.550000000000000e+000	 0.000000000000000e+000	 1.125452721780767e+001
 2.549900026894477e+000	 2.257992124204407e-002	 1.128898860916159e+001
 2.549598660493445e+000	 4.524014156677218e-002	 1.131727837049032e+001
 2.549093748448203e+000	 6.797839082992745e-002	 1.133964094554736e+001
 2.548383163933142e+000	 9.079234426724003e-002	 1.135630793633665e+001
 2.547464807097442e+000	 1.136796225914473e-001	 1.136749746638128e+001
 2.546336606529218e+000	 1.366377921296463e-001	 1.137341356036389e+001
 2.544996520730955e+000	 1.596643650018565e-001	 1.137424554213177e+001
 2.543442539605088e+000	 1.827567993416420e-001	 1.137016745307720e+001
 2.541672685948493e+000	 2.059124995596092e-001	 1.136133749291626e+001
 2.539685016954604e+000	 2.291288166505647e-001	 1.134789748489476e+001
 2.575000000000000e+000	 0.000000000000000e+000	 1.123096335843749e+001
 2.574899046766007e+000	 2.280129301997283e-002	 1.126550327470987e+001
 2.574594725792466e+000	 4.568367236833036e-002	 1.129397166361856e+001
 2.574084863629216e+000	 6.864484564449713e-002	 1.131660108088145e+001
 2.573367312599416e+000	 9.168246529239434e-002	 1.133361037979607e+001
 2.572439952265480e+000	 1.147941286984114e-001	 1.134520406430110e+001
 2.571300690907555e+000	 1.379773783301046e-001	 1.135157165967680e+001
 2.569947467013449e+000	 1.612297019165111e-001	 1.135288710294482e+001
 2.568378250778760e+000	 1.845485326709335e-001	 1.134930815504511e+001
 2.566591045616016e+000	 2.079312495570212e-001	 1.134097583687910e+001
 2.564583889671532e+000	 2.313751775989394e-001	 1.132801389131303e+001
 2.600000000000000e+000	 0.000000000000000e+000	 1.121104964778294e+001
 2.599898066637538e+000	 2.302266479772407e-002	 1.124496796711264e+001
 2.599590791091487e+000	 4.612720316957149e-002	 1.127293301118644e+001
 2.599075978810229e+000	 6.931130045864856e-002	 1.129516578568876e+001
 2.598351461265692e+000	 9.257258631706804e-002	 1.131187271648979e+001
 2.597415097433516e+000	 1.159086348048716e-001	 1.132324499183483e+001
 2.596264775285892e+000	 1.393169645300756e-001	 1.132945792345289e+001
 2.594898413295944e+000	 1.627950388307350e-001	 1.133067032871434e+001
 2.593313961952431e+000	 1.863402659998913e-001	 1.132702393598409e+001
 2.591509405283540e+000	 2.099499995542374e-001	 1.131864281532702e+001
 2.589482762388461e+000	 2.336215385472976e-001	 1.130563283672659e+001
 2.625000000000000e+000	 0.000000000000000e+000	 1.119464399699154e+001
 2.624897086509069e+000	 2.324403657529780e-002	 1.122726196190648e+001
 2.624586856390508e+000	 4.657073397049554e-002	 1.125406323130745e+001
 2.624067093991241e+000	 6.997775527238173e-002	 1.127525759153283e+001
 2.623335609931968e+000	 9.346270734126111e-002	 1.129103935465419e+001
 2.622390242601552e+000	 1.170231409108281e-001	 1.130158668912667e+001
 2.621228859664228e+000	 1.406565507295594e-001	 1.130706097065256e+001
 2.619849359578439e+000	 1.643603757445282e-001	 1.130760615545897e+001
 2.618249673126103e+000	 1.881319993285155e-001	 1.130334817820627e+001
 2.616427764951063e+000	 2.119687495512579e-001	 1.129439437675395e+001
 2.614381635105390e+000	 2.358678994956392e-001	 1.128083294601271e+001
 2.650000000000000e+000	 0.000000000000000e+000	 1.118160967905455e+001
 2.649896106380600e+000	 2.346540835269402e-002	 1.121226924684353e+001
 2.649582921689528e+000	 4.701426477110250e-002	 1.123726720751026e+001
 2.649058209172255e+000	 7.064421008569664e-002	 1.125680245169443e+001
 2.648319758598243e+000	 9.435282836497352e-002	 1.127105748392494e+001
 2.647365387769589e+000	 1.181376470162808e-001	 1.128019774106258e+001
 2.646192944042564e+000	 1.419961369285558e-001	 1.128437093226382e+001
 2.644800305860933e+000	 1.659257126578906e-001	 1.128370640273946e+001
 2.643185384299774e+000	 1.899237326568060e-001	 1.127831452359698e+001
 2.641346124618587e+000	 2.139874995480826e-001	 1.126828611006440e+001
 2.639280507822317e+000	 2.381142604439641e-001	 1.125369187039457e+001
 2.675000000000000e+000	 0.000000000000000e+000	 1.117181507825354e+001
 2.674895126252130e+000	 2.368678012991273e-002	 1.119987830169451e+001
 2.674578986988550e+000	 4.745779557139240e-002	 1.122245369876607e+001
 2.674049324353267e+000	 7.131066489859329e-002	 1.123972958127823e+001
 2.673303907264519e+000	 9.524294938820530e-002	 1.125187694536513e+001
 2.672340532937625e+000	 1.192521531212298e-001	 1.125904877704876e+001
 2.671157028420902e+000	 1.433357231270650e-001	 1.126137938064677e+001
 2.669751252143427e+000	 1.674910495708224e-001	 1.125898373237177e+001
 2.668121095473445e+000	 1.917154659847628e-001	 1.125195686148525e+001
 2.666264484286111e+000	 2.160062495447115e-001	 1.124037326137676e+001
 2.664179380539246e+000	 2.403606213922725e-001	 1.122428633293919e+001
 2.699999999999999e+000	 0.000000000000000e+000	 1.116513345352655e+001
 2.699894146123661e+000	 2.390815190695394e-002	 1.118998189028488e+001
 2.699575052287571e+000	 4.790132637136522e-002	 1.120953516006988e+001
 2.699040439534280e+000	 7.197711971107168e-002	 1.122397130620246e+001
 2.698288055930794e+000	 9.613307041095642e-002	 1.123345010871390e+001
 2.697315678105662e+000	 1.203666592256749e-001	 1.123811237635783e+001
 2.696121112799238e+000	 1.446753093250869e-001	 1.123807926280339e+001
 2.694702198425921e+000	 1.690563864833234e-001	 1.123345160943371e+001
 2.693056806647117e+000	 1.935071993123859e-001	 1.122430931718805e+001
 2.691182843953635e+000	 2.180249995411447e-001	 1.121071074989300e+001
 2.689078253256174e+000	 2.426069823405643e-001	 1.119269217152763e+001
 2.724999999999999e+000	 0.000000000000000e+000	 1.116144271485997e+001
 2.724893165995192e+000	 2.412952368381761e-002	 1.118247686397859e+001
 2.724571117586591e+000	 4.834485717102095e-002	 1.119842757289822e+001
 2.724031554715293e+000	 7.264357452313183e-002	 1.120946292050096e+001
 2.723272204597070e+000	 9.702319143322694e-002	 1.121573175639224e+001
 2.722290823273699e+000	 1.214811653296162e-001	 1.121736297868553e+001
 2.721085197177575e+000	 1.460148955226216e-001	 1.121446483732064e+001
 2.719653144708416e+000	 1.706217233953938e-001	 1.120712426541813e+001
 2.717992517820789e+000	 1.952989326396754e-001	 1.119540624118512e+001
 2.716101203621158e+000	 2.200437495373821e-001	 1.117935318289482e+001
 2.713977125973103e+000	 2.448533432888396e-001	 1.115898437945974e+001
 2.750000000000000e+000	 0.000000000000000e+000	 1.116062521187730e+001
 2.749892185866724e+000	 2.435089546050380e-002	 1.117726397588082e+001
 2.749567182885613e+000	 4.878838797035964e-002	 1.118905028491447e+001
 2.749022669896307e+000	 7.331002933477374e-002	 1.119614255140888e+001
 2.748256353263346e+000	 9.791331245501683e-002	 1.119867897383553e+001
 2.747265968441735e+000	 1.225956714330538e-001	 1.119677679958592e+001
 2.746049281555912e+000	 1.473544817196689e-001	 1.119053161475288e+001
 2.744604090990912e+000	 1.721870603070334e-001	 1.118001666339579e+001
 2.742928228994461e+000	 1.970906659666313e-001	 1.116528219888438e+001
 2.741019563288683e+000	 2.220624995334238e-001	 1.114635486992183e+001
 2.738875998690032e+000	 2.470997042370982e-001	 1.112323714384432e+001
 2.489887271520747e+000	 2.246360947537655e-001	 1.143168023407930e+001
 2.487723162468774e+000	 2.474539691632789e-001	 1.146372627138135e+001
 2.485341806631373e+000	 2.703259220703975e-001	 1.149086520166349e+001
 2.482741409353889e+000	 2.932492015515170e-001	 1.151310312735119e+001
 2.479920215642903e+000	 3.162210049612340e-001	 1.153046909706840e+001
 2.476876511656140e+000	 3.392384794576842e-001	 1.154301542223386e+001
 2.473608626191484e+000	 3.622987225744606e-001	 1.155081795078365e+001
 2.470114932173584e+000	 3.853987828395771e-001	 1.155397629614618e+001
 2.466393848136457e+000	 4.085356604418979e-001	 1.155261401965977e+001
 2.462443839700501e+000	 4.317063079453937e-001	 1.154687876469481e+001
 2.458263421042266e+000	 4.549076310515292e-001	 1.153694234082199e+001
 2.514786144237676e+000	 2.268824557021734e-001	 1.136520397073977e+001
 2.512600394095503e+000	 2.499285088544540e-001	 1.139252458936918e+001
 2.510195224699992e+000	 2.730291812895609e-001	 1.141570232024383e+001
 2.507568823449939e+000	 2.961816935646565e-001	 1.143481073989607e+001
 2.504719417801991e+000	 3.193832150078855e-001	 1.144990531019606e+001
 2.501645276775445e+000	 3.426308642489679e-001	 1.146102300766438e+001
 2.498344712456171e+000	 3.659217097968349e-001	 1.147221951512203e+001
 2.494816081498056e+000	 3.892527706647828e-001	 1.148240652849229e+001
 2.491057786620465e+000	 4.126210170435670e-001	 1.148712796873414e+001
 2.487068278099993e+000	 4.360233710228000e-001	 1.148653567125248e+001
 2.482846055254957e+000	 4.594567073609637e-001	 1.148080695711233e+001
 2.539685016954604e+000	 2.291288166505647e-001	 1.134789748489476e+001
 2.537477625722233e+000	 2.524030485457934e-001	 1.137520872017707e+001
 2.535048642768612e+000	 2.757324405090311e-001	 1.139828751324047e+001
 2.532396237545989e+000	 2.991141855782061e-001	 1.141720003463239e+001
 2.529518619961077e+000	 3.225454250550116e-001	 1.143199372968970e+001
 2.526414041894753e+000	 3.460232490407509e-001	 1.144269694622054e+001
 2.523080798720857e+000	 3.695446970196929e-001	 1.144931859933170e+001
 2.519517230822531e+000	 3.931067584904165e-001	 1.145184787528981e+001
 2.515721725104473e+000	 4.167063736455676e-001	 1.145025397625389e+001
 2.511692716499485e+000	 4.403404341004003e-001	 1.144448590765720e+001
 2.507428689467647e+000	 4.640057836704130e-001	 1.143447230994907e+001
 2.564583889671532e+000	 2.313751775989394e-001	 1.132801389131303e+001
 2.562354857348963e+000	 2.548775882372970e-001	 1.135530807447847e+001
 2.559902060837231e+000	 2.784356997288078e-001	 1.137830281678124e+001
 2.557223651642040e+000	 3.020466775921659e-001	 1.139705684707377e+001
 2.554317822120163e+000	 3.257076351026121e-001	 1.141160953234484e+001
 2.551182807014059e+000	 3.494156338330329e-001	 1.142198050339179e+001
 2.547816884985543e+000	 3.731676842430348e-001	 1.142816931903604e+001
 2.544218380147004e+000	 3.969607463164781e-001	 1.143015517081956e+001
 2.540385663588481e+000	 4.207917302478996e-001	 1.142789663006601e+001
 2.536317154898977e+000	 4.446574971781943e-001	 1.142133143912792e+001
 2.532011323680339e+000	 4.685548599798769e-001	 1.141037634857275e+001
 2.589482762388461e+000	 2.336215385472976e-001	 1.130563283672659e+001
 2.587232088975693e+000	 2.573521279289648e-001	 1.133291067667740e+001
 2.584755478905850e+000	 2.811389589488912e-001	 1.135584466084478e+001
 2.582051065738089e+000	 3.049791696065359e-001	 1.137448603513317e+001
 2.579117024279251e+000	 3.288698451506871e-001	 1.138886602060315e+001
 2.575951572133363e+000	 3.528080186258140e-001	 1.139899543675585e+001
 2.572552971250230e+000	 3.767906714668602e-001	 1.140486436479479e+001
 2.568919529471479e+000	 4.008147341429678e-001	 1.140644185285270e+001
 2.565049602072488e+000	 4.248770868505629e-001	 1.140367566511563e+001
 2.560941593298468e+000	 4.489745602561820e-001	 1.139649207671114e+001
 2.556593957893029e+000	 4.731039362893555e-001	 1.138479571615556e+001
 2.614381635105390e+000	 2.358678994956392e-001	 1.128083294601271e+001
 2.612109320602422e+000	 2.598266676207970e-001	 1.130810346338200e+001
 2.609608896974470e+000	 2.838422181692813e-001	 1.133100832977174e+001
 2.606878479834139e+000	 3.079116616213161e-001	 1.134959126144520e+001
 2.603916226438336e+000	 3.320320551992366e-001	 1.136387526028885e+001
 2.600720337252670e+000	 3.562004034190942e-001	 1.137386223433189e+001
 2.597289057514916e+000	 3.804136586911693e-001	 1.137953265971333e+001
 2.593620678795953e+000	 4.046687219698854e-001	 1.138084528613661e+001
 2.589713540556496e+000	 4.289624434535578e-001	 1.137773688779311e+001
 2.585566031697961e+000	 4.532916233343636e-001	 1.137012206166912e+001
 2.581176592105721e+000	 4.776530125988487e-001	 1.135789307507484e+001
 2.639280507822317e+000	 2.381142604439641e-001	 1.125369187039457e+001
 2.636986552229153e+000	 2.623012073127934e-001	 1.128097233471571e+001
 2.634462315043090e+000	 2.865454773899780e-001	 1.130388801630434e+001
 2.631705893930189e+000	 3.108441536365065e-001	 1.132247504974718e+001
 2.628715428597424e+000	 3.351942652482605e-001	 1.133674813893984e+001
 2.625489102371976e+000	 3.595927882128733e-001	 1.134670017446518e+001
 2.622025143779603e+000	 3.840366459159622e-001	 1.135230189392606e+001
 2.618321828120427e+000	 4.085227097972309e-001	 1.135350158732633e+001
 2.614377479040504e+000	 4.330478000568840e-001	 1.135022484953248e+001
 2.610190470097453e+000	 4.576086864127390e-001	 1.134237438177966e+001
 2.605759226318411e+000	 4.822020889083566e-001	 1.132982984410579e+001
 2.664179380539246e+000	 2.403606213922725e-001	 1.122428633293919e+001
 2.661863783855882e+000	 2.647757470049541e-001	 1.125160220275102e+001
 2.659315733111709e+000	 2.892487366109813e-001	 1.127457687259561e+001
 2.656533308026239e+000	 3.137766456521070e-001	 1.129323883809862e+001
 2.653514630756510e+000	 3.383564752977589e-001	 1.130759442086770e+001
 2.650257867491283e+000	 3.629851730071518e-001	 1.131762738235402e+001
 2.646761230044289e+000	 3.876596331412389e-001	 1.132329858221195e+001
 2.643022977444901e+000	 4.123766976250042e-001	 1.132454568330654e+001
 2.639041417524512e+000	 4.371331566605417e-001	 1.132128290545423e+001
 2.634814908496944e+000	 4.619257494913081e-001	 1.131340082991013e+001
 2.630341860531103e+000	 4.867511652178794e-001	 1.130076625653372e+001
 2.689078253256174e+000	 2.426069823405643e-001	 1.119269217152763e+001
 2.686741015482612e+000	 2.672502866972791e-001	 1.122007703725270e+001
 2.684169151180329e+000	 2.919519958322914e-001	 1.124316705838484e+001
 2.681360722122289e+000	 3.167091376681178e-001	 1.126198302914410e+001
 2.678313832915597e+000	 3.415186853477317e-001	 1.127652279915905e+001
 2.675026632610588e+000	 3.663775578019292e-001	 1.128676088343618e+001
 2.671497316308976e+000	 3.912826203669992e-001	 1.129264811840904e+001
 2.667724126769375e+000	 4.162306854532056e-001	 1.129411136627358e+001
 2.663705356008520e+000	 4.412185132645308e-001	 1.129105326975021e+001
 2.659439346896436e+000	 4.662428125700709e-001	 1.128335205933745e+001
 2.654924494743793e+000	 4.913002415274165e-001	 1.127086141503790e+001
 2.713977125973103e+000	 2.448533432888396e-001	 1.115898437945974e+001
 2.711618247109342e+000	 2.697248263897683e-001	 1.118647990890284e+001
 2.709022569248949e+000	 2.946552550539081e-001	 1.120974978652114e+001
 2.706188136218339e+000	 3.196416296845387e-001	 1.122880703760933e+001
 2.703113035074683e+000	 3.446808953981789e-001	 1.124364094481413e+001
 2.699795397729894e+000	 3.697699425972058e-001	 1.125421665383660e+001
 2.696233402573662e+000	 3.949056075932433e-001	 1.126047482683388e+001
 2.692425276093849e+000	 4.200846732818350e-001	 1.126233134578533e+001
 2.688369294492528e+000	 4.453038698688512e-001	 1.125967706801982e+001
 2.684063785295928e+000	 4.705598756490277e-001	 1.125237763602283e+001
 2.679507128956485e+000	 4.958493178369686e-001	 1.124027334355414e+001
 2.738875998690032e+000	 2.470997042370982e-001	 1.112323714384432e+001
 2.736495478736073e+000	 2.721993660824219e-001	 1.115089303016829e+001
 2.733875987317569e+000	 2.973585142758315e-001	 1.117441536600389e+001
 2.731015550314390e+000	 3.225741217013698e-001	 1.119380933520666e+001
 2.727912237233771e+000	 3.478431054491009e-001	 1.120905555320543e+001
 2.724564162849201e+000	 3.731623273929816e-001	 1.122010966806340e+001
 2.720969488838349e+000	 3.985285948199712e-001	 1.122690201089606e+001
 2.717126425418323e+000	 4.239386611108925e-001	 1.122933729797206e+001
 2.713033232976537e+000	 4.493892264735033e-001	 1.122729438675145e+001
 2.708688223695421e+000	 4.748769387281783e-001	 1.122062608803523e+001
 2.704089763169176e+000	 5.003983941465353e-001	 1.120915903630865e+001
 2.458263421042266e+000	 4.549076310515292e-001	 1.153694234082199e+001
 2.453851156354649e+000	 4.781364894097321e-001	 1.157863868781433e+001
 2.449205661297807e+000	 5.013896974771258e-001	 1.161574691874314e+001
 2.444325604437783e+000	 5.246640254268116e-001	 1.164854338383780e+001
 2.439209708669709e+000	 5.479562001042996e-001	 1.167732978963192e+001
 2.433856752625838e+000	 5.712629060330332e-001	 1.170243300233604e+001
 2.428265572065929e+000	 5.945807864685846e-001	 1.172420479145486e+001
 2.422435061248221e+000	 6.179064445013772e-001	 1.174302151274562e+001
 2.416364174279133e+000	 6.412364442077186e-001	 1.173564189238421e+001
 2.410051926439910e+000	 6.645673118488594e-001	 1.171854701636332e+001
 2.403497395488342e+000	 6.878955371177123e-001	 1.170261553672238e+001
 2.482846055254957e+000	 4.594567073609637e-001	 1.148080695711233e+001
 2.478389667920199e+000	 4.829178543038031e-001	 1.152749208142736e+001
 2.473697717912495e+000	 5.064035944528337e-001	 1.156874773495095e+001
 2.468768860483547e+000	 5.299106656828868e-001	 1.160485886862631e+001
 2.463601805757440e+000	 5.534357621079269e-001	 1.163613706338433e+001
 2.458195320152747e+000	 5.769755350966310e-001	 1.166292033509550e+001
 2.452548227786828e+000	 6.005265943371261e-001	 1.168557287749215e+001
 2.446659411860499e+000	 6.240855089507389e-001	 1.170448474210843e+001
 2.440527816021248e+000	 6.476488086545392e-001	 1.168973162232988e+001
 2.434152445703129e+000	 6.712129849723892e-001	 1.167449716633544e+001
 2.427532369441510e+000	 6.947744924941302e-001	 1.166009482469040e+001
 2.507428689467647e+000	 4.640057836704130e-001	 1.143447230994907e+001
 2.502928179485754e+000	 4.876992191976984e-001	 1.147911451513703e+001
 2.498189774527202e+000	 5.114174914281946e-001	 1.152059519339262e+001
 2.493212116529356e+000	 5.351573059384637e-001	 1.155960557638933e+001
 2.487993902845249e+000	 5.589153241109239e-001	 1.159295309198486e+001
 2.482533887679780e+000	 5.826881641594864e-001	 1.162098746946285e+001
 2.476830883507902e+000	 6.064724022048329e-001	 1.164408591295699e+001
 2.470883762473018e+000	 6.302645733991935e-001	 1.165578263285186e+001
 2.464691457763677e+000	 6.540611731004011e-001	 1.164193446447310e+001
 2.458252964966745e+000	 6.778586580949292e-001	 1.162859039270087e+001
 2.451567343395171e+000	 7.016534478695476e-001	 1.161575713394439e+001
 2.532011323680339e+000	 4.685548599798769e-001	 1.141037634857275e+001
 2.527466691051314e+000	 4.924805840914179e-001	 1.145550411060872e+001
 2.522681831141929e+000	 5.164313884032088e-001	 1.149544068416603e+001
 2.517655372575207e+000	 5.404039461935420e-001	 1.153006867172802e+001
 2.512385999933136e+000	 5.643948861132904e-001	 1.155925068086853e+001
 2.506872455206933e+000	 5.884007932215990e-001	 1.158282940334646e+001
 2.501113539229152e+000	 6.124182100717047e-001	 1.160062774698406e+001
 2.495108113085776e+000	 6.364436378467416e-001	 1.160391707610454e+001
 2.488855099506419e+000	 6.604735375453046e-001	 1.159229702346258e+001
 2.482353484230762e+000	 6.845043312164799e-001	 1.158087378458104e+001
 2.475602317349326e+000	 7.085324032439653e-001	 1.156964986311375e+001
 2.556593957893029e+000	 4.731039362893555e-001	 1.138479571615556e+001
 2.552005202616878e+000	 4.972619489849618e-001	 1.143057043533332e+001
 2.547173887756675e+000	 5.214452853778763e-001	 1.147107900725161e+001
 2.542098628621103e+000	 5.456505864481217e-001	 1.150618910845575e+001
 2.536778097021101e+000	 5.698744481150264e-001	 1.153574773049567e+001
 2.531211022734208e+000	 5.941134222829688e-001	 1.155958127241381e+001
 2.525396194950578e+000	 6.183640179377415e-001	 1.157749568789923e+001
 2.519332463698774e+000	 6.426227022933825e-001	 1.157080283712484e+001
 2.513018741249476e+000	 6.668859019892494e-001	 1.155538409112713e+001
 2.506454003495176e+000	 6.911500043370408e-001	 1.153890897132832e+001
 2.499637291303976e+000	 7.154113586173830e-001	 1.152181887974335e+001
 2.581176592105721e+000	 4.776530125988487e-001	 1.135789307507484e+001
 2.576543714182448e+000	 5.020433138783298e-001	 1.140448626785709e+001
 2.571665944371440e+000	 5.264591823521967e-001	 1.144575777360982e+001
 2.566541884667042e+000	 5.508972267022031e-001	 1.148156003051814e+001
 2.561170194109143e+000	 5.753540101161319e-001	 1.151172407421653e+001
 2.555549590261605e+000	 5.998260513435958e-001	 1.153605964373101e+001
 2.549678850672179e+000	 6.243098258029435e-001	 1.155435534401866e+001
 2.543556814312013e+000	 6.488017667391168e-001	 1.154393532032140e+001
 2.537182382992848e+000	 6.732982664322361e-001	 1.153141434130703e+001
 2.530554522759990e+000	 6.977956774566119e-001	 1.151752078848412e+001
 2.523672265259118e+000	 7.222903139898007e-001	 1.150225814519881e+001
 2.605759226318411e+000	 4.822020889083566e-001	 1.132982984410579e+001
 2.601082225748022e+000	 5.068246787715222e-001	 1.137742309673265e+001
 2.596158000986225e+000	 5.314730793261705e-001	 1.141965856426397e+001
 2.590985140713025e+000	 5.561438669557858e-001	 1.145637312621893e+001
 2.585562291197262e+000	 5.808335721166066e-001	 1.148738151431143e+001
 2.579888157789124e+000	 6.055386804034804e-001	 1.151247643191218e+001
 2.573961506393957e+000	 6.302556336673109e-001	 1.152642393176028e+001
 2.567781164925491e+000	 6.549808311839440e-001	 1.151833094416033e+001
 2.561346024736534e+000	 6.797106308742639e-001	 1.150855019149991e+001
 2.554655042025202e+000	 7.044413505751935e-001	 1.149709090933317e+001
 2.547707239214755e+000	 7.291692693612185e-001	 1.148395845762912e+001
 2.630341860531103e+000	 4.867511652178794e-001	 1.130076625653372e+001
 2.625620737313602e+000	 5.116060436645390e-001	 1.134955118079917e+001
 2.620650057601029e+000	 5.364869762997971e-001	 1.139296169285993e+001
 2.615428396759052e+000	 5.613905072088702e-001	 1.143081878545286e+001
 2.609954388285460e+000	 5.863131341164509e-001	 1.146292053032211e+001
 2.604226725316765e+000	 6.112513094626219e-001	 1.148904221127177e+001
 2.598244162115911e+000	 6.362014415308429e-001	 1.149910039449297e+001
 2.592005515539210e+000	 6.611598956278643e-001	 1.149388313850817e+001
 2.585509666480534e+000	 6.861229953153334e-001	 1.148668027376496e+001
 2.578755561290814e+000	 7.110870236927859e-001	 1.147750306153053e+001
 2.571742213170885e+000	 7.360482247316361e-001	 1.146635900505111e+001
 2.654924494743793e+000	 4.913002415274165e-001	 1.127086141503790e+001
 2.650159248879185e+000	 5.163874085573799e-001	 1.132103960611347e+001
 2.645142114215853e+000	 5.415008732730773e-001	 1.136584626434114e+001
 2.639871652805121e+000	 5.666371474614558e-001	 1.140508615981728e+001
 2.634346485373736e+000	 5.917926961156648e-001	 1.143854034028958e+001
 2.628565292844527e+000	 6.169639385210209e-001	 1.146596627787551e+001
 2.622526817838040e+000	 6.421472493935403e-001	 1.147300246124448e+001
 2.616229866153168e+000	 6.673389600708778e-001	 1.147048404109160e+001
 2.609673308224849e+000	 6.925353597554443e-001	 1.146569193099007e+001
 2.602856080556825e+000	 7.177326968093883e-001	 1.145863969320697e+001
 2.595777187127509e+000	 7.429271801010537e-001	 1.144933724341273e+001
 2.679507128956485e+000	 4.958493178369686e-001	 1.124027334355414e+001
 2.674697760444774e+000	 5.211687734500451e-001	 1.129205633974748e+001
 2.669634170830695e+000	 5.465147702460103e-001	 1.133849023039352e+001
 2.664314908851234e+000	 5.718837877135431e-001	 1.137936321941475e+001
 2.658738582462090e+000	 5.972722581142482e-001	 1.141443895862122e+001
 2.652903860372412e+000	 6.226765675786771e-001	 1.144345670817566e+001
 2.646809473560346e+000	 6.480930572554027e-001	 1.144802573284973e+001
 2.640454216767367e+000	 6.735180245129844e-001	 1.144802455676975e+001
 2.633836949969478e+000	 6.989477241945967e-001	 1.144547127602795e+001
 2.626956599823234e+000	 7.243783699250014e-001	 1.144038203166280e+001
 2.619812161084627e+000	 7.498061354694716e-001	 1.143276942345381e+001
 2.704089763169176e+000	 5.003983941465353e-001	 1.120915903630865e+001
 2.699236272010369e+000	 5.259501383425348e-001	 1.126276828065103e+001
 2.694126227445558e+000	 5.515286672185968e-001	 1.131107044186643e+001
 2.688758164897393e+000	 5.771304279651320e-001	 1.135383680655735e+001
 2.683130679550521e+000	 6.027518201122010e-001	 1.139081325080131e+001
 2.677242427900419e+000	 6.283891966355910e-001	 1.141889186036874e+001
 2.671092129282827e+000	 6.540388651164306e-001	 1.142406463664806e+001
 2.664678567381806e+000	 6.796970889541845e-001	 1.142639441357380e+001
 2.658000591714422e+000	 7.053600886327910e-001	 1.142590324760698e+001
 2.651057119090043e+000	 7.310240430396249e-001	 1.142261013886016e+001
 2.643847135042239e+000	 7.566850908368894e-001	 1.141653064548820e+001
 2.403497395488342e+000	 6.878955371177123e-001	 1.170261553672238e+001
 2.396699722934155e+000	 7.112175744331118e-001	 1.175053812879985e+001
 2.389658115285039e+000	 7.345298442800079e-001	 1.179283373368512e+001
 2.382371845262166e+000	 7.578287345960117e-001	 1.182937938497042e+001
 2.374840252984291e+000	 7.811106022040244e-001	 1.186005107608696e+001
 2.367062747117389e+000	 8.043717742891899e-001	 1.188472390376710e+001
 2.359038805988396e+000	 8.276085499197398e-001	 1.190327221956018e+001
 2.350767978661281e+000	 8.508172016108216e-001	 1.191556978932040e+001
 2.342249885973674e+000	 8.739939769303399e-001	 1.192148996055963e+001
 2.333484221532295e+000	 8.971351001457417e-001	 1.192090583753077e+001
 2.324470752665467e+000	 9.202367739106158e-001	 1.191369046388071e+001
 2.427532369441510e+000	 6.947744924941302e-001	 1.166009482469040e+001
 2.420666720161247e+000	 7.183297501827995e-001	 1.170715164856472e+001
 2.413554696435142e+000	 7.418751427282125e-001	 1.174876713258669e+001
 2.406195563711574e+000	 7.654070219473556e-001	 1.178482296824548e+001
 2.398588655510490e+000	 7.889217082313587e-001	 1.181519961872718e+001
 2.390733374584523e+000	 8.124154920372165e-001	 1.183977645638063e+001
 2.382629194043878e+000	 8.358846354238425e-001	 1.185843190849932e+001
 2.374275658443166e+000	 8.593253736315351e-001	 1.187104361135216e+001
 2.365672384828394e+000	 8.827339167038776e-001	 1.187748857236954e+001
 2.356819063742346e+000	 9.061064511509912e-001	 1.187764334036346e+001
 2.347715460186632e+000	 9.294391416530003e-001	 1.187138418363312e+001
 2.451567343395171e+000	 7.016534478695476e-001	 1.161575713394439e+001
 2.444633717388931e+000	 7.254419259314924e-001	 1.166218027858147e+001
 2.437451277585918e+000	 7.492204411754367e-001	 1.170334778682383e+001
 2.430019282161732e+000	 7.729853092977436e-001	 1.173914584424972e+001
 2.422337058037504e+000	 7.967328142577711e-001	 1.176945921601813e+001
 2.414404002052529e+000	 8.204592097843656e-001	 1.179417137845783e+001
 2.406219582100278e+000	 8.441607209271218e-001	 1.181316465924421e+001
 2.397783338226006e+000	 8.678335456514897e-001	 1.182632038611120e+001
 2.389094883684093e+000	 8.914738564767308e-001	 1.183351904401807e+001
 2.380153905953393e+000	 9.150778021556408e-001	 1.183464044066294e+001
 2.370960167708796e+000	 9.386415093948796e-001	 1.182956388020689e+001
 2.475602317349326e+000	 7.085324032439653e-001	 1.156964986311375e+001
 2.468600714617200e+000	 7.325541016791896e-001	 1.161566624428369e+001
 2.461347858737369e+000	 7.565657396216802e-001	 1.165661285853767e+001
 2.453843000612641e+000	 7.805635966471755e-001	 1.169238022413954e+001
 2.446085460565335e+000	 8.045439202832618e-001	 1.172285724278170e+001
 2.438074629521406e+000	 8.285029275306373e-001	 1.174793132541414e+001
 2.429809970157598e+000	 8.524368064295778e-001	 1.176748852694281e+001
 2.421291018009799e+000	 8.763417176706853e-001	 1.178141368975838e+001
 2.412517382540770e+000	 9.002137962488995e-001	 1.178959059602891e+001
 2.403488748165434e+000	 9.240491531596906e-001	 1.179190212866134e+001
 2.394204875231962e+000	 9.478438771362537e-001	 1.178823044080764e+001
 2.499637291303976e+000	 7.154113586173830e-001	 1.152181887974335e+001
 2.492567711846060e+000	 7.396662774258920e-001	 1.156765047213898e+001
 2.485244439889495e+000	 7.639110380669433e-001	 1.160859844016640e+001
 2.477666719064299e+000	 7.881418839956510e-001	 1.164455747565497e+001
 2.469833863093983e+000	 8.123550263078306e-001	 1.167542045361249e+001
 2.461745256991154e+000	 8.365466452760306e-001	 1.170107855240902e+001
 2.453400358215832e+000	 8.607128919312104e-001	 1.172142138312073e+001
 2.444798697794545e+000	 8.848498896891213e-001	 1.173633712800908e+001
 2.435939881398428e+000	 9.089537360203835e-001	 1.174571268808244e+001
 2.426823590378469e+000	 9.330205041631401e-001	 1.174943383965764e+001
 2.417449582756126e+000	 9.570462448771225e-001	 1.174738539981000e+001
 2.523672265259118e+000	 7.222903139898007e-001	 1.150225814519881e+001
 2.516534709075509e+000	 7.467784531715990e-001	 1.153977826337971e+001
 2.509141021042295e+000	 7.712563365112256e-001	 1.157164659757497e+001
 2.501490437516708e+000	 7.957201713431703e-001	 1.159777134375552e+001
 2.493582265623444e+000	 8.201661323314774e-001	 1.162717501241257e+001
 2.485415884461776e+000	 8.445903630205471e-001	 1.165363493340577e+001
 2.476990746274987e+000	 8.689889774320194e-001	 1.167498092442506e+001
 2.468306377580246e+000	 8.933580617067989e-001	 1.169110433472591e+001
 2.459362380257065e+000	 9.176936757911830e-001	 1.170189500762734e+001
 2.450158432592499e+000	 9.419918551659895e-001	 1.170724143282409e+001
 2.440694290281292e+000	 9.662486126174865e-001	 1.170703090793996e+001
 2.547707239214755e+000	 7.291692693612185e-001	 1.148395845762912e+001
 2.540501706305546e+000	 7.538906289163111e-001	 1.152210691289915e+001
 2.533037602195769e+000	 7.786016349545277e-001	 1.155478180628039e+001
 2.525314155969867e+000	 8.032984586897338e-001	 1.158190133901375e+001
 2.517330668153723e+000	 8.279772383542029e-001	 1.160338087748630e+001
 2.509086511933269e+000	 8.526340807641855e-001	 1.161913272191444e+001
 2.500581134335058e+000	 8.772650629320049e-001	 1.162906587922548e+001
 2.491814057366899e+000	 9.018662337237169e-001	 1.164572897059096e+001
 2.482784879116681e+000	 9.264336155612974e-001	 1.165814745913679e+001
 2.473493274807525e+000	 9.509632061682394e-001	 1.166533117121207e+001
 2.463938997807456e+000	 9.754509803573452e-001	 1.166716970320177e+001
 2.571742213170885e+000	 7.360482247316361e-001	 1.146635900505111e+001
 2.564468703536172e+000	 7.610028046600280e-001	 1.150516224536771e+001
 2.556934183349918e+000	 7.859469333968490e-001	 1.153867248290342e+001
 2.549137874423777e+000	 8.108767460353411e-001	 1.156681804085885e+001
 2.541079070684818e+000	 8.357883443760059e-001	 1.158952418529412e+001
 2.532757139405635e+000	 8.606777985069465e-001	 1.160671287232992e+001
 2.524171522396048e+000	 8.855411484311675e-001	 1.161830249959830e+001
 2.515321737154507e+000	 9.103744057398759e-001	 1.162420766296776e+001
 2.506207377977276e+000	 9.351735553307278e-001	 1.162433891957999e+001
 2.496828117023545e+000	 9.599345571698892e-001	 1.162370970287937e+001
 2.487183705334621e+000	 9.846533480966988e-001	 1.162780508343495e+001
 2.595777187127509e+000	 7.429271801010537e-001	 1.144933724341273e+001
 2.588435700767387e+000	 7.681149804027497e-001	 1.148881225244854e+001
 2.580830764504741e+000	 7.932922318381895e-001	 1.152317730087475e+001
 2.572961592878435e+000	 8.184550333799919e-001	 1.155237095675132e+001
 2.564827473216729e+000	 8.435994503968872e-001	 1.157632850425890e+001
 2.556427766878872e+000	 8.687215162488298e-001	 1.159498166907608e+001
 2.547761910457956e+000	 8.938172339295067e-001	 1.160825834806045e+001
 2.538829416943069e+000	 9.188825777552763e-001	 1.161608234430913e+001
 2.529629876838851e+000	 9.439134950994733e-001	 1.161837310868869e+001
 2.520162959240561e+000	 9.689059081709387e-001	 1.161504548893508e+001
 2.510428412862785e+000	 9.938557158355472e-001	 1.160600948743142e+001
 2.619812161084627e+000	 7.498061354694716e-001	 1.143276942345381e+001
 2.612402697999191e+000	 7.752271561444764e-001	 1.147292390331098e+001
 2.604727345660238e+000	 8.006375302785499e-001	 1.150815409159795e+001
 2.596785311333844e+000	 8.260333207236867e-001	 1.153840893024830e+001
 2.588575875749454e+000	 8.514105564168468e-001	 1.156363384606408e+001
 2.580098394352980e+000	 8.767652339898355e-001	 1.158377045392026e+001
 2.571352298520780e+000	 9.020933194270222e-001	 1.159875626432931e+001
 2.562337096732584e+000	 9.273907497699173e-001	 1.160852439649363e+001
 2.553052375701406e+000	 9.526534348675341e-001	 1.161300329798925e+001
 2.543497801458570e+000	 9.778772591713884e-001	 1.161211647223580e+001
 2.533673120391951e+000	 1.003058083573891e+000	 1.160578221491470e+001
 2.643847135042239e+000	 7.566850908368894e-001	 1.141653064548820e+001
 2.636369695231585e+000	 7.823393318852079e-001	 1.145736319110746e+001
 2.628623926816410e+000	 8.079828287179298e-001	 1.149345988272341e+001
 2.620609029790005e+000	 8.336116080664259e-001	 1.152478017118087e+001
 2.612324278282998e+000	 8.592216624358847e-001	 1.155127975636685e+001
 2.603769021827961e+000	 8.848089517299637e-001	 1.157291026788557e+001
 2.594942686584524e+000	 9.103694049237150e-001	 1.158961895015214e+001
 2.585844776523054e+000	 9.358989217837995e-001	 1.160134835308589e+001
 2.576474874564940e+000	 9.613933746349105e-001	 1.160803602960114e+001
 2.566832643677576e+000	 9.868486101712384e-001	 1.160961424110497e+001
 2.556917827922116e+000	 1.012260451311729e+000	 1.160600967222051e+001
 2.324470752665467e+000	 9.202367739106158e-001	 1.191369046388071e+001
 2.315209321330897e+000	 9.432951809896923e-001	 1.194749187624379e+001
 2.305699844977406e+000	 9.663064860216959e-001	 1.197709480170403e+001
 2.295942317358883e+000	 9.892668373179069e-001	 1.200238845336353e+001
 2.285936809298535e+000	 1.012172368694827e+000	 1.202326048324578e+001
 2.275683469402266e+000	 1.035019201340096e+000	 1.203959715206989e+001
 2.265182524719623e+000	 1.057803445709805e+000	 1.205128350737158e+001
 2.254434281350881e+000	 1.080521203455543e+000	 1.205820356972832e+001
 2.243439124998900e+000	 1.103168569379458e+000	 1.206024052681545e+001
 2.232197521464457e+000	 1.125741633415526e+000	 1.205727693499114e+001
 2.220710017083810e+000	 1.148236482635196e+000	 1.204919492807771e+001
 2.347715460186632e+000	 9.294391416530003e-001	 1.187138418363312e+001
 2.338361414538539e+000	 9.527281328023738e-001	 1.190642024771357e+001
 2.328756843421378e+000	 9.759695508843156e-001	 1.193713672199486e+001
 2.318901740526580e+000	 9.991595056932201e-001	 1.196341862939760e+001
 2.308796177385584e+000	 1.022294092383755e+000	 1.198514942757280e+001
 2.298440304090351e+000	 1.045369393355436e+000	 1.200221118555957e+001
 2.287834349960926e+000	 1.068381480168917e+000	 1.201448476899736e+001
 2.276978624158587e+000	 1.091326415492303e+000	 1.202185003363858e+001
 2.265873516243221e+000	 1.114200255075764e+000	 1.202418602687690e+001
 2.254519496673615e+000	 1.136999049752617e+000	 1.202137119697555e+001
 2.242917117249388e+000	 1.159718847465025e+000	 1.201328360965010e+001
 2.370960167708796e+000	 9.386415093948796e-001	 1.182956388020689e+001
 2.361513507747179e+000	 9.621610846146400e-001	 1.186589648241361e+001
 2.351813841866350e+000	 9.856326157465909e-001	 1.189779303997724e+001
 2.341861163695278e+000	 1.009052174068240e+000	 1.192513429777222e+001
 2.331655545473632e+000	 1.032415816072421e+000	 1.194779942582934e+001
 2.321197138779436e+000	 1.055719585370526e+000	 1.196566620296006e+001
 2.310486175203230e+000	 1.078959514627770e+000	 1.197861120915306e+001
 2.299522966967292e+000	 1.102131627528775e+000	 1.198651002647758e+001
 2.288307907488542e+000	 1.125231940771733e+000	 1.198923744819683e+001
 2.276841471883772e+000	 1.148256466089301e+000	 1.198666769576254e+001
 2.265124217415967e+000	 1.171201212294357e+000	 1.197867464333140e+001
 2.394204875231962e+000	 9.478438771362537e-001	 1.178823044080764e+001
 2.384665600956820e+000	 9.715940364264912e-001	 1.182592223953966e+001
 2.374870840312322e+000	 9.952956806085219e-001	 1.185906613151345e+001
 2.364820586864974e+000	 1.018944842442967e+000	 1.188753849419113e+001
 2.354514913562681e+000	 1.042537539760825e+000	 1.191121411523790e+001
 2.343953973469521e+000	 1.066069777385365e+000	 1.192996638319819e+001
 2.333138000446533e+000	 1.089537549086364e+000	 1.194366748717165e+001
 2.322067309776998e+000	 1.112936839564960e+000	 1.195218862521253e+001
 2.310742298734863e+000	 1.136263626467365e+000	 1.195540022114307e+001
 2.299163447094931e+000	 1.159513882425579e+000	 1.195317214943943e+001
 2.287331317583545e+000	 1.182683577123193e+000	 1.194537396781631e+001
 2.417449582756126e+000	 9.570462448771225e-001	 1.174738539981000e+001
 2.407817694167462e+000	 9.810269882379279e-001	 1.178649984110053e+001
 2.397927838759294e+000	 1.004958745470109e+000	 1.182095905404759e+001
 2.387780010035672e+000	 1.028837510817401e+000	 1.185063495784336e+001
 2.377374281652729e+000	 1.052659263448967e+000	 1.187539786155278e+001
 2.366710808160607e+000	 1.076419969399953e+000	 1.189511666192860e+001
 2.355789825690835e+000	 1.100115583544698e+000	 1.190965905046404e+001
 2.344611652587703e+000	 1.123742051600855e+000	 1.191889172939524e+001
 2.333176689982184e+000	 1.147295312162660e+000	 1.192268063633202e+001
 2.321485422307088e+000	 1.170771298761451e+000	 1.192089117716213e+001
 2.309538417752123e+000	 1.194165941951533e+000	 1.191338846684082e+001
 2.440694290281292e+000	 9.662486126174865e-001	 1.170703090793996e+001
 2.430969787379103e+000	 9.904599400489497e-001	 1.174763224035557e+001
 2.420984837207266e+000	 1.014621810331352e+000	 1.178347551414925e+001
 2.410739433207369e+000	 1.038730179191542e+000	 1.181442809790386e+001
 2.400233649743777e+000	 1.062780987136847e+000	 1.184035572436806e+001
 2.389467642852691e+000	 1.086770161414292e+000	 1.186112269549917e+001
 2.378441650936139e+000	 1.110693618002774e+000	 1.187659209699151e+001
 2.367155995399409e+000	 1.134547263636464e+000	 1.188662602199143e+001
 2.355611081230505e+000	 1.158326997857618e+000	 1.189108580366449e+001
 2.343807397520246e+000	 1.182028715096916e+000	 1.188983225624717e+001
 2.331745517921702e+000	 1.205648306779377e+000	 1.188272592418031e+001
 2.463938997807456e+000	 9.754509803573452e-001	 1.166716970320177e+001
 2.454121880591744e+000	 9.998928918595564e-001	 1.170932299203872e+001
 2.444041835656238e+000	 1.024284875192251e+000	 1.174661983689440e+001
 2.433698856380066e+000	 1.048622847565389e+000	 1.177892296193048e+001
 2.423093017835825e+000	 1.072902710824465e+000	 1.180609342438940e+001
 2.412224477545777e+000	 1.097120353428379e+000	 1.182799082695592e+001
 2.401093476182442e+000	 1.121271652460590e+000	 1.184447353986239e+001
 2.389700338212114e+000	 1.145352475671784e+000	 1.185539893242726e+001
 2.378045472479826e+000	 1.169358683552239e+000	 1.186062361368023e+001
 2.366129372734403e+000	 1.193286131431975e+000	 1.186000368169244e+001
 2.353952618092280e+000	 1.217130671606725e+000	 1.185339498119487e+001
 2.487183705334621e+000	 9.846533480966988e-001	 1.162780508343495e+001
 2.477273973805385e+000	 1.009325843669748e+000	 1.167157622425223e+001
 2.467098834106210e+000	 1.033947940052805e+000	 1.171039693696327e+001
 2.456658279553763e+000	 1.058515515938944e+000	 1.174412520603293e+001
 2.445952385928873e+000	 1.083024434511822e+000	 1.177261731254087e+001
 2.434981312239862e+000	 1.107470545442217e+000	 1.179572805395445e+001
 2.423745301429745e+000	 1.131849686918147e+000	 1.181331097391400e+001
 2.412244681025820e+000	 1.156157687706816e+000	 1.182521860170798e+001
 2.400479863730147e+000	 1.180390369246524e+000	 1.183130270107937e+001
 2.388451347949561e+000	 1.204543547766627e+000	 1.183141452796767e+001
 2.376159718263858e+000	 1.228613036433577e+000	 1.182540509675524e+001
 2.510428412862785e+000	 9.938557158355472e-001	 1.160600948743142e+001
 2.500426067020026e+000	 1.018758795479525e+000	 1.163510082380566e+001
 2.490155832557182e+000	 1.043611004913016e+000	 1.167481229134380e+001
 2.479617702728460e+000	 1.068408184312205e+000	 1.171004106669913e+001
 2.468811754022922e+000	 1.093146158198917e+000	 1.173993434078821e+001
 2.457738146934946e+000	 1.117820737455803e+000	 1.176434199845384e+001
 2.446397126678049e+000	 1.142427721375445e+000	 1.178311264415108e+001
 2.434789023840525e+000	 1.166962899741561e+000	 1.179609384947446e+001
 2.422914254981468e+000	 1.191422054940471e+000	 1.180313241027070e+001
 2.410773323165719e+000	 1.215800964100874e+000	 1.180407461292789e+001
 2.398366818436436e+000	 1.240095401259933e+000	 1.179876650939506e+001
 2.533673120391951e+000	 1.003058083573891e+000	 1.160578221491470e+001
 2.523578160235667e+000	 1.028191747288888e+000	 1.163672196570446e+001
 2.513212831009154e+000	 1.053274069772882e+000	 1.166183787761500e+001
 2.502577125904157e+000	 1.078300852685173e+000	 1.168098942932058e+001
 2.491671122117970e+000	 1.103267881885750e+000	 1.170805203456817e+001
 2.480494981631032e+000	 1.128170929469140e+000	 1.173384087807893e+001
 2.469048951927352e+000	 1.153005755832484e+000	 1.175388741592166e+001
 2.457333366656231e+000	 1.177768111776017e+000	 1.176803414287310e+001
 2.445348646233790e+000	 1.202453740634082e+000	 1.177612276281607e+001
 2.433095298382876e+000	 1.227058380434714e+000	 1.177799446371313e+001
 2.420573918610014e+000	 1.251577766085793e+000	 1.177329823268545e+001
 2.556917827922116e+000	 1.012260451311729e+000	 1.160600967222051e+001
 2.546730253452309e+000	 1.037624699097835e+000	 1.163869993875093e+001
 2.536269829462126e+000	 1.062937134632405e+000	 1.166555379242318e+001
 2.525536549080854e+000	 1.088193521057849e+000	 1.168643201382934e+001
 2.514530490214018e+000	 1.113389605572321e+000	 1.170118865903322e+001
 2.503251816328118e+000	 1.138521121482225e+000	 1.170967088295789e+001
 2.491700777177656e+000	 1.163583790289264e+000	 1.172564474671959e+001
 2.479877709472937e+000	 1.188573323810186e+000	 1.174104956712380e+001
 2.467783037487111e+000	 1.213485426327355e+000	 1.175028442665083e+001
 2.455417273601035e+000	 1.238315796768148e+000	 1.175318528450820e+001
 2.442781018784593e+000	 1.263060130911157e+000	 1.174638110732862e+001
 2.220710017083810e+000	 1.148236482635196e+000	 1.204919492807771e+001
 2.208977239107448e+000	 1.170649203275409e+000	 1.205956215129264e+001
 2.196999896018612e+000	 1.192975882787095e+000	 1.206393432876874e+001
 2.184778777790678e+000	 1.215212611902256e+000	 1.206209365707786e+001
 2.172314756082764e+000	 1.237355486717287e+000	 1.205382255111758e+001
 2.159608784372368e+000	 1.259400610790523e+000	 1.205219804165246e+001
 2.146661898024329e+000	 1.281344097251810e+000	 1.206449549306695e+001
 2.133475214295431e+000	 1.303182070921885e+000	 1.207399611125464e+001
 2.120049932274017e+000	 1.324910670439300e+000	 1.208067800866142e+001
 2.106387332754107e+000	 1.346526050392598e+000	 1.208452108312471e+001
 2.092488778043565e+000	 1.368024383455396e+000	 1.208550702757290e+001
 2.242917117249388e+000	 1.159718847465025e+000	 1.201328360965010e+001
 2.231067011493503e+000	 1.182355695312165e+000	 1.202090272705028e+001
 2.218969894973999e+000	 1.204905641619348e+000	 1.202274687754708e+001
 2.206626565563987e+000	 1.227364738025891e+000	 1.201861169974105e+001
 2.194037903639175e+000	 1.249729041589153e+000	 1.200829290291082e+001
 2.181204872211835e+000	 1.271994616903054e+000	 1.201995110530301e+001
 2.168128517000457e+000	 1.294157538228736e+000	 1.202950435207831e+001
 2.154809966434391e+000	 1.316213891635143e+000	 1.203662463435288e+001
 2.141250431592866e+000	 1.338159777147213e+000	 1.204130976172743e+001
 2.127451206077836e+000	 1.359991310899372e+000	 1.204355917510005e+001
 2.113413665820249e+000	 1.381704627291974e+000	 1.204337393415574e+001
 2.265124217415967e+000	 1.171201212294357e+000	 1.197867464333140e+001
 2.253156783880558e+000	 1.194062187348341e+000	 1.198416822757958e+001
 2.240939893930387e+000	 1.216835400450964e+000	 1.198410377201980e+001
 2.228474353338295e+000	 1.239516864148863e+000	 1.197828995150471e+001
 2.215761051196586e+000	 1.262102596460361e+000	 1.197950959333608e+001
 2.202800960052304e+000	 1.284588623014960e+000	 1.198892947326453e+001
 2.189595135977586e+000	 1.306970979205100e+000	 1.199625933910219e+001
 2.176144718574352e+000	 1.329245712347933e+000	 1.200151494549042e+001
 2.162450930912714e+000	 1.351408883854781e+000	 1.200471355816814e+001
 2.148515079402566e+000	 1.373456571405956e+000	 1.200587392300170e+001
 2.134338553597934e+000	 1.395384871128547e+000	 1.200501623148155e+001
 2.287331317583545e+000	 1.182683577123193e+000	 1.194537396781631e+001
 2.275246556268613e+000	 1.205768679383935e+000	 1.194934963339764e+001
 2.262909892887774e+000	 1.228765159281942e+000	 1.194798115949274e+001
 2.250322141113604e+000	 1.251668990271171e+000	 1.194252326799935e+001
 2.237484198754997e+000	 1.274476151330909e+000	 1.195167985434611e+001
 2.224397047893772e+000	 1.297182629126240e+000	 1.195904708435227e+001
 2.211061754955715e+000	 1.319784420180902e+000	 1.196465862887047e+001
 2.197479470715314e+000	 1.342277533060254e+000	 1.196854959232055e+001
 2.183651430233561e+000	 1.364657990562005e+000	 1.197075646365873e+001
 2.169578952728295e+000	 1.386921831912349e+000	 1.197131706368521e+001
 2.155263441376618e+000	 1.409065114965114e+000	 1.197027048875813e+001
 2.309538417752123e+000	 1.194165941951533e+000	 1.191338846684082e+001
 2.297336328657668e+000	 1.217475171418948e+000	 1.191643949834688e+001
 2.284879891846162e+000	 1.240694918112283e+000	 1.191435738452576e+001
 2.272169928889913e+000	 1.263821116392816e+000	 1.191712470352537e+001
 2.259207346314407e+000	 1.286849706200797e+000	 1.192441277036965e+001
 2.245993135736240e+000	 1.309776635236893e+000	 1.193022191718662e+001
 2.232528373934845e+000	 1.332597861156142e+000	 1.193460503932996e+001
 2.218814222857275e+000	 1.355309353772107e+000	 1.193761636322325e+001
 2.204851929555409e+000	 1.377907097268883e+000	 1.193931137591100e+001
 2.190642826055024e+000	 1.400387092418552e+000	 1.193974675084933e+001
 2.176188329156302e+000	 1.422745358801676e+000	 1.193898027004030e+001
 2.331745517921702e+000	 1.205648306779377e+000	 1.188272592418031e+001
 2.319426101047722e+000	 1.229181663453380e+000	 1.188543187467488e+001
 2.306849890805548e+000	 1.252624676941988e+000	 1.188459400746283e+001
 2.294017716667222e+000	 1.275973242513798e+000	 1.189174113413960e+001
 2.280930493874819e+000	 1.299223261070026e+000	 1.189764487141928e+001
 2.267589223579709e+000	 1.322370641346921e+000	 1.190237579782148e+001
 2.253994992914973e+000	 1.345411302130818e+000	 1.190600581053688e+001
 2.240148975000236e+000	 1.368341174483491e+000	 1.190860803774686e+001
 2.226052428878257e+000	 1.391156203975418e+000	 1.191025674695740e+001
 2.211706699382754e+000	 1.413852352924566e+000	 1.191102724947205e+001
 2.197113216936987e+000	 1.436425602638232e+000	 1.191099580114195e+001
 2.353952618092280e+000	 1.217130671606725e+000	 1.185339498119487e+001
 2.341515873438778e+000	 1.240888155487230e+000	 1.185632224235475e+001
 2.328819889765936e+000	 1.264554435771055e+000	 1.186037675434564e+001
 2.315865504445531e+000	 1.288125368634117e+000	 1.186632646009494e+001
 2.302653641436230e+000	 1.311596815938595e+000	 1.187131580081508e+001
 2.289185311424177e+000	 1.334964647456323e+000	 1.187543421826151e+001
 2.275461611896103e+000	 1.358224743104934e+000	 1.187877239606685e+001
 2.261483727144197e+000	 1.381372995194407e+000	 1.188142215117546e+001
 2.247252928202105e+000	 1.404405310681608e+000	 1.188347632115483e+001
 2.232770572711484e+000	 1.427317613430389e+000	 1.188502864754265e+001
 2.218038104718671e+000	 1.450105846474784e+000	 1.188617365540213e+001
 2.376159718263858e+000	 1.228613036433577e+000	 1.182540509675524e+001
 2.363605645830832e+000	 1.252594647520498e+000	 1.182962416079410e+001
 2.350789888727322e+000	 1.276484194599485e+000	 1.183562461588009e+001
 2.337713292224839e+000	 1.300277494753773e+000	 1.184083701807978e+001
 2.324376788998640e+000	 1.323970370806505e+000	 1.184536816970299e+001
 2.310781399269644e+000	 1.347558653565099e+000	 1.184932616515599e+001
 2.296928230878232e+000	 1.371038184078487e+000	 1.185282026612144e+001
 2.282818479289158e+000	 1.394404815904855e+000	 1.185596077229837e+001
 2.268453427526953e+000	 1.417654417387454e+000	 1.185885888787960e+001
 2.253834446041213e+000	 1.440782873936022e+000	 1.186162658395844e+001
 2.238962992501355e+000	 1.463786090311330e+000	 1.186437645707169e+001
 2.398366818436436e+000	 1.240095401259933e+000	 1.179876650939506e+001
 2.385695418223886e+000	 1.264301139553186e+000	 1.180485639439956e+001
 2.372759887689710e+000	 1.288413953427278e+000	 1.181030956107299e+001
 2.359561080005149e+000	 1.312429620872765e+000	 1.181523146842003e+001
 2.346099936562051e+000	 1.336343925673755e+000	 1.181974741965551e+001
 2.332377487116113e+000	 1.360152659673249e+000	 1.182398395800984e+001
 2.318394849861360e+000	 1.383851625051477e+000	 1.182806872157322e+001
 2.304153231435120e+000	 1.407436636614833e+000	 1.183213029352559e+001
 2.289653926852801e+000	 1.430903524092955e+000	 1.183629804796196e+001
 2.274898319371942e+000	 1.454248134441465e+000	 1.184070199153825e+001
 2.259887880285039e+000	 1.477466334147870e+000	 1.184547260117865e+001
 2.420573918610014e+000	 1.251577766085793e+000	 1.177329823268545e+001
 2.407785190617942e+000	 1.276007631585292e+000	 1.177906188811524e+001
 2.394729886653097e+000	 1.300343712254434e+000	 1.178440528852121e+001
 2.381408867786457e+000	 1.324581746991094e+000	 1.178947068849030e+001
 2.367823084126462e+000	 1.348717480540346e+000	 1.179440169283553e+001
 2.353973574963582e+000	 1.372746665780773e+000	 1.179934309630019e+001
 2.339861468845489e+000	 1.396665066023905e+000	 1.180444071824700e+001
 2.325487983582081e+000	 1.420468457324344e+000	 1.180984123255657e+001
 2.310854426179649e+000	 1.444152630798112e+000	 1.181569199297697e+001
 2.295962192703672e+000	 1.467713394946719e+000	 1.182214085418204e+001
 2.280812768069723e+000	 1.491146577984406e+000	 1.182933598881341e+001
 2.442781018784593e+000	 1.263060130911157e+000	 1.174638110732862e+001
 2.429874963012998e+000	 1.287714123616817e+000	 1.175222842341837e+001
 2.416699885617485e+000	 1.312273471080953e+000	 1.175788714779396e+001
 2.403256655568767e+000	 1.336733873108761e+000	 1.176351767193893e+001
 2.389546231691873e+000	 1.361091035406278e+000	 1.176928170924228e+001
 2.375569662812050e+000	 1.385340671887671e+000	 1.177534211493227e+001
 2.361328087830620e+000	 1.409478506995771e+000	 1.178186270078554e+001
 2.346822735730043e+000	 1.433500278033387e+000	 1.178900804486713e+001
 2.332054925507497e+000	 1.457401737502925e+000	 1.179694329657447e+001
 2.317026066036402e+000	 1.481178655451782e+000	 1.180583397727624e+001
 2.301737655855408e+000	 1.504826821820936e+000	 1.181584577685339e+001
 2.092488778043565e+000	 1.368024383455396e+000	 1.208550702757290e+001
 2.078355711706041e+000	 1.389401862522306e+000	 1.207014017312853e+001
 2.063989658236324e+000	 1.410654702842500e+000	 1.205420002398897e+001
 2.049392222669044e+000	 1.431779144149049e+000	 1.203781496134585e+001
 2.034565090120716e+000	 1.452771452782182e+000	 1.202111377478532e+001
 2.019510025265108e+000	 1.473627923803213e+000	 1.200422549803833e+001
 2.004228871742098e+000	 1.494344883097002e+000	 1.198727924224121e+001
 1.988723551500283e+000	 1.514918689460504e+000	 1.197040402700671e+001
 1.972996064073690e+000	 1.535345736674992e+000	 1.195372860961625e+001
 1.957048485793046e+000	 1.555622455559537e+000	 1.193738131265199e+001
 1.940882968932161e+000	 1.575745316003345e+000	 1.192148985039714e+001
 2.113413665820249e+000	 1.381704627291974e+000	 1.204337393415574e+001
 2.099139268819376e+000	 1.403295881148705e+000	 1.203068515443376e+001
 2.084629554814937e+000	 1.424761249871356e+000	 1.201728584293599e+001
 2.069886144891910e+000	 1.446096935590330e+000	 1.200328735251577e+001
 2.054910741017975e+000	 1.467299167309258e+000	 1.198880155814970e+001
 2.039705125513637e+000	 1.488364203040067e+000	 1.197394071056366e+001
 2.024271160455173e+000	 1.509288331926469e+000	 1.195881728726132e+001
 2.008610787010665e+000	 1.530067876353384e+000	 1.194354384122640e+001
 1.992726024709482e+000	 1.550699194039902e+000	 1.192823284757892e+001
 1.976618970645658e+000	 1.571178680113283e+000	 1.191299654847603e+001
 1.960291798615738e+000	 1.591502769161626e+000	 1.189794679655585e+001
 2.134338553597934e+000	 1.395384871128547e+000	 1.200501623148155e+001
 2.119922825933710e+000	 1.417189899775284e+000	 1.199441300205156e+001
 2.105269451394550e+000	 1.438867796900547e+000	 1.198296614814345e+001
 2.090380067115776e+000	 1.460414727032072e+000	 1.197077031242515e+001
 2.075256391916234e+000	 1.481826881836891e+000	 1.195792077278298e+001
 2.059900225763166e+000	 1.503100482277545e+000	 1.194451331351871e+001
 2.044313449169248e+000	 1.524231780756594e+000	 1.193064409384005e+001
 2.028498022522048e+000	 1.545217063246930e+000	 1.191640951388607e+001
 2.012455985346274e+000	 1.566052651405453e+000	 1.190190607853946e+001
 1.996189455499269e+000	 1.586734904667616e+000	 1.188723025928689e+001
 1.979700628300315e+000	 1.607260222320409e+000	 1.187247835439772e+001
 2.155263441376618e+000	 1.409065114965114e+000	 1.197027048875813e+001
 2.140706383049044e+000	 1.431083918402042e+000	 1.196117689298120e+001
 2.125909347975163e+000	 1.452974343930074e+000	 1.195111059614169e+001
 2.110873989340642e+000	 1.474732518474275e+000	 1.194014984090989e+001
 2.095602042815492e+000	 1.496354596365081e+000	 1.192837361769486e+001
 2.080095326013694e+000	 1.517836761515647e+000	 1.191586155311544e+001
 2.064355737884323e+000	 1.539175229587379e+000	 1.190269379565353e+001
 2.048385258034430e+000	 1.560366250141140e+000	 1.188895089870218e+001
 2.032185945984066e+000	 1.581406108771645e+000	 1.187471370123219e+001
 2.015759940353880e+000	 1.602291129222534e+000	 1.186006320631014e+001
 1.999109457985893e+000	 1.623017675479693e+000	 1.184508045771020e+001
 2.176188329156302e+000	 1.422745358801676e+000	 1.193898027004030e+001
 2.161489940165379e+000	 1.444977937028980e+000	 1.193083635434660e+001
 2.146549244556776e+000	 1.467080890959936e+000	 1.192159455321314e+001
 2.131367911566508e+000	 1.489050309916940e+000	 1.191131701185263e+001
 2.115947693715751e+000	 1.510882310893828e+000	 1.190006673521976e+001
 2.100290426265223e+000	 1.532573040754371e+000	 1.188790749346602e+001
 2.084398026600397e+000	 1.554118678418822e+000	 1.187490372446327e+001
 2.068272493547812e+000	 1.575515437036016e+000	 1.186112043358084e+001
 2.051915906622858e+000	 1.596759566138477e+000	 1.184662309091158e+001
 2.035330425209492e+000	 1.617847353778039e+000	 1.183147752615226e+001
 2.018518287672471e+000	 1.638775128639479e+000	 1.181574982135303e+001
 2.197113216936987e+000	 1.436425602638232e+000	 1.191099580114195e+001
 2.182273497282713e+000	 1.458871955656099e+000	 1.190325696100950e+001
 2.167189141139388e+000	 1.481187437990134e+000	 1.189429882349949e+001
 2.151861833793374e+000	 1.503368101360066e+000	 1.188416773156158e+001
 2.136293344617009e+000	 1.525410025423133e+000	 1.187291099943005e+001
 2.120485526517752e+000	 1.547309319993719e+000	 1.186057683477817e+001
 2.104440315317472e+000	 1.569062127250925e+000	 1.184721425782642e+001
 2.088159729062195e+000	 1.590664623931557e+000	 1.183287301756129e+001
 2.071645867262651e+000	 1.612113023505951e+000	 1.181760350523238e+001
 2.054900910066103e+000	 1.633403578334130e+000	 1.180145666530620e+001
 2.037927117360048e+000	 1.654532581799765e+000	 1.178448390406422e+001
 2.218038104718671e+000	 1.450105846474784e+000	 1.188617365540213e+001
 2.203057054401048e+000	 1.472765974283397e+000	 1.187831005029898e+001
 2.187829037723001e+000	 1.495293985020667e+000	 1.186910939249871e+001
 2.172355756021239e+000	 1.517685892803653e+000	 1.185860251082586e+001
 2.156638995519268e+000	 1.539937739952995e+000	 1.184682131652569e+001
 2.140680626771281e+000	 1.562045599233690e+000	 1.183379874184115e+001
 2.124482604035547e+000	 1.584005576083688e+000	 1.181956867542608e+001
 2.108046964577578e+000	 1.605813810827763e+000	 1.180416589472458e+001
 2.091375827903443e+000	 1.627466480874064e+000	 1.178762599545707e+001
 2.074471394923714e+000	 1.648959802890808e+000	 1.176998531836440e+001
 2.057335947048625e+000	 1.670290034960553e+000	 1.175128087337164e+001
 2.238962992501355e+000	 1.463786090311330e+000	 1.186437645707169e+001
 2.223840611520382e+000	 1.486659992910875e+000	 1.185587245273706e+001
 2.208468934307614e+000	 1.509400532051535e+000	 1.184591718494583e+001
 2.192849678250105e+000	 1.532003684247701e+000	 1.183452624975285e+001
 2.176984646422527e+000	 1.554465454483414e+000	 1.182171643641708e+001
 2.160875727025809e+000	 1.576781878474284e+000	 1.180750568212948e+001
 2.144524892754621e+000	 1.598949024917110e+000	 1.179191302345802e+001
 2.127934200093959e+000	 1.620962997724634e+000	 1.177495854461232e+001
 2.111105788545236e+000	 1.642819938242819e+000	 1.175666332264244e+001
 2.094041879782326e+000	 1.664516027448071e+000	 1.173704936969630e+001
 2.076744776738203e+000	 1.686047488121843e+000	 1.171613957247173e+001
 2.259887880285039e+000	 1.477466334147870e+000	 1.184547260117865e+001
 2.244624168640716e+000	 1.500554011538533e+000	 1.183582623772438e+001
 2.229108830893226e+000	 1.523507079082740e+000	 1.182461783614440e+001
 2.213343600479971e+000	 1.546321475692211e+000	 1.181184803455905e+001
 2.197330297326785e+000	 1.568993169014391e+000	 1.179751877477546e+001
 2.181070827281339e+000	 1.591518157715502e+000	 1.178163327290081e+001
 2.164567181474696e+000	 1.613892473751190e+000	 1.176419598655134e+001
 2.147821435611343e+000	 1.636112184622170e+000	 1.174521257873305e+001
 2.130835749188027e+000	 1.658173395612215e+000	 1.172468987848247e+001
 2.113612364641937e+000	 1.680072252005921e+000	 1.170263583836609e+001
 2.096153606428781e+000	 1.701804941283633e+000	 1.167905948894878e+001
 2.280812768069723e+000	 1.491146577984406e+000	 1.182933598881341e+001
 2.265407725762050e+000	 1.514448030166370e+000	 1.181805847322463e+001
 2.249748727479840e+000	 1.537613626114280e+000	 1.180511147588541e+001
 2.233837522710837e+000	 1.560639267137182e+000	 1.179048094554667e+001
 2.217675948232044e+000	 1.583520883545925e+000	 1.177415424487880e+001
 2.201265927537867e+000	 1.606254436957342e+000	 1.175612013671050e+001
 2.184609470195770e+000	 1.628835922585930e+000	 1.173636876673944e+001
 2.167708671129724e+000	 1.651261371520371e+000	 1.171489164276560e+001
 2.150565709831820e+000	 1.673526852982251e+000	 1.169168161050847e+001
 2.133182849502548e+000	 1.695628476564357e+000	 1.166673282608254e+001
 2.115562436120359e+000	 1.717562394445926e+000	 1.164004072521575e+001
 2.301737655855408e+000	 1.504826821820936e+000	 1.181584577685339e+001
 2.286191282884384e+000	 1.528342048794389e+000	 1.180246099855714e+001
 2.270388624067453e+000	 1.551720173146155e+000	 1.178730252415246e+001
 2.254331444942703e+000	 1.574957058582615e+000	 1.177034187555437e+001
 2.238021599138304e+000	 1.598048598078016e+000	 1.175155209862971e+001
 2.221461027795396e+000	 1.620990716199806e+000	 1.173090776480706e+001
 2.204651758917846e+000	 1.643779371421331e+000	 1.170838496903259e+001
 2.187595906649108e+000	 1.666410558419238e+000	 1.168396132409683e+001
 2.170295670476613e+000	 1.688880310352928e+000	 1.165761595136909e+001
 2.152753334364160e+000	 1.711184701123380e+000	 1.162932946798780e+001
 2.134971265812936e+000	 1.733319847608720e+000	 1.159908397056750e+001
 1.940882968932161e+000	 1.575745316003345e+000	 1.192148985039714e+001
 1.924501740789867e+000	 1.595710828974349e+000	 1.188489384034899e+001
 1.907907102708858e+000	 1.615515548502402e+000	 1.184239814671168e+001
 1.891101429031947e+000	 1.635156073634189e+000	 1.179402181649615e+001
 1.874087165996259e+000	 1.654629050357170e+000	 1.174118322147721e+001
 1.856866830566980e+000	 1.673931173491006e+000	 1.170830758468998e+001
 1.839443009211615e+000	 1.693059188543971e+000	 1.167158370780479e+001
 1.821818356616007e+000	 1.712009893532202e+000	 1.163099274612089e+001
 1.803995594343424e+000	 1.730780140759638e+000	 1.158652014642974e+001
 1.785977509438138e+000	 1.749366838556604e+000	 1.153815572498382e+001
 1.767766952975000e+000	 1.767766952975000e+000	 1.148589373748166e+001
 1.960291798615738e+000	 1.591502769161626e+000	 1.189794679655585e+001
 1.943746758191629e+000	 1.611667937262448e+000	 1.185984895417972e+001
 1.926986173729532e+000	 1.631670703985805e+000	 1.181699098613638e+001
 1.910012443315688e+000	 1.651507634368847e+000	 1.176941455839047e+001
 1.892828037649594e+000	 1.671175340858911e+000	 1.171716526966150e+001
 1.875435498866089e+000	 1.690670485223853e+000	 1.166029257624910e+001
 1.857837439297353e+000	 1.709989780427031e+000	 1.162662176511993e+001
 1.840036540176085e+000	 1.729129992464741e+000	 1.159103193739157e+001
 1.822035550281188e+000	 1.748087942163965e+000	 1.155283860317472e+001
 1.803837284527377e+000	 1.766860506938327e+000	 1.151204513560306e+001
 1.785444622500250e+000	 1.785444622500250e+000	 1.146865824886204e+001
 1.979700628300315e+000	 1.607260222320409e+000	 1.187247835439772e+001
 1.962991775594386e+000	 1.627625045550958e+000	 1.183348495010291e+001
 1.946065244751185e+000	 1.647825859469548e+000	 1.179085076833827e+001
 1.928923457600384e+000	 1.667859195103797e+000	 1.174463981754914e+001
 1.911568909303851e+000	 1.687721631360913e+000	 1.169491906180033e+001
 1.894004167166073e+000	 1.707409796956951e+000	 1.164175831885690e+001
 1.876231869383910e+000	 1.726920372310351e+000	 1.158523015342706e+001
 1.858254723736918e+000	 1.746250091397571e+000	 1.155314637485061e+001
 1.840075506219632e+000	 1.765395743568631e+000	 1.152170117167879e+001
 1.821697059617211e+000	 1.784354175320461e+000	 1.148892481758954e+001
 1.803122292026000e+000	 1.803122292026000e+000	 1.145483622368184e+001
 1.999109457985893e+000	 1.623017675479693e+000	 1.184508045771020e+001
 1.982236792998138e+000	 1.643582153839881e+000	 1.180577944089925e+001
 1.965144315773819e+000	 1.663981014953634e+000	 1.176393738079281e+001
 1.947834471886035e+000	 1.684210755839037e+000	 1.171964036151644e+001
 1.930309780959026e+000	 1.704267921863176e+000	 1.167297645848906e+001
 1.912572835466933e+000	 1.724149108690299e+000	 1.162403560998726e+001
 1.894626299471288e+000	 1.743850964193931e+000	 1.157290948508015e+001
 1.876472907298507e+000	 1.763370190330691e+000	 1.151969134821452e+001
 1.858115462158757e+000	 1.782703544973638e+000	 1.149302104885663e+001
 1.839556834707640e+000	 1.801847843703005e+000	 1.146869547647231e+001
 1.820799961552250e+000	 1.820799961552250e+000	 1.144431651374799e+001
 2.018518287672471e+000	 1.638775128639479e+000	 1.181574982135303e+001
 2.001481810402884e+000	 1.659539262129213e+000	 1.177671151386959e+001
 1.984223386797433e+000	 1.680136170438060e+000	 1.173621285559131e+001
 1.966745486172641e+000	 1.700562316574568e+000	 1.169436174884164e+001
 1.949050652615122e+000	 1.720814212365699e+000	 1.165126713537115e+001
 1.931141503768667e+000	 1.740888420423898e+000	 1.160703884162398e+001
 1.913020729559484e+000	 1.760781556077772e+000	 1.156178742156791e+001
 1.894691090860849e+000	 1.780490289264100e+000	 1.151562399741634e+001
 1.876155418098561e+000	 1.800011346378984e+000	 1.146866009857726e+001
 1.857416609798664e+000	 1.819341512085958e+000	 1.145126397130789e+001
 1.838477631079000e+000	 1.838477631079000e+000	 1.143699459617585e+001
 2.037927117360048e+000	 1.654532581799765e+000	 1.178448390406422e+001
 2.020726827808627e+000	 1.675496370418957e+000	 1.174626166061976e+001
 2.003302457822026e+000	 1.696291325922827e+000	 1.170764126731633e+001
 1.985656500460203e+000	 1.716913877310390e+000	 1.166875219617401e+001
 1.967791524272138e+000	 1.737360502868482e+000	 1.162972401889742e+001
 1.949710172071277e+000	 1.757627732157747e+000	 1.159068622605457e+001
 1.931415159648502e+000	 1.777712147961872e+000	 1.155176804499734e+001
 1.912909274423948e+000	 1.797610388197801e+000	 1.151309825689927e+001
 1.894195374039046e+000	 1.817319147784671e+000	 1.147480501329200e+001
 1.875276384890283e+000	 1.836835180469322e+000	 1.143701565248521e+001
 1.856155300606249e+000	 1.856155300606249e+000	 1.143277225789834e+001
 2.057335947048625e+000	 1.670290034960553e+000	 1.175128087337164e+001
 2.039971845215364e+000	 1.691453478709113e+000	 1.171441171081963e+001
 2.022381528847600e+000	 1.712446481407934e+000	 1.167818863669788e+001
 2.004567514748719e+000	 1.733265438046503e+000	 1.164276245288078e+001
 1.986532395930074e+000	 1.753906793371527e+000	 1.160828313298602e+001
 1.968278840374762e+000	 1.774367043891847e+000	 1.157489961566741e+001
 1.949809589738340e+000	 1.794642739846233e+000	 1.154275959781234e+001
 1.931127457987802e+000	 1.814730487131791e+000	 1.151200932806767e+001
 1.912235329980211e+000	 1.834626949190698e+000	 1.148279340111966e+001
 1.893136159982496e+000	 1.854328848853095e+000	 1.145525455315618e+001
 1.873832970134000e+000	 1.873832970134000e+000	 1.143155729803308e+001
 2.076744776738203e+000	 1.686047488121843e+000	 1.171613957247173e+001
 2.059216862623095e+000	 1.707410586999680e+000	 1.168114476967682e+001
 2.041460599874153e+000	 1.728601636893384e+000	 1.164782283967181e+001
 2.023478529038190e+000	 1.749616998782907e+000	 1.161634568269576e+001
 2.005273267588929e+000	 1.770453083874832e+000	 1.158688345428105e+001
 1.986847508679122e+000	 1.791106355626197e+000	 1.155960433285343e+001
 1.968204019828998e+000	 1.811573331730855e+000	 1.153467428838570e+001
 1.949345641552410e+000	 1.831850586066071e+000	 1.151225685257566e+001
 1.930275285922055e+000	 1.851934750597065e+000	 1.149251289101944e+001
 1.910995935075306e+000	 1.871822517237279e+000	 1.147560037784991e+001
 1.891510639662249e+000	 1.891510639662249e+000	 1.139917549940962e+001
 2.096153606428781e+000	 1.701804941283633e+000	 1.167905948894878e+001
 2.078461880031822e+000	 1.723367695290657e+000	 1.164644515888404e+001
 2.060539670901687e+000	 1.744756792379174e+000	 1.161651352149073e+001
 2.042389543328616e+000	 1.765968559519601e+000	 1.158945735194316e+001
 2.024014139248705e+000	 1.786999374378398e+000	 1.156546677545222e+001
 2.005416176984356e+000	 1.807845667360798e+000	 1.154472900935796e+001
 1.986598449920476e+000	 1.828503923615737e+000	 1.152742810741104e+001
 1.967563825117773e+000	 1.848970685000643e+000	 1.151374470675992e+001
 1.948315241864580e+000	 1.869242552003772e+000	 1.150385577815994e+001
 1.928855710168709e+000	 1.889316185621873e+000	 1.144534579488500e+001
 1.909188309190999e+000	 1.909188309190999e+000	 1.136858260101259e+001
 2.115562436120359e+000	 1.717562394445926e+000	 1.164004072521575e+001
 2.097706897441544e+000	 1.739324803582046e+000	 1.161029836081701e+001
 2.079618741930201e+000	 1.760911947865306e+000	 1.158423201556267e+001
 2.061300557619997e+000	 1.782320120256587e+000	 1.156205512391419e+001
 2.042755010909402e+000	 1.803545664882225e+000	 1.154397757601935e+001
 2.023984845290466e+000	 1.824584979095649e+000	 1.153020543447538e+001
 2.004992880012773e+000	 1.845434515500879e+000	 1.152094065440202e+001
 1.985782008683892e+000	 1.866090783935503e+000	 1.151638080738825e+001
 1.966355197807784e+000	 1.886550353410819e+000	 1.147550497237238e+001
 1.946715485262708e+000	 1.906809854006876e+000	 1.140692538202595e+001
 1.926865978720250e+000	 1.926865978720250e+000	 1.134203507366888e+001
 2.134971265812936e+000	 1.733319847608720e+000	 1.159908397056750e+001
 2.116951914852261e+000	 1.755281911873847e+000	 1.157269096577614e+001
 2.098697812959695e+000	 1.777067103351779e+000	 1.155095126671672e+001
 2.080211571912335e+000	 1.798671680993865e+000	 1.153409875900488e+001
 2.061495882571019e+000	 1.820091955386313e+000	 1.152236290022293e+001
 2.042553513597452e+000	 1.841324290830751e+000	 1.151596841152427e+001
 2.023387310105893e+000	 1.862365107386282e+000	 1.151513497365498e+001
 2.004000192250767e+000	 1.883210882870655e+000	 1.149158555728190e+001
 1.984395153751670e+000	 1.903858154818206e+000	 1.142942993935871e+001
 1.964575260357303e+000	 1.924303522392291e+000	 1.137199068495176e+001
 1.944543648250000e+000	 1.944543648250000e+000	 1.131933577413288e+001
 1.767766952975000e+000	 1.767766952975000e+000	 1.148589373748166e+001
 1.749366838556605e+000	 1.785977509438138e+000	 1.141275003336571e+001
 1.730780140759639e+000	 1.803995594343423e+000	 1.134767769168069e+001
 1.712009893532202e+000	 1.821818356616006e+000	 1.129083405029858e+001
 1.693059188543972e+000	 1.839443009211614e+000	 1.124236940991573e+001
 1.673931173491007e+000	 1.856866830566979e+000	 1.120242692344583e+001
 1.654629050357171e+000	 1.874087165996258e+000	 1.117114249240204e+001
 1.635156073634190e+000	 1.891101429031946e+000	 1.107614556951750e+001
 1.615515548502403e+000	 1.907907102708857e+000	 1.098548591266373e+001
 1.595710828974350e+000	 1.924501740789867e+000	 1.090345534635217e+001
 1.575745316003345e+000	 1.940882968932160e+000	 1.083026861699504e+001
 1.785444622500250e+000	 1.785444622500250e+000	 1.146865824886204e+001
 1.766860506938328e+000	 1.803837284527377e+000	 1.140932345102532e+001
 1.748087942163965e+000	 1.822035550281187e+000	 1.135726521991627e+001
 1.729129992464742e+000	 1.840036540176085e+000	 1.131262825944136e+001
 1.709989780427031e+000	 1.857837439297352e+000	 1.127555109537510e+001
 1.690670485223853e+000	 1.875435498866088e+000	 1.124426386403507e+001
 1.671175340858912e+000	 1.892828037649594e+000	 1.114590020249703e+001
 1.651507634368848e+000	 1.910012443315687e+000	 1.105482685880304e+001
 1.631670703985806e+000	 1.926986173729531e+000	 1.097126799940966e+001
 1.611667937262449e+000	 1.943746758191628e+000	 1.089544204218923e+001
 1.591502769161626e+000	 1.960291798615738e+000	 1.082756136695641e+001
 1.803122292026000e+000	 1.803122292026000e+000	 1.145483622368184e+001
 1.784354175320462e+000	 1.821697059617210e+000	 1.140895567520652e+001
 1.765395743568632e+000	 1.840075506219632e+000	 1.136957493152312e+001
 1.746250091397571e+000	 1.858254723736918e+000	 1.133682618426893e+001
 1.726920372310352e+000	 1.876231869383909e+000	 1.130557382006608e+001
 1.707409796956951e+000	 1.894004167166073e+000	 1.120960221774023e+001
 1.687721631360914e+000	 1.911568909303850e+000	 1.111982529923338e+001
 1.667859195103797e+000	 1.928923457600383e+000	 1.103646770542667e+001
 1.647825859469549e+000	 1.946065244751184e+000	 1.095974954614582e+001
 1.627625045550959e+000	 1.962991775594385e+000	 1.088988610460884e+001
 1.607260222320409e+000	 1.979700628300316e+000	 1.082708754588435e+001
 1.820799961552250e+000	 1.820799961552250e+000	 1.144431651374799e+001
 1.801847843703005e+000	 1.839556834707639e+000	 1.141154632672881e+001
 1.782703544973638e+000	 1.858115462158756e+000	 1.138451665633047e+001
 1.763370190330692e+000	 1.876472907298506e+000	 1.135720306588646e+001
 1.743850964193932e+000	 1.894626299471286e+000	 1.126525631357270e+001
 1.724149108690300e+000	 1.912572835466932e+000	 1.117843197350735e+001
 1.704267921863176e+000	 1.930309780959026e+000	 1.109695320587149e+001
 1.684210755839037e+000	 1.947834471886034e+000	 1.102103985165847e+001
 1.663981014953635e+000	 1.965144315773818e+000	 1.095090813413303e+001
 1.643582153839881e+000	 1.982236792998137e+000	 1.088677036234856e+001
 1.623017675479693e+000	 1.999109457985893e+000	 1.082883463735812e+001
 1.838477631079000e+000	 1.838477631079000e+000	 1.143699459617585e+001
 1.819341512085959e+000	 1.857416609798663e+000	 1.141700125213581e+001
 1.800011346378985e+000	 1.876155418098561e+000	 1.139730786589771e+001
 1.780490289264101e+000	 1.894691090860849e+000	 1.131096199857681e+001
 1.760781556077772e+000	 1.913020729559484e+000	 1.122869154633552e+001
 1.740888420423898e+000	 1.931141503768667e+000	 1.115071625923717e+001
 1.720814212365700e+000	 1.949050652615121e+000	 1.107725377071939e+001
 1.700562316574569e+000	 1.966745486172640e+000	 1.100851929915416e+001
 1.680136170438060e+000	 1.984223386797432e+000	 1.094472534950598e+001
 1.659539262129213e+000	 2.001481810402884e+000	 1.088608141572973e+001
 1.638775128639479e+000	 2.018518287672471e+000	 1.083279368455570e+001
 1.856155300606249e+000	 1.856155300606249e+000	 1.143277225789834e+001
 1.836835180469322e+000	 1.875276384890282e+000	 1.142413883127786e+001
 1.817319147784672e+000	 1.894195374039045e+000	 1.134491225450324e+001
 1.797610388197802e+000	 1.912909274423947e+000	 1.126874125254897e+001
 1.777712147961873e+000	 1.931415159648502e+000	 1.119584026499556e+001
 1.757627732157748e+000	 1.949710172071276e+000	 1.112642280442353e+001
 1.737360502868484e+000	 1.967791524272137e+000	 1.106070116115384e+001
 1.716913877310390e+000	 1.985656500460202e+000	 1.099888610612725e+001
 1.696291325922827e+000	 2.003302457822025e+000	 1.094118659256473e+001
 1.675496370418958e+000	 2.020726827808626e+000	 1.088780945705819e+001
 1.654532581799765e+000	 2.037927117360048e+000	 1.083895912074896e+001
 1.873832970134000e+000	 1.873832970134000e+000	 1.143155729803308e+001
 1.854328848853096e+000	 1.893136159982496e+000	 1.136539233064845e+001
 1.834626949190698e+000	 1.912235329980210e+000	 1.129680967840430e+001
 1.814730487131792e+000	 1.931127457987802e+000	 1.123049902874554e+001
 1.794642739846234e+000	 1.949809589738339e+000	 1.116666788888490e+001
 1.774367043891848e+000	 1.968278840374761e+000	 1.110552372309732e+001
 1.753906793371528e+000	 1.986532395930073e+000	 1.104727365989075e+001
 1.733265438046504e+000	 2.004567514748718e+000	 1.099212419600176e+001
 1.712446481407935e+000	 2.022381528847599e+000	 1.094028089786151e+001
 1.691453478709113e+000	 2.039971845215363e+000	 1.089194810119106e+001
 1.670290034960553e+000	 2.057335947048625e+000	 1.084732860939367e+001
 1.891510639662249e+000	 1.891510639662249e+000	 1.139917549940962e+001
 1.871822517237279e+000	 1.910995935075305e+000	 1.131121566737462e+001
 1.851934750597065e+000	 1.930275285922054e+000	 1.125295565658606e+001
 1.831850586066072e+000	 1.949345641552410e+000	 1.119619827509048e+001
 1.811573331730856e+000	 1.968204019828997e+000	 1.114114429167686e+001
 1.791106355626198e+000	 1.986847508679121e+000	 1.108799530894130e+001
 1.770453083874833e+000	 2.005273267588929e+000	 1.103695347267962e+001
 1.749616998782907e+000	 2.023478529038189e+000	 1.098822117679519e+001
 1.728601636893384e+000	 2.041460599874153e+000	 1.094200076437568e+001
 1.707410586999680e+000	 2.059216862623094e+000	 1.089849422560438e+001
 1.686047488121843e+000	 2.076744776738203e+000	 1.085790289318628e+001
 1.909188309190999e+000	 1.909188309190999e+000	 1.136858260101259e+001
 1.889316185621873e+000	 1.928855710168709e+000	 1.128645025660312e+001
 1.869242552003772e+000	 1.948315241864579e+000	 1.121331053133471e+001
 1.848970685000643e+000	 1.967563825117773e+000	 1.116580646672159e+001
 1.828503923615737e+000	 1.986598449920475e+000	 1.111924359516621e+001
 1.807845667360799e+000	 2.005416176984356e+000	 1.107381784178802e+001
 1.786999374378399e+000	 2.024014139248705e+000	 1.102972654668148e+001
 1.765968559519602e+000	 2.042389543328615e+000	 1.098716817053523e+001
 1.744756792379175e+000	 2.060539670901687e+000	 1.094634199512362e+001
 1.723367695290658e+000	 2.078461880031821e+000	 1.090744781934610e+001
 1.701804941283634e+000	 2.096153606428781e+000	 1.087068565150650e+001
 1.926865978720250e+000	 1.926865978720250e+000	 1.134203507366888e+001
 1.906809854006877e+000	 1.946715485262708e+000	 1.127104671964763e+001
 1.886550353410819e+000	 1.966355197807783e+000	 1.119812718189939e+001
 1.866090783935504e+000	 1.985782008683891e+000	 1.113929539832004e+001
 1.845434515500880e+000	 2.004992880012773e+000	 1.110094397440152e+001
 1.824584979095650e+000	 2.023984845290466e+000	 1.106297540476859e+001
 1.803545664882226e+000	 2.042755010909401e+000	 1.102558239884468e+001
 1.782320120256588e+000	 2.061300557619997e+000	 1.098895965206684e+001
 1.760911947865307e+000	 2.079618741930200e+000	 1.095330354559738e+001
 1.739324803582047e+000	 2.097706897441543e+000	 1.091881184030319e+001
 1.717562394445926e+000	 2.115562436120359e+000	 1.088568336570705e+001
 1.944543648250000e+000	 1.944543648250000e+000	 1.131933577413288e+001
 1.924303522392292e+000	 1.964575260357303e+000	 1.125923738201852e+001
 1.903858154818207e+000	 1.984395153751669e+000	 1.119653038333073e+001
 1.883210882870656e+000	 2.004000192250766e+000	 1.113120763898666e+001
 1.862365107386283e+000	 2.023387310105892e+000	 1.108622747344616e+001
 1.841324290830752e+000	 2.042553513597451e+000	 1.105545571143570e+001
 1.820091955386314e+000	 2.061495882571018e+000	 1.102451395364173e+001
 1.798671680993865e+000	 2.080211571912334e+000	 1.099359329665134e+001
 1.777067103351780e+000	 2.098697812959694e+000	 1.096288738047037e+001
 1.755281911873849e+000	 2.116951914852261e+000	 1.093259208025465e+001
 1.733319847608720e+000	 2.134971265812937e+000	 1.090290519175122e+001
 1.575745316003345e+000	 1.940882968932160e+000	 1.083026861699504e+001
 1.555622455559537e+000	 1.957048485793046e+000	 1.075580741277013e+001
 1.535345736674993e+000	 1.972996064073689e+000	 1.068229636519436e+001
 1.514918689460505e+000	 1.988723551500282e+000	 1.060985087217436e+001
 1.494344883097003e+000	 2.004228871742098e+000	 1.053858663877263e+001
 1.473627923803214e+000	 2.019510025265108e+000	 1.046861946983032e+001
 1.452771452782183e+000	 2.034565090120716e+000	 1.040006506126857e+001
 1.431779144149050e+000	 2.049392222669043e+000	 1.033303879058968e+001
 1.410654702842501e+000	 2.063989658236324e+000	 1.026765550710050e+001
 1.389401862522308e+000	 2.078355711706041e+000	 1.020402932238108e+001
 1.368024383455396e+000	 2.092488778043565e+000	 1.014227340151813e+001
 1.591502769161626e+000	 1.960291798615738e+000	 1.082756136695641e+001
 1.571178680113283e+000	 1.976618970645657e+000	 1.075458627211871e+001
 1.550699194039903e+000	 1.992726024709482e+000	 1.068256937921832e+001
 1.530067876353385e+000	 2.008610787010665e+000	 1.061161390573921e+001
 1.509288331926469e+000	 2.024271160455172e+000	 1.054182352078571e+001
 1.488364203040068e+000	 2.039705125513637e+000	 1.047330214697845e+001
 1.467299167309258e+000	 2.054910741017974e+000	 1.040615376069932e+001
 1.446096935590331e+000	 2.069886144891909e+000	 1.034048219119810e+001
 1.424761249871357e+000	 2.084629554814937e+000	 1.027639091907762e+001
 1.403295881148706e+000	 2.099139268819376e+000	 1.021398287467312e+001
 1.381704627291974e+000	 2.113413665820249e+000	 1.015336023684105e+001
 1.607260222320409e+000	 1.979700628300316e+000	 1.082708754588435e+001
 1.586734904667616e+000	 1.996189455499269e+000	 1.075509639722486e+001
 1.566052651405454e+000	 2.012455985346274e+000	 1.068407223909804e+001
 1.545217063246931e+000	 2.028498022522047e+000	 1.061410641211557e+001
 1.524231780756594e+000	 2.044313449169247e+000	 1.054529085285391e+001
 1.503100482277546e+000	 2.059900225763165e+000	 1.047771790468745e+001
 1.481826881836892e+000	 2.075256391916233e+000	 1.041148012664085e+001
 1.460414727032073e+000	 2.090380067115775e+000	 1.034667010076754e+001
 1.438867796900548e+000	 2.105269451394549e+000	 1.028338023856360e+001
 1.417189899775285e+000	 2.119922825933710e+000	 1.022170258692808e+001
 1.395384871128547e+000	 2.134338553597933e+000	 1.016172863418006e+001
 1.623017675479693e+000	 1.999109457985893e+000	 1.082883463735812e+001
 1.602291129222535e+000	 2.015759940353880e+000	 1.075733796974197e+001
 1.581406108771645e+000	 2.032185945984065e+000	 1.068681774597738e+001
 1.560366250141141e+000	 2.048385258034430e+000	 1.061735372809117e+001
 1.539175229587380e+000	 2.064355737884322e+000	 1.054902641838299e+001
 1.517836761515647e+000	 2.080095326013694e+000	 1.048191687886301e+001
 1.496354596365082e+000	 2.095602042815492e+000	 1.041610654837987e+001
 1.474732518474276e+000	 2.110873989340641e+000	 1.035167705793973e+001
 1.452974343930075e+000	 2.125909347975162e+000	 1.028871004471955e+001
 1.431083918402043e+000	 2.140706383049044e+000	 1.022728696528154e+001
 1.409065114965114e+000	 2.155263441376618e+000	 1.016748890849426e+001
 1.638775128639479e+000	 2.018518287672471e+000	 1.083279368455570e+001
 1.617847353778040e+000	 2.035330425209491e+000	 1.076131420813476e+001
 1.596759566138478e+000	 2.051915906622858e+000	 1.069082121664262e+001
 1.575515437036018e+000	 2.068272493547812e+000	 1.062138318679225e+001
 1.554118678418823e+000	 2.084398026600397e+000	 1.055306947992313e+001
 1.532573040754372e+000	 2.100290426265222e+000	 1.048595016971407e+001
 1.510882310893829e+000	 2.115947693715750e+000	 1.042009586725810e+001
 1.489050309916940e+000	 2.131367911566507e+000	 1.035557754399395e+001
 1.467080890959937e+000	 2.146549244556775e+000	 1.029246635299261e+001
 1.444977937028982e+000	 2.161489940165378e+000	 1.023083344910148e+001
 1.422745358801676e+000	 2.176188329156302e+000	 1.017074980844861e+001
 1.654532581799765e+000	 2.037927117360048e+000	 1.083895912074896e+001
 1.633403578334131e+000	 2.054900910066102e+000	 1.076703122306928e+001
 1.612113023505951e+000	 2.071645867262650e+000	 1.069610036372984e+001
 1.590664623931558e+000	 2.088159729062195e+000	 1.062622402261972e+001
 1.569062127250926e+000	 2.104440315317471e+000	 1.055746070873351e+001
 1.547309319993720e+000	 2.120485526517752e+000	 1.048986979583353e+001
 1.525410025423134e+000	 2.136293344617009e+000	 1.042351135514566e+001
 1.503368101360066e+000	 2.151861833793372e+000	 1.035844598557842e+001
 1.481187437990135e+000	 2.167189141139388e+000	 1.029473464195924e+001
 1.458871955656099e+000	 2.182273497282713e+000	 1.023243846178683e+001
 1.436425602638232e+000	 2.197113216936987e+000	 1.017161859099944e+001
 1.670290034960553e+000	 2.057335947048625e+000	 1.084732860939367e+001
 1.648959802890809e+000	 2.074471394923714e+000	 1.077449788098813e+001
 1.627466480874065e+000	 2.091375827903443e+000	 1.070267518271315e+001
 1.605813810827764e+000	 2.108046964577577e+000	 1.063190728156633e+001
 1.584005576083689e+000	 2.124482604035546e+000	 1.056224211833377e+001
 1.562045599233691e+000	 2.140680626771280e+000	 1.049372865087821e+001
 1.539937739952996e+000	 2.156638995519268e+000	 1.042641669413315e+001
 1.517685892803653e+000	 2.172355756021239e+000	 1.036035675728734e+001
 1.495293985020668e+000	 2.187829037723001e+000	 1.029559987864955e+001
 1.472765974283397e+000	 2.203057054401047e+000	 1.023219745869033e+001
 1.450105846474784e+000	 2.218038104718671e+000	 1.017020109175826e+001
 1.686047488121843e+000	 2.076744776738203e+000	 1.085790289318628e+001
 1.664516027448072e+000	 2.094041879782325e+000	 1.078372567533607e+001
 1.642819938242820e+000	 2.111105788545235e+000	 1.071056784522999e+001
 1.620962997724635e+000	 2.127934200093960e+000	 1.063846573656301e+001
 1.598949024917111e+000	 2.144524892754621e+000	 1.056745700178159e+001
 1.576781878474284e+000	 2.160875727025809e+000	 1.049758046267807e+001
 1.554465454483415e+000	 2.176984646422526e+000	 1.042887595736265e+001
 1.532003684247702e+000	 2.192849678250104e+000	 1.036138418409327e+001
 1.509400532051537e+000	 2.208468934307613e+000	 1.029514654245112e+001
 1.486659992910876e+000	 2.223840611520381e+000	 1.023020497235470e+001
 1.463786090311330e+000	 2.238962992501355e+000	 1.016660179140942e+001
 1.701804941283634e+000	 2.096153606428781e+000	 1.087068565150650e+001
 1.680072252005922e+000	 2.113612364641936e+000	 1.079472860493947e+001
 1.658173395612215e+000	 2.130835749188027e+000	 1.071980259833298e+001
 1.636112184622171e+000	 2.147821435611342e+000	 1.064593380752790e+001
 1.613892473751192e+000	 2.164567181474696e+000	 1.057314987243484e+001
 1.591518157715502e+000	 2.181070827281338e+000	 1.050147975461717e+001
 1.568993169014392e+000	 2.197330297326785e+000	 1.043095359092313e+001
 1.546321475692212e+000	 2.213343600479970e+000	 1.036160254364439e+001
 1.523507079082741e+000	 2.229108830893226e+000	 1.029345864768523e+001
 1.500554011538533e+000	 2.244624168640715e+000	 1.022655465523496e+001
 1.477466334147870e+000	 2.259887880285039e+000	 1.016092387843845e+001
 1.717562394445926e+000	 2.115562436120359e+000	 1.088568336570705e+001
 1.695628476564358e+000	 2.133182849502547e+000	 1.080752305908054e+001
 1.673526852982252e+000	 2.150565709831819e+000	 1.073040566928720e+001
 1.651261371520371e+000	 2.167708671129724e+000	 1.065434748581648e+001
 1.628835922585932e+000	 2.184609470195770e+000	 1.057936640797441e+001
 1.606254436957343e+000	 2.201265927537867e+000	 1.050548180914010e+001
 1.583520883545926e+000	 2.217675948232044e+000	 1.043271439674322e+001
 1.560639267137183e+000	 2.233837522710836e+000	 1.036108606843543e+001
 1.537613626114280e+000	 2.249748727479839e+000	 1.029061976494003e+001
 1.514448030166371e+000	 2.265407725762049e+000	 1.022133932006957e+001
 1.491146577984406e+000	 2.280812768069723e+000	 1.015326930840723e+001
 1.733319847608720e+000	 2.134971265812937e+000	 1.090290519175122e+001
 1.711184701123380e+000	 2.152753334364159e+000	 1.082212770884009e+001
 1.688880310352929e+000	 2.170295670476612e+000	 1.074240517556065e+001
 1.666410558419238e+000	 2.187595906649108e+000	 1.066374426279275e+001
 1.643779371421331e+000	 2.204651758917846e+000	 1.058615339748049e+001
 1.620990716199807e+000	 2.221461027795396e+000	 1.050964263324959e+001
 1.598048598078017e+000	 2.238021599138303e+000	 1.043422351641636e+001
 1.574957058582615e+000	 2.254331444942703e+000	 1.035990894786013e+001
 1.551720173146156e+000	 2.270388624067453e+000	 1.028671304124037e+001
 1.528342048794390e+000	 2.286191282884385e+000	 1.021465097804940e+001
 1.504826821820936e+000	 2.301737655855408e+000	 1.014373885999578e+001
 1.368024383455396e+000	 2.092488778043565e+000	 1.014227340151813e+001
 1.346526050392599e+000	 2.106387332754106e+000	 1.004315776808067e+001
 1.324910670439301e+000	 2.120049932274017e+000	 9.949011378278605e+000
 1.303182070921886e+000	 2.133475214295430e+000	 9.859851861809602e+000
 1.281344097251811e+000	 2.146661898024328e+000	 9.775693607102539e+000
 1.259400610790523e+000	 2.159608784372368e+000	 9.696547674326292e+000
 1.237355486717287e+000	 2.172314756082764e+000	 9.610712456631653e+000
 1.215212611902257e+000	 2.184778777790677e+000	 9.526507066022591e+000
 1.192975882787096e+000	 2.196999896018612e+000	 9.454241087844753e+000
 1.170649203275409e+000	 2.208977239107448e+000	 9.394062125822499e+000
 1.148236482635196e+000	 2.220710017083810e+000	 9.346103811058846e+000
 1.381704627291974e+000	 2.113413665820249e+000	 1.015336023684105e+001
 1.359991310899373e+000	 2.127451206077835e+000	 1.005307151264625e+001
 1.338159777147214e+000	 2.141250431592865e+000	 9.957846677874629e+000
 1.316213891635144e+000	 2.154809966434391e+000	 9.867718731271614e+000
 1.294157538228737e+000	 2.168128517000457e+000	 9.782717257477575e+000
 1.271994616903055e+000	 2.181204872211835e+000	 9.702868322329969e+000
 1.249729041589154e+000	 2.194037903639174e+000	 9.627936248256093e+000
 1.227364738025892e+000	 2.206626565563986e+000	 9.540749932953293e+000
 1.204905641619349e+000	 2.218969894973999e+000	 9.465900104593141e+000
 1.182355695312166e+000	 2.231067011493503e+000	 9.403552535775869e+000
 1.159718847465025e+000	 2.242917117249388e+000	 9.353858414757802e+000
 1.395384871128547e+000	 2.134338553597933e+000	 1.016172863418006e+001
 1.373456571405956e+000	 2.148515079402566e+000	 1.006063004155956e+001
 1.351408883854781e+000	 2.162450930912713e+000	 9.964689054992864e+000
 1.329245712347934e+000	 2.176144718574352e+000	 9.873953949330646e+000
 1.306970979205101e+000	 2.189595135977586e+000	 9.788469414348787e+000
 1.284588623014961e+000	 2.202800960052303e+000	 9.708276432334138e+000
 1.262102596460362e+000	 2.215761051196585e+000	 9.633412160851758e+000
 1.239516864148863e+000	 2.228474353338295e+000	 9.555375352009092e+000
 1.216835400450964e+000	 2.240939893930386e+000	 9.478253158305551e+000
 1.194062187348342e+000	 2.253156783880557e+000	 9.414052289667819e+000
 1.171201212294357e+000	 2.265124217415967e+000	 9.362941464808026e+000
 1.409065114965114e+000	 2.155263441376618e+000	 1.016748890849426e+001
 1.386921831912350e+000	 2.169578952728295e+000	 1.006593076243480e+001
 1.364657990562005e+000	 2.183651430233561e+000	 9.969623018661308e+000
 1.342277533060255e+000	 2.197479470715313e+000	 9.878629141985439e+000
 1.319784420180903e+000	 2.211061754955715e+000	 9.793008843001081e+000
 1.297182629126240e+000	 2.224397047893771e+000	 9.712817937938130e+000
 1.274476151330910e+000	 2.237484198754996e+000	 9.638108214083266e+000
 1.251668990271172e+000	 2.250322141113604e+000	 9.568927301126042e+000
 1.228765159281943e+000	 2.262909892887774e+000	 9.491220508351827e+000
 1.205768679383936e+000	 2.275246556268613e+000	 9.425469138648079e+000
 1.182683577123193e+000	 2.287331317583545e+000	 9.373248338386444e+000
 1.422745358801676e+000	 2.176188329156302e+000	 1.017074980844861e+001
 1.400387092418553e+000	 2.190642826055024e+000	 1.006906996672285e+001
 1.377907097268885e+000	 2.204851929555409e+000	 9.972732410627280e+000
 1.355309353772108e+000	 2.218814222857275e+000	 9.881815715380638e+000
 1.332597861156142e+000	 2.232528373934844e+000	 9.796394534630705e+000
 1.309776635236894e+000	 2.245993135736240e+000	 9.716539442553465e+000
 1.286849706200798e+000	 2.259207346314407e+000	 9.642316781902789e+000
 1.263821116392817e+000	 2.272169928889912e+000	 9.573788518400388e+000
 1.240694918112284e+000	 2.284879891846161e+000	 9.504724402432155e+000
 1.217475171418949e+000	 2.297336328657667e+000	 9.437713256655465e+000
 1.194165941951533e+000	 2.309538417752123e+000	 9.384677267075690e+000
 1.436425602638232e+000	 2.197113216936987e+000	 1.017161859099944e+001
 1.413852352924566e+000	 2.211706699382753e+000	 1.007014288286193e+001
 1.391156203975419e+000	 2.226052428878257e+000	 9.974100437132552e+000
 1.368341174483492e+000	 2.240148975000236e+000	 9.883584866276268e+000
 1.345411302130819e+000	 2.253994992914973e+000	 9.798685695587869e+000
 1.322370641346922e+000	 2.267589223579707e+000	 9.719488187508022e+000
 1.299223261070027e+000	 2.280930493874818e+000	 9.646073172271962e+000
 1.275973242513799e+000	 2.294017716667221e+000	 9.578516885309860e+000
 1.252624676941988e+000	 2.306849890805547e+000	 9.516890811798797e+000
 1.229181663453380e+000	 2.319426101047722e+000	 9.450697125047181e+000
 1.205648306779377e+000	 2.331745517921702e+000	 9.397129200939963e+000
 1.450105846474784e+000	 2.218038104718671e+000	 1.017020109175826e+001
 1.427317613430390e+000	 2.232770572711484e+000	 1.006924372641979e+001
 1.404405310681609e+000	 2.247252928202105e+000	 9.973809698890102e+000
 1.381372995194408e+000	 2.261483727144197e+000	 9.884007591924108e+000
 1.358224743104934e+000	 2.275461611896102e+000	 9.799941737227618e+000
 1.334964647456323e+000	 2.289185311424176e+000	 9.721712021955916e+000
 1.311596815938596e+000	 2.302653641436229e+000	 9.649413701925031e+000
 1.288125368634118e+000	 2.315865504445530e+000	 9.583137221984975e+000
 1.264554435771056e+000	 2.328819889765935e+000	 9.522968043984315e+000
 1.240888155487231e+000	 2.341515873438777e+000	 9.464335423758277e+000
 1.217130671606725e+000	 2.353952618092280e+000	 9.410507680294648e+000
 1.463786090311330e+000	 2.238962992501355e+000	 1.016660179140942e+001
 1.440782873936023e+000	 2.253834446041212e+000	 1.006646574742396e+001
 1.417654417387455e+000	 2.268453427526952e+000	 9.971942219379791e+000
 1.394404815904855e+000	 2.282818479289158e+000	 9.883154699390717e+000
 1.371038184078486e+000	 2.296928230878231e+000	 9.800222266330348e+000
 1.347558653565099e+000	 2.310781399269644e+000	 9.723259374474091e+000
 1.323970370806506e+000	 2.324376788998640e+000	 9.652375649230192e+000
 1.300277494753773e+000	 2.337713292224839e+000	 9.587675690442369e+000
 1.276484194599485e+000	 2.350789888727321e+000	 9.529258883721949e+000
 1.252594647520499e+000	 2.363605645830832e+000	 9.477219220245395e+000
 1.228613036433577e+000	 2.376159718263858e+000	 9.424718714666758e+000
 1.477466334147870e+000	 2.259887880285039e+000	 1.016092387843845e+001
 1.454248134441466e+000	 2.274898319371942e+000	 1.006190127506269e+001
 1.430903524092956e+000	 2.289653926852800e+000	 9.968579471572221e+000
 1.407436636614834e+000	 2.304153231435119e+000	 9.881096814362010e+000
 1.383851625051477e+000	 2.318394849861360e+000	 9.799587076054317e+000
 1.360152659673249e+000	 2.332377487116112e+000	 9.724179226237240e+000
 1.336343925673756e+000	 2.346099936562050e+000	 9.654997209669118e+000
 1.312429620872766e+000	 2.359561080005148e+000	 9.592159732460349e+000
 1.288413953427279e+000	 2.372759887689709e+000	 9.535780056723004e+000
 1.264301139553187e+000	 2.385695418223886e+000	 9.485965804151217e+000
 1.240095401259933e+000	 2.398366818436436e+000	 9.439670668479398e+000
 1.491146577984406e+000	 2.280812768069723e+000	 1.015326930840723e+001
 1.467713394946719e+000	 2.295962192703671e+000	 1.005564175992546e+001
 1.444152630798113e+000	 2.310854426179648e+000	 9.963802403181331e+000
 1.420468457324345e+000	 2.325487983582081e+000	 9.877904389463907e+000
 1.396665066023906e+000	 2.339861468845489e+000	 9.798096137386176e+000
 1.372746665780774e+000	 2.353973574963581e+000	 9.724521085669547e+000
 1.348717480540347e+000	 2.367823084126461e+000	 9.657317453767830e+000
 1.324581746991095e+000	 2.381408867786456e+000	 9.596618010874396e+000
 1.300343712254434e+000	 2.394729886653096e+000	 9.542549853832751e+000
 1.276007631585293e+000	 2.407785190617941e+000	 9.495234194442974e+000
 1.251577766085793e+000	 2.420573918610014e+000	 9.454786156628916e+000
 1.504826821820936e+000	 2.301737655855408e+000	 1.014373885999578e+001
 1.481178655451783e+000	 2.317026066036402e+000	 1.004777781393911e+001
 1.457401737502926e+000	 2.332054925507497e+000	 9.957691460539826e+000
 1.433500278033387e+000	 2.346822735730043e+000	 9.873647712128319e+000
 1.409478506995772e+000	 2.361328087830619e+000	 9.795809591057896e+000
 1.385340671887672e+000	 2.375569662812049e+000	 9.724334964478459e+000
 1.361091035406279e+000	 2.389546231691873e+000	 9.659376287321924e+000
 1.336733873108762e+000	 2.403256655568766e+000	 9.601080354074465e+000
 1.312273471080953e+000	 2.416699885617484e+000	 9.549588059887627e+000
 1.287714123616818e+000	 2.429874963012997e+000	 9.505034171548170e+000
 1.263060130911157e+000	 2.442781018784593e+000	 9.467547108801382e+000
 1.148236482635196e+000	 2.220710017083810e+000	 9.346103811058846e+000
 1.125741633415527e+000	 2.232197521464456e+000	 9.228957118099002e+000
 1.103168569379458e+000	 2.243439124998900e+000	 9.115039029081405e+000
 1.080521203455544e+000	 2.254434281350881e+000	 9.004426604926557e+000
 1.057803445709806e+000	 2.265182524719623e+000	 8.897192248379366e+000
 1.035019201340097e+000	 2.275683469402266e+000	 8.793403569960667e+000
 1.012172368694828e+000	 2.285936809298535e+000	 8.693123268198912e+000
 9.892668373179077e-001	 2.295942317358883e+000	 8.596409024188976e+000
 9.663064860216967e-001	 2.305699844977406e+000	 8.503313410481590e+000
 9.432951809896932e-001	 2.315209321330896e+000	 8.413883814263517e+000
 9.202367739106159e-001	 2.324470752665467e+000	 8.328162374744691e+000
 1.159718847465025e+000	 2.242917117249388e+000	 9.353858414757802e+000
 1.136999049752618e+000	 2.254519496673615e+000	 9.233453016398867e+000
 1.114200255075764e+000	 2.265873516243221e+000	 9.118130622774215e+000
 1.091326415492304e+000	 2.276978624158585e+000	 9.007979593845255e+000
 1.068381480168918e+000	 2.287834349960926e+000	 8.903081772892360e+000
 1.045369393355437e+000	 2.298440304090351e+000	 8.803512359747801e+000
 1.022294092383756e+000	 2.308796177385584e+000	 8.709339800800303e+000
 9.991595056932210e-001	 2.318901740526580e+000	 8.620625695770389e+000
 9.759695508843165e-001	 2.328756843421378e+000	 8.537424721204356e+000
 9.527281328023748e-001	 2.338361414538538e+000	 8.459784570587255e+000
 9.294391416530002e-001	 2.347715460186632e+000	 8.387745910930267e+000
 1.171201212294357e+000	 2.265124217415967e+000	 9.362941464808026e+000
 1.148256466089302e+000	 2.276841471883772e+000	 9.239728435847470e+000
 1.125231940771734e+000	 2.288307907488541e+000	 9.123429182939846e+000
 1.102131627528776e+000	 2.299522966967293e+000	 9.014143409167854e+000
 1.078959514627771e+000	 2.310486175203229e+000	 8.911962452889416e+000
 1.055719585370527e+000	 2.321197138779436e+000	 8.816969168031694e+000
 1.032415816072421e+000	 2.331655545473632e+000	 8.729237823645883e+000
 1.009052174068241e+000	 2.341861163695277e+000	 8.648834022671146e+000
 9.856326157465916e-001	 2.351813841866349e+000	 8.575814639802216e+000
 9.621610846146407e-001	 2.361513507747179e+000	 8.510227778303401e+000
 9.386415093948795e-001	 2.370960167708796e+000	 8.452112745559091e+000
 1.182683577123193e+000	 2.287331317583545e+000	 9.373248338386444e+000
 1.159513882425580e+000	 2.299163447094930e+000	 9.247662786068162e+000
 1.136263626467366e+000	 2.310742298734863e+000	 9.130799095300421e+000
 1.112936839564960e+000	 2.322067309776997e+000	 9.022768359878908e+000
 1.089537549086365e+000	 2.333138000446532e+000	 8.923671470639359e+000
 1.066069777385366e+000	 2.343953973469521e+000	 8.833599002595905e+000
 1.042537539760825e+000	 2.354514913562680e+000	 8.752631123826095e+000
 1.018944842442968e+000	 2.364820586864974e+000	 8.680837526001497e+000
 9.952956806085229e-001	 2.374870840312322e+000	 8.618277376404185e+000
 9.715940364264921e-001	 2.384665600956820e+000	 8.564999291213605e+000
 9.478438771362536e-001	 2.394204875231962e+000	 8.521041329793274e+000
 1.194165941951533e+000	 2.309538417752123e+000	 9.384677267075690e+000
 1.170771298761452e+000	 2.321485422307088e+000	 9.257138903302279e+000
 1.147295312162661e+000	 2.333176689982184e+000	 9.140108710552026e+000
 1.123742051600857e+000	 2.344611652587702e+000	 9.033709224355915e+000
 1.100115583544699e+000	 2.355789825690836e+000	 8.938050948225838e+000
 1.076419969399954e+000	 2.366710808160606e+000	 8.853232247424876e+000
 1.052659263448968e+000	 2.377374281652728e+000	 8.779339266966588e+000
 1.028837510817402e+000	 2.387780010035671e+000	 8.716445873693983e+000
 1.004958745470110e+000	 2.397927838759293e+000	 8.664613622225433e+000
 9.810269882379288e-001	 2.407817694167461e+000	 8.623891744494010e+000
 9.570462448771225e-001	 2.417449582756126e+000	 8.594317162547153e+000
 1.205648306779377e+000	 2.331745517921702e+000	 9.397129200939963e+000
 1.182028715096917e+000	 2.343807397520245e+000	 9.268042887236646e+000
 1.158326997857619e+000	 2.355611081230504e+000	 9.151230155556696e+000
 1.134547263636465e+000	 2.367155995399408e+000	 9.046825037540787e+000
 1.110693618002774e+000	 2.378441650936138e+000	 8.954947712317514e+000
 1.086770161414292e+000	 2.389467642852691e+000	 8.875704406694489e+000
 1.062780987136848e+000	 2.400233649743777e+000	 8.809187322060089e+000
 1.038730179191543e+000	 2.410739433207369e+000	 8.755474587797396e+000
 1.014621810331353e+000	 2.420984837207266e+000	 8.714630240944848e+000
 9.904599400489506e-001	 2.430969787379103e+000	 8.686704231772595e+000
 9.662486126174865e-001	 2.440694290281291e+000	 8.671732454880157e+000
 1.217130671606725e+000	 2.353952618092280e+000	 9.410507680294648e+000
 1.193286131431976e+000	 2.366129372734403e+000	 9.280263947067642e+000
 1.169358683552240e+000	 2.378045472479826e+000	 9.164039155221179e+000
 1.145352475671785e+000	 2.389700338212114e+000	 9.061978890158931e+000
 1.121271652460591e+000	 2.401093476182441e+000	 8.974213072254063e+000
 1.097120353428380e+000	 2.412224477545776e+000	 8.900855863253499e+000
 1.072902710824466e+000	 2.423093017835825e+000	 8.842005601873503e+000
 1.048622847565390e+000	 2.433698856380066e+000	 8.797744768339209e+000
 1.024284875192252e+000	 2.444041835656237e+000	 8.768139977550412e+000
 9.998928918595572e-001	 2.454121880591744e+000	 8.753242000485193e+000
 9.754509803573452e-001	 2.463938997807456e+000	 8.753085813386198e+000
 1.228613036433577e+000	 2.376159718263858e+000	 9.424718714666758e+000
 1.204543547766628e+000	 2.388451347949561e+000	 9.293694256196933e+000
 1.180390369246525e+000	 2.400479863730146e+000	 9.178414864363866e+000
 1.156157687706817e+000	 2.412244681025819e+000	 9.079037739196286e+000
 1.131849686918148e+000	 2.423745301429745e+000	 8.995702610575334e+000
 1.107470545442218e+000	 2.434981312239862e+000	 8.928531650648287e+000
 1.083024434511823e+000	 2.445952385928873e+000	 8.877629417911928e+000
 1.058515515938945e+000	 2.456658279553762e+000	 8.843082832672593e+000
 1.033947940052806e+000	 2.467098834106210e+000	 8.824961183512162e+000
 1.009325843669749e+000	 2.477273973805384e+000	 8.823316164314530e+000
 9.846533480966987e-001	 2.487183705334621e+000	 8.838181941336694e+000
 1.240095401259933e+000	 2.398366818436436e+000	 9.439670668479398e+000
 1.215800964100875e+000	 2.410773323165718e+000	 9.308228814999804e+000
 1.191422054940472e+000	 2.422914254981468e+000	 9.194239708923112e+000
 1.166962899741562e+000	 2.434789023840525e+000	 9.097872228905933e+000
 1.142427721375446e+000	 2.446397126678048e+000	 9.019275985188145e+000
 1.117820737455804e+000	 2.457738146934946e+000	 8.958581237812670e+000
 1.093146158198918e+000	 2.468811754022922e+000	 8.915898848995299e+000
 1.068408184312206e+000	 2.479617702728460e+000	 8.891320269303684e+000
 1.043611004913017e+000	 2.490155832557182e+000	 8.884917557222636e+000
 1.018758795479526e+000	 2.500426067020025e+000	 8.893038203989168e+000
 9.938557158355471e-001	 2.510428412862785e+000	 8.831122485178025e+000
 1.251577766085793e+000	 2.420573918610014e+000	 9.454786156628916e+000
 1.227058380434714e+000	 2.433095298382876e+000	 9.323765321147260e+000
 1.202453740634082e+000	 2.445348646233789e+000	 9.211399235905205e+000
 1.177768111776018e+000	 2.457333366656231e+000	 9.118356521667486e+000
 1.153005755832485e+000	 2.469048951927352e+000	 9.044796742422774e+000
 1.128170929469140e+000	 2.480494981631032e+000	 8.990858325609864e+000
 1.103267881885750e+000	 2.491671122117970e+000	 8.956658522574566e+000
 1.078300852685174e+000	 2.502577125904156e+000	 8.922459329006207e+000
 1.053274069772883e+000	 2.513212831009154e+000	 8.840664139132302e+000
 1.028191747288888e+000	 2.523578160235667e+000	 8.771547221745204e+000
 1.003058083573891e+000	 2.533673120391951e+000	 8.714503651049025e+000
 1.263060130911157e+000	 2.442781018784593e+000	 9.467547108801382e+000
 1.238315796768149e+000	 2.455417273601034e+000	 9.340204047002066e+000
 1.213485426327356e+000	 2.467783037487111e+000	 9.229781971518058e+000
 1.188573323810187e+000	 2.479877709472937e+000	 9.140368138072043e+000
 1.163583790289265e+000	 2.491700777177655e+000	 9.072132140286481e+000
 1.138521121482226e+000	 2.503251816328117e+000	 9.002981339156815e+000
 1.113389605572322e+000	 2.514530490214019e+000	 8.895350628795475e+000
 1.088193521057850e+000	 2.525536549080854e+000	 8.802671095331538e+000
 1.062937134632406e+000	 2.536269829462126e+000	 8.724247273124265e+000
 1.037624699097836e+000	 2.546730253452308e+000	 8.659415449806708e+000
 1.012260451311729e+000	 2.556917827922117e+000	 8.607544649313152e+000
 9.202367739106159e-001	 2.324470752665467e+000	 8.328162374744691e+000
 8.971351001457416e-001	 2.333484221532295e+000	 8.191793608412183e+000
 8.739939769303398e-001	 2.342249885973674e+000	 8.064565262670012e+000
 8.508172016108218e-001	 2.350767978661280e+000	 7.946414409643057e+000
 8.276085499197399e-001	 2.359038805988395e+000	 7.837269630635880e+000
 8.043717742891903e-001	 2.367062747117389e+000	 7.737051160053570e+000
 7.811106022040246e-001	 2.374840252984291e+000	 7.645671043626664e+000
 7.578287345960121e-001	 2.382371845262165e+000	 7.563033310355938e+000
 7.345298442800083e-001	 2.389658115285038e+000	 7.489034157568547e+000
 7.112175744331125e-001	 2.396699722934155e+000	 7.423562148450406e+000
 6.878955371177123e-001	 2.403497395488342e+000	 7.366498421400699e+000
 9.294391416530002e-001	 2.347715460186632e+000	 8.387745910930267e+000
 9.061064511509912e-001	 2.356819063742346e+000	 8.264699904036664e+000
 8.827339167038776e-001	 2.365672384828394e+000	 8.151836501730191e+000
 8.593253736315352e-001	 2.374275658443166e+000	 8.049102802680135e+000
 8.358846354238427e-001	 2.382629194043878e+000	 7.956436264389440e+000
 8.124154920372169e-001	 2.390733374584523e+000	 7.873764851838926e+000
 7.889217082313591e-001	 2.398588655510490e+000	 7.801007202014233e+000
 7.654070219473562e-001	 2.406195563711575e+000	 7.738072803689738e+000
 7.418751427282131e-001	 2.413554696435142e+000	 7.684862191817357e+000
 7.183297501828003e-001	 2.420666720161248e+000	 7.641267155840309e+000
 6.947744924941302e-001	 2.427532369441510e+000	 7.607170961228874e+000
 9.386415093948795e-001	 2.370960167708796e+000	 8.452112745559091e+000
 9.150778021556407e-001	 2.380153905953393e+000	 8.342974062952230e+000
 8.914738564767309e-001	 2.389094883684093e+000	 8.245053340745720e+000
 8.678335456514899e-001	 2.397783338226006e+000	 8.158307570659149e+000
 8.441607209271220e-001	 2.406219582100278e+000	 8.082682954252237e+000
 8.204592097843662e-001	 2.414404002052529e+000	 8.018115056371739e+000
 7.967328142577717e-001	 2.422337058037505e+000	 7.964528976060576e+000
 7.729853092977440e-001	 2.430019282161732e+000	 7.921839534263418e+000
 7.492204411754374e-001	 2.437451277585919e+000	 7.889951477632504e+000
 7.254419259314929e-001	 2.444633717388930e+000	 7.868759697708300e+000
 7.016534478695476e-001	 2.451567343395171e+000	 7.858149464723793e+000
 9.478438771362536e-001	 2.394204875231962e+000	 8.521041329793274e+000
 9.240491531596904e-001	 2.403488748165434e+000	 8.426377408325754e+000
 9.002137962488996e-001	 2.412517382540771e+000	 8.343960461209655e+000
 8.763417176706850e-001	 2.421291018009798e+000	 8.273757244853972e+000
 8.524368064295779e-001	 2.429809970157597e+000	 8.215722577477168e+000
 8.285029275306374e-001	 2.438074629521406e+000	 8.169799497435083e+000
 8.045439202832622e-001	 2.446085460565335e+000	 8.135919440594130e+000
 7.805635966471758e-001	 2.453843000612641e+000	 8.114002436043180e+000
 7.565657396216809e-001	 2.461347858737370e+000	 8.103957319402582e+000
 7.325541016791903e-001	 2.468600714617200e+000	 8.105681962960251e+000
 7.085324032439653e-001	 2.475602317349326e+000	 8.119063521834315e+000
 9.570462448771225e-001	 2.417449582756126e+000	 8.594317162547153e+000
 9.330205041631401e-001	 2.426823590378469e+000	 8.514678954302298e+000
 9.089537360203834e-001	 2.435939881398428e+000	 8.448310862932095e+000
 8.848498896891215e-001	 2.444798697794545e+000	 8.395189286129337e+000
 8.607128919312104e-001	 2.453400358215832e+000	 8.355277535948439e+000
 8.365466452760311e-001	 2.461745256991155e+000	 8.328526002094515e+000
 8.123550263078310e-001	 2.469833863093982e+000	 8.314872335844125e+000
 7.881418839956514e-001	 2.477666719064299e+000	 8.314241653848212e+000
 7.639110380669438e-001	 2.485244439889495e+000	 8.326546761034054e+000
 7.396662774258928e-001	 2.492567711846060e+000	 8.351688391786979e+000
 7.154113586173831e-001	 2.499637291303976e+000	 8.389555468564822e+000
 9.662486126174865e-001	 2.440694290281291e+000	 8.671732454880157e+000
 9.419918551659895e-001	 2.450158432592499e+000	 8.607655039767941e+000
 9.176936757911829e-001	 2.459362380257065e+000	 8.557865467930107e+000
 8.933580617067988e-001	 2.468306377580245e+000	 8.522349659721877e+000
 8.689889774320195e-001	 2.476990746274987e+000	 8.501079302627186e+000
 8.445903630205472e-001	 2.485415884461776e+000	 8.494012019589684e+000
 8.201661323314781e-001	 2.493582265623445e+000	 8.501091559564506e+000
 7.957201713431709e-001	 2.501490437516708e+000	 8.501638814459872e+000
 7.712563365112262e-001	 2.509141021042294e+000	 8.424409875467248e+000
 7.467784531715996e-001	 2.516534709075508e+000	 8.353497286972480e+000
 7.222903139898008e-001	 2.523672265259119e+000	 8.288727759077061e+000
 9.754509803573452e-001	 2.463938997807456e+000	 8.753085813386198e+000
 9.509632061682393e-001	 2.473493274807525e+000	 8.705088982843309e+000
 9.264336155612976e-001	 2.482784879116681e+000	 8.672392746738629e+000
 9.018662337237170e-001	 2.491814057366899e+000	 8.654992434090731e+000
 8.772650629320055e-001	 2.500581134335059e+000	 8.646069700253429e+000
 8.526340807641859e-001	 2.509086511933269e+000	 8.553914326073691e+000
 8.279772383542032e-001	 2.517330668153723e+000	 8.469014175718545e+000
 8.032984586897343e-001	 2.525314155969867e+000	 8.391086669810639e+000
 7.786016349545281e-001	 2.533037602195768e+000	 8.319884567726325e+000
 7.538906289163119e-001	 2.540501706305546e+000	 8.255195958061970e+000
 7.291692693612184e-001	 2.547707239214755e+000	 8.196844165806388e+000
 9.846533480966987e-001	 2.487183705334621e+000	 8.838181941336694e+000
 9.599345571698887e-001	 2.496828117023545e+000	 8.806770754750957e+000
 9.351735553307278e-001	 2.506207377977277e+000	 8.727259512052120e+000
 9.103744057398764e-001	 2.515321737154507e+000	 8.625079677131462e+000
 8.855411484311677e-001	 2.524171522396047e+000	 8.531019265918557e+000
 8.606777985069467e-001	 2.532757139405634e+000	 8.444717950991059e+000
 8.357883443760064e-001	 2.541079070684818e+000	 8.365851226667870e+000
 8.108767460353414e-001	 2.549137874423776e+000	 8.294130579275031e+000
 7.859469333968494e-001	 2.556934183349917e+000	 8.229303568462120e+000
 7.610028046600288e-001	 2.564468703536172e+000	 8.171153821263903e+000
 7.360482247316361e-001	 2.571742213170885e+000	 8.119500940811527e+000
 9.938557158355471e-001	 2.510428412862785e+000	 8.831122485178025e+000
 9.689059081709385e-001	 2.520162959240560e+000	 8.717105946631698e+000
 9.439134950994733e-001	 2.529629876838852e+000	 8.612216389413238e+000
 9.188825777552764e-001	 2.538829416943069e+000	 8.516013283744011e+000
 8.938172339295070e-001	 2.547761910457955e+000	 8.428092049775922e+000
 8.687215162488302e-001	 2.556427766878872e+000	 8.348084422390979e+000
 8.435994503968877e-001	 2.564827473216728e+000	 8.275658722079795e+000
 8.184550333799924e-001	 2.572961592878435e+000	 8.210520033163157e+000
 7.932922318381903e-001	 2.580830764504740e+000	 8.152410290859647e+000
 7.681149804027504e-001	 2.588435700767387e+000	 8.101108278929189e+000
 7.429271801010537e-001	 2.595777187127509e+000	 8.056429539837941e+000
 1.003058083573891e+000	 2.533673120391951e+000	 8.714503651049025e+000
 9.778772591713881e-001	 2.543497801458570e+000	 8.606668240631537e+000
 9.526534348675341e-001	 2.553052375701406e+000	 8.508110724348803e+000
 9.273907497699173e-001	 2.562337096732584e+000	 8.418380498169176e+000
 9.020933194270226e-001	 2.571352298520780e+000	 8.337063691685854e+000
 8.767652339898359e-001	 2.580098394352981e+000	 8.263783545655041e+000
 8.514105564168474e-001	 2.588575875749455e+000	 8.198200693278414e+000
 8.260333207236873e-001	 2.596785311333844e+000	 8.140013346518426e+000
 8.006375302785507e-001	 2.604727345660238e+000	 8.088957388980608e+000
 7.752271561444770e-001	 2.612402697999191e+000	 8.044806377127731e+000
 7.498061354694716e-001	 2.619812161084627e+000	 8.007371451814105e+000
 1.012260451311729e+000	 2.556917827922117e+000	 8.607544649313152e+000
 9.868486101712383e-001	 2.566832643677576e+000	 8.506440854707874e+000
 9.613933746349105e-001	 2.576474874564940e+000	 8.414736268549268e+000
 9.358989217837996e-001	 2.585844776523053e+000	 8.331969567489409e+000
 9.103694049237151e-001	 2.594942686584524e+000	 8.257716988124523e+000
 8.848089517299641e-001	 2.603769021827961e+000	 8.191592717567932e+000
 8.592216624358853e-001	 2.612324278282998e+000	 8.133249185354890e+000
 8.336116080664262e-001	 2.620609029790004e+000	 8.082377257993006e+000
 8.079828287179304e-001	 2.628623926816410e+000	 8.038706337723660e+000
 7.823393318852088e-001	 2.636369695231585e+000	 8.002004367298074e+000
 7.566850908368894e-001	 2.643847135042238e+000	 7.972077742797380e+000
 6.878955371177123e-001	 2.403497395488342e+000	 7.366498421400699e+000
 6.645673118488593e-001	 2.410051926439911e+000	 7.298540201356621e+000
 6.412364442077186e-001	 2.416364174279133e+000	 7.198664781870200e+000
 6.179064445013772e-001	 2.422435061248221e+000	 7.082779136881788e+000
 5.945807864685849e-001	 2.428265572065930e+000	 6.992566478298491e+000
 5.712629060330334e-001	 2.433856752625838e+000	 6.905011865039477e+000
 5.479562001042998e-001	 2.439209708669709e+000	 6.822336018485069e+000
 5.246640254268120e-001	 2.444325604437782e+000	 6.746579693878299e+000
 5.013896974771264e-001	 2.449205661297806e+000	 6.679603015703709e+000
 4.781364894097328e-001	 2.453851156354649e+000	 6.623085228280227e+000
 4.549076310515292e-001	 2.458263421042266e+000	 6.578524851226533e+000
 6.947744924941302e-001	 2.427532369441510e+000	 7.607170961228874e+000
 6.712129849723891e-001	 2.434152445703129e+000	 7.561080243691553e+000
 6.476488086545391e-001	 2.440527816021247e+000	 7.487297805520874e+000
 6.240855089507390e-001	 2.446659411860499e+000	 7.387615903168670e+000
 6.005265943371264e-001	 2.452548227786828e+000	 7.321561084075340e+000
 5.769755350966314e-001	 2.458195320152747e+000	 7.265713365468120e+000
 5.534357621079273e-001	 2.463601805757441e+000	 7.222356128238253e+000
 5.299106656828874e-001	 2.468768860483547e+000	 7.193581829717478e+000
 5.064035944528342e-001	 2.473697717912495e+000	 7.181291416433437e+000
 4.829178543038038e-001	 2.478389667920199e+000	 7.187194169178551e+000
 4.594567073609638e-001	 2.482846055254957e+000	 7.212807969485606e+000
 7.016534478695476e-001	 2.451567343395171e+000	 7.858149464723793e+000
 6.778586580949291e-001	 2.458252964966745e+000	 7.834605382021206e+000
 6.540611731004010e-001	 2.464691457763677e+000	 7.787525210802030e+000
 6.302645733991937e-001	 2.470883762473018e+000	 7.716965433810374e+000
 6.064724022048331e-001	 2.476830883507902e+000	 7.665626399663402e+000
 5.826881641594867e-001	 2.482533887679779e+000	 7.639805562748160e+000
 5.589153241109244e-001	 2.487993902845249e+000	 7.634132838621581e+000
 5.351573059384641e-001	 2.493212116529355e+000	 7.650755484301229e+000
 5.114174914281953e-001	 2.498189774527202e+000	 7.691618199679018e+000
 4.876992191976991e-001	 2.502928179485754e+000	 7.675273558453043e+000
 4.640057836704129e-001	 2.507428689467647e+000	 7.623432242070457e+000
 7.085324032439653e-001	 2.475602317349326e+000	 8.119063521834315e+000
 6.845043312164796e-001	 2.482353484230761e+000	 8.118728212988117e+000
 6.604735375453047e-001	 2.488855099506419e+000	 8.098944919981554e+000
 6.364436378467417e-001	 2.495108113085776e+000	 8.059747683003236e+000
 6.124182100717048e-001	 2.501113539229152e+000	 8.003311197256130e+000
 5.884007932215993e-001	 2.506872455206933e+000	 7.884490376563252e+000
 5.643948861132908e-001	 2.512385999933136e+000	 7.782566664608845e+000
 5.404039461935424e-001	 2.517655372575207e+000	 7.696473410174804e+000
 5.164313884032095e-001	 2.522681831141929e+000	 7.625308870472012e+000
 4.924805840914187e-001	 2.527466691051314e+000	 7.568335449510010e+000
 4.685548599798770e-001	 2.532011323680339e+000	 7.524978581844986e+000
 7.154113586173831e-001	 2.499637291303976e+000	 8.389555468564822e+000
 6.911500043370404e-001	 2.506454003495176e+000	 8.303359406717574e+000
 6.668859019892492e-001	 2.513018741249476e+000	 8.189069811089484e+000
 6.426227022933826e-001	 2.519332463698774e+000	 8.052648758715964e+000
 6.183640179377417e-001	 2.525396194950578e+000	 7.903904396665626e+000
 5.941134222829690e-001	 2.531211022734207e+000	 7.785468555521368e+000
 5.698744481150269e-001	 2.536778097021101e+000	 7.685821112576285e+000
 5.456505864481224e-001	 2.542098628621103e+000	 7.603801188835617e+000
 5.214452853778768e-001	 2.547173887756675e+000	 7.538416537863879e+000
 4.972619489849625e-001	 2.552005202616878e+000	 7.488842853803056e+000
 4.731039362893555e-001	 2.556593957893029e+000	 7.454422713813740e+000
 7.222903139898008e-001	 2.523672265259119e+000	 8.288727759077061e+000
 6.977956774566120e-001	 2.530554522759990e+000	 8.201466083981918e+000
 6.732982664322361e-001	 2.537182382992848e+000	 8.095106998482919e+000
 6.488017667391167e-001	 2.543556814312013e+000	 7.969715844034753e+000
 6.243098258029439e-001	 2.549678850672179e+000	 7.826134611784449e+000
 5.998260513435961e-001	 2.555549590261605e+000	 7.709381361168404e+000
 5.753540101161321e-001	 2.561170194109142e+000	 7.613150311173376e+000
 5.508972267022037e-001	 2.566541884667042e+000	 7.536184710160217e+000
 5.264591823521972e-001	 2.571665944371441e+000	 7.477400362176459e+000
 5.020433138783306e-001	 2.576543714182448e+000	 7.435885003653916e+000
 4.776530125988488e-001	 2.581176592105721e+000	 7.410897303263910e+000
 7.291692693612184e-001	 2.547707239214755e+000	 8.196844165806388e+000
 7.044413505751935e-001	 2.554655042025202e+000	 8.114795766010943e+000
 6.797106308742640e-001	 2.561346024736534e+000	 8.016681477479759e+000
 6.549808311839440e-001	 2.567781164925491e+000	 7.902545392316500e+000
 6.302556336673110e-001	 2.573961506393957e+000	 7.772483705859653e+000
 6.055386804034806e-001	 2.579888157789124e+000	 7.655163488321771e+000
 5.808335721166071e-001	 2.585562291197262e+000	 7.563530363770307e+000
 5.561438669557863e-001	 2.590985140713025e+000	 7.492642037582008e+000
 5.314730793261709e-001	 2.596158000986225e+000	 7.441320873521595e+000
 5.068246787715230e-001	 2.601082225748022e+000	 7.408565358690685e+000
 4.822020889083566e-001	 2.605759226318411e+000	 7.393549159543832e+000
 7.360482247316361e-001	 2.571742213170885e+000	 8.119500940811527e+000
 7.110870236927857e-001	 2.578755561290814e+000	 8.043058905553878e+000
 6.861229953153335e-001	 2.585509666480533e+000	 7.953494829109951e+000
 6.611598956278644e-001	 2.592005515539209e+000	 7.850831716353722e+000
 6.362014415308431e-001	 2.598244162115911e+000	 7.735143335263331e+000
 6.112513094626224e-001	 2.604226725316765e+000	 7.621762798141107e+000
 5.863131341164515e-001	 2.609954388285460e+000	 7.535950747311736e+000
 5.613905072088706e-001	 2.615428396759050e+000	 7.472204742838010e+000
 5.364869762997979e-001	 2.620650057601029e+000	 7.429252173088893e+000
 5.116060436645397e-001	 2.625620737313601e+000	 7.406000941020512e+000
 4.867511652178794e-001	 2.630341860531103e+000	 7.401538575125805e+000
 7.429271801010537e-001	 2.595777187127509e+000	 8.056429539837941e+000
 7.177326968093882e-001	 2.602856080556824e+000	 7.985977020892920e+000
 6.925353597554443e-001	 2.609673308224849e+000	 7.905260178691258e+000
 6.673389600708780e-001	 2.616229866153168e+000	 7.814281081094219e+000
 6.421472493935406e-001	 2.622526817838040e+000	 7.713091286856514e+000
 6.169639385210213e-001	 2.628565292844528e+000	 7.608139708575765e+000
 5.917926961156652e-001	 2.634346485373736e+000	 7.529413693169743e+000
 5.666371474614564e-001	 2.639871652805121e+000	 7.473917280584522e+000
 5.415008732730777e-001	 2.645142114215853e+000	 7.440281304854797e+000
 5.163874085573806e-001	 2.650159248879185e+000	 7.427321707336788e+000
 4.913002415274165e-001	 2.654924494743793e+000	 7.434038701387265e+000
 7.498061354694716e-001	 2.619812161084627e+000	 8.007371451814105e+000
 7.243783699250013e-001	 2.626956599823234e+000	 7.943282188249776e+000
 6.989477241945968e-001	 2.633836949969477e+000	 7.871701666274436e+000
 6.735180245129846e-001	 2.640454216767366e+000	 7.792611155376707e+000
 6.480930572554030e-001	 2.646809473560346e+000	 7.706040211102456e+000
 6.226765675786774e-001	 2.652903860372411e+000	 7.613266618365110e+000
 5.972722581142484e-001	 2.658738582462088e+000	 7.542933602078561e+000
 5.718837877135435e-001	 2.664314908851234e+000	 7.496836397437033e+000
 5.465147702460110e-001	 2.669634170830696e+000	 7.473507661876734e+000
 5.211687734500459e-001	 2.674697760444774e+000	 7.471669955589654e+000
 4.958493178369686e-001	 2.679507128956484e+000	 7.490234958752518e+000
 7.566850908368894e-001	 2.643847135042238e+000	 7.972077742797380e+000
 7.310240430396248e-001	 2.651057119090043e+000	 7.914716561879454e+000
 7.053600886327910e-001	 2.658000591714422e+000	 7.852553945973895e+000
 6.796970889541847e-001	 2.664678567381807e+000	 7.785550493572626e+000
 6.540388651164307e-001	 2.671092129282827e+000	 7.713713951251703e+000
 6.283891966355913e-001	 2.677242427900419e+000	 7.637098482762255e+000
 6.027518201122013e-001	 2.683130679550520e+000	 7.575536490981380e+000
 5.771304279651326e-001	 2.688758164897393e+000	 7.540030573245150e+000
 5.515286672185974e-001	 2.694126227445558e+000	 7.528042424971417e+000
 5.259501383425356e-001	 2.699236272010369e+000	 7.538199764019899e+000
 5.003983941465354e-001	 2.704089763169176e+000	 7.569324479009151e+000
 4.549076310515292e-001	 2.458263421042266e+000	 6.578524851226533e+000
 4.317063079453936e-001	 2.462443839700501e+000	 6.526601332549314e+000
 4.085356604418978e-001	 2.466393848136456e+000	 6.478697273841257e+000
 3.853987828395771e-001	 2.470114932173583e+000	 6.435809141489509e+000
 3.622987225744608e-001	 2.473608626191483e+000	 6.398765593596933e+000
 3.392384794576846e-001	 2.476876511656139e+000	 6.368229268008583e+000
 3.162210049612343e-001	 2.479920215642903e+000	 6.344698893019045e+000
 2.932492015515175e-001	 2.482741409353888e+000	 6.328511706476336e+000
 2.703259220703981e-001	 2.485341806631372e+000	 6.319846168613164e+000
 2.474539691632796e-001	 2.487723162468774e+000	 6.318724953605422e+000
 2.246360947537655e-001	 2.489887271520747e+000	 6.325018204595921e+000
 4.594567073609638e-001	 2.482846055254957e+000	 7.212807969485606e+000
 4.360233710227999e-001	 2.487068278099993e+000	 7.235439334210905e+000
 4.126210170435670e-001	 2.491057786620465e+000	 7.268723465560802e+000
 3.892527706647829e-001	 2.494816081498057e+000	 7.313648892731287e+000
 3.659217097968351e-001	 2.498344712456170e+000	 7.371027231542241e+000
 3.426308642489683e-001	 2.501645276775445e+000	 7.363243113851842e+000
 3.193832150078860e-001	 2.504719417801991e+000	 7.282335434632719e+000
 2.961816935646570e-001	 2.507568823449939e+000	 7.201558982636179e+000
 2.730291812895615e-001	 2.510195224699992e+000	 7.121752613629144e+000
 2.499285088544547e-001	 2.512600394095503e+000	 7.043895169485436e+000
 2.268824557021734e-001	 2.514786144237676e+000	 6.969101334930056e+000
 4.640057836704129e-001	 2.507428689467647e+000	 7.623432242070457e+000
 4.403404341004001e-001	 2.511692716499485e+000	 7.555517307768185e+000
 4.167063736455675e-001	 2.515721725104473e+000	 7.486377399612914e+000
 3.931067584904167e-001	 2.519517230822531e+000	 7.416030602635862e+000
 3.695446970196931e-001	 2.523080798720856e+000	 7.344656878583338e+000
 3.460232490407513e-001	 2.526414041894752e+000	 7.272595091621468e+000
 3.225454250550121e-001	 2.529518619961077e+000	 7.200339759417151e+000
 2.991141855782066e-001	 2.532396237545988e+000	 7.128537544239912e+000
 2.757324405090316e-001	 2.535048642768611e+000	 7.057983498993499e+000
 2.524030485457940e-001	 2.537477625722233e+000	 6.989617083294601e+000
 2.291288166505648e-001	 2.539685016954604e+000	 6.924517964871784e+000
 4.685548599798770e-001	 2.532011323680339e+000	 7.524978581844986e+000
 4.446574971781941e-001	 2.536317154898977e+000	 7.463290783554101e+000
 4.207917302478996e-001	 2.540385663588481e+000	 7.400843615874051e+000
 3.969607463164783e-001	 2.544218380147005e+000	 7.337588223416137e+000
 3.731676842430350e-001	 2.547816884985544e+000	 7.273642371731636e+000
 3.494156338330333e-001	 2.551182807014058e+000	 7.209287459259091e+000
 3.257076351026126e-001	 2.554317822120163e+000	 7.144965244891060e+000
 3.020466775921665e-001	 2.557223651642039e+000	 7.081274306165111e+000
 2.784356997288085e-001	 2.559902060837231e+000	 7.018966243360199e+000
 2.548775882372977e-001	 2.562354857348963e+000	 6.958941645000806e+000
 2.313751775989394e-001	 2.564583889671531e+000	 6.902245830437466e+000
 4.731039362893555e-001	 2.556593957893029e+000	 7.454422713813740e+000
 4.489745602561820e-001	 2.560941593298469e+000	 7.399012004313438e+000
 4.248770868505629e-001	 2.565049602072488e+000	 7.343164412628521e+000
 4.008147341429679e-001	 2.568919529471480e+000	 7.286763605987361e+000
 3.767906714668604e-001	 2.572552971250230e+000	 7.229864793495953e+000
 3.528080186258144e-001	 2.575951572133364e+000	 7.172691721919467e+000
 3.288698451506876e-001	 2.579117024279250e+000	 7.115633377090998e+000
 3.049791696065365e-001	 2.582051065738089e+000	 7.059240406320082e+000
 2.811389589488919e-001	 2.584755478905850e+000	 7.004221277467818e+000
 2.573521279289656e-001	 2.587232088975692e+000	 6.951438190588154e+000
 2.336215385472976e-001	 2.589482762388461e+000	 6.901902758207684e+000
 4.776530125988488e-001	 2.581176592105721e+000	 7.410897303263910e+000
 4.532916233343635e-001	 2.585566031697960e+000	 7.361864324618500e+000
 4.289624434535578e-001	 2.589713540556496e+000	 7.312573625330425e+000
 4.046687219698854e-001	 2.593620678795952e+000	 7.262840821474666e+000
 3.804136586911696e-001	 2.597289057514917e+000	 7.212658170152624e+000
 3.562004034190944e-001	 2.600720337252671e+000	 7.162191546708858e+000
 3.320320551992371e-001	 2.603916226438336e+000	 7.111777117337952e+000
 3.079116616213166e-001	 2.606878479834140e+000	 7.061917722840875e+000
 2.838422181692820e-001	 2.609608896974470e+000	 7.013278989591067e+000
 2.598266676207978e-001	 2.612109320602423e+000	 6.966685184017665e+000
 2.358678994956391e-001	 2.614381635105389e+000	 6.923114827099196e+000
 4.822020889083566e-001	 2.605759226318411e+000	 7.393549159543832e+000
 4.576086864127388e-001	 2.610190470097453e+000	 7.351044829556734e+000
 4.330478000568840e-001	 2.614377479040504e+000	 7.308318356956651e+000
 4.085227097972309e-001	 2.618321828120427e+000	 7.265116696717757e+000
 3.840366459159625e-001	 2.622025143779602e+000	 7.221368723721014e+000
 3.595927882128737e-001	 2.625489102371976e+000	 7.177182189008414e+000
 3.351942652482610e-001	 2.628715428597423e+000	 7.132840360950370e+000
 3.108441536365070e-001	 2.631705893930189e+000	 7.088798367476960e+000
 2.865454773899787e-001	 2.634462315043090e+000	 7.045679255844652e+000
 2.623012073127942e-001	 2.636986552229152e+000	 7.004269786662340e+000
 2.381142604439641e-001	 2.639280507822317e+000	 6.965515979103026e+000
 4.867511652178794e-001	 2.630341860531103e+000	 7.401538575125805e+000
 4.619257494913080e-001	 2.634814908496944e+000	 7.365763693117901e+000
 4.371331566605418e-001	 2.639041417524512e+000	 7.329658358028798e+000
 4.123766976250043e-001	 2.643022977444900e+000	 7.292900218209857e+000
 3.876596331412391e-001	 2.646761230044289e+000	 7.255354302068060e+000
 3.629851730071521e-001	 2.650257867491282e+000	 7.217069950965784e+000
 3.383564752977594e-001	 2.653514630756510e+000	 7.178277426309544e+000
 3.137766456521076e-001	 2.656533308026239e+000	 7.139384207384715e+000
 2.892487366109821e-001	 2.659315733111709e+000	 7.100970996826789e+000
 2.647757470049549e-001	 2.661863783855882e+000	 7.063787450886054e+000
 2.403606213922725e-001	 2.664179380539246e+000	 7.028747651851942e+000
 4.913002415274165e-001	 2.654924494743793e+000	 7.434038701387265e+000
 4.662428125700708e-001	 2.659439346896436e+000	 7.405243572226373e+000
 4.412185132645307e-001	 2.663705356008520e+000	 7.375865441078687e+000
 4.162306854532058e-001	 2.667724126769374e+000	 7.345511969150321e+000
 3.912826203669995e-001	 2.671497316308976e+000	 7.313983840675255e+000
 3.663775578019295e-001	 2.675026632610588e+000	 7.281271670070823e+000
 3.415186853477322e-001	 2.678313832915597e+000	 7.247552572310641e+000
 3.167091376681183e-001	 2.681360722122288e+000	 7.213186413488342e+000
 2.919519958322920e-001	 2.684169151180329e+000	 7.178711758893281e+000
 2.672502866972798e-001	 2.686741015482612e+000	 7.144841536201459e+000
 2.426069823405643e-001	 2.689078253256174e+000	 7.112458431599388e+000
 4.958493178369686e-001	 2.679507128956484e+000	 7.490234958752518e+000
 4.705598756490275e-001	 2.684063785295928e+000	 7.468719034129681e+000
 4.453038698688512e-001	 2.688369294492528e+000	 7.446222927345252e+000
 4.200846732818352e-001	 2.692425276093848e+000	 7.422283597485887e+000
 3.949056075932435e-001	 2.696233402573661e+000	 7.396636854031856e+000
 3.697699425972060e-001	 2.699795397729894e+000	 7.369214235882727e+000
 3.446808953981795e-001	 2.703113035074683e+000	 7.340139542375747e+000
 3.196416296845391e-001	 2.706188136218339e+000	 7.309725033701647e+000
 2.946552550539088e-001	 2.709022569248948e+000	 7.278467318480309e+000
 2.697248263897690e-001	 2.711618247109342e+000	 7.247042946556777e+000
 2.448533432888395e-001	 2.713977125973103e+000	 7.216303725301407e+000
 5.003983941465354e-001	 2.704089763169176e+000	 7.569324479009151e+000
 4.748769387281781e-001	 2.708688223695421e+000	 7.555436015019411e+000
 4.493892264735033e-001	 2.713033232976536e+000	 7.540025123651299e+000
 4.239386611108925e-001	 2.717126425418323e+000	 7.522557312967509e+000
 3.985285948199714e-001	 2.720969488838350e+000	 7.502702954771585e+000
 3.731623273929819e-001	 2.724564162849201e+000	 7.480334133118189e+000
 3.478431054491013e-001	 2.727912237233770e+000	 7.455521133338902e+000
 3.225741217013704e-001	 2.731015550314390e+000	 7.428528589428283e+000
 2.973585142758322e-001	 2.733875987317568e+000	 7.399811308009887e+000
 2.721993660824226e-001	 2.736495478736074e+000	 7.370009787406634e+000
 2.470997042370982e-001	 2.738875998690031e+000	 7.339945450584769e+000
 2.246360947537655e-001	 2.489887271520747e+000	 6.325018204595921e+000
 2.018749995641979e-001	 2.491835966613445e+000	 6.344754713915393e+000
 1.791733326820581e-001	 2.493571117257746e+000	 6.369118660611475e+000
 1.565336911712554e-001	 2.495094628165967e+000	 6.397603330833560e+000
 1.339586197272681e-001	 2.496408437772546e+000	 6.429564615435799e+000
 1.114506103760082e-001	 2.497514516761370e+000	 6.464225305970134e+000
 8.901210221548993e-002	 2.498414866600590e+000	 6.500679561373837e+000
 6.664548119953383e-002	 2.499111518086177e+000	 6.537897529723206e+000
 4.435307996270520e-002	 2.499606529895404e+000	 6.574730109554431e+000
 2.213717768565474e-002	 2.499901987151415e+000	 6.609913835431989e+000
 0.000000000000000e+000	 2.500000000000000e+000	 6.642075872660490e+000
 2.268824557021734e-001	 2.514786144237676e+000	 6.969101334930056e+000
 2.038937495620015e-001	 2.516754326280969e+000	 6.905882063588204e+000
 1.809650660120170e-001	 2.518506828431417e+000	 6.845608392386546e+000
 1.580990280867715e-001	 2.520045574448460e+000	 6.789829143286100e+000
 1.352982059287010e-001	 2.521372522150882e+000	 6.740211098387341e+000
 1.125651164839799e-001	 2.522489661929406e+000	 6.698533996340831e+000
 8.990222324160553e-002	 2.523399015266865e+000	 6.666685412737725e+000
 6.731193601494005e-002	 2.524102633267189e+000	 6.646655539121735e+000
 4.479661076489755e-002	 2.524602595194424e+000	 6.640531875052567e+000
 2.235854946393852e-002	 2.524901007022946e+000	 6.650493847401778e+000
 0.000000000000000e+000	 2.525000000000000e+000	 6.678807370787746e+000
 2.291288166505648e-001	 2.539685016954604e+000	 6.924517964871784e+000
 2.059124995596093e-001	 2.541672685948493e+000	 6.871620015188899e+000
 1.827567993416422e-001	 2.543442539605088e+000	 6.821175087022560e+000
 1.596643650018568e-001	 2.544996520730956e+000	 6.774704224868435e+000
 1.366377921296466e-001	 2.546336606529219e+000	 6.733851159805228e+000
 1.136796225914477e-001	 2.547464807097442e+000	 6.700377205999036e+000
 9.079234426724051e-002	 2.548383163933141e+000	 6.676156035065232e+000
 6.797839082992800e-002	 2.549093748448203e+000	 6.663168343363589e+000
 4.524014156677282e-002	 2.549598660493445e+000	 6.663496427098593e+000
 2.257992124204479e-002	 2.549900026894476e+000	 6.679318679841183e+000
 0.000000000000000e+000	 2.550000000000000e+000	 6.712904026808638e+000
 2.313751775989394e-001	 2.564583889671531e+000	 6.902245830437466e+000
 2.079312495570213e-001	 2.566591045616016e+000	 6.857747623904778e+000
 1.845485326709337e-001	 2.568378250778760e+000	 6.815083392138738e+000
 1.612297019165114e-001	 2.569947467013449e+000	 6.775747564711034e+000
 1.379773783301049e-001	 2.571300690907556e+000	 6.741362117772222e+000
 1.147941286984118e-001	 2.572439952265479e+000	 6.713671366546775e+000
 9.168246529239485e-002	 2.573367312599416e+000	 6.694536629446987e+000
 6.864484564449770e-002	 2.574084863629215e+000	 6.685930779335235e+000
 4.568367236833103e-002	 2.574594725792466e+000	 6.689932697252982e+000
 2.280129301997355e-002	 2.574899046766007e+000	 6.708721643680759e+000
 0.000000000000000e+000	 2.575000000000000e+000	 6.744571562110172e+000
 2.336215385472976e-001	 2.589482762388461e+000	 6.901902758207684e+000
 2.099499995542375e-001	 2.591509405283540e+000	 6.863944866312053e+000
 1.863402659998916e-001	 2.593313961952431e+000	 6.827074567875549e+000
 1.627950388307353e-001	 2.594898413295944e+000	 6.792760816134590e+000
 1.393169645300759e-001	 2.596264775285892e+000	 6.762605106128021e+000
 1.159086348048721e-001	 2.597415097433515e+000	 6.738336159057921e+000
 9.257258631706855e-002	 2.598351461265692e+000	 6.721804471916595e+000
 6.931130045864915e-002	 2.599075978810228e+000	 6.714976748372236e+000
 4.612720316957215e-002	 2.599590791091487e+000	 6.719930226694298e+000
 2.302266479772481e-002	 2.599898066637538e+000	 6.738846920236886e+000
 0.000000000000000e+000	 2.600000000000000e+000	 6.774007785718301e+000
 2.358678994956391e-001	 2.614381635105389e+000	 6.923114827099196e+000
 2.119687495512579e-001	 2.616427764951064e+000	 6.889898513267561e+000
 1.881319993285157e-001	 2.618249673126103e+000	 6.856895181441496e+000
 1.643603757445284e-001	 2.619849359578438e+000	 6.825549424028394e+000
 1.406565507295597e-001	 2.621228859664229e+000	 6.797443507366799e+000
 1.170231409108286e-001	 2.622390242601552e+000	 6.774291943807111e+000
 9.346270734126161e-002	 2.623335609931967e+000	 6.757935922588081e+000
 6.997775527238233e-002	 2.624067093991242e+000	 6.750337615979872e+000
 4.657073397049620e-002	 2.624586856390508e+000	 6.753574376942396e+000
 2.324403657529854e-002	 2.624897086509069e+000	 6.769832844292545e+000
 0.000000000000000e+000	 2.625000000000000e+000	 6.801402971076412e+000
 2.381142604439641e-001	 2.639280507822317e+000	 6.965515979103026e+000
 2.139874995480826e-001	 2.641346124618587e+000	 6.935301809424751e+000
 1.899237326568062e-001	 2.643185384299774e+000	 6.904296856780225e+000
 1.659257126578909e-001	 2.644800305860933e+000	 6.873922446002316e+000
 1.419961369285562e-001	 2.646192944042565e+000	 6.845742846568419e+000
 1.181376470162813e-001	 2.647365387769589e+000	 6.821459728231491e+000
 9.435282836497402e-002	 2.648319758598243e+000	 6.802906468860657e+000
 7.064421008569725e-002	 2.649058209172255e+000	 6.792042331447868e+000
 4.701426477110317e-002	 2.649582921689529e+000	 6.790946527012381e+000
 2.346540835269477e-002	 2.649896106380599e+000	 6.801812179878469e+000
 0.000000000000000e+000	 2.650000000000000e+000	 6.826940211497740e+000
 2.403606213922725e-001	 2.664179380539246e+000	 7.028747651851942e+000
 2.160062495447116e-001	 2.666264484286111e+000	 6.999854170718779e+000
 1.917154659847630e-001	 2.668121095473445e+000	 6.969036038273879e+000
 1.674910495708227e-001	 2.669751252143427e+000	 6.937692383568807e+000
 1.433357231270654e-001	 2.671157028420902e+000	 6.907370691278159e+000
 1.192521531212302e-001	 2.672340532937625e+000	 6.879761136689852e+000
 9.524294938820582e-002	 2.673303907264519e+000	 6.856690766199060e+000
 7.131066489859390e-002	 2.674049324353267e+000	 6.840117540758317e+000
 4.745779557139308e-002	 2.674578986988550e+000	 6.832124259512938e+000
 2.368678012991349e-002	 2.674895126252130e+000	 6.834912380587936e+000
 0.000000000000000e+000	 2.675000000000000e+000	 6.850795755685311e+000
 2.426069823405643e-001	 2.689078253256174e+000	 7.112458431599388e+000
 2.180249995411448e-001	 2.691182843953635e+000	 7.083260898659433e+000
 1.935071993123861e-001	 2.693056806647117e+000	 7.050873767574751e+000
 1.690563864833238e-001	 2.694702198425921e+000	 7.016675022702212e+000
 1.446753093250873e-001	 2.696121112799238e+000	 6.982196556947720e+000
 1.203666592256753e-001	 2.697315678105662e+000	 6.949118381901309e+000
 9.613307041095698e-002	 2.698288055930795e+000	 6.919262676648991e+000
 7.197711971107230e-002	 2.699040439534280e+000	 6.894587693219323e+000
 4.790132637136590e-002	 2.699575052287571e+000	 6.877181536405826e+000
 2.390815190695469e-002	 2.699894146123661e+000	 6.869255835430777e+000
 0.000000000000000e+000	 2.699999999999999e+000	 6.873139324612116e+000
 2.448533432888395e-001	 2.713977125973103e+000	 7.216303725301407e+000
 2.200437495373822e-001	 2.716101203621158e+000	 7.185232910350989e+000
 1.952989326396756e-001	 2.717992517820788e+000	 7.149575472721726e+000
 1.706217233953940e-001	 2.719653144708416e+000	 7.110689283175998e+000
 1.460148955226219e-001	 2.721085197177575e+000	 7.070091817581653e+000
 1.214811653296167e-001	 2.722290823273699e+000	 7.029454237956315e+000
 9.702319143322748e-002	 2.723272204597070e+000	 6.990595305232765e+000
 7.264357452313244e-002	 2.724031554715293e+000	 6.955475142230702e+000
 4.834485717102164e-002	 2.724571117586591e+000	 6.926188865090343e+000
 2.412952368381839e-002	 2.724893165995192e+000	 6.904960101153264e+000
 0.000000000000000e+000	 2.724999999999999e+000	 6.894134410958193e+000
 2.470997042370982e-001	 2.738875998690031e+000	 7.339945450584769e+000
 2.220624995334239e-001	 2.741019563288683e+000	 7.305486483237226e+000
 1.970906659666314e-001	 2.742928228994460e+000	 7.264910768758851e+000
 1.721870603070337e-001	 2.744604090990911e+000	 7.219557076116677e+000
 1.473544817196693e-001	 2.746049281555912e+000	 7.170929621258217e+000
 1.225956714330543e-001	 2.747265968441736e+000	 7.120692014799746e+000
 9.791331245501737e-002	 2.748256353263346e+000	 7.070661034359710e+000
 7.331002933477435e-002	 2.749022669896307e+000	 7.022800240552082e+000
 4.878838797036033e-002	 2.749567182885613e+000	 6.979213455429537e+000
 2.435089546050458e-002	 2.749892185866723e+000	 6.942138121886730e+000
 0.000000000000000e+000	 2.750000000000000e+000	 6.913938562214935e+000
 2.750000000000000e+000	 0.000000000000000e+000	 1.116062521187730e+001
 2.749892185866724e+000	 2.435089546050380e-002	 1.117726397588082e+001
 2.749567182885613e+000	 4.878838797035964e-002	 1.118905028491447e+001
 2.749022669896307e+000	 7.331002933477374e-002	 1.119614255140888e+001
 2.748256353263346e+000	 9.791331245501683e-002	 1.119867897383553e+001
 2.747265968441735e+000	 1.225956714330538e-001	 1.119677679958592e+001
 2.746049281555912e+000	 1.473544817196689e-001	 1.119053161475288e+001
 2.744604090990912e+000	 1.721870603070334e-001	 1.118001666339579e+001
 2.742928228994461e+000	 1.970906659666313e-001	 1.116528219888438e+001
 2.741019563288683e+000	 2.220624995334238e-001	 1.114635486992183e+001
 2.738875998690032e+000	 2.470997042370982e-001	 1.112323714384432e+001
 2.775000000000000e+000	 0.000000000000000e+000	 1.112912671625247e+001
 2.774891205738252e+000	 2.457226723710123e-002	 1.114819689027902e+001
 2.774563248184625e+000	 4.923191876953977e-002	 1.116207316099222e+001
 2.774013785077298e+000	 7.397648414620646e-002	 1.117091675879738e+001
 2.773240501929583e+000	 9.880343347656635e-002	 1.117486844744860e+001
 2.772241113609713e+000	 1.237101775362395e-001	 1.117404777696881e+001
 2.771013365934162e+000	 1.486940679164726e-001	 1.116855236411571e+001
 2.769555037273286e+000	 1.737523972184576e-001	 1.115845720302735e+001
 2.767863940167976e+000	 1.988823992934202e-001	 1.114381400869407e+001
 2.765937922956008e+000	 2.240812495293675e-001	 1.112465059590838e+001
 2.763774871406714e+000	 2.493460651853486e-001	 1.110097029634180e+001
 2.800000000000000e+000	 0.000000000000000e+000	 1.109402309572807e+001
 2.799890225609775e+000	 2.479363901369865e-002	 1.111569675614013e+001
 2.799559313483616e+000	 4.967544956871989e-002	 1.113186752275263e+001
 2.799004900258245e+000	 7.464293895763922e-002	 1.114269959453856e+001
 2.798224650595743e+000	 9.969355449811594e-002	 1.114833642262485e+001
 2.797216258777568e+000	 1.248246836394252e-001	 1.114889995248880e+001
 2.795977450312236e+000	 1.500336541132763e-001	 1.114448989436838e+001
 2.794505983555422e+000	 1.753177341298819e-001	 1.113518302457410e+001
 2.792799651341178e+000	 2.006741326202091e-001	 1.112103252040301e+001
 2.790856282622936e+000	 2.260999995253113e-001	 1.110206733136056e+001
 2.788673744122905e+000	 2.515924261335989e-001	 1.107829158939202e+001
 2.825000000000000e+000	 0.000000000000000e+000	 1.105537493872733e+001
 2.824889245481293e+000	 2.501501079029607e-002	 1.107982203305421e+001
 2.824555378782589e+000	 5.011898036790001e-002	 1.109848955833732e+001
 2.823996015439152e+000	 7.530939376907195e-002	 1.111154483087858e+001
 2.823208799261825e+000	 1.005836755196655e-001	 1.111913410936405e+001
 2.822191403945302e+000	 1.259391897426109e-001	 1.112138182557158e+001
 2.820941534690137e+000	 1.513732403100800e-001	 1.111838984398453e+001
 2.819456929837322e+000	 1.768830710413061e-001	 1.111023675305545e+001
 2.817735362514068e+000	 2.024658659469981e-001	 1.109697719087646e+001
 2.815774642289468e+000	 2.281187495212551e-001	 1.107864120801760e+001
 2.813572616838604e+000	 2.538387870818492e-001	 1.105523367029053e+001
 2.850000000000000e+000	 0.000000000000000e+000	 1.101324070776387e+001
 2.849888265352808e+000	 2.523638256689349e-002	 1.104062927498513e+001
 2.849551444081544e+000	 5.056251116708015e-002	 1.106199378443066e+001
 2.848987130620012e+000	 7.597584858050469e-002	 1.107750481672396e+001
 2.848192947927831e+000	 1.014737965412150e-001	 1.108731155644902e+001
 2.847166549112915e+000	 1.270536958457965e-001	 1.109154101060334e+001
 2.845905619067861e+000	 1.527128265068837e-001	 1.109029725667340e+001
 2.844407876118980e+000	 1.784484079527304e-001	 1.108366072313529e+001
 2.842671073686645e+000	 2.042575992737870e-001	 1.107168750519502e+001
 2.840693001955603e+000	 2.301374995171988e-001	 1.105440871858823e+001
 2.838471489553812e+000	 2.560851480300996e-001	 1.103182989425394e+001
 2.875000000000000e+000	 0.000000000000000e+000	 1.096767683187257e+001
 2.874887285224318e+000	 2.545775434349091e-002	 1.099817321312387e+001
 2.874547509380478e+000	 5.100604196626029e-002	 1.102243311893198e+001
 2.873978245800831e+000	 7.664230339193742e-002	 1.104063053952602e+001
 2.873177096593760e+000	 1.023639175627646e-001	 1.105291770193339e+001
 2.872141694280408e+000	 1.281682019489822e-001	 1.105942427541083e+001
 2.870869703445413e+000	 1.540524127036874e-001	 1.106025660723939e+001
 2.869358822400401e+000	 1.800137448641546e-001	 1.105549699174617e+001
 2.867606784858910e+000	 2.060493326005759e-001	 1.104520297542797e+001
 2.865611361621339e+000	 2.321562495131426e-001	 1.102940670105665e+001
 2.863370362268527e+000	 2.583315089783499e-001	 1.100811429364063e+001
 2.900000000000000e+000	 0.000000000000000e+000	 1.091873779425955e+001
 2.899886305095822e+000	 2.567912612008834e-002	 1.095250683445639e+001
 2.899543574679393e+000	 5.144957276544040e-002	 1.097985894986860e+001
 2.898969360981606e+000	 7.730875820337015e-002	 1.100097168396422e+001
 2.898161245259613e+000	 1.032540385843141e-001	 1.101600042101775e+001
 2.897116839447780e+000	 1.292827080521679e-001	 1.102507757775088e+001
 2.895833787822788e+000	 1.553919989004911e-001	 1.102831182610363e+001
 2.894309768681584e+000	 1.815790817755789e-001	 1.102578735006040e+001
 2.892542496030862e+000	 2.078410659273649e-001	 1.101756313946986e+001
 2.890529721286680e+000	 2.341749995090863e-001	 1.100367232379976e+001
 2.888269234982751e+000	 2.605778699266002e-001	 1.098412154876371e+001
 2.925000000000000e+000	 0.000000000000000e+000	 1.086647621545721e+001
 2.924885324967321e+000	 2.590049789668575e-002	 1.090368145630228e+001
 2.924539639978291e+000	 5.189310356462054e-002	 1.093432120077506e+001
 2.923960476162338e+000	 7.797521301480291e-002	 1.095857668762023e+001
 2.923145393925387e+000	 1.041441596058636e-001	 1.097660657147080e+001
 2.922091984615031e+000	 1.303972141553535e-001	 1.098854609992895e+001
 2.920797872199990e+000	 1.567315850972948e-001	 1.099450632256833e+001
 2.919260714962528e+000	 1.831444186870031e-001	 1.099457333484741e+001
 2.917478207202503e+000	 2.096327992541539e-001	 1.098880755993695e+001
 2.915448080951624e+000	 2.361937495050301e-001	 1.097724307146794e+001
 2.913168107696484e+000	 2.628242308748505e-001	 1.095988696020051e+001
 2.949999999999999e+000	 0.000000000000000e+000	 1.081094293225107e+001
 2.949884344838818e+000	 2.612186967328318e-002	 1.085174679706328e+001
 2.949535705277168e+000	 5.233663436380066e-002	 1.088586839274782e+001
 2.948951591343028e+000	 7.864166782623562e-002	 1.091349279382102e+001
 2.948129542591084e+000	 1.050342806274132e-001	 1.093478203674087e+001
 2.947067129782162e+000	 1.315117202585392e-001	 1.094987428165702e+001
 2.945761956577017e+000	 1.580711712940985e-001	 1.095888300689807e+001
 2.944211661243234e+000	 1.847097555984273e-001	 1.096189623925347e+001
 2.942413918373829e+000	 2.114245325809427e-001	 1.095897582311966e+001
 2.940366440616170e+000	 2.382124995009738e-001	 1.095015673158354e+001
 2.938066980409724e+000	 2.650705918231008e-001	 1.093544642251034e+001
 2.974999999999999e+000	 0.000000000000000e+000	 1.075218707262719e+001
 2.974883364710307e+000	 2.634324144988059e-002	 1.079675104340476e+001
 2.974531770576026e+000	 5.278016516298079e-002	 1.083454770337129e+001
 2.973942706523673e+000	 7.930812263766840e-002	 1.086576610181758e+001
 2.973113691256704e+000	 1.059244016489627e-001	 1.089057176689371e+001
 2.972042274949171e+000	 1.326262263617249e-001	 1.090910585125516e+001
 2.970726040953869e+000	 1.594107574909022e-001	 1.092148431128773e+001
 2.969162607523700e+000	 1.862750925098516e-001	 1.092779712303797e+001
 2.967349629544843e+000	 2.132162659077317e-001	 1.092810753798780e+001
 2.965284800280319e+000	 2.402312494969176e-001	 1.092245138181523e+001
 2.962965853122473e+000	 2.673169527713512e-001	 1.091083639927714e+001
 3.000000000000000e+000	 0.000000000000000e+000	 1.069025612697205e+001
 2.999882384581794e+000	 2.656461322647803e-002	 1.073874091407806e+001
 2.999527835874867e+000	 5.322369596216094e-002	 1.078040502269749e+001
 2.998933821704276e+000	 7.997457744910114e-002	 1.081544161445486e+001
 2.998097839922250e+000	 1.068145226705123e-001	 1.084401981750347e+001
 2.997017420116060e+000	 1.337407324649106e-001	 1.086628385529279e+001
 2.995690125330548e+000	 1.607503436877060e-001	 1.088235220978210e+001
 2.994113553803930e+000	 1.878404294212759e-001	 1.089231682229794e+001
 2.992285340715546e+000	 2.150079992345207e-001	 1.089624233524567e+001
 2.990203159944073e+000	 2.422499994928614e-001	 1.089416537788851e+001
 2.987864725834731e+000	 2.695633137196016e-001	 1.088609389940024e+001
 2.738875998690032e+000	 2.470997042370982e-001	 1.112323714384432e+001
 2.736495478736073e+000	 2.721993660824219e-001	 1.115089303016829e+001
 2.733875987317569e+000	 2.973585142758315e-001	 1.117441536600389e+001
 2.731015550314390e+000	 3.225741217013698e-001	 1.119380933520666e+001
 2.727912237233771e+000	 3.478431054491009e-001	 1.120905555320543e+001
 2.724564162849201e+000	 3.731623273929816e-001	 1.122010966806340e+001
 2.720969488838349e+000	 3.985285948199712e-001	 1.122690201089606e+001
 2.717126425418323e+000	 4.239386611108925e-001	 1.122933729797206e+001
 2.713033232976537e+000	 4.493892264735033e-001	 1.122729438675145e+001
 2.708688223695421e+000	 4.748769387281783e-001	 1.122062608803523e+001
 2.704089763169176e+000	 5.003983941465353e-001	 1.120915903630865e+001
 2.763774871406714e+000	 2.493460651853486e-001	 1.110097029634180e+001
 2.761372710362509e+000	 2.746739057751574e-001	 1.113044968407205e+001
 2.758729405385852e+000	 3.000617734979081e-001	 1.115540741725296e+001
 2.755842964410066e+000	 3.255066137184060e-001	 1.117583284492699e+001
 2.752711439392451e+000	 3.510053155002598e-001	 1.119169019048720e+001
 2.749332927968071e+000	 3.765547121890067e-001	 1.120291816157119e+001
 2.745705575102577e+000	 4.021515820469409e-001	 1.120942961096884e+001
 2.741827574742320e+000	 4.277926489401637e-001	 1.121111125090967e+001
 2.737697171460055e+000	 4.534745830783211e-001	 1.120782342302148e+001
 2.733312662094415e+000	 4.791940018074255e-001	 1.119939992616741e+001
 2.728672397381367e+000	 5.049474704561092e-001	 1.118564790427367e+001
 2.788673744122905e+000	 2.515924261335989e-001	 1.107829158939202e+001
 2.786249941988360e+000	 2.771484454678931e-001	 1.110955323348084e+001
 2.783582823453462e+000	 3.027650327199848e-001	 1.113593712643342e+001
 2.780670378504992e+000	 3.284391057354422e-001	 1.115741682713584e+001
 2.777510641550316e+000	 3.541675255514188e-001	 1.117394018019571e+001
 2.774101693086072e+000	 3.799470969850320e-001	 1.118542893413551e+001
 2.770441661365887e+000	 4.057745692739104e-001	 1.119177841229589e+001
 2.766528724065364e+000	 4.316466367694350e-001	 1.119285723885669e+001
 2.762361109942594e+000	 4.575599396831386e-001	 1.118850712230606e+001
 2.757937100492415e+000	 4.835110648866728e-001	 1.117854269860034e+001
 2.753255031592557e+000	 5.094965467656832e-001	 1.116275143615843e+001
 2.813572616838604e+000	 2.538387870818492e-001	 1.105523367029053e+001
 2.811127173613622e+000	 2.796229851606287e-001	 1.108824704505894e+001
 2.808436241520401e+000	 3.054682919420614e-001	 1.111605843094968e+001
 2.805497792599172e+000	 3.313715977524784e-001	 1.113862563320715e+001
 2.802309843707365e+000	 3.573297356025777e-001	 1.115588012260114e+001
 2.798870458203201e+000	 3.833394817810573e-001	 1.116772666139039e+001
 2.795177747628282e+000	 4.093975565008801e-001	 1.117404298373186e+001
 2.791229873387455e+000	 4.355006245987063e-001	 1.117467953298737e+001
 2.787025048424154e+000	 4.616452962879563e-001	 1.116945925829915e+001
 2.782561538889420e+000	 4.878281279659203e-001	 1.115817747271355e+001
 2.777837665802749e+000	 5.140456230752573e-001	 1.114060177503045e+001
 2.838471489553812e+000	 2.560851480300996e-001	 1.103182989425394e+001
 2.836004405238297e+000	 2.820975248533642e-001	 1.106657505049162e+001
 2.833289659586666e+000	 3.081715511641380e-001	 1.109582570398078e+001
 2.830325206692602e+000	 3.343040897695145e-001	 1.111952393488263e+001
 2.827109045863601e+000	 3.604919456537368e-001	 1.113758483695492e+001
 2.823639223319458e+000	 3.867318665770823e-001	 1.114989615076041e+001
 2.819913833889759e+000	 4.130205437278497e-001	 1.115631795309701e+001
 2.815931022708593e+000	 4.393546124279776e-001	 1.115668240514701e+001
 2.811688986904735e+000	 4.657306528927738e-001	 1.115079356175978e+001
 2.807185977285430e+000	 4.921451910451676e-001	 1.113842724418634e+001
 2.802420300011939e+000	 5.185946993848312e-001	 1.111933097847845e+001
 2.863370362268527e+000	 2.583315089783499e-001	 1.100811429364063e+001
 2.860881636862386e+000	 2.845720645460999e-001	 1.104458172191897e+001
 2.858143077652259e+000	 3.108748103862146e-001	 1.107529373553362e+001
 2.855152620785284e+000	 3.372365817865506e-001	 1.110017671034271e+001
 2.851908248019021e+000	 3.636541557048958e-001	 1.111912935196869e+001
 2.848407988434845e+000	 3.901242513731076e-001	 1.113202233573054e+001
 2.844649920150318e+000	 4.166435309548194e-001	 1.113869800461354e+001
 2.840632172028777e+000	 4.432086002572488e-001	 1.113897012782274e+001
 2.836352925384337e+000	 4.698160094975915e-001	 1.113262372237871e+001
 2.831810415680446e+000	 4.964622541244149e-001	 1.111941494011527e+001
 2.827002934220130e+000	 5.231437756944052e-001	 1.109907102232877e+001
 2.888269234982751e+000	 2.605778699266002e-001	 1.098412154876371e+001
 2.885758868485888e+000	 2.870466042388355e-001	 1.102231204864039e+001
 2.882996495717180e+000	 3.135780696082913e-001	 1.105451771447628e+001
 2.879980034877217e+000	 3.401690738035869e-001	 1.108064923099796e+001
 2.876707450173628e+000	 3.668163657560547e-001	 1.110058889678596e+001
 2.873176753549361e+000	 3.935166361691328e-001	 1.111419027041259e+001
 2.869386006409961e+000	 4.202665181817890e-001	 1.112127787647443e+001
 2.865333321348009e+000	 4.470625880865201e-001	 1.112164697411587e+001
 2.861016863862959e+000	 4.739013661024092e-001	 1.111506339054864e+001
 2.856434854074466e+000	 5.007793172036623e-001	 1.110126342197028e+001
 2.851585568427321e+000	 5.276928520039791e-001	 1.107995380416971e+001
 2.913168107696484e+000	 2.628242308748505e-001	 1.095988696020051e+001
 2.910636100108802e+000	 2.895211439315710e-001	 1.099981151501385e+001
 2.907849913781428e+000	 3.162813288303680e-001	 1.103355321149267e+001
 2.904807448968402e+000	 3.431015658206231e-001	 1.106100704895795e+001
 2.901506652327419e+000	 3.699785758072137e-001	 1.108203889241657e+001
 2.897945518663008e+000	 3.969090209651581e-001	 1.109648512439016e+001
 2.894122092668686e+000	 4.238895054087587e-001	 1.110415235853699e+001
 2.890034470666286e+000	 4.509165759157914e-001	 1.110481721771561e+001
 2.885680802340603e+000	 4.779867227072268e-001	 1.109822617904363e+001
 2.881059292467492e+000	 5.050963802829096e-001	 1.108409548839924e+001
 2.876168202633513e+000	 5.322419283135530e-001	 1.106211114669498e+001
 2.938066980409724e+000	 2.650705918231008e-001	 1.093544642251034e+001
 2.935513331731131e+000	 2.919956836243067e-001	 1.097712607947877e+001
 2.932703331845003e+000	 3.189845880524446e-001	 1.101245616290386e+001
 2.929634863058839e+000	 3.460340578376593e-001	 1.104131598513716e+001
 2.926305854480396e+000	 3.731407858583726e-001	 1.106355494360682e+001
 2.922714283775782e+000	 4.003014057611832e-001	 1.107899217782580e+001
 2.918858178926495e+000	 4.275124926357283e-001	 1.108741629013371e+001
 2.914735619983611e+000	 4.547705637450627e-001	 1.108858513287425e+001
 2.910344740817267e+000	 4.820720793120443e-001	 1.108222566461307e+001
 2.905683730859524e+000	 5.094134433621569e-001	 1.106803387788991e+001
 2.900750836838703e+000	 5.367910046231269e-001	 1.104567480087719e+001
 2.962965853122473e+000	 2.673169527713512e-001	 1.091083639927714e+001
 2.960390563352871e+000	 2.944702233170423e-001	 1.095430215463666e+001
 2.957556749907905e+000	 3.216878472745212e-001	 1.099128285530520e+001
 2.954462277148526e+000	 3.489665498546954e-001	 1.102164211796068e+001
 2.951105056632558e+000	 3.763029959095316e-001	 1.104521283111934e+001
 2.947483048887686e+000	 4.036937905572084e-001	 1.106179681681485e+001
 2.943594265183386e+000	 4.311354798626980e-001	 1.107116455799346e+001
 2.939436769299983e+000	 4.586245515743339e-001	 1.107305499438337e+001
 2.935008679292952e+000	 4.861574359168621e-001	 1.106717538949537e+001
 2.930308169250560e+000	 5.137305064414043e-001	 1.105320127129765e+001
 2.925333471042894e+000	 5.413400809327010e-001	 1.103077644898135e+001
 2.987864725834731e+000	 2.695633137196016e-001	 1.088609389940024e+001
 2.985267794974027e+000	 2.969447630097781e-001	 1.093138658832767e+001
 2.982410167970137e+000	 3.243911064965980e-001	 1.097008991097153e+001
 2.979289691237467e+000	 3.518990418717317e-001	 1.100205177263462e+001
 2.975904258783907e+000	 3.794652059606907e-001	 1.102708850439924e+001
 2.972251813998720e+000	 4.070861753532337e-001	 1.104498452897152e+001
 2.968330351439360e+000	 4.347584670896676e-001	 1.105549209426668e+001
 2.964137918615402e+000	 4.624785394036054e-001	 1.105833107755149e+001
 2.959672617767659e+000	 4.902427925216799e-001	 1.105318886285586e+001
 2.954932607640602e+000	 5.180475695206518e-001	 1.103972029424681e+001
 2.949916105246086e+000	 5.458891572422751e-001	 1.101754770742768e+001
 2.704089763169176e+000	 5.003983941465353e-001	 1.120915903630865e+001
 2.699236272010369e+000	 5.259501383425348e-001	 1.126276828065103e+001
 2.694126227445558e+000	 5.515286672185968e-001	 1.131107044186643e+001
 2.688758164897393e+000	 5.771304279651320e-001	 1.135383680655735e+001
 2.683130679550521e+000	 6.027518201122010e-001	 1.139081325080131e+001
 2.677242427900419e+000	 6.283891966355910e-001	 1.141889186036874e+001
 2.671092129282827e+000	 6.540388651164306e-001	 1.142406463664806e+001
 2.664678567381806e+000	 6.796970889541845e-001	 1.142639441357380e+001
 2.658000591714422e+000	 7.053600886327910e-001	 1.142590324760698e+001
 2.651057119090043e+000	 7.310240430396249e-001	 1.142261013886016e+001
 2.643847135042239e+000	 7.566850908368894e-001	 1.141653064548820e+001
 2.728672397381367e+000	 5.049474704561092e-001	 1.118564790427367e+001
 2.723774783575466e+000	 5.307315032349365e-001	 1.123805825289528e+001
 2.718618284059930e+000	 5.565425641910099e-001	 1.128536446350488e+001
 2.713201420943072e+000	 5.823770682164715e-001	 1.132732989789847e+001
 2.707522776638490e+000	 6.082313821098385e-001	 1.136369164668237e+001
 2.701580995427987e+000	 6.341018256921331e-001	 1.138663487088738e+001
 2.695374785004896e+000	 6.599846729770404e-001	 1.139175364622137e+001
 2.688902917995866e+000	 6.858761533949309e-001	 1.139395524830569e+001
 2.682164233459023e+000	 7.117724530705059e-001	 1.139327416853588e+001
 2.675157638356550e+000	 7.376697161537533e-001	 1.138974192723925e+001
 2.667882108999597e+000	 7.635640462038071e-001	 1.138338666833327e+001
 2.753255031592557e+000	 5.094965467656832e-001	 1.116275143615843e+001
 2.748313295139561e+000	 5.355128681273381e-001	 1.121445723549273e+001
 2.743110340673302e+000	 5.615564611634224e-001	 1.126127977954759e+001
 2.737644676987750e+000	 5.876237084678109e-001	 1.130297401846420e+001
 2.731914873725460e+000	 6.137109441074761e-001	 1.133926774088641e+001
 2.725919562954553e+000	 6.398144547486753e-001	 1.135746081889367e+001
 2.719657440725966e+000	 6.659304808376508e-001	 1.136256392315022e+001
 2.713127268608924e+000	 6.920552178356770e-001	 1.136468242753237e+001
 2.706327875202622e+000	 7.181848175082203e-001	 1.136386342705606e+001
 2.699258157622057e+000	 7.443153892678819e-001	 1.136015112549127e+001
 2.691917082955955e+000	 7.704430015707247e-001	 1.135358640987649e+001
 2.777837665802749e+000	 5.140456230752573e-001	 1.114060177503045e+001
 2.772851806702656e+000	 5.402942330197397e-001	 1.119210044882699e+001
 2.767602397285674e+000	 5.665703581358352e-001	 1.123895479741391e+001
 2.762087933031430e+000	 5.928703487191506e-001	 1.128091086819249e+001
 2.756306970811430e+000	 6.191905061051135e-001	 1.131768662688149e+001
 2.750258130480121e+000	 6.455270838052174e-001	 1.133121040959266e+001
 2.743940096446035e+000	 6.718762886982610e-001	 1.133632508492529e+001
 2.737351619220983e+000	 6.982342822764236e-001	 1.133839446801823e+001
 2.730491516945223e+000	 7.245971819459351e-001	 1.133747843205254e+001
 2.723358676886566e+000	 7.509610623820104e-001	 1.133363403337327e+001
 2.715952056911313e+000	 7.773219569376425e-001	 1.132691506544289e+001
 2.802420300011939e+000	 5.185946993848312e-001	 1.111933097847845e+001
 2.797390318264753e+000	 5.450755979121414e-001	 1.117112323164428e+001
 2.792094453897046e+000	 5.715842551082483e-001	 1.121852824983055e+001
 2.786531189074109e+000	 5.981169889704899e-001	 1.126128268231695e+001
 2.780699067896399e+000	 6.246700681027509e-001	 1.129909414640081e+001
 2.774596698004689e+000	 6.512397128617599e-001	 1.130772531234016e+001
 2.768222752165105e+000	 6.778220965588712e-001	 1.131286793192206e+001
 2.761575969832041e+000	 7.044133467171696e-001	 1.131491129092496e+001
 2.754655158686824e+000	 7.310095463836498e-001	 1.131392822102600e+001
 2.747459196150073e+000	 7.576067354961390e-001	 1.130998880610707e+001
 2.739987030865671e+000	 7.842009123045602e-001	 1.130315991522418e+001
 2.827002934220130e+000	 5.231437756944052e-001	 1.109907102232877e+001
 2.821928829825849e+000	 5.498569628045430e-001	 1.115166103590718e+001
 2.816586510507418e+000	 5.765981520806611e-001	 1.120013918068775e+001
 2.810974445115789e+000	 6.033636292218294e-001	 1.124423220809323e+001
 2.805091164980370e+000	 6.301496301003886e-001	 1.127843715279656e+001
 2.798935265528255e+000	 6.569523419183017e-001	 1.128684811872308e+001
 2.792505407883173e+000	 6.837679044194810e-001	 1.129202439597103e+001
 2.785800320442101e+000	 7.105924111579161e-001	 1.129405416075090e+001
 2.778818800427425e+000	 7.374219108213646e-001	 1.129302338928339e+001
 2.771559715412581e+000	 7.642524086102674e-001	 1.128901537370667e+001
 2.764022004819029e+000	 7.910798676714779e-001	 1.128211023363243e+001
 2.851585568427321e+000	 5.276928520039791e-001	 1.107995380416971e+001
 2.846467341385945e+000	 5.546383276969448e-001	 1.113384942191469e+001
 2.841078567116790e+000	 5.816120490530741e-001	 1.118392693162714e+001
 2.835417701156468e+000	 6.086102694731690e-001	 1.122990268272901e+001
 2.829483262063339e+000	 6.356291920980260e-001	 1.125992862845765e+001
 2.823273833050822e+000	 6.626649709748441e-001	 1.126842230280813e+001
 2.816788063600243e+000	 6.897137122800912e-001	 1.127362749158814e+001
 2.810024671051159e+000	 7.167714755986625e-001	 1.127564562742851e+001
 2.802982442167025e+000	 7.438342752590792e-001	 1.127457602279120e+001
 2.795660234674087e+000	 7.708980817243959e-001	 1.127051536447878e+001
 2.788056978771388e+000	 7.979588230383955e-001	 1.126355720334225e+001
 2.876168202633513e+000	 5.322419283135530e-001	 1.106211114669498e+001
 2.871005852945042e+000	 5.594196925893464e-001	 1.111782405367235e+001
 2.865570623725160e+000	 5.866259460254867e-001	 1.117003112931726e+001
 2.859860957196147e+000	 6.138569097245085e-001	 1.121843781244589e+001
 2.853875359145309e+000	 6.411087540956634e-001	 1.124373732141046e+001
 2.847612400572389e+000	 6.683776000313860e-001	 1.125229218342896e+001
 2.841070719316312e+000	 6.956595201407014e-001	 1.125751126970617e+001
 2.834249021659218e+000	 7.229505400394087e-001	 1.125950947139130e+001
 2.827146083905626e+000	 7.502466396967938e-001	 1.125839963447194e+001
 2.819760753934596e+000	 7.775437548385245e-001	 1.125429203244608e+001
 2.812091952722746e+000	 8.048377784053130e-001	 1.124729383374109e+001
 2.900750836838703e+000	 5.367910046231269e-001	 1.104567480087719e+001
 2.895544364503137e+000	 5.642010574817481e-001	 1.110372069449805e+001
 2.890062680332532e+000	 5.916398429978996e-001	 1.115859167337620e+001
 2.884304213234825e+000	 6.191035499758478e-001	 1.120998175260592e+001
 2.878267456226280e+000	 6.465883160933010e-001	 1.122971843807955e+001
 2.871950968092957e+000	 6.740902290879284e-001	 1.123830288839104e+001
 2.865353375031381e+000	 7.016053280013114e-001	 1.124351077375870e+001
 2.858473372266277e+000	 7.291296044801551e-001	 1.124547065143404e+001
 2.851309725643227e+000	 7.566590041345086e-001	 1.124430910374002e+001
 2.843861273194103e+000	 7.841894279526531e-001	 1.124015018846106e+001
 2.836126926673104e+000	 8.117167337722308e-001	 1.123311488352623e+001
 2.925333471042894e+000	 5.413400809327010e-001	 1.103077644898135e+001
 2.920082876060233e+000	 5.689824223741498e-001	 1.109167520284910e+001
 2.914554736938903e+000	 5.966537399703125e-001	 1.114974872490305e+001
 2.908747469272504e+000	 6.243501902271874e-001	 1.120467908884022e+001
 2.902659553306250e+000	 6.520678780909385e-001	 1.121772778634273e+001
 2.896289535612524e+000	 6.798028581444706e-001	 1.122630032048115e+001
 2.889636030745451e+000	 7.075511358619215e-001	 1.123146199797852e+001
 2.882697722872335e+000	 7.353086689209013e-001	 1.123335525520161e+001
 2.875473367379827e+000	 7.630713685722234e-001	 1.123212061908600e+001
 2.867961792452610e+000	 7.908351010667816e-001	 1.122789613479286e+001
 2.860161900622463e+000	 8.185956891391486e-001	 1.122081678720431e+001
 2.949916105246086e+000	 5.458891572422751e-001	 1.101754770742768e+001
 2.944621387616330e+000	 5.737637872665515e-001	 1.108182352835816e+001
 2.939046793544276e+000	 6.016676369427255e-001	 1.114364269558294e+001
 2.933190725309185e+000	 6.295968304785271e-001	 1.119551592862227e+001
 2.927051650385221e+000	 6.575474400885762e-001	 1.120762175047045e+001
 2.920628103131091e+000	 6.855154872010131e-001	 1.121613112517653e+001
 2.913918686458520e+000	 7.134969437225318e-001	 1.122120184778084e+001
 2.906922073477395e+000	 7.414877333616480e-001	 1.122299045215379e+001
 2.899637009115428e+000	 7.694837330099382e-001	 1.122165162353189e+001
 2.892062311710120e+000	 7.974807741809104e-001	 1.121733760298508e+001
 2.884196874570821e+000	 8.254746445060665e-001	 1.121019758526594e+001
 2.643847135042239e+000	 7.566850908368894e-001	 1.141653064548820e+001
 2.636369695231585e+000	 7.823393318852079e-001	 1.145736319110746e+001
 2.628623926816410e+000	 8.079828287179298e-001	 1.149345988272341e+001
 2.620609029790005e+000	 8.336116080664259e-001	 1.152478017118087e+001
 2.612324278282998e+000	 8.592216624358847e-001	 1.155127975636685e+001
 2.603769021827961e+000	 8.848089517299637e-001	 1.157291026788557e+001
 2.594942686584524e+000	 9.103694049237150e-001	 1.158961895015214e+001
 2.585844776523054e+000	 9.358989217837995e-001	 1.160134835308589e+001
 2.576474874564940e+000	 9.613933746349105e-001	 1.160803602960114e+001
 2.566832643677576e+000	 9.868486101712384e-001	 1.160961424110497e+001
 2.556917827922116e+000	 1.012260451311729e+000	 1.160600967222051e+001
 2.667882108999597e+000	 7.635640462038071e-001	 1.138338666833327e+001
 2.660336692463774e+000	 7.894515076254417e-001	 1.142318762121579e+001
 2.652520507972429e+000	 8.153281271568192e-001	 1.145854245672063e+001
 2.644432748246060e+000	 8.411898954086865e-001	 1.148941607410238e+001
 2.636072680816487e+000	 8.670327684544615e-001	 1.151576923523782e+001
 2.627439649302939e+000	 8.928526694696530e-001	 1.153755822573990e+001
 2.618533074648314e+000	 9.186454904199954e-001	 1.155473452079207e+001
 2.609352456313619e+000	 9.444070937973023e-001	 1.156724445693703e+001
 2.599897373428621e+000	 9.701333144019444e-001	 1.157502891107113e+001
 2.590167485896778e+000	 9.958199611707879e-001	 1.157802298790811e+001
 2.580162535452529e+000	 1.021462819049315e+000	 1.157615571718445e+001
 2.691917082955955e+000	 7.704430015707247e-001	 1.135358640987649e+001
 2.684303689694970e+000	 7.965636833656756e-001	 1.139214638835010e+001
 2.676417089127467e+000	 8.226734255957088e-001	 1.142655135273787e+001
 2.668256466701160e+000	 8.487681827509468e-001	 1.145677186914402e+001
 2.659821083349055e+000	 8.748438744730380e-001	 1.148277397696214e+001
 2.651110276777040e+000	 9.008963872093422e-001	 1.150451883001962e+001
 2.642123462711282e+000	 9.269215759162763e-001	 1.152196234274390e+001
 2.632860136103426e+000	 9.529152658108047e-001	 1.153505484263844e+001
 2.623319872291618e+000	 9.788732541689786e-001	 1.154374073037429e+001
 2.613502328115381e+000	 1.004791312170338e+000	 1.154795814881565e+001
 2.603407242982436e+000	 1.030665186786900e+000	 1.154763866230706e+001
 2.715952056911313e+000	 7.773219569376425e-001	 1.132691506544289e+001
 2.708270686925169e+000	 8.036758591059093e-001	 1.136402110942566e+001
 2.700313670281525e+000	 8.300187240345980e-001	 1.139726478964202e+001
 2.692080185155305e+000	 8.563464700932075e-001	 1.142662256135800e+001
 2.683569485880700e+000	 8.826549804916150e-001	 1.145206596077620e+001
 2.674780904250262e+000	 9.089401049490316e-001	 1.147356122579597e+001
 2.665713850773425e+000	 9.351976614125571e-001	 1.149106892209630e+001
 2.656367815892474e+000	 9.614234378243071e-001	 1.150454357588462e+001
 2.646742371153929e+000	 9.876131939360126e-001	 1.151393331467283e+001
 2.636837170333382e+000	 1.013762663169887e+000	 1.151917951745469e+001
 2.626651950511838e+000	 1.039867554524486e+000	 1.152021647566842e+001
 2.739987030865671e+000	 7.842009123045602e-001	 1.130315991522418e+001
 2.732237684154373e+000	 8.107880348461433e-001	 1.133859545440303e+001
 2.724210251434601e+000	 8.373640224734873e-001	 1.137046300417098e+001
 2.715903903608492e+000	 8.639247574354682e-001	 1.139874513513117e+001
 2.707317888411426e+000	 8.904660865101917e-001	 1.142341910334539e+001
 2.698451531722607e+000	 9.169838226887207e-001	 1.144445645028863e+001
 2.689304238834745e+000	 9.434737469088375e-001	 1.146182260842744e+001
 2.679875495680764e+000	 9.699316098378095e-001	 1.147547651382088e+001
 2.670164870015556e+000	 9.963531337030464e-001	 1.148537022716205e+001
 2.660172012550785e+000	 1.022734014169437e+000	 1.149144856469127e+001
 2.649896658040735e+000	 1.049069922262071e+000	 1.149364874042177e+001
 2.764022004819029e+000	 7.910798676714779e-001	 1.128211023363243e+001
 2.756204681382582e+000	 8.179002105863771e-001	 1.131565505702516e+001
 2.748106832586698e+000	 8.447093209123768e-001	 1.134592816320018e+001
 2.739727622060724e+000	 8.715030447777291e-001	 1.137291846812720e+001
 2.731066290941226e+000	 8.982771925287684e-001	 1.139660917452807e+001
 2.722122159194074e+000	 9.250275404284098e-001	 1.141697735059834e+001
 2.712894626895242e+000	 9.517498324051180e-001	 1.143399351465328e+001
 2.703383175468293e+000	 9.784397818513121e-001	 1.144762122715423e+001
 2.693587368876499e+000	 1.005093073470081e+000	 1.145781669159064e+001
 2.683506854767586e+000	 1.031705365168986e+000	 1.146452836570694e+001
 2.673141365569126e+000	 1.058272289999657e+000	 1.146769658457291e+001
 2.788056978771388e+000	 7.979588230383955e-001	 1.126355720334225e+001
 2.780171678609796e+000	 8.250123863266109e-001	 1.129498743017165e+001
 2.772003413737814e+000	 8.520546193512663e-001	 1.132344428054697e+001
 2.763551340511999e+000	 8.790813321199896e-001	 1.134892324967964e+001
 2.754814693470106e+000	 9.060882985473453e-001	 1.137141371749656e+001
 2.745792786664664e+000	 9.330712581680991e-001	 1.139089850569483e+001
 2.736485014954915e+000	 9.600259179013986e-001	 1.140735344102158e+001
 2.726890855255063e+000	 9.869479538648144e-001	 1.142074692629289e+001
 2.717009867736758e+000	 1.013833013237114e+000	 1.143103952068509e+001
 2.706841696983789e+000	 1.040676716168536e+000	 1.143818353084714e+001
 2.696386073097013e+000	 1.067474657737242e+000	 1.144212261439180e+001
 2.812091952722746e+000	 8.048377784053130e-001	 1.124729383374109e+001
 2.804138675836015e+000	 8.321245620668447e-001	 1.127638188555373e+001
 2.795899994887949e+000	 8.593999177901556e-001	 1.130279713804150e+001
 2.787375058962319e+000	 8.866596194622503e-001	 1.132654190337029e+001
 2.778563095998066e+000	 9.138994045659219e-001	 1.134761197295453e+001
 2.769463414134377e+000	 9.411149759077886e-001	 1.136599615240526e+001
 2.760075403013765e+000	 9.683020033976790e-001	 1.138167580300377e+001
 2.750398535041075e+000	 9.954561258783168e-001	 1.139462439127368e+001
 2.740432366596330e+000	 1.022572953004148e+000	 1.140480704824467e+001
 2.730176539199392e+000	 1.049648067168086e+000	 1.141218014001608e+001
 2.719630780624395e+000	 1.076677025474828e+000	 1.141669085123876e+001
 2.836126926673104e+000	 8.117167337722308e-001	 1.123311488352623e+001
 2.828105673061239e+000	 8.392367378070784e-001	 1.125962945749257e+001
 2.819796576037104e+000	 8.667452162290449e-001	 1.128377421061092e+001
 2.811198777411681e+000	 8.942379068045109e-001	 1.130555851354395e+001
 2.802311498525101e+000	 9.217105105844986e-001	 1.132498480720760e+001
 2.793134041603211e+000	 9.491586936474777e-001	 1.134204811516610e+001
 2.783665791071792e+000	 9.765780888939598e-001	 1.135673556285318e+001
 2.773906214826328e+000	 1.003964297891819e+000	 1.136902590525225e+001
 2.763854865455219e+000	 1.031312892771182e+000	 1.137888906468917e+001
 2.753511381414393e+000	 1.058619418167635e+000	 1.138628568040715e+001
 2.742875488151270e+000	 1.085879393212413e+000	 1.139116667160313e+001
 2.860161900622463e+000	 8.185956891391486e-001	 1.122081678720431e+001
 2.852072670285467e+000	 8.463489135473123e-001	 1.124452283054076e+001
 2.843693157185278e+000	 8.740905146679343e-001	 1.126616459514081e+001
 2.835022495860088e+000	 9.018161941467714e-001	 1.128575875552861e+001
 2.826059901051216e+000	 9.295216166030753e-001	 1.130331464386090e+001
 2.816804669071168e+000	 9.572024113871669e-001	 1.131883373931683e+001
 2.807256179128995e+000	 9.848541743902404e-001	 1.133230916461430e+001
 2.797413894610822e+000	 1.012472469905322e+000	 1.134372519134687e+001
 2.787277364313423e+000	 1.040052832538216e+000	 1.135305675585641e+001
 2.776846223628796e+000	 1.067590769167185e+000	 1.136026898737316e+001
 2.766120195677642e+000	 1.095081760949999e+000	 1.136531675016503e+001
 2.884196874570821e+000	 8.254746445060665e-001	 1.121019758526594e+001
 2.876039667508701e+000	 8.534610892875464e-001	 1.123085627072262e+001
 2.867589738332473e+000	 8.814358131068238e-001	 1.124975894289367e+001
 2.858846214307540e+000	 9.093944814890325e-001	 1.126692982934437e+001
 2.849808303576409e+000	 9.373327226216522e-001	 1.128238539893145e+001
 2.840475296538247e+000	 9.652461291268561e-001	 1.129613382772895e+001
 2.830846567185376e+000	 9.931302598865214e-001	 1.130817447238143e+001
 2.820921574394556e+000	 1.020980641918824e+000	 1.131849735263998e+001
 2.810699863170943e+000	 1.048792772305250e+000	 1.132708264485977e+001
 2.800181065842599e+000	 1.076562120166735e+000	 1.133390018825306e+001
 2.789364903203508e+000	 1.104284128687585e+000	 1.133890900570405e+001
 2.556917827922116e+000	 1.012260451311729e+000	 1.160600967222051e+001
 2.546730253452309e+000	 1.037624699097835e+000	 1.163869993875093e+001
 2.536269829462126e+000	 1.062937134632405e+000	 1.166555379242318e+001
 2.525536549080854e+000	 1.088193521057849e+000	 1.168643201382934e+001
 2.514530490214018e+000	 1.113389605572321e+000	 1.170118865903322e+001
 2.503251816328118e+000	 1.138521121482225e+000	 1.170967088295789e+001
 2.491700777177656e+000	 1.163583790289264e+000	 1.172564474671959e+001
 2.479877709472937e+000	 1.188573323810186e+000	 1.174104956712380e+001
 2.467783037487111e+000	 1.213485426327355e+000	 1.175028442665083e+001
 2.455417273601035e+000	 1.238315796768148e+000	 1.175318528450820e+001
 2.442781018784593e+000	 1.263060130911157e+000	 1.174638110732862e+001
 2.580162535452529e+000	 1.021462819049315e+000	 1.157615571718445e+001
 2.569882346669243e+000	 1.047057650906575e+000	 1.160983456084220e+001
 2.559326827915428e+000	 1.072600199491755e+000	 1.163814086133647e+001
 2.548495972257905e+000	 1.098086189430378e+000	 1.166093873938699e+001
 2.537389858310435e+000	 1.123511329258761e+000	 1.167808492791962e+001
 2.526008651025578e+000	 1.148871313495186e+000	 1.168942857749019e+001
 2.514352602428330e+000	 1.174161824745914e+000	 1.169481107981188e+001
 2.502422052289999e+000	 1.199378535844211e+000	 1.169406591053115e+001
 2.490217428740764e+000	 1.224517112020460e+000	 1.170318305026267e+001
 2.477739248819490e+000	 1.249573213101379e+000	 1.171032171043284e+001
 2.464988118959423e+000	 1.274542495736273e+000	 1.170223951514856e+001
 2.603407242982436e+000	 1.030665186786900e+000	 1.154763866230706e+001
 2.593034439885761e+000	 1.056490602715315e+000	 1.158218052999865e+001
 2.582383826368383e+000	 1.082263264351105e+000	 1.161181469926738e+001
 2.571455395434662e+000	 1.107978857802907e+000	 1.163640876126756e+001
 2.560249226406592e+000	 1.133633052945201e+000	 1.165582225033154e+001
 2.548765485722786e+000	 1.159221505508146e+000	 1.166990643110989e+001
 2.537004427678744e+000	 1.184739859202564e+000	 1.167850410474038e+001
 2.524966395106772e+000	 1.210183747878236e+000	 1.168144943524933e+001
 2.512651819994080e+000	 1.235548797713565e+000	 1.167856779735524e+001
 2.500061224037538e+000	 1.260830629434609e+000	 1.166362274779408e+001
 2.487195219133758e+000	 1.286024860561388e+000	 1.165736300941341e+001
 2.626651950511838e+000	 1.039867554524486e+000	 1.152021647566842e+001
 2.616186533101865e+000	 1.065923554524055e+000	 1.155549258629038e+001
 2.605440824820995e+000	 1.091926329210455e+000	 1.158632709540303e+001
 2.594414818611126e+000	 1.117871526175435e+000	 1.161259119850834e+001
 2.583108594502486e+000	 1.143754776631642e+000	 1.163414735929881e+001
 2.571522320419746e+000	 1.169571697521107e+000	 1.165084907818752e+001
 2.559656252928899e+000	 1.195317893659214e+000	 1.166254068080108e+001
 2.547510737923258e+000	 1.220988959912260e+000	 1.166905712769916e+001
 2.535086211247058e+000	 1.246580483406670e+000	 1.167022384654812e+001
 2.522383199255180e+000	 1.272088045767840e+000	 1.165087704799887e+001
 2.509402319307596e+000	 1.297507225386504e+000	 1.162644265104192e+001
 2.649896658040735e+000	 1.049069922262071e+000	 1.149364874042177e+001
 2.639338626317554e+000	 1.075356506332795e+000	 1.152952707593692e+001
 2.628497823273262e+000	 1.101589394069805e+000	 1.156143143056848e+001
 2.617374241787298e+000	 1.127764194547964e+000	 1.158923674165860e+001
 2.605967962598117e+000	 1.153876500318082e+000	 1.161280853359927e+001
 2.594279155116453e+000	 1.179921889534068e+000	 1.163200266741924e+001
 2.582308078178795e+000	 1.205895928115864e+000	 1.164666511127730e+001
 2.570055080739456e+000	 1.231794171946284e+000	 1.165663173318638e+001
 2.557520602499700e+000	 1.257612169099775e+000	 1.165528847899319e+001
 2.544705174472415e+000	 1.283345462101070e+000	 1.163539537114522e+001
 2.531609419480937e+000	 1.308989590211620e+000	 1.161333295594652e+001
 2.673141365569126e+000	 1.058272289999657e+000	 1.146769658457291e+001
 2.662490719532829e+000	 1.084789458141534e+000	 1.150404188147462e+001
 2.651554821725185e+000	 1.111252458929155e+000	 1.153688260802513e+001
 2.640333664963176e+000	 1.137656862920493e+000	 1.156609758445303e+001
 2.628827330693487e+000	 1.163998224004522e+000	 1.159155553055233e+001
 2.617035989812912e+000	 1.190272081547028e+000	 1.161311479598665e+001
 2.604959903428432e+000	 1.216473962572514e+000	 1.163062311245299e+001
 2.592599423555366e+000	 1.242599383980309e+000	 1.164391736909112e+001
 2.579954993752005e+000	 1.268643854792879e+000	 1.163512545732810e+001
 2.567027149689245e+000	 1.294602878434300e+000	 1.161714057602018e+001
 2.553816519653783e+000	 1.320471955036735e+000	 1.159738341052906e+001
 2.696386073097013e+000	 1.067474657737242e+000	 1.144212261439180e+001
 2.685642812747688e+000	 1.094222409950274e+000	 1.147879635553607e+001
 2.674611820176765e+000	 1.120915523788505e+000	 1.151243698784836e+001
 2.663293088138761e+000	 1.147549531293021e+000	 1.154292735901922e+001
 2.651686698788596e+000	 1.174119947690962e+000	 1.157013952228870e+001
 2.639792824509119e+000	 1.200622273559988e+000	 1.159393444712199e+001
 2.627611728677810e+000	 1.227051997029165e+000	 1.161416175270760e+001
 2.615143766370987e+000	 1.253404596014333e+000	 1.162694094702956e+001
 2.602389385003972e+000	 1.279675540485985e+000	 1.161221443594921e+001
 2.589349124905668e+000	 1.305860294767531e+000	 1.159607674036491e+001
 2.576023619826133e+000	 1.331954319861851e+000	 1.157855964170931e+001
 2.719630780624395e+000	 1.076677025474828e+000	 1.141669085123876e+001
 2.708794905962132e+000	 1.103655361759014e+000	 1.145355125802557e+001
 2.697668818627999e+000	 1.130578588647855e+000	 1.148785232467066e+001
 2.686252511314053e+000	 1.157442199665550e+000	 1.151948107440794e+001
 2.674546066883441e+000	 1.184241671377402e+000	 1.154831303528844e+001
 2.662549659205076e+000	 1.210972465572949e+000	 1.157421193087526e+001
 2.650263553926928e+000	 1.237630031485815e+000	 1.159702939473421e+001
 2.637688109186321e+000	 1.264209808048358e+000	 1.159984701005935e+001
 2.624823776255603e+000	 1.290707226179089e+000	 1.158651930618787e+001
 2.611671100121684e+000	 1.317117711100762e+000	 1.157216910878262e+001
 2.598230719997987e+000	 1.343436684686967e+000	 1.155682839078611e+001
 2.742875488151270e+000	 1.085879393212413e+000	 1.139116667160313e+001
 2.731946999176162e+000	 1.113088313567753e+000	 1.142806869648885e+001
 2.720725817078891e+000	 1.140241653507206e+000	 1.146288770859012e+001
 2.709211934489051e+000	 1.167334868038079e+000	 1.149551505824888e+001
 2.697405434978026e+000	 1.194363395063842e+000	 1.152582989299316e+001
 2.685306493900782e+000	 1.221322657585909e+000	 1.155369882789309e+001
 2.672915379175788e+000	 1.248208065942465e+000	 1.157897564069567e+001
 2.660232452001367e+000	 1.275015020082382e+000	 1.156998853399968e+001
 2.647258167506898e+000	 1.301738911872195e+000	 1.155800512226344e+001
 2.633993075337294e+000	 1.328375127433993e+000	 1.154538404329518e+001
 2.620437820169345e+000	 1.354919049512082e+000	 1.153215746621788e+001
 2.766120195677642e+000	 1.095081760949999e+000	 1.136531675016503e+001
 2.755099092389776e+000	 1.122521265376493e+000	 1.140211206948954e+001
 2.743782815529437e+000	 1.149904718366555e+000	 1.143730350905847e+001
 2.732171357663757e+000	 1.177227536410608e+000	 1.147078690134820e+001
 2.720264803072348e+000	 1.204485118750283e+000	 1.150244516131196e+001
 2.708063328596238e+000	 1.231672849598870e+000	 1.153214793603239e+001
 2.695567204424388e+000	 1.258786100399115e+000	 1.154773193624826e+001
 2.682776794816125e+000	 1.285820232116407e+000	 1.153733055684840e+001
 2.669692558757854e+000	 1.312770597565299e+000	 1.152663805242225e+001
 2.656315050552499e+000	 1.339632543767223e+000	 1.151568897639286e+001
 2.642644920340206e+000	 1.366401414337198e+000	 1.150451569878399e+001
 2.789364903203508e+000	 1.104284128687585e+000	 1.133890900570405e+001
 2.778251185602976e+000	 1.131954217185233e+000	 1.137544601281678e+001
 2.766839813979641e+000	 1.159567783225906e+000	 1.141086132157467e+001
 2.755130780838170e+000	 1.187120204783136e+000	 1.144505540505615e+001
 2.743124171166409e+000	 1.214606842436723e+000	 1.147791509685189e+001
 2.730820163291444e+000	 1.242023041611831e+000	 1.150931321964320e+001
 2.718219029672730e+000	 1.269364134855765e+000	 1.151137892673229e+001
 2.705321137630596e+000	 1.296625444150432e+000	 1.150183922156137e+001
 2.692126950008475e+000	 1.323802283258404e+000	 1.149238533251995e+001
 2.678637025767297e+000	 1.350889960100454e+000	 1.148305236643141e+001
 2.664852020510573e+000	 1.377883779162314e+000	 1.147387289898806e+001
 2.442781018784593e+000	 1.263060130911157e+000	 1.174638110732862e+001
 2.429874963012998e+000	 1.287714123616817e+000	 1.175222842341837e+001
 2.416699885617485e+000	 1.312273471080953e+000	 1.175788714779396e+001
 2.403256655568767e+000	 1.336733873108761e+000	 1.176351767193893e+001
 2.389546231691873e+000	 1.361091035406278e+000	 1.176928170924228e+001
 2.375569662812050e+000	 1.385340671887671e+000	 1.177534211493227e+001
 2.361328087830620e+000	 1.409478506995771e+000	 1.178186270078554e+001
 2.346822735730043e+000	 1.433500278033387e+000	 1.178900804486713e+001
 2.332054925507497e+000	 1.457401737502925e+000	 1.179694329657447e+001
 2.317026066036402e+000	 1.481178655451782e+000	 1.180583397727624e+001
 2.301737655855408e+000	 1.504826821820936e+000	 1.181584577685339e+001
 2.464988118959423e+000	 1.274542495736273e+000	 1.170223951514856e+001
 2.451964735408257e+000	 1.299420615648048e+000	 1.171189886087590e+001
 2.438669884582033e+000	 1.324203229907142e+000	 1.172114644600101e+001
 2.425104443351200e+000	 1.348885999226073e+000	 1.173013568386651e+001
 2.411269379257375e+000	 1.373464590271839e+000	 1.173902151619986e+001
 2.397165750660582e+000	 1.397934677994195e+000	 1.174796024157163e+001
 2.382794706815789e+000	 1.422291947967267e+000	 1.175710933837349e+001
 2.368157487878027e+000	 1.446532098742073e+000	 1.176662728255496e+001
 2.353255424835356e+000	 1.470650844207406e+000	 1.177667336037553e+001
 2.338089939369135e+000	 1.494643915956548e+000	 1.178740747644773e+001
 2.322662543641093e+000	 1.518507065657215e+000	 1.179898995736306e+001
 2.487195219133758e+000	 1.286024860561388e+000	 1.165736300941341e+001
 2.474054507802924e+000	 1.311127107679275e+000	 1.167058583909607e+001
 2.460639883545905e+000	 1.336132988733313e+000	 1.168317780538459e+001
 2.446952231132881e+000	 1.361038125343341e+000	 1.169528549432566e+001
 2.432992526822060e+000	 1.385838145137323e+000	 1.170705722620700e+001
 2.418761838508240e+000	 1.410528684100595e+000	 1.171864289239479e+001
 2.404261325800040e+000	 1.435105388938584e+000	 1.173019378643363e+001
 2.389492240025056e+000	 1.459563919450516e+000	 1.174186242963119e+001
 2.374455924162235e+000	 1.483899950911571e+000	 1.175380239136868e+001
 2.359153812700872e+000	 1.508109176460913e+000	 1.176616810439673e+001
 2.343587431425777e+000	 1.532187309492996e+000	 1.177911467539438e+001
 2.509402319307596e+000	 1.297507225386504e+000	 1.162644265104192e+001
 2.496144280197001e+000	 1.322833599710497e+000	 1.162827834415715e+001
 2.482609882509102e+000	 1.348062747559464e+000	 1.164397621550160e+001
 2.468800018913809e+000	 1.373190251460564e+000	 1.165896796272982e+001
 2.454715674385928e+000	 1.398211700002727e+000	 1.167339543176196e+001
 2.440357926355026e+000	 1.423122690206871e+000	 1.168740225313786e+001
 2.425727944783373e+000	 1.447918829909723e+000	 1.170113368109504e+001
 2.410826992171133e+000	 1.472595740158717e+000	 1.171473642685598e+001
 2.395656423488133e+000	 1.497149057615417e+000	 1.172835848634982e+001
 2.380217686031613e+000	 1.521574436964875e+000	 1.174214896261310e+001
 2.364512319209461e+000	 1.545867553328280e+000	 1.175625788313240e+001
 2.531609419480937e+000	 1.308989590211620e+000	 1.161333295594652e+001
 2.518234052590487e+000	 1.334540091741714e+000	 1.161268637662251e+001
 2.504579881471621e+000	 1.359992506385595e+000	 1.161051618150016e+001
 2.490647806693987e+000	 1.385342377577744e+000	 1.162118458763241e+001
 2.476438821948977e+000	 1.410585254868052e+000	 1.163804316186004e+001
 2.461954014200937e+000	 1.435716696313024e+000	 1.165425074771286e+001
 2.447194563765786e+000	 1.460732270880685e+000	 1.166994670277423e+001
 2.432161744316254e+000	 1.485627560866675e+000	 1.168527206992944e+001
 2.416856922813053e+000	 1.510398164318945e+000	 1.170036941235478e+001
 2.401281559361361e+000	 1.535039697468434e+000	 1.171538264287774e+001
 2.385437206992146e+000	 1.559547797163067e+000	 1.173045684795697e+001
 2.553816519653783e+000	 1.320471955036735e+000	 1.159738341052906e+001
 2.540323824983382e+000	 1.346246583772926e+000	 1.160007456479110e+001
 2.526549880433464e+000	 1.371922265211707e+000	 1.160108302188863e+001
 2.512495594473411e+000	 1.397494503694878e+000	 1.160046355969868e+001
 2.498161969511209e+000	 1.422958809733298e+000	 1.160100786301534e+001
 2.483550102045977e+000	 1.448310702419053e+000	 1.161920102785228e+001
 2.468661182747280e+000	 1.473545711851467e+000	 1.163665057424962e+001
 2.453496496460421e+000	 1.498659381574389e+000	 1.165349201579868e+001
 2.438057422136992e+000	 1.523647271022156e+000	 1.166986262099663e+001
 2.422345432690113e+000	 1.548504957971591e+000	 1.168590124942373e+001
 2.406362094773829e+000	 1.573228040997356e+000	 1.170174818221682e+001
 2.576023619826133e+000	 1.331954319861851e+000	 1.157855964170931e+001
 2.562413597375686e+000	 1.357953075804133e+000	 1.158437507157230e+001
 2.548519879394631e+000	 1.383852024037798e+000	 1.158835394458227e+001
 2.534343382252085e+000	 1.409646629811968e+000	 1.159054317664311e+001
 2.519885117072623e+000	 1.435332364598465e+000	 1.159098883820026e+001
 2.505146189890143e+000	 1.460904708524959e+000	 1.158973608818764e+001
 2.490127801727858e+000	 1.486359152822072e+000	 1.160126305883557e+001
 2.474831248603635e+000	 1.511691202281862e+000	 1.161941878863847e+001
 2.459257921459952e+000	 1.536896377725050e+000	 1.163686526206156e+001
 2.443409306017870e+000	 1.561970218474346e+000	 1.165373641995144e+001
 2.427286982554514e+000	 1.586908284831148e+000	 1.167016787146377e+001
 2.598230719997987e+000	 1.343436684686967e+000	 1.155682839078611e+001
 2.584503369767397e+000	 1.369659567835335e+000	 1.156555997424908e+001
 2.570489878355120e+000	 1.395781782863870e+000	 1.157230626643992e+001
 2.556191170030005e+000	 1.421798755929014e+000	 1.157710643539701e+001
 2.541608264633220e+000	 1.447705919463553e+000	 1.157999889131846e+001
 2.526742277733436e+000	 1.473498714630740e+000	 1.158102122939758e+001
 2.511594420707515e+000	 1.499172593792499e+000	 1.158021017409870e+001
 2.496166000745893e+000	 1.524723022989091e+000	 1.158307478552533e+001
 2.480458420781933e+000	 1.550145484427626e+000	 1.160140419640734e+001
 2.464473179344633e+000	 1.575435478976698e+000	 1.161891934556572e+001
 2.448211870334198e+000	 1.600588528664443e+000	 1.163575130123877e+001
 2.620437820169345e+000	 1.354919049512082e+000	 1.153215746621788e+001
 2.606593142158518e+000	 1.381366059866532e+000	 1.154360223693054e+001
 2.592459877314934e+000	 1.407711541689923e+000	 1.155291801415117e+001
 2.578038957807174e+000	 1.433950882046016e+000	 1.156013632934839e+001
 2.563331412193000e+000	 1.460079474328562e+000	 1.156528804116036e+001
 2.548338365575856e+000	 1.486092720736399e+000	 1.156840328700327e+001
 2.533061039686253e+000	 1.511986034762747e+000	 1.156951143609517e+001
 2.517500752887198e+000	 1.537754843696077e+000	 1.156864104399821e+001
 2.501658920102934e+000	 1.563394591129884e+000	 1.156581980877999e+001
 2.485537052670400e+000	 1.588900739478647e+000	 1.158148078969950e+001
 2.469136758112883e+000	 1.614268772497240e+000	 1.159853328249626e+001
 2.642644920340206e+000	 1.366401414337198e+000	 1.150451569878399e+001
 2.628682914549048e+000	 1.393072551897724e+000	 1.151847567329026e+001
 2.614429876274071e+000	 1.419641300515955e+000	 1.153016789441149e+001
 2.599886745583592e+000	 1.446103008162973e+000	 1.153961636562396e+001
 2.585054559751962e+000	 1.472453029193492e+000	 1.154684450001325e+001
 2.569934453417402e+000	 1.498686726841934e+000	 1.155187508054335e+001
 2.554527658664074e+000	 1.524799475732817e+000	 1.155473022171792e+001
 2.538835505027548e+000	 1.550786664402821e+000	 1.155543133272197e+001
 2.522859419422954e+000	 1.576643697831824e+000	 1.155399908212982e+001
 2.506600925995174e+000	 1.602365999980195e+000	 1.155045336426125e+001
 2.490061645890567e+000	 1.627949016329540e+000	 1.155854807574626e+001
 2.664852020510573e+000	 1.377883779162314e+000	 1.147387289898806e+001
 2.650772686938987e+000	 1.404779043928912e+000	 1.149015491116778e+001
 2.636399875232532e+000	 1.431571059341969e+000	 1.150403526558871e+001
 2.621734533359258e+000	 1.458255134279886e+000	 1.151553054368337e+001
 2.606777707310107e+000	 1.484826584058343e+000	 1.152465681640043e+001
 2.591530541258077e+000	 1.511280732947345e+000	 1.153142961302466e+001
 2.575994277640976e+000	 1.537612916702709e+000	 1.153586389136763e+001
 2.560170257166945e+000	 1.563818485109321e+000	 1.153797400940378e+001
 2.544059918741997e+000	 1.589892804533448e+000	 1.153777369842202e+001
 2.527664799318953e+000	 1.615831260481341e+000	 1.153527603776096e+001
 2.510986533667252e+000	 1.641629260161343e+000	 1.153049343119046e+001
 2.301737655855408e+000	 1.504826821820936e+000	 1.181584577685339e+001
 2.286191282884384e+000	 1.528342048794389e+000	 1.180246099855714e+001
 2.270388624067453e+000	 1.551720173146155e+000	 1.178730252415246e+001
 2.254331444942703e+000	 1.574957058582615e+000	 1.177034187555437e+001
 2.238021599138304e+000	 1.598048598078016e+000	 1.175155209862971e+001
 2.221461027795396e+000	 1.620990716199806e+000	 1.173090776480706e+001
 2.204651758917846e+000	 1.643779371421331e+000	 1.170838496903259e+001
 2.187595906649108e+000	 1.666410558419238e+000	 1.168396132409683e+001
 2.170295670476613e+000	 1.688880310352928e+000	 1.165761595136909e+001
 2.152753334364160e+000	 1.711184701123380e+000	 1.162932946798780e+001
 2.134971265812936e+000	 1.733319847608720e+000	 1.159908397056750e+001
 2.322662543641093e+000	 1.518507065657215e+000	 1.179898995736306e+001
 2.306974840006722e+000	 1.542236067422203e+000	 1.178226136266428e+001
 2.291028520655076e+000	 1.565826720177869e+000	 1.176419070948666e+001
 2.274825367174592e+000	 1.589274850027924e+000	 1.174478130023905e+001
 2.258367250044602e+000	 1.612576312610017e+000	 1.172403775694852e+001
 2.241656128052988e+000	 1.635726995442207e+000	 1.170196598727114e+001
 2.224694047640011e+000	 1.658722820256689e+000	 1.167857314686523e+001
 2.207483142168612e+000	 1.681559745318081e+000	 1.165386759821374e+001
 2.190025631121565e+000	 1.704233767723595e+000	 1.162785886599350e+001
 2.172323819225973e+000	 1.726740925682399e+000	 1.160055758910198e+001
 2.154380095505764e+000	 1.749077300771513e+000	 1.157197546946364e+001
 2.343587431425777e+000	 1.532187309492996e+000	 1.177911467539438e+001
 2.327758397128064e+000	 1.556130086049429e+000	 1.175984521353931e+001
 2.311668417241718e+000	 1.579933267208925e+000	 1.173965922559374e+001
 2.295319289405525e+000	 1.603592641472524e+000	 1.171859142565448e+001
 2.278712900949981e+000	 1.627104027141278e+000	 1.169667764645586e+001
 2.261851228309703e+000	 1.650463274683859e+000	 1.167395477010282e+001
 2.244736336361354e+000	 1.673666269091308e+000	 1.165046065518023e+001
 2.227370377687361e+000	 1.696708932216214e+000	 1.162623406038501e+001
 2.209755591765835e+000	 1.719587225093601e+000	 1.160131456484006e+001
 2.191894304087190e+000	 1.742297150240827e+000	 1.157574248526187e+001
 2.173788925198088e+000	 1.764834753933805e+000	 1.154955879016544e+001
 2.364512319209461e+000	 1.545867553328280e+000	 1.175625788313240e+001
 2.348541954248410e+000	 1.570024104676068e+000	 1.173522853860652e+001
 2.332308313827381e+000	 1.594039814239324e+000	 1.171370224497160e+001
 2.315813211635502e+000	 1.617910432916416e+000	 1.169174477028769e+001
 2.299058551854437e+000	 1.641631741671800e+000	 1.166942280357891e+001
 2.282046328565542e+000	 1.665199553924760e+000	 1.164680385060061e+001
 2.264778625081876e+000	 1.688609717925187e+000	 1.162395612599301e+001
 2.247257613205353e+000	 1.711858119113636e+000	 1.160094844202684e+001
 2.229485552409424e+000	 1.734940682462945e+000	 1.157785009416161e+001
 2.211464788947810e+000	 1.757853374798664e+000	 1.155473074364859e+001
 2.193197754889913e+000	 1.780592207095596e+000	 1.153166029742305e+001
 2.385437206992146e+000	 1.559547797163067e+000	 1.173045684795697e+001
 2.369325511367762e+000	 1.583918123302120e+000	 1.170842740574013e+001
 2.352948210412062e+000	 1.608146361269064e+000	 1.168631478003368e+001
 2.336307133864524e+000	 1.632228224359600e+000	 1.166421544583864e+001
 2.319404202757974e+000	 1.656159456201584e+000	 1.164222660471073e+001
 2.302241428820505e+000	 1.679935833164913e+000	 1.162044604586387e+001
 2.284820913801577e+000	 1.703553166758325e+000	 1.159897200366572e+001
 2.267144848722589e+000	 1.727007306010347e+000	 1.157790301179166e+001
 2.249215513052332e+000	 1.750294139831629e+000	 1.155733775431654e+001
 2.231035273807834e+000	 1.773409599355910e+000	 1.153737491403781e+001
 2.212606584581236e+000	 1.796349660256885e+000	 1.151811301833453e+001
 2.406362094773829e+000	 1.573228040997356e+000	 1.170174818221682e+001
 2.390109068486118e+000	 1.597812141927584e+000	 1.167945795976647e+001
 2.373588106995765e+000	 1.622252908298146e+000	 1.165749264659087e+001
 2.356801056092591e+000	 1.646546015802075e+000	 1.163597908795007e+001
 2.339749853660591e+000	 1.670687170730628e+000	 1.161504466447276e+001
 2.322436529074593e+000	 1.694672112404316e+000	 1.159481711888831e+001
 2.304863202520458e+000	 1.718496615590724e+000	 1.157542437915311e+001
 2.287032084239069e+000	 1.742156492906349e+000	 1.155699437829707e+001
 2.268945473694559e+000	 1.765647597199652e+000	 1.153965487132937e+001
 2.250605758667262e+000	 1.788965823912565e+000	 1.152353324955664e+001
 2.232015414272057e+000	 1.812107113417673e+000	 1.150875635267845e+001
 2.427286982554514e+000	 1.586908284831148e+000	 1.167016787146377e+001
 2.410892625603480e+000	 1.611706160552461e+000	 1.164833641914708e+001
 2.394228003578486e+000	 1.636359455326572e+000	 1.162723242922233e+001
 2.377294978319703e+000	 1.660863807243842e+000	 1.160701279052036e+001
 2.360095504562287e+000	 1.685214885258934e+000	 1.158783473923930e+001
 2.342631629327805e+000	 1.709408391642969e+000	 1.156985565158777e+001
 2.324905491238517e+000	 1.733440064422382e+000	 1.155323283282160e+001
 2.306919319754793e+000	 1.757305679801639e+000	 1.153812330305827e+001
 2.288675434336104e+000	 1.781001054567014e+000	 1.152468358026727e+001
 2.270176243526094e+000	 1.804522048468628e+000	 1.151306946084941e+001
 2.251424243962378e+000	 1.827864566577960e+000	 1.150343579822957e+001
 2.448211870334198e+000	 1.600588528664443e+000	 1.163575130123877e+001
 2.431676182719846e+000	 1.625600179176749e+000	 1.161507907283194e+001
 2.414867900160228e+000	 1.650466002354339e+000	 1.159553144842204e+001
 2.397788900545858e+000	 1.675181598684901e+000	 1.157729504338490e+001
 2.380441155463061e+000	 1.699742599786501e+000	 1.156055663560972e+001
 2.362826729580142e+000	 1.724144670880873e+000	 1.154550292432763e+001
 2.344947779955756e+000	 1.748383513253301e+000	 1.153232028532941e+001
 2.326806555269760e+000	 1.772454866696219e+000	 1.152119452301391e+001
 2.308405394976968e+000	 1.796354511933715e+000	 1.151231061972536e+001
 2.289746728384329e+000	 1.820078273024100e+000	 1.150585248285054e+001
 2.270833073652197e+000	 1.843622019737746e+000	 1.150200269016058e+001
 2.469136758112883e+000	 1.614268772497240e+000	 1.159853328249626e+001
 2.452459739835218e+000	 1.639494197800451e+000	 1.157970227727267e+001
 2.435507796740989e+000	 1.664572549381447e+000	 1.156238772941614e+001
 2.418282822771060e+000	 1.689499390125252e+000	 1.154680567316625e+001
 2.400786806362917e+000	 1.714270314313329e+000	 1.153317212353441e+001
 2.383021829831603e+000	 1.738880950118027e+000	 1.152170280158362e+001
 2.364990068672173e+000	 1.763326962083479e+000	 1.151261285608851e+001
 2.346693790783973e+000	 1.787604053590088e+000	 1.150611658207590e+001
 2.328135355617151e+000	 1.811707969299755e+000	 1.150242713676200e+001
 2.309317213241968e+000	 1.835634497578981e+000	 1.150175625341618e+001
 2.290241903341514e+000	 1.859379472897029e+000	 1.150431395369475e+001
 2.490061645890567e+000	 1.627949016329540e+000	 1.155854807574626e+001
 2.473243296949594e+000	 1.653388216423565e+000	 1.154222245358620e+001
 2.456147693320770e+000	 1.678679096407899e+000	 1.152779997255222e+001
 2.438776744995305e+000	 1.703817181564894e+000	 1.151552578710651e+001
 2.421132457261850e+000	 1.728798028839418e+000	 1.150564485382117e+001
 2.403216930082187e+000	 1.753617229354432e+000	 1.149840162336580e+001
 2.385032357387770e+000	 1.778270410912917e+000	 1.149403972886337e+001
 2.366581026297427e+000	 1.802753240483247e+000	 1.149280167117253e+001
 2.347865316256653e+000	 1.827061426665134e+000	 1.149492850166928e+001
 2.328887698099011e+000	 1.851190722133270e+000	 1.150065950311753e+001
 2.309650733030330e+000	 1.875136926055812e+000	 1.150982891460139e+001
 2.510986533667252e+000	 1.641629260161343e+000	 1.153049343119046e+001
 2.494026854062975e+000	 1.667282235046092e+000	 1.150265608486063e+001
 2.476787589899573e+000	 1.692785643433693e+000	 1.149176752516926e+001
 2.459270667218596e+000	 1.718134973003828e+000	 1.148343771970828e+001
 2.441478108159864e+000	 1.743325743364768e+000	 1.147794027976607e+001
 2.423412030331897e+000	 1.768353508590087e+000	 1.147554810207116e+001
 2.405074646102547e+000	 1.793213859741615e+000	 1.147653302408956e+001
 2.386468261810128e+000	 1.817902427375695e+000	 1.148116547628949e+001
 2.367595276895474e+000	 1.842414884029852e+000	 1.148971413200483e+001
 2.348458182955458e+000	 1.866746946686970e+000	 1.150244555554429e+001
 2.329059562718645e+000	 1.890894379214094e+000	 1.147314785000418e+001
 2.134971265812936e+000	 1.733319847608720e+000	 1.159908397056750e+001
 2.116951914852261e+000	 1.755281911873847e+000	 1.157269096577614e+001
 2.098697812959695e+000	 1.777067103351779e+000	 1.155095126671672e+001
 2.080211571912335e+000	 1.798671680993865e+000	 1.153409875900488e+001
 2.061495882571019e+000	 1.820091955386313e+000	 1.152236290022293e+001
 2.042553513597452e+000	 1.841324290830751e+000	 1.151596841152427e+001
 2.023387310105893e+000	 1.862365107386282e+000	 1.151513497365498e+001
 2.004000192250767e+000	 1.883210882870655e+000	 1.149158555728190e+001
 1.984395153751670e+000	 1.903858154818206e+000	 1.142942993935871e+001
 1.964575260357303e+000	 1.924303522392291e+000	 1.137199068495176e+001
 1.944543648250000e+000	 1.944543648250000e+000	 1.131933577413288e+001
 2.154380095505764e+000	 1.749077300771513e+000	 1.157197546946364e+001
 2.136196932263273e+000	 1.771239020165651e+000	 1.155381894528075e+001
 2.117776883989519e+000	 1.793222258838262e+000	 1.154018159667852e+001
 2.099122586205026e+000	 1.815023241731164e+000	 1.153127678718404e+001
 2.080236754233004e+000	 1.836638245890440e+000	 1.152731360806985e+001
 2.061122181904812e+000	 1.858063602565916e+000	 1.152849659017758e+001
 2.041781740199380e+000	 1.879295699271775e+000	 1.152051121041977e+001
 2.022218375817995e+000	 1.900330981805929e+000	 1.146035020828830e+001
 2.002435109695884e+000	 1.921165956225753e+000	 1.140456742261359e+001
 1.982435035452192e+000	 1.941797190777907e+000	 1.135321384381076e+001
 1.962221317780000e+000	 1.962221317780000e+000	 1.130633352078333e+001
 2.173788925198088e+000	 1.764834753933805e+000	 1.154955879016544e+001
 2.155441949673878e+000	 1.787196128457048e+000	 1.153899525252456e+001
 2.136855955019020e+000	 1.809377414324423e+000	 1.153282181690821e+001
 2.118033600497471e+000	 1.831374802468217e+000	 1.153123167539034e+001
 2.098977625894810e+000	 1.853184536394388e+000	 1.153441390141134e+001
 2.079690850212046e+000	 1.874802914300954e+000	 1.154255318147363e+001
 2.060176170292788e+000	 1.896226291157187e+000	 1.148501226761332e+001
 2.040436559385178e+000	 1.917451080741156e+000	 1.143091214703380e+001
 2.020475065640079e+000	 1.938473757633280e+000	 1.138093609478404e+001
 2.000294810547076e+000	 1.959290859163518e+000	 1.133511121008914e+001
 1.979898987310000e+000	 1.979898987310000e+000	 1.129345782227925e+001
 2.193197754889913e+000	 1.780592207095596e+000	 1.153166029742305e+001
 2.174686967084077e+000	 1.803153236748038e+000	 1.152806262902942e+001
 2.155935026048202e+000	 1.825532569810264e+000	 1.152873091384164e+001
 2.136944614789670e+000	 1.847726363205024e+000	 1.153383851544599e+001
 2.117718497556434e+000	 1.869730826898153e+000	 1.154355483033858e+001
 2.098259518519155e+000	 1.891542226035867e+000	 1.150419306393545e+001
 2.078570600386115e+000	 1.913156883042519e+000	 1.145172652219549e+001
 2.058654742952317e+000	 1.934571179676340e+000	 1.140312856340023e+001
 2.038515021584253e+000	 1.955781559040786e+000	 1.135840929220290e+001
 2.018154585641954e+000	 1.976784527549124e+000	 1.131757212748287e+001
 1.997576656840000e+000	 1.997576656840000e+000	 1.128061388229958e+001
 2.212606584581236e+000	 1.796349660256885e+000	 1.151811301833453e+001
 2.193931984493869e+000	 1.819110345038622e+000	 1.152086989381825e+001
 2.175014097077062e+000	 1.841687725295783e+000	 1.152777337079358e+001
 2.155855629081623e+000	 1.864077923941585e+000	 1.153897731993999e+001
 2.136459369217878e+000	 1.886277117401738e+000	 1.151874890680000e+001
 2.116828186826138e+000	 1.908281537770655e+000	 1.146779235583313e+001
 2.096965030479361e+000	 1.930087474927769e+000	 1.142049810917438e+001
 2.076872926519410e+000	 1.951691278611478e+000	 1.137685931430294e+001
 2.056554977528407e+000	 1.973089360448274e+000	 1.133686246886130e+001
 2.036014360736829e+000	 1.994278195934725e+000	 1.130048751413410e+001
 2.015254326370000e+000	 2.015254326370001e+000	 1.126770794218438e+001
 2.232015414272057e+000	 1.812107113417673e+000	 1.150875635267845e+001
 2.213177001903255e+000	 1.835067453328800e+000	 1.151727167917595e+001
 2.194093168105600e+000	 1.857842880780981e+000	 1.152981892896317e+001
 2.174766643373330e+000	 1.880429484677900e+000	 1.152961515893309e+001
 2.155200240879140e+000	 1.902823407905142e+000	 1.147997139962834e+001
 2.135396855132995e+000	 1.925020849505317e+000	 1.143383232559412e+001
 2.115359460572527e+000	 1.947018066812940e+000	 1.139117424576278e+001
 2.095091110086457e+000	 1.968811377546571e+000	 1.135196680773288e+001
 2.074594933472542e+000	 1.990397161855740e+000	 1.131617310433645e+001
 2.053874135831698e+000	 2.011771864320321e+000	 1.128374979417699e+001
 2.032931995899999e+000	 2.032931995899999e+000	 1.125464723581904e+001
 2.251424243962378e+000	 1.827864566577960e+000	 1.150343579822957e+001
 2.232422019312235e+000	 1.851024561618572e+000	 1.151712818007771e+001
 2.213172239133817e+000	 1.873998036265857e+000	 1.153474236080077e+001
 2.193677657664791e+000	 1.896781045413970e+000	 1.148920499896324e+001
 2.173941112540222e+000	 1.919369698408366e+000	 1.144399930110578e+001
 2.153965523439727e+000	 1.941760161239853e+000	 1.140214835108678e+001
 2.133753890665613e+000	 1.963948658698031e+000	 1.136360509852419e+001
 2.113309293653459e+000	 1.985931476481618e+000	 1.132831589279638e+001
 2.092634889416656e+000	 2.007704963263187e+000	 1.129622061648195e+001
 2.071733910926561e+000	 2.029265532705912e+000	 1.126725283282439e+001
 2.050609665430000e+000	 2.050609665430000e+000	 1.124133994685237e+001
 2.270833073652197e+000	 1.843622019737746e+000	 1.150200269016058e+001
 2.251667036720809e+000	 1.866981669907937e+000	 1.152030491646725e+001
 2.232251310161714e+000	 1.890153191750413e+000	 1.149651359192137e+001
 2.212588671956006e+000	 1.913132606149792e+000	 1.145194722956397e+001
 2.192681984201123e+000	 1.935915988911408e+000	 1.141065691282595e+001
 2.172534191746333e+000	 1.958499472974264e+000	 1.137257912493398e+001
 2.152148320758619e+000	 1.980879250583041e+000	 1.133764365733240e+001
 2.131527477220416e+000	 2.003051575416620e+000	 1.130577375539396e+001
 2.110674845360750e+000	 2.025012764670613e+000	 1.127688627859558e+001
 2.089593686021420e+000	 2.046759201091498e+000	 1.125089187478309e+001
 2.068287334960000e+000	 2.068287334960000e+000	 1.122769516810817e+001
 2.290241903341514e+000	 1.859379472897029e+000	 1.150431395369475e+001
 2.270912054128976e+000	 1.882938778196897e+000	 1.150299605764782e+001
 2.251330381189289e+000	 1.906308347234647e+000	 1.145870386985148e+001
 2.231499686246975e+000	 1.929484166885369e+000	 1.141765580377480e+001
 2.211422855861843e+000	 1.952462279414270e+000	 1.137977218579110e+001
 2.191102860052814e+000	 1.975238784708548e+000	 1.134496651405754e+001
 2.170542750851544e+000	 1.997809842467970e+000	 1.131314561573960e+001
 2.149745660787329e+000	 2.020171674351577e+000	 1.128420981920371e+001
 2.128714801304825e+000	 2.042320566078019e+000	 1.125805314079851e+001
 2.107453461116274e+000	 2.064252869477079e+000	 1.123456348580087e+001
 2.085965004490000e+000	 2.085965004490000e+000	 1.121362286306099e+001
 2.309650733030330e+000	 1.875136926055812e+000	 1.150982891460139e+001
 2.290157071536736e+000	 1.898895886485449e+000	 1.146537585480458e+001
 2.270409452216543e+000	 1.922463502718561e+000	 1.142418090818109e+001
 2.250410700537698e+000	 1.945835727620701e+000	 1.138614862993225e+001
 2.230163727522383e+000	 1.969008569916951e+000	 1.135117656707564e+001
 2.209671528359169e+000	 1.991978096442708e+000	 1.131915542630416e+001
 2.188937180944389e+000	 2.014740434352820e+000	 1.128996925737646e+001
 2.167963844354195e+000	 2.037291773286488e+000	 1.126349565165696e+001
 2.146754757248878e+000	 2.059628367485406e+000	 1.123960595537916e+001
 2.125313236211122e+000	 2.081746537862655e+000	 1.121816549716040e+001
 2.103642674020000e+000	 2.103642674020000e+000	 1.119903382925424e+001
 2.329059562718645e+000	 1.890894379214094e+000	 1.147314785000418e+001
 2.309402088944092e+000	 1.914852994773596e+000	 1.143134739213257e+001
 2.289488523243476e+000	 1.938618658202153e+000	 1.139275323986268e+001
 2.269321714828176e+000	 1.962187288355787e+000	 1.135724740686579e+001
 2.248904599182743e+000	 1.985554860419452e+000	 1.132470485415639e+001
 2.228240196665399e+000	 2.008717408176742e+000	 1.129499368374033e+001
 2.207331611037154e+000	 2.031671026237589e+000	 1.126797534803224e+001
 2.186182027921018e+000	 2.054411872221356e+000	 1.124350487461524e+001
 2.164794713192912e+000	 2.076936168892772e+000	 1.122143110586931e+001
 2.143173011305967e+000	 2.099240206248227e+000	 1.120159695294883e+001
 2.121320343550000e+000	 2.121320343550000e+000	 1.118383966354710e+001
 1.944543648250000e+000	 1.944543648250000e+000	 1.131933577413288e+001
 1.924303522392292e+000	 1.964575260357303e+000	 1.125923738201852e+001
 1.903858154818207e+000	 1.984395153751669e+000	 1.119653038333073e+001
 1.883210882870656e+000	 2.004000192250766e+000	 1.113120763898666e+001
 1.862365107386283e+000	 2.023387310105892e+000	 1.108622747344616e+001
 1.841324290830752e+000	 2.042553513597451e+000	 1.105545571143570e+001
 1.820091955386314e+000	 2.061495882571018e+000	 1.102451395364173e+001
 1.798671680993865e+000	 2.080211571912334e+000	 1.099359329665134e+001
 1.777067103351780e+000	 2.098697812959694e+000	 1.096288738047037e+001
 1.755281911873849e+000	 2.116951914852261e+000	 1.093259208025465e+001
 1.733319847608720e+000	 2.134971265812937e+000	 1.090290519175122e+001
 1.962221317780000e+000	 1.962221317780000e+000	 1.130633352078333e+001
 1.941797190777907e+000	 1.982435035452191e+000	 1.125015815704946e+001
 1.921165956225753e+000	 2.002435109695884e+000	 1.119146096206747e+001
 1.900330981805930e+000	 2.022218375817995e+000	 1.113021976123669e+001
 1.879295699271775e+000	 2.041781740199379e+000	 1.106641248817251e+001
 1.858063602565916e+000	 2.061122181904811e+000	 1.103114467752024e+001
 1.836638245890441e+000	 2.080236754233004e+000	 1.100340682737964e+001
 1.815023241731165e+000	 2.099122586205025e+000	 1.097568627244613e+001
 1.793222258838262e+000	 2.117776883989518e+000	 1.094816873458302e+001
 1.771239020165652e+000	 2.136196932263272e+000	 1.092104230062542e+001
 1.749077300771513e+000	 2.154380095505764e+000	 1.089449711269834e+001
 1.979898987310000e+000	 1.979898987310000e+000	 1.129345782227925e+001
 1.959290859163519e+000	 2.000294810547075e+000	 1.124091473359184e+001
 1.938473757633281e+000	 2.020475065640078e+000	 1.118593840427794e+001
 1.917451080741158e+000	 2.040436559385178e+000	 1.112849169858279e+001
 1.896226291157188e+000	 2.060176170292787e+000	 1.106853747697954e+001
 1.874802914300955e+000	 2.079690850212045e+000	 1.100639526983035e+001
 1.853184536394388e+000	 2.098977625894809e+000	 1.098150112296024e+001
 1.831374802468217e+000	 2.118033600497470e+000	 1.095661927582740e+001
 1.809377414324423e+000	 2.136855955019020e+000	 1.093192776960490e+001
 1.787196128457048e+000	 2.155441949673877e+000	 1.090760714240262e+001
 1.764834753933805e+000	 2.173788925198089e+000	 1.088384012417908e+001
 1.997576656840000e+000	 1.997576656840000e+000	 1.128061388229958e+001
 1.976784527549125e+000	 2.018154585641954e+000	 1.123142145246041e+001
 1.955781559040787e+000	 2.038515021584253e+000	 1.117988623427713e+001
 1.934571179676341e+000	 2.058654742952316e+000	 1.112595620018123e+001
 1.913156883042519e+000	 2.078570600386114e+000	 1.106957920392146e+001
 1.891542226035868e+000	 2.098259518519154e+000	 1.101070314657885e+001
 1.869730826898154e+000	 2.117718497556433e+000	 1.095890183549139e+001
 1.847726363205025e+000	 2.136944614789669e+000	 1.093650511648353e+001
 1.825532569810264e+000	 2.155935026048201e+000	 1.091428505656393e+001
 1.803153236748039e+000	 2.174686967084076e+000	 1.089241488162112e+001
 1.780592207095596e+000	 2.193197754889913e+000	 1.087107014787114e+001
 2.015254326370000e+000	 2.015254326370001e+000	 1.126770794218438e+001
 1.994278195934726e+000	 2.036014360736828e+000	 1.122159339246226e+001
 1.973089360448274e+000	 2.056554977528407e+000	 1.117322841427346e+001
 1.951691278611479e+000	 2.076872926519409e+000	 1.112254615269795e+001
 1.930087474927771e+000	 2.096965030479361e+000	 1.106947951626077e+001
 1.908281537770655e+000	 2.116828186826137e+000	 1.101396136160302e+001
 1.886277117401739e+000	 2.136459369217877e+000	 1.095592468177639e+001
 1.864077923941586e+000	 2.155855629081622e+000	 1.091545554012434e+001
 1.841687725295783e+000	 2.175014097077061e+000	 1.089535980287223e+001
 1.819110345038623e+000	 2.193931984493868e+000	 1.087559213164492e+001
 1.796349660256885e+000	 2.212606584581236e+000	 1.085632114445102e+001
 2.032931995899999e+000	 2.032931995899999e+000	 1.125464723581904e+001
 2.011771864320322e+000	 2.053874135831696e+000	 1.121134633831012e+001
 1.990397161855741e+000	 2.074594933472541e+000	 1.116588932532994e+001
 1.968811377546571e+000	 2.095091110086456e+000	 1.111819457432964e+001
 1.947018066812941e+000	 2.115359460572527e+000	 1.106818010533303e+001
 1.925020849505317e+000	 2.135396855132994e+000	 1.101576378427811e+001
 1.902823407905143e+000	 2.155200240879139e+000	 1.096086353019376e+001
 1.880429484677901e+000	 2.174766643373329e+000	 1.090339752565406e+001
 1.857842880780981e+000	 2.194093168105599e+000	 1.087526991161368e+001
 1.835067453328801e+000	 2.213177001903255e+000	 1.085726391545716e+001
 1.812107113417673e+000	 2.232015414272058e+000	 1.083972519885491e+001
 2.050609665430000e+000	 2.050609665430000e+000	 1.124133994685237e+001
 2.029265532705913e+000	 2.071733910926561e+000	 1.120059675019541e+001
 2.007704963263187e+000	 2.092634889416655e+000	 1.115779374931021e+001
 1.985931476481619e+000	 2.113309293653459e+000	 1.111283460913442e+001
 1.963948658698032e+000	 2.133753890665613e+000	 1.106562251326783e+001
 1.941760161239854e+000	 2.153965523439726e+000	 1.101606038600286e+001
 1.919369698408366e+000	 2.173941112540221e+000	 1.096405111840822e+001
 1.896781045413970e+000	 2.193677657664790e+000	 1.090949779787108e+001
 1.873998036265858e+000	 2.213172239133817e+000	 1.085413203776522e+001
 1.851024561618573e+000	 2.232422019312234e+000	 1.083755373421090e+001
 1.827864566577960e+000	 2.251424243962378e+000	 1.082141260112950e+001
 2.068287334960000e+000	 2.068287334960000e+000	 1.122769516810817e+001
 2.046759201091498e+000	 2.089593686021419e+000	 1.118926173492167e+001
 2.025012764670613e+000	 2.110674845360750e+000	 1.114886685175014e+001
 2.003051575416621e+000	 2.131527477220416e+000	 1.110639952165318e+001
 1.980879250583042e+000	 2.152148320758618e+000	 1.106174813936516e+001
 1.958499472974264e+000	 2.172534191746333e+000	 1.101480073203817e+001
 1.935915988911409e+000	 2.192681984201123e+000	 1.096544520426235e+001
 1.913132606149793e+000	 2.212588671956005e+000	 1.091356958673018e+001
 1.890153191750414e+000	 2.232251310161713e+000	 1.085906228789827e+001
 1.866981669907938e+000	 2.251667036720807e+000	 1.081658363226467e+001
 1.843622019737746e+000	 2.270833073652197e+000	 1.080151192313676e+001
 2.085965004490000e+000	 2.085965004490000e+000	 1.121362286306099e+001
 2.064252869477080e+000	 2.107453461116273e+000	 1.117725901850563e+001
 2.042320566078020e+000	 2.128714801304823e+000	 1.113903416560061e+001
 2.020171674351577e+000	 2.149745660787327e+000	 1.109882269180435e+001
 1.997809842467971e+000	 2.170542750851543e+000	 1.105649824614745e+001
 1.975238784708549e+000	 2.191102860052813e+000	 1.101193399871657e+001
 1.952462279414271e+000	 2.211422855861843e+000	 1.096500290464471e+001
 1.929484166885371e+000	 2.231499686246975e+000	 1.091557797193782e+001
 1.906308347234648e+000	 2.251330381189288e+000	 1.086353253245211e+001
 1.882938778196897e+000	 2.270912054128975e+000	 1.080874051532470e+001
 1.859379472897029e+000	 2.290241903341515e+000	 1.078015009135833e+001
 2.103642674020000e+000	 2.103642674020000e+000	 1.119903382925424e+001
 2.081746537862656e+000	 2.125313236211122e+000	 1.116450692015998e+001
 2.059628367485406e+000	 2.146754757248877e+000	 1.112822157578997e+001
 2.037291773286489e+000	 2.167963844354194e+000	 1.109003761003609e+001
 2.014740434352821e+000	 2.188937180944389e+000	 1.104981396510665e+001
 1.991978096442709e+000	 2.209671528359169e+000	 1.100740898978349e+001
 1.969008569916952e+000	 2.230163727522383e+000	 1.096268072242075e+001
 1.945835727620701e+000	 2.250410700537697e+000	 1.091548717797764e+001
 1.922463502718562e+000	 2.270409452216542e+000	 1.086568663836096e+001
 1.898895886485450e+000	 2.290157071536736e+000	 1.081313794534113e+001
 1.875136926055812e+000	 2.309650733030330e+000	 1.075770079529496e+001
 2.121320343550000e+000	 2.121320343550000e+000	 1.118383966354710e+001
 2.099240206248228e+000	 2.143173011305966e+000	 1.115092432757680e+001
 2.076936168892773e+000	 2.164794713192911e+000	 1.111635530455822e+001
 2.054411872221357e+000	 2.186182027921017e+000	 1.107997787272092e+001
 2.031671026237590e+000	 2.207331611037153e+000	 1.104163630216369e+001
 2.008717408176743e+000	 2.228240196665399e+000	 1.100117415192187e+001
 1.985554860419452e+000	 2.248904599182742e+000	 1.095843457201714e+001
 1.962187288355787e+000	 2.269321714828175e+000	 1.091326060974490e+001
 1.938618658202154e+000	 2.289488523243475e+000	 1.086549551943592e+001
 1.914852994773597e+000	 2.309402088944092e+000	 1.081498307491729e+001
 1.890894379214094e+000	 2.329059562718646e+000	 1.076156788388609e+001
 1.733319847608720e+000	 2.134971265812937e+000	 1.090290519175122e+001
 1.711184701123380e+000	 2.152753334364159e+000	 1.082212770884009e+001
 1.688880310352929e+000	 2.170295670476612e+000	 1.074240517556065e+001
 1.666410558419238e+000	 2.187595906649108e+000	 1.066374426279275e+001
 1.643779371421331e+000	 2.204651758917846e+000	 1.058615339748049e+001
 1.620990716199807e+000	 2.221461027795396e+000	 1.050964263324959e+001
 1.598048598078017e+000	 2.238021599138303e+000	 1.043422351641636e+001
 1.574957058582615e+000	 2.254331444942703e+000	 1.035990894786013e+001
 1.551720173146156e+000	 2.270388624067453e+000	 1.028671304124037e+001
 1.528342048794390e+000	 2.286191282884385e+000	 1.021465097804940e+001
 1.504826821820936e+000	 2.301737655855408e+000	 1.014373885999578e+001
 1.749077300771513e+000	 2.154380095505764e+000	 1.089449711269834e+001
 1.726740925682399e+000	 2.172323819225972e+000	 1.081177048230676e+001
 1.704233767723596e+000	 2.190025631121564e+000	 1.073055593936537e+001
 1.681559745318082e+000	 2.207483142168611e+000	 1.065088624836409e+001
 1.658722820256690e+000	 2.224694047640010e+000	 1.057279545993913e+001
 1.635726995442208e+000	 2.241656128052987e+000	 1.049631875303965e+001
 1.612576312610017e+000	 2.258367250044601e+000	 1.042149227320600e+001
 1.589274850027924e+000	 2.274825367174592e+000	 1.034835296747840e+001
 1.565826720177870e+000	 2.291028520655075e+000	 1.027693841646579e+001
 1.542236067422204e+000	 2.306974840006721e+000	 1.020728666410873e+001
 1.518507065657215e+000	 2.322662543641092e+000	 1.013943604567450e+001
 1.764834753933805e+000	 2.173788925198089e+000	 1.088384012417908e+001
 1.742297150240828e+000	 2.191894304087189e+000	 1.079979456336772e+001
 1.719587225093601e+000	 2.209755591765834e+000	 1.071770898951060e+001
 1.696708932216215e+000	 2.227370377687360e+000	 1.063764205115328e+001
 1.673666269091309e+000	 2.244736336361353e+000	 1.055965322133658e+001
 1.650463274683859e+000	 2.261851228309702e+000	 1.048380261138551e+001
 1.627104027141279e+000	 2.278712900949980e+000	 1.041015078151636e+001
 1.603592641472525e+000	 2.295319289405524e+000	 1.033875854883139e+001
 1.579933267208926e+000	 2.311668417241718e+000	 1.026968679327563e+001
 1.556130086049430e+000	 2.327758397128063e+000	 1.020299626213495e+001
 1.532187309492996e+000	 2.343587431425777e+000	 1.013874737365687e+001
 1.780592207095596e+000	 2.193197754889913e+000	 1.087107014787114e+001
 1.757853374798665e+000	 2.211464788947809e+000	 1.078631706825820e+001
 1.734940682462946e+000	 2.229485552409423e+000	 1.070396281723549e+001
 1.711858119113637e+000	 2.247257613205352e+000	 1.062409172708314e+001
 1.688609717925187e+000	 2.264778625081875e+000	 1.054678850105795e+001
 1.665199553924762e+000	 2.282046328565541e+000	 1.047213799886878e+001
 1.641631741671801e+000	 2.299058551854437e+000	 1.040022501966566e+001
 1.617910432916417e+000	 2.315813211635502e+000	 1.033113408316073e+001
 1.594039814239324e+000	 2.332308313827379e+000	 1.026494920950223e+001
 1.570024104676069e+000	 2.348541954248411e+000	 1.020175369852595e+001
 1.545867553328280e+000	 2.364512319209462e+000	 1.014162990900763e+001
 1.796349660256885e+000	 2.212606584581236e+000	 1.085632114445102e+001
 1.773409599355911e+000	 2.231035273807834e+000	 1.077145378066992e+001
 1.750294139831630e+000	 2.249215513052330e+000	 1.068941520208120e+001
 1.727007306010349e+000	 2.267144848722588e+000	 1.061031523332799e+001
 1.703553166758326e+000	 2.284820913801577e+000	 1.053426362451556e+001
 1.679935833164914e+000	 2.302241428820505e+000	 1.046136980842942e+001
 1.656159456201584e+000	 2.319404202757973e+000	 1.039174265595109e+001
 1.632228224359601e+000	 2.336307133864524e+000	 1.032549023033873e+001
 1.608146361269064e+000	 2.352948210412062e+000	 1.026271954103987e+001
 1.583918123302121e+000	 2.369325511367761e+000	 1.020353629770694e+001
 1.559547797163067e+000	 2.385437206992145e+000	 1.014804466508100e+001
 1.812107113417673e+000	 2.232015414272058e+000	 1.083972519885491e+001
 1.788965823912565e+000	 2.250605758667261e+000	 1.075531920968779e+001
 1.765647597199653e+000	 2.268945473694558e+000	 1.067416324283405e+001
 1.742156492906350e+000	 2.287032084239068e+000	 1.059639243260680e+001
 1.718496615590724e+000	 2.304863202520457e+000	 1.052214140114783e+001
 1.694672112404317e+000	 2.322436529074593e+000	 1.045154398743678e+001
 1.670687170730629e+000	 2.339749853660590e+000	 1.038473297517125e+001
 1.646546015802076e+000	 2.356801056092591e+000	 1.032183982023218e+001
 1.622252908298147e+000	 2.373588106995764e+000	 1.026299437845066e+001
 1.597812141927584e+000	 2.390109068486117e+000	 1.020832463439039e+001
 1.573228040997356e+000	 2.406362094773829e+000	 1.015795643185586e+001
 1.827864566577960e+000	 2.251424243962378e+000	 1.082141260112950e+001
 1.804522048468628e+000	 2.270176243526093e+000	 1.073802664472988e+001
 1.781001054567015e+000	 2.288675434336103e+000	 1.065830338686859e+001
 1.757305679801639e+000	 2.306919319754792e+000	 1.058240309725469e+001
 1.733440064422383e+000	 2.324905491238517e+000	 1.051048510355589e+001
 1.709408391642970e+000	 2.342631629327805e+000	 1.044270749224018e+001
 1.685214885258935e+000	 2.360095504562285e+000	 1.037922680894929e+001
 1.660863807243844e+000	 2.377294978319702e+000	 1.032019775916826e+001
 1.636359455326572e+000	 2.394228003578486e+000	 1.026577290995299e+001
 1.611706160552461e+000	 2.410892625603479e+000	 1.021610239347708e+001
 1.586908284831148e+000	 2.427286982554514e+000	 1.017133361315037e+001
 1.843622019737746e+000	 2.270833073652197e+000	 1.080151192313676e+001
 1.820078273024101e+000	 2.289746728384328e+000	 1.071968820766994e+001
 1.796354511933716e+000	 2.308405394976967e+000	 1.064193145798560e+001
 1.772454866696220e+000	 2.326806555269760e+000	 1.056842691308535e+001
 1.748383513253301e+000	 2.344947779955755e+000	 1.049935844771058e+001
 1.724144670880873e+000	 2.362826729580141e+000	 1.043490824504999e+001
 1.699742599786501e+000	 2.380441155463060e+000	 1.037525646962955e+001
 1.675181598684902e+000	 2.397788900545858e+000	 1.032058094119673e+001
 1.650466002354339e+000	 2.414867900160227e+000	 1.027105681041065e+001
 1.625600179176750e+000	 2.431676182719845e+000	 1.022685623714239e+001
 1.600588528664443e+000	 2.448211870334198e+000	 1.018814807218413e+001
 1.859379472897029e+000	 2.290241903341515e+000	 1.078015009135833e+001
 1.835634497578981e+000	 2.309317213241967e+000	 1.070041490230957e+001
 1.811707969299756e+000	 2.328135355617151e+000	 1.062514268283476e+001
 1.787604053590089e+000	 2.346693790783972e+000	 1.055454348305736e+001
 1.763326962083480e+000	 2.364990068672173e+000	 1.048882557416532e+001
 1.738880950118028e+000	 2.383021829831602e+000	 1.042819509301156e+001
 1.714270314313330e+000	 2.400786806362916e+000	 1.037285568753480e+001
 1.689499390125253e+000	 2.418282822771059e+000	 1.032300816386455e+001
 1.664572549381449e+000	 2.435507796740989e+000	 1.027885013596640e+001
 1.639494197800452e+000	 2.452459739835217e+000	 1.024057567868044e+001
 1.614268772497240e+000	 2.469136758112883e+000	 1.020837498499363e+001
 1.875136926055812e+000	 2.309650733030330e+000	 1.075770079529496e+001
 1.851190722133271e+000	 2.328887698099010e+000	 1.068031666135616e+001
 1.827061426665134e+000	 2.347865316256653e+000	 1.060803171600507e+001
 1.802753240483248e+000	 2.366581026297427e+000	 1.054083233075530e+001
 1.778270410912918e+000	 2.385032357387770e+000	 1.047895103021678e+001
 1.753617229354433e+000	 2.403216930082186e+000	 1.042261776934199e+001
 1.728798028839419e+000	 2.421132457261850e+000	 1.037205955138764e+001
 1.703817181564895e+000	 2.438776744995304e+000	 1.032750004823691e+001
 1.678679096407900e+000	 2.456147693320770e+000	 1.028915922398831e+001
 1.653388216423566e+000	 2.473243296949593e+000	 1.025725296270907e+001
 1.627949016329540e+000	 2.490061645890567e+000	 1.023199270123810e+001
 1.890894379214094e+000	 2.329059562718646e+000	 1.076156788388609e+001
 1.866746946686970e+000	 2.348458182955457e+000	 1.065950239105158e+001
 1.842414884029853e+000	 2.367595276895474e+000	 1.059069266386059e+001
 1.817902427375696e+000	 2.386468261810127e+000	 1.052737290369729e+001
 1.793213859741616e+000	 2.405074646102546e+000	 1.046979975295696e+001
 1.768353508590089e+000	 2.423412030331897e+000	 1.041822685641098e+001
 1.743325743364769e+000	 2.441478108159864e+000	 1.037290445171036e+001
 1.718134973003829e+000	 2.459270667218595e+000	 1.033407896291738e+001
 1.692785643433694e+000	 2.476787589899572e+000	 1.030199259801876e+001
 1.667282235046093e+000	 2.494026854062976e+000	 1.027688295136496e+001
 1.641629260161343e+000	 2.510986533667252e+000	 1.021853865729956e+001
 1.504826821820936e+000	 2.301737655855408e+000	 1.014373885999578e+001
 1.481178655451783e+000	 2.317026066036402e+000	 1.004777781393911e+001
 1.457401737502926e+000	 2.332054925507497e+000	 9.957691460539826e+000
 1.433500278033387e+000	 2.346822735730043e+000	 9.873647712128319e+000
 1.409478506995772e+000	 2.361328087830619e+000	 9.795809591057896e+000
 1.385340671887672e+000	 2.375569662812049e+000	 9.724334964478459e+000
 1.361091035406279e+000	 2.389546231691873e+000	 9.659376287321924e+000
 1.336733873108762e+000	 2.403256655568766e+000	 9.601080354074465e+000
 1.312273471080953e+000	 2.416699885617484e+000	 9.549588059887627e+000
 1.287714123616818e+000	 2.429874963012997e+000	 9.505034171548170e+000
 1.263060130911157e+000	 2.442781018784593e+000	 9.467547108801382e+000
 1.518507065657215e+000	 2.322662543641092e+000	 1.013943604567450e+001
 1.494643915956549e+000	 2.338089939369133e+000	 1.005145894652895e+001
 1.470650844207407e+000	 2.353255424835356e+000	 9.969607040985220e+000
 1.446532098742074e+000	 2.368157487878027e+000	 9.894045632139212e+000
 1.422291947967268e+000	 2.382794706815789e+000	 9.824934982107950e+000
 1.397934677994196e+000	 2.397165750660581e+000	 9.762430046328930e+000
 1.373464590271841e+000	 2.411269379257375e+000	 9.706680216250051e+000
 1.348885999226074e+000	 2.425104443351199e+000	 9.657829070993151e+000
 1.324203229907143e+000	 2.438669884582033e+000	 9.616014138545060e+000
 1.299420615648050e+000	 2.451964735408256e+000	 9.581366667003870e+000
 1.274542495736273e+000	 2.464988118959423e+000	 9.554011406376514e+000
 1.532187309492996e+000	 2.343587431425777e+000	 1.013874737365687e+001
 1.508109176460914e+000	 2.359153812700871e+000	 1.005856010479351e+001
 1.483899950911571e+000	 2.374455924162234e+000	 9.984746074586475e+000
 1.459563919450517e+000	 2.389492240025056e+000	 9.917468160302999e+000
 1.435105388938585e+000	 2.404261325800040e+000	 9.856884048460952e+000
 1.410528684100596e+000	 2.418761838508240e+000	 9.803145968398702e+000
 1.385838145137324e+000	 2.432992526822059e+000	 9.756400434416573e+000
 1.361038125343342e+000	 2.446952231132880e+000	 9.716787997077244e+000
 1.336132988733314e+000	 2.460639883545905e+000	 9.684443004226647e+000
 1.311127107679276e+000	 2.474054507802924e+000	 9.659493372266477e+000
 1.286024860561388e+000	 2.487195219133758e+000	 9.642060368180490e+000
 1.545867553328280e+000	 2.364512319209462e+000	 1.014162990900763e+001
 1.521574436964876e+000	 2.380217686031613e+000	 1.006904095913003e+001
 1.497149057615418e+000	 2.395656423488133e+000	 1.000307087720204e+001
 1.472595740158718e+000	 2.410826992171132e+000	 9.943880297424116e+000
 1.447918829909725e+000	 2.425727944783372e+000	 9.891624514693429e+000
 1.423122690206872e+000	 2.440357926355025e+000	 9.846453217190129e+000
 1.398211700002728e+000	 2.454715674385927e+000	 9.808510227715367e+000
 1.373190251460565e+000	 2.468800018913809e+000	 9.777933254376295e+000
 1.348062747559465e+000	 2.482609882509102e+000	 9.754853651184860e+000
 1.322833599710498e+000	 2.496144280197001e+000	 9.739396189107932e+000
 1.297507225386504e+000	 2.509402319307596e+000	 9.681840266611578e+000
 1.559547797163067e+000	 2.385437206992145e+000	 1.014804466508100e+001
 1.535039697468435e+000	 2.401281559361360e+000	 1.008286499456631e+001
 1.510398164318946e+000	 2.416856922813052e+000	 1.002454744342278e+001
 1.485627560866675e+000	 2.432161744316253e+000	 9.973250584973314e+000
 1.460732270880686e+000	 2.447194563765786e+000	 9.929127505887559e+000
 1.435716696313025e+000	 2.461954014200938e+000	 9.892325537528860e+000
 1.410585254868053e+000	 2.476438821948977e+000	 9.862985996234821e+000
 1.385342377577744e+000	 2.490647806693986e+000	 9.841243933133963e+000
 1.359992506385596e+000	 2.504579881471621e+000	 9.804901742196883e+000
 1.334540091741715e+000	 2.518234052590486e+000	 9.729225669549361e+000
 1.308989590211620e+000	 2.531609419480937e+000	 9.658219433192517e+000
 1.573228040997356e+000	 2.406362094773829e+000	 1.015795643185586e+001
 1.548504957971592e+000	 2.422345432690113e+000	 1.009999934490725e+001
 1.523647271022157e+000	 2.438057422136991e+000	 1.004914528662682e+001
 1.498659381574390e+000	 2.453496496460421e+000	 1.000555095114578e+001
 1.473545711851468e+000	 2.468661182747280e+000	 9.969367399782970e+000
 1.448310702419054e+000	 2.483550102045976e+000	 9.940739790897592e+000
 1.422958809733299e+000	 2.498161969511208e+000	 9.919807118858076e+000
 1.397494503694879e+000	 2.512495594473410e+000	 9.848678626746676e+000
 1.371922265211707e+000	 2.526549880433463e+000	 9.774343209821781e+000
 1.346246583772927e+000	 2.540323824983381e+000	 9.704888730776498e+000
 1.320471955036735e+000	 2.553816519653783e+000	 9.640125933441555e+000
 1.586908284831148e+000	 2.427286982554514e+000	 1.017133361315037e+001
 1.561970218474347e+000	 2.443409306017870e+000	 1.012041463545999e+001
 1.536896377725050e+000	 2.459257921459952e+000	 1.007683728730790e+001
 1.511691202281862e+000	 2.474831248603634e+000	 1.004075656488141e+001
 1.486359152822073e+000	 2.490127801727857e+000	 1.001232168657586e+001
 1.460904708524959e+000	 2.505146189890142e+000	 9.969500863026140e+000
 1.435332364598466e+000	 2.519885117072623e+000	 9.890821075389892e+000
 1.409646629811969e+000	 2.534343382252084e+000	 9.817486140159836e+000
 1.383852024037799e+000	 2.548519879394630e+000	 9.749279183797892e+000
 1.357953075804134e+000	 2.562413597375684e+000	 9.685988283835600e+000
 1.331954319861851e+000	 2.576023619826133e+000	 9.627407048887605e+000
 1.600588528664443e+000	 2.448211870334198e+000	 1.018814807218413e+001
 1.575435478976699e+000	 2.464473179344633e+000	 1.014408483382436e+001
 1.550145484427626e+000	 2.480458420781932e+000	 1.010759954918148e+001
 1.524723022989091e+000	 2.496166000745893e+000	 1.007884569737165e+001
 1.499172593792499e+000	 2.511594420707514e+000	 1.001005408912638e+001
 1.473498714630741e+000	 2.526742277733436e+000	 9.931688681792268e+000
 1.447705919463554e+000	 2.541608264633219e+000	 9.858974053890684e+000
 1.421798755929015e+000	 2.556191170030004e+000	 9.791671088440110e+000
 1.395781782863871e+000	 2.570489878355119e+000	 9.729545169836744e+000
 1.369659567835336e+000	 2.584503369767397e+000	 9.672366812633738e+000
 1.343436684686967e+000	 2.598230719997987e+000	 9.619912268787116e+000
 1.614268772497240e+000	 2.469136758112883e+000	 1.020837498499363e+001
 1.588900739478649e+000	 2.485537052670400e+000	 1.017098710827029e+001
 1.563394591129885e+000	 2.501658920102933e+000	 1.013495110736581e+001
 1.537754843696078e+000	 2.517500752887198e+000	 1.005018267343164e+001
 1.511986034762748e+000	 2.533061039686253e+000	 9.971672602478137e+000
 1.486092720736399e+000	 2.548338365575855e+000	 9.899156378993238e+000
 1.460079474328563e+000	 2.563331412192999e+000	 9.832372770055576e+000
 1.433950882046017e+000	 2.578038957807173e+000	 9.771064522364261e+000
 1.407711541689924e+000	 2.592459877314933e+000	 9.714979040108085e+000
 1.381366059866533e+000	 2.606593142158518e+000	 9.663869042086018e+000
 1.354919049512082e+000	 2.620437820169344e+000	 9.617493196576309e+000
 1.627949016329540e+000	 2.490061645890567e+000	 1.023199270123810e+001
 1.602365999980196e+000	 2.506600925995173e+000	 1.017617447140215e+001
 1.576643697831826e+000	 2.522859419422954e+000	 1.009035656440668e+001
 1.550786664402821e+000	 2.538835505027548e+000	 1.001119894196309e+001
 1.524799475732817e+000	 2.554527658664073e+000	 9.938415831160404e+000
 1.498686726841934e+000	 2.569934453417402e+000	 9.871724098179202e+000
 1.472453029193493e+000	 2.585054559751961e+000	 9.810843993411368e+000
 1.446103008162974e+000	 2.599886745583591e+000	 9.755499878534357e+000
 1.419641300515956e+000	 2.614429876274070e+000	 9.705420933809307e+000
 1.393072551897726e+000	 2.628682914549048e+000	 9.660341843955322e+000
 1.366401414337198e+000	 2.642644920340206e+000	 9.620003461040096e+000
 1.641629260161343e+000	 2.510986533667252e+000	 1.021853865729956e+001
 1.615831260481341e+000	 2.527664799318952e+000	 1.013108547560916e+001
 1.589892804533449e+000	 2.544059918741996e+000	 1.005073207831373e+001
 1.563818485109322e+000	 2.560170257166945e+000	 9.977171815686694e+000
 1.537612916702710e+000	 2.575994277640975e+000	 9.910099958873895e+000
 1.511280732947346e+000	 2.591530541258077e+000	 9.849214492804290e+000
 1.484826584058344e+000	 2.606777707310106e+000	 9.794216892365594e+000
 1.458255134279887e+000	 2.621734533359257e+000	 9.744812879968288e+000
 1.431571059341970e+000	 2.636399875232531e+000	 9.700713162705631e+000
 1.404779043928913e+000	 2.650772686938987e+000	 9.661634147400463e+000
 1.377883779162314e+000	 2.664852020510572e+000	 9.627298631922530e+000
 1.263060130911157e+000	 2.442781018784593e+000	 9.467547108801382e+000
 1.238315796768149e+000	 2.455417273601034e+000	 9.340204047002066e+000
 1.213485426327356e+000	 2.467783037487111e+000	 9.229781971518058e+000
 1.188573323810187e+000	 2.479877709472937e+000	 9.140368138072043e+000
 1.163583790289265e+000	 2.491700777177655e+000	 9.072132140286481e+000
 1.138521121482226e+000	 2.503251816328117e+000	 9.002981339156815e+000
 1.113389605572322e+000	 2.514530490214019e+000	 8.895350628795475e+000
 1.088193521057850e+000	 2.525536549080854e+000	 8.802671095331538e+000
 1.062937134632406e+000	 2.536269829462126e+000	 8.724247273124265e+000
 1.037624699097836e+000	 2.546730253452308e+000	 8.659415449806708e+000
 1.012260451311729e+000	 2.556917827922117e+000	 8.607544649313152e+000
 1.274542495736273e+000	 2.464988118959423e+000	 9.554011406376514e+000
 1.249573213101380e+000	 2.477739248819489e+000	 9.437115399492907e+000
 1.224517112020461e+000	 2.490217428740764e+000	 9.334912804342981e+000
 1.199378535844212e+000	 2.502422052289998e+000	 9.239743066542207e+000
 1.174161824745915e+000	 2.514352602428328e+000	 9.104383348252165e+000
 1.148871313495187e+000	 2.526008651025577e+000	 8.985657866891744e+000
 1.123511329258762e+000	 2.537389858310435e+000	 8.882789509968735e+000
 1.098086189430379e+000	 2.548495972257904e+000	 8.795031402110816e+000
 1.072600199491756e+000	 2.559326827915427e+000	 8.721668120172353e+000
 1.047057650906576e+000	 2.569882346669243e+000	 8.662016807809954e+000
 1.021462819049315e+000	 2.580162535452528e+000	 8.615428188622019e+000
 1.286024860561388e+000	 2.487195219133758e+000	 9.642060368180490e+000
 1.260830629434610e+000	 2.500061224037538e+000	 9.534545291126317e+000
 1.235548797713566e+000	 2.512651819994079e+000	 9.368659629036708e+000
 1.210183747878237e+000	 2.524966395106772e+000	 9.220628836855903e+000
 1.184739859202565e+000	 2.537004427678743e+000	 9.090239396434237e+000
 1.159221505508147e+000	 2.548765485722787e+000	 8.976662166074432e+000
 1.133633052945202e+000	 2.560249226406592e+000	 8.879097671266225e+000
 1.107978857802907e+000	 2.571455395434661e+000	 8.796777457866080e+000
 1.082263264351106e+000	 2.582383826368382e+000	 8.728965343347554e+000
 1.056490602715316e+000	 2.593034439885761e+000	 8.674958564855643e+000
 1.030665186786900e+000	 2.603407242982436e+000	 8.634088823127783e+000
 1.297507225386504e+000	 2.509402319307596e+000	 9.681840266611578e+000
 1.272088045767840e+000	 2.522383199255179e+000	 9.511732704056835e+000
 1.246580483406671e+000	 2.535086211247057e+000	 9.351124863966067e+000
 1.220988959912261e+000	 2.547510737923258e+000	 9.208473657138415e+000
 1.195317893659215e+000	 2.559656252928899e+000	 9.083642529344582e+000
 1.169571697521108e+000	 2.571522320419744e+000	 8.975778310613766e+000
 1.143754776631643e+000	 2.583108594502486e+000	 8.884058279657548e+000
 1.117871526175436e+000	 2.594414818611126e+000	 8.807691556732882e+000
 1.091926329210456e+000	 2.605440824820994e+000	 8.745920391872808e+000
 1.065923554524055e+000	 2.616186533101864e+000	 8.698021347176564e+000
 1.039867554524486e+000	 2.626651950511838e+000	 8.663306372189204e+000
 1.308989590211620e+000	 2.531609419480937e+000	 9.658219433192517e+000
 1.283345462101071e+000	 2.544705174472416e+000	 9.495050602024705e+000
 1.257612169099776e+000	 2.557520602499699e+000	 9.341145691678834e+000
 1.231794171946286e+000	 2.570055080739456e+000	 9.203067138346855e+000
 1.205895928115865e+000	 2.582308078178795e+000	 9.084381705356128e+000
 1.179921889534068e+000	 2.594279155116453e+000	 8.982794644759586e+000
 1.153876500318082e+000	 2.605967962598116e+000	 8.897459097093742e+000
 1.127764194547965e+000	 2.617374241787296e+000	 8.827560903726260e+000
 1.101589394069806e+000	 2.628497823273261e+000	 8.772319932912115e+000
 1.075356506332795e+000	 2.639338626317554e+000	 8.730991297084334e+000
 1.049069922262071e+000	 2.649896658040735e+000	 8.702866460375990e+000
 1.320471955036735e+000	 2.553816519653783e+000	 9.640125933441555e+000
 1.294602878434302e+000	 2.567027149689244e+000	 9.484337472865725e+000
 1.268643854792880e+000	 2.579954993752005e+000	 9.338133537536548e+000
 1.242599383980310e+000	 2.592599423555365e+000	 9.204202330363287e+000
 1.216473962572515e+000	 2.604959903428432e+000	 9.092249648723572e+000
 1.190272081547029e+000	 2.617035989812911e+000	 8.997503597435621e+000
 1.163998224004523e+000	 2.628827330693487e+000	 8.919092280725488e+000
 1.137656862920494e+000	 2.640333664963176e+000	 8.856177401224487e+000
 1.111252458929156e+000	 2.651554821725185e+000	 8.807955624704112e+000
 1.084789458141535e+000	 2.662490719532828e+000	 8.773659833140128e+000
 1.058272289999657e+000	 2.673141365569126e+000	 8.752560265068569e+000
 1.331954319861851e+000	 2.576023619826133e+000	 9.627407048887605e+000
 1.305860294767532e+000	 2.589349124905667e+000	 9.479434446363278e+000
 1.279675540485985e+000	 2.602389385003972e+000	 9.341356237130206e+000
 1.253404596014335e+000	 2.615143766370987e+000	 9.213029516316880e+000
 1.227051997029165e+000	 2.627611728677810e+000	 9.107042687260877e+000
 1.200622273559989e+000	 2.639792824509118e+000	 9.019701506175979e+000
 1.174119947690963e+000	 2.651686698788594e+000	 8.948754193454803e+000
 1.147549531293022e+000	 2.663293088138760e+000	 8.893337446496041e+000
 1.120915523788506e+000	 2.674611820176764e+000	 8.852623901428798e+000
 1.094222409950275e+000	 2.685642812747687e+000	 8.825823422729837e+000
 1.067474657737242e+000	 2.696386073097013e+000	 8.812184277112468e+000
 1.343436684686967e+000	 2.598230719997987e+000	 9.619912268787116e+000
 1.317117711100763e+000	 2.611671100121684e+000	 9.480185181344753e+000
 1.290707226179090e+000	 2.624823776255602e+000	 9.350651800531097e+000
 1.264209808048359e+000	 2.637688109186321e+000	 9.231168139802428e+000
 1.237630031485815e+000	 2.650263553926928e+000	 9.128560598343011e+000
 1.210972465572950e+000	 2.662549659205076e+000	 9.049188450090718e+000
 1.184241671377403e+000	 2.674546066883441e+000	 8.986245224202277e+000
 1.157442199665551e+000	 2.686252511314051e+000	 8.938841739610894e+000
 1.130578588647856e+000	 2.697668818627999e+000	 8.906125769108096e+000
 1.103655361759015e+000	 2.708794905962131e+000	 8.887283366302608e+000
 1.076677025474828e+000	 2.719630780624395e+000	 8.881540073747376e+000
 1.354919049512082e+000	 2.620437820169344e+000	 9.617493196576309e+000
 1.328375127433993e+000	 2.633993075337294e+000	 9.486435758518521e+000
 1.301738911872195e+000	 2.647258167506897e+000	 9.365860960530116e+000
 1.275015020082384e+000	 2.660232452001367e+000	 9.255623340487054e+000
 1.248208065942466e+000	 2.672915379175787e+000	 9.156606462738081e+000
 1.221322657585910e+000	 2.685306493900782e+000	 9.085768091323979e+000
 1.194363395063843e+000	 2.697405434978026e+000	 9.031369617312702e+000
 1.167334868038080e+000	 2.709211934489051e+000	 8.992495101117877e+000
 1.140241653507206e+000	 2.720725817078891e+000	 8.968266611883372e+000
 1.113088313567754e+000	 2.731946999176161e+000	 8.957845592579762e+000
 1.085879393212413e+000	 2.742875488151270e+000	 8.960434103081914e+000
 1.366401414337198e+000	 2.642644920340206e+000	 9.620003461040096e+000
 1.339632543767224e+000	 2.656315050552498e+000	 9.498034578714227e+000
 1.312770597565300e+000	 2.669692558757853e+000	 9.386827058237346e+000
 1.285820232116408e+000	 2.682776794816125e+000	 9.286233567326063e+000
 1.258786100399116e+000	 2.695567204424388e+000	 9.196109359473489e+000
 1.231672849598871e+000	 2.708063328596238e+000	 9.129247524507061e+000
 1.204485118750283e+000	 2.720264803072348e+000	 9.083935310562863e+000
 1.177227536410608e+000	 2.732171357663756e+000	 9.054106298915629e+000
 1.149904718366556e+000	 2.743782815529436e+000	 9.038856008061138e+000
 1.122521265376494e+000	 2.755099092389776e+000	 9.037320464089675e+000
 1.095081760949999e+000	 2.766120195677642e+000	 9.048677479435177e+000
 1.377883779162314e+000	 2.664852020510572e+000	 9.627298631922530e+000
 1.350889960100455e+000	 2.678637025767296e+000	 9.514832266211281e+000
 1.323802283258406e+000	 2.692126950008474e+000	 9.413395934402415e+000
 1.296625444150433e+000	 2.705321137630596e+000	 9.322840038707138e+000
 1.269364134855766e+000	 2.718219029672730e+000	 9.243017427068056e+000
 1.242023041611831e+000	 2.730820163291444e+000	 9.179437133737402e+000
 1.214606842436724e+000	 2.743124171166410e+000	 9.143753781268215e+000
 1.187120204783137e+000	 2.755130780838170e+000	 9.123487883779609e+000
 1.159567783225907e+000	 2.766839813979640e+000	 9.117707555355800e+000
 1.131954217185234e+000	 2.778251185602976e+000	 9.125522592425902e+000
 1.104284128687585e+000	 2.789364903203509e+000	 9.146085788911476e+000
 1.012260451311729e+000	 2.556917827922117e+000	 8.607544649313152e+000
 9.868486101712383e-001	 2.566832643677576e+000	 8.506440854707874e+000
 9.613933746349105e-001	 2.576474874564940e+000	 8.414736268549268e+000
 9.358989217837996e-001	 2.585844776523053e+000	 8.331969567489409e+000
 9.103694049237151e-001	 2.594942686584524e+000	 8.257716988124523e+000
 8.848089517299641e-001	 2.603769021827961e+000	 8.191592717567932e+000
 8.592216624358853e-001	 2.612324278282998e+000	 8.133249185354890e+000
 8.336116080664262e-001	 2.620609029790004e+000	 8.082377257993006e+000
 8.079828287179304e-001	 2.628623926816410e+000	 8.038706337723660e+000
 7.823393318852088e-001	 2.636369695231585e+000	 8.002004367298074e+000
 7.566850908368894e-001	 2.643847135042238e+000	 7.972077742797380e+000
 1.021462819049315e+000	 2.580162535452528e+000	 8.615428188622019e+000
 9.958199611707879e-001	 2.590167485896778e+000	 8.520039560027763e+000
 9.701333144019444e-001	 2.599897373428621e+000	 8.433001073811242e+000
 9.444070937973023e-001	 2.609352456313620e+000	 8.353825267299925e+000
 9.186454904199957e-001	 2.618533074648314e+000	 8.282064358402153e+000
 8.928526694696534e-001	 2.627439649302939e+000	 8.217310645515411e+000
 8.670327684544621e-001	 2.636072680816487e+000	 8.159196804757560e+000
 8.411898954086871e-001	 2.644432748246060e+000	 8.107396085897358e+000
 8.153281271568199e-001	 2.652520507972429e+000	 8.061622408620515e+000
 7.894515076254423e-001	 2.660336692463774e+000	 8.021630361015241e+000
 7.635640462038073e-001	 2.667882108999597e+000	 7.987215102395578e+000
 1.030665186786900e+000	 2.603407242982436e+000	 8.634088823127783e+000
 1.004791312170337e+000	 2.613502328115380e+000	 8.544253272853082e+000
 9.788732541689785e-001	 2.623319872291618e+000	 8.461711170974986e+000
 9.529152658108047e-001	 2.632860136103426e+000	 8.385948427843374e+000
 9.269215759162764e-001	 2.642123462711282e+000	 8.316492782990377e+000
 9.008963872093427e-001	 2.651110276777039e+000	 8.252914214740768e+000
 8.748438744730388e-001	 2.659821083349055e+000	 8.194825243072884e+000
 8.487681827509475e-001	 2.668256466701160e+000	 8.141881127169526e+000
 8.226734255957094e-001	 2.676417089127467e+000	 8.093779959368479e+000
 7.965636833656763e-001	 2.684303689694969e+000	 8.050262657475495e+000
 7.704430015707247e-001	 2.691917082955955e+000	 8.011112857649341e+000
 1.039867554524486e+000	 2.626651950511838e+000	 8.663306372189204e+000
 1.013762663169887e+000	 2.636837170333383e+000	 8.578876169500052e+000
 9.876131939360127e-001	 2.646742371153929e+000	 8.500674540324701e+000
 9.614234378243071e-001	 2.656367815892474e+000	 8.428160272227055e+000
 9.351976614125571e-001	 2.665713850773425e+000	 8.360836159105066e+000
 9.089401049490317e-001	 2.674780904250262e+000	 8.298249420871393e+000
 8.826549804916154e-001	 2.683569485880700e+000	 8.239992012248235e+000
 8.563464700932082e-001	 2.692080185155304e+000	 8.185700822180269e+000
 8.300187240345988e-001	 2.700313670281525e+000	 8.135057765646979e+000
 8.036758591059100e-001	 2.708270686925168e+000	 8.087789769921159e+000
 7.773219569376425e-001	 2.715952056911313e+000	 8.043668657570697e+000
 1.049069922262071e+000	 2.649896658040735e+000	 8.702866460375990e+000
 1.022734014169437e+000	 2.660172012550785e+000	 8.623707979851591e+000
 9.963531337030465e-001	 2.670164870015556e+000	 8.549704474499782e+000
 9.699316098378097e-001	 2.679875495680764e+000	 8.480287105176153e+000
 9.434737469088375e-001	 2.689304238834745e+000	 8.414933245350939e+000
 9.169838226887210e-001	 2.698451531722607e+000	 8.353166911230415e+000
 8.904660865101921e-001	 2.707317888411424e+000	 8.294559076791542e+000
 8.639247574354689e-001	 2.715903903608492e+000	 8.238727875297236e+000
 8.373640224734882e-001	 2.724210251434601e+000	 8.185338689149376e+000
 8.107880348461440e-001	 2.732237684154373e+000	 8.134104130207049e+000
 7.842009123045602e-001	 2.739987030865671e+000	 8.084783912959727e+000
 1.058272289999657e+000	 2.673141365569126e+000	 8.752560265068569e+000
 1.031705365168986e+000	 2.683506854767587e+000	 8.678553745898094e+000
 1.005093073470081e+000	 2.693587368876500e+000	 8.608619347523073e+000
 9.784397818513120e-001	 2.703383175468292e+000	 8.542160092093647e+000
 9.517498324051182e-001	 2.712894626895242e+000	 8.478627450356509e+000
 9.250275404284101e-001	 2.722122159194074e+000	 8.417521782589352e+000
 8.982771925287689e-001	 2.731066290941227e+000	 8.358392660181522e+000
 8.715030447777294e-001	 2.739727622060723e+000	 8.300839069494243e+000
 8.447093209123776e-001	 2.748106832586698e+000	 8.244509499930196e+000
 8.179002105863777e-001	 2.756204681382581e+000	 8.189101918426198e+000
 7.910798676714780e-001	 2.764022004819030e+000	 8.134363632848896e+000
 1.067474657737242e+000	 2.696386073097013e+000	 8.812184277112468e+000
 1.040676716168536e+000	 2.706841696983788e+000	 8.743223592767325e+000
 1.013833013237114e+000	 2.717009867736757e+000	 8.677242395775616e+000
 9.869479538648146e-001	 2.726890855255064e+000	 8.613615049548505e+000
 9.600259179013990e-001	 2.736485014954915e+000	 8.551766632342323e+000
 9.330712581680994e-001	 2.745792786664664e+000	 8.491173389381151e+000
 9.060882985473456e-001	 2.754814693470107e+000	 8.431363061291519e+000
 8.790813321199904e-001	 2.763551340511999e+000	 8.371915090548812e+000
 8.520546193512668e-001	 2.772003413737813e+000	 8.312460707941016e+000
 8.250123863266116e-001	 2.780171678609796e+000	 8.252682901347386e+000
 7.979588230383954e-001	 2.788056978771388e+000	 8.192316269406566e+000
 1.076677025474828e+000	 2.719630780624395e+000	 8.881540073747376e+000
 1.049648067168086e+000	 2.730176539199391e+000	 8.817532511496149e+000
 1.022572953004148e+000	 2.740432366596331e+000	 8.755401510203662e+000
 9.954561258783169e-001	 2.750398535041075e+000	 8.694492246507764e+000
 9.683020033976793e-001	 2.760075403013765e+000	 8.634202908967222e+000
 9.411149759077887e-001	 2.769463414134376e+000	 8.573985161749166e+000
 9.138994045659223e-001	 2.778563095998065e+000	 8.513344480227170e+000
 8.866596194622508e-001	 2.787375058962318e+000	 8.451840360256094e+000
 8.593999177901561e-001	 2.795899994887948e+000	 8.389086403206159e+000
 8.321245620668455e-001	 2.804138675836015e+000	 8.324750279138982e+000
 8.048377784053131e-001	 2.812091952722746e+000	 8.258553570794600e+000
 1.085879393212413e+000	 2.742875488151270e+000	 8.960434103081914e+000
 1.058619418167635e+000	 2.753511381414393e+000	 8.901300152848041e+000
 1.031312892771182e+000	 2.763854865455219e+000	 8.842929039091157e+000
 1.003964297891820e+000	 2.773906214826328e+000	 8.784636215675585e+000
 9.765780888939600e-001	 2.783665791071792e+000	 8.725792476843742e+000
 9.491586936474781e-001	 2.793134041603211e+000	 8.665824432847407e+000
 9.217105105844992e-001	 2.802311498525101e+000	 8.604214853019968e+000
 8.942379068045113e-001	 2.811198777411681e+000	 8.540502878122720e+000
 8.667452162290457e-001	 2.819796576037103e+000	 8.474284104124591e+000
 8.392367378070794e-001	 2.828105673061238e+000	 8.405210539885390e+000
 8.117167337722309e-001	 2.836126926673104e+000	 8.332990441507482e+000
 1.095081760949999e+000	 2.766120195677642e+000	 9.048677479435177e+000
 1.067590769167185e+000	 2.776846223628796e+000	 8.994350631526183e+000
 1.040052832538216e+000	 2.787277364313423e+000	 8.939661600776818e+000
 1.012472469905322e+000	 2.797413894610821e+000	 8.883895574344804e+000
 9.848541743902408e-001	 2.807256179128995e+000	 8.826395440153473e+000
 9.572024113871673e-001	 2.816804669071168e+000	 8.766562274848420e+000
 9.295216166030758e-001	 2.826059901051216e+000	 8.703855694655792e+000
 9.018161941467721e-001	 2.835022495860089e+000	 8.637794071043052e+000
 8.740905146679351e-001	 2.843693157185278e+000	 8.567954613420390e+000
 8.463489135473132e-001	 2.852072670285467e+000	 8.493973321439599e+000
 8.185956891391485e-001	 2.860161900622463e+000	 8.415544809753493e+000
 1.104284128687585e+000	 2.789364903203509e+000	 9.146085788911476e+000
 1.076562120166735e+000	 2.800181065842599e+000	 9.096512340176107e+000
 1.048792772305250e+000	 2.810699863170943e+000	 9.045439905735064e+000
 1.020980641918825e+000	 2.820921574394557e+000	 8.992122854205586e+000
 9.931302598865216e-001	 2.830846567185376e+000	 8.935875647831832e+000
 9.652461291268568e-001	 2.840475296538248e+000	 8.876073343151150e+000
 9.373327226216526e-001	 2.849808303576409e+000	 8.812151949951556e+000
 9.093944814890329e-001	 2.858846214307540e+000	 8.743608650491161e+000
 8.814358131068247e-001	 2.867589738332472e+000	 8.670001881296011e+000
 8.534610892875471e-001	 2.876039667508702e+000	 8.590951280182866e+000
 8.254746445060665e-001	 2.884196874570822e+000	 8.506137501466524e+000
 7.566850908368894e-001	 2.643847135042238e+000	 7.972077742797380e+000
 7.310240430396248e-001	 2.651057119090043e+000	 7.914716561879454e+000
 7.053600886327910e-001	 2.658000591714422e+000	 7.852553945973895e+000
 6.796970889541847e-001	 2.664678567381807e+000	 7.785550493572626e+000
 6.540388651164307e-001	 2.671092129282827e+000	 7.713713951251703e+000
 6.283891966355913e-001	 2.677242427900419e+000	 7.637098482762255e+000
 6.027518201122013e-001	 2.683130679550520e+000	 7.575536490981380e+000
 5.771304279651326e-001	 2.688758164897393e+000	 7.540030573245150e+000
 5.515286672185974e-001	 2.694126227445558e+000	 7.528042424971417e+000
 5.259501383425356e-001	 2.699236272010369e+000	 7.538199764019899e+000
 5.003983941465354e-001	 2.704089763169176e+000	 7.569324479009151e+000
 7.635640462038073e-001	 2.667882108999597e+000	 7.987215102395578e+000
 7.376697161537533e-001	 2.675157638356550e+000	 7.923940364986156e+000
 7.117724530705057e-001	 2.682164233459022e+000	 7.857687270963041e+000
 6.858761533949311e-001	 2.688902917995866e+000	 7.788405772072285e+000
 6.599846729770409e-001	 2.695374785004896e+000	 7.716092441857056e+000
 6.341018256921334e-001	 2.701580995427987e+000	 7.640789769577854e+000
 6.082313821098390e-001	 2.707522776638490e+000	 7.573611173218399e+000
 5.823770682164720e-001	 2.713201420943071e+000	 7.532383283170342e+000
 5.565425641910105e-001	 2.718618284059930e+000	 7.514546302804225e+000
 5.307315032349372e-001	 2.723774783575465e+000	 7.518644497851966e+000
 5.049474704561093e-001	 2.728672397381367e+000	 7.543421988527858e+000
 7.704430015707247e-001	 2.691917082955955e+000	 8.011112857649341e+000
 7.443153892678818e-001	 2.699258157622057e+000	 7.942316672095314e+000
 7.181848175082203e-001	 2.706327875202622e+000	 7.872298211930958e+000
 6.920552178356773e-001	 2.713127268608924e+000	 7.800996758512292e+000
 6.659304808376511e-001	 2.719657440725966e+000	 7.728397748256928e+000
 6.398144547486757e-001	 2.725919562954553e+000	 7.654532090540328e+000
 6.137109441074764e-001	 2.731914873725460e+000	 7.584784044980172e+000
 5.876237084678115e-001	 2.737644676987751e+000	 7.539234772408078e+000
 5.615564611634231e-001	 2.743110340673302e+000	 7.516803854628320e+000
 5.355128681273389e-001	 2.748313295139561e+000	 7.515950397792659e+000
 5.094965467656832e-001	 2.753255031592557e+000	 7.535339246573511e+000
 7.773219569376425e-001	 2.715952056911313e+000	 8.043668657570697e+000
 7.509610623820103e-001	 2.723358676886565e+000	 7.969734432571200e+000
 7.245971819459354e-001	 2.730491516945223e+000	 7.896267891361446e+000
 6.982342822764238e-001	 2.737351619220983e+000	 7.823197614290278e+000
 6.718762886982611e-001	 2.743940096446035e+000	 7.750497929336197e+000
 6.455270838052176e-001	 2.750258130480120e+000	 7.678188253136849e+000
 6.191905061051140e-001	 2.756306970811431e+000	 7.608220985405541e+000
 5.928703487191510e-001	 2.762087933031430e+000	 7.559790431311821e+000
 5.665703581358359e-001	 2.767602397285673e+000	 7.534059710719864e+000
 5.402942330197406e-001	 2.772851806702656e+000	 7.529401026899249e+000
 5.140456230752573e-001	 2.777837665802749e+000	 7.544398407476478e+000
 7.842009123045602e-001	 2.739987030865671e+000	 8.084783912959727e+000
 7.576067354961388e-001	 2.747459196150073e+000	 8.006086815875552e+000
 7.310095463836498e-001	 2.754655158686824e+000	 7.929482068731672e+000
 7.044133467171699e-001	 2.761575969832041e+000	 7.854887513420615e+000
 6.778220965588713e-001	 2.768222752165104e+000	 7.782266391110385e+000
 6.512397128617600e-001	 2.774596698004688e+000	 7.711626705574518e+000
 6.246700681027514e-001	 2.780699067896400e+000	 7.643093767224223e+000
 5.981169889704904e-001	 2.786531189074109e+000	 7.593261756206343e+000
 5.715842551082488e-001	 2.792094453897045e+000	 7.565564779465507e+000
 5.450755979121422e-001	 2.797390318264752e+000	 7.558286358505066e+000
 5.185946993848312e-001	 2.802420300011939e+000	 7.569928128323868e+000
 7.910798676714780e-001	 2.764022004819030e+000	 8.134363632848896e+000
 7.642524086102673e-001	 2.771559715412581e+000	 8.051271028084445e+000
 7.374219108213646e-001	 2.778818800427425e+000	 7.971830938903588e+000
 7.105924111579161e-001	 2.785800320442100e+000	 7.895950424594748e+000
 6.837679044194813e-001	 2.792505407883174e+000	 7.823581654241815e+000
 6.569523419183022e-001	 2.798935265528255e+000	 7.754721291531239e+000
 6.301496301003889e-001	 2.805091164980370e+000	 7.689409790606298e+000
 6.033636292218301e-001	 2.810974445115788e+000	 7.638866083910914e+000
 5.765981520806618e-001	 2.816586510507417e+000	 7.610575974401010e+000
 5.498569628045440e-001	 2.821928829825849e+000	 7.601902497511905e+000
 5.231437756944052e-001	 2.827002934220130e+000	 7.611263286231013e+000
 7.979588230383954e-001	 2.788056978771388e+000	 8.192316269406566e+000
 7.708980817243957e-001	 2.795660234674088e+000	 8.105188137896860e+000
 7.438342752590791e-001	 2.802982442167025e+000	 8.023208940943642e+000
 7.167714755986625e-001	 2.810024671051159e+000	 7.946274904513836e+000
 6.897137122800915e-001	 2.816788063600243e+000	 7.874327133580331e+000
 6.626649709748443e-001	 2.823273833050822e+000	 7.807351017592590e+000
 6.356291920980265e-001	 2.829483262063340e+000	 7.745375545679501e+000
 6.086102694731694e-001	 2.835417701156467e+000	 7.695826339993841e+000
 5.816120490530746e-001	 2.841078567116789e+000	 7.668355955368560e+000
 5.546383276969454e-001	 2.846467341385945e+000	 7.659551416098231e+000
 5.276928520039791e-001	 2.851585568427321e+000	 7.667744710236493e+000
 8.048377784053131e-001	 2.812091952722746e+000	 8.258553570794600e+000
 7.775437548385245e-001	 2.819760753934596e+000	 8.167742911564876e+000
 7.502466396967938e-001	 2.827146083905626e+000	 8.083514576746554e+000
 7.229505400394088e-001	 2.834249021659218e+000	 8.005753901820105e+000
 6.956595201407014e-001	 2.841070719316311e+000	 7.934390929010449e+000
 6.683776000313867e-001	 2.847612400572390e+000	 7.869399832614565e+000
 6.411087540956640e-001	 2.853875359145310e+000	 7.810798252674961e+000
 6.138569097245089e-001	 2.859860957196146e+000	 7.763370799936792e+000
 5.866259460254876e-001	 2.865570623725161e+000	 7.738172882948051e+000
 5.594196925893472e-001	 2.871005852945041e+000	 7.730540702981061e+000
 5.322419283135530e-001	 2.876168202633512e+000	 7.738718926946846e+000
 8.117167337722309e-001	 2.836126926673104e+000	 8.332990441507482e+000
 7.841894279526530e-001	 2.843861273194103e+000	 8.238843656218135e+000
 7.566590041345087e-001	 2.851309725643227e+000	 8.152650238881551e+000
 7.291296044801553e-001	 2.858473372266277e+000	 8.074284570997872e+000
 7.016053280013117e-001	 2.865353375031381e+000	 8.003665626932575e+000
 6.740902290879288e-001	 2.871950968092957e+000	 7.940756418305565e+000
 6.465883160933014e-001	 2.878267456226280e+000	 7.885563345262328e+000
 6.191035499758486e-001	 2.884304213234826e+000	 7.840732862444127e+000
 5.916398429979003e-001	 2.890062680332532e+000	 7.819300185375303e+000
 5.642010574817489e-001	 2.895544364503137e+000	 7.814183325426637e+000
 5.367910046231269e-001	 2.900750836838703e+000	 7.823537919113957e+000
 8.185956891391485e-001	 2.860161900622463e+000	 8.415544809753493e+000
 7.908351010667816e-001	 2.867961792452611e+000	 8.318402071087016e+000
 7.630713685722232e-001	 2.875473367379827e+000	 8.230522047118566e+000
 7.353086689209014e-001	 2.882697722872335e+000	 8.151768095656736e+000
 7.075511358619219e-001	 2.889636030745451e+000	 8.082048111754158e+000
 6.798028581444710e-001	 2.896289535612524e+000	 8.021313990366743e+000
 6.520678780909389e-001	 2.902659553306250e+000	 7.969560994361239e+000
 6.243501902271879e-001	 2.908747469272504e+000	 7.927150834180807e+000
 5.966537399703132e-001	 2.914554736938904e+000	 7.911016337211493e+000
 5.689824223741505e-001	 2.920082876060233e+000	 7.909797403261316e+000
 5.413400809327010e-001	 2.925333471042894e+000	 7.921558896385221e+000
 8.254746445060665e-001	 2.884196874570822e+000	 8.506137501466524e+000
 7.974807741809102e-001	 2.892062311710120e+000	 8.406333106165555e+000
 7.694837330099383e-001	 2.899637009115428e+000	 8.317039693128429e+000
 7.414877333616482e-001	 2.906922073477396e+000	 8.238109520652460e+000
 7.134969437225321e-001	 2.913918686458521e+000	 8.169439386805927e+000
 6.855154872010134e-001	 2.920628103131091e+000	 8.110970109575971e+000
 6.575474400885766e-001	 2.927051650385220e+000	 8.062685910755514e+000
 6.295968304785277e-001	 2.933190725309184e+000	 8.024613707496688e+000
 6.016676369427263e-001	 2.939046793544276e+000	 8.012604649080156e+000
 5.737637872665523e-001	 2.944621387616329e+000	 8.016705994181582e+000
 5.458891572422751e-001	 2.949916105246086e+000	 8.032144077516549e+000
 5.003983941465354e-001	 2.704089763169176e+000	 7.569324479009151e+000
 4.748769387281781e-001	 2.708688223695421e+000	 7.555436015019411e+000
 4.493892264735033e-001	 2.713033232976536e+000	 7.540025123651299e+000
 4.239386611108925e-001	 2.717126425418323e+000	 7.522557312967509e+000
 3.985285948199714e-001	 2.720969488838350e+000	 7.502702954771585e+000
 3.731623273929819e-001	 2.724564162849201e+000	 7.480334133118189e+000
 3.478431054491013e-001	 2.727912237233770e+000	 7.455521133338902e+000
 3.225741217013704e-001	 2.731015550314390e+000	 7.428528589428283e+000
 2.973585142758322e-001	 2.733875987317568e+000	 7.399811308009887e+000
 2.721993660824226e-001	 2.736495478736074e+000	 7.370009787406634e+000
 2.470997042370982e-001	 2.738875998690031e+000	 7.339945450584769e+000
 5.049474704561093e-001	 2.728672397381367e+000	 7.543421988527858e+000
 4.791940018074254e-001	 2.733312662094415e+000	 7.519379680828313e+000
 4.534745830783211e-001	 2.737697171460055e+000	 7.496346403057030e+000
 4.277926489401638e-001	 2.741827574742321e+000	 7.473703536699898e+000
 4.021515820469411e-001	 2.745705575102578e+000	 7.451040980032979e+000
 3.765547121890071e-001	 2.749332927968071e+000	 7.428154029254317e+000
 3.510053155002603e-001	 2.752711439392450e+000	 7.405039889875640e+000
 3.255066137184066e-001	 2.755842964410066e+000	 7.381893836533122e+000
 3.000617734979088e-001	 2.758729405385852e+000	 7.359105039765569e+000
 2.746739057751582e-001	 2.761372710362509e+000	 7.337252078632410e+000
 2.493460651853486e-001	 2.763774871406714e+000	 7.317098158295861e+000
 5.094965467656832e-001	 2.753255031592557e+000	 7.535339246573511e+000
 4.835110648866728e-001	 2.757937100492415e+000	 7.502141820127101e+000
 4.575599396831386e-001	 2.762361109942594e+000	 7.472280365040350e+000
 4.316466367694351e-001	 2.766528724065365e+000	 7.445051640885039e+000
 4.057745692739107e-001	 2.770441661365887e+000	 7.419964794941929e+000
 3.799470969850324e-001	 2.774101693086072e+000	 7.396738272792318e+000
 3.541675255514193e-001	 2.777510641550315e+000	 7.375296348640942e+000
 3.284391057354428e-001	 2.780670378504993e+000	 7.355765293854947e+000
 3.027650327199853e-001	 2.783582823453462e+000	 7.338469202614490e+000
 2.771484454678938e-001	 2.786249941988359e+000	 7.323925493903872e+000
 2.515924261335989e-001	 2.788673744122905e+000	 7.312840109340744e+000
 5.140456230752573e-001	 2.777837665802749e+000	 7.544398407476478e+000
 4.878281279659201e-001	 2.782561538889420e+000	 7.503077750328170e+000
 4.616452962879563e-001	 2.787025048424154e+000	 7.467216496413358e+000
 4.355006245987065e-001	 2.791229873387455e+000	 7.436026247060958e+000
 4.093975565008804e-001	 2.795177747628282e+000	 7.408935080966692e+000
 3.833394817810576e-001	 2.798870458203200e+000	 7.385584491102413e+000
 3.573297356025782e-001	 2.802309843707365e+000	 7.365825930552674e+000
 3.313715977524789e-001	 2.805497792599172e+000	 7.349716986103899e+000
 3.054682919420621e-001	 2.808436241520401e+000	 7.337517198838768e+000
 2.796229851606294e-001	 2.811127173613622e+000	 7.329683551339159e+000
 2.538387870818492e-001	 2.813572616838604e+000	 7.326865641379561e+000
 5.185946993848312e-001	 2.802420300011939e+000	 7.569928128323868e+000
 4.921451910451676e-001	 2.807185977285431e+000	 7.521549522030131e+000
 4.657306528927738e-001	 2.811688986904735e+000	 7.480551159004978e+000
 4.393546124279777e-001	 2.815931022708593e+000	 7.446058905749050e+000
 4.130205437278500e-001	 2.819913833889759e+000	 7.417419415434861e+000
 3.867318665770828e-001	 2.823639223319459e+000	 7.394197088011447e+000
 3.604919456537373e-001	 2.827109045863601e+000	 7.376170628154650e+000
 3.343040897695151e-001	 2.830325206692602e+000	 7.363329220241967e+000
 3.081715511641387e-001	 2.833289659586666e+000	 7.355868339975431e+000
 2.820975248533651e-001	 2.836004405238298e+000	 7.354185222644586e+000
 2.560851480300995e-001	 2.838471489553812e+000	 7.358874008309154e+000
 5.231437756944052e-001	 2.827002934220130e+000	 7.611263286231013e+000
 4.964622541244147e-001	 2.831810415680446e+000	 7.556925626270281e+000
 4.698160094975916e-001	 2.836352925384337e+000	 7.511687290747089e+000
 4.432086002572490e-001	 2.840632172028776e+000	 7.474587795193743e+000
 4.166435309548197e-001	 2.844649920150318e+000	 7.444891971712892e+000
 3.901242513731080e-001	 2.848407988434845e+000	 7.422086949174398e+000
 3.636541557048961e-001	 2.851908248019021e+000	 7.405878719893786e+000
 3.372365817865514e-001	 2.855152620785284e+000	 7.396188312341881e+000
 3.108748103862155e-001	 2.858143077652259e+000	 7.393147589892816e+000
 2.845720645461007e-001	 2.860881636862386e+000	 7.397094696002437e+000
 2.583315089783498e-001	 2.863370362268527e+000	 7.408569166513845e+000
 5.276928520039791e-001	 2.851585568427321e+000	 7.667744710236493e+000
 5.007793172036622e-001	 2.856434854074466e+000	 7.608580716919478e+000
 4.739013661024092e-001	 2.861016863862959e+000	 7.560034122222052e+000
 4.470625880865202e-001	 2.865333321348009e+000	 7.521057435684660e+000
 4.202665181817892e-001	 2.869386006409961e+000	 7.490833234894428e+000
 3.935166361691331e-001	 2.873176753549361e+000	 7.468771162685223e+000
 3.668163657560552e-001	 2.876707450173628e+000	 7.454504499175702e+000
 3.401690738035875e-001	 2.879980034877218e+000	 7.447886328573637e+000
 3.135780696082920e-001	 2.882996495717180e+000	 7.448985321155020e+000
 2.870466042388363e-001	 2.885758868485887e+000	 7.458081151222675e+000
 2.605778699266002e-001	 2.888269234982751e+000	 7.475659572171401e+000
 5.322419283135530e-001	 2.876168202633512e+000	 7.738718926946846e+000
 5.050963802829095e-001	 2.881059292467493e+000	 7.675895347313552e+000
 4.779867227072269e-001	 2.885680802340604e+000	 7.625006907745709e+000
 4.509165759157915e-001	 2.890034470666287e+000	 7.584918418529472e+000
 4.238895054087589e-001	 2.894122092668686e+000	 7.554729732068165e+000
 3.969090209651583e-001	 2.897945518663007e+000	 7.533772754015517e+000
 3.699785758072141e-001	 2.901506652327419e+000	 7.521608017315482e+000
 3.431015658206237e-001	 2.904807448968402e+000	 7.518020839473744e+000
 3.162813288303687e-001	 2.907849913781428e+000	 7.523017083881471e+000
 2.895211439315719e-001	 2.910636100108802e+000	 7.536818546425563e+000
 2.628242308748505e-001	 2.913168107696484e+000	 7.559857988955108e+000
 5.367910046231269e-001	 2.900750836838703e+000	 7.823537919113957e+000
 5.094134433621568e-001	 2.905683730859524e+000	 7.758255720275487e+000
 4.820720793120443e-001	 2.910344740817267e+000	 7.706026670124902e+000
 4.547705637450628e-001	 2.914735619983611e+000	 7.665627148806892e+000
 4.275124926357287e-001	 2.918858178926494e+000	 7.636073776301144e+000
 4.003014057611836e-001	 2.922714283775782e+000	 7.616620434430408e+000
 3.731407858583731e-001	 2.926305854480396e+000	 7.606754839558404e+000
 3.460340578376599e-001	 2.929634863058838e+000	 7.606194686709455e+000
 3.189845880524453e-001	 2.932703331845003e+000	 7.614883386358758e+000
 2.919956836243075e-001	 2.935513331731130e+000	 7.632985415570873e+000
 2.650705918231008e-001	 2.938066980409724e+000	 7.660881305511929e+000
 5.413400809327010e-001	 2.925333471042894e+000	 7.921558896385221e+000
 5.137305064414042e-001	 2.930308169250560e+000	 7.855053450742479e+000
 4.861574359168621e-001	 2.935008679292952e+000	 7.802519958283422e+000
 4.586245515743341e-001	 2.939436769299983e+000	 7.762645601090925e+000
 4.311354798626982e-001	 2.943594265183386e+000	 7.734363223530364e+000
 4.036937905572088e-001	 2.947483048887685e+000	 7.716848362090061e+000
 3.763029959095320e-001	 2.951105056632558e+000	 7.709515813402258e+000
 3.489665498546961e-001	 2.954462277148526e+000	 7.712015761602618e+000
 3.216878472745220e-001	 2.957556749907906e+000	 7.724229486714533e+000
 2.944702233170431e-001	 2.960390563352871e+000	 7.746264676196106e+000
 2.673169527713512e-001	 2.962965853122473e+000	 7.778450362144689e+000
 5.458891572422751e-001	 2.949916105246086e+000	 8.032144077516549e+000
 5.180475695206517e-001	 2.954932607640603e+000	 7.965685340260740e+000
 4.902427925216797e-001	 2.959672617767659e+000	 7.913918617007372e+000
 4.624785394036054e-001	 2.964137918615402e+000	 7.875441087388272e+000
 4.347584670896679e-001	 2.968330351439360e+000	 7.849101241610220e+000
 4.070861753532341e-001	 2.972251813998719e+000	 7.833995915095283e+000
 3.794652059606912e-001	 2.975904258783907e+000	 7.829466848503420e+000
 3.518990418717324e-001	 2.979289691237467e+000	 7.835096794727464e+000
 3.243911064965986e-001	 2.982410167970137e+000	 7.850705195007237e+000
 2.969447630097788e-001	 2.985267794974027e+000	 7.876343446766556e+000
 2.695633137196015e-001	 2.987864725834731e+000	 7.912289786159714e+000
 2.470997042370982e-001	 2.738875998690031e+000	 7.339945450584769e+000
 2.220624995334239e-001	 2.741019563288683e+000	 7.305486483237226e+000
 1.970906659666314e-001	 2.742928228994460e+000	 7.264910768758851e+000
 1.721870603070337e-001	 2.744604090990911e+000	 7.219557076116677e+000
 1.473544817196693e-001	 2.746049281555912e+000	 7.170929621258217e+000
 1.225956714330543e-001	 2.747265968441736e+000	 7.120692014799746e+000
 9.791331245501737e-002	 2.748256353263346e+000	 7.070661034359710e+000
 7.331002933477435e-002	 2.749022669896307e+000	 7.022800240552082e+000
 4.878838797036033e-002	 2.749567182885613e+000	 6.979213455429537e+000
 2.435089546050458e-002	 2.749892185866723e+000	 6.942138121886730e+000
 0.000000000000000e+000	 2.750000000000000e+000	 6.913938562214935e+000
 2.493460651853486e-001	 2.763774871406714e+000	 7.317098158295861e+000
 2.240812495293676e-001	 2.765937922956008e+000	 7.291479055888587e+000
 1.988823992934204e-001	 2.767863940167976e+000	 7.261393478375470e+000
 1.737523972184580e-001	 2.769555037273287e+000	 7.228143121509861e+000
 1.486940679164730e-001	 2.771013365934162e+000	 7.193198687308019e+000
 1.237101775362400e-001	 2.772241113609713e+000	 7.158193767779629e+000
 9.880343347656692e-002	 2.773240501929583e+000	 7.124918546980466e+000
 7.397648414620710e-002	 2.774013785077298e+000	 7.095313340816861e+000
 4.923191876954048e-002	 2.774563248184625e+000	 7.071461993802703e+000
 2.457226723710201e-002	 2.774891205738251e+000	 7.055585151691050e+000
 0.000000000000000e+000	 2.775000000000000e+000	 7.050033428581674e+000
 2.515924261335989e-001	 2.788673744122905e+000	 7.312840109340744e+000
 2.260999995253115e-001	 2.790856282622937e+000	 7.295315954868862e+000
 2.006741326202093e-001	 2.792799651341178e+000	 7.274778400702612e+000
 1.753177341298821e-001	 2.794505983555422e+000	 7.252493434338468e+000
 1.500336541132767e-001	 2.795977450312236e+000	 7.229899785188656e+000
 1.248246836394257e-001	 2.797216258777568e+000	 7.208602739176950e+000
 9.969355449811647e-002	 2.798224650595742e+000	 7.190367765198959e+000
 7.464293895763982e-002	 2.799004900258246e+000	 7.177113973299550e+000
 4.967544956872060e-002	 2.799559313483617e+000	 7.170907424197705e+000
 2.479363901369944e-002	 2.799890225609775e+000	 7.173954309503382e+000
 0.000000000000000e+000	 2.800000000000000e+000	 7.188594021651411e+000
 2.538387870818492e-001	 2.813572616838604e+000	 7.326865641379561e+000
 2.281187495212552e-001	 2.815774642289468e+000	 7.316725085565910e+000
 2.024658659469983e-001	 2.817735362514068e+000	 7.304827569306240e+000
 1.768830710413064e-001	 2.819456929837321e+000	 7.292404709029916e+000
 1.513732403100804e-001	 2.820941534690136e+000	 7.280864776060148e+000
 1.259391897426113e-001	 2.822191403945302e+000	 7.271786436896180e+000
 1.005836755196660e-001	 2.823208799261827e+000	 7.266912298762102e+000
 7.530939376907257e-002	 2.823996015439150e+000	 7.268142280716674e+000
 5.011898036790074e-002	 2.824555378782590e+000	 7.277526830389689e+000
 2.501501079029687e-002	 2.824889245481295e+000	 7.297260006133375e+000
 0.000000000000000e+000	 2.825000000000000e+000	 7.329672444044997e+000
 2.560851480300995e-001	 2.838471489553812e+000	 7.358874008309154e+000
 2.301374995171990e-001	 2.840693001955602e+000	 7.355438929545634e+000
 2.042575992737872e-001	 2.842671073686646e+000	 7.351307176949450e+000
 1.784484079527307e-001	 2.844407876118981e+000	 7.347677306242298e+000
 1.527128265068841e-001	 2.845905619067862e+000	 7.345928619323877e+000
 1.270536958457970e-001	 2.847166549112915e+000	 7.347614825058636e+000
 1.014737965412156e-001	 2.848192947927831e+000	 7.354457498589484e+000
 7.597584858050532e-002	 2.848987130620012e+000	 7.368339359928203e+000
 5.056251116708087e-002	 2.849551444081544e+000	 7.391297392342616e+000
 2.523638256689429e-002	 2.849888265352808e+000	 7.425515820778093e+000
 0.000000000000000e+000	 2.850000000000000e+000	 7.473318970221103e+000
 2.583315089783498e-001	 2.863370362268527e+000	 7.408569166513845e+000
 2.321562495131427e-001	 2.865611361621340e+000	 7.411194345587224e+000
 2.060493326005761e-001	 2.867606784858910e+000	 7.413987394758041e+000
 1.800137448641549e-001	 2.869358822400401e+000	 7.418115093462789e+000
 1.540524127036878e-001	 2.870869703445412e+000	 7.424929237915901e+000
 1.281682019489827e-001	 2.872141694280408e+000	 7.435960217210891e+000
 1.023639175627651e-001	 2.873177096593760e+000	 7.452910381069493e+000
 7.664230339193809e-002	 2.873978245800831e+000	 7.477647220452919e+000
 5.100604196626101e-002	 2.874547509380479e+000	 7.512196382026553e+000
 2.545775434349172e-002	 2.874887285224317e+000	 7.558734537178241e+000
 0.000000000000000e+000	 2.875000000000000e+000	 7.619582125961653e+000
 2.605778699266002e-001	 2.888269234982751e+000	 7.475659572171401e+000
 2.341749995090864e-001	 2.890529721286680e+000	 7.483732381011101e+000
 2.078410659273651e-001	 2.892542496030862e+000	 7.492642200738978e+000
 1.815790817755792e-001	 2.894309768681584e+000	 7.503525293851123e+000
 1.553919989004915e-001	 2.895833787822788e+000	 7.517707390568091e+000
 1.292827080521683e-001	 2.897116839447780e+000	 7.536697175056387e+000
 1.032540385843147e-001	 2.898161245259612e+000	 7.562179556272686e+000
 7.730875820337083e-002	 2.898969360981607e+000	 7.596008745129729e+000
 5.144957276544113e-002	 2.899543574679394e+000	 7.640201159452246e+000
 2.567912612008915e-002	 2.899886305095822e+000	 7.696928177905869e+000
 0.000000000000000e+000	 2.900000000000000e+000	 7.768508763745620e+000
 2.628242308748505e-001	 2.913168107696484e+000	 7.559857988955108e+000
 2.361937495050302e-001	 2.915448080951624e+000	 7.572798092680242e+000
 2.096327992541540e-001	 2.917478207202503e+000	 7.587049217093350e+000
 1.831444186870034e-001	 2.919260714962528e+000	 7.603718342835208e+000
 1.567315850972952e-001	 2.920797872199990e+000	 7.624106550621020e+000
 1.303972141553540e-001	 2.922091984615031e+000	 7.649702412379674e+000
 1.041441596058642e-001	 2.923145393925386e+000	 7.682175159845206e+000
 7.797521301480355e-002	 2.923960476162338e+000	 7.723367652796485e+000
 5.189310356462128e-002	 2.924539639978292e+000	 7.775289168908549e+000
 2.590049789668658e-002	 2.924885324967322e+000	 7.840108036892683e+000
 0.000000000000000e+000	 2.925000000000000e+000	 7.920144134257884e+000
 2.650705918231008e-001	 2.938066980409724e+000	 7.660881305511929e+000
 2.382124995009740e-001	 2.940366440616170e+000	 7.678140377105331e+000
 2.114245325809429e-001	 2.942413918373830e+000	 7.696989555801573e+000
 1.847097555984276e-001	 2.944211661243234e+000	 7.718507751997646e+000
 1.580711712940989e-001	 2.945761956577017e+000	 7.743972790997655e+000
 1.315117202585397e-001	 2.947067129782162e+000	 7.774854703857513e+000
 1.050342806274138e-001	 2.948129542591084e+000	 7.812808788365910e+000
 7.864166782623630e-002	 2.948951591343027e+000	 7.859668462865739e+000
 5.233663436380141e-002	 2.949535705277168e+000	 7.917437935391699e+000
 2.612186967328401e-002	 2.949884344838817e+000	 7.988284710304658e+000
 0.000000000000000e+000	 2.949999999999999e+000	 8.074531954261921e+000
 2.673169527713512e-001	 2.962965853122473e+000	 7.778450362144689e+000
 2.402312494969177e-001	 2.965284800280320e+000	 7.799511809114374e+000
 2.132162659077319e-001	 2.967349629544843e+000	 7.822247671993617e+000
 1.862750925098519e-001	 2.969162607523701e+000	 7.847709979825874e+000
 1.594107574909026e-001	 2.970726040953869e+000	 7.877154674977224e+000
 1.326262263617254e-001	 2.972042274949171e+000	 7.912034798466103e+000
 1.059244016489633e-001	 2.973113691256705e+000	 7.953993437962421e+000
 7.930812263766905e-002	 2.973942706523673e+000	 8.004856461687798e+000
 5.278016516298154e-002	 2.974531770576026e+000	 8.066625061213575e+000
 2.634324144988144e-002	 2.974883364710307e+000	 8.141468125859667e+000
 0.000000000000000e+000	 2.974999999999999e+000	 8.231714471049953e+000
 2.695633137196015e-001	 2.987864725834731e+000	 7.912289786159714e+000
 2.422499994928616e-001	 2.990203159944074e+000	 7.936668488589629e+000
 2.150079992345209e-001	 2.992285340715546e+000	 7.962611224651307e+000
 1.878404294212762e-001	 2.994113553803930e+000	 7.991144308923976e+000
 1.607503436877064e-001	 2.995690125330548e+000	 8.023503152430639e+000
 1.337407324649111e-001	 2.997017420116061e+000	 8.061125337218805e+000
 1.068145226705129e-001	 2.998097839922249e+000	 8.105643445997048e+000
 7.997457744910182e-002	 2.998933821704276e+000	 8.158877670594713e+000
 5.322369596216169e-002	 2.999527835874867e+000	 8.222828222780771e+000
 2.656461322647888e-002	 2.999882384581793e+000	 8.299667570679997e+000
 0.000000000000000e+000	 3.000000000000000e+000	 8.391732523671351e+000
 3.000000000000000e+000	 0.000000000000000e+000	 1.069025612697205e+001
 2.999882384581794e+000	 2.656461322647803e-002	 1.073874091407806e+001
 2.999527835874867e+000	 5.322369596216094e-002	 1.078040502269749e+001
 2.998933821704276e+000	 7.997457744910114e-002	 1.081544161445486e+001
 2.998097839922250e+000	 1.068145226705123e-001	 1.084401981750347e+001
 2.997017420116060e+000	 1.337407324649106e-001	 1.086628385529279e+001
 2.995690125330548e+000	 1.607503436877060e-001	 1.088235220978210e+001
 2.994113553803930e+000	 1.878404294212759e-001	 1.089231682229794e+001
 2.992285340715546e+000	 2.150079992345207e-001	 1.089624233524567e+001
 2.990203159944073e+000	 2.422499994928614e-001	 1.089416537788851e+001
 2.987864725834731e+000	 2.695633137196016e-001	 1.088609389940024e+001
 3.025000000000000e+000	 0.000000000000000e+000	 1.078006712204398e+001
 3.024881404453279e+000	 2.678598500307306e-002	 1.081742043576760e+001
 3.024523901173706e+000	 5.366722676133150e-002	 1.084861044478206e+001
 3.023924936884879e+000	 8.064103226051231e-002	 1.087382515334540e+001
 3.023081988587792e+000	 1.077046436920233e-001	 1.089322720050728e+001
 3.021992565282949e+000	 1.348552385680358e-001	 1.090695296229302e+001
 3.020654209707225e+000	 1.620899298844223e-001	 1.091511168993612e+001
 3.019064500084158e+000	 1.894057663325809e-001	 1.091778468746469e+001
 3.017221051886248e+000	 2.167997325611533e-001	 1.091502453195864e+001
 3.015121519607826e+000	 2.442687494886067e-001	 1.090685433979770e+001
 3.012763598546988e+000	 2.718096746676061e-001	 1.089326708221177e+001
 3.050000000000000e+000	 0.000000000000000e+000	 1.087267872054633e+001
 3.049880424324768e+000	 2.700735677966334e-002	 1.089842896153441e+001
 3.049519966472564e+000	 5.411075756048293e-002	 1.091869118554612e+001
 3.048916052065525e+000	 8.130748707188022e-002	 1.093364846842600e+001
 3.048066137253414e+000	 1.085947647134573e-001	 1.094345716854727e+001
 3.046967710449958e+000	 1.359697446710403e-001	 1.094824600174225e+001
 3.045618294084077e+000	 1.634295160809641e-001	 1.094811515390357e+001
 3.044015446364626e+000	 1.909711032436473e-001	 1.094313543466977e+001
 3.042156763057262e+000	 2.185914658874734e-001	 1.093334747562152e+001
 3.040039879271976e+000	 2.462874994839550e-001	 1.091876097641685e+001
 3.037662471259737e+000	 2.740560356151188e-001	 1.089935400228413e+001
 3.075000000000000e+000	 0.000000000000000e+000	 1.096799034773813e+001
 3.074879444196264e+000	 2.722872855624884e-002	 1.098168100963542e+001
 3.074516031771441e+000	 5.455428835961522e-002	 1.099057716226991e+001
 3.073907167246214e+000	 8.197394188320498e-002	 1.099485717842009e+001
 3.073050285919110e+000	 1.094848857348141e-001	 1.099467134025900e+001
 3.071942855617088e+000	 1.370842507739238e-001	 1.099014088635692e+001
 3.070582378461104e+000	 1.647691022773312e-001	 1.098135709799598e+001
 3.068966392645331e+000	 1.925364401544753e-001	 1.096838042832120e+001
 3.067092474228590e+000	 2.203831992134809e-001	 1.095123967786553e+001
 3.064958238936522e+000	 2.483062494789064e-001	 1.092993121998697e+001
 3.062561343972977e+000	 2.763023965621398e-001	 1.090441827974641e+001
 3.100000000000000e+000	 0.000000000000000e+000	 1.106590467322490e+001
 3.099878464067764e+000	 2.745010033282959e-002	 1.106709398964972e+001
 3.099512097070338e+000	 5.499781915872840e-002	 1.106420082882517e+001
 3.098898282426945e+000	 8.264039669448649e-002	 1.105739908232029e+001
 3.098034434584885e+000	 1.103750067560939e-001	 1.104683315675165e+001
 3.096918000784339e+000	 1.381987568766865e-001	 1.103261699217881e+001
 3.095546462838306e+000	 1.661086884735237e-001	 1.101483312147263e+001
 3.093917338926274e+000	 1.941017770650647e-001	 1.099353177429409e+001
 3.092028185400229e+000	 2.221749325391758e-001	 1.096873002933389e+001
 3.089876598601466e+000	 2.503249994734608e-001	 1.094041101846302e+001
 3.087460216686710e+000	 2.785487575086693e-001	 1.090852318643467e+001
 3.125000000000000e+000	 0.000000000000000e+000	 1.116632748118478e+001
 3.124877483939268e+000	 2.767147210940556e-002	 1.115458808682565e+001
 3.124508162369254e+000	 5.544134995782243e-002	 1.113949707421128e+001
 3.123889397607720e+000	 8.330685150572482e-002	 1.112122407217766e+001
 3.123018583250737e+000	 1.112651277772966e-001	 1.109990780870909e+001
 3.121893145951711e+000	 1.393132629793283e-001	 1.107565510004197e+001
 3.120510547215681e+000	 1.674482746695415e-001	 1.104853988242261e+001
 3.118868285207457e+000	 1.956671139754157e-001	 1.101860229027190e+001
 3.116963896572181e+000	 2.239666658645581e-001	 1.098584778452133e+001
 3.114794958266806e+000	 2.523437494676182e-001	 1.095024633488537e+001
 3.112359089400934e+000	 2.807951184547070e-001	 1.091173165982353e+001
 3.150000000000000e+000	 0.000000000000000e+000	 1.102609487773805e+001
 3.149876503810778e+000	 2.789284388597678e-002	 1.102854697213699e+001
 3.149504227668188e+000	 5.588488075689733e-002	 1.102890574780300e+001
 3.148880512788539e+000	 8.397330631691997e-002	 1.102664379818816e+001
 3.148002731916666e+000	 1.121552487984222e-001	 1.102126120578645e+001
 3.146868291119203e+000	 1.404277690818493e-001	 1.101228638100533e+001
 3.145474631593232e+000	 1.687878608653847e-001	 1.099927684891678e+001
 3.143819231488878e+000	 1.972324508855280e-001	 1.098181998051759e+001
 3.141899607744446e+000	 2.257583991896277e-001	 1.095953366517720e+001
 3.139713317932544e+000	 2.543624994613787e-001	 1.093206692101045e+001
 3.137257962115649e+000	 2.830414794002528e-001	 1.089910043998608e+001
 3.175000000000000e+000	 0.000000000000000e+000	 1.089360921207458e+001
 3.174875523682292e+000	 2.811421566254322e-002	 1.090857359642203e+001
 3.174500292967143e+000	 5.632841155595311e-002	 1.092101858554490e+001
 3.173871627969401e+000	 8.463976112807191e-002	 1.093040536973170e+001
 3.172986880582671e+000	 1.130453698194708e-001	 1.093622352275573e+001
 3.171843436286817e+000	 1.415422751842494e-001	 1.093799186310747e+001
 3.170438715970958e+000	 1.701274470610533e-001	 1.093525926163059e+001
 3.168770177770539e+000	 1.987977877954020e-001	 1.092760539210196e+001
 3.166835318917023e+000	 2.275501325143849e-001	 1.091464142134494e+001
 3.164631677598678e+000	 2.563812494547423e-001	 1.089601063552692e+001
 3.162156834830856e+000	 2.852878403453070e-001	 1.087138899936688e+001
 3.199999999999999e+000	 0.000000000000000e+000	 1.076878489356249e+001
 3.199874543553811e+000	 2.833558743910490e-002	 1.079565538459643e+001
 3.199496358266115e+000	 5.677194235498975e-002	 1.081955960234507e+001
 3.198862743150305e+000	 8.530621593918064e-002	 1.083994768256243e+001
 3.197971029248754e+000	 1.139354908404423e-001	 1.085629907058181e+001
 3.196818581454552e+000	 1.426567812865288e-001	 1.086812340516350e+001
 3.195402800348857e+000	 1.714670332565473e-001	 1.087496134722486e+001
 3.193721124052436e+000	 2.003631247050374e-001	 1.087638534990173e+001
 3.191771030089913e+000	 2.293418658388294e-001	 1.087200036643998e+001
 3.189550037265209e+000	 2.583999994477089e-001	 1.086144449247953e+001
 3.187055707546556e+000	 2.875342012898696e-001	 1.084438953937035e+001
 3.224999999999999e+000	 0.000000000000000e+000	 1.065153898554298e+001
 3.224873563425334e+000	 2.855695921566181e-002	 1.068970780523592e+001
 3.224492423565108e+000	 5.721547315400726e-002	 1.072444246163912e+001
 3.223853858331254e+000	 8.597267075024617e-002	 1.075518238565812e+001
 3.222955177914914e+000	 1.148256118613367e-001	 1.078139727577097e+001
 3.221793726622407e+000	 1.437712873886872e-001	 1.080258800474898e+001
 3.220366884726932e+000	 1.728066194518667e-001	 1.081828746969285e+001
 3.218672070334573e+000	 2.019284616144343e-001	 1.082806138173986e+001
 3.216706741263116e+000	 2.311335991629613e-001	 1.083150899184866e+001
 3.214468396932137e+000	 2.604187494402785e-001	 1.082826374913350e+001
 3.211954580262747e+000	 2.897805622339404e-001	 1.081799388829914e+001
 3.250000000000000e+000	 0.000000000000000e+000	 1.054179110325447e+001
 3.249872583296864e+000	 2.877833099221397e-002	 1.059064860113598e+001
 3.249488488864120e+000	 5.765900395300565e-002	 1.063558282206271e+001
 3.248844973512246e+000	 8.663912556126854e-002	 1.067602284292520e+001
 3.247939326581152e+000	 1.157157328821541e-001	 1.071142899832787e+001
 3.246768871790384e+000	 1.448857934907248e-001	 1.074129381044350e+001
 3.245330969105183e+000	 1.741462056470114e-001	 1.076514286057059e+001
 3.243623016616949e+000	 2.034937985235927e-001	 1.078253559865316e+001
 3.241642452436632e+000	 2.329253324867807e-001	 1.079306608707589e+001
 3.239386756599464e+000	 2.624374994324513e-001	 1.079636367511417e+001
 3.236853452979430e+000	 2.920269231775197e-001	 1.079209360049996e+001
 2.987864725834731e+000	 2.695633137196016e-001	 1.088609389940024e+001
 2.985267794974027e+000	 2.969447630097781e-001	 1.093138658832767e+001
 2.982410167970137e+000	 3.243911064965980e-001	 1.097008991097153e+001
 2.979289691237467e+000	 3.518990418717317e-001	 1.100205177263462e+001
 2.975904258783907e+000	 3.794652059606907e-001	 1.102708850439924e+001
 2.972251813998720e+000	 4.070861753532337e-001	 1.104498452897152e+001
 2.968330351439360e+000	 4.347584670896676e-001	 1.105549209426668e+001
 2.964137918615402e+000	 4.624785394036054e-001	 1.105833107755149e+001
 2.959672617767659e+000	 4.902427925216799e-001	 1.105318886285586e+001
 2.954932607640602e+000	 5.180475695206518e-001	 1.103972029424681e+001
 2.949916105246086e+000	 5.458891572422751e-001	 1.101754770742768e+001
 3.012763598546988e+000	 2.718096746676061e-001	 1.089326708221177e+001
 3.010145026595181e+000	 2.994193027022249e-001	 1.093196893055412e+001
 3.007263586032368e+000	 3.270943657183576e-001	 1.096479635268622e+001
 3.004117105326406e+000	 3.548315338884370e-001	 1.099158827907716e+001
 3.000703460935254e+000	 3.826274160115197e-001	 1.101215060293151e+001
 2.997020579109751e+000	 4.104785601489447e-001	 1.102625583123109e+001
 2.993066437695334e+000	 4.383814543163541e-001	 1.103364280587423e+001
 2.988839067930820e+000	 4.663325272326392e-001	 1.103401649782501e+001
 2.984336556242366e+000	 4.943281491263213e-001	 1.102704787707659e+001
 2.979557046030643e+000	 5.223646325997995e-001	 1.101237386111148e+001
 2.974498739449277e+000	 5.504382335518415e-001	 1.098959734440644e+001
 3.037662471259737e+000	 2.740560356151188e-001	 1.089935400228413e+001
 3.035022258216923e+000	 3.018938423940945e-001	 1.093147196596709e+001
 3.032117004095270e+000	 3.297976249394831e-001	 1.095844774438456e+001
 3.028944519416094e+000	 3.577640259044807e-001	 1.098011115518265e+001
 3.025502663087416e+000	 3.857896260616889e-001	 1.099625748868082e+001
 3.021789344221656e+000	 4.138709449440278e-001	 1.100664714380955e+001
 3.017802523952225e+000	 4.420044415424737e-001	 1.101100533654269e+001
 3.013540217247192e+000	 4.701865150611985e-001	 1.100902188383518e+001
 3.009000494718050e+000	 4.984135057306106e-001	 1.100035106596420e+001
 3.004181484421680e+000	 5.266816956787483e-001	 1.098461157004768e+001
 2.999081373653468e+000	 5.549873098613937e-001	 1.096138651737413e+001
 3.062561343972977e+000	 2.763023965621398e-001	 1.090441827974641e+001
 3.059899489839250e+000	 3.043683820853868e-001	 1.092997014847213e+001
 3.056970422158846e+000	 3.325008841599745e-001	 1.095112967411326e+001
 3.053771933506530e+000	 3.606965179198626e-001	 1.096771741955244e+001
 3.050301865240394e+000	 3.889518361111983e-001	 1.097951790291244e+001
 3.046558109334431e+000	 4.172633297384824e-001	 1.098627921808505e+001
 3.042538610210034e+000	 4.456274287680268e-001	 1.098771273019380e+001
 3.038241366564517e+000	 4.740405028892829e-001	 1.098349284910005e+001
 3.033664433194715e+000	 5.024988623345476e-001	 1.097325688394711e+001
 3.028805922813712e+000	 5.309987587574983e-001	 1.095660498160802e+001
 3.023664007858659e+000	 5.595363861709308e-001	 1.093310015175986e+001
 3.087460216686710e+000	 2.785487575086693e-001	 1.090852318643467e+001
 3.084776721462165e+000	 3.068429217761016e-001	 1.092753744861533e+001
 3.081823840223092e+000	 3.352041433798317e-001	 1.094292710956202e+001
 3.078599347597716e+000	 3.636290099345829e-001	 1.095450333153803e+001
 3.075101067394185e+000	 3.921140461600480e-001	 1.096203968689064e+001
 3.071326874448076e+000	 4.206557145323085e-001	 1.096527176286427e+001
 3.067274696468760e+000	 4.492504159930133e-001	 1.096389684382844e+001
 3.062942515882795e+000	 4.778944907168927e-001	 1.095757367413065e+001
 3.058328371672358e+000	 5.065842189381321e-001	 1.094592230466728e+001
 3.053430361206738e+000	 5.353158218360491e-001	 1.092852402613144e+001
 3.048246642064849e+000	 5.640854624804536e-001	 1.090492139175076e+001
 3.112359089400934e+000	 2.807951184547070e-001	 1.091173165982353e+001
 3.109653953085667e+000	 3.093174614662391e-001	 1.092424737291761e+001
 3.106677258288014e+000	 3.379074025990549e-001	 1.093392442287782e+001
 3.103426761689648e+000	 3.665615019486414e-001	 1.094056442161097e+001
 3.099900269548793e+000	 3.952762562082376e-001	 1.094392981787869e+001
 3.096095639562592e+000	 4.240480993255069e-001	 1.094374348608528e+001
 3.092010782728402e+000	 4.528734032174331e-001	 1.093968839500346e+001
 3.087643665202026e+000	 4.817484785440278e-001	 1.093140735975121e+001
 3.082992310150981e+000	 5.106695755413646e-001	 1.091850288021173e+001
 3.078054799600758e+000	 5.396328849144008e-001	 1.090053706895168e+001
 3.072829276272041e+000	 5.686345387899614e-001	 1.087703167154156e+001
 3.137257962115649e+000	 2.830414794002528e-001	 1.089910043998608e+001
 3.134531184709755e+000	 3.117920011557995e-001	 1.091414750833726e+001
 3.131530676353607e+000	 3.406106618176440e-001	 1.092363451824023e+001
 3.128254175782330e+000	 3.694939939620384e-001	 1.092733017211495e+001
 3.124699471704214e+000	 3.984384662557676e-001	 1.092529444342469e+001
 3.120864404677979e+000	 4.274404841180767e-001	 1.092181213453450e+001
 3.116746868988961e+000	 4.564963904412863e-001	 1.091521700704776e+001
 3.112344814522210e+000	 4.856024663706879e-001	 1.090513567788040e+001
 3.107656248630582e+000	 5.147549321442447e-001	 1.089115279752337e+001
 3.102679237995774e+000	 5.439499479925537e-001	 1.087281097250070e+001
 3.097411910480231e+000	 5.731836150994546e-001	 1.084961078319148e+001
 3.162156834830856e+000	 2.852878403453070e-001	 1.087138899936688e+001
 3.159408416334431e+000	 3.142665408447823e-001	 1.089429802972993e+001
 3.156384094419872e+000	 3.433139210355990e-001	 1.091131063796267e+001
 3.153081589875761e+000	 3.724264859747735e-001	 1.092220360153132e+001
 3.149498673860448e+000	 4.016006763026376e-001	 1.092678744785346e+001
 3.145633169794238e+000	 4.308328689100185e-001	 1.092490662090971e+001
 3.141482955250438e+000	 4.601193776645728e-001	 1.091643956365874e+001
 3.137045963843348e+000	 4.894564541968736e-001	 1.090129871391911e+001
 3.132320187111163e+000	 5.188402887467726e-001	 1.087943041156751e+001
 3.127303676391783e+000	 5.482670110705075e-001	 1.085081471510491e+001
 3.121994544689422e+000	 5.777326914089332e-001	 1.082283694127522e+001
 3.187055707546556e+000	 2.875342012898696e-001	 1.084438953937035e+001
 3.184285647959694e+000	 3.167410805331879e-001	 1.087461814832902e+001
 3.181237512486810e+000	 3.460171802529199e-001	 1.089859645518465e+001
 3.177909003969941e+000	 3.753589779868470e-001	 1.091610986712029e+001
 3.174297876017497e+000	 4.047628863488477e-001	 1.092697865835496e+001
 3.170401934911367e+000	 4.342252537013319e-001	 1.093105813188952e+001
 3.166219041512832e+000	 4.637423648872929e-001	 1.092823869447267e+001
 3.161747113165438e+000	 4.933104420225843e-001	 1.091844584239451e+001
 3.156984125592723e+000	 5.229256453489481e-001	 1.090164005590670e+001
 3.151928114788788e+000	 5.525840741482623e-001	 1.087781660027675e+001
 3.146577178899613e+000	 5.822817677183971e-001	 1.084700523170360e+001
 3.211954580262747e+000	 2.897805622339404e-001	 1.081799388829914e+001
 3.209162879585543e+000	 3.192156202210161e-001	 1.085499020459024e+001
 3.206090930554421e+000	 3.487204394696067e-001	 1.088536467242447e+001
 3.202736418064867e+000	 3.782914699982588e-001	 1.090891188970462e+001
 3.199097078175363e+000	 4.079250963943982e-001	 1.092546246991021e+001
 3.195170700029367e+000	 4.376176384920170e-001	 1.093488319877681e+001
 3.190955127776143e+000	 4.673653521094462e-001	 1.093707710155310e+001
 3.186448262488483e+000	 4.971644298478204e-001	 1.093198341838553e+001
 3.181648064075263e+000	 5.270110019507714e-001	 1.091957748557889e+001
 3.176552553186789e+000	 5.569011372258180e-001	 1.089987052069443e+001
 3.171159813110805e+000	 5.868308440278466e-001	 1.087290930967406e+001
 3.236853452979430e+000	 2.920269231775197e-001	 1.079209360049996e+001
 3.234040111211981e+000	 3.216901599082671e-001	 1.083529615877458e+001
 3.230944348622705e+000	 3.514236986856595e-001	 1.087148750424795e+001
 3.227563832160544e+000	 3.812239620090089e-001	 1.090047199290591e+001
 3.223896280334044e+000	 4.110873064392889e-001	 1.092209117659020e+001
 3.219939465148238e+000	 4.410100232820741e-001	 1.093622395440807e+001
 3.215691214040371e+000	 4.709883393310330e-001	 1.094278663201733e+001
 3.211149411812481e+000	 5.010184176725819e-001	 1.094173288627827e+001
 3.206312002558782e+000	 5.310963585522426e-001	 1.093305363296868e+001
 3.201176991585784e+000	 5.612182003031750e-001	 1.091677679547714e+001
 3.195742447322996e+000	 5.913799203372813e-001	 1.089296697262320e+001
 2.949916105246086e+000	 5.458891572422751e-001	 1.101754770742768e+001
 2.944621387616330e+000	 5.737637872665515e-001	 1.108182352835816e+001
 2.939046793544276e+000	 6.016676369427255e-001	 1.114364269558294e+001
 2.933190725309185e+000	 6.295968304785271e-001	 1.119551592862227e+001
 2.927051650385221e+000	 6.575474400885762e-001	 1.120762175047045e+001
 2.920628103131091e+000	 6.855154872010131e-001	 1.121613112517653e+001
 2.913918686458520e+000	 7.134969437225318e-001	 1.122120184778084e+001
 2.906922073477395e+000	 7.414877333616480e-001	 1.122299045215379e+001
 2.899637009115428e+000	 7.694837330099382e-001	 1.122165162353189e+001
 2.892062311710120e+000	 7.974807741809104e-001	 1.121733760298508e+001
 2.884196874570821e+000	 8.254746445060665e-001	 1.121019758526594e+001
 2.974498739449277e+000	 5.504382335518415e-001	 1.098959734440644e+001
 2.969159899172426e+000	 5.785451521590409e-001	 1.105728797355023e+001
 2.963538850149648e+000	 6.066815339153120e-001	 1.112317187697496e+001
 2.957633981345864e+000	 6.348434707301158e-001	 1.117003686954619e+001
 2.951443747464190e+000	 6.630270020865290e-001	 1.118236705197602e+001
 2.944966670649659e+000	 6.912281162579266e-001	 1.119134403517029e+001
 2.938201342171590e+000	 7.194427515835593e-001	 1.119714501381253e+001
 2.931146424082455e+000	 7.476667978028478e-001	 1.119994582133634e+001
 2.923800650851030e+000	 7.758960974481323e-001	 1.119992031091677e+001
 2.916162830967627e+000	 8.041264472955336e-001	 1.119723972795618e+001
 2.908231848519180e+000	 8.323535998734841e-001	 1.119207207557294e+001
 2.999081373653468e+000	 5.549873098613937e-001	 1.096138651737413e+001
 2.993698410729522e+000	 5.833265170517062e-001	 1.103313025662921e+001
 2.988030906756019e+000	 6.116954308882450e-001	 1.110373198337291e+001
 2.982077237383543e+000	 6.400901109822029e-001	 1.114434197183131e+001
 2.975835844544160e+000	 6.685065640851122e-001	 1.115691162042932e+001
 2.969305238169226e+000	 6.969407453155827e-001	 1.116637297470247e+001
 2.962483997885659e+000	 7.253885594454219e-001	 1.117292278700362e+001
 2.955370774688512e+000	 7.538458622449543e-001	 1.117675634599674e+001
 2.947964292587630e+000	 7.823084618872848e-001	 1.117806682572871e+001
 2.940263350226134e+000	 8.107721204111464e-001	 1.117704462575492e+001
 2.932266822468538e+000	 8.392325552419018e-001	 1.117387670388649e+001
 3.023664007858659e+000	 5.595363861709308e-001	 1.093310015175986e+001
 3.018236922287618e+000	 5.881078819445471e-001	 1.100953750905779e+001
 3.012522963363392e+000	 6.167093278615249e-001	 1.108551259440447e+001
 3.006520493422222e+000	 6.453367512347888e-001	 1.111834462110894e+001
 3.000227941625130e+000	 6.739861260843261e-001	 1.113115732739605e+001
 2.993643805689794e+000	 7.026533743739817e-001	 1.114110841330383e+001
 2.986766653600728e+000	 7.313343673081192e-001	 1.114841435390315e+001
 2.979595125295572e+000	 7.600249266879680e-001	 1.115329005577005e+001
 2.972127934325230e+000	 7.887208263273956e-001	 1.115594817375517e+001
 2.964363869485643e+000	 8.174177935277492e-001	 1.115659841836296e+001
 2.956301796418896e+000	 8.461115106113193e-001	 1.115544685536790e+001
 3.048246642064849e+000	 5.640854624804536e-001	 1.090492139175076e+001
 3.042775433846714e+000	 5.928892468375639e-001	 1.098669529656513e+001
 3.037015019971764e+000	 6.217232248351519e-001	 1.106870193805393e+001
 3.030963749461900e+000	 6.505833914878730e-001	 1.109195706393698e+001
 3.024620038707100e+000	 6.794656880841704e-001	 1.110500511631582e+001
 3.017982373211361e+000	 7.083660034331236e-001	 1.111544010160092e+001
 3.011049309316797e+000	 7.372801751716516e-001	 1.112349838954914e+001
 3.003819475903630e+000	 7.662039911318882e-001	 1.112941467424134e+001
 2.996291576063830e+000	 7.951331907684651e-001	 1.113342125815921e+001
 2.988464388746150e+000	 8.240634666453414e-001	 1.113574732642368e+001
 2.980336770370254e+000	 8.529904659817371e-001	 1.113661821288373e+001
 3.072829276272041e+000	 5.686345387899614e-001	 1.087703167154156e+001
 3.067313945406811e+000	 5.976706117307563e-001	 1.096478768177610e+001
 3.061507076581136e+000	 6.267371218091253e-001	 1.104920584985966e+001
 3.055407005502580e+000	 6.558300317414558e-001	 1.106509045336283e+001
 3.049012135790070e+000	 6.849452500846452e-001	 1.107835503962715e+001
 3.042320940733927e+000	 7.140786324930076e-001	 1.108925710007213e+001
 3.035331965033866e+000	 7.432259830360185e-001	 1.109805307792891e+001
 3.028043826512689e+000	 7.723830555767157e-001	 1.110499763118776e+001
 3.020455217803432e+000	 8.015455552104932e-001	 1.111034288358431e+001
 3.012564908007657e+000	 8.307091397639229e-001	 1.111433766529584e+001
 3.004371744322612e+000	 8.598694213531548e-001	 1.111722674509751e+001
 3.097411910480231e+000	 5.731836150994546e-001	 1.084961078319148e+001
 3.091852456967906e+000	 6.024519766241243e-001	 1.094399728385836e+001
 3.085999133191508e+000	 6.317510187834460e-001	 1.102181577162599e+001
 3.079850261544259e+000	 6.610766719955371e-001	 1.103765489231662e+001
 3.073404232874039e+000	 6.904248120857505e-001	 1.105110629412475e+001
 3.066659508257495e+000	 7.197912615536350e-001	 1.106244780643468e+001
 3.059614620751936e+000	 7.491717909012207e-001	 1.107195613146534e+001
 3.052268177122748e+000	 7.785621200224497e-001	 1.107990607423747e+001
 3.044618859544032e+000	 8.079579196534795e-001	 1.108656976006403e+001
 3.036665427270164e+000	 8.373548128834940e-001	 1.109221584129495e+001
 3.028406718275971e+000	 8.667483767255725e-001	 1.109710869512862e+001
 3.121994544689422e+000	 5.777326914089332e-001	 1.082283694127522e+001
 3.116390968530002e+000	 6.072333415176683e-001	 1.092450533535130e+001
 3.110491189802878e+000	 6.367649157581131e-001	 1.099380828117213e+001
 3.104293517586938e+000	 6.663233122501170e-001	 1.100955947495450e+001
 3.097796329959009e+000	 6.959043740874865e-001	 1.102315725464622e+001
 3.090998075782062e+000	 7.255038906150046e-001	 1.103489998173744e+001
 3.083897276471005e+000	 7.551175987672575e-001	 1.104508480958230e+001
 3.076492527733806e+000	 7.847411844690908e-001	 1.105400687997798e+001
 3.068782501285632e+000	 8.143702840974243e-001	 1.106195850674670e+001
 3.060765946533673e+000	 8.440004860040550e-001	 1.106922834811232e+001
 3.052441692230329e+000	 8.736273320989901e-001	 1.107610056974694e+001
 3.146577178899613e+000	 5.822817677183971e-001	 1.084700523170360e+001
 3.140929480093099e+000	 6.120147064113878e-001	 1.094482322305907e+001
 3.134983246415251e+000	 6.417788127331275e-001	 1.098962096713900e+001
 3.128736773630616e+000	 6.715699525051951e-001	 1.099006574483304e+001
 3.122188427044979e+000	 7.013839360898529e-001	 1.099440550617971e+001
 3.115336643307630e+000	 7.312165196771173e-001	 1.100650077523086e+001
 3.108179932191074e+000	 7.610634066341294e-001	 1.101731593639998e+001
 3.100716878345865e+000	 7.909202489166386e-001	 1.102716666454363e+001
 3.092946143028234e+000	 8.207826485423280e-001	 1.103636565544574e+001
 3.084866465798181e+000	 8.506461591256058e-001	 1.104522176340193e+001
 3.076476666185687e+000	 8.805062874734078e-001	 1.105403912907401e+001
 3.171159813110805e+000	 5.868308440278466e-001	 1.087290930967406e+001
 3.165467991657194e+000	 6.167960713052830e-001	 1.098121023877831e+001
 3.159475303028622e+000	 6.467927097084883e-001	 1.101496486933799e+001
 3.153180029675295e+000	 6.768165927607720e-001	 1.101743402381124e+001
 3.146580524131949e+000	 7.068634980928501e-001	 1.101671554483863e+001
 3.139675210834196e+000	 7.369291487399725e-001	 1.101316909095972e+001
 3.132462587912144e+000	 7.670092145018360e-001	 1.100716865038961e+001
 3.124941228958923e+000	 7.970993133650934e-001	 1.099925179371060e+001
 3.117109784771834e+000	 8.271950129881899e-001	 1.100964765402452e+001
 3.108966985063688e+000	 8.572918322481459e-001	 1.102004274552607e+001
 3.100511640142045e+000	 8.873852428488256e-001	 1.103076137676319e+001
 3.195742447322996e+000	 5.913799203372813e-001	 1.089296697262320e+001
 3.190006503222291e+000	 6.215774361993541e-001	 1.101142656064046e+001
 3.183967359642995e+000	 6.518066066841965e-001	 1.103204397651073e+001
 3.177623285720975e+000	 6.820632330168474e-001	 1.103686046456260e+001
 3.170972621219919e+000	 7.123430600964776e-001	 1.103856105123256e+001
 3.164013778361765e+000	 7.426417778035709e-001	 1.103751346933570e+001
 3.156745243634214e+000	 7.729550223703777e-001	 1.103410006964967e+001
 3.149165579572983e+000	 8.032783778144553e-001	 1.102871801793878e+001
 3.141273426516435e+000	 8.336073774350107e-001	 1.102177947206570e+001
 3.133067504330197e+000	 8.639375053716757e-001	 1.101371173779992e+001
 3.124546614099405e+000	 8.942641982252434e-001	 1.100610455063301e+001
 2.884196874570821e+000	 8.254746445060665e-001	 1.121019758526594e+001
 2.876039667508701e+000	 8.534610892875464e-001	 1.123085627072262e+001
 2.867589738332473e+000	 8.814358131068238e-001	 1.124975894289367e+001
 2.858846214307540e+000	 9.093944814890325e-001	 1.126692982934437e+001
 2.849808303576409e+000	 9.373327226216522e-001	 1.128238539893145e+001
 2.840475296538247e+000	 9.652461291268561e-001	 1.129613382772895e+001
 2.830846567185376e+000	 9.931302598865214e-001	 1.130817447238143e+001
 2.820921574394556e+000	 1.020980641918824e+000	 1.131849735263998e+001
 2.810699863170943e+000	 1.048792772305250e+000	 1.132708264485977e+001
 2.800181065842599e+000	 1.076562120166735e+000	 1.133390018825306e+001
 2.789364903203508e+000	 1.104284128687585e+000	 1.133890900570405e+001
 2.908231848519180e+000	 8.323535998734841e-001	 1.119207207557294e+001
 2.900006664731933e+000	 8.605732650282778e-001	 1.121175148819283e+001
 2.891486319479657e+000	 8.887811115462038e-001	 1.122977452801451e+001
 2.882669932754969e+000	 9.169727688317708e-001	 1.124618812332511e+001
 2.873556706101563e+000	 9.451438286406900e-001	 1.126103142403568e+001
 2.864145924005265e+000	 9.732898468669845e-001	 1.127433523443558e+001
 2.854436955241667e+000	 1.001406345383214e+000	 1.128612145300697e+001
 2.844429254178170e+000	 1.029488813932706e+000	 1.129640252112030e+001
 2.834122362028305e+000	 1.057532712072627e+000	 1.130518088245725e+001
 2.823515908056200e+000	 1.085533471166585e+000	 1.131244845502531e+001
 2.812609610729128e+000	 1.113486496425423e+000	 1.131818611764133e+001
 2.932266822468538e+000	 8.392325552419018e-001	 1.117387670388649e+001
 2.923973661956154e+000	 8.676854407700045e-001	 1.119280500913293e+001
 2.915382900627801e+000	 8.961264099865641e-001	 1.121018419397913e+001
 2.906493651203310e+000	 9.245510561754659e-001	 1.122608396826327e+001
 2.897305108627561e+000	 9.529549346606492e-001	 1.124056623522290e+001
 2.887816551473039e+000	 9.813335646079899e-001	 1.125368449069446e+001
 2.878027343298605e+000	 1.009682430880729e+000	 1.126548322901203e+001
 2.867936933962303e+000	 1.037996985947348e+000	 1.127599735749330e+001
 2.857544860886037e+000	 1.066272651840688e+000	 1.128525162142791e+001
 2.846850750270003e+000	 1.094504822167034e+000	 1.129326004150340e+001
 2.835854318254756e+000	 1.122688864163766e+000	 1.130002536561846e+001
 2.956301796418896e+000	 8.461115106113193e-001	 1.115544685536790e+001
 2.947940659181365e+000	 8.747976165127259e-001	 1.117383680069946e+001
 2.939279481776907e+000	 9.034717084279046e-001	 1.119079253089374e+001
 2.930317369652564e+000	 9.321293435201170e-001	 1.120640662625610e+001
 2.921053511154402e+000	 9.607660406815307e-001	 1.122076382373208e+001
 2.911487178941568e+000	 9.893772823498734e-001	 1.123394038216012e+001
 2.901617731356191e+000	 1.017958516379068e+000	 1.124600345386939e+001
 2.891444613746953e+000	 1.046505157962748e+000	 1.125701046457873e+001
 2.880967359744137e+000	 1.075012591609433e+000	 1.126700850358185e+001
 2.870185592484005e+000	 1.103476173168084e+000	 1.127603372622575e+001
 2.859099025780396e+000	 1.131891231902615e+000	 1.128411077070612e+001
 2.980336770370254e+000	 8.529904659817371e-001	 1.113661821288373e+001
 2.971907656407567e+000	 8.819097922564430e-001	 1.115466748042142e+001
 2.963176062926975e+000	 9.108170068702260e-001	 1.117140513331876e+001
 2.954141088102729e+000	 9.397076308657240e-001	 1.118694671920703e+001
 2.944801913682087e+000	 9.685771467033344e-001	 1.120139989708354e+001
 2.935157806410852e+000	 9.974210000926341e-001	 1.121486376821757e+001
 2.925208119414423e+000	 1.026234601878231e+000	 1.122742821305391e+001
 2.914952293532121e+000	 1.055013329978907e+000	 1.123917323613897e+001
 2.904389858602606e+000	 1.083752531378863e+000	 1.125016832112567e+001
 2.893520434698207e+000	 1.112447524169733e+000	 1.126047179793716e+001
 2.882343733306045e+000	 1.141093599641968e+000	 1.127013022418780e+001
 3.004371744322612e+000	 8.598694213531548e-001	 1.111722674509751e+001
 2.995874653634759e+000	 8.890219680011550e-001	 1.113511829018528e+001
 2.987072644078003e+000	 9.181623053135278e-001	 1.115182856009071e+001
 2.977964806553807e+000	 9.472859182122874e-001	 1.116749617443348e+001
 2.968550316210615e+000	 9.763882527260590e-001	 1.118225181042767e+001
 2.958828433880890e+000	 1.005464717836273e+000	 1.119621749903300e+001
 2.948798507473301e+000	 1.034510687378217e+000	 1.120950592676240e+001
 2.938459973317808e+000	 1.063521501995825e+000	 1.122221974524131e+001
 2.927812357461445e+000	 1.092492471148978e+000	 1.123445089064672e+001
 2.916855276912608e+000	 1.121418875171983e+000	 1.124627991518045e+001
 2.905588440831705e+000	 1.150295967381827e+000	 1.125777533275105e+001
 3.028406718275971e+000	 8.667483767255725e-001	 1.109710869512862e+001
 3.019841650862942e+000	 8.961341437468621e-001	 1.111501107145899e+001
 3.010969225229993e+000	 9.255076037578103e-001	 1.113187029605729e+001
 3.001788525005798e+000	 9.548642055598068e-001	 1.114784817286464e+001
 2.992298718739988e+000	 9.841993587497060e-001	 1.116309850116278e+001
 2.982499061351685e+000	 1.013508435580789e+000	 1.117776633655454e+001
 2.972388895532827e+000	 1.042786772879026e+000	 1.119198725726595e+001
 2.961967653104012e+000	 1.072029674013502e+000	 1.120588663793633e+001
 2.951234856320653e+000	 1.101232410919777e+000	 1.121957893309786e+001
 2.940190119127212e+000	 1.130390226174833e+000	 1.123316697257442e+001
 2.928833148357375e+000	 1.159498335122191e+000	 1.124674127105098e+001
 3.052441692230329e+000	 8.736273320989901e-001	 1.107610056974694e+001
 3.043808648092115e+000	 9.032463194935644e-001	 1.109416824168635e+001
 3.034865806382944e+000	 9.328529022030734e-001	 1.111133871562022e+001
 3.025612243458701e+000	 9.624424929082824e-001	 1.112779709968674e+001
 3.016047121270204e+000	 9.920104647742749e-001	 1.114372042664188e+001
 3.006169688823234e+000	 1.021552153326183e+000	 1.115927687924530e+001
 2.995979283592998e+000	 1.051062858380658e+000	 1.117462502063928e+001
 2.985475332890734e+000	 1.080537846031939e+000	 1.118991303195934e+001
 2.974657355180231e+000	 1.109972350691261e+000	 1.120527795945248e+001
 2.963524961342014e+000	 1.139361577178282e+000	 1.122084497340920e+001
 2.952077855883055e+000	 1.168700702863060e+000	 1.123672664123899e+001
 3.076476666185687e+000	 8.805062874734078e-001	 1.105403912907401e+001
 3.067775645322278e+000	 9.103584952412617e-001	 1.107241277178794e+001
 3.058762387536855e+000	 9.401982006493168e-001	 1.109004304798700e+001
 3.049435961912515e+000	 9.700207802577142e-001	 1.110713849730168e+001
 3.039795523801263e+000	 9.998215707997655e-001	 1.112389950479945e+001
 3.029840316295539e+000	 1.029595871072454e+000	 1.114051749034444e+001
 3.019569671653818e+000	 1.059338943883114e+000	 1.115717410262775e+001
 3.008983012677976e+000	 1.089046018051134e+000	 1.117404042018018e+001
 2.998079854040177e+000	 1.118712290463430e+000	 1.119127616171922e+001
 2.986859803557016e+000	 1.148332928182332e+000	 1.120902890821384e+001
 2.975322563408745e+000	 1.177903070604434e+000	 1.122743333907630e+001
 3.100511640142045e+000	 8.873852428488256e-001	 1.103076137676319e+001
 3.091742642553431e+000	 9.174706709899544e-001	 1.104956816470861e+001
 3.082658968691728e+000	 9.475434990965410e-001	 1.106779334403898e+001
 3.073259680367243e+000	 9.775990676081020e-001	 1.108566902047378e+001
 3.063543926333167e+000	 1.007632676826178e+000	 1.110341905753972e+001
 3.053510943768599e+000	 1.037639588819603e+000	 1.112125822946503e+001
 3.043160059715283e+000	 1.067615029386394e+000	 1.113939137842760e+001
 3.032490692465735e+000	 1.097554190071089e+000	 1.115801257854377e+001
 3.021502352900493e+000	 1.127452230236283e+000	 1.117730430902594e+001
 3.010194645772219e+000	 1.157304279186982e+000	 1.119743663897182e+001
 2.998567270934446e+000	 1.187105438346313e+000	 1.121856642627455e+001
 3.124546614099405e+000	 8.942641982252434e-001	 1.100610455063301e+001
 3.115709639785576e+000	 9.245828467396423e-001	 1.102545843495488e+001
 3.106555549847563e+000	 9.548887975447460e-001	 1.104440044472848e+001
 3.097083398822884e+000	 9.851773549594466e-001	 1.106318639354656e+001
 3.087292328865915e+000	 1.015443782853513e+000	 1.108206375673791e+001
 3.077181571242415e+000	 1.045683306567630e+000	 1.110127078734890e+001
 3.066750447777396e+000	 1.075891114890497e+000	 1.112103563616862e+001
 3.055998372254013e+000	 1.106062362091802e+000	 1.114157547825947e+001
 3.044924851761178e+000	 1.136192170009821e+000	 1.116309564849973e+001
 3.033529487987622e+000	 1.166275630192232e+000	 1.118578878868050e+001
 3.021811978460158e+000	 1.196307806088698e+000	 1.120983400872849e+001
 2.789364903203508e+000	 1.104284128687585e+000	 1.133890900570405e+001
 2.778251185602976e+000	 1.131954217185233e+000	 1.137544601281678e+001
 2.766839813979641e+000	 1.159567783225906e+000	 1.141086132157467e+001
 2.755130780838170e+000	 1.187120204783136e+000	 1.144505540505615e+001
 2.743124171166409e+000	 1.214606842436723e+000	 1.147791509685189e+001
 2.730820163291444e+000	 1.242023041611831e+000	 1.150931321964320e+001
 2.718219029672730e+000	 1.269364134855765e+000	 1.151137892673229e+001
 2.705321137630596e+000	 1.296625444150432e+000	 1.150183922156137e+001
 2.692126950008475e+000	 1.323802283258404e+000	 1.149238533251995e+001
 2.678637025767297e+000	 1.350889960100454e+000	 1.148305236643141e+001
 2.664852020510573e+000	 1.377883779162314e+000	 1.147387289898806e+001
 2.812609610729128e+000	 1.113486496425423e+000	 1.131818611764133e+001
 2.801403278815884e+000	 1.141387168994181e+000	 1.135502467820312e+001
 2.789896812429516e+000	 1.169230848085428e+000	 1.139112460669092e+001
 2.778090204012230e+000	 1.197012873155812e+000	 1.142639684772126e+001
 2.765983539260102e+000	 1.224728566123294e+000	 1.146073816434839e+001
 2.753576997986275e+000	 1.252373233624916e+000	 1.149043510411788e+001
 2.740870854920701e+000	 1.279942169312545e+000	 1.148154979548710e+001
 2.727865480444710e+000	 1.307430656184601e+000	 1.147301308549459e+001
 2.714561341258763e+000	 1.334833968951678e+000	 1.146487000192916e+001
 2.700959000981799e+000	 1.362147376433888e+000	 1.145716294234043e+001
 2.687059120680686e+000	 1.389366143987678e+000	 1.144993158937857e+001
 2.835854318254756e+000	 1.122688864163766e+000	 1.130002536561846e+001
 2.824555372028621e+000	 1.150820120803543e+000	 1.133717888194687e+001
 2.812953810879078e+000	 1.178893912945294e+000	 1.137398314275693e+001
 2.801049627185874e+000	 1.206905541528780e+000	 1.141035966705296e+001
 2.788842907353317e+000	 1.234850289810127e+000	 1.144621524034147e+001
 2.776333832680606e+000	 1.262723425638253e+000	 1.146156155273198e+001
 2.763522680168190e+000	 1.290520203769584e+000	 1.145352028852054e+001
 2.750409823258400e+000	 1.318235868219057e+000	 1.144612706425096e+001
 2.736995732508725e+000	 1.345865654645288e+000	 1.143943430032301e+001
 2.723280976196111e+000	 1.373404792767727e+000	 1.143349161241219e+001
 2.709266220850791e+000	 1.400848508813537e+000	 1.142834571747125e+001
 2.859099025780396e+000	 1.131891231902615e+000	 1.128411077070612e+001
 2.847707465241187e+000	 1.160253072613320e+000	 1.132158515792564e+001
 2.836010809328329e+000	 1.188556977805505e+000	 1.135910613926004e+001
 2.824009050359106e+000	 1.216798209902041e+000	 1.139660591585829e+001
 2.811702275446056e+000	 1.244972013497222e+000	 1.143400139345982e+001
 2.799090667374439e+000	 1.273073617651839e+000	 1.143420487381336e+001
 2.786174505415198e+000	 1.301098238226882e+000	 1.142714529421876e+001
 2.772954166071667e+000	 1.329041080253802e+000	 1.142103234927638e+001
 2.759430123758361e+000	 1.356897340339235e+000	 1.141592578149290e+001
 2.745602951410239e+000	 1.384662209101975e+000	 1.141188235402489e+001
 2.731473321020889e+000	 1.412330873639893e+000	 1.140895574740349e+001
 2.882343733306045e+000	 1.141093599641968e+000	 1.127013022418780e+001
 2.870859558453585e+000	 1.169686024423512e+000	 1.130792403941864e+001
 2.859067807777270e+000	 1.198220042666059e+000	 1.134616693282887e+001
 2.846968473531923e+000	 1.226690878275596e+000	 1.138480190030954e+001
 2.834561643538318e+000	 1.255093737184578e+000	 1.141534650291943e+001
 2.821847502067773e+000	 1.283423809665676e+000	 1.140822821099731e+001
 2.808826330661722e+000	 1.311676272684439e+000	 1.140228432324930e+001
 2.795498508884508e+000	 1.339846292288834e+000	 1.139758487380027e+001
 2.781864515007672e+000	 1.367929026033520e+000	 1.139419685867323e+001
 2.767924926624176e+000	 1.395919625436627e+000	 1.139218411975268e+001
 2.753680421190979e+000	 1.423813238466745e+000	 1.139160723229232e+001
 2.905588440831705e+000	 1.150295967381827e+000	 1.125777533275105e+001
 2.894011651665810e+000	 1.179118976234119e+000	 1.129587989913061e+001
 2.882124806225898e+000	 1.207883107526959e+000	 1.133484282214779e+001
 2.869927896704328e+000	 1.236583546649444e+000	 1.137461800980958e+001
 2.857421011630106e+000	 1.265215460872196e+000	 1.138966085218813e+001
 2.844604336760607e+000	 1.293774001679764e+000	 1.138349902888001e+001
 2.831478155907766e+000	 1.322254307142255e+000	 1.137880132366986e+001
 2.818042851696925e+000	 1.350651504324154e+000	 1.137564512316426e+001
 2.804298906256656e+000	 1.378960711728141e+000	 1.137410461016365e+001
 2.790246901837927e+000	 1.407177041771686e+000	 1.137425063835797e+001
 2.775887521361062e+000	 1.435295603294094e+000	 1.137615061067521e+001
 2.928833148357375e+000	 1.159498335122191e+000	 1.124674127105098e+001
 2.917163744877866e+000	 1.188551928045140e+000	 1.128514079683368e+001
 2.905181804674213e+000	 1.217546172388201e+000	 1.132481491073231e+001
 2.892887319876318e+000	 1.246476215023584e+000	 1.136572855495900e+001
 2.880280379721415e+000	 1.275337184560077e+000	 1.136496658991347e+001
 2.867361171452943e+000	 1.304124193694102e+000	 1.135988894155181e+001
 2.854129981153330e+000	 1.332832341600331e+000	 1.135656450484131e+001
 2.840587194508919e+000	 1.361456716359762e+000	 1.135507795418283e+001
 2.826733297505314e+000	 1.389992397423099e+000	 1.135551059420752e+001
 2.812568877051492e+000	 1.418434458107151e+000	 1.135794022526009e+001
 2.798094621531136e+000	 1.446777968121937e+000	 1.136244101264424e+001
 2.952077855883055e+000	 1.168700702863060e+000	 1.123672664123899e+001
 2.940315838089752e+000	 1.197984879856577e+000	 1.127539833420724e+001
 2.928238803122218e+000	 1.227209237249788e+000	 1.131576795713272e+001
 2.915846743047895e+000	 1.256368883398018e+000	 1.134695822141314e+001
 2.903139747812249e+000	 1.285458908248219e+000	 1.134114266249098e+001
 2.890118006144780e+000	 1.314474385708691e+000	 1.133727354923138e+001
 2.876781806398410e+000	 1.343410376058665e+000	 1.133544616965998e+001
 2.863131537320488e+000	 1.372261928395659e+000	 1.133575242303796e+001
 2.849167688753645e+000	 1.401024083118394e+000	 1.133828067261599e+001
 2.834890852264868e+000	 1.429691874443022e+000	 1.134311560195822e+001
 2.820301721701203e+000	 1.458260332950277e+000	 1.135033807513923e+001
 2.975322563408745e+000	 1.177903070604434e+000	 1.122743333907630e+001
 2.963467931301467e+000	 1.207417831668428e+000	 1.126634751648217e+001
 2.951295801569911e+000	 1.236872302111720e+000	 1.130739023215930e+001
 2.938806166219057e+000	 1.266261551772745e+000	 1.132283832419768e+001
 2.925999115902607e+000	 1.295580631936623e+000	 1.131807174206666e+001
 2.912874840836117e+000	 1.324824577723530e+000	 1.131553228255750e+001
 2.899433631643009e+000	 1.353988410517259e+000	 1.131532255465381e+001
 2.885675880131633e+000	 1.383067140431843e+000	 1.131754162124152e+001
 2.871602080001652e+000	 1.412055768814027e+000	 1.132228484266010e+001
 2.857212827478058e+000	 1.440949290779301e+000	 1.132964372391898e+001
 2.842508821871260e+000	 1.469742697779114e+000	 1.133970576589892e+001
 2.998567270934446e+000	 1.187105438346313e+000	 1.121856642627455e+001
 2.986620024513012e+000	 1.216850783480695e+000	 1.125768662052024e+001
 2.974352800017292e+000	 1.246535366973995e+000	 1.129937338274807e+001
 2.961765589389805e+000	 1.276154220147765e+000	 1.129923929081811e+001
 2.948858483992488e+000	 1.305702355625289e+000	 1.129564008212808e+001
 2.935631675526956e+000	 1.335174769738619e+000	 1.129454825412320e+001
 2.922085456887126e+000	 1.364566444976112e+000	 1.129607367751607e+001
 2.908220222942354e+000	 1.393872352468315e+000	 1.130032251922702e+001
 2.894036471249331e+000	 1.423087454509996e+000	 1.130739707678145e+001
 2.879534802691060e+000	 1.452206707115984e+000	 1.131739561646906e+001
 2.864715922041312e+000	 1.481225062608446e+000	 1.133041221560061e+001
 3.021811978460158e+000	 1.196307806088698e+000	 1.120983400872849e+001
 3.009772117724388e+000	 1.226283735293376e+000	 1.124911706898218e+001
 2.997409798464362e+000	 1.256198431836615e+000	 1.128103693575492e+001
 2.984725012560141e+000	 1.286046888523079e+000	 1.127605390554879e+001
 2.971717852081893e+000	 1.315824079314216e+000	 1.127373737976046e+001
 2.958388510217296e+000	 1.345524961753960e+000	 1.127420811686213e+001
 2.944737282130763e+000	 1.375144479435224e+000	 1.127758319167592e+001
 2.930764565752652e+000	 1.404677564505075e+000	 1.128397581716033e+001
 2.916470862496686e+000	 1.434119140206302e+000	 1.129349516970116e+001
 2.901856777903874e+000	 1.463464123453075e+000	 1.130624621826219e+001
 2.886923022211355e+000	 1.492707427438275e+000	 1.132232955774714e+001
 2.664852020510573e+000	 1.377883779162314e+000	 1.147387289898806e+001
 2.650772686938987e+000	 1.404779043928912e+000	 1.149015491116778e+001
 2.636399875232532e+000	 1.431571059341969e+000	 1.150403526558871e+001
 2.621734533359258e+000	 1.458255134279886e+000	 1.151553054368337e+001
 2.606777707310107e+000	 1.484826584058343e+000	 1.152465681640043e+001
 2.591530541258077e+000	 1.511280732947345e+000	 1.153142961302466e+001
 2.575994277640976e+000	 1.537612916702709e+000	 1.153586389136763e+001
 2.560170257166945e+000	 1.563818485109321e+000	 1.153797400940378e+001
 2.544059918741997e+000	 1.589892804533448e+000	 1.153777369842202e+001
 2.527664799318953e+000	 1.615831260481341e+000	 1.153527603776096e+001
 2.510986533667252e+000	 1.641629260161343e+000	 1.153049343119046e+001
 2.687059120680686e+000	 1.389366143987678e+000	 1.144993158937857e+001
 2.672862459328722e+000	 1.416485535960390e+000	 1.146808598702704e+001
 2.658369874190830e+000	 1.443500818168300e+000	 1.148392338045200e+001
 2.643582321134798e+000	 1.470407260397131e+000	 1.149743418269581e+001
 2.628500854868161e+000	 1.497200138923524e+000	 1.150860805518403e+001
 2.613126629098687e+000	 1.523874739053069e+000	 1.151743390228498e+001
 2.597460896617837e+000	 1.550426357672882e+000	 1.152389986779762e+001
 2.581505009306318e+000	 1.576850305816056e+000	 1.152799333340428e+001
 2.565260418061028e+000	 1.603141911235243e+000	 1.152970091912030e+001
 2.548728672642728e+000	 1.629296520982581e+000	 1.152900848576685e+001
 2.531911421443936e+000	 1.655309503993148e+000	 1.152590113948910e+001
 2.709266220850791e+000	 1.400848508813537e+000	 1.142834571747125e+001
 2.694952231718638e+000	 1.428192027992455e+000	 1.144766792027549e+001
 2.680339873149482e+000	 1.455430576995289e+000	 1.146475916056023e+001
 2.665430108910843e+000	 1.482559386515082e+000	 1.147958401349734e+001
 2.650224002426849e+000	 1.509573693789443e+000	 1.149210606256132e+001
 2.634722716940044e+000	 1.536468745159543e+000	 1.150228791954858e+001
 2.618927515595536e+000	 1.563239798643795e+000	 1.151009124707890e+001
 2.602839761446601e+000	 1.589882126523502e+000	 1.151547678357853e+001
 2.586460917381020e+000	 1.616391017937701e+000	 1.151840437073822e+001
 2.569792545967494e+000	 1.642761781484413e+000	 1.151883298343269e+001
 2.552836309221620e+000	 1.668989747825456e+000	 1.151672076208162e+001
 2.731473321020889e+000	 1.412330873639893e+000	 1.140895574740349e+001
 2.717042004108736e+000	 1.439898520025105e+000	 1.142875823248630e+001
 2.702309872108487e+000	 1.467360335822934e+000	 1.144641718712042e+001
 2.687277896687393e+000	 1.494711512633742e+000	 1.146187167114597e+001
 2.671947149986172e+000	 1.521947248656101e+000	 1.147505951362517e+001
 2.656318804782146e+000	 1.549062751266766e+000	 1.148591735804798e+001
 2.640394134574071e+000	 1.576053239615449e+000	 1.149438071057043e+001
 2.624174513587790e+000	 1.602913947231660e+000	 1.150038399124838e+001
 2.607661416701969e+000	 1.629640124640820e+000	 1.150386058822178e+001
 2.590856419293248e+000	 1.656227041986838e+000	 1.150474291479627e+001
 2.573761197000304e+000	 1.682669991658267e+000	 1.150296246936092e+001
 2.753680421190979e+000	 1.423813238466745e+000	 1.139160723229232e+001
 2.739131776499018e+000	 1.451605012058342e+000	 1.141121898449326e+001
 2.724279871067844e+000	 1.479290094651236e+000	 1.142877603087695e+001
 2.709125684464445e+000	 1.506863638753110e+000	 1.144419223076606e+001
 2.693670297546130e+000	 1.534320803523497e+000	 1.145737997457405e+001
 2.677914892624995e+000	 1.561656757374738e+000	 1.146825025393031e+001
 2.661860753553444e+000	 1.588866680587844e+000	 1.147671273538507e+001
 2.645509265729889e+000	 1.615945767940529e+000	 1.148267583762096e+001
 2.628861916023878e+000	 1.642889231344601e+000	 1.148604681208786e+001
 2.611920292619992e+000	 1.669692302489856e+000	 1.148673182696901e+001
 2.594686084779988e+000	 1.696350235491580e+000	 1.148463605437638e+001
 2.775887521361062e+000	 1.435295603294094e+000	 1.137615061067521e+001
 2.761221548889481e+000	 1.463311504092165e+000	 1.139491659482040e+001
 2.746249870027555e+000	 1.491219853480195e+000	 1.141171809253013e+001
 2.730973472242002e+000	 1.519015764873184e+000	 1.142644406994569e+001
 2.715393445106723e+000	 1.546694358391632e+000	 1.143898178706780e+001
 2.699510980468590e+000	 1.574250763483460e+000	 1.144921689254064e+001
 2.683327372533654e+000	 1.601680121560978e+000	 1.145703352255949e+001
 2.666844017872895e+000	 1.628977588650108e+000	 1.146231440379329e+001
 2.650062415346747e+000	 1.656138338049044e+000	 1.146494096020136e+001
 2.632984165947727e+000	 1.683157562993466e+000	 1.146479342361294e+001
 2.615610972560673e+000	 1.710030479325396e+000	 1.146175094792764e+001
 2.798094621531136e+000	 1.446777968121937e+000	 1.136244101264424e+001
 2.783311321280128e+000	 1.475017996126575e+000	 1.137972166675772e+001
 2.768219868987619e+000	 1.503149612309810e+000	 1.139512945075374e+001
 2.752821260020063e+000	 1.531167890993967e+000	 1.140852873768642e+001
 2.737116592667952e+000	 1.559067913260506e+000	 1.141978195809029e+001
 2.721107068312931e+000	 1.586844769592932e+000	 1.142874971916823e+001
 2.704793991514702e+000	 1.614493562534853e+000	 1.143529092864444e+001
 2.688178770016812e+000	 1.642009409360400e+000	 1.143926292313755e+001
 2.671262914670574e+000	 1.669387444754150e+000	 1.144052160089637e+001
 2.654048039276451e+000	 1.696622823497668e+000	 1.143892155872847e+001
 2.636535860342357e+000	 1.723710723159714e+000	 1.143431623293962e+001
 2.820301721701203e+000	 1.458260332950277e+000	 1.135033807513923e+001
 2.805401093670956e+000	 1.486724488161570e+000	 1.136550882360667e+001
 2.790189867948035e+000	 1.515079371140083e+000	 1.137889971739298e+001
 2.774669047798628e+000	 1.543320017115456e+000	 1.139035082954461e+001
 2.758839740229815e+000	 1.571441468130117e+000	 1.139970005501532e+001
 2.742703156158019e+000	 1.599438775703153e+000	 1.140678325400921e+001
 2.726260610496588e+000	 1.627307003509469e+000	 1.141143440052712e+001
 2.709513522161635e+000	 1.655041230071403e+000	 1.141348573593596e+001
 2.692463413995361e+000	 1.682636551459918e+000	 1.141276792736710e+001
 2.675111912606165e+000	 1.710088084002463e+000	 1.140911023073551e+001
 2.657460748125041e+000	 1.737390966994536e+000	 1.140234065815831e+001
 2.842508821871260e+000	 1.469742697779114e+000	 1.133970576589892e+001
 2.827490866061967e+000	 1.498430980197152e+000	 1.135215655164845e+001
 2.812159866908805e+000	 1.527009129971012e+000	 1.136292189944994e+001
 2.796516835577696e+000	 1.555472143237654e+000	 1.137181786862530e+001
 2.780562887792313e+000	 1.583815023000468e+000	 1.137865810559149e+001
 2.764299244003853e+000	 1.612032781814124e+000	 1.138325401111562e+001
 2.747727229479310e+000	 1.640120444484825e+000	 1.138541491330854e+001
 2.730848274307367e+000	 1.668073050783117e+000	 1.138494824614208e+001
 2.713663913321107e+000	 1.695885658166347e+000	 1.138165973325931e+001
 2.696175785936869e+000	 1.723553344507850e+000	 1.137535357683202e+001
 2.678385635908726e+000	 1.751071210829859e+000	 1.136583265120472e+001
 2.864715922041312e+000	 1.481225062608446e+000	 1.133041221560061e+001
 2.849580638453159e+000	 1.510137472233320e+000	 1.133954705041608e+001
 2.834129865869927e+000	 1.538938888802598e+000	 1.134709226748837e+001
 2.818364623357269e+000	 1.567624269360559e+000	 1.135284019211131e+001
 2.802286035355447e+000	 1.596188577871557e+000	 1.135658050257880e+001
 2.785895331850433e+000	 1.624626787925844e+000	 1.135810042111414e+001
 2.769193848462869e+000	 1.652933885460922e+000	 1.135718491107053e+001
 2.752183026454008e+000	 1.681104871495542e+000	 1.135361688015322e+001
 2.734864412647812e+000	 1.709134764873439e+000	 1.134717738939697e+001
 2.717239659268563e+000	 1.737018605013831e+000	 1.133764586761516e+001
 2.699310523693410e+000	 1.764751454665686e+000	 1.132480033102151e+001
 2.886923022211355e+000	 1.492707427438275e+000	 1.132232955774714e+001
 2.871670410844536e+000	 1.521843964270075e+000	 1.132756608987701e+001
 2.856099864831404e+000	 1.550868647634841e+000	 1.133131023011208e+001
 2.840212411137347e+000	 1.579776395484173e+000	 1.133333084302955e+001
 2.824009182919216e+000	 1.608562132743385e+000	 1.133339391278664e+001
 2.807491419697759e+000	 1.637220794038314e+000	 1.133126275749170e+001
 2.790660467447268e+000	 1.665747326437759e+000	 1.132669825037641e+001
 2.773517778601558e+000	 1.694136692208679e+000	 1.131945904748577e+001
 2.756064911975477e+000	 1.722383871581193e+000	 1.130930182158311e+001
 2.738303532601247e+000	 1.750483865520403e+000	 1.129598150195040e+001
 2.720235411479095e+000	 1.778431698502015e+000	 1.127925151974528e+001
 2.510986533667252e+000	 1.641629260161343e+000	 1.153049343119046e+001
 2.494026854062975e+000	 1.667282235046092e+000	 1.150265608486063e+001
 2.476787589899573e+000	 1.692785643433693e+000	 1.149176752516926e+001
 2.459270667218596e+000	 1.718134973003828e+000	 1.148343771970828e+001
 2.441478108159864e+000	 1.743325743364768e+000	 1.147794027976607e+001
 2.423412030331897e+000	 1.768353508590087e+000	 1.147554810207116e+001
 2.405074646102547e+000	 1.793213859741615e+000	 1.147653302408956e+001
 2.386468261810128e+000	 1.817902427375695e+000	 1.148116547628949e+001
 2.367595276895474e+000	 1.842414884029852e+000	 1.148971413200483e+001
 2.348458182955458e+000	 1.866746946686970e+000	 1.150244555554429e+001
 2.329059562718645e+000	 1.890894379214094e+000	 1.147314785000418e+001
 2.531911421443936e+000	 1.655309503993148e+000	 1.152590113948910e+001
 2.514810411176357e+000	 1.681176253668529e+000	 1.149574584089607e+001
 2.497427486478374e+000	 1.706892190459319e+000	 1.147047371037630e+001
 2.479764589441885e+000	 1.732452764442532e+000	 1.146739435468798e+001
 2.461823759057877e+000	 1.757853457889840e+000	 1.146742221562925e+001
 2.443607130581606e+000	 1.783089787825431e+000	 1.147083807515005e+001
 2.425116934817323e+000	 1.808157308569984e+000	 1.147792146911818e+001
 2.406355497322827e+000	 1.833051614267811e+000	 1.148895032861572e+001
 2.387325237534295e+000	 1.857768341394250e+000	 1.150420061896750e+001
 2.368028667811903e+000	 1.882303171240375e+000	 1.150279517781094e+001
 2.348468392406961e+000	 1.906651832372125e+000	 1.145644394607556e+001
 2.552836309221620e+000	 1.668989747825456e+000	 1.151672076208162e+001
 2.535593968290734e+000	 1.695070272291373e+000	 1.149247032597438e+001
 2.518067383058155e+000	 1.720998737485267e+000	 1.146997383713349e+001
 2.500258511666132e+000	 1.746770555881482e+000	 1.144940089401564e+001
 2.482169409956812e+000	 1.772381172415093e+000	 1.145470611427233e+001
 2.463802230832191e+000	 1.797826067060901e+000	 1.146401647100039e+001
 2.445159223532919e+000	 1.823100757398434e+000	 1.147728118983740e+001
 2.426242732836283e+000	 1.848200801159972e+000	 1.149478568931113e+001
 2.407055198173797e+000	 1.873121798758668e+000	 1.151681321669488e+001
 2.387599152668946e+000	 1.897859395793784e+000	 1.147774447470967e+001
 2.367877222095776e+000	 1.922409285530155e+000	 1.143845669816177e+001
 2.573761197000304e+000	 1.682669991658267e+000	 1.150296246936092e+001
 2.556377525406104e+000	 1.708964290914625e+000	 1.148474291399823e+001
 2.538707279638917e+000	 1.735105284511538e+000	 1.146856795213384e+001
 2.520752433891333e+000	 1.761088347320680e+000	 1.145461237707800e+001
 2.502515060856666e+000	 1.786908886940527e+000	 1.144304703998886e+001
 2.483997331083652e+000	 1.812562346296497e+000	 1.145509863264888e+001
 2.465201512249338e+000	 1.838044206226964e+000	 1.147462479549852e+001
 2.446129968350494e+000	 1.863349988052178e+000	 1.149868151280632e+001
 2.426785158813979e+000	 1.888475256123105e+000	 1.148892942432200e+001
 2.407169637526585e+000	 1.913415620347200e+000	 1.145123896463638e+001
 2.387286051785095e+000	 1.938166738688187e+000	 1.141910320158195e+001
 2.594686084779988e+000	 1.696350235491580e+000	 1.148463605437638e+001
 2.577161082522472e+000	 1.722858309538284e+000	 1.147257058193299e+001
 2.559347176220658e+000	 1.749211831538130e+000	 1.146283843207606e+001
 2.541246356117489e+000	 1.775406138760124e+000	 1.145561952434930e+001
 2.522860711757442e+000	 1.801436601466144e+000	 1.145108957230357e+001
 2.504192431335989e+000	 1.827298625532220e+000	 1.144941987113579e+001
 2.485243800966575e+000	 1.852987655055575e+000	 1.146996504614785e+001
 2.466017203865462e+000	 1.878499174944430e+000	 1.149064469083540e+001
 2.446515119454843e+000	 1.903828713487563e+000	 1.145402123374299e+001
 2.426740122384821e+000	 1.928971844900621e+000	 1.142319807263914e+001
 2.406694881474913e+000	 1.953924191846217e+000	 1.139830099555147e+001
 2.615610972560673e+000	 1.710030479325396e+000	 1.146175094792764e+001
 2.597944639639833e+000	 1.736752328162351e+000	 1.145596003573300e+001
 2.579987072803380e+000	 1.763318378565045e+000	 1.145278933925868e+001
 2.561740278344600e+000	 1.789723930199815e+000	 1.145242383711703e+001
 2.543206362659138e+000	 1.815964315991942e+000	 1.145504403889029e+001
 2.524387531589200e+000	 1.842034904768068e+000	 1.146082576562534e+001
 2.505286089684635e+000	 1.867931103884267e+000	 1.146993993608867e+001
 2.485904439381186e+000	 1.893648361836729e+000	 1.144745272676867e+001
 2.466245080096389e+000	 1.919182170852042e+000	 1.141741243841940e+001
 2.446310607243652e+000	 1.944528069454046e+000	 1.139354158400030e+001
 2.426103711165233e+000	 1.969681645004247e+000	 1.137596804542613e+001
 2.636535860342357e+000	 1.723710723159714e+000	 1.143431623293962e+001
 2.618728196758190e+000	 1.750646346786826e+000	 1.143491772109593e+001
 2.600626969387082e+000	 1.777424925592283e+000	 1.143842456081645e+001
 2.582234200572667e+000	 1.804041721639753e+000	 1.144502672402473e+001
 2.563552013561754e+000	 1.830492030517922e+000	 1.145490945133456e+001
 2.544582631843288e+000	 1.856771184004044e+000	 1.146825302546692e+001
 2.525328378403515e+000	 1.882874552713040e+000	 1.146273332273842e+001
 2.505791674897667e+000	 1.908797548729071e+000	 1.140957847319646e+001
 2.485975040738615e+000	 1.934535628216541e+000	 1.137902505527013e+001
 2.465881092103080e+000	 1.960084294007476e+000	 1.136218962994122e+001
 2.445512540856055e+000	 1.985439098162278e+000	 1.135202272579187e+001
 2.657460748125041e+000	 1.737390966994536e+000	 1.140234065815831e+001
 2.639511753877541e+000	 1.764540365411708e+000	 1.140944983370918e+001
 2.621266865971764e+000	 1.791531472619842e+000	 1.141974781561663e+001
 2.602728122801689e+000	 1.818359513079939e+000	 1.143342950471932e+001
 2.583897664465291e+000	 1.845019745044084e+000	 1.145068480897987e+001
 2.564777732098252e+000	 1.871507463240145e+000	 1.147169840988854e+001
 2.545370667123217e+000	 1.897818001541893e+000	 1.143149702976741e+001
 2.525678910414903e+000	 1.923946735621459e+000	 1.138608809159584e+001
 2.505705001381524e+000	 1.949889085581060e+000	 1.134576856807927e+001
 2.485451576963104e+000	 1.975640518560912e+000	 1.132906267400282e+001
 2.464921370547378e+000	 2.001196551320309e+000	 1.132638380435334e+001
 2.678385635908726e+000	 1.751071210829859e+000	 1.136583265120472e+001
 2.660295310997888e+000	 1.778434384036998e+000	 1.137956232901582e+001
 2.641906762557427e+000	 1.805638019647725e+000	 1.139676266083188e+001
 2.623222045031667e+000	 1.832677304520372e+000	 1.141763341332764e+001
 2.604243315369748e+000	 1.859547459570426e+000	 1.144236909940568e+001
 2.584972832354092e+000	 1.886243742476372e+000	 1.143907963062605e+001
 2.565412955843740e+000	 1.912761450370828e+000	 1.139644684124393e+001
 2.545566145932896e+000	 1.939095922513894e+000	 1.135886212982190e+001
 2.525434962025113e+000	 1.965242542945599e+000	 1.132665466349689e+001
 2.505022061823725e+000	 1.991196743114353e+000	 1.130014977583119e+001
 2.484330200239203e+000	 2.016954004478340e+000	 1.129897042657760e+001
 2.699310523693410e+000	 1.764751454665686e+000	 1.132480033102151e+001
 2.681078868119230e+000	 1.792328402662695e+000	 1.134526093152641e+001
 2.662546659144069e+000	 1.819744566675930e+000	 1.136947249820756e+001
 2.643715967262599e+000	 1.846995095961051e+000	 1.139763960177108e+001
 2.624588966275126e+000	 1.874075174096951e+000	 1.142996129888356e+001
 2.605167932610807e+000	 1.900980021712726e+000	 1.139259968248454e+001
 2.585455244565083e+000	 1.927704899199843e+000	 1.135758990413465e+001
 2.565453381451643e+000	 1.954245109406374e+000	 1.132790520736957e+001
 2.545164922669383e+000	 1.980596000310158e+000	 1.130388268623866e+001
 2.524592546684942e+000	 2.006752967667798e+000	 1.128585540191424e+001
 2.503739029931528e+000	 2.032711457636371e+000	 1.127415186985091e+001
 2.720235411479095e+000	 1.778431698502015e+000	 1.127925151974528e+001
 2.701862425241567e+000	 1.806222421288800e+000	 1.130655114370108e+001
 2.683186555731693e+000	 1.833851113704457e+000	 1.133788058003964e+001
 2.664209889494488e+000	 1.861312887401978e+000	 1.137344914292740e+001
 2.644934617181425e+000	 1.888602888623658e+000	 1.137480510243985e+001
 2.625363032868398e+000	 1.915716300949206e+000	 1.134224406178922e+001
 2.605497533287248e+000	 1.942648348028940e+000	 1.131493348401669e+001
 2.585340616971148e+000	 1.969394296298900e+000	 1.129322212358411e+001
 2.564894883314336e+000	 1.995949457674739e+000	 1.127745503162792e+001
 2.544163031546756e+000	 2.022309192221250e+000	 1.126797302997331e+001
 2.523147859624355e+000	 2.048468910794402e+000	 1.126511218520440e+001
 2.329059562718645e+000	 1.890894379214094e+000	 1.147314785000418e+001
 2.309402088944092e+000	 1.914852994773596e+000	 1.143134739213257e+001
 2.289488523243476e+000	 1.938618658202153e+000	 1.139275323986268e+001
 2.269321714828176e+000	 1.962187288355787e+000	 1.135724740686579e+001
 2.248904599182743e+000	 1.985554860419452e+000	 1.132470485415639e+001
 2.228240196665399e+000	 2.008717408176742e+000	 1.129499368374033e+001
 2.207331611037154e+000	 2.031671026237589e+000	 1.126797534803224e+001
 2.186182027921018e+000	 2.054411872221356e+000	 1.124350487461524e+001
 2.164794713192912e+000	 2.076936168892772e+000	 1.122143110586931e+001
 2.143173011305967e+000	 2.099240206248227e+000	 1.120159695294883e+001
 2.121320343550000e+000	 2.121320343550000e+000	 1.118383966354710e+001
 2.348468392406961e+000	 1.906651832372125e+000	 1.145644394607556e+001
 2.328647106351446e+000	 1.930810103061539e+000	 1.141621398390930e+001
 2.308567594270409e+000	 1.954773813685585e+000	 1.137893088969391e+001
 2.288232729118653e+000	 1.978538849090749e+000	 1.134447503021561e+001
 2.267645470843101e+000	 2.002101150921862e+000	 1.131271987483837e+001
 2.246808864971628e+000	 2.025456719910713e+000	 1.128353219298238e+001
 2.225726041129919e+000	 2.048601618122318e+000	 1.125677226732075e+001
 2.204400211487839e+000	 2.071531971156199e+000	 1.123229412225770e+001
 2.182834669136946e+000	 2.094243970300128e+000	 1.120994576720472e+001
 2.161032786400811e+000	 2.116733874633795e+000	 1.118956945412575e+001
 2.138998013080000e+000	 2.138998013080000e+000	 1.117100194877856e+001
 2.367877222095776e+000	 1.922409285530155e+000	 1.143845669816177e+001
 2.347892123759207e+000	 1.946767211349483e+000	 1.139984754723015e+001
 2.327646665297662e+000	 1.970928969169016e+000	 1.136393541438060e+001
 2.307143743409376e+000	 1.994890409825711e+000	 1.133059895438089e+001
 2.286386342503641e+000	 2.018647441424271e+000	 1.129971007126246e+001
 2.265377533277984e+000	 2.042196031644684e+000	 1.127113411971440e+001
 2.244120471222763e+000	 2.065532210007047e+000	 1.124473012215794e+001
 2.222618395054706e+000	 2.088652070091043e+000	 1.122035100105468e+001
 2.200874625081000e+000	 2.111551771707484e+000	 1.119784382595555e+001
 2.178892561495660e+000	 2.134227543019363e+000	 1.117705007475122e+001
 2.156675682610000e+000	 2.156675682610000e+000	 1.115780590854073e+001
 2.387286051785095e+000	 1.938166738688187e+000	 1.141910320158195e+001
 2.367137141167375e+000	 1.962724319637426e+000	 1.138216432633383e+001
 2.346725736325239e+000	 1.987084124652448e+000	 1.134768209468768e+001
 2.326054757700345e+000	 2.011241970560673e+000	 1.131553338416131e+001
 2.305127214164361e+000	 2.035193731926682e+000	 1.128558845972685e+001
 2.283946201584464e+000	 2.058935343378656e+000	 1.125771117920558e+001
 2.262514901315688e+000	 2.082462801891775e+000	 1.123175921431921e+001
 2.240836578621618e+000	 2.105772169025887e+000	 1.120758428694021e+001
 2.218914581025074e+000	 2.128859573114840e+000	 1.118503242003895e+001
 2.196752336590512e+000	 2.151721211404932e+000	 1.116394420277721e+001
 2.174353352140000e+000	 2.174353352140000e+000	 1.114415506915462e+001
 2.406694881474913e+000	 1.953924191846217e+000	 1.139830099555147e+001
 2.386382158575948e+000	 1.978681427925369e+000	 1.136308104374504e+001
 2.365804807353135e+000	 2.003239280135879e+000	 1.133008672899843e+001
 2.344965771991560e+000	 2.027593531295635e+000	 1.129919308623801e+001
 2.323868085825263e+000	 2.051740022429092e+000	 1.127026866758938e+001
 2.302514869891071e+000	 2.075674655112627e+000	 1.124317575185965e+001
 2.280909331408693e+000	 2.099393393776504e+000	 1.121777056966414e+001
 2.259054762188574e+000	 2.122892267960731e+000	 1.119390354373225e+001
 2.236954536969168e+000	 2.146167374522196e+000	 1.117141954387769e+001
 2.214612111685371e+000	 2.169214879790500e+000	 1.115015815607372e+001
 2.192031021670000e+000	 2.192031021670000e+000	 1.112995396502834e+001
 2.426103711165233e+000	 1.969681645004247e+000	 1.137596804542613e+001
 2.405627175984928e+000	 1.994638536213313e+000	 1.134251488114301e+001
 2.384883878381352e+000	 2.019394435619311e+000	 1.131106561260996e+001
 2.363876786283021e+000	 2.043945092030598e+000	 1.128149336669832e+001
 2.342608957486344e+000	 2.068286312931501e+000	 1.125366490882526e+001
 2.321083538197803e+000	 2.092413966846598e+000	 1.122744085660935e+001
 2.299303761501780e+000	 2.116323985661232e+000	 1.120267590917329e+001
 2.277272945755578e+000	 2.140012366895575e+000	 1.117921909161747e+001
 2.254994492913282e+000	 2.163475175929552e+000	 1.115691401413998e+001
 2.232471886780236e+000	 2.186708548176069e+000	 1.113559914523216e+001
 2.209708691200000e+000	 2.209708691200000e+000	 1.111510809833358e+001
 2.445512540856055e+000	 1.985439098162278e+000	 1.135202272579187e+001
 2.424872193394315e+000	 2.010595644501256e+000	 1.132038346114117e+001
 2.403962949409890e+000	 2.035549591102742e+000	 1.129053551801419e+001
 2.382787800574728e+000	 2.060296652765560e+000	 1.126235004963079e+001
 2.361349829147607e+000	 2.084832603433911e+000	 1.123569196074845e+001
 2.339652206504660e+000	 2.109153278580569e+000	 1.121042012557828e+001
 2.317698191594945e+000	 2.133254577545961e+000	 1.118638762136385e+001
 2.295491129322625e+000	 2.157132465830419e+000	 1.116344197713639e+001
 2.273034448857417e+000	 2.180782977336908e+000	 1.114142543711065e+001
 2.250331661875104e+000	 2.204202216561637e+000	 1.112017523813990e+001
 2.227386360730000e+000	 2.227386360730000e+000	 1.109952390060233e+001
 2.464921370547378e+000	 2.001196551320309e+000	 1.132638380435334e+001
 2.444117210804107e+000	 2.026552752789199e+000	 1.129660482992738e+001
 2.423042020438750e+000	 2.051704746586174e+000	 1.126841367611078e+001
 2.401698814866681e+000	 2.076648213500522e+000	 1.124167945673142e+001
 2.380090700809050e+000	 2.101378893936321e+000	 1.121626514183305e+001
 2.358220874811643e+000	 2.125892590314540e+000	 1.119202777993916e+001
 2.336092621688192e+000	 2.150185169430690e+000	 1.116881873600880e+001
 2.313709312889718e+000	 2.174252564765262e+000	 1.114648394458706e+001
 2.291074404801571e+000	 2.198090778744264e+000	 1.112486417760402e+001
 2.268191436969978e+000	 2.221695884947205e+000	 1.110379532622844e+001
 2.245064030260000e+000	 2.245064030260000e+000	 1.108310869613781e+001
 2.484330200239203e+000	 2.016954004478340e+000	 1.129897042657760e+001
 2.463362228214306e+000	 2.042509861077142e+000	 1.127109744071823e+001
 2.442121091467931e+000	 2.067859902069606e+000	 1.124461775830053e+001
 2.420609829158880e+000	 2.092999774235484e+000	 1.121939838786584e+001
 2.398831572470674e+000	 2.117925184438731e+000	 1.119530029057424e+001
 2.376789543118752e+000	 2.142631902048511e+000	 1.117217860690442e+001
 2.354487051781519e+000	 2.167115761315418e+000	 1.114988289908778e+001
 2.331927496456856e+000	 2.191372663700106e+000	 1.112825740876866e+001
 2.309114360745745e+000	 2.215398580151621e+000	 1.110714132933354e+001
 2.286051212064857e+000	 2.239189553332774e+000	 1.108636909230368e+001
 2.262741699790000e+000	 2.262741699790000e+000	 1.106577066714075e+001
 2.503739029931528e+000	 2.032711457636371e+000	 1.127415186985091e+001
 2.482607245624910e+000	 2.058466969365085e+000	 1.124378013798261e+001
 2.461200162497433e+000	 2.084015057553037e+000	 1.121906585941176e+001
 2.439520843451325e+000	 2.109351334970446e+000	 1.119542410253567e+001
 2.417572444132480e+000	 2.134471474941141e+000	 1.117271374533239e+001
 2.395358211425986e+000	 2.159371213782483e+000	 1.115078793778651e+001
 2.372881481874927e+000	 2.184046353200147e+000	 1.112949434890318e+001
 2.350145680024039e+000	 2.208492762634950e+000	 1.110867542899322e+001
 2.327154316689940e+000	 2.232706381558976e+000	 1.108816868666021e+001
 2.303910987159742e+000	 2.256683221718342e+000	 1.106780697987250e+001
 2.280419369320000e+000	 2.280419369320000e+000	 1.104741882045740e+001
 2.523147859624355e+000	 2.048468910794402e+000	 1.126511218520440e+001
 2.501852263035922e+000	 2.074424077653029e+000	 1.121673891747550e+001
 2.480279233527257e+000	 2.100170213036469e+000	 1.119167648141453e+001
 2.458431857744017e+000	 2.125702895705409e+000	 1.116967430220011e+001
 2.436313315794467e+000	 2.151017765443551e+000	 1.114842232510749e+001
 2.413926879733346e+000	 2.176110525516454e+000	 1.112777162707096e+001
 2.391275911968415e+000	 2.200976945084876e+000	 1.110756789329841e+001
 2.368363863591268e+000	 2.225612861569795e+000	 1.108765168429660e+001
 2.345194272634155e+000	 2.250014182966333e+000	 1.106785871764440e+001
 2.321770762254631e+000	 2.274176890103911e+000	 1.104802016388519e+001
 2.298097038850000e+000	 2.298097038850000e+000	 1.102796295586245e+001
 2.121320343550000e+000	 2.121320343550000e+000	 1.118383966354710e+001
 2.099240206248228e+000	 2.143173011305966e+000	 1.115092432757680e+001
 2.076936168892773e+000	 2.164794713192911e+000	 1.111635530455822e+001
 2.054411872221357e+000	 2.186182027921017e+000	 1.107997787272092e+001
 2.031671026237590e+000	 2.207331611037153e+000	 1.104163630216369e+001
 2.008717408176743e+000	 2.228240196665399e+000	 1.100117415192187e+001
 1.985554860419452e+000	 2.248904599182742e+000	 1.095843457201714e+001
 1.962187288355787e+000	 2.269321714828175e+000	 1.091326060974490e+001
 1.938618658202154e+000	 2.289488523243475e+000	 1.086549551943592e+001
 1.914852994773597e+000	 2.309402088944092e+000	 1.081498307491729e+001
 1.890894379214094e+000	 2.329059562718646e+000	 1.076156788388609e+001
 2.138998013080000e+000	 2.138998013080000e+000	 1.117100194877856e+001
 2.116733874633795e+000	 2.161032786400810e+000	 1.113774609769865e+001
 2.094243970300128e+000	 2.182834669136945e+000	 1.110341014901509e+001
 2.071531971156200e+000	 2.204400211487839e+000	 1.106783142941289e+001
 2.048601618122318e+000	 2.225726041129917e+000	 1.103084566246737e+001
 2.025456719910714e+000	 2.246808864971628e+000	 1.099228727850386e+001
 2.002101150921863e+000	 2.267645470843100e+000	 1.095198973031106e+001
 1.978538849090749e+000	 2.288232729118652e+000	 1.090978581393206e+001
 1.954773813685585e+000	 2.308567594270408e+000	 1.086550799373819e+001
 1.930810103061540e+000	 2.328647106351446e+000	 1.081898873097681e+001
 1.906651832372125e+000	 2.348468392406962e+000	 1.077006081497102e+001
 2.156675682610000e+000	 2.156675682610000e+000	 1.115780590854073e+001
 2.134227543019364e+000	 2.178892561495658e+000	 1.112416958415342e+001
 2.111551771707485e+000	 2.200874625080999e+000	 1.109002148222977e+001
 2.088652070091044e+000	 2.222618395054705e+000	 1.105519093059931e+001
 2.065532210007047e+000	 2.244120471222762e+000	 1.101950506066653e+001
 2.042196031644685e+000	 2.265377533277983e+000	 1.098278913016946e+001
 2.018647441424273e+000	 2.286386342503640e+000	 1.094486685266208e+001
 1.994890409825711e+000	 2.307143743409375e+000	 1.090556073291436e+001
 1.970928969169017e+000	 2.327646665297662e+000	 1.086469240740328e+001
 1.946767211349483e+000	 2.347892123759207e+000	 1.082208298905147e+001
 1.922409285530155e+000	 2.367877222095777e+000	 1.077755341535557e+001
 2.174353352140000e+000	 2.174353352140000e+000	 1.114415506915462e+001
 2.151721211404932e+000	 2.196752336590512e+000	 1.111010078459479e+001
 2.128859573114841e+000	 2.218914581025073e+000	 1.107609799967316e+001
 2.105772169025888e+000	 2.240836578621617e+000	 1.104196799411460e+001
 2.082462801891776e+000	 2.262514901315687e+000	 1.100752925940977e+001
 2.058935343378656e+000	 2.283946201584463e+000	 1.097259783458037e+001
 2.035193731926682e+000	 2.305127214164361e+000	 1.093698764953941e+001
 2.011241970560674e+000	 2.326054757700344e+000	 1.090051087520877e+001
 1.987084124652449e+000	 2.346725736325237e+000	 1.086297827953507e+001
 1.962724319637427e+000	 2.367137141167374e+000	 1.082419958852669e+001
 1.938166738688187e+000	 2.387286051785094e+000	 1.078398385141690e+001
 2.192031021670000e+000	 2.192031021670000e+000	 1.112995396502834e+001
 2.169214879790501e+000	 2.214612111685371e+000	 1.109544664428755e+001
 2.146167374522197e+000	 2.236954536969167e+000	 1.106154927774540e+001
 2.122892267960732e+000	 2.259054762188574e+000	 1.102807504586889e+001
 2.099393393776505e+000	 2.280909331408692e+000	 1.099483375043325e+001
 2.075674655112628e+000	 2.302514869891070e+000	 1.096163216340494e+001
 2.051740022429092e+000	 2.323868085825262e+000	 1.092827438429079e+001
 2.027593531295636e+000	 2.344965771991559e+000	 1.089456220508431e+001
 2.003239280135880e+000	 2.365804807353133e+000	 1.086029548191797e+001
 1.978681427925370e+000	 2.386382158575948e+000	 1.082527251250829e+001
 1.953924191846217e+000	 2.406694881474913e+000	 1.078929041846450e+001
 2.209708691200000e+000	 2.209708691200000e+000	 1.111510809833358e+001
 2.186708548176069e+000	 2.232471886780235e+000	 1.108011501820298e+001
 2.163475175929553e+000	 2.254994492913281e+000	 1.104628573853871e+001
 2.140012366895575e+000	 2.277272945755577e+000	 1.101342528752481e+001
 2.116323985661234e+000	 2.299303761501778e+000	 1.098133472539719e+001
 2.092413966846599e+000	 2.321083538197802e+000	 1.094981150655798e+001
 2.068286312931502e+000	 2.342608957486344e+000	 1.091864985102714e+001
 2.043945092030598e+000	 2.363876786283020e+000	 1.088764112433194e+001
 2.019394435619312e+000	 2.384883878381352e+000	 1.085657422490934e+001
 1.994638536213314e+000	 2.405627175984928e+000	 1.082523597807361e+001
 1.969681645004248e+000	 2.426103711165233e+000	 1.079341153558274e+001
 2.227386360730000e+000	 2.227386360730000e+000	 1.109952390060233e+001
 2.204202216561638e+000	 2.250331661875104e+000	 1.106401463491948e+001
 2.180782977336909e+000	 2.273034448857415e+000	 1.103021861627825e+001
 2.157132465830420e+000	 2.295491129322624e+000	 1.099793266571374e+001
 2.133254577545962e+000	 2.317698191594944e+000	 1.096694904811116e+001
 2.109153278580570e+000	 2.339652206504659e+000	 1.093705584766719e+001
 2.084832603433911e+000	 2.361349829147606e+000	 1.090803735356071e+001
 2.060296652765561e+000	 2.382787800574727e+000	 1.087967445490243e+001
 2.035549591102744e+000	 2.403962949409890e+000	 1.085174504400438e+001
 2.010595644501257e+000	 2.424872193394314e+000	 1.082402442698684e+001
 1.985439098162278e+000	 2.445512540856055e+000	 1.079628574071920e+001
 2.245064030260000e+000	 2.245064030260000e+000	 1.108310869613781e+001
 2.221695884947205e+000	 2.268191436969977e+000	 1.104705506222855e+001
 2.198090778744265e+000	 2.291074404801570e+000	 1.101325992534837e+001
 2.174252564765263e+000	 2.313709312889717e+000	 1.098151184270632e+001
 2.150185169430690e+000	 2.336092621688191e+000	 1.095159422807138e+001
 2.125892590314541e+000	 2.358220874811642e+000	 1.092328574069846e+001
 2.101378893936322e+000	 2.380090700809050e+000	 1.089636068533802e+001
 2.076648213500523e+000	 2.401698814866681e+000	 1.087058942236491e+001
 2.051704746586175e+000	 2.423042020438749e+000	 1.084573878703531e+001
 2.026552752789200e+000	 2.444117210804106e+000	 1.082157251685315e+001
 2.001196551320309e+000	 2.464921370547378e+000	 1.079785168600504e+001
 2.262741699790000e+000	 2.262741699790000e+000	 1.106577066714075e+001
 2.239189553332774e+000	 2.286051212064856e+000	 1.102914667435305e+001
 2.215398580151621e+000	 2.309114360745745e+000	 1.099532242981752e+001
 2.191372663700107e+000	 2.331927496456855e+000	 1.096407816845788e+001
 2.167115761315420e+000	 2.354487051781518e+000	 1.093518839523865e+001
 2.142631902048512e+000	 2.376789543118751e+000	 1.090842228767739e+001
 2.117925184438732e+000	 2.398831572470674e+000	 1.088354411031360e+001
 2.092999774235485e+000	 2.420609829158880e+000	 1.086031364014022e+001
 2.067859902069607e+000	 2.442121091467930e+000	 1.083848660197059e+001
 2.042509861077143e+000	 2.463362228214304e+000	 1.081781511268747e+001
 2.016954004478340e+000	 2.484330200239203e+000	 1.079804813329472e+001
 2.280419369320000e+000	 2.280419369320000e+000	 1.104741882045740e+001
 2.256683221718343e+000	 2.303910987159740e+000	 1.101020062069016e+001
 2.232706381558977e+000	 2.327154316689938e+000	 1.097631961438094e+001
 2.208492762634951e+000	 2.350145680024038e+000	 1.094554765395374e+001
 2.184046353200148e+000	 2.372881481874926e+000	 1.091765027598946e+001
 2.159371213782483e+000	 2.395358211425985e+000	 1.089238711744626e+001
 2.134471474941142e+000	 2.417572444132479e+000	 1.086951234471308e+001
 2.109351334970447e+000	 2.439520843451324e+000	 1.084877509446811e+001
 2.084015057553038e+000	 2.461200162497432e+000	 1.082991992528198e+001
 2.058466969365087e+000	 2.482607245624910e+000	 1.081268727887520e+001
 2.032711457636371e+000	 2.503739029931528e+000	 1.078247740914653e+001
 2.298097038850000e+000	 2.298097038850000e+000	 1.102796295586245e+001
 2.274176890103912e+000	 2.321770762254630e+000	 1.099012879599702e+001
 2.250014182966333e+000	 2.345194272634154e+000	 1.095616565664405e+001
 2.225612861569796e+000	 2.368363863591268e+000	 1.092583694578538e+001
 2.200976945084877e+000	 2.391275911968414e+000	 1.089889917017666e+001
 2.176110525516455e+000	 2.413926879733346e+000	 1.087510236540212e+001
 2.151017765443552e+000	 2.436313315794465e+000	 1.085419053963831e+001
 2.125702895705410e+000	 2.458431857744016e+000	 1.083590213006802e+001
 2.100170213036470e+000	 2.480279233527256e+000	 1.081997047084803e+001
 2.074424077653031e+000	 2.501852263035922e+000	 1.079891577146240e+001
 2.048468910794402e+000	 2.523147859624355e+000	 1.070483160371942e+001
 1.890894379214094e+000	 2.329059562718646e+000	 1.076156788388609e+001
 1.866746946686970e+000	 2.348458182955457e+000	 1.065950239105158e+001
 1.842414884029853e+000	 2.367595276895474e+000	 1.059069266386059e+001
 1.817902427375696e+000	 2.386468261810127e+000	 1.052737290369729e+001
 1.793213859741616e+000	 2.405074646102546e+000	 1.046979975295696e+001
 1.768353508590089e+000	 2.423412030331897e+000	 1.041822685641098e+001
 1.743325743364769e+000	 2.441478108159864e+000	 1.037290445171036e+001
 1.718134973003829e+000	 2.459270667218595e+000	 1.033407896291738e+001
 1.692785643433694e+000	 2.476787589899572e+000	 1.030199259801876e+001
 1.667282235046093e+000	 2.494026854062976e+000	 1.027688295136496e+001
 1.641629260161343e+000	 2.510986533667252e+000	 1.021853865729956e+001
 1.906651832372125e+000	 2.348468392406962e+000	 1.077006081497102e+001
 1.882303171240375e+000	 2.368028667811902e+000	 1.066125330195651e+001
 1.857768341394251e+000	 2.387325237534294e+000	 1.058615686904411e+001
 1.833051614267812e+000	 2.406355497322827e+000	 1.052991234211541e+001
 1.808157308569985e+000	 2.425116934817322e+000	 1.047980000186356e+001
 1.783089787825432e+000	 2.443607130581606e+000	 1.043609089147864e+001
 1.757853457889841e+000	 2.461823759057876e+000	 1.039905227257493e+001
 1.732452764442533e+000	 2.479764589441885e+000	 1.036894719777891e+001
 1.706892190459320e+000	 2.497427486478373e+000	 1.034603408786278e+001
 1.681176253668530e+000	 2.514810411176357e+000	 1.027710913721638e+001
 1.655309503993148e+000	 2.531911421443936e+000	 1.020638481610077e+001
 1.922409285530155e+000	 2.367877222095777e+000	 1.077755341535557e+001
 1.897859395793785e+000	 2.387599152668946e+000	 1.067755147195869e+001
 1.873121798758668e+000	 2.407055198173796e+000	 1.058306609524265e+001
 1.848200801159973e+000	 2.426242732836282e+000	 1.053419857395853e+001
 1.823100757398435e+000	 2.445159223532919e+000	 1.049184173056293e+001
 1.797826067060902e+000	 2.463802230832190e+000	 1.045628396171520e+001
 1.772381172415094e+000	 2.482169409956811e+000	 1.042780951432878e+001
 1.746770555881483e+000	 2.500258511666131e+000	 1.040578067535297e+001
 1.720998737485268e+000	 2.518067383058154e+000	 1.032887843073144e+001
 1.695070272291374e+000	 2.535593968290733e+000	 1.026007733137877e+001
 1.668989747825456e+000	 2.552836309221620e+000	 1.019912770996769e+001
 1.938166738688187e+000	 2.387286051785094e+000	 1.078398385141690e+001
 1.913415620347201e+000	 2.407169637526585e+000	 1.069320719030034e+001
 1.888475256123106e+000	 2.426785158813978e+000	 1.060491599448958e+001
 1.863349988052179e+000	 2.446129968350495e+000	 1.054027824194393e+001
 1.838044206226965e+000	 2.465201512249336e+000	 1.050596199510794e+001
 1.812562346296499e+000	 2.483997331083651e+000	 1.047883365051488e+001
 1.786908886940529e+000	 2.502515060856667e+000	 1.045028980120917e+001
 1.761088347320681e+000	 2.520752433891332e+000	 1.037392453438982e+001
 1.735105284511538e+000	 2.538707279638916e+000	 1.030634913691335e+001
 1.708964290914626e+000	 2.556377525406105e+000	 1.024731196996881e+001
 1.682669991658267e+000	 2.573761197000304e+000	 1.019655891584742e+001
 1.953924191846217e+000	 2.406694881474913e+000	 1.078929041846450e+001
 1.928971844900621e+000	 2.426740122384820e+000	 1.070815093229017e+001
 1.903828713487564e+000	 2.446515119454843e+000	 1.062983792912782e+001
 1.878499174944432e+000	 2.466017203865462e+000	 1.055434960453577e+001
 1.852987655055576e+000	 2.485243800966575e+000	 1.052219911558732e+001
 1.827298625532221e+000	 2.504192431335988e+000	 1.048885543496529e+001
 1.801436601466145e+000	 2.522860711757441e+000	 1.041232936857787e+001
 1.775406138760125e+000	 2.541246356117488e+000	 1.034528229170961e+001
 1.749211831538131e+000	 2.559347176220657e+000	 1.028746176816248e+001
 1.722858309538286e+000	 2.577161082522470e+000	 1.023861163071467e+001
 1.696350235491580e+000	 2.594686084779988e+000	 1.019847283298645e+001
 1.969681645004248e+000	 2.426103711165233e+000	 1.079341153558274e+001
 1.944528069454047e+000	 2.446310607243651e+000	 1.072231357584274e+001
 1.919182170852043e+000	 2.466245080096388e+000	 1.065437962062541e+001
 1.893648361836729e+000	 2.485904439381186e+000	 1.058961469720763e+001
 1.867931103884267e+000	 2.505286089684634e+000	 1.052156612657105e+001
 1.842034904768070e+000	 2.524387531589200e+000	 1.044418121398092e+001
 1.815964315991943e+000	 2.543206362659137e+000	 1.037696431489447e+001
 1.789723930199816e+000	 2.561740278344599e+000	 1.031966341935882e+001
 1.763318378565047e+000	 2.579987072803380e+000	 1.027202149548193e+001
 1.736752328162353e+000	 2.597944639639832e+000	 1.023377736380515e+001
 1.710030479325396e+000	 2.615610972560673e+000	 1.020466657003872e+001
 1.985439098162278e+000	 2.445512540856055e+000	 1.079628574071920e+001
 1.960084294007477e+000	 2.465881092103079e+000	 1.073562638550207e+001
 1.934535628216542e+000	 2.485975040738615e+000	 1.067846520655062e+001
 1.908797548729072e+000	 2.505791674897666e+000	 1.060362566005742e+001
 1.882874552713041e+000	 2.525328378403515e+000	 1.048307999049183e+001
 1.856771184004044e+000	 2.544582631843288e+000	 1.040149063698559e+001
 1.830492030517923e+000	 2.563552013561753e+000	 1.034401025710186e+001
 1.804041721639754e+000	 2.582234200572666e+000	 1.029687929408243e+001
 1.777424925592284e+000	 2.600626969387082e+000	 1.025983563179211e+001
 1.750646346786827e+000	 2.618728196758188e+000	 1.023261259377589e+001
 1.723710723159714e+000	 2.636535860342358e+000	 1.021493983754950e+001
 2.001196551320309e+000	 2.464921370547378e+000	 1.079785168600504e+001
 1.975640518560913e+000	 2.485451576963104e+000	 1.074802099721987e+001
 1.949889085581061e+000	 2.505705001381523e+000	 1.068081110116876e+001
 1.923946735621461e+000	 2.525678910414902e+000	 1.056544432945169e+001
 1.897818001541895e+000	 2.545370667123217e+000	 1.045666550163376e+001
 1.871507463240145e+000	 2.564777732098251e+000	 1.036060509884722e+001
 1.845019745044084e+000	 2.583897664465289e+000	 1.031328440946904e+001
 1.818359513079940e+000	 2.602728122801688e+000	 1.027674312233573e+001
 1.791531472619844e+000	 2.621266865971764e+000	 1.025071354760328e+001
 1.764540365411709e+000	 2.639511753877541e+000	 1.023492302603144e+001
 1.737390966994536e+000	 2.657460748125041e+000	 1.022909484551861e+001
 2.016954004478340e+000	 2.484330200239203e+000	 1.079804813329472e+001
 1.991196743114353e+000	 2.505022061823724e+000	 1.074046519774890e+001
 1.965242542945600e+000	 2.525434962025112e+000	 1.062991363555473e+001
 1.939095922513895e+000	 2.545566145932894e+000	 1.052626474306891e+001
 1.912761450370829e+000	 2.565412955843739e+000	 1.042962481692573e+001
 1.886243742476373e+000	 2.584972832354091e+000	 1.034008905944018e+001
 1.859547459570428e+000	 2.604243315369748e+000	 1.028460552119514e+001
 1.832677304520373e+000	 2.623222045031666e+000	 1.025906986881128e+001
 1.805638019647726e+000	 2.641906762557427e+000	 1.024446659064100e+001
 1.778434384036999e+000	 2.660295310997887e+000	 1.024051655774856e+001
 1.751071210829859e+000	 2.678385635908726e+000	 1.024693620576556e+001
 2.032711457636371e+000	 2.503739029931528e+000	 1.078247740914653e+001
 2.006752967667799e+000	 2.524592546684941e+000	 1.067641009674991e+001
 1.980596000310160e+000	 2.545164922669383e+000	 1.057753164476617e+001
 1.954245109406375e+000	 2.565453381451643e+000	 1.048596777498576e+001
 1.927704899199844e+000	 2.585455244565082e+000	 1.040183248296158e+001
 1.900980021712727e+000	 2.605167932610806e+000	 1.032522809430839e+001
 1.874075174096952e+000	 2.624588966275125e+000	 1.025779381691642e+001
 1.846995095961052e+000	 2.643715967262599e+000	 1.024367618829020e+001
 1.819744566675930e+000	 2.662546659144069e+000	 1.024090800920977e+001
 1.792328402662696e+000	 2.681078868119229e+000	 1.024920319292392e+001
 1.764751454665686e+000	 2.699310523693410e+000	 1.026827083883580e+001
 2.048468910794402e+000	 2.523147859624355e+000	 1.070483160371942e+001
 2.022309192221251e+000	 2.544163031546754e+000	 1.061039648594763e+001
 1.995949457674740e+000	 2.564894883314335e+000	 1.052355305046268e+001
 1.969394296298900e+000	 2.585340616971147e+000	 1.044443507566852e+001
 1.942648348028941e+000	 2.605497533287247e+000	 1.037316404058438e+001
 1.915716300949207e+000	 2.625363032868397e+000	 1.030984917752613e+001
 1.888602888623659e+000	 2.644934617181425e+000	 1.025458754827615e+001
 1.861312887401979e+000	 2.664209889494488e+000	 1.023038036063877e+001
 1.833851113704458e+000	 2.683186555731692e+000	 1.023985287909403e+001
 1.806222421288801e+000	 2.701862425241567e+000	 1.026079496134263e+001
 1.778431698502015e+000	 2.720235411479095e+000	 1.029290788520337e+001
 1.641629260161343e+000	 2.510986533667252e+000	 1.021853865729956e+001
 1.615831260481341e+000	 2.527664799318952e+000	 1.013108547560916e+001
 1.589892804533449e+000	 2.544059918741996e+000	 1.005073207831373e+001
 1.563818485109322e+000	 2.560170257166945e+000	 9.977171815686694e+000
 1.537612916702710e+000	 2.575994277640975e+000	 9.910099958873895e+000
 1.511280732947346e+000	 2.591530541258077e+000	 9.849214492804290e+000
 1.484826584058344e+000	 2.606777707310106e+000	 9.794216892365594e+000
 1.458255134279887e+000	 2.621734533359257e+000	 9.744812879968288e+000
 1.431571059341970e+000	 2.636399875232531e+000	 9.700713162705631e+000
 1.404779043928913e+000	 2.650772686938987e+000	 9.661634147400463e+000
 1.377883779162314e+000	 2.664852020510572e+000	 9.627298631922530e+000
 1.655309503993148e+000	 2.531911421443936e+000	 1.020638481610077e+001
 1.629296520982582e+000	 2.548728672642727e+000	 1.012577271195053e+001
 1.603141911235245e+000	 2.565260418061028e+000	 1.005130993315469e+001
 1.576850305816057e+000	 2.581505009306318e+000	 9.982651247427745e+000
 1.550426357672883e+000	 2.597460896617837e+000	 9.919454580700940e+000
 1.523874739053070e+000	 2.613126629098686e+000	 9.861381851830554e+000
 1.497200138923525e+000	 2.628500854868159e+000	 9.808099788392674e+000
 1.470407260397131e+000	 2.643582321134798e+000	 9.759280721627825e+000
 1.443500818168301e+000	 2.658369874190830e+000	 9.714603358683874e+000
 1.416485535960391e+000	 2.672862459328721e+000	 9.673753530399385e+000
 1.389366143987678e+000	 2.687059120680686e+000	 9.636424912964458e+000
 1.668989747825456e+000	 2.552836309221620e+000	 1.019912770996769e+001
 1.642761781484414e+000	 2.569792545967492e+000	 1.012474149547228e+001
 1.616391017937702e+000	 2.586460917381019e+000	 1.005557113809976e+001
 1.589882126523503e+000	 2.602839761446600e+000	 9.991232761555555e+000
 1.563239798643796e+000	 2.618927515595535e+000	 9.931346875232702e+000
 1.536468745159544e+000	 2.634722716940044e+000	 9.875539251108148e+000
 1.509573693789444e+000	 2.650224002426848e+000	 9.823441779554276e+000
 1.482559386515084e+000	 2.665430108910843e+000	 9.774693302064268e+000
 1.455430576995290e+000	 2.680339873149481e+000	 9.728940418982896e+000
 1.428192027992455e+000	 2.694952231718637e+000	 9.685838270432150e+000
 1.400848508813537e+000	 2.709266220850791e+000	 9.645051288724748e+000
 1.682669991658267e+000	 2.573761197000304e+000	 1.019655891584742e+001
 1.656227041986839e+000	 2.590856419293247e+000	 1.012780441607700e+001
 1.629640124640821e+000	 2.607661416701968e+000	 1.006334890556645e+001
 1.602913947231660e+000	 2.624174513587790e+000	 1.000276979179965e+001
 1.576053239615450e+000	 2.640394134574071e+000	 9.945650085860669e+000
 1.549062751266767e+000	 2.656318804782146e+000	 9.891579321919126e+000
 1.521947248656102e+000	 2.671947149986172e+000	 9.840154453463509e+000
 1.494711512633743e+000	 2.687277896687392e+000	 9.790980724216311e+000
 1.467360335822935e+000	 2.702309872108486e+000	 9.743672511764494e+000
 1.439898520025106e+000	 2.717042004108736e+000	 9.697854142041944e+000
 1.412330873639893e+000	 2.731473321020890e+000	 9.653160672908843e+000
 1.696350235491580e+000	 2.594686084779988e+000	 1.019847283298645e+001
 1.669692302489857e+000	 2.611920292619992e+000	 1.013477631288819e+001
 1.642889231344602e+000	 2.628861916023877e+000	 1.007447813727215e+001
 1.615945767940529e+000	 2.645509265729889e+000	 1.001711691464459e+001
 1.588866680587844e+000	 2.661860753553444e+000	 9.962238065773265e+000
 1.561656757374740e+000	 2.677914892624994e+000	 9.909394786170926e+000
 1.534320803523498e+000	 2.693670297546130e+000	 9.858148983163664e+000
 1.506863638753111e+000	 2.709125684464445e+000	 9.808072185414090e+000
 1.479290094651237e+000	 2.724279871067844e+000	 9.758746422870471e+000
 1.451605012058343e+000	 2.739131776499017e+000	 9.709765075226507e+000
 1.423813238466745e+000	 2.753680421190979e+000	 9.660733687088413e+000
 1.710030479325396e+000	 2.615610972560673e+000	 1.020466657003872e+001
 1.683157562993467e+000	 2.632984165947726e+000	 1.014547418428130e+001
 1.656138338049046e+000	 2.650062415346746e+000	 1.008879535666170e+001
 1.628977588650109e+000	 2.666844017872896e+000	 1.003412980361995e+001
 1.601680121560980e+000	 2.683327372533654e+000	 9.980985253564358e+000
 1.574250763483462e+000	 2.699510980468590e+000	 9.928878452771150e+000
 1.546694358391633e+000	 2.715393445106723e+000	 9.877336143710897e+000
 1.519015764873185e+000	 2.730973472242001e+000	 9.825896013603687e+000
 1.491219853480195e+000	 2.746249870027554e+000	 9.774107611115035e+000
 1.463311504092166e+000	 2.761221548889481e+000	 9.721533229220178e+000
 1.435295603294094e+000	 2.775887521361062e+000	 9.667748752386828e+000
 1.723710723159714e+000	 2.636535860342358e+000	 1.021493983754950e+001
 1.696622823497669e+000	 2.654048039276451e+000	 1.015971710219934e+001
 1.669387444754151e+000	 2.671262914670574e+000	 1.010613864455340e+001
 1.642009409360401e+000	 2.688178770016811e+000	 1.005366518576656e+001
 1.614493562534854e+000	 2.704793991514702e+000	 1.000176665000235e+001
 1.586844769592933e+000	 2.721107068312931e+000	 9.949923214175541e+000
 1.559067913260507e+000	 2.737116592667952e+000	 9.897626327967425e+000
 1.531167890993968e+000	 2.752821260020062e+000	 9.844379701846512e+000
 1.503149612309811e+000	 2.768219868987618e+000	 9.789700260944770e+000
 1.475017996126575e+000	 2.783311321280127e+000	 9.733119062762222e+000
 1.446777968121937e+000	 2.798094621531136e+000	 9.674182176798386e+000
 1.737390966994536e+000	 2.657460748125041e+000	 1.022909484551861e+001
 1.710088084002464e+000	 2.675111912606165e+000	 1.017732613051614e+001
 1.682636551459918e+000	 2.692463413995360e+000	 1.012634757782503e+001
 1.655041230071404e+000	 2.709513522161635e+000	 1.007558080016003e+001
 1.627307003509470e+000	 2.726260610496586e+000	 1.002445779589767e+001
 1.599438775703154e+000	 2.742703156158019e+000	 9.972422043098309e+000
 1.571441468130119e+000	 2.758839740229814e+000	 9.918929561648634e+000
 1.543320017115457e+000	 2.774669047798627e+000	 9.863449941188719e+000
 1.515079371140083e+000	 2.790189867948034e+000	 9.805467332610839e+000
 1.486724488161571e+000	 2.805401093670955e+000	 9.744481401045411e+000
 1.458260332950278e+000	 2.820301721701202e+000	 9.680008238382495e+000
 1.751071210829859e+000	 2.678385635908726e+000	 1.024693620576556e+001
 1.723553344507851e+000	 2.696175785936869e+000	 1.019812424722658e+001
 1.695885658166348e+000	 2.713663913321106e+000	 1.014926317097395e+001
 1.668073050783117e+000	 2.730848274307367e+000	 1.009973535837769e+001
 1.640120444484826e+000	 2.747727229479309e+000	 1.004893475100724e+001
 1.612032781814125e+000	 2.764299244003852e+000	 9.996267989377273e+000
 1.583815023000469e+000	 2.780562887792313e+000	 9.941155517664557e+000
 1.555472143237655e+000	 2.796516835577696e+000	 9.883032651989856e+000
 1.527009129971013e+000	 2.812159866908804e+000	 9.821350609988569e+000
 1.498430980197153e+000	 2.827490866061966e+000	 9.755577499526542e+000
 1.469742697779114e+000	 2.842508821871260e+000	 9.685199264557916e+000
 1.764751454665686e+000	 2.699310523693410e+000	 1.026827083883580e+001
 1.737018605013831e+000	 2.717239659268562e+000	 1.022193627025605e+001
 1.709134764873440e+000	 2.734864412647811e+000	 1.017472782039559e+001
 1.681104871495543e+000	 2.752183026454008e+000	 1.012598850680510e+001
 1.652933885460923e+000	 2.769193848462868e+000	 1.007507407392034e+001
 1.624626787925845e+000	 2.785895331850432e+000	 1.002135417698450e+001
 1.596188577871558e+000	 2.802286035355447e+000	 9.964213529794602e+000
 1.567624269360560e+000	 2.818364623357268e+000	 9.903053013794651e+000
 1.538938888802599e+000	 2.834129865869927e+000	 9.837290746174055e+000
 1.510137472233321e+000	 2.849580638453160e+000	 9.766363104768802e+000
 1.481225062608446e+000	 2.864715922041312e+000	 9.689725707709116e+000
 1.778431698502015e+000	 2.720235411479095e+000	 1.029290788520337e+001
 1.750483865520404e+000	 2.738303532601247e+000	 1.024858878669362e+001
 1.722383871581194e+000	 2.756064911975476e+000	 1.020258525123326e+001
 1.694136692208681e+000	 2.773517778601558e+000	 1.015420079068165e+001
 1.665747326437761e+000	 2.790660467447267e+000	 1.010275280287266e+001
 1.637220794038315e+000	 2.807491419697759e+000	 1.004757380117500e+001
 1.608562132743385e+000	 2.824009182919216e+000	 9.988012605731200e+000
 1.579776395484174e+000	 2.840212411137346e+000	 9.923435493825718e+000
 1.550868647634842e+000	 2.856099864831403e+000	 9.853227306975157e+000
 1.521843964270076e+000	 2.871670410844536e+000	 9.776792512476217e+000
 1.492707427438275e+000	 2.886923022211355e+000	 9.693556217302723e+000
 1.377883779162314e+000	 2.664852020510572e+000	 9.627298631922530e+000
 1.350889960100455e+000	 2.678637025767296e+000	 9.514832266211281e+000
 1.323802283258406e+000	 2.692126950008474e+000	 9.413395934402415e+000
 1.296625444150433e+000	 2.705321137630596e+000	 9.322840038707138e+000
 1.269364134855766e+000	 2.718219029672730e+000	 9.243017427068056e+000
 1.242023041611831e+000	 2.730820163291444e+000	 9.179437133737402e+000
 1.214606842436724e+000	 2.743124171166410e+000	 9.143753781268215e+000
 1.187120204783137e+000	 2.755130780838170e+000	 9.123487883779609e+000
 1.159567783225907e+000	 2.766839813979640e+000	 9.117707555355800e+000
 1.131954217185234e+000	 2.778251185602976e+000	 9.125522592425902e+000
 1.104284128687585e+000	 2.789364903203509e+000	 9.146085788911476e+000
 1.389366143987678e+000	 2.687059120680686e+000	 9.636424912964458e+000
 1.362147376433888e+000	 2.700959000981797e+000	 9.524068984931359e+000
 1.334833968951679e+000	 2.714561341258762e+000	 9.422456750011087e+000
 1.307430656184602e+000	 2.727865480444710e+000	 9.331428254561375e+000
 1.279942169312546e+000	 2.740870854920701e+000	 9.250826432203294e+000
 1.252373233624917e+000	 2.753576997986275e+000	 9.180497642294982e+000
 1.224728566123295e+000	 2.765983539260101e+000	 9.140698364279370e+000
 1.197012873155813e+000	 2.778090204012228e+000	 9.117338416535747e+000
 1.169230848085429e+000	 2.789896812429515e+000	 9.107762291222134e+000
 1.141387168994182e+000	 2.801403278815884e+000	 9.111048472077332e+000
 1.113486496425423e+000	 2.812609610729128e+000	 9.126320263446299e+000
 1.400848508813537e+000	 2.709266220850791e+000	 9.645051288724748e+000
 1.373404792767729e+000	 2.723280976196111e+000	 9.532880438848350e+000
 1.345865654645289e+000	 2.736995732508725e+000	 9.431165850613162e+000
 1.318235868219059e+000	 2.750409823258400e+000	 9.339736922938696e+000
 1.290520203769585e+000	 2.763522680168190e+000	 9.258426389549289e+000
 1.262723425638253e+000	 2.776333832680606e+000	 9.187070874266464e+000
 1.234850289810128e+000	 2.788842907353316e+000	 9.137677691092314e+000
 1.206905541528781e+000	 2.801049627185873e+000	 9.111467285462274e+000
 1.178893912945295e+000	 2.812953810879078e+000	 9.098322229964280e+000
 1.150820120803544e+000	 2.824555372028620e+000	 9.097288937415300e+000
 1.122688864163766e+000	 2.835854318254756e+000	 9.107460500247354e+000
 1.412330873639893e+000	 2.731473321020890e+000	 9.653160672908843e+000
 1.384662209101975e+000	 2.745602951410237e+000	 9.541253430309451e+000
 1.356897340339236e+000	 2.759430123758361e+000	 9.439513860692586e+000
 1.329041080253802e+000	 2.772954166071665e+000	 9.347760420347134e+000
 1.301098238226883e+000	 2.786174505415196e+000	 9.265815354012727e+000
 1.273073617651840e+000	 2.799090667374439e+000	 9.193505267397669e+000
 1.244972013497223e+000	 2.811702275446057e+000	 9.134680106700282e+000
 1.216798209902043e+000	 2.824009050359105e+000	 9.105871333192223e+000
 1.188556977805506e+000	 2.836010809328329e+000	 9.089392442346362e+000
 1.160253072613321e+000	 2.847707465241187e+000	 9.084257009445853e+000
 1.131891231902615e+000	 2.859099025780396e+000	 9.089527184691693e+000
 1.423813238466745e+000	 2.753680421190979e+000	 9.660733687088413e+000
 1.395919625436628e+000	 2.767924926624177e+000	 9.549172448822242e+000
 1.367929026033521e+000	 2.781864515007671e+000	 9.447489072662561e+000
 1.339846292288835e+000	 2.795498508884507e+000	 9.355490773469409e+000
 1.311676272684440e+000	 2.808826330661722e+000	 9.272989014397904e+000
 1.283423809665677e+000	 2.821847502067772e+000	 9.199800097052961e+000
 1.255093737184579e+000	 2.834561643538318e+000	 9.135745724438671e+000
 1.226690878275597e+000	 2.846968473531923e+000	 9.100544996280332e+000
 1.198220042666061e+000	 2.859067807777269e+000	 9.080975582673622e+000
 1.169686024423513e+000	 2.870859558453584e+000	 9.071963283803138e+000
 1.141093599641968e+000	 2.882343733306045e+000	 9.072538569333588e+000
 1.435295603294094e+000	 2.775887521361062e+000	 9.667748752386828e+000
 1.407177041771687e+000	 2.790246901837927e+000	 9.556619763568198e+000
 1.378960711728142e+000	 2.804298906256655e+000	 9.455077540148620e+000
 1.350651504324155e+000	 2.818042851696925e+000	 9.362917753156049e+000
 1.322254307142256e+000	 2.831478155907767e+000	 9.279940788050649e+000
 1.293774001679765e+000	 2.844604336760606e+000	 9.205952352930067e+000
 1.265215460872198e+000	 2.857421011630105e+000	 9.140764058391449e+000
 1.236583546649445e+000	 2.869927896704327e+000	 9.095480401445943e+000
 1.207883107526959e+000	 2.882124806225896e+000	 9.073071985451264e+000
 1.179118976234119e+000	 2.894011651665810e+000	 9.060416027764456e+000
 1.150295967381827e+000	 2.905588440831705e+000	 9.056510571217441e+000
 1.446777968121937e+000	 2.798094621531136e+000	 9.674182176798386e+000
 1.418434458107152e+000	 2.812568877051492e+000	 9.563575511510885e+000
 1.389992397423100e+000	 2.826733297505313e+000	 9.462263166829201e+000
 1.361456716359764e+000	 2.840587194508919e+000	 9.370028963942708e+000
 1.332832341600332e+000	 2.854129981153329e+000	 9.286661910995713e+000
 1.304124193694103e+000	 2.867361171452942e+000	 9.211956829760887e+000
 1.275337184560078e+000	 2.880280379721415e+000	 9.145714952813727e+000
 1.246476215023585e+000	 2.892887319876318e+000	 9.090667457233217e+000
 1.217546172388202e+000	 2.905181804674212e+000	 9.065679757439680e+000
 1.188551928045141e+000	 2.917163744877865e+000	 9.049621272645211e+000
 1.159498335122191e+000	 2.928833148357375e+000	 9.041456864556828e+000
 1.458260332950278e+000	 2.820301721701202e+000	 9.680008238382495e+000
 1.429691874443023e+000	 2.834890852264868e+000	 9.570017781341662e+000
 1.401024083118395e+000	 2.849167688753644e+000	 9.469027791079105e+000
 1.372261928395660e+000	 2.863131537320488e+000	 9.376809929337924e+000
 1.343410376058666e+000	 2.876781806398410e+000	 9.293141523815413e+000
 1.314474385708692e+000	 2.890118006144780e+000	 9.217806213727716e+000
 1.285458908248220e+000	 2.903139747812249e+000	 9.150594564699334e+000
 1.256368883398019e+000	 2.915846743047893e+000	 9.091304651829148e+000
 1.227209237249790e+000	 2.928238803122218e+000	 9.058794865361175e+000
 1.197984879856578e+000	 2.940315838089751e+000	 9.039582901829126e+000
 1.168700702863060e+000	 2.952077855883055e+000	 9.027388969034647e+000
 1.469742697779114e+000	 2.842508821871260e+000	 9.685199264557916e+000
 1.440949290779301e+000	 2.857212827478057e+000	 9.575922693490190e+000
 1.412055768814028e+000	 2.871602080001652e+000	 9.475351266645854e+000
 1.383067140431844e+000	 2.885675880131633e+000	 9.383244173113374e+000
 1.353988410517260e+000	 2.899433631643008e+000	 9.299366753502913e+000
 1.324824577723531e+000	 2.912874840836117e+000	 9.223491164828166e+000
 1.295580631936624e+000	 2.925999115902606e+000	 9.155397013517828e+000
 1.266261551772746e+000	 2.938806166219056e+000	 9.094871955381681e+000
 1.236872302111721e+000	 2.951295801569910e+000	 9.052411219495026e+000
 1.207417831668429e+000	 2.963467931301467e+000	 9.030302734671565e+000
 1.177903070604434e+000	 2.975322563408745e+000	 9.014316333964842e+000
 1.481225062608446e+000	 2.864715922041312e+000	 9.689725707709116e+000
 1.452206707115985e+000	 2.879534802691059e+000	 9.581264476413587e+000
 1.423087454509997e+000	 2.894036471249331e+000	 9.481211539572806e+000
 1.393872352468316e+000	 2.908220222942354e+000	 9.389313296812977e+000
 1.364566444976113e+000	 2.922085456887126e+000	 9.305322791508424e+000
 1.335174769738621e+000	 2.935631675526955e+000	 9.229000395409926e+000
 1.305702355625290e+000	 2.948858483992487e+000	 9.160114460188888e+000
 1.276154220147766e+000	 2.961765589389805e+000	 9.098441934694364e+000
 1.246535366973996e+000	 2.974352800017292e+000	 9.046520753384707e+000
 1.216850783480696e+000	 2.986620024513012e+000	 9.021780606500634e+000
 1.187105438346313e+000	 2.998567270934446e+000	 9.002246418538975e+000
 1.492707427438275e+000	 2.886923022211355e+000	 9.693556217302723e+000
 1.463464123453077e+000	 2.901856777903874e+000	 9.586015539364878e+000
 1.434119140206303e+000	 2.916470862496686e+000	 9.486584721572593e+000
 1.404677564505076e+000	 2.930764565752652e+000	 9.394997053684794e+000
 1.375144479435225e+000	 2.944737282130762e+000	 9.310992968182910e+000
 1.345524961753961e+000	 2.958388510217295e+000	 9.234320745079694e+000
 1.315824079314218e+000	 2.971717852081893e+000	 9.164737182410690e+000
 1.286046888523080e+000	 2.984725012560140e+000	 9.102008231175626e+000
 1.256198431836616e+000	 2.997409798464362e+000	 9.045909593631723e+000
 1.226283735293377e+000	 3.009772117724387e+000	 9.014014444926287e+000
 1.196307806088698e+000	 3.021811978460158e+000	 8.991184768369587e+000
 1.104284128687585e+000	 2.789364903203509e+000	 9.146085788911476e+000
 1.076562120166735e+000	 2.800181065842599e+000	 9.096512340176107e+000
 1.048792772305250e+000	 2.810699863170943e+000	 9.045439905735064e+000
 1.020980641918825e+000	 2.820921574394557e+000	 8.992122854205586e+000
 9.931302598865216e-001	 2.830846567185376e+000	 8.935875647831832e+000
 9.652461291268568e-001	 2.840475296538248e+000	 8.876073343151150e+000
 9.373327226216526e-001	 2.849808303576409e+000	 8.812151949951556e+000
 9.093944814890329e-001	 2.858846214307540e+000	 8.743608650491161e+000
 8.814358131068247e-001	 2.867589738332472e+000	 8.670001881296011e+000
 8.534610892875471e-001	 2.876039667508702e+000	 8.590951280182866e+000
 8.254746445060665e-001	 2.884196874570822e+000	 8.506137501466524e+000
 1.113486496425423e+000	 2.812609610729128e+000	 9.126320263446299e+000
 1.085533471166585e+000	 2.823515908056200e+000	 9.068388820118040e+000
 1.057532712072626e+000	 2.834122362028305e+000	 9.010604980591509e+000
 1.029488813932706e+000	 2.844429254178170e+000	 8.952218801975626e+000
 1.001406345383214e+000	 2.854436955241667e+000	 8.892539910018657e+000
 9.732898468669849e-001	 2.864145924005266e+000	 8.830938031538455e+000
 9.451438286406904e-001	 2.873556706101563e+000	 8.766843383870020e+000
 9.169727688317716e-001	 2.882669932754969e+000	 8.699746923271603e+000
 8.887811115462043e-001	 2.891486319479657e+000	 8.629200454582591e+000
 8.605732650282787e-001	 2.900006664731932e+000	 8.554816604764147e+000
 8.323535998734841e-001	 2.908231848519181e+000	 8.476268663269106e+000
 1.122688864163766e+000	 2.835854318254756e+000	 9.107460500247354e+000
 1.094504822167034e+000	 2.846850750270003e+000	 9.042397153845357e+000
 1.066272651840688e+000	 2.857544860886037e+000	 8.979066147978132e+000
 1.037996985947348e+000	 2.867936933962303e+000	 8.916712435084365e+000
 1.009682430880730e+000	 2.878027343298605e+000	 8.854640076970727e+000
 9.813335646079905e-001	 2.887816551473039e+000	 8.792212809154176e+000
 9.529549346606500e-001	 2.897305108627561e+000	 8.728854460841626e+000
 9.245510561754664e-001	 2.906493651203309e+000	 8.664049232461421e+000
 8.961264099865648e-001	 2.915382900627802e+000	 8.597341833020662e+000
 8.676854407700052e-001	 2.923973661956154e+000	 8.528337479901309e+000
 8.392325552419019e-001	 2.932266822468538e+000	 8.456701764036380e+000
 1.131891231902615e+000	 2.859099025780396e+000	 9.089527184691693e+000
 1.103476173168084e+000	 2.870185592484005e+000	 9.018539695048297e+000
 1.075012591609433e+000	 2.880967359744138e+000	 8.950808161284124e+000
 1.046505157962748e+000	 2.891444613746953e+000	 8.885571635694802e+000
 1.017958516379069e+000	 2.901617731356191e+000	 8.822127886134787e+000
 9.893772823498737e-001	 2.911487178941568e+000	 8.759833992426042e+000
 9.607660406815313e-001	 2.921053511154402e+000	 8.698106796920554e+000
 9.321293435201175e-001	 2.930317369652563e+000	 8.636423211105681e+000
 9.034717084279054e-001	 2.939279481776907e+000	 8.574320380505498e+000
 8.747976165127267e-001	 2.947940659181365e+000	 8.511395710481592e+000
 8.461115106113193e-001	 2.956301796418897e+000	 8.447306755864160e+000
 1.141093599641968e+000	 2.882343733306045e+000	 9.072538569333588e+000
 1.112447524169733e+000	 2.893520434698208e+000	 8.996817187716429e+000
 1.083752531378863e+000	 2.904389858602606e+000	 8.925814955479638e+000
 1.055013329978907e+000	 2.914952293532121e+000	 8.858764226842684e+000
 1.026234601878231e+000	 2.925208119414422e+000	 8.794955743001143e+000
 9.974210000926347e-001	 2.935157806410852e+000	 8.733739260766422e+000
 9.685771467033345e-001	 2.944801913682086e+000	 8.674524033769623e+000
 9.397076308657247e-001	 2.954141088102729e+000	 8.616779148095612e+000
 9.108170068702268e-001	 2.963176062926975e+000	 8.560033714583568e+000
 8.819097922564438e-001	 2.971907656407566e+000	 8.503876920386238e+000
 8.529904659817370e-001	 2.980336770370254e+000	 8.447957942715169e+000
 1.150295967381827e+000	 2.905588440831705e+000	 9.056510571217441e+000
 1.121418875171983e+000	 2.916855276912609e+000	 8.977228830526610e+000
 1.092492471148978e+000	 2.927812357461445e+000	 8.904069679853137e+000
 1.063521501995825e+000	 2.938459973317807e+000	 8.836257974801255e+000
 1.034510687378217e+000	 2.948798507473301e+000	 8.773076694381661e+000
 1.005464717836273e+000	 2.958828433880890e+000	 8.713867602053371e+000
 9.763882527260597e-001	 2.968550316210615e+000	 8.658031757635918e+000
 9.472859182122878e-001	 2.977964806553807e+000	 8.605029881935428e+000
 9.181623053135287e-001	 2.987072644078003e+000	 8.554382576306194e+000
 8.890219680011556e-001	 2.995874653634759e+000	 8.505670399730752e+000
 8.598694213531549e-001	 3.004371744322613e+000	 8.458533806344738e+000
 1.159498335122191e+000	 2.928833148357375e+000	 9.041456864556828e+000
 1.130390226174833e+000	 2.940190119127211e+000	 8.959772338165102e+000
 1.101232410919777e+000	 2.951234856320653e+000	 8.885554729188950e+000
 1.072029674013503e+000	 2.961967653104012e+000	 8.818020591334117e+000
 1.042786772879026e+000	 2.972388895532827e+000	 8.756444402960662e+000
 1.013508435580789e+000	 2.982499061351685e+000	 8.700159260707064e+000
 9.841993587497065e-001	 2.992298718739988e+000	 8.648557422184627e+000
 9.548642055598077e-001	 3.001788525005798e+000	 8.601090699566829e+000
 9.255076037578108e-001	 3.010969225229992e+000	 8.557270706280928e+000
 8.961341437468628e-001	 3.019841650862942e+000	 8.516668959379139e+000
 8.667483767255724e-001	 3.028406718275971e+000	 8.478916840515364e+000
 1.168700702863060e+000	 2.952077855883055e+000	 9.027388969034647e+000
 1.139361577178282e+000	 2.963524961342014e+000	 8.944443999752282e+000
 1.109972350691261e+000	 2.974657355180230e+000	 8.870251773472200e+000
 1.080537846031939e+000	 2.985475332890735e+000	 8.804019735840889e+000
 1.051062858380658e+000	 2.995979283592998e+000	 8.745013123047997e+000
 1.021552153326183e+000	 3.006169688823234e+000	 8.692555688219825e+000
 9.920104647742754e-001	 3.016047121270204e+000	 8.646030274978887e+000
 9.624424929082831e-001	 3.025612243458701e+000	 8.604879239973965e+000
 9.328529022030739e-001	 3.034865806382943e+000	 8.568604726579043e+000
 9.032463194935652e-001	 3.043808648092114e+000	 8.536768792332095e+000
 8.736273320989901e-001	 3.052441692230329e+000	 8.508993393043344e+000
 1.177903070604434e+000	 2.975322563408745e+000	 9.014316333964842e+000
 1.148332928182332e+000	 2.986859803557016e+000	 8.931238734528716e+000
 1.118712290463430e+000	 2.998079854040177e+000	 8.858141786201323e+000
 1.089046018051134e+000	 3.008983012677976e+000	 8.794223017402949e+000
 1.059338943883114e+000	 3.019569671653817e+000	 8.738737677468402e+000
 1.029595871072455e+000	 3.029840316295539e+000	 8.690999496004810e+000
 9.998215707997659e-001	 3.039795523801263e+000	 8.650381287405345e+000
 9.700207802577148e-001	 3.049435961912515e+000	 8.616315402306707e+000
 9.401982006493176e-001	 3.058762387536854e+000	 8.588294028178162e+000
 9.103584952412627e-001	 3.067775645322278e+000	 8.565869341612116e+000
 8.805062874734078e-001	 3.076476666185687e+000	 8.548653515250171e+000
 1.187105438346313e+000	 2.998567270934446e+000	 9.002246418538975e+000
 1.157304279186982e+000	 3.010194645772219e+000	 8.920150144951455e+000
 1.127452230236283e+000	 3.021502352900493e+000	 8.849205071383580e+000
 1.097554190071088e+000	 3.032490692465735e+000	 8.788597996733698e+000
 1.067615029386394e+000	 3.043160059715283e+000	 8.737573435526443e+000
 1.037639588819604e+000	 3.053510943768599e+000	 8.695434410437651e+000
 1.007632676826179e+000	 3.063543926333167e+000	 8.661543087859581e+000
 9.775990676081028e-001	 3.073259680367243e+000	 8.635321258277434e+000
 9.475434990965419e-001	 3.082658968691729e+000	 8.616250663640313e+000
 9.174706709899553e-001	 3.091742642553431e+000	 8.603873174293589e+000
 8.873852428488256e-001	 3.100511640142046e+000	 8.597790818415634e+000
 1.196307806088698e+000	 3.021811978460158e+000	 8.991184768369587e+000
 1.166275630192232e+000	 3.033529487987621e+000	 8.911170567339422e+000
 1.136192170009821e+000	 3.044924851761178e+000	 8.843421289284851e+000
 1.106062362091802e+000	 3.055998372254013e+000	 8.787112188038808e+000
 1.075891114890497e+000	 3.066750447777396e+000	 8.741476291987677e+000
 1.045683306567630e+000	 3.077181571242415e+000	 8.705805229973745e+000
 1.015443782853513e+000	 3.087292328865914e+000	 8.679449898014733e+000
 9.851773549594470e-001	 3.097083398822883e+000	 8.661820968600864e+000
 9.548887975447467e-001	 3.106555549847562e+000	 8.652389244743374e+000
 9.245828467396433e-001	 3.115709639785576e+000	 8.650685861347156e+000
 8.942641982252435e-001	 3.124546614099404e+000	 8.656302336856451e+000
 8.254746445060665e-001	 2.884196874570822e+000	 8.506137501466524e+000
 7.974807741809102e-001	 2.892062311710120e+000	 8.406333106165555e+000
 7.694837330099383e-001	 2.899637009115428e+000	 8.317039693128429e+000
 7.414877333616482e-001	 2.906922073477396e+000	 8.238109520652460e+000
 7.134969437225321e-001	 2.913918686458521e+000	 8.169439386805927e+000
 6.855154872010134e-001	 2.920628103131091e+000	 8.110970109575971e+000
 6.575474400885766e-001	 2.927051650385220e+000	 8.062685910755514e+000
 6.295968304785277e-001	 2.933190725309184e+000	 8.024613707496688e+000
 6.016676369427263e-001	 2.939046793544276e+000	 8.012604649080156e+000
 5.737637872665523e-001	 2.944621387616329e+000	 8.016705994181582e+000
 5.458891572422751e-001	 2.949916105246086e+000	 8.032144077516549e+000
 8.323535998734841e-001	 2.908231848519181e+000	 8.476268663269106e+000
 8.041264472955336e-001	 2.916162830967627e+000	 8.387022007455226e+000
 7.758960974481322e-001	 2.923800650851029e+000	 8.307707842169355e+000
 7.476667978028480e-001	 2.931146424082454e+000	 8.238173031280407e+000
 7.194427515835596e-001	 2.938201342171590e+000	 8.178310520893543e+000
 6.912281162579268e-001	 2.944966670649659e+000	 8.128058802652275e+000
 6.630270020865294e-001	 2.951443747464190e+000	 8.087401277973312e+000
 6.348434707301163e-001	 2.957633981345863e+000	 8.056365527254567e+000
 6.066815339153127e-001	 2.963538850149649e+000	 8.049025113552817e+000
 5.785451521590419e-001	 2.969159899172426e+000	 8.058912044061701e+000
 5.504382335518416e-001	 2.974498739449277e+000	 8.076658313709519e+000
 8.392325552419019e-001	 2.932266822468538e+000	 8.456701764036380e+000
 8.107721204111463e-001	 2.940263350226134e+000	 8.378126980645282e+000
 7.823084618872848e-001	 2.947964292587630e+000	 8.308875807671873e+000
 7.538458622449544e-001	 2.955370774688512e+000	 8.248789476366458e+000
 7.253885594454220e-001	 2.962483997885658e+000	 8.197756885149994e+000
 6.969407453155831e-001	 2.969305238169226e+000	 8.155714045672882e+000
 6.685065640851128e-001	 2.975835844544160e+000	 8.122643426936612e+000
 6.400901109822036e-001	 2.982077237383543e+000	 8.098573201633164e+000
 6.116954308882457e-001	 2.988030906756020e+000	 8.095454313617340e+000
 5.833265170517071e-001	 2.993698410729522e+000	 8.112650865674995e+000
 5.549873098613937e-001	 2.999081373653468e+000	 8.134103366273013e+000
 8.461115106113193e-001	 2.956301796418897e+000	 8.447306755864160e+000
 8.174177935277489e-001	 2.964363869485642e+000	 8.379518183947662e+000
 7.887208263273956e-001	 2.972127934325231e+000	 8.320413762897289e+000
 7.600249266879682e-001	 2.979595125295572e+000	 8.269828851013513e+000
 7.313343673081195e-001	 2.986766653600728e+000	 8.227648101488505e+000
 7.026533743739820e-001	 2.993643805689794e+000	 8.193804890822031e+000
 6.739861260843266e-001	 3.000227941625130e+000	 8.168280642365804e+000
 6.453367512347894e-001	 3.006520493422221e+000	 8.151104049266474e+000
 6.167093278615257e-001	 3.012522963363392e+000	 8.151150950843661e+000
 5.881078819445480e-001	 3.018236922287617e+000	 8.177220654512080e+000
 5.595363861709308e-001	 3.023664007858659e+000	 8.203815573021990e+000
 8.529904659817370e-001	 2.980336770370254e+000	 8.447957942715169e+000
 8.240634666453410e-001	 2.988464388746150e+000	 8.391070261507533e+000
 7.951331907684651e-001	 2.996291576063831e+000	 8.342196497350088e+000
 7.662039911318883e-001	 3.003819475903631e+000	 8.301165893094520e+000
 7.372801751716516e-001	 3.011049309316797e+000	 8.267858657312218e+000
 7.083660034331238e-001	 3.017982373211361e+000	 8.242205374665218e+000
 6.794656880841709e-001	 3.024620038707099e+000	 8.224186308404905e+000
 6.505833914878735e-001	 3.030963749461901e+000	 8.213830599388798e+000
 6.217232248351524e-001	 3.037015019971764e+000	 8.215379044699690e+000
 5.928892468375647e-001	 3.042775433846714e+000	 8.251925027367582e+000
 5.640854624804536e-001	 3.048246642064849e+000	 8.285136792580120e+000
 8.598694213531549e-001	 3.004371744322613e+000	 8.458533806344738e+000
 8.307091397639229e-001	 3.012564908007657e+000	 8.412662163965583e+000
 8.015455552104932e-001	 3.020455217803432e+000	 8.374103232127851e+000
 7.723830555767156e-001	 3.028043826512689e+000	 8.342679893541826e+000
 7.432259830360187e-001	 3.035331965033866e+000	 8.318267710895116e+000
 7.140786324930083e-001	 3.042320940733928e+000	 8.300794318773560e+000
 6.849452500846459e-001	 3.049012135790069e+000	 8.290238704644343e+000
 6.558300317414565e-001	 3.055407005502580e+000	 8.286630383411508e+000
 6.267371218091262e-001	 3.061507076581135e+000	 8.290048470233538e+000
 5.976706117307571e-001	 3.067313945406810e+000	 8.336072805488103e+000
 5.686345387899615e-001	 3.072829276272041e+000	 8.377414183547586e+000
 8.667483767255724e-001	 3.028406718275971e+000	 8.478916840515364e+000
 8.373548128834940e-001	 3.036665427270165e+000	 8.444176977565466e+000
 8.079579196534796e-001	 3.044618859544032e+000	 8.416017444064517e+000
 7.785621200224497e-001	 3.052268177122747e+000	 8.394254515670088e+000
 7.491717909012210e-001	 3.059614620751936e+000	 8.378758906029265e+000
 7.197912615536355e-001	 3.066659508257494e+000	 8.369455139842787e+000
 6.904248120857510e-001	 3.073404232874039e+000	 8.366320811857516e+000
 6.610766719955377e-001	 3.079850261544259e+000	 8.369385736423428e+000
 6.317510187834466e-001	 3.085999133191507e+000	 8.378730992431507e+000
 6.024519766241253e-001	 3.091852456967906e+000	 8.428977808045987e+000
 5.731836150994546e-001	 3.097411910480231e+000	 8.479999994184258e+000
 8.736273320989901e-001	 3.052441692230329e+000	 8.508993393043344e+000
 8.440004860040550e-001	 3.060765946533674e+000	 8.485501761334724e+000
 8.143702840974244e-001	 3.068782501285632e+000	 8.467826698181710e+000
 7.847411844690907e-001	 3.076492527733806e+000	 8.455777623035257e+000
 7.551175987672576e-001	 3.083897276471005e+000	 8.449220195430399e+000
 7.255038906150052e-001	 3.090998075782062e+000	 8.448075668782849e+000
 6.959043740874871e-001	 3.097796329959009e+000	 8.452320126914687e+000
 6.663233122501175e-001	 3.104293517586938e+000	 8.461983608069847e+000
 6.367649157581141e-001	 3.110491189802879e+000	 8.477149121369823e+000
 6.072333415176692e-001	 3.116390968530002e+000	 8.529958655371138e+000
 5.777326914089334e-001	 3.121994544689422e+000	 8.592251362029675e+000
 8.805062874734078e-001	 3.076476666185687e+000	 8.548653515250171e+000
 8.506461591256057e-001	 3.084866465798181e+000	 8.536527391898190e+000
 8.207826485423281e-001	 3.092946143028234e+000	 8.529422487993909e+000
 7.909202489166389e-001	 3.100716878345866e+000	 8.527141115362744e+000
 7.610634066341295e-001	 3.108179932191074e+000	 8.529543672419916e+000
 7.312165196771178e-001	 3.115336643307629e+000	 8.536547978287638e+000
 7.013839360898535e-001	 3.122188427044979e+000	 8.548128486372857e+000
 6.715699525051959e-001	 3.128736773630617e+000	 8.521782337559989e+000
 6.417788127331282e-001	 3.134983246415251e+000	 8.473856732910369e+000
 6.120147064113888e-001	 3.140929480093098e+000	 8.464739693701118e+000
 5.822817677183971e-001	 3.146577178899613e+000	 8.487322312350077e+000
 8.873852428488256e-001	 3.100511640142046e+000	 8.597790818415634e+000
 8.572918322481457e-001	 3.108966985063688e+000	 8.597148415508590e+000
 8.271950129881900e-001	 3.117109784771833e+000	 8.600700083241282e+000
 7.970993133650935e-001	 3.124941228958923e+000	 8.608240772106592e+000
 7.670092145018362e-001	 3.132462587912144e+000	 8.530739750337959e+000
 7.369291487399730e-001	 3.139675210834197e+000	 8.462850401890188e+000
 7.068634980928505e-001	 3.146580524131949e+000	 8.405357976805204e+000
 6.768165927607727e-001	 3.153180029675295e+000	 8.358360628182940e+000
 6.467927097084893e-001	 3.159475303028622e+000	 8.321980154858411e+000
 6.167960713052839e-001	 3.165467991657194e+000	 8.316432192878743e+000
 5.868308440278466e-001	 3.171159813110805e+000	 8.361728052240794e+000
 8.942641982252435e-001	 3.124546614099404e+000	 8.656302336856451e+000
 8.639375053716756e-001	 3.133067504330197e+000	 8.567631301489694e+000
 8.336073774350107e-001	 3.141273426516435e+000	 8.483155881773794e+000
 8.032783778144554e-001	 3.149165579572984e+000	 8.408533190058426e+000
 7.729550223703781e-001	 3.156745243634213e+000	 8.343780393474887e+000
 7.426417778035712e-001	 3.164013778361765e+000	 8.288938853499602e+000
 7.123430600964783e-001	 3.170972621219919e+000	 8.244074322284694e+000
 6.820632330168482e-001	 3.177623285720976e+000	 8.209277065738792e+000
 6.518066066841973e-001	 3.183967359642995e+000	 8.184661914563872e+000
 6.215774361993552e-001	 3.190006503222291e+000	 8.179743479364381e+000
 5.913799203372813e-001	 3.195742447322996e+000	 8.247217313250163e+000
 5.458891572422751e-001	 2.949916105246086e+000	 8.032144077516549e+000
 5.180475695206517e-001	 2.954932607640603e+000	 7.965685340260740e+000
 4.902427925216797e-001	 2.959672617767659e+000	 7.913918617007372e+000
 4.624785394036054e-001	 2.964137918615402e+000	 7.875441087388272e+000
 4.347584670896679e-001	 2.968330351439360e+000	 7.849101241610220e+000
 4.070861753532341e-001	 2.972251813998719e+000	 7.833995915095283e+000
 3.794652059606912e-001	 2.975904258783907e+000	 7.829466848503420e+000
 3.518990418717324e-001	 2.979289691237467e+000	 7.835096794727464e+000
 3.243911064965986e-001	 2.982410167970137e+000	 7.850705195007237e+000
 2.969447630097788e-001	 2.985267794974027e+000	 7.876343446766556e+000
 2.695633137196015e-001	 2.987864725834731e+000	 7.912289786159714e+000
 5.504382335518416e-001	 2.974498739449277e+000	 8.076658313709519e+000
 5.223646325997995e-001	 2.979557046030643e+000	 8.006560722989960e+000
 4.943281491263213e-001	 2.984336556242365e+000	 7.949164787711161e+000
 4.663325272326394e-001	 2.988839067930820e+000	 7.902990661123289e+000
 4.383814543163543e-001	 2.993066437695334e+000	 7.866817637467369e+000
 4.104785601489451e-001	 2.997020579109751e+000	 7.839681134412133e+000
 3.826274160115203e-001	 3.000703460935255e+000	 7.820869186706601e+000
 3.548315338884377e-001	 3.004117105326406e+000	 7.809918473203216e+000
 3.270943657183583e-001	 3.007263586032367e+000	 7.806609899971007e+000
 2.994193027022258e-001	 3.010145026595180e+000	 7.810963762701831e+000
 2.718096746676061e-001	 3.012763598546989e+000	 7.823234511997218e+000
 5.549873098613937e-001	 2.999081373653468e+000	 8.134103366273013e+000
 5.266816956787482e-001	 3.004181484421681e+000	 8.061362809619277e+000
 4.984135057306106e-001	 3.009000494718050e+000	 7.999178330251602e+000
 4.701865150611986e-001	 3.013540217247192e+000	 7.945991919885560e+000
 4.420044415424739e-001	 3.017802523952225e+000	 7.900512749182584e+000
 4.138709449440282e-001	 3.021789344221656e+000	 7.861714095557277e+000
 3.857896260616895e-001	 3.025502663087416e+000	 7.828829767747965e+000
 3.577640259044813e-001	 3.028944519416094e+000	 7.801350049877937e+000
 3.297976249394838e-001	 3.032117004095269e+000	 7.779017188320352e+000
 3.018938423940954e-001	 3.035022258216922e+000	 7.761820445173025e+000
 2.740560356151188e-001	 3.037662471259737e+000	 7.749990742554201e+000
 5.595363861709308e-001	 3.023664007858659e+000	 8.203815573021990e+000
 5.309987587574980e-001	 3.028805922813711e+000	 8.129471394493796e+000
 5.024988623345476e-001	 3.033664433194716e+000	 8.063381723759379e+000
 4.740405028892831e-001	 3.038241366564517e+000	 8.003909227266970e+000
 4.456274287680271e-001	 3.042538610210033e+000	 7.949691997606144e+000
 4.172633297384827e-001	 3.046558109334431e+000	 7.899640424255864e+000
 3.889518361111988e-001	 3.050301865240394e+000	 7.852933546352881e+000
 3.606965179198633e-001	 3.053771933506531e+000	 7.809014910793365e+000
 3.325008841599752e-001	 3.056970422158846e+000	 7.767587959586090e+000
 3.043683820853876e-001	 3.059899489839250e+000	 7.728610970884134e+000
 2.763023965621398e-001	 3.062561343972977e+000	 7.692291578538256e+000
 5.640854624804536e-001	 3.048246642064849e+000	 8.285136792580120e+000
 5.353158218360488e-001	 3.053430361206738e+000	 8.210271672567185e+000
 5.065842189381322e-001	 3.058328371672358e+000	 8.141202703676997e+000
 4.778944907168928e-001	 3.062942515882795e+000	 8.076212035051904e+000
 4.492504159930136e-001	 3.067274696468759e+000	 8.013865700123686e+000
 4.206557145323091e-001	 3.071326874448076e+000	 7.953010427867151e+000
 3.921140461600485e-001	 3.075101067394186e+000	 7.892769921038389e+000
 3.636290099345835e-001	 3.078599347597715e+000	 7.832540625308910e+000
 3.352041433798325e-001	 3.081823840223093e+000	 7.771987013832001e+000
 3.068429217761025e-001	 3.084776721462165e+000	 7.711036412302786e+000
 2.785487575086692e-001	 3.087460216686710e+000	 7.649873390002266e+000
 5.686345387899615e-001	 3.072829276272041e+000	 8.377414183547586e+000
 5.396328849144008e-001	 3.078054799600758e+000	 8.303154023377129e+000
 5.106695755413646e-001	 3.082992310150981e+000	 8.232074051505645e+000
 4.817484785440276e-001	 3.087643665202025e+000	 8.162374679689465e+000
 4.528734032174335e-001	 3.092010782728402e+000	 8.092548874795039e+000
 4.240480993255072e-001	 3.096095639562592e+000	 8.021378908119331e+000
 3.952762562082381e-001	 3.099900269548792e+000	 7.947932556361167e+000
 3.665615019486421e-001	 3.103426761689649e+000	 7.871558778769208e+000
 3.379074025990557e-001	 3.106677258288014e+000	 7.791882895633695e+000
 3.093174614662401e-001	 3.109653953085667e+000	 7.708801293830525e+000
 2.807951184547069e-001	 3.112359089400934e+000	 7.622475685570686e+000
 5.731836150994546e-001	 3.097411910480231e+000	 8.479999994184258e+000
 5.439499479925536e-001	 3.102679237995774e+000	 8.407513805308014e+000
 5.147549321442447e-001	 3.107656248630582e+000	 8.335433394565522e+000
 4.856024663706881e-001	 3.112344814522210e+000	 8.261876188457558e+000
 4.564963904412866e-001	 3.116746868988962e+000	 8.185261053819421e+000
 4.274404841180771e-001	 3.120864404677979e+000	 8.104304982761459e+000
 3.984384662557681e-001	 3.124699471704212e+000	 8.018019213630216e+000
 3.694939939620390e-001	 3.128254175782331e+000	 7.920088889805483e+000
 3.406106618176448e-001	 3.131530676353608e+000	 7.828827491412336e+000
 3.117920011558003e-001	 3.134531184709755e+000	 7.745316900272811e+000
 2.830414794002528e-001	 3.137257962115649e+000	 7.669543507902522e+000
 5.777326914089334e-001	 3.121994544689422e+000	 8.592251362029675e+000
 5.482670110705072e-001	 3.127303676391783e+000	 8.500004910612399e+000
 5.188402887467726e-001	 3.132320187111164e+000	 8.384636352565698e+000
 4.894564541968736e-001	 3.137045963843347e+000	 8.277960759554050e+000
 4.601193776645732e-001	 3.141482955250438e+000	 8.180128448712061e+000
 4.308328689100188e-001	 3.145633169794237e+000	 8.091261886342211e+000
 4.016006763026381e-001	 3.149498673860448e+000	 8.011455212951288e+000
 3.724264859747741e-001	 3.153081589875761e+000	 7.940773848087465e+000
 3.433139210355998e-001	 3.156384094419873e+000	 7.879254174044006e+000
 3.142665408447832e-001	 3.159408416334431e+000	 7.826903297293608e+000
 2.852878403453070e-001	 3.162156834830856e+000	 7.783698886328316e+000
 5.822817677183971e-001	 3.146577178899613e+000	 8.487322312350077e+000
 5.525840741482619e-001	 3.151928114788789e+000	 8.382411294155260e+000
 5.229256453489481e-001	 3.156984125592723e+000	 8.287421416891041e+000
 4.933104420225845e-001	 3.161747113165439e+000	 8.202534910130606e+000
 4.637423648872932e-001	 3.166219041512833e+000	 8.127904900083275e+000
 4.342252537013323e-001	 3.170401934911366e+000	 8.063654864198146e+000
 4.047628863488483e-001	 3.174297876017498e+000	 8.009878169076067e+000
 3.753589779868476e-001	 3.177909003969940e+000	 7.966637690889817e+000
 3.460171802529206e-001	 3.181237512486810e+000	 7.933965517296212e+000
 3.167410805331888e-001	 3.184285647959694e+000	 7.911862729621658e+000
 2.875342012898696e-001	 3.187055707546556e+000	 7.900299263904524e+000
 5.868308440278466e-001	 3.171159813110805e+000	 8.361728052240794e+000
 5.569011372258178e-001	 3.176552553186789e+000	 8.275035876833396e+000
 5.270110019507714e-001	 3.181648064075263e+000	 8.199646641548211e+000
 4.971644298478207e-001	 3.186448262488483e+000	 8.135748262636465e+000
 4.673653521094464e-001	 3.190955127776142e+000	 8.083497736667004e+000
 4.376176384920174e-001	 3.195170700029366e+000	 8.043020604089358e+000
 4.079250963943987e-001	 3.199097078175363e+000	 8.014410498938098e+000
 3.782914699982594e-001	 3.202736418064867e+000	 7.997728783801917e+000
 3.487204394696075e-001	 3.206090930554422e+000	 7.993004268963174e+000
 3.192156202210170e-001	 3.209162879585543e+000	 8.000233014401443e+000
 2.897805622339404e-001	 3.211954580262747e+000	 8.019378213157077e+000
 5.913799203372813e-001	 3.195742447322996e+000	 8.247217313250163e+000
 5.612182003031748e-001	 3.201176991585784e+000	 8.177979415159202e+000
 5.310963585522425e-001	 3.206312002558782e+000	 8.121402930552142e+000
 5.010184176725820e-001	 3.211149411812480e+000	 8.077682534236772e+000
 4.709883393310333e-001	 3.215691214040371e+000	 8.046980156259414e+000
 4.410100232820745e-001	 3.219939465148238e+000	 8.029424453298438e+000
 4.110873064392894e-001	 3.223896280334043e+000	 8.025110369081418e+000
 3.812239620090096e-001	 3.227563832160543e+000	 8.034098782874535e+000
 3.514236986856603e-001	 3.230944348622705e+000	 8.056416244871402e+000
 3.216901599082681e-001	 3.234040111211980e+000	 8.092054797087842e+000
 2.920269231775196e-001	 3.236853452979430e+000	 8.140971878171971e+000
 2.695633137196015e-001	 2.987864725834731e+000	 7.912289786159714e+000
 2.422499994928616e-001	 2.990203159944074e+000	 7.936668488589629e+000
 2.150079992345209e-001	 2.992285340715546e+000	 7.962611224651307e+000
 1.878404294212762e-001	 2.994113553803930e+000	 7.991144308923976e+000
 1.607503436877064e-001	 2.995690125330548e+000	 8.023503152430639e+000
 1.337407324649111e-001	 2.997017420116061e+000	 8.061125337218805e+000
 1.068145226705129e-001	 2.998097839922249e+000	 8.105643445997048e+000
 7.997457744910182e-002	 2.998933821704276e+000	 8.158877670594713e+000
 5.322369596216169e-002	 2.999527835874867e+000	 8.222828222780771e+000
 2.656461322647888e-002	 2.999882384581793e+000	 8.299667570679997e+000
 0.000000000000000e+000	 3.000000000000000e+000	 8.391732523671351e+000
 2.718096746676061e-001	 3.012763598546989e+000	 7.823234511997218e+000
 2.442687494886068e-001	 3.015121519607826e+000	 7.821226312660335e+000
 2.167997325611536e-001	 3.017221051886249e+000	 7.818586141958617e+000
 1.894057663325812e-001	 3.019064500084159e+000	 7.816330890103006e+000
 1.620899298844227e-001	 3.020654209707224e+000	 7.815693278614448e+000
 1.348552385680364e-001	 3.021992565282949e+000	 7.818114773928208e+000
 1.077046436920239e-001	 3.023081988587792e+000	 7.825238247857647e+000
 8.064103226051297e-002	 3.023924936884880e+000	 7.838900409316083e+000
 5.366722676133227e-002	 3.024523901173706e+000	 7.861124031462916e+000
 2.678598500307392e-002	 3.024881404453279e+000	 7.894109998134514e+000
 0.000000000000000e+000	 3.025000000000000e+000	 7.940229193064156e+000
 2.740560356151188e-001	 3.037662471259737e+000	 7.749990742554201e+000
 2.462874994839552e-001	 3.040039879271976e+000	 7.720866213112534e+000
 2.185914658874736e-001	 3.042156763057263e+000	 7.688752980070815e+000
 1.909711032436476e-001	 3.044015446364626e+000	 7.654659398316854e+000
 1.634295160809645e-001	 3.045618294084077e+000	 7.619816561119249e+000
 1.359697446710408e-001	 3.046967710449958e+000	 7.585671047981739e+000
 1.085947647134578e-001	 3.048066137253413e+000	 7.553877411010254e+000
 8.130748707188092e-002	 3.048916052065525e+000	 7.526290424837907e+000
 5.411075756048370e-002	 3.049519966472564e+000	 7.504957124916332e+000
 2.700735677966420e-002	 3.049880424324769e+000	 7.492108658670754e+000
 0.000000000000000e+000	 3.050000000000000e+000	 7.490151973654162e+000
 2.763023965621398e-001	 3.062561343972977e+000	 7.692291578538256e+000
 2.483062494789065e-001	 3.064958238936522e+000	 7.635359516096057e+000
 2.203831992134811e-001	 3.067092474228589e+000	 7.572920385293643e+000
 1.925364401544756e-001	 3.068966392645331e+000	 7.505974880483988e+000
 1.647691022773316e-001	 3.070582378461105e+000	 7.435753515216164e+000
 1.370842507739243e-001	 3.071942855617088e+000	 7.363709199540805e+000
 1.094848857348147e-001	 3.073050285919111e+000	 7.291509547329538e+000
 8.197394188320564e-002	 3.073907167246213e+000	 7.221028939316534e+000
 5.455428835961600e-002	 3.074516031771442e+000	 7.154340367321585e+000
 2.722872855624972e-002	 3.074879444196264e+000	 7.093707084808196e+000
 0.000000000000000e+000	 3.075000000000000e+000	 7.041574088552457e+000
 2.785487575086692e-001	 3.087460216686710e+000	 7.649873390002266e+000
 2.503249994734609e-001	 3.089876598601465e+000	 7.564480354222293e+000
 2.221749325391760e-001	 3.092028185400229e+000	 7.470899324074084e+000
 1.941017770650650e-001	 3.093917338926276e+000	 7.370124194331979e+000
 1.661086884735241e-001	 3.095546462838306e+000	 7.263385935071825e+000
 1.381987568766870e-001	 3.096918000784339e+000	 7.152144993602931e+000
 1.103750067560945e-001	 3.098034434584886e+000	 7.038083417763940e+000
 8.264039669448718e-002	 3.098898282426946e+000	 6.923096726961345e+000
 5.499781915872918e-002	 3.099512097070338e+000	 6.809285557084200e+000
 2.745010033283046e-002	 3.099878464067764e+000	 6.698947105109451e+000
 0.000000000000000e+000	 3.100000000000000e+000	 6.594566398834204e+000
 2.807951184547069e-001	 3.112359089400934e+000	 7.622475685570686e+000
 2.523437494676183e-001	 3.114794958266807e+000	 7.508005554305589e+000
 2.239666658645582e-001	 3.116963896572182e+000	 7.382502990194789e+000
 1.956671139754160e-001	 3.118868285207458e+000	 7.246955935965019e+000
 1.674482746695419e-001	 3.120510547215681e+000	 7.102596842591973e+000
 1.393132629793288e-001	 3.121893145951712e+000	 6.950894891008954e+000
 1.112651277772972e-001	 3.123018583250737e+000	 6.793547926372598e+000
 8.330685150572555e-002	 3.123889397607721e+000	 6.632474131952896e+000
 5.544134995782322e-002	 3.124508162369254e+000	 6.469803469465241e+000
 2.767147210940645e-002	 3.124877483939268e+000	 6.307868912337711e+000
 0.000000000000000e+000	 3.125000000000000e+000	 6.149197498020420e+000
 2.830414794002528e-001	 3.137257962115649e+000	 7.669543507902522e+000
 2.543624994613788e-001	 3.139713317932543e+000	 7.575143693958661e+000
 2.257583991896280e-001	 3.141899607744446e+000	 7.479693807909674e+000
 1.972324508855284e-001	 3.143819231488879e+000	 7.383159031553727e+000
 1.687878608653852e-001	 3.145474631593232e+000	 7.285482843981847e+000
 1.404277690818498e-001	 3.146868291119204e+000	 7.186586982421481e+000
 1.121552487984228e-001	 3.148002731916665e+000	 7.086371464532437e+000
 8.397330631692068e-002	 3.148880512788540e+000	 6.984714670261078e+000
 5.588488075689813e-002	 3.149504227668188e+000	 6.881473481253360e+000
 2.789284388597766e-002	 3.149876503810777e+000	 6.776483475728396e+000
 0.000000000000000e+000	 3.150000000000000e+000	 6.669559176632044e+000
 2.852878403453070e-001	 3.162156834830856e+000	 7.783698886328316e+000
 2.563812494547424e-001	 3.164631677598678e+000	 7.722136548732081e+000
 2.275501325143851e-001	 3.166835318917024e+000	 7.661114550944688e+000
 1.987977877954024e-001	 3.168770177770539e+000	 7.600578170701200e+000
 1.701274470610538e-001	 3.170438715970958e+000	 7.540449403184151e+000
 1.415422751842500e-001	 3.171843436286817e+000	 7.480626962110038e+000
 1.130453698194714e-001	 3.172986880582671e+000	 7.420986343922581e+000
 8.463976112807262e-002	 3.173871627969401e+000	 7.361379953088307e+000
 5.632841155595392e-002	 3.174500292967143e+000	 7.301637286382141e+000
 2.811421566254412e-002	 3.174875523682292e+000	 7.241565173955130e+000
 0.000000000000000e+000	 3.175000000000000e+000	 7.180948074887813e+000
 2.875342012898696e-001	 3.187055707546556e+000	 7.900299263904524e+000
 2.583999994477090e-001	 3.189550037265209e+000	 7.870504348508355e+000
 2.293418658388295e-001	 3.191771030089913e+000	 7.842822988274810e+000
 2.003631247050377e-001	 3.193721124052437e+000	 7.817181578512817e+000
 1.714670332565477e-001	 3.195402800348858e+000	 7.793481635423707e+000
 1.426567812865293e-001	 3.196818581454552e+000	 7.771599836729007e+000
 1.139354908404429e-001	 3.197971029248754e+000	 7.751388127110511e+000
 8.530621593918136e-002	 3.198862743150305e+000	 7.732673886345604e+000
 5.677194235499056e-002	 3.199496358266115e+000	 7.715260157914154e+000
 2.833558743910580e-002	 3.199874543553811e+000	 7.698925935755501e+000
 0.000000000000000e+000	 3.199999999999999e+000	 7.683426506767237e+000
 2.897805622339404e-001	 3.211954580262747e+000	 8.019378213157077e+000
 2.604187494402786e-001	 3.214468396932137e+000	 8.020280049468939e+000
 2.311335991629615e-001	 3.216706741263115e+000	 8.024852205546253e+000
 2.019284616144346e-001	 3.218672070334573e+000	 8.033003211711522e+000
 1.728066194518671e-001	 3.220366884726932e+000	 8.044615105497408e+000
 1.437712873886877e-001	 3.221793726622407e+000	 8.059543511125375e+000
 1.148256118613374e-001	 3.222955177914914e+000	 8.077617785550331e+000
 8.597267075024691e-002	 3.223853858331254e+000	 8.098641228845755e+000
 5.721547315400807e-002	 3.224492423565108e+000	 8.122391356590324e+000
 2.855695921566272e-002	 3.224873563425334e+000	 8.148620231821189e+000
 0.000000000000000e+000	 3.224999999999999e+000	 8.177054854033363e+000
 2.920269231775196e-001	 3.236853452979430e+000	 8.140971878171971e+000
 2.624374994324514e-001	 3.239386756599464e+000	 8.171498815266180e+000
 2.329253324867810e-001	 3.241642452436632e+000	 8.207237113352713e+000
 2.034937985235931e-001	 3.243623016616949e+000	 8.248078451343373e+000
 1.741462056470118e-001	 3.245330969105183e+000	 8.293886384139746e+000
 1.448857934907254e-001	 3.246768871790384e+000	 8.344496460278888e+000
 1.157157328821547e-001	 3.247939326581152e+000	 8.399716407952688e+000
 8.663912556126928e-002	 3.248844973512246e+000	 8.459326387061186e+000
 5.765900395300648e-002	 3.249488488864120e+000	 8.523079304847606e+000
 2.877833099221489e-002	 3.249872583296864e+000	 8.590701192566611e+000
 0.000000000000000e+000	 3.250000000000000e+000	 8.661891640548879e+000
 3.250000000000000e+000	 0.000000000000000e+000	 1.054179110325447e+001
 3.249872583296864e+000	 2.877833099221397e-002	 1.059064860113598e+001
 3.249488488864120e+000	 5.765900395300565e-002	 1.063558282206271e+001
 3.248844973512246e+000	 8.663912556126854e-002	 1.067602284292520e+001
 3.247939326581152e+000	 1.157157328821541e-001	 1.071142899832787e+001
 3.246768871790384e+000	 1.448857934907248e-001	 1.074129381044350e+001
 3.245330969105183e+000	 1.741462056470114e-001	 1.076514286057059e+001
 3.243623016616949e+000	 2.034937985235927e-001	 1.078253559865316e+001
 3.241642452436632e+000	 2.329253324867807e-001	 1.079306608707589e+001
 3.239386756599464e+000	 2.624374994324513e-001	 1.079636367511417e+001
 3.236853452979430e+000	 2.920269231775197e-001	 1.079209360049996e+001
 3.275000000000000e+000	 0.000000000000000e+000	 1.057629321574183e+001
 3.274871603168394e+000	 2.899970276876611e-002	 1.061861887594579e+001
 3.274484554163141e+000	 5.810253475200403e-002	 1.065701311361796e+001
 3.273836088693259e+000	 8.730558037229089e-002	 1.069095173616847e+001
 3.272923475247428e+000	 1.166058539029714e-001	 1.071994350631678e+001
 3.271744016958421e+000	 1.460002995927624e-001	 1.074353105794220e+001
 3.270295053483519e+000	 1.754857918421561e-001	 1.076129175023720e+001
 3.268573962899444e+000	 2.050591354327511e-001	 1.077283845633221e+001
 3.266578163610303e+000	 2.347170658106001e-001	 1.077782028261729e+001
 3.264305116266987e+000	 2.644562494246239e-001	 1.077592321505931e+001
 3.261752325696358e+000	 2.942732841210988e-001	 1.076687068889970e+001
 3.300000000000000e+000	 0.000000000000000e+000	 1.060626874753319e+001
 3.299870623039924e+000	 2.922107454532303e-002	 1.064300611329851e+001
 3.299480619462162e+000	 5.854606555102154e-002	 1.067577760721859e+001
 3.298827203874272e+000	 8.797203518335642e-002	 1.070410548440018e+001
 3.297907623913703e+000	 1.174959749238659e-001	 1.072754667769731e+001
 3.296719162126458e+000	 1.471148056949209e-001	 1.074569370015652e+001
 3.295259137861856e+000	 1.768253780374754e-001	 1.075817548233447e+001
 3.293524909181938e+000	 2.066244723421480e-001	 1.076465814056301e+001
 3.291513874783975e+000	 2.365087991347320e-001	 1.076484567229858e+001
 3.289223475934511e+000	 2.664749994171936e-001	 1.075848057477096e+001
 3.286651198413287e+000	 2.965196450651695e-001	 1.074534438323904e+001
 3.324999999999999e+000	 0.000000000000000e+000	 1.063191217197073e+001
 3.324869642911456e+000	 2.944244632188471e-002	 1.066396700598959e+001
 3.324476684761182e+000	 5.898959635005818e-002	 1.069199510461863e+001
 3.323818319055285e+000	 8.863848999446515e-002	 1.071556490358788e+001
 3.322891772579978e+000	 1.183860959448374e-001	 1.073428126408680e+001
 3.321694307294494e+000	 1.482293117972001e-001	 1.074778636239840e+001
 3.320223222240192e+000	 1.781649642329694e-001	 1.075576051094447e+001
 3.318475855464432e+000	 2.081898092517834e-001	 1.075792290672077e+001
 3.316449585957646e+000	 2.383005324591765e-001	 1.075403230316855e+001
 3.314141835602035e+000	 2.684937494101601e-001	 1.074388760161223e+001
 3.311550071130215e+000	 2.987660060097320e-001	 1.072732835849149e+001
 3.350000000000000e+000	 0.000000000000000e+000	 1.065341215722220e+001
 3.349868662782986e+000	 2.966381809845116e-002	 1.068165325242415e+001
 3.349472750060204e+000	 5.943312714911397e-002	 1.070578021968208e+001
 3.348809434236297e+000	 8.930494480561710e-002	 1.072540742367506e+001
 3.347875921246254e+000	 1.192762169658859e-001	 1.074018742795587e+001
 3.346669452462531e+000	 1.493438178996003e-001	 1.074981187236460e+001
 3.345187306618529e+000	 1.795045504286380e-001	 1.075401227835975e+001
 3.343426801746927e+000	 2.097551461616573e-001	 1.075256077814776e+001
 3.341385297131318e+000	 2.400922657839337e-001	 1.074527076356510e+001
 3.339060195269559e+000	 2.705124994035237e-001	 1.073199745075529e+001
 3.336448943847143e+000	 3.010123669547863e-001	 1.071263835678759e+001
 3.375000000000000e+000	 0.000000000000000e+000	 1.067095178128749e+001
 3.374867682654517e+000	 2.988518987502237e-002	 1.069621174159432e+001
 3.374468815359225e+000	 5.987665794818887e-002	 1.071724353348999e+001
 3.373800549417310e+000	 8.997139961681223e-002	 1.073370721398941e+001
 3.372860069912531e+000	 1.201663379870116e-001	 1.074530283852280e+001
 3.371644597630567e+000	 1.504583240021213e-001	 1.075177132671520e+001
 3.370151390996865e+000	 1.808441366244812e-001	 1.075289525255703e+001
 3.368377748029421e+000	 2.113204830717697e-001	 1.074849955474712e+001
 3.366321008304989e+000	 2.418839991090034e-001	 1.073845216306766e+001
 3.363978554937082e+000	 2.725312493972842e-001	 1.072266453674401e+001
 3.361347816564072e+000	 3.032587279003323e-001	 1.070109211085336e+001
 3.400000000000000e+000	 0.000000000000000e+000	 1.068470873751940e+001
 3.399866702526047e+000	 3.010656165159834e-002	 1.070778472989604e+001
 3.399464880658245e+000	 6.032018874728289e-002	 1.072649174260452e+001
 3.398791664598323e+000	 9.063785442805056e-002	 1.074053530311840e+001
 3.397844218578805e+000	 1.210564590082143e-001	 1.074966276341719e+001
 3.396619742798603e+000	 1.515728301047631e-001	 1.075366415471452e+001
 3.395115475375202e+000	 1.821837228204991e-001	 1.075237296301760e+001
 3.393328694311914e+000	 2.128858199821206e-001	 1.074566682119755e+001
 3.391256719478661e+000	 2.436757324343856e-001	 1.073346811333374e+001
 3.388896914604605e+000	 2.745499993914417e-001	 1.071574448719354e+001
 3.386246689281000e+000	 3.055050888463699e-001	 1.069250927082673e+001
 3.425000000000000e+000	 0.000000000000000e+000	 1.069485553114367e+001
 3.424865722397579e+000	 3.032793342817908e-002	 1.071651001020181e+001
 3.424460945957267e+000	 6.076371954639608e-002	 1.073362780083974e+001
 3.423782779779336e+000	 9.130430923933212e-002	 1.074595969353485e+001
 3.422828367245081e+000	 1.219465800294941e-001	 1.075330015632912e+001
 3.421594887966640e+000	 1.526873362075258e-001	 1.075548817908504e+001
 3.420079559753539e+000	 1.835233090166916e-001	 1.075240803497904e+001
 3.418279640594410e+000	 2.144511568927102e-001	 1.074398995480824e+001
 3.416192430652332e+000	 2.454674657600805e-001	 1.073021070977501e+001
 3.413815274272130e+000	 2.765687493859961e-001	 1.071109409851766e+001
 3.411145561997928e+000	 3.077514497928993e-001	 1.068671133427900e+001
 3.449999999999999e+000	 0.000000000000000e+000	 1.070155966723455e+001
 3.449864742269110e+000	 3.054930520476459e-002	 1.072252107358252e+001
 3.449457011256287e+000	 6.120725034552838e-002	 1.073875105486834e+001
 3.448773894960349e+000	 9.197076405065684e-002	 1.075004547123879e+001
 3.447812515911356e+000	 1.228367010508509e-001	 1.075624574084766e+001
 3.446570033134677e+000	 1.538018423104094e-001	 1.075723967421543e+001
 3.445043644131875e+000	 1.848628952130587e-001	 1.075296222219758e+001
 3.443230586876903e+000	 2.160164938035381e-001	 1.074339613303215e+001
 3.441128141826003e+000	 2.472591990860880e-001	 1.072857251402996e+001
 3.438733633939653e+000	 2.785874993809474e-001	 1.070857129358092e+001
 3.436044434714856e+000	 3.099978107399203e-001	 1.068352157927884e+001
 3.474999999999999e+000	 0.000000000000000e+000	 1.070498383057642e+001
 3.474863762140640e+000	 3.077067698135486e-002	 1.072594726404867e+001
 3.474453076555308e+000	 6.165078114467980e-002	 1.074195737397508e+001
 3.473765010141362e+000	 9.263721886202479e-002	 1.075285491066646e+001
 3.472796664577632e+000	 1.237268220722849e-001	 1.075852809068018e+001
 3.471545178302713e+000	 1.549163484134138e-001	 1.075891342185600e+001
 3.470007728510212e+000	 1.862024814096004e-001	 1.075399643829646e+001
 3.468181533159398e+000	 2.175818307146046e-001	 1.074381234065523e+001
 3.466063852999675e+000	 2.490509324124080e-001	 1.072844653719313e+001
 3.463651993607177e+000	 2.806062493762957e-001	 1.070803508117891e+001
 3.460943307431786e+000	 3.122441716874331e-001	 1.068276500034564e+001
 3.500000000000000e+000	 0.000000000000000e+000	 1.070528605781694e+001
 3.499862782012172e+000	 3.099204875794991e-002	 1.072691392665953e+001
 3.499449141854330e+000	 6.209431194385037e-002	 1.074333927424903e+001
 3.498756125322376e+000	 9.330367367343595e-002	 1.075444757510340e+001
 3.497780813243908e+000	 1.246169430937959e-001	 1.076017370643399e+001
 3.496520323470751e+000	 1.560308545165391e-001	 1.076050276442718e+001
 3.494971812888549e+000	 1.875420676063169e-001	 1.075547078677060e+001
 3.493132479441893e+000	 2.191471676259096e-001	 1.074516537667728e+001
 3.490999564173347e+000	 2.508426657390407e-001	 1.072972622376311e+001
 3.488570353274701e+000	 2.826249993720411e-001	 1.070934551725495e+001
 3.485842180148715e+000	 3.144905326354376e-001	 1.068426824714764e+001
 3.236853452979430e+000	 2.920269231775197e-001	 1.079209360049996e+001
 3.234040111211981e+000	 3.216901599082671e-001	 1.083529615877458e+001
 3.230944348622705e+000	 3.514236986856595e-001	 1.087148750424795e+001
 3.227563832160544e+000	 3.812239620090089e-001	 1.090047199290591e+001
 3.223896280334044e+000	 4.110873064392889e-001	 1.092209117659020e+001
 3.219939465148238e+000	 4.410100232820741e-001	 1.093622395440807e+001
 3.215691214040371e+000	 4.709883393310330e-001	 1.094278663201733e+001
 3.211149411812481e+000	 5.010184176725819e-001	 1.094173288627827e+001
 3.206312002558782e+000	 5.310963585522426e-001	 1.093305363296868e+001
 3.201176991585784e+000	 5.612182003031750e-001	 1.091677679547714e+001
 3.195742447322996e+000	 5.913799203372813e-001	 1.089296697262320e+001
 3.261752325696358e+000	 2.942732841210988e-001	 1.076687068889970e+001
 3.258917342838710e+000	 3.241646995955180e-001	 1.080640503671730e+001
 3.255797766691325e+000	 3.541269579017121e-001	 1.083950280462356e+001
 3.252391246256593e+000	 3.841564540197591e-001	 1.086601960559475e+001
 3.248695482493130e+000	 4.142495164841795e-001	 1.088584938701595e+001
 3.244708230267543e+000	 4.444024080721311e-001	 1.089892453620545e+001
 3.240427300305058e+000	 4.746113265526197e-001	 1.090521589021177e+001
 3.235850561136954e+000	 5.048724054973431e-001	 1.090473264735610e+001
 3.230975941042790e+000	 5.351817151537136e-001	 1.089752217820492e+001
 3.225801429985276e+000	 5.655352633805316e-001	 1.088366973388694e+001
 3.220325081535687e+000	 5.959289966467158e-001	 1.086329804991043e+001
 3.286651198413287e+000	 2.965196450651695e-001	 1.074534438323904e+001
 3.283794574465441e+000	 3.266392392833462e-001	 1.078153105281829e+001
 3.280651184759944e+000	 3.568302171183990e-001	 1.081182602044548e+001
 3.277218660352643e+000	 3.870889460311707e-001	 1.083613626716730e+001
 3.273494684652216e+000	 4.174117265297299e-001	 1.085440827902443e+001
 3.269476995386850e+000	 4.477947928628164e-001	 1.086662810685135e+001
 3.265163386569744e+000	 4.782343137747729e-001	 1.087282132669379e+001
 3.260551710461429e+000	 5.087263933225794e-001	 1.087305289829533e+001
 3.255639879526797e+000	 5.392670717555369e-001	 1.086742691932634e+001
 3.250425868384768e+000	 5.698523264580874e-001	 1.085608627326579e+001
 3.244907715748377e+000	 6.004780729561651e-001	 1.083921216909927e+001
 3.311550071130215e+000	 2.987660060097320e-001	 1.072732835849149e+001
 3.308671806092171e+000	 3.291137789717518e-001	 1.076045765852477e+001
 3.305504602828564e+000	 3.595334763357199e-001	 1.078821048612290e+001
 3.302046074448694e+000	 3.900214380432443e-001	 1.081054531850212e+001
 3.298293886811302e+000	 4.205739365759400e-001	 1.082746134078190e+001
 3.294245760506156e+000	 4.511871776541297e-001	 1.083899846021044e+001
 3.289899472834430e+000	 4.818573009974930e-001	 1.084523721729903e+001
 3.285252859785901e+000	 5.125803811482902e-001	 1.084629859129468e+001
 3.280303818010806e+000	 5.433524283577126e-001	 1.084234369765071e+001
 3.275050306784260e+000	 5.741693895358422e-001	 1.083357337540141e+001
 3.269490349961068e+000	 6.050271492656288e-001	 1.082022766260963e+001
 3.336448943847143e+000	 3.010123669547863e-001	 1.071263835678759e+001
 3.333549037718900e+000	 3.315883186607346e-001	 1.074297088834886e+001
 3.330358020897182e+000	 3.622367355536747e-001	 1.076841262590532e+001
 3.326873488544744e+000	 3.929539300559795e-001	 1.078897368766891e+001
 3.323093088970389e+000	 4.237361466228102e-001	 1.080470613528131e+001
 3.319014525625461e+000	 4.545795624460712e-001	 1.081570394260441e+001
 3.314635559099118e+000	 4.854802882207796e-001	 1.082210285765706e+001
 3.309954009110376e+000	 5.164343689744758e-001	 1.082408015510342e+001
 3.304967756494813e+000	 5.474377849602403e-001	 1.082185427693803e+001
 3.299674745183751e+000	 5.784864526137961e-001	 1.081568435926779e+001
 3.294072984173759e+000	 6.095762255751076e-001	 1.080586964336404e+001
 3.361347816564072e+000	 3.032587279003323e-001	 1.070109211085336e+001
 3.358426269345630e+000	 3.340628583502949e-001	 1.072885926419850e+001
 3.355211438965803e+000	 3.649399947722640e-001	 1.075219183944385e+001
 3.351700902640793e+000	 3.958864220693763e-001	 1.077115175706952e+001
 3.347892291129476e+000	 4.268983566703400e-001	 1.078584414942274e+001
 3.343783290744768e+000	 4.579719472386414e-001	 1.079641728420253e+001
 3.339371645363804e+000	 4.891032754446327e-001	 1.080306237727309e+001
 3.334655158434851e+000	 5.202883568011359e-001	 1.080601329218620e+001
 3.329631694978821e+000	 5.515231415631205e-001	 1.080554612404079e+001
 3.324299183583243e+000	 5.828035156919488e-001	 1.080197866557387e+001
 3.318655618386451e+000	 6.141253018846009e-001	 1.079566975365797e+001
 3.386246689281000e+000	 3.055050888463699e-001	 1.069250927082673e+001
 3.383303500972360e+000	 3.365373980404324e-001	 1.071791370392912e+001
 3.380064857034422e+000	 3.676432539914872e-001	 1.073931039240164e+001
 3.376528316736843e+000	 3.988189140834349e-001	 1.075681323644057e+001
 3.372691493288563e+000	 4.300605667185297e-001	 1.077058064975217e+001
 3.368552055864074e+000	 4.613643320318394e-001	 1.078081543785066e+001
 3.364107731628490e+000	 4.927262626690526e-001	 1.078776456181193e+001
 3.359356307759325e+000	 5.241423446282710e-001	 1.079171878483641e+001
 3.354295633462829e+000	 5.556084981663528e-001	 1.079301219923152e+001
 3.348923621982736e+000	 5.871205787703008e-001	 1.079202163169972e+001
 3.343238252599141e+000	 6.186743781941089e-001	 1.078916592510917e+001
 3.411145561997928e+000	 3.077514497928993e-001	 1.068671133427900e+001
 3.408180732599090e+000	 3.390119377311472e-001	 1.070992743390019e+001
 3.404918275103042e+000	 3.703465132113444e-001	 1.072953331185476e+001
 3.401355730832893e+000	 4.017514060981552e-001	 1.074569504141779e+001
 3.397490695447649e+000	 4.332227767673794e-001	 1.075862454451814e+001
 3.393320820983380e+000	 4.647567168256658e-001	 1.076857942495909e+001
 3.388843817893177e+000	 4.963492498940390e-001	 1.077586268316519e+001
 3.384057457083798e+000	 5.279963324558807e-001	 1.078082230978104e+001
 3.378959571946838e+000	 5.596938547699375e-001	 1.078385075571290e+001
 3.373548060382228e+000	 5.914376418488514e-001	 1.078538427648959e+001
 3.367820886811832e+000	 6.232234545036315e-001	 1.078590214912059e+001
 3.436044434714856e+000	 3.099978107399203e-001	 1.068352157927884e+001
 3.433057964225819e+000	 3.414864774224395e-001	 1.070469590533389e+001
 3.429771693171661e+000	 3.730497724318359e-001	 1.072262828624109e+001
 3.426183144928944e+000	 4.046838981135371e-001	 1.073753717738024e+001
 3.422289897606737e+000	 4.363849868168886e-001	 1.074968825172608e+001
 3.418089586102686e+000	 4.681491016201205e-001	 1.075939418809068e+001
 3.413579904157863e+000	 4.999722371195921e-001	 1.076701433690671e+001
 3.408758606408273e+000	 5.318503202839653e-001	 1.077295426084602e+001
 3.403623510430845e+000	 5.637792113738744e-001	 1.077766514784496e+001
 3.398172498781719e+000	 5.957547049276012e-001	 1.078164309440171e+001
 3.392403521024523e+000	 6.277725308131688e-001	 1.077307823526730e+001
 3.460943307431786e+000	 3.122441716874331e-001	 1.068276500034564e+001
 3.457935195852550e+000	 3.439610171143091e-001	 1.070201671428404e+001
 3.454625111240281e+000	 3.757530316529613e-001	 1.071836556962779e+001
 3.451010559024994e+000	 4.076163901295807e-001	 1.073208262830851e+001
 3.447089099765823e+000	 4.395471968670579e-001	 1.074348757288788e+001
 3.442858351221992e+000	 4.715414864152033e-001	 1.075294844991228e+001
 3.438315990422550e+000	 5.035952243457118e-001	 1.076088128676459e+001
 3.433459755732746e+000	 5.357043081125245e-001	 1.076774957927646e+001
 3.428287448914853e+000	 5.678645679781638e-001	 1.077406364765024e+001
 3.422796937181212e+000	 6.000717680065502e-001	 1.078037985854377e+001
 3.416986155237214e+000	 6.323216071227208e-001	 1.075463935924991e+001
 3.485842180148715e+000	 3.144905326354376e-001	 1.068426824714764e+001
 3.482812427479281e+000	 3.464355568067562e-001	 1.070168952503492e+001
 3.479478529308901e+000	 3.784562908747209e-001	 1.071651789008178e+001
 3.475837973121045e+000	 4.105488821462861e-001	 1.072907725040610e+001
 3.471888301924911e+000	 4.427094069178871e-001	 1.073974157218262e+001
 3.467627116341299e+000	 4.749338712109144e-001	 1.074893457819093e+001
 3.463052076687237e+000	 5.072182115723982e-001	 1.075712931575835e+001
 3.458160905057221e+000	 5.395582959415585e-001	 1.076484759132879e+001
 3.452951387398862e+000	 5.719499245828053e-001	 1.077265926918289e+001
 3.447421375580705e+000	 6.043888310856981e-001	 1.078118143214969e+001
 3.441568789449906e+000	 6.368706834322875e-001	 1.073833630322670e+001
 3.195742447322996e+000	 5.913799203372813e-001	 1.089296697262320e+001
 3.190006503222291e+000	 6.215774361993541e-001	 1.101142656064046e+001
 3.183967359642995e+000	 6.518066066841965e-001	 1.103204397651073e+001
 3.177623285720975e+000	 6.820632330168474e-001	 1.103686046456260e+001
 3.170972621219919e+000	 7.123430600964776e-001	 1.103856105123256e+001
 3.164013778361765e+000	 7.426417778035709e-001	 1.103751346933570e+001
 3.156745243634214e+000	 7.729550223703777e-001	 1.103410006964967e+001
 3.149165579572983e+000	 8.032783778144553e-001	 1.102871801793878e+001
 3.141273426516435e+000	 8.336073774350107e-001	 1.102177947206570e+001
 3.133067504330197e+000	 8.639375053716757e-001	 1.101371173779992e+001
 3.124546614099405e+000	 8.942641982252434e-001	 1.100610455063301e+001
 3.220325081535687e+000	 5.959289966467158e-001	 1.086329804991043e+001
 3.214545014787886e+000	 6.263588010934251e-001	 1.098733726841778e+001
 3.208459416257858e+000	 6.568205036599045e-001	 1.099937010549098e+001
 3.202066541767133e+000	 6.873098732729227e-001	 1.100817230252512e+001
 3.195364718308351e+000	 7.178226221001053e-001	 1.101407311889333e+001
 3.188352345889771e+000	 7.483544068671687e-001	 1.101741589929640e+001
 3.181027899356695e+000	 7.789008302389193e-001	 1.101855831602540e+001
 3.173389930187422e+000	 8.094574422638171e-001	 1.101787259348782e+001
 3.165437068261379e+000	 8.400197418818314e-001	 1.101574571356856e+001
 3.157168023597005e+000	 8.705831784952054e-001	 1.101257960039146e+001
 3.148581588057016e+000	 9.011431536016611e-001	 1.100879128304799e+001
 3.244907715748377e+000	 6.004780729561651e-001	 1.083921216909927e+001
 3.239083526353474e+000	 6.311401659873205e-001	 1.095350668045929e+001
 3.232951472872700e+000	 6.618344006352653e-001	 1.096870268138005e+001
 3.226509797813246e+000	 6.925565135284996e-001	 1.098089828781796e+001
 3.219756815396703e+000	 7.233021841031021e-001	 1.099039877650676e+001
 3.212690913417656e+000	 7.540670359300240e-001	 1.099752320249696e+001
 3.205310555079000e+000	 7.848466381066259e-001	 1.100260466837147e+001
 3.197614280801620e+000	 8.156365067122717e-001	 1.100599057650447e+001
 3.189600710006008e+000	 8.464321063276932e-001	 1.100804286289229e+001
 3.181268542863414e+000	 8.772288516177454e-001	 1.100913821107816e+001
 3.172616562014134e+000	 9.080221089770787e-001	 1.100966824469045e+001
 3.269490349961068e+000	 6.050271492656288e-001	 1.082022766260963e+001
 3.263622037919057e+000	 6.359215308810399e-001	 1.092213460729586e+001
 3.257443529487524e+000	 6.668482976102796e-001	 1.093992882108443e+001
 3.250953053859317e+000	 6.978031537835778e-001	 1.095494458893359e+001
 3.244148912484980e+000	 7.287817461054686e-001	 1.096746328504111e+001
 3.237029480945418e+000	 7.597796649921365e-001	 1.097777976488374e+001
 3.229593210801129e+000	 7.907924459734977e-001	 1.098620266163199e+001
 3.221838631415580e+000	 8.218155711598196e-001	 1.099305466637848e+001
 3.213764351750323e+000	 8.528444707725967e-001	 1.099867279066641e+001
 3.205369062129425e+000	 8.838745247392963e-001	 1.100340860979491e+001
 3.196651535970757e+000	 9.149010643514963e-001	 1.100762848537267e+001
 3.294072984173759e+000	 6.095762255751076e-001	 1.080586964336404e+001
 3.288160549484637e+000	 6.407028957745838e-001	 1.089309548011985e+001
 3.281935586102328e+000	 6.718621945849470e-001	 1.091294149093827e+001
 3.275396309905343e+000	 7.030497940381577e-001	 1.093022275322568e+001
 3.268541009573177e+000	 7.342613081072044e-001	 1.094519681063185e+001
 3.261368048473059e+000	 7.654922940535066e-001	 1.095813440092309e+001
 3.253875866523083e+000	 7.967382538395348e-001	 1.096931977984831e+001
 3.246062982029297e+000	 8.279946356064606e-001	 1.097905102958056e+001
 3.237927993494322e+000	 8.592568352165415e-001	 1.098764035017756e+001
 3.229469581395037e+000	 8.905201978598571e-001	 1.099541433249155e+001
 3.220686509926887e+000	 9.217800197249140e-001	 1.100271421095192e+001
 3.318655618386451e+000	 6.141253018846009e-001	 1.079566975365797e+001
 3.312699061050211e+000	 6.454842606679520e-001	 1.086626981286862e+001
 3.306427642717112e+000	 6.768760915592673e-001	 1.088763929005789e+001
 3.299839565951326e+000	 7.082964342922389e-001	 1.090664950769201e+001
 3.292933106661297e+000	 7.397408701083099e-001	 1.092353424290886e+001
 3.285706616000577e+000	 7.712049231141335e-001	 1.093854018958192e+001
 3.278158522244861e+000	 8.026840617047367e-001	 1.095192730989599e+001
 3.270287332642777e+000	 8.341737000521949e-001	 1.096396917125200e+001
 3.262091635238010e+000	 8.656691996595282e-001	 1.097495326690060e+001
 3.253570100660248e+000	 8.971658709794281e-001	 1.098518131868786e+001
 3.244721483882524e+000	 9.286589750973319e-001	 1.099496956028687e+001
 3.343238252599141e+000	 6.186743781941089e-001	 1.078916592510917e+001
 3.337237572615780e+000	 6.502656255611442e-001	 1.084154397859422e+001
 3.330919699331878e+000	 6.818899885332411e-001	 1.086392624325429e+001
 3.324282821997265e+000	 7.135430745458218e-001	 1.088414656854636e+001
 3.317325203749339e+000	 7.452204321087848e-001	 1.090241502133851e+001
 3.310045183527975e+000	 7.769175521740180e-001	 1.091895431754477e+001
 3.302441177966462e+000	 8.086298695691038e-001	 1.093400020167488e+001
 3.294511683256015e+000	 8.403527644970221e-001	 1.094780181245935e+001
 3.286255276981380e+000	 8.720815641015560e-001	 1.096062203290353e+001
 3.277670619925061e+000	 9.038115440980099e-001	 1.097273782310700e+001
 3.268756457837667e+000	 9.355379304687496e-001	 1.098444053417149e+001
 3.367820886811832e+000	 6.232234545036315e-001	 1.078590214912059e+001
 3.361776084181346e+000	 6.550469904541610e-001	 1.081880999562704e+001
 3.355411755946624e+000	 6.869038855068678e-001	 1.084171160301495e+001
 3.348726078043161e+000	 7.187897147989060e-001	 1.086264045913033e+001
 3.341717300837303e+000	 7.506999941086291e-001	 1.088178296917131e+001
 3.334383751055249e+000	 7.826301812331594e-001	 1.089933792929692e+001
 3.326723833687888e+000	 8.145756774326360e-001	 1.091551693442201e+001
 3.318736033869013e+000	 8.465318289409425e-001	 1.093054477282499e+001
 3.310418918724437e+000	 8.784939285426254e-001	 1.094465980587692e+001
 3.301771139189476e+000	 9.104572172156019e-001	 1.095811433117904e+001
 3.292791431792316e+000	 9.424168858391672e-001	 1.097117492738118e+001
 3.392403521024523e+000	 6.277725308131688e-001	 1.077307823526730e+001
 3.386314595746905e+000	 6.598283553470019e-001	 1.079796532303678e+001
 3.379903812561350e+000	 6.919177824801479e-001	 1.082090966009537e+001
 3.373169334089012e+000	 7.240363550514918e-001	 1.084206233574202e+001
 3.366109397925190e+000	 7.561795561078428e-001	 1.086158613460900e+001
 3.358722318582404e+000	 7.883428102915586e-001	 1.087965598372600e+001
 3.351006489409138e+000	 8.205214852953333e-001	 1.089645938883705e+001
 3.342960384481772e+000	 8.527108933839560e-001	 1.091219685826054e+001
 3.334582560467181e+000	 8.849062929827365e-001	 1.092708231255337e+001
 3.325871658453493e+000	 9.171028903322046e-001	 1.094134347821827e+001
 3.316826405746471e+000	 9.492958412085848e-001	 1.095522226367344e+001
 3.416986155237214e+000	 6.323216071227208e-001	 1.075463935924991e+001
 3.410853107312460e+000	 6.646097202396671e-001	 1.077891266492234e+001
 3.404395869176057e+000	 6.969316794530809e-001	 1.080143956228630e+001
 3.397612590134821e+000	 7.292829953035791e-001	 1.082234782098299e+001
 3.390501495012999e+000	 7.616591181064263e-001	 1.084177663882802e+001
 3.383060886109435e+000	 7.940554393492149e-001	 1.085987711691306e+001
 3.375289145130212e+000	 8.264672931571959e-001	 1.087681272472764e+001
 3.367184735094289e+000	 8.588899578260627e-001	 1.089275975354637e+001
 3.358746202209609e+000	 8.913186574218888e-001	 1.090790775629592e+001
 3.349972177717110e+000	 9.237485634478176e-001	 1.092245997208919e+001
 3.340861379700133e+000	 9.561747965770026e-001	 1.093663373359424e+001
 3.441568789449906e+000	 6.368706834322875e-001	 1.073833630322670e+001
 3.435391618878011e+000	 6.693910851321568e-001	 1.076155978308935e+001
 3.428887925790747e+000	 7.019455764256674e-001	 1.078322514094828e+001
 3.422055846180586e+000	 7.345296355551680e-001	 1.080343684424726e+001
 3.414893592100732e+000	 7.671386801043791e-001	 1.082231053051602e+001
 3.407399453636346e+000	 7.997680684061287e-001	 1.083997351080443e+001
 3.399571800851111e+000	 8.324131010182234e-001	 1.085656526389817e+001
 3.391409085706569e+000	 8.650690222672626e-001	 1.087223791951493e+001
 3.382909843951724e+000	 8.977310218600830e-001	 1.088715672864696e+001
 3.374072696980329e+000	 9.303942365624413e-001	 1.090150051918691e+001
 3.364896353653301e+000	 9.630537519444204e-001	 1.091546213494989e+001
 3.124546614099405e+000	 8.942641982252434e-001	 1.100610455063301e+001
 3.115709639785576e+000	 9.245828467396423e-001	 1.102545843495488e+001
 3.106555549847563e+000	 9.548887975447460e-001	 1.104440044472848e+001
 3.097083398822884e+000	 9.851773549594466e-001	 1.106318639354656e+001
 3.087292328865915e+000	 1.015443782853513e+000	 1.108206375673791e+001
 3.077181571242415e+000	 1.045683306567630e+000	 1.110127078734890e+001
 3.066750447777396e+000	 1.075891114890497e+000	 1.112103563616862e+001
 3.055998372254013e+000	 1.106062362091802e+000	 1.114157547825947e+001
 3.044924851761178e+000	 1.136192170009821e+000	 1.116309564849973e+001
 3.033529487987622e+000	 1.166275630192232e+000	 1.118578878868050e+001
 3.021811978460158e+000	 1.196307806088698e+000	 1.120983400872849e+001
 3.148581588057016e+000	 9.011431536016611e-001	 1.100879128304799e+001
 3.139676637017926e+000	 9.316950224893300e-001	 1.100927990448905e+001
 3.130452131003560e+000	 9.622340959929508e-001	 1.100844350438468e+001
 3.120907117278648e+000	 9.927556423107904e-001	 1.101699010642621e+001
 3.111040731398753e+000	 1.023254888880847e+000	 1.103971570807356e+001
 3.100852198716294e+000	 1.053727024315657e+000	 1.106321904874502e+001
 3.090340835839549e+000	 1.084167200394599e+000	 1.108771808074719e+001
 3.079506052042313e+000	 1.114570534112516e+000	 1.111341893898493e+001
 3.068347350621874e+000	 1.144932109783359e+000	 1.114051506378432e+001
 3.056864330203026e+000	 1.175246981197481e+000	 1.116918633640142e+001
 3.045056685985869e+000	 1.205510173831083e+000	 1.119959822985071e+001
 3.172616562014134e+000	 9.080221089770787e-001	 1.100966824469045e+001
 3.163643634249695e+000	 9.388071982380229e-001	 1.101341752247861e+001
 3.154348712158920e+000	 9.695793944401748e-001	 1.101603366381653e+001
 3.144730835733750e+000	 1.000333929661178e+000	 1.101790381337753e+001
 3.134789133930934e+000	 1.031065994907259e+000	 1.101943115926353e+001
 3.124522826189546e+000	 1.061770742062806e+000	 1.102222086883785e+001
 3.113931223901138e+000	 1.092443285897878e+000	 1.105067855951427e+001
 3.103013731830142e+000	 1.123078706132471e+000	 1.108076925389821e+001
 3.091769849482220e+000	 1.153672049556212e+000	 1.111267498315267e+001
 3.080199172418235e+000	 1.184218332202131e+000	 1.114656334905479e+001
 3.068301393511570e+000	 1.214712541572961e+000	 1.118258666376197e+001
 3.196651535970757e+000	 9.149010643514963e-001	 1.100762848537267e+001
 3.187610631480886e+000	 9.459193739857201e-001	 1.101420149014662e+001
 3.178245293313646e+000	 9.769246928864183e-001	 1.101982373169875e+001
 3.168554554188190e+000	 1.007912217010610e+000	 1.102486536478650e+001
 3.158537536462453e+000	 1.038877100932750e+000	 1.102971251534068e+001
 3.148193453662171e+000	 1.069814459809077e+000	 1.103476742696822e+001
 3.137521611962163e+000	 1.100719371400335e+000	 1.104044857789631e+001
 3.126521411617498e+000	 1.131586878151666e+000	 1.104719076687123e+001
 3.115192348342217e+000	 1.162411989328380e+000	 1.107941695622030e+001
 3.103534014633251e+000	 1.193189683206180e+000	 1.111777024109292e+001
 3.091546101037261e+000	 1.223914909314336e+000	 1.115865877112543e+001
 3.220686509926887e+000	 9.217800197249140e-001	 1.100271421095192e+001
 3.211577628711498e+000	 9.530315497324225e-001	 1.101168820788363e+001
 3.202141874467737e+000	 9.842699913316814e-001	 1.101988432464233e+001
 3.192378272641967e+000	 1.015490504359085e+000	 1.102765579442614e+001
 3.182285938993313e+000	 1.046688206957319e+000	 1.103537176140332e+001
 3.171864081134169e+000	 1.077858177554471e+000	 1.104341745057033e+001
 3.161112000022623e+000	 1.108995456901967e+000	 1.105219430823551e+001
 3.150029091404384e+000	 1.140095050170102e+000	 1.106212011159108e+001
 3.138614847201867e+000	 1.171151929099864e+000	 1.107362904587483e+001
 3.126868856848071e+000	 1.202161034209630e+000	 1.108717174766727e+001
 3.114790808562941e+000	 1.233117277055205e+000	 1.112767235699236e+001
 3.244721483882524e+000	 9.286589750973319e-001	 1.099496956028687e+001
 3.235544625941530e+000	 9.601437254781297e-001	 1.100593566872162e+001
 3.226038455621191e+000	 9.916152897759637e-001	 1.101628730843642e+001
 3.216201991095082e+000	 1.023068791706605e+000	 1.102636085311105e+001
 3.206034341523514e+000	 1.054499312980966e+000	 1.103650853920738e+001
 3.195534708605540e+000	 1.085901895298987e+000	 1.104709865942326e+001
 3.184702388082518e+000	 1.117271542402776e+000	 1.105851572694167e+001
 3.173536771190797e+000	 1.148603222187780e+000	 1.107116060888609e+001
 3.162037346061168e+000	 1.179891868870664e+000	 1.108545062743055e+001
 3.150203699062696e+000	 1.211132385212479e+000	 1.110181962705614e+001
 3.138035516088611e+000	 1.242319644795568e+000	 1.112071800649713e+001
 3.268756457837667e+000	 9.355379304687496e-001	 1.098444053417149e+001
 3.259511623170984e+000	 9.672559012228417e-001	 1.099700339978107e+001
 3.249935036774011e+000	 9.989605882192657e-001	 1.100910575212261e+001
 3.240025709547534e+000	 1.030647079053168e+000	 1.102106716120582e+001
 3.229782744053054e+000	 1.062310419003691e+000	 1.103322302361571e+001
 3.219205336076284e+000	 1.093945613042626e+000	 1.104592477980873e+001
 3.208292776141847e+000	 1.125547627902762e+000	 1.105954010235907e+001
 3.197044450976737e+000	 1.157111394204698e+000	 1.107445305351375e+001
 3.185459844920121e+000	 1.188631808640779e+000	 1.109106421045042e+001
 3.173538541277127e+000	 1.220103736214729e+000	 1.110979075667573e+001
 3.161280223614271e+000	 1.251522012535427e+000	 1.112897795906214e+001
 3.292791431792316e+000	 9.424168858391672e-001	 1.097117492738118e+001
 3.283478620399857e+000	 9.743680769665586e-001	 1.098495240628224e+001
 3.273831617926194e+000	 1.006305886661587e+000	 1.099841388408058e+001
 3.263849427999325e+000	 1.038225366398776e+000	 1.101186217688960e+001
 3.253531146581935e+000	 1.070121525025494e+000	 1.102561590314161e+001
 3.242875963546401e+000	 1.101989330785387e+000	 1.104000972497837e+001
 3.231883164200613e+000	 1.133823713401924e+000	 1.105539456073224e+001
 3.220552130762207e+000	 1.165619566220857e+000	 1.107213776680268e+001
 3.208882343778725e+000	 1.197371748410209e+000	 1.109062328726784e+001
 3.196873383491364e+000	 1.229075087216379e+000	 1.111125176961282e+001
 3.184524931139920e+000	 1.260724380274781e+000	 1.112029818716724e+001
 3.316826405746471e+000	 9.492958412085848e-001	 1.095522226367344e+001
 3.307445617628153e+000	 9.814802527092802e-001	 1.096984511799089e+001
 3.297728199077743e+000	 1.013651185102928e+000	 1.098428705002317e+001
 3.287673146450452e+000	 1.045803653743427e+000	 1.099883416580052e+001
 3.277279549110157e+000	 1.077932631046376e+000	 1.101378836133832e+001
 3.266546591015890e+000	 1.110033048527270e+000	 1.102946758837959e+001
 3.255473552258815e+000	 1.142099798900263e+000	 1.104620609135441e+001
 3.244059810547204e+000	 1.174127738236257e+000	 1.106435461380581e+001
 3.232304842636979e+000	 1.206111688178954e+000	 1.108428057256646e+001
 3.220208225705404e+000	 1.238046438217429e+000	 1.110636819801114e+001
 3.207769638665559e+000	 1.269926748013629e+000	 1.110575859737446e+001
 3.340861379700133e+000	 9.561747965770026e-001	 1.093663373359424e+001
 3.331412614855868e+000	 9.885924284510067e-001	 1.095174533797561e+001
 3.321624780228655e+000	 1.020996483543288e+000	 1.096680167280445e+001
 3.311496864900918e+000	 1.053381941087122e+000	 1.098207217199045e+001
 3.301027951637718e+000	 1.085743737066335e+000	 1.099784205899183e+001
 3.290217218484752e+000	 1.118076766268276e+000	 1.101441263717360e+001
 3.279063940316452e+000	 1.150375884397779e+000	 1.103210155149395e+001
 3.267567490331731e+000	 1.182635910250898e+000	 1.105124301971326e+001
 3.255727341494885e+000	 1.214851627947015e+000	 1.107218803135323e+001
 3.243543067919251e+000	 1.247017789217878e+000	 1.109530451267368e+001
 3.231014346191188e+000	 1.279129115751972e+000	 1.108546841751688e+001
 3.364896353653301e+000	 9.630537519444204e-001	 1.091546213494989e+001
 3.355379612083005e+000	 9.957046041917383e-001	 1.093071819356131e+001
 3.345521361378934e+000	 1.028341781982668e+000	 1.094603521395049e+001
 3.335320583350722e+000	 1.060960228429861e+000	 1.096166599012438e+001
 3.324776354164621e+000	 1.093554843085373e+000	 1.097787911707681e+001
 3.313887845952988e+000	 1.126120484008404e+000	 1.099495930603136e+001
 3.302654328373524e+000	 1.158651969894472e+000	 1.101320767110943e+001
 3.291075170115785e+000	 1.191144082264780e+000	 1.103294198556164e+001
 3.279149840352444e+000	 1.223591567714392e+000	 1.105449690573255e+001
 3.266877910132902e+000	 1.255989140217728e+000	 1.107130347472767e+001
 3.254259053716807e+000	 1.288331483489811e+000	 1.105953554979805e+001
 3.021811978460158e+000	 1.196307806088698e+000	 1.120983400872849e+001
 3.009772117724388e+000	 1.226283735293376e+000	 1.124911706898218e+001
 2.997409798464362e+000	 1.256198431836615e+000	 1.128103693575492e+001
 2.984725012560141e+000	 1.286046888523079e+000	 1.127605390554879e+001
 2.971717852081893e+000	 1.315824079314216e+000	 1.127373737976046e+001
 2.958388510217296e+000	 1.345524961753960e+000	 1.127420811686213e+001
 2.944737282130763e+000	 1.375144479435224e+000	 1.127758319167592e+001
 2.930764565752652e+000	 1.404677564505075e+000	 1.128397581716033e+001
 2.916470862496686e+000	 1.434119140206302e+000	 1.129349516970116e+001
 2.901856777903874e+000	 1.463464123453075e+000	 1.130624621826219e+001
 2.886923022211355e+000	 1.492707427438275e+000	 1.132232955774714e+001
 3.045056685985869e+000	 1.205510173831083e+000	 1.119959822985071e+001
 3.032924210935764e+000	 1.235716687106057e+000	 1.124249905576848e+001
 3.020466796911432e+000	 1.265861496699235e+000	 1.126220167189872e+001
 3.007684435730476e+000	 1.295939556898392e+000	 1.126084944136763e+001
 2.994577220171298e+000	 1.325945803003144e+000	 1.126193467641009e+001
 2.981145344907635e+000	 1.355875153769300e+000	 1.126558396875546e+001
 2.967389107374399e+000	 1.385722513894336e+000	 1.127192048544718e+001
 2.953308908562949e+000	 1.415482776541835e+000	 1.128106378721707e+001
 2.938905253744040e+000	 1.445150825902608e+000	 1.129312964999430e+001
 2.924178753116690e+000	 1.474721539790166e+000	 1.130822988990431e+001
 2.909130122381398e+000	 1.504189792268103e+000	 1.132647219211144e+001
 3.068301393511570e+000	 1.214712541572961e+000	 1.118258666376197e+001
 3.056076304147308e+000	 1.245149638918323e+000	 1.122907230725917e+001
 3.043523795358814e+000	 1.275524561561510e+000	 1.123718331264156e+001
 3.030643858901224e+000	 1.305832225273412e+000	 1.123960767599131e+001
 3.017436588261178e+000	 1.336067526691810e+000	 1.124424669059430e+001
 3.003902179598473e+000	 1.366225345784390e+000	 1.125123274463378e+001
 2.990040932618516e+000	 1.396300548353189e+000	 1.126069505624867e+001
 2.975853251373670e+000	 1.426287988578307e+000	 1.127275948848598e+001
 2.961339644991720e+000	 1.456182511598578e+000	 1.128754836702246e+001
 2.946500728329691e+000	 1.485978956126850e+000	 1.130518030101233e+001
 2.931337222551448e+000	 1.515672157097435e+000	 1.132577000741607e+001
 3.091546101037261e+000	 1.223914909314336e+000	 1.115865877112543e+001
 3.079228397359024e+000	 1.254582590730175e+000	 1.120154248417119e+001
 3.066580793806506e+000	 1.285187626423441e+000	 1.120602849202994e+001
 3.053603282072388e+000	 1.315724893648139e+000	 1.121237157545886e+001
 3.040295956351536e+000	 1.346189250380214e+000	 1.122071261250006e+001
 3.026659014289811e+000	 1.376575537799229e+000	 1.123118975207648e+001
 3.012692757863114e+000	 1.406878582811783e+000	 1.124393822346057e+001
 2.998397594184817e+000	 1.437093200614492e+000	 1.125909014779431e+001
 2.983774036239726e+000	 1.467214197294209e+000	 1.127677435201860e+001
 2.968822703542881e+000	 1.497236372463128e+000	 1.129711618556937e+001
 2.953544322721507e+000	 1.527154521926272e+000	 1.132023734019789e+001
 3.114790808562941e+000	 1.233117277055205e+000	 1.112767235699236e+001
 3.102380490570910e+000	 1.264015542541612e+000	 1.116002293955468e+001
 3.089637792254510e+000	 1.294850691285028e+000	 1.116878239743834e+001
 3.076562705243964e+000	 1.325617562022572e+000	 1.117918276859520e+001
 3.063155324442370e+000	 1.356310974068356e+000	 1.119137040784344e+001
 3.049415848981647e+000	 1.386925729813817e+000	 1.120548919018791e+001
 3.035344583108194e+000	 1.417456617270117e+000	 1.122168031720122e+001
 3.020941936996386e+000	 1.447898412650387e+000	 1.124008212510097e+001
 3.006208427488058e+000	 1.478245882989505e+000	 1.126082989488107e+001
 2.991144678756258e+000	 1.508493788799000e+000	 1.128405566485619e+001
 2.975751422891574e+000	 1.538636886754612e+000	 1.130988804597788e+001
 3.138035516088611e+000	 1.242319644795568e+000	 1.112071800649713e+001
 3.125532583782966e+000	 1.273448494352633e+000	 1.111358981821175e+001
 3.112694790702826e+000	 1.304513756146271e+000	 1.112548882314973e+001
 3.099522128415953e+000	 1.335510230396714e+000	 1.114008159653751e+001
 3.086014692533680e+000	 1.366432697756237e+000	 1.115625686322032e+001
 3.072172683673984e+000	 1.397275921828156e+000	 1.117416419065189e+001
 3.057996408353757e+000	 1.428034651728193e+000	 1.119395071496650e+001
 3.043486279808379e+000	 1.458703624685996e+000	 1.121576094560262e+001
 3.028642818736715e+000	 1.489277568684463e+000	 1.123973657163048e+001
 3.013466653969821e+000	 1.519751205134465e+000	 1.126601627014393e+001
 2.997958523061648e+000	 1.550119251582456e+000	 1.129473551707665e+001
 3.161280223614271e+000	 1.251522012535427e+000	 1.112897795906214e+001
 3.148684676995192e+000	 1.282881446163240e+000	 1.111478184234553e+001
 3.135751789151455e+000	 1.314176821007170e+000	 1.110143862437186e+001
 3.122481551588357e+000	 1.345402898770561e+000	 1.109510716007678e+001
 3.108874060625467e+000	 1.376554421443855e+000	 1.111540762945642e+001
 3.094929518366818e+000	 1.407626113842243e+000	 1.113724685697512e+001
 3.080648233599802e+000	 1.438612686186009e+000	 1.116077787665264e+001
 3.066030622620797e+000	 1.469508836721316e+000	 1.118615133042357e+001
 3.051077209985700e+000	 1.500309254379084e+000	 1.121351527065524e+001
 3.035788629183573e+000	 1.531008621469524e+000	 1.124301496438566e+001
 3.020165623231730e+000	 1.561601616409804e+000	 1.127479269964377e+001
 3.184524931139920e+000	 1.260724380274781e+000	 1.112029818716724e+001
 3.171836770207588e+000	 1.292314397973432e+000	 1.111014957976255e+001
 3.158808787600394e+000	 1.323839885867724e+000	 1.110054032278221e+001
 3.145440974761176e+000	 1.355295567144115e+000	 1.109180135457773e+001
 3.131733428717729e+000	 1.386676145131211e+000	 1.108427291897279e+001
 3.117686353060151e+000	 1.417976305856080e+000	 1.109476830201202e+001
 3.103300058846327e+000	 1.449190720643567e+000	 1.112218937804533e+001
 3.088574965433638e+000	 1.480314048756349e+000	 1.115127722596143e+001
 3.073511601235010e+000	 1.511340940073368e+000	 1.118218621780751e+001
 3.058110604397512e+000	 1.542266037804177e+000	 1.121506816295780e+001
 3.042372723401820e+000	 1.573083981236655e+000	 1.125007210994149e+001
 3.207769638665559e+000	 1.269926748013629e+000	 1.110575859737446e+001
 3.194988863420155e+000	 1.301747349783208e+000	 1.109980149720888e+001
 3.181865786049646e+000	 1.333502950727935e+000	 1.109407189671060e+001
 3.168400397934406e+000	 1.365188235517377e+000	 1.108890724485734e+001
 3.154592796810469e+000	 1.396797868818307e+000	 1.108465485124654e+001
 3.140443187753984e+000	 1.428326497869667e+000	 1.108167172321489e+001
 3.125951884093334e+000	 1.459768755100864e+000	 1.108032437792827e+001
 3.111119308246904e+000	 1.491119260791093e+000	 1.111116183195695e+001
 3.095945992484646e+000	 1.522372625767316e+000	 1.114576900040821e+001
 3.080432579611638e+000	 1.553523454138423e+000	 1.118219175350001e+001
 3.064579823571918e+000	 1.584566346063012e+000	 1.122058584992029e+001
 3.231014346191188e+000	 1.279129115751972e+000	 1.108546841751688e+001
 3.218140956632892e+000	 1.311180301592571e+000	 1.108384477206132e+001
 3.204922784499208e+000	 1.343166015587801e+000	 1.108213832947495e+001
 3.191359821108052e+000	 1.375080903890345e+000	 1.108069300257236e+001
 3.177452164903685e+000	 1.406919592505140e+000	 1.107986312210289e+001
 3.163200022448315e+000	 1.438676689883003e+000	 1.108001327540663e+001
 3.148603709340824e+000	 1.470346789557903e+000	 1.108151811910084e+001
 3.133663651060594e+000	 1.501924472825549e+000	 1.108476216540223e+001
 3.118380383734608e+000	 1.533404311460926e+000	 1.110428259021577e+001
 3.102754554825951e+000	 1.564780870472263e+000	 1.114440111489843e+001
 3.086786923742023e+000	 1.596048710888871e+000	 1.118634562212218e+001
 3.254259053716807e+000	 1.288331483489811e+000	 1.105953554979805e+001
 3.241293049845800e+000	 1.320613253401518e+000	 1.106238533837629e+001
 3.227979782949083e+000	 1.352829080447324e+000	 1.106484344605955e+001
 3.214319244282112e+000	 1.384973572263021e+000	 1.106726020289006e+001
 3.200311532997376e+000	 1.417041316191710e+000	 1.106999691644186e+001
 3.185956857143147e+000	 1.449026881896089e+000	 1.107342571211274e+001
 3.171255534588795e+000	 1.480924824014684e+000	 1.107792934650174e+001
 3.156207993874709e+000	 1.512729684859718e+000	 1.108390099345476e+001
 3.140814774984898e+000	 1.544435997154200e+000	 1.109174400242655e+001
 3.125076530040452e+000	 1.576038286805697e+000	 1.110187162887712e+001
 3.108994023912139e+000	 1.607531075714235e+000	 1.114736274394535e+001
 2.886923022211355e+000	 1.492707427438275e+000	 1.132232955774714e+001
 2.871670410844536e+000	 1.521843964270075e+000	 1.132756608987701e+001
 2.856099864831404e+000	 1.550868647634841e+000	 1.133131023011208e+001
 2.840212411137347e+000	 1.579776395484173e+000	 1.133333084302955e+001
 2.824009182919216e+000	 1.608562132743385e+000	 1.133339391278664e+001
 2.807491419697759e+000	 1.637220794038314e+000	 1.133126275749170e+001
 2.790660467447268e+000	 1.665747326437759e+000	 1.132669825037641e+001
 2.773517778601558e+000	 1.694136692208679e+000	 1.131945904748577e+001
 2.756064911975477e+000	 1.722383871581193e+000	 1.130930182158311e+001
 2.738303532601247e+000	 1.750483865520403e+000	 1.129598150195040e+001
 2.720235411479095e+000	 1.778431698502015e+000	 1.127925151974528e+001
 2.909130122381398e+000	 1.504189792268103e+000	 1.132647219211144e+001
 2.893760183235911e+000	 1.533550456306829e+000	 1.132685726328931e+001
 2.878069863792880e+000	 1.562798406467084e+000	 1.132621410432259e+001
 2.862060198917423e+000	 1.591928521607785e+000	 1.132435153441250e+001
 2.845732330482985e+000	 1.620935687615212e+000	 1.132107538674477e+001
 2.829087507545085e+000	 1.649814800150784e+000	 1.131618868037046e+001
 2.812127086431664e+000	 1.678560767414597e+000	 1.130949179863341e+001
 2.794852530749107e+000	 1.707168512921816e+000	 1.130078267392872e+001
 2.777265411303141e+000	 1.735632978288946e+000	 1.128985697855882e+001
 2.759367405933932e+000	 1.763949126026976e+000	 1.127650832143702e+001
 2.741160299264779e+000	 1.792111942338345e+000	 1.126052845037176e+001
 2.931337222551448e+000	 1.515672157097435e+000	 1.132577000741607e+001
 2.915849955627105e+000	 1.545256948342998e+000	 1.132225453643841e+001
 2.900039862754002e+000	 1.574728165298670e+000	 1.131817224306441e+001
 2.883907986696995e+000	 1.604080647730690e+000	 1.131337144224281e+001
 2.867455478046119e+000	 1.633309242486301e+000	 1.130769735603027e+001
 2.850683595391665e+000	 1.662408806262504e+000	 1.130099224337774e+001
 2.833593705415225e+000	 1.691374208390693e+000	 1.129309553621413e+001
 2.816187282895747e+000	 1.720200333634241e+000	 1.128384398167870e+001
 2.798465910629847e+000	 1.748882084996038e+000	 1.127307179033763e+001
 2.780431279265625e+000	 1.777414386532956e+000	 1.126061079020388e+001
 2.762085187049463e+000	 1.805792186174171e+000	 1.124629058636410e+001
 2.953544322721507e+000	 1.527154521926272e+000	 1.132023734019789e+001
 2.937939728018115e+000	 1.556963440378580e+000	 1.131375068355411e+001
 2.922009861714772e+000	 1.586657924129600e+000	 1.130715595434717e+001
 2.905755774476064e+000	 1.616232773852888e+000	 1.130034051481252e+001
 2.889178625608617e+000	 1.645682797356652e+000	 1.129318852613946e+001
 2.872279683237499e+000	 1.675002812373474e+000	 1.128558103654962e+001
 2.855060324397947e+000	 1.704187649366049e+000	 1.127739607542846e+001
 2.837522035041479e+000	 1.733232154345956e+000	 1.126850875342805e+001
 2.819666409955593e+000	 1.762131191702468e+000	 1.125879136844403e+001
 2.801495152596329e+000	 1.790879647038343e+000	 1.124811351735558e+001
 2.783010074833148e+000	 1.819472430009495e+000	 1.123634221340111e+001
 2.975751422891574e+000	 1.538636886754612e+000	 1.130988804597788e+001
 2.960029500408944e+000	 1.568669932413575e+000	 1.130133864198339e+001
 2.943979860675189e+000	 1.598587682959872e+000	 1.129313735062395e+001
 2.927603562254629e+000	 1.628384899974378e+000	 1.128521014306505e+001
 2.910901773170480e+000	 1.658056352226263e+000	 1.127747967999760e+001
 2.893875771082586e+000	 1.687596818483695e+000	 1.126986535838624e+001
 2.876526943379832e+000	 1.717001090340665e+000	 1.126228336403169e+001
 2.858856787186304e+000	 1.746263975056959e+000	 1.125464672993094e+001
 2.840866909280380e+000	 1.775380298408235e+000	 1.124686540040605e+001
 2.822559025926043e+000	 1.804344907543138e+000	 1.123884630095836e+001
 2.803934962615832e+000	 1.833152673844316e+000	 1.123049341379042e+001
 2.997958523061648e+000	 1.550119251582456e+000	 1.129473551707665e+001
 2.982119272799590e+000	 1.580376424447985e+000	 1.128501150614896e+001
 2.965949859635252e+000	 1.610517441789488e+000	 1.127608931899710e+001
 2.949451350032689e+000	 1.640537026095160e+000	 1.126793310716374e+001
 2.932624920731708e+000	 1.670429907095137e+000	 1.126050360101704e+001
 2.915471858926928e+000	 1.700190824593167e+000	 1.125375811553838e+001
 2.897993562360879e+000	 1.729814531314540e+000	 1.124765056168944e+001
 2.880191539330218e+000	 1.759295795767250e+000	 1.124213146340851e+001
 2.862067408604208e+000	 1.788629405113340e+000	 1.123714798027353e+001
 2.843622899254767e+000	 1.817810168047340e+000	 1.123264393585618e+001
 2.824859850397516e+000	 1.846832917678635e+000	 1.122855985177842e+001
 3.020165623231730e+000	 1.561601616409804e+000	 1.127479269964377e+001
 3.004209045190053e+000	 1.592082916481808e+000	 1.126476252177436e+001
 2.987919858594963e+000	 1.622447200618446e+000	 1.125598549273847e+001
 2.971299137810247e+000	 1.652689152215235e+000	 1.124846352541750e+001
 2.954348068292302e+000	 1.682803461963272e+000	 1.124219499954999e+001
 2.937067946770523e+000	 1.712784830701889e+000	 1.123717472691958e+001
 2.919460181341090e+000	 1.742627972287675e+000	 1.123339392189275e+001
 2.901526291473226e+000	 1.772327616476830e+000	 1.123084017742138e+001
 2.883267907927075e+000	 1.801878511817783e+000	 1.122949744661376e+001
 2.864686772582502e+000	 1.831275428550950e+000	 1.122934602996578e+001
 2.845784738178201e+000	 1.860513161512450e+000	 1.123036256833198e+001
 3.042372723401820e+000	 1.573083981236655e+000	 1.125007210994149e+001
 3.026298817580335e+000	 1.603789408515045e+000	 1.124058508036213e+001
 3.009889857554321e+000	 1.634376959446748e+000	 1.123280022405698e+001
 2.993146925587299e+000	 1.664841278334602e+000	 1.122675680544345e+001
 2.976071215852260e+000	 1.695177016830668e+000	 1.122249044256211e+001
 2.958664034613371e+000	 1.725378836809862e+000	 1.122003303201763e+001
 2.940926800320463e+000	 1.755441413260070e+000	 1.121941267904477e+001
 2.922861043615324e+000	 1.785359437185699e+000	 1.122065363287920e+001
 2.904468407248985e+000	 1.815127618521565e+000	 1.122377622760201e+001
 2.885750645909247e+000	 1.844740689053968e+000	 1.122879682861705e+001
 2.866709625957885e+000	 1.874193405345763e+000	 1.123572778490775e+001
 3.064579823571918e+000	 1.584566346063012e+000	 1.122058584992029e+001
 3.048388589970434e+000	 1.615495900547695e+000	 1.121247271391197e+001
 3.031859856513325e+000	 1.646306718274393e+000	 1.120650855805012e+001
 3.014994713363848e+000	 1.676993404453262e+000	 1.120276959745283e+001
 2.997794363411583e+000	 1.707550571697326e+000	 1.120132828636404e+001
 2.980260122455475e+000	 1.737972842917085e+000	 1.120225320319267e+001
 2.962393419298999e+000	 1.768254854231723e+000	 1.120560894045668e+001
 2.944195795756514e+000	 1.798391257893856e+000	 1.121145599987574e+001
 2.925668906569935e+000	 1.828376725224684e+000	 1.121985069284735e+001
 2.906814519235001e+000	 1.858205949556393e+000	 1.123084504653079e+001
 2.887634513736569e+000	 1.887873649178574e+000	 1.120949204418213e+001
 3.086786923742023e+000	 1.596048710888871e+000	 1.118634562212218e+001
 3.070478362360350e+000	 1.627202392579759e+000	 1.118041908986677e+001
 3.053829855471977e+000	 1.658236477101382e+000	 1.117708620777995e+001
 3.036842501139893e+000	 1.689145530571214e+000	 1.117645974955336e+001
 3.019517510970272e+000	 1.719924126563245e+000	 1.117864861224640e+001
 3.001856210296831e+000	 1.750566849023558e+000	 1.118375766176097e+001
 2.983860038276696e+000	 1.781068295202636e+000	 1.119188758300561e+001
 2.965530547896797e+000	 1.811423078601302e+000	 1.120313473505645e+001
 2.946869405889925e+000	 1.841625831927142e+000	 1.121759101161448e+001
 2.927878392559767e+000	 1.871671210058225e+000	 1.123534370704930e+001
 2.908559401514253e+000	 1.901553893010882e+000	 1.118463827078889e+001
 3.108994023912139e+000	 1.607531075714235e+000	 1.114736274394535e+001
 3.092568134750085e+000	 1.638908884611238e+000	 1.114441800627544e+001
 3.075799854430276e+000	 1.670166235927714e+000	 1.114450953041720e+001
 3.058690288915436e+000	 1.701297656688459e+000	 1.114778626496723e+001
 3.041240658528325e+000	 1.732297681428426e+000	 1.115439316487337e+001
 3.023452298137442e+000	 1.763160855129283e+000	 1.116447099767496e+001
 3.005326657253558e+000	 1.793881736172810e+000	 1.117815615422171e+001
 2.986865300036171e+000	 1.824454899308037e+000	 1.119558046424164e+001
 2.968069905208957e+000	 1.854874938628937e+000	 1.121687101712174e+001
 2.948942265883543e+000	 1.885136470559466e+000	 1.121511982314647e+001
 2.929484289290938e+000	 1.915234136842687e+000	 1.116322532561468e+001
 2.720235411479095e+000	 1.778431698502015e+000	 1.127925151974528e+001
 2.701862425241567e+000	 1.806222421288800e+000	 1.130655114370108e+001
 2.683186555731693e+000	 1.833851113704457e+000	 1.133788058003964e+001
 2.664209889494488e+000	 1.861312887401978e+000	 1.137344914292740e+001
 2.644934617181425e+000	 1.888602888623658e+000	 1.137480510243985e+001
 2.625363032868398e+000	 1.915716300949206e+000	 1.134224406178922e+001
 2.605497533287248e+000	 1.942648348028940e+000	 1.131493348401669e+001
 2.585340616971148e+000	 1.969394296298900e+000	 1.129322212358411e+001
 2.564894883314336e+000	 1.995949457674739e+000	 1.127745503162792e+001
 2.544163031546756e+000	 2.022309192221250e+000	 1.126797302997331e+001
 2.523147859624355e+000	 2.048468910794402e+000	 1.126511218520440e+001
 2.741160299264779e+000	 1.792111942338345e+000	 1.126052845037176e+001
 2.722645982363904e+000	 1.820116439914905e+000	 1.129867588558806e+001
 2.703826452319316e+000	 1.847957660732984e+000	 1.134045465252122e+001
 2.684703811726376e+000	 1.875630678842904e+000	 1.138423574867102e+001
 2.665280268087723e+000	 1.903130603150364e+000	 1.135573127398399e+001
 2.645558133125989e+000	 1.930452580185686e+000	 1.133153013658522e+001
 2.625539822009412e+000	 1.957591796858036e+000	 1.131193560185312e+001
 2.605227852490652e+000	 1.984543483191424e+000	 1.129724820889715e+001
 2.584624843959287e+000	 2.011302915039319e+000	 1.128776529575237e+001
 2.563733516408568e+000	 2.037865416774700e+000	 1.128378052306254e+001
 2.542556689317182e+000	 2.064226363952433e+000	 1.128558339726223e+001
 2.762085187049463e+000	 1.805792186174171e+000	 1.124629058636410e+001
 2.743429539485246e+000	 1.834010458540603e+000	 1.129404373438709e+001
 2.724466348905958e+000	 1.862064207761188e+000	 1.134503891379013e+001
 2.705197733957311e+000	 1.889948470283584e+000	 1.135718166136229e+001
 2.685625918993101e+000	 1.917658317676889e+000	 1.133639696052840e+001
 2.665753233382704e+000	 1.945188859422040e+000	 1.131933009140775e+001
 2.645582110730756e+000	 1.972535245687052e+000	 1.130623633208833e+001
 2.625115088009401e+000	 1.999692670083904e+000	 1.129736868348559e+001
 2.604354804603558e+000	 2.026656372403878e+000	 1.129297744400639e+001
 2.583304001269785e+000	 2.053421641328146e+000	 1.129330978222539e+001
 2.561965519009508e+000	 2.079983817110463e+000	 1.129860930850353e+001
 2.783010074833148e+000	 1.819472430009495e+000	 1.123634221340111e+001
 2.764213096605592e+000	 1.847904477165892e+000	 1.129248721953758e+001
 2.745106245491621e+000	 1.876170754789071e+000	 1.134821030705840e+001
 2.725691656187288e+000	 1.904266261724017e+000	 1.133100483927109e+001
 2.705971569897559e+000	 1.932186032203232e+000	 1.131673173727302e+001
 2.685948333638543e+000	 1.959925138658267e+000	 1.130560041686289e+001
 2.665624399451278e+000	 1.987478694515986e+000	 1.129781883610424e+001
 2.645002323527392e+000	 2.014841856976338e+000	 1.129359312209107e+001
 2.624084765247146e+000	 2.042009829768417e+000	 1.129312719441765e+001
 2.602874486130406e+000	 2.068977865881587e+000	 1.129662238618352e+001
 2.581374348701332e+000	 2.095741270268494e+000	 1.130427706338456e+001
 2.803934962615832e+000	 1.833152673844316e+000	 1.123049341379042e+001
 2.784996653724944e+000	 1.861798495790774e+000	 1.129384382505883e+001
 2.765746142076302e+000	 1.890277301816630e+000	 1.131696695919200e+001
 2.746185578416309e+000	 1.918584053164202e+000	 1.130561099705444e+001
 2.726317220801096e+000	 1.946713746729393e+000	 1.129666764089474e+001
 2.706143433893507e+000	 1.974661417894369e+000	 1.129029924638670e+001
 2.685666688170979e+000	 2.002422143344840e+000	 1.128666710634018e+001
 2.664889559044630e+000	 2.029991043868727e+000	 1.128593112601912e+001
 2.643814725890055e+000	 2.057363287132936e+000	 1.128824949476427e+001
 2.622444970990430e+000	 2.084534090435022e+000	 1.129377835467350e+001
 2.600783178392654e+000	 2.111498723426525e+000	 1.130267146711215e+001
 2.824859850397516e+000	 1.846832917678635e+000	 1.122855985177842e+001
 2.805780210843301e+000	 1.875692514415249e+000	 1.129603618557428e+001
 2.786386038660004e+000	 1.904383848843868e+000	 1.128758016271408e+001
 2.766679500644376e+000	 1.932901844604140e+000	 1.128090901423501e+001
 2.746662871703712e+000	 1.961241461255373e+000	 1.127613907838168e+001
 2.726338534147595e+000	 1.989397697130343e+000	 1.127338629539963e+001
 2.705708976889859e+000	 2.017365592173613e+000	 1.127276593551310e+001
 2.684776794561110e+000	 2.045140230761071e+000	 1.127439232215536e+001
 2.663544686532283e+000	 2.072716744497435e+000	 1.127837855110274e+001
 2.642015455849858e+000	 2.100090314988453e+000	 1.128483620618705e+001
 2.620192008083476e+000	 2.127256176584556e+000	 1.129387507228263e+001
 2.845784738178201e+000	 1.860513161512450e+000	 1.123036256833198e+001
 2.826563767960662e+000	 1.889586533039316e+000	 1.126439071793559e+001
 2.807025935242726e+000	 1.918490395870783e+000	 1.125993688232354e+001
 2.787173422871487e+000	 1.947219636043831e+000	 1.125681081884574e+001
 2.767008522605408e+000	 1.975769175781172e+000	 1.125508273988933e+001
 2.746533634400807e+000	 2.004133976366192e+000	 1.125482280314534e+001
 2.725751265607919e+000	 2.032309041002304e+000	 1.125610088719538e+001
 2.704664030076833e+000	 2.060289417653368e+000	 1.125898636202498e+001
 2.683274647173827e+000	 2.088070201861913e+000	 1.126354785503697e+001
 2.661585940708689e+000	 2.115646539541879e+000	 1.126985301316377e+001
 2.639600837773796e+000	 2.143013629742586e+000	 1.127796826169847e+001
 2.866709625957885e+000	 1.874193405345763e+000	 1.123572778490775e+001
 2.847347325077028e+000	 1.903480551662975e+000	 1.123550226611916e+001
 2.827665831824468e+000	 1.932596942897376e+000	 1.123392776279428e+001
 2.807667345097644e+000	 1.961537427483275e+000	 1.123323127617039e+001
 2.787354173506183e+000	 1.990296890306788e+000	 1.123343751541333e+001
 2.766728734653144e+000	 2.018870255601915e+000	 1.123457147707673e+001
 2.745793554325158e+000	 2.047252489830916e+000	 1.123665826768174e+001
 2.724551265591801e+000	 2.075438604545620e+000	 1.123972292089363e+001
 2.703004607814691e+000	 2.103423659226372e+000	 1.124379020979335e+001
 2.681156425566925e+000	 2.131202764095299e+000	 1.124888445476691e+001
 2.659009667463616e+000	 2.158771082900617e+000	 1.125502932755768e+001
 2.887634513736569e+000	 1.887873649178574e+000	 1.120949204418213e+001
 2.868130882192400e+000	 1.917374570286227e+000	 1.120924133764486e+001
 2.848305728405229e+000	 1.946703489923646e+000	 1.120944699563920e+001
 2.828161267322845e+000	 1.975855218922473e+000	 1.121008808232142e+001
 2.807699824406037e+000	 2.004824604832223e+000	 1.121114441508505e+001
 2.786923834904605e+000	 2.033606534837511e+000	 1.121259643965994e+001
 2.765835843041575e+000	 2.062195938659446e+000	 1.121442509907869e+001
 2.744438501106013e+000	 2.090587791437827e+000	 1.121661169690706e+001
 2.722734568454874e+000	 2.118777116590810e+000	 1.121913775516185e+001
 2.700726910424563e+000	 2.146758988648714e+000	 1.122198486736425e+001
 2.678418497152933e+000	 2.174528536058647e+000	 1.122513454720045e+001
 2.908559401514253e+000	 1.901553893010882e+000	 1.118463827078889e+001
 2.888914439306776e+000	 1.931268588909071e+000	 1.118548255403680e+001
 2.868945624985011e+000	 1.960810036949594e+000	 1.118639219152960e+001
 2.848655189547090e+000	 1.990173010361423e+000	 1.118730166241157e+001
 2.828045475304971e+000	 2.019352319357475e+000	 1.118814649290777e+001
 2.807118935155189e+000	 2.048342814072981e+000	 1.118886317747462e+001
 2.785878131757173e+000	 2.077139387487895e+000	 1.118938909355613e+001
 2.764325736619468e+000	 2.105736978329987e+000	 1.118966241026828e+001
 2.742464529094376e+000	 2.134130573955227e+000	 1.118962199136069e+001
 2.720297395281607e+000	 2.162315213202125e+000	 1.118920729283025e+001
 2.697827326841749e+000	 2.190285989216679e+000	 1.118835825558606e+001
 2.929484289290938e+000	 1.915234136842687e+000	 1.116322532561468e+001
 2.909697996420158e+000	 1.945162607531509e+000	 1.116410450389454e+001
 2.889585521563813e+000	 1.974916583975221e+000	 1.116466425818243e+001
 2.869149111770381e+000	 2.004490801800127e+000	 1.116479507308959e+001
 2.848391126202986e+000	 2.033880033882548e+000	 1.116438877376123e+001
 2.827314035404899e+000	 2.063079093308325e+000	 1.116333849249548e+001
 2.805920420471948e+000	 2.092082836316264e+000	 1.116153862870210e+001
 2.784212972132169e+000	 2.120886165222104e+000	 1.115888480244969e+001
 2.762194489733197e+000	 2.149484031319626e+000	 1.115527380187810e+001
 2.739867880138053e+000	 2.177871437755531e+000	 1.115060352477773e+001
 2.717236156530065e+000	 2.206043442374710e+000	 1.114477291466350e+001
 2.523147859624355e+000	 2.048468910794402e+000	 1.126511218520440e+001
 2.501852263035922e+000	 2.074424077653029e+000	 1.121673891747550e+001
 2.480279233527257e+000	 2.100170213036469e+000	 1.119167648141453e+001
 2.458431857744017e+000	 2.125702895705409e+000	 1.116967430220011e+001
 2.436313315794467e+000	 2.151017765443551e+000	 1.114842232510749e+001
 2.413926879733346e+000	 2.176110525516454e+000	 1.112777162707096e+001
 2.391275911968415e+000	 2.200976945084876e+000	 1.110756789329841e+001
 2.368363863591268e+000	 2.225612861569795e+000	 1.108765168429660e+001
 2.345194272634155e+000	 2.250014182966333e+000	 1.106785871764440e+001
 2.321770762254631e+000	 2.274176890103911e+000	 1.104802016388519e+001
 2.298097038850000e+000	 2.298097038850000e+000	 1.102796295586245e+001
 2.542556689317182e+000	 2.064226363952433e+000	 1.128558339726223e+001
 2.521097280446934e+000	 2.090381185940973e+000	 1.123654421073641e+001
 2.499358304557080e+000	 2.116325368519901e+000	 1.118854363244735e+001
 2.477342872036708e+000	 2.142054456440371e+000	 1.116575681481132e+001
 2.455054187456452e+000	 2.167564055945961e+000	 1.114419555728389e+001
 2.432495548040706e+000	 2.192849837250425e+000	 1.112372148804522e+001
 2.409670342061903e+000	 2.217907536969606e+000	 1.110419028283115e+001
 2.386582047158497e+000	 2.242732960504638e+000	 1.108545192268971e+001
 2.363234228578370e+000	 2.267321984373689e+000	 1.106735096740274e+001
 2.339630537349519e+000	 2.291670558489479e+000	 1.104972684395558e+001
 2.315774708380000e+000	 2.315774708380000e+000	 1.103241414938819e+001
 2.561965519009508e+000	 2.079983817110463e+000	 1.129860930850353e+001
 2.540342297857539e+000	 2.106338294228916e+000	 1.124923754506292e+001
 2.518437375586582e+000	 2.132480524003332e+000	 1.120055082646029e+001
 2.496253886329154e+000	 2.158406017175334e+000	 1.115687098853372e+001
 2.473795059118257e+000	 2.184110346448371e+000	 1.113534522918085e+001
 2.451064216347940e+000	 2.209589148984396e+000	 1.111539044516539e+001
 2.428064772155310e+000	 2.234838128854334e+000	 1.109687207478778e+001
 2.404800230725680e+000	 2.259853059439482e+000	 1.107964929054734e+001
 2.381274184522564e+000	 2.284629785781045e+000	 1.106357526446753e+001
 2.357490312444404e+000	 2.309164226875048e+000	 1.104849744940274e+001
 2.333452377910000e+000	 2.333452377910000e+000	 1.103425787566901e+001
 2.581374348701332e+000	 2.095741270268494e+000	 1.130427706338456e+001
 2.559587315267738e+000	 2.122295402516860e+000	 1.125489778891124e+001
 2.537516446615763e+000	 2.148635679486764e+000	 1.120658173865290e+001
 2.515164900621352e+000	 2.174757577910296e+000	 1.115946539677348e+001
 2.492535930779882e+000	 2.200656636950781e+000	 1.112185160830691e+001
 2.469632884655049e+000	 2.226328460718368e+000	 1.110275193692532e+001
 2.446459202248638e+000	 2.251768720739062e+000	 1.108558004851582e+001
 2.423018414292819e+000	 2.276973158374326e+000	 1.107020408079008e+001
 2.399314140466739e+000	 2.301937587188401e+000	 1.105648559077728e+001
 2.375350087539283e+000	 2.326657895260616e+000	 1.104427982922545e+001
 2.351130047440000e+000	 2.351130047440000e+000	 1.103343603127360e+001
 2.600783178392654e+000	 2.111498723426525e+000	 1.130267146711215e+001
 2.578832332677530e+000	 2.138252510804803e+000	 1.125360170111644e+001
 2.556595517644623e+000	 2.164790834970196e+000	 1.120596901876523e+001
 2.534075914913305e+000	 2.191109138645258e+000	 1.115992802562174e+001
 2.511276802441326e+000	 2.217202927453191e+000	 1.111563201895480e+001
 2.488201552962032e+000	 2.243067772452339e+000	 1.108577817483221e+001
 2.464853632341884e+000	 2.268699312623791e+000	 1.107027996751310e+001
 2.441236597859911e+000	 2.294093257309170e+000	 1.105707577760463e+001
 2.417354096410893e+000	 2.319245388595757e+000	 1.104603532252884e+001
 2.393209862634156e+000	 2.344151563646185e+000	 1.103702142544976e+001
 2.368807716970000e+000	 2.368807716970000e+000	 1.102989030024686e+001
 2.620192008083476e+000	 2.127256176584556e+000	 1.129387507228263e+001
 2.598077350086916e+000	 2.154209619092746e+000	 1.124542400902653e+001
 2.575674588673162e+000	 2.180945990453628e+000	 1.119877966900885e+001
 2.552986929205012e+000	 2.207460699380220e+000	 1.115411470557367e+001
 2.530017674102588e+000	 2.233749217955600e+000	 1.111160016213423e+001
 2.506770221268889e+000	 2.259807084186310e+000	 1.107140511543690e+001
 2.483248062435051e+000	 2.285629904508520e+000	 1.105093661705208e+001
 2.459454781426959e+000	 2.311213356244014e+000	 1.104022308639704e+001
 2.435394052355028e+000	 2.336553190003113e+000	 1.103217725261230e+001
 2.411069637729026e+000	 2.361645232031754e+000	 1.102666928820208e+001
 2.386485386499999e+000	 2.386485386500000e+000	 1.102356216198109e+001
 2.639600837773796e+000	 2.143013629742586e+000	 1.127796826169847e+001
 2.617322367495897e+000	 2.170166727380690e+000	 1.123043748318953e+001
 2.594753659701379e+000	 2.197101145937059e+000	 1.118507894456563e+001
 2.571897943496474e+000	 2.223812260115182e+000	 1.114208327767171e+001
 2.548758545763670e+000	 2.250295508458010e+000	 1.110163920600602e+001
 2.525338889575621e+000	 2.276546395920281e+000	 1.106393316425822e+001
 2.501642492528136e+000	 2.302560496393248e+000	 1.102914891795458e+001
 2.477672964993961e+000	 2.328333455178858e+000	 1.101960396242424e+001
 2.453434008299142e+000	 2.353860991410469e+000	 1.101486361205598e+001
 2.428929412823889e+000	 2.379138900417321e+000	 1.101317009011732e+001
 2.404163056029999e+000	 2.404163056029999e+000	 1.101439289874003e+001
 2.659009667463616e+000	 2.158771082900617e+000	 1.125502932755768e+001
 2.636567384904470e+000	 2.186123835668633e+000	 1.120871300876943e+001
 2.613832730729276e+000	 2.213256301420490e+000	 1.116493041734802e+001
 2.590808957787688e+000	 2.240163820850145e+000	 1.112389009859579e+001
 2.567499417424571e+000	 2.266841798960420e+000	 1.108579839422403e+001
 2.543907557882227e+000	 2.293285707654252e+000	 1.105085903815686e+001
 2.520036922621142e+000	 2.319491088277977e+000	 1.101927275275265e+001
 2.495891148560919e+000	 2.345453554113702e+000	 1.099517563817174e+001
 2.471473964243236e+000	 2.371168792817825e+000	 1.099404609053249e+001
 2.446789187918748e+000	 2.396632568802890e+000	 1.099647014011585e+001
 2.421840725560000e+000	 2.421840725560000e+000	 1.100232360285327e+001
 2.678418497152933e+000	 2.174528536058647e+000	 1.122513454720045e+001
 2.655812402312637e+000	 2.202080943956577e+000	 1.118031965385731e+001
 2.632911801756850e+000	 2.229411456903922e+000	 1.113839603698702e+001
 2.609719972078657e+000	 2.256515381585107e+000	 1.109959009444489e+001
 2.586240289085291e+000	 2.283388089462830e+000	 1.106412572837415e+001
 2.562476226188708e+000	 2.310025019388223e+000	 1.103222391726364e+001
 2.538431352714067e+000	 2.336421680162705e+000	 1.100410228872848e+001
 2.514109332127831e+000	 2.362573653048545e+000	 1.097997469404262e+001
 2.489513920187310e+000	 2.388476594225181e+000	 1.096967585597294e+001
 2.464648963013601e+000	 2.414126237188458e+000	 1.097651539658161e+001
 2.439518395090000e+000	 2.439518395090000e+000	 1.098729518359802e+001
 2.697827326841749e+000	 2.190285989216679e+000	 1.118835825558606e+001
 2.675057419720397e+000	 2.218038052244520e+000	 1.114532473483363e+001
 2.651990872784105e+000	 2.245566612387353e+000	 1.110553618918769e+001
 2.628630986369381e+000	 2.272866942320069e+000	 1.106923681219650e+001
 2.604981160745831e+000	 2.299934379965240e+000	 1.103666801265286e+001
 2.581044894495063e+000	 2.326764331122194e+000	 1.100806796288876e+001
 2.556825782806911e+000	 2.353352272047435e+000	 1.098367114809435e+001
 2.532327515694697e+000	 2.379693751983389e+000	 1.096370791773696e+001
 2.507553876131364e+000	 2.405784395632537e+000	 1.094840404016009e+001
 2.482508738108451e+000	 2.431619905574027e+000	 1.095325147997132e+001
 2.457196064620000e+000	 2.457196064620000e+000	 1.096924837378363e+001
 2.717236156530065e+000	 2.206043442374710e+000	 1.114477291466350e+001
 2.694302437127753e+000	 2.233995160532463e+000	 1.110379387892936e+001
 2.671069943811037e+000	 2.261721767870785e+000	 1.106640975158355e+001
 2.647542000659859e+000	 2.289218503055032e+000	 1.103288246896122e+001
 2.623722032406191e+000	 2.316480670467651e+000	 1.100347089663130e+001
 2.599613562801293e+000	 2.343503642856166e+000	 1.097843035390814e+001
 2.575220212899677e+000	 2.370282863932164e+000	 1.095801213968341e+001
 2.550545699261520e+000	 2.396813850918234e+000	 1.094246306070191e+001
 2.525593832075398e+000	 2.423092197039894e+000	 1.093202496340808e+001
 2.500368513203295e+000	 2.449113573959596e+000	 1.092693427048983e+001
 2.474873734150000e+000	 2.474873734150000e+000	 1.094812373605407e+001
 2.298097038850000e+000	 2.298097038850000e+000	 1.102796295586245e+001
 2.274176890103912e+000	 2.321770762254630e+000	 1.099012879599702e+001
 2.250014182966333e+000	 2.345194272634154e+000	 1.095616565664405e+001
 2.225612861569796e+000	 2.368363863591268e+000	 1.092583694578538e+001
 2.200976945084877e+000	 2.391275911968414e+000	 1.089889917017666e+001
 2.176110525516455e+000	 2.413926879733346e+000	 1.087510236540212e+001
 2.151017765443552e+000	 2.436313315794465e+000	 1.085419053963831e+001
 2.125702895705410e+000	 2.458431857744016e+000	 1.083590213006802e+001
 2.100170213036470e+000	 2.480279233527256e+000	 1.081997047084803e+001
 2.074424077653031e+000	 2.501852263035922e+000	 1.079891577146240e+001
 2.048468910794402e+000	 2.523147859624355e+000	 1.070483160371942e+001
 2.315774708380000e+000	 2.315774708380000e+000	 1.103241414938819e+001
 2.291670558489480e+000	 2.339630537349518e+000	 1.099685923875071e+001
 2.267321984373690e+000	 2.363234228578369e+000	 1.096574637853106e+001
 2.242732960504639e+000	 2.386582047158496e+000	 1.093885965265859e+001
 2.217907536969606e+000	 2.409670342061902e+000	 1.091597557071445e+001
 2.192849837250426e+000	 2.432495548040705e+000	 1.089686348059048e+001
 2.167564055945962e+000	 2.455054187456451e+000	 1.088128599593324e+001
 2.142054456440372e+000	 2.477342872036707e+000	 1.086899943733277e+001
 2.116325368519902e+000	 2.499358304557080e+000	 1.085975428617670e+001
 2.090381185940974e+000	 2.521097280446933e+000	 1.077071450106110e+001
 2.064226363952433e+000	 2.542556689317182e+000	 1.068431967402907e+001
 2.333452377910000e+000	 2.333452377910000e+000	 1.103425787566901e+001
 2.309164226875049e+000	 2.357490312444403e+000	 1.100166160256297e+001
 2.284629785781046e+000	 2.381274184522563e+000	 1.097407431617901e+001
 2.259853059439484e+000	 2.404800230725680e+000	 1.095130037540277e+001
 2.234838128854335e+000	 2.428064772155310e+000	 1.093313589281472e+001
 2.209589148984398e+000	 2.451064216347938e+000	 1.091936913038140e+001
 2.184110346448372e+000	 2.473795059118257e+000	 1.090978091100776e+001
 2.158406017175334e+000	 2.496253886329152e+000	 1.090414504492735e+001
 2.132480524003333e+000	 2.518437375586581e+000	 1.082899854251998e+001
 2.106338294228917e+000	 2.540342297857538e+000	 1.074494405392285e+001
 2.079983817110463e+000	 2.561965519009508e+000	 1.066685654854405e+001
 2.351130047440000e+000	 2.351130047440000e+000	 1.103343603127360e+001
 2.326657895260617e+000	 2.375350087539281e+000	 1.100446402308056e+001
 2.301937587188402e+000	 2.399314140466737e+000	 1.098106403750551e+001
 2.276973158374327e+000	 2.423018414292818e+000	 1.096306031331571e+001
 2.251768720739064e+000	 2.446459202248638e+000	 1.095026817203580e+001
 2.226328460718368e+000	 2.469632884655047e+000	 1.094249439709497e+001
 2.200656636950782e+000	 2.492535930779881e+000	 1.093953762991082e+001
 2.174757577910297e+000	 2.515164900621351e+000	 1.088009843031905e+001
 2.148635679486765e+000	 2.537516446615762e+000	 1.079731683319820e+001
 2.122295402516861e+000	 2.559587315267736e+000	 1.072139219057729e+001
 2.095741270268495e+000	 2.581374348701332e+000	 1.065221785714271e+001
 2.368807716970000e+000	 2.368807716970000e+000	 1.102989030024686e+001
 2.344151563646185e+000	 2.393209862634155e+000	 1.100519485200829e+001
 2.319245388595758e+000	 2.417354096410892e+000	 1.098663075031947e+001
 2.294093257309171e+000	 2.441236597859911e+000	 1.097404172446774e+001
 2.268699312623792e+000	 2.464853632341884e+000	 1.096726191643771e+001
 2.243067772452340e+000	 2.488201552962031e+000	 1.096611624393327e+001
 2.217202927453192e+000	 2.511276802441325e+000	 1.092436761186355e+001
 2.191109138645259e+000	 2.534075914913304e+000	 1.084185967252555e+001
 2.164790834970197e+000	 2.556595517644622e+000	 1.076704602220680e+001
 2.138252510804804e+000	 2.578832332677529e+000	 1.069985012867082e+001
 2.111498723426525e+000	 2.600783178392654e+000	 1.064018306564220e+001
 2.386485386499999e+000	 2.386485386500000e+000	 1.102356216198109e+001
 2.361645232031754e+000	 2.411069637729024e+000	 1.100378264910708e+001
 2.336553190003114e+000	 2.435394052355026e+000	 1.099069027862146e+001
 2.311213356244015e+000	 2.459454781426958e+000	 1.098414788648794e+001
 2.285629904508521e+000	 2.483248062435050e+000	 1.098400805204504e+001
 2.259807084186311e+000	 2.506770221268889e+000	 1.096209721964357e+001
 2.233749217955602e+000	 2.530017674102587e+000	 1.087893321144336e+001
 2.207460699380221e+000	 2.552986929205011e+000	 1.080424648119451e+001
 2.180945990453628e+000	 2.575674588673162e+000	 1.073799229113165e+001
 2.154209619092748e+000	 2.598077350086915e+000	 1.068011241492551e+001
 2.127256176584556e+000	 2.620192008083476e+000	 1.063053533372636e+001
 2.404163056029999e+000	 2.404163056029999e+000	 1.101439289874003e+001
 2.379138900417322e+000	 2.428929412823889e+000	 1.100015617454472e+001
 2.353860991410470e+000	 2.453434008299141e+000	 1.099315903994976e+001
 2.328333455178859e+000	 2.477672964993961e+000	 1.099328305908037e+001
 2.302560496393249e+000	 2.501642492528135e+000	 1.099351503864025e+001
 2.276546395920282e+000	 2.525338889575620e+000	 1.090883599143049e+001
 2.250295508458011e+000	 2.548758545763669e+000	 1.083336122367381e+001
 2.223812260115184e+000	 2.571897943496472e+000	 1.076707940223255e+001
 2.197101145937060e+000	 2.594753659701378e+000	 1.070996467104263e+001
 2.170166727380690e+000	 2.617322367495895e+000	 1.066197680274637e+001
 2.143013629742586e+000	 2.639600837773797e+000	 1.062306137914191e+001
 2.421840725560000e+000	 2.421840725560000e+000	 1.100232360285327e+001
 2.396632568802890e+000	 2.446789187918747e+000	 1.099424438158165e+001
 2.371168792817826e+000	 2.471473964243235e+000	 1.099395402371821e+001
 2.345453554113703e+000	 2.495891148560918e+000	 1.100135244818190e+001
 2.319491088277979e+000	 2.520036922621141e+000	 1.093180340587330e+001
 2.293285707654253e+000	 2.543907557882227e+000	 1.085469602962568e+001
 2.266841798960421e+000	 2.567499417424570e+000	 1.078748598242938e+001
 2.240163820850145e+000	 2.590808957787687e+000	 1.073018137742315e+001
 2.213256301420491e+000	 2.613832730729275e+000	 1.068277493849787e+001
 2.186123835668634e+000	 2.636567384904469e+000	 1.064524413518920e+001
 2.158771082900617e+000	 2.659009667463616e+000	 1.061755134784218e+001
 2.439518395090000e+000	 2.439518395090000e+000	 1.098729518359802e+001
 2.414126237188460e+000	 2.464648963013600e+000	 1.098597640957508e+001
 2.388476594225182e+000	 2.489513920187309e+000	 1.099299277049617e+001
 2.362573653048546e+000	 2.514109332127829e+000	 1.094800668039906e+001
 2.336421680162707e+000	 2.538431352714066e+000	 1.086849373466500e+001
 2.310025019388224e+000	 2.562476226188708e+000	 1.079952490207982e+001
 2.283388089462831e+000	 2.586240289085291e+000	 1.074114378861427e+001
 2.256515381585108e+000	 2.609719972078657e+000	 1.069337765761937e+001
 2.229411456903923e+000	 2.632911801756850e+000	 1.065623751606945e+001
 2.202080943956577e+000	 2.655812402312636e+000	 1.062971823301680e+001
 2.174528536058648e+000	 2.678418497152933e+000	 1.061379868977667e+001
 2.457196064620000e+000	 2.457196064620000e+000	 1.096924837378363e+001
 2.431619905574028e+000	 2.482508738108450e+000	 1.097528157728469e+001
 2.405784395632538e+000	 2.507553876131362e+000	 1.095755188703985e+001
 2.379693751983390e+000	 2.532327515694696e+000	 1.087493319165084e+001
 2.353352272047436e+000	 2.556825782806911e+000	 1.080344629434515e+001
 2.326764331122195e+000	 2.581044894495062e+000	 1.074317173842199e+001
 2.299934379965241e+000	 2.604981160745830e+000	 1.069417283940600e+001
 2.272866942320070e+000	 2.628630986369379e+000	 1.065649571968376e+001
 2.245566612387354e+000	 2.651990872784104e+000	 1.063016937716309e+001
 2.218038052244521e+000	 2.675057419720397e+000	 1.061520578758710e+001
 2.190285989216679e+000	 2.697827326841749e+000	 1.061160004004226e+001
 2.474873734150000e+000	 2.474873734150000e+000	 1.094812373605407e+001
 2.449113573959596e+000	 2.500368513203294e+000	 1.096047899567993e+001
 2.423092197039895e+000	 2.525593832075397e+000	 1.087412826563091e+001
 2.396813850918235e+000	 2.550545699261519e+000	 1.079943649739628e+001
 2.370282863932165e+000	 2.575220212899675e+000	 1.073652253325872e+001
 2.343503642856167e+000	 2.599613562801293e+000	 1.068548717428214e+001
 2.316480670467652e+000	 2.623722032406190e+000	 1.064641316053135e+001
 2.289218503055033e+000	 2.647542000659857e+000	 1.061936518698827e+001
 2.261721767870786e+000	 2.671069943811037e+000	 1.060438995491694e+001
 2.233995160532465e+000	 2.694302437127753e+000	 1.060151625833195e+001
 2.206043442374710e+000	 2.717236156530064e+000	 1.061075510512800e+001
 2.048468910794402e+000	 2.523147859624355e+000	 1.070483160371942e+001
 2.022309192221251e+000	 2.544163031546754e+000	 1.061039648594763e+001
 1.995949457674740e+000	 2.564894883314335e+000	 1.052355305046268e+001
 1.969394296298900e+000	 2.585340616971147e+000	 1.044443507566852e+001
 1.942648348028941e+000	 2.605497533287247e+000	 1.037316404058438e+001
 1.915716300949207e+000	 2.625363032868397e+000	 1.030984917752613e+001
 1.888602888623659e+000	 2.644934617181425e+000	 1.025458754827615e+001
 1.861312887401979e+000	 2.664209889494488e+000	 1.023038036063877e+001
 1.833851113704458e+000	 2.683186555731692e+000	 1.023985287909403e+001
 1.806222421288801e+000	 2.701862425241567e+000	 1.026079496134263e+001
 1.778431698502015e+000	 2.720235411479095e+000	 1.029290788520337e+001
 2.064226363952433e+000	 2.542556689317182e+000	 1.068431967402907e+001
 2.037865416774701e+000	 2.563733516408568e+000	 1.060418668521212e+001
 2.011302915039320e+000	 2.584624843959287e+000	 1.053026303484117e+001
 1.984543483191425e+000	 2.605227852490651e+000	 1.046261705838917e+001
 1.957591796858037e+000	 2.625539822009411e+000	 1.040130629890537e+001
 1.930452580185687e+000	 2.645558133125988e+000	 1.034637762303169e+001
 1.903130603150365e+000	 2.665280268087723e+000	 1.029786735827880e+001
 1.875630678842905e+000	 2.684703811726376e+000	 1.025580145092709e+001
 1.847957660732985e+000	 2.703826452319315e+000	 1.026525997389729e+001
 1.820116439914906e+000	 2.722645982363904e+000	 1.028535436178280e+001
 1.792111942338345e+000	 2.741160299264779e+000	 1.031470471140433e+001
 2.079983817110463e+000	 2.561965519009508e+000	 1.066685654854405e+001
 2.053421641328147e+000	 2.583304001269784e+000	 1.059953813676319e+001
 2.026656372403879e+000	 2.604354804603557e+000	 1.053707500540761e+001
 1.999692670083905e+000	 2.625115088009400e+000	 1.047947065147152e+001
 1.972535245687052e+000	 2.645582110730754e+000	 1.042671926346783e+001
 1.945188859422041e+000	 2.665753233382703e+000	 1.037880590040814e+001
 1.917658317676890e+000	 2.685625918993101e+000	 1.033570668984610e+001
 1.889948470283585e+000	 2.705197733957309e+000	 1.029738904425618e+001
 1.862064207761189e+000	 2.724466348905958e+000	 1.028452221675440e+001
 1.834010458540604e+000	 2.743429539485245e+000	 1.030257927645112e+001
 1.805792186174171e+000	 2.762085187049463e+000	 1.032800799959426e+001
 2.095741270268495e+000	 2.581374348701332e+000	 1.065221785714271e+001
 2.068977865881588e+000	 2.602874486130406e+000	 1.059626197101609e+001
 2.042009829768418e+000	 2.624084765247146e+000	 1.054383509067862e+001
 2.014841856976339e+000	 2.645002323527392e+000	 1.049487646292503e+001
 1.987478694515987e+000	 2.665624399451277e+000	 1.044931748735100e+001
 1.959925138658268e+000	 2.685948333638542e+000	 1.040708195793871e+001
 1.932186032203233e+000	 2.705971569897558e+000	 1.036808632154230e+001
 1.904266261724018e+000	 2.725691656187287e+000	 1.033223995245098e+001
 1.876170754789071e+000	 2.745106245491619e+000	 1.029944544216407e+001
 1.847904477165894e+000	 2.764213096605592e+000	 1.031250998162662e+001
 1.819472430009494e+000	 2.783010074833148e+000	 1.033289066340321e+001
 2.111498723426525e+000	 2.600783178392654e+000	 1.064018306564220e+001
 2.084534090435024e+000	 2.622444970990429e+000	 1.059417211279273e+001
 2.057363287132937e+000	 2.643814725890054e+000	 1.055039118849650e+001
 2.029991043868728e+000	 2.664889559044629e+000	 1.050871586191520e+001
 2.002422143344841e+000	 2.685666688170979e+000	 1.046901529398080e+001
 1.974661417894370e+000	 2.706143433893506e+000	 1.043115254124107e+001
 1.946713746729394e+000	 2.726317220801094e+000	 1.039498487447350e+001
 1.918584053164202e+000	 2.746185578416308e+000	 1.036036411115197e+001
 1.890277301816631e+000	 2.765746142076301e+000	 1.032713696081055e+001
 1.861798495790775e+000	 2.784996653724944e+000	 1.031518184510610e+001
 1.833152673844316e+000	 2.803934962615831e+000	 1.032941983003143e+001
 2.127256176584556e+000	 2.620192008083476e+000	 1.063053533372636e+001
 2.100090314988453e+000	 2.642015455849857e+000	 1.059308517782525e+001
 2.072716744497436e+000	 2.663544686532280e+000	 1.055659290049842e+001
 2.045140230761071e+000	 2.684776794561109e+000	 1.052087095057251e+001
 2.017365592173614e+000	 2.705708976889859e+000	 1.048572678563581e+001
 1.989397697130344e+000	 2.726338534147595e+000	 1.045096323781035e+001
 1.961241461255374e+000	 2.746662871703711e+000	 1.041637889219341e+001
 1.932901844604141e+000	 2.766679500644375e+000	 1.038176847695749e+001
 1.904383848843869e+000	 2.786386038660004e+000	 1.034692326406556e+001
 1.875692514415250e+000	 2.805780210843299e+000	 1.031163147952890e+001
 1.846832917678635e+000	 2.824859850397516e+000	 1.031765705456157e+001
 2.143013629742586e+000	 2.639600837773797e+000	 1.062306137914191e+001
 2.115646539541880e+000	 2.661585940708688e+000	 1.059282037382541e+001
 2.088070201861914e+000	 2.683274647173827e+000	 1.056229146947700e+001
 2.060289417653368e+000	 2.704664030076832e+000	 1.053122453704519e+001
 2.032309041002306e+000	 2.725751265607919e+000	 1.049936585157729e+001
 2.004133976366193e+000	 2.746533634400806e+000	 1.046645851959715e+001
 1.975769175781172e+000	 2.767008522605407e+000	 1.043224291708387e+001
 1.947219636043832e+000	 2.787173422871487e+000	 1.039645713694731e+001
 1.918490395870784e+000	 2.807025935242725e+000	 1.035883744486740e+001
 1.889586533039317e+000	 2.826563767960661e+000	 1.031911874234111e+001
 1.860513161512450e+000	 2.845784738178200e+000	 1.029765852481622e+001
 2.158771082900617e+000	 2.659009667463616e+000	 1.061755134784218e+001
 2.131202764095300e+000	 2.681156425566923e+000	 1.059319940588678e+001
 2.103423659226372e+000	 2.703004607814691e+000	 1.056733971948406e+001
 2.075438604545621e+000	 2.724551265591801e+000	 1.053966010973218e+001
 2.047252489830917e+000	 2.745793554325157e+000	 1.050984617582397e+001
 2.018870255601916e+000	 2.766728734653142e+000	 1.047758178372088e+001
 1.990296890306789e+000	 2.787354173506182e+000	 1.044254956339049e+001
 1.961537427483277e+000	 2.807667345097643e+000	 1.040443141340966e+001
 1.932596942897377e+000	 2.827665831824467e+000	 1.036290901171182e+001
 1.903480551662976e+000	 2.847347325077028e+000	 1.031766433123723e+001
 1.874193405345763e+000	 2.866709625957885e+000	 1.026947525724292e+001
 2.174528536058648e+000	 2.678418497152933e+000	 1.061379868977667e+001
 2.146758988648715e+000	 2.700726910424563e+000	 1.059404638600010e+001
 2.118777116590811e+000	 2.722734568454874e+000	 1.057159199853871e+001
 2.090587791437828e+000	 2.744438501106012e+000	 1.054606181263633e+001
 2.062195938659447e+000	 2.765835843041575e+000	 1.051708124458811e+001
 2.033606534837512e+000	 2.786923834904603e+000	 1.048427539141296e+001
 2.004824604832224e+000	 2.807699824406037e+000	 1.044726958708242e+001
 1.975855218922475e+000	 2.828161267322845e+000	 1.040568996401477e+001
 1.946703489923648e+000	 2.848305728405229e+000	 1.035916401852324e+001
 1.917374570286228e+000	 2.868130882192399e+000	 1.030732117889449e+001
 1.887873649178574e+000	 2.887634513736569e+000	 1.024979337476286e+001
 2.190285989216679e+000	 2.697827326841749e+000	 1.061160004004226e+001
 2.162315213202126e+000	 2.720297395281605e+000	 1.059518774647390e+001
 2.134130573955228e+000	 2.742464529094375e+000	 1.057490412380838e+001
 2.105736978329988e+000	 2.764325736619468e+000	 1.055031442178157e+001
 2.077139387487896e+000	 2.785878131757171e+000	 1.052098435339085e+001
 2.048342814072981e+000	 2.807118935155188e+000	 1.048648070527881e+001
 2.019352319357477e+000	 2.828045475304971e+000	 1.044637195269714e+001
 1.990173010361424e+000	 2.848655189547089e+000	 1.040022887766446e+001
 1.960810036949596e+000	 2.868945624985010e+000	 1.034762518891986e+001
 1.931268588909073e+000	 2.888914439306776e+000	 1.028813814226270e+001
 1.901553893010882e+000	 2.908559401514253e+000	 1.022134915986620e+001
 2.206043442374710e+000	 2.717236156530064e+000	 1.061075510512800e+001
 2.177871437755532e+000	 2.739867880138052e+000	 1.059645215706626e+001
 2.149484031319626e+000	 2.762194489733196e+000	 1.057713332913908e+001
 2.120886165222105e+000	 2.784212972132167e+000	 1.055230332264071e+001
 2.092082836316265e+000	 2.805920420471948e+000	 1.052146861387269e+001
 2.063079093308326e+000	 2.827314035404899e+000	 1.048413812496335e+001
 2.033880033882549e+000	 2.848391126202985e+000	 1.043982389731985e+001
 2.004490801800128e+000	 2.869149111770380e+000	 1.038804176623398e+001
 1.974916583975222e+000	 2.889585521563812e+000	 1.032831203515332e+001
 1.945162607531510e+000	 2.909697996420158e+000	 1.026016014812620e+001
 1.915234136842688e+000	 2.929484289290938e+000	 1.018311735892688e+001
 1.778431698502015e+000	 2.720235411479095e+000	 1.029290788520337e+001
 1.750483865520404e+000	 2.738303532601247e+000	 1.024858878669362e+001
 1.722383871581194e+000	 2.756064911975476e+000	 1.020258525123326e+001
 1.694136692208681e+000	 2.773517778601558e+000	 1.015420079068165e+001
 1.665747326437761e+000	 2.790660467447267e+000	 1.010275280287266e+001
 1.637220794038315e+000	 2.807491419697759e+000	 1.004757380117500e+001
 1.608562132743385e+000	 2.824009182919216e+000	 9.988012605731200e+000
 1.579776395484174e+000	 2.840212411137346e+000	 9.923435493825718e+000
 1.550868647634842e+000	 2.856099864831403e+000	 9.853227306975157e+000
 1.521843964270076e+000	 2.871670410844536e+000	 9.776792512476217e+000
 1.492707427438275e+000	 2.886923022211355e+000	 9.693556217302723e+000
 1.792111942338345e+000	 2.741160299264779e+000	 1.031470471140433e+001
 1.763949126026976e+000	 2.759367405933930e+000	 1.025764916228916e+001
 1.735632978288948e+000	 2.777265411303141e+000	 1.020071348238772e+001
 1.707168512921817e+000	 2.794852530749106e+000	 1.014323479263717e+001
 1.678560767414598e+000	 2.812127086431664e+000	 1.008456214440291e+001
 1.649814800150785e+000	 2.829087507545086e+000	 1.002405774674176e+001
 1.620935687615213e+000	 2.845732330482984e+000	 9.961098157796945e+000
 1.591928521607786e+000	 2.862060198917422e+000	 9.895075437727797e+000
 1.562798406467085e+000	 2.878069863792879e+000	 9.825398260711307e+000
 1.533550456306831e+000	 2.893760183235912e+000	 9.751492983698052e+000
 1.504189792268103e+000	 2.909130122381397e+000	 9.672804669751175e+000
 1.805792186174171e+000	 2.762085187049463e+000	 1.032800799959426e+001
 1.777414386532957e+000	 2.780431279265624e+000	 1.025976470969429e+001
 1.748882084996038e+000	 2.798465910629846e+000	 1.019341588035760e+001
 1.720200333634242e+000	 2.816187282895746e+000	 1.012833131667069e+001
 1.691374208390694e+000	 2.833593705415225e+000	 1.006389082350749e+001
 1.662408806262505e+000	 2.850683595391665e+000	 9.999485431394877e+000
 1.633309242486302e+000	 2.867455478046118e+000	 9.934518588923250e+000
 1.604080647730692e+000	 2.883907986696995e+000	 9.868407319052951e+000
 1.574728165298671e+000	 2.900039862754002e+000	 9.800583336801678e+000
 1.545256948342999e+000	 2.915849955627104e+000	 9.730494125935774e+000
 1.515672157097435e+000	 2.931337222551448e+000	 9.657603972435348e+000
 1.819472430009494e+000	 2.783010074833148e+000	 1.033289066340321e+001
 1.790879647038344e+000	 2.801495152596328e+000	 1.025497994254840e+001
 1.762131191702469e+000	 2.819666409955593e+000	 1.018070925646214e+001
 1.733232154345957e+000	 2.837522035041479e+000	 1.010948017778361e+001
 1.704187649366050e+000	 2.855060324397946e+000	 1.004070237271679e+001
 1.675002812373476e+000	 2.872279683237500e+000	 9.973794826397093e+000
 1.645682797356653e+000	 2.889178625608616e+000	 9.908187037174663e+000
 1.616232773852889e+000	 2.905755774476063e+000	 9.843320177114720e+000
 1.586657924129601e+000	 2.922009861714771e+000	 9.778648216143179e+000
 1.556963440378580e+000	 2.937939728018115e+000	 9.713639007403875e+000
 1.527154521926272e+000	 2.953544322721507e+000	 9.647775331533403e+000
 1.833152673844316e+000	 2.803934962615831e+000	 1.032941983003143e+001
 1.804344907543139e+000	 2.822559025926043e+000	 1.024333453276294e+001
 1.775380298408235e+000	 2.840866909280380e+000	 1.016260650468900e+001
 1.746263975056959e+000	 2.858856787186302e+000	 1.008666817736943e+001
 1.717001090340666e+000	 2.876526943379830e+000	 1.001495819365289e+001
 1.687596818483697e+000	 2.893875771082586e+000	 9.946922633441048e+000
 1.658056352226265e+000	 2.910901773170480e+000	 9.882016210701972e+000
 1.628384899974379e+000	 2.927603562254628e+000	 9.819703438980659e+000
 1.598587682959873e+000	 2.943979860675189e+000	 9.759459762777201e+000
 1.568669932413576e+000	 2.960029500408943e+000	 9.700772652299632e+000
 1.538636886754612e+000	 2.975751422891574e+000	 9.643142659234997e+000
 1.846832917678635e+000	 2.824859850397516e+000	 1.031765705456157e+001
 1.817810168047342e+000	 2.843622899254767e+000	 1.022486348984472e+001
 1.788629405113341e+000	 2.862067408604207e+000	 1.013911674678052e+001
 1.759295795767251e+000	 2.880191539330218e+000	 1.005987921482912e+001
 1.729814531314541e+000	 2.897993562360879e+000	 9.986617635952255e+000
 1.700190824593168e+000	 2.915471858926928e+000	 9.918804331670524e+000
 1.670429907095138e+000	 2.932624920731707e+000	 9.855918403664651e+000
 1.640537026095161e+000	 2.949451350032688e+000	 9.797446905111384e+000
 1.610517441789488e+000	 2.965949859635252e+000	 9.742885980069442e+000
 1.580376424447985e+000	 2.982119272799589e+000	 9.691741968359349e+000
 1.550119251582456e+000	 2.997958523061648e+000	 9.643532473518523e+000
 1.860513161512450e+000	 2.845784738178200e+000	 1.029765852481622e+001
 1.831275428550952e+000	 2.864686772582501e+000	 1.019959733230781e+001
 1.801878511817784e+000	 2.883267907927075e+000	 1.011024547091921e+001
 1.772327616476830e+000	 2.901526291473225e+000	 1.002909439426184e+001
 1.742627972287677e+000	 2.919460181341089e+000	 9.955638072706027e+000
 1.712784830701890e+000	 2.937067946770522e+000	 9.889374222627307e+000
 1.682803461963273e+000	 2.954348068292302e+000	 9.829805511451362e+000
 1.652689152215236e+000	 2.971299137810246e+000	 9.776440735632708e+000
 1.622447200618447e+000	 2.987919858594962e+000	 9.728795968822887e+000
 1.592082916481809e+000	 3.004209045190053e+000	 9.686395677610733e+000
 1.561601616409804e+000	 3.020165623231730e+000	 9.648773802350068e+000
 1.874193405345763e+000	 2.866709625957885e+000	 1.026947525724292e+001
 1.844740689053969e+000	 2.885750645909246e+000	 1.016756225157833e+001
 1.815127618521566e+000	 2.904468407248984e+000	 1.007599466433957e+001
 1.785359437185700e+000	 2.922861043615323e+000	 9.994292126483357e+000
 1.755441413260070e+000	 2.940926800320462e+000	 9.921974972597054e+000
 1.725378836809863e+000	 2.958664034613372e+000	 9.858565473229032e+000
 1.695177016830669e+000	 2.976071215852260e+000	 9.803589045233595e+000
 1.664841278334603e+000	 2.993146925587298e+000	 9.756575437209239e+000
 1.634376959446749e+000	 3.009889857554320e+000	 9.717059887225542e+000
 1.603789408515046e+000	 3.026298817580334e+000	 9.684584250157604e+000
 1.573083981236656e+000	 3.042372723401821e+000	 9.658698092078133e+000
 1.887873649178574e+000	 2.887634513736569e+000	 1.024979337476286e+001
 1.858205949556393e+000	 2.906814519235001e+000	 1.012878026877305e+001
 1.828376725224685e+000	 2.925668906569934e+000	 1.003636294017392e+001
 1.798391257893857e+000	 2.944195795756514e+000	 9.955448226608585e+000
 1.768254854231724e+000	 2.962393419298998e+000	 9.885581968899968e+000
 1.737972842917086e+000	 2.980260122455474e+000	 9.826310156878950e+000
 1.707550571697327e+000	 2.997794363411583e+000	 9.777180145886490e+000
 1.676993404453263e+000	 3.014994713363847e+000	 9.737741850488577e+000
 1.646306718274395e+000	 3.031859856513325e+000	 9.707548912539147e+000
 1.615495900547696e+000	 3.048388589970433e+000	 9.686159840844217e+000
 1.584566346063012e+000	 3.064579823571918e+000	 9.673139119810912e+000
 1.901553893010882e+000	 2.908559401514253e+000	 1.022134915986620e+001
 1.871671210058226e+000	 2.927878392559766e+000	 1.008326938471058e+001
 1.841625831927143e+000	 2.946869405889925e+000	 9.991345658822979e+000
 1.811423078601303e+000	 2.965530547896796e+000	 9.912536007422508e+000
 1.781068295202638e+000	 2.983860038276696e+000	 9.846410925503200e+000
 1.750566849023559e+000	 3.001856210296830e+000	 9.792539292800967e+000
 1.719924126563246e+000	 3.019517510970271e+000	 9.750489597308915e+000
 1.689145530571215e+000	 3.036842501139892e+000	 9.719831138087656e+000
 1.658236477101383e+000	 3.053829855471976e+000	 9.700135204442088e+000
 1.627202392579761e+000	 3.070478362360350e+000	 9.690976228652652e+000
 1.596048710888871e+000	 3.086786923742023e+000	 9.691932909576217e+000
 1.915234136842688e+000	 2.929484289290938e+000	 1.018311735892688e+001
 1.885136470559467e+000	 2.948942265883543e+000	 1.004305040753646e+001
 1.854874938628939e+000	 2.968069905208957e+000	 9.940935044124938e+000
 1.824454899308039e+000	 2.986865300036170e+000	 9.865526368748629e+000
 1.793881736172811e+000	 3.005326657253558e+000	 9.804412000101269e+000
 1.763160855129284e+000	 3.023452298137441e+000	 9.757182883688865e+000
 1.732297681428427e+000	 3.041240658528325e+000	 9.723427839172681e+000
 1.701297656688460e+000	 3.058690288915435e+000	 9.702734773093702e+000
 1.670166235927715e+000	 3.075799854430275e+000	 9.694691869942954e+000
 1.638908884611239e+000	 3.092568134750085e+000	 9.698888758698164e+000
 1.607531075714235e+000	 3.108994023912138e+000	 9.714917652074032e+000
 1.492707427438275e+000	 2.886923022211355e+000	 9.693556217302723e+000
 1.463464123453077e+000	 2.901856777903874e+000	 9.586015539364878e+000
 1.434119140206303e+000	 2.916470862496686e+000	 9.486584721572593e+000
 1.404677564505076e+000	 2.930764565752652e+000	 9.394997053684794e+000
 1.375144479435225e+000	 2.944737282130762e+000	 9.310992968182910e+000
 1.345524961753961e+000	 2.958388510217295e+000	 9.234320745079694e+000
 1.315824079314218e+000	 2.971717852081893e+000	 9.164737182410690e+000
 1.286046888523080e+000	 2.984725012560140e+000	 9.102008231175626e+000
 1.256198431836616e+000	 2.997409798464362e+000	 9.045909593631723e+000
 1.226283735293377e+000	 3.009772117724387e+000	 9.014014444926287e+000
 1.196307806088698e+000	 3.021811978460158e+000	 8.991184768369587e+000
 1.504189792268103e+000	 2.909130122381397e+000	 9.672804669751175e+000
 1.474721539790167e+000	 2.924178753116689e+000	 9.579186391236545e+000
 1.445150825902609e+000	 2.938905253744039e+000	 9.494279329598305e+000
 1.415482776541836e+000	 2.953308908562949e+000	 9.417810902043209e+000
 1.385722513894337e+000	 2.967389107374398e+000	 9.349515283332236e+000
 1.355875153769301e+000	 2.981145344907635e+000	 9.289134132918896e+000
 1.325945803003146e+000	 2.994577220171297e+000	 9.236417287645814e+000
 1.295939556898393e+000	 3.007684435730475e+000	 9.191123418720670e+000
 1.265861496699236e+000	 3.020466796911431e+000	 9.153020651823683e+000
 1.235716687106058e+000	 3.032924210935764e+000	 9.132158040352799e+000
 1.205510173831083e+000	 3.045056685985870e+000	 9.127496282039871e+000
 1.515672157097435e+000	 2.931337222551448e+000	 9.657603972435348e+000
 1.485978956126852e+000	 2.946500728329692e+000	 9.578384802315624e+000
 1.456182511598578e+000	 2.961339644991719e+000	 9.508463338637057e+000
 1.426287988578309e+000	 2.975853251373672e+000	 9.447560701642411e+000
 1.396300548353190e+000	 2.990040932618514e+000	 9.395404399874449e+000
 1.366225345784390e+000	 3.003902179598473e+000	 9.351729080071447e+000
 1.336067526691811e+000	 3.017436588261179e+000	 9.316277242469381e+000
 1.305832225273413e+000	 3.030643858901224e+000	 9.288799920179420e+000
 1.275524561561511e+000	 3.043523795358812e+000	 9.269057321446974e+000
 1.245149638918324e+000	 3.056076304147308e+000	 9.260157675461002e+000
 1.214712541572961e+000	 3.068301393511570e+000	 9.274174100896154e+000
 1.527154521926272e+000	 2.953544322721507e+000	 9.647775331533403e+000
 1.497236372463129e+000	 2.968822703542879e+000	 9.583427482297365e+000
 1.467214197294211e+000	 2.983774036239725e+000	 9.528949204893685e+000
 1.437093200614493e+000	 2.998397594184815e+000	 9.484054896779112e+000
 1.406878582811784e+000	 3.012692757863114e+000	 9.448464990254328e+000
 1.376575537799229e+000	 3.026659014289810e+000	 9.421906725550375e+000
 1.346189250380215e+000	 3.040295956351537e+000	 9.404114889138951e+000
 1.315724893648140e+000	 3.053603282072387e+000	 9.394832515884669e+000
 1.285187626423442e+000	 3.066580793806505e+000	 9.393811553796979e+000
 1.254582590730176e+000	 3.079228397359024e+000	 9.400813490279900e+000
 1.223914909314336e+000	 3.091546101037260e+000	 9.431007498527192e+000
 1.538636886754612e+000	 2.975751422891574e+000	 9.643142659234997e+000
 1.508493788799001e+000	 2.991144678756257e+000	 9.594134078029896e+000
 1.478245882989506e+000	 3.006208427488057e+000	 9.555552544993597e+000
 1.447898412650389e+000	 3.020941936996385e+000	 9.527105307500229e+000
 1.417456617270119e+000	 3.035344583108194e+000	 9.508505309999938e+000
 1.386925729813818e+000	 3.049415848981647e+000	 9.499471990734639e+000
 1.356310974068357e+000	 3.063155324442370e+000	 9.499732043463336e+000
 1.325617562022574e+000	 3.076562705243963e+000	 9.509020142765746e+000
 1.294850691285029e+000	 3.089637792254509e+000	 9.527079631633002e+000
 1.264015542541612e+000	 3.102380490570909e+000	 9.553663170197083e+000
 1.233117277055205e+000	 3.114790808562941e+000	 9.597790405067581e+000
 1.550119251582456e+000	 2.997958523061648e+000	 9.643532473518523e+000
 1.519751205134466e+000	 3.013466653969821e+000	 9.610327064730933e+000
 1.489277568684464e+000	 3.028642818736715e+000	 9.588092018930217e+000
 1.458703624685997e+000	 3.043486279808378e+000	 9.576527004574846e+000
 1.428034651728194e+000	 3.057996408353757e+000	 9.575337065015646e+000
 1.397275921828156e+000	 3.072172683673982e+000	 9.584233439281858e+000
 1.366432697756238e+000	 3.086014692533680e+000	 9.602934347634065e+000
 1.335510230396715e+000	 3.099522128415953e+000	 9.631165740400119e+000
 1.304513756146272e+000	 3.112694790702826e+000	 9.668662008753802e+000
 1.273448494352634e+000	 3.125532583782965e+000	 9.708286057304036e+000
 1.242319644795568e+000	 3.138035516088611e+000	 9.605513237130598e+000
 1.561601616409804e+000	 3.020165623231730e+000	 9.648773802350068e+000
 1.531008621469525e+000	 3.035788629183572e+000	 9.631831642003380e+000
 1.500309254379085e+000	 3.051077209985700e+000	 9.626389218176398e+000
 1.469508836721317e+000	 3.066030622620796e+000	 9.632138189982918e+000
 1.438612686186011e+000	 3.080648233599800e+000	 9.648775284730007e+000
 1.407626113842244e+000	 3.094929518366817e+000	 9.676003143220656e+000
 1.376554421443856e+000	 3.108874060625466e+000	 9.713531129549752e+000
 1.345402898770562e+000	 3.122481551588357e+000	 9.761076103857304e+000
 1.314176821007171e+000	 3.135751789151453e+000	 9.679912332829760e+000
 1.282881446163241e+000	 3.148684676995192e+000	 9.579275972060366e+000
 1.251522012535427e+000	 3.161280223614271e+000	 9.491461892344157e+000
 1.573083981236656e+000	 3.042372723401821e+000	 9.658698092078133e+000
 1.542266037804178e+000	 3.058110604397511e+000	 9.658475634405473e+000
 1.511340940073370e+000	 3.073511601235009e+000	 9.670268558695963e+000
 1.480314048756350e+000	 3.088574965433638e+000	 9.693760082636970e+000
 1.449190720643568e+000	 3.103300058846326e+000	 9.728638200799519e+000
 1.417976305856081e+000	 3.117686353060151e+000	 9.774596554908367e+000
 1.386676145131213e+000	 3.131733428717729e+000	 9.745255959817806e+000
 1.355295567144116e+000	 3.145440974761174e+000	 9.636297993035401e+000
 1.323839885867726e+000	 3.158808787600393e+000	 9.540814268917483e+000
 1.292314397973433e+000	 3.171836770207588e+000	 9.458771523840275e+000
 1.260724380274781e+000	 3.184524931139920e+000	 9.390132649556179e+000
 1.584566346063012e+000	 3.064579823571918e+000	 9.673139119810912e+000
 1.553523454138424e+000	 3.080432579611637e+000	 9.690089396343598e+000
 1.522372625767317e+000	 3.095945992484646e+000	 9.719557178607522e+000
 1.491119260791094e+000	 3.111119308246904e+000	 9.761216809073293e+000
 1.459768755100866e+000	 3.125951884093334e+000	 9.802686448052631e+000
 1.428326497869668e+000	 3.140443187753983e+000	 9.683284189120826e+000
 1.396797868818307e+000	 3.154592796810467e+000	 9.577999826859347e+000
 1.365188235517378e+000	 3.168400397934406e+000	 9.486804801135339e+000
 1.333502950727936e+000	 3.181865786049645e+000	 9.409665034335529e+000
 1.301747349783210e+000	 3.194988863420154e+000	 9.346541525318630e+000
 1.269926748013629e+000	 3.207769638665559e+000	 9.297390932932068e+000
 1.596048710888871e+000	 3.086786923742023e+000	 9.691932909576217e+000
 1.564780870472264e+000	 3.102754554825951e+000	 9.726505721070392e+000
 1.533404311460927e+000	 3.118380383734608e+000	 9.774084840264690e+000
 1.501924472825551e+000	 3.133663651060594e+000	 9.725148202568125e+000
 1.470346789557904e+000	 3.148603709340823e+000	 9.607977485040406e+000
 1.438676689883004e+000	 3.163200022448315e+000	 9.505531338244335e+000
 1.406919592505140e+000	 3.177452164903683e+000	 9.417782883146384e+000
 1.375080903890346e+000	 3.191359821108051e+000	 9.344698567579592e+000
 1.343166015587802e+000	 3.204922784499208e+000	 9.286238791589733e+000
 1.311180301592572e+000	 3.218140956632892e+000	 9.242358524157821e+000
 1.279129115751972e+000	 3.231014346191188e+000	 9.213007909689230e+000
 1.607531075714235e+000	 3.108994023912138e+000	 9.714917652074032e+000
 1.576038286805698e+000	 3.125076530040452e+000	 9.766606472590759e+000
 1.544435997154201e+000	 3.140814774984898e+000	 9.635526825538809e+000
 1.512729684859720e+000	 3.156207993874709e+000	 9.519784436339286e+000
 1.480924824014684e+000	 3.171255534588795e+000	 9.419364064293179e+000
 1.449026881896091e+000	 3.185956857143146e+000	 9.334241937833774e+000
 1.417041316191712e+000	 3.200311532997376e+000	 9.264386414225077e+000
 1.384973572263022e+000	 3.214319244282112e+000	 9.209758634430248e+000
 1.352829080447325e+000	 3.227979782949083e+000	 9.170313171339666e+000
 1.320613253401520e+000	 3.241293049845799e+000	 9.145998669615818e+000
 1.288331483489811e+000	 3.254259053716808e+000	 9.136758475487971e+000
 1.196307806088698e+000	 3.021811978460158e+000	 8.991184768369587e+000
 1.166275630192232e+000	 3.033529487987621e+000	 8.911170567339422e+000
 1.136192170009821e+000	 3.044924851761178e+000	 8.843421289284851e+000
 1.106062362091802e+000	 3.055998372254013e+000	 8.787112188038808e+000
 1.075891114890497e+000	 3.066750447777396e+000	 8.741476291987677e+000
 1.045683306567630e+000	 3.077181571242415e+000	 8.705805229973745e+000
 1.015443782853513e+000	 3.087292328865914e+000	 8.679449898014733e+000
 9.851773549594470e-001	 3.097083398822883e+000	 8.661820968600864e+000
 9.548887975447467e-001	 3.106555549847562e+000	 8.652389244743374e+000
 9.245828467396433e-001	 3.115709639785576e+000	 8.650685861347156e+000
 8.942641982252435e-001	 3.124546614099404e+000	 8.656302336856451e+000
 1.205510173831083e+000	 3.045056685985870e+000	 9.127496282039871e+000
 1.175246981197481e+000	 3.056864330203026e+000	 9.070141927540288e+000
 1.144932109783359e+000	 3.068347350621874e+000	 9.023563090374317e+000
 1.114570534112516e+000	 3.079506052042313e+000	 8.986877143658909e+000
 1.084167200394600e+000	 3.090340835839549e+000	 8.959262327959927e+000
 1.053727024315657e+000	 3.100852198716294e+000	 8.939958610083401e+000
 1.023254888880848e+000	 3.111040731398753e+000	 8.928268376617137e+000
 9.927556423107914e-001	 3.120907117278648e+000	 8.923556964046449e+000
 9.622340959929515e-001	 3.130452131003560e+000	 8.856094148390822e+000
 9.316950224893310e-001	 3.139676637017924e+000	 8.748378204957250e+000
 9.011431536016610e-001	 3.148581588057016e+000	 8.652613150601995e+000
 1.214712541572961e+000	 3.068301393511570e+000	 9.274174100896154e+000
 1.184218332202131e+000	 3.080199172418236e+000	 9.238990394269509e+000
 1.153672049556212e+000	 3.091769849482220e+000	 9.213079525151398e+000
 1.123078706132471e+000	 3.103013731830141e+000	 9.195500572429538e+000
 1.092443285897879e+000	 3.113931223901138e+000	 9.185376609218384e+000
 1.061770742062806e+000	 3.124522826189546e+000	 9.181895594823240e+000
 1.031065994907260e+000	 3.134789133930934e+000	 9.058697307229030e+000
 1.000333929661179e+000	 3.144730835733749e+000	 8.940468208217041e+000
 9.695793944401758e-001	 3.154348712158921e+000	 8.833162600239270e+000
 9.388071982380237e-001	 3.163643634249695e+000	 8.736600897834270e+000
 9.080221089770787e-001	 3.172616562014134e+000	 8.650626618210985e+000
 1.223914909314336e+000	 3.091546101037260e+000	 9.431007498527192e+000
 1.193189683206180e+000	 3.103534014633252e+000	 9.417529139439116e+000
 1.162411989328381e+000	 3.115192348342218e+000	 9.411807167597761e+000
 1.131586878151666e+000	 3.126521411617498e+000	 9.393114968378271e+000
 1.100719371400335e+000	 3.137521611962162e+000	 9.257811852389841e+000
 1.069814459809078e+000	 3.148193453662171e+000	 9.132943794278718e+000
 1.038877100932751e+000	 3.158537536462453e+000	 9.018221821002335e+000
 1.007912217010611e+000	 3.168554554188189e+000	 8.913379444668292e+000
 9.769246928864194e-001	 3.178245293313647e+000	 8.818173625766759e+000
 9.459193739857209e-001	 3.187610631480885e+000	 8.732385652845290e+000
 9.149010643514963e-001	 3.196651535970757e+000	 8.655821937868662e+000
 1.233117277055205e+000	 3.114790808562941e+000	 9.597790405067581e+000
 1.202161034209630e+000	 3.126868856848071e+000	 9.581330530223335e+000
 1.171151929099864e+000	 3.138614847201867e+000	 9.443003550132694e+000
 1.140095050170102e+000	 3.150029091404384e+000	 9.314693288597240e+000
 1.108995456901967e+000	 3.161112000022622e+000	 9.196019907944297e+000
 1.077858177554471e+000	 3.171864081134169e+000	 9.086625716704690e+000
 1.046688206957320e+000	 3.182285938993312e+000	 8.986176344277455e+000
 1.015490504359086e+000	 3.192378272641967e+000	 8.894361830505504e+000
 9.842699913316823e-001	 3.202141874467737e+000	 8.810897628817580e+000
 9.530315497324234e-001	 3.211577628711497e+000	 8.735525521884039e+000
 9.217800197249140e-001	 3.220686509926887e+000	 8.668014449027332e+000
 1.242319644795568e+000	 3.138035516088611e+000	 9.605513237130598e+000
 1.211132385212480e+000	 3.150203699062697e+000	 9.476228221202232e+000
 1.179891868870664e+000	 3.162037346061168e+000	 9.356355010141606e+000
 1.148603222187779e+000	 3.173536771190796e+000	 9.245441527936041e+000
 1.117271542402776e+000	 3.184702388082517e+000	 9.143058377737910e+000
 1.085901895298987e+000	 3.195534708605540e+000	 9.048800152294925e+000
 1.054499312980967e+000	 3.206034341523514e+000	 8.962286657048596e+000
 1.023068791706606e+000	 3.216201991095081e+000	 8.883164044220948e+000
 9.916152897759646e-001	 3.226038455621191e+000	 8.811105856516690e+000
 9.601437254781305e-001	 3.235544625941529e+000	 8.745813979375095e+000
 9.286589750973320e-001	 3.244721483882524e+000	 8.687019501004777e+000
 1.251522012535427e+000	 3.161280223614271e+000	 9.491461892344157e+000
 1.220103736214729e+000	 3.173538541277126e+000	 9.380592033200962e+000
 1.188631808640779e+000	 3.185459844920121e+000	 9.278852465204857e+000
 1.157111394204698e+000	 3.197044450976737e+000	 9.185017863249311e+000
 1.125547627902762e+000	 3.208292776141848e+000	 9.098608811768028e+000
 1.093945613042626e+000	 3.219205336076284e+000	 9.019171738153656e+000
 1.062310419003692e+000	 3.229782744053054e+000	 8.946280185026936e+000
 1.030647079053169e+000	 3.240025709547535e+000	 8.879535989533334e+000
 9.989605882192663e-001	 3.249935036774010e+000	 8.818570368266963e+000
 9.672559012228426e-001	 3.259511623170983e+000	 8.763044906739497e+000
 9.355379304687495e-001	 3.268756457837667e+000	 8.712652452621365e+000
 1.260724380274781e+000	 3.184524931139920e+000	 9.390132649556179e+000
 1.229075087216379e+000	 3.196873383491363e+000	 9.294036306027321e+000
 1.197371748410209e+000	 3.208882343778725e+000	 9.210133722081915e+000
 1.165619566220857e+000	 3.220552130762207e+000	 9.133083314774181e+000
 1.133823713401924e+000	 3.231883164200613e+000	 9.062355177257869e+000
 1.101989330785387e+000	 3.242875963546400e+000	 8.997447109322010e+000
 1.070121525025495e+000	 3.253531146581935e+000	 8.937885939577487e+000
 1.038225366398776e+000	 3.263849427999325e+000	 8.883228750671764e+000
 1.006305886661588e+000	 3.273831617926194e+000	 8.833064006104197e+000
 9.743680769665595e-001	 3.283478620399857e+000	 8.787012577541182e+000
 9.424168858391672e-001	 3.292791431792316e+000	 8.744728671853117e+000
 1.269926748013629e+000	 3.207769638665559e+000	 9.297390932932068e+000
 1.238046438217428e+000	 3.220208225705404e+000	 9.216178960578310e+000
 1.206111688178954e+000	 3.232304842636979e+000	 9.149839745089791e+000
 1.174127738236257e+000	 3.244059810547205e+000	 9.089301643108914e+000
 1.142099798900264e+000	 3.255473552258815e+000	 9.033983771075587e+000
 1.110033048527270e+000	 3.266546591015890e+000	 8.983334826388790e+000
 1.077932631046376e+000	 3.277279549110157e+000	 8.936834460268097e+000
 1.045803653743427e+000	 3.287673146450452e+000	 8.893994549603573e+000
 1.013651185102928e+000	 3.297728199077742e+000	 8.854360366340558e+000
 9.814802527092813e-001	 3.307445617628152e+000	 8.817511643278566e+000
 9.492958412085848e-001	 3.316826405746471e+000	 8.783063535500174e+000
 1.279129115751972e+000	 3.231014346191188e+000	 9.213007909689230e+000
 1.247017789217878e+000	 3.243543067919251e+000	 9.146641370024025e+000
 1.214851627947015e+000	 3.255727341494886e+000	 9.097614542521640e+000
 1.182635910250898e+000	 3.267567490331730e+000	 9.053339250639207e+000
 1.150375884397780e+000	 3.279063940316452e+000	 9.013183135934314e+000
 1.118076766268276e+000	 3.290217218484751e+000	 8.976545306226349e+000
 1.085743737066336e+000	 3.301027951637718e+000	 8.942857759898161e+000
 1.053381941087122e+000	 3.311496864900918e+000	 8.911586705108491e+000
 1.020996483543289e+000	 3.321624780228656e+000	 8.882233772432604e+000
 9.885924284510078e-001	 3.331412614855867e+000	 8.854337119790019e+000
 9.561747965770026e-001	 3.340861379700133e+000	 8.827472428869330e+000
 1.288331483489811e+000	 3.254259053716808e+000	 9.136758475487971e+000
 1.255989140217728e+000	 3.266877910132902e+000	 9.086752222746039e+000
 1.223591567714392e+000	 3.279149840352444e+000	 9.053105057933641e+000
 1.191144082264780e+000	 3.291075170115785e+000	 9.024865087188219e+000
 1.158651969894472e+000	 3.302654328373524e+000	 8.999643980183448e+000
 1.126120484008404e+000	 3.313887845952988e+000	 8.976790755694674e+000
 1.093554843085374e+000	 3.324776354164621e+000	 8.955689271883053e+000
 1.060960228429861e+000	 3.335320583350721e+000	 8.935759593606806e+000
 1.028341781982669e+000	 3.345521361378934e+000	 8.916459249011576e+000
 9.957046041917395e-001	 3.355379612083005e+000	 8.897284374241686e+000
 9.630537519444204e-001	 3.364896353653301e+000	 8.877770745470217e+000
 8.942641982252435e-001	 3.124546614099404e+000	 8.656302336856451e+000
 8.639375053716756e-001	 3.133067504330197e+000	 8.567631301489694e+000
 8.336073774350107e-001	 3.141273426516435e+000	 8.483155881773794e+000
 8.032783778144554e-001	 3.149165579572984e+000	 8.408533190058426e+000
 7.729550223703781e-001	 3.156745243634213e+000	 8.343780393474887e+000
 7.426417778035712e-001	 3.164013778361765e+000	 8.288938853499602e+000
 7.123430600964783e-001	 3.170972621219919e+000	 8.244074322284694e+000
 6.820632330168482e-001	 3.177623285720976e+000	 8.209277065738792e+000
 6.518066066841973e-001	 3.183967359642995e+000	 8.184661914563872e+000
 6.215774361993552e-001	 3.190006503222291e+000	 8.179743479364381e+000
 5.913799203372813e-001	 3.195742447322996e+000	 8.247217313250163e+000
 9.011431536016610e-001	 3.148581588057016e+000	 8.652613150601995e+000
 8.705831784952053e-001	 3.157168023597005e+000	 8.566945867636409e+000
 8.400197418818312e-001	 3.165437068261379e+000	 8.490155936761450e+000
 8.094574422638172e-001	 3.173389930187423e+000	 8.422203980149826e+000
 7.789008302389195e-001	 3.181027899356694e+000	 8.363076274743898e+000
 7.483544068671691e-001	 3.188352345889771e+000	 8.312785042961602e+000
 7.178226221001058e-001	 3.195364718308350e+000	 8.271368665752105e+000
 6.873098732729234e-001	 3.202066541767132e+000	 8.238891819045207e+000
 6.568205036599052e-001	 3.208459416257858e+000	 8.215445534848016e+000
 6.263588010934262e-001	 3.214545014787885e+000	 8.201147188432458e+000
 5.959289966467158e-001	 3.220325081535687e+000	 8.273900560702854e+000
 9.080221089770787e-001	 3.172616562014134e+000	 8.650626618210985e+000
 8.772288516177454e-001	 3.181268542863414e+000	 8.573264626892719e+000
 8.464321063276931e-001	 3.189600710006008e+000	 8.503790982341091e+000
 8.156365067122720e-001	 3.197614280801620e+000	 8.442133417395542e+000
 7.848466381066261e-001	 3.205310555079000e+000	 8.388247067757364e+000
 7.540670359300243e-001	 3.212690913417655e+000	 8.342114783090036e+000
 7.233021841031027e-001	 3.219756815396704e+000	 8.303747357032547e+000
 6.925565135285002e-001	 3.226509797813246e+000	 8.273183677212666e+000
 6.618344006352661e-001	 3.232951472872700e+000	 8.250490796556331e+000
 6.311401659873216e-001	 3.239083526353474e+000	 8.235763927393556e+000
 6.004780729561651e-001	 3.244907715748377e+000	 8.300842534628883e+000
 9.149010643514963e-001	 3.196651535970757e+000	 8.655821937868662e+000
 8.838745247392960e-001	 3.205369062129424e+000	 8.586424336671309e+000
 8.528444707725966e-001	 3.213764351750323e+000	 8.523918969264106e+000
 8.218155711598199e-001	 3.221838631415581e+000	 8.468200400079121e+000
 7.907924459734982e-001	 3.229593210801129e+000	 8.419192361934899e+000
 7.597796649921370e-001	 3.237029480945417e+000	 8.376848087809739e+000
 7.287817461054693e-001	 3.244148912484980e+000	 8.341150558052906e+000
 6.978031537835786e-001	 3.250953053859316e+000	 8.312112664159091e+000
 6.668482976102803e-001	 3.257443529487524e+000	 8.289777290449516e+000
 6.359215308810411e-001	 3.263622037919058e+000	 8.274217315214520e+000
 6.050271492656288e-001	 3.269490349961068e+000	 8.328416037311767e+000
 9.217800197249140e-001	 3.220686509926887e+000	 8.668014449027332e+000
 8.905201978598567e-001	 3.229469581395036e+000	 8.606261371718148e+000
 8.592568352165415e-001	 3.237927993494322e+000	 8.550397076698465e+000
 8.279946356064608e-001	 3.246062982029299e+000	 8.500282670115711e+000
 7.967382538395349e-001	 3.253875866523083e+000	 8.455810209805504e+000
 7.654922940535067e-001	 3.261368048473058e+000	 8.416903058024237e+000
 7.342613081072050e-001	 3.268541009573177e+000	 8.383516146102307e+000
 7.030497940381583e-001	 3.275396309905343e+000	 8.355636152182768e+000
 6.718621945849477e-001	 3.281935586102328e+000	 8.333281593436414e+000
 6.407028957745850e-001	 3.288160549484636e+000	 8.316502834362973e+000
 6.095762255751076e-001	 3.294072984173759e+000	 8.356990147406956e+000
 9.286589750973320e-001	 3.244721483882524e+000	 8.687019501004777e+000
 8.971658709794282e-001	 3.253570100660248e+000	 8.632611738284792e+000
 8.656691996595282e-001	 3.262091635238010e+000	 8.583081740805927e+000
 8.341737000521949e-001	 3.270287332642776e+000	 8.538256855880357e+000
 8.026840617047367e-001	 3.278158522244860e+000	 8.497997183929607e+000
 7.712049231141337e-001	 3.285706616000578e+000	 8.462195952468315e+000
 7.397408701083105e-001	 3.292933106661296e+000	 8.430779798448773e+000
 7.082964342922399e-001	 3.299839565951326e+000	 8.403708960170985e+000
 6.768760915592682e-001	 3.306427642717112e+000	 8.380977380198411e+000
 6.454842606679531e-001	 3.312699061050211e+000	 8.362612720943139e+000
 6.141253018846009e-001	 3.318655618386451e+000	 8.386930357853970e+000
 9.355379304687495e-001	 3.268756457837667e+000	 8.712652452621365e+000
 9.038115440980098e-001	 3.277670619925062e+000	 8.665311087676439e+000
 8.720815641015560e-001	 3.286255276981380e+000	 8.621828682058366e+000
 8.403527644970221e-001	 3.294511683256015e+000	 8.581998513146692e+000
 8.086298695691041e-001	 3.302441177966462e+000	 8.545648431309362e+000
 7.769175521740184e-001	 3.310045183527975e+000	 8.512641255434772e+000
 7.452204321087853e-001	 3.317325203749339e+000	 8.482875073221987e+000
 7.135430745458224e-001	 3.324282821997265e+000	 8.456283447475068e+000
 6.818899885332419e-001	 3.330919699331877e+000	 8.432835529888841e+000
 6.502656255611453e-001	 3.337237572615781e+000	 8.412536084047314e+000
 6.186743781941089e-001	 3.343238252599141e+000	 8.418598707704255e+000
 9.424168858391672e-001	 3.292791431792316e+000	 8.744728671853117e+000
 9.104572172156019e-001	 3.301771139189477e+000	 8.704194729205783e+000
 8.784939285426255e-001	 3.310418918724437e+000	 8.666492931357794e+000
 8.465318289409427e-001	 3.318736033869013e+000	 8.631382164233420e+000
 8.145756774326362e-001	 3.326723833687888e+000	 8.598657725416823e+000
 7.826301812331601e-001	 3.334383751055250e+000	 8.568151741535063e+000
 7.506999941086296e-001	 3.341717300837304e+000	 8.539733486754356e+000
 7.187897147989066e-001	 3.348726078043160e+000	 8.513309603674504e+000
 6.869038855068688e-001	 3.355411755946624e+000	 8.488824228159478e+000
 6.550469904541620e-001	 3.361776084181345e+000	 8.466259019880763e+000
 6.232234545036314e-001	 3.367820886811832e+000	 8.452353908175336e+000
 9.492958412085848e-001	 3.316826405746471e+000	 8.783063535500174e+000
 9.171028903322046e-001	 3.325871658453493e+000	 8.749097642584394e+000
 8.849062929827364e-001	 3.334582560467181e+000	 8.716928855020882e+000
 8.527108933839563e-001	 3.342960384481772e+000	 8.686281335448117e+000
 8.205214852953338e-001	 3.351006489409138e+000	 8.656917515959011e+000
 7.883428102915590e-001	 3.358722318582403e+000	 8.628638537644360e+000
 7.561795561078435e-001	 3.366109397925190e+000	 8.601284587559084e+000
 7.240363550514924e-001	 3.373169334089013e+000	 8.574735134438573e+000
 6.919177824801487e-001	 3.379903812561350e+000	 8.548909064751484e+000
 6.598283553470030e-001	 3.386314595746905e+000	 8.523764720923692e+000
 6.277725308131688e-001	 3.392403521024523e+000	 8.499299843801197e+000
 9.561747965770026e-001	 3.340861379700133e+000	 8.827472428869330e+000
 9.237485634478174e-001	 3.349972177717110e+000	 8.799854489778703e+000
 8.913186574218889e-001	 3.358746202209609e+000	 8.772990178684903e+000
 8.588899578260627e-001	 3.367184735094290e+000	 8.746568592914880e+000
 8.264672931571961e-001	 3.375289145130212e+000	 8.720318976495706e+000
 7.940554393492153e-001	 3.383060886109435e+000	 8.694011182172543e+000
 7.616591181064267e-001	 3.390501495012999e+000	 8.667456027115103e+000
 7.292829953035798e-001	 3.397612590134821e+000	 8.640505543680936e+000
 6.969316794530819e-001	 3.404395869176058e+000	 8.613053126873027e+000
 6.646097202396681e-001	 3.410853107312460e+000	 8.585033580382483e+000
 6.323216071227208e-001	 3.416986155237214e+000	 8.556423063351057e+000
 9.630537519444204e-001	 3.364896353653301e+000	 8.877770745470217e+000
 9.303942365624410e-001	 3.374072696980329e+000	 8.856299626358041e+000
 8.977310218600831e-001	 3.382909843951724e+000	 8.834530010189138e+000
 8.650690222672628e-001	 3.391409085706569e+000	 8.812115576866942e+000
 8.324131010182240e-001	 3.399571800851111e+000	 8.788752050016159e+000
 7.997680684061290e-001	 3.407399453636346e+000	 8.764177681795268e+000
 7.671386801043798e-001	 3.414893592100731e+000	 8.738173627618153e+000
 7.345296355551686e-001	 3.422055846180586e+000	 8.710564212194164e+000
 7.019455764256682e-001	 3.428887925790746e+000	 8.681217088575945e+000
 6.693910851321578e-001	 3.435391618878011e+000	 8.650043292163280e+000
 6.368706834322875e-001	 3.441568789449906e+000	 8.616997191864178e+000
 5.913799203372813e-001	 3.195742447322996e+000	 8.247217313250163e+000
 5.612182003031748e-001	 3.201176991585784e+000	 8.177979415159202e+000
 5.310963585522425e-001	 3.206312002558782e+000	 8.121402930552142e+000
 5.010184176725820e-001	 3.211149411812480e+000	 8.077682534236772e+000
 4.709883393310333e-001	 3.215691214040371e+000	 8.046980156259414e+000
 4.410100232820745e-001	 3.219939465148238e+000	 8.029424453298438e+000
 4.110873064392894e-001	 3.223896280334043e+000	 8.025110369081418e+000
 3.812239620090096e-001	 3.227563832160543e+000	 8.034098782874535e+000
 3.514236986856603e-001	 3.230944348622705e+000	 8.056416244871402e+000
 3.216901599082681e-001	 3.234040111211980e+000	 8.092054797087842e+000
 2.920269231775196e-001	 3.236853452979430e+000	 8.140971878171971e+000
 5.959289966467158e-001	 3.220325081535687e+000	 8.273900560702854e+000
 5.655352633805315e-001	 3.225801429985276e+000	 8.208097052404185e+000
 5.351817151537136e-001	 3.230975941042790e+000	 8.153736955034310e+000
 5.048724054973434e-001	 3.235850561136954e+000	 8.111075069927791e+000
 4.746113265526199e-001	 3.240427300305057e+000	 8.080332834285827e+000
 4.444024080721314e-001	 3.244708230267543e+000	 8.061697724930236e+000
 4.142495164841800e-001	 3.248695482493130e+000	 8.055322754312709e+000
 3.841564540197597e-001	 3.252391246256593e+000	 8.061326057858915e+000
 3.541269579017129e-001	 3.255797766691324e+000	 8.079790571490509e+000
 3.241646995955189e-001	 3.258917342838710e+000	 8.110763797947882e+000
 2.942732841210988e-001	 3.261752325696358e+000	 8.154257660322044e+000
 6.004780729561651e-001	 3.244907715748377e+000	 8.300842534628883e+000
 5.698523264580873e-001	 3.250425868384768e+000	 8.238429064754437e+000
 5.392670717555369e-001	 3.255639879526798e+000	 8.186254034071812e+000
 5.087263933225795e-001	 3.260551710461429e+000	 8.144632815944172e+000
 4.782343137747732e-001	 3.265163386569743e+000	 8.113846779722529e+000
 4.477947928628168e-001	 3.269476995386850e+000	 8.094142626438265e+000
 4.174117265297304e-001	 3.273494684652216e+000	 8.085731820030096e+000
 3.870889460311714e-001	 3.277218660352643e+000	 8.088790113212724e+000
 3.568302171183997e-001	 3.280651184759944e+000	 8.103457166852492e+000
 3.266392392833471e-001	 3.283794574465440e+000	 8.129836261480918e+000
 2.965196450651695e-001	 3.286651198413287e+000	 8.167994099358854e+000
 6.050271492656288e-001	 3.269490349961068e+000	 8.328416037311767e+000
 5.741693895358421e-001	 3.275050306784259e+000	 8.269320750104084e+000
 5.433524283577125e-001	 3.280303818010806e+000	 8.219271780505222e+000
 5.125803811482904e-001	 3.285252859785902e+000	 8.178645536548922e+000
 4.818573009974933e-001	 3.289899472834431e+000	 8.147783761676248e+000
 4.511871776541301e-001	 3.294245760506156e+000	 8.126992801930328e+000
 4.205739365759406e-001	 3.298293886811303e+000	 8.116542972012764e+000
 3.900214380432449e-001	 3.302046074448694e+000	 8.116668019337153e+000
 3.595334763357207e-001	 3.305504602828564e+000	 8.127564684964385e+000
 3.291137789717527e-001	 3.308671806092170e+000	 8.149392360061034e+000
 2.987660060097320e-001	 3.311550071130214e+000	 8.182272836294608e+000
 6.095762255751076e-001	 3.294072984173759e+000	 8.356990147406956e+000
 5.784864526137959e-001	 3.299674745183752e+000	 8.301114100938833e+000
 5.474377849602403e-001	 3.304967756494813e+000	 8.253104927358329e+000
 5.164343689744760e-001	 3.309954009110376e+000	 8.213400548912563e+000
 4.854802882207799e-001	 3.314635559099118e+000	 8.182403541777061e+000
 4.545795624460718e-001	 3.319014525625462e+000	 8.160480334303140e+000
 4.237361466228107e-001	 3.323093088970390e+000	 8.147960507503210e+000
 3.929539300559801e-001	 3.326873488544743e+000	 8.145136196937292e+000
 3.622367355536756e-001	 3.330358020897183e+000	 8.152261594902839e+000
 3.315883186607355e-001	 3.333549037718900e+000	 8.169552551580724e+000
 3.010123669547862e-001	 3.336448943847143e+000	 8.197186273551081e+000
 6.141253018846009e-001	 3.318655618386451e+000	 8.386930357853970e+000
 5.828035156919487e-001	 3.324299183583244e+000	 8.334147926758227e+000
 5.515231415631204e-001	 3.329631694978822e+000	 8.288065434498051e+000
 5.202883568011361e-001	 3.334655158434850e+000	 8.249182813746337e+000
 4.891032754446331e-001	 3.339371645363804e+000	 8.217963948529269e+000
 4.579719472386417e-001	 3.343783290744768e+000	 8.194835803064972e+000
 4.268983566703405e-001	 3.347892291129476e+000	 8.180187656264135e+000
 3.958864220693771e-001	 3.351700902640793e+000	 8.174370441085086e+000
 3.649399947722648e-001	 3.355211438965803e+000	 8.177696187663297e+000
 3.340628583502958e-001	 3.358426269345630e+000	 8.190437568876250e+000
 3.032587279003322e-001	 3.361347816564072e+000	 8.212827546759419e+000
 6.186743781941089e-001	 3.343238252599141e+000	 8.418598707704255e+000
 5.871205787703006e-001	 3.348923621982736e+000	 8.368757971097269e+000
 5.556084981663528e-001	 3.354295633462829e+000	 8.324462590588865e+000
 5.241423446282711e-001	 3.359356307759325e+000	 8.286275021936403e+000
 4.927262626690530e-001	 3.364107731628490e+000	 8.254720948382234e+000
 4.613643320318399e-001	 3.368552055864073e+000	 8.230288339607549e+000
 4.300605667185303e-001	 3.372691493288563e+000	 8.213426619823901e+000
 3.988189140834356e-001	 3.376528316736844e+000	 8.204545944220616e+000
 3.676432539914879e-001	 3.380064857034423e+000	 8.204016582707263e+000
 3.365373980404333e-001	 3.383303500972360e+000	 8.212168409619366e+000
 3.055050888463698e-001	 3.386246689281000e+000	 8.229290497803703e+000
 6.232234545036314e-001	 3.367820886811832e+000	 8.452353908175336e+000
 5.914376418488513e-001	 3.373548060382227e+000	 8.405277023423022e+000
 5.596938547699376e-001	 3.378959571946838e+000	 8.362603110581727e+000
 5.279963324558809e-001	 3.384057457083798e+000	 8.324957677384589e+000
 4.963492498940393e-001	 3.388843817893177e+000	 8.292928713688548e+000
 4.647567168256663e-001	 3.393320820983380e+000	 8.267065680056879e+000
 4.332227767673799e-001	 3.397490695447649e+000	 8.247878609003447e+000
 4.017514060981558e-001	 3.401355730832893e+000	 8.235837318145801e+000
 3.703465132113452e-001	 3.404918275103042e+000	 8.231370734222486e+000
 3.390119377311482e-001	 3.408180732599090e+000	 8.234866326651709e+000
 3.077514497928993e-001	 3.411145561997928e+000	 8.246669649045504e+000
 6.277725308131688e-001	 3.392403521024523e+000	 8.499299843801197e+000
 5.957547049276010e-001	 3.398172498781718e+000	 8.444035026165874e+000
 5.637792113738745e-001	 3.403623510430845e+000	 8.402791228964947e+000
 5.318503202839654e-001	 3.408758606408272e+000	 8.365509176246611e+000
 4.999722371195925e-001	 3.413579904157864e+000	 8.332839687707615e+000
 4.681491016201209e-001	 3.418089586102686e+000	 8.305394215826336e+000
 4.363849868168893e-001	 3.422289897606736e+000	 8.283743879811496e+000
 4.046838981135377e-001	 3.426183144928944e+000	 8.268418615062098e+000
 3.730497724318366e-001	 3.429771693171661e+000	 8.259906437111299e+000
 3.414864774224405e-001	 3.433057964225819e+000	 8.258652818739646e+000
 3.099978107399203e-001	 3.436044434714856e+000	 8.265060178668797e+000
 6.323216071227208e-001	 3.416986155237214e+000	 8.556423063351057e+000
 6.000717680065499e-001	 3.422796937181211e+000	 8.485359177131134e+000
 5.678645679781637e-001	 3.428287448914853e+000	 8.445328788988915e+000
 5.357043081125246e-001	 3.433459755732747e+000	 8.408205882750501e+000
 5.035952243457120e-001	 3.438315990422550e+000	 8.374704646803115e+000
 4.715414864152037e-001	 3.442858351221992e+000	 8.345499041987706e+000
 4.395471968670585e-001	 3.447089099765823e+000	 8.321221767790382e+000
 4.076163901295813e-001	 3.451010559024994e+000	 8.302463347700028e+000
 3.757530316529621e-001	 3.454625111240281e+000	 8.289771332720211e+000
 3.439610171143100e-001	 3.457935195852549e+000	 8.283649621728054e+000
 3.122441716874331e-001	 3.460943307431786e+000	 8.284557897089115e+000
 6.368706834322875e-001	 3.441568789449906e+000	 8.616997191864178e+000
 6.043888310856980e-001	 3.447421375580705e+000	 8.529574027521161e+000
 5.719499245828054e-001	 3.452951387398861e+000	 8.490515328067982e+000
 5.395582959415586e-001	 3.458160905057220e+000	 8.453322201765355e+000
 5.072182115723986e-001	 3.463052076687237e+000	 8.418772759975209e+000
 4.749338712109150e-001	 3.467627116341299e+000	 8.387604003568969e+000
 4.427094069178876e-001	 3.471888301924910e+000	 8.360510720889625e+000
 4.105488821462868e-001	 3.475837973121044e+000	 8.338144508586032e+000
 3.784562908747218e-001	 3.479478529308901e+000	 8.321112914324106e+000
 3.464355568067571e-001	 3.482812427479281e+000	 8.309978700073184e+000
 3.144905326354376e-001	 3.485842180148714e+000	 8.305259224374183e+000
 2.920269231775196e-001	 3.236853452979430e+000	 8.140971878171971e+000
 2.624374994324514e-001	 3.239386756599464e+000	 8.171498815266180e+000
 2.329253324867810e-001	 3.241642452436632e+000	 8.207237113352713e+000
 2.034937985235931e-001	 3.243623016616949e+000	 8.248078451343373e+000
 1.741462056470118e-001	 3.245330969105183e+000	 8.293886384139746e+000
 1.448857934907254e-001	 3.246768871790384e+000	 8.344496460278888e+000
 1.157157328821547e-001	 3.247939326581152e+000	 8.399716407952688e+000
 8.663912556126928e-002	 3.248844973512246e+000	 8.459326387061186e+000
 5.765900395300648e-002	 3.249488488864120e+000	 8.523079304847606e+000
 2.877833099221489e-002	 3.249872583296864e+000	 8.590701192566611e+000
 0.000000000000000e+000	 3.250000000000000e+000	 8.661891640548879e+000
 2.942732841210988e-001	 3.261752325696358e+000	 8.154257660322044e+000
 2.644562494246240e-001	 3.264305116266987e+000	 8.177252347281797e+000
 2.347170658106003e-001	 3.266578163610304e+000	 8.204996667144622e+000
 2.050591354327515e-001	 3.268573962899444e+000	 8.237441822398401e+000
 1.754857918421566e-001	 3.270295053483519e+000	 8.274509447326901e+000
 1.460002995927630e-001	 3.271744016958421e+000	 8.316091689525718e+000
 1.166058539029721e-001	 3.272923475247427e+000	 8.362051363315567e+000
 8.730558037229162e-002	 3.273836088693260e+000	 8.412222172657163e+000
 5.810253475200487e-002	 3.274484554163141e+000	 8.466409001054439e+000
 2.899970276876704e-002	 3.274871603168394e+000	 8.524388265829296e+000
 0.000000000000000e+000	 3.275000000000000e+000	 8.585908334059797e+000
 2.965196450651695e-001	 3.286651198413287e+000	 8.167994099358854e+000
 2.664749994171937e-001	 3.289223475934511e+000	 8.183879319510425e+000
 2.365087991347322e-001	 3.291513874783975e+000	 8.204065134670016e+000
 2.066244723421483e-001	 3.293524909181938e+000	 8.228562413966181e+000
 1.768253780374759e-001	 3.295259137861856e+000	 8.257350994918625e+000
 1.471148056949214e-001	 3.296719162126458e+000	 8.290379728840312e+000
 1.174959749238665e-001	 3.297907623913702e+000	 8.327566601697816e+000
 8.797203518335717e-002	 3.298827203874272e+000	 8.368798927974630e+000
 5.854606555102237e-002	 3.299480619462162e+000	 8.413933614963860e+000
 2.922107454532396e-002	 3.299870623039924e+000	 8.462797494803272e+000
 0.000000000000000e+000	 3.300000000000000e+000	 8.515187721471559e+000
 2.987660060097320e-001	 3.311550071130214e+000	 8.182272836294608e+000
 2.684937494101602e-001	 3.314141835602035e+000	 8.191435604477549e+000
 2.383005324591768e-001	 3.316449585957646e+000	 8.204462686855582e+000
 2.081898092517838e-001	 3.318475855464432e+000	 8.221424778810194e+000
 1.781649642329699e-001	 3.320223222240192e+000	 8.242360061117912e+000
 1.482293117972007e-001	 3.321694307294493e+000	 8.267274209249280e+000
 1.183860959448380e-001	 3.322891772579979e+000	 8.296140481721022e+000
 8.863848999446590e-002	 3.323818319055284e+000	 8.328899884991220e+000
 5.898959635005902e-002	 3.324476684761183e+000	 8.365461412256327e+000
 2.944244632188565e-002	 3.324869642911456e+000	 8.405702353396428e+000
 0.000000000000000e+000	 3.324999999999999e+000	 8.449468673210248e+000
 3.010123669547862e-001	 3.336448943847143e+000	 8.197186273551081e+000
 2.705124994035238e-001	 3.339060195269558e+000	 8.199978532215120e+000
 2.400922657839339e-001	 3.341385297131319e+000	 8.206211650613497e+000
 2.097551461616577e-001	 3.343426801746927e+000	 8.216016326245011e+000
 1.795045504286384e-001	 3.345187306618529e+000	 8.229489239040044e+000
 1.493438178996009e-001	 3.346669452462530e+000	 8.246693024558997e+000
 1.192762169658866e-001	 3.347875921246255e+000	 8.267656329877454e+000
 8.930494480561785e-002	 3.348809434236297e+000	 8.292373949588129e+000
 5.943312714911481e-002	 3.349472750060204e+000	 8.320807039214619e+000
 2.966381809845210e-002	 3.349868662782986e+000	 8.352883403211205e+000
 0.000000000000000e+000	 3.350000000000000e+000	 8.388497854614521e+000
 3.032587279003322e-001	 3.361347816564072e+000	 8.212827546759419e+000
 2.725312493972843e-001	 3.363978554937082e+000	 8.209566836279588e+000
 2.418839991090036e-001	 3.366321008304990e+000	 8.209336428990030e+000
 2.113204830717700e-001	 3.368377748029420e+000	 8.212327216338338e+000
 1.808441366244817e-001	 3.370151390996865e+000	 8.218694548900672e+000
 1.504583240021218e-001	 3.371644597630567e+000	 8.228558173475394e+000
 1.201663379870122e-001	 3.372860069912530e+000	 8.242002256534839e+000
 8.997139961681300e-002	 3.373800549417310e+000	 8.259075491405600e+000
 5.987665794818972e-002	 3.374468815359224e+000	 8.279791286405157e+000
 2.988518987502332e-002	 3.374867682654516e+000	 8.304128031037486e+000
 0.000000000000000e+000	 3.375000000000000e+000	 8.332029437235267e+000
 3.055050888463698e-001	 3.386246689281000e+000	 8.229290497803703e+000
 2.745499993914417e-001	 3.388896914604605e+000	 8.220260602152417e+000
 2.436757324343858e-001	 3.391256719478660e+000	 8.213863424837081e+000
 2.128858199821210e-001	 3.393328694311915e+000	 8.210350258780103e+000
 1.821837228204996e-001	 3.395115475375202e+000	 8.209935312019701e+000
 1.515728301047637e-001	 3.396619742798604e+000	 8.212795608688099e+000
 1.210564590082149e-001	 3.397844218578805e+000	 8.219070980058589e+000
 9.063785442805133e-002	 3.398791664598324e+000	 8.228864142969293e+000
 6.032018874728375e-002	 3.399464880658245e+000	 8.242240862785309e+000
 3.010656165159930e-002	 3.399866702526048e+000	 8.259230197926483e+000
 0.000000000000000e+000	 3.400000000000000e+000	 8.279824822871854e+000
 3.077514497928993e-001	 3.411145561997928e+000	 8.246669649045504e+000
 2.765687493859962e-001	 3.413815274272130e+000	 8.232121217899019e+000
 2.454674657600808e-001	 3.416192430652333e+000	 8.219820967826452e+000
 2.144511568927105e-001	 3.418279640594409e+000	 8.210080816181142e+000
 1.835233090166920e-001	 3.420079559753539e+000	 8.203174030342989e+000
 1.526873362075264e-001	 3.421594887966640e+000	 8.199335092564839e+000
 1.219465800294947e-001	 3.422828367245081e+000	 8.198759658636714e+000
 9.130430923933289e-002	 3.423782779779336e+000	 8.201604607614359e+000
 6.076371954639694e-002	 3.424460945957267e+000	 8.207988179703570e+000
 3.032793342818005e-002	 3.424865722397579e+000	 8.217990199254443e+000
 0.000000000000000e+000	 3.425000000000000e+000	 8.231652379694403e+000
 3.099978107399203e-001	 3.436044434714856e+000	 8.265060178668797e+000
 2.785874993809475e-001	 3.438733633939654e+000	 8.245211326974191e+000
 2.472591990860882e-001	 3.441128141826003e+000	 8.227239244637874e+000
 2.160164938035385e-001	 3.443230586876904e+000	 8.211516711575902e+000
 1.848628952130592e-001	 3.445043644131875e+000	 8.198376271202234e+000
 1.538018423104099e-001	 3.446570033134677e+000	 8.188110059119250e+000
 1.228367010508516e-001	 3.447812515911356e+000	 8.180969729416727e+000
 9.197076405065760e-002	 3.448773894960349e+000	 8.177166475760226e+000
 6.120725034552924e-002	 3.449457011256287e+000	 8.176871144291493e+000
 3.054930520476556e-002	 3.449864742269109e+000	 8.180214435217897e+000
 0.000000000000000e+000	 3.449999999999999e+000	 8.187287189839234e+000
 3.122441716874331e-001	 3.460943307431786e+000	 8.284557897089115e+000
 2.806062493762958e-001	 3.463651993607177e+000	 8.259594783064067e+000
 2.490509324124082e-001	 3.466063852999674e+000	 8.236150232159806e+000
 2.175818307146049e-001	 3.468181533159398e+000	 8.214658139918221e+000
 1.862024814096009e-001	 3.470007728510212e+000	 8.195510557049364e+000
 1.549163484134143e-001	 3.471545178302714e+000	 8.179057481937596e+000
 1.237268220722855e-001	 3.472796664577632e+000	 8.165606754586142e+000
 9.263721886202557e-002	 3.473765010141362e+000	 8.155424049116414e+000
 6.165078114468067e-002	 3.474453076555308e+000	 8.148732961773277e+000
 3.077067698135585e-002	 3.474863762140640e+000	 8.145715191235777e+000
 0.000000000000000e+000	 3.474999999999999e+000	 8.146510807899048e+000
 3.144905326354376e-001	 3.485842180148714e+000	 8.305259224374183e+000
 2.826249993720412e-001	 3.488570353274702e+000	 8.275336606863341e+000
 2.508426657390410e-001	 3.490999564173347e+000	 8.246587633553549e+000
 2.191471676259100e-001	 3.493132479441893e+000	 8.219507583369632e+000
 1.875420676063174e-001	 3.494971812888549e+000	 8.194548259916475e+000
 1.560308545165396e-001	 3.496520323470751e+000	 8.172117747765304e+000
 1.246169430937966e-001	 3.497780813243908e+000	 8.152580274049702e+000
 9.330367367343673e-002	 3.498756125322376e+000	 8.136256172422060e+000
 6.209431194385126e-002	 3.499449141854330e+000	 8.123421946248429e+000
 3.099204875795090e-002	 3.499862782012171e+000	 8.114310427763124e+000
 0.000000000000000e+000	 3.500000000000000e+000	 8.109111029763941e+000
 3.500000000000000e+000	 0.000000000000000e+000	 1.070528605781694e+001
 3.499862782012172e+000	 3.099204875794991e-002	 1.072691392665953e+001
 3.499449141854330e+000	 6.209431194385037e-002	 1.074333927424903e+001
 3.498756125322376e+000	 9.330367367343595e-002	 1.075444757510340e+001
 3.497780813243908e+000	 1.246169430937959e-001	 1.076017370643399e+001
 3.496520323470751e+000	 1.560308545165391e-001	 1.076050276442718e+001
 3.494971812888549e+000	 1.875420676063169e-001	 1.075547078677060e+001
 3.493132479441893e+000	 2.191471676259096e-001	 1.074516537667728e+001
 3.490999564173347e+000	 2.508426657390407e-001	 1.072972622376311e+001
 3.488570353274701e+000	 2.826249993720411e-001	 1.070934551725495e+001
 3.485842180148715e+000	 3.144905326354376e-001	 1.068426824714764e+001
 3.525000000000000e+000	 0.000000000000000e+000	 1.067951796871208e+001
 3.524861801883700e+000	 3.121342053454733e-002	 1.070173564456428e+001
 3.524445207153342e+000	 6.253784274303052e-002	 1.071880804208082e+001
 3.523747240503367e+000	 9.397012848486869e-002	 1.073065364015389e+001
 3.522764961910145e+000	 1.255070641153454e-001	 1.073724178173555e+001
 3.521495468638727e+000	 1.571453606197247e-001	 1.073859348127220e+001
 3.519935897266799e+000	 1.888816538031206e-001	 1.073478213521932e+001
 3.518083425724269e+000	 2.207125045373338e-001	 1.072593413079539e+001
 3.515935275346863e+000	 2.526343990658297e-001	 1.071222934823988e+001
 3.513488712942027e+000	 2.846437493679848e-001	 1.069390155196818e+001
 3.510741052865397e+000	 3.167368935836880e-001	 1.067123866616167e+001
 3.549999999999999e+000	 0.000000000000000e+000	 1.065529755125878e+001
 3.549860821755223e+000	 3.143479231114475e-002	 1.067826021857464e+001
 3.549441272452333e+000	 6.298137354221063e-002	 1.069610156661694e+001
 3.548738355684315e+000	 9.463658329630142e-002	 1.070877304631441e+001
 3.547749110576306e+000	 1.263971851368950e-001	 1.071627846788412e+001
 3.546470613806582e+000	 1.582598667229104e-001	 1.071867479999797e+001
 3.544899981644873e+000	 1.902212399999243e-001	 1.071607286882341e+001
 3.543034372006405e+000	 2.222778414487581e-001	 1.070863795200006e+001
 3.540870986520065e+000	 2.544261323926186e-001	 1.069659026272498e+001
 3.538407072608955e+000	 2.866624993639286e-001	 1.068020531925220e+001
 3.535639925581588e+000	 3.189832545319382e-001	 1.065981419526298e+001
 3.574999999999999e+000	 0.000000000000000e+000	 1.063267824739754e+001
 3.574859841626743e+000	 3.165616408774217e-002	 1.065651952064757e+001
 3.574437337751306e+000	 6.342490434139073e-002	 1.067523012245045e+001
 3.573729470865220e+000	 9.530303810773416e-002	 1.068879445394613e+001
 3.572733259242388e+000	 1.272873061584445e-001	 1.069725080495466e+001
 3.571445758974317e+000	 1.593743728260961e-001	 1.070069214545103e+001
 3.569864066022773e+000	 1.915608261967280e-001	 1.069926681366580e+001
 3.567985318288304e+000	 2.238431783601823e-001	 1.069317909577341e+001
 3.565806697692955e+000	 2.562178657194075e-001	 1.068268969224704e+001
 3.563325432275486e+000	 2.886812493598723e-001	 1.066811606609512e+001
 3.560538798297286e+000	 3.212296154801885e-001	 1.064983266835350e+001
 3.600000000000000e+000	 0.000000000000000e+000	 1.061171201457052e+001
 3.599858861498257e+000	 3.187753586433959e-002	 1.063654424242788e+001
 3.599433403050260e+000	 6.386843514057089e-002	 1.065620310175343e+001
 3.598720586046081e+000	 9.596949291916691e-002	 1.067070593240464e+001
 3.597717407908394e+000	 1.281774271799941e-001	 1.068012552677569e+001
 3.596420904141930e+000	 1.604888789292817e-001	 1.068459091415459e+001
 3.594828150400499e+000	 1.929004123935317e-001	 1.068428803841410e+001
 3.592936264569962e+000	 2.254085152716066e-001	 1.067946032389731e+001
 3.590742408865533e+000	 2.580095990461965e-001	 1.067040912447927e+001
 3.588243791941621e+000	 2.906999993558161e-001	 1.065749405092890e+001
 3.585437671012494e+000	 3.234759764284390e-001	 1.064113317185832e+001
 3.625000000000000e+000	 0.000000000000000e+000	 1.059244937691111e+001
 3.624857881369765e+000	 3.209890764093702e-002	 1.061836393594854e+001
 3.624429468349195e+000	 6.431196593975101e-002	 1.063902904470533e+001
 3.623711701226900e+000	 9.663594773059965e-002	 1.065449498041943e+001
 3.622701556574322e+000	 1.290675482015436e-001	 1.066486907148947e+001
 3.621396049309423e+000	 1.616033850324674e-001	 1.067031647528508e+001
 3.619792234778049e+000	 1.942399985903353e-001	 1.067106084595568e+001
 3.617887210851384e+000	 2.269738521830308e-001	 1.066738488699471e+001
 3.615678120037797e+000	 2.598013323729854e-001	 1.065963078344163e+001
 3.613162151607358e+000	 2.927187493517598e-001	 1.064820050875208e+001
 3.610336543727210e+000	 3.257223373766893e-001	 1.063355600153513e+001
 3.650000000000000e+000	 0.000000000000000e+000	 1.057493947432990e+001
 3.649856901241271e+000	 3.232027941753444e-002	 1.060200705265860e+001
 3.649425533648110e+000	 6.475549673893113e-002	 1.062371566867073e+001
 3.648702816407675e+000	 9.730240254203239e-002	 1.064014854563586e+001
 3.647685705240175e+000	 1.299576692230932e-001	 1.065144759167824e+001
 3.646371194476795e+000	 1.627178911356531e-001	 1.065781417160881e+001
 3.644756319155425e+000	 1.955795847871390e-001	 1.065950976537642e+001
 3.642838157132565e+000	 2.285391890944550e-001	 1.065685650778854e+001
 3.640613831209749e+000	 2.615930656997744e-001	 1.065023760428322e+001
 3.638080511272699e+000	 2.947374993477036e-001	 1.064009761768570e+001
 3.635235416441434e+000	 3.279686983249396e-001	 1.062694262105888e+001
 3.675000000000000e+000	 0.000000000000000e+000	 1.055923010959703e+001
 3.674855921112770e+000	 3.254165119413186e-002	 1.058750098085802e+001
 3.674421598947007e+000	 6.519902753811127e-002	 1.061026989618634e+001
 3.673693931588407e+000	 9.796885735346513e-002	 1.062765304335957e+001
 3.672669853905949e+000	 1.308477902446427e-001	 1.063982696407715e+001
 3.671346339644046e+000	 1.638323972388387e-001	 1.064702932038025e+001
 3.669720403532627e+000	 1.969191709839428e-001	 1.064955954426687e+001
 3.667789103413511e+000	 2.301045260058793e-001	 1.064777936504396e+001
 3.665549542381389e+000	 2.633847990265633e-001	 1.064211320909440e+001
 3.662998870937642e+000	 2.967562493436473e-001	 1.063304846689428e+001
 3.660134289155166e+000	 3.302150592731899e-001	 1.062113562229648e+001
 3.699999999999999e+000	 0.000000000000000e+000	 1.054536779351589e+001
 3.699854940984265e+000	 3.276302297072929e-002	 1.057487208161474e+001
 3.699417664245885e+000	 6.564255833729141e-002	 1.059869788181318e+001
 3.698685046769097e+000	 9.863531216489786e-002	 1.061699437454094e+001
 3.697654002571646e+000	 1.317379112661922e-001	 1.062997279889348e+001
 3.696321484811177e+000	 1.649469033420245e-001	 1.063790721420384e+001
 3.694684487909653e+000	 1.982587571807465e-001	 1.064113514134033e+001
 3.692740049694216e+000	 2.316698629173035e-001	 1.064005807816137e+001
 3.690485253552716e+000	 2.651765323533522e-001	 1.063514188369926e+001
 3.687917230602189e+000	 2.987749993395911e-001	 1.062691702580734e+001
 3.685033161868407e+000	 3.324614202214402e-001	 1.061597868719247e+001
 3.724999999999999e+000	 0.000000000000000e+000	 1.053339778827771e+001
 3.724853960855755e+000	 3.298439474732670e-002	 1.056414572323570e+001
 3.724413729544743e+000	 6.608608913647153e-002	 1.058900503790764e+001
 3.723676161949742e+000	 9.930176697633060e-002	 1.060815794303521e+001
 3.722638151237267e+000	 1.326280322877418e-001	 1.062185044875042e+001
 3.721296629978185e+000	 1.660614094452101e-001	 1.063039312186126e+001
 3.719648572286506e+000	 1.995983433775501e-001	 1.063416171934823e+001
 3.717690995974683e+000	 2.332351998287278e-001	 1.063359769239016e+001
 3.715420964723730e+000	 2.669682656801412e-001	 1.062920855538261e+001
 3.712835590266339e+000	 3.007937493355348e-001	 1.062156811458035e+001
 3.709932034581156e+000	 3.347077811696906e-001	 1.061131655118902e+001
 3.750000000000000e+000	 0.000000000000000e+000	 1.052336414908196e+001
 3.749852980727241e+000	 3.320576652392414e-002	 1.055534631435879e+001
 3.749409794843583e+000	 6.652961993565168e-002	 1.058119605936163e+001
 3.748667277130346e+000	 9.996822178776336e-002	 1.060112867217243e+001
 3.747622299902811e+000	 1.335181533092913e-001	 1.061542501727328e+001
 3.746271775145075e+000	 1.671759155483958e-001	 1.062443228910548e+001
 3.744612656663185e+000	 2.009379295743539e-001	 1.062856463827883e+001
 3.742641942254912e+000	 2.348005367401521e-001	 1.062830366463365e+001
 3.740356675894433e+000	 2.687599990069302e-001	 1.062419877150804e+001
 3.737753949930092e+000	 3.028124993314787e-001	 1.061686737573712e+001
 3.734830907293414e+000	 3.369541421179410e-001	 1.060699496810944e+001
 3.485842180148715e+000	 3.144905326354376e-001	 1.068426824714764e+001
 3.482812427479281e+000	 3.464355568067562e-001	 1.070168952503492e+001
 3.479478529308901e+000	 3.784562908747209e-001	 1.071651789008178e+001
 3.475837973121045e+000	 4.105488821462861e-001	 1.072907725040610e+001
 3.471888301924911e+000	 4.427094069178871e-001	 1.073974157218262e+001
 3.467627116341299e+000	 4.749338712109144e-001	 1.074893457819093e+001
 3.463052076687237e+000	 5.072182115723982e-001	 1.075712931575835e+001
 3.458160905057221e+000	 5.395582959415585e-001	 1.076484759132879e+001
 3.452951387398862e+000	 5.719499245828053e-001	 1.077265926918289e+001
 3.447421375580705e+000	 6.043888310856981e-001	 1.078118143214969e+001
 3.441568789449906e+000	 6.368706834322875e-001	 1.073833630322670e+001
 3.510741052865397e+000	 3.167368935836880e-001	 1.067123866616167e+001
 3.507689659105719e+000	 3.489100964994941e-001	 1.068905350874438e+001
 3.504331947377194e+000	 3.811595500968072e-001	 1.070452091472654e+001
 3.500665387216742e+000	 4.134813741633440e-001	 1.071801551183533e+001
 3.496687504083629e+000	 4.458716169690847e-001	 1.072996344744558e+001
 3.492395881460230e+000	 4.783262560070002e-001	 1.074084204436457e+001
 3.487788162951553e+000	 5.108411987994556e-001	 1.075117932190709e+001
 3.482862054381338e+000	 5.434122837709493e-001	 1.076155337945550e+001
 3.477615325882537e+000	 5.760352811877796e-001	 1.077259164000411e+001
 3.472045813979897e+000	 6.087058941651443e-001	 1.078496995151085e+001
 3.466151423662342e+000	 6.414197597421076e-001	 1.072715011814891e+001
 3.535639925581588e+000	 3.189832545319382e-001	 1.065981419526298e+001
 3.532566890731576e+000	 3.513846361922370e-001	 1.067801403599538e+001
 3.529185365444834e+000	 3.838628093189127e-001	 1.069408324910784e+001
 3.525492801311734e+000	 4.164138661804452e-001	 1.070844747413061e+001
 3.521486706241609e+000	 4.490338270203598e-001	 1.072158536693129e+001
 3.517164646578412e+000	 4.817186408032076e-001	 1.073402821278317e+001
 3.512524249215126e+000	 5.144641860266879e-001	 1.074635940055914e+001
 3.507563203704740e+000	 5.472662716005795e-001	 1.075921375520826e+001
 3.502279264365547e+000	 5.801206377930676e-001	 1.077327672598613e+001
 3.496670252378494e+000	 6.130229572449886e-001	 1.078928342824475e+001
 3.490734057874272e+000	 6.459688360524207e-001	 1.071712704125687e+001
 3.560538798297286e+000	 3.212296154801885e-001	 1.064983266835350e+001
 3.557444122356851e+000	 3.538591758849846e-001	 1.066838411511638e+001
 3.554038783511820e+000	 3.865660685410374e-001	 1.068499309641255e+001
 3.550320215406022e+000	 4.193463581975899e-001	 1.070013656982431e+001
 3.546285908398852e+000	 4.521960370717122e-001	 1.071434604135733e+001
 3.541933411695845e+000	 4.851110255995360e-001	 1.072820713583094e+001
 3.537260335477958e+000	 5.180871732540957e-001	 1.074235902416859e+001
 3.532264353027429e+000	 5.511202594304488e-001	 1.075749370470621e+001
 3.526943202847890e+000	 5.842059943986688e-001	 1.077435513596070e+001
 3.521294690776494e+000	 6.173400203252305e-001	 1.079373821864432e+001
 3.515316692085695e+000	 6.505179123632263e-001	 1.070819015400900e+001
 3.585437671012494e+000	 3.234759764284390e-001	 1.064113317185832e+001
 3.582321353981543e+000	 3.563337155777368e-001	 1.065997833709692e+001
 3.578892201578152e+000	 3.892693277631811e-001	 1.067704056651850e+001
 3.575147629499604e+000	 4.222788502147780e-001	 1.069284845587244e+001
 3.571085110555359e+000	 4.553582471231421e-001	 1.070798671711188e+001
 3.566702176812526e+000	 4.885034103959858e-001	 1.072309570613626e+001
 3.561996421740048e+000	 5.217101604816787e-001	 1.073887080314708e+001
 3.556965502349406e+000	 5.549742472605577e-001	 1.075606164269409e+001
 3.551607141329567e+000	 5.882913510045834e-001	 1.077547119082322e+001
 3.545919129173897e+000	 6.216570834058705e-001	 1.079795466709200e+001
 3.539899326296611e+000	 6.550669886745246e-001	 1.070026679438598e+001
 3.610336543727210e+000	 3.257223373766893e-001	 1.063355600153513e+001
 3.607198585605653e+000	 3.588082552704940e-001	 1.065261282101300e+001
 3.603745619643832e+000	 3.919725869853445e-001	 1.067001761024648e+001
 3.599975043592481e+000	 4.252113422320095e-001	 1.068635093695040e+001
 3.595884312711128e+000	 4.585204571746494e-001	 1.070225108881687e+001
 3.591470941928460e+000	 4.918957951925569e-001	 1.071841355863226e+001
 3.586732508001397e+000	 5.253331477094370e-001	 1.073559037765848e+001
 3.581666651670666e+000	 5.588282350909055e-001	 1.075458929431352e+001
 3.576271079810580e+000	 5.923767076108115e-001	 1.077627279553055e+001
 3.570543567570703e+000	 6.259741464869082e-001	 1.079766245725740e+001
 3.564481960507018e+000	 6.596160649863155e-001	 1.069328841011407e+001
 3.635235416441434e+000	 3.279686983249396e-001	 1.062694262105888e+001
 3.632075817229181e+000	 3.612827949632560e-001	 1.064610516169542e+001
 3.628599037708858e+000	 3.946758462075269e-001	 1.066371795631428e+001
 3.624802457684653e+000	 4.281438342492844e-001	 1.068041389190097e+001
 3.620683514866161e+000	 4.616826672262341e-001	 1.069688521548431e+001
 3.616239707043643e+000	 4.952881799892493e-001	 1.071388297664226e+001
 3.611468594262003e+000	 5.289561349373704e-001	 1.073221631386022e+001
 3.606367800991213e+000	 5.626822229214925e-001	 1.075275158173350e+001
 3.600935018290926e+000	 5.964620642173530e-001	 1.077641131635914e+001
 3.595168005966912e+000	 6.302912095683440e-001	 1.078385226334791e+001
 3.589064594716919e+000	 6.641651412985992e-001	 1.068719041792042e+001
 3.660134289155166e+000	 3.302150592731899e-001	 1.062113562229648e+001
 3.656953048852127e+000	 3.637573346560227e-001	 1.064027437953396e+001
 3.653452455773231e+000	 3.973791054297284e-001	 1.065793705086397e+001
 3.649629871776119e+000	 4.310763262666026e-001	 1.067480920318438e+001
 3.645482717020455e+000	 4.648448772778961e-001	 1.069163744009490e+001
 3.641008472158078e+000	 4.986805647860632e-001	 1.070922880179845e+001
 3.636204680521867e+000	 5.325791221654790e-001	 1.072845000437970e+001
 3.631068950311046e+000	 5.665362107523190e-001	 1.075022651540781e+001
 3.625598956770607e+000	 6.005474208242080e-001	 1.077554146317313e+001
 3.619792444362524e+000	 6.346082726501775e-001	 1.077027844175276e+001
 3.613647228926312e+000	 6.687142176113755e-001	 1.068191206853303e+001
 3.685033161868407e+000	 3.324614202214402e-001	 1.061597868719247e+001
 3.681830280474491e+000	 3.662318743487942e-001	 1.063494087231668e+001
 3.678305873836951e+000	 4.000823646519494e-001	 1.065247199944087e+001
 3.674457285866882e+000	 4.340088182839643e-001	 1.066931068918853e+001
 3.670281919174012e+000	 4.680070873296355e-001	 1.068625831243692e+001
 3.665777237271762e+000	 5.020729495829982e-001	 1.070417834761256e+001
 3.660940766780990e+000	 5.362021093937629e-001	 1.072399557282541e+001
 3.655770099630165e+000	 5.703901985833845e-001	 1.074669508974112e+001
 3.650262895249622e+000	 6.046327774313763e-001	 1.077332117646522e+001
 3.644416882757539e+000	 6.389253357324090e-001	 1.075688889435562e+001
 3.638229863135198e+000	 6.732632939246445e-001	 1.067739631715376e+001
 3.709932034581156e+000	 3.347077811696906e-001	 1.061131655118902e+001
 3.706707512096273e+000	 3.687064140415705e-001	 1.062992636900847e+001
 3.703159291900017e+000	 4.027856238741893e-001	 1.064712151130875e+001
 3.699284699956939e+000	 4.369413103013693e-001	 1.066369403926499e+001
 3.695081121326832e+000	 4.711692973814524e-001	 1.068050051505224e+001
 3.690546002384697e+000	 5.054653343800545e-001	 1.069846131652690e+001
 3.685676853039371e+000	 5.398250966222220e-001	 1.071855978214335e+001
 3.680471248948570e+000	 5.742441864146893e-001	 1.074184118295646e+001
 3.674926833727972e+000	 6.087181340388582e-001	 1.076941151894645e+001
 3.669041321151957e+000	 6.432423988150382e-001	 1.074363487742394e+001
 3.662812497343578e+000	 6.778123702384060e-001	 1.067358969914704e+001
 3.734830907293414e+000	 3.369541421179410e-001	 1.060699496810944e+001
 3.731584743717474e+000	 3.711809537343518e-001	 1.062505388537851e+001
 3.728012709962430e+000	 4.054888830964488e-001	 1.064168584599271e+001
 3.724112114046291e+000	 4.398738023188178e-001	 1.065773675136357e+001
 3.719880323478916e+000	 4.743315074333467e-001	 1.067411879214458e+001
 3.715314767496882e+000	 5.088577191772322e-001	 1.069180972028332e+001
 3.710412939297010e+000	 5.434480838508565e-001	 1.071185194663902e+001
 3.705172398266262e+000	 5.780981742462337e-001	 1.073535146096788e+001
 3.699590772205657e+000	 6.128034906466537e-001	 1.076347657147211e+001
 3.693665759545780e+000	 6.475594618980656e-001	 1.073047088979613e+001
 3.687395131551449e+000	 6.823614465526605e-001	 1.067044221070115e+001
 3.441568789449906e+000	 6.368706834322875e-001	 1.073833630322670e+001
 3.435391618878011e+000	 6.693910851321568e-001	 1.076155978308935e+001
 3.428887925790747e+000	 7.019455764256674e-001	 1.078322514094828e+001
 3.422055846180586e+000	 7.345296355551680e-001	 1.080343684424726e+001
 3.414893592100732e+000	 7.671386801043791e-001	 1.082231053051602e+001
 3.407399453636346e+000	 7.997680684061287e-001	 1.083997351080443e+001
 3.399571800851111e+000	 8.324131010182234e-001	 1.085656526389817e+001
 3.391409085706569e+000	 8.650690222672626e-001	 1.087223791951493e+001
 3.382909843951724e+000	 8.977310218600830e-001	 1.088715672864696e+001
 3.374072696980329e+000	 9.303942365624413e-001	 1.090150051918691e+001
 3.364896353653301e+000	 9.630537519444204e-001	 1.091546213494989e+001
 3.466151423662342e+000	 6.414197597421076e-001	 1.072715011814891e+001
 3.459930130443355e+000	 6.741724500248499e-001	 1.075068517895692e+001
 3.453379982405272e+000	 7.069594733984075e-001	 1.077261079106717e+001
 3.446499102226226e+000	 7.397762758068602e-001	 1.079301780045580e+001
 3.439285689188370e+000	 7.726182421023856e-001	 1.081200834158106e+001
 3.431738021163191e+000	 8.054806974630455e-001	 1.082969636640796e+001
 3.423854456571968e+000	 8.383589088792044e-001	 1.084620816444821e+001
 3.415633436318824e+000	 8.712480867083657e-001	 1.086168287196166e+001
 3.407073485693827e+000	 9.041433862981304e-001	 1.087627296842982e+001
 3.398173216243544e+000	 9.370399096768675e-001	 1.089014475838094e+001
 3.388931327606469e+000	 9.699327073115912e-001	 1.090347883662168e+001
 3.490734057874272e+000	 6.459688360524207e-001	 1.071712704125687e+001
 3.484468642008293e+000	 6.789538149181262e-001	 1.074087270751515e+001
 3.477872039019489e+000	 7.119733703718012e-001	 1.076295373019956e+001
 3.470942358271658e+000	 7.450229160592580e-001	 1.078344724395322e+001
 3.463677786275902e+000	 7.780978041011291e-001	 1.080244179560657e+001
 3.456076588690030e+000	 8.111933265207119e-001	 1.082003789911908e+001
 3.448137112292919e+000	 8.443047167409269e-001	 1.083634858176833e+001
 3.439857786931272e+000	 8.774271511501820e-001	 1.085149991967917e+001
 3.431237127436225e+000	 9.105557507368421e-001	 1.086563156074688e+001
 3.422273735507152e+000	 9.436855827918900e-001	 1.087889723297677e+001
 3.412966301560131e+000	 9.768116626792683e-001	 1.089146523623458e+001
 3.515316692085695e+000	 6.505179123632263e-001	 1.070819015400900e+001
 3.509007153572822e+000	 6.837351798119854e-001	 1.073205406795524e+001
 3.502364095633400e+000	 7.169872673458494e-001	 1.075419421660890e+001
 3.495385614316883e+000	 7.502695563123618e-001	 1.077467392860909e+001
 3.488069883363327e+000	 7.835773661006106e-001	 1.079356807379942e+001
 3.480415156216862e+000	 8.169059555791280e-001	 1.081096364441832e+001
 3.472419768013961e+000	 8.502505246033909e-001	 1.082696032776762e+001
 3.464082137543914e+000	 8.836062155927119e-001	 1.084167106839682e+001
 3.455400769178916e+000	 9.169681151762193e-001	 1.085522261780072e+001
 3.446374254771157e+000	 9.503312559075083e-001	 1.086775606959328e+001
 3.437001275514286e+000	 9.836906180474516e-001	 1.087942737809246e+001
 3.539899326296611e+000	 6.550669886745246e-001	 1.070026679438598e+001
 3.533545665136944e+000	 6.885165447064279e-001	 1.072416507126378e+001
 3.526856152247003e+000	 7.220011643205517e-001	 1.074627647562692e+001
 3.519828870361901e+000	 7.555161965661711e-001	 1.076665043069476e+001
 3.512461980450646e+000	 7.890569281008294e-001	 1.078534803522369e+001
 3.504753723743688e+000	 8.226185846382939e-001	 1.080244267128296e+001
 3.496702423735099e+000	 8.561963324665964e-001	 1.081802060373819e+001
 3.488306488156749e+000	 8.897852800359549e-001	 1.083218156942387e+001
 3.479564410921900e+000	 9.233804796162610e-001	 1.084503935394503e+001
 3.470474774035553e+000	 9.569769290237226e-001	 1.085672235401109e+001
 3.461036249468935e+000	 9.905695734161415e-001	 1.086737412317585e+001
 3.564481960507018e+000	 6.596160649863155e-001	 1.069328841011407e+001
 3.558084176700659e+000	 6.932979096014533e-001	 1.071714549843664e+001
 3.551348208860298e+000	 7.270150612959079e-001	 1.073914856285824e+001
 3.544272126406712e+000	 7.607628368206859e-001	 1.075933301707649e+001
 3.536854077537856e+000	 7.945364901017858e-001	 1.077774608997800e+001
 3.529092291270505e+000	 8.283312136982085e-001	 1.079444746034217e+001
 3.520985079456328e+000	 8.621421403305433e-001	 1.080950988347992e+001
 3.512530838769779e+000	 8.959643444799116e-001	 1.082301980773289e+001
 3.503728052665179e+000	 9.297928440569677e-001	 1.083507797871390e+001
 3.494575293300342e+000	 9.636226021405324e-001	 1.084580002913237e+001
 3.485071223424078e+000	 9.974485287853374e-001	 1.085531705201509e+001
 3.589064594716919e+000	 6.641651412985992e-001	 1.068719041792042e+001
 3.582622688263967e+000	 6.980792744970616e-001	 1.071093896451980e+001
 3.575840265473288e+000	 7.320289582719184e-001	 1.073276223300673e+001
 3.568715382451315e+000	 7.660094770759065e-001	 1.075268151882517e+001
 3.561246174624960e+000	 8.000160521034795e-001	 1.077073007758482e+001
 3.553430858797317e+000	 8.340438427588733e-001	 1.078695378703977e+001
 3.545267735177652e+000	 8.680879481952321e-001	 1.080141180122837e+001
 3.536755189383001e+000	 9.021434089245816e-001	 1.081417719464240e+001
 3.527891694408750e+000	 9.362052084983391e-001	 1.082533759424720e+001
 3.518675812565526e+000	 9.702682752579384e-001	 1.083499579713434e+001
 3.509106197379714e+000	 1.004327484155040e+000	 1.084327037155512e+001
 3.613647228926312e+000	 6.687142176113755e-001	 1.068191206853303e+001
 3.607161199826867e+000	 7.028606393932529e-001	 1.070549278819945e+001
 3.600332322085968e+000	 7.370428552485825e-001	 1.072707281405561e+001
 3.593158638495713e+000	 7.712561173318326e-001	 1.074665920998487e+001
 3.585638271711956e+000	 8.054956141059108e-001	 1.076427115034333e+001
 3.577769426324120e+000	 8.397564718202875e-001	 1.077994060956560e+001
 3.569550390899070e+000	 8.740337560606624e-001	 1.079371304415676e+001
 3.560979539996417e+000	 9.083224733699647e-001	 1.080564806488017e+001
 3.552055336152616e+000	 9.426175729403755e-001	 1.081582009690259e+001
 3.542776331831104e+000	 9.769139483759403e-001	 1.082431902561625e+001
 3.533141171335844e+000	 1.011206439525248e+000	 1.083125082582163e+001
 3.638229863135198e+000	 6.732632939246445e-001	 1.067739631715376e+001
 3.631699711389360e+000	 7.076420042900274e-001	 1.070075786667905e+001
 3.624824378698343e+000	 7.420567522259013e-001	 1.072203908654874e+001
 3.617601894539901e+000	 7.765027575884642e-001	 1.074123269125618e+001
 3.610030368798847e+000	 8.109751761090794e-001	 1.075834366141125e+001
 3.602107993850920e+000	 8.454691008824511e-001	 1.077338996133037e+001
 3.593833046620580e+000	 8.799795639268340e-001	 1.078640324923641e+001
 3.585203890610026e+000	 9.145015378160616e-001	 1.079742957781916e+001
 3.576218977896775e+000	 9.490299373830771e-001	 1.080653008285626e+001
 3.566876851097076e+000	 9.835596214945384e-001	 1.081378165755145e+001
 3.557176145292468e+000	 1.018085394895963e+000	 1.081927761020886e+001
 3.662812497343578e+000	 6.778123702384060e-001	 1.067358969914704e+001
 3.656238222951446e+000	 7.124233691873849e-001	 1.069668855559484e+001
 3.649316435310409e+000	 7.470706492038739e-001	 1.071762316773275e+001
 3.642045150583884e+000	 7.817493978458017e-001	 1.073637177836349e+001
 3.634422465885629e+000	 8.164547381129859e-001	 1.075292505739362e+001
 3.626446561377710e+000	 8.511817299453643e-001	 1.076728684777028e+001
 3.618115702342184e+000	 8.859253717937472e-001	 1.077947490425007e+001
 3.609428241223830e+000	 9.206806022628715e-001	 1.078952162269090e+001
 3.600382619641227e+000	 9.554423018264432e-001	 1.079747475750499e+001
 3.590977370363441e+000	 9.902052946137319e-001	 1.080339812486534e+001
 3.581211119249587e+000	 1.024964350267184e+000	 1.080737228921894e+001
 3.687395131551449e+000	 6.823614465526605e-001	 1.067044221070115e+001
 3.680776734513125e+000	 7.172047340853256e-001	 1.069324255373470e+001
 3.673808491922170e+000	 7.520845461825008e-001	 1.071379040033372e+001
 3.666488406627661e+000	 7.869960381038451e-001	 1.073204939488743e+001
 3.658814562972306e+000	 8.219343001176299e-001	 1.074799577522772e+001
 3.650785128904496e+000	 8.568943590090274e-001	 1.076161914727957e+001
 3.642398358063881e+000	 8.918711796614022e-001	 1.077292325276492e+001
 3.633652591837826e+000	 9.268596667103952e-001	 1.078192672759018e+001
 3.624546261385974e+000	 9.618546662704745e-001	 1.078866384849218e+001
 3.615077889630201e+000	 9.968509677335217e-001	 1.079318526547039e+001
 3.605246093207198e+000	 1.031843305638912e+000	 1.079555871749155e+001
 3.364896353653301e+000	 9.630537519444204e-001	 1.091546213494989e+001
 3.355379612083005e+000	 9.957046041917383e-001	 1.093071819356131e+001
 3.345521361378934e+000	 1.028341781982668e+000	 1.094603521395049e+001
 3.335320583350722e+000	 1.060960228429861e+000	 1.096166599012438e+001
 3.324776354164621e+000	 1.093554843085373e+000	 1.097787911707681e+001
 3.313887845952988e+000	 1.126120484008404e+000	 1.099495930603136e+001
 3.302654328373524e+000	 1.158651969894472e+000	 1.101320767110943e+001
 3.291075170115785e+000	 1.191144082264780e+000	 1.103294198556164e+001
 3.279149840352444e+000	 1.223591567714392e+000	 1.105449690573255e+001
 3.266877910132902e+000	 1.255989140217728e+000	 1.107130347472767e+001
 3.254259053716807e+000	 1.288331483489811e+000	 1.105953554979805e+001
 3.388931327606469e+000	 9.699327073115912e-001	 1.090347883662168e+001
 3.379346609310144e+000	 1.002816779932178e+000	 1.091855002140916e+001
 3.369417942529220e+000	 1.035687080421720e+000	 1.093369217656138e+001
 3.359144301800547e+000	 1.068538515772246e+000	 1.094915869876973e+001
 3.348524756691562e+000	 1.101365949104042e+000	 1.096521915942758e+001
 3.337558473421284e+000	 1.134164201748157e+000	 1.098215963301566e+001
 3.326244716430685e+000	 1.166928055390793e+000	 1.100028299634263e+001
 3.314582849899959e+000	 1.199652254278306e+000	 1.101990919672845e+001
 3.302572339210159e+000	 1.232331507481436e+000	 1.104137548725091e+001
 3.290212752346753e+000	 1.264960491217280e+000	 1.104837802833528e+001
 3.277503761242674e+000	 1.297533851227396e+000	 1.103759293746289e+001
 3.412966301560131e+000	 9.768116626792683e-001	 1.089146523623458e+001
 3.403313606537867e+000	 1.009928955673029e+000	 1.090646815045546e+001
 3.393314523680163e+000	 1.043032378861098e+000	 1.092154560396641e+001
 3.382968020251078e+000	 1.076116803114882e+000	 1.093695144658830e+001
 3.372273159219242e+000	 1.109177055122895e+000	 1.095295608476774e+001
 3.361229100890329e+000	 1.142207919488038e+000	 1.096984682348099e+001
 3.349835104488587e+000	 1.175204140887197e+000	 1.098792817841444e+001
 3.338090529684847e+000	 1.208160426291878e+000	 1.100752215645780e+001
 3.325994838068540e+000	 1.241071447248501e+000	 1.102896850257983e+001
 3.313547594561199e+000	 1.273931842216838e+000	 1.102692327736935e+001
 3.300748468769045e+000	 1.306736218964982e+000	 1.101714560087316e+001
 3.437001275514286e+000	 9.836906180474516e-001	 1.087942737809246e+001
 3.427280603766174e+000	 1.017041131414290e+000	 1.089448099518163e+001
 3.417211104831760e+000	 1.050377677300802e+000	 1.090960621578751e+001
 3.406791738702315e+000	 1.083695090457767e+000	 1.092505719143551e+001
 3.396021561747658e+000	 1.116988161141932e+000	 1.094110502047033e+001
 3.384899728360124e+000	 1.150251637228048e+000	 1.095803810385790e+001
 3.373425492547230e+000	 1.183480226383683e+000	 1.097616247067645e+001
 3.361598209470448e+000	 1.216668598305496e+000	 1.099580207128085e+001
 3.349417336927583e+000	 1.249811387015586e+000	 1.101729903615789e+001
 3.336882436776241e+000	 1.282903193216401e+000	 1.100689740808217e+001
 3.323993176295922e+000	 1.315938586702568e+000	 1.099815243989514e+001
 3.461036249468935e+000	 9.905695734161415e-001	 1.086737412317585e+001
 3.451247600995065e+000	 1.024153307155963e+000	 1.088259979611250e+001
 3.441107685984012e+000	 1.057722975740830e+000	 1.089788756655646e+001
 3.430615457154258e+000	 1.091273377800902e+000	 1.091349173443517e+001
 3.419769964276813e+000	 1.124799267161153e+000	 1.092968394502009e+001
 3.408570355830670e+000	 1.158295354968185e+000	 1.094675355900957e+001
 3.397015880606614e+000	 1.191756311880252e+000	 1.096500799170464e+001
 3.385105889256760e+000	 1.225176770319161e+000	 1.098477301920903e+001
 3.372839835787290e+000	 1.258551326782692e+000	 1.099789635454950e+001
 3.360217278991877e+000	 1.291874544215968e+000	 1.098826148908517e+001
 3.347237883823303e+000	 1.325140954440153e+000	 1.098057524136550e+001
 3.485071223424078e+000	 9.974485287853374e-001	 1.085531705201509e+001
 3.475214598224541e+000	 1.031265482898046e+000	 1.087083852236648e+001
 3.465004267136918e+000	 1.065068274181185e+000	 1.088640594795938e+001
 3.454439175606908e+000	 1.098851665144287e+000	 1.090227362193573e+001
 3.443518366806705e+000	 1.132610373180557e+000	 1.091871358969922e+001
 3.432240983301964e+000	 1.166339072708451e+000	 1.093601603366513e+001
 3.420606268666739e+000	 1.200032397376902e+000	 1.095448962649851e+001
 3.408613569043785e+000	 1.233684942332872e+000	 1.097446185071744e+001
 3.396262334647662e+000	 1.267291266549819e+000	 1.097962329353988e+001
 3.383552121208107e+000	 1.300845895215541e+000	 1.097097937195733e+001
 3.370482591351189e+000	 1.334343322177739e+000	 1.096437857954050e+001
 3.509106197379714e+000	 1.004327484155040e+000	 1.084327037155512e+001
 3.499181595454600e+000	 1.038377658640541e+000	 1.085921377821066e+001
 3.488900848290481e+000	 1.072413572621866e+000	 1.087518029509853e+001
 3.478262894060265e+000	 1.106429952487923e+000	 1.089142405149577e+001
 3.467266769337335e+000	 1.140421479200146e+000	 1.090821734431357e+001
 3.455911610774007e+000	 1.174382790448845e+000	 1.092585103790383e+001
 3.444196656727606e+000	 1.208308482873634e+000	 1.094463493174058e+001
 3.432121248831524e+000	 1.242193114346629e+000	 1.096489809379748e+001
 3.419684833508697e+000	 1.276031206316967e+000	 1.096263923996282e+001
 3.406886963424932e+000	 1.309817246215119e+000	 1.095501759593801e+001
 3.393727298879581e+000	 1.343545689915324e+000	 1.094952972063655e+001
 3.533141171335844e+000	 1.011206439525248e+000	 1.083125082582163e+001
 3.523148592685243e+000	 1.045489834383448e+000	 1.084774471342986e+001
 3.512797429444697e+000	 1.079758871062871e+000	 1.086423209658025e+001
 3.502086612514328e+000	 1.114008239831808e+000	 1.088096678170673e+001
 3.491015171868703e+000	 1.148232585219919e+000	 1.089822116676658e+001
 3.479582238246800e+000	 1.182426508189367e+000	 1.091628665649674e+001
 3.467787044789213e+000	 1.216584568370449e+000	 1.093547404492276e+001
 3.455628928619975e+000	 1.250701286360433e+000	 1.095547681725418e+001
 3.443107332370397e+000	 1.284771146084135e+000	 1.094691256744788e+001
 3.430221805642353e+000	 1.318788597214702e+000	 1.094034529650994e+001
 3.416972006408479e+000	 1.352748057652910e+000	 1.093599853126682e+001
 3.557176145292468e+000	 1.018085394895963e+000	 1.081927761020886e+001
 3.547115589916470e+000	 1.052602010126765e+000	 1.083645293732940e+001
 3.536694010599569e+000	 1.087104169504203e+000	 1.085358530824787e+001
 3.525910330969096e+000	 1.121586527175943e+000	 1.087092804567156e+001
 3.514763574400809e+000	 1.156043691239876e+000	 1.088875349629928e+001
 3.503252865720343e+000	 1.190470225930017e+000	 1.090735346192401e+001
 3.491377432851563e+000	 1.224860653867346e+000	 1.092703959715690e+001
 3.479136608409138e+000	 1.259209458374282e+000	 1.093997148960955e+001
 3.466529831232760e+000	 1.293511085851323e+000	 1.093241415366164e+001
 3.453556647860368e+000	 1.327759948214291e+000	 1.092693411768829e+001
 3.440216713937880e+000	 1.361950425390495e+000	 1.092375739059009e+001
 3.581211119249587e+000	 1.024964350267184e+000	 1.080737228921894e+001
 3.571082587148281e+000	 1.059714185870493e+000	 1.082536243620084e+001
 3.560590591755095e+000	 1.094449467945860e+000	 1.084326627038857e+001
 3.549734049424571e+000	 1.129164814520328e+000	 1.086133646796745e+001
 3.538511976933653e+000	 1.163854797260017e+000	 1.087984517022395e+001
 3.526923493194636e+000	 1.198513943670795e+000	 1.089908443089464e+001
 3.514967820914652e+000	 1.233136739364325e+000	 1.091936662949622e+001
 3.502644288199015e+000	 1.267717630388179e+000	 1.092563016194037e+001
 3.489952330095787e+000	 1.302251025618533e+000	 1.091911729627961e+001
 3.476891490078979e+000	 1.336731299213884e+000	 1.091475812784177e+001
 3.463461421467788e+000	 1.371152793128081e+000	 1.091278110599707e+001
 3.605246093207198e+000	 1.031843305638912e+000	 1.079555871749155e+001
 3.595049584380677e+000	 1.066826361614633e+000	 1.081449949408916e+001
 3.584487172911277e+000	 1.101794766387843e+000	 1.083330362825188e+001
 3.573557767880753e+000	 1.136743101864963e+000	 1.085222298492992e+001
 3.562260379467235e+000	 1.171665903280343e+000	 1.087152934398832e+001
 3.550594120669678e+000	 1.206557661411702e+000	 1.089151486420553e+001
 3.538558208978485e+000	 1.241412824861387e+000	 1.091249251260399e+001
 3.526151967989605e+000	 1.276225802402121e+000	 1.091242766480894e+001
 3.513374828959480e+000	 1.310990965385763e+000	 1.090699763231933e+001
 3.500226332298184e+000	 1.345702650213484e+000	 1.090379373888078e+001
 3.486706128998200e+000	 1.380355160865667e+000	 1.090304683216940e+001
 3.254259053716807e+000	 1.288331483489811e+000	 1.105953554979805e+001
 3.241293049845800e+000	 1.320613253401518e+000	 1.106238533837629e+001
 3.227979782949083e+000	 1.352829080447324e+000	 1.106484344605955e+001
 3.214319244282112e+000	 1.384973572263021e+000	 1.106726020289006e+001
 3.200311532997376e+000	 1.417041316191710e+000	 1.106999691644186e+001
 3.185956857143147e+000	 1.449026881896089e+000	 1.107342571211274e+001
 3.171255534588795e+000	 1.480924824014684e+000	 1.107792934650174e+001
 3.156207993874709e+000	 1.512729684859718e+000	 1.108390099345476e+001
 3.140814774984898e+000	 1.544435997154200e+000	 1.109174400242655e+001
 3.125076530040452e+000	 1.576038286805697e+000	 1.110187162887712e+001
 3.108994023912139e+000	 1.607531075714235e+000	 1.114736274394535e+001
 3.277503761242674e+000	 1.297533851227396e+000	 1.103759293746289e+001
 3.264445143058997e+000	 1.330046205210258e+000	 1.104437785403371e+001
 3.251036781399277e+000	 1.362492145306674e+000	 1.105082352928400e+001
 3.237278667456502e+000	 1.394866240635549e+000	 1.105725104310047e+001
 3.223170901091398e+000	 1.427163039878150e+000	 1.106399233282883e+001
 3.208713691838290e+000	 1.459377073909050e+000	 1.107139006444064e+001
 3.193907359837048e+000	 1.491502858471334e+000	 1.107979747709933e+001
 3.178752336689059e+000	 1.523534896893743e+000	 1.108957820065431e+001
 3.163249166235359e+000	 1.555467682847304e+000	 1.110110604565807e+001
 3.147398505255051e+000	 1.587295703138928e+000	 1.111476476556887e+001
 3.131201124082256e+000	 1.619013440539351e+000	 1.113094779087370e+001
 3.300748468769045e+000	 1.306736218964982e+000	 1.101714560087316e+001
 3.287597236272605e+000	 1.339479157018998e+000	 1.102711831771082e+001
 3.274093779849794e+000	 1.372155210166024e+000	 1.103679970211425e+001
 3.260238090631141e+000	 1.404758909008078e+000	 1.104648190700597e+001
 3.246030269185602e+000	 1.437284763564591e+000	 1.105646783186736e+001
 3.231470526533562e+000	 1.469727265922010e+000	 1.106707102463381e+001
 3.216559185085382e+000	 1.502080892927983e+000	 1.107861555728567e+001
 3.201296679503453e+000	 1.534340108927767e+000	 1.109143587461124e+001
 3.185683557485842e+000	 1.566499368540410e+000	 1.110587661568214e+001
 3.169720480469652e+000	 1.598553119472158e+000	 1.112229240764918e+001
 3.153408224252373e+000	 1.630495805364467e+000	 1.114104763153736e+001
 3.323993176295922e+000	 1.315938586702568e+000	 1.099815243989514e+001
 3.310749329486621e+000	 1.348912108827738e+000	 1.101058242822031e+001
 3.297150778300636e+000	 1.381818275025375e+000	 1.102276444780430e+001
 3.283197513806030e+000	 1.414651577380607e+000	 1.103496204016206e+001
 3.268889637279991e+000	 1.447406487251031e+000	 1.104744939160936e+001
 3.254227361228962e+000	 1.480077457934971e+000	 1.106051126574570e+001
 3.239211010333798e+000	 1.512658927384633e+000	 1.107444290991365e+001
 3.223841022317895e+000	 1.545145320961793e+000	 1.108954993505730e+001
 3.208117948736344e+000	 1.577531054233515e+000	 1.110614816846635e+001
 3.192042455684260e+000	 1.609810535805389e+000	 1.112456347895845e+001
 3.175615324422491e+000	 1.641978170189583e+000	 1.114513157412334e+001
 3.347237883823303e+000	 1.325140954440153e+000	 1.098057524136550e+001
 3.333901422701049e+000	 1.358345060636478e+000	 1.099474832777351e+001
 3.320207776751802e+000	 1.391481339884724e+000	 1.100871224845210e+001
 3.306156936981168e+000	 1.424544245753135e+000	 1.102270224162652e+001
 3.291749005374562e+000	 1.457528210937471e+000	 1.103696409767819e+001
 3.276984195924488e+000	 1.490427649947931e+000	 1.105175412208160e+001
 3.261862835582295e+000	 1.523236961841283e+000	 1.106733907258159e+001
 3.246385365132382e+000	 1.555950532995816e+000	 1.108399606998076e+001
 3.230552339986867e+000	 1.588562739926619e+000	 1.110201248196883e+001
 3.214364430898873e+000	 1.621067952138620e+000	 1.112168577949196e+001
 3.197822424592608e+000	 1.653460535014698e+000	 1.114332336522934e+001
 3.370482591351189e+000	 1.334343322177739e+000	 1.096437857954050e+001
 3.357053515915887e+000	 1.367778012445218e+000	 1.097959651772526e+001
 3.343264775203294e+000	 1.401144404744074e+000	 1.099463951607401e+001
 3.329116360156555e+000	 1.434436914125664e+000	 1.100971481039036e+001
 3.314608373469317e+000	 1.467649934623911e+000	 1.102504010507660e+001
 3.299741030620142e+000	 1.500777841960892e+000	 1.104084356639684e+001
 3.284514660830875e+000	 1.533814996297934e+000	 1.105736379022835e+001
 3.268929707946915e+000	 1.566755745029841e+000	 1.107484974361754e+001
 3.252986731237411e+000	 1.599594425619724e+000	 1.109356067951796e+001
 3.236686406113491e+000	 1.632325368471850e+000	 1.111376602415318e+001
 3.220029524762726e+000	 1.664942899839814e+000	 1.113574523651606e+001
 3.393727298879581e+000	 1.343545689915324e+000	 1.094952972063655e+001
 3.380205609131133e+000	 1.377210964253957e+000	 1.096510977778131e+001
 3.366321773655109e+000	 1.410807469603424e+000	 1.098054452651159e+001
 3.352075783332191e+000	 1.444329582498193e+000	 1.099601349401020e+001
 3.337467741564255e+000	 1.477771658310352e+000	 1.101170660156406e+001
 3.322497865315923e+000	 1.511128033973852e+000	 1.102782418803201e+001
 3.307166486079537e+000	 1.544393030754584e+000	 1.104457700803248e+001
 3.291474050761495e+000	 1.577560957063865e+000	 1.106218620411396e+001
 3.275421122487976e+000	 1.610626111312829e+000	 1.108088325223114e+001
 3.259008381328113e+000	 1.643582784805081e+000	 1.110090987991445e+001
 3.242236624932843e+000	 1.676425264664929e+000	 1.112251795658851e+001
 3.416972006408479e+000	 1.352748057652910e+000	 1.093599853126682e+001
 3.403357702346791e+000	 1.386643916062697e+000	 1.095127308850341e+001
 3.389378772107250e+000	 1.420470534462774e+000	 1.096642735603629e+001
 3.375035206508074e+000	 1.454222250870722e+000	 1.098161343933739e+001
 3.360327109659376e+000	 1.487893381996792e+000	 1.099699377252906e+001
 3.345254700011833e+000	 1.521478225986812e+000	 1.101274117194077e+001
 3.329818311328280e+000	 1.554971065211234e+000	 1.102903886460151e+001
 3.314018393576121e+000	 1.588366169097890e+000	 1.104608049087679e+001
 3.297855513738560e+000	 1.621657797005934e+000	 1.106407008051862e+001
 3.281330356542741e+000	 1.654840201138311e+000	 1.108322200146089e+001
 3.264443725102960e+000	 1.687907629490045e+000	 1.110376088075990e+001
 3.440216713937880e+000	 1.361950425390495e+000	 1.092375739059009e+001
 3.426509795562858e+000	 1.396076867871437e+000	 1.093807355695602e+001
 3.412435770559716e+000	 1.430133599322125e+000	 1.095228982052402e+001
 3.397994629684209e+000	 1.464114919243250e+000	 1.096653114524453e+001
 3.383186477754681e+000	 1.498015105683232e+000	 1.098093276728537e+001
 3.368011534707869e+000	 1.531828417999773e+000	 1.099564027856767e+001
 3.352470136577104e+000	 1.565549099667884e+000	 1.101080968543703e+001
 3.336562736390792e+000	 1.599171381131915e+000	 1.102660744162516e+001
 3.320289904989165e+000	 1.632689482699039e+000	 1.104321045471539e+001
 3.303652331757374e+000	 1.666097617471542e+000	 1.106080606538928e+001
 3.286650825273078e+000	 1.699389994315161e+000	 1.107959199879790e+001
 3.463461421467788e+000	 1.371152793128081e+000	 1.091278110599707e+001
 3.449661888779335e+000	 1.405509819680177e+000	 1.092550034534725e+001
 3.435492769012504e+000	 1.439796664181474e+000	 1.093813541707922e+001
 3.420954052860590e+000	 1.474007587615779e+000	 1.095078441725557e+001
 3.406045845850169e+000	 1.508136829369672e+000	 1.096355566672561e+001
 3.390768369404033e+000	 1.542178610012734e+000	 1.097656782453649e+001
 3.375121961826010e+000	 1.576127134124534e+000	 1.098994997666322e+001
 3.359107079205509e+000	 1.609976593165939e+000	 1.100384169915870e+001
 3.342724296239791e+000	 1.643721168392144e+000	 1.101839309488253e+001
 3.325974306972012e+000	 1.677355033804772e+000	 1.103376480302984e+001
 3.308857925443196e+000	 1.710872359140276e+000	 1.105012798074839e+001
 3.486706128998200e+000	 1.380355160865667e+000	 1.090304683216940e+001
 3.472813981996224e+000	 1.414942771488917e+000	 1.091354460252397e+001
 3.458549767465620e+000	 1.449459729040825e+000	 1.092396926799393e+001
 3.443913476037222e+000	 1.483900255988308e+000	 1.093439232399088e+001
 3.428905213945840e+000	 1.518258553056112e+000	 1.094489545226857e+001
 3.413525204100325e+000	 1.552528802025694e+000	 1.095557066411083e+001
 3.397773787075000e+000	 1.586705168581185e+000	 1.096652041900594e+001
 3.381651422020274e+000	 1.620781805199964e+000	 1.097785771785479e+001
 3.365158687490438e+000	 1.654752854085249e+000	 1.098970616981618e+001
 3.348296282186656e+000	 1.688612450138003e+000	 1.100220003195511e+001
 3.331065025613314e+000	 1.722354723965393e+000	 1.101548422092611e+001
 3.108994023912139e+000	 1.607531075714235e+000	 1.114736274394535e+001
 3.092568134750085e+000	 1.638908884611238e+000	 1.114441800627544e+001
 3.075799854430276e+000	 1.670166235927714e+000	 1.114450953041720e+001
 3.058690288915436e+000	 1.701297656688459e+000	 1.114778626496723e+001
 3.041240658528325e+000	 1.732297681428426e+000	 1.115439316487337e+001
 3.023452298137442e+000	 1.763160855129283e+000	 1.116447099767496e+001
 3.005326657253558e+000	 1.793881736172810e+000	 1.117815615422171e+001
 2.986865300036171e+000	 1.824454899308037e+000	 1.119558046424164e+001
 2.968069905208957e+000	 1.854874938628937e+000	 1.121687101712174e+001
 2.948942265883543e+000	 1.885136470559466e+000	 1.121511982314647e+001
 2.929484289290938e+000	 1.915234136842687e+000	 1.116322532561468e+001
 3.131201124082256e+000	 1.619013440539351e+000	 1.113094779087370e+001
 3.114657907139728e+000	 1.650615376642425e+000	 1.112044126094591e+001
 3.097769853388398e+000	 1.682095994753727e+000	 1.112605635502199e+001
 3.080538076690725e+000	 1.713449782805372e+000	 1.113521069654583e+001
 3.062963806086062e+000	 1.744671236293278e+000	 1.114806291960889e+001
 3.045048385977679e+000	 1.775754861234694e+000	 1.116476723043155e+001
 3.026793276230001e+000	 1.806695177142702e+000	 1.118547320128520e+001
 3.008200052175089e+000	 1.837486720014538e+000	 1.121032556943875e+001
 2.989270404527510e+000	 1.868124045330561e+000	 1.123946404152350e+001
 2.970006139206824e+000	 1.898601731060611e+000	 1.121044360018814e+001
 2.950409177067122e+000	 1.928914380674490e+000	 1.116673652305070e+001
 3.153408224252373e+000	 1.630495805364467e+000	 1.114104763153736e+001
 3.136747679529372e+000	 1.662321868673618e+000	 1.111352549305743e+001
 3.119739852346521e+000	 1.694025753579759e+000	 1.110131853237642e+001
 3.102385864466013e+000	 1.725601908922329e+000	 1.111662571698086e+001
 3.084686953643797e+000	 1.757044791158208e+000	 1.113599645656296e+001
 3.066644473817916e+000	 1.788348867340229e+000	 1.115959825463301e+001
 3.048259895206443e+000	 1.819508618112772e+000	 1.118759372381216e+001
 3.029534804314008e+000	 1.850518540721281e+000	 1.122014036828758e+001
 3.010470903846061e+000	 1.881373152032501e+000	 1.124078152577329e+001
 2.991070012530105e+000	 1.912066991562159e+000	 1.120178401870395e+001
 2.971334064843307e+000	 1.942594624506790e+000	 1.116650117704299e+001
 3.175615324422491e+000	 1.641978170189583e+000	 1.114513157412334e+001
 3.158837451919014e+000	 1.674028360704815e+000	 1.112148468801176e+001
 3.141709851304644e+000	 1.705955512405812e+000	 1.110314877743559e+001
 3.124233652241303e+000	 1.737754035039330e+000	 1.109206838983950e+001
 3.106410101201533e+000	 1.769418346023217e+000	 1.111822510402135e+001
 3.088240561658154e+000	 1.800942873445887e+000	 1.114898974135684e+001
 3.069726514182885e+000	 1.832322059083020e+000	 1.118453781668289e+001
 3.050869556452928e+000	 1.863550361428267e+000	 1.122503946338587e+001
 3.031671403164613e+000	 1.894622258734760e+000	 1.121986364254964e+001
 3.012133885853384e+000	 1.925532252064108e+000	 1.118916086136803e+001
 2.992258952619491e+000	 1.956274868339587e+000	 1.116253338644104e+001
 3.197822424592608e+000	 1.653460535014698e+000	 1.114332336522934e+001
 3.180927224308658e+000	 1.685734852736017e+000	 1.112381052247445e+001
 3.163679850262765e+000	 1.717885271231884e+000	 1.110983374731716e+001
 3.146081440016592e+000	 1.749906161156377e+000	 1.110190445108892e+001
 3.128133248759268e+000	 1.781791900888304e+000	 1.110054170406187e+001
 3.109836649498390e+000	 1.813536879551669e+000	 1.113296660202797e+001
 3.091193133159327e+000	 1.845135500053447e+000	 1.117632497074576e+001
 3.072204308591847e+000	 1.876582182135497e+000	 1.122102398448831e+001
 3.052871902483165e+000	 1.907871365437335e+000	 1.119477158728355e+001
 3.033197759176665e+000	 1.938997512566460e+000	 1.117259375969106e+001
 3.013183840395675e+000	 1.969955112172882e+000	 1.115484724495669e+001
 3.220029524762726e+000	 1.664942899839814e+000	 1.113574523651606e+001
 3.203016996698300e+000	 1.697441344767224e+000	 1.112061989770410e+001
 3.185649849220887e+000	 1.729815030057976e+000	 1.111124983487276e+001
 3.167929227791881e+000	 1.762058287273467e+000	 1.110816477622614e+001
 3.149856396317004e+000	 1.794165455753471e+000	 1.111190226586124e+001
 3.131432737338627e+000	 1.826130885657574e+000	 1.112300713708980e+001
 3.112659752135769e+000	 1.857948941024050e+000	 1.116297409364593e+001
 3.093539060730765e+000	 1.889614002842968e+000	 1.118336832446038e+001
 3.074072401801716e+000	 1.921120472140229e+000	 1.116553030958285e+001
 3.054261632499945e+000	 1.952462773069215e+000	 1.115210219923283e+001
 3.034108728171860e+000	 1.983635356006674e+000	 1.114345684134114e+001
 3.242236624932843e+000	 1.676425264664929e+000	 1.112251795658851e+001
 3.225106769087943e+000	 1.709147836798436e+000	 1.111202840647613e+001
 3.207619848179009e+000	 1.741744788884087e+000	 1.110750746536595e+001
 3.189777015567171e+000	 1.774210413390602e+000	 1.110950308761163e+001
 3.171579543874739e+000	 1.806539010618717e+000	 1.111857120750384e+001
 3.153028825178865e+000	 1.838724891763603e+000	 1.113527519377219e+001
 3.134126371112212e+000	 1.870762381994834e+000	 1.116018527373924e+001
 3.114873812869685e+000	 1.902645823550684e+000	 1.114136422231397e+001
 3.095272901120267e+000	 1.934369578843439e+000	 1.113216447959316e+001
 3.075325505823225e+000	 1.965928033572372e+000	 1.112770552460057e+001
 3.055033615948044e+000	 1.997315599840964e+000	 1.112837625955512e+001
 3.264443725102960e+000	 1.687907629490045e+000	 1.110376088075990e+001
 3.247196541477585e+000	 1.720854328829652e+000	 1.109815037758906e+001
 3.229589847137131e+000	 1.753674547710218e+000	 1.109871594772146e+001
 3.211624803342459e+000	 1.786362539507780e+000	 1.110602368364578e+001
 3.193302691432475e+000	 1.818912565484043e+000	 1.112064782896350e+001
 3.174624913019101e+000	 1.851318897869756e+000	 1.114317021419427e+001
 3.155592990088654e+000	 1.883575822965795e+000	 1.115329800845576e+001
 3.136208565008604e+000	 1.915677644258641e+000	 1.111357863979875e+001
 3.116473400438819e+000	 1.947618685546969e+000	 1.109469849750326e+001
 3.096389379146506e+000	 1.979393294075932e+000	 1.109942294424323e+001
 3.075958503724228e+000	 2.010995843675750e+000	 1.110961957893145e+001
 3.286650825273078e+000	 1.699389994315161e+000	 1.107959199879790e+001
 3.269286313867229e+000	 1.732560820860875e+000	 1.107909891856641e+001
 3.251559846095253e+000	 1.765604306536369e+000	 1.108498351223946e+001
 3.233472591117748e+000	 1.798514665625004e+000	 1.109782992506082e+001
 3.215025838990211e+000	 1.831286120349446e+000	 1.111823063173508e+001
 3.196221000859339e+000	 1.863912903976033e+000	 1.114678585365784e+001
 3.177059609065096e+000	 1.896389263936934e+000	 1.113252328980829e+001
 3.157543317147523e+000	 1.928709464966842e+000	 1.109905076847218e+001
 3.137673899757372e+000	 1.960867792250815e+000	 1.107330646209930e+001
 3.117453252469786e+000	 1.992858554579893e+000	 1.106727353505136e+001
 3.096883391500412e+000	 2.024676087511034e+000	 1.108720087433178e+001
 3.308857925443196e+000	 1.710872359140276e+000	 1.105012798074839e+001
 3.291376086256872e+000	 1.744267312892101e+000	 1.105498595663904e+001
 3.273529845053376e+000	 1.777534065362540e+000	 1.106641734679094e+001
 3.255320378893038e+000	 1.810666791742272e+000	 1.108502426638609e+001
 3.236748986547947e+000	 1.843659675214930e+000	 1.111141734562901e+001
 3.217817088699576e+000	 1.876506910082433e+000	 1.114268221467534e+001
 3.198526228041538e+000	 1.909202704908251e+000	 1.110840231739480e+001
 3.178878069286443e+000	 1.941741285675286e+000	 1.108139070704195e+001
 3.158874399075923e+000	 1.974116898954978e+000	 1.106232803991198e+001
 3.138517125793067e+000	 2.006323815084258e+000	 1.105190646591012e+001
 3.117808279276597e+000	 2.038356331346816e+000	 1.106113421629630e+001
 3.331065025613314e+000	 1.722354723965393e+000	 1.101548422092611e+001
 3.313465858646516e+000	 1.755973804923333e+000	 1.102592227808830e+001
 3.295499844011498e+000	 1.789463824188730e+000	 1.104312363156532e+001
 3.277168166668328e+000	 1.822818917859585e+000	 1.106770828615494e+001
 3.258472134105683e+000	 1.856033230080492e+000	 1.110030495449419e+001
 3.239413176539814e+000	 1.889100916188957e+000	 1.110886534249593e+001
 3.219992847017981e+000	 1.922016145879748e+000	 1.108106231979169e+001
 3.200212821425363e+000	 1.954773106383972e+000	 1.106072141058540e+001
 3.180074898394475e+000	 1.987366005659460e+000	 1.104854183771687e+001
 3.159580999116348e+000	 2.019789075589025e+000	 1.104523457896099e+001
 3.138733167052782e+000	 2.052036575183095e+000	 1.105152163146135e+001
 2.929484289290938e+000	 1.915234136842687e+000	 1.116322532561468e+001
 2.909697996420158e+000	 1.945162607531509e+000	 1.116410450389454e+001
 2.889585521563813e+000	 1.974916583975221e+000	 1.116466425818243e+001
 2.869149111770381e+000	 2.004490801800127e+000	 1.116479507308959e+001
 2.848391126202986e+000	 2.033880033882548e+000	 1.116438877376123e+001
 2.827314035404899e+000	 2.063079093308325e+000	 1.116333849249548e+001
 2.805920420471948e+000	 2.092082836316264e+000	 1.116153862870210e+001
 2.784212972132169e+000	 2.120886165222104e+000	 1.115888480244969e+001
 2.762194489733197e+000	 2.149484031319626e+000	 1.115527380187810e+001
 2.739867880138053e+000	 2.177871437755531e+000	 1.115060352477773e+001
 2.717236156530065e+000	 2.206043442374710e+000	 1.114477291466350e+001
 2.950409177067122e+000	 1.928914380674490e+000	 1.116673652305070e+001
 2.930481553533042e+000	 1.959056626154036e+000	 1.116705094547800e+001
 2.910225418142123e+000	 1.989023131001015e+000	 1.116671694000434e+001
 2.889643033993194e+000	 2.018808593239061e+000	 1.116563616543436e+001
 2.868736777100538e+000	 2.048407748407898e+000	 1.116371208392389e+001
 2.847509135654170e+000	 2.077815372543980e+000	 1.116084991496943e+001
 2.825962709186314e+000	 2.107026285144963e+000	 1.115695658193370e+001
 2.804100207644490e+000	 2.136035352114551e+000	 1.115194065137807e+001
 2.781924450371678e+000	 2.164837488684344e+000	 1.114571226550134e+001
 2.759438364994202e+000	 2.193427662309229e+000	 1.113818306801265e+001
 2.736644986218128e+000	 2.221800895532991e+000	 1.112926612379339e+001
 2.971334064843307e+000	 1.942594624506790e+000	 1.116650117704299e+001
 2.951265110645926e+000	 1.972950644777149e+000	 1.116644399491052e+001
 2.930865314720434e+000	 2.003129678027466e+000	 1.116541458791650e+001
 2.910136956216006e+000	 2.033126384678703e+000	 1.116332578156626e+001
 2.889082427998092e+000	 2.062935462933987e+000	 1.116009266552392e+001
 2.867704235903441e+000	 2.092551651780385e+000	 1.115563253491185e+001
 2.846004997900679e+000	 2.121969733974401e+000	 1.114986482334326e+001
 2.823987443156811e+000	 2.151184539007710e+000	 1.114271102797992e+001
 2.801654411010158e+000	 2.180190946049722e+000	 1.113409462693834e+001
 2.779008849850350e+000	 2.208983886863518e+000	 1.112394098939790e+001
 2.756053815906193e+000	 2.237558348691773e+000	 1.111217727879293e+001
 2.992258952619491e+000	 1.956274868339587e+000	 1.116253338644104e+001
 2.972048667758809e+000	 1.986844663400851e+000	 1.116229295740111e+001
 2.951505211298745e+000	 2.017236225054575e+000	 1.116076158064878e+001
 2.930630878438819e+000	 2.047444176119055e+000	 1.115786324335723e+001
 2.909428078895645e+000	 2.077463177460814e+000	 1.115352465575997e+001
 2.887899336152712e+000	 2.107287931017539e+000	 1.114767517969786e+001
 2.866047286615045e+000	 2.136913182804579e+000	 1.114024674809649e+001
 2.843874678669132e+000	 2.166333725901580e+000	 1.113117377568710e+001
 2.821384371648636e+000	 2.195544403415762e+000	 1.112039306131846e+001
 2.798579334706497e+000	 2.224540111418399e+000	 1.110784368223890e+001
 2.775462645594258e+000	 2.253315801851058e+000	 1.109346688075868e+001
 3.013183840395675e+000	 1.969955112172882e+000	 1.115484724495669e+001
 2.992832224871694e+000	 2.000738682025141e+000	 1.115460725382427e+001
 2.972145107877056e+000	 2.031342772082342e+000	 1.115276253661270e+001
 2.951124800661631e+000	 2.061761967560113e+000	 1.114924823954037e+001
 2.929773729793200e+000	 2.091990891988381e+000	 1.114400268898291e+001
 2.908094436401984e+000	 2.122024210255443e+000	 1.113696730720350e+001
 2.886089575329410e+000	 2.151856631635498e+000	 1.112808651821023e+001
 2.863761914181453e+000	 2.181482912796159e+000	 1.111730764407598e+001
 2.841114332287117e+000	 2.210897860782463e+000	 1.110458079209157e+001
 2.818149819562645e+000	 2.240096335973871e+000	 1.108985873315821e+001
 2.794871475282322e+000	 2.269073255010843e+000	 1.107309677185684e+001
 3.034108728171860e+000	 1.983635356006674e+000	 1.114345684134114e+001
 3.013615781984577e+000	 2.014632700650016e+000	 1.114339641673154e+001
 2.992785004455367e+000	 2.045449319110766e+000	 1.114142230563654e+001
 2.971618722884442e+000	 2.076079759001880e+000	 1.113748081305955e+001
 2.950119380690752e+000	 2.106518606516687e+000	 1.113152187955275e+001
 2.928289536651255e+000	 2.136760489494097e+000	 1.112349898406437e+001
 2.906131864043775e+000	 2.166800080467156e+000	 1.111336903610934e+001
 2.883649149693777e+000	 2.196632099691450e+000	 1.110109225762100e+001
 2.860844292925597e+000	 2.226251318149825e+000	 1.108663205487926e+001
 2.837720304418794e+000	 2.255652560529935e+000	 1.106995488094677e+001
 2.814280304970386e+000	 2.284830708171129e+000	 1.105103008907942e+001
 3.055033615948044e+000	 1.997315599840964e+000	 1.112837625955512e+001
 3.034399339097461e+000	 2.028526719275481e+000	 1.112867008652696e+001
 3.013424901033678e+000	 2.059555866139849e+000	 1.112674596104015e+001
 2.992112645107256e+000	 2.090397550444355e+000	 1.112256134893887e+001
 2.970465031588305e+000	 2.121046321045732e+000	 1.111607780539982e+001
 2.948484636900527e+000	 2.151496768733499e+000	 1.110726086482769e+001
 2.926174152758140e+000	 2.181743529299554e+000	 1.109607991927012e+001
 2.903536385206097e+000	 2.211781286587451e+000	 1.108250808573242e+001
 2.880574253564077e+000	 2.241604775517847e+000	 1.106652206281127e+001
 2.857290789274942e+000	 2.271208785086589e+000	 1.104810197710585e+001
 2.833689134658449e+000	 2.300588161331918e+000	 1.102723121990107e+001
 3.075958503724228e+000	 2.010995843675750e+000	 1.110961957893145e+001
 3.055182896210345e+000	 2.042420737901532e+000	 1.111043800779869e+001
 3.034064797611989e+000	 2.073662413169589e+000	 1.110873879203315e+001
 3.012606567330068e+000	 2.104715341887539e+000	 1.110449056264735e+001
 2.990810682485859e+000	 2.135574035575516e+000	 1.109766649225721e+001
 2.968679737149798e+000	 2.166233047973652e+000	 1.108824417195526e+001
 2.946216441472506e+000	 2.196686978132693e+000	 1.107620547589904e+001
 2.923423620718418e+000	 2.226930473484162e+000	 1.106153641401708e+001
 2.900304214202557e+000	 2.256958232886531e+000	 1.104422697327700e+001
 2.876861274131090e+000	 2.286765009643835e+000	 1.102427094799999e+001
 2.853097964346514e+000	 2.316345614493208e+000	 1.100166575974544e+001
 3.096883391500412e+000	 2.024676087511034e+000	 1.108720087433178e+001
 3.075966453323229e+000	 2.056314756528171e+000	 1.108871002579913e+001
 3.054704694190301e+000	 2.087768960199988e+000	 1.108740629642135e+001
 3.033100489552881e+000	 2.119033133331432e+000	 1.108326948893518e+001
 3.011156333383412e+000	 2.150101750106038e+000	 1.107628439853219e+001
 2.988874837399069e+000	 2.180969327214554e+000	 1.106644067663725e+001
 2.966258730186871e+000	 2.211630426966572e+000	 1.105373268159706e+001
 2.943310856230740e+000	 2.242079660381585e+000	 1.103815931670408e+001
 2.920034174841037e+000	 2.272311690255877e+000	 1.101972385602482e+001
 2.896431758987238e+000	 2.302321234201672e+000	 1.099843375854390e+001
 2.872506794034578e+000	 2.332103067654998e+000	 1.097430047117626e+001
 3.117808279276597e+000	 2.038356331346816e+000	 1.106113421629630e+001
 3.096750010436112e+000	 2.070208775155397e+000	 1.106349608306705e+001
 3.075344590768612e+000	 2.101875507231044e+000	 1.106275417360694e+001
 3.053594411775694e+000	 2.133350924776032e+000	 1.105889947111965e+001
 3.031501984280965e+000	 2.164629464637299e+000	 1.105192840078704e+001
 3.009069937648340e+000	 2.195705606456205e+000	 1.104184268037841e+001
 2.986301018901237e+000	 2.226573875801190e+000	 1.102864915696399e+001
 2.963198091743061e+000	 2.257228847279717e+000	 1.101235963018104e+001
 2.939764135479517e+000	 2.287665147625882e+000	 1.099299066254602e+001
 2.916002243843386e+000	 2.317877458760100e+000	 1.097056337735184e+001
 2.891915623722642e+000	 2.347860520817291e+000	 1.094510324473146e+001
 3.138733167052782e+000	 2.052036575183095e+000	 1.105152163146135e+001
 3.117533567548996e+000	 2.084102793783212e+000	 1.103480621618466e+001
 3.095984487346924e+000	 2.115982054262759e+000	 1.103478831786854e+001
 3.074088333998506e+000	 2.147668716221341e+000	 1.103138215079954e+001
 3.051847635178520e+000	 2.179157179169300e+000	 1.102459577980048e+001
 3.029265037897612e+000	 2.210441885698606e+000	 1.101444299732093e+001
 3.006343307615602e+000	 2.241517324636550e+000	 1.100094314609849e+001
 2.983085327255384e+000	 2.272378034178561e+000	 1.098412092758877e+001
 2.959494096117997e+000	 2.303018604996550e+000	 1.096400619668328e+001
 2.935572728699535e+000	 2.333433683319120e+000	 1.094063374328094e+001
 2.911324453410707e+000	 2.363617973980084e+000	 1.091404306132407e+001
 2.717236156530065e+000	 2.206043442374710e+000	 1.114477291466350e+001
 2.694302437127753e+000	 2.233995160532463e+000	 1.110379387892936e+001
 2.671069943811037e+000	 2.261721767870785e+000	 1.106640975158355e+001
 2.647542000659859e+000	 2.289218503055032e+000	 1.103288246896122e+001
 2.623722032406191e+000	 2.316480670467651e+000	 1.100347089663130e+001
 2.599613562801293e+000	 2.343503642856166e+000	 1.097843035390814e+001
 2.575220212899677e+000	 2.370282863932164e+000	 1.095801213968341e+001
 2.550545699261520e+000	 2.396813850918234e+000	 1.094246306070191e+001
 2.525593832075398e+000	 2.423092197039894e+000	 1.093202496340808e+001
 2.500368513203295e+000	 2.449113573959596e+000	 1.092693427048983e+001
 2.474873734150000e+000	 2.474873734150000e+000	 1.094812373605407e+001
 2.736644986218128e+000	 2.221800895532991e+000	 1.112926612379339e+001
 2.713547454534904e+000	 2.249952268820610e+000	 1.109322746010015e+001
 2.690149014837810e+000	 2.277876923354377e+000	 1.106152073190573e+001
 2.666453014950212e+000	 2.305570063790118e+000	 1.103441623435474e+001
 2.642462904066459e+000	 2.333026960970151e+000	 1.101218056079315e+001
 2.618182231107459e+000	 2.360242954590200e+000	 1.099507611268394e+001
 2.593614642992401e+000	 2.387213455816933e+000	 1.098336061160327e+001
 2.568763882828319e+000	 2.413933949853100e+000	 1.097728661447350e+001
 2.543633788019421e+000	 2.440399998447260e+000	 1.097710103319093e+001
 2.518228288298136e+000	 2.466607242345167e+000	 1.098304465980499e+001
 2.492551403680000e+000	 2.492551403680000e+000	 1.100126702909257e+001
 2.756053815906193e+000	 2.237558348691773e+000	 1.111217727879293e+001
 2.732792471942056e+000	 2.265909377109163e+000	 1.108113815259866e+001
 2.709228085864582e+000	 2.294032078838291e+000	 1.105515980155542e+001
 2.685364029240567e+000	 2.321921624525449e+000	 1.103452092694790e+001
 2.661203775726728e+000	 2.349573251472833e+000	 1.101949590325030e+001
 2.636750899413627e+000	 2.376982266324359e+000	 1.101035427333952e+001
 2.612009073085126e+000	 2.404144047701782e+000	 1.100736024654053e+001
 2.586982066395117e+000	 2.431054048788012e+000	 1.101077220069318e+001
 2.561673743963445e+000	 2.457707799854646e+000	 1.102084218943032e+001
 2.536088063392977e+000	 2.484100910730743e+000	 1.103781545585384e+001
 2.510229073210000e+000	 2.510229073210000e+000	 1.101644480794654e+001
 2.775462645594258e+000	 2.253315801851058e+000	 1.109346688075868e+001
 2.752037489349208e+000	 2.281866485398122e+000	 1.106748434901128e+001
 2.728307156891355e+000	 2.310187234322526e+000	 1.104728341813339e+001
 2.704275043530920e+000	 2.338273185261025e+000	 1.103315124463738e+001
 2.679944647386995e+000	 2.366119541975694e+000	 1.102537003912994e+001
 2.655319567719793e+000	 2.393721578058644e+000	 1.102421654671366e+001
 2.630403503177849e+000	 2.421074639586712e+000	 1.102996153096456e+001
 2.605200249961917e+000	 2.448174147722969e+000	 1.104286926270722e+001
 2.579713699907469e+000	 2.475015601262053e+000	 1.106319701481072e+001
 2.553947838487818e+000	 2.501594579116324e+000	 1.108405290771903e+001
 2.527906742740000e+000	 2.527906742740000e+000	 1.100227002771854e+001
 2.794871475282322e+000	 2.269073255010843e+000	 1.107309677185684e+001
 2.771282506756359e+000	 2.297823593687487e+000	 1.105222582535673e+001
 2.747386227918127e+000	 2.326342389807081e+000	 1.103784945995161e+001
 2.723186057821275e+000	 2.354624745996849e+000	 1.103026333820143e+001
 2.698685519047264e+000	 2.382665832478737e+000	 1.102975756348089e+001
 2.673888236025960e+000	 2.410460889793055e+000	 1.103661614545834e+001
 2.648797933270572e+000	 2.438005231471722e+000	 1.105111646988557e+001
 2.623418433528715e+000	 2.465294246657971e+000	 1.107352877395504e+001
 2.597753655851493e+000	 2.492323402669479e+000	 1.110411562847797e+001
 2.571807613582660e+000	 2.519088247501910e+000	 1.105728994230825e+001
 2.545584412270000e+000	 2.545584412270000e+000	 1.098586338718103e+001
 2.814280304970386e+000	 2.284830708171129e+000	 1.105103008907942e+001
 2.790527524163510e+000	 2.313780701977259e+000	 1.103532369338145e+001
 2.766465298944899e+000	 2.342497545291958e+000	 1.102681717704326e+001
 2.742097072111628e+000	 2.370976306732918e+000	 1.102581476120054e+001
 2.717426390707531e+000	 2.399212122981960e+000	 1.103261450024201e+001
 2.692456904332127e+000	 2.427200201527592e+000	 1.104750773225195e+001
 2.667192363363297e+000	 2.454935823356812e+000	 1.107077853449137e+001
 2.641636617095514e+000	 2.482414345593019e+000	 1.110270318520745e+001
 2.615793611795517e+000	 2.509631204076925e+000	 1.110019090135949e+001
 2.589667388677501e+000	 2.536581915887501e+000	 1.102852655280837e+001
 2.563262081800000e+000	 2.563262081800000e+000	 1.096736589856839e+001
 2.833689134658449e+000	 2.300588161331918e+000	 1.102723121990107e+001
 2.809772541570663e+000	 2.329737810267437e+000	 1.101674035481548e+001
 2.785544369971670e+000	 2.358652700777156e+000	 1.101414714418587e+001
 2.761008086401983e+000	 2.387327867469234e+000	 1.101976442193693e+001
 2.736167262367800e+000	 2.415758413485364e+000	 1.103389825330740e+001
 2.711025572638294e+000	 2.443939513262253e+000	 1.105684737014110e+001
 2.685586793456021e+000	 2.471866415241983e+000	 1.108890261193560e+001
 2.659854800662312e+000	 2.499534444528111e+000	 1.113034637397307e+001
 2.633833567739540e+000	 2.526939005484392e+000	 1.106000601381600e+001
 2.607527163772342e+000	 2.554075584273096e+000	 1.099790709767672e+001
 2.580939751329999e+000	 2.580939751329999e+000	 1.094692000414940e+001
 2.853097964346514e+000	 2.316345614493208e+000	 1.100166575974544e+001
 2.829017558977814e+000	 2.345694918558022e+000	 1.099643945749551e+001
 2.804623440998443e+000	 2.374807856262675e+000	 1.099980121584214e+001
 2.779919100692337e+000	 2.403679428205794e+000	 1.101207253737480e+001
 2.754908134028069e+000	 2.432304703988949e+000	 1.103356755958919e+001
 2.729594240944461e+000	 2.460678824997041e+000	 1.106459247490880e+001
 2.703981223548746e+000	 2.488797007127234e+000	 1.110544495717574e+001
 2.678072984229112e+000	 2.516654543463249e+000	 1.108171216396405e+001
 2.651873523683564e+000	 2.544246806891879e+000	 1.101819115074775e+001
 2.625386938867184e+000	 2.571569252658698e+000	 1.096557732037818e+001
 2.598617420860000e+000	 2.598617420860000e+000	 1.092466952758653e+001
 2.872506794034578e+000	 2.332103067654998e+000	 1.097430047117626e+001
 2.848262576384966e+000	 2.361652026849011e+000	 1.097438585326666e+001
 2.823702512025216e+000	 2.390963011748516e+000	 1.098374248292718e+001
 2.798830114982691e+000	 2.420030988942601e+000	 1.100270058892893e+001
 2.773649005688337e+000	 2.448850994492715e+000	 1.103158244398327e+001
 2.748162909250628e+000	 2.477418136731953e+000	 1.107070176937409e+001
 2.722375653641469e+000	 2.505727599012566e+000	 1.109491388439070e+001
 2.696291167795911e+000	 2.533774642398432e+000	 1.102957593580318e+001
 2.669913479627587e+000	 2.561554608299386e+000	 1.097489537320259e+001
 2.643246713962024e+000	 2.589062921044303e+000	 1.093168430259417e+001
 2.616295090390000e+000	 2.616295090390000e+000	 1.090075962726733e+001
 2.891915623722642e+000	 2.347860520817291e+000	 1.094510324473146e+001
 2.867507593792117e+000	 2.377609135140408e+000	 1.095054555757952e+001
 2.842781583051988e+000	 2.407118167234676e+000	 1.096593523131696e+001
 2.817741129273045e+000	 2.436382549679654e+000	 1.099161128003337e+001
 2.792389877348605e+000	 2.465397284996661e+000	 1.102790417614816e+001
 2.766731577556794e+000	 2.494157448466992e+000	 1.107513523953164e+001
 2.740770083734194e+000	 2.522658190897978e+000	 1.103327670812981e+001
 2.714509351362710e+000	 2.550894741333660e+000	 1.097617931866067e+001
 2.687953435571612e+000	 2.578862409706913e+000	 1.093026903454678e+001
 2.661106489056866e+000	 2.606556589429915e+000	 1.089637641931619e+001
 2.633972759920000e+000	 2.633972759920000e+000	 1.087533675151496e+001
 2.911324453410707e+000	 2.363617973980084e+000	 1.091404306132407e+001
 2.886752611199269e+000	 2.393566243432211e+000	 1.092488571070329e+001
 2.861860654078760e+000	 2.423273322721160e+000	 1.094634490201615e+001
 2.836652143563400e+000	 2.452734110416954e+000	 1.097876849540747e+001
 2.811130749008875e+000	 2.481943575500790e+000	 1.102249522901309e+001
 2.785300245862961e+000	 2.510896760202157e+000	 1.103036457107267e+001
 2.759164513826918e+000	 2.539588782783471e+000	 1.097059056096971e+001
 2.732727534929510e+000	 2.568014840268934e+000	 1.092167593712523e+001
 2.705993391515635e+000	 2.596170211114460e+000	 1.088446373738770e+001
 2.678966264151708e+000	 2.624050257815532e+000	 1.085980329573551e+001
 2.651650429450000e+000	 2.651650429450000e+000	 1.084854859559031e+001
 2.474873734150000e+000	 2.474873734150000e+000	 1.094812373605407e+001
 2.449113573959596e+000	 2.500368513203294e+000	 1.096047899567993e+001
 2.423092197039895e+000	 2.525593832075397e+000	 1.087412826563091e+001
 2.396813850918235e+000	 2.550545699261519e+000	 1.079943649739628e+001
 2.370282863932165e+000	 2.575220212899675e+000	 1.073652253325872e+001
 2.343503642856167e+000	 2.599613562801293e+000	 1.068548717428214e+001
 2.316480670467652e+000	 2.623722032406190e+000	 1.064641316053135e+001
 2.289218503055033e+000	 2.647542000659857e+000	 1.061936518698827e+001
 2.261721767870786e+000	 2.671069943811037e+000	 1.060438995491694e+001
 2.233995160532465e+000	 2.694302437127753e+000	 1.060151625833195e+001
 2.206043442374710e+000	 2.717236156530064e+000	 1.061075510512800e+001
 2.492551403680000e+000	 2.492551403680000e+000	 1.100126702909257e+001
 2.466607242345168e+000	 2.518228288298135e+000	 1.094793788825735e+001
 2.440399998447261e+000	 2.543633788019420e+000	 1.087197817831190e+001
 2.413933949853101e+000	 2.568763882828318e+000	 1.080638128637624e+001
 2.387213455816933e+000	 2.593614642992400e+000	 1.075122441472005e+001
 2.360242954590201e+000	 2.618182231107459e+000	 1.070656786636681e+001
 2.333026960970152e+000	 2.642462904066458e+000	 1.067245506792669e+001
 2.305570063790118e+000	 2.666453014950211e+000	 1.064891262673589e+001
 2.277876923354379e+000	 2.690149014837809e+000	 1.063595042198493e+001
 2.249952268820611e+000	 2.713547454534904e+000	 1.063356172942373e+001
 2.221800895532991e+000	 2.736644986218128e+000	 1.064172337913767e+001
 2.510229073210000e+000	 2.510229073210000e+000	 1.101644480794654e+001
 2.484100910730744e+000	 2.536088063392976e+000	 1.093311962001935e+001
 2.457707799854647e+000	 2.561673743963444e+000	 1.086667462630556e+001
 2.431054048788013e+000	 2.586982066395117e+000	 1.080932234208416e+001
 2.404144047701783e+000	 2.612009073085124e+000	 1.076109871164184e+001
 2.376982266324360e+000	 2.636750899413626e+000	 1.072202390139384e+001
 2.349573251472833e+000	 2.661203775726726e+000	 1.069210236505358e+001
 2.321921624525449e+000	 2.685364029240565e+000	 1.067132294174827e+001
 2.294032078838292e+000	 2.709228085864582e+000	 1.065965898669426e+001
 2.265909377109164e+000	 2.732792471942056e+000	 1.065706853395296e+001
 2.237558348691774e+000	 2.756053815906193e+000	 1.066349449069733e+001
 2.527906742740000e+000	 2.527906742740000e+000	 1.100227002771854e+001
 2.501594579116325e+000	 2.553947838487817e+000	 1.091703563321908e+001
 2.475015601262053e+000	 2.579713699907468e+000	 1.085810166435582e+001
 2.448174147722970e+000	 2.605200249961916e+000	 1.080816234879609e+001
 2.421074639586713e+000	 2.630403503177848e+000	 1.076606633754067e+001
 2.393721578058645e+000	 2.655319567719792e+000	 1.073179401311726e+001
 2.366119541975695e+000	 2.679944647386995e+000	 1.070531118843703e+001
 2.338273185261026e+000	 2.704275043530919e+000	 1.068656924564738e+001
 2.310187234322526e+000	 2.728307156891354e+000	 1.067550530614489e+001
 2.281866485398123e+000	 2.752037489349207e+000	 1.067204243120276e+001
 2.253315801851058e+000	 2.775462645594258e+000	 1.067608985257887e+001
 2.545584412270000e+000	 2.545584412270000e+000	 1.098586338718103e+001
 2.519088247501911e+000	 2.571807613582659e+000	 1.090952652901079e+001
 2.492323402669479e+000	 2.597753655851491e+000	 1.084614382019974e+001
 2.465294246657972e+000	 2.623418433528714e+000	 1.080280395184663e+001
 2.438005231471723e+000	 2.648797933270572e+000	 1.076604766763722e+001
 2.410460889793056e+000	 2.673888236025959e+000	 1.073581591045500e+001
 2.382665832478737e+000	 2.698685519047263e+000	 1.071203617626529e+001
 2.354624745996849e+000	 2.723186057821274e+000	 1.069462269347364e+001
 2.326342389807082e+000	 2.747386227918125e+000	 1.068347663207393e+001
 2.297823593687488e+000	 2.771282506756358e+000	 1.067848634197449e+001
 2.269073255010843e+000	 2.794871475282322e+000	 1.067952761980550e+001
 2.563262081800000e+000	 2.563262081800000e+000	 1.096736589856839e+001
 2.536581915887501e+000	 2.589667388677499e+000	 1.089897320709653e+001
 2.509631204076926e+000	 2.615793611795515e+000	 1.083704557353928e+001
 2.482414345593019e+000	 2.641636617095514e+000	 1.079314975897126e+001
 2.454935823356813e+000	 2.667192363363296e+000	 1.076096255741808e+001
 2.427200201527592e+000	 2.692456904332126e+000	 1.073402631282798e+001
 2.399212122981961e+000	 2.717426390707532e+000	 1.071223052005651e+001
 2.370976306732919e+000	 2.742097072111628e+000	 1.069545254922314e+001
 2.342497545291959e+000	 2.766465298944898e+000	 1.068355789379915e+001
 2.313780701977260e+000	 2.790527524163510e+000	 1.067640044646658e+001
 2.284830708171130e+000	 2.814280304970386e+000	 1.067382280198777e+001
 2.580939751329999e+000	 2.580939751329999e+000	 1.094692000414940e+001
 2.554075584273098e+000	 2.607527163772341e+000	 1.088553371184273e+001
 2.526939005484393e+000	 2.633833567739539e+000	 1.082928267736521e+001
 2.499534444528112e+000	 2.659854800662313e+000	 1.077910234159439e+001
 2.471866415241984e+000	 2.685586793456020e+000	 1.075073036043492e+001
 2.443939513262254e+000	 2.711025572638293e+000	 1.072636098404728e+001
 2.415758413485365e+000	 2.736167262367800e+000	 1.070584601420235e+001
 2.387327867469234e+000	 2.761008086401982e+000	 1.068902625060935e+001
 2.358652700777157e+000	 2.785544369971670e+000	 1.067573177775401e+001
 2.329737810267438e+000	 2.809772541570661e+000	 1.066578227813058e+001
 2.300588161331918e+000	 2.833689134658449e+000	 1.065898737104330e+001
 2.598617420860000e+000	 2.598617420860000e+000	 1.092466952758653e+001
 2.571569252658698e+000	 2.625386938867181e+000	 1.086936698588925e+001
 2.544246806891880e+000	 2.651873523683562e+000	 1.081788337660527e+001
 2.516654543463250e+000	 2.678072984229111e+000	 1.077084826422374e+001
 2.488797007127235e+000	 2.703981223548744e+000	 1.073526994537713e+001
 2.460678824997042e+000	 2.729594240944459e+000	 1.071275476481748e+001
 2.432304703988950e+000	 2.754908134028068e+000	 1.069283310348926e+001
 2.403679428205795e+000	 2.779919100692336e+000	 1.067530947118176e+001
 2.374807856262676e+000	 2.804623440998443e+000	 1.065997880377614e+001
 2.345694918558022e+000	 2.829017558977812e+000	 1.064662681369667e+001
 2.316345614493208e+000	 2.853097964346514e+000	 1.063503036451955e+001
 2.616295090390000e+000	 2.616295090390000e+000	 1.090075962726733e+001
 2.589062921044304e+000	 2.643246713962023e+000	 1.085063283980234e+001
 2.561554608299387e+000	 2.669913479627586e+000	 1.080302165477181e+001
 2.533774642398432e+000	 2.696291167795909e+000	 1.075853719852300e+001
 2.505727599012567e+000	 2.722375653641469e+000	 1.071780013606753e+001
 2.477418136731955e+000	 2.748162909250626e+000	 1.069314160392313e+001
 2.448850994492716e+000	 2.773649005688336e+000	 1.067314092869321e+001
 2.420030988942602e+000	 2.798830114982690e+000	 1.065426617992581e+001
 2.390963011748517e+000	 2.823702512025214e+000	 1.063627739830314e+001
 2.361652026849012e+000	 2.848262576384964e+000	 1.061892655954943e+001
 2.332103067654998e+000	 2.872506794034578e+000	 1.060195798472807e+001
 2.633972759920000e+000	 2.633972759920000e+000	 1.087533675151496e+001
 2.606556589429916e+000	 2.661106489056865e+000	 1.082949192294950e+001
 2.578862409706913e+000	 2.687953435571610e+000	 1.078487189321202e+001
 2.550894741333661e+000	 2.714509351362708e+000	 1.074207008266370e+001
 2.522658190897979e+000	 2.740770083734192e+000	 1.070169114576580e+001
 2.494157448466993e+000	 2.766731577556793e+000	 1.066745458815852e+001
 2.465397284996662e+000	 2.792389877348605e+000	 1.064671737033845e+001
 2.436382549679655e+000	 2.817741129273044e+000	 1.062585869846314e+001
 2.407118167234678e+000	 2.842781583051987e+000	 1.060460396462102e+001
 2.377609135140409e+000	 2.867507593792116e+000	 1.058267163462529e+001
 2.347860520817291e+000	 2.891915623722642e+000	 1.055977369388660e+001
 2.651650429450000e+000	 2.651650429450000e+000	 1.084854859559031e+001
 2.624050257815533e+000	 2.678966264151706e+000	 1.080610569553958e+001
 2.596170211114461e+000	 2.705993391515634e+000	 1.076360885784658e+001
 2.568014840268936e+000	 2.732727534929508e+000	 1.072163452482964e+001
 2.539588782783471e+000	 2.759164513826918e+000	 1.068077206613951e+001
 2.510896760202158e+000	 2.785300245862960e+000	 1.064162226171722e+001
 2.481943575500790e+000	 2.811130749008873e+000	 1.061350909070591e+001
 2.452734110416956e+000	 2.836652143563399e+000	 1.059004775596374e+001
 2.423273322721161e+000	 2.861860654078759e+000	 1.056493295030244e+001
 2.393566243432213e+000	 2.886752611199269e+000	 1.053784984999410e+001
 2.363617973980084e+000	 2.911324453410707e+000	 1.050847830545546e+001
 2.206043442374710e+000	 2.717236156530064e+000	 1.061075510512800e+001
 2.177871437755532e+000	 2.739867880138052e+000	 1.059645215706626e+001
 2.149484031319626e+000	 2.762194489733196e+000	 1.057713332913908e+001
 2.120886165222105e+000	 2.784212972132167e+000	 1.055230332264071e+001
 2.092082836316265e+000	 2.805920420471948e+000	 1.052146861387269e+001
 2.063079093308326e+000	 2.827314035404899e+000	 1.048413812496335e+001
 2.033880033882549e+000	 2.848391126202985e+000	 1.043982389731985e+001
 2.004490801800128e+000	 2.869149111770380e+000	 1.038804176623398e+001
 1.974916583975222e+000	 2.889585521563812e+000	 1.032831203515332e+001
 1.945162607531510e+000	 2.909697996420158e+000	 1.026016014812620e+001
 1.915234136842688e+000	 2.929484289290938e+000	 1.018311735892688e+001
 2.221800895532991e+000	 2.736644986218128e+000	 1.064172337913767e+001
 2.193427662309230e+000	 2.759438364994201e+000	 1.061610933496798e+001
 2.164837488684345e+000	 2.781924450371677e+000	 1.058749577525064e+001
 2.136035352114552e+000	 2.804100207644488e+000	 1.055543464349627e+001
 2.107026285144964e+000	 2.825962709186313e+000	 1.051947737146786e+001
 2.077815372543982e+000	 2.847509135654170e+000	 1.047917551614060e+001
 2.048407748407899e+000	 2.868736777100538e+000	 1.043408140275699e+001
 2.018808593239062e+000	 2.889643033993194e+000	 1.038374877252156e+001
 1.989023131001015e+000	 2.910225418142123e+000	 1.032773343346196e+001
 1.959056626154036e+000	 2.930481553533042e+000	 1.026559391297085e+001
 1.928914380674490e+000	 2.950409177067122e+000	 1.019689211053595e+001
 2.237558348691774e+000	 2.756053815906193e+000	 1.066349449069733e+001
 2.208983886863519e+000	 2.779008849850348e+000	 1.062789641032533e+001
 2.180190946049723e+000	 2.801654411010157e+000	 1.059129188824177e+001
 2.151184539007711e+000	 2.823987443156809e+000	 1.055327948221031e+001
 2.121969733974402e+000	 2.846004997900678e+000	 1.051345496571289e+001
 2.092551651780386e+000	 2.867704235903441e+000	 1.047141193159878e+001
 2.062935462933988e+000	 2.889082427998092e+000	 1.042674240527530e+001
 2.033126384678704e+000	 2.910136956216005e+000	 1.037903746600650e+001
 2.003129678027467e+000	 2.930865314720434e+000	 1.032788787486024e+001
 1.972950644777151e+000	 2.951265110645926e+000	 1.027288470782460e+001
 1.942594624506790e+000	 2.971334064843307e+000	 1.021361999259954e+001
 2.253315801851058e+000	 2.775462645594258e+000	 1.067608985257887e+001
 2.224540111418400e+000	 2.798579334706496e+000	 1.063180893650255e+001
 2.195544403415763e+000	 2.821384371648636e+000	 1.058849199040120e+001
 2.166333725901581e+000	 2.843874678669132e+000	 1.054578356893635e+001
 2.136913182804580e+000	 2.866047286615044e+000	 1.050332318371294e+001
 2.107287931017541e+000	 2.887899336152712e+000	 1.046074587416022e+001
 2.077463177460816e+000	 2.909428078895645e+000	 1.041768279138455e+001
 2.047444176119055e+000	 2.930630878438818e+000	 1.037376179358106e+001
 2.017236225054575e+000	 2.951505211298744e+000	 1.032860805155831e+001
 1.986844663400852e+000	 2.972048667758810e+000	 1.028184466290221e+001
 1.956274868339587e+000	 2.992258952619491e+000	 1.023309327328252e+001
 2.269073255010843e+000	 2.794871475282322e+000	 1.067952761980550e+001
 2.240096335973872e+000	 2.818149819562644e+000	 1.062783994435465e+001
 2.210897860782464e+000	 2.841114332287116e+000	 1.057906460064631e+001
 2.181482912796160e+000	 2.863761914181453e+000	 1.053289153317737e+001
 2.151856631635498e+000	 2.886089575329410e+000	 1.048900339792293e+001
 2.122024210255444e+000	 2.908094436401983e+000	 1.044707610098515e+001
 2.091990891988382e+000	 2.929773729793198e+000	 1.040677935362794e+001
 2.061761967560114e+000	 2.951124800661630e+000	 1.036777724230622e+001
 2.031342772082343e+000	 2.972145107877056e+000	 1.032972881225440e+001
 2.000738682025141e+000	 2.992832224871692e+000	 1.029228866316653e+001
 1.969955112172882e+000	 3.013183840395675e+000	 1.025510755546809e+001
 2.284830708171130e+000	 2.814280304970386e+000	 1.067382280198777e+001
 2.255652560529935e+000	 2.837720304418793e+000	 1.061598002921073e+001
 2.226251318149826e+000	 2.860844292925596e+000	 1.056297649670836e+001
 2.196632099691451e+000	 2.883649149693775e+000	 1.051454694173918e+001
 2.166800080467157e+000	 2.906131864043774e+000	 1.047041658044589e+001
 2.136760489494098e+000	 2.928289536651255e+000	 1.043030161480112e+001
 2.106518606516688e+000	 2.950119380690751e+000	 1.039390975933952e+001
 2.076079759001881e+000	 2.971618722884442e+000	 1.036094078630243e+001
 2.045449319110767e+000	 2.992785004455367e+000	 1.033108708777305e+001
 2.014632700650018e+000	 3.013615781984576e+000	 1.030403425333731e+001
 1.983635356006674e+000	 3.034108728171860e+000	 1.027946166176730e+001
 2.300588161331918e+000	 2.833689134658449e+000	 1.065898737104330e+001
 2.271208785086590e+000	 2.857290789274941e+000	 1.059621743428219e+001
 2.241604775517849e+000	 2.880574253564076e+000	 1.054019277476207e+001
 2.211781286587452e+000	 2.903536385206096e+000	 1.049069233512429e+001
 2.181743529299556e+000	 2.926174152758140e+000	 1.044748331674343e+001
 2.151496768733501e+000	 2.948484636900526e+000	 1.041032165549339e+001
 2.121046321045733e+000	 2.970465031588304e+000	 1.037895252068547e+001
 2.090397550444356e+000	 2.992112645107255e+000	 1.035311083582280e+001
 2.059555866139851e+000	 3.013424901033678e+000	 1.033252181975955e+001
 2.028526719275482e+000	 3.034399339097460e+000	 1.031690154680342e+001
 1.997315599840964e+000	 3.055033615948044e+000	 1.030595752425466e+001
 2.316345614493208e+000	 2.853097964346514e+000	 1.063503036451955e+001
 2.286765009643835e+000	 2.876861274131089e+000	 1.056853813066691e+001
 2.256958232886533e+000	 2.900304214202556e+000	 1.051067690662145e+001
 2.226930473484163e+000	 2.923423620718418e+000	 1.046126926244009e+001
 2.196686978132694e+000	 2.946216441472505e+000	 1.042012381878706e+001
 2.166233047973653e+000	 2.968679737149796e+000	 1.038703569203816e+001
 2.135574035575516e+000	 2.990810682485858e+000	 1.036178696592850e+001
 2.104715341887540e+000	 3.012606567330067e+000	 1.034414718840519e+001
 2.073662413169591e+000	 3.034064797611989e+000	 1.033387389228455e+001
 2.042420737901533e+000	 3.055182896210344e+000	 1.033071313825345e+001
 2.010995843675750e+000	 3.075958503724228e+000	 1.033440007870384e+001
 2.332103067654998e+000	 2.872506794034578e+000	 1.060195798472807e+001
 2.302321234201673e+000	 2.896431758987238e+000	 1.053292589410979e+001
 2.272311690255878e+000	 2.920034174841036e+000	 1.047439079461697e+001
 2.242079660381585e+000	 2.943310856230739e+000	 1.042621831489192e+001
 2.211630426966573e+000	 2.966258730186871e+000	 1.038825793767588e+001
 2.180969327214555e+000	 2.988874837399069e+000	 1.036034341476324e+001
 2.150101750106039e+000	 3.011156333383411e+000	 1.034229321185687e+001
 2.119033133331433e+000	 3.033100489552880e+000	 1.033391098200436e+001
 2.087768960199989e+000	 3.054704694190300e+000	 1.033498606622173e+001
 2.056314756528172e+000	 3.075966453323228e+000	 1.034529401984784e+001
 2.024676087511034e+000	 3.096883391500412e+000	 1.036459716311146e+001
 2.347860520817291e+000	 2.891915623722642e+000	 1.055977369388660e+001
 2.317877458760101e+000	 2.916002243843385e+000	 1.048936237867226e+001
 2.287665147625883e+000	 2.939764135479516e+000	 1.043129482426264e+001
 2.257228847279718e+000	 2.963198091743061e+000	 1.038547915792746e+001
 2.226573875801192e+000	 2.986301018901236e+000	 1.035180517574662e+001
 2.195705606456206e+000	 3.009069937648340e+000	 1.033014472791980e+001
 2.164629464637301e+000	 3.031501984280965e+000	 1.032035213732394e+001
 2.133350924776033e+000	 3.053594411775692e+000	 1.032226465001161e+001
 2.101875507231045e+000	 3.075344590768611e+000	 1.033570291626767e+001
 2.070208775155399e+000	 3.096750010436112e+000	 1.036047150076674e+001
 2.038356331346816e+000	 3.117808279276597e+000	 1.039635942030715e+001
 2.363617973980084e+000	 2.911324453410707e+000	 1.050847830545546e+001
 2.333433683319122e+000	 2.935572728699535e+000	 1.043782718745506e+001
 2.303018604996550e+000	 2.959494096117997e+000	 1.038134791481657e+001
 2.272378034178562e+000	 2.983085327255382e+000	 1.033899056209542e+001
 2.241517324636551e+000	 3.006343307615601e+000	 1.031068469819876e+001
 2.210441885698608e+000	 3.029265037897612e+000	 1.029633974255199e+001
 2.179157179169301e+000	 3.051847635178518e+000	 1.029584535784585e+001
 2.147668716221342e+000	 3.074088333998505e+000	 1.030907187807358e+001
 2.115982054262759e+000	 3.095984487346923e+000	 1.033587077048130e+001
 2.084102793783214e+000	 3.117533567548997e+000	 1.037607512997617e+001
 2.052036575183095e+000	 3.138733167052782e+000	 1.027935393610650e+001
 1.915234136842688e+000	 2.929484289290938e+000	 1.018311735892688e+001
 1.885136470559467e+000	 2.948942265883543e+000	 1.004305040753646e+001
 1.854874938628939e+000	 2.968069905208957e+000	 9.940935044124938e+000
 1.824454899308039e+000	 2.986865300036170e+000	 9.865526368748629e+000
 1.793881736172811e+000	 3.005326657253558e+000	 9.804412000101269e+000
 1.763160855129284e+000	 3.023452298137441e+000	 9.757182883688865e+000
 1.732297681428427e+000	 3.041240658528325e+000	 9.723427839172681e+000
 1.701297656688460e+000	 3.058690288915435e+000	 9.702734773093702e+000
 1.670166235927715e+000	 3.075799854430275e+000	 9.694691869942954e+000
 1.638908884611239e+000	 3.092568134750085e+000	 9.698888758698164e+000
 1.607531075714235e+000	 3.108994023912138e+000	 9.714917652074032e+000
 1.928914380674490e+000	 2.950409177067122e+000	 1.019689211053595e+001
 1.898601731060612e+000	 2.970006139206823e+000	 1.007969691663235e+001
 1.868124045330562e+000	 2.989270404527509e+000	 9.984620926181588e+000
 1.837486720014539e+000	 3.008200052175089e+000	 9.931059222672797e+000
 1.806695177142703e+000	 3.026793276230000e+000	 9.892174594184981e+000
 1.775754861234695e+000	 3.045048385977678e+000	 9.867537864455070e+000
 1.744671236293279e+000	 3.062963806086061e+000	 9.856717565572922e+000
 1.713449782805373e+000	 3.080538076690723e+000	 9.859281188572014e+000
 1.682095994753728e+000	 3.097769853388398e+000	 9.874796411970927e+000
 1.650615376642427e+000	 3.114657907139728e+000	 9.902832305307536e+000
 1.619013440539351e+000	 3.131201124082256e+000	 9.866244273585375e+000
 1.942594624506790e+000	 2.971334064843307e+000	 1.021361999259954e+001
 1.912066991562159e+000	 2.991070012530103e+000	 1.011949342054573e+001
 1.881373152032502e+000	 3.010470903846060e+000	 1.004023355323028e+001
 1.850518540721283e+000	 3.029534804314008e+000	 1.000200314987409e+001
 1.819508618112773e+000	 3.048259895206442e+000	 9.985603592889184e+000
 1.788348867340230e+000	 3.066644473817916e+000	 9.983808568873325e+000
 1.757044791158208e+000	 3.084686953643796e+000	 9.996165900363188e+000
 1.725601908922330e+000	 3.102385864466013e+000	 1.002222224900430e+001
 1.694025753579761e+000	 3.119739852346521e+000	 1.006152438215546e+001
 1.662321868673619e+000	 3.136747679529370e+000	 9.969358142412341e+000
 1.630495805364467e+000	 3.153408224252373e+000	 9.826766987588645e+000
 1.956274868339587e+000	 2.992258952619491e+000	 1.023309327328252e+001
 1.925532252064109e+000	 3.012133885853384e+000	 1.016223130167620e+001
 1.894622258734761e+000	 3.031671403164613e+000	 1.010675750412849e+001
 1.863550361428269e+000	 3.050869556452927e+000	 1.007812146578774e+001
 1.832322059083021e+000	 3.069726514182884e+000	 1.008446399278366e+001
 1.800942873445888e+000	 3.088240561658152e+000	 1.010576179310469e+001
 1.769418346023217e+000	 3.106410101201532e+000	 1.014154155412076e+001
 1.737754035039332e+000	 3.124233652241302e+000	 1.019132869053912e+001
 1.705955512405813e+000	 3.141709851304642e+000	 1.005108599372285e+001
 1.674028360704816e+000	 3.158837451919013e+000	 9.915691237673508e+000
 1.641978170189583e+000	 3.175615324422491e+000	 9.794334739488154e+000
 1.969955112172882e+000	 3.013183840395675e+000	 1.025510755546809e+001
 1.938997512566461e+000	 3.033197759176664e+000	 1.020770533111537e+001
 1.907871365437337e+000	 3.052871902483164e+000	 1.017621097226443e+001
 1.876582182135498e+000	 3.072204308591846e+000	 1.016064938227000e+001
 1.845135500053448e+000	 3.091193133159327e+000	 1.018852432239729e+001
 1.813536879551670e+000	 3.109836649498390e+000	 1.023316790676840e+001
 1.781791900888306e+000	 3.128133248759268e+000	 1.025510292071180e+001
 1.749906161156378e+000	 3.146081440016591e+000	 1.011176469692509e+001
 1.717885271231885e+000	 3.163679850262765e+000	 9.982966898917425e+000
 1.685734852736018e+000	 3.180927224308657e+000	 9.868636128093851e+000
 1.653460535014698e+000	 3.197822424592608e+000	 9.768688435834395e+000
 1.983635356006674e+000	 3.034108728171860e+000	 1.027946166176730e+001
 1.952462773069216e+000	 3.054261632499945e+000	 1.025571355179574e+001
 1.921120472140230e+000	 3.074072401801716e+000	 1.024839136571448e+001
 1.889614002842970e+000	 3.093539060730765e+000	 1.025751373958280e+001
 1.857948941024053e+000	 3.112659752135769e+000	 1.029755652042654e+001
 1.826130885657575e+000	 3.131432737338627e+000	 1.028954628420513e+001
 1.794165455753473e+000	 3.149856396317004e+000	 1.015174633214727e+001
 1.762058287273468e+000	 3.167929227791880e+000	 1.002892988759000e+001
 1.729815030057977e+000	 3.185649849220886e+000	 9.921021830231723e+000
 1.697441344767225e+000	 3.203016996698299e+000	 9.827935312503970e+000
 1.664942899839814e+000	 3.220029524762726e+000	 9.749572588176575e+000
 1.997315599840964e+000	 3.055033615948044e+000	 1.030595752425466e+001
 1.965928033572373e+000	 3.075325505823225e+000	 1.030605716644116e+001
 1.934369578843441e+000	 3.095272901120267e+000	 1.032309929978334e+001
 1.902645823550685e+000	 3.114873812869685e+000	 1.035709613400724e+001
 1.870762381994835e+000	 3.134126371112211e+000	 1.030430352297091e+001
 1.838724891763604e+000	 3.153028825178864e+000	 1.017139964682351e+001
 1.806539010618719e+000	 3.171579543874739e+000	 1.005393275611971e+001
 1.774210413390603e+000	 3.189777015567169e+000	 9.951827318039904e+000
 1.741744788884088e+000	 3.207619848179009e+000	 9.864994845186976e+000
 1.709147836798437e+000	 3.225106769087942e+000	 9.793334747257857e+000
 1.676425264664929e+000	 3.242236624932843e+000	 9.736735189603753e+000
 2.010995843675750e+000	 3.075958503724228e+000	 1.033440007870384e+001
 1.979393294075933e+000	 3.096389379146505e+000	 1.035854043009099e+001
 1.947618685546970e+000	 3.116473400438819e+000	 1.040013848791472e+001
 1.915677644258642e+000	 3.136208565008603e+000	 1.032938994966826e+001
 1.883575822965796e+000	 3.155592990088652e+000	 1.017722621586892e+001
 1.851318897869758e+000	 3.174624913019101e+000	 1.005834614486192e+001
 1.818912565484044e+000	 3.193302691432475e+000	 9.961406131599123e+000
 1.786362539507782e+000	 3.211624803342458e+000	 9.880202572919917e+000
 1.753674547710219e+000	 3.229589847137130e+000	 9.814633315187402e+000
 1.720854328829654e+000	 3.247196541477586e+000	 9.764583728630257e+000
 1.687907629490045e+000	 3.264443725102961e+000	 9.729927596325069e+000
 2.024676087511034e+000	 3.096883391500412e+000	 1.036459716311146e+001
 1.992858554579895e+000	 3.117453252469786e+000	 1.041297054698127e+001
 1.960867792250816e+000	 3.137673899757371e+000	 1.033482976264176e+001
 1.928709464966843e+000	 3.157543317147523e+000	 1.018746110315759e+001
 1.896389263936935e+000	 3.177059609065096e+000	 1.005658759578859e+001
 1.863912903976033e+000	 3.196221000859338e+000	 9.950131325590997e+000
 1.831286120349448e+000	 3.215025838990211e+000	 9.873913540937819e+000
 1.798514665625005e+000	 3.233472591117747e+000	 9.813804410900843e+000
 1.765604306536370e+000	 3.251559846095253e+000	 9.769687813564220e+000
 1.732560820860876e+000	 3.269286313867228e+000	 9.741434779981448e+000
 1.699389994315161e+000	 3.286650825273078e+000	 9.728904414050877e+000
 2.038356331346816e+000	 3.117808279276597e+000	 1.039635942030715e+001
 2.006323815084259e+000	 3.138517125793066e+000	 1.031797767982707e+001
 1.974116898954979e+000	 3.158874399075922e+000	 1.017544189837122e+001
 1.941741285675287e+000	 3.178878069286442e+000	 1.004882510609678e+001
 1.909202704908253e+000	 3.198526228041537e+000	 9.939139524105359e+000
 1.876506910082434e+000	 3.217817088699575e+000	 9.847370773320654e+000
 1.843659675214930e+000	 3.236748986547946e+000	 9.791205104387903e+000
 1.810666791742273e+000	 3.255320378893037e+000	 9.752384658168518e+000
 1.777534065362541e+000	 3.273529845053375e+000	 9.729912008128833e+000
 1.744267312892102e+000	 3.291376086256872e+000	 9.723643543465649e+000
 1.710872359140276e+000	 3.308857925443196e+000	 9.733423388949122e+000
 2.052036575183095e+000	 3.138733167052782e+000	 1.027935393610650e+001
 2.019789075589026e+000	 3.159580999116348e+000	 1.014179827672518e+001
 1.987366005659461e+000	 3.180074898394475e+000	 1.001950610719269e+001
 1.954773106383974e+000	 3.200212821425363e+000	 9.913539170234849e+000
 1.922016145879749e+000	 3.219992847017980e+000	 9.824934005877090e+000
 1.889100916188958e+000	 3.239413176539813e+000	 9.754699973676146e+000
 1.856033230080493e+000	 3.258472134105683e+000	 9.713033878838029e+000
 1.822818917859586e+000	 3.277168166668327e+000	 9.695698106173190e+000
 1.789463824188732e+000	 3.295499844011497e+000	 9.695062558023414e+000
 1.755973804923334e+000	 3.313465858646516e+000	 9.710968676071392e+000
 1.722354723965393e+000	 3.331065025613313e+000	 9.743245302963251e+000
 1.607531075714235e+000	 3.108994023912138e+000	 9.714917652074032e+000
 1.576038286805698e+000	 3.125076530040452e+000	 9.766606472590759e+000
 1.544435997154201e+000	 3.140814774984898e+000	 9.635526825538809e+000
 1.512729684859720e+000	 3.156207993874709e+000	 9.519784436339286e+000
 1.480924824014684e+000	 3.171255534588795e+000	 9.419364064293179e+000
 1.449026881896091e+000	 3.185956857143146e+000	 9.334241937833774e+000
 1.417041316191712e+000	 3.200311532997376e+000	 9.264386414225077e+000
 1.384973572263022e+000	 3.214319244282112e+000	 9.209758634430248e+000
 1.352829080447325e+000	 3.227979782949083e+000	 9.170313171339666e+000
 1.320613253401520e+000	 3.241293049845799e+000	 9.145998669615818e+000
 1.288331483489811e+000	 3.254259053716808e+000	 9.136758475487971e+000
 1.619013440539351e+000	 3.131201124082256e+000	 9.866244273585375e+000
 1.587295703138929e+000	 3.147398505255050e+000	 9.740599568075195e+000
 1.555467682847306e+000	 3.163249166235358e+000	 9.627847389690544e+000
 1.523534896893744e+000	 3.178752336689058e+000	 9.527928371029482e+000
 1.491502858471335e+000	 3.193907359837046e+000	 9.440776716217853e+000
 1.459377073909051e+000	 3.208713691838290e+000	 9.366320896406695e+000
 1.427163039878152e+000	 3.223170901091397e+000	 9.304484338217083e+000
 1.394866240635551e+000	 3.237278667456501e+000	 9.255186103250354e+000
 1.362492145306675e+000	 3.251036781399276e+000	 9.218341556853890e+000
 1.330046205210259e+000	 3.264445143058997e+000	 9.193863024412588e+000
 1.297533851227396e+000	 3.277503761242674e+000	 9.181660433518387e+000
 1.630495805364467e+000	 3.153408224252373e+000	 9.826766987588645e+000
 1.598553119472159e+000	 3.169720480469653e+000	 9.720770875359865e+000
 1.566499368540411e+000	 3.185683557485841e+000	 9.625252467919337e+000
 1.534340108927769e+000	 3.201296679503454e+000	 9.540099187171681e+000
 1.502080892927985e+000	 3.216559185085382e+000	 9.465194767919270e+000
 1.469727265922012e+000	 3.231470526533562e+000	 9.400419986579545e+000
 1.437284763564592e+000	 3.246030269185602e+000	 9.345653378771873e+000
 1.404758909008079e+000	 3.260238090631141e+000	 9.300771943882804e+000
 1.372155210166025e+000	 3.274093779849793e+000	 9.265651834802437e+000
 1.339479157018999e+000	 3.287597236272605e+000	 9.240169031112819e+000
 1.306736218964982e+000	 3.300748468769045e+000	 9.224199994098356e+000
 1.641978170189583e+000	 3.175615324422491e+000	 9.794334739488154e+000
 1.609810535805390e+000	 3.192042455684259e+000	 9.706886841920852e+000
 1.577531054233516e+000	 3.208117948736343e+000	 9.627537062124716e+000
 1.545145320961793e+000	 3.223841022317894e+000	 9.556119709685728e+000
 1.512658927384635e+000	 3.239211010333797e+000	 9.492468125319002e+000
 1.480077457934971e+000	 3.254227361228960e+000	 9.436415443185352e+000
 1.447406487251032e+000	 3.268889637279991e+000	 9.387795338018700e+000
 1.414651577380608e+000	 3.283197513806030e+000	 9.346442755164640e+000
 1.381818275025375e+000	 3.297150778300635e+000	 9.312194621723876e+000
 1.348912108827739e+000	 3.310749329486621e+000	 9.284890537089160e+000
 1.315938586702568e+000	 3.323993176295921e+000	 9.264373441265679e+000
 1.653460535014698e+000	 3.197822424592608e+000	 9.768688435834395e+000
 1.621067952138621e+000	 3.214364430898872e+000	 9.698716916904917e+000
 1.588562739926621e+000	 3.230552339986867e+000	 9.634498464570442e+000
 1.555950532995818e+000	 3.246385365132382e+000	 9.575814363545970e+000
 1.523236961841285e+000	 3.261862835582296e+000	 9.522447625291253e+000
 1.490427649947932e+000	 3.276984195924487e+000	 9.474183784311098e+000
 1.457528210937472e+000	 3.291749005374561e+000	 9.430811675226591e+000
 1.424544245753136e+000	 3.306156936981167e+000	 9.392124188709589e+000
 1.391481339884725e+000	 3.320207776751802e+000	 9.357919004471830e+000
 1.358345060636479e+000	 3.333901422701048e+000	 9.327999299606578e+000
 1.325140954440153e+000	 3.347237883823303e+000	 9.302174430688117e+000
 1.664942899839814e+000	 3.220029524762726e+000	 9.749572588176575e+000
 1.632325368471851e+000	 3.236686406113489e+000	 9.696033447623796e+000
 1.599594425619725e+000	 3.252986731237410e+000	 9.645936178906538e+000
 1.566755745029842e+000	 3.268929707946914e+000	 9.599009118607119e+000
 1.533814996297935e+000	 3.284514660830875e+000	 9.554985003561104e+000
 1.500777841960892e+000	 3.299741030620141e+000	 9.513601801530433e+000
 1.467649934623913e+000	 3.314608373469316e+000	 9.474603518627403e+000
 1.434436914125665e+000	 3.329116360156554e+000	 9.437740981570650e+000
 1.401144404744075e+000	 3.343264775203294e+000	 9.402772592962975e+000
 1.367778012445219e+000	 3.357053515915887e+000	 9.369465057895132e+000
 1.334343322177739e+000	 3.370482591351189e+000	 9.337594080296970e+000
 1.676425264664929e+000	 3.242236624932843e+000	 9.736735189603753e+000
 1.643582784805082e+000	 3.259008381328112e+000	 9.698611580301806e+000
 1.610626111312830e+000	 3.275421122487975e+000	 9.661651844436852e+000
 1.577560957063867e+000	 3.291474050761495e+000	 9.625531436697539e+000
 1.544393030754585e+000	 3.307166486079536e+000	 9.589932863921856e+000
 1.511128033973854e+000	 3.322497865315922e+000	 9.554546550537697e+000
 1.477771658310353e+000	 3.337467741564254e+000	 9.519071676752445e+000
 1.444329582498194e+000	 3.352075783332189e+000	 9.483216987560727e+000
 1.410807469603425e+000	 3.366321773655108e+000	 9.446701570756650e+000
 1.377210964253959e+000	 3.380205609131134e+000	 9.409255602260620e+000
 1.343545689915324e+000	 3.393727298879581e+000	 9.370621057195798e+000
 1.687907629490045e+000	 3.264443725102961e+000	 9.729927596325069e+000
 1.654840201138312e+000	 3.281330356542740e+000	 9.706229164874946e+000
 1.621657797005935e+000	 3.297855513738559e+000	 9.681449163477625e+000
 1.588366169097892e+000	 3.314018393576120e+000	 9.655210220871542e+000
 1.554971065211235e+000	 3.329818311328279e+000	 9.627144648708937e+000
 1.521478225986814e+000	 3.345254700011832e+000	 9.596895342164247e+000
 1.487893381996793e+000	 3.360327109659374e+000	 9.564116649306948e+000
 1.454222250870723e+000	 3.375035206508074e+000	 9.528475207294926e+000
 1.420470534462776e+000	 3.389378772107250e+000	 9.489650743570847e+000
 1.386643916062698e+000	 3.403357702346790e+000	 9.447336840374700e+000
 1.352748057652909e+000	 3.416972006408478e+000	 9.401241661021919e+000
 1.699389994315161e+000	 3.286650825273078e+000	 9.728904414050877e+000
 1.666097617471543e+000	 3.303652331757373e+000	 9.718666663649067e+000
 1.632689482699040e+000	 3.320289904989165e+000	 9.705133831661424e+000
 1.599171381131916e+000	 3.336562736390792e+000	 9.687875766719605e+000
 1.565549099667885e+000	 3.352470136577103e+000	 9.666474610470791e+000
 1.531828417999774e+000	 3.368011534707868e+000	 9.640525733758837e+000
 1.498015105683233e+000	 3.383186477754680e+000	 9.609638637602959e+000
 1.464114919243252e+000	 3.397994629684208e+000	 9.573437817014710e+000
 1.430133599322126e+000	 3.412435770559714e+000	 9.531563585830622e+000
 1.396076867871438e+000	 3.426509795562858e+000	 9.483672860877181e+000
 1.361950425390495e+000	 3.440216713937880e+000	 9.429439903928397e+000
 1.710872359140276e+000	 3.308857925443196e+000	 9.733423388949122e+000
 1.677355033804773e+000	 3.325974306972011e+000	 9.735707063636495e+000
 1.643721168392145e+000	 3.342724296239791e+000	 9.732513471047016e+000
 1.609976593165940e+000	 3.359107079205509e+000	 9.723359715638884e+000
 1.576127134124536e+000	 3.375121961826011e+000	 9.707777784780481e+000
 1.542178610012735e+000	 3.390768369404032e+000	 9.685315520915440e+000
 1.508136829369673e+000	 3.406045845850167e+000	 9.655537554573073e+000
 1.474007587615780e+000	 3.420954052860589e+000	 9.618026196251451e+000
 1.439796664181476e+000	 3.435492769012504e+000	 9.572382285342423e+000
 1.405509819680178e+000	 3.449661888779335e+000	 9.518225994417433e+000
 1.371152793128081e+000	 3.463461421467788e+000	 9.455197587345202e+000
 1.722354723965393e+000	 3.331065025613313e+000	 9.743245302963251e+000
 1.688612450138004e+000	 3.348296282186655e+000	 9.757135792399366e+000
 1.654752854085250e+000	 3.365158687490438e+000	 9.763397565905438e+000
 1.620781805199965e+000	 3.381651422020274e+000	 9.761495009972741e+000
 1.586705168581186e+000	 3.397773787074999e+000	 9.750909964134978e+000
 1.552528802025695e+000	 3.413525204100325e+000	 9.731142729531523e+000
 1.518258553056114e+000	 3.428905213945839e+000	 9.701713034382554e+000
 1.483900255988309e+000	 3.443913476037222e+000	 9.662160954383426e+000
 1.449459729040826e+000	 3.458549767465619e+000	 9.612047786181435e+000
 1.414942771488918e+000	 3.472813981996223e+000	 9.550956872254218e+000
 1.380355160865667e+000	 3.486706128998200e+000	 9.478494375670067e+000
 1.288331483489811e+000	 3.254259053716808e+000	 9.136758475487971e+000
 1.255989140217728e+000	 3.266877910132902e+000	 9.086752222746039e+000
 1.223591567714392e+000	 3.279149840352444e+000	 9.053105057933641e+000
 1.191144082264780e+000	 3.291075170115785e+000	 9.024865087188219e+000
 1.158651969894472e+000	 3.302654328373524e+000	 8.999643980183448e+000
 1.126120484008404e+000	 3.313887845952988e+000	 8.976790755694674e+000
 1.093554843085374e+000	 3.324776354164621e+000	 8.955689271883053e+000
 1.060960228429861e+000	 3.335320583350721e+000	 8.935759593606806e+000
 1.028341781982669e+000	 3.345521361378934e+000	 8.916459249011576e+000
 9.957046041917395e-001	 3.355379612083005e+000	 8.897284374241686e+000
 9.630537519444204e-001	 3.364896353653301e+000	 8.877770745470217e+000
 1.297533851227396e+000	 3.277503761242674e+000	 9.181660433518387e+000
 1.264960491217280e+000	 3.290212752346754e+000	 9.125014316068208e+000
 1.232331507481436e+000	 3.302572339210159e+000	 9.083778516714459e+000
 1.199652254278306e+000	 3.314582849899960e+000	 9.050743627278040e+000
 1.166928055390794e+000	 3.326244716430685e+000	 9.021055434322285e+000
 1.134164201748158e+000	 3.337558473421284e+000	 8.994037710844157e+000
 1.101365949104043e+000	 3.348524756691562e+000	 8.969049344497861e+000
 1.068538515772247e+000	 3.359144301800547e+000	 8.945485756628134e+000
 1.035687080421721e+000	 3.369417942529220e+000	 8.922780208453862e+000
 1.002816779932179e+000	 3.379346609310144e+000	 8.900404993176048e+000
 9.699327073115912e-001	 3.388931327606469e+000	 8.877872513148775e+000
 1.306736218964982e+000	 3.300748468769045e+000	 9.224199994098356e+000
 1.273931842216838e+000	 3.313547594561200e+000	 9.161275849652450e+000
 1.241071447248501e+000	 3.325994838068540e+000	 9.113068255426004e+000
 1.208160426291878e+000	 3.338090529684847e+000	 9.075847484050042e+000
 1.175204140887197e+000	 3.349835104488587e+000	 9.042278730597966e+000
 1.142207919488039e+000	 3.361229100890329e+000	 9.011659808315692e+000
 1.109177055122895e+000	 3.372273159219241e+000	 8.983323948940994e+000
 1.076116803114882e+000	 3.382968020251077e+000	 8.956641274151783e+000
 1.043032378861099e+000	 3.393314523680163e+000	 8.931020151976737e+000
 1.009928955673030e+000	 3.403313606537866e+000	 8.905908436874686e+000
 9.768116626792683e-001	 3.412966301560131e+000	 8.880794592560990e+000
 1.315938586702568e+000	 3.323993176295921e+000	 9.264373441265679e+000
 1.282903193216400e+000	 3.336882436776241e+000	 9.195531041944379e+000
 1.249811387015587e+000	 3.349417336927583e+000	 9.140805676104533e+000
 1.216668598305496e+000	 3.361598209470448e+000	 9.100012333134986e+000
 1.183480226383683e+000	 3.373425492547230e+000	 9.063154065062260e+000
 1.150251637228049e+000	 3.384899728360124e+000	 9.029502003487735e+000
 1.116988161141932e+000	 3.396021561747658e+000	 8.998363030890983e+000
 1.083695090457768e+000	 3.406791738702315e+000	 8.969081305196401e+000
 1.050377677300802e+000	 3.417211104831759e+000	 8.941039667055177e+000
 1.017041131414291e+000	 3.427280603766173e+000	 8.913660928480207e+000
 9.836906180474517e-001	 3.437001275514286e+000	 8.886409041851325e+000
 1.325140954440153e+000	 3.347237883823303e+000	 9.302174430688117e+000
 1.291874544215968e+000	 3.360217278991877e+000	 9.227771625395777e+000
 1.258551326782692e+000	 3.372839835787290e+000	 9.168106191555580e+000
 1.225176770319161e+000	 3.385105889256760e+000	 9.123071624804361e+000
 1.191756311880252e+000	 3.397015880606614e+000	 9.083519526653856e+000
 1.158295354968186e+000	 3.408570355830669e+000	 9.047407254823646e+000
 1.124799267161153e+000	 3.419769964276812e+000	 9.014014641267185e+000
 1.091273377800903e+000	 3.430615457154258e+000	 8.982659208146435e+000
 1.057722975740832e+000	 3.441107685984012e+000	 8.952697626639129e+000
 1.024153307155963e+000	 3.451247600995064e+000	 8.923527054722905e+000
 9.905695734161415e-001	 3.461036249468935e+000	 8.894586352893436e+000
 1.334343322177739e+000	 3.370482591351189e+000	 9.337594080296970e+000
 1.300845895215541e+000	 3.383552121208107e+000	 9.257986932188345e+000
 1.267291266549819e+000	 3.396262334647662e+000	 9.193749436683323e+000
 1.233684942332872e+000	 3.408613569043785e+000	 9.144856660707019e+000
 1.200032397376902e+000	 3.420606268666739e+000	 9.103211169857145e+000
 1.166339072708452e+000	 3.432240983301964e+000	 9.065216592730884e+000
 1.132610373180558e+000	 3.443518366806705e+000	 9.030125001566754e+000
 1.098851665144288e+000	 3.454439175606908e+000	 8.997226602843332e+000
 1.065068274181186e+000	 3.465004267136918e+000	 8.965851248274971e+000
 1.031265482898047e+000	 3.475214598224539e+000	 8.935369822349115e+000
 9.974485287853375e-001	 3.485071223424078e+000	 8.905195505299764e+000
 1.343545689915324e+000	 3.393727298879581e+000	 9.370621057195798e+000
 1.309817246215119e+000	 3.406886963424932e+000	 9.286163976434954e+000
 1.276031206316967e+000	 3.419684833508697e+000	 9.217693805211614e+000
 1.242193114346629e+000	 3.432121248831523e+000	 9.165196667452205e+000
 1.208308482873635e+000	 3.444196656727605e+000	 9.122063084375677e+000
 1.174382790448846e+000	 3.455911610774007e+000	 9.082769185590262e+000
 1.140421479200147e+000	 3.467266769337335e+000	 9.046538566515897e+000
 1.106429952487923e+000	 3.478262894060265e+000	 9.012633430124277e+000
 1.072413572621866e+000	 3.488900848290479e+000	 8.980356150797306e+000
 1.038377658640542e+000	 3.499181595454600e+000	 8.949050712229862e+000
 1.004327484155040e+000	 3.509106197379714e+000	 8.918104018211141e+000
 1.352748057652909e+000	 3.416972006408478e+000	 9.401241661021919e+000
 1.318788597214702e+000	 3.430221805642352e+000	 9.312287533025291e+000
 1.284771146084135e+000	 3.443107332370397e+000	 9.239922803934171e+000
 1.250701286360433e+000	 3.455628928619975e+000	 9.183948420555524e+000
 1.216584568370449e+000	 3.467787044789213e+000	 9.139907461961171e+000
 1.182426508189368e+000	 3.479582238246801e+000	 9.099902403090255e+000
 1.148232585219920e+000	 3.491015171868703e+000	 9.063098084164121e+000
 1.114008239831808e+000	 3.502086612514328e+000	 9.028728008931537e+000
 1.079758871062872e+000	 3.512797429444696e+000	 8.996066408707108e+000
 1.045489834383448e+000	 3.523148592685243e+000	 8.964429731261703e+000
 1.011206439525248e+000	 3.533141171335845e+000	 8.933177999972711e+000
 1.361950425390495e+000	 3.440216713937880e+000	 9.429439903928397e+000
 1.327759948214291e+000	 3.453556647860368e+000	 9.336340213275472e+000
 1.293511085851323e+000	 3.466529831232760e+000	 9.260417892987764e+000
 1.259209458374282e+000	 3.479136608409138e+000	 9.201468437167932e+000
 1.224860653867346e+000	 3.491377432851562e+000	 9.156574660533497e+000
 1.190470225930017e+000	 3.503252865720344e+000	 9.116451876993621e+000
 1.156043691239877e+000	 3.514763574400809e+000	 9.079644653542191e+000
 1.121586527175943e+000	 3.525910330969096e+000	 9.045357091106002e+000
 1.087104169504204e+000	 3.536694010599568e+000	 9.012834604345104e+000
 1.052602010126766e+000	 3.547115589916470e+000	 8.981365462162982e+000
 1.018085394895963e+000	 3.557176145292468e+000	 8.950282195796021e+000
 1.371152793128081e+000	 3.463461421467788e+000	 9.455197587345202e+000
 1.336731299213884e+000	 3.476891490078979e+000	 9.358302537531090e+000
 1.302251025618533e+000	 3.489952330095787e+000	 9.279158554532046e+000
 1.267717630388179e+000	 3.502644288199014e+000	 9.217555404844987e+000
 1.233136739364326e+000	 3.514967820914653e+000	 9.171893265718847e+000
 1.198513943670795e+000	 3.526923493194636e+000	 9.132251559456929e+000
 1.163854797260018e+000	 3.538511976933653e+000	 9.096017779998444e+000
 1.129164814520328e+000	 3.549734049424571e+000	 9.062365913974544e+000
 1.094449467945861e+000	 3.560590591755095e+000	 9.030511877964125e+000
 1.059714185870494e+000	 3.571082587148281e+000	 8.999715111264960e+000
 1.024964350267184e+000	 3.581211119249587e+000	 8.969280033501772e+000
 1.380355160865667e+000	 3.486706128998200e+000	 9.478494375670067e+000
 1.345702650213483e+000	 3.500226332298184e+000	 9.378153004866226e+000
 1.310990965385763e+000	 3.513374828959480e+000	 9.296122358681984e+000
 1.276225802402122e+000	 3.526151967989605e+000	 9.232186198560372e+000
 1.241412824861387e+000	 3.538558208978485e+000	 9.185690149926082e+000
 1.206557661411702e+000	 3.550594120669679e+000	 9.147133779017606e+000
 1.171665903280343e+000	 3.562260379467234e+000	 9.112055428321492e+000
 1.136743101864963e+000	 3.573557767880752e+000	 9.079598250833845e+000
 1.101794766387844e+000	 3.584487172911276e+000	 9.048947975798903e+000
 1.066826361614634e+000	 3.595049584380677e+000	 9.019334554391739e+000
 1.031843305638912e+000	 3.605246093207198e+000	 8.990033667432664e+000
 9.630537519444204e-001	 3.364896353653301e+000	 8.877770745470217e+000
 9.303942365624410e-001	 3.374072696980329e+000	 8.856299626358041e+000
 8.977310218600831e-001	 3.382909843951724e+000	 8.834530010189138e+000
 8.650690222672628e-001	 3.391409085706569e+000	 8.812115576866942e+000
 8.324131010182240e-001	 3.399571800851111e+000	 8.788752050016159e+000
 7.997680684061290e-001	 3.407399453636346e+000	 8.764177681795268e+000
 7.671386801043798e-001	 3.414893592100731e+000	 8.738173627618153e+000
 7.345296355551686e-001	 3.422055846180586e+000	 8.710564212194164e+000
 7.019455764256682e-001	 3.428887925790746e+000	 8.681217088575945e+000
 6.693910851321578e-001	 3.435391618878011e+000	 8.650043292163280e+000
 6.368706834322875e-001	 3.441568789449906e+000	 8.616997191864178e+000
 9.699327073115912e-001	 3.388931327606469e+000	 8.877872513148775e+000
 9.370399096768675e-001	 3.398173216243544e+000	 8.853868142952244e+000
 9.041433862981303e-001	 3.407073485693827e+000	 8.830232131978992e+000
 8.712480867083660e-001	 3.415633436318824e+000	 8.806594557400857e+000
 8.383589088792047e-001	 3.423854456571968e+000	 8.782627717943051e+000
 8.054806974630461e-001	 3.431738021163191e+000	 8.758046661957449e+000
 7.726182421023863e-001	 3.439285689188370e+000	 8.732609603301459e+000
 7.397762758068609e-001	 3.446499102226225e+000	 8.706118226402067e+000
 7.069594733984083e-001	 3.453379982405272e+000	 8.678417882172340e+000
 6.741724500248509e-001	 3.459930130443355e+000	 8.649397676712882e+000
 6.414197597421077e-001	 3.466151423662343e+000	 8.618990454989923e+000
 9.768116626792683e-001	 3.412966301560131e+000	 8.880794592560990e+000
 9.436855827918899e-001	 3.422273735507152e+000	 8.854733709890766e+000
 9.105557507368421e-001	 3.431237127436225e+000	 8.829673013066996e+000
 8.774271511501822e-001	 3.439857786931272e+000	 8.805218540911755e+000
 8.443047167409272e-001	 3.448137112292919e+000	 8.781018768151748e+000
 8.111933265207124e-001	 3.456076588690030e+000	 8.756765176879487e+000
 7.780978041011298e-001	 3.463677786275902e+000	 8.732192713654277e+000
 7.450229160592590e-001	 3.470942358271658e+000	 8.707080133597877e+000
 7.119733703718022e-001	 3.477872039019490e+000	 8.681250233127662e+000
 6.789538149181272e-001	 3.484468642008293e+000	 8.654569973247106e+000
 6.459688360524208e-001	 3.490734057874272e+000	 8.626950495577528e+000
 9.836906180474517e-001	 3.437001275514286e+000	 8.886409041851325e+000
 9.503312559075080e-001	 3.446374254771155e+000	 8.858773024288444e+000
 9.169681151762193e-001	 3.455400769178916e+000	 8.832734333541012e+000
 8.836062155927121e-001	 3.464082137543915e+000	 8.807874526016038e+000
 8.502505246033911e-001	 3.472419768013961e+000	 8.783817844873935e+000
 8.169059555791284e-001	 3.480415156216863e+000	 8.760231835012373e+000
 7.835773661006110e-001	 3.488069883363327e+000	 8.736827841466203e+000
 7.502695563123625e-001	 3.495385614316883e+000	 8.713361392549635e+000
 7.169872673458503e-001	 3.502364095633400e+000	 8.689632469363597e+000
 6.837351798119865e-001	 3.509007153572822e+000	 8.665485663576005e+000
 6.505179123632263e-001	 3.515316692085695e+000	 8.640810225650631e+000
 9.905695734161415e-001	 3.461036249468935e+000	 8.894586352893436e+000
 9.569769290237222e-001	 3.470474774035552e+000	 8.865861317730962e+000
 9.233804796162610e-001	 3.479564410921900e+000	 8.839296396339224e+000
 8.897852800359551e-001	 3.488306488156749e+000	 8.814448210255698e+000
 8.561963324665967e-001	 3.496702423735099e+000	 8.790916355100931e+000
 8.226185846382941e-001	 3.504753723743687e+000	 8.768344059230987e+000
 7.890569281008298e-001	 3.512461980450645e+000	 8.746418723520860e+000
 7.555161965661715e-001	 3.519828870361901e+000	 8.724872343578133e+000
 7.220011643205525e-001	 3.526856152247003e+000	 8.703481815991150e+000
 6.885165447064289e-001	 3.533545665136944e+000	 8.682069130506736e+000
 6.550669886745246e-001	 3.539899326296611e+000	 8.660501450309837e+000
 9.974485287853375e-001	 3.485071223424078e+000	 8.905195505299764e+000
 9.636226021405323e-001	 3.494575293300343e+000	 8.875872406810247e+000
 9.297928440569677e-001	 3.503728052665179e+000	 8.849238174738135e+000
 8.959643444799118e-001	 3.512530838769779e+000	 8.824824034962752e+000
 8.621421403305437e-001	 3.520985079456329e+000	 8.802204511247453e+000
 8.283312136982091e-001	 3.529092291270506e+000	 8.780998127715897e+000
 7.945364901017862e-001	 3.536854077537855e+000	 8.760867990113111e+000
 7.607628368206867e-001	 3.544272126406713e+000	 8.741522247124287e+000
 7.270150612959087e-001	 3.551348208860298e+000	 8.722714433338318e+000
 6.932979096014542e-001	 3.558084176700659e+000	 8.704243695740429e+000
 6.596160649863155e-001	 3.564481960507018e+000	 8.685954905902205e+000
 1.004327484155040e+000	 3.509106197379714e+000	 8.918104018211141e+000
 9.702682752579384e-001	 3.518675812565526e+000	 8.888678741583311e+000
 9.362052084983391e-001	 3.527891694408750e+000	 8.862437357889061e+000
 9.021434089245815e-001	 3.536755189383000e+000	 8.838885228280258e+000
 8.680879481952324e-001	 3.545267735177653e+000	 8.817571372061510e+000
 8.340438427588738e-001	 3.553430858797317e+000	 8.798089213155256e+000
 8.000160521034800e-001	 3.561246174624960e+000	 8.780077202942696e+000
 7.660094770759071e-001	 3.568715382451315e+000	 8.763219320731118e+000
 7.320289582719192e-001	 3.575840265473287e+000	 8.747245453415474e+000
 6.980792744970626e-001	 3.582622688263966e+000	 8.731931656211135e+000
 6.641651412985992e-001	 3.589064594716919e+000	 8.717100296622496e+000
 1.011206439525248e+000	 3.533141171335845e+000	 8.933177999972711e+000
 9.769139483759403e-001	 3.542776331831105e+000	 8.904151452052760e+000
 9.426175729403755e-001	 3.552055336152616e+000	 8.878770394495536e+000
 9.083224733699647e-001	 3.560979539996417e+000	 8.856513846426982e+000
 8.740337560606624e-001	 3.569550390899068e+000	 8.836904881865056e+000
 8.397564718202881e-001	 3.577769426324122e+000	 8.819511420346503e+000
 8.054956141059113e-001	 3.585638271711957e+000	 8.803946891460933e+000
 7.712561173318331e-001	 3.593158638495711e+000	 8.789870774516521e+000
 7.370428552485837e-001	 3.600332322085969e+000	 8.776989014892068e+000
 7.028606393932541e-001	 3.607161199826867e+000	 8.765054318942127e+000
 6.687142176113755e-001	 3.613647228926312e+000	 8.753866329620340e+000
 1.018085394895963e+000	 3.557176145292468e+000	 8.950282195796021e+000
 9.835596214945382e-001	 3.566876851097076e+000	 8.922160392763669e+000
 9.490299373830770e-001	 3.576218977896776e+000	 8.898112534720710e+000
 9.145015378160616e-001	 3.585203890610027e+000	 8.877590813289908e+000
 8.799795639268342e-001	 3.593833046620580e+000	 8.860091908203177e+000
 8.454691008824514e-001	 3.602107993850920e+000	 8.845157822273940e+000
 8.109751761090801e-001	 3.610030368798847e+000	 8.832376587744019e+000
 7.765027575884650e-001	 3.617601894539902e+000	 8.821382845208053e+000
 7.420567522259022e-001	 3.624824378698342e+000	 8.811858296655414e+000
 7.076420042900284e-001	 3.631699711389360e+000	 8.803532034488550e+000
 6.732632939246444e-001	 3.638229863135198e+000	 8.796180748684307e+000
 1.024964350267184e+000	 3.581211119249587e+000	 8.969280033501772e+000
 9.902052946137315e-001	 3.590977370363441e+000	 8.942574185603633e+000
 9.554423018264432e-001	 3.600382619641227e+000	 8.920337870406545e+000
 9.206806022628717e-001	 3.609428241223828e+000	 8.901995958421425e+000
 8.859253717937474e-001	 3.618115702342184e+000	 8.887018277977859e+000
 8.511817299453649e-001	 3.626446561377710e+000	 8.874920494733209e+000
 8.164547381129864e-001	 3.634422465885629e+000	 8.865264859961899e+000
 7.817493978458024e-001	 3.642045150583884e+000	 8.857660828806832e+000
 7.470706492038749e-001	 3.649316435310410e+000	 8.851765550018193e+000
 7.124233691873859e-001	 3.656238222951445e+000	 8.847284229033862e+000
 6.778123702384060e-001	 3.662812497343578e+000	 8.843970366569282e+000
 1.031843305638912e+000	 3.605246093207198e+000	 8.990033667432664e+000
 9.968509677335214e-001	 3.615077889630200e+000	 8.965260260891830e+000
 9.618546662704745e-001	 3.624546261385974e+000	 8.945319373684621e+000
 9.268596667103954e-001	 3.633652591837827e+000	 8.929608053517523e+000
 8.918711796614026e-001	 3.642398358063882e+000	 8.917568812135933e+000
 8.568943590090278e-001	 3.650785128904495e+000	 8.908690549570814e+000
 8.219343001176305e-001	 3.658814562972306e+000	 8.902509344508539e+000
 7.869960381038458e-001	 3.666488406627660e+000	 8.898609111945147e+000
 7.520845461825019e-001	 3.673808491922170e+000	 8.896622129637590e+000
 7.172047340853268e-001	 3.680776734513124e+000	 8.896229435202228e+000
 6.823614465526605e-001	 3.687395131551449e+000	 8.897161096031145e+000
 6.368706834322875e-001	 3.441568789449906e+000	 8.616997191864178e+000
 6.043888310856980e-001	 3.447421375580705e+000	 8.529574027521161e+000
 5.719499245828054e-001	 3.452951387398861e+000	 8.490515328067982e+000
 5.395582959415586e-001	 3.458160905057220e+000	 8.453322201765355e+000
 5.072182115723986e-001	 3.463052076687237e+000	 8.418772759975209e+000
 4.749338712109150e-001	 3.467627116341299e+000	 8.387604003568969e+000
 4.427094069178876e-001	 3.471888301924910e+000	 8.360510720889625e+000
 4.105488821462868e-001	 3.475837973121044e+000	 8.338144508586032e+000
 3.784562908747218e-001	 3.479478529308901e+000	 8.321112914324106e+000
 3.464355568067571e-001	 3.482812427479281e+000	 8.309978700073184e+000
 3.144905326354376e-001	 3.485842180148714e+000	 8.305259224374183e+000
 6.414197597421077e-001	 3.466151423662343e+000	 8.618990454989923e+000
 6.087058941651441e-001	 3.472045813979897e+000	 8.522839334290554e+000
 5.760352811877797e-001	 3.477615325882537e+000	 8.492182330227726e+000
 5.434122837709494e-001	 3.482862054381338e+000	 8.462189951412306e+000
 5.108411987994559e-001	 3.487788162951552e+000	 8.433698464521259e+000
 4.783262560070006e-001	 3.492395881460230e+000	 8.407502385212801e+000
 4.458716169690854e-001	 3.496687504083628e+000	 8.384353307343066e+000
 4.134813741633447e-001	 3.500665387216742e+000	 8.364958858505393e+000
 3.811595500968081e-001	 3.504331947377194e+000	 8.349981780921231e+000
 3.489100964994951e-001	 3.507689659105719e+000	 8.340039136395069e+000
 3.167368935836879e-001	 3.510741052865397e+000	 8.335701633745575e+000
 6.459688360524208e-001	 3.490734057874272e+000	 8.626950495577528e+000
 6.130229572449885e-001	 3.496670252378494e+000	 8.521984478514645e+000
 5.801206377930676e-001	 3.502279264365547e+000	 8.499253507588284e+000
 5.472662716005796e-001	 3.507563203704741e+000	 8.476001431596560e+000
 5.144641860266883e-001	 3.512524249215126e+000	 8.453123303238808e+000
 4.817186408032080e-001	 3.517164646578413e+000	 8.431471758199423e+000
 4.490338270203604e-001	 3.521486706241609e+000	 8.411855775132265e+000
 4.164138661804459e-001	 3.525492801311734e+000	 8.395039565473418e+000
 3.838628093189135e-001	 3.529185365444833e+000	 8.381741592135757e+000
 3.513846361922379e-001	 3.532566890731576e+000	 8.372633715810594e+000
 3.189832545319382e-001	 3.535639925581587e+000	 8.368340467293820e+000
 6.505179123632263e-001	 3.515316692085695e+000	 8.640810225650631e+000
 6.173400203252304e-001	 3.521294690776494e+000	 8.527277368593063e+000
 5.842059943986689e-001	 3.526943202847890e+000	 8.511976585359887e+000
 5.511202594304491e-001	 3.532264353027429e+000	 8.494984016813827e+000
 5.180871732540961e-001	 3.537260335477959e+000	 8.477254146311397e+000
 4.851110255995365e-001	 3.541933411695844e+000	 8.459698348566999e+000
 4.521960370717128e-001	 3.546285908398853e+000	 8.443183579907027e+000
 4.193463581975906e-001	 3.550320215406021e+000	 8.428531201914325e+000
 3.865660685410383e-001	 3.554038783511820e+000	 8.416515937539721e+000
 3.538591758849856e-001	 3.557444122356851e+000	 8.407864958419223e+000
 3.212296154801886e-001	 3.560538798297287e+000	 8.403257101817554e+000
 6.550669886745246e-001	 3.539899326296611e+000	 8.660501450309837e+000
 6.216570834058705e-001	 3.545919129173898e+000	 8.538984986767623e+000
 5.882913510045833e-001	 3.551607141329567e+000	 8.530598550246456e+000
 5.549742472605577e-001	 3.556965502349405e+000	 8.519364537453491e+000
 5.217101604816790e-001	 3.561996421740048e+000	 8.506297520824045e+000
 4.885034103959862e-001	 3.566702176812527e+000	 8.492368246728683e+000
 4.553582471231428e-001	 3.571085110555360e+000	 8.478502255487834e+000
 4.222788502147787e-001	 3.575147629499603e+000	 8.465578638395590e+000
 3.892693277631822e-001	 3.578892201578152e+000	 8.454428930851432e+000
 3.563337155777379e-001	 3.582321353981542e+000	 8.445836140352061e+000
 3.234759764284389e-001	 3.585437671012494e+000	 8.440533907766412e+000
 6.596160649863155e-001	 3.564481960507018e+000	 8.685954905902205e+000
 6.259741464869081e-001	 3.570543567570702e+000	 8.560909153706868e+000
 5.923767076108115e-001	 3.576271079810580e+000	 8.555365675911258e+000
 5.588282350909055e-001	 3.581666651670665e+000	 8.549369298560913e+000
 5.253331477094372e-001	 3.586732508001397e+000	 8.540459622594163e+000
 4.918957951925573e-001	 3.591470941928460e+000	 8.529667412149358e+000
 4.585204571746501e-001	 3.595884312711128e+000	 8.517977411170392e+000
 4.252113422320101e-001	 3.599975043592480e+000	 8.506327033347201e+000
 3.919725869853454e-001	 3.603745619643832e+000	 8.495605191861277e+000
 3.588082552704951e-001	 3.607198585605654e+000	 8.486651267701783e+000
 3.257223373766892e-001	 3.610336543727210e+000	 8.480254214977109e+000
 6.641651412985992e-001	 3.589064594716919e+000	 8.717100296622496e+000
 6.302912095683438e-001	 3.595168005966912e+000	 8.601371906156935e+000
 5.964620642173529e-001	 3.600935018290926e+000	 8.586523547396421e+000
 5.626822229214927e-001	 3.606367800991213e+000	 8.585224097828451e+000
 5.289561349373706e-001	 3.611468594262003e+000	 8.579946327516391e+000
 4.952881799892498e-001	 3.616239707043643e+000	 8.571781677830142e+000
 4.616826672262346e-001	 3.620683514866160e+000	 8.561774729140792e+000
 4.281438342492851e-001	 3.624802457684653e+000	 8.550921823203305e+000
 3.946758462075277e-001	 3.628599037708858e+000	 8.540169829100732e+000
 3.612827949632569e-001	 3.632075817229181e+000	 8.530415051524198e+000
 3.279686983249396e-001	 3.635235416441434e+000	 8.522502279817806e+000
 6.687142176113755e-001	 3.613647228926312e+000	 8.753866329620340e+000
 6.346082726501774e-001	 3.619792444362524e+000	 8.647914445461224e+000
 6.005474208242082e-001	 3.625598956770607e+000	 8.624317084545004e+000
 5.665362107523191e-001	 3.631068950311045e+000	 8.627154242852695e+000
 5.325791221654793e-001	 3.636204680521867e+000	 8.624963202444226e+000
 4.986805647860634e-001	 3.641008472158077e+000	 8.618896754610013e+000
 4.648448772778966e-001	 3.645482717020455e+000	 8.610059961996161e+000
 4.310763262666033e-001	 3.649629871776119e+000	 8.599508712946363e+000
 3.973791054297293e-001	 3.653452455773231e+000	 8.588248423218202e+000
 3.637573346560238e-001	 3.656953048852127e+000	 8.577232883859500e+000
 3.302150592731899e-001	 3.660134289155166e+000	 8.567363253673392e+000
 6.732632939246444e-001	 3.638229863135198e+000	 8.796180748684307e+000
 6.389253357324087e-001	 3.644416882757539e+000	 8.700465846461997e+000
 6.046327774313762e-001	 3.650262895249622e+000	 8.668990564474305e+000
 5.703901985833847e-001	 3.655770099630165e+000	 8.675384567691420e+000
 5.362021093937632e-001	 3.660940766780990e+000	 8.675715515630701e+000
 5.020729495829986e-001	 3.665777237271762e+000	 8.671198235292758e+000
 4.680070873296361e-001	 3.670281919174012e+000	 8.662998930366081e+000
 4.340088182839650e-001	 3.674457285866882e+000	 8.652233667034345e+000
 4.000823646519501e-001	 3.678305873836950e+000	 8.639967011029455e+000
 3.662318743487953e-001	 3.681830280474491e+000	 8.627210814726430e+000
 3.324614202214402e-001	 3.685033161868407e+000	 8.614923152708437e+000
 6.778123702384060e-001	 3.662812497343578e+000	 8.843970366569282e+000
 6.432423988150381e-001	 3.669041321151957e+000	 8.758954405009616e+000
 6.087181340388583e-001	 3.674926833727972e+000	 8.720787643143522e+000
 5.742441864146897e-001	 3.680471248948570e+000	 8.730139448754448e+000
 5.398250966222223e-001	 3.685676853039370e+000	 8.732408246748429e+000
 5.054653343800549e-001	 3.690546002384696e+000	 8.728871598607920e+000
 4.711692973814530e-001	 3.695081121326833e+000	 8.720757520629594e+000
 4.369413103013700e-001	 3.699284699956938e+000	 8.709242900693823e+000
 4.027856238741904e-001	 3.703159291900017e+000	 8.695452070209715e+000
 3.687064140415716e-001	 3.706707512096273e+000	 8.680455530042213e+000
 3.347077811696906e-001	 3.709932034581156e+000	 8.665268828847738e+000
 6.823614465526605e-001	 3.687395131551449e+000	 8.897161096031145e+000
 6.475594618980655e-001	 3.693665759545780e+000	 8.823307663928803e+000
 6.128034906466536e-001	 3.699590772205656e+000	 8.779951376059337e+000
 5.780981742462338e-001	 3.705172398266261e+000	 8.791642820058327e+000
 5.434480838508567e-001	 3.710412939297010e+000	 8.795246096509072e+000
 5.088577191772328e-001	 3.715314767496883e+000	 8.792102213013271e+000
 4.743315074333473e-001	 3.719880323478916e+000	 8.783501682723429e+000
 4.398738023188186e-001	 3.724112114046291e+000	 8.770682871560727e+000
 4.054888830964497e-001	 3.728012709962431e+000	 8.754830504598576e+000
 3.711809537343529e-001	 3.731584743717474e+000	 8.737074330426058e+000
 3.369541421179410e-001	 3.734830907293413e+000	 8.718487941917628e+000
 3.144905326354376e-001	 3.485842180148714e+000	 8.305259224374183e+000
 2.826249993720412e-001	 3.488570353274702e+000	 8.275336606863341e+000
 2.508426657390410e-001	 3.490999564173347e+000	 8.246587633553549e+000
 2.191471676259100e-001	 3.493132479441893e+000	 8.219507583369632e+000
 1.875420676063174e-001	 3.494971812888549e+000	 8.194548259916475e+000
 1.560308545165396e-001	 3.496520323470751e+000	 8.172117747765304e+000
 1.246169430937966e-001	 3.497780813243908e+000	 8.152580274049702e+000
 9.330367367343673e-002	 3.498756125322376e+000	 8.136256172422060e+000
 6.209431194385126e-002	 3.499449141854330e+000	 8.123421946248429e+000
 3.099204875795090e-002	 3.499862782012171e+000	 8.114310427763124e+000
 0.000000000000000e+000	 3.500000000000000e+000	 8.109111029763941e+000
 3.167368935836879e-001	 3.510741052865397e+000	 8.335701633745575e+000
 2.846437493679849e-001	 3.513488712942027e+000	 8.307043772255621e+000
 2.526343990658300e-001	 3.515935275346863e+000	 8.279669867589442e+000
 2.207125045373342e-001	 3.518083425724269e+000	 8.254112780479916e+000
 1.888816538031211e-001	 3.519935897266798e+000	 8.230860356964824e+000
 1.571453606197253e-001	 3.521495468638728e+000	 8.210355167937376e+000
 1.255070641153461e-001	 3.522764961910145e+000	 8.192994357279597e+000
 9.397012848486949e-002	 3.523747240503367e+000	 8.179129595551894e+000
 6.253784274303140e-002	 3.524445207153342e+000	 8.169067136035984e+000
 3.121342053454833e-002	 3.524861801883700e+000	 8.163067969765535e+000
 0.000000000000000e+000	 3.525000000000000e+000	 8.161348076034750e+000
 3.189832545319382e-001	 3.535639925581587e+000	 8.368340467293820e+000
 2.866624993639287e-001	 3.538407072608955e+000	 8.340515078301126e+000
 2.544261323926189e-001	 3.540870986520065e+000	 8.314092693322445e+000
 2.222778414487585e-001	 3.543034372006405e+000	 8.289644304895859e+000
 1.902212399999247e-001	 3.544899981644873e+000	 8.267694327118154e+000
 1.582598667229110e-001	 3.546470613806583e+000	 8.248720318248862e+000
 1.263971851368957e-001	 3.547749110576306e+000	 8.233152815217334e+000
 9.463658329630222e-002	 3.548738355684315e+000	 8.221375276929960e+000
 6.298137354221153e-002	 3.549441272452333e+000	 8.213724133090594e+000
 3.143479231114575e-002	 3.549860821755224e+000	 8.210488935081290e+000
 0.000000000000000e+000	 3.549999999999999e+000	 8.211912605301778e+000
 3.212296154801886e-001	 3.560538798297287e+000	 8.403257101817554e+000
 2.886812493598724e-001	 3.563325432275487e+000	 8.375813090764561e+000
 2.562178657194078e-001	 3.565806697692955e+000	 8.349900051710337e+000
 2.238431783601827e-001	 3.567985318288303e+000	 8.326127667710859e+000
 1.915608261967285e-001	 3.569864066022773e+000	 8.305057454945208e+000
 1.593743728260967e-001	 3.571445758974316e+000	 8.287202468159233e+000
 1.272873061584453e-001	 3.572733259242388e+000	 8.273027121382064e+000
 9.530303810773495e-002	 3.573729470865220e+000	 8.262947120733680e+000
 6.342490434139166e-002	 3.574437337751306e+000	 8.257329505951550e+000
 3.165616408774319e-002	 3.574859841626742e+000	 8.256492797095524e+000
 0.000000000000000e+000	 3.574999999999999e+000	 8.260707242735267e+000
 3.234759764284389e-001	 3.585437671012494e+000	 8.440533907766412e+000
 2.906999993558162e-001	 3.588243791941620e+000	 8.413001545778117e+000
 2.580095990461968e-001	 3.590742408865532e+000	 8.387137229696448e+000
 2.254085152716069e-001	 3.592936264569963e+000	 8.363589900466636e+000
 1.929004123935321e-001	 3.594828150400498e+000	 8.342958718714403e+000
 1.604888789292823e-001	 3.596420904141930e+000	 8.325792752813932e+000
 1.281774271799948e-001	 3.597717407908394e+000	 8.312590785647670e+000
 9.596949291916773e-002	 3.598720586046082e+000	 8.303801236795211e+000
 6.386843514057181e-002	 3.599433403050262e+000	 8.299822196694763e+000
 3.187753586434061e-002	 3.599858861498256e+000	 8.301001569145820e+000
 0.000000000000000e+000	 3.600000000000000e+000	 8.307637318361861e+000
 3.257223373766892e-001	 3.610336543727210e+000	 8.480254214977109e+000
 2.927187493517600e-001	 3.613162151607358e+000	 8.452145309483752e+000
 2.598013323729857e-001	 3.615678120037797e+000	 8.425850813796389e+000
 2.269738521830311e-001	 3.617887210851384e+000	 8.402059502723866e+000
 1.942399985903358e-001	 3.619792234778049e+000	 8.381408731990449e+000
 1.616033850324680e-001	 3.621396049309423e+000	 8.364484108710705e+000
 1.290675482015443e-001	 3.622701556574323e+000	 8.351819284023781e+000
 9.663594773060046e-002	 3.623711701226900e+000	 8.343895864544432e+000
 6.431196593975193e-002	 3.624429468349195e+000	 8.341143439086824e+000
 3.209890764093804e-002	 3.624857881369765e+000	 8.343939716937896e+000
 0.000000000000000e+000	 3.625000000000000e+000	 8.352610773793753e+000
 3.279686983249396e-001	 3.635235416441434e+000	 8.522502279817806e+000
 2.947374993477037e-001	 3.638080511272698e+000	 8.493310339334599e+000
 2.615930656997746e-001	 3.640613831209749e+000	 8.466088645592169e+000
 2.285391890944554e-001	 3.642838157132565e+000	 8.441566391787454e+000
 1.955795847871396e-001	 3.644756319155425e+000	 8.420419687631128e+000
 1.627178911356537e-001	 3.646371194476796e+000	 8.403271212009118e+000
 1.299576692230939e-001	 3.647685705240174e+000	 8.390689991322144e+000
 9.730240254203321e-002	 3.648702816407676e+000	 8.383191300077444e+000
 6.475549673893206e-002	 3.649425533648111e+000	 8.381236680102189e+000
 3.232027941753547e-002	 3.649856901241270e+000	 8.385234074560247e+000
 0.000000000000000e+000	 3.650000000000000e+000	 8.395538072790583e+000
 3.302150592731899e-001	 3.660134289155166e+000	 8.567363253673392e+000
 2.967562493436475e-001	 3.662998870937642e+000	 8.536563646975173e+000
 2.633847990265636e-001	 3.665549542381390e+000	 8.507899779042761e+000
 2.301045260058796e-001	 3.667789103413511e+000	 8.482141854484095e+000
 1.969191709839432e-001	 3.669720403532626e+000	 8.460005304069732e+000
 1.638323972388393e-001	 3.671346339644046e+000	 8.442150419358685e+000
 1.308477902446434e-001	 3.672669853905949e+000	 8.429182116571681e+000
 9.796885735346593e-002	 3.673693931588407e+000	 8.421649826202089e+000
 6.519902753811220e-002	 3.674421598947008e+000	 8.420047504644124e+000
 3.254165119413290e-002	 3.674855921112771e+000	 8.424813763926982e+000
 0.000000000000000e+000	 3.675000000000000e+000	 8.436332115472389e+000
 3.324614202214402e-001	 3.685033161868407e+000	 8.614923152708437e+000
 2.987749993395912e-001	 3.687917230602189e+000	 8.581973262627088e+000
 2.651765323533525e-001	 3.690485253552716e+000	 8.551334439525583e+000
 2.316698629173039e-001	 3.692740049694216e+000	 8.523818500894683e+000
 1.982587571807470e-001	 3.694684487909653e+000	 8.500180773775449e+000
 1.649469033420251e-001	 3.696321484811176e+000	 8.481119711125221e+000
 1.317379112661929e-001	 3.697654002571646e+000	 8.467276641051624e+000
 9.863531216489868e-002	 3.698685046769096e+000	 8.459235645319049e+000
 6.564255833729234e-002	 3.699417664245885e+000	 8.457523563317531e+000
 3.276302297073033e-002	 3.699854940984265e+000	 8.462610117486424e+000
 0.000000000000000e+000	 3.699999999999999e+000	 8.474908156010001e+000
 3.347077811696906e-001	 3.709932034581156e+000	 8.665268828847738e+000
 3.007937493355350e-001	 3.712835590266338e+000	 8.629608200908367e+000
 2.669682656801414e-001	 3.715420964723729e+000	 8.596443984527033e+000
 2.332351998287282e-001	 3.717690995974683e+000	 8.566630219949623e+000
 1.995983433775506e-001	 3.719648572286506e+000	 8.540962713788950e+000
 1.660614094452107e-001	 3.721296629978186e+000	 8.520178636904060e+000
 1.326280322877425e-001	 3.722638151237267e+000	 8.504956258820062e+000
 9.930176697633145e-002	 3.723676161949743e+000	 8.495914815006161e+000
 6.608608913647246e-002	 3.724413729544744e+000	 8.493614503109770e+000
 3.298439474732776e-002	 3.724853960855755e+000	 8.498556604042014e+000
 0.000000000000000e+000	 3.724999999999999e+000	 8.511183723630040e+000
 3.369541421179410e-001	 3.734830907293413e+000	 8.718487941917628e+000
 3.028124993314788e-001	 3.737753949930092e+000	 8.679538428020413e+000
 2.687599990069305e-001	 3.740356675894433e+000	 8.643280865905421e+000
 2.348005367401525e-001	 3.742641942254912e+000	 8.610612136800640e+000
 2.009379295743544e-001	 3.744612656663185e+000	 8.582369118236805e+000
 1.671759155483964e-001	 3.746271775145075e+000	 8.559328263212176e+000
 1.335181533092921e-001	 3.747622299902811e+000	 8.542205319621299e+000
 9.996822178776421e-002	 3.748667277130346e+000	 8.531655186179307e+000
 6.652961993565264e-002	 3.749409794843583e+000	 8.528271900844949e+000
 3.320576652392519e-002	 3.749852980727242e+000	 8.532588757540527e+000
 0.000000000000000e+000	 3.750000000000000e+000	 8.545078546779713e+000
 3.750000000000000e+000	 0.000000000000000e+000	 1.052336414908196e+001
 3.749852980727241e+000	 3.320576652392414e-002	 1.055534631435879e+001
 3.749409794843583e+000	 6.652961993565168e-002	 1.058119605936163e+001
 3.748667277130346e+000	 9.996822178776336e-002	 1.060112867217243e+001
 3.747622299902811e+000	 1.335181533092913e-001	 1.061542501727328e+001
 3.746271775145075e+000	 1.671759155483958e-001	 1.062443228910548e+001
 3.744612656663185e+000	 2.009379295743539e-001	 1.062856463827883e+001
 3.742641942254912e+000	 2.348005367401521e-001	 1.062830366463365e+001
 3.740356675894433e+000	 2.687599990069302e-001	 1.062419877150804e+001
 3.737753949930092e+000	 3.028124993314787e-001	 1.061686737573712e+001
 3.734830907293414e+000	 3.369541421179410e-001	 1.060699496810944e+001
 3.775000000000000e+000	 0.000000000000000e+000	 1.052343266413800e+001
 3.774852000598727e+000	 3.342713830051917e-002	 1.055333822153721e+001
 3.774405860142423e+000	 6.697315073482224e-002	 1.057473794880703e+001
 3.773658392310948e+000	 1.006346765991745e-001	 1.058857593900940e+001
 3.772606448568354e+000	 1.344082743308024e-001	 1.059578582507091e+001
 3.771246920311963e+000	 1.682904216515211e-001	 1.059729029160206e+001
 3.769576741039862e+000	 2.022775157710703e-001	 1.059400063363722e+001
 3.767592888535142e+000	 2.363658736514571e-001	 1.058681636458521e+001
 3.765292387065135e+000	 2.705517323335628e-001	 1.057662487558454e+001
 3.762672309593844e+000	 3.048312493272240e-001	 1.056430114835016e+001
 3.759729780005671e+000	 3.392005030659454e-001	 1.055070752347872e+001
 3.800000000000000e+000	 0.000000000000000e+000	 1.052381448743550e+001
 3.799851020470218e+000	 3.364851007710944e-002	 1.055299495800873e+001
 3.799401925441280e+000	 6.741668153397368e-002	 1.057396084917806e+001
 3.798649507491594e+000	 1.013011314105425e-001	 1.058763671908059e+001
 3.797590597233975e+000	 1.352983953522363e-001	 1.059493551162752e+001
 3.796222065478973e+000	 1.694049277545255e-001	 1.059675807550355e+001
 3.794540825416714e+000	 2.036171019676120e-001	 1.059399273256139e+001
 3.792543834815608e+000	 2.379312105625235e-001	 1.058751489796508e+001
 3.790228098236149e+000	 2.723434656598829e-001	 1.057818675433478e+001
 3.787590669257994e+000	 3.068499993225723e-001	 1.056685698203450e+001
 3.784628652718419e+000	 3.414468640134583e-001	 1.055436054761913e+001
 3.824999999999999e+000	 0.000000000000000e+000	 1.052433644370715e+001
 3.824850040341712e+000	 3.386988185369495e-002	 1.055256781515195e+001
 3.824397990740157e+000	 6.786021233310595e-002	 1.057288852525021e+001
 3.823640622672282e+000	 1.019675862218672e-001	 1.058620346393419e+001
 3.822574745899673e+000	 1.361885163735931e-001	 1.059340473448390e+001
 3.821197210646104e+000	 1.705194338574090e-001	 1.059537117964687e+001
 3.819504909793741e+000	 2.049566881639791e-001	 1.059296795966059e+001
 3.817494781096314e+000	 2.394965474733515e-001	 1.058704618459492e+001
 3.815163809407477e+000	 2.741351989858903e-001	 1.057844260332767e+001
 3.812509028922541e+000	 3.088687493175237e-001	 1.056797935134971e+001
 3.809527525431660e+000	 3.436932249604792e-001	 1.055646375946679e+001
 3.850000000000000e+000	 0.000000000000000e+000	 1.052482985574460e+001
 3.849849060213212e+000	 3.409125363027569e-002	 1.055190626381535e+001
 3.849394056039055e+000	 6.830374313221913e-002	 1.057138872742737e+001
 3.848631737853014e+000	 1.026340410331487e-001	 1.058416232726029e+001
 3.847558894565447e+000	 1.370786373948729e-001	 1.059109816632039e+001
 3.846172355813354e+000	 1.716339399601717e-001	 1.059305290312354e+001
 3.844468994170942e+000	 2.062962743601716e-001	 1.059086833932089e+001
 3.842445727377257e+000	 2.410618843839409e-001	 1.058537106425020e+001
 3.840099520579115e+000	 2.759269323115852e-001	 1.057737215878646e+001
 3.837427388587484e+000	 3.108874993120781e-001	 1.056766696074492e+001
 3.834426398145392e+000	 3.459395859070087e-001	 1.055703489395481e+001
 3.875000000000000e+000	 0.000000000000000e+000	 1.052513039929962e+001
 3.874848080084717e+000	 3.431262540685167e-002	 1.055086390179432e+001
 3.874390121337971e+000	 6.874727393131318e-002	 1.056933310726480e+001
 3.873622853033790e+000	 1.033004958443871e-001	 1.058140313841006e+001
 3.872543043231299e+000	 1.379687584160757e-001	 1.058792393038229e+001
 3.871147500980726e+000	 1.727484460628135e-001	 1.058972977097782e+001
 3.869433078548318e+000	 2.076358605561895e-001	 1.058763889784438e+001
 3.867396673658440e+000	 2.426272212942919e-001	 1.058245315525340e+001
 3.865035231751068e+000	 2.777186656369675e-001	 1.057495771287388e+001
 3.862345748252824e+000	 3.129062493062355e-001	 1.056592084885724e+001
 3.859325270859617e+000	 3.481859468530463e-001	 1.055609379940454e+001
 3.900000000000000e+000	 0.000000000000000e+000	 1.052507796356632e+001
 3.899847099956226e+000	 3.453399718342289e-002	 1.054929832155723e+001
 3.899386186636904e+000	 6.919080473038806e-002	 1.056659709243235e+001
 3.898613968214608e+000	 1.039669506555822e-001	 1.057781928458620e+001
 3.897527191897228e+000	 1.388588794372013e-001	 1.058379348988470e+001
 3.896122646148219e+000	 1.738629521653345e-001	 1.058533143081077e+001
 3.894397162925869e+000	 2.089754467520327e-001	 1.058322756723372e+001
 3.892347619939861e+000	 2.441925582044043e-001	 1.057825876541792e+001
 3.889970942923332e+000	 2.795103989620373e-001	 1.057118403177084e+001
 3.887264107918562e+000	 3.149249992999960e-001	 1.056274431369798e+001
 3.884224143574332e+000	 3.504323077985923e-001	 1.055366236978875e+001
 3.924999999999999e+000	 0.000000000000000e+000	 1.052451651699495e+001
 3.924846119827740e+000	 3.475536895998933e-002	 1.054707098302665e+001
 3.924382251935859e+000	 6.963433552944384e-002	 1.056305976645599e+001
 3.923605083395470e+000	 1.046334054667341e-001	 1.057330759753554e+001
 3.922511340563234e+000	 1.397490004582499e-001	 1.057862154164410e+001
 3.921097791315832e+000	 1.749774582677347e-001	 1.057979055333574e+001
 3.919361247303594e+000	 2.103150329477013e-001	 1.057758509265404e+001
 3.917298566221521e+000	 2.457578951142783e-001	 1.057275680639554e+001
 3.914906654095911e+000	 2.813021322867944e-001	 1.056603827688623e+001
 3.912182467584696e+000	 3.169437492933596e-001	 1.055814284069807e+001
 3.909123016289540e+000	 3.526786687436464e-001	 1.054976447958353e+001
 3.949999999999999e+000	 0.000000000000000e+000	 1.052329397820162e+001
 3.949845139699260e+000	 3.497674073655101e-002	 1.054404709119149e+001
 3.949378317234833e+000	 7.007786632848050e-002	 1.055860375302608e+001
 3.948596198576375e+000	 1.052998602778429e-001	 1.056776824454448e+001
 3.947495489229316e+000	 1.406391214792214e-001	 1.057232591374927e+001
 3.946072936483568e+000	 1.760919643700140e-001	 1.057304273671028e+001
 3.944325331681494e+000	 2.116546191431953e-001	 1.057066494340874e+001
 3.942249512503419e+000	 2.473232320239136e-001	 1.056591871127646e+001
 3.939842365268800e+000	 2.830938656112389e-001	 1.055950992905836e+001
 3.937100827251227e+000	 3.189624992863261e-001	 1.055212403348594e+001
 3.934021889005238e+000	 3.549250296882090e-001	 1.054442592109406e+001
 3.974999999999999e+000	 0.000000000000000e+000	 1.052126209174916e+001
 3.974844159570782e+000	 3.519811251310792e-002	 1.054009547833755e+001
 3.974374382533824e+000	 7.052139712749800e-002	 1.055311510467161e+001
 3.973587313757323e+000	 1.059663150889084e-001	 1.056110462354772e+001
 3.972479637895476e+000	 1.415292425001158e-001	 1.056482746709345e+001
 3.971048081651422e+000	 1.772064704721724e-001	 1.056502641447812e+001
 3.969289416059570e+000	 2.129942053385146e-001	 1.056242322727480e+001
 3.967200458785555e+000	 2.488885689333105e-001	 1.055771835529879e+001
 3.964778076442002e+000	 2.848855989353708e-001	 1.055159071561711e+001
 3.962019186918156e+000	 3.209812492788958e-001	 1.054469754727749e+001
 3.958920761721430e+000	 3.571713906322798e-001	 1.053767434414558e+001
 4.000000000000000e+000	 0.000000000000000e+000	 1.051827630858633e+001
 3.999843179442312e+000	 3.541948428966008e-002	 1.053508849069472e+001
 3.999370447832837e+000	 7.096492792649639e-002	 1.054648319560882e+001
 3.998578428938315e+000	 1.066327698999308e-001	 1.055322326217067e+001
 3.997463786561714e+000	 1.424193635209331e-001	 1.055605000059935e+001
 3.996023226819399e+000	 1.783209765742101e-001	 1.055568276696337e+001
 3.994253500437819e+000	 2.143337915336594e-001	 1.055281860805043e+001
 3.992151405067931e+000	 2.504539058424689e-001	 1.054813197953146e+001
 3.989713787615519e+000	 2.866773322591902e-001	 1.054227454018093e+001
 3.986937546585482e+000	 3.229999992710685e-001	 1.053587502476401e+001
 3.983819634438112e+000	 3.594177515758590e-001	 1.052953919803578e+001
 3.734830907293414e+000	 3.369541421179410e-001	 1.060699496810944e+001
 3.731584743717474e+000	 3.711809537343518e-001	 1.062505388537851e+001
 3.728012709962430e+000	 4.054888830964488e-001	 1.064168584599271e+001
 3.724112114046291e+000	 4.398738023188178e-001	 1.065773675136357e+001
 3.719880323478916e+000	 4.743315074333467e-001	 1.067411879214458e+001
 3.715314767496882e+000	 5.088577191772322e-001	 1.069180972028332e+001
 3.710412939297010e+000	 5.434480838508565e-001	 1.071185194663902e+001
 3.705172398266262e+000	 5.780981742462337e-001	 1.073535146096788e+001
 3.699590772205657e+000	 6.128034906466537e-001	 1.076347657147211e+001
 3.693665759545780e+000	 6.475594618980656e-001	 1.073047088979613e+001
 3.687395131551449e+000	 6.823614465526605e-001	 1.067044221070115e+001
 3.759729780005671e+000	 3.392005030659454e-001	 1.055070752347872e+001
 3.756461975338673e+000	 3.736554934268418e-001	 1.056541110260224e+001
 3.752866128024844e+000	 4.081921423183815e-001	 1.057985851645768e+001
 3.748939528135643e+000	 4.428062943359137e-001	 1.059760931326609e+001
 3.744679525630999e+000	 4.774937174848724e-001	 1.062314464360514e+001
 3.740083532609068e+000	 5.122501039740350e-001	 1.064878240397267e+001
 3.735149025554649e+000	 5.470710710791201e-001	 1.067557642295896e+001
 3.729873547583952e+000	 5.819521620774207e-001	 1.070464609821177e+001
 3.724254710683340e+000	 6.168888472541161e-001	 1.073717513161649e+001
 3.718290197939601e+000	 6.518765249807944e-001	 1.070208299445768e+001
 3.711977765759320e+000	 6.869105228666610e-001	 1.065380126255957e+001
 3.784628652718419e+000	 3.414468640134583e-001	 1.055436054761913e+001
 3.781339206960455e+000	 3.761300331187450e-001	 1.056922009648518e+001
 3.777719546087910e+000	 4.108954015396415e-001	 1.058365975966576e+001
 3.773766942225699e+000	 4.457387863522611e-001	 1.059842492280160e+001
 3.769478727783819e+000	 4.806559275355834e-001	 1.061424685866999e+001
 3.764852297722003e+000	 5.156424887699673e-001	 1.063184287186803e+001
 3.759885111813029e+000	 5.506940583064662e-001	 1.065191651159454e+001
 3.754574696902358e+000	 5.858061499076546e-001	 1.067515785331248e+001
 3.748918649161690e+000	 6.209742038605993e-001	 1.070375543418290e+001
 3.742914636334019e+000	 6.561935880625284e-001	 1.066847399400954e+001
 3.736560399967698e+000	 6.914595991796617e-001	 1.063171776054887e+001
 3.809527525431660e+000	 3.436932249604792e-001	 1.055646375946679e+001
 3.806216438582819e+000	 3.786045728100612e-001	 1.057135928337864e+001
 3.802572964151630e+000	 4.135986607602289e-001	 1.058568434824908e+001
 3.798594356316461e+000	 4.486712783678601e-001	 1.060015103977264e+001
 3.794277929937377e+000	 4.838181375854797e-001	 1.061545647963260e+001
 3.789621062835688e+000	 5.190348735650284e-001	 1.063228300993462e+001
 3.784621198072153e+000	 5.543170455328956e-001	 1.065129844861892e+001
 3.779275846221477e+000	 5.896601377369354e-001	 1.067315641662987e+001
 3.773582587640705e+000	 6.250595604661036e-001	 1.069836900249916e+001
 3.767539074729035e+000	 6.605106511432676e-001	 1.065393445026158e+001
 3.761143034176585e+000	 6.960086754916621e-001	 1.061830931830994e+001
 3.834426398145392e+000	 3.459395859070087e-001	 1.055703489395481e+001
 3.831093670205765e+000	 3.810791125007904e-001	 1.057186576276922e+001
 3.827426382216002e+000	 4.163019199801439e-001	 1.058598873738242e+001
 3.823421770407928e+000	 4.516037703827104e-001	 1.060008230817644e+001
 3.819077132091672e+000	 4.869803476345614e-001	 1.061480913177809e+001
 3.814389827950121e+000	 5.224272583592187e-001	 1.063081625551240e+001
 3.809357284332017e+000	 5.579400327584078e-001	 1.064873541575533e+001
 3.803976995541311e+000	 5.935141255652630e-001	 1.066918341096180e+001
 3.798246526120385e+000	 6.291449170706286e-001	 1.068506935330489e+001
 3.792163513124647e+000	 6.648277142230122e-001	 1.064844571862983e+001
 3.785725668385978e+000	 7.005577518026629e-001	 1.062007500171087e+001
 3.859325270859617e+000	 3.481859468530463e-001	 1.055609379940454e+001
 3.855970901829293e+000	 3.835536521909328e-001	 1.057077852051420e+001
 3.852279800281029e+000	 4.190051791993864e-001	 1.058463104406567e+001
 3.848249184500100e+000	 4.545362623968124e-001	 1.059829595907033e+001
 3.843876334246704e+000	 4.901425576828286e-001	 1.061240113224689e+001
 3.839158593065305e+000	 5.258196431525382e-001	 1.062755797277140e+001
 3.834093370592623e+000	 5.615630199830028e-001	 1.064436177388865e+001
 3.828678144861858e+000	 5.973681133926372e-001	 1.066339213215838e+001
 3.822910464600731e+000	 6.332302736741744e-001	 1.067218763377243e+001
 3.816787951520856e+000	 6.691447773017618e-001	 1.064295403846802e+001
 3.810308302595879e+000	 7.051068281126635e-001	 1.062142356667176e+001
 3.884224143574332e+000	 3.504323077985923e-001	 1.055366236978875e+001
 3.880848133453403e+000	 3.860281918804883e-001	 1.056813836838098e+001
 3.877133218346708e+000	 4.217084384179562e-001	 1.058167099386029e+001
 3.873076598592977e+000	 4.574687544101659e-001	 1.059487061722759e+001
 3.868675536402473e+000	 4.933047677302811e-001	 1.060832997966308e+001
 3.863927358181238e+000	 5.292120279449869e-001	 1.062262449785700e+001
 3.858829456853970e+000	 5.651860072066808e-001	 1.063831264920554e+001
 3.853379294183119e+000	 6.012221012190582e-001	 1.065593643764324e+001
 3.847574403081743e+000	 6.373156302767411e-001	 1.065971025693991e+001
 3.841412389917662e+000	 6.734618403795167e-001	 1.063745336025600e+001
 3.834890936806286e+000	 7.096559044216639e-001	 1.062235637926394e+001
 3.909123016289540e+000	 3.526786687436464e-001	 1.054976447958353e+001
 3.905725365078095e+000	 3.885027315694568e-001	 1.056398788589698e+001
 3.901986636413041e+000	 4.244116976358535e-001	 1.057716986966114e+001
 3.897904012686559e+000	 4.604012464227709e-001	 1.058988625675152e+001
 3.893474738558979e+000	 4.964669777769189e-001	 1.060269431650749e+001
 3.888696123297921e+000	 5.326044127365646e-001	 1.061613310793533e+001
 3.883565543116061e+000	 5.688089944294418e-001	 1.063072390882182e+001
 3.878080443505093e+000	 6.050760890445261e-001	 1.064697072852901e+001
 3.872238341563422e+000	 6.414009868783286e-001	 1.064762398525307e+001
 3.866036828315065e+000	 6.777789034562769e-001	 1.063193779266530e+001
 3.859473571017202e+000	 7.142049807296647e-001	 1.062287477570661e+001
 3.934021889005238e+000	 3.549250296882090e-001	 1.054442592109406e+001
 3.930602596703371e+000	 3.909772712578384e-001	 1.055837136440793e+001
 3.926840054480028e+000	 4.271149568530782e-001	 1.057119046241384e+001
 3.922731426780848e+000	 4.633337384346274e-001	 1.058342415837513e+001
 3.918273940716222e+000	 4.996291878227421e-001	 1.059559389291983e+001
 3.913464888415353e+000	 5.359967975272714e-001	 1.060820199141414e+001
 3.908301629378892e+000	 5.724319816512854e-001	 1.062173213733517e+001
 3.902781592827782e+000	 6.089300768690406e-001	 1.063664993241201e+001
 3.896902280045765e+000	 6.454863434789371e-001	 1.063591591950806e+001
 3.890661266713064e+000	 6.820959665320422e-001	 1.062640159755308e+001
 3.884056205228624e+000	 7.187540570366653e-001	 1.062298006331153e+001
 3.958920761721430e+000	 3.571713906322798e-001	 1.053767434414558e+001
 3.955479828329226e+000	 3.934518109456330e-001	 1.055133475324712e+001
 3.951693472547667e+000	 4.298182160696304e-001	 1.056379702369174e+001
 3.947558840875840e+000	 4.662662304457354e-001	 1.057556686837216e+001
 3.943073142874203e+000	 5.027913978677507e-001	 1.058712953186645e+001
 3.938233653533534e+000	 5.393891823171073e-001	 1.059895021928741e+001
 3.933037715642466e+000	 5.760549688722120e-001	 1.061147461426305e+001
 3.927482742151185e+000	 6.127840646926019e-001	 1.062512948681610e+001
 3.921566218528774e+000	 6.495717000785662e-001	 1.062457348821152e+001
 3.915285705111661e+000	 6.864130296068129e-001	 1.062083918514495e+001
 3.908638839440555e+000	 7.233031333426659e-001	 1.062267352139212e+001
 3.983819634438112e+000	 3.594177515758590e-001	 1.052953919803578e+001
 3.980357059955668e+000	 3.959263506328409e-001	 1.054292560792326e+001
 3.976546890615960e+000	 4.325214752855102e-001	 1.055505522005134e+001
 3.972386254971538e+000	 4.691987224560951e-001	 1.056639815900897e+001
 3.967872345032923e+000	 5.059536079119449e-001	 1.057740309561467e+001
 3.963002418652466e+000	 5.427815671060726e-001	 1.058849771755450e+001
 3.957773801906782e+000	 5.796779560922218e-001	 1.060008929232627e+001
 3.952183891475304e+000	 6.166380525152102e-001	 1.061256532325752e+001
 3.946230157012451e+000	 6.536570566772164e-001	 1.061358443733957e+001
 3.939910143510855e+000	 6.907300926805887e-001	 1.061524510939843e+001
 3.933221473652993e+000	 7.278522096476667e-001	 1.062195640213829e+001
 3.687395131551449e+000	 6.823614465526605e-001	 1.067044221070115e+001
 3.680776734513125e+000	 7.172047340853256e-001	 1.069324255373470e+001
 3.673808491922170e+000	 7.520845461825008e-001	 1.071379040033372e+001
 3.666488406627661e+000	 7.869960381038451e-001	 1.073204939488743e+001
 3.658814562972306e+000	 8.219343001176299e-001	 1.074799577522772e+001
 3.650785128904496e+000	 8.568943590090274e-001	 1.076161914727957e+001
 3.642398358063881e+000	 8.918711796614022e-001	 1.077292325276492e+001
 3.633652591837826e+000	 9.268596667103952e-001	 1.078192672759018e+001
 3.624546261385974e+000	 9.618546662704745e-001	 1.078866384849218e+001
 3.615077889630201e+000	 9.968509677335217e-001	 1.079318526547039e+001
 3.605246093207198e+000	 1.031843305638912e+000	 1.079555871749155e+001
 3.711977765759320e+000	 6.869105228666610e-001	 1.065380126255957e+001
 3.705315246074803e+000	 7.219860989830625e-001	 1.067726385574769e+001
 3.698300548533930e+000	 7.570984431609740e-001	 1.069837774854777e+001
 3.690931662671435e+000	 7.922426783617845e-001	 1.071711134695440e+001
 3.683206660058982e+000	 8.274138621222202e-001	 1.073344610887581e+001
 3.675123696431280e+000	 8.626069880726868e-001	 1.074737733327820e+001
 3.666681013785579e+000	 8.978169875291037e-001	 1.075891494195750e+001
 3.657876942451823e+000	 9.330387311580154e-001	 1.076808425151490e+001
 3.648709903130722e+000	 9.682670307146525e-001	 1.077492673305842e+001
 3.639178408896960e+000	 1.003496640853508e+000	 1.077950075710371e+001
 3.629281067164810e+000	 1.038722261010886e+000	 1.078188232110632e+001
 3.736560399967698e+000	 6.914595991796617e-001	 1.063171776054887e+001
 3.729853757636888e+000	 7.267674638798090e-001	 1.065629717562900e+001
 3.722792605145995e+000	 7.621123401384855e-001	 1.067842770422146e+001
 3.715374918715417e+000	 7.974893186188111e-001	 1.069808218322910e+001
 3.707598757145765e+000	 8.328934241259660e-001	 1.071524696253986e+001
 3.699462263958071e+000	 8.683196171355897e-001	 1.072992270915933e+001
 3.690963669507181e+000	 9.037627953961570e-001	 1.074212520354806e+001
 3.682101293065625e+000	 9.392177956051157e-001	 1.075188612568700e+001
 3.672873544875174e+000	 9.746793951584591e-001	 1.075925382833828e+001
 3.663278928163324e+000	 1.010142313973292e+000	 1.076429409491984e+001
 3.653316041121927e+000	 1.045601216382847e+000	 1.076709087937062e+001
 3.761143034176585e+000	 6.960086754916621e-001	 1.061830931830994e+001
 3.754392269199381e+000	 7.315488287755653e-001	 1.063543760399822e+001
 3.747284661758370e+000	 7.671262371150364e-001	 1.065401388752086e+001
 3.739818174759607e+000	 8.027359588749252e-001	 1.067503343983014e+001
 3.731990854232656e+000	 8.383729861288675e-001	 1.069346771951577e+001
 3.723800831484868e+000	 8.740322461977365e-001	 1.070932243629580e+001
 3.715246325228692e+000	 9.097086032625619e-001	 1.072261890763008e+001
 3.706325643679236e+000	 9.453968600516962e-001	 1.073339485937946e+001
 3.697037186619333e+000	 9.810917596018945e-001	 1.074170521313212e+001
 3.687379447429297e+000	 1.016787987092875e+000	 1.074762285755947e+001
 3.677351015078551e+000	 1.052480171754797e+000	 1.075123940112198e+001
 3.785725668385978e+000	 7.005577518026629e-001	 1.062007500171087e+001
 3.778930780762281e+000	 7.363301936703310e-001	 1.063549303181471e+001
 3.771776718371052e+000	 7.721401340906254e-001	 1.064959474115248e+001
 3.764261430804003e+000	 8.079825991301265e-001	 1.066239652323079e+001
 3.756382951319652e+000	 8.438525481309244e-001	 1.067391449851710e+001
 3.748139399011674e+000	 8.797448752591269e-001	 1.068564434047566e+001
 3.739528980950109e+000	 9.156544111283189e-001	 1.070046172844252e+001
 3.730549994292651e+000	 9.515759244977564e-001	 1.071267390569190e+001
 3.721200828363198e+000	 9.875041240449586e-001	 1.072234204963866e+001
 3.711479966694875e+000	 1.023433660212255e+000	 1.072954584646304e+001
 3.701385989034681e+000	 1.059359127126733e+000	 1.073438425716724e+001
 3.810308302595879e+000	 7.051068281126635e-001	 1.062142356667176e+001
 3.803469292325589e+000	 7.411115585641065e-001	 1.063535868077788e+001
 3.796268774984041e+000	 7.771540310652531e-001	 1.064801011945554e+001
 3.788704686848607e+000	 8.132292393844148e-001	 1.065940615729025e+001
 3.780775048406757e+000	 8.493321101321369e-001	 1.066957494533468e+001
 3.772477966538484e+000	 8.854575043197605e-001	 1.067854447473791e+001
 3.763811636671432e+000	 9.216002189934276e-001	 1.068634254083339e+001
 3.754774344905874e+000	 9.577549889432976e-001	 1.069299670777274e+001
 3.745364470106771e+000	 9.939164884876515e-001	 1.070122654850667e+001
 3.735580485960057e+000	 1.030079333331432e+000	 1.071012304642565e+001
 3.725420962990317e+000	 1.066238082498657e+000	 1.071658313634804e+001
 3.834890936806286e+000	 7.096559044216639e-001	 1.062235637926394e+001
 3.828007803889303e+000	 7.458929234568915e-001	 1.063503100318398e+001
 3.820760831597337e+000	 7.821679280389193e-001	 1.064645529235229e+001
 3.813147942893418e+000	 8.184758796377906e-001	 1.065666931086661e+001
 3.805167145493967e+000	 8.548116721325046e-001	 1.066571314699350e+001
 3.796816534065303e+000	 8.911701333796384e-001	 1.067362686791383e+001
 3.788094292392663e+000	 9.275460268578879e-001	 1.068045047458357e+001
 3.778998695518902e+000	 9.639340533883181e-001	 1.068622385680363e+001
 3.769528111850048e+000	 1.000328852929973e+000	 1.069098674859296e+001
 3.759681005224847e+000	 1.036725006450407e+000	 1.069477868395963e+001
 3.749455936945461e+000	 1.073117037870568e+000	 1.069789500329607e+001
 3.859473571017202e+000	 7.142049807296647e-001	 1.062287477570661e+001
 3.852546315453426e+000	 7.506742883486862e-001	 1.063450654762465e+001
 3.845252888210939e+000	 7.871818250116243e-001	 1.064492201508586e+001
 3.837591198938437e+000	 8.237225198902534e-001	 1.065417294206599e+001
 3.829559242581285e+000	 8.602912341320280e-001	 1.066231126263320e+001
 3.821155101592128e+000	 8.968827624387594e-001	 1.066938902685622e+001
 3.812376948113800e+000	 9.334918347217005e-001	 1.067545834648764e+001
 3.803223046131738e+000	 9.701131178328190e-001	 1.068057134052235e+001
 3.793691753593033e+000	 1.006741217371923e+000	 1.068478008073304e+001
 3.783781524489245e+000	 1.043370679569180e+000	 1.068813653728543e+001
 3.773490910900110e+000	 1.079995993242467e+000	 1.069069252453662e+001
 3.884056205228624e+000	 7.187540570366653e-001	 1.062298006331153e+001
 3.877084827017956e+000	 7.554556532394905e-001	 1.063378195593973e+001
 3.869744944824850e+000	 7.921957219833682e-001	 1.064340225851439e+001
 3.862034454983660e+000	 8.289691601418033e-001	 1.065190434713819e+001
 3.853951339668710e+000	 8.657707961307070e-001	 1.065935191217742e+001
 3.845493669118960e+000	 9.025953914971244e-001	 1.066580889537828e+001
 3.836659603834844e+000	 9.394376425848643e-001	 1.067133942642087e+001
 3.827447396744379e+000	 9.762921822767999e-001	 1.067600775901800e+001
 3.817855395335725e+000	 1.013153581813503e+000	 1.067987820666743e+001
 3.807882043753248e+000	 1.050016352687752e+000	 1.068301507816885e+001
 3.797525884854265e+000	 1.086874948614353e+000	 1.068548261301800e+001
 3.908638839440555e+000	 7.233031333426659e-001	 1.062267352139212e+001
 3.901623338582893e+000	 7.602370181293046e-001	 1.063285396028476e+001
 3.894237001439066e+000	 7.972096189541506e-001	 1.064188820233053e+001
 3.886477711029094e+000	 8.342158003924408e-001	 1.064985114984316e+001
 3.878343436756242e+000	 8.712503581285414e-001	 1.065681816184376e+001
 3.869832236645798e+000	 9.083080205547328e-001	 1.066286498242969e+001
 3.860942259555794e+000	 9.453834504473802e-001	 1.066806766824650e+001
 3.851671747356829e+000	 9.824712467202612e-001	 1.067250251517721e+001
 3.842019037078121e+000	 1.019565946254710e+000	 1.067624598436481e+001
 3.831982563016857e+000	 1.056662025806120e+000	 1.067937462768729e+001
 3.821560858807927e+000	 1.093753903986227e+000	 1.068196501280658e+001
 3.933221473652993e+000	 7.278522096476667e-001	 1.062195640213829e+001
 3.926161850148238e+000	 7.650183830181283e-001	 1.063171938030870e+001
 3.918729058053593e+000	 8.022235159239719e-001	 1.064037222853553e+001
 3.910920967074734e+000	 8.394624406421655e-001	 1.064800129121634e+001
 3.902735533843881e+000	 8.767299201255315e-001	 1.065469351019705e+001
 3.894170804172645e+000	 9.140206496115851e-001	 1.066053634443615e+001
 3.885224915276651e+000	 9.513292583092480e-001	 1.066561768844102e+001
 3.875896097969084e+000	 9.886503111632026e-001	 1.067002578959670e+001
 3.866182678820226e+000	 1.025978310695547e+000	 1.067384916451071e+001
 3.856083082280073e+000	 1.063307698924287e+000	 1.067717651450119e+001
 3.845595832761096e+000	 1.100632859358089e+000	 1.068009664035873e+001
 3.605246093207198e+000	 1.031843305638912e+000	 1.079555871749155e+001
 3.595049584380677e+000	 1.066826361614633e+000	 1.081449949408916e+001
 3.584487172911277e+000	 1.101794766387843e+000	 1.083330362825188e+001
 3.573557767880753e+000	 1.136743101864963e+000	 1.085222298492992e+001
 3.562260379467235e+000	 1.171665903280343e+000	 1.087152934398832e+001
 3.550594120669678e+000	 1.206557661411702e+000	 1.089151486420553e+001
 3.538558208978485e+000	 1.241412824861387e+000	 1.091249251260399e+001
 3.526151967989605e+000	 1.276225802402121e+000	 1.091242766480894e+001
 3.513374828959480e+000	 1.310990965385763e+000	 1.090699763231933e+001
 3.500226332298184e+000	 1.345702650213484e+000	 1.090379373888078e+001
 3.486706128998200e+000	 1.380355160865667e+000	 1.090304683216940e+001
 3.629281067164810e+000	 1.038722261010886e+000	 1.078188232110632e+001
 3.619016581613070e+000	 1.073938537359064e+000	 1.080333715459020e+001
 3.608383754067449e+000	 1.109140064830154e+000	 1.082449298573082e+001
 3.597381486336912e+000	 1.144321389209950e+000	 1.084559523968253e+001
 3.586008782000778e+000	 1.179477009301037e+000	 1.086690972671470e+001
 3.574264748144659e+000	 1.214601379152982e+000	 1.088872312883404e+001
 3.562148597042228e+000	 1.249688910358819e+000	 1.091134345115974e+001
 3.549659647780074e+000	 1.284733974416420e+000	 1.090594130422145e+001
 3.536797327823013e+000	 1.319730905153325e+000	 1.090220944185751e+001
 3.523561174517189e+000	 1.354674001213380e+000	 1.090062939234479e+001
 3.509950836528365e+000	 1.389557528603505e+000	 1.090142909776622e+001
 3.653316041121927e+000	 1.045601216382847e+000	 1.076709087937062e+001
 3.642983578844875e+000	 1.081050713103668e+000	 1.079109653504725e+001
 3.632280335222947e+000	 1.116485363272793e+000	 1.081463462818581e+001
 3.621205204792321e+000	 1.151899676555394e+000	 1.083794402735586e+001
 3.609757184533503e+000	 1.187288115322284e+000	 1.086128446527885e+001
 3.597935375618768e+000	 1.222645096894885e+000	 1.088493704844078e+001
 3.585738985105053e+000	 1.257964995856909e+000	 1.090253246204838e+001
 3.573167327569589e+000	 1.293242146431386e+000	 1.089858251196627e+001
 3.560219826685568e+000	 1.328470844921530e+000	 1.089649234208649e+001
 3.546896016735199e+000	 1.363645352213865e+000	 1.089647691040230e+001
 3.533195544057530e+000	 1.398759896341848e+000	 1.089876126099455e+001
 3.677351015078551e+000	 1.052480171754797e+000	 1.075123940112198e+001
 3.666950576076089e+000	 1.088162888848445e+000	 1.077783713282373e+001
 3.656176916377769e+000	 1.123830661715762e+000	 1.080379245431413e+001
 3.645028923246981e+000	 1.159477963901295e+000	 1.082933755783866e+001
 3.633505587065414e+000	 1.195099221344086e+000	 1.085472598773117e+001
 3.621606003092005e+000	 1.230688814637408e+000	 1.088023317338791e+001
 3.609329373166962e+000	 1.266241081355659e+000	 1.089265656426457e+001
 3.596675007358151e+000	 1.301750318447018e+000	 1.089037125172370e+001
 3.583642325547142e+000	 1.337210784690379e+000	 1.088986900768436e+001
 3.570230858952214e+000	 1.372616703214941e+000	 1.089136162098694e+001
 3.556440251585695e+000	 1.407962264080697e+000	 1.089507124373076e+001
 3.701385989034681e+000	 1.059359127126733e+000	 1.073438425716724e+001
 3.690917573306717e+000	 1.095275064593396e+000	 1.076361976098889e+001
 3.680073497531918e+000	 1.131175960159060e+000	 1.079203163236300e+001
 3.668852641700889e+000	 1.167056251247652e+000	 1.081984526454234e+001
 3.657253989596509e+000	 1.202910327366441e+000	 1.084730789976726e+001
 3.645276630564370e+000	 1.238732532380554e+000	 1.087468918597635e+001
 3.632919761227951e+000	 1.274517166855068e+000	 1.088199744128023e+001
 3.620182687145758e+000	 1.310258490463316e+000	 1.088132852829870e+001
 3.607064824407738e+000	 1.345950724459871e+000	 1.088236310938956e+001
 3.593565701168234e+000	 1.381588054216606e+000	 1.088530980328558e+001
 3.579684959112860e+000	 1.417164631820050e+000	 1.089038787457653e+001
 3.725420962990317e+000	 1.066238082498657e+000	 1.071658313634804e+001
 3.714884570536753e+000	 1.102387240338519e+000	 1.074850650587560e+001
 3.703970078685392e+000	 1.138521258602688e+000	 1.077941855917637e+001
 3.692676360154048e+000	 1.174634538594465e+000	 1.080953776493258e+001
 3.681002392126788e+000	 1.210721433389351e+000	 1.083910494673935e+001
 3.668947258035863e+000	 1.246776250124321e+000	 1.086838386393157e+001
 3.656510149288022e+000	 1.282793252355136e+000	 1.087057442745259e+001
 3.643690366932412e+000	 1.318766662480280e+000	 1.087147635403630e+001
 3.630487323267354e+000	 1.354690664230006e+000	 1.087399928186984e+001
 3.616900543383259e+000	 1.390559405218860e+000	 1.087834865705282e+001
 3.602929666639025e+000	 1.426366999559909e+000	 1.088474085960968e+001
 3.749455936945461e+000	 1.073117037870568e+000	 1.069789500329607e+001
 3.738851567766202e+000	 1.109499416083815e+000	 1.073256068627079e+001
 3.727866659838193e+000	 1.145866557046645e+000	 1.076602082081685e+001
 3.716500078606457e+000	 1.182212825941735e+000	 1.079848682257882e+001
 3.704750794656250e+000	 1.218532539412814e+000	 1.083019297712888e+001
 3.692617885506485e+000	 1.254819967868709e+000	 1.085732240019703e+001
 3.680100537347176e+000	 1.291069337855863e+000	 1.085840787481967e+001
 3.667198046718112e+000	 1.327274834497911e+000	 1.086083771652860e+001
 3.653909822125991e+000	 1.363430604000785e+000	 1.086480309282712e+001
 3.640235385597290e+000	 1.399530756221705e+000	 1.087050627310548e+001
 3.626174374164190e+000	 1.435569367300273e+000	 1.087816075425987e+001
 3.773490910900110e+000	 1.079995993242467e+000	 1.069069252453662e+001
 3.762818564995062e+000	 1.116611591829284e+000	 1.072153003213929e+001
 3.751763240990317e+000	 1.153211855490931e+000	 1.075255809353222e+001
 3.740323797058116e+000	 1.189791113289461e+000	 1.078676531065416e+001
 3.728499197184897e+000	 1.226343645436830e+000	 1.082064890741495e+001
 3.716288512976234e+000	 1.262863685613718e+000	 1.084286103550889e+001
 3.703690925405412e+000	 1.299345423357249e+000	 1.084551912068998e+001
 3.690705726502859e+000	 1.335783006516208e+000	 1.084943654755599e+001
 3.677332320983648e+000	 1.372170543772207e+000	 1.085480101328308e+001
 3.663570227810326e+000	 1.408502107225140e+000	 1.086181160494498e+001
 3.649419081688355e+000	 1.444771735041142e+000	 1.087067893625922e+001
 3.797525884854265e+000	 1.086874948614353e+000	 1.068548261301800e+001
 3.786785562223331e+000	 1.123723767574926e+000	 1.071651570157422e+001
 3.775659822141769e+000	 1.160557153935546e+000	 1.074776552723049e+001
 3.764147515509024e+000	 1.197369400637643e+000	 1.077929795197086e+001
 3.752247599712728e+000	 1.234154751461400e+000	 1.081117786515419e+001
 3.739959140445111e+000	 1.270907403359349e+000	 1.082773446449398e+001
 3.727281313462731e+000	 1.307621508859294e+000	 1.083193045646309e+001
 3.714213406286651e+000	 1.344291178535172e+000	 1.083729769320773e+001
 3.700754819840327e+000	 1.380910483544273e+000	 1.084402038899297e+001
 3.686905070022366e+000	 1.417473458229163e+000	 1.085229444145708e+001
 3.672663789211519e+000	 1.453974102782516e+000	 1.086232757962010e+001
 3.821560858807927e+000	 1.093753903986227e+000	 1.068196501280658e+001
 3.810752559451014e+000	 1.130835943320741e+000	 1.071308752041671e+001
 3.799556403292546e+000	 1.167902452380491e+000	 1.074445349226681e+001
 3.787971233959182e+000	 1.204947687986281e+000	 1.077612616959762e+001
 3.775996002239742e+000	 1.241965857486525e+000	 1.080816776349097e+001
 3.763629767913117e+000	 1.278951121105601e+000	 1.081544795377832e+001
 3.750871701519130e+000	 1.315897594361998e+000	 1.081783665759665e+001
 3.737721086069491e+000	 1.352799350554803e+000	 1.082444688513012e+001
 3.724177318696025e+000	 1.389650423316981e+000	 1.083248941293837e+001
 3.710239912233413e+000	 1.426444809233777e+000	 1.084198538064197e+001
 3.695908496733685e+000	 1.463176470524395e+000	 1.085313962959483e+001
 3.845595832761096e+000	 1.100632859358089e+000	 1.068009664035873e+001
 3.834719556678107e+000	 1.137948119066728e+000	 1.071120395429157e+001
 3.823452984442649e+000	 1.175247750825766e+000	 1.074258200224667e+001
 3.811794952408592e+000	 1.212525975335377e+000	 1.077429144750744e+001
 3.799744404765942e+000	 1.249776963512203e+000	 1.080639186557612e+001
 3.787300395380251e+000	 1.286994838852475e+000	 1.080639111476617e+001
 3.774462089574614e+000	 1.324173679865362e+000	 1.080838348679514e+001
 3.761228765851377e+000	 1.361307522575099e+000	 1.081282276500639e+001
 3.747599817550745e+000	 1.398390363090334e+000	 1.082023709885134e+001
 3.733574754443465e+000	 1.435416160238980e+000	 1.083091580432946e+001
 3.719153204254849e+000	 1.472378838266780e+000	 1.084314877857443e+001
 3.486706128998200e+000	 1.380355160865667e+000	 1.090304683216940e+001
 3.472813981996224e+000	 1.414942771488917e+000	 1.091354460252397e+001
 3.458549767465620e+000	 1.449459729040825e+000	 1.092396926799393e+001
 3.443913476037222e+000	 1.483900255988308e+000	 1.093439232399088e+001
 3.428905213945840e+000	 1.518258553056112e+000	 1.094489545226857e+001
 3.413525204100325e+000	 1.552528802025694e+000	 1.095557066411083e+001
 3.397773787075000e+000	 1.586705168581185e+000	 1.096652041900594e+001
 3.381651422020274e+000	 1.620781805199964e+000	 1.097785771785479e+001
 3.365158687490438e+000	 1.654752854085249e+000	 1.098970616981618e+001
 3.348296282186656e+000	 1.688612450138003e+000	 1.100220003195511e+001
 3.331065025613314e+000	 1.722354723965393e+000	 1.101548422092611e+001
 3.509950836528365e+000	 1.389557528603505e+000	 1.090142909776622e+001
 3.495966075212821e+000	 1.424375723297864e+000	 1.090980557196736e+001
 3.481606765918416e+000	 1.459122793900348e+000	 1.091815973378493e+001
 3.466872899213523e+000	 1.493792924360983e+000	 1.092657696263500e+001
 3.451764582041180e+000	 1.528380276742684e+000	 1.093515318806617e+001
 3.436282038796304e+000	 1.562878994038780e+000	 1.094399502544104e+001
 3.420425612323706e+000	 1.597283203037964e+000	 1.095321988625392e+001
 3.404195764834802e+000	 1.631587017234133e+000	 1.096295606212351e+001
 3.387593078740911e+000	 1.665784539778523e+000	 1.097334278155913e+001
 3.370618257401204e+000	 1.699869866471437e+000	 1.098453023866209e+001
 3.353272125783427e+000	 1.733837088790756e+000	 1.099667959299338e+001
 3.533195544057530e+000	 1.398759896341848e+000	 1.089876126099455e+001
 3.519118168428428e+000	 1.433808675107226e+000	 1.090529844448610e+001
 3.504663764370250e+000	 1.468785858760214e+000	 1.091186031040589e+001
 3.489832322388911e+000	 1.503685592733951e+000	 1.091854598316642e+001
 3.474623950135680e+000	 1.538502000429517e+000	 1.092546550612219e+001
 3.459038873491527e+000	 1.573229186052116e+000	 1.093273996995627e+001
 3.443077437571767e+000	 1.607861237495003e+000	 1.094050161484483e+001
 3.426740107648814e+000	 1.642392229268589e+000	 1.094889390543030e+001
 3.410027469991017e+000	 1.676816225472133e+000	 1.095807157769533e+001
 3.392940232615552e+000	 1.711127282805277e+000	 1.096820065689524e+001
 3.375479225953534e+000	 1.745319453616616e+000	 1.097945844577812e+001
 3.556440251585695e+000	 1.407962264080697e+000	 1.089507124373076e+001
 3.542270261643044e+000	 1.443241626917004e+000	 1.090004687701771e+001
 3.527720762821125e+000	 1.478448923620424e+000	 1.090509034888296e+001
 3.512791745563388e+000	 1.513578261107213e+000	 1.091031439150105e+001
 3.497483318229335e+000	 1.548623724116611e+000	 1.091584302988339e+001
 3.481795708185998e+000	 1.583579378065703e+000	 1.092181170318046e+001
 3.465729262819184e+000	 1.618439271952301e+000	 1.092836735889634e+001
 3.449284450462312e+000	 1.653197441303334e+000	 1.093566851903722e+001
 3.432461861240756e+000	 1.687847911166080e+000	 1.094388531727909e+001
 3.415262207829705e+000	 1.722384699139524e+000	 1.095319950630817e+001
 3.397686326123631e+000	 1.756801818442972e+000	 1.096380443456056e+001
 3.579684959112860e+000	 1.417164631820050e+000	 1.089038787457653e+001
 3.565422354856672e+000	 1.452674578727196e+000	 1.089407556557056e+001
 3.550777761271038e+000	 1.488111988480978e+000	 1.089787037142699e+001
 3.535751168736951e+000	 1.523470929480767e+000	 1.090189849656058e+001
 3.520342686322148e+000	 1.558745447803968e+000	 1.090629781726869e+001
 3.504552542879714e+000	 1.593929570079540e+000	 1.091121799615951e+001
 3.488381088065954e+000	 1.629017306409858e+000	 1.091682056861894e+001
 3.471828793275290e+000	 1.664002653338366e+000	 1.092327900032849e+001
 3.454896252490128e+000	 1.698879596860365e+000	 1.093077871491207e+001
 3.437584183043659e+000	 1.733642115474176e+000	 1.093951709086008e+001
 3.419893426293720e+000	 1.768284183269824e+000	 1.094970342695462e+001
 3.602929666639025e+000	 1.426366999559909e+000	 1.088474085960968e+001
 3.588574448069307e+000	 1.462107530537802e+000	 1.088741021170540e+001
 3.573834759719990e+000	 1.497775053341877e+000	 1.089022203365349e+001
 3.558710591909605e+000	 1.533363597854615e+000	 1.089331586824005e+001
 3.543202054414116e+000	 1.568867171491586e+000	 1.089684331439592e+001
 3.527309377572677e+000	 1.604279762093628e+000	 1.090096813496061e+001
 3.511032913312081e+000	 1.639595340867674e+000	 1.090586633560328e+001
 3.494373136087754e+000	 1.674807865373686e+000	 1.091172621390341e+001
 3.477330643739132e+000	 1.709911282554986e+000	 1.091874837766116e+001
 3.459906158257415e+000	 1.744899531809235e+000	 1.092714573158004e+001
 3.442100526463804e+000	 1.779766548097172e+000	 1.093714343154244e+001
 3.626174374164190e+000	 1.435569367300273e+000	 1.087816075425987e+001
 3.611726541280953e+000	 1.471540482348824e+000	 1.088007749030626e+001
 3.596891758167982e+000	 1.507438118203120e+000	 1.088216808825548e+001
 3.581670015081346e+000	 1.543256266228756e+000	 1.088458529699195e+001
 3.566061422505244e+000	 1.578988895179467e+000	 1.088749431108820e+001
 3.550066212264884e+000	 1.614629954107966e+000	 1.089107287211379e+001
 3.533684738557561e+000	 1.650173375325750e+000	 1.089551134021176e+001
 3.516917478899702e+000	 1.685613077409294e+000	 1.090101273493477e+001
 3.499765034987770e+000	 1.720942968249944e+000	 1.090779274440256e+001
 3.482228133470974e+000	 1.756156948144700e+000	 1.091607970191731e+001
 3.464307626633878e+000	 1.791248912925016e+000	 1.092611452925347e+001
 3.649419081688355e+000	 1.444771735041142e+000	 1.087067893625922e+001
 3.634878634491609e+000	 1.480973434160260e+000	 1.087210501858270e+001
 3.619948756615012e+000	 1.517101183064707e+000	 1.087373235006476e+001
 3.604629438252175e+000	 1.553148934603190e+000	 1.087572675495510e+001
 3.588920790595527e+000	 1.589110618867609e+000	 1.087826689808087e+001
 3.572823046956339e+000	 1.624980146122554e+000	 1.088154437990936e+001
 3.556336563802397e+000	 1.660751409784085e+000	 1.088576380098080e+001
 3.539461821711133e+000	 1.696418289445191e+000	 1.089114279469199e+001
 3.522199426236039e+000	 1.731974653945239e+000	 1.089791202748382e+001
 3.504550108684335e+000	 1.767414364480572e+000	 1.090631516556242e+001
 3.486514726803943e+000	 1.802731277753356e+000	 1.091660880736626e+001
 3.672663789211519e+000	 1.453974102782516e+000	 1.086232757962010e+001
 3.658030727701275e+000	 1.490406385972112e+000	 1.086352132624952e+001
 3.643005755061082e+000	 1.526764247926639e+000	 1.086493966243990e+001
 3.627588861422094e+000	 1.563041602977917e+000	 1.086676135855940e+001
 3.611780158684969e+000	 1.599232342556013e+000	 1.086917842585326e+001
 3.595579881647038e+000	 1.635330338137393e+000	 1.087239620546873e+001
 3.578988389046587e+000	 1.671329444242678e+000	 1.087663342594441e+001
 3.562006164522048e+000	 1.707223501481375e+000	 1.088212222813308e+001
 3.544633817483944e+000	 1.743006339640872e+000	 1.088910815660139e+001
 3.526872083897500e+000	 1.778671780816850e+000	 1.089785011662930e+001
 3.508721826974002e+000	 1.814213642582192e+000	 1.090862029601635e+001
 3.695908496733685e+000	 1.463176470524395e+000	 1.085313962959483e+001
 3.681182820909950e+000	 1.499839337784378e+000	 1.085435582683158e+001
 3.666062753506192e+000	 1.536427312788914e+000	 1.085581586492260e+001
 3.650548284591099e+000	 1.572934271352936e+000	 1.085771133254189e+001
 3.634639526773567e+000	 1.609354066244679e+000	 1.086024746501422e+001
 3.618336716336984e+000	 1.645680530152483e+000	 1.086364322751072e+001
 3.601640214290131e+000	 1.681907478701531e+000	 1.086813136579459e+001
 3.584550507332447e+000	 1.718028713517847e+000	 1.087395842347405e+001
 3.567068208731480e+000	 1.754038025336840e+000	 1.088138472479594e+001
 3.549194059110465e+000	 1.789929197153534e+000	 1.089068432209490e+001
 3.530928927144053e+000	 1.825696007411524e+000	 1.090214490710014e+001
 3.719153204254849e+000	 1.472378838266780e+000	 1.084314877857443e+001
 3.704334914117635e+000	 1.509272289597060e+000	 1.084463879004472e+001
 3.689119751950341e+000	 1.546090377651534e+000	 1.084638776210706e+001
 3.673507707759193e+000	 1.582826939728250e+000	 1.084859997531212e+001
 3.657498894861323e+000	 1.619475789933606e+000	 1.085149376817299e+001
 3.641093551026176e+000	 1.656030722167824e+000	 1.085530161473919e+001
 3.624292039533033e+000	 1.692485513160644e+000	 1.086027016879834e+001
 3.607094850142330e+000	 1.728833925554607e+000	 1.086666027364974e+001
 3.589502599978650e+000	 1.765069711033147e+000	 1.087474693647284e+001
 3.571516034323234e+000	 1.801186613490625e+000	 1.088481926639714e+001
 3.553136027314097e+000	 1.837178372241353e+000	 1.089718037546985e+001
 3.331065025613314e+000	 1.722354723965393e+000	 1.101548422092611e+001
 3.313465858646516e+000	 1.755973804923333e+000	 1.102592227808830e+001
 3.295499844011498e+000	 1.789463824188730e+000	 1.104312363156532e+001
 3.277168166668328e+000	 1.822818917859585e+000	 1.106770828615494e+001
 3.258472134105683e+000	 1.856033230080492e+000	 1.110030495449419e+001
 3.239413176539814e+000	 1.889100916188957e+000	 1.110886534249593e+001
 3.219992847017981e+000	 1.922016145879748e+000	 1.108106231979169e+001
 3.200212821425363e+000	 1.954773106383972e+000	 1.106072141058540e+001
 3.180074898394475e+000	 1.987366005659460e+000	 1.104854183771687e+001
 3.159580999116348e+000	 2.019789075589025e+000	 1.104523457896099e+001
 3.138733167052782e+000	 2.052036575183095e+000	 1.105152163146135e+001
 3.353272125783427e+000	 1.733837088790756e+000	 1.099667959299338e+001
 3.335555631036250e+000	 1.767680296954858e+000	 1.101463231799429e+001
 3.317469842969797e+000	 1.801393583015249e+000	 1.103917960511313e+001
 3.299015954443868e+000	 1.834971043977250e+000	 1.107091355427714e+001
 3.280195281663736e+000	 1.868406784946423e+000	 1.111043519329256e+001
 3.261009264380424e+000	 1.901694922295855e+000	 1.109721258193530e+001
 3.241459465994842e+000	 1.934829586851614e+000	 1.107558988084191e+001
 3.221547573564735e+000	 1.967804927093014e+000	 1.106103417914538e+001
 3.201275397713507e+000	 2.000615112364273e+000	 1.105421808210732e+001
 3.180644872440124e+000	 2.033254336094088e+000	 1.105582648807469e+001
 3.159658054829465e+000	 2.065716819019625e+000	 1.106655588306898e+001
 3.375479225953534e+000	 1.745319453616616e+000	 1.097945844577812e+001
 3.357645403426167e+000	 1.779386788986964e+000	 1.100420910997196e+001
 3.339439841928449e+000	 1.813323341842404e+000	 1.103538412369006e+001
 3.320863742219913e+000	 1.847123170095580e+000	 1.107354806124032e+001
 3.301918429222425e+000	 1.880780339813014e+000	 1.110646404833110e+001
 3.282605352221780e+000	 1.914288928403379e+000	 1.108428376874104e+001
 3.262926084972540e+000	 1.947643027824042e+000	 1.106814081224800e+001
 3.242882325705017e+000	 1.980836747802524e+000	 1.105866809407626e+001
 3.222475897033498e+000	 2.013864219069430e+000	 1.105651199878362e+001
 3.201708745764889e+000	 2.046719596599341e+000	 1.106233175092500e+001
 3.180582942607150e+000	 2.079397062856160e+000	 1.107679873947869e+001
 3.397686326123631e+000	 1.756801818442972e+000	 1.096380443456056e+001
 3.379735175816265e+000	 1.791093281019651e+000	 1.099465045059839e+001
 3.361409840887453e+000	 1.825253100670198e+000	 1.103174903697436e+001
 3.342711529996462e+000	 1.859275296214572e+000	 1.107563761501157e+001
 3.323641576781748e+000	 1.893153894680264e+000	 1.108718638515314e+001
 3.304201440063883e+000	 1.926882934511529e+000	 1.107017141181480e+001
 3.284392703951076e+000	 1.960456468797033e+000	 1.105882156530307e+001
 3.264217077846207e+000	 1.993868568512504e+000	 1.105374340513315e+001
 3.243676396354447e+000	 2.027113325774931e+000	 1.105555748546255e+001
 3.222772619090644e+000	 2.060184857104784e+000	 1.106489775621527e+001
 3.201507830385834e+000	 2.093077306692701e+000	 1.108241091703265e+001
 3.419893426293720e+000	 1.768284183269824e+000	 1.094970342695462e+001
 3.401824948206546e+000	 1.802799773052920e+000	 1.098595598956869e+001
 3.383379839846811e+000	 1.837182859498628e+000	 1.102828768945297e+001
 3.364559317773516e+000	 1.871427422334228e+000	 1.107720916113480e+001
 3.345364724341706e+000	 1.905527449548174e+000	 1.106748885163981e+001
 3.325797527906732e+000	 1.939476940620305e+000	 1.105496844709151e+001
 3.305859322930449e+000	 1.973269909770585e+000	 1.104773866536607e+001
 3.285551829988307e+000	 2.006900389222952e+000	 1.104638008493557e+001
 3.264876895676357e+000	 2.040362432480777e+000	 1.105148781346225e+001
 3.243836492417388e+000	 2.073650117610417e+000	 1.106367091909741e+001
 3.222432718165519e+000	 2.106757550529247e+000	 1.108355181365083e+001
 3.442100526463804e+000	 1.779766548097172e+000	 1.093714343154244e+001
 3.423914720597010e+000	 1.814506265086770e+000	 1.097812716991813e+001
 3.405349838806522e+000	 1.849112618327695e+000	 1.102501487220194e+001
 3.386407105551072e+000	 1.883579548454547e+000	 1.106050887998825e+001
 3.367087871902300e+000	 1.917901004416743e+000	 1.104745141500828e+001
 3.347393615750327e+000	 1.952070946729706e+000	 1.103876822376408e+001
 3.327325941910658e+000	 1.986083350744700e+000	 1.103499870947251e+001
 3.306886582131313e+000	 2.019932209933867e+000	 1.103669783790731e+001
 3.286077394999225e+000	 2.053611539186967e+000	 1.104443564790859e+001
 3.264900365745123e+000	 2.087115378116240e+000	 1.105879671257685e+001
 3.243357605946203e+000	 2.120437794365798e+000	 1.108037955136066e+001
 3.464307626633878e+000	 1.791248912925016e+000	 1.092611452925347e+001
 3.446004492987656e+000	 1.826212757121202e+000	 1.097116717054316e+001
 3.427319837766585e+000	 1.861042377157399e+000	 1.102194677652135e+001
 3.408254893329133e+000	 1.895731674575529e+000	 1.103666558480090e+001
 3.388811019463528e+000	 1.930274559285972e+000	 1.102715477461445e+001
 3.368989703594668e+000	 1.964664952839734e+000	 1.102166449103797e+001
 3.348792560891707e+000	 1.998896791719378e+000	 1.102070836403719e+001
 3.328221334275229e+000	 2.032964030645251e+000	 1.102481610887246e+001
 3.307277894323052e+000	 2.066860645893501e+000	 1.103453306716443e+001
 3.285964239073847e+000	 2.100580638622254e+000	 1.105041969770945e+001
 3.264282493727888e+000	 2.134118038202354e+000	 1.107305101719106e+001
 3.486514726803943e+000	 1.802731277753356e+000	 1.091660880736626e+001
 3.468094265378485e+000	 1.837919249156214e+000	 1.096508085091930e+001
 3.449289836727001e+000	 1.872972135987740e+000	 1.101910094934228e+001
 3.430102681107698e+000	 1.907883800697174e+000	 1.101327301923587e+001
 3.410534167025391e+000	 1.942648114155861e+000	 1.100668033863634e+001
 3.390585791439756e+000	 1.977258958950388e+000	 1.100375138539192e+001
 3.370259179873592e+000	 2.011710232694617e+000	 1.100497436264464e+001
 3.349556086420052e+000	 2.045995851357104e+000	 1.101085409132291e+001
 3.328478393647839e+000	 2.080109752600380e+000	 1.102191158151634e+001
 3.307028112403561e+000	 2.114045899128457e+000	 1.103868355264452e+001
 3.285207381510571e+000	 2.147798282038917e+000	 1.106172190250360e+001
 3.508721826974002e+000	 1.814213642582192e+000	 1.090862029601635e+001
 3.490184037769495e+000	 1.849625741191809e+000	 1.095987469791822e+001
 3.471259835687771e+000	 1.884901894818718e+000	 1.099754941443601e+001
 3.451950468886766e+000	 1.920035926819482e+000	 1.099040073707500e+001
 3.432257314587890e+000	 1.955021669026408e+000	 1.098611020164306e+001
 3.412181879285590e+000	 1.989852965061668e+000	 1.098512341832246e+001
 3.391725798856314e+000	 2.024523673670418e+000	 1.098790350392350e+001
 3.370890838565784e+000	 2.059027672069425e+000	 1.099493073537194e+001
 3.349678892973585e+000	 2.093358859307604e+000	 1.100670215115170e+001
 3.328091985734265e+000	 2.127511159634850e+000	 1.102373110056493e+001
 3.306132269294255e+000	 2.161478525875483e+000	 1.104654674083010e+001
 3.530928927144053e+000	 1.825696007411524e+000	 1.090214490710014e+001
 3.512273810160687e+000	 1.861332233227984e+000	 1.095555677463178e+001
 3.493229834648894e+000	 1.896831653650335e+000	 1.097323153754301e+001
 3.473798256666339e+000	 1.932188052942454e+000	 1.096811925969722e+001
 3.453980462151024e+000	 1.967395223897616e+000	 1.096552712301012e+001
 3.433777967132170e+000	 2.002446971173574e+000	 1.096587546455092e+001
 3.413192417839874e+000	 2.037337114646782e+000	 1.096960264950113e+001
 3.392225590712426e+000	 2.072059492782215e+000	 1.097716475540754e+001
 3.370879392300290e+000	 2.106607966015172e+000	 1.098903520345744e+001
 3.349155859065959e+000	 2.140976420141434e+000	 1.100570433657279e+001
 3.327057157078940e+000	 2.175158769712056e+000	 1.102767894428231e+001
 3.553136027314097e+000	 1.837178372241353e+000	 1.089718037546985e+001
 3.534363582552064e+000	 1.873038725264742e+000	 1.095213667111511e+001
 3.515199833610371e+000	 1.908761412482587e+000	 1.095016398696430e+001
 3.495646044446416e+000	 1.944340179066090e+000	 1.094650004584120e+001
 3.475703609714792e+000	 1.979768778769483e+000	 1.094501450614432e+001
 3.455374054979497e+000	 2.015040977286106e+000	 1.094610275067267e+001
 3.434659036824272e+000	 2.050150555623709e+000	 1.095017872203485e+001
 3.413560342859975e+000	 2.085091313495474e+000	 1.095767463745896e+001
 3.392079891627955e+000	 2.119857072723085e+000	 1.096904064967001e+001
 3.370219732398644e+000	 2.154441680648208e+000	 1.098474445356703e+001
 3.347982044864625e+000	 2.188839013548634e+000	 1.100527083859638e+001
 3.138733167052782e+000	 2.052036575183095e+000	 1.105152163146135e+001
 3.117533567548996e+000	 2.084102793783212e+000	 1.103480621618466e+001
 3.095984487346924e+000	 2.115982054262759e+000	 1.103478831786854e+001
 3.074088333998506e+000	 2.147668716221341e+000	 1.103138215079954e+001
 3.051847635178520e+000	 2.179157179169300e+000	 1.102459577980048e+001
 3.029265037897612e+000	 2.210441885698606e+000	 1.101444299732093e+001
 3.006343307615602e+000	 2.241517324636550e+000	 1.100094314609849e+001
 2.983085327255384e+000	 2.272378034178561e+000	 1.098412092758877e+001
 2.959494096117997e+000	 2.303018604996550e+000	 1.096400619668328e+001
 2.935572728699535e+000	 2.333433683319120e+000	 1.094063374328094e+001
 2.911324453410707e+000	 2.363617973980084e+000	 1.091404306132407e+001
 3.159658054829465e+000	 2.065716819019625e+000	 1.106655588306898e+001
 3.138317124662376e+000	 2.097996812411230e+000	 1.103567848128035e+001
 3.116624383925715e+000	 2.130088601294633e+000	 1.101664976640945e+001
 3.094582256221774e+000	 2.161986507666773e+000	 1.101363062788011e+001
 3.072193286076492e+000	 2.193684893701391e+000	 1.100803420212139e+001
 3.049460138147259e+000	 2.225178164941070e+000	 1.099991248333700e+001
 3.026385596330288e+000	 2.256460773471950e+000	 1.098932251550455e+001
 3.002972562767960e+000	 2.287527221077427e+000	 1.097632615371812e+001
 2.979224056756659e+000	 2.318372062367227e+000	 1.096098981213831e+001
 2.955143213555780e+000	 2.348989907878142e+000	 1.094338419920276e+001
 2.930733283098773e+000	 2.379375427142877e+000	 1.092358404079484e+001
 3.180582942607150e+000	 2.079397062856160e+000	 1.107679873947869e+001
 3.159100681776744e+000	 2.111890831039068e+000	 1.104262894324050e+001
 3.137264280505467e+000	 2.144195148326173e+000	 1.101004378669543e+001
 3.115076178445952e+000	 2.176304299111745e+000	 1.099168895883088e+001
 3.092538936975307e+000	 2.208212608232925e+000	 1.098792907893177e+001
 3.069655238397657e+000	 2.239914444182911e+000	 1.098247503427123e+001
 3.046427885045616e+000	 2.271404222306690e+000	 1.097542132208755e+001
 3.022859798281050e+000	 2.302676407975628e+000	 1.096686671000946e+001
 2.998954017395683e+000	 2.333725519737262e+000	 1.095691393741621e+001
 2.974713698412216e+000	 2.364546132436578e+000	 1.094566940445537e+001
 2.950142112786840e+000	 2.395132880305170e+000	 1.093324284950302e+001
 3.201507830385834e+000	 2.093077306692701e+000	 1.108241091703265e+001
 3.179884238892103e+000	 2.125784849666726e+000	 1.104559629303463e+001
 3.157904177086179e+000	 2.158301695357378e+000	 1.101098864619057e+001
 3.135570100671042e+000	 2.190622090556255e+000	 1.097901915360079e+001
 3.112884587874964e+000	 2.222740322763901e+000	 1.096428985766721e+001
 3.089850338648807e+000	 2.254650723424128e+000	 1.096212671371118e+001
 3.066470173761587e+000	 2.286347671140770e+000	 1.095922242946969e+001
 3.042747033794652e+000	 2.317825594873164e+000	 1.095571245129210e+001
 3.018683978035068e+000	 2.349078977106657e+000	 1.095173561692630e+001
 2.994284183268846e+000	 2.380102356994427e+000	 1.094743379850520e+001
 2.969550942474911e+000	 2.410890333466961e+000	 1.094295153445002e+001
 3.222432718165519e+000	 2.106757550529247e+000	 1.108355181365083e+001
 3.200667796008453e+000	 2.139678868294204e+000	 1.104472665654588e+001
 3.178544073667851e+000	 2.172408242388246e+000	 1.100871754448550e+001
 3.156064022897041e+000	 2.204939882000303e+000	 1.097599822222099e+001
 3.133230238775461e+000	 2.237268037294320e+000	 1.094705793464619e+001
 3.110045438900708e+000	 2.269387002664722e+000	 1.093886398685022e+001
 3.086512462478199e+000	 2.301291119974192e+000	 1.094070943213512e+001
 3.062634269308766e+000	 2.332974781770035e+000	 1.094283428719531e+001
 3.038413938674817e+000	 2.364432434475412e+000	 1.094541326833134e+001
 3.013854668125669e+000	 2.395658581551691e+000	 1.094862350687725e+001
 2.988959772162985e+000	 2.426647786628250e+000	 1.095264413569171e+001
 3.243357605946203e+000	 2.120437794365798e+000	 1.108037955136066e+001
 3.221451353125792e+000	 2.153572886921502e+000	 1.104016522562237e+001
 3.199183970250482e+000	 2.186514789418779e+000	 1.100336283088914e+001
 3.176557945123952e+000	 2.219257673443890e+000	 1.097048845404161e+001
 3.153575889676799e+000	 2.251795751824183e+000	 1.094207367421597e+001
 3.130240539153362e+000	 2.284123281904694e+000	 1.091866489596184e+001
 3.106554751195452e+000	 2.316234568806954e+000	 1.091986663185370e+001
 3.082521504823394e+000	 2.348123968666242e+000	 1.092820414812269e+001
 3.058143899314928e+000	 2.379785891843527e+000	 1.093790663824915e+001
 3.033425152982684e+000	 2.411214806108368e+000	 1.094918628676605e+001
 3.008368601851061e+000	 2.442405239789038e+000	 1.096225662204635e+001
 3.264282493727888e+000	 2.134118038202354e+000	 1.107305101719106e+001
 3.242234910244121e+000	 2.167466905548621e+000	 1.103205628801421e+001
 3.219823866834076e+000	 2.200621336448977e+000	 1.099505627734870e+001
 3.197051867351773e+000	 2.233575464887016e+000	 1.096260919555368e+001
 3.173921540578978e+000	 2.266323466353487e+000	 1.093528875059100e+001
 3.150435639406766e+000	 2.298859561144041e+000	 1.091368343251616e+001
 3.126597039913348e+000	 2.331178017639057e+000	 1.089839574767371e+001
 3.102408740338531e+000	 2.363273155561782e+000	 1.091179495253489e+001
 3.077873859955401e+000	 2.395139349210999e+000	 1.092917675965780e+001
 3.052995637839892e+000	 2.426771030664460e+000	 1.094907147473853e+001
 3.027777431539140e+000	 2.458162692949324e+000	 1.097172682927535e+001
 3.285207381510571e+000	 2.147798282038917e+000	 1.106172190250360e+001
 3.263018467363441e+000	 2.181360924175559e+000	 1.102054325616646e+001
 3.240463763418629e+000	 2.214727883478839e+000	 1.098392909683700e+001
 3.217545789580504e+000	 2.247893256329680e+000	 1.095247954641044e+001
 3.194267191481999e+000	 2.280851180882235e+000	 1.092681024297785e+001
 3.170630739660923e+000	 2.313595840382766e+000	 1.090755157683863e+001
 3.146639328631885e+000	 2.346121466470502e+000	 1.089534787541676e+001
 3.122295975854182e+000	 2.378422342456657e+000	 1.089358057548299e+001
 3.097603820596237e+000	 2.410492806577833e+000	 1.091918591092879e+001
 3.072566122697292e+000	 2.442327255219965e+000	 1.094822993643560e+001
 3.047186261227222e+000	 2.473920146109110e+000	 1.098099440062641e+001
 3.306132269294255e+000	 2.161478525875483e+000	 1.104654674083010e+001
 3.283802024483750e+000	 2.195254942802317e+000	 1.100576869491866e+001
 3.261103660004143e+000	 2.228834430508366e+000	 1.097011196104147e+001
 3.238039711810148e+000	 2.262211047771884e+000	 1.094021836723860e+001
 3.214612842385860e+000	 2.295378895410425e+000	 1.091674528959877e+001
 3.190825839915831e+000	 2.328332119620868e+000	 1.090036483997556e+001
 3.166681617351065e+000	 2.361064915301285e+000	 1.089176300178453e+001
 3.142183211370345e+000	 2.393571529350869e+000	 1.089163871513951e+001
 3.117333781237436e+000	 2.425846263944024e+000	 1.090789757641583e+001
 3.092136607554884e+000	 2.457883479774884e+000	 1.094661401818370e+001
 3.066595090915306e+000	 2.489677599268394e+000	 1.099000072963459e+001
 3.327057157078940e+000	 2.175158769712056e+000	 1.102767894428231e+001
 3.304585581605049e+000	 2.209148961428895e+000	 1.098787434815904e+001
 3.281743556590617e+000	 2.242940977537558e+000	 1.095373501738586e+001
 3.258533634040701e+000	 2.276528839213626e+000	 1.092594428715504e+001
 3.234958493290563e+000	 2.309906609938058e+000	 1.090520108583569e+001
 3.211020940171490e+000	 2.343068398858345e+000	 1.089221907457002e+001
 3.186723906070887e+000	 2.376008364131412e+000	 1.088772573410448e+001
 3.162070446887020e+000	 2.408720716244414e+000	 1.089246140019426e+001
 3.137063741878997e+000	 2.441199721309575e+000	 1.090717824909625e+001
 3.111707092412670e+000	 2.473439704329216e+000	 1.094417750043239e+001
 3.086003920603393e+000	 2.505435052427177e+000	 1.098024550276901e+001
 3.347982044864625e+000	 2.188839013548634e+000	 1.100527083859638e+001
 3.325369138727341e+000	 2.223042980055294e+000	 1.096700116447931e+001
 3.302383453178052e+000	 2.257047524566414e+000	 1.093492790541329e+001
 3.279027556272166e+000	 2.290846630654906e+000	 1.090977571100132e+001
 3.255304144196107e+000	 2.324434324465134e+000	 1.089228488244418e+001
 3.231216040427901e+000	 2.357804678095200e+000	 1.088321046418691e+001
 3.206766194791350e+000	 2.390951812960878e+000	 1.088332128193190e+001
 3.181957682404209e+000	 2.423869903137295e+000	 1.089339892843569e+001
 3.156793702520921e+000	 2.456553178674486e+000	 1.091423669868786e+001
 3.131277577270649e+000	 2.488995928882964e+000	 1.094663847624839e+001
 3.105412750291483e+000	 2.521192505585459e+000	 1.093702849840135e+001
 2.911324453410707e+000	 2.363617973980084e+000	 1.091404306132407e+001
 2.886752611199269e+000	 2.393566243432211e+000	 1.092488571070329e+001
 2.861860654078760e+000	 2.423273322721160e+000	 1.094634490201615e+001
 2.836652143563400e+000	 2.452734110416954e+000	 1.097876849540747e+001
 2.811130749008875e+000	 2.481943575500790e+000	 1.102249522901309e+001
 2.785300245862961e+000	 2.510896760202157e+000	 1.103036457107267e+001
 2.759164513826918e+000	 2.539588782783471e+000	 1.097059056096971e+001
 2.732727534929510e+000	 2.568014840268934e+000	 1.092167593712523e+001
 2.705993391515635e+000	 2.596170211114460e+000	 1.088446373738770e+001
 2.678966264151708e+000	 2.624050257815532e+000	 1.085980329573551e+001
 2.651650429450000e+000	 2.651650429450000e+000	 1.084854859559031e+001
 2.930733283098773e+000	 2.379375427142877e+000	 1.092358404079484e+001
 2.905997628606329e+000	 2.409523351724013e+000	 1.094692525480307e+001
 2.880939725105363e+000	 2.439428478207633e+000	 1.098004178464863e+001
 2.855563157853522e+000	 2.469085671154231e+000	 1.102325555379422e+001
 2.829871620668863e+000	 2.498489866004877e+000	 1.107688019186475e+001
 2.803868914168816e+000	 2.527636071937259e+000	 1.102154499006164e+001
 2.777558943919313e+000	 2.556519374668873e+000	 1.096861638635322e+001
 2.750945718495975e+000	 2.585134939204085e+000	 1.092536560484221e+001
 2.724033347459339e+000	 2.613478012521847e+000	 1.089262732799708e+001
 2.696826039246256e+000	 2.641543926200946e+000	 1.087124410248577e+001
 2.669328098979750e+000	 2.669328098979750e+000	 1.086206468582839e+001
 2.950142112786840e+000	 2.395132880305170e+000	 1.093324284950302e+001
 2.925242646013206e+000	 2.425480460015402e+000	 1.096845036349202e+001
 2.900018796131629e+000	 2.455583633693764e+000	 1.101260503715951e+001
 2.874474172143182e+000	 2.485437231891217e+000	 1.106600326207044e+001
 2.848612492328294e+000	 2.515036156508704e+000	 1.106530622501282e+001
 2.822437582474046e+000	 2.544375383672110e+000	 1.101091853702256e+001
 2.795953374011048e+000	 2.573449966554016e+000	 1.096421793057947e+001
 2.769163902061777e+000	 2.602255038138946e+000	 1.092602026196832e+001
 2.742073303402402e+000	 2.630785813928893e+000	 1.089715243646379e+001
 2.714685814340219e+000	 2.659037594585949e+000	 1.087845079519395e+001
 2.687005768509000e+000	 2.687005768509000e+000	 1.087075945436653e+001
 2.969550942474911e+000	 2.410890333466961e+000	 1.094295153445002e+001
 2.944487663419903e+000	 2.441437568306380e+000	 1.098940451798787e+001
 2.919097867157557e+000	 2.471738789179555e+000	 1.104398931787343e+001
 2.893385186432378e+000	 2.501788792627911e+000	 1.109961912442241e+001
 2.867353363987166e+000	 2.531582447012270e+000	 1.104627656374516e+001
 2.841006250778654e+000	 2.561114695406711e+000	 1.099866839197072e+001
 2.814347804102124e+000	 2.590380558438898e+000	 1.095758748872293e+001
 2.787382085626915e+000	 2.619375137073517e+000	 1.092384092777148e+001
 2.760113259344827e+000	 2.648093615335601e+000	 1.089824841280821e+001
 2.732545589433598e+000	 2.676531262970542e+000	 1.088164065891975e+001
 2.704683438037750e+000	 2.704683438037750e+000	 1.087485772362184e+001
 2.988959772162985e+000	 2.426647786628250e+000	 1.095264413569171e+001
 2.963732680826416e+000	 2.457394676596947e+000	 1.100973288041556e+001
 2.938176938183148e+000	 2.487893944665004e+000	 1.107415066030676e+001
 2.912296200721111e+000	 2.518140353364315e+000	 1.107243484918832e+001
 2.886094235645480e+000	 2.548128737515575e+000	 1.102641168303347e+001
 2.859574919082637e+000	 2.577854007141061e+000	 1.098497823309591e+001
 2.832742234192540e+000	 2.607311150323519e+000	 1.094891757556290e+001
 2.805600269191387e+000	 2.636495236007797e+000	 1.091902856992552e+001
 2.778153215286611e+000	 2.665401416741968e+000	 1.089612429146327e+001
 2.750405364526393e+000	 2.694024931354726e+000	 1.088103040657781e+001
 2.722361107566000e+000	 2.722361107566000e+000	 1.087458349487036e+001
 3.008368601851061e+000	 2.442405239789038e+000	 1.096225662204635e+001
 2.982977698232747e+000	 2.473351784887102e+000	 1.102938223958436e+001
 2.957256009208400e+000	 2.504049100150112e+000	 1.108718935796187e+001
 2.931207215009382e+000	 2.534491914100428e+000	 1.104519082974047e+001
 2.904835107303235e+000	 2.564675028018619e+000	 1.100588680191606e+001
 2.878143587385996e+000	 2.594593318875161e+000	 1.097003222069212e+001
 2.851136664282298e+000	 2.624241742207880e+000	 1.093840091849639e+001
 2.823818452755197e+000	 2.653615334941788e+000	 1.091178410617455e+001
 2.796193171227756e+000	 2.682709218147994e+000	 1.089098880145473e+001
 2.768265139618602e+000	 2.711518599738500e+000	 1.087683619739419e+001
 2.740038777093750e+000	 2.740038777093750e+000	 1.087015997473553e+001
 3.027777431539140e+000	 2.458162692949324e+000	 1.097172682927535e+001
 3.002222715638894e+000	 2.489308893176847e+000	 1.104830095885073e+001
 2.976335080233315e+000	 2.520204255634879e+000	 1.105279864672018e+001
 2.950118229297190e+000	 2.550843474836250e+000	 1.101805398057840e+001
 2.923575978960432e+000	 2.581221318521403e+000	 1.098487787351895e+001
 2.896712255688731e+000	 2.611332630609009e+000	 1.095401498170567e+001
 2.869531094371396e+000	 2.641172334091980e+000	 1.092623045072326e+001
 2.842036636318340e+000	 2.670735433875488e+000	 1.090230840593328e+001
 2.814233127168260e+000	 2.700017019553681e+000	 1.088305037618979e+001
 2.786124914710225e+000	 2.729012268121863e+000	 1.086927365465265e+001
 2.757716446621000e+000	 2.757716446620999e+000	 1.086180960065774e+001
 3.047186261227222e+000	 2.473920146109110e+000	 1.098099440062641e+001
 3.021467733044860e+000	 2.505266001466179e+000	 1.104707932989671e+001
 2.995414151257892e+000	 2.536359411119304e+000	 1.101926857289177e+001
 2.969029243584533e+000	 2.567195035571781e+000	 1.099119219207584e+001
 2.942316850617070e+000	 2.597767609023926e+000	 1.096356156167760e+001
 2.915280923990843e+000	 2.628071942342609e+000	 1.093711159487349e+001
 2.887925524459835e+000	 2.658102925975821e+000	 1.091259930469219e+001
 2.860254819880819e+000	 2.687855532808898e+000	 1.089080229182614e+001
 2.832273083108126e+000	 2.717324820959028e+000	 1.087251716287187e+001
 2.803984689801264e+000	 2.746505936504817e+000	 1.085855788276296e+001
 2.775394116147749e+000	 2.775394116147750e+000	 1.084975406539072e+001
 3.066595090915306e+000	 2.489677599268394e+000	 1.099000072963459e+001
 3.040712750450644e+000	 2.521223109755101e+000	 1.100736907863573e+001
 3.014493222282131e+000	 2.552514566603390e+000	 1.098675910542502e+001
 2.987940257871414e+000	 2.583546596307021e+000	 1.096477429959843e+001
 2.961057722273150e+000	 2.614313899526189e+000	 1.094211521844583e+001
 2.933849592292330e+000	 2.644811254075957e+000	 1.091950757642611e+001
 2.906319954547613e+000	 2.675033517859401e+000	 1.089770080579518e+001
 2.878473003442633e+000	 2.704975631742018e+000	 1.087746654116806e+001
 2.850313039047351e+000	 2.734632622364035e+000	 1.085959703155747e+001
 2.821844464891718e+000	 2.763999604887360e+000	 1.084490348368096e+001
 2.793071785673999e+000	 2.793071785673999e+000	 1.083421434056746e+001
 3.086003920603393e+000	 2.505435052427177e+000	 1.098024550276901e+001
 3.059957767856244e+000	 2.537180218043611e+000	 1.096941057652272e+001
 3.033572293306033e+000	 2.568669722087133e+000	 1.095543138297510e+001
 3.006851272157832e+000	 2.599898157041970e+000	 1.093897005378719e+001
 2.979798593928670e+000	 2.630860190028190e+000	 1.092071686245389e+001
 2.952418260593193e+000	 2.661550565809054e+000	 1.090138886632989e+001
 2.924714384634735e+000	 2.691964109742722e+000	 1.088172846630021e+001
 2.896691187003782e+000	 2.722095730674847e+000	 1.086250188738916e+001
 2.868352994985936e+000	 2.751940423768701e+000	 1.084449758387162e+001
 2.839704239981587e+000	 2.781493273269494e+000	 1.082852457270888e+001
 2.810749455199750e+000	 2.810749455199749e+000	 1.081541069937703e+001
 3.105412750291483e+000	 2.521192505585459e+000	 1.093702849840135e+001
 3.079202785261663e+000	 2.553137326331711e+000	 1.093335739422277e+001
 3.052651364329598e+000	 2.584824877570536e+000	 1.092544767735055e+001
 3.025762286443788e+000	 2.616249717776629e+000	 1.091395009195601e+001
 2.998539465583634e+000	 2.647406480529932e+000	 1.089954515807786e+001
 2.970986928893433e+000	 2.678289877541902e+000	 1.088294181504529e+001
 2.943108814721196e+000	 2.708894701625782e+000	 1.086487597951141e+001
 2.914909370564268e+000	 2.739215829607388e+000	 1.084610902140628e+001
 2.886392950923881e+000	 2.769248225173028e+000	 1.082742616139637e+001
 2.857564015070873e+000	 2.798986941651219e+000	 1.080963479370350e+001
 2.828427124725000e+000	 2.828427124725000e+000	 1.079356273839094e+001
 2.651650429450000e+000	 2.651650429450000e+000	 1.084854859559031e+001
 2.624050257815533e+000	 2.678966264151706e+000	 1.080610569553958e+001
 2.596170211114461e+000	 2.705993391515634e+000	 1.076360885784658e+001
 2.568014840268936e+000	 2.732727534929508e+000	 1.072163452482964e+001
 2.539588782783471e+000	 2.759164513826918e+000	 1.068077206613951e+001
 2.510896760202158e+000	 2.785300245862960e+000	 1.064162226171722e+001
 2.481943575500790e+000	 2.811130749008873e+000	 1.061350909070591e+001
 2.452734110416956e+000	 2.836652143563399e+000	 1.059004775596374e+001
 2.423273322721161e+000	 2.861860654078759e+000	 1.056493295030244e+001
 2.393566243432213e+000	 2.886752611199269e+000	 1.053784984999410e+001
 2.363617973980084e+000	 2.911324453410707e+000	 1.050847830545546e+001
 2.669328098979750e+000	 2.669328098979750e+000	 1.086206468582839e+001
 2.641543926200946e+000	 2.696826039246255e+000	 1.081559357224975e+001
 2.613478012521847e+000	 2.724033347459337e+000	 1.076990965484614e+001
 2.585134939204087e+000	 2.750945718495975e+000	 1.072563416521851e+001
 2.556519374668874e+000	 2.777558943919311e+000	 1.068340080239140e+001
 2.527636071937260e+000	 2.803868914168815e+000	 1.064385415114657e+001
 2.498489866004878e+000	 2.829871620668862e+000	 1.060841349919425e+001
 2.469085671154232e+000	 2.855563157853521e+000	 1.058870225841623e+001
 2.439428478207634e+000	 2.880939725105363e+000	 1.056854549077348e+001
 2.409523351724014e+000	 2.905997628606328e+000	 1.054764258031724e+001
 2.379375427142877e+000	 2.930733283098773e+000	 1.052568625047625e+001
 2.687005768509000e+000	 2.687005768509000e+000	 1.087075945436653e+001
 2.659037594585950e+000	 2.714685814340219e+000	 1.082067518927796e+001
 2.630785813928895e+000	 2.742073303402402e+000	 1.077220203891366e+001
 2.602255038138947e+000	 2.769163902061777e+000	 1.072600615272950e+001
 2.573449966554017e+000	 2.795953374011047e+000	 1.068276570509406e+001
 2.544375383672111e+000	 2.822437582474045e+000	 1.064316924855958e+001
 2.515036156508705e+000	 2.848612492328293e+000	 1.060791403014006e+001
 2.485437231891217e+000	 2.874474172143180e+000	 1.058438061029738e+001
 2.455583633693765e+000	 2.900018796131628e+000	 1.056967248190066e+001
 2.425480460015403e+000	 2.925242646013206e+000	 1.055543240642324e+001
 2.395132880305170e+000	 2.950142112786840e+000	 1.054136571957879e+001
 2.704683438037750e+000	 2.704683438037750e+000	 1.087485772362184e+001
 2.676531262970543e+000	 2.732545589433597e+000	 1.082156303138931e+001
 2.648093615335602e+000	 2.760113259344826e+000	 1.077068628221934e+001
 2.619375137073518e+000	 2.787382085626914e+000	 1.072293867995077e+001
 2.590380558438899e+000	 2.814347804102123e+000	 1.067904302817627e+001
 2.561114695406712e+000	 2.841006250778652e+000	 1.063973201800218e+001
 2.531582447012271e+000	 2.867353363987166e+000	 1.060574647901528e+001
 2.501788792627913e+000	 2.893385186432377e+000	 1.057783359811897e+001
 2.471738789179556e+000	 2.919097867157556e+000	 1.056817369144866e+001
 2.441437568306381e+000	 2.944487663419902e+000	 1.056107134954331e+001
 2.410890333466960e+000	 2.969550942474911e+000	 1.055536129655255e+001
 2.722361107566000e+000	 2.722361107566000e+000	 1.087458349487036e+001
 2.694024931354727e+000	 2.750405364526391e+000	 1.081846902675538e+001
 2.665401416741969e+000	 2.778153215286610e+000	 1.076556235902901e+001
 2.636495236007798e+000	 2.805600269191386e+000	 1.071661989427392e+001
 2.607311150323519e+000	 2.832742234192541e+000	 1.067240922697685e+001
 2.577854007141062e+000	 2.859574919082636e+000	 1.063370736532024e+001
 2.548128737515576e+000	 2.886094235645479e+000	 1.060129891635289e+001
 2.518140353364316e+000	 2.912296200721111e+000	 1.057597423934573e+001
 2.487893944665005e+000	 2.938176938183147e+000	 1.056391001176073e+001
 2.457394676596948e+000	 2.963732680826415e+000	 1.056441276994010e+001
 2.426647786628250e+000	 2.988959772162985e+000	 1.056751911194091e+001
 2.740038777093750e+000	 2.740038777093750e+000	 1.087015997473553e+001
 2.711518599738501e+000	 2.768265139618600e+000	 1.081160456490885e+001
 2.682709218147995e+000	 2.796193171227754e+000	 1.075702995531398e+001
 2.653615334941789e+000	 2.823818452755194e+000	 1.070723789935180e+001
 2.624241742207881e+000	 2.851136664282297e+000	 1.066304095174738e+001
 2.594593318875162e+000	 2.878143587385995e+000	 1.062526062390795e+001
 2.564675028018621e+000	 2.904835107303234e+000	 1.059472550280382e+001
 2.534491914100428e+000	 2.931207215009381e+000	 1.057226933832354e+001
 2.504049100150114e+000	 2.957256009208400e+000	 1.055872910416168e+001
 2.473351784887103e+000	 2.982977698232745e+000	 1.056531132371315e+001
 2.442405239789038e+000	 3.008368601851061e+000	 1.057768679314595e+001
 2.757716446621000e+000	 2.757716446620999e+000	 1.086180960065774e+001
 2.729012268121864e+000	 2.786124914710225e+000	 1.080118051400750e+001
 2.700017019553682e+000	 2.814233127168259e+000	 1.074528847799139e+001
 2.670735433875489e+000	 2.842036636318339e+000	 1.069498075650050e+001
 2.641172334091982e+000	 2.869531094371395e+000	 1.065111504140514e+001
 2.611332630609011e+000	 2.896712255688730e+000	 1.061455754100450e+001
 2.581221318521404e+000	 2.923575978960431e+000	 1.058618103211567e+001
 2.550843474836251e+000	 2.950118229297189e+000	 1.056686288089963e+001
 2.520204255634880e+000	 2.976335080233314e+000	 1.055748303762845e+001
 2.489308893176847e+000	 3.002222715638894e+000	 1.056362292126564e+001
 2.458162692949325e+000	 3.027777431539140e+000	 1.058571341645213e+001
 2.775394116147749e+000	 2.775394116147750e+000	 1.084975406539072e+001
 2.746505936504817e+000	 2.803984689801263e+000	 1.078740723743861e+001
 2.717324820959029e+000	 2.832273083108124e+000	 1.073053706381114e+001
 2.687855532808900e+000	 2.860254819880818e+000	 1.068003648604761e+001
 2.658102925975823e+000	 2.887925524459833e+000	 1.063680851752454e+001
 2.628071942342610e+000	 2.915280923990842e+000	 1.060176426451404e+001
 2.597767609023927e+000	 2.942316850617069e+000	 1.057582091097040e+001
 2.567195035571781e+000	 2.969029243584532e+000	 1.055989967228911e+001
 2.536359411119306e+000	 2.995414151257891e+000	 1.055492372339154e+001
 2.505266001466179e+000	 3.021467733044859e+000	 1.056181610657654e+001
 2.473920146109110e+000	 3.047186261227222e+000	 1.059144946088363e+001
 2.793071785673999e+000	 2.793071785673999e+000	 1.083421434056746e+001
 2.763999604887362e+000	 2.821844464891717e+000	 1.077049460979256e+001
 2.734632622364035e+000	 2.850313039047350e+000	 1.071297458790555e+001
 2.704975631742019e+000	 2.878473003442632e+000	 1.066259306862934e+001
 2.675033517859403e+000	 2.906319954547613e+000	 1.062029857855688e+001
 2.644811254075958e+000	 2.933849592292328e+000	 1.058704733032678e+001
 2.614313899526190e+000	 2.961057722273149e+000	 1.056380113958768e+001
 2.583546596307022e+000	 2.987940257871413e+000	 1.055152531114529e+001
 2.552514566603391e+000	 3.014493222282131e+000	 1.055118649979330e+001
 2.521223109755101e+000	 3.040712750450642e+000	 1.056375055141940e+001
 2.489677599268394e+000	 3.066595090915306e+000	 1.059474676381377e+001
 2.810749455199750e+000	 2.810749455199749e+000	 1.081541069937703e+001
 2.781493273269495e+000	 2.839704239981586e+000	 1.075065203223399e+001
 2.751940423768702e+000	 2.868352994985934e+000	 1.069279967201630e+001
 2.722095730674849e+000	 2.896691187003782e+000	 1.064283844643865e+001
 2.691964109742723e+000	 2.924714384634733e+000	 1.060176259426823e+001
 2.661550565809056e+000	 2.952418260593193e+000	 1.057057365011775e+001
 2.630860190028192e+000	 2.979798593928670e+000	 1.055027829306011e+001
 2.599898157041972e+000	 3.006851272157831e+000	 1.054188616460897e+001
 2.568669722087134e+000	 3.033572293306032e+000	 1.054640766171703e+001
 2.537180218043612e+000	 3.059957767856243e+000	 1.056485171053388e+001
 2.505435052427177e+000	 3.086003920603393e+000	 1.059822352673306e+001
 2.828427124725000e+000	 2.828427124725000e+000	 1.079356273839094e+001
 2.798986941651219e+000	 2.857564015070872e+000	 1.072808844729619e+001
 2.769248225173028e+000	 2.886392950923880e+000	 1.067021069241294e+001
 2.739215829607389e+000	 2.914909370564268e+000	 1.062096052442665e+001
 2.708894701625782e+000	 2.943108814721194e+000	 1.058137810038575e+001
 2.678289877541904e+000	 2.970986928893432e+000	 1.055251049960383e+001
 2.647406480529933e+000	 2.998539465583634e+000	 1.053540950338856e+001
 2.616249717776630e+000	 3.025762286443787e+000	 1.053112934429317e+001
 2.584824877570537e+000	 3.052651364329597e+000	 1.054072443069508e+001
 2.553137326331712e+000	 3.079202785261663e+000	 1.056524705259440e+001
 2.521192505585459e+000	 3.105412750291483e+000	 1.060574507459456e+001
 2.363617973980084e+000	 2.911324453410707e+000	 1.050847830545546e+001
 2.333433683319122e+000	 2.935572728699535e+000	 1.043782718745506e+001
 2.303018604996550e+000	 2.959494096117997e+000	 1.038134791481657e+001
 2.272378034178562e+000	 2.983085327255382e+000	 1.033899056209542e+001
 2.241517324636551e+000	 3.006343307615601e+000	 1.031068469819876e+001
 2.210441885698608e+000	 3.029265037897612e+000	 1.029633974255199e+001
 2.179157179169301e+000	 3.051847635178518e+000	 1.029584535784585e+001
 2.147668716221342e+000	 3.074088333998505e+000	 1.030907187807358e+001
 2.115982054262759e+000	 3.095984487346923e+000	 1.033587077048130e+001
 2.084102793783214e+000	 3.117533567548997e+000	 1.037607512997617e+001
 2.052036575183095e+000	 3.138733167052782e+000	 1.027935393610650e+001
 2.379375427142877e+000	 2.930733283098773e+000	 1.052568625047625e+001
 2.348989907878144e+000	 2.955143213555779e+000	 1.047008069147312e+001
 2.318372062367228e+000	 2.979224056756658e+000	 1.042917928576728e+001
 2.287527221077428e+000	 3.002972562767960e+000	 1.040293539599021e+001
 2.256460773471950e+000	 3.026385596330287e+000	 1.039128117443047e+001
 2.225178164941071e+000	 3.049460138147259e+000	 1.039412792203383e+001
 2.193684893701392e+000	 3.072193286076491e+000	 1.041136648515040e+001
 2.161986507666775e+000	 3.094582256221773e+000	 1.044286768871686e+001
 2.130088601294635e+000	 3.116624383925714e+000	 1.048848280447393e+001
 2.097996812411231e+000	 3.138317124662375e+000	 1.040626581856849e+001
 2.065716819019625e+000	 3.159658054829465e+000	 1.024455554888838e+001
 2.395132880305170e+000	 2.950142112786840e+000	 1.054136571957879e+001
 2.364546132436579e+000	 2.974713698412216e+000	 1.050109676656033e+001
 2.333725519737264e+000	 2.998954017395681e+000	 1.047606511160343e+001
 2.302676407975629e+000	 3.022859798281050e+000	 1.046622721468221e+001
 2.271404222306690e+000	 3.046427885045616e+000	 1.047151761773146e+001
 2.239914444182912e+000	 3.069655238397657e+000	 1.049184930672751e+001
 2.208212608232926e+000	 3.092538936975307e+000	 1.052711411268876e+001
 2.176304299111746e+000	 3.115076178445951e+000	 1.057718315026223e+001
 2.144195148326174e+000	 3.137264280505466e+000	 1.051529565518133e+001
 2.111890831039069e+000	 3.159100681776744e+000	 1.036061021289395e+001
 2.079397062856160e+000	 3.180582942607150e+000	 1.021393226368071e+001
 2.410890333466960e+000	 2.969550942474911e+000	 1.055536129655255e+001
 2.380102356994429e+000	 2.994284183268845e+000	 1.053071630050710e+001
 2.349078977106659e+000	 3.018683978035067e+000	 1.052184271101881e+001
 2.317825594873165e+000	 3.042747033794651e+000	 1.052869989582150e+001
 2.286347671140772e+000	 3.066470173761586e+000	 1.055122459380463e+001
 2.254650723424130e+000	 3.089850338648807e+000	 1.058933128042292e+001
 2.222740322763903e+000	 3.112884587874963e+000	 1.064291257320348e+001
 2.190622090556256e+000	 3.135570100671041e+000	 1.060651140108836e+001
 2.158301695357378e+000	 3.157904177086176e+000	 1.045917941589267e+001
 2.125784849666727e+000	 3.179884238892103e+000	 1.031920302080106e+001
 2.093077306692701e+000	 3.201507830385834e+000	 1.018755734527987e+001
 2.426647786628250e+000	 2.988959772162985e+000	 1.056751911194091e+001
 2.395658581551693e+000	 3.013854668125669e+000	 1.055878183968163e+001
 2.364432434475413e+000	 3.038413938674816e+000	 1.056635117107688e+001
 2.332974781770037e+000	 3.062634269308765e+000	 1.059018919313824e+001
 2.301291119974193e+000	 3.086512462478198e+000	 1.063023465001513e+001
 2.269387002664724e+000	 3.110045438900708e+000	 1.068640331198004e+001
 2.237268037294321e+000	 3.133230238775460e+000	 1.067982952548834e+001
 2.204939882000303e+000	 3.156064022897041e+000	 1.054030098182235e+001
 2.172408242388248e+000	 3.178544073667850e+000	 1.040739428153493e+001
 2.139678868294205e+000	 3.200667796008452e+000	 1.028212724311768e+001
 2.106757550529247e+000	 3.222432718165518e+000	 1.016550662647952e+001
 2.442405239789038e+000	 3.008368601851061e+000	 1.057768679314595e+001
 2.411214806108369e+000	 3.033425152982682e+000	 1.058513753552740e+001
 2.379785891843528e+000	 3.058143899314927e+000	 1.060943129016621e+001
 2.348123968666243e+000	 3.082521504823393e+000	 1.065053267592393e+001
 2.316234568806955e+000	 3.106554751195451e+000	 1.070838225146566e+001
 2.284123281904695e+000	 3.130240539153362e+000	 1.073501127871398e+001
 2.251795751824184e+000	 3.153575889676798e+000	 1.060385902207550e+001
 2.219257673443891e+000	 3.176557945123951e+000	 1.047851307678755e+001
 2.186514789418780e+000	 3.199183970250482e+000	 1.036003276385422e+001
 2.153572886921503e+000	 3.221451353125791e+000	 1.024946827689211e+001
 2.120437794365798e+000	 3.243357605946203e+000	 1.014785842523202e+001
 2.458162692949325e+000	 3.027777431539140e+000	 1.058571341645213e+001
 2.426771030664461e+000	 3.052995637839891e+000	 1.060962909311848e+001
 2.395139349211001e+000	 3.077873859955400e+000	 1.065092552315062e+001
 2.363273155561783e+000	 3.102408740338530e+000	 1.070956967084033e+001
 2.331178017639059e+000	 3.126597039913347e+000	 1.077165928583358e+001
 2.298859561144043e+000	 3.150435639406766e+000	 1.064958022619336e+001
 2.266323466353488e+000	 3.173921540578978e+000	 1.053241048198397e+001
 2.233575464887017e+000	 3.197051867351772e+000	 1.042124948278323e+001
 2.200621336448978e+000	 3.219823866834076e+000	 1.031718960569798e+001
 2.167466905548621e+000	 3.242234910244120e+000	 1.022131383859106e+001
 2.134118038202355e+000	 3.264282493727888e+000	 1.013469346499606e+001
 2.473920146109110e+000	 3.047186261227222e+000	 1.059144946088363e+001
 2.442327255219966e+000	 3.072566122697290e+000	 1.063210372168090e+001
 2.410492806577833e+000	 3.097603820596236e+000	 1.069067792861500e+001
 2.378422342456659e+000	 3.122295975854181e+000	 1.076714120595224e+001
 2.346121466470502e+000	 3.146639328631884e+000	 1.067703048501281e+001
 2.313595840382767e+000	 3.170630739660921e+000	 1.056877793240986e+001
 2.280851180882236e+000	 3.194267191481997e+000	 1.046559476040918e+001
 2.247893256329681e+000	 3.217545789580504e+000	 1.036861406902729e+001
 2.214727883478840e+000	 3.240463763418628e+000	 1.027896170996083e+001
 2.181360924175559e+000	 3.263018467363440e+000	 1.019775389023295e+001
 2.147798282038917e+000	 3.285207381510571e+000	 1.012609479812799e+001
 2.489677599268394e+000	 3.066595090915306e+000	 1.059474676381377e+001
 2.457883479774885e+000	 3.092136607554884e+000	 1.065241008699281e+001
 2.425846263944025e+000	 3.117333781237435e+000	 1.072853411811479e+001
 2.393571529350870e+000	 3.142183211370344e+000	 1.068561186192356e+001
 2.361064915301287e+000	 3.166681617351065e+000	 1.058714387697052e+001
 2.328332119620868e+000	 3.190825839915830e+000	 1.049272408347395e+001
 2.295378895410426e+000	 3.214612842385860e+000	 1.040352463250463e+001
 2.262211047771885e+000	 3.238039711810147e+000	 1.032071271157345e+001
 2.228834430508368e+000	 3.261103660004142e+000	 1.024544807122864e+001
 2.195254942802318e+000	 3.283802024483749e+000	 1.017888056832604e+001
 2.161478525875483e+000	 3.306132269294256e+000	 1.012214773218254e+001
 2.505435052427177e+000	 3.086003920603393e+000	 1.059822352673306e+001
 2.473439704329218e+000	 3.111707092412669e+000	 1.067039826558102e+001
 2.441199721309576e+000	 3.137063741878996e+000	 1.067455992696654e+001
 2.408720716244416e+000	 3.162070446887020e+000	 1.058687078600457e+001
 2.376008364131413e+000	 3.186723906070886e+000	 1.050212775040358e+001
 2.343068398858346e+000	 3.211020940171488e+000	 1.042154013900917e+001
 2.309906609938059e+000	 3.234958493290562e+000	 1.034631473300619e+001
 2.276528839213626e+000	 3.258533634040700e+000	 1.027765323020323e+001
 2.242940977537559e+000	 3.281743556590616e+000	 1.021674971000212e+001
 2.209148961428896e+000	 3.304585581605049e+000	 1.016478811548823e+001
 2.175158769712056e+000	 3.327057157078940e+000	 1.012293975899481e+001
 2.521192505585459e+000	 3.105412750291483e+000	 1.060574507459456e+001
 2.488995928882964e+000	 3.131277577270647e+000	 1.064294146751572e+001
 2.456553178674486e+000	 3.156793702520920e+000	 1.056715252784408e+001
 2.423869903137296e+000	 3.181957682404208e+000	 1.049312791678733e+001
 2.390951812960879e+000	 3.206766194791349e+000	 1.042211202689203e+001
 2.357804678095202e+000	 3.231216040427900e+000	 1.035534927672996e+001
 2.324434324465136e+000	 3.255304144196106e+000	 1.029408149811989e+001
 2.290846630654908e+000	 3.279027556272165e+000	 1.023954532768445e+001
 2.257047524566415e+000	 3.302383453178051e+000	 1.019296960938698e+001
 2.223042980055296e+000	 3.325369138727340e+000	 1.015557281463123e+001
 2.188839013548634e+000	 3.347982044864625e+000	 1.012856048642126e+001
 2.052036575183095e+000	 3.138733167052782e+000	 1.027935393610650e+001
 2.019789075589026e+000	 3.159580999116348e+000	 1.014179827672518e+001
 1.987366005659461e+000	 3.180074898394475e+000	 1.001950610719269e+001
 1.954773106383974e+000	 3.200212821425363e+000	 9.913539170234849e+000
 1.922016145879749e+000	 3.219992847017980e+000	 9.824934005877090e+000
 1.889100916188958e+000	 3.239413176539813e+000	 9.754699973676146e+000
 1.856033230080493e+000	 3.258472134105683e+000	 9.713033878838029e+000
 1.822818917859586e+000	 3.277168166668327e+000	 9.695698106173190e+000
 1.789463824188732e+000	 3.295499844011497e+000	 9.695062558023414e+000
 1.755973804923334e+000	 3.313465858646516e+000	 9.710968676071392e+000
 1.722354723965393e+000	 3.331065025613313e+000	 9.743245302963251e+000
 2.065716819019625e+000	 3.159658054829465e+000	 1.024455554888838e+001
 2.033254336094089e+000	 3.180644872440123e+000	 1.012585061504659e+001
 2.000615112364274e+000	 3.201275397713506e+000	 1.002029143667095e+001
 1.967804927093015e+000	 3.221547573564735e+000	 9.928915740252489e+000
 1.934829586851615e+000	 3.241459465994842e+000	 9.852738252519304e+000
 1.901694922295856e+000	 3.261009264380423e+000	 9.792748704826595e+000
 1.868406784946424e+000	 3.280195281663736e+000	 9.752849492331755e+000
 1.834971043977252e+000	 3.299015954443867e+000	 9.740638243174784e+000
 1.801393583015250e+000	 3.317469842969796e+000	 9.742729760323858e+000
 1.767680296954860e+000	 3.335555631036249e+000	 9.758917662872623e+000
 1.733837088790757e+000	 3.353272125783427e+000	 9.788985484941211e+000
 2.079397062856160e+000	 3.180582942607150e+000	 1.021393226368071e+001
 2.046719596599342e+000	 3.201708745764888e+000	 1.011272245242112e+001
 2.013864219069431e+000	 3.222475897033497e+000	 1.002256816655093e+001
 1.980836747802526e+000	 3.242882325705017e+000	 9.944484037082498e+000
 1.947643027824043e+000	 3.262926084972540e+000	 9.879463876209535e+000
 1.914288928403381e+000	 3.282605352221780e+000	 9.828478662848530e+000
 1.880780339813015e+000	 3.301918429222424e+000	 9.792474581648600e+000
 1.847123170095581e+000	 3.320863742219913e+000	 9.782150899573216e+000
 1.813323341842406e+000	 3.339439841928448e+000	 9.786156626502875e+000
 1.779386788986965e+000	 3.357645403426165e+000	 9.801847094471496e+000
 1.745319453616616e+000	 3.375479225953533e+000	 9.828960508573587e+000
 2.093077306692701e+000	 3.201507830385834e+000	 1.018755734527987e+001
 2.060184857104785e+000	 3.222772619090644e+000	 1.010250642065041e+001
 2.027113325774932e+000	 3.243676396354447e+000	 1.002644767527270e+001
 1.993868568512505e+000	 3.264217077846207e+000	 9.960373561273892e+000
 1.960456468797033e+000	 3.284392703951076e+000	 9.905257871336136e+000
 1.926882934511530e+000	 3.304201440063883e+000	 9.862053704382475e+000
 1.893153894680265e+000	 3.323641576781748e+000	 9.831691482189106e+000
 1.859275296214573e+000	 3.342711529996461e+000	 9.820149752954219e+000
 1.825253100670199e+000	 3.361409840887453e+000	 9.825278575390760e+000
 1.791093281019653e+000	 3.379735175816265e+000	 9.839713537742856e+000
 1.756801818442972e+000	 3.397686326123631e+000	 9.863147486876452e+000
 2.106757550529247e+000	 3.222432718165518e+000	 1.016550662647952e+001
 2.073650117610419e+000	 3.243836492417388e+000	 1.009529711861015e+001
 2.040362432480778e+000	 3.264876895676356e+000	 1.003204272244048e+001
 2.006900389222952e+000	 3.285551829988305e+000	 9.976714623867549e+000
 1.973269909770587e+000	 3.305859322930448e+000	 9.930267487560409e+000
 1.939476940620306e+000	 3.325797527906732e+000	 9.893637401778989e+000
 1.905527449548175e+000	 3.345364724341706e+000	 9.867739871615209e+000
 1.871427422334229e+000	 3.364559317773515e+000	 9.854547165215490e+000
 1.837182859498629e+000	 3.383379839846811e+000	 9.860029218645927e+000
 1.802799773052922e+000	 3.401824948206546e+000	 9.872471277264454e+000
 1.768284183269824e+000	 3.419893426293720e+000	 9.891520791949953e+000
 2.120437794365798e+000	 3.243357605946203e+000	 1.014785842523202e+001
 2.087115378116242e+000	 3.264900365745122e+000	 1.009119104879615e+001
 2.053611539186969e+000	 3.286077394999225e+000	 1.003946740426846e+001
 2.019932209933868e+000	 3.306886582131313e+000	 9.993638320251691e+000
 1.986083350744702e+000	 3.327325941910658e+000	 9.954640221582222e+000
 1.952070946729708e+000	 3.347393615750326e+000	 9.923393052269576e+000
 1.917901004416745e+000	 3.367087871902299e+000	 9.900798244389788e+000
 1.883579548454547e+000	 3.386407105551071e+000	 9.887736737797356e+000
 1.849112618327696e+000	 3.405349838806521e+000	 9.890340419050741e+000
 1.814506265086771e+000	 3.423914720597009e+000	 9.900072388939396e+000
 1.779766548097172e+000	 3.442100526463804e+000	 9.914052143394908e+000
 2.134118038202355e+000	 3.264282493727888e+000	 1.013469346499606e+001
 2.100580638622255e+000	 3.285964239073846e+000	 1.009028655631086e+001
 2.066860645893503e+000	 3.307277894323052e+000	 1.004883711074116e+001
 2.032964030645252e+000	 3.328221334275228e+000	 1.001127650502222e+001
 1.998896791719379e+000	 3.348792560891706e+000	 9.978523809221700e+000
 1.964664952839736e+000	 3.368989703594667e+000	 9.951483686784531e+000
 1.930274559285973e+000	 3.388811019463527e+000	 9.931044338098699e+000
 1.895731674575530e+000	 3.408254893329132e+000	 9.918075492552434e+000
 1.861042377157401e+000	 3.427319837766585e+000	 9.916142346565124e+000
 1.826212757121203e+000	 3.446004492987655e+000	 9.922466810787096e+000
 1.791248912925016e+000	 3.464307626633877e+000	 9.930710693328896e+000
 2.147798282038917e+000	 3.285207381510571e+000	 1.012609479812799e+001
 2.114045899128458e+000	 3.307028112403561e+000	 1.009268377018161e+001
 2.080109752600382e+000	 3.328478393647839e+000	 1.006026848441027e+001
 2.045995851357105e+000	 3.349556086420052e+000	 1.002976176780432e+001
 2.011710232694617e+000	 3.370259179873590e+000	 1.000206621780427e+001
 1.977258958950390e+000	 3.390585791439755e+000	 9.978072078433847e+000
 1.942648114155862e+000	 3.410534167025391e+000	 9.958655157555192e+000
 1.907883800697175e+000	 3.430102681107696e+000	 9.944674790325426e+000
 1.872972135987741e+000	 3.449289836727000e+000	 9.937363532238372e+000
 1.837919249156216e+000	 3.468094265378483e+000	 9.939602411028668e+000
 1.802731277753356e+000	 3.486514726803944e+000	 9.941463108153153e+000
 2.161478525875483e+000	 3.306132269294256e+000	 1.012214773218254e+001
 2.127511159634852e+000	 3.328091985734265e+000	 1.009848454690729e+001
 2.093358859307605e+000	 3.349678892973584e+000	 1.007387938075664e+001
 2.059027672069427e+000	 3.370890838565784e+000	 1.004922740999191e+001
 2.024523673670420e+000	 3.391725798856314e+000	 1.002541563883441e+001
 1.989852965061669e+000	 3.412181879285588e+000	 1.000332075066611e+001
 1.955021669026410e+000	 3.432257314587889e+000	 9.983806997988818e+000
 1.920035926819483e+000	 3.451950468886766e+000	 9.967724136330480e+000
 1.884901894818720e+000	 3.471259835687771e+000	 9.955905407099612e+000
 1.849625741191810e+000	 3.490184037769494e+000	 9.951425053586906e+000
 1.814213642582192e+000	 3.508721826974003e+000	 9.946273647214513e+000
 2.175158769712056e+000	 3.327057157078940e+000	 1.012293975899481e+001
 2.140976420141436e+000	 3.349155859065959e+000	 1.010779241613546e+001
 2.106607966015173e+000	 3.370879392300290e+000	 1.008978883004776e+001
 2.072059492782216e+000	 3.392225590712424e+000	 1.006980742236510e+001
 2.037337114646784e+000	 3.413192417839873e+000	 1.004872048094603e+001
 2.002446971173575e+000	 3.433777967132169e+000	 1.002739198511953e+001
 1.967395223897617e+000	 3.453980462151023e+000	 1.000667546735940e+001
 1.932188052942455e+000	 3.473798256666338e+000	 9.987411916687725e+000
 1.896831653650335e+000	 3.493229834648894e+000	 9.970427728922378e+000
 1.861332233227986e+000	 3.512273810160688e+000	 9.957878661114538e+000
 1.825696007411525e+000	 3.530928927144053e+000	 9.945104238499015e+000
 2.188839013548634e+000	 3.347982044864625e+000	 1.012856048642126e+001
 2.154441680648210e+000	 3.370219732398643e+000	 1.012071252837625e+001
 2.119857072723086e+000	 3.392079891627955e+000	 1.010811700062566e+001
 2.085091313495476e+000	 3.413560342859975e+000	 1.009163646354682e+001
 2.050150555623710e+000	 3.434659036824271e+000	 1.007212936311711e+001
 2.015040977286107e+000	 3.455374054979496e+000	 1.005044782917840e+001
 1.979768778769484e+000	 3.475703609714792e+000	 1.002743550783441e+001
 1.944340179066091e+000	 3.495646044446416e+000	 1.000392543339462e+001
 1.908761412482589e+000	 3.515199833610370e+000	 9.980737945096585e+000
 1.873038725264743e+000	 3.534363582552064e+000	 9.958905275658896e+000
 1.837178372241353e+000	 3.553136027314097e+000	 9.937914551486770e+000
 1.722354723965393e+000	 3.331065025613313e+000	 9.743245302963251e+000
 1.688612450138004e+000	 3.348296282186655e+000	 9.757135792399366e+000
 1.654752854085250e+000	 3.365158687490438e+000	 9.763397565905438e+000
 1.620781805199965e+000	 3.381651422020274e+000	 9.761495009972741e+000
 1.586705168581186e+000	 3.397773787074999e+000	 9.750909964134978e+000
 1.552528802025695e+000	 3.413525204100325e+000	 9.731142729531523e+000
 1.518258553056114e+000	 3.428905213945839e+000	 9.701713034382554e+000
 1.483900255988309e+000	 3.443913476037222e+000	 9.662160954383426e+000
 1.449459729040826e+000	 3.458549767465619e+000	 9.612047786181435e+000
 1.414942771488918e+000	 3.472813981996223e+000	 9.550956872254218e+000
 1.380355160865667e+000	 3.486706128998200e+000	 9.478494375670067e+000
 1.733837088790757e+000	 3.353272125783427e+000	 9.788985484941211e+000
 1.699869866471438e+000	 3.370618257401203e+000	 9.790389571109428e+000
 1.665784539778524e+000	 3.387593078740911e+000	 9.785575499227781e+000
 1.631587017234134e+000	 3.404195764834802e+000	 9.774019327379495e+000
 1.597283203037966e+000	 3.420425612323706e+000	 9.755213068179366e+000
 1.562878994038781e+000	 3.436282038796303e+000	 9.728665718633133e+000
 1.528380276742685e+000	 3.451764582041180e+000	 9.693904248443159e+000
 1.493792924360984e+000	 3.466872899213522e+000	 9.650474544689102e+000
 1.459122793900349e+000	 3.481606765918415e+000	 9.597942310962283e+000
 1.424375723297866e+000	 3.495966075212821e+000	 9.535893919190214e+000
 1.389557528603505e+000	 3.509950836528365e+000	 9.463937212547718e+000
 1.745319453616616e+000	 3.375479225953533e+000	 9.828960508573587e+000
 1.711127282805278e+000	 3.392940232615552e+000	 9.818756395929363e+000
 1.676816225472134e+000	 3.410027469991017e+000	 9.803723655158370e+000
 1.642392229268591e+000	 3.426740107648816e+000	 9.783349491701612e+000
 1.607861237495004e+000	 3.443077437571767e+000	 9.757135583999649e+000
 1.573229186052117e+000	 3.459038873491527e+000	 9.724599135147672e+000
 1.538502000429518e+000	 3.474623950135679e+000	 9.685273884506040e+000
 1.503685592733952e+000	 3.489832322388909e+000	 9.638711077110308e+000
 1.468785858760215e+000	 3.504663764370250e+000	 9.584480388877758e+000
 1.433808675107228e+000	 3.519118168428427e+000	 9.522170805763473e+000
 1.398759896341848e+000	 3.533195544057530e+000	 9.451391455176209e+000
 1.756801818442972e+000	 3.397686326123631e+000	 9.863147486876452e+000
 1.722384699139524e+000	 3.415262207829704e+000	 9.842202134776919e+000
 1.687847911166081e+000	 3.432461861240755e+000	 9.817797107859850e+000
 1.653197441303335e+000	 3.449284450462311e+000	 9.789430235899548e+000
 1.618439271952302e+000	 3.465729262819183e+000	 9.756612356822611e+000
 1.583579378065704e+000	 3.481795708185997e+000	 9.718868390663841e+000
 1.548623724116613e+000	 3.497483318229334e+000	 9.675738374957298e+000
 1.513578261107214e+000	 3.512791745563387e+000	 9.626778459324479e+000
 1.478448923620425e+000	 3.527720762821125e+000	 9.571561857172460e+000
 1.443241626917004e+000	 3.542270261643044e+000	 9.509679752569813e+000
 1.407962264080697e+000	 3.556440251585694e+000	 9.440742160527584e+000
 1.768284183269824e+000	 3.419893426293720e+000	 9.891520791949953e+000
 1.733642115474177e+000	 3.437584183043659e+000	 9.860690282575172e+000
 1.698879596860366e+000	 3.454896252490127e+000	 9.827748915413022e+000
 1.664002653338367e+000	 3.471828793275291e+000	 9.792204622646009e+000
 1.629017306409860e+000	 3.488381088065955e+000	 9.753576896160720e+000
 1.593929570079541e+000	 3.504552542879713e+000	 9.711397884312943e+000
 1.558745447803969e+000	 3.520342686322146e+000	 9.665213451579767e+000
 1.523470929480769e+000	 3.535751168736951e+000	 9.614584198778450e+000
 1.488111988480980e+000	 3.550777761271038e+000	 9.559086441678948e+000
 1.452674578727196e+000	 3.565422354856671e+000	 9.498313145994624e+000
 1.417164631820050e+000	 3.579684959112860e+000	 9.431874816892076e+000
 1.779766548097172e+000	 3.442100526463804e+000	 9.914052143394908e+000
 1.744899531809236e+000	 3.459906158257415e+000	 9.874182037800788e+000
 1.709911282554987e+000	 3.477330643739131e+000	 9.833530184851924e+000
 1.674807865373688e+000	 3.494373136087754e+000	 9.791614098206335e+000
 1.639595340867676e+000	 3.511032913312080e+000	 9.747961418899287e+000
 1.604279762093629e+000	 3.527309377572675e+000	 9.702111035428660e+000
 1.568867171491588e+000	 3.543202054414117e+000	 9.653614168153412e+000
 1.533363597854616e+000	 3.558710591909605e+000	 9.602035415598797e+000
 1.497775053341879e+000	 3.573834759719990e+000	 9.546953760411798e+000
 1.462107530537803e+000	 3.588574448069307e+000	 9.487963532865004e+000
 1.426366999559909e+000	 3.602929666639025e+000	 9.424675329964467e+000
 1.791248912925016e+000	 3.464307626633877e+000	 9.930710693328896e+000
 1.756156948144701e+000	 3.482228133470974e+000	 9.882636376088010e+000
 1.720942968249945e+000	 3.499765034987769e+000	 9.835090134697156e+000
 1.685613077409296e+000	 3.516917478899702e+000	 9.787598544246579e+000
 1.650173375325751e+000	 3.533684738557561e+000	 9.739696890727005e+000
 1.614629954107967e+000	 3.550066212264884e+000	 9.690930314951078e+000
 1.578988895179468e+000	 3.566061422505243e+000	 9.640854922185948e+000
 1.543256266228757e+000	 3.581670015081346e+000	 9.589038855005931e+000
 1.507438118203121e+000	 3.596891758167981e+000	 9.535063327023089e+000
 1.471540482348825e+000	 3.611726541280953e+000	 9.478523615307159e+000
 1.435569367300273e+000	 3.626174374164190e+000	 9.419030009465898e+000
 1.802731277753356e+000	 3.486514726803944e+000	 9.941463108153153e+000
 1.767414364480573e+000	 3.504550108684335e+000	 9.886010121019844e+000
 1.731974653945240e+000	 3.522199426236039e+000	 9.832376155099643e+000
 1.696418289445192e+000	 3.539461821711133e+000	 9.780096327661191e+000
 1.660751409784086e+000	 3.556336563802396e+000	 9.728713065982978e+000
 1.624980146122556e+000	 3.572823046956338e+000	 9.677777275630138e+000
 1.589110618867610e+000	 3.588920790595527e+000	 9.626849475813419e+000
 1.553148934603191e+000	 3.604629438252175e+000	 9.575500899254131e+000
 1.517101183064709e+000	 3.619948756615013e+000	 9.523314554126229e+000
 1.480973434160261e+000	 3.634878634491608e+000	 9.469886245800780e+000
 1.444771735041142e+000	 3.649419081688354e+000	 9.414825556276556e+000
 1.814213642582192e+000	 3.508721826974003e+000	 9.946273647214513e+000
 1.778671780816851e+000	 3.526872083897497e+000	 9.884258012231026e+000
 1.743006339640873e+000	 3.544633817483943e+000	 9.825333865700687e+000
 1.707223501481376e+000	 3.562006164522049e+000	 9.769044348509119e+000
 1.671329444242679e+000	 3.578988389046587e+000	 9.714938525990529e+000
 1.635330338137395e+000	 3.595579881647038e+000	 9.662572581082209e+000
 1.599232342556014e+000	 3.611780158684969e+000	 9.611510975906699e+000
 1.563041602977918e+000	 3.627588861422093e+000	 9.561327579117389e+000
 1.526764247926640e+000	 3.643005755061083e+000	 9.511606756493395e+000
 1.490406385972113e+000	 3.658030727701274e+000	 9.461944422420865e+000
 1.453974102782516e+000	 3.672663789211519e+000	 9.411949050057439e+000
 1.825696007411525e+000	 3.530928927144053e+000	 9.945104238499015e+000
 1.789929197153535e+000	 3.549194059110465e+000	 9.877332770940724e+000
 1.754038025336842e+000	 3.567068208731479e+000	 9.813907171308010e+000
 1.718028713517848e+000	 3.584550507332446e+000	 9.754378086140633e+000
 1.681907478701533e+000	 3.601640214290131e+000	 9.698300715944500e+000
 1.645680530152485e+000	 3.618336716336984e+000	 9.645236033750601e+000
 1.609354066244680e+000	 3.634639526773566e+000	 9.594751973419740e+000
 1.572934271352938e+000	 3.650548284591098e+000	 9.546424584942532e+000
 1.536427312788915e+000	 3.666062753506191e+000	 9.499839154132118e+000
 1.499839337784379e+000	 3.681182820909949e+000	 9.454591284259246e+000
 1.463176470524395e+000	 3.695908496733685e+000	 9.410287937338875e+000
 1.837178372241353e+000	 3.553136027314097e+000	 9.937914551486770e+000
 1.801186613490626e+000	 3.571516034323234e+000	 9.865185163028471e+000
 1.765069711033149e+000	 3.589502599978649e+000	 9.798038315484549e+000
 1.728833925554609e+000	 3.607094850142330e+000	 9.736031643594302e+000
 1.692485513160645e+000	 3.624292039533032e+000	 9.678725980415258e+000
 1.656030722167825e+000	 3.641093551026176e+000	 9.625686601816780e+000
 1.619475789933608e+000	 3.657498894861322e+000	 9.576484442011616e+000
 1.582826939728251e+000	 3.673507707759193e+000	 9.530697277287466e+000
 1.546090377651535e+000	 3.689119751950340e+000	 9.487910875246930e+000
 1.509272289597061e+000	 3.704334914117635e+000	 9.447720107017995e+000
 1.472378838266780e+000	 3.719153204254850e+000	 9.409730020055969e+000
 1.380355160865667e+000	 3.486706128998200e+000	 9.478494375670067e+000
 1.345702650213483e+000	 3.500226332298184e+000	 9.378153004866226e+000
 1.310990965385763e+000	 3.513374828959480e+000	 9.296122358681984e+000
 1.276225802402122e+000	 3.526151967989605e+000	 9.232186198560372e+000
 1.241412824861387e+000	 3.538558208978485e+000	 9.185690149926082e+000
 1.206557661411702e+000	 3.550594120669679e+000	 9.147133779017606e+000
 1.171665903280343e+000	 3.562260379467234e+000	 9.112055428321492e+000
 1.136743101864963e+000	 3.573557767880752e+000	 9.079598250833845e+000
 1.101794766387844e+000	 3.584487172911276e+000	 9.048947975798903e+000
 1.066826361614634e+000	 3.595049584380677e+000	 9.019334554391739e+000
 1.031843305638912e+000	 3.605246093207198e+000	 8.990033667432664e+000
 1.389557528603505e+000	 3.509950836528365e+000	 9.463937212547718e+000
 1.354674001213380e+000	 3.523561174517189e+000	 9.371466454641906e+000
 1.319730905153325e+000	 3.536797327823012e+000	 9.296343243397374e+000
 1.284733974416421e+000	 3.549659647780073e+000	 9.238338304794329e+000
 1.249688910358819e+000	 3.562148597042228e+000	 9.197216001382801e+000
 1.214601379152983e+000	 3.574264748144659e+000	 9.165253067568346e+000
 1.179477009301037e+000	 3.586008782000778e+000	 9.135289019492364e+000
 1.144321389209951e+000	 3.597381486336912e+000	 9.106434570830899e+000
 1.109140064830154e+000	 3.608383754067449e+000	 9.077845105844640e+000
 1.073938537359065e+000	 3.619016581613070e+000	 9.048722355690352e+000
 1.038722261010886e+000	 3.629281067164810e+000	 9.018315932550497e+000
 1.398759896341848e+000	 3.533195544057530e+000	 9.451391455176209e+000
 1.363645352213865e+000	 3.546896016735199e+000	 9.366783773861579e+000
 1.328470844921530e+000	 3.560219826685568e+000	 9.298568031115689e+000
 1.293242146431386e+000	 3.573167327569589e+000	 9.246501649136562e+000
 1.257964995856910e+000	 3.585738985105053e+000	 9.210340753627362e+000
 1.222645096894885e+000	 3.597935375618769e+000	 9.185072738546205e+000
 1.187288115322285e+000	 3.609757184533503e+000	 9.160567698803032e+000
 1.151899676555395e+000	 3.621205204792321e+000	 9.135659115439994e+000
 1.116485363272794e+000	 3.632280335222947e+000	 9.109471273948122e+000
 1.081050713103669e+000	 3.642983578844874e+000	 9.081176950470914e+000
 1.045601216382847e+000	 3.653316041121927e+000	 9.049998973173928e+000
 1.407962264080697e+000	 3.556440251585694e+000	 9.440742160527584e+000
 1.372616703214941e+000	 3.570230858952214e+000	 9.363996131524894e+000
 1.337210784690379e+000	 3.583642325547142e+000	 9.302693806096475e+000
 1.301750318447018e+000	 3.596675007358150e+000	 9.256579031492544e+000
 1.266241081355660e+000	 3.609329373166960e+000	 9.225395378239039e+000
 1.230688814637409e+000	 3.621606003092004e+000	 9.206362566828799e+000
 1.195099221344087e+000	 3.633505587065414e+000	 9.187671988720018e+000
 1.159477963901296e+000	 3.645028923246980e+000	 9.167062894968346e+000
 1.123830661715763e+000	 3.656176916377770e+000	 9.143627711676039e+000
 1.088162888848447e+000	 3.666950576076089e+000	 9.116509518440946e+000
 1.052480171754797e+000	 3.677351015078551e+000	 9.084903637794037e+000
 1.417164631820050e+000	 3.579684959112860e+000	 9.431874816892076e+000
 1.381588054216606e+000	 3.593565701168235e+000	 9.362995048674584e+000
 1.345950724459871e+000	 3.607064824407739e+000	 9.308617930423189e+000
 1.310258490463316e+000	 3.620182687145758e+000	 9.268473460429560e+000
 1.274517166855068e+000	 3.632919761227949e+000	 9.242292380272522e+000
 1.238732532380554e+000	 3.645276630564370e+000	 9.228892412788632e+000
 1.202910327366442e+000	 3.657253989596509e+000	 9.216382443187621e+000
 1.167056251247653e+000	 3.668852641700889e+000	 9.200436902213738e+000
 1.131175960159061e+000	 3.680073497531919e+000	 9.180115589114799e+000
 1.095275064593397e+000	 3.690917573306715e+000	 9.154531138855933e+000
 1.059359127126733e+000	 3.701385989034681e+000	 9.122850640458118e+000
 1.426366999559909e+000	 3.602929666639025e+000	 9.424675329964467e+000
 1.390559405218861e+000	 3.616900543383259e+000	 9.363672387040504e+000
 1.354690664230007e+000	 3.630487323267354e+000	 9.316238035041460e+000
 1.318766662480280e+000	 3.643690366932412e+000	 9.282088146445245e+000
 1.282793252355136e+000	 3.656510149288021e+000	 9.260940357424293e+000
 1.246776250124321e+000	 3.668947258035863e+000	 9.252432219535464e+000
 1.210721433389352e+000	 3.681002392126787e+000	 9.246479646612478e+000
 1.174634538594466e+000	 3.692676360154047e+000	 9.235572113029425e+000
 1.138521258602689e+000	 3.703970078685392e+000	 9.218736016853825e+000
 1.102387240338520e+000	 3.714884570536752e+000	 9.195052793759949e+000
 1.066238082498657e+000	 3.725420962990318e+000	 9.163660565106470e+000
 1.435569367300273e+000	 3.626174374164190e+000	 9.419030009465898e+000
 1.399530756221705e+000	 3.640235385597289e+000	 9.365920338120077e+000
 1.363430604000785e+000	 3.653909822125991e+000	 9.325452011141399e+000
 1.327274834497912e+000	 3.667198046718112e+000	 9.297326495495813e+000
 1.291069337855864e+000	 3.680100537347176e+000	 9.281248042797936e+000
 1.254819967868709e+000	 3.692617885506485e+000	 9.276924592108458e+000
 1.218532539412814e+000	 3.704750794656250e+000	 9.277744212887143e+000
 1.182212825941736e+000	 3.716500078606457e+000	 9.272259486867077e+000
 1.145866557046645e+000	 3.727866659838191e+000	 9.259290047892128e+000
 1.109499416083816e+000	 3.738851567766201e+000	 9.237885371101076e+000
 1.073117037870568e+000	 3.749455936945461e+000	 9.207153869742697e+000
 1.444771735041142e+000	 3.649419081688354e+000	 9.414825556276556e+000
 1.408502107225139e+000	 3.663570227810325e+000	 9.369631412676068e+000
 1.372170543772207e+000	 3.677332320983648e+000	 9.336158001869924e+000
 1.335783006516209e+000	 3.690705726502859e+000	 9.314092102771078e+000
 1.299345423357249e+000	 3.703690925405411e+000	 9.303124300591614e+000
 1.262863685613718e+000	 3.716288512976234e+000	 9.302949902343118e+000
 1.226343645436831e+000	 3.728499197184896e+000	 9.309956784451105e+000
 1.189791113289461e+000	 3.740323797058115e+000	 9.310289967299294e+000
 1.153211855490932e+000	 3.751763240990317e+000	 9.296905637858904e+000
 1.116611591829285e+000	 3.762818564995060e+000	 9.251653679346820e+000
 1.079995993242467e+000	 3.773490910900110e+000	 9.202803076861279e+000
 1.453974102782516e+000	 3.672663789211519e+000	 9.411949050057439e+000
 1.417473458229163e+000	 3.686905070022366e+000	 9.374698430633377e+000
 1.380910483544273e+000	 3.700754819840327e+000	 9.348254394357040e+000
 1.344291178535173e+000	 3.714213406286652e+000	 9.332288746706011e+000
 1.307621508859294e+000	 3.727281313462730e+000	 9.326478121949455e+000
 1.270907403359350e+000	 3.739959140445111e+000	 9.330504911781977e+000
 1.234154751461401e+000	 3.752247599712727e+000	 9.336379238411062e+000
 1.197369400637643e+000	 3.764147515509024e+000	 9.309187749356841e+000
 1.160557153935547e+000	 3.775659822141768e+000	 9.275617553166738e+000
 1.123723767574927e+000	 3.786785562223331e+000	 9.237017019288732e+000
 1.086874948614353e+000	 3.797525884854265e+000	 9.194643411788247e+000
 1.463176470524395e+000	 3.695908496733685e+000	 9.410287937338875e+000
 1.426444809233777e+000	 3.710239912233413e+000	 9.381014511356831e+000
 1.389650423316982e+000	 3.724177318696026e+000	 9.361639812043736e+000
 1.352799350554802e+000	 3.737721086069490e+000	 9.351820383218593e+000
 1.315897594361999e+000	 3.750871701519130e+000	 9.348725437998906e+000
 1.278951121105602e+000	 3.763629767913117e+000	 9.319916979332668e+000
 1.241965857486526e+000	 3.775996002239742e+000	 9.300295489332758e+000
 1.204947687986282e+000	 3.787971233959182e+000	 9.279750953205234e+000
 1.167902452380492e+000	 3.799556403292546e+000	 9.252595601956713e+000
 1.130835943320742e+000	 3.810752559451013e+000	 9.220220464584994e+000
 1.093753903986227e+000	 3.821560858807927e+000	 9.183923832423771e+000
 1.472378838266780e+000	 3.719153204254850e+000	 9.409730020055969e+000
 1.435416160238980e+000	 3.733574754443465e+000	 9.388473064293789e+000
 1.398390363090334e+000	 3.747599817550745e+000	 9.376213107297133e+000
 1.361307522575100e+000	 3.761228765851377e+000	 9.341248982673394e+000
 1.324173679865362e+000	 3.774462089574614e+000	 9.307161674989578e+000
 1.286994838852476e+000	 3.787300395380251e+000	 9.281062642388775e+000
 1.249776963512204e+000	 3.799744404765942e+000	 9.263574777817773e+000
 1.212525975335377e+000	 3.811794952408591e+000	 9.249194389463119e+000
 1.175247750825766e+000	 3.823452984442648e+000	 9.227995636673898e+000
 1.137948119066730e+000	 3.834719556678107e+000	 9.201412960048238e+000
 1.100632859358089e+000	 3.845595832761096e+000	 9.170786389173893e+000
 1.031843305638912e+000	 3.605246093207198e+000	 8.990033667432664e+000
 9.968509677335214e-001	 3.615077889630200e+000	 8.965260260891830e+000
 9.618546662704745e-001	 3.624546261385974e+000	 8.945319373684621e+000
 9.268596667103954e-001	 3.633652591837827e+000	 8.929608053517523e+000
 8.918711796614026e-001	 3.642398358063882e+000	 8.917568812135933e+000
 8.568943590090278e-001	 3.650785128904495e+000	 8.908690549570814e+000
 8.219343001176305e-001	 3.658814562972306e+000	 8.902509344508539e+000
 7.869960381038458e-001	 3.666488406627660e+000	 8.898609111945147e+000
 7.520845461825019e-001	 3.673808491922170e+000	 8.896622129637590e+000
 7.172047340853268e-001	 3.680776734513124e+000	 8.896229435202228e+000
 6.823614465526605e-001	 3.687395131551449e+000	 8.897161096031145e+000
 1.038722261010886e+000	 3.629281067164810e+000	 9.018315932550497e+000
 1.003496640853508e+000	 3.639178408896960e+000	 8.991118534687347e+000
 9.682670307146524e-001	 3.648709903130721e+000	 8.966506927365955e+000
 9.330387311580157e-001	 3.657876942451824e+000	 8.943858441036806e+000
 8.978169875291040e-001	 3.666681013785579e+000	 8.922598607870748e+000
 8.626069880726872e-001	 3.675123696431279e+000	 8.902202082657000e+000
 8.274138621222209e-001	 3.683206660058982e+000	 8.882193425387319e+000
 7.922426783617852e-001	 3.690931662671434e+000	 8.862147746783379e+000
 7.570984431609750e-001	 3.698300548533929e+000	 8.841691218384762e+000
 7.219860989830635e-001	 3.705315246074803e+000	 8.820501449159410e+000
 6.869105228666611e-001	 3.711977765759321e+000	 8.798307730927419e+000
 1.045601216382847e+000	 3.653316041121927e+000	 9.049998973173928e+000
 1.010142313973292e+000	 3.663278928163324e+000	 9.020579634076981e+000
 9.746793951584590e-001	 3.672873544875174e+000	 8.991502467269067e+000
 9.392177956051158e-001	 3.682101293065625e+000	 8.962124421377055e+000
 9.037627953961572e-001	 3.690963669507182e+000	 8.931853402099966e+000
 8.683196171355901e-001	 3.699462263958070e+000	 8.900149190398818e+000
 8.328934241259666e-001	 3.707598757145765e+000	 8.866524217884667e+000
 7.974893186188121e-001	 3.715374918715417e+000	 8.830544200758750e+000
 7.621123401384867e-001	 3.722792605145996e+000	 8.791828634025936e+000
 7.267674638798101e-001	 3.729853757636888e+000	 8.750051148056208e+000
 6.914595991796617e-001	 3.736560399967698e+000	 8.704939729905615e+000
 1.052480171754797e+000	 3.677351015078551e+000	 9.084903637794037e+000
 1.016787987092874e+000	 3.687379447429296e+000	 9.053476290328460e+000
 9.810917596018945e-001	 3.697037186619333e+000	 9.020150154698433e+000
 9.453968600516964e-001	 3.706325643679236e+000	 8.984261128065006e+000
 9.097086032625622e-001	 3.715246325228692e+000	 8.945198838088341e+000
 8.740322461977368e-001	 3.723800831484868e+000	 8.902407559049347e+000
 8.383729861288681e-001	 3.731990854232655e+000	 8.855386980631357e+000
 8.027359588749260e-001	 3.739818174759606e+000	 8.803692830811277e+000
 7.671262371150371e-001	 3.747284661758370e+000	 8.746937354685791e+000
 7.315488287755665e-001	 3.754392269199381e+000	 8.705145685179778e+000
 6.960086754916622e-001	 3.761143034176585e+000	 8.680296427262578e+000
 1.059359127126733e+000	 3.701385989034681e+000	 9.122850640458118e+000
 1.023433660212254e+000	 3.711479966694873e+000	 9.089641006314954e+000
 9.875041240449586e-001	 3.721200828363198e+000	 9.052293837748286e+000
 9.515759244977566e-001	 3.730549994292651e+000	 9.010123305703063e+000
 9.156544111283191e-001	 3.739528980950110e+000	 8.962500103524587e+000
 8.797448752591270e-001	 3.748139399011673e+000	 8.908852361652770e+000
 8.438525481309249e-001	 3.756382951319653e+000	 8.859547754537990e+000
 8.079825991301270e-001	 3.764261430804003e+000	 8.817643948135974e+000
 7.721401340906262e-001	 3.771776718371052e+000	 8.781744743823449e+000
 7.363301936703323e-001	 3.778930780762281e+000	 8.752121628565400e+000
 7.005577518026629e-001	 3.785725668385978e+000	 8.728957198045462e+000
 1.066238082498657e+000	 3.725420962990318e+000	 9.163660565106470e+000
 1.030079333331432e+000	 3.735580485960057e+000	 9.128906063882225e+000
 9.939164884876516e-001	 3.745364470106771e+000	 9.087777061405967e+000
 9.577549889432974e-001	 3.754774344905874e+000	 9.037050267688601e+000
 9.216002189934277e-001	 3.763811636671432e+000	 8.984727099049744e+000
 8.854575043197611e-001	 3.772477966538485e+000	 8.936396895820506e+000
 8.493321101321374e-001	 3.780775048406756e+000	 8.892631788129247e+000
 8.132292393844156e-001	 3.788704686848607e+000	 8.853911951028922e+000
 7.771540310652541e-001	 3.796268774984041e+000	 8.820626013412992e+000
 7.411115585641076e-001	 3.803469292325590e+000	 8.793071658175698e+000
 7.051068281126635e-001	 3.810308302595879e+000	 8.771456407618949e+000
 1.073117037870568e+000	 3.749455936945461e+000	 9.207153869742697e+000
 1.036725006450407e+000	 3.759681005224847e+000	 9.155069005167452e+000
 1.000328852929973e+000	 3.769528111850049e+000	 9.102882598792462e+000
 9.639340533883182e-001	 3.778998695518902e+000	 9.052583783547149e+000
 9.275460268578883e-001	 3.788094292392663e+000	 9.004961754976693e+000
 8.911701333796387e-001	 3.796816534065303e+000	 8.960712335864800e+000
 8.548116721325053e-001	 3.805167145493967e+000	 8.920437954891000e+000
 8.184758796377912e-001	 3.813147942893418e+000	 8.884647831210440e+000
 7.821679280389206e-001	 3.820760831597337e+000	 8.853758359687960e+000
 7.458929234568927e-001	 3.828007803889304e+000	 8.828093691105442e+000
 7.096559044216639e-001	 3.834890936806286e+000	 8.807886501277887e+000
 1.079995993242467e+000	 3.773490910900110e+000	 9.202803076861279e+000
 1.043370679569180e+000	 3.783781524489244e+000	 9.155892254969514e+000
 1.006741217371923e+000	 3.793691753593033e+000	 9.109302936785396e+000
 9.701131178328190e-001	 3.803223046131738e+000	 9.063951893888561e+000
 9.334918347217005e-001	 3.812376948113800e+000	 9.020661550650468e+000
 8.968827624387600e-001	 3.821155101592128e+000	 8.980159716912414e+000
 8.602912341320287e-001	 3.829559242581285e+000	 8.943079535363937e+000
 8.237225198902540e-001	 3.837591198938435e+000	 8.909959638755138e+000
 7.871818250116256e-001	 3.845252888210939e+000	 8.881244511625065e+000
 7.506742883486873e-001	 3.852546315453426e+000	 8.857285050804000e+000
 7.142049807296647e-001	 3.859473571017202e+000	 8.838339318557537e+000
 1.086874948614353e+000	 3.797525884854265e+000	 9.194643411788247e+000
 1.050016352687752e+000	 3.807882043753248e+000	 9.153533529551355e+000
 1.013153581813503e+000	 3.817855395335725e+000	 9.112096010064860e+000
 9.762921822768005e-001	 3.827447396744380e+000	 9.071282620967271e+000
 9.394376425848647e-001	 3.836659603834844e+000	 9.031949529977540e+000
 9.025953914971249e-001	 3.845493669118961e+000	 8.994857002282741e+000
 8.657707961307076e-001	 3.853951339668709e+000	 8.960669316656588e+000
 8.289691601418042e-001	 3.862034454983661e+000	 8.929954895401162e+000
 7.921957219833692e-001	 3.869744944824849e+000	 8.903186642740314e+000
 7.554556532394918e-001	 3.877084827017955e+000	 8.880742485861539e+000
 7.187540570366653e-001	 3.884056205228624e+000	 8.862906112403046e+000
 1.093753903986227e+000	 3.821560858807927e+000	 9.183923832423771e+000
 1.056662025806120e+000	 3.831982563016857e+000	 9.148130279688767e+000
 1.019565946254710e+000	 3.842019037078121e+000	 9.111394443822348e+000
 9.824712467202612e-001	 3.851671747356829e+000	 9.074703656227230e+000
 9.453834504473807e-001	 3.860942259555793e+000	 9.038948349361677e+000
 9.083080205547334e-001	 3.869832236645799e+000	 9.004921718771193e+000
 8.712503581285419e-001	 3.878343436756241e+000	 8.973319607962273e+000
 8.342158003924415e-001	 3.886477711029093e+000	 8.944740611164516e+000
 7.972096189541517e-001	 3.894237001439068e+000	 8.919686388556336e+000
 7.602370181293057e-001	 3.901623338582893e+000	 8.898562188086540e+000
 7.233031333426661e-001	 3.908638839440555e+000	 8.881677567615656e+000
 1.100632859358089e+000	 3.845595832761096e+000	 9.170786389173893e+000
 1.063307698924287e+000	 3.856083082280073e+000	 9.139819767961059e+000
 1.025978310695547e+000	 3.866182678820226e+000	 9.107330605164924e+000
 9.886503111632028e-001	 3.875896097969085e+000	 9.074342370639997e+000
 9.513292583092484e-001	 3.885224915276652e+000	 9.041780289813364e+000
 9.140206496115856e-001	 3.894170804172645e+000	 9.010470970290681e+000
 8.767299201255320e-001	 3.902735533843881e+000	 8.981142255493742e+000
 8.394624406421662e-001	 3.910920967074734e+000	 8.954423300330381e+000
 8.022235159239728e-001	 3.918729058053592e+000	 8.930844863414784e+000
 7.650183830181295e-001	 3.926161850148238e+000	 8.910839809905069e+000
 7.278522096476668e-001	 3.933221473652993e+000	 8.894743818607342e+000
 6.823614465526605e-001	 3.687395131551449e+000	 8.897161096031145e+000
 6.475594618980655e-001	 3.693665759545780e+000	 8.823307663928803e+000
 6.128034906466536e-001	 3.699590772205656e+000	 8.779951376059337e+000
 5.780981742462338e-001	 3.705172398266261e+000	 8.791642820058327e+000
 5.434480838508567e-001	 3.710412939297010e+000	 8.795246096509072e+000
 5.088577191772328e-001	 3.715314767496883e+000	 8.792102213013271e+000
 4.743315074333473e-001	 3.719880323478916e+000	 8.783501682723429e+000
 4.398738023188186e-001	 3.724112114046291e+000	 8.770682871560727e+000
 4.054888830964497e-001	 3.728012709962431e+000	 8.754830504598576e+000
 3.711809537343529e-001	 3.731584743717474e+000	 8.737074330426058e+000
 3.369541421179410e-001	 3.734830907293413e+000	 8.718487941917628e+000
 6.869105228666611e-001	 3.711977765759321e+000	 8.798307730927419e+000
 6.518765249807942e-001	 3.718290197939601e+000	 8.706787935669505e+000
 6.168888472541161e-001	 3.724254710683340e+000	 8.630406657861627e+000
 5.819521620774210e-001	 3.729873547583953e+000	 8.613771523655673e+000
 5.470710710791203e-001	 3.735149025554648e+000	 8.587665271040835e+000
 5.122501039740356e-001	 3.740083532609068e+000	 8.553477320921914e+000
 4.774937174848729e-001	 3.744679525630999e+000	 8.512546338489317e+000
 4.428062943359145e-001	 3.748939528135642e+000	 8.466158511399581e+000
 4.081921423183823e-001	 3.752866128024843e+000	 8.461217523393970e+000
 3.736554934268430e-001	 3.756461975338674e+000	 8.473217129572285e+000
 3.392005030659454e-001	 3.759729780005672e+000	 8.486632857693168e+000
 6.914595991796617e-001	 3.736560399967698e+000	 8.704939729905615e+000
 6.561935880625281e-001	 3.742914636334019e+000	 8.595599453901730e+000
 6.209742038605993e-001	 3.748918649161690e+000	 8.487713074658020e+000
 5.858061499076548e-001	 3.754574696902359e+000	 8.484764907327506e+000
 5.506940583064666e-001	 3.759885111813029e+000	 8.490250133423267e+000
 5.156424887699677e-001	 3.764852297722003e+000	 8.495715774904380e+000
 4.806559275355840e-001	 3.769478727783819e+000	 8.501517357442189e+000
 4.457387863522619e-001	 3.773766942225699e+000	 8.507918886530318e+000
 4.108954015396423e-001	 3.777719546087910e+000	 8.515095604943328e+000
 3.761300331187461e-001	 3.781339206960455e+000	 8.523136845229889e+000
 3.414468640134582e-001	 3.784628652718419e+000	 8.532048967571029e+000
 6.960086754916622e-001	 3.761143034176585e+000	 8.680296427262578e+000
 6.605106511432675e-001	 3.767539074729034e+000	 8.608930632971180e+000
 6.250595604661036e-001	 3.773582587640705e+000	 8.540558511294194e+000
 5.896601377369356e-001	 3.779275846221478e+000	 8.545467496097672e+000
 5.543170455328959e-001	 3.784621198072152e+000	 8.549569600148667e+000
 5.190348735650290e-001	 3.789621062835688e+000	 8.553187566655996e+000
 4.838181375854804e-001	 3.794277929937376e+000	 8.556670751874817e+000
 4.486712783678608e-001	 3.798594356316461e+000	 8.560276006005021e+000
 4.135986607602300e-001	 3.802572964151630e+000	 8.564170478277987e+000
 3.786045728100624e-001	 3.806216438582819e+000	 8.568434518137343e+000
 3.436932249604792e-001	 3.809527525431660e+000	 8.573064662687175e+000
 7.005577518026629e-001	 3.785725668385978e+000	 8.728957198045462e+000
 6.648277142230121e-001	 3.792163513124647e+000	 8.665469690795876e+000
 6.291449170706286e-001	 3.798246526120384e+000	 8.604473027275700e+000
 5.935141255652632e-001	 3.803976995541311e+000	 8.601044269087330e+000
 5.579400327584080e-001	 3.809357284332017e+000	 8.603743947798188e+000
 5.224272583592192e-001	 3.814389827950121e+000	 8.605537625589278e+000
 4.869803476345622e-001	 3.819077132091672e+000	 8.606768107278965e+000
 4.516037703827113e-001	 3.823421770407927e+000	 8.607684665687099e+000
 4.163019199801448e-001	 3.827426382216002e+000	 8.608445895752093e+000
 3.810791125007916e-001	 3.831093670205765e+000	 8.609122665827794e+000
 3.459395859070087e-001	 3.834426398145392e+000	 8.609701156172886e+000
 7.051068281126635e-001	 3.810308302595879e+000	 8.771456407618949e+000
 6.691447773017617e-001	 3.816787951520856e+000	 8.715410756937278e+000
 6.332302736741743e-001	 3.822910464600731e+000	 8.661392056880464e+000
 5.973681133926373e-001	 3.828678144861857e+000	 8.651453053525128e+000
 5.615630199830032e-001	 3.834093370592623e+000	 8.652739913690903e+000
 5.258196431525387e-001	 3.839158593065305e+000	 8.652741553599087e+000
 4.901425576828293e-001	 3.843876334246703e+000	 8.651793841616101e+000
 4.545362623968133e-001	 3.848249184500100e+000	 8.650138048029364e+000
 4.190051791993872e-001	 3.852279800281029e+000	 8.647923749602780e+000
 3.835536521909340e-001	 3.855970901829294e+000	 8.645211832424218e+000
 3.481859468530463e-001	 3.859325270859617e+000	 8.641977582893459e+000
 7.096559044216639e-001	 3.834890936806286e+000	 8.807886501277887e+000
 6.734618403795165e-001	 3.841412389917662e+000	 8.758847243754929e+000
 6.373156302767410e-001	 3.847574403081744e+000	 8.711409893666398e+000
 6.012221012190584e-001	 3.853379294183118e+000	 8.696650548090425e+000
 5.651860072066810e-001	 3.858829456853971e+000	 8.696522955634533e+000
 5.292120279449872e-001	 3.863927358181238e+000	 8.694773530414855e+000
 4.933047677302817e-001	 3.868675536402473e+000	 8.691730816316644e+000
 4.574687544101668e-001	 3.873076598592977e+000	 8.687627652852241e+000
 4.217084384179571e-001	 3.877133218346708e+000	 8.682604131569383e+000
 3.860281918804893e-001	 3.880848133453402e+000	 8.676710651889863e+000
 3.504323077985923e-001	 3.884224143574332e+000	 8.669911066059331e+000
 7.142049807296647e-001	 3.859473571017202e+000	 8.838339318557537e+000
 6.777789034562769e-001	 3.866036828315065e+000	 8.795871787493693e+000
 6.414009868783286e-001	 3.872238341563422e+000	 8.754619892795587e+000
 6.050760890445261e-001	 3.878080443505093e+000	 8.736592358854463e+000
 5.688089944294419e-001	 3.883565543116061e+000	 8.735057292674318e+000
 5.326044127365650e-001	 3.888696123297920e+000	 8.731606358892636e+000
 4.964669777769196e-001	 3.893474738558979e+000	 8.726560385851002e+000
 4.604012464227718e-001	 3.897904012686560e+000	 8.720143350930689e+000
 4.244116976358545e-001	 3.901986636413041e+000	 8.712485390234065e+000
 3.885027315694579e-001	 3.905725365078095e+000	 8.703625908861277e+000
 3.526786687436464e-001	 3.909123016289539e+000	 8.693516781291523e+000
 7.187540570366653e-001	 3.884056205228624e+000	 8.862906112403046e+000
 6.820959665320421e-001	 3.890661266713064e+000	 8.826576272844209e+000
 6.454863434789370e-001	 3.896902280045765e+000	 8.791114500730613e+000
 6.089300768690408e-001	 3.902781592827782e+000	 8.771233033856557e+000
 5.724319816512857e-001	 3.908301629378893e+000	 8.768305944294310e+000
 5.359967975272718e-001	 3.913464888415352e+000	 8.763211508586895e+000
 4.996291878227429e-001	 3.918273940716222e+000	 8.756262445418169e+000
 4.633337384346282e-001	 3.922731426780846e+000	 8.747673435546320e+000
 4.271149568530792e-001	 3.926840054480027e+000	 8.737564186185045e+000
 3.909772712578394e-001	 3.930602596703371e+000	 8.725962597171323e+000
 3.549250296882090e-001	 3.934021889005239e+000	 8.712808018254222e+000
 7.233031333426661e-001	 3.908638839440555e+000	 8.881677567615656e+000
 6.864130296068128e-001	 3.915285705111661e+000	 8.851051856576719e+000
 6.495717000785661e-001	 3.921566218528774e+000	 8.820985283809783e+000
 6.127840646926022e-001	 3.927482742151186e+000	 8.800526096375490e+000
 5.760549688722124e-001	 3.933037715642466e+000	 8.796230768139374e+000
 5.393891823171079e-001	 3.938233653533534e+000	 8.789559157678333e+000
 5.027913978677514e-001	 3.943073142874203e+000	 8.780815476834812e+000
 4.662662304457361e-001	 3.947558840875839e+000	 8.770204672094131e+000
 4.298182160696315e-001	 3.951693472547667e+000	 8.757835545098166e+000
 3.934518109456341e-001	 3.955479828329227e+000	 8.743723976163832e+000
 3.571713906322799e-001	 3.958920761721430e+000	 8.727796239961595e+000
 7.278522096476668e-001	 3.933221473652993e+000	 8.894743818607342e+000
 6.907300926805886e-001	 3.939910143510855e+000	 8.869388990288561e+000
 6.536570566772164e-001	 3.946230157012450e+000	 8.844322955751181e+000
 6.166380525152104e-001	 3.952183891475303e+000	 8.824424076953326e+000
 5.796779560922222e-001	 3.957773801906782e+000	 8.818792496322775e+000
 5.427815671060731e-001	 3.963002418652466e+000	 8.810618233329247e+000
 5.059536079119456e-001	 3.967872345032922e+000	 8.800196592703442e+000
 4.691987224560958e-001	 3.972386254971537e+000	 8.787722345828918e+000
 4.325214752855112e-001	 3.976546890615961e+000	 8.773292908827946e+000
 3.959263506328420e-001	 3.980357059955668e+000	 8.756911624896285e+000
 3.594177515758589e-001	 3.983819634438112e+000	 8.738491139860598e+000
 3.369541421179410e-001	 3.734830907293413e+000	 8.718487941917628e+000
 3.028124993314788e-001	 3.737753949930092e+000	 8.679538428020413e+000
 2.687599990069305e-001	 3.740356675894433e+000	 8.643280865905421e+000
 2.348005367401525e-001	 3.742641942254912e+000	 8.610612136800640e+000
 2.009379295743544e-001	 3.744612656663185e+000	 8.582369118236805e+000
 1.671759155483964e-001	 3.746271775145075e+000	 8.559328263212176e+000
 1.335181533092921e-001	 3.747622299902811e+000	 8.542205319621299e+000
 9.996822178776421e-002	 3.748667277130346e+000	 8.531655186179307e+000
 6.652961993565264e-002	 3.749409794843583e+000	 8.528271900844949e+000
 3.320576652392519e-002	 3.749852980727242e+000	 8.532588757540527e+000
 0.000000000000000e+000	 3.750000000000000e+000	 8.545078546779713e+000
 3.392005030659454e-001	 3.759729780005672e+000	 8.486632857693168e+000
 3.048312493272241e-001	 3.762672309593844e+000	 8.481653808971666e+000
 2.705517323335631e-001	 3.765292387065135e+000	 8.480254691490734e+000
 2.363658736514575e-001	 3.767592888535142e+000	 8.482219025551320e+000
 2.022775157710708e-001	 3.769576741039862e+000	 8.487259057630572e+000
 1.682904216515218e-001	 3.771246920311963e+000	 8.495018963418653e+000
 1.344082743308031e-001	 3.772606448568354e+000	 8.505078082186383e+000
 1.006346765991754e-001	 3.773658392310948e+000	 8.516954174169571e+000
 6.697315073482320e-002	 3.774405860142423e+000	 8.530106692908801e+000
 3.342713830052024e-002	 3.774852000598727e+000	 8.543940064749755e+000
 0.000000000000000e+000	 3.775000000000000e+000	 8.557806967987663e+000
 3.414468640134582e-001	 3.784628652718419e+000	 8.532048967571029e+000
 3.068499993225725e-001	 3.787590669257995e+000	 8.523021531832562e+000
 2.723434656598832e-001	 3.790228098236149e+000	 8.517816190550866e+000
 2.379312105625239e-001	 3.792543834815608e+000	 8.516204124195156e+000
 2.036171019676125e-001	 3.794540825416714e+000	 8.517883966705544e+000
 1.694049277545261e-001	 3.796222065478974e+000	 8.522485075263678e+000
 1.352983953522370e-001	 3.797590597233975e+000	 8.529570831762229e+000
 1.013011314105433e-001	 3.798649507491593e+000	 8.538641967497537e+000
 6.741668153397462e-002	 3.799401925441280e+000	 8.549139902867665e+000
 3.364851007711052e-002	 3.799851020470217e+000	 8.560450094130550e+000
 0.000000000000000e+000	 3.800000000000000e+000	 8.571905379560695e+000
 3.436932249604792e-001	 3.809527525431660e+000	 8.573064662687175e+000
 3.088687493175238e-001	 3.812509028922540e+000	 8.560454808002325e+000
 2.741351989858907e-001	 3.815163809407477e+000	 8.551937252162780e+000
 2.394965474733519e-001	 3.817494781096314e+000	 8.547270245174065e+000
 2.049566881639796e-001	 3.819504909793741e+000	 8.546138193566238e+000
 1.705194338574096e-001	 3.821197210646103e+000	 8.548154998264904e+000
 1.361885163735939e-001	 3.822574745899673e+000	 8.552867424530026e+000
 1.019675862218680e-001	 3.823640622672282e+000	 8.559758495322303e+000
 6.786021233310693e-002	 3.824397990740158e+000	 8.568250899721040e+000
 3.386988185369604e-002	 3.824850040341712e+000	 8.577710408294553e+000
 0.000000000000000e+000	 3.824999999999999e+000	 8.587449287614392e+000
 3.459395859070087e-001	 3.834426398145392e+000	 8.609701156172886e+000
 3.108874993120783e-001	 3.837427388587484e+000	 8.593979490734538e+000
 2.759269323115856e-001	 3.840099520579116e+000	 8.582648512911865e+000
 2.410618843839413e-001	 3.842445727377257e+000	 8.575452947548788e+000
 2.062962743601721e-001	 3.844468994170942e+000	 8.572062354692605e+000
 1.716339399601724e-001	 3.846172355813354e+000	 8.572074536940347e+000
 1.370786373948737e-001	 3.847558894565447e+000	 8.575018979222699e+000
 1.026340410331496e-001	 3.848631737853014e+000	 8.580360312218689e+000
 6.830374313222011e-002	 3.849394056039055e+000	 8.587501790862916e+000
 3.409125363027678e-002	 3.849849060213212e+000	 8.595788779691260e+000
 0.000000000000000e+000	 3.850000000000000e+000	 8.604512237066537e+000
 3.481859468530463e-001	 3.859325270859617e+000	 8.641977582893459e+000
 3.129062493062357e-001	 3.862345748252824e+000	 8.623619361334352e+000
 2.777186656369678e-001	 3.865035231751069e+000	 8.609978546441782e+000
 2.426272212942922e-001	 3.867396673658439e+000	 8.600785739103898e+000
 2.076358605561900e-001	 3.869433078548318e+000	 8.595695029581288e+000
 1.727484460628142e-001	 3.871147500980726e+000	 8.594287475712214e+000
 1.379687584160764e-001	 3.872543043231299e+000	 8.596074613926438e+000
 1.033004958443879e-001	 3.873622853033790e+000	 8.600501994090900e+000
 6.874727393131415e-002	 3.874390121337970e+000	 8.606952729484874e+000
 3.431262540685277e-002	 3.874848080084716e+000	 8.614751053492427e+000
 0.000000000000000e+000	 3.875000000000000e+000	 8.623165874901568e+000
 3.504323077985923e-001	 3.884224143574332e+000	 8.669911066059331e+000
 3.149249992999961e-001	 3.887264107918561e+000	 8.649396195566993e+000
 2.795103989620376e-001	 3.889970942923332e+000	 8.633953929574410e+000
 2.441925582044047e-001	 3.892347619939861e+000	 8.623300142093910e+000
 2.089754467520333e-001	 3.894397162925869e+000	 8.617072826033542e+000
 1.738629521653352e-001	 3.896122646148219e+000	 8.614835643653633e+000
 1.388588794372020e-001	 3.897527191897227e+000	 8.616081510203879e+000
 1.039669506555831e-001	 3.898613968214609e+000	 8.620236201591366e+000
 6.919080473038904e-002	 3.899386186636905e+000	 8.626661977210780e+000
 3.453399718342399e-002	 3.899847099956226e+000	 8.634661209363701e+000
 0.000000000000000e+000	 3.900000000000000e+000	 8.643480011001726e+000
 3.526786687436464e-001	 3.909123016289539e+000	 8.693516781291523e+000
 3.169437492933597e-001	 3.912182467584696e+000	 8.671329827528492e+000
 2.813021322867946e-001	 3.914906654095911e+000	 8.654599305902920e+000
 2.457578951142786e-001	 3.917298566221521e+000	 8.643025756476662e+000
 2.103150329477018e-001	 3.919361247303594e+000	 8.636230442948035e+000
 1.749774582677353e-001	 3.921097791315832e+000	 8.633758976760898e+000
 1.397490004582506e-001	 3.922511340563233e+000	 8.635084974766873e+000
 1.046334054667350e-001	 3.923605083395469e+000	 8.639613741116017e+000
 6.963433552944484e-002	 3.924382251935859e+000	 8.646685964337783e+000
 3.475536895999044e-002	 3.924846119827740e+000	 8.655581420875651e+000
 0.000000000000000e+000	 3.924999999999999e+000	 8.665522676653550e+000
 3.549250296882090e-001	 3.934021889005239e+000	 8.712808018254222e+000
 3.189624992863263e-001	 3.937100827251227e+000	 8.689438211090941e+000
 2.830938656112391e-001	 3.939842365268800e+000	 8.671937446969878e+000
 2.473232320239140e-001	 3.942249512503420e+000	 8.659990320745497e+000
 2.116546191431958e-001	 3.944325331681494e+000	 8.653200730729235e+000
 1.760919643700147e-001	 3.946072936483567e+000	 8.651095577860970e+000
 1.406391214792221e-001	 3.947495489229317e+000	 8.653128498807213e+000
 1.052998602778437e-001	 3.948596198576375e+000	 8.658683623483348e+000
 7.007786632848148e-002	 3.949378317234833e+000	 8.667079347789690e+000
 3.497674073655212e-002	 3.949845139699259e+000	 8.677572112658748e+000
 0.000000000000000e+000	 3.949999999999999e+000	 8.689360180832555e+000
 3.571713906322799e-001	 3.958920761721430e+000	 8.727796239961595e+000
 3.209812492788959e-001	 3.962019186918155e+000	 8.703737479029011e+000
 2.848855989353711e-001	 3.964778076442002e+000	 8.685989311136801e+000
 2.488885689333109e-001	 3.967200458785556e+000	 8.674219770465918e+000
 2.129942053385151e-001	 3.969289416059569e+000	 8.668014749416097e+000
 1.772064704721731e-001	 3.971048081651422e+000	 8.666881774258288e+000
 1.415292425001165e-001	 3.972479637895476e+000	 8.670253815088469e+000
 1.059663150889093e-001	 3.973587313757323e+000	 8.677493120399106e+000
 7.052139712749901e-002	 3.974374382533824e+000	 8.687895066883444e+000
 3.519811251310904e-002	 3.974844159570782e+000	 8.700692015401362e+000
 0.000000000000000e+000	 3.974999999999999e+000	 8.715057164363877e+000
 3.594177515758589e-001	 3.983819634438112e+000	 8.738491139860598e+000
 3.229999992710687e-001	 3.986937546585482e+000	 8.714241999929241e+000
 2.866773322591905e-001	 3.989713787615519e+000	 8.696774100245980e+000
 2.504539058424694e-001	 3.992151405067931e+000	 8.685738294617062e+000
 2.143337915336599e-001	 3.994253500437820e+000	 8.680701824631020e+000
 1.783209765742107e-001	 3.996023226819399e+000	 8.681152173219868e+000
 1.424193635209339e-001	 3.997463786561715e+000	 8.686500952896816e+000
 1.066327698999317e-001	 3.998578428938315e+000	 8.696087818803491e+000
 7.096492792649740e-002	 3.999370447832836e+000	 8.709184397004300e+000
 3.541948428966121e-002	 3.999843179442312e+000	 8.724998218785551e+000
 0.000000000000000e+000	 4.000000000000000e+000	 8.742676652052047e+000
 4.000000000000000e+000	 0.000000000000000e+000	 1.051827630858633e+001
 3.999843179442312e+000	 3.541948428966008e-002	 1.053508849069472e+001
 3.999370447832837e+000	 7.096492792649639e-002	 1.054648319560882e+001
 3.998578428938315e+000	 1.066327698999308e-001	 1.055322326217067e+001
 3.997463786561714e+000	 1.424193635209331e-001	 1.055605000059935e+001
 3.996023226819399e+000	 1.783209765742101e-001	 1.055568276696337e+001
 3.994253500437819e+000	 2.143337915336594e-001	 1.055281860805043e+001
 3.992151405067931e+000	 2.504539058424689e-001	 1.054813197953146e+001
 3.989713787615519e+000	 2.866773322591902e-001	 1.054227454018093e+001
 3.986937546585482e+000	 3.229999992710685e-001	 1.053587502476401e+001
 3.983819634438112e+000	 3.594177515758590e-001	 1.052953919803578e+001
 4.025000000000000e+000	 0.000000000000000e+000	 1.050301953704082e+001
 4.024842199313842e+000	 3.564085606630336e-002	 1.052073775944738e+001
 4.024366513131858e+000	 7.140845872566287e-002	 1.053314831824558e+001
 4.023569544119328e+000	 1.072992247111839e-001	 1.054098482195696e+001
 4.022447935227989e+000	 1.433094845420293e-001	 1.054495811977070e+001
 4.020998371987436e+000	 1.794354826765600e-001	 1.054575589273844e+001
 4.019217584816155e+000	 2.156733777291350e-001	 1.054404231828961e+001
 4.017102351350426e+000	 2.520192427519619e-001	 1.054045781102747e+001
 4.014649498789190e+000	 2.884690655833327e-001	 1.053561884262316e+001
 4.011855906253005e+000	 3.250187492635375e-001	 1.053011784347066e+001
 4.008718507155041e+000	 3.616641125196922e-001	 1.052452318859227e+001
 4.050000000000000e+000	 0.000000000000000e+000	 1.048846515114303e+001
 4.049841219185373e+000	 3.586222784313369e-002	 1.050689925737358e+001
 4.049362578430878e+000	 7.185198952518471e-002	 1.052015306630178e+001
 4.048560659300342e+000	 1.079656795229416e-001	 1.052893084068657e+001
 4.047432083894266e+000	 1.441996055637604e-001	 1.053391283199452e+001
 4.045973517155472e+000	 1.805499887796554e-001	 1.053575488819723e+001
 4.044181669194492e+000	 2.170129639254472e-001	 1.053508813784791e+001
 4.042053297632920e+000	 2.535845796623626e-001	 1.053251875346005e+001
 4.039585209962861e+000	 2.902607989084340e-001	 1.052862779706453e+001
 4.036774265920530e+000	 3.270374992569962e-001	 1.052397115065919e+001
 4.033617379871969e+000	 3.639104734645255e-001	 1.051907953408702e+001
 4.074999999999999e+000	 0.000000000000000e+000	 1.047444343894314e+001
 4.074840239056903e+000	 3.608359962015106e-002	 1.049342186930107e+001
 4.074358643729899e+000	 7.229552032506183e-002	 1.050736498661170e+001
 4.073551774481353e+000	 1.086321343352040e-001	 1.051694758379512e+001
 4.072416232560541e+000	 1.450897265861261e-001	 1.052281916903181e+001
 4.070948662323509e+000	 1.816644948834962e-001	 1.052560359004580e+001
 4.069145753572830e+000	 2.183525501225959e-001	 1.052589873766137e+001
 4.067004243915415e+000	 2.551499165736712e-001	 1.052427633172005e+001
 4.064520921136532e+000	 2.920525322344942e-001	 1.052128179229364e+001
 4.061692625588053e+000	 3.290562492514447e-001	 1.051743419896063e+001
 4.058516252588897e+000	 3.661568344103587e-001	 1.051322634072907e+001
 4.100000000000000e+000	 0.000000000000000e+000	 1.046078882780695e+001
 4.099839258928435e+000	 3.630497139735547e-002	 1.048015839481874e+001
 4.099354709028920e+000	 7.273905112529436e-002	 1.049465531803832e+001
 4.098542889662367e+000	 1.092985891479710e-001	 1.050492478794067e+001
 4.097400381226816e+000	 1.459798476091267e-001	 1.051158541509008e+001
 4.095923807491546e+000	 1.827790009880826e-001	 1.051522887079627e+001
 4.094109837951166e+000	 2.196921363205812e-001	 1.051641961007314e+001
 4.091955190197909e+000	 2.567152534858873e-001	 1.051569468005383e+001
 4.089456632310204e+000	 2.938442655615133e-001	 1.051356361685721e+001
 4.086610985255576e+000	 3.310749992468828e-001	 1.051050843372795e+001
 4.083415125305826e+000	 3.684031953571920e-001	 1.050698370308154e+001
 4.125000000000000e+000	 0.000000000000000e+000	 1.044733975898193e+001
 4.124838278799966e+000	 3.652634317474693e-002	 1.046696542964742e+001
 4.124350774327941e+000	 7.318258192588219e-002	 1.048189887959382e+001
 4.123534004843379e+000	 1.099650439612427e-001	 1.049275555581498e+001
 4.122384529893092e+000	 1.468699686327621e-001	 1.050012300826426e+001
 4.120898952659582e+000	 1.838935070934145e-001	 1.050456054677267e+001
 4.119073922329502e+000	 2.210317225194031e-001	 1.050659898333620e+001
 4.116906136480403e+000	 2.582805903990113e-001	 1.050674046299196e+001
 4.114392343483876e+000	 2.956359988894912e-001	 1.050545838634022e+001
 4.111529344923100e+000	 3.330937492433104e-001	 1.050319742659000e+001
 4.108313998022755e+000	 3.706495563050253e-001	 1.050037364380851e+001
 4.150000000000000e+000	 0.000000000000000e+000	 1.043393856669732e+001
 4.149837298671496e+000	 3.674771495232542e-002	 1.045370325129867e+001
 4.149346839626961e+000	 7.362611272682534e-002	 1.046897396260360e+001
 4.148525120024392e+000	 1.106314987750191e-001	 1.048033625475717e+001
 4.147368678559367e+000	 1.477600896570321e-001	 1.048834644554008e+001
 4.145874097827618e+000	 1.850080131994918e-001	 1.049353128944196e+001
 4.144038006707839e+000	 2.223713087190614e-001	 1.049638773920648e+001
 4.141857082762897e+000	 2.598459273130429e-001	 1.049738279913573e+001
 4.139328054657548e+000	 2.974277322184279e-001	 1.049695347327439e+001
 4.136447704590624e+000	 3.351124992407278e-001	 1.049550681140701e+001
 4.133212870739683e+000	 3.728959172538585e-001	 1.049342005559969e+001
 4.175000000000000e+000	 0.000000000000000e+000	 1.042043136160776e+001
 4.174836318543028e+000	 3.696908673009096e-002	 1.044023570884147e+001
 4.174342904925982e+000	 7.406964352812387e-002	 1.045576222674496e+001
 4.173516235205405e+000	 1.112979535893001e-001	 1.046756641900962e+001
 4.172352827225644e+000	 1.486502106819371e-001	 1.047617319121056e+001
 4.170849242995654e+000	 1.861225193063146e-001	 1.048207653993076e+001
 4.169002091086175e+000	 2.237108949195564e-001	 1.048573933349665e+001
 4.166808029045392e+000	 2.614112642279824e-001	 1.048759318768213e+001
 4.164263765831218e+000	 2.992194655483235e-001	 1.048803843956493e+001
 4.161366064258147e+000	 3.371312492391350e-001	 1.048744422252714e+001
 4.158111743456611e+000	 3.751422782036917e-001	 1.048614864518163e+001
 4.199999999999999e+000	 0.000000000000000e+000	 1.040666791839962e+001
 4.199835338414558e+000	 3.719045850804355e-002	 1.042643011660580e+001
 4.199338970225004e+000	 7.451317432977773e-002	 1.044214859979844e+001
 4.198507350386417e+000	 1.119644084040858e-001	 1.045434865546503e+001
 4.197336975891918e+000	 1.495403317074767e-001	 1.046352358856329e+001
 4.195824388163692e+000	 1.872370254138830e-001	 1.047013442659486e+001
 4.193966175464511e+000	 2.250504811208879e-001	 1.047460971946731e+001
 4.191758975327885e+000	 2.629766011438295e-001	 1.047734543757263e+001
 4.189199477004890e+000	 3.010111988791779e-001	 1.047870497133065e+001
 4.186284423925671e+000	 3.391499992385317e-001	 1.047901923524824e+001
 4.183010616173539e+000	 3.773886391545250e-001	 1.047858687932857e+001
 4.224999999999999e+000	 0.000000000000000e+000	 1.039250156738780e+001
 4.224834358286089e+000	 3.741183028618317e-002	 1.041215715166032e+001
 4.224335035524025e+000	 7.495670513178691e-002	 1.042802118095844e+001
 4.223498465567432e+000	 1.126308632193762e-001	 1.044058855275952e+001
 4.222321124558194e+000	 1.504304527336512e-001	 1.045032077470309e+001
 4.220799533331728e+000	 1.883515315221968e-001	 1.045764568551553e+001
 4.218930259842849e+000	 2.263900673230559e-001	 1.046295727393800e+001
 4.216709921610381e+000	 2.645419380605845e-001	 1.046661559915771e+001
 4.214135188178561e+000	 3.028029322109913e-001	 1.046894681605731e+001
 4.211202783593195e+000	 3.411687492389182e-001	 1.047024330839315e+001
 4.207909488890469e+000	 3.796350001063583e-001	 1.047076393278999e+001
 4.250000000000000e+000	 0.000000000000000e+000	 1.037778908993838e+001
 4.249833378157620e+000	 3.763320206450985e-002	 1.039729075490813e+001
 4.249331100823047e+000	 7.540023593415146e-002	 1.041327114755627e+001
 4.248489580748444e+000	 1.132973180351712e-001	 1.042619459357431e+001
 4.247305273224471e+000	 1.513205737604605e-001	 1.043649059838089e+001
 4.245774678499766e+000	 1.894660376312561e-001	 1.044455358380170e+001
 4.243894344221186e+000	 2.277296535260605e-001	 1.045074272600602e+001
 4.241660867892875e+000	 2.661072749782472e-001	 1.045538189827288e+001
 4.239070899352234e+000	 3.045946655437635e-001	 1.045875972196929e+001
 4.236121143260720e+000	 3.431874992402945e-001	 1.046112972891207e+001
 4.232808361607396e+000	 3.818813610591916e-001	 1.046271063805601e+001
 3.983819634438112e+000	 3.594177515758590e-001	 1.052953919803578e+001
 3.980357059955668e+000	 3.959263506328409e-001	 1.054292560792326e+001
 3.976546890615960e+000	 4.325214752855102e-001	 1.055505522005134e+001
 3.972386254971538e+000	 4.691987224560951e-001	 1.056639815900897e+001
 3.967872345032923e+000	 5.059536079119449e-001	 1.057740309561467e+001
 3.963002418652466e+000	 5.427815671060726e-001	 1.058849771755450e+001
 3.957773801906782e+000	 5.796779560922218e-001	 1.060008929232627e+001
 3.952183891475304e+000	 6.166380525152102e-001	 1.061256532325752e+001
 3.946230157012451e+000	 6.536570566772164e-001	 1.061358443733957e+001
 3.939910143510855e+000	 6.907300926805887e-001	 1.061524510939843e+001
 3.933221473652993e+000	 7.278522096476667e-001	 1.062195640213829e+001
 4.008718507155041e+000	 3.616641125196922e-001	 1.052452318859227e+001
 4.005234291582396e+000	 3.984008903202551e-001	 1.053744609168452e+001
 4.001400308684580e+000	 4.352247345015536e-001	 1.054903528491854e+001
 3.997213669067587e+000	 4.721312144665803e-001	 1.055971749971492e+001
 3.992671547192009e+000	 5.091158179562315e-001	 1.056989689890991e+001
 3.987771183771772e+000	 5.461739518951023e-001	 1.057995559445876e+001
 3.982509888171469e+000	 5.833009433122729e-001	 1.059025426091171e+001
 3.976885040799776e+000	 6.204920403378416e-001	 1.060113284542891e+001
 3.970894095496459e+000	 6.577424132758770e-001	 1.060435776999703e+001
 3.964534581910347e+000	 6.950471557543673e-001	 1.061035140200568e+001
 3.957804107865683e+000	 7.324012859526673e-001	 1.062079000197942e+001
 4.033617379871969e+000	 3.639104734645255e-001	 1.051907953408702e+001
 4.030111523209127e+000	 4.008754300086695e-001	 1.053141284708529e+001
 4.026253726753200e+000	 4.379279937185970e-001	 1.054234861722032e+001
 4.022041083163638e+000	 4.750637064780655e-001	 1.055226987294314e+001
 4.017470749351095e+000	 5.122780280015182e-001	 1.056153594017446e+001
 4.012539948891079e+000	 5.495663366851322e-001	 1.057048300736398e+001
 4.007245974436155e+000	 5.869239305333238e-001	 1.057942478983144e+001
 4.001586190124251e+000	 6.243460281614733e-001	 1.058865329415476e+001
 3.995558033980466e+000	 6.618277698755377e-001	 1.059497244510930e+001
 3.989159020309839e+000	 6.993642188291458e-001	 1.060475573285140e+001
 3.982386742078373e+000	 7.369503622586678e-001	 1.061838475602157e+001
 4.058516252588897e+000	 3.661568344103587e-001	 1.051322634072907e+001
 4.054988754835856e+000	 4.033499696980837e-001	 1.052486472169320e+001
 4.051107144821819e+000	 4.406312529366405e-001	 1.053505481795625e+001
 4.046868497259688e+000	 4.779961984905508e-001	 1.054413563404149e+001
 4.042269951510182e+000	 5.154402380478049e-001	 1.055242131864927e+001
 4.037308714010385e+000	 5.529587214761618e-001	 1.056020177737045e+001
 4.031982060700843e+000	 5.905469177553750e-001	 1.056774338823361e+001
 4.026287339448724e+000	 6.282000159861046e-001	 1.057536856085452e+001
 4.020221972464474e+000	 6.659131264761982e-001	 1.058542609310241e+001
 4.013783458709331e+000	 7.036812819049241e-001	 1.059846520488321e+001
 4.006969376291065e+000	 7.414994385656684e-001	 1.061475712887546e+001
 4.083415125305826e+000	 3.684031953571920e-001	 1.050698370308154e+001
 4.079865986462586e+000	 4.058245093884980e-001	 1.051784230329019e+001
 4.075960562890437e+000	 4.433345121556837e-001	 1.052721498202598e+001
 4.071695911355738e+000	 4.809286905040361e-001	 1.053539638788542e+001
 4.067069153669269e+000	 5.186024480950916e-001	 1.054265514078907e+001
 4.062077479129690e+000	 5.563511062681914e-001	 1.054923449265441e+001
 4.056718146965530e+000	 5.941699049784260e-001	 1.055535309449835e+001
 4.050988488773199e+000	 6.320540038117364e-001	 1.056236576236133e+001
 4.044885910948482e+000	 6.699984830778586e-001	 1.057571640530144e+001
 4.038407897108823e+000	 7.079983449817027e-001	 1.059148675169639e+001
 4.031552010503756e+000	 7.460485148736690e-001	 1.060992318831675e+001
 4.108313998022755e+000	 3.706495563050253e-001	 1.050037364380851e+001
 4.104743218089316e+000	 4.082990490799123e-001	 1.051038786713863e+001
 4.100813980959057e+000	 4.460377713757271e-001	 1.051889165295947e+001
 4.096523325451788e+000	 4.838611825185214e-001	 1.052613495101357e+001
 4.091868355828355e+000	 5.217646581433784e-001	 1.053234048974077e+001
 4.086846244248997e+000	 5.597434910612212e-001	 1.053770448522336e+001
 4.081454233230216e+000	 5.977928922024770e-001	 1.054239746020043e+001
 4.075689638097672e+000	 6.359079916383679e-001	 1.054971878267155e+001
 4.069549849432490e+000	 6.740838396805190e-001	 1.056584113208507e+001
 4.063032335508314e+000	 7.123154080594810e-001	 1.058382714266581e+001
 4.056134644716447e+000	 7.505975911826697e-001	 1.060389861731144e+001
 4.133212870739683e+000	 3.728959172538585e-001	 1.049342005559969e+001
 4.129620449716046e+000	 4.107735887723266e-001	 1.050254532515373e+001
 4.125667399027678e+000	 4.487410305967705e-001	 1.051014877928363e+001
 4.121350739547838e+000	 4.867936745340066e-001	 1.051643531513184e+001
 4.116667557987442e+000	 5.249268681926650e-001	 1.052158139592503e+001
 4.111615009368303e+000	 5.631358758552508e-001	 1.052573580851144e+001
 4.106190319494901e+000	 6.014158794275281e-001	 1.052902053465159e+001
 4.100390787422147e+000	 6.397619794659994e-001	 1.053741652873434e+001
 4.094213787916498e+000	 6.781691962841796e-001	 1.055579808110691e+001
 4.087656773907807e+000	 7.166324711382596e-001	 1.057549298789233e+001
 4.080717278929137e+000	 7.551466674926702e-001	 1.059669872560646e+001
 4.158111743456611e+000	 3.751422782036917e-001	 1.048614864518163e+001
 4.154497681342774e+000	 4.132481284657408e-001	 1.049436017690182e+001
 4.150520817096297e+000	 4.514442898188139e-001	 1.050105167245649e+001
 4.146178153643888e+000	 4.897261665504919e-001	 1.050638261192877e+001
 4.141466760146528e+000	 5.280890782429516e-001	 1.051048280867474e+001
 4.136383774487609e+000	 5.665282606502806e-001	 1.051345321577990e+001
 4.130926405759588e+000	 6.050388666535790e-001	 1.051536684999828e+001
 4.125091936746620e+000	 6.436159672946309e-001	 1.052544817554170e+001
 4.118877726400505e+000	 6.822545528888402e-001	 1.054558511558060e+001
 4.112281212307298e+000	 7.209495342180379e-001	 1.056649074297144e+001
 4.105299913141828e+000	 7.596957438036709e-001	 1.058833846090393e+001
 4.183010616173539e+000	 3.773886391545250e-001	 1.047858687932857e+001
 4.179374912969506e+000	 4.157226681601551e-001	 1.048587946234896e+001
 4.175374235164916e+000	 4.541475490418573e-001	 1.049166696630378e+001
 4.171005567739938e+000	 4.926586585679772e-001	 1.049606307914750e+001
 4.166265962305615e+000	 5.312512882942383e-001	 1.049915056888650e+001
 4.161152539606915e+000	 5.699206454463103e-001	 1.050098213928887e+001
 4.155662492024275e+000	 6.086618538806301e-001	 1.050158140685148e+001
 4.149793086071094e+000	 6.474699551242624e-001	 1.051380315815103e+001
 4.143541664884513e+000	 6.863399094945006e-001	 1.053520015262629e+001
 4.136905650706790e+000	 7.252665972988163e-001	 1.055682671359165e+001
 4.129882547354518e+000	 7.642448201156715e-001	 1.057883241963629e+001
 4.207909488890469e+000	 3.796350001063583e-001	 1.047076393278999e+001
 4.204252144596236e+000	 4.181972078555695e-001	 1.047715171628690e+001
 4.200227653233536e+000	 4.568508082659007e-001	 1.048206257789568e+001
 4.195832981835988e+000	 4.955911505864625e-001	 1.048556402786222e+001
 4.191065164464702e+000	 5.344134983465250e-001	 1.048769138264292e+001
 4.185921304726221e+000	 5.733130302433401e-001	 1.048844867020866e+001
 4.180398578288961e+000	 6.122848411086812e-001	 1.048780966042693e+001
 4.174494235395568e+000	 6.513239429548940e-001	 1.050247116399090e+001
 4.168205603368522e+000	 6.904252661011612e-001	 1.052464116167582e+001
 4.161530089106282e+000	 7.295836603805948e-001	 1.054650705996964e+001
 4.154465181567210e+000	 7.687938964286721e-001	 1.056819485735888e+001
 4.232808361607396e+000	 3.818813610591916e-001	 1.046271063805601e+001
 4.229129376222968e+000	 4.206717475519838e-001	 1.046822692436768e+001
 4.225081071302157e+000	 4.595540674909442e-001	 1.047230766980426e+001
 4.220660395932038e+000	 4.985236426059478e-001	 1.047497381090966e+001
 4.215864366623790e+000	 5.375757083998118e-001	 1.047621279576605e+001
 4.210690069845527e+000	 5.767054150413700e-001	 1.047597953924004e+001
 4.205134664553647e+000	 6.159078283377324e-001	 1.047419750717433e+001
 4.199195384720043e+000	 6.551779307865258e-001	 1.049144212543834e+001
 4.192869541852530e+000	 6.945106227088218e-001	 1.051390616293398e+001
 4.186154527505775e+000	 7.339007234633734e-001	 1.053553780112882e+001
 4.179047815779902e+000	 7.733429727426728e-001	 1.055643969877575e+001
 3.933221473652993e+000	 7.278522096476667e-001	 1.062195640213829e+001
 3.926161850148238e+000	 7.650183830181283e-001	 1.063171938030870e+001
 3.918729058053593e+000	 8.022235159239719e-001	 1.064037222853553e+001
 3.910920967074734e+000	 8.394624406421655e-001	 1.064800129121634e+001
 3.902735533843881e+000	 8.767299201255315e-001	 1.065469351019705e+001
 3.894170804172645e+000	 9.140206496115851e-001	 1.066053634443615e+001
 3.885224915276651e+000	 9.513292583092480e-001	 1.066561768844102e+001
 3.875896097969084e+000	 9.886503111632026e-001	 1.067002578959670e+001
 3.866182678820226e+000	 1.025978310695547e+000	 1.067384916451071e+001
 3.856083082280073e+000	 1.063307698924287e+000	 1.067717651450119e+001
 3.845595832761096e+000	 1.100632859358089e+000	 1.068009664035873e+001
 3.957804107865683e+000	 7.324012859526673e-001	 1.062079000197942e+001
 3.950700361713788e+000	 7.697997479069519e-001	 1.062957616566335e+001
 3.943221114668281e+000	 8.072374128937929e-001	 1.063737427803171e+001
 3.935364223120499e+000	 8.447090808918899e-001	 1.064427731131695e+001
 3.927127630931612e+000	 8.822094821225213e-001	 1.065037881028537e+001
 3.918509371699555e+000	 9.197332786684372e-001	 1.065577280492332e+001
 3.909507570997549e+000	 9.572750661711157e-001	 1.066055372180732e+001
 3.900120448581363e+000	 9.948293756061439e-001	 1.066481629428749e+001
 3.890346320562341e+000	 1.032390675136384e+000	 1.066865547161780e+001
 3.880183601543291e+000	 1.069953372042454e+000	 1.067216632717046e+001
 3.869630806714263e+000	 1.107511814729950e+000	 1.067544396587507e+001
 3.982386742078373e+000	 7.369503622586678e-001	 1.061838475602157e+001
 3.975238873279343e+000	 7.745811127967659e-001	 1.062626471743465e+001
 3.967713171282988e+000	 8.122513098645752e-001	 1.063327775524510e+001
 3.959807479166306e+000	 8.499557211425273e-001	 1.063952342784687e+001
 3.951519728019421e+000	 8.876890441203555e-001	 1.064510184103995e+001
 3.942847939226587e+000	 9.254459077260459e-001	 1.065011355377030e+001
 3.933790226718624e+000	 9.632208740336316e-001	 1.065465948246659e+001
 3.924344799193880e+000	 1.001008440049605e+000	 1.065884080411233e+001
 3.914509962304768e+000	 1.038803039577591e+000	 1.066275885819655e+001
 3.904284120806907e+000	 1.076599045160822e+000	 1.066651504769048e+001
 3.893665780667924e+000	 1.114390770101823e+000	 1.067021073920116e+001
 4.006969376291065e+000	 7.414994385656684e-001	 1.061475712887546e+001
 3.999777384844903e+000	 7.793624776875702e-001	 1.062179968847646e+001
 3.992205227897715e+000	 8.172652068363189e-001	 1.062809552644804e+001
 3.984250735212159e+000	 8.552023613940774e-001	 1.063375074661238e+001
 3.975911825107309e+000	 8.931686061190346e-001	 1.063887197485227e+001
 3.967186506753740e+000	 9.311585367844107e-001	 1.064356625793583e+001
 3.958072882439873e+000	 9.691666818967957e-001	 1.064794096085177e+001
 3.948569149806638e+000	 1.007187504493586e+000	 1.065210366280341e+001
 3.938673604047511e+000	 1.045215404019170e+000	 1.065616205201399e+001
 3.928384640070924e+000	 1.083244718279394e+000	 1.066022381950079e+001
 3.917700754622081e+000	 1.121269725473710e+000	 1.066439655197932e+001
 4.031552010503756e+000	 7.460485148736690e-001	 1.060992318831675e+001
 4.024315896410468e+000	 7.841438425793651e-001	 1.061619537991185e+001
 4.016697284512461e+000	 8.222791038090240e-001	 1.062184015073632e+001
 4.008693991258054e+000	 8.604490016465402e-001	 1.062697011022398e+001
 4.000303922195272e+000	 8.986481681185581e-001	 1.063169836430203e+001
 3.991525074281016e+000	 9.368711658435323e-001	 1.063613840733061e+001
 3.982355538161300e+000	 9.751124897606082e-001	 1.064040401246804e+001
 3.972793500419636e+000	 1.013366568938087e+000	 1.064460912061878e+001
 3.962837245790567e+000	 1.051627768461121e+000	 1.064886772812679e+001
 3.952485159335339e+000	 1.089890391398167e+000	 1.065329377338147e+001
 3.941735728576730e+000	 1.128148680845609e+000	 1.065800102250777e+001
 4.056134644716447e+000	 7.505975911826697e-001	 1.060389861731144e+001
 4.048854407976037e+000	 7.889252074721501e-001	 1.060946575179156e+001
 4.041189341127226e+000	 8.272930007826903e-001	 1.061452388933753e+001
 4.033137247303993e+000	 8.656956418999160e-001	 1.061919210607205e+001
 4.024696019283316e+000	 9.041277301189261e-001	 1.062358994881805e+001
 4.015863641808412e+000	 9.425837949034094e-001	 1.062783732018245e+001
 4.006638193882901e+000	 9.810582976250682e-001	 1.063205436198159e+001
 3.997017851032876e+000	 1.019545633383108e+000	 1.063636133717488e+001
 3.987000887533941e+000	 1.058040132903442e+000	 1.064087851047851e+001
 3.976585678600152e+000	 1.096536064517142e+000	 1.064572602783678e+001
 3.965770702531872e+000	 1.135027636217520e+000	 1.065102379493279e+001
 4.080717278929137e+000	 7.551466674926702e-001	 1.059669872560646e+001
 4.073392919541611e+000	 7.937065723659253e-001	 1.060162443336735e+001
 4.065681397742011e+000	 8.323068977573183e-001	 1.060615871458301e+001
 4.057580503349976e+000	 8.709422821542042e-001	 1.061042707401417e+001
 4.049088116371435e+000	 9.096072921201384e-001	 1.061455546109854e+001
 4.040202209335932e+000	 9.482964239640435e-001	 1.061867014820734e+001
 4.030920849604679e+000	 9.870041054901770e-001	 1.062289760716055e+001
 4.021242201646354e+000	 1.025724697828648e+000	 1.062736438417674e+001
 4.011164529277626e+000	 1.064452497346135e+000	 1.063219697343915e+001
 4.000686197865364e+000	 1.103181737636320e+000	 1.063752168946497e+001
 3.989805676487509e+000	 1.141906591589444e+000	 1.064346453847027e+001
 4.105299913141828e+000	 7.596957438036709e-001	 1.058833846090393e+001
 4.097931431107191e+000	 7.984879372606913e-001	 1.059268473299611e+001
 4.090173454356815e+000	 8.373207947329071e-001	 1.059675631855740e+001
 4.082023759396003e+000	 8.761889224094055e-001	 1.060068511378626e+001
 4.073480213459632e+000	 9.150868541221949e-001	 1.060460343330063e+001
 4.064540776863572e+000	 9.540090530254336e-001	 1.060864388159496e+001
 4.055203505326633e+000	 9.929499133559340e-001	 1.061293922267426e+001
 4.045466552260073e+000	 1.031903762274709e+000	 1.061762224805001e+001
 4.035328171021625e+000	 1.070864861789199e+000	 1.062282564328941e+001
 4.024786717130976e+000	 1.109827410755700e+000	 1.062868185331465e+001
 4.013840650443639e+000	 1.148785546961380e+000	 1.063532294665503e+001
 4.129882547354518e+000	 7.642448201156715e-001	 1.057883241963629e+001
 4.122469942672774e+000	 8.032693021564474e-001	 1.058265964769032e+001
 4.114665510971639e+000	 8.423346917094579e-001	 1.058632812143938e+001
 4.106467015442072e+000	 8.814355626655194e-001	 1.058997609214912e+001
 4.097872310547908e+000	 9.205664161250965e-001	 1.059374220300879e+001
 4.088879344391335e+000	 9.597216820875805e-001	 1.059776535381591e+001
 4.079486161048762e+000	 9.988957212223391e-001	 1.060218456375704e+001
 4.069690902874032e+000	 1.038082826721289e+000	 1.060713883247913e+001
 4.059491812765941e+000	 1.077277226232635e+000	 1.061276699965193e+001
 4.048887236396987e+000	 1.116473083875282e+000	 1.061920760322861e+001
 4.037875624400262e+000	 1.155664502333329e+000	 1.062659873661709e+001
 4.154465181567210e+000	 7.687938964286721e-001	 1.056819485735888e+001
 4.147008454238363e+000	 8.080506670531940e-001	 1.057156187232941e+001
 4.139157567586481e+000	 8.473485886869693e-001	 1.057488527954618e+001
 4.130910271488186e+000	 8.866822029225462e-001	 1.057830964978115e+001
 4.122264407636262e+000	 9.260459781288424e-001	 1.058197991899155e+001
 4.113217911919219e+000	 9.654343111504833e-001	 1.058604124625840e+001
 4.103768816771066e+000	 1.004841529089392e+000	 1.059063886974168e+001
 4.093915253488230e+000	 1.044261891168389e+000	 1.059591796085515e+001
 4.083655454510569e+000	 1.083689590676441e+000	 1.060202347687165e+001
 4.072987755663395e+000	 1.123118756995066e+000	 1.060910001217531e+001
 4.061910598357380e+000	 1.162543457705291e+000	 1.061729164838360e+001
 4.179047815779902e+000	 7.733429727426728e-001	 1.055643969877575e+001
 4.171546965803959e+000	 8.128320319509310e-001	 1.055940380854601e+001
 4.163649624201344e+000	 8.523624856654427e-001	 1.056243869309419e+001
 4.155353527534344e+000	 8.919288431804858e-001	 1.056569520792780e+001
 4.146656504724693e+000	 9.315255401334329e-001	 1.056932454675471e+001
 4.137556479447226e+000	 9.711469402141431e-001	 1.057347809270130e+001
 4.128051472493548e+000	 1.010787336957094e+000	 1.057830726746836e+001
 4.118139604102669e+000	 1.050440955616010e+000	 1.058396337863746e+001
 4.107819096255514e+000	 1.090101955120620e+000	 1.059059746534758e+001
 4.097088274930204e+000	 1.129764430115053e+000	 1.059836014256871e+001
 4.085945572314992e+000	 1.169422413077266e+000	 1.060740144420531e+001
 3.845595832761096e+000	 1.100632859358089e+000	 1.068009664035873e+001
 3.834719556678107e+000	 1.137948119066728e+000	 1.071120395429157e+001
 3.823452984442649e+000	 1.175247750825766e+000	 1.074258200224667e+001
 3.811794952408592e+000	 1.212525975335377e+000	 1.077429144750744e+001
 3.799744404765942e+000	 1.249776963512203e+000	 1.080639186557612e+001
 3.787300395380251e+000	 1.286994838852475e+000	 1.080639111476617e+001
 3.774462089574614e+000	 1.324173679865362e+000	 1.080838348679514e+001
 3.761228765851377e+000	 1.361307522575099e+000	 1.081282276500639e+001
 3.747599817550745e+000	 1.398390363090334e+000	 1.082023709885134e+001
 3.733574754443465e+000	 1.435416160238980e+000	 1.083091580432946e+001
 3.719153204254849e+000	 1.472378838266780e+000	 1.084314877857443e+001
 3.869630806714263e+000	 1.107511814729950e+000	 1.067544396587507e+001
 3.858686553905200e+000	 1.145060294812716e+000	 1.070646735751460e+001
 3.847349565592751e+000	 1.182593049271040e+000	 1.073773683966702e+001
 3.835618670858000e+000	 1.220104262684471e+000	 1.076932400662264e+001
 3.823492807292140e+000	 1.257588069537881e+000	 1.079441884310322e+001
 3.810971022847385e+000	 1.295038556599349e+000	 1.079374320944804e+001
 3.798052477630096e+000	 1.332449765368725e+000	 1.079517731277470e+001
 3.784736445633262e+000	 1.369815694595396e+000	 1.079898677940776e+001
 3.771022316405465e+000	 1.407130302863686e+000	 1.080544942178732e+001
 3.756909596653516e+000	 1.444387511244183e+000	 1.081485526594561e+001
 3.742397911776015e+000	 1.481581206009164e+000	 1.082764049336790e+001
 3.893665780667924e+000	 1.114390770101823e+000	 1.067021073920116e+001
 3.882653551132883e+000	 1.152172470558531e+000	 1.070134588500248e+001
 3.871246146743528e+000	 1.189938347715985e+000	 1.073270405300194e+001
 3.859442389308159e+000	 1.227682550033110e+000	 1.076436768696137e+001
 3.847241209819154e+000	 1.265399175563005e+000	 1.078238372977877e+001
 3.834641650315390e+000	 1.303082274345601e+000	 1.078146882322201e+001
 3.821642865686497e+000	 1.340725850871429e+000	 1.078257711696555e+001
 3.808244125416102e+000	 1.378323866615026e+000	 1.078598679504550e+001
 3.794444815261164e+000	 1.415870242636395e+000	 1.079198868752598e+001
 3.780244438864562e+000	 1.453358862248797e+000	 1.080088629409960e+001
 3.765642619298180e+000	 1.490783573751044e+000	 1.081299577963321e+001
 3.917700754622081e+000	 1.121269725473710e+000	 1.066439655197932e+001
 3.906620548361152e+000	 1.159284646304173e+000	 1.069583509834430e+001
 3.895142727894979e+000	 1.197283646160600e+000	 1.072747515380642e+001
 3.883266107759068e+000	 1.235260837381292e+000	 1.075940993164602e+001
 3.870989612346985e+000	 1.273210281587576e+000	 1.077051098830966e+001
 3.858312277784268e+000	 1.311125992091232e+000	 1.076958813948934e+001
 3.845233253743815e+000	 1.349001936373475e+000	 1.077059958131117e+001
 3.831751805199895e+000	 1.386832038633990e+000	 1.077383594066423e+001
 3.817867314117841e+000	 1.424610182408460e+000	 1.077960095385291e+001
 3.803579281076603e+000	 1.462330213252820e+000	 1.078821148650212e+001
 3.788887326821345e+000	 1.499985941492418e+000	 1.079999752452479e+001
 3.941735728576730e+000	 1.128148680845609e+000	 1.065800102250777e+001
 3.930587545590011e+000	 1.166396822049642e+000	 1.068993068560227e+001
 3.919039309047104e+000	 1.204628944604886e+000	 1.072204188046835e+001
 3.907089826210725e+000	 1.242839124729018e+000	 1.075443851149457e+001
 3.894738014875633e+000	 1.281021387611593e+000	 1.075882467962094e+001
 3.881982905254016e+000	 1.319169709836241e+000	 1.075812187241731e+001
 3.868823641802051e+000	 1.357278021874860e+000	 1.075926202064520e+001
 3.855259484984642e+000	 1.395340210652288e+000	 1.076254808035865e+001
 3.841289812975499e+000	 1.433350122179882e+000	 1.076829658395240e+001
 3.826914123289639e+000	 1.471301564256254e+000	 1.077683765655238e+001
 3.812132034345510e+000	 1.509188309233287e+000	 1.078851500258083e+001
 3.965770702531872e+000	 1.135027636217520e+000	 1.065102379493279e+001
 3.954554542819460e+000	 1.173508997794938e+000	 1.068362845747906e+001
 3.942935890199904e+000	 1.211974243048843e+000	 1.071639619133488e+001
 3.930913544663135e+000	 1.250417412076288e+000	 1.074905528439387e+001
 3.918486417405096e+000	 1.288832493635056e+000	 1.074734928065749e+001
 3.905653532724638e+000	 1.327213427580630e+000	 1.074709125085542e+001
 3.892414029861205e+000	 1.365554107375588e+000	 1.074858236351301e+001
 3.878767164770342e+000	 1.403848382669918e+000	 1.075213779129037e+001
 3.864712311834137e+000	 1.442090061950661e+000	 1.075808675371425e+001
 3.850248965503669e+000	 1.480272915259099e+000	 1.076677253023449e+001
 3.835376741870674e+000	 1.518390676973651e+000	 1.077855244256258e+001
 3.989805676487509e+000	 1.141906591589444e+000	 1.064346453847027e+001
 3.978521540049498e+000	 1.180621173540061e+000	 1.067692434362390e+001
 3.966832471353379e+000	 1.219319541492470e+000	 1.071053025808705e+001
 3.954737263116293e+000	 1.257995699423101e+000	 1.073704134355057e+001
 3.942234819935373e+000	 1.296643599657964e+000	 1.073610967185332e+001
 3.929324160196131e+000	 1.335257145324396e+000	 1.073651800283288e+001
 3.916004417921275e+000	 1.373830192875655e+000	 1.073857913368633e+001
 3.902274844556996e+000	 1.412356554686883e+000	 1.074262034220985e+001
 3.888134810693752e+000	 1.450830001720796e+000	 1.074898342725462e+001
 3.873583807718695e+000	 1.489244266261354e+000	 1.075802471863001e+001
 3.858621449396840e+000	 1.527593044713509e+000	 1.077011505539135e+001
 4.013840650443639e+000	 1.148785546961380e+000	 1.063532294665503e+001
 4.002488537280124e+000	 1.187733349285011e+000	 1.066981438907130e+001
 3.990729052507526e+000	 1.226664839935768e+000	 1.070443645935263e+001
 3.978560981570202e+000	 1.265573986769458e+000	 1.072506747374582e+001
 3.965983222466468e+000	 1.304454705680320e+000	 1.072513112505106e+001
 3.952994787668497e+000	 1.343300863067542e+000	 1.072642434061308e+001
 3.939594805982265e+000	 1.382106278375064e+000	 1.072927143234218e+001
 3.925782524344604e+000	 1.420864726703181e+000	 1.073401167275027e+001
 3.911557309554348e+000	 1.459569941490288e+000	 1.074099933331654e+001
 3.896918649934715e+000	 1.498215617263019e+000	 1.075060369141803e+001
 3.881866156924004e+000	 1.536795412452863e+000	 1.076320900474243e+001
 4.037875624400262e+000	 1.155664502333329e+000	 1.062659873661709e+001
 4.026455534511339e+000	 1.194845525029789e+000	 1.066229475080689e+001
 4.014625633662350e+000	 1.234010138378737e+000	 1.069810737454694e+001
 4.002384700024861e+000	 1.273152274115358e+000	 1.071316224397455e+001
 3.989731624998379e+000	 1.312265811702122e+000	 1.071443929185287e+001
 3.976665415141733e+000	 1.351344580810066e+000	 1.071683294628192e+001
 3.963185194044174e+000	 1.390382363873814e+000	 1.072067892087807e+001
 3.949290204133165e+000	 1.429372898718813e+000	 1.072632837346067e+001
 3.934979808415922e+000	 1.468309881259137e+000	 1.073414794251308e+001
 3.920253492151730e+000	 1.507186968264094e+000	 1.074451975132164e+001
 3.905110864452169e+000	 1.545997780191711e+000	 1.075784137868936e+001
 4.061910598357380e+000	 1.162543457705291e+000	 1.061729164838360e+001
 4.050422531743143e+000	 1.201957700774393e+000	 1.065436169445539e+001
 4.038522214817848e+000	 1.241355436821377e+000	 1.069153577793239e+001
 4.026208418480270e+000	 1.280730561460802e+000	 1.070135450471878e+001
 4.013480027531105e+000	 1.320076917723369e+000	 1.070406019238494e+001
 4.000336042615841e+000	 1.359388298551968e+000	 1.070776695784772e+001
 3.986775582106998e+000	 1.398658449371905e+000	 1.071282180433756e+001
 3.972797883922680e+000	 1.437881070733778e+000	 1.071958766654817e+001
 3.958402307278477e+000	 1.477049821027342e+000	 1.072844344537857e+001
 3.943588334369740e+000	 1.516158319264580e+000	 1.073978400946173e+001
 3.928355571981333e+000	 1.555200147930054e+000	 1.075402016235485e+001
 4.085945572314992e+000	 1.169422413077266e+000	 1.060740144420531e+001
 4.074389528975536e+000	 1.209069876518825e+000	 1.064601159108518e+001
 4.062418795974019e+000	 1.248700735263687e+000	 1.068471463288772e+001
 4.050032136936431e+000	 1.288308848805791e+000	 1.068967337966860e+001
 4.037228430064649e+000	 1.327888023744064e+000	 1.069402020445861e+001
 4.024006670090824e+000	 1.367432016293249e+000	 1.069924995583170e+001
 4.010365970170742e+000	 1.406934534869337e+000	 1.070572081542059e+001
 3.996305563713150e+000	 1.446389242748077e+000	 1.071380738729974e+001
 3.981824806142011e+000	 1.485789760794904e+000	 1.072390073119444e+001
 3.966923176588746e+000	 1.525129670264477e+000	 1.073640836158047e+001
 3.951600279511499e+000	 1.564402515667893e+000	 1.075175421152699e+001
 3.719153204254849e+000	 1.472378838266780e+000	 1.084314877857443e+001
 3.704334914117635e+000	 1.509272289597060e+000	 1.084463879004472e+001
 3.689119751950341e+000	 1.546090377651534e+000	 1.084638776210706e+001
 3.673507707759193e+000	 1.582826939728250e+000	 1.084859997531212e+001
 3.657498894861323e+000	 1.619475789933606e+000	 1.085149376817299e+001
 3.641093551026176e+000	 1.656030722167824e+000	 1.085530161473919e+001
 3.624292039533033e+000	 1.692485513160644e+000	 1.086027016879834e+001
 3.607094850142330e+000	 1.728833925554607e+000	 1.086666027364974e+001
 3.589502599978650e+000	 1.765069711033147e+000	 1.087474693647284e+001
 3.571516034323234e+000	 1.801186613490625e+000	 1.088481926639714e+001
 3.553136027314097e+000	 1.837178372241353e+000	 1.089718037546985e+001
 3.742397911776015e+000	 1.481581206009164e+000	 1.082764049336790e+001
 3.727487007325320e+000	 1.518705241409741e+000	 1.082963302440986e+001
 3.712176750394490e+000	 1.555753442514154e+000	 1.083207200809569e+001
 3.696467130927288e+000	 1.592719608103563e+000	 1.083516982645253e+001
 3.680358262949078e+000	 1.629597513622534e+000	 1.083915312929752e+001
 3.663850385715369e+000	 1.666380914183164e+000	 1.084426290857823e+001
 3.646943864775933e+000	 1.703063547619756e+000	 1.085075453870645e+001
 3.629639192952213e+000	 1.739639137591368e+000	 1.085889778181700e+001
 3.611936991225819e+000	 1.776101396729453e+000	 1.086897675696350e+001
 3.593838009536003e+000	 1.812444029827716e+000	 1.088128987234841e+001
 3.575343127484140e+000	 1.848660737071182e+000	 1.089614971977595e+001
 3.765642619298180e+000	 1.490783573751044e+000	 1.081299577963321e+001
 3.750639100533996e+000	 1.528138193222007e+000	 1.081487505899281e+001
 3.735233748839598e+000	 1.565416507376429e+000	 1.081814154558277e+001
 3.719426554096293e+000	 1.602612276478584e+000	 1.082224572118335e+001
 3.703217631037676e+000	 1.639719237311200e+000	 1.082743265648406e+001
 3.686607220405314e+000	 1.676731106198253e+000	 1.083395179044219e+001
 3.669595690019477e+000	 1.713641582078609e+000	 1.084206715495906e+001
 3.652183535762611e+000	 1.750444349627840e+000	 1.085205737579477e+001
 3.634371382473355e+000	 1.787133082425422e+000	 1.086421563674961e+001
 3.616159984748968e+000	 1.823701446164399e+000	 1.087884960620038e+001
 3.597550227654190e+000	 1.860143101900514e+000	 1.089628132517169e+001
 3.788887326821345e+000	 1.499985941492418e+000	 1.079999752452479e+001
 3.773791193743661e+000	 1.537571145033858e+000	 1.080071363354332e+001
 3.758290747285668e+000	 1.575079572238360e+000	 1.080418517901894e+001
 3.742385977266211e+000	 1.612504944853310e+000	 1.080984445573584e+001
 3.726076999127117e+000	 1.649840960999604e+000	 1.081634807158048e+001
 3.709364055096014e+000	 1.687081298213092e+000	 1.082438290791235e+001
 3.692247515263667e+000	 1.724219616537203e+000	 1.083422159162414e+001
 3.674727878573528e+000	 1.761249561664024e+000	 1.084615155755845e+001
 3.656805773721259e+000	 1.798164768121054e+000	 1.086047500783373e+001
 3.638481959962133e+000	 1.834958862500678e+000	 1.087750883283261e+001
 3.619757327824249e+000	 1.871625466729350e+000	 1.089758449302452e+001
 3.812132034345510e+000	 1.509188309233287e+000	 1.078851500258083e+001
 3.796943286954317e+000	 1.547004096845295e+000	 1.078815741768072e+001
 3.781347745732699e+000	 1.584742637099947e+000	 1.079074519136142e+001
 3.765345400437040e+000	 1.622397613227744e+000	 1.079660616373460e+001
 3.748936367217401e+000	 1.659962684687746e+000	 1.080591631908773e+001
 3.732120889787468e+000	 1.697431490227681e+000	 1.081557217272952e+001
 3.714899340508502e+000	 1.734797650995537e+000	 1.082723272715062e+001
 3.697272221384957e+000	 1.772054773699920e+000	 1.084119417237581e+001
 3.679240164969529e+000	 1.809196453816350e+000	 1.085776768308732e+001
 3.660803935175493e+000	 1.846216278836549e+000	 1.087727933421097e+001
 3.641964427994314e+000	 1.883107831557690e+000	 1.088751469507371e+001
 3.835376741870674e+000	 1.518390676973651e+000	 1.077855244256258e+001
 3.820095380165963e+000	 1.556437048656317e+000	 1.077720932104670e+001
 3.804404744180690e+000	 1.594405701961191e+000	 1.077899566510594e+001
 3.788304823608782e+000	 1.632290281601885e+000	 1.078424928321356e+001
 3.771795735308528e+000	 1.670084408375626e+000	 1.079332160435721e+001
 3.754877724479677e+000	 1.707781682242019e+000	 1.080657755788954e+001
 3.737551165753982e+000	 1.745375685453612e+000	 1.082111670484178e+001
 3.719816564196905e+000	 1.782859985735528e+000	 1.083720036810130e+001
 3.701674556218167e+000	 1.820228139511308e+000	 1.085610781440625e+001
 3.683125910389052e+000	 1.857473695172015e+000	 1.087817426644559e+001
 3.664171528164389e+000	 1.894590196385535e+000	 1.087434608188461e+001
 3.858621449396840e+000	 1.527593044713509e+000	 1.077011505539135e+001
 3.843247473378598e+000	 1.565870000466923e+000	 1.076787327906317e+001
 3.827461742629643e+000	 1.604068766822089e+000	 1.076893926493274e+001
 3.811264246781434e+000	 1.642182949975732e+000	 1.077366074169628e+001
 3.794655103400498e+000	 1.680206132063244e+000	 1.078239926182154e+001
 3.777634559172638e+000	 1.718131874256107e+000	 1.079553007498673e+001
 3.760202991000108e+000	 1.755953719911429e+000	 1.081344196618866e+001
 3.742360907009369e+000	 1.793665197770848e+000	 1.083418655594143e+001
 3.724108947467171e+000	 1.831259825205929e+000	 1.085551085237876e+001
 3.705447885602808e+000	 1.868731111507073e+000	 1.088020811840097e+001
 3.686378628334472e+000	 1.906072561212882e+000	 1.086351193856176e+001
 3.881866156924004e+000	 1.536795412452863e+000	 1.076320900474243e+001
 3.866399566592226e+000	 1.575302952277115e+000	 1.076015422222023e+001
 3.850518741079555e+000	 1.613731831682643e+000	 1.076057969183009e+001
 3.834223669954999e+000	 1.652075618349287e+000	 1.076484301507363e+001
 3.817514471493310e+000	 1.690327855750601e+000	 1.077331582715187e+001
 3.800391393866355e+000	 1.728482066269944e+000	 1.078638366412353e+001
 3.782854816246880e+000	 1.766531754368986e+000	 1.080444579408690e+001
 3.764905249822349e+000	 1.804470409805881e+000	 1.082791501174321e+001
 3.746543338716543e+000	 1.842291510900213e+000	 1.085599350740238e+001
 3.727769860816763e+000	 1.879988527841726e+000	 1.087669863561204e+001
 3.708585728504561e+000	 1.917554926039734e+000	 1.085506433507462e+001
 3.905110864452169e+000	 1.545997780191711e+000	 1.075784137868936e+001
 3.889551659806843e+000	 1.584735904086892e+000	 1.075405804646110e+001
 3.873575739530430e+000	 1.623394896542854e+000	 1.075392165225171e+001
 3.857183093129476e+000	 1.661968286722549e+000	 1.075779962364748e+001
 3.840373839586965e+000	 1.700449579437696e+000	 1.076607363855796e+001
 3.823148228560824e+000	 1.738832258283531e+000	 1.077913948622460e+001
 3.805506641494296e+000	 1.777109788826284e+000	 1.079740689159705e+001
 3.787449592635845e+000	 1.815275621840625e+000	 1.082129930242928e+001
 3.768977729966283e+000	 1.853323196594161e+000	 1.085125363854081e+001
 3.750091836030915e+000	 1.891245944175972e+000	 1.086675008396004e+001
 3.730792828674659e+000	 1.929037290866090e+000	 1.084905662660139e+001
 3.928355571981333e+000	 1.555200147930054e+000	 1.075402016235485e+001
 3.912703753022449e+000	 1.594168855896254e+000	 1.074959158461837e+001
 3.896632737982265e+000	 1.633057961402721e+000	 1.074897082836931e+001
 3.880142516304863e+000	 1.671860955095517e+000	 1.075253510123104e+001
 3.863233207681464e+000	 1.710571303124529e+000	 1.076067608449575e+001
 3.845905063256049e+000	 1.749182450296867e+000	 1.077379978811433e+001
 3.828158466742357e+000	 1.787687823283322e+000	 1.079232636838742e+001
 3.809993935449857e+000	 1.826080833875081e+000	 1.081668990770403e+001
 3.791412121216387e+000	 1.864354882287771e+000	 1.084733815576864e+001
 3.772413811245264e+000	 1.902503360509812e+000	 1.085067502233358e+001
 3.752999928844765e+000	 1.940519655691950e+000	 1.084419867300416e+001
 3.951600279511499e+000	 1.564402515667893e+000	 1.075175421152699e+001
 3.935855846239047e+000	 1.603601807705202e+000	 1.074676257885847e+001
 3.919689736435062e+000	 1.642721026262243e+000	 1.074573384937502e+001
 3.903101939481164e+000	 1.681753623468193e+000	 1.074905496533963e+001
 3.886092575776805e+000	 1.720693026811100e+000	 1.075712757277768e+001
 3.868661897952027e+000	 1.759532642309953e+000	 1.077036787057845e+001
 3.850810291991065e+000	 1.798265857740103e+000	 1.078920642162136e+001
 3.832538278264387e+000	 1.836886045909251e+000	 1.081408792526650e+001
 3.813846512466861e+000	 1.875386567981045e+000	 1.084503366262222e+001
 3.794735786459812e+000	 1.913760776843247e+000	 1.083783513031371e+001
 3.775207029014879e+000	 1.952002020517314e+000	 1.083369350523920e+001
 3.553136027314097e+000	 1.837178372241353e+000	 1.089718037546985e+001
 3.534363582552064e+000	 1.873038725264742e+000	 1.095213667111511e+001
 3.515199833610371e+000	 1.908761412482587e+000	 1.095016398696430e+001
 3.495646044446416e+000	 1.944340179066090e+000	 1.094650004584120e+001
 3.475703609714792e+000	 1.979768778769483e+000	 1.094501450614432e+001
 3.455374054979497e+000	 2.015040977286106e+000	 1.094610275067267e+001
 3.434659036824272e+000	 2.050150555623709e+000	 1.095017872203485e+001
 3.413560342859975e+000	 2.085091313495474e+000	 1.095767463745896e+001
 3.392079891627955e+000	 2.119857072723085e+000	 1.096904064967001e+001
 3.370219732398644e+000	 2.154441680648208e+000	 1.098474445356703e+001
 3.347982044864625e+000	 2.188839013548634e+000	 1.100527083859638e+001
 3.575343127484140e+000	 1.848660737071182e+000	 1.089614971977595e+001
 3.556453354943440e+000	 1.884745217301496e+000	 1.093668864207382e+001
 3.537169832571847e+000	 1.920691171314830e+000	 1.093385964628171e+001
 3.517493832226492e+000	 1.956492305189702e+000	 1.093238449073134e+001
 3.497426757278562e+000	 1.992142333641310e+000	 1.093262756947251e+001
 3.476970142826823e+000	 2.027634983398575e+000	 1.093497280482961e+001
 3.456125655808670e+000	 2.062963996600546e+000	 1.093982343509167e+001
 3.434895095007523e+000	 2.098123134208610e+000	 1.094760174737911e+001
 3.413280390955621e+000	 2.133106179430838e+000	 1.095874875520882e+001
 3.391283605731327e+000	 2.167906941154781e+000	 1.097372382044242e+001
 3.368906932650309e+000	 2.202519257384963e+000	 1.099300421946975e+001
 3.597550227654190e+000	 1.860143101900514e+000	 1.089628132517169e+001
 3.578543127334634e+000	 1.896451709337664e+000	 1.091959980543073e+001
 3.559139831532969e+000	 1.932620930146416e+000	 1.091911756824518e+001
 3.539341620006065e+000	 1.968644431312607e+000	 1.091953896791154e+001
 3.519149904841695e+000	 2.004515888512400e+000	 1.092121637983788e+001
 3.498566230673402e+000	 2.040228989510295e+000	 1.092452245303814e+001
 3.477592274792230e+000	 2.075777437576643e+000	 1.092984991711030e+001
 3.456229847154165e+000	 2.111154954921036e+000	 1.093761133305500e+001
 3.434480890282327e+000	 2.146355286137930e+000	 1.094823878740471e+001
 3.412347479063021e+000	 2.181372201660761e+000	 1.096218352930096e+001
 3.389831820434993e+000	 2.216199501220790e+000	 1.097991555032717e+001
 3.619757327824249e+000	 1.871625466729350e+000	 1.089758449302452e+001
 3.600632899725644e+000	 1.908158201373246e+000	 1.090441624906141e+001
 3.581109830493738e+000	 1.944550688977346e+000	 1.090599713292200e+001
 3.561189407785133e+000	 1.980796557434805e+000	 1.090802907189428e+001
 3.540873052404194e+000	 2.016889443382750e+000	 1.091085259814309e+001
 3.520162318519236e+000	 2.052822995621266e+000	 1.091482927143105e+001
 3.499058893774951e+000	 2.088590878551999e+000	 1.092034150530218e+001
 3.477564599299897e+000	 2.124186775632750e+000	 1.092779233575064e+001
 3.455681389608072e+000	 2.159604392844360e+000	 1.093760513179404e+001
 3.433411352393724e+000	 2.194837462166148e+000	 1.095022324754049e+001
 3.410756708218677e+000	 2.229879745056114e+000	 1.096610961551304e+001
 3.641964427994314e+000	 1.883107831557690e+000	 1.088751469507371e+001
 3.622722672116472e+000	 1.919864693408242e+000	 1.089119230493592e+001
 3.603079829454155e+000	 1.956480447807618e+000	 1.089455889245822e+001
 3.583037195563700e+000	 1.992948683556295e+000	 1.089792143185671e+001
 3.562596199966057e+000	 2.029262998252362e+000	 1.090160878430831e+001
 3.541758406364323e+000	 2.065417001731487e+000	 1.090597160134957e+001
 3.520525512756837e+000	 2.101404319526615e+000	 1.091138217018633e+001
 3.498899351444721e+000	 2.137218596343753e+000	 1.091823420011465e+001
 3.476881888932859e+000	 2.172853499550127e+000	 1.092694254942124e+001
 3.454475225723439e+000	 2.208302722670943e+000	 1.093794289230460e+001
 3.431681596001361e+000	 2.243559988890935e+000	 1.095169132553625e+001
 3.664171528164389e+000	 1.894590196385535e+000	 1.087434608188461e+001
 3.644812444507119e+000	 1.931571185442651e+000	 1.087998357647963e+001
 3.625049828414220e+000	 1.968410206637234e+000	 1.088486453556116e+001
 3.604884983341759e+000	 2.005100809677077e+000	 1.088928368028716e+001
 3.584319347527285e+000	 2.041636553121235e+000	 1.089355837002833e+001
 3.563354494208664e+000	 2.078011007840958e+000	 1.089802852615528e+001
 3.541992131737884e+000	 2.114217760500490e+000	 1.090305649639835e+001
 3.520234103588635e+000	 2.150250417054044e+000	 1.090902685892622e+001
 3.498082388256687e+000	 2.186102606255232e+000	 1.091634616545976e+001
 3.475539099052163e+000	 2.221767983175145e+000	 1.092544262291454e+001
 3.452606483783046e+000	 2.257240232725254e+000	 1.093676571324692e+001
 3.686378628334472e+000	 1.906072561212882e+000	 1.086351193856176e+001
 3.666902216897582e+000	 1.943277677476475e+000	 1.087084690027643e+001
 3.647019827373930e+000	 1.980339965466193e+000	 1.087697685326565e+001
 3.626732771119316e+000	 2.017252935797153e+000	 1.088218442276494e+001
 3.606042495087878e+000	 2.054010107989370e+000	 1.088677563251428e+001
 3.584950582052259e+000	 2.090605013949680e+000	 1.089107984888002e+001
 3.563458750718096e+000	 2.127031201473625e+000	 1.089544966419279e+001
 3.541568855731643e+000	 2.163282237763625e+000	 1.090026071839233e+001
 3.519282887579554e+000	 2.199351712959675e+000	 1.090591145824437e+001
 3.496602972379898e+000	 2.235233243678755e+000	 1.091282283357477e+001
 3.473531371563731e+000	 2.270920476559069e+000	 1.092143793015147e+001
 3.708585728504561e+000	 1.917554926039734e+000	 1.085506433507462e+001
 3.688991989287863e+000	 1.954984169509711e+000	 1.086384030914775e+001
 3.668989826333287e+000	 1.992269724294494e+000	 1.087095970593015e+001
 3.648580558896369e+000	 2.029405061916519e+000	 1.087669320882590e+001
 3.627765642647837e+000	 2.066383662856766e+000	 1.088133566917875e+001
 3.606546669895108e+000	 2.103199020057653e+000	 1.088520607067896e+001
 3.584925369697467e+000	 2.139844642446019e+000	 1.088864743161033e+001
 3.562903607873741e+000	 2.176314058472493e+000	 1.089202664397328e+001
 3.540483386901463e+000	 2.212600819663457e+000	 1.089573424869741e+001
 3.517666845706642e+000	 2.248698504181773e+000	 1.090018414634049e+001
 3.494456259343415e+000	 2.284600720392382e+000	 1.090581324285997e+001
 3.730792828674659e+000	 1.929037290866090e+000	 1.084905662660139e+001
 3.711081761677962e+000	 1.966690661542362e+000	 1.085902299655035e+001
 3.690959825292292e+000	 2.004199483122139e+000	 1.086687799141172e+001
 3.670428346672918e+000	 2.041557188035179e+000	 1.087288050386844e+001
 3.649488790207159e+000	 2.078757217723425e+000	 1.087731437322504e+001
 3.628142757737212e+000	 2.115793026164876e+000	 1.088048837005305e+001
 3.606391988676003e+000	 2.152658083417673e+000	 1.088273611728173e+001
 3.584238360014931e+000	 2.189345879180650e+000	 1.088441594671445e+001
 3.561683886222414e+000	 2.225849926366577e+000	 1.088591069013277e+001
 3.538730719032397e+000	 2.262163764684197e+000	 1.088762740433635e+001
 3.515381147122099e+000	 2.298280964225193e+000	 1.088999702966052e+001
 3.752999928844765e+000	 1.940519655691950e+000	 1.084419867300416e+001
 3.733171534067878e+000	 1.978397153574426e+000	 1.085645528223786e+001
 3.712929824250944e+000	 2.016129241949128e+000	 1.086479761437074e+001
 3.692276134448963e+000	 2.053709314153131e+000	 1.087081766205702e+001
 3.671211937765849e+000	 2.091130772589344e+000	 1.087478841010304e+001
 3.649738845578568e+000	 2.128387032271350e+000	 1.087700858280928e+001
 3.627858607653701e+000	 2.165471524388586e+000	 1.087780258384233e+001
 3.605573112155213e+000	 2.202377699888097e+000	 1.087752037006331e+001
 3.582884385542403e+000	 2.239099033069033e+000	 1.087653725842183e+001
 3.559794592357163e+000	 2.275629025186031e+000	 1.087525366521599e+001
 3.536306034899783e+000	 2.311961208057501e+000	 1.087409477721515e+001
 3.775207029014879e+000	 1.952002020517314e+000	 1.083369350523920e+001
 3.755261306457614e+000	 1.990103645605905e+000	 1.085361508938020e+001
 3.734899823209243e+000	 2.028059000775460e+000	 1.086478545665906e+001
 3.714123922224505e+000	 2.065861440270376e+000	 1.087057690018195e+001
 3.692935085323902e+000	 2.103504327454524e+000	 1.087383519479615e+001
 3.671334933419179e+000	 2.140981038377074e+000	 1.087484918272804e+001
 3.649325226630563e+000	 2.178284965358760e+000	 1.087393422193195e+001
 3.626907864294588e+000	 2.215409520594832e+000	 1.087143207715169e+001
 3.604084884861436e+000	 2.252348139770829e+000	 1.086771074250642e+001
 3.580858465680939e+000	 2.289094285687271e+000	 1.086316419485231e+001
 3.557230922676468e+000	 2.325641451889307e+000	 1.085821207737228e+001
 3.347982044864625e+000	 2.188839013548634e+000	 1.100527083859638e+001
 3.325369138727341e+000	 2.223042980055294e+000	 1.096700116447931e+001
 3.302383453178052e+000	 2.257047524566414e+000	 1.093492790541329e+001
 3.279027556272166e+000	 2.290846630654906e+000	 1.090977571100132e+001
 3.255304144196107e+000	 2.324434324465134e+000	 1.089228488244418e+001
 3.231216040427901e+000	 2.357804678095200e+000	 1.088321046418691e+001
 3.206766194791350e+000	 2.390951812960878e+000	 1.088332128193190e+001
 3.181957682404209e+000	 2.423869903137295e+000	 1.089339892843569e+001
 3.156793702520921e+000	 2.456553178674486e+000	 1.091423669868786e+001
 3.131277577270649e+000	 2.488995928882964e+000	 1.094663847624839e+001
 3.105412750291483e+000	 2.521192505585459e+000	 1.093702849840135e+001
 3.368906932650309e+000	 2.202519257384963e+000	 1.099300421946975e+001
 3.346152695849630e+000	 2.236936998681402e+000	 1.095715227092402e+001
 3.323023349765487e+000	 2.271154071594951e+000	 1.092783615406454e+001
 3.299521478503630e+000	 2.305164422095855e+000	 1.090579797242050e+001
 3.275649795101650e+000	 2.338962038991881e+000	 1.089179562712857e+001
 3.251411140684311e+000	 2.372540957331742e+000	 1.088660188647641e+001
 3.226808483511813e+000	 2.405895261790064e+000	 1.089100340095935e+001
 3.201844917921395e+000	 2.439019090029942e+000	 1.090579966530397e+001
 3.176523663162845e+000	 2.471906636039225e+000	 1.093180192909600e+001
 3.150848062128627e+000	 2.504552153436616e+000	 1.095584811874580e+001
 3.124821579979573e+000	 2.536949958743739e+000	 1.090240656226912e+001
 3.389831820434993e+000	 2.216199501220790e+000	 1.097991555032717e+001
 3.366936252970930e+000	 2.250831017307106e+000	 1.094656892223913e+001
 3.343663246351960e+000	 2.285260618623185e+000	 1.092008702166680e+001
 3.320015400734184e+000	 2.319482213536602e+000	 1.090122944584221e+001
 3.295995446006354e+000	 2.353489753518525e+000	 1.089077174841562e+001
 3.271606240939970e+000	 2.387277236568283e+000	 1.088950448685665e+001
 3.246850772231635e+000	 2.420838710619349e+000	 1.089823221449223e+001
 3.221732153438071e+000	 2.454168276922787e+000	 1.091777241867106e+001
 3.196253623804405e+000	 2.487260093404262e+000	 1.094895440673111e+001
 3.170418546986412e+000	 2.520108377990667e+000	 1.093276585606306e+001
 3.144230409667659e+000	 2.552707411902517e+000	 1.088574233141212e+001
 3.410756708218677e+000	 2.229879745056114e+000	 1.096610961551304e+001
 3.387719810091239e+000	 2.264725035932409e+000	 1.093535366423853e+001
 3.364303142937475e+000	 2.299367165651117e+000	 1.091178083357354e+001
 3.340509322963827e+000	 2.333800004977146e+000	 1.089616825600777e+001
 3.316341096910214e+000	 2.368017468045066e+000	 1.088930919209279e+001
 3.291801341194877e+000	 2.402013515804820e+000	 1.089201205565996e+001
 3.266893060950814e+000	 2.435782159448730e+000	 1.090509938277533e+001
 3.241619388954234e+000	 2.469317463815831e+000	 1.092940674595694e+001
 3.215983584445603e+000	 2.502613550769599e+000	 1.095857553584269e+001
 3.189989031844004e+000	 2.535664602545117e+000	 1.091228025602408e+001
 3.163639239355744e+000	 2.568464865061795e+000	 1.087186328344815e+001
 3.431681596001361e+000	 2.243559988890935e+000	 1.095169132553625e+001
 3.408503367210559e+000	 2.278619054557308e+000	 1.092360922288755e+001
 3.384943039522027e+000	 2.313473712678746e+000	 1.090301814701258e+001
 3.361003245192558e+000	 2.348117796417488e+000	 1.089071280896011e+001
 3.336686747813235e+000	 2.382545182571506e+000	 1.088750423235084e+001
 3.311996441449034e+000	 2.416749795041357e+000	 1.089421875636952e+001
 3.286935349669351e+000	 2.450725608278211e+000	 1.091169698157037e+001
 3.261506624469885e+000	 2.484466650709074e+000	 1.094079266005745e+001
 3.235713545086439e+000	 2.517967008135233e+000	 1.093446601907509e+001
 3.209559516701405e+000	 2.551220827099966e+000	 1.089441042399814e+001
 3.183048069043826e+000	 2.584222318221571e+000	 1.086063591944841e+001
 3.452606483783046e+000	 2.257240232725254e+000	 1.093676571324692e+001
 3.429286924328888e+000	 2.292513073181805e+000	 1.091143849884391e+001
 3.405582936105621e+000	 2.327580259706072e+000	 1.089389974405956e+001
 3.381497167420379e+000	 2.362435587857627e+000	 1.088496178351941e+001
 3.357032398715415e+000	 2.397072897097843e+000	 1.088545346183219e+001
 3.332191541702438e+000	 2.431486074277890e+000	 1.089621911431170e+001
 3.306977638387247e+000	 2.465669057107789e+000	 1.091811748956465e+001
 3.281393859985024e+000	 2.499615837602514e+000	 1.095202061554215e+001
 3.255443505726912e+000	 2.533320465501167e+000	 1.091295001719827e+001
 3.229130001558612e+000	 2.566777051655213e+000	 1.087917597742857e+001
 3.202456898731904e+000	 2.599979771381846e+000	 1.085207846752888e+001
 3.473531371563731e+000	 2.270920476559069e+000	 1.092143793015147e+001
 3.450070481446228e+000	 2.306407091805899e+000	 1.089894456219587e+001
 3.426222832688254e+000	 2.341686806733097e+000	 1.088452662486543e+001
 3.401991089647289e+000	 2.376753379297564e+000	 1.087901412306694e+001
 3.377378049616753e+000	 2.411600611624078e+000	 1.088325378203899e+001
 3.352386641955090e+000	 2.446222353514423e+000	 1.089810800575723e+001
 3.327019927104501e+000	 2.480612505937466e+000	 1.092445377623467e+001
 3.301281095499650e+000	 2.514765024496154e+000	 1.092812238268501e+001
 3.275173466367023e+000	 2.548673922867398e+000	 1.089404907294656e+001
 3.248700486415628e+000	 2.582333276210859e+000	 1.086659703040880e+001
 3.221865728419981e+000	 2.615737224542619e+000	 1.084620968311302e+001
 3.494456259343415e+000	 2.284600720392382e+000	 1.090581324285997e+001
 3.470854038562576e+000	 2.320301110429591e+000	 1.088623064738951e+001
 3.446862729269924e+000	 2.355793353759818e+000	 1.087500000112721e+001
 3.422485011873289e+000	 2.391071170737298e+000	 1.087296902762411e+001
 3.397723700517250e+000	 2.426128326150211e+000	 1.088100239408588e+001
 3.372581742206993e+000	 2.460958632750953e+000	 1.089998064741382e+001
 3.347062215821113e+000	 2.495555954767241e+000	 1.093079909014595e+001
 3.321168331013764e+000	 2.529914211389991e+000	 1.090586965356039e+001
 3.294903427006772e+000	 2.564027380233929e+000	 1.087778517883645e+001
 3.268270971272450e+000	 2.597889500766903e+000	 1.085669417881266e+001
 3.241274558108055e+000	 2.631494677703892e+000	 1.084304883314409e+001
 3.515381147122099e+000	 2.298280964225193e+000	 1.088999702966052e+001
 3.491637595677935e+000	 2.334195129052880e+000	 1.087340014833709e+001
 3.467502625850637e+000	 2.369899900786238e+000	 1.086542128979207e+001
 3.442978934098379e+000	 2.405388962176831e+000	 1.086692594621431e+001
 3.418069351416905e+000	 2.440656040676242e+000	 1.087879678978284e+001
 3.392776842458142e+000	 2.475694911987481e+000	 1.090193258629415e+001
 3.367104504537082e+000	 2.510499403597114e+000	 1.091518359649935e+001
 3.341055566527367e+000	 2.545063398284027e+000	 1.088623157796780e+001
 3.314633387646158e+000	 2.579380837600758e+000	 1.086418076378027e+001
 3.287841456129080e+000	 2.613445725323346e+000	 1.084948848595560e+001
 3.260683387796125e+000	 2.647252130865662e+000	 1.084261568086135e+001
 3.536306034899783e+000	 2.311961208057501e+000	 1.087409477721515e+001
 3.512421152792304e+000	 2.348089147675766e+000	 1.086055661369901e+001
 3.488142522430388e+000	 2.384006447812355e+000	 1.085589210698472e+001
 3.463472856322557e+000	 2.419706753616161e+000	 1.086098456949604e+001
 3.438415002315721e+000	 2.455183755202171e+000	 1.087673474303487e+001
 3.412971942708542e+000	 2.490431191224007e+000	 1.090405968994353e+001
 3.387146793252411e+000	 2.525442852427086e+000	 1.089245637053019e+001
 3.360942802040456e+000	 2.560212585178260e+000	 1.086923240619364e+001
 3.334363348285182e+000	 2.594734294967884e+000	 1.085325868017502e+001
 3.307411940985517e+000	 2.629001949880188e+000	 1.084500146876511e+001
 3.280092217484194e+000	 2.663009584027932e+000	 1.084493047111671e+001
 3.557230922676468e+000	 2.325641451889307e+000	 1.085821207737228e+001
 3.533204709905683e+000	 2.361983166298250e+000	 1.084780374233265e+001
 3.508782419009181e+000	 2.398112994838169e+000	 1.084651426214935e+001
 3.483966778545826e+000	 2.434024545055288e+000	 1.085524482265597e+001
 3.458760653213695e+000	 2.469711469727997e+000	 1.087491430154497e+001
 3.433167042958189e+000	 2.505167470460531e+000	 1.089691126419516e+001
 3.407189081967097e+000	 2.540386301257156e+000	 1.087234359379235e+001
 3.380830037553035e+000	 2.575361772072694e+000	 1.085489676826598e+001
 3.354093308923844e+000	 2.610087752335311e+000	 1.084504219144693e+001
 3.326982425841762e+000	 2.644558174437429e+000	 1.084325508443913e+001
 3.299501047172259e+000	 2.678767037190700e+000	 1.085001391620976e+001
 3.105412750291483e+000	 2.521192505585459e+000	 1.093702849840135e+001
 3.079202785261663e+000	 2.553137326331711e+000	 1.093335739422277e+001
 3.052651364329598e+000	 2.584824877570536e+000	 1.092544767735055e+001
 3.025762286443788e+000	 2.616249717776629e+000	 1.091395009195601e+001
 2.998539465583634e+000	 2.647406480529932e+000	 1.089954515807786e+001
 2.970986928893433e+000	 2.678289877541902e+000	 1.088294181504529e+001
 2.943108814721196e+000	 2.708894701625782e+000	 1.086487597951141e+001
 2.914909370564268e+000	 2.739215829607388e+000	 1.084610902140628e+001
 2.886392950923881e+000	 2.769248225173028e+000	 1.082742616139637e+001
 2.857564015070873e+000	 2.798986941651219e+000	 1.080963479370350e+001
 2.828427124725000e+000	 2.828427124725000e+000	 1.079356273839094e+001
 3.124821579979573e+000	 2.536949958743739e+000	 1.090240656226912e+001
 3.098447802667084e+000	 2.569094434619900e+000	 1.090375256179765e+001
 3.071730435353172e+000	 2.600980033054107e+000	 1.090029600513816e+001
 3.044673300729766e+000	 2.632601278511519e+000	 1.089270267135727e+001
 3.017280337238637e+000	 2.663952771031953e+000	 1.088166927676132e+001
 2.989555597193736e+000	 2.695029189275061e+000	 1.086792209055035e+001
 2.961503244807747e+000	 2.725825293509171e+000	 1.085221546263005e+001
 2.933127554124877e+000	 2.756335928540260e+000	 1.083533026695583e+001
 2.904432906861987e+000	 2.786556026577674e+000	 1.081807226406776e+001
 2.875423790160359e+000	 2.816480610033235e+000	 1.080127038674869e+001
 2.846104794250500e+000	 2.846104794250500e+000	 1.078577495299883e+001
 3.144230409667659e+000	 2.552707411902517e+000	 1.088574233141212e+001
 3.117692820072692e+000	 2.585051542908685e+000	 1.087487129825896e+001
 3.090809506377103e+000	 2.617135188538357e+000	 1.087580326547806e+001
 3.063584315016251e+000	 2.648952839247163e+000	 1.087204357921886e+001
 3.036021208894279e+000	 2.680499061534792e+000	 1.086430544100962e+001
 3.008124265494787e+000	 2.711768501009095e+000	 1.085333275230915e+001
 2.979897674895137e+000	 2.742755885393480e+000	 1.083989861163619e+001
 2.951345737686393e+000	 2.773456027474086e+000	 1.082480372481425e+001
 2.922472862801052e+000	 2.803863827983300e+000	 1.080887473206405e+001
 2.893283565250835e+000	 2.833974278416245e+000	 1.079296245595609e+001
 2.863782463777000e+000	 2.863782463776999e+000	 1.077794007450312e+001
 3.163639239355744e+000	 2.568464865061795e+000	 1.087186328344815e+001
 3.136937837478489e+000	 2.601008651198063e+000	 1.085668031633209e+001
 3.109888577401393e+000	 2.633290344023287e+000	 1.085215356575472e+001
 3.082495329303244e+000	 2.665304399983560e+000	 1.085215588630774e+001
 3.054762080550557e+000	 2.697045352038451e+000	 1.084763549319277e+001
 3.026692933796586e+000	 2.728507812744002e+000	 1.083935422459367e+001
 2.998292104983366e+000	 2.759686477278708e+000	 1.082810424526237e+001
 2.969563921248821e+000	 2.790576126408868e+000	 1.081470642317109e+001
 2.940512818741077e+000	 2.821171629389906e+000	 1.080000862064104e+001
 2.911143340342302e+000	 2.851467946800251e+000	 1.078488390404080e+001
 2.881460133304500e+000	 2.881460133304500e+000	 1.077022867642205e+001
 3.183048069043826e+000	 2.584222318221571e+000	 1.086063591944841e+001
 3.156182854884472e+000	 2.616965759488034e+000	 1.084677146119274e+001
 3.128967648426041e+000	 2.649445499508894e+000	 1.083249955761945e+001
 3.101406343590746e+000	 2.681655960720713e+000	 1.083322320355654e+001
 3.073502952207476e+000	 2.713591642542929e+000	 1.083184181241485e+001
 3.045261602099134e+000	 2.745247124479786e+000	 1.082616746668722e+001
 3.016686535072434e+000	 2.776617069164856e+000	 1.081701171724070e+001
 2.987782104812156e+000	 2.807696225344604e+000	 1.080521592691618e+001
 2.958552774682061e+000	 2.838479430797493e+000	 1.079164952516803e+001
 2.929003115434758e+000	 2.868961615185252e+000	 1.077720817895606e+001
 2.899137802833000e+000	 2.899137802833000e+000	 1.076281188434639e+001
 3.202456898731904e+000	 2.599979771381846e+000	 1.085207846752888e+001
 3.175427872290643e+000	 2.632922867778599e+000	 1.083947828175862e+001
 3.148046719451045e+000	 2.665600654995181e+000	 1.082615138840536e+001
 3.120317357878755e+000	 2.698007521458618e+000	 1.081542966569507e+001
 3.092243823865032e+000	 2.730137933048225e+000	 1.081710729824951e+001
 3.063830270402431e+000	 2.761986436216442e+000	 1.081395395667186e+001
 3.035080965162342e+000	 2.793547661051924e+000	 1.080680090009082e+001
 3.006000288376403e+000	 2.824816324281295e+000	 1.079651032137600e+001
 2.976592730624006e+000	 2.855787232206058e+000	 1.078397356476068e+001
 2.946862890528205e+000	 2.886455283571248e+000	 1.077010925737106e+001
 2.916815472362500e+000	 2.916815472362500e+000	 1.075586135920994e+001
 3.221865728419981e+000	 2.615737224542619e+000	 1.084620968311302e+001
 3.194672889697001e+000	 2.648879976069759e+000	 1.083481971734065e+001
 3.167125790476407e+000	 2.681755810482146e+000	 1.082238524469190e+001
 3.139228372167273e+000	 2.714359082197278e+000	 1.080905830566253e+001
 3.110984695523227e+000	 2.746684223554341e+000	 1.080361535506293e+001
 3.082398938706478e+000	 2.778725747953974e+000	 1.080289567580209e+001
 3.053475395253089e+000	 2.810478252939911e+000	 1.079765216949364e+001
 3.024218471941558e+000	 2.841936423218940e+000	 1.078876819663784e+001
 2.994632686566910e+000	 2.873095033615604e+000	 1.077715736650557e+001
 2.964722665622641e+000	 2.903948951958238e+000	 1.076376162874568e+001
 2.934493141892999e+000	 2.934493141893000e+000	 1.074954928116473e+001
 3.241274558108055e+000	 2.631494677703892e+000	 1.084304883314409e+001
 3.213917907103547e+000	 2.664837084361511e+000	 1.083281521098461e+001
 3.186204861502127e+000	 2.697910965969791e+000	 1.082122065878888e+001
 3.158139386456297e+000	 2.730710642936692e+000	 1.080841995757350e+001
 3.129725567182059e+000	 2.763230514061277e+000	 1.079457794395262e+001
 3.100967607011273e+000	 2.795465059692379e+000	 1.079317509343964e+001
 3.071869825344675e+000	 2.827408844828818e+000	 1.078974638922684e+001
 3.042436655507623e+000	 2.859056522157541e+000	 1.078216863243722e+001
 3.012672642510775e+000	 2.890402835026130e+000	 1.077137805025149e+001
 2.982582440718067e+000	 2.921442620346225e+000	 1.075834027997744e+001
 2.952170811424500e+000	 2.952170811424500e+000	 1.074404833403561e+001
 3.260683387796125e+000	 2.647252130865662e+000	 1.084261568086135e+001
 3.233162924510279e+000	 2.680794192653857e+000	 1.083348469447900e+001
 3.205283932528204e+000	 2.714066121458114e+000	 1.082267764569614e+001
 3.177050400745831e+000	 2.747062203676860e+000	 1.081035212523413e+001
 3.148466438841531e+000	 2.779776804569032e+000	 1.079667624683238e+001
 3.119536275316817e+000	 2.812204371431659e+000	 1.078497515252662e+001
 3.090264255437100e+000	 2.844339436718644e+000	 1.078326489663795e+001
 3.060654839074597e+000	 2.876176621097097e+000	 1.077689118358504e+001
 3.030712598455599e+000	 2.907710636437635e+000	 1.076681321394388e+001
 3.000442215814484e+000	 2.938936288735205e+000	 1.075402068059690e+001
 2.969848480956999e+000	 2.969848480956999e+000	 1.073953169032995e+001
 3.280092217484194e+000	 2.663009584027932e+000	 1.084493047111671e+001
 3.252407941917199e+000	 2.696751300946797e+000	 1.083684857389522e+001
 3.224363003554640e+000	 2.730221276947116e+000	 1.082677668882285e+001
 3.195961415035872e+000	 2.763413764417781e+000	 1.081487528561051e+001
 3.167207310501641e+000	 2.796323095077605e+000	 1.080131582558982e+001
 3.138104943623109e+000	 2.828943683171814e+000	 1.078628048058698e+001
 3.108658685530366e+000	 2.861270028609391e+000	 1.077838948863357e+001
 3.078873022642481e+000	 2.893296720037606e+000	 1.077311586591210e+001
 3.048752554401382e+000	 2.925018437850121e+000	 1.076364091947999e+001
 3.018301990911890e+000	 2.956429957125181e+000	 1.075097876848849e+001
 2.987526150490500e+000	 2.987526150490500e+000	 1.073617299677964e+001
 3.299501047172259e+000	 2.678767037190700e+000	 1.085001391620976e+001
 3.271652959324307e+000	 2.712708409240331e+000	 1.084292771563802e+001
 3.243442074581433e+000	 2.746376432436797e+000	 1.083353872621061e+001
 3.214872429326423e+000	 2.779765325159458e+000	 1.082201036601838e+001
 3.185948182162390e+000	 2.812869385586999e+000	 1.080851751462187e+001
 3.156673611930152e+000	 2.845682994912843e+000	 1.079324622721374e+001
 3.127053115624469e+000	 2.878200620501056e+000	 1.077639342226955e+001
 3.097091206211275e+000	 2.910416818979071e+000	 1.077102314270962e+001
 3.066792510348126e+000	 2.942326239263587e+000	 1.076203967906321e+001
 3.036161766010287e+000	 2.973923625516153e+000	 1.074939093611548e+001
 3.005203820025000e+000	 3.005203820025000e+000	 1.073414636039321e+001
 2.828427124725000e+000	 2.828427124725000e+000	 1.079356273839094e+001
 2.798986941651219e+000	 2.857564015070872e+000	 1.072808844729619e+001
 2.769248225173028e+000	 2.886392950923880e+000	 1.067021069241294e+001
 2.739215829607389e+000	 2.914909370564268e+000	 1.062096052442665e+001
 2.708894701625782e+000	 2.943108814721194e+000	 1.058137810038575e+001
 2.678289877541904e+000	 2.970986928893432e+000	 1.055251049960383e+001
 2.647406480529933e+000	 2.998539465583634e+000	 1.053540950338856e+001
 2.616249717776630e+000	 3.025762286443787e+000	 1.053112934429317e+001
 2.584824877570537e+000	 3.052651364329597e+000	 1.054072443069508e+001
 2.553137326331712e+000	 3.079202785261663e+000	 1.056524705259440e+001
 2.521192505585459e+000	 3.105412750291483e+000	 1.060574507459456e+001
 2.846104794250500e+000	 2.846104794250500e+000	 1.078577495299883e+001
 2.816480610033235e+000	 2.875423790160357e+000	 1.072402060538690e+001
 2.786556026577674e+000	 2.904432906861986e+000	 1.067048741896821e+001
 2.756335928540261e+000	 2.933127554124876e+000	 1.062624442658003e+001
 2.725825293509172e+000	 2.961503244807746e+000	 1.059236956449779e+001
 2.695029189275062e+000	 2.989555597193734e+000	 1.056994742744671e+001
 2.663952771031953e+000	 3.017280337238636e+000	 1.056006698727779e+001
 2.632601278511520e+000	 3.044673300729764e+000	 1.056381928114239e+001
 2.600980033054109e+000	 3.071730435353171e+000	 1.058229507511018e+001
 2.569094434619902e+000	 3.098447802667084e+000	 1.061658250926437e+001
 2.536949958743739e+000	 3.124821579979572e+000	 1.066776473037662e+001
 2.863782463777000e+000	 2.863782463776999e+000	 1.077794007450312e+001
 2.833974278416246e+000	 2.893283565250835e+000	 1.072005805999548e+001
 2.803863827983302e+000	 2.922472862801051e+000	 1.067100673258844e+001
 2.773456027474088e+000	 2.951345737686393e+000	 1.063189338197431e+001
 2.742755885393481e+000	 2.979897674895137e+000	 1.060383401465758e+001
 2.711768501009096e+000	 3.008124265494785e+000	 1.058795104748950e+001
 2.680499061534793e+000	 3.036021208894278e+000	 1.058537096467664e+001
 2.648952839247163e+000	 3.063584315016249e+000	 1.059722194423934e+001
 2.617135188538358e+000	 3.090809506377103e+000	 1.062463146000630e+001
 2.585051542908686e+000	 3.117692820072692e+000	 1.066872386532172e+001
 2.552707411902518e+000	 3.144230409667660e+000	 1.061447730153938e+001
 2.881460133304500e+000	 2.881460133304500e+000	 1.077022867642205e+001
 2.851467946800252e+000	 2.911143340342301e+000	 1.071636411012190e+001
 2.821171629389907e+000	 2.940512818741075e+000	 1.067192471153296e+001
 2.790576126408868e+000	 2.969563921248819e+000	 1.063805630747075e+001
 2.759686477278710e+000	 2.998292104983365e+000	 1.061591327123852e+001
 2.728507812744004e+000	 3.026692933796586e+000	 1.060665615408991e+001
 2.697045352038451e+000	 3.054762080550557e+000	 1.061144927994956e+001
 2.665304399983561e+000	 3.082495329303243e+000	 1.063145830950896e+001
 2.633290344023287e+000	 3.109888577401392e+000	 1.066784777992802e+001
 2.601008651198064e+000	 3.136937837478488e+000	 1.065660657915509e+001
 2.568464865061795e+000	 3.163639239355744e+000	 1.056838473309281e+001
 2.899137802833000e+000	 2.899137802833000e+000	 1.076281188434639e+001
 2.868961615185253e+000	 2.929003115434757e+000	 1.071310273176414e+001
 2.838479430797494e+000	 2.958552774682060e+000	 1.067339823222197e+001
 2.807696225344604e+000	 2.987782104812156e+000	 1.064488303543467e+001
 2.776617069164857e+000	 3.016686535072434e+000	 1.062875018358576e+001
 2.745247124479786e+000	 3.045261602099133e+000	 1.062619868011761e+001
 2.713591642542930e+000	 3.073502952207474e+000	 1.063843102153558e+001
 2.681655960720714e+000	 3.101406343590744e+000	 1.066665069848858e+001
 2.649445499508895e+000	 3.128967648426038e+000	 1.069258800861797e+001
 2.616965759488035e+000	 3.156182854884471e+000	 1.061130726501445e+001
 2.584222318221571e+000	 3.183048069043826e+000	 1.053051441565662e+001
 2.916815472362500e+000	 2.916815472362500e+000	 1.075586135920994e+001
 2.886455283571249e+000	 2.946862890528204e+000	 1.071043855740306e+001
 2.855787232206061e+000	 2.976592730624005e+000	 1.067558494504994e+001
 2.824816324281296e+000	 3.006000288376402e+000	 1.065252428599259e+001
 2.793547661051925e+000	 3.035080965162341e+000	 1.064248859883527e+001
 2.761986436216443e+000	 3.063830270402431e+000	 1.064671566245384e+001
 2.730137933048226e+000	 3.092243823865031e+000	 1.066644648424916e+001
 2.698007521458619e+000	 3.120317357878753e+000	 1.070292273755185e+001
 2.665600654995183e+000	 3.148046719451044e+000	 1.064830342888359e+001
 2.632922867778601e+000	 3.175427872290642e+000	 1.057399498420928e+001
 2.599979771381846e+000	 3.202456898731905e+000	 1.050078330447548e+001
 2.934493141892999e+000	 2.934493141893000e+000	 1.074954928116473e+001
 2.903948951958240e+000	 2.964722665622640e+000	 1.070853685622884e+001
 2.873095033615605e+000	 2.994632686566909e+000	 1.067864325107318e+001
 2.841936423218942e+000	 3.024218471941557e+000	 1.066113164029268e+001
 2.810478252939912e+000	 3.053475395253088e+000	 1.065727333185973e+001
 2.778725747953975e+000	 3.082398938706477e+000	 1.066834520873808e+001
 2.746684223554343e+000	 3.110984695523225e+000	 1.069562713294356e+001
 2.714359082197279e+000	 3.139228372167270e+000	 1.068038007533755e+001
 2.681755810482148e+000	 3.167125790476406e+000	 1.061176924276406e+001
 2.648879976069759e+000	 3.194672889697000e+000	 1.054459141693590e+001
 2.615737224542619e+000	 3.221865728419981e+000	 1.047910988369385e+001
 2.952170811424500e+000	 2.952170811424500e+000	 1.074404833403561e+001
 2.921442620346225e+000	 2.982582440718066e+000	 1.070756351507783e+001
 2.890402835026131e+000	 3.012672642510772e+000	 1.068273227953482e+001
 2.859056522157542e+000	 3.042436655507621e+000	 1.067085751472552e+001
 2.827408844828819e+000	 3.071869825344675e+000	 1.067325013629464e+001
 2.795465059692381e+000	 3.100967607011273e+000	 1.069122646530945e+001
 2.763230514061279e+000	 3.129725567182059e+000	 1.070846512241894e+001
 2.730710642936693e+000	 3.158139386456297e+000	 1.064481777196267e+001
 2.697910965969792e+000	 3.186204861502125e+000	 1.058291181071685e+001
 2.664837084361511e+000	 3.213917907103544e+000	 1.052301964512971e+001
 2.631494677703891e+000	 3.241274558108055e+000	 1.046541412058051e+001
 2.969848480956999e+000	 2.969848480956999e+000	 1.073953169032995e+001
 2.938936288735207e+000	 3.000442215814482e+000	 1.070768502005019e+001
 2.907710636437637e+000	 3.030712598455597e+000	 1.068801186619266e+001
 2.876176621097097e+000	 3.060654839074596e+000	 1.068185513606581e+001
 2.844339436718646e+000	 3.090264255437099e+000	 1.069056567659872e+001
 2.812204371431661e+000	 3.119536275316816e+000	 1.071549958629304e+001
 2.779776804569033e+000	 3.148466438841529e+000	 1.067404251748969e+001
 2.747062203676862e+000	 3.177050400745830e+000	 1.061669907979667e+001
 2.714066121458115e+000	 3.205283932528205e+000	 1.056165877058285e+001
 2.680794192653858e+000	 3.233162924510277e+000	 1.050920411074682e+001
 2.647252130865662e+000	 3.260683387796125e+000	 1.045961742138801e+001
 2.987526150490500e+000	 2.987526150490500e+000	 1.073617299677964e+001
 2.956429957125182e+000	 3.018301990911889e+000	 1.070906843878025e+001
 2.925018437850121e+000	 3.048752554401380e+000	 1.069464253241639e+001
 2.893296720037607e+000	 3.078873022642480e+000	 1.069427851749638e+001
 2.861270028609392e+000	 3.108658685530364e+000	 1.070936750110667e+001
 2.828943683171815e+000	 3.138104943623108e+000	 1.070026581736734e+001
 2.796323095077607e+000	 3.167207310501640e+000	 1.064682947086521e+001
 2.763413764417782e+000	 3.195961415035871e+000	 1.059595614743187e+001
 2.730221276947117e+000	 3.224363003554639e+000	 1.054793899979396e+001
 2.696751300946798e+000	 3.252407941917198e+000	 1.050307057552671e+001
 2.663009584027932e+000	 3.280092217484194e+000	 1.046164258877916e+001
 3.005203820025000e+000	 3.005203820025000e+000	 1.073414636039321e+001
 2.973923625516154e+000	 3.036161766010285e+000	 1.071188140333252e+001
 2.942326239263588e+000	 3.066792510348125e+000	 1.070278546502247e+001
 2.910416818979072e+000	 3.097091206211275e+000	 1.070828243547869e+001
 2.878200620501058e+000	 3.127053115624468e+000	 1.072422949781922e+001
 2.845682994912844e+000	 3.156673611930151e+000	 1.067409991064282e+001
 2.812869385587000e+000	 3.185948182162389e+000	 1.062676259372849e+001
 2.779765325159459e+000	 3.214872429326422e+000	 1.058252224533136e+001
 2.746376432436799e+000	 3.243442074581432e+000	 1.054168257891446e+001
 2.712708409240333e+000	 3.271652959324308e+000	 1.050454608217509e+001
 2.678767037190700e+000	 3.299501047172260e+000	 1.047141378075617e+001
 2.521192505585459e+000	 3.105412750291483e+000	 1.060574507459456e+001
 2.488995928882964e+000	 3.131277577270647e+000	 1.064294146751572e+001
 2.456553178674486e+000	 3.156793702520920e+000	 1.056715252784408e+001
 2.423869903137296e+000	 3.181957682404208e+000	 1.049312791678733e+001
 2.390951812960879e+000	 3.206766194791349e+000	 1.042211202689203e+001
 2.357804678095202e+000	 3.231216040427900e+000	 1.035534927672996e+001
 2.324434324465136e+000	 3.255304144196106e+000	 1.029408149811989e+001
 2.290846630654908e+000	 3.279027556272165e+000	 1.023954532768445e+001
 2.257047524566415e+000	 3.302383453178051e+000	 1.019296960938698e+001
 2.223042980055296e+000	 3.325369138727340e+000	 1.015557281463123e+001
 2.188839013548634e+000	 3.347982044864625e+000	 1.012856048642126e+001
 2.536949958743739e+000	 3.124821579979572e+000	 1.066776473037662e+001
 2.504552153436617e+000	 3.150848062128625e+000	 1.058661348288509e+001
 2.471906636039226e+000	 3.176523663162843e+000	 1.052299526353623e+001
 2.439019090029944e+000	 3.201844917921395e+000	 1.046210214996634e+001
 2.405895261790065e+000	 3.226808483511812e+000	 1.040279216269365e+001
 2.372540957331743e+000	 3.251411140684310e+000	 1.034631236398418e+001
 2.338962038991882e+000	 3.275649795101649e+000	 1.029390876455499e+001
 2.305164422095857e+000	 3.299521478503630e+000	 1.024682367713878e+001
 2.271154071594952e+000	 3.323023349765486e+000	 1.020629307904190e+001
 2.236936998681403e+000	 3.346152695849630e+000	 1.017354399040273e+001
 2.202519257384963e+000	 3.368906932650309e+000	 1.014979187477612e+001
 2.552707411902518e+000	 3.144230409667660e+000	 1.061447730153938e+001
 2.520108377990668e+000	 3.170418546986411e+000	 1.054304012623527e+001
 2.487260093404263e+000	 3.196253623804405e+000	 1.048373259925179e+001
 2.454168276922789e+000	 3.221732153438070e+000	 1.043524779093372e+001
 2.420838710619349e+000	 3.246850772231634e+000	 1.038692900580142e+001
 2.387277236568284e+000	 3.271606240939969e+000	 1.034002666944589e+001
 2.353489753518526e+000	 3.295995446006352e+000	 1.029579168693264e+001
 2.319482213536603e+000	 3.320015400734182e+000	 1.025547275737082e+001
 2.285260618623186e+000	 3.343663246351960e+000	 1.022031369549685e+001
 2.250831017307108e+000	 3.366936252970929e+000	 1.019155076710661e+001
 2.216199501220790e+000	 3.389831820434993e+000	 1.017041004509233e+001
 2.568464865061795e+000	 3.163639239355744e+000	 1.056838473309281e+001
 2.535664602545119e+000	 3.189989031844004e+000	 1.050717031375168e+001
 2.502613550769600e+000	 3.215983584445602e+000	 1.045090557713541e+001
 2.469317463815833e+000	 3.241619388954234e+000	 1.041272618793779e+001
 2.435782159448731e+000	 3.266893060950813e+000	 1.037469036004529e+001
 2.402013515804822e+000	 3.291801341194877e+000	 1.033666609920605e+001
 2.368017468045068e+000	 3.316341096910215e+000	 1.029990992067338e+001
 2.333800004977147e+000	 3.340509322963826e+000	 1.026567762083554e+001
 2.299367165651118e+000	 3.364303142937473e+000	 1.023522155682517e+001
 2.264725035932410e+000	 3.387719810091239e+000	 1.020978793813664e+001
 2.229879745056114e+000	 3.410756708218677e+000	 1.019061413713788e+001
 2.584222318221571e+000	 3.183048069043826e+000	 1.053051441565662e+001
 2.551220827099967e+000	 3.209559516701404e+000	 1.047892999447689e+001
 2.517967008135234e+000	 3.235713545086438e+000	 1.043108605607367e+001
 2.484466650709075e+000	 3.261506624469885e+000	 1.039469955760051e+001
 2.450725608278212e+000	 3.286935349669351e+000	 1.036624465852825e+001
 2.416749795041358e+000	 3.311996441449033e+000	 1.033640495635972e+001
 2.382545182571507e+000	 3.336686747813233e+000	 1.030644329285948e+001
 2.348117796417489e+000	 3.361003245192557e+000	 1.027762327332383e+001
 2.313473712678747e+000	 3.384943039522026e+000	 1.025120650321297e+001
 2.278619054557309e+000	 3.408503367210558e+000	 1.022844983495901e+001
 2.243559988890935e+000	 3.431681596001361e+000	 1.021060263197137e+001
 2.599979771381846e+000	 3.202456898731905e+000	 1.050078330447548e+001
 2.566777051655214e+000	 3.229130001558612e+000	 1.045824644270466e+001
 2.533320465501168e+000	 3.255443505726912e+000	 1.041825382979167e+001
 2.499615837602516e+000	 3.281393859985023e+000	 1.038133095860304e+001
 2.465669057107791e+000	 3.306977638387247e+000	 1.036176094455746e+001
 2.431486074277892e+000	 3.332191541702438e+000	 1.033941792897555e+001
 2.397072897097844e+000	 3.357032398715413e+000	 1.031557179703275e+001
 2.362435587857628e+000	 3.381497167420378e+000	 1.029149467537671e+001
 2.327580259706074e+000	 3.405582936105620e+000	 1.026845812477391e+001
 2.292513073181806e+000	 3.429286924328887e+000	 1.024773034111020e+001
 2.257240232725254e+000	 3.452606483783046e+000	 1.023057337190306e+001
 2.615737224542619e+000	 3.221865728419981e+000	 1.047910988369385e+001
 2.582333276210860e+000	 3.248700486415626e+000	 1.044504821806271e+001
 2.548673922867399e+000	 3.275173466367023e+000	 1.041234729414243e+001
 2.514765024496154e+000	 3.301281095499649e+000	 1.038130517951845e+001
 2.480612505937468e+000	 3.327019927104501e+000	 1.036140885326456e+001
 2.446222353514424e+000	 3.352386641955090e+000	 1.034588007850020e+001
 2.411600611624079e+000	 3.377378049616751e+000	 1.032747558818095e+001
 2.376753379297566e+000	 3.401991089647289e+000	 1.030747674364813e+001
 2.341686806733098e+000	 3.426222832688252e+000	 1.028716576908141e+001
 2.306407091805900e+000	 3.450070481446226e+000	 1.026782290568871e+001
 2.270920476559069e+000	 3.473531371563730e+000	 1.025072357973428e+001
 2.631494677703891e+000	 3.241274558108055e+000	 1.046541412058051e+001
 2.597889500766904e+000	 3.268270971272449e+000	 1.043926512702966e+001
 2.564027380233929e+000	 3.294903427006771e+000	 1.041330586150333e+001
 2.529914211389992e+000	 3.321168331013763e+000	 1.038781007540402e+001
 2.495555954767242e+000	 3.347062215821113e+000	 1.036535859388651e+001
 2.460958632750954e+000	 3.372581742206991e+000	 1.035596682857935e+001
 2.426128326150212e+000	 3.397723700517248e+000	 1.034233497790402e+001
 2.391071170737300e+000	 3.422485011873289e+000	 1.032575435221912e+001
 2.355793353759820e+000	 3.446862729269923e+000	 1.030751854843038e+001
 2.320301110429591e+000	 3.470854038562576e+000	 1.028892055636232e+001
 2.284600720392382e+000	 3.494456259343415e+000	 1.027124987730552e+001
 2.647252130865662e+000	 3.260683387796125e+000	 1.045961742138801e+001
 2.613445725323347e+000	 3.287841456129079e+000	 1.044082818582637e+001
 2.579380837600759e+000	 3.314633387646157e+000	 1.042106993052233e+001
 2.545063398284028e+000	 3.341055566527365e+000	 1.040059230229822e+001
 2.510499403597116e+000	 3.367104504537082e+000	 1.037964794069719e+001
 2.475694911987482e+000	 3.392776842458141e+000	 1.036985395427801e+001
 2.440656040676243e+000	 3.418069351416905e+000	 1.036033042975284e+001
 2.405388962176832e+000	 3.442978934098378e+000	 1.034651233386458e+001
 2.369899900786240e+000	 3.467502625850636e+000	 1.032970534683952e+001
 2.334195129052881e+000	 3.491637595677934e+000	 1.031121591191062e+001
 2.298280964225193e+000	 3.515381147122099e+000	 1.029234830338222e+001
 2.663009584027932e+000	 3.280092217484194e+000	 1.046164258877916e+001
 2.629001949880189e+000	 3.307411940985516e+000	 1.044966958462482e+001
 2.594734294967886e+000	 3.334363348285180e+000	 1.043558085693841e+001
 2.560212585178262e+000	 3.360942802040455e+000	 1.041960215543216e+001
 2.525442852427087e+000	 3.387146793252410e+000	 1.040196338782706e+001
 2.490431191224008e+000	 3.412971942708540e+000	 1.038771757168338e+001
 2.455183755202171e+000	 3.438415002315720e+000	 1.038164255473395e+001
 2.419706753616162e+000	 3.463472856322556e+000	 1.036993548127565e+001
 2.384006447812356e+000	 3.488142522430388e+000	 1.035391482680518e+001
 2.348089147675767e+000	 3.512421152792304e+000	 1.033490119432217e+001
 2.311961208057501e+000	 3.536306034899784e+000	 1.031421433090550e+001
 2.678767037190700e+000	 3.299501047172260e+000	 1.047141378075617e+001
 2.644558174437429e+000	 3.326982425841761e+000	 1.046572265301997e+001
 2.610087752335312e+000	 3.354093308923843e+000	 1.045678092543185e+001
 2.575361772072695e+000	 3.380830037553033e+000	 1.044479065402181e+001
 2.540386301257157e+000	 3.407189081967097e+000	 1.042995920920910e+001
 2.505167470460533e+000	 3.433167042958188e+000	 1.041249912315305e+001
 2.469711469727998e+000	 3.458760653213694e+000	 1.040645210697230e+001
 2.434024545055290e+000	 3.483966778545825e+000	 1.039620854823844e+001
 2.398112994838170e+000	 3.508782419009180e+000	 1.038033543581656e+001
 2.361983166298252e+000	 3.533204709905684e+000	 1.036016824046502e+001
 2.325641451889307e+000	 3.557230922676468e+000	 1.033704288363405e+001
 2.188839013548634e+000	 3.347982044864625e+000	 1.012856048642126e+001
 2.154441680648210e+000	 3.370219732398643e+000	 1.012071252837625e+001
 2.119857072723086e+000	 3.392079891627955e+000	 1.010811700062566e+001
 2.085091313495476e+000	 3.413560342859975e+000	 1.009163646354682e+001
 2.050150555623710e+000	 3.434659036824271e+000	 1.007212936311711e+001
 2.015040977286107e+000	 3.455374054979496e+000	 1.005044782917840e+001
 1.979768778769484e+000	 3.475703609714792e+000	 1.002743550783441e+001
 1.944340179066091e+000	 3.495646044446416e+000	 1.000392543339462e+001
 1.908761412482589e+000	 3.515199833610370e+000	 9.980737945096585e+000
 1.873038725264743e+000	 3.534363582552064e+000	 9.958905275658896e+000
 1.837178372241353e+000	 3.553136027314097e+000	 9.937914551486770e+000
 2.202519257384963e+000	 3.368906932650309e+000	 1.014979187477612e+001
 2.167906941154782e+000	 3.391283605731326e+000	 1.013765730154432e+001
 2.133106179430840e+000	 3.413280390955621e+000	 1.012107468952721e+001
 2.098123134208612e+000	 3.434895095007523e+000	 1.010094485434147e+001
 2.062963996600548e+000	 3.456125655808669e+000	 1.007816398750177e+001
 2.027634983398576e+000	 3.476970142826822e+000	 1.005362139368557e+001
 1.992142333641312e+000	 3.497426757278561e+000	 1.002819726351551e+001
 1.956492305189703e+000	 3.517493832226492e+000	 1.000276048740027e+001
 1.920691171314832e+000	 3.537169832571846e+000	 9.978166515784203e+000
 1.884745217301498e+000	 3.556453354943440e+000	 9.955255270950968e+000
 1.848660737071182e+000	 3.575343127484140e+000	 9.934938185100512e+000
 2.216199501220790e+000	 3.389831820434993e+000	 1.017041004509233e+001
 2.181372201660762e+000	 3.412347479063020e+000	 1.015399597962463e+001
 2.146355286137931e+000	 3.434480890282324e+000	 1.013342643399593e+001
 2.111154954921037e+000	 3.456229847154163e+000	 1.010964091625020e+001
 2.075777437576644e+000	 3.477592274792228e+000	 1.008357380341033e+001
 2.040228989510297e+000	 3.498566230673402e+000	 1.005615201694333e+001
 2.004515888512401e+000	 3.519149904841694e+000	 1.002829273513540e+001
 1.968644431312609e+000	 3.539341620006065e+000	 1.000090114804328e+001
 1.932620930146417e+000	 3.559139831532968e+000	 9.974868260496070e+000
 1.896451709337666e+000	 3.578543127334633e+000	 9.951068748408011e+000
 1.860143101900514e+000	 3.597550227654190e+000	 9.930816431884859e+000
 2.229879745056114e+000	 3.410756708218677e+000	 1.019061413713788e+001
 2.194837462166150e+000	 3.433411352393724e+000	 1.016991987558994e+001
 2.159604392844361e+000	 3.455681389608071e+000	 1.014535576204428e+001
 2.124186775632751e+000	 3.477564599299896e+000	 1.011790044025994e+001
 2.088590878552000e+000	 3.499058893774950e+000	 1.008852691878079e+001
 2.052822995621267e+000	 3.520162318519235e+000	 1.005820018379576e+001
 2.016889443382751e+000	 3.540873052404193e+000	 1.002787485030525e+001
 1.980796557434806e+000	 3.561189407785133e+000	 9.998492857391186e+000
 1.944550688977347e+000	 3.581109830493738e+000	 9.970981213187541e+000
 1.908158201373247e+000	 3.600632899725643e+000	 9.946249794931152e+000
 1.871625466729350e+000	 3.619757327824249e+000	 9.925411270283545e+000
 2.243559988890935e+000	 3.431681596001361e+000	 1.021060263197137e+001
 2.208302722670944e+000	 3.454475225723438e+000	 1.018561974268548e+001
 2.172853499550128e+000	 3.476881888932858e+000	 1.015704573888581e+001
 2.137218596343754e+000	 3.498899351444720e+000	 1.012589884939423e+001
 2.101404319526616e+000	 3.520525512756836e+000	 1.009319116629408e+001
 2.065417001731488e+000	 3.541758406364323e+000	 1.005992619437067e+001
 2.029262998252363e+000	 3.562596199966056e+000	 1.002709644026179e+001
 1.992948683556296e+000	 3.583037195563698e+000	 9.995681047246833e+000
 1.956480447807619e+000	 3.603079829454155e+000	 9.966643481396453e+000
 1.919864693408243e+000	 3.622722672116472e+000	 9.940929274583050e+000
 1.883107831557690e+000	 3.641964427994314e+000	 9.919463829612864e+000
 2.257240232725254e+000	 3.452606483783046e+000	 1.023057337190306e+001
 2.221767983175147e+000	 3.475539099052162e+000	 1.020128579139062e+001
 2.186102606255234e+000	 3.498082388256686e+000	 1.016867898095887e+001
 2.150250417054046e+000	 3.520234103588635e+000	 1.013381120986370e+001
 2.114217760500491e+000	 3.541992131737883e+000	 1.009773411171515e+001
 2.078011007840960e+000	 3.563354494208663e+000	 1.006149016967718e+001
 2.041636553121236e+000	 3.584319347527284e+000	 1.002611024278764e+001
 2.005100809677078e+000	 3.604884983341758e+000	 9.992611139459491e+000
 1.968410206637235e+000	 3.625049828414218e+000	 9.961993244013442e+000
 1.931571185442653e+000	 3.644812444507118e+000	 9.935238201862962e+000
 1.894590196385535e+000	 3.664171528164389e+000	 9.913306668728813e+000
 2.270920476559069e+000	 3.473531371563730e+000	 1.025072357973428e+001
 2.235233243678757e+000	 3.496602972379897e+000	 1.021710770576708e+001
 2.199351712959677e+000	 3.519282887579554e+000	 1.018043766944426e+001
 2.163282237763625e+000	 3.541568855731641e+000	 1.014181224181335e+001
 2.127031201473626e+000	 3.563458750718093e+000	 1.010232306193247e+001
 2.090605013949682e+000	 3.584950582052258e+000	 1.006305205700087e+001
 2.054010107989372e+000	 3.606042495087878e+000	 1.002506890502618e+001
 2.017252935797153e+000	 3.626732771119315e+000	 9.989428546224607e+000
 1.980339965466194e+000	 3.647019827373929e+000	 9.957168749132604e+000
 1.943277677476476e+000	 3.666902216897582e+000	 9.929307737175545e+000
 1.906072561212882e+000	 3.686378628334472e+000	 9.906841881186145e+000
 2.284600720392382e+000	 3.494456259343415e+000	 1.027124987730552e+001
 2.248698504181774e+000	 3.517666845706641e+000	 1.023327465922002e+001
 2.212600819663458e+000	 3.540483386901463e+000	 1.019250356329674e+001
 2.176314058472495e+000	 3.562903607873740e+000	 1.015007632968382e+001
 2.139844642446020e+000	 3.584925369697466e+000	 1.010712507270902e+001
 2.103199020057654e+000	 3.606546669895108e+000	 1.006477163510507e+001
 2.066383662856768e+000	 3.627765642647836e+000	 1.002412498619552e+001
 2.029405061916521e+000	 3.648580558896367e+000	 9.986278670372910e+000
 1.992269724294495e+000	 3.668989826333287e+000	 9.952308311979753e+000
 1.954984169509713e+000	 3.688991989287863e+000	 9.923269182462329e+000
 1.917554926039734e+000	 3.708585728504561e+000	 9.900193835409034e+000
 2.298280964225193e+000	 3.515381147122099e+000	 1.029234830338222e+001
 2.262163764684199e+000	 3.538730719032396e+000	 1.024997532969604e+001
 2.225849926366577e+000	 3.561683886222412e+000	 1.020505801181129e+001
 2.189345879180652e+000	 3.584238360014931e+000	 1.015877753220262e+001
 2.152658083417674e+000	 3.606391988676002e+000	 1.011230695615605e+001
 2.115793026164877e+000	 3.628142757737210e+000	 1.006680851924638e+001
 2.078757217723426e+000	 3.649488790207160e+000	 1.002343096020499e+001
 2.041557188035180e+000	 3.670428346672916e+000	 9.983306905648975e+000
 2.004199483122141e+000	 3.690959825292291e+000	 9.947550312914190e+000
 1.966690661542363e+000	 3.711081761677962e+000	 9.917253976989425e+000
 1.929037290866090e+000	 3.730792828674659e+000	 9.893487107283880e+000
 2.311961208057501e+000	 3.536306034899784e+000	 1.031421433090550e+001
 2.275629025186031e+000	 3.559794592357162e+000	 1.026739791434188e+001
 2.239099033069035e+000	 3.582884385542403e+000	 1.021828196674336e+001
 2.202377699888098e+000	 3.605573112155212e+000	 1.016808959202062e+001
 2.165471524388587e+000	 3.627858607653700e+000	 1.011803528794195e+001
 2.128387032271351e+000	 3.649738845578567e+000	 1.006932216601213e+001
 2.091130772589345e+000	 3.671211937765847e+000	 1.002313921817935e+001
 2.053709314153132e+000	 3.692276134448962e+000	 9.980658636980262e+000
 2.016129241949130e+000	 3.712929824250943e+000	 9.943033195501924e+000
 1.978397153574427e+000	 3.733171534067878e+000	 9.911393693284603e+000
 1.940519655691950e+000	 3.752999928844765e+000	 9.890721866317284e+000
 2.325641451889307e+000	 3.557230922676468e+000	 1.033704288363405e+001
 2.289094285687273e+000	 3.580858465680938e+000	 1.028573014364546e+001
 2.252348139770831e+000	 3.604084884861436e+000	 1.023235599400096e+001
 2.215409520594834e+000	 3.626907864294587e+000	 1.017818594500832e+001
 2.178284965358761e+000	 3.649325226630562e+000	 1.012447641424619e+001
 2.140981038377075e+000	 3.671334933419178e+000	 1.007247187798723e+001
 2.103504327454526e+000	 3.692935085323902e+000	 1.002340207089343e+001
 2.065861440270377e+000	 3.714123922224504e+000	 9.978479240736295e+000
 2.028059000775461e+000	 3.734899823209242e+000	 9.938895464656499e+000
 1.990103645605906e+000	 3.755261306457614e+000	 9.915073857461554e+000
 1.952002020517314e+000	 3.775207029014879e+000	 9.915958366095062e+000
 1.837178372241353e+000	 3.553136027314097e+000	 9.937914551486770e+000
 1.801186613490626e+000	 3.571516034323234e+000	 9.865185163028471e+000
 1.765069711033149e+000	 3.589502599978649e+000	 9.798038315484549e+000
 1.728833925554609e+000	 3.607094850142330e+000	 9.736031643594302e+000
 1.692485513160645e+000	 3.624292039533032e+000	 9.678725980415258e+000
 1.656030722167825e+000	 3.641093551026176e+000	 9.625686601816780e+000
 1.619475789933608e+000	 3.657498894861322e+000	 9.576484442011616e+000
 1.582826939728251e+000	 3.673507707759193e+000	 9.530697277287466e+000
 1.546090377651535e+000	 3.689119751950340e+000	 9.487910875246930e+000
 1.509272289597061e+000	 3.704334914117635e+000	 9.447720107017995e+000
 1.472378838266780e+000	 3.719153204254850e+000	 9.409730020055969e+000
 1.848660737071182e+000	 3.575343127484140e+000	 9.934938185100512e+000
 1.812444029827717e+000	 3.593838009536003e+000	 9.868720026256195e+000
 1.776101396729454e+000	 3.611936991225818e+000	 9.808042992471902e+000
 1.739639137591369e+000	 3.629639192952212e+000	 9.752443273738495e+000
 1.703063547619757e+000	 3.646943864775933e+000	 9.701460423552275e+000
 1.666380914183165e+000	 3.663850385715368e+000	 9.654638639562016e+000
 1.629597513622535e+000	 3.680358262949078e+000	 9.611528014435129e+000
 1.592719608103564e+000	 3.696467130927287e+000	 9.571685754036595e+000
 1.555753442514155e+000	 3.712176750394490e+000	 9.534677360160483e+000
 1.518705241409742e+000	 3.727487007325320e+000	 9.500077775213960e+000
 1.481581206009164e+000	 3.742397911776015e+000	 9.467472486415065e+000
 1.860143101900514e+000	 3.597550227654190e+000	 9.930816431884859e+000
 1.823701446164401e+000	 3.616159984748968e+000	 9.871213274435885e+000
 1.787133082425423e+000	 3.634371382473355e+000	 9.817110158980103e+000
 1.750444349627841e+000	 3.652183535762613e+000	 9.768021532929950e+000
 1.713641582078610e+000	 3.669595690019477e+000	 9.723465374180744e+000
 1.676731106198255e+000	 3.686607220405313e+000	 9.682964508393162e+000
 1.639719237311201e+000	 3.703217631037676e+000	 9.646047895668369e+000
 1.602612276478584e+000	 3.719426554096292e+000	 9.612251883634626e+000
 1.565416507376430e+000	 3.735233748839598e+000	 9.581121424120076e+000
 1.528138193222008e+000	 3.750639100533996e+000	 9.550808121293342e+000
 1.490783573751044e+000	 3.765642619298180e+000	 9.487925266589590e+000
 1.871625466729350e+000	 3.619757327824249e+000	 9.925411270283545e+000
 1.834958862500679e+000	 3.638481959962132e+000	 9.872531300691570e+000
 1.798164768121055e+000	 3.656805773721259e+000	 9.825110660077510e+000
 1.761249561664025e+000	 3.674727878573525e+000	 9.782641751669218e+000
 1.724219616537204e+000	 3.692247515263667e+000	 9.744620677949676e+000
 1.687081298213094e+000	 3.709364055096013e+000	 9.710548595063880e+000
 1.649840960999605e+000	 3.726076999127117e+000	 9.679933035778998e+000
 1.612504944853312e+000	 3.742385977266210e+000	 9.652289197945750e+000
 1.575079572238362e+000	 3.758290747285667e+000	 9.611034861475243e+000
 1.537571145033860e+000	 3.773791193743660e+000	 9.552777214423768e+000
 1.499985941492418e+000	 3.788887326821345e+000	 9.491372408067312e+000
 1.883107831557690e+000	 3.641964427994314e+000	 9.919463829612864e+000
 1.846216278836551e+000	 3.660803935175493e+000	 9.872540696061884e+000
 1.809196453816351e+000	 3.679240164969528e+000	 9.831915502050720e+000
 1.772054773699922e+000	 3.697272221384957e+000	 9.796179384758839e+000
 1.734797650995538e+000	 3.714899340508502e+000	 9.764806267692888e+000
 1.697431490227682e+000	 3.732120889787467e+000	 9.737275336211223e+000
 1.659962684687748e+000	 3.748936367217400e+000	 9.713072397251542e+000
 1.622397613227745e+000	 3.765345400437039e+000	 9.666416998650661e+000
 1.584742637099949e+000	 3.781347745732698e+000	 9.613395135573999e+000
 1.547004096845296e+000	 3.796943286954316e+000	 9.556361283186931e+000
 1.509188309233287e+000	 3.812132034345510e+000	 9.496174198942159e+000
 1.894590196385535e+000	 3.664171528164389e+000	 9.913306668728813e+000
 1.857473695172016e+000	 3.683125910389052e+000	 9.871108243502709e+000
 1.820228139511309e+000	 3.701674556218166e+000	 9.837395847519073e+000
 1.782859985735530e+000	 3.719816564196905e+000	 9.808510007536787e+000
 1.745375685453614e+000	 3.737551165753983e+000	 9.783902160786699e+000
 1.707781682242020e+000	 3.754877724479675e+000	 9.758096627194091e+000
 1.670084408375628e+000	 3.771795735308527e+000	 9.716851833192218e+000
 1.632290281601886e+000	 3.788304823608781e+000	 9.669745428502869e+000
 1.594405701961192e+000	 3.804404744180690e+000	 9.617704135097767e+000
 1.556437048656318e+000	 3.820095380165963e+000	 9.561630017644106e+000
 1.518390676973651e+000	 3.835376741870674e+000	 9.502399050264573e+000
 1.906072561212882e+000	 3.686378628334472e+000	 9.906841881186145e+000
 1.868731111507075e+000	 3.705447885602808e+000	 9.868100912106534e+000
 1.831259825205930e+000	 3.724108947467171e+000	 9.841423010725965e+000
 1.793665197770850e+000	 3.742360907009369e+000	 9.819509312245963e+000
 1.755953719911430e+000	 3.760202991000108e+000	 9.795710250585824e+000
 1.718131874256108e+000	 3.777634559172638e+000	 9.762156921706241e+000
 1.680206132063246e+000	 3.794655103400496e+000	 9.721717531081175e+000
 1.642182949975734e+000	 3.811264246781434e+000	 9.675361042337416e+000
 1.604068766822090e+000	 3.827461742629642e+000	 9.624032805159322e+000
 1.565870000466925e+000	 3.843247473378598e+000	 9.568653013059212e+000
 1.527593044713509e+000	 3.858621449396840e+000	 9.510115242596793e+000
 1.917554926039734e+000	 3.708585728504561e+000	 9.900193835409034e+000
 1.879988527841727e+000	 3.727769860816763e+000	 9.863885911530643e+000
 1.842291510900214e+000	 3.746543338716541e+000	 9.843868452998985e+000
 1.804470409805882e+000	 3.764905249822349e+000	 9.827041276725348e+000
 1.766531754368987e+000	 3.782854816246878e+000	 9.802065648568524e+000
 1.728482066269945e+000	 3.800391393866354e+000	 9.769119381326167e+000
 1.690327855750603e+000	 3.817514471493309e+000	 9.729213388710624e+000
 1.652075618349288e+000	 3.834223669954998e+000	 9.683336145174511e+000
 1.613731831682645e+000	 3.850518741079556e+000	 9.632452033448930e+000
 1.575302952277116e+000	 3.866399566592224e+000	 9.577499772737095e+000
 1.536795412452863e+000	 3.881866156924004e+000	 9.519390929919625e+000
 1.929037290866090e+000	 3.730792828674659e+000	 9.893487107283880e+000
 1.891245944175973e+000	 3.750091836030914e+000	 9.859626127223020e+000
 1.853323196594162e+000	 3.768977729966281e+000	 9.851656651964381e+000
 1.815275621840627e+000	 3.787449592635845e+000	 9.836222880159623e+000
 1.777109788826285e+000	 3.805506641494295e+000	 9.811672948058739e+000
 1.738832258283532e+000	 3.823148228560824e+000	 9.779059279935423e+000
 1.700449579437698e+000	 3.840373839586965e+000	 9.739413170184905e+000
 1.661968286722550e+000	 3.857183093129475e+000	 9.693743019730485e+000
 1.623394896542856e+000	 3.873575739530430e+000	 9.643032651943416e+000
 1.584735904086894e+000	 3.889551659806841e+000	 9.588239710760407e+000
 1.545997780191711e+000	 3.905110864452169e+000	 9.530294143399845e+000
 1.940519655691950e+000	 3.752999928844765e+000	 9.890721866317284e+000
 1.902503360509814e+000	 3.772413811245263e+000	 9.875353654530896e+000
 1.864354882287772e+000	 3.791412121216387e+000	 9.864180718174426e+000
 1.826080833875083e+000	 3.809993935449857e+000	 9.849009847867174e+000
 1.787687823283324e+000	 3.828158466742356e+000	 9.824609033677030e+000
 1.749182450296869e+000	 3.845905063256049e+000	 9.792051934265180e+000
 1.710571303124530e+000	 3.863233207681463e+000	 9.752390650274551e+000
 1.671860955095518e+000	 3.880142516304862e+000	 9.706653927077930e+000
 1.633057961402722e+000	 3.896632737982265e+000	 9.655845438554373e+000
 1.594168855896256e+000	 3.912703753022449e+000	 9.600942154629356e+000
 1.555200147930054e+000	 3.928355571981333e+000	 9.542892795023731e+000
 1.952002020517314e+000	 3.775207029014879e+000	 9.915958366095062e+000
 1.913760776843248e+000	 3.794735786459811e+000	 9.896556278245587e+000
 1.875386567981046e+000	 3.813846512466861e+000	 9.880706017989224e+000
 1.836886045909252e+000	 3.832538278264387e+000	 9.865480759530657e+000
 1.798265857740104e+000	 3.850810291991064e+000	 9.840950862731900e+000
 1.759532642309955e+000	 3.868661897952027e+000	 9.808172702635574e+000
 1.720693026811102e+000	 3.886092575776805e+000	 9.768219614102447e+000
 1.681753623468194e+000	 3.903101939481164e+000	 9.722141107282008e+000
 1.642721026262245e+000	 3.919689736435061e+000	 9.670961118718356e+000
 1.603601807705203e+000	 3.935855846239046e+000	 9.615676347808236e+000
 1.564402515667893e+000	 3.951600279511499e+000	 9.557254681102302e+000
 1.472378838266780e+000	 3.719153204254850e+000	 9.409730020055969e+000
 1.435416160238980e+000	 3.733574754443465e+000	 9.388473064293789e+000
 1.398390363090334e+000	 3.747599817550745e+000	 9.376213107297133e+000
 1.361307522575100e+000	 3.761228765851377e+000	 9.341248982673394e+000
 1.324173679865362e+000	 3.774462089574614e+000	 9.307161674989578e+000
 1.286994838852476e+000	 3.787300395380251e+000	 9.281062642388775e+000
 1.249776963512204e+000	 3.799744404765942e+000	 9.263574777817773e+000
 1.212525975335377e+000	 3.811794952408591e+000	 9.249194389463119e+000
 1.175247750825766e+000	 3.823452984442648e+000	 9.227995636673898e+000
 1.137948119066730e+000	 3.834719556678107e+000	 9.201412960048238e+000
 1.100632859358089e+000	 3.845595832761096e+000	 9.170786389173893e+000
 1.481581206009164e+000	 3.742397911776015e+000	 9.467472486415065e+000
 1.444387511244183e+000	 3.756909596653516e+000	 9.434597018909960e+000
 1.407130302863686e+000	 3.771022316405464e+000	 9.388686965518895e+000
 1.369815694595396e+000	 3.784736445633262e+000	 9.348768698337473e+000
 1.332449765368725e+000	 3.798052477630096e+000	 9.315541630535611e+000
 1.295038556599349e+000	 3.810971022847385e+000	 9.289669120514359e+000
 1.257588069537882e+000	 3.823492807292140e+000	 9.271777721653827e+000
 1.220104262684472e+000	 3.835618670858001e+000	 9.259742694003563e+000
 1.182593049271041e+000	 3.847349565592751e+000	 9.241674931965585e+000
 1.145060294812717e+000	 3.858686553905199e+000	 9.218047313650114e+000
 1.107511814729950e+000	 3.869630806714263e+000	 9.190245123902878e+000
 1.490783573751044e+000	 3.765642619298180e+000	 9.487925266589590e+000
 1.453358862248797e+000	 3.780244438864562e+000	 9.439380861918730e+000
 1.415870242636395e+000	 3.794444815261164e+000	 9.395413720557103e+000
 1.378323866615027e+000	 3.808244125416102e+000	 9.356778116095931e+000
 1.340725850871430e+000	 3.821642865686497e+000	 9.324193071775811e+000
 1.303082274345602e+000	 3.834641650315390e+000	 9.298341490695142e+000
 1.265399175563006e+000	 3.847241209819156e+000	 9.279869375249778e+000
 1.227682550033111e+000	 3.859442389308157e+000	 9.268807446643491e+000
 1.189938347715986e+000	 3.871246146743528e+000	 9.253445247747058e+000
 1.152172470558532e+000	 3.882653551132882e+000	 9.232372840128168e+000
 1.114390770101823e+000	 3.893665780667925e+000	 9.207021467441782e+000
 1.499985941492418e+000	 3.788887326821345e+000	 9.491372408067312e+000
 1.462330213252820e+000	 3.803579281076603e+000	 9.445195160489892e+000
 1.424610182408461e+000	 3.817867314117842e+000	 9.402926961373414e+000
 1.386832038633990e+000	 3.831751805199894e+000	 9.365342020582691e+000
 1.349001936373475e+000	 3.845233253743814e+000	 9.333179248812657e+000
 1.311125992091233e+000	 3.858312277784267e+000	 9.307141356120029e+000
 1.273210281587577e+000	 3.870989612346985e+000	 9.287894040852638e+000
 1.235260837381293e+000	 3.883266107759067e+000	 9.276564058651639e+000
 1.197283646160601e+000	 3.895142727894979e+000	 9.263474119300401e+000
 1.159284646304174e+000	 3.906620548361151e+000	 9.244549211678931e+000
 1.121269725473710e+000	 3.917700754622081e+000	 9.221267249576439e+000
 1.509188309233287e+000	 3.812132034345510e+000	 9.496174198942159e+000
 1.471301564256254e+000	 3.826914123289639e+000	 9.452107242863923e+000
 1.433350122179882e+000	 3.841289812975499e+000	 9.411292681470021e+000
 1.395340210652287e+000	 3.855259484984642e+000	 9.374524956106972e+000
 1.357278021874861e+000	 3.868823641802051e+000	 9.342563145251301e+000
 1.319169709836242e+000	 3.881982905254017e+000	 9.316130031130134e+000
 1.281021387611593e+000	 3.894738014875632e+000	 9.295911257934309e+000
 1.242839124729019e+000	 3.907089826210726e+000	 9.283187619149171e+000
 1.204628944604887e+000	 3.919039309047104e+000	 9.271928748772044e+000
 1.166396822049644e+000	 3.930587545590012e+000	 9.254735760120873e+000
 1.128148680845609e+000	 3.941735728576730e+000	 9.233133956193720e+000
 1.518390676973651e+000	 3.835376741870674e+000	 9.502399050264573e+000
 1.480272915259099e+000	 3.850248965503670e+000	 9.460184266169490e+000
 1.442090061950661e+000	 3.864712311834137e+000	 9.420576670406597e+000
 1.403848382669918e+000	 3.878767164770342e+000	 9.384391233935844e+000
 1.365554107375588e+000	 3.892414029861205e+000	 9.352407486275148e+000
 1.327213427580630e+000	 3.905653532724637e+000	 9.325368549971843e+000
 1.288832493635056e+000	 3.918486417405095e+000	 9.303980267889903e+000
 1.250417412076288e+000	 3.930913544663134e+000	 9.288910423539559e+000
 1.211974243048844e+000	 3.942935890199903e+000	 9.278976015267711e+000
 1.173508997794939e+000	 3.954554542819459e+000	 9.263091487209072e+000
 1.135027636217520e+000	 3.965770702531872e+000	 9.242772739702975e+000
 1.527593044713509e+000	 3.858621449396840e+000	 9.510115242596793e+000
 1.489244266261353e+000	 3.873583807718694e+000	 9.469493221577368e+000
 1.450830001720796e+000	 3.888134810693752e+000	 9.430844519943086e+000
 1.412356554686883e+000	 3.902274844556996e+000	 9.395004939313614e+000
 1.373830192875656e+000	 3.916004417921276e+000	 9.362774746429704e+000
 1.335257145324397e+000	 3.929324160196131e+000	 9.334917675233276e+000
 1.296643599657965e+000	 3.942234819935373e+000	 9.312160023015832e+000
 1.257995699423102e+000	 3.954737263116293e+000	 9.295189840898233e+000
 1.219319541492471e+000	 3.966832471353377e+000	 9.284782484582603e+000
 1.180621173540062e+000	 3.978521540049497e+000	 9.269775074576733e+000
 1.141906591589444e+000	 3.989805676487508e+000	 9.250334429080425e+000
 1.536795412452863e+000	 3.881866156924004e+000	 9.519390929919625e+000
 1.498215617263019e+000	 3.896918649934715e+000	 9.480100939269368e+000
 1.459569941490289e+000	 3.911557309554347e+000	 9.442161629961825e+000
 1.420864726703181e+000	 3.925782524344604e+000	 9.406429938228996e+000
 1.382106278375064e+000	 3.939594805982265e+000	 9.373727157126753e+000
 1.343300863067542e+000	 3.952994787668496e+000	 9.344837905977931e+000
 1.304454705680321e+000	 3.965983222466468e+000	 9.320509195165448e+000
 1.265573986769459e+000	 3.978560981570201e+000	 9.301449586574559e+000
 1.226664839935769e+000	 3.990729052507526e+000	 9.289514418581959e+000
 1.187733349285012e+000	 4.002488537280124e+000	 9.274944893319811e+000
 1.148785546961380e+000	 4.013840650443639e+000	 9.255969539552780e+000
 1.545997780191711e+000	 3.905110864452169e+000	 9.530294143399845e+000
 1.507186968264094e+000	 3.920253492151730e+000	 9.492074093229517e+000
 1.468309881259137e+000	 3.934979808415923e+000	 9.454593214178134e+000
 1.429372898718813e+000	 3.949290204133165e+000	 9.418729883940429e+000
 1.390382363873814e+000	 3.963185194044173e+000	 9.385326713880231e+000
 1.351344580810066e+000	 3.976665415141733e+000	 9.355189485587475e+000
 1.312265811702122e+000	 3.989731624998377e+000	 9.329086184095589e+000
 1.273152274115359e+000	 4.002384700024860e+000	 9.307746128095497e+000
 1.234010138378738e+000	 4.014625633662349e+000	 9.293337784246612e+000
 1.194845525029790e+000	 4.026455534511339e+000	 9.278759013239080e+000
 1.155664502333329e+000	 4.037875624400262e+000	 9.259828281935059e+000
 1.555200147930054e+000	 3.928355571981333e+000	 9.542892795023731e+000
 1.516158319264580e+000	 3.943588334369741e+000	 9.505479205865401e+000
 1.477049821027342e+000	 3.958402307278478e+000	 9.468204305648333e+000
 1.437881070733778e+000	 3.972797883922680e+000	 9.431968223270072e+000
 1.398658449371906e+000	 3.986775582106999e+000	 9.397635183285811e+000
 1.359388298551968e+000	 4.000336042615841e+000	 9.366032409326451e+000
 1.320076917723370e+000	 4.013480027531105e+000	 9.337949125516772e+000
 1.280730561460803e+000	 4.026208418480270e+000	 9.314135656266567e+000
 1.241355436821378e+000	 4.038522214817848e+000	 9.296418262397282e+000
 1.201957700774394e+000	 4.050422531743143e+000	 9.281375211754186e+000
 1.162543457705291e+000	 4.061910598357380e+000	 9.262060571636857e+000
 1.564402515667893e+000	 3.951600279511499e+000	 9.557254681102302e+000
 1.525129670264477e+000	 3.966923176588746e+000	 9.520382652466287e+000
 1.485789760794904e+000	 3.981824806142011e+000	 9.483059762083155e+000
 1.446389242748077e+000	 3.996305563713150e+000	 9.446208202675260e+000
 1.406934534869337e+000	 4.010365970170742e+000	 9.410714109753506e+000
 1.367432016293249e+000	 4.024006670090824e+000	 9.377426431639787e+000
 1.327888023744064e+000	 4.037228430064648e+000	 9.347155898859267e+000
 1.288308848805791e+000	 4.050032136936429e+000	 9.320674093310622e+000
 1.248700735263688e+000	 4.062418795974019e+000	 9.298921256111216e+000
 1.209069876518826e+000	 4.074389528975536e+000	 9.282950982503268e+000
 1.169422413077266e+000	 4.085945572314992e+000	 9.262816037350717e+000
 1.100632859358089e+000	 3.845595832761096e+000	 9.170786389173893e+000
 1.063307698924287e+000	 3.856083082280073e+000	 9.139819767961059e+000
 1.025978310695547e+000	 3.866182678820226e+000	 9.107330605164924e+000
 9.886503111632028e-001	 3.875896097969085e+000	 9.074342370639997e+000
 9.513292583092484e-001	 3.885224915276652e+000	 9.041780289813364e+000
 9.140206496115856e-001	 3.894170804172645e+000	 9.010470970290681e+000
 8.767299201255320e-001	 3.902735533843881e+000	 8.981142255493742e+000
 8.394624406421662e-001	 3.910920967074734e+000	 8.954423300330381e+000
 8.022235159239728e-001	 3.918729058053592e+000	 8.930844863414784e+000
 7.650183830181295e-001	 3.926161850148238e+000	 8.910839809905069e+000
 7.278522096476668e-001	 3.933221473652993e+000	 8.894743818607342e+000
 1.107511814729950e+000	 3.869630806714263e+000	 9.190245123902878e+000
 1.069953372042454e+000	 3.880183601543291e+000	 9.161390652776817e+000
 1.032390675136383e+000	 3.890346320562340e+000	 9.130725410858117e+000
 9.948293756061443e-001	 3.900120448581363e+000	 9.099318918890814e+000
 9.572750661711160e-001	 3.909507570997548e+000	 9.068140679780052e+000
 9.197332786684378e-001	 3.918509371699555e+000	 9.038059767549605e+000
 8.822094821225219e-001	 3.927127630931612e+000	 9.009844648114360e+000
 8.447090808918907e-001	 3.935364223120498e+000	 8.984163226810724e+000
 8.072374128937938e-001	 3.943221114668281e+000	 8.961583117136636e+000
 7.697997479069533e-001	 3.950700361713788e+000	 8.942572124689090e+000
 7.324012859526674e-001	 3.957804107865683e+000	 8.927498939859666e+000
 1.114390770101823e+000	 3.893665780667925e+000	 9.207021467441782e+000
 1.076599045160822e+000	 3.904284120806908e+000	 9.180026638144797e+000
 1.038803039577591e+000	 3.914509962304769e+000	 9.150963166026806e+000
 1.001008440049605e+000	 3.924344799193880e+000	 9.120947136691065e+000
 9.632208740336319e-001	 3.933790226718624e+000	 9.090992800933977e+000
 9.254459077260465e-001	 3.942847939226587e+000	 9.062012125983815e+000
 8.876890441203563e-001	 3.951519728019421e+000	 9.034814583412810e+000
 8.499557211425282e-001	 3.959807479166306e+000	 9.010107168609387e+000
 8.122513098645763e-001	 3.967713171282988e+000	 8.988494646190970e+000
 7.745811127967671e-001	 3.975238873279343e+000	 8.970480015265867e+000
 7.369503622586678e-001	 3.982386742078373e+000	 8.956465188014352e+000
 1.121269725473710e+000	 3.917700754622081e+000	 9.221267249576439e+000
 1.083244718279394e+000	 3.928384640070924e+000	 9.195870007578741e+000
 1.045215404019170e+000	 3.938673604047511e+000	 9.168176592094401e+000
 1.007187504493586e+000	 3.948569149806639e+000	 9.139350175831195e+000
 9.691666818967961e-001	 3.958072882439873e+000	 9.110450235952035e+000
 9.311585367844111e-001	 3.967186506753740e+000	 9.082432067517638e+000
 8.931686061190352e-001	 3.975911825107309e+000	 9.056146538539585e+000
 8.552023613940782e-001	 3.984250735212158e+000	 9.032340081469654e+000
 8.172652068363199e-001	 3.992205227897715e+000	 9.011654915435212e+000
 7.793624776875714e-001	 3.999777384844903e+000	 8.994629493046654e+000
 7.414994385656684e-001	 4.006969376291065e+000	 8.981699165154447e+000
 1.128148680845609e+000	 3.941735728576730e+000	 9.233133956193720e+000
 1.089890391398167e+000	 3.952485159335339e+000	 9.209062743114473e+000
 1.051627768461121e+000	 3.962837245790567e+000	 9.182498156347664e+000
 1.013366568938087e+000	 3.972793500419638e+000	 9.154650986168909e+000
 9.751124897606083e-001	 3.982355538161299e+000	 9.126626422584145e+000
 9.368711658435324e-001	 3.991525074281014e+000	 9.099423530894310e+000
 8.986481681185585e-001	 4.000303922195273e+000	 9.073934973884825e+000
 8.604490016465412e-001	 4.008693991258054e+000	 9.050946975404063e+000
 8.222791038090250e-001	 4.016697284512461e+000	 9.031139519566457e+000
 7.841438425793662e-001	 4.024315896410467e+000	 9.015086779323390e+000
 7.460485148736690e-001	 4.031552010503755e+000	 9.003257767683746e+000
 1.135027636217520e+000	 3.965770702531872e+000	 9.242772739702975e+000
 1.096536064517142e+000	 3.976585678600152e+000	 9.219746534445244e+000
 1.058040132903442e+000	 3.987000887533941e+000	 9.194060079637628e+000
 1.019545633383108e+000	 3.997017851032876e+000	 9.166972321748228e+000
 9.810582976250686e-001	 4.006638193882901e+000	 9.139634658045177e+000
 9.425837949034102e-001	 4.015863641808413e+000	 9.113090374196389e+000
 9.041277301189266e-001	 4.024696019283315e+000	 9.088274333586247e+000
 8.656956418999169e-001	 4.033137247303993e+000	 9.066012913049988e+000
 8.272930007826913e-001	 4.041189341127226e+000	 9.047024179186932e+000
 7.889252074721512e-001	 4.048854407976037e+000	 9.031918298908558e+000
 7.505975911826697e-001	 4.056134644716447e+000	 9.021198177407786e+000
 1.141906591589444e+000	 3.989805676487508e+000	 9.250334429080425e+000
 1.103181737636320e+000	 4.000686197865364e+000	 9.228062787727472e+000
 1.064452497346135e+000	 4.011164529277626e+000	 9.202994343802597e+000
 1.025724697828648e+000	 4.021242201646355e+000	 9.176436746697466e+000
 9.870041054901774e-001	 4.030920849604679e+000	 9.149588103247789e+000
 9.482964239640440e-001	 4.040202209335932e+000	 9.123536377275505e+000
 9.096072921201390e-001	 4.049088116371435e+000	 9.099259046018570e+000
 8.709422821542051e-001	 4.057580503349975e+000	 9.077623008084567e+000
 8.323068977573193e-001	 4.065681397742011e+000	 9.059384737011586e+000
 7.937065723659268e-001	 4.073392919541611e+000	 9.045190674005051e+000
 7.551466674926702e-001	 4.080717278929137e+000	 9.035577852937495e+000
 1.148785546961380e+000	 4.013840650443639e+000	 9.255969539552780e+000
 1.109827410755699e+000	 4.024786717130976e+000	 9.234152634069732e+000
 1.070864861789199e+000	 4.035328171021625e+000	 9.209432698824031e+000
 1.031903762274709e+000	 4.045466552260072e+000	 9.183166640915385e+000
 9.929499133559342e-001	 4.055203505326632e+000	 9.156599786883488e+000
 9.540090530254344e-001	 4.064540776863573e+000	 9.130865244094450e+000
 9.150868541221959e-001	 4.073480213459632e+000	 9.106983524265583e+000
 8.761889224094063e-001	 4.082023759396003e+000	 9.085862423696376e+000
 8.373207947329083e-001	 4.090173454356815e+000	 9.068297154212070e+000
 7.984879372606925e-001	 4.097931431107190e+000	 9.054970718296401e+000
 7.596957438036709e-001	 4.105299913141828e+000	 9.046454521401603e+000
 1.155664502333329e+000	 4.037875624400262e+000	 9.259828281935059e+000
 1.116473083875282e+000	 4.048887236396987e+000	 9.238156937718840e+000
 1.077277226232635e+000	 4.059491812765941e+000	 9.213506669727092e+000
 1.038082826721289e+000	 4.069690902874031e+000	 9.187284205554242e+000
 9.988957212223394e-001	 4.079486161048761e+000	 9.160782609357597e+000
 9.597216820875809e-001	 4.088879344391335e+000	 9.135180604985910e+000
 9.205664161250972e-001	 4.097872310547907e+000	 9.111542166575154e+000
 8.814355626655205e-001	 4.106467015442072e+000	 9.090816371112261e+000
 8.423346917094587e-001	 4.114665510971639e+000	 9.073837506891289e+000
 8.032693021564485e-001	 4.122469942672775e+000	 9.061325431247765e+000
 7.642448201156715e-001	 4.129882547354518e+000	 9.053886170455042e+000
 1.162543457705291e+000	 4.061910598357380e+000	 9.262060571636857e+000
 1.123118756995066e+000	 4.072987755663395e+000	 9.240216303955004e+000
 1.083689590676441e+000	 4.083655454510569e+000	 9.215347563236263e+000
 1.044261891168390e+000	 4.093915253488230e+000	 9.188911468308023e+000
 1.004841529089393e+000	 4.103768816771067e+000	 9.162249346584876e+000
 9.654343111504837e-001	 4.113217911919220e+000	 9.136586018830712e+000
 9.260459781288432e-001	 4.122264407636261e+000	 9.113029356798224e+000
 8.866822029225470e-001	 4.130910271488185e+000	 9.092570108175643e+000
 8.473485886869706e-001	 4.139157567586482e+000	 9.076081982683038e+000
 8.080506670531952e-001	 4.147008454238363e+000	 9.064321992609610e+000
 7.687938964286722e-001	 4.154465181567210e+000	 9.057931040571006e+000
 1.169422413077266e+000	 4.085945572314992e+000	 9.262816037350717e+000
 1.129764430115052e+000	 4.097088274930204e+000	 9.240471086708684e+000
 1.090101955120620e+000	 4.107819096255514e+000	 9.215086474195793e+000
 1.050440955616010e+000	 4.118139604102669e+000	 9.188170288514352e+000
 1.010787336957094e+000	 4.128051472493549e+000	 9.161112653650948e+000
 9.711469402141435e-001	 4.137556479447227e+000	 9.135184975159522e+000
 9.315255401334336e-001	 4.146656504724692e+000	 9.111539464812227e+000
 8.919288431804867e-001	 4.155353527534343e+000	 9.091208937975765e+000
 8.523624856654437e-001	 4.163649624201344e+000	 9.075106877471605e+000
 8.128320319509323e-001	 4.171546965803957e+000	 9.064027757115085e+000
 7.733429727426728e-001	 4.179047815779902e+000	 9.058647617605272e+000
 7.278522096476668e-001	 3.933221473652993e+000	 8.894743818607342e+000
 6.907300926805886e-001	 3.939910143510855e+000	 8.869388990288561e+000
 6.536570566772164e-001	 3.946230157012450e+000	 8.844322955751181e+000
 6.166380525152104e-001	 3.952183891475303e+000	 8.824424076953326e+000
 5.796779560922222e-001	 3.957773801906782e+000	 8.818792496322775e+000
 5.427815671060731e-001	 3.963002418652466e+000	 8.810618233329247e+000
 5.059536079119456e-001	 3.967872345032922e+000	 8.800196592703442e+000
 4.691987224560958e-001	 3.972386254971537e+000	 8.787722345828918e+000
 4.325214752855112e-001	 3.976546890615961e+000	 8.773292908827946e+000
 3.959263506328420e-001	 3.980357059955668e+000	 8.756911624896285e+000
 3.594177515758589e-001	 3.983819634438112e+000	 8.738491139860598e+000
 7.324012859526674e-001	 3.957804107865683e+000	 8.927498939859666e+000
 6.950471557543670e-001	 3.964534581910347e+000	 8.907415772920942e+000
 6.577424132758770e-001	 3.970894095496459e+000	 8.887435878705611e+000
 6.204920403378419e-001	 3.976885040799777e+000	 8.869618591075787e+000
 5.833009433122732e-001	 3.982509888171469e+000	 8.863249019677937e+000
 5.461739518951028e-001	 3.987771183771772e+000	 8.854244797823341e+000
 5.091158179562323e-001	 3.992671547192009e+000	 8.842887251779906e+000
 4.721312144665811e-001	 3.997213669067587e+000	 8.829355935453421e+000
 4.352247345015545e-001	 4.001400308684580e+000	 8.813731870318032e+000
 3.984008903202563e-001	 4.005234291582396e+000	 8.796000890714616e+000
 3.616641125196922e-001	 4.008718507155041e+000	 8.776057083305041e+000
 7.369503622586678e-001	 3.982386742078373e+000	 8.956465188014352e+000
 6.993642188291456e-001	 3.989159020309839e+000	 8.941118668489882e+000
 6.618277698755376e-001	 3.995558033980466e+000	 8.925728375909445e+000
 6.243460281614734e-001	 4.001586190124250e+000	 8.910751983119486e+000
 5.869239305333242e-001	 4.007245974436155e+000	 8.903590535148732e+000
 5.495663366851327e-001	 4.012539948891079e+000	 8.893745116147411e+000
 5.122780280015188e-001	 4.017470749351095e+000	 8.881482707503949e+000
 4.750637064780663e-001	 4.022041083163637e+000	 8.866967237816585e+000
 4.379279937185980e-001	 4.026253726753200e+000	 8.850262886101985e+000
 4.008754300086707e-001	 4.030111523209127e+000	 8.831337491518296e+000
 3.639104734645255e-001	 4.033617379871969e+000	 8.810066058201619e+000
 7.414994385656684e-001	 4.006969376291065e+000	 8.981699165154447e+000
 7.036812819049239e-001	 4.013783458709330e+000	 8.970556036563650e+000
 6.659131264761982e-001	 4.020221972464474e+000	 8.959260530401307e+000
 6.282000159861050e-001	 4.026287339448724e+000	 8.948113735987709e+000
 5.905469177553754e-001	 4.031982060700842e+000	 8.939750126872536e+000
 5.529587214761623e-001	 4.037308714010385e+000	 8.929061987266950e+000
 5.154402380478056e-001	 4.042269951510182e+000	 8.915935481963349e+000
 4.779961984905516e-001	 4.046868497259686e+000	 8.900518502458663e+000
 4.406312529366414e-001	 4.051107144821819e+000	 8.882857933454670e+000
 4.033499696980849e-001	 4.054988754835856e+000	 8.862903128474152e+000
 3.661568344103588e-001	 4.058516252588897e+000	 8.840509481571759e+000
 7.460485148736690e-001	 4.031552010503755e+000	 9.003257767683746e+000
 7.079983449817026e-001	 4.038407897108823e+000	 8.995786348668791e+000
 6.699984830778585e-001	 4.044885910948482e+000	 8.988092361280582e+000
 6.320540038117365e-001	 4.050988488773199e+000	 8.980482361037570e+000
 5.941699049784264e-001	 4.056718146965530e+000	 8.971660482699880e+000
 5.563511062681921e-001	 4.062077479129690e+000	 8.960137657427371e+000
 5.186024480950923e-001	 4.067069153669269e+000	 8.946197394591241e+000
 4.809286905040369e-001	 4.071695911355737e+000	 8.929971132828257e+000
 4.433345121556847e-001	 4.075960562890438e+000	 8.911488006615478e+000
 4.058245093884992e-001	 4.079865986462586e+000	 8.890678389254447e+000
 3.684031953571920e-001	 4.083415125305826e+000	 8.867377532956494e+000
 7.505975911826697e-001	 4.056134644716447e+000	 9.021198177407786e+000
 7.123154080594807e-001	 4.063032335508314e+000	 9.016868184897446e+000
 6.740838396805190e-001	 4.069549849432490e+000	 9.012283825644904e+000
 6.359079916383679e-001	 4.075689638097672e+000	 9.007757413295371e+000
 5.977928922024773e-001	 4.081454233230216e+000	 8.999253906203098e+000
 5.597434910612218e-001	 4.086846244248997e+000	 8.986913836903110e+000
 5.217646581433789e-001	 4.091868355828354e+000	 8.972219583458694e+000
 4.838611825185223e-001	 4.096523325451788e+000	 8.955285711921617e+000
 4.460377713757281e-001	 4.100813980959058e+000	 8.936123146577183e+000
 4.082990490799135e-001	 4.104743218089316e+000	 8.914642781779143e+000
 3.706495563050253e-001	 4.108313998022754e+000	 8.890659191915821e+000
 7.551466674926702e-001	 4.080717278929137e+000	 9.035577852937495e+000
 7.166324711382593e-001	 4.087656773907806e+000	 9.033860230637187e+000
 6.781691962841796e-001	 4.094213787916498e+000	 9.031894820457733e+000
 6.397619794659996e-001	 4.100390787422146e+000	 9.029999988384631e+000
 6.014158794275284e-001	 4.106190319494901e+000	 9.022462328251006e+000
 5.631358758552515e-001	 4.111615009368302e+000	 9.009331716141363e+000
 5.249268681926655e-001	 4.116667557987442e+000	 8.993952525797619e+000
 4.867936745340075e-001	 4.121350739547839e+000	 8.976422026994879e+000
 4.487410305967716e-001	 4.125667399027677e+000	 8.956732469798300e+000
 4.107735887723278e-001	 4.129620449716045e+000	 8.934774766738503e+000
 3.728959172538585e-001	 4.133212870739683e+000	 8.910342274172715e+000
 7.596957438036709e-001	 4.105299913141828e+000	 9.046454521401603e+000
 7.209495342180375e-001	 4.112281212307298e+000	 9.046821273418601e+000
 6.822545528888403e-001	 4.118877726400506e+000	 9.046985184348715e+000
 6.436159672946310e-001	 4.125091936746620e+000	 9.047270969029430e+000
 6.050388666535795e-001	 4.130926405759588e+000	 9.041217318167618e+000
 5.665282606502812e-001	 4.136383774487609e+000	 9.027331981325713e+000
 5.280890782429523e-001	 4.141466760146528e+000	 9.011346057786456e+000
 4.897261665504928e-001	 4.146178153643888e+000	 8.993339093388761e+000
 4.514442898188151e-001	 4.150520817096297e+000	 8.973284195883672e+000
 4.132481284657421e-001	 4.154497681342776e+000	 8.951051788947350e+000
 3.751422782036917e-001	 4.158111743456611e+000	 8.926413466458575e+000
 7.642448201156715e-001	 4.129882547354518e+000	 9.053886170455042e+000
 7.252665972988160e-001	 4.136905650706790e+000	 9.055810199875266e+000
 6.863399094945006e-001	 4.143541664884513e+000	 9.057614699349895e+000
 6.474699551242626e-001	 4.149793086071094e+000	 9.059631031390676e+000
 6.086618538806304e-001	 4.155662492024275e+000	 9.055450094492519e+000
 5.699206454463109e-001	 4.161152539606915e+000	 9.040854829384058e+000
 5.312512882942390e-001	 4.166265962305615e+000	 9.024349393629047e+000
 4.926586585679781e-001	 4.171005567739937e+000	 9.005995177502124e+000
 4.541475490418583e-001	 4.175374235164916e+000	 8.985745674276554e+000
 4.157226681601563e-001	 4.179374912969506e+000	 8.963450307579423e+000
 3.773886391545250e-001	 4.183010616173539e+000	 8.938858360114134e+000
 7.687938964286722e-001	 4.154465181567210e+000	 9.057931040571006e+000
 7.295836603805946e-001	 4.161530089106282e+000	 9.060885992811736e+000
 6.904252661011612e-001	 4.168205603368522e+000	 9.063843092570066e+000
 6.513239429548943e-001	 4.174494235395568e+000	 9.067140651177445e+000
 6.122848411086815e-001	 4.180398578288960e+000	 9.065091535358981e+000
 5.733130302433406e-001	 4.185921304726221e+000	 9.049839982463521e+000
 5.344134983465257e-001	 4.191065164464702e+000	 9.032911143956303e+000
 4.955911505864634e-001	 4.195832981835987e+000	 9.014347818950094e+000
 4.568508082659017e-001	 4.200227653233537e+000	 8.994083410003102e+000
 4.181972078555706e-001	 4.204252144596235e+000	 8.971945825328353e+000
 3.796350001063584e-001	 4.207909488890468e+000	 8.947661483497480e+000
 7.733429727426728e-001	 4.179047815779902e+000	 9.058647617605272e+000
 7.339007234633732e-001	 4.186154527505775e+000	 9.062107728374903e+000
 6.945106227088217e-001	 4.192869541852530e+000	 9.065730037810333e+000
 6.551779307865256e-001	 4.199195384720042e+000	 9.069860109542615e+000
 6.159078283377327e-001	 4.205134664553649e+000	 9.070072188506016e+000
 5.767054150413704e-001	 4.210690069845527e+000	 9.054226701894692e+000
 5.375757083998125e-001	 4.215864366623789e+000	 9.036979333578390e+000
 4.985236426059487e-001	 4.220660395932038e+000	 9.018353851939999e+000
 4.595540674909452e-001	 4.225081071302156e+000	 8.998263088508063e+000
 4.206717475519851e-001	 4.229129376222967e+000	 8.976512916539392e+000
 3.818813610591916e-001	 4.232808361607396e+000	 8.952806333248248e+000
 3.594177515758589e-001	 3.983819634438112e+000	 8.738491139860598e+000
 3.229999992710687e-001	 3.986937546585482e+000	 8.714241999929241e+000
 2.866773322591905e-001	 3.989713787615519e+000	 8.696774100245980e+000
 2.504539058424694e-001	 3.992151405067931e+000	 8.685738294617062e+000
 2.143337915336599e-001	 3.994253500437820e+000	 8.680701824631020e+000
 1.783209765742107e-001	 3.996023226819399e+000	 8.681152173219868e+000
 1.424193635209339e-001	 3.997463786561715e+000	 8.686500952896816e+000
 1.066327698999317e-001	 3.998578428938315e+000	 8.696087818803491e+000
 7.096492792649740e-002	 3.999370447832836e+000	 8.709184397004300e+000
 3.541948428966121e-002	 3.999843179442312e+000	 8.724998218785551e+000
 0.000000000000000e+000	 4.000000000000000e+000	 8.742676652052047e+000
 3.616641125196922e-001	 4.008718507155041e+000	 8.776057083305041e+000
 3.250187492635377e-001	 4.011855906253005e+000	 8.752044208594494e+000
 2.884690655833330e-001	 4.014649498789190e+000	 8.734257294682490e+000
 2.520192427519624e-001	 4.017102351350427e+000	 8.722318171014484e+000
 2.156733777291356e-001	 4.019217584816156e+000	 8.715764681474063e+000
 1.794354826765607e-001	 4.020998371987436e+000	 8.714054601589272e+000
 1.433094845420301e-001	 4.022447935227989e+000	 8.716569589905772e+000
 1.072992247111848e-001	 4.023569544119328e+000	 8.722619163522724e+000
 7.140845872566388e-002	 4.024366513131858e+000	 8.731444688097776e+000
 3.564085606630450e-002	 4.024842199313842e+000	 8.742223372954673e+000
 0.000000000000000e+000	 4.025000000000000e+000	 8.754072262267680e+000
 3.639104734645255e-001	 4.033617379871969e+000	 8.810066058201619e+000
 3.270374992569964e-001	 4.036774265920530e+000	 8.786235684881650e+000
 2.902607989084344e-001	 4.039585209962862e+000	 8.768120318999891e+000
 2.535845796623630e-001	 4.042053297632920e+000	 8.755312199716602e+000
 2.170129639254478e-001	 4.044181669194492e+000	 8.747319172632146e+000
 1.805499887796560e-001	 4.045973517155472e+000	 8.743568672222807e+000
 1.441996055637612e-001	 4.047432083894266e+000	 8.743411737940919e+000
 1.079656795229425e-001	 4.048560659300342e+000	 8.746127053834506e+000
 7.185198952518571e-002	 4.049362578430878e+000	 8.750925001859025e+000
 3.586222784313484e-002	 4.049841219185374e+000	 8.756951719386906e+000
 0.000000000000000e+000	 4.050000000000000e+000	 8.763293151768375e+000
 3.661568344103588e-001	 4.058516252588897e+000	 8.840509481571759e+000
 3.290562492514448e-001	 4.061692625588052e+000	 8.816822874228208e+000
 2.920525322344945e-001	 4.064520921136532e+000	 8.798384537276613e+000
 2.551499165736715e-001	 4.067004243915415e+000	 8.784756548212251e+000
 2.183525501225966e-001	 4.069145753572830e+000	 8.775416148345498e+000
 1.816644948834969e-001	 4.070948662323509e+000	 8.769759792058228e+000
 1.450897265861269e-001	 4.072416232560541e+000	 8.767107229228499e+000
 1.086321343352048e-001	 4.073551774481353e+000	 8.766705610535343e+000
 7.229552032506288e-002	 4.074358643729899e+000	 8.767733605679199e+000
 3.608359962015221e-002	 4.074840239056904e+000	 8.769305524892898e+000
 0.000000000000000e+000	 4.074999999999999e+000	 8.770475434472941e+000
 3.684031953571920e-001	 4.083415125305826e+000	 8.867377532956494e+000
 3.310749992468829e-001	 4.086610985255576e+000	 8.843810737188921e+000
 2.938442655615136e-001	 4.089456632310205e+000	 8.825069590018273e+000
 2.567152534858878e-001	 4.091955190197909e+000	 8.810685430444416e+000
 2.196921363205818e-001	 4.094109837951165e+000	 8.800104284052793e+000
 1.827790009880833e-001	 4.095923807491546e+000	 8.792690980688683e+000
 1.459798476091275e-001	 4.097400381226817e+000	 8.787733304810471e+000
 1.092985891479719e-001	 4.098542889662367e+000	 8.784446168087401e+000
 7.273905112529538e-002	 4.099354709028920e+000	 8.781975794136384e+000
 3.630497139735663e-002	 4.099839258928434e+000	 8.779403905640146e+000
 0.000000000000000e+000	 4.100000000000000e+000	 8.775751904448732e+000
 3.706495563050253e-001	 4.108313998022754e+000	 8.890659191915821e+000
 3.330937492433106e-001	 4.111529344923100e+000	 8.867202794432362e+000
 2.956359988894915e-001	 4.114392343483876e+000	 8.848193446387180e+000
 2.582805903990116e-001	 4.116906136480402e+000	 8.833131166008629e+000
 2.210317225194036e-001	 4.119073922329503e+000	 8.821430146294221e+000
 1.838935070934152e-001	 4.120898952659582e+000	 8.812422942706441e+000
 1.468699686327628e-001	 4.122384529893092e+000	 8.805364693065345e+000
 1.099650439612437e-001	 4.123534004843380e+000	 8.799437359052909e+000
 7.318258192588324e-002	 4.124350774327941e+000	 8.793753979080886e+000
 3.652634317474809e-002	 4.124838278799965e+000	 8.787362922627080e+000
 0.000000000000000e+000	 4.125000000000000e+000	 8.779252136513200e+000
 3.728959172538585e-001	 4.133212870739683e+000	 8.910342274172715e+000
 3.351124992407280e-001	 4.136447704590624e+000	 8.887001170110937e+000
 2.974277322184281e-001	 4.139328054657547e+000	 8.867772454543935e+000
 2.598459273130434e-001	 4.141857082762898e+000	 8.852124237211630e+000
 2.223713087190620e-001	 4.144038006707840e+000	 8.839438256232533e+000
 1.850080131994925e-001	 4.145874097827619e+000	 8.829014137431928e+000
 1.477600896570330e-001	 4.147368678559366e+000	 8.820073685390666e+000
 1.106314987750200e-001	 4.148525120024392e+000	 8.811765195476712e+000
 7.362611272682640e-002	 4.149346839626961e+000	 8.803167776464296e+000
 3.674771495232660e-002	 4.149837298671496e+000	 8.793295673706149e+000
 0.000000000000000e+000	 4.150000000000000e+000	 8.781102583199276e+000
 3.751422782036917e-001	 4.158111743456611e+000	 8.926413466458575e+000
 3.371312492391351e-001	 4.161366064258147e+000	 8.903206633672737e+000
 2.992194655483239e-001	 4.164263765831219e+000	 8.883821390180492e+000
 2.614112642279828e-001	 4.166808029045392e+000	 8.867693344079960e+000
 2.237108949195569e-001	 4.169002091086175e+000	 8.854171150891879e+000
 1.861225193063153e-001	 4.170849242995655e+000	 8.842520846137315e+000
 1.486502106819379e-001	 4.172352827225643e+000	 8.831930209166607e+000
 1.112979535893010e-001	 4.173516235205405e+000	 8.821513147344806e+000
 7.406964352812494e-002	 4.174342904925983e+000	 8.810314090049108e+000
 3.696908673009215e-002	 4.174836318543028e+000	 8.797312382300797e+000
 0.000000000000000e+000	 4.175000000000000e+000	 8.781426668236909e+000
 3.773886391545250e-001	 4.183010616173539e+000	 8.938858360114134e+000
 3.391499992385319e-001	 4.186284423925672e+000	 8.915818640180147e+000
 3.010111988791782e-001	 4.189199477004890e+000	 8.896353503319780e+000
 2.629766011438300e-001	 4.191758975327886e+000	 8.879865457404078e+000
 2.250504811208884e-001	 4.193966175464512e+000	 8.865669442209510e+000
 1.872370254138836e-001	 4.195824388163691e+000	 8.852997236869461e+000
 1.495403317074776e-001	 4.197336975891918e+000	 8.841001898113619e+000
 1.119644084040868e-001	 4.198507350386418e+000	 8.828762218240911e+000
 7.451317432977879e-002	 4.199338970225004e+000	 8.815287192128549e+000
 3.719045850804473e-002	 4.199835338414558e+000	 8.799520482953929e+000
 0.000000000000000e+000	 4.199999999999999e+000	 8.780344876696010e+000
 3.796350001063584e-001	 4.207909488890468e+000	 8.947661483497480e+000
 3.411687492389183e-001	 4.211202783593194e+000	 8.924835369196980e+000
 3.028029322109916e-001	 4.214135188178561e+000	 8.905380563453822e+000
 2.645419380605849e-001	 4.216709921610381e+000	 8.888665869899128e+000
 2.263900673230564e-001	 4.218930259842848e+000	 8.873971873991104e+000
 1.883515315221974e-001	 4.220799533331728e+000	 8.860495426971365e+000
 1.504304527336521e-001	 4.222321124558195e+000	 8.847354160152149e+000
 1.126308632193772e-001	 4.223498465567431e+000	 8.833591018316898e+000
 7.495670513178798e-002	 4.224335035524025e+000	 8.818178801380796e+000
 3.741183028618436e-002	 4.224834358286088e+000	 8.800024703839178e+000
 0.000000000000000e+000	 4.224999999999999e+000	 8.777974841929039e+000
 3.818813610591916e-001	 4.232808361607396e+000	 8.952806333248248e+000
 3.431874992402947e-001	 4.236121143260720e+000	 8.930253762303126e+000
 3.045946655437639e-001	 4.239070899352234e+000	 8.910912903088796e+000
 2.661072749782476e-001	 4.241660867892877e+000	 8.894118245560149e+000
 2.277296535260610e-001	 4.243894344221187e+000	 8.879115376855697e+000
 1.894660376312568e-001	 4.245774678499766e+000	 8.865065543396913e+000
 1.513205737604614e-001	 4.247305273224471e+000	 8.851050242867341e+000
 1.132973180351722e-001	 4.248489580748445e+000	 8.836075834687856e+000
 7.540023593415254e-002	 4.249331100823046e+000	 8.819078157975184e+000
 3.763320206451105e-002	 4.249833378157620e+000	 8.798927146359986e+000
 0.000000000000000e+000	 4.250000000000000e+000	 8.774431429445116e+000
 4.250000000000000e+000	 0.000000000000000e+000	 1.037778908993838e+001
 4.249833378157620e+000	 3.763320206450985e-002	 1.039729075490813e+001
 4.249331100823047e+000	 7.540023593415146e-002	 1.041327114755627e+001
 4.248489580748444e+000	 1.132973180351712e-001	 1.042619459357431e+001
 4.247305273224471e+000	 1.513205737604605e-001	 1.043649059838089e+001
 4.245774678499766e+000	 1.894660376312561e-001	 1.044455358380170e+001
 4.243894344221186e+000	 2.277296535260605e-001	 1.045074272600602e+001
 4.241660867892875e+000	 2.661072749782472e-001	 1.045538189827288e+001
 4.239070899352234e+000	 3.045946655437635e-001	 1.045875972196929e+001
 4.236121143260720e+000	 3.431874992402945e-001	 1.046112972891207e+001
 4.232808361607396e+000	 3.818813610591916e-001	 1.046271063805601e+001
 4.275000000000000e+000	 0.000000000000000e+000	 1.041899872707939e+001
 4.274832398029148e+000	 3.785457384283890e-002	 1.043419877742730e+001
 4.274327166122059e+000	 7.584376673652557e-002	 1.044628108869532e+001
 4.273480695929435e+000	 1.139637728509879e-001	 1.045568202500598e+001
 4.272289421890707e+000	 1.522106947873083e-001	 1.046280161465175e+001
 4.270749823667742e+000	 1.905805437403758e-001	 1.046800329835497e+001
 4.268858428599435e+000	 2.290692397291523e-001	 1.047161378204787e+001
 4.266611814175251e+000	 2.676726118960291e-001	 1.047392299782586e+001
 4.264006610525748e+000	 3.063863988766920e-001	 1.047518417652995e+001
 4.261039502928045e+000	 3.452062492418691e-001	 1.047561403519876e+001
 4.257707234324079e+000	 3.841277220122707e-001	 1.047539308239378e+001
 4.300000000000000e+000	 0.000000000000000e+000	 1.045765280636151e+001
 4.299831417900671e+000	 3.807594562098566e-002	 1.046856357057039e+001
 4.299323231421049e+000	 7.628729753856345e-002	 1.047677667219000e+001
 4.298471811110385e+000	 1.146302276663430e-001	 1.048270028828698e+001
 4.297273570556867e+000	 1.531008158135985e-001	 1.048670472143924e+001
 4.295724968835597e+000	 1.916950498488709e-001	 1.048912215951733e+001
 4.293822512977509e+000	 2.304088259315823e-001	 1.049024654328854e+001
 4.291562760457388e+000	 2.692379488131417e-001	 1.049033354557812e+001
 4.288942321698952e+000	 3.081781322089742e-001	 1.048960066551895e+001
 4.285957862594973e+000	 3.472249992428509e-001	 1.048822744119936e+001
 4.282606107040270e+000	 3.863740829648416e-001	 1.048635578377507e+001
 4.324999999999999e+000	 0.000000000000000e+000	 1.049364792190117e+001
 4.324830437772191e+000	 3.829731739895016e-002	 1.050029791008265e+001
 4.324319296720021e+000	 7.673082834026511e-002	 1.050468696673305e+001
 4.323462926291289e+000	 1.152966824812367e-001	 1.050719484913737e+001
 4.322257719222950e+000	 1.539909368393308e-001	 1.050816187809279e+001
 4.320700114003333e+000	 1.928095559567414e-001	 1.050788870915457e+001
 4.318786597355409e+000	 2.317484121333504e-001	 1.050663621504732e+001
 4.316513706739286e+000	 2.708032857295852e-001	 1.050462548305829e+001
 4.313878032871841e+000	 3.099698655406102e-001	 1.050203793102038e+001
 4.310876222261504e+000	 3.492437492432402e-001	 1.049901554526508e+001
 4.307504979755969e+000	 3.886204439169040e-001	 1.049566124367487e+001
 4.350000000000000e+000	 0.000000000000000e+000	 1.052688304496181e+001
 4.349829457643704e+000	 3.851868917673237e-002	 1.052931679272778e+001
 4.349315362018976e+000	 7.717435914163061e-002	 1.052994310656500e+001
 4.348454041472150e+000	 1.159631372956689e-001	 1.052911308407816e+001
 4.347241867888955e+000	 1.548810578645055e-001	 1.052713680080595e+001
 4.345675259170945e+000	 1.939240620639871e-001	 1.052428309287700e+001
 4.343750681733135e+000	 2.330879983344565e-001	 1.052077945421370e+001
 4.341464653020945e+000	 2.723686226453594e-001	 1.051681205218439e+001
 4.338813744044418e+000	 3.117615988715999e-001	 1.051252586538929e+001
 4.335794581927638e+000	 3.512624992430367e-001	 1.050802494703156e+001
 4.332403852471177e+000	 3.908668048684583e-001	 1.050337281706814e+001
 4.374999999999999e+000	 0.000000000000000e+000	 1.055725945603530e+001
 4.374828477515215e+000	 3.874006095433233e-002	 1.055553737283031e+001
 4.374311427317912e+000	 7.761788994265988e-002	 1.055247823245866e+001
 4.373445156652968e+000	 1.166295921096397e-001	 1.054840422583698e+001
 4.372226016554886e+000	 1.557711788891225e-001	 1.054359491242093e+001
 4.370650404338438e+000	 1.950385681706083e-001	 1.053828701421837e+001
 4.368714766110685e+000	 2.344275845349007e-001	 1.053267432777397e+001
 4.366415599302367e+000	 2.739339595604644e-001	 1.052690775810982e+001
 4.363749455216683e+000	 3.135533322019432e-001	 1.052109547838682e+001
 4.360712941593377e+000	 3.532812492422403e-001	 1.051530321881087e+001
 4.357302725185893e+000	 3.931131658195044e-001	 1.050955468804402e+001
 4.400000000000000e+000	 0.000000000000000e+000	 1.049709475726966e+001
 4.399827497386720e+000	 3.896143273174999e-002	 1.050042785504716e+001
 4.399307492616827e+000	 7.806142074335290e-002	 1.050314105078714e+001
 4.398436271833743e+000	 1.172960469231490e-001	 1.050524999861739e+001
 4.397210165220736e+000	 1.566612999131817e-001	 1.050677571834503e+001
 4.395625549505810e+000	 1.961530742766048e-001	 1.050774467473072e+001
 4.393678850488062e+000	 2.357671707346830e-001	 1.050818884706975e+001
 4.391366545583549e+000	 2.754992964749001e-001	 1.050814578858227e+001
 4.388685166388635e+000	 3.153450655316404e-001	 1.050765867512276e+001
 4.385631301258717e+000	 3.552999992408514e-001	 1.050677634273069e+001
 4.382201597900116e+000	 3.953595267700419e-001	 1.050555331355692e+001
 4.425000000000000e+000	 0.000000000000000e+000	 1.044213740798207e+001
 4.424826517258218e+000	 3.918280450898538e-002	 1.044956590502893e+001
 4.424303557915724e+000	 7.850495154370979e-002	 1.045617175930778e+001
 4.423427387014476e+000	 1.179625017361969e-001	 1.046195436555294e+001
 4.422194313886512e+000	 1.575514209366833e-001	 1.046691843196348e+001
 4.420600694673061e+000	 1.972675803819767e-001	 1.047107407317751e+001
 4.418642934865264e+000	 2.371067569338034e-001	 1.047443689387114e+001
 4.416317491864494e+000	 2.770646333886667e-001	 1.047702806247008e+001
 4.413620877560276e+000	 3.171367988606912e-001	 1.047887437447079e+001
 4.410549660923660e+000	 3.573187492388696e-001	 1.048000830487795e+001
 4.407100470613848e+000	 3.976058877200713e-001	 1.048046804927690e+001
 4.449999999999999e+000	 0.000000000000000e+000	 1.039229523153912e+001
 4.449825537129715e+000	 3.940417628603850e-002	 1.040343363380294e+001
 4.449299623214602e+000	 7.894848234373043e-002	 1.041354678857457e+001
 4.448418502195165e+000	 1.186289565487833e-001	 1.042261799790985e+001
 4.447178462552209e+000	 1.584415419596270e-001	 1.043063582881706e+001
 4.445575839840191e+000	 1.983820864867240e-001	 1.043759421987431e+001
 4.443607019242291e+000	 2.384463431322619e-001	 1.044349257878225e+001
 4.441268438145198e+000	 2.786299703017640e-001	 1.044833587032691e+001
 4.438556588731602e+000	 3.189285321890958e-001	 1.045213469423546e+001
 4.435468020588207e+000	 3.593374992362952e-001	 1.045490535241650e+001
 4.431999343327089e+000	 3.998522486695924e-001	 1.045666990508793e+001
 4.474999999999999e+000	 0.000000000000000e+000	 1.034747811112061e+001
 4.474824557001205e+000	 3.962554806290932e-002	 1.036194640063949e+001
 4.474295688513459e+000	 7.939201314341488e-002	 1.037518693593189e+001
 4.473409617375811e+000	 1.192954113609082e-001	 1.038716709073847e+001
 4.472162611217829e+000	 1.593316629820132e-001	 1.039785945893091e+001
 4.470550985007201e+000	 1.994965925908466e-001	 1.040724197471666e+001
 4.468571103619143e+000	 2.397859293300585e-001	 1.041529802408312e+001
 4.466219384425665e+000	 2.801953072141921e-001	 1.042201654694315e+001
 4.463492299902616e+000	 3.207202655168541e-001	 1.042739212944994e+001
 4.460386380252357e+000	 3.613562492331280e-001	 1.043142508595811e+001
 4.456898216039838e+000	 4.020986096186052e-001	 1.043412153011792e+001
 4.500000000000000e+000	 0.000000000000000e+000	 1.030759793250247e+001
 4.499823576872690e+000	 3.984691983959790e-002	 1.032502143587667e+001
 4.499291753812299e+000	 7.983554394276311e-002	 1.034101473881776e+001
 4.498400732556415e+000	 1.199618661725717e-001	 1.035552944881833e+001
 4.497146759883374e+000	 1.602217840038416e-001	 1.036852235236048e+001
 4.495526130174089e+000	 2.006110986943446e-001	 1.037995554865372e+001
 4.493535187995821e+000	 2.411255155271932e-001	 1.038979657491010e+001
 4.491170330705895e+000	 2.817606441259510e-001	 1.039801852260512e+001
 4.488428011073320e+000	 3.225119988439663e-001	 1.040460014417810e+001
 4.485304739916110e+000	 3.633749992293682e-001	 1.040952594963360e+001
 4.481797088752097e+000	 4.043449705671097e-001	 1.041278629251464e+001
 4.232808361607396e+000	 3.818813610591916e-001	 1.046271063805601e+001
 4.229129376222968e+000	 4.206717475519838e-001	 1.046822692436768e+001
 4.225081071302157e+000	 4.595540674909442e-001	 1.047230766980426e+001
 4.220660395932038e+000	 4.985236426059478e-001	 1.047497381090966e+001
 4.215864366623790e+000	 5.375757083998118e-001	 1.047621279576605e+001
 4.210690069845527e+000	 5.767054150413700e-001	 1.047597953924004e+001
 4.205134664553647e+000	 6.159078283377324e-001	 1.047419750717433e+001
 4.199195384720043e+000	 6.551779307865258e-001	 1.049144212543834e+001
 4.192869541852530e+000	 6.945106227088218e-001	 1.051390616293398e+001
 4.186154527505775e+000	 7.339007234633734e-001	 1.053553780112882e+001
 4.179047815779902e+000	 7.733429727426728e-001	 1.055643969877575e+001
 4.257707234324079e+000	 3.841277220122707e-001	 1.047539308239378e+001
 4.254006607849405e+000	 4.231462872486892e-001	 1.047748406087748e+001
 4.249934489370448e+000	 4.622573267163143e-001	 1.047840154011458e+001
 4.245487810027735e+000	 5.014561346257856e-001	 1.047814089861486e+001
 4.240663568782507e+000	 5.407379184534670e-001	 1.047666292105832e+001
 4.235458834964457e+000	 5.800977998397745e-001	 1.047389478755690e+001
 4.229870750817963e+000	 6.195308155671544e-001	 1.046973119514711e+001
 4.223896534044159e+000	 6.590319186185141e-001	 1.048850982850321e+001
 4.217533480336205e+000	 6.985959793168153e-001	 1.051009929791313e+001
 4.210778965904968e+000	 7.382177865464503e-001	 1.053069453821386e+001
 4.203630449992338e+000	 7.778920490569271e-001	 1.055039763558719e+001
 4.282606107040270e+000	 3.863740829648416e-001	 1.048635578377507e+001
 4.278883839475262e+000	 4.256208269449768e-001	 1.048552646289982e+001
 4.274787907438089e+000	 4.649605859413376e-001	 1.048379766581046e+001
 4.270315224122728e+000	 5.043886266453286e-001	 1.048113861122777e+001
 4.265462770940488e+000	 5.439001285068598e-001	 1.047748279545280e+001
 4.260227600082641e+000	 5.834901846379286e-001	 1.047272901611746e+001
 4.254606837081536e+000	 6.231538027963179e-001	 1.046674253150361e+001
 4.248597683367563e+000	 6.628859064502166e-001	 1.048730946263675e+001
 4.242197418819215e+000	 7.026813359244744e-001	 1.050798199780209e+001
 4.235403404303565e+000	 7.425348496291240e-001	 1.052750104019805e+001
 4.228213084204269e+000	 7.824411253706887e-001	 1.054596813932017e+001
 4.307504979755969e+000	 3.886204439169040e-001	 1.049566124367487e+001
 4.303761071100537e+000	 4.280953666408464e-001	 1.049242767393914e+001
 4.299641325505075e+000	 4.676638451660143e-001	 1.048858068293449e+001
 4.295142638217016e+000	 5.073211186645766e-001	 1.048406272090998e+001
 4.290261973097732e+000	 5.470623385599893e-001	 1.047877936370841e+001
 4.284996365200073e+000	 5.868825694358322e-001	 1.047260037148408e+001
 4.279342923344370e+000	 6.267767900252239e-001	 1.046668258648061e+001
 4.273298832690251e+000	 6.667398942816331e-001	 1.048780653624032e+001
 4.266861357301558e+000	 7.067666925317994e-001	 1.050752000932634e+001
 4.260027842701565e+000	 7.468519127113946e-001	 1.052592325494560e+001
 4.252795718415691e+000	 7.869902016839576e-001	 1.054311732135209e+001
 4.332403852471177e+000	 3.908668048684583e-001	 1.050337281706814e+001
 4.328638302725228e+000	 4.305699063362981e-001	 1.049826208009396e+001
 4.324494743571406e+000	 4.703671043903443e-001	 1.049283606005468e+001
 4.319970052310598e+000	 5.102536106835297e-001	 1.048700982312916e+001
 4.315061175254239e+000	 5.502245486128563e-001	 1.048066038553213e+001
 4.309765130316755e+000	 5.902749542334852e-001	 1.047362780768233e+001
 4.304079009606459e+000	 6.303997772538716e-001	 1.046969070192941e+001
 4.297999982012227e+000	 6.705938821127638e-001	 1.048996735287253e+001
 4.291525295783235e+000	 7.108520491387895e-001	 1.050867986956912e+001
 4.284652281098968e+000	 7.511689757932623e-001	 1.052592791679523e+001
 4.277378352626607e+000	 7.915392779967340e-001	 1.054181207657761e+001
 4.357302725185893e+000	 3.931131658195044e-001	 1.050955468804402e+001
 4.353515534349339e+000	 4.330444460313320e-001	 1.050310488598277e+001
 4.349348161637088e+000	 4.730703636143276e-001	 1.049665007447795e+001
 4.344797466403475e+000	 5.131861027021879e-001	 1.049007731313597e+001
 4.339860377410007e+000	 5.533867586654605e-001	 1.048323441229485e+001
 4.334533895432688e+000	 5.936673390308880e-001	 1.047593106313051e+001
 4.328815095867808e+000	 6.340227644822610e-001	 1.047437372340226e+001
 4.322701131333488e+000	 6.744478699436080e-001	 1.049375898853037e+001
 4.316189234264249e+000	 7.149374057454460e-001	 1.051142888338976e+001
 4.309276719495773e+000	 7.554860388747267e-001	 1.052748252408940e+001
 4.301960986837014e+000	 7.960883543090176e-001	 1.054202006102241e+001
 4.382201597900116e+000	 3.953595267700419e-001	 1.050555331355692e+001
 4.378392765972867e+000	 4.355189857259480e-001	 1.050324359895630e+001
 4.374201579702113e+000	 4.757736228379644e-001	 1.050010978927461e+001
 4.369624880495647e+000	 5.161185947205511e-001	 1.049336336324304e+001
 4.364659579565039e+000	 5.565489687178021e-001	 1.048661076454094e+001
 4.359302660547873e+000	 5.970597238280402e-001	 1.047963063835587e+001
 4.353551182128413e+000	 6.376457517103922e-001	 1.048069921896728e+001
 4.347402280654035e+000	 6.783018577741664e-001	 1.049914926970498e+001
 4.340853172744594e+000	 7.190227623517679e-001	 1.051573510161190e+001
 4.333901157891983e+000	 7.598031019557879e-001	 1.053055531746973e+001
 4.326543621046915e+000	 8.006374306208084e-001	 1.054370967022018e+001
 4.407100470613848e+000	 3.976058877200713e-001	 1.048046804927690e+001
 4.403269997595813e+000	 4.379935254201460e-001	 1.047972436799754e+001
 4.399054997766487e+000	 4.784768820612544e-001	 1.047882273942285e+001
 4.394452294587114e+000	 5.190510867386196e-001	 1.047783586725530e+001
 4.389458781719333e+000	 5.597111787698808e-001	 1.047684218739708e+001
 4.384071425662307e+000	 6.004521086249419e-001	 1.047592582843102e+001
 4.378287268388279e+000	 6.412687389382653e-001	 1.048530241872427e+001
 4.372103429973867e+000	 6.821558456044388e-001	 1.050610675218126e+001
 4.365517111224275e+000	 7.231081189577554e-001	 1.052156729995099e+001
 4.358525596287595e+000	 7.641201650364463e-001	 1.053511525890805e+001
 4.351126255256309e+000	 8.051865069321068e-001	 1.054685001832252e+001
 4.431999343327089e+000	 3.998522486695924e-001	 1.045666990508793e+001
 4.428147229218177e+000	 4.404680651139264e-001	 1.045742278994364e+001
 4.423908415830206e+000	 4.811801412841977e-001	 1.045784950462734e+001
 4.419279708677876e+000	 5.219835787563930e-001	 1.045802247313303e+001
 4.414257983872892e+000	 5.628733888216966e-001	 1.045802008147547e+001
 4.408840190775990e+000	 6.038444934215933e-001	 1.045792664180943e+001
 4.403023354647401e+000	 6.448917261658803e-001	 1.046914540502637e+001
 4.396804579292986e+000	 6.860098334344250e-001	 1.049136104624171e+001
 4.390181049703291e+000	 7.271934755634089e-001	 1.051225542563606e+001
 4.383150034682609e+000	 7.684372281167013e-001	 1.053195583295145e+001
 4.375708889465193e+000	 8.097355832429123e-001	 1.055059187927618e+001
 4.456898216039838e+000	 4.020986096186052e-001	 1.043412153011792e+001
 4.453024460839959e+000	 4.429426048072887e-001	 1.043630136218414e+001
 4.448761833893272e+000	 4.838834005067944e-001	 1.043798757582557e+001
 4.444107122767933e+000	 5.249160707738715e-001	 1.043925238246000e+001
 4.439057186025711e+000	 5.660355988732497e-001	 1.044017418690465e+001
 4.433608955888925e+000	 6.072368782179941e-001	 1.044083755509051e+001
 4.427759440905781e+000	 6.485147133932371e-001	 1.045350645444585e+001
 4.421505728611392e+000	 6.898638212641255e-001	 1.047412839868817e+001
 4.414844988181640e+000	 7.312788321687279e-001	 1.049329412247768e+001
 4.407774473077029e+000	 7.727542911965535e-001	 1.051112732720006e+001
 4.400291523673573e+000	 8.142846595532255e-001	 1.052775412572419e+001
 4.481797088752097e+000	 4.043449705671097e-001	 1.041278629251464e+001
 4.477901692461161e+000	 4.454171445002335e-001	 1.041632329194095e+001
 4.473615251955686e+000	 4.865866597290444e-001	 1.041919995733860e+001
 4.468934536857286e+000	 5.278485627910552e-001	 1.042148835452983e+001
 4.463856388177796e+000	 5.691978089245402e-001	 1.042326697569955e+001
 4.458377721001111e+000	 6.106292630141446e-001	 1.042462071066259e+001
 4.452495527163420e+000	 6.521377006203358e-001	 1.043837598880178e+001
 4.446206877929084e+000	 6.937178090935400e-001	 1.045743066605009e+001
 4.439508926659324e+000	 7.353641887737129e-001	 1.047489619415915e+001
 4.432398911470851e+000	 7.770713542760025e-001	 1.049089262899666e+001
 4.424874157881446e+000	 8.188337358630459e-001	 1.050554252616018e+001
 4.179047815779902e+000	 7.733429727426728e-001	 1.055643969877575e+001
 4.171546965803959e+000	 8.128320319509310e-001	 1.055940380854601e+001
 4.163649624201344e+000	 8.523624856654427e-001	 1.056243869309419e+001
 4.155353527534344e+000	 8.919288431804858e-001	 1.056569520792780e+001
 4.146656504724693e+000	 9.315255401334329e-001	 1.056932454675471e+001
 4.137556479447226e+000	 9.711469402141431e-001	 1.057347809270130e+001
 4.128051472493548e+000	 1.010787336957094e+000	 1.057830726746836e+001
 4.118139604102669e+000	 1.050440955616010e+000	 1.058396337863746e+001
 4.107819096255514e+000	 1.090101955120620e+000	 1.059059746534758e+001
 4.097088274930204e+000	 1.129764430115053e+000	 1.059836014256871e+001
 4.085945572314992e+000	 1.169422413077266e+000	 1.060740144420531e+001
 4.203630449992338e+000	 7.778920490569271e-001	 1.055039763558719e+001
 4.196085477369345e+000	 8.176133968488740e-001	 1.055296069932925e+001
 4.188141680816043e+000	 8.573763826440791e-001	 1.055569614024308e+001
 4.179796783580376e+000	 8.971754834385507e-001	 1.055875284546394e+001
 4.171048601813030e+000	 9.370051021381156e-001	 1.056227990902094e+001
 4.161895046975169e+000	 9.768595692778667e-001	 1.056642648283763e+001
 4.152334128215988e+000	 1.016733144824837e+000	 1.057134162585015e+001
 4.142363954717085e+000	 1.056620020063654e+000	 1.057717415146013e+001
 4.131982738000448e+000	 1.096514319564808e+000	 1.058407247354620e+001
 4.121188794197010e+000	 1.136410103235041e+000	 1.059218445126508e+001
 4.109980546272603e+000	 1.176301368449240e+000	 1.060165723287874e+001
 4.228213084204269e+000	 7.824411253706887e-001	 1.054596813932017e+001
 4.220623988934317e+000	 8.223947617462386e-001	 1.054801067718619e+001
 4.212633737430396e+000	 8.623902796220805e-001	 1.055032655840169e+001
 4.204240039626113e+000	 9.024221236959534e-001	 1.055306274203418e+001
 4.195440698901107e+000	 9.424846641421386e-001	 1.055636626337182e+001
 4.186233614502861e+000	 9.825721983409625e-001	 1.056038408468453e+001
 4.176616783938171e+000	 1.022678952692014e+000	 1.056526294428114e+001
 4.166588305331214e+000	 1.062799084510823e+000	 1.057114920408492e+001
 4.156146379745045e+000	 1.102926684008645e+000	 1.057818869595548e+001
 4.145289313463411e+000	 1.143055776354834e+000	 1.058652656699188e+001
 4.134015520229721e+000	 1.183180323821201e+000	 1.059630712405735e+001
 4.252795718415691e+000	 7.869902016839576e-001	 1.054311732135209e+001
 4.245162500498869e+000	 8.271761266430252e-001	 1.054452145153186e+001
 4.237125794044403e+000	 8.674041765994475e-001	 1.054629927389272e+001
 4.228683295671557e+000	 9.076687639526944e-001	 1.054859585919819e+001
 4.219832795988922e+000	 9.479642261455018e-001	 1.055155622437347e+001
 4.210572182030301e+000	 9.882848274034308e-001	 1.055532518300463e+001
 4.200899439660093e+000	 1.028624760558625e+000	 1.056004719431212e+001
 4.190812655945057e+000	 1.068978148957521e+000	 1.056586621082517e+001
 4.180310021489308e+000	 1.109339048452133e+000	 1.057292552498964e+001
 4.169389832729410e+000	 1.149701449474429e+000	 1.058136761494815e+001
 4.158050494186345e+000	 1.190059279193150e+000	 1.059133398973624e+001
 4.277378352626607e+000	 7.915392779967340e-001	 1.054181207657761e+001
 4.269701012063006e+000	 8.319574915392335e-001	 1.054246147942450e+001
 4.261617850658065e+000	 8.724180735761798e-001	 1.054358432443448e+001
 4.253126551716705e+000	 9.129154042087733e-001	 1.054532383330233e+001
 4.244224893076473e+000	 9.534437881482052e-001	 1.054782304442052e+001
 4.234910749557492e+000	 9.939974564652716e-001	 1.055122466309448e+001
 4.225182095381759e+000	 1.034570568424671e+000	 1.055567091040985e+001
 4.215037006558610e+000	 1.075157213403744e+000	 1.056130337098221e+001
 4.204473663233235e+000	 1.115751412895269e+000	 1.056826283982678e+001
 4.193490351995004e+000	 1.156347122593827e+000	 1.057668916859044e+001
 4.182085468142476e+000	 1.196938234565087e+000	 1.058672111139411e+001
 4.301960986837014e+000	 7.960883543090176e-001	 1.054202006102241e+001
 4.294239523626727e+000	 8.367388564348637e-001	 1.054179994420422e+001
 4.286109907271380e+000	 8.774319705522771e-001	 1.054215243881534e+001
 4.277569807761560e+000	 9.181620444641899e-001	 1.054321895620005e+001
 4.268616990163762e+000	 9.589233501502491e-001	 1.054514059551249e+001
 4.259249317084431e+000	 9.997100855264839e-001	 1.054805799362650e+001
 4.249464751103163e+000	 1.040516376290151e+000	 1.055211117387375e+001
 4.239261357171881e+000	 1.081336277849494e+000	 1.055743939384576e+001
 4.228637304976828e+000	 1.122163777338056e+000	 1.056418099250122e+001
 4.217590871260191e+000	 1.162992795713027e+000	 1.057247323682549e+001
 4.206120442098111e+000	 1.203817189937011e+000	 1.058245216829373e+001
 4.326543621046915e+000	 8.006374306208084e-001	 1.054370967022018e+001
 4.318778035190028e+000	 8.415202213299152e-001	 1.054250673486009e+001
 4.310601963884349e+000	 8.824458675277399e-001	 1.054197501726112e+001
 4.302013063806120e+000	 9.234086847189447e-001	 1.054225415662947e+001
 4.293009087250787e+000	 9.644029121516328e-001	 1.054348335165139e+001
 4.283587884611121e+000	 1.005422714587069e+000	 1.054580121007578e+001
 4.273747406824312e+000	 1.046462184155066e+000	 1.054934559730091e+001
 4.263485707784863e+000	 1.087515342294771e+000	 1.055425348420554e+001
 4.252800946720086e+000	 1.128576141780491e+000	 1.056066079447017e+001
 4.241691390524975e+000	 1.169638468832031e+000	 1.056870225163949e+001
 4.230155416053255e+000	 1.210696145308922e+000	 1.057851122618122e+001
 4.351126255256309e+000	 8.051865069321068e-001	 1.054685001832252e+001
 4.343316546752915e+000	 8.463015862243891e-001	 1.054455242609649e+001
 4.335094020496972e+000	 8.874597645025674e-001	 1.054302411246784e+001
 4.326456319850387e+000	 9.286553249730376e-001	 1.054240298222232e+001
 4.317401184337551e+000	 9.698824741523568e-001	 1.054282637183593e+001
 4.307926452137560e+000	 1.011135343647027e+000	 1.054443089870869e+001
 4.298030062545201e+000	 1.052407992019415e+000	 1.054735230957764e+001
 4.287710058397559e+000	 1.093694406739574e+000	 1.055172532835418e+001
 4.276964588463008e+000	 1.134988506222576e+000	 1.055768350363567e+001
 4.265791909789357e+000	 1.176284141950839e+000	 1.056535905614664e+001
 4.254190390007903e+000	 1.217575100680821e+000	 1.057488272636849e+001
 4.375708889465193e+000	 8.097355832429123e-001	 1.055059187927618e+001
 4.367855058315383e+000	 8.510829511182845e-001	 1.054790825907151e+001
 4.359586077109249e+000	 8.924736614767607e-001	 1.054527241127394e+001
 4.350899575894356e+000	 9.339019652264681e-001	 1.054363958211928e+001
 4.341793281424052e+000	 9.753620361524213e-001	 1.054314528362911e+001
 4.332265019663749e+000	 1.016847972706357e+000	 1.054392418111124e+001
 4.322312718265832e+000	 1.058353799883198e+000	 1.054610994137698e+001
 4.311934409009967e+000	 1.099873471183905e+000	 1.054983508056180e+001
 4.301128230205595e+000	 1.141400870664311e+000	 1.055523081180400e+001
 4.289892429053334e+000	 1.182929815069449e+000	 1.056242689304065e+001
 4.278225363962058e+000	 1.224454056052707e+000	 1.057155147518364e+001
 4.400291523673573e+000	 8.142846595532255e-001	 1.052775412572419e+001
 4.392393569877434e+000	 8.558643160116016e-001	 1.053170013640703e+001
 4.384078133721181e+000	 8.974875584503188e-001	 1.053756293872090e+001
 4.375342831938034e+000	 9.391486054792367e-001	 1.054550896270719e+001
 4.366185378510290e+000	 9.808415981518261e-001	 1.054441626727647e+001
 4.356603587189687e+000	 1.022560601765058e+000	 1.054425869923602e+001
 4.346595373986204e+000	 1.064299607746416e+000	 1.054559761114231e+001
 4.336158759622090e+000	 1.106052535627762e+000	 1.054856335000401e+001
 4.325291871947846e+000	 1.147813235105695e+000	 1.055328483256542e+001
 4.313992948316907e+000	 1.189575488187862e+000	 1.055988939343327e+001
 4.302260337915721e+000	 1.231333011424581e+000	 1.056850263377491e+001
 4.424874157881446e+000	 8.188337358630459e-001	 1.050554252616018e+001
 4.416932081439071e+000	 8.606456809043407e-001	 1.050761467018144e+001
 4.408570190332767e+000	 9.025014554232427e-001	 1.051169364186297e+001
 4.399786087981418e+000	 9.443952457313437e-001	 1.051794093429576e+001
 4.390577475596269e+000	 9.863211601505713e-001	 1.052651922958193e+001
 4.380942154715376e+000	 1.028273230823133e+000	 1.053759257567727e+001
 4.370878029706319e+000	 1.070245415609068e+000	 1.054579491153818e+001
 4.360383110233927e+000	 1.112231600071145e+000	 1.054789118812573e+001
 4.349455513689764e+000	 1.154225599546729e+000	 1.055182808957802e+001
 4.338093467580077e+000	 1.196221161306078e+000	 1.055773056606495e+001
 4.326295311868889e+000	 1.238211966796443e+000	 1.056572170825463e+001
 4.085945572314992e+000	 1.169422413077266e+000	 1.060740144420531e+001
 4.074389528975536e+000	 1.209069876518825e+000	 1.064601159108518e+001
 4.062418795974019e+000	 1.248700735263687e+000	 1.068471463288772e+001
 4.050032136936431e+000	 1.288308848805791e+000	 1.068967337966860e+001
 4.037228430064649e+000	 1.327888023744064e+000	 1.069402020445861e+001
 4.024006670090824e+000	 1.367432016293249e+000	 1.069924995583170e+001
 4.010365970170742e+000	 1.406934534869337e+000	 1.070572081542059e+001
 3.996305563713150e+000	 1.446389242748077e+000	 1.071380738729974e+001
 3.981824806142011e+000	 1.485789760794904e+000	 1.072390073119444e+001
 3.966923176588746e+000	 1.525129670264477e+000	 1.073640836158047e+001
 3.951600279511499e+000	 1.564402515667893e+000	 1.075175421152699e+001
 4.109980546272603e+000	 1.176301368449240e+000	 1.060165723287874e+001
 4.098356526207931e+000	 1.216182052263254e+000	 1.064135778546583e+001
 4.086315377130201e+000	 1.256046033705988e+000	 1.067597566152909e+001
 4.073855855392610e+000	 1.295887136150756e+000	 1.068134955083310e+001
 4.060976832598230e+000	 1.335699129764719e+000	 1.068719598167655e+001
 4.047677297565866e+000	 1.375475734034469e+000	 1.069384260276025e+001
 4.033956358234573e+000	 1.415210620366681e+000	 1.070163351933989e+001
 4.019813243503739e+000	 1.454897414762256e+000	 1.071092937839534e+001
 4.005247305005702e+000	 1.494529700562309e+000	 1.072210742084217e+001
 3.990258018807951e+000	 1.534101021264173e+000	 1.073556149953773e+001
 3.974844987041911e+000	 1.573604883405484e+000	 1.075170206189327e+001
 4.134015520229721e+000	 1.183180323821201e+000	 1.059630712405735e+001
 4.122323523439744e+000	 1.223294228007851e+000	 1.063675688210929e+001
 4.110211958285729e+000	 1.263391332148599e+000	 1.066603317224432e+001
 4.097679573848086e+000	 1.303465423496135e+000	 1.067267964261699e+001
 4.084725235131073e+000	 1.343510235785849e+000	 1.067972543134039e+001
 4.071347925040157e+000	 1.383519451776187e+000	 1.068748410654825e+001
 4.057546746297663e+000	 1.423486705864506e+000	 1.069628580020126e+001
 4.043320923293615e+000	 1.463405586776860e+000	 1.070647731237021e+001
 4.028669803868731e+000	 1.503269640330041e+000	 1.071842218249633e+001
 4.013592861026560e+000	 1.543072372264059e+000	 1.073250072633942e+001
 3.998089694571819e+000	 1.582807251143084e+000	 1.074911003738356e+001
 4.158050494186345e+000	 1.190059279193150e+000	 1.059133398973624e+001
 4.146290520670970e+000	 1.230406403752616e+000	 1.063219728034822e+001
 4.134108539440599e+000	 1.270736630591519e+000	 1.065607299636590e+001
 4.121503292302855e+000	 1.311043710841926e+000	 1.066370277223971e+001
 4.108473637663178e+000	 1.351321341807455e+000	 1.067165396427506e+001
 4.095018552513700e+000	 1.391563169518405e+000	 1.068022615316911e+001
 4.081137134360013e+000	 1.431762791362815e+000	 1.068973559776300e+001
 4.066828603082779e+000	 1.471913758791889e+000	 1.070051535849859e+001
 4.052092302731094e+000	 1.512009580098102e+000	 1.071291538777660e+001
 4.036927703244576e+000	 1.552043723264134e+000	 1.072730258588515e+001
 4.021334402101221e+000	 1.592009618880696e+000	 1.074406082122638e+001
 4.182085468142476e+000	 1.196938234565087e+000	 1.058672111139411e+001
 4.170257517901614e+000	 1.237518579497549e+000	 1.062766766336935e+001
 4.158005120594816e+000	 1.278081929034749e+000	 1.064612809960148e+001
 4.145327010756916e+000	 1.318621998188129e+000	 1.065445808783113e+001
 4.132222040194548e+000	 1.359132447829537e+000	 1.066302689500479e+001
 4.118689179986493e+000	 1.399606887261122e+000	 1.067212020466137e+001
 4.104727522421621e+000	 1.440038876861606e+000	 1.068204049984507e+001
 4.090336282871229e+000	 1.480421930807344e+000	 1.069310720579787e+001
 4.075514801592793e+000	 1.520749519866490e+000	 1.070565679946737e+001
 4.060262545461995e+000	 1.561015074264399e+000	 1.072004288445680e+001
 4.044579109630118e+000	 1.601211986618317e+000	 1.073663623010252e+001
 4.206120442098111e+000	 1.203817189937011e+000	 1.058245216829373e+001
 4.194224515131673e+000	 1.244630755242650e+000	 1.062315699010329e+001
 4.181901701748377e+000	 1.285427227478289e+000	 1.063623160080047e+001
 4.169150729210273e+000	 1.326200285534745e+000	 1.064498476754841e+001
 4.155970442725177e+000	 1.366943553852095e+000	 1.065388944450450e+001
 4.142359807458537e+000	 1.407650605004339e+000	 1.066321750552685e+001
 4.128317910482487e+000	 1.448314962360879e+000	 1.067325775238444e+001
 4.113843962658969e+000	 1.488930102823224e+000	 1.068431607675019e+001
 4.098937300453829e+000	 1.529489459635205e+000	 1.069671558891301e+001
 4.083597387678820e+000	 1.569986425264854e+000	 1.071079671179323e+001
 4.067823817158510e+000	 1.610414354355949e+000	 1.072691723890342e+001
 4.230155416053255e+000	 1.210696145308922e+000	 1.057851122618122e+001
 4.218191512361147e+000	 1.251742930987919e+000	 1.061732969071782e+001
 4.205798282901285e+000	 1.292772525922139e+000	 1.062641676760352e+001
 4.192974447662922e+000	 1.333778572881774e+000	 1.063532201872297e+001
 4.179718845255070e+000	 1.374754659875128e+000	 1.064428674285747e+001
 4.166030434929832e+000	 1.415694322748053e+000	 1.065356908891068e+001
 4.151908298542613e+000	 1.456591047860634e+000	 1.066344426914769e+001
 4.137351642445994e+000	 1.497438274839530e+000	 1.067420474055625e+001
 4.122359799314199e+000	 1.538229399404250e+000	 1.068616035282020e+001
 4.106932229895052e+000	 1.578957776265499e+000	 1.069963846144667e+001
 4.091068524686397e+000	 1.619616722093591e+000	 1.071498400464572e+001
 4.254190390007903e+000	 1.217575100680821e+000	 1.057488272636849e+001
 4.242158509590039e+000	 1.258855106733357e+000	 1.060766010456658e+001
 4.229694864053536e+000	 1.300117824366298e+000	 1.061671701223932e+001
 4.216798166114866e+000	 1.341356860229215e+000	 1.062550907703631e+001
 4.203467247784224e+000	 1.382565765898637e+000	 1.063426383182290e+001
 4.189701062400377e+000	 1.423738040492267e+000	 1.064322578257179e+001
 4.175498686601996e+000	 1.464867133360872e+000	 1.065265664111437e+001
 4.160859322232306e+000	 1.505946446856261e+000	 1.066283552593997e+001
 4.145782298173907e+000	 1.546969339173622e+000	 1.067405912949060e+001
 4.130267072110688e+000	 1.587929127266333e+000	 1.068664185044898e+001
 4.114313232213778e+000	 1.628819089831244e+000	 1.070091588957503e+001
 4.278225363962058e+000	 1.224454056052707e+000	 1.057155147518364e+001
 4.266125506818345e+000	 1.265967282478963e+000	 1.059839387318436e+001
 4.253591445205132e+000	 1.307463122810768e+000	 1.060716588746316e+001
 4.240621884566104e+000	 1.348935147577068e+000	 1.061558520572373e+001
 4.227215650312640e+000	 1.390376871922621e+000	 1.062386566731690e+001
 4.213371689870172e+000	 1.431781758236981e+000	 1.063223821465225e+001
 4.199089074660639e+000	 1.473143218861593e+000	 1.064095114554403e+001
 4.184367002017906e+000	 1.514454618873418e+000	 1.065027033352133e+001
 4.169204797032950e+000	 1.555709278943322e+000	 1.066047941450636e+001
 4.153601914325729e+000	 1.596900478267356e+000	 1.067187993831506e+001
 4.137557939740653e+000	 1.638021457568906e+000	 1.068479148349100e+001
 4.302260337915721e+000	 1.231333011424581e+000	 1.056850263377491e+001
 4.290092504046069e+000	 1.273079458224736e+000	 1.058955906966413e+001
 4.277488026356076e+000	 1.314808421255548e+000	 1.059779708263159e+001
 4.264445603016635e+000	 1.356513434925334e+000	 1.060558969480462e+001
 4.250964052840319e+000	 1.398187977947081e+000	 1.061313712181041e+001
 4.237042317339218e+000	 1.439825475982193e+000	 1.062065681925309e+001
 4.222679462718540e+000	 1.481419304362796e+000	 1.062838375473936e+001
 4.207874681802794e+000	 1.522962790891000e+000	 1.063657064777464e+001
 4.192627295891330e+000	 1.564449218713350e+000	 1.064548817588993e+001
 4.176936756540175e+000	 1.605871829268570e+000	 1.065542514540922e+001
 4.160802647267024e+000	 1.647223825306579e+000	 1.066668862532401e+001
 4.326295311868889e+000	 1.238211966796443e+000	 1.056572170825463e+001
 4.314059501273209e+000	 1.280191633970678e+000	 1.058118400622802e+001
 4.301384607506363e+000	 1.322153719700637e+000	 1.058864441990798e+001
 4.288269321466461e+000	 1.364091722274012e+000	 1.059556186033847e+001
 4.274712455367261e+000	 1.405999083972017e+000	 1.060212298664702e+001
 4.260712944807515e+000	 1.447869193727904e+000	 1.060853184182436e+001
 4.246269850775702e+000	 1.489695389864481e+000	 1.061501014451719e+001
 4.231382361586969e+000	 1.531470962909008e+000	 1.062179754858811e+001
 4.216049794749046e+000	 1.573189158483706e+000	 1.062915186875847e+001
 4.200271598754028e+000	 1.614843180269973e+000	 1.063734927069937e+001
 4.184047354792891e+000	 1.656426193044263e+000	 1.064668442399258e+001
 3.951600279511499e+000	 1.564402515667893e+000	 1.075175421152699e+001
 3.935855846239047e+000	 1.603601807705202e+000	 1.074676257885847e+001
 3.919689736435062e+000	 1.642721026262243e+000	 1.074573384937502e+001
 3.903101939481164e+000	 1.681753623468193e+000	 1.074905496533963e+001
 3.886092575776805e+000	 1.720693026811100e+000	 1.075712757277768e+001
 3.868661897952027e+000	 1.759532642309953e+000	 1.077036787057845e+001
 3.850810291991065e+000	 1.798265857740103e+000	 1.078920642162136e+001
 3.832538278264387e+000	 1.836886045909251e+000	 1.081408792526650e+001
 3.813846512466861e+000	 1.875386567981045e+000	 1.084503366262222e+001
 3.794735786459812e+000	 1.913760776843247e+000	 1.083783513031371e+001
 3.775207029014879e+000	 1.952002020517314e+000	 1.083369350523920e+001
 3.974844987041911e+000	 1.573604883405484e+000	 1.075170206189327e+001
 3.959007939455936e+000	 1.613034759513854e+000	 1.074596193310621e+001
 3.942746734888187e+000	 1.652384091121428e+000	 1.074408402781072e+001
 3.926061362657818e+000	 1.691646291840492e+000	 1.074648051199342e+001
 3.908951943872515e+000	 1.730814750497263e+000	 1.075357885861270e+001
 3.891418732648380e+000	 1.769882834322602e+000	 1.076582167900351e+001
 3.873462117240142e+000	 1.808843892196423e+000	 1.078366651499316e+001
 3.855082621079272e+000	 1.847691257942942e+000	 1.080758559107194e+001
 3.836280903717666e+000	 1.886418253673828e+000	 1.082570994868863e+001
 3.817057761674656e+000	 1.925018193176183e+000	 1.081880532360863e+001
 3.797414129185245e+000	 1.963484385342178e+000	 1.081513552908790e+001
 3.998089694571819e+000	 1.582807251143084e+000	 1.074911003738356e+001
 3.982160032672422e+000	 1.622467711322332e+000	 1.074302786346625e+001
 3.965803733341005e+000	 1.662047155980281e+000	 1.074070422879830e+001
 3.949020785834266e+000	 1.701538960212334e+000	 1.074257634633249e+001
 3.931811311968122e+000	 1.740936474182871e+000	 1.074909734313912e+001
 3.914175567344729e+000	 1.780233026334630e+000	 1.076073607432869e+001
 3.896113942489314e+000	 1.819421926652085e+000	 1.077797689636615e+001
 3.877626963894351e+000	 1.858496469975968e+000	 1.080131939912362e+001
 3.858715294968766e+000	 1.897449939365969e+000	 1.080807011753748e+001
 3.839379736889895e+000	 1.936275609508530e+000	 1.080187143223050e+001
 3.819621229356107e+000	 1.974966750166537e+000	 1.079908424357709e+001
 4.021334402101221e+000	 1.592009618880696e+000	 1.074406082122638e+001
 4.005312125888501e+000	 1.631900663130633e+000	 1.073803638922108e+001
 3.988860731793518e+000	 1.671710220838802e+000	 1.073566375701086e+001
 3.971980209010510e+000	 1.711431628583718e+000	 1.073740501064177e+001
 3.954670680063623e+000	 1.751058197867924e+000	 1.074373876143640e+001
 3.936932402041073e+000	 1.790583218346036e+000	 1.075515994264775e+001
 3.918765767738582e+000	 1.829999961107087e+000	 1.077217956417892e+001
 3.900171306709629e+000	 1.869301682008328e+000	 1.079532442471815e+001
 3.881149686220162e+000	 1.908481625057468e+000	 1.079211608116541e+001
 3.861701712105532e+000	 1.947533025840290e+000	 1.078702870177877e+001
 3.841828329527464e+000	 1.986449114990393e+000	 1.078552823767017e+001
 4.044579109630118e+000	 1.601211986618317e+000	 1.073663623010252e+001
 4.028464219104175e+000	 1.641333614938760e+000	 1.073106282758970e+001
 4.011917730245727e+000	 1.681373285696993e+000	 1.072903137978511e+001
 3.994939632186549e+000	 1.721324296954644e+000	 1.073102867476642e+001
 3.977530048159019e+000	 1.761179921552422e+000	 1.073755864113639e+001
 3.959689236737412e+000	 1.800933410356818e+000	 1.074914212761976e+001
 3.941417592987945e+000	 1.840577995561430e+000	 1.076631663939358e+001
 3.922715649525100e+000	 1.880106894040020e+000	 1.078506164622954e+001
 3.903584077471856e+000	 1.919513310748324e+000	 1.077785020354033e+001
 3.884023687321565e+000	 1.958790442171460e+000	 1.077427299415999e+001
 3.864035429699317e+000	 1.997931479813745e+000	 1.077445688061155e+001
 4.067823817158510e+000	 1.610414354355949e+000	 1.072691723890342e+001
 4.051616312319444e+000	 1.650766566746712e+000	 1.072218181378651e+001
 4.034974728697631e+000	 1.691036350554853e+000	 1.072087534247376e+001
 4.017899055362383e+000	 1.731216965325112e+000	 1.072350914675291e+001
 4.000389416254310e+000	 1.771301645236365e+000	 1.073061230835042e+001
 3.982446071433747e+000	 1.811283602366980e+000	 1.074273143168152e+001
 3.964069418237406e+000	 1.851156030015114e+000	 1.076043036199513e+001
 3.945259992340769e+000	 1.890912106071048e+000	 1.077073686421810e+001
 3.926018468723843e+000	 1.930544996438538e+000	 1.076527528768798e+001
 3.906345662537992e+000	 1.970047858502042e+000	 1.076360076997898e+001
 3.886242529871669e+000	 2.009413844636593e+000	 1.076586029963286e+001
 4.091068524686397e+000	 1.619616722093591e+000	 1.071498400464572e+001
 4.074768405534308e+000	 1.660199518554488e+000	 1.071146732039646e+001
 4.058031727149230e+000	 1.700699415412381e+000	 1.071126338327463e+001
 4.040858478538012e+000	 1.741109633695122e+000	 1.071490788312746e+001
 4.023248784349496e+000	 1.781423368919754e+000	 1.072295489339427e+001
 4.005202906130077e+000	 1.821633794376520e+000	 1.073597661721865e+001
 3.986721243486961e+000	 1.861734064468140e+000	 1.075456308761013e+001
 3.967804335156632e+000	 1.901717318101410e+000	 1.075771894460290e+001
 3.948452859976128e+000	 1.941576682128109e+000	 1.075439456321860e+001
 3.928667637754816e+000	 1.981305274832036e+000	 1.075500907153044e+001
 3.908449630044514e+000	 2.020896209458937e+000	 1.075972935841928e+001
 4.114313232213778e+000	 1.628819089831244e+000	 1.070091588957503e+001
 4.097920498748768e+000	 1.669632470362090e+000	 1.069899267609339e+001
 4.081088725600523e+000	 1.710362480269578e+000	 1.070026274755708e+001
 4.063817901713437e+000	 1.751002302064674e+000	 1.070528599882594e+001
 4.046108152444578e+000	 1.791545092602587e+000	 1.071464133631915e+001
 4.027959740826403e+000	 1.831983986385437e+000	 1.072892640769695e+001
 4.009373068736612e+000	 1.872312098920506e+000	 1.074875728423992e+001
 3.990348677972691e+000	 1.912522530131106e+000	 1.074601757390996e+001
 3.970887251228707e+000	 1.952608367817037e+000	 1.074521167427662e+001
 3.950989612972036e+000	 1.992562691161441e+000	 1.074849550636689e+001
 3.930656730217855e+000	 2.032378574280777e+000	 1.075605563630575e+001
 4.137557939740653e+000	 1.638021457568906e+000	 1.068479148349100e+001
 4.121072591962822e+000	 1.679065422169517e+000	 1.068483058372745e+001
 4.104145724051513e+000	 1.720025545126444e+000	 1.068794020170546e+001
 4.086777324888655e+000	 1.760894970433770e+000	 1.069470427678914e+001
 4.068967520539556e+000	 1.801666816284866e+000	 1.070572639225621e+001
 4.050716575522725e+000	 1.842334178393733e+000	 1.072162948875571e+001
 4.032024893986358e+000	 1.882890133372212e+000	 1.073758779807550e+001
 4.012893020788947e+000	 1.923327742160135e+000	 1.073564269481179e+001
 3.993321642481584e+000	 1.963640053505323e+000	 1.073773066789640e+001
 3.973311588189653e+000	 2.003820107490257e+000	 1.074405823142080e+001
 3.952863830391693e+000	 2.043860939102113e+000	 1.075483140817440e+001
 4.160802647267024e+000	 1.647223825306579e+000	 1.066668862532401e+001
 4.144224685176470e+000	 1.688498373976768e+000	 1.066905313780616e+001
 4.127202722502196e+000	 1.729688609982978e+000	 1.067436204649867e+001
 4.109736748063670e+000	 1.770787638802406e+000	 1.068322317723634e+001
 4.091826888634429e+000	 1.811788539966589e+000	 1.069626463658188e+001
 4.073473410219042e+000	 1.852684370401406e+000	 1.071413450926426e+001
 4.054676719236201e+000	 1.893468167823260e+000	 1.072541582386345e+001
 4.035437363605397e+000	 1.934132954188499e+000	 1.072660449897245e+001
 4.015756033734755e+000	 1.974671739192966e+000	 1.073195598274831e+001
 3.995633563407664e+000	 2.015077523818485e+000	 1.074169593765868e+001
 3.975070930566027e+000	 2.055343303922946e+000	 1.075604962502595e+001
 4.184047354792891e+000	 1.656426193044263e+000	 1.064668442399258e+001
 4.167376778389714e+000	 1.697931325783844e+000	 1.065173184139286e+001
 4.150259720952576e+000	 1.739351674839182e+000	 1.065959413004353e+001
 4.132696171238480e+000	 1.780680307170584e+000	 1.067090284662986e+001
 4.114686256729197e+000	 1.821910263647758e+000	 1.068631046991111e+001
 4.096230244915355e+000	 1.863034562408458e+000	 1.070649008234341e+001
 4.077328544486139e+000	 1.904046202273650e+000	 1.071422618492888e+001
 4.057981706422046e+000	 1.944938166216197e+000	 1.071891342013113e+001
 4.038190424988224e+000	 1.985703424879968e+000	 1.072789243825998e+001
 4.017955538626073e+000	 2.026334940146125e+000	 1.074140783524683e+001
 3.997278030740859e+000	 2.066825668743275e+000	 1.075970389519857e+001
 3.775207029014879e+000	 1.952002020517314e+000	 1.083369350523920e+001
 3.755261306457614e+000	 1.990103645605905e+000	 1.085361508938020e+001
 3.734899823209243e+000	 2.028059000775460e+000	 1.086478545665906e+001
 3.714123922224505e+000	 2.065861440270376e+000	 1.087057690018195e+001
 3.692935085323902e+000	 2.103504327454524e+000	 1.087383519479615e+001
 3.671334933419179e+000	 2.140981038377074e+000	 1.087484918272804e+001
 3.649325226630563e+000	 2.178284965358760e+000	 1.087393422193195e+001
 3.626907864294588e+000	 2.215409520594832e+000	 1.087143207715169e+001
 3.604084884861436e+000	 2.252348139770829e+000	 1.086771074250642e+001
 3.580858465680939e+000	 2.289094285687271e+000	 1.086316419485231e+001
 3.557230922676468e+000	 2.325641451889307e+000	 1.085821207737228e+001
 3.797414129185245e+000	 1.963484385342178e+000	 1.081513552908790e+001
 3.777351078847552e+000	 2.001810137636888e+000	 1.083221541119852e+001
 3.756869822167703e+000	 2.039988759601311e+000	 1.084896026910021e+001
 3.735971710000170e+000	 2.078013566387164e+000	 1.085715115974126e+001
 3.714658232882046e+000	 2.115877882319285e+000	 1.085919028320768e+001
 3.692931021259852e+000	 2.153575044482422e+000	 1.085902206561640e+001
 3.670791845607464e+000	 2.191098406328611e+000	 1.085697630442669e+001
 3.648242616433983e+000	 2.228441341301309e+000	 1.085340973621725e+001
 3.625285384180478e+000	 2.265597246472443e+000	 1.084870584765818e+001
 3.601922339004716e+000	 2.302559546188413e+000	 1.084327461585793e+001
 3.578155810453152e+000	 2.339321695721108e+000	 1.083755217754033e+001
 3.819621229356107e+000	 1.974966750166537e+000	 1.079908424357709e+001
 3.799440851238083e+000	 2.013516629667467e+000	 1.081347510716759e+001
 3.778839821126840e+000	 2.051918518426859e+000	 1.082774849288906e+001
 3.757819497776587e+000	 2.090165692503749e+000	 1.084176494718842e+001
 3.736381380441009e+000	 2.128251437183941e+000	 1.084716430244734e+001
 3.714527109101400e+000	 2.166169050587766e+000	 1.084596602688258e+001
 3.692258464585285e+000	 2.203911847298559e+000	 1.084293281156614e+001
 3.669577368574334e+000	 2.241473162007984e+000	 1.083843633787694e+001
 3.646485883500498e+000	 2.278846353174353e+000	 1.083287556991139e+001
 3.622986212329490e+000	 2.316024806689953e+000	 1.082667648190011e+001
 3.599080698230837e+000	 2.353001939553409e+000	 1.082029171303432e+001
 3.841828329527464e+000	 1.986449114990393e+000	 1.078552823767017e+001
 3.821530623629203e+000	 2.025223121697641e+000	 1.079738057193517e+001
 3.800809820086653e+000	 2.063848277252102e+000	 1.080933075814147e+001
 3.779667285553756e+000	 2.102317818620131e+000	 1.082124616819377e+001
 3.758104528000789e+000	 2.140624992048494e+000	 1.083299487895490e+001
 3.736123196943819e+000	 2.178763056693107e+000	 1.083574308065099e+001
 3.713725083564023e+000	 2.216725288268604e+000	 1.083186361682510e+001
 3.690912120715638e+000	 2.254504982714856e+000	 1.082656957708255e+001
 3.667686382821500e+000	 2.292095459876560e+000	 1.082027538918314e+001
 3.644050085655257e+000	 2.329490067191890e+000	 1.081342302277972e+001
 3.620005586009521e+000	 2.366682183386207e+000	 1.080648162995566e+001
 3.864035429699317e+000	 1.997931479813745e+000	 1.077445688061155e+001
 3.843620396020914e+000	 2.036929613727413e+000	 1.078391904167317e+001
 3.822779819047144e+000	 2.075778036077042e+000	 1.079369219162309e+001
 3.801515073331678e+000	 2.114469944736309e+000	 1.080365040900027e+001
 3.779827675561385e+000	 2.152998546912943e+000	 1.081366839393058e+001
 3.757719284787112e+000	 2.191357062798445e+000	 1.082362178514345e+001
 3.735191702543681e+000	 2.229538729238746e+000	 1.082382972998527e+001
 3.712246872857898e+000	 2.267536803421925e+000	 1.081786834154641e+001
 3.688886882143481e+000	 2.305344566579064e+000	 1.081096203369967e+001
 3.665113958982019e+000	 2.342955327694224e+000	 1.080356877122114e+001
 3.640930473789205e+000	 2.380362427219501e+000	 1.079617423098014e+001
 3.886242529871669e+000	 2.009413844636593e+000	 1.076586029963286e+001
 3.865710168413219e+000	 2.048636105756780e+000	 1.077307857003410e+001
 3.844749818008310e+000	 2.087707794901678e+000	 1.078081879637356e+001
 3.823362861110350e+000	 2.126622070852283e+000	 1.078896164582537e+001
 3.801550823122800e+000	 2.165372101777288e+000	 1.079738832481266e+001
 3.779315372631278e+000	 2.203951068903780e+000	 1.080598089178451e+001
 3.756658321524257e+000	 2.242352170208984e+000	 1.081462257092897e+001
 3.733581625001110e+000	 2.280568624129190e+000	 1.081239267766252e+001
 3.710087381466441e+000	 2.318593673281866e+000	 1.080499344433052e+001
 3.686177832309777e+000	 2.356420588196956e+000	 1.079716952564591e+001
 3.661855361569890e+000	 2.394042671053293e+000	 1.078942313659866e+001
 3.908449630044514e+000	 2.020896209458937e+000	 1.075972935841928e+001
 3.887799940806113e+000	 2.060342597785744e+000	 1.076484800492714e+001
 3.866719816970153e+000	 2.099637553726010e+000	 1.077069742681243e+001
 3.845210648889776e+000	 2.138774196968054e+000	 1.077716476267980e+001
 3.823273970685031e+000	 2.177745656641531e+000	 1.078413760907188e+001
 3.800911460476317e+000	 2.216545075009111e+000	 1.079150432916066e+001
 3.778124940505753e+000	 2.255165611179320e+000	 1.079915436241497e+001
 3.754916377145279e+000	 2.293600444836654e+000	 1.080697853441300e+001
 3.731287880790379e+000	 2.331842779984965e+000	 1.080242874013837e+001
 3.707241705638529e+000	 2.369885848700085e+000	 1.079428231421540e+001
 3.682780249351574e+000	 2.407722914887582e+000	 1.078628324767930e+001
 3.930656730217855e+000	 2.032378574280777e+000	 1.075605563630575e+001
 3.909889713199599e+000	 2.072049089814303e+000	 1.075921696608160e+001
 3.888689815932672e+000	 2.111567312550038e+000	 1.076331576468879e+001
 3.867058436669951e+000	 2.150926323083620e+000	 1.076824552572372e+001
 3.844997118248081e+000	 2.190119211505670e+000	 1.077390012042988e+001
 3.822507548322229e+000	 2.229139081114438e+000	 1.078017410245771e+001
 3.799591559488167e+000	 2.267979052149753e+000	 1.078696301364031e+001
 3.776251129290399e+000	 2.306632265544314e+000	 1.079416368995545e+001
 3.752488380115299e+000	 2.345091886688361e+000	 1.080167456683216e+001
 3.728305578968277e+000	 2.383351109203611e+000	 1.079496536009243e+001
 3.703705137134258e+000	 2.421403158722369e+000	 1.078681070929850e+001
 3.952863830391693e+000	 2.043860939102113e+000	 1.075483140817440e+001
 3.931979485593676e+000	 2.083755581842459e+000	 1.075617582336651e+001
 3.910659814895868e+000	 2.123497071373763e+000	 1.075866229584176e+001
 3.888906224450881e+000	 2.163078449198983e+000	 1.076219055848722e+001
 3.866720265811948e+000	 2.202492766369705e+000	 1.076666064256004e+001
 3.844103636169015e+000	 2.241733087219763e+000	 1.077197317866927e+001
 3.821058178471498e+000	 2.280792493120281e+000	 1.077802969881333e+001
 3.797585881436475e+000	 2.319664086252171e+000	 1.078473293864419e+001
 3.773688879441198e+000	 2.358340993392055e+000	 1.079198713911791e+001
 3.749369452299018e+000	 2.396816369707535e+000	 1.079927804787376e+001
 3.724630024917941e+000	 2.435083402557653e+000	 1.079106287579130e+001
 3.975070930566027e+000	 2.055343303922946e+000	 1.075604962502595e+001
 3.954069257988343e+000	 2.095462073870210e+000	 1.075571567583701e+001
 3.932629813859740e+000	 2.135426830197184e+000	 1.075672628773980e+001
 3.910754012232562e+000	 2.175230575314143e+000	 1.075898731792144e+001
 3.888443413376633e+000	 2.214866321233638e+000	 1.076240484366981e+001
 3.865699724016673e+000	 2.254327093325085e+000	 1.076688545973067e+001
 3.842524797455749e+000	 2.293605934090908e+000	 1.077233657675962e+001
 3.818920633583505e+000	 2.332695906960225e+000	 1.077866672004130e+001
 3.794889378768076e+000	 2.371590100096045e+000	 1.078578582763535e+001
 3.770433325630757e+000	 2.410281630211856e+000	 1.079360554709958e+001
 3.745554912702627e+000	 2.448763646393434e+000	 1.079909827697329e+001
 3.997278030740859e+000	 2.066825668743275e+000	 1.075970389519857e+001
 3.976159030383603e+000	 2.107168565897559e+000	 1.075782833147918e+001
 3.954599812824290e+000	 2.147356589020302e+000	 1.075749776776889e+001
 3.932601800014996e+000	 2.187382701429100e+000	 1.075862407124798e+001
 3.910166560942135e+000	 2.227239876097466e+000	 1.076111925193039e+001
 3.887295811865206e+000	 2.266921099430403e+000	 1.076489575654829e+001
 3.863991416440920e+000	 2.306419375061632e+000	 1.076986676357164e+001
 3.840255385731489e+000	 2.345727727668477e+000	 1.077594647853423e+001
 3.816089878095935e+000	 2.384839206800333e+000	 1.078305042882662e+001
 3.791497198963489e+000	 2.423746890716575e+000	 1.079109575710625e+001
 3.766479800488311e+000	 2.462443890229713e+000	 1.080000151246958e+001
 3.557230922676468e+000	 2.325641451889307e+000	 1.085821207737228e+001
 3.533204709905683e+000	 2.361983166298250e+000	 1.084780374233265e+001
 3.508782419009181e+000	 2.398112994838169e+000	 1.084651426214935e+001
 3.483966778545826e+000	 2.434024545055288e+000	 1.085524482265597e+001
 3.458760653213695e+000	 2.469711469727997e+000	 1.087491430154497e+001
 3.433167042958189e+000	 2.505167470460531e+000	 1.089691126419516e+001
 3.407189081967097e+000	 2.540386301257156e+000	 1.087234359379235e+001
 3.380830037553035e+000	 2.575361772072694e+000	 1.085489676826598e+001
 3.354093308923844e+000	 2.610087752335311e+000	 1.084504219144693e+001
 3.326982425841762e+000	 2.644558174437429e+000	 1.084325508443913e+001
 3.299501047172259e+000	 2.678767037190700e+000	 1.085001391620976e+001
 3.578155810453152e+000	 2.339321695721108e+000	 1.083755217754033e+001
 3.553988267019065e+000	 2.375877184920824e+000	 1.083310912834373e+001
 3.529422315587982e+000	 2.412219541864151e+000	 1.083724689304839e+001
 3.504460700769116e+000	 2.448342336494647e+000	 1.085085144362868e+001
 3.479106304111708e+000	 2.484239184254102e+000	 1.087482732866946e+001
 3.453362143207898e+000	 2.519903749697368e+000	 1.087481259063199e+001
 3.427231370681874e+000	 2.555329750087555e+000	 1.085432084351938e+001
 3.400717273065733e+000	 2.590510958967458e+000	 1.084034384105427e+001
 3.373823269562664e+000	 2.625441209703058e+000	 1.083333237154351e+001
 3.346552910698208e+000	 2.660114398994962e+000	 1.083374167900347e+001
 3.318909876860575e+000	 2.694524490353718e+000	 1.084203091623040e+001
 3.599080698230837e+000	 2.353001939553409e+000	 1.082029171303432e+001
 3.574771824133441e+000	 2.389771203543980e+000	 1.082131266870298e+001
 3.550062212167763e+000	 2.426326088890770e+000	 1.083037496234445e+001
 3.524954622993362e+000	 2.462660127934669e+000	 1.084834970129154e+001
 3.499451955010643e+000	 2.498766898780867e+000	 1.087612746279586e+001
 3.473557243458482e+000	 2.534640028934828e+000	 1.085574585946448e+001
 3.447273659397470e+000	 2.570273198918516e+000	 1.083886241396200e+001
 3.420604508579189e+000	 2.605660145862691e+000	 1.082789112132889e+001
 3.393553230202166e+000	 2.640794667071146e+000	 1.082326241744403e+001
 3.366123395555251e+000	 2.675670623552683e+000	 1.082541183279327e+001
 3.338318706549391e+000	 2.710281943516740e+000	 1.083477946776541e+001
 3.620005586009521e+000	 2.366682183386207e+000	 1.080648162995566e+001
 3.595555381248813e+000	 2.403665222167719e+000	 1.081247340630240e+001
 3.570702108748525e+000	 2.440432635918028e+000	 1.082596545190136e+001
 3.545448545218563e+000	 2.476977919375354e+000	 1.084781435508513e+001
 3.519797605910497e+000	 2.513294613308290e+000	 1.085837618044697e+001
 3.493752343709944e+000	 2.549376308172914e+000	 1.083973224917586e+001
 3.467315948113889e+000	 2.585216647750037e+000	 1.082599713133303e+001
 3.440491744093400e+000	 2.620809332758388e+000	 1.081757495513655e+001
 3.413283190842348e+000	 2.656148124439576e+000	 1.081487606344777e+001
 3.385693880412890e+000	 2.691226848110591e+000	 1.081831653317741e+001
 3.357727536238708e+000	 2.726039396679764e+000	 1.082831767255659e+001
 3.640930473789205e+000	 2.380362427219501e+000	 1.079617423098014e+001
 3.616338938365180e+000	 2.417559240792040e+000	 1.080665155389912e+001
 3.591342005330266e+000	 2.454539182945924e+000	 1.082408632864828e+001
 3.565942467444717e+000	 2.491295710816703e+000	 1.084932096671824e+001
 3.540143256811272e+000	 2.527822327836373e+000	 1.084216598578530e+001
 3.513947443962279e+000	 2.564112587411625e+000	 1.082679338130208e+001
 3.487358236831127e+000	 2.600160096582118e+000	 1.081575408866203e+001
 3.460378979608368e+000	 2.635958519654554e+000	 1.080943178147260e+001
 3.433013151483213e+000	 2.671501581808349e+000	 1.080821696539055e+001
 3.405264365271126e+000	 2.706783072668687e+000	 1.081250652019274e+001
 3.377136365928527e+000	 2.741796849842790e+000	 1.082270321877407e+001
 3.661855361569890e+000	 2.394042671053293e+000	 1.078942313659866e+001
 3.637122495482541e+000	 2.431453259416944e+000	 1.080390846069075e+001
 3.611981901912988e+000	 2.468645729974458e+000	 1.082480651643484e+001
 3.586436389671830e+000	 2.505613502258716e+000	 1.084545510999872e+001
 3.560488907712967e+000	 2.542350042365116e+000	 1.082950066807971e+001
 3.534142544215492e+000	 2.578848866650962e+000	 1.081695130777313e+001
 3.507400525549186e+000	 2.615103545414761e+000	 1.080816263817201e+001
 3.480266215124093e+000	 2.651107706551186e+000	 1.080349812962523e+001
 3.452743112124759e+000	 2.686855039177464e+000	 1.080332870288666e+001
 3.424834850129957e+000	 2.722339297226971e+000	 1.080803229361065e+001
 3.396545195618846e+000	 2.757554303005819e+000	 1.081799339283264e+001
 3.682780249351574e+000	 2.407722914887582e+000	 1.078628324767930e+001
 3.657906052600898e+000	 2.445347278042430e+000	 1.080430658003011e+001
 3.632621798496690e+000	 2.482752277003630e+000	 1.082819586884599e+001
 3.606930311899897e+000	 2.519931293701392e+000	 1.083341816841516e+001
 3.580834558615585e+000	 2.556877756894518e+000	 1.082039544598326e+001
 3.554337644469580e+000	 2.593585145890925e+000	 1.081022849868593e+001
 3.527442814268067e+000	 2.630046994247966e+000	 1.080325238391592e+001
 3.500153450640573e+000	 2.666256893448284e+000	 1.079981061661045e+001
 3.472473072766985e+000	 2.702208496546921e+000	 1.080025478149413e+001
 3.444405334989385e+000	 2.737895521785442e+000	 1.080494411976277e+001
 3.415954025309669e+000	 2.773311756168852e+000	 1.081424509080528e+001
 3.703705137134258e+000	 2.421403158722369e+000	 1.078681070929850e+001
 3.678689609720249e+000	 2.459241296668499e+000	 1.080790943823443e+001
 3.653261695081372e+000	 2.496858824033440e+000	 1.083432514293831e+001
 3.627424234128919e+000	 2.534249085144732e+000	 1.082539325909480e+001
 3.601180209519121e+000	 2.571405471424580e+000	 1.081486610823090e+001
 3.574532744724543e+000	 2.608321425131511e+000	 1.080664783049171e+001
 3.547485102987768e+000	 2.644990443081731e+000	 1.080105317466283e+001
 3.520040686157808e+000	 2.681406080345850e+000	 1.079840594469381e+001
 3.492203033409894e+000	 2.717561953916721e+000	 1.079903863480674e+001
 3.463975819849409e+000	 2.753451746344100e+000	 1.080329203813535e+001
 3.435362855000992e+000	 2.789069209331887e+000	 1.081151482944976e+001
 3.724630024917941e+000	 2.435083402557653e+000	 1.079106287579130e+001
 3.699473166840595e+000	 2.473135315295151e+000	 1.081478160444587e+001
 3.673901591667034e+000	 2.510965371063887e+000	 1.083132992937268e+001
 3.647918156358897e+000	 2.548566876588736e+000	 1.082138968630049e+001
 3.621525860423578e+000	 2.585933185955301e+000	 1.081292899762598e+001
 3.594727844980383e+000	 2.623057704372725e+000	 1.080623257458157e+001
 3.567527391708290e+000	 2.659933891916058e+000	 1.080159509702392e+001
 3.539927921675802e+000	 2.696555267243882e+000	 1.079932089899578e+001
 3.511932994053483e+000	 2.732915411286862e+000	 1.079972362647557e+001
 3.483546304710029e+000	 2.769007970902947e+000	 1.080312586774133e+001
 3.454771684692816e+000	 2.804826662494924e+000	 1.080985875686354e+001
 3.745554912702627e+000	 2.448763646393434e+000	 1.079909827697329e+001
 3.720256723961937e+000	 2.487029333922384e+000	 1.082498866150237e+001
 3.694541488253678e+000	 2.525071918094974e+000	 1.082919144651326e+001
 3.668412078589829e+000	 2.562884668033404e+000	 1.082141744946563e+001
 3.641871511328956e+000	 2.600460900486681e+000	 1.081460099556348e+001
 3.614922945237099e+000	 2.637793983614562e+000	 1.080900638625463e+001
 3.587569680429634e+000	 2.674877340750945e+000	 1.080490846880881e+001
 3.559815157194549e+000	 2.711704454142379e+000	 1.080259234517745e+001
 3.531662954697753e+000	 2.748268868657346e+000	 1.080235305216258e+001
 3.503116789571246e+000	 2.784564195461981e+000	 1.080449521327881e+001
 3.474180514385142e+000	 2.820584115657964e+000	 1.080933266278155e+001
 3.766479800488311e+000	 2.462443890229713e+000	 1.080000151246958e+001
 3.741040281084275e+000	 2.500923352550201e+000	 1.083774203996134e+001
 3.715181384841301e+000	 2.539178465126698e+000	 1.083151232150911e+001
 3.688906000821718e+000	 2.577202459478735e+000	 1.082548722388392e+001
 3.662217162235256e+000	 2.614988615018722e+000	 1.081989950706911e+001
 3.635118045494689e+000	 2.652530262857025e+000	 1.081499329405394e+001
 3.607611969151799e+000	 2.689820789586394e+000	 1.081102383260337e+001
 3.579702392714055e+000	 2.726853641041346e+000	 1.080825722720311e+001
 3.551392915342706e+000	 2.763622326028174e+000	 1.080697014142931e+001
 3.522687274433060e+000	 2.800120420021203e+000	 1.080744947108420e+001
 3.493589344077969e+000	 2.836341568821007e+000	 1.080999198853072e+001
 3.299501047172259e+000	 2.678767037190700e+000	 1.085001391620976e+001
 3.271652959324307e+000	 2.712708409240331e+000	 1.084292771563802e+001
 3.243442074581433e+000	 2.746376432436797e+000	 1.083353872621061e+001
 3.214872429326423e+000	 2.779765325159458e+000	 1.082201036601838e+001
 3.185948182162390e+000	 2.812869385586999e+000	 1.080851751462187e+001
 3.156673611930152e+000	 2.845682994912843e+000	 1.079324622721374e+001
 3.127053115624469e+000	 2.878200620501056e+000	 1.077639342226955e+001
 3.097091206211275e+000	 2.910416818979071e+000	 1.077102314270962e+001
 3.066792510348126e+000	 2.942326239263587e+000	 1.076203967906321e+001
 3.036161766010287e+000	 2.973923625516153e+000	 1.074939093611548e+001
 3.005203820025000e+000	 3.005203820025000e+000	 1.073414636039321e+001
 3.318909876860575e+000	 2.694524490353718e+000	 1.084203091623040e+001
 3.290897976731710e+000	 2.728665517534071e+000	 1.083096617383612e+001
 3.262521145608556e+000	 2.762531587926648e+000	 1.081821667495268e+001
 3.233783443617327e+000	 2.796116885901280e+000	 1.080397490353977e+001
 3.204689053823508e+000	 2.829415676096522e+000	 1.078844440540369e+001
 3.175242280237568e+000	 2.862422306653998e+000	 1.077183946847648e+001
 3.145447545718943e+000	 2.895131212392854e+000	 1.075438477687971e+001
 3.115309389780425e+000	 2.927536917920681e+000	 1.074089688354585e+001
 3.084832466295200e+000	 2.959634040677222e+000	 1.073439448763648e+001
 3.054021541108977e+000	 2.991417293907328e+000	 1.072483599883492e+001
 3.022881489559751e+000	 3.022881489559750e+000	 1.071333649797209e+001
 3.338318706549391e+000	 2.710281943516740e+000	 1.083477946776541e+001
 3.310142994139513e+000	 2.744622625827627e+000	 1.082013041170142e+001
 3.281600216635979e+000	 2.778686743416161e+000	 1.080440464522594e+001
 3.252694457908433e+000	 2.812468446642638e+000	 1.078782356280985e+001
 3.223429925484728e+000	 2.845961966605489e+000	 1.077061922925146e+001
 3.193810948544985e+000	 2.879161618394527e+000	 1.075303402618824e+001
 3.163841975813317e+000	 2.912061804283989e+000	 1.073532027267749e+001
 3.133527573349372e+000	 2.944657016861626e+000	 1.071773982062471e+001
 3.102872422241972e+000	 2.976941842090218e+000	 1.070985874893079e+001
 3.071881316207269e+000	 3.008910962297919e+000	 1.070362313882614e+001
 3.040559159093999e+000	 3.040559159093999e+000	 1.069608341185910e+001
 3.357727536238708e+000	 2.726039396679764e+000	 1.082831767255659e+001
 3.329388011547718e+000	 2.760579734121002e+000	 1.081047090773799e+001
 3.300679287663704e+000	 2.794841898905338e+000	 1.079214560370848e+001
 3.271605472199738e+000	 2.828820007383532e+000	 1.077359191411253e+001
 3.242170797146046e+000	 2.862508257113894e+000	 1.075507027945162e+001
 3.212379616852403e+000	 2.895900930134434e+000	 1.073685103994082e+001
 3.182236405907592e+000	 2.928992396174467e+000	 1.071921402270631e+001
 3.151745756918122e+000	 2.961777115801907e+000	 1.070244810416363e+001
 3.120912378188446e+000	 2.994249643502573e+000	 1.068859178514903e+001
 3.089741091305160e+000	 3.026404630687924e+000	 1.068590343492581e+001
 3.058236828627750e+000	 3.058236828627750e+000	 1.068252999347045e+001
 3.377136365928527e+000	 2.741796849842790e+000	 1.082270321877407e+001
 3.348633028956324e+000	 2.776536842414193e+000	 1.080203789888062e+001
 3.319758358691731e+000	 2.810997054394177e+000	 1.078148244440284e+001
 3.290516486491244e+000	 2.845171568123964e+000	 1.076131562075562e+001
 3.260911668807468e+000	 2.879054547621743e+000	 1.074182610473627e+001
 3.230948285159820e+000	 2.912640241873716e+000	 1.072331206383402e+001
 3.200630836001766e+000	 2.945922988064284e+000	 1.070608071014059e+001
 3.169963940486670e+000	 2.978897214741522e+000	 1.069044782976260e+001
 3.138952334134620e+000	 3.011557444914289e+000	 1.067673728871411e+001
 3.107600866402651e+000	 3.043898299077346e+000	 1.067182898157148e+001
 3.075914498161000e+000	 3.075914498161000e+000	 1.067282029093662e+001
 3.396545195618846e+000	 2.757554303005819e+000	 1.081799339283264e+001
 3.367878046365330e+000	 2.792493950707203e+000	 1.079488138739683e+001
 3.338837429720059e+000	 2.827152209882678e+000	 1.077245799071245e+001
 3.309427500782953e+000	 2.861523128863934e+000	 1.075103043641316e+001
 3.279652540468988e+000	 2.895600838129032e+000	 1.073091550198484e+001
 3.249516953467239e+000	 2.929379553612375e+000	 1.071243905463243e+001
 3.219025266095842e+000	 2.962853579953443e+000	 1.069593557199631e+001
 3.188182124055021e+000	 2.996017313680475e+000	 1.068174763867911e+001
 3.156992290080494e+000	 3.028865246325366e+000	 1.067022541962215e+001
 3.125460641499743e+000	 3.061391967466182e+000	 1.066172611144554e+001
 3.093592167693749e+000	 3.093592167693749e+000	 1.066709947605328e+001
 3.415954025309669e+000	 2.773311756168852e+000	 1.081424509080528e+001
 3.387123063774741e+000	 2.808451059000032e+000	 1.078905114755344e+001
 3.357916500748686e+000	 2.843307365370840e+000	 1.076511499744723e+001
 3.328338515074863e+000	 2.877874689603440e+000	 1.074277220255811e+001
 3.298393412130610e+000	 2.912147128635763e+000	 1.072236750917436e+001
 3.268085621774659e+000	 2.946118865350409e+000	 1.070425436032624e+001
 3.237419696189817e+000	 2.979784171841942e+000	 1.068879438339695e+001
 3.206400307623170e+000	 3.013137412618761e+000	 1.067635685384081e+001
 3.175032246026069e+000	 3.046173047735802e+000	 1.066731813610837e+001
 3.143320416596434e+000	 3.078885635854433e+000	 1.066206110295265e+001
 3.111269837226000e+000	 3.111269837226000e+000	 1.066551381235910e+001
 3.435362855000992e+000	 2.789069209331887e+000	 1.081151482944976e+001
 3.406368081184549e+000	 2.824408167292675e+000	 1.078459673205740e+001
 3.376995571777615e+000	 2.859462520858665e+000	 1.075949615276132e+001
 3.347249529366973e+000	 2.894226250342483e+000	 1.073657684598215e+001
 3.317134283792334e+000	 2.928693419141935e+000	 1.071621139856885e+001
 3.286654290082080e+000	 2.962858177087820e+000	 1.069878070907955e+001
 3.255814126283693e+000	 2.996714763729783e+000	 1.068467344237256e+001
 3.224618491191120e+000	 3.030257511556383e+000	 1.067428546058930e+001
 3.193072201971343e+000	 3.063480849145599e+000	 1.066801923168927e+001
 3.161180191692725e+000	 3.096379304242099e+000	 1.066628321677149e+001
 3.128947506757750e+000	 3.128947506757750e+000	 1.066519965123888e+001
 3.454771684692816e+000	 2.804826662494924e+000	 1.080985875686354e+001
 3.425613098594761e+000	 2.840365275585138e+000	 1.078156747827927e+001
 3.396074642806847e+000	 2.875617676346153e+000	 1.075564408002542e+001
 3.366160543659284e+000	 2.910577811081062e+000	 1.073248037639914e+001
 3.335875155454158e+000	 2.945239709647549e+000	 1.071247667013819e+001
 3.305222958389501e+000	 2.979597488824607e+000	 1.069604119855140e+001
 3.274208556377471e+000	 3.013645355616963e+000	 1.068358955517154e+001
 3.242836674758871e+000	 3.047377610493341e+000	 1.067554408807304e+001
 3.211112157916318e+000	 3.080788650554756e+000	 1.067233327607471e+001
 3.179039966788617e+000	 3.113872972629180e+000	 1.067439108412220e+001
 3.146625176289000e+000	 3.146625176289000e+000	 1.066044069655168e+001
 3.474180514385142e+000	 2.820584115657964e+000	 1.080933266278155e+001
 3.444858116005373e+000	 2.856322383877417e+000	 1.078001251426829e+001
 3.415153713836379e+000	 2.891772831833303e+000	 1.075360133963639e+001
 3.385071557951796e+000	 2.926929371819179e+000	 1.073051888412878e+001
 3.354616027116083e+000	 2.961786000152605e+000	 1.071119304519763e+001
 3.323791626696921e+000	 2.996336800560769e+000	 1.069605928557464e+001
 3.292602986471148e+000	 3.030575947503485e+000	 1.068556002206449e+001
 3.261054858326421e+000	 3.064497709429634e+000	 1.068014399126389e+001
 3.229152113860992e+000	 3.098096451963272e+000	 1.068026559348664e+001
 3.196899741884108e+000	 3.131366641015676e+000	 1.068145684167259e+001
 3.164302845819750e+000	 3.164302845819750e+000	 1.066266231397204e+001
 3.493589344077969e+000	 2.836341568821007e+000	 1.080999198853072e+001
 3.464103133416387e+000	 2.872279492169516e+000	 1.077998076456679e+001
 3.434232784866212e+000	 2.907927987320115e+000	 1.075341043076648e+001
 3.403982572244511e+000	 2.943280932556834e+000	 1.073072853785766e+001
 3.373356898778110e+000	 2.978332290657102e+000	 1.071239046025934e+001
 3.342360295004344e+000	 3.013076112296309e+000	 1.069885877617892e+001
 3.310997416564727e+000	 3.047506539389349e+000	 1.069060262362140e+001
 3.279273041893774e+000	 3.081617808365264e+000	 1.068809703357309e+001
 3.247192069805367e+000	 3.115404253371149e+000	 1.069182224170038e+001
 3.214759516979200e+000	 3.148860309401588e+000	 1.068556474102456e+001
 3.181980515350000e+000	 3.181980515350000e+000	 1.067173047523573e+001
 3.005203820025000e+000	 3.005203820025000e+000	 1.073414636039321e+001
 2.973923625516154e+000	 3.036161766010285e+000	 1.071188140333252e+001
 2.942326239263588e+000	 3.066792510348125e+000	 1.070278546502247e+001
 2.910416818979072e+000	 3.097091206211275e+000	 1.070828243547869e+001
 2.878200620501058e+000	 3.127053115624468e+000	 1.072422949781922e+001
 2.845682994912844e+000	 3.156673611930151e+000	 1.067409991064282e+001
 2.812869385587000e+000	 3.185948182162389e+000	 1.062676259372849e+001
 2.779765325159459e+000	 3.214872429326422e+000	 1.058252224533136e+001
 2.746376432436799e+000	 3.243442074581432e+000	 1.054168257891446e+001
 2.712708409240333e+000	 3.271652959324308e+000	 1.050454608217509e+001
 2.678767037190700e+000	 3.299501047172260e+000	 1.047141378075617e+001
 3.022881489559751e+000	 3.022881489559750e+000	 1.071333649797209e+001
 2.991417293907329e+000	 3.054021541108976e+000	 1.069991105961358e+001
 2.959634040677222e+000	 3.084832466295199e+000	 1.069904333447447e+001
 2.927536917920683e+000	 3.115309389780423e+000	 1.071217075445364e+001
 2.895131212392854e+000	 3.145447545718941e+000	 1.068794227093497e+001
 2.862422306653998e+000	 3.175242280237566e+000	 1.064296599606015e+001
 2.829415676096524e+000	 3.204689053823506e+000	 1.060010664191354e+001
 2.796116885901280e+000	 3.233783443617326e+000	 1.055965713267795e+001
 2.762531587926650e+000	 3.262521145608555e+000	 1.052191000545000e+001
 2.728665517534072e+000	 3.290897976731708e+000	 1.048715718104736e+001
 2.694524490353718e+000	 3.318909876860575e+000	 1.045568973873224e+001
 3.040559159093999e+000	 3.040559159093999e+000	 1.069608341185910e+001
 3.008910962297920e+000	 3.071881316207268e+000	 1.069107833256659e+001
 2.976941842090219e+000	 3.102872422241972e+000	 1.069801792393611e+001
 2.944657016861628e+000	 3.133527573349372e+000	 1.069954574530563e+001
 2.912061804283991e+000	 3.163841975813316e+000	 1.065827818601761e+001
 2.879161618394528e+000	 3.193810948544984e+000	 1.061817716595070e+001
 2.845961966605489e+000	 3.223429925484727e+000	 1.057952351349021e+001
 2.812468446642639e+000	 3.252694457908430e+000	 1.054259848335492e+001
 2.778686743416164e+000	 3.281600216635978e+000	 1.050768353617601e+001
 2.744622625827629e+000	 3.310142994139512e+000	 1.047506012102768e+001
 2.710281943516740e+000	 3.338318706549391e+000	 1.044500946111201e+001
 3.058236828627750e+000	 3.058236828627750e+000	 1.068252999347045e+001
 3.026404630687927e+000	 3.089741091305159e+000	 1.068552867313517e+001
 2.994249643502575e+000	 3.120912378188445e+000	 1.069985703960214e+001
 2.961777115801909e+000	 3.151745756918121e+000	 1.067119869532552e+001
 2.928992396174468e+000	 3.182236405907591e+000	 1.063518448461894e+001
 2.895900930134435e+000	 3.212379616852401e+000	 1.059968509764742e+001
 2.862508257113896e+000	 3.242170797146046e+000	 1.056496921986351e+001
 2.828820007383535e+000	 3.271605472199736e+000	 1.053130653900745e+001
 2.794841898905339e+000	 3.300679287663703e+000	 1.049896753708865e+001
 2.760579734121003e+000	 3.329388011547717e+000	 1.046822328458384e+001
 2.726039396679764e+000	 3.357727536238708e+000	 1.043934523703424e+001
 3.075914498161000e+000	 3.075914498161000e+000	 1.067282029093662e+001
 3.043898299077347e+000	 3.107600866402649e+000	 1.068340858065298e+001
 3.011557444914291e+000	 3.138952334134619e+000	 1.068029414276884e+001
 2.978897214741524e+000	 3.169963940486670e+000	 1.064964478341283e+001
 2.945922988064285e+000	 3.200630836001765e+000	 1.061860914622501e+001
 2.912640241873717e+000	 3.230948285159820e+000	 1.058744210793414e+001
 2.879054547621744e+000	 3.260911668807466e+000	 1.055640031598439e+001
 2.845171568123967e+000	 3.290516486491244e+000	 1.052574199154407e+001
 2.810997054394178e+000	 3.319758358691729e+000	 1.049572673382926e+001
 2.776536842414195e+000	 3.348633028956322e+000	 1.046661532591541e+001
 2.741796849842790e+000	 3.377136365928527e+000	 1.043866954219972e+001
 3.093592167693749e+000	 3.093592167693749e+000	 1.066709947605328e+001
 3.061391967466183e+000	 3.125460641499740e+000	 1.068419964438544e+001
 3.028865246325367e+000	 3.156992290080494e+000	 1.066014125494429e+001
 2.996017313680475e+000	 3.188182124055019e+000	 1.063482836974607e+001
 2.962853579953444e+000	 3.219025266095841e+000	 1.060850086717218e+001
 2.929379553612376e+000	 3.249516953467239e+000	 1.058140113477549e+001
 2.895600838129033e+000	 3.279652540468988e+000	 1.055377388481976e+001
 2.861523128863935e+000	 3.309427500782952e+000	 1.052586597027188e+001
 2.827152209882678e+000	 3.338837429720057e+000	 1.049792620140866e+001
 2.792493950707204e+000	 3.367878046365330e+000	 1.047020516319009e+001
 2.757554303005820e+000	 3.396545195618847e+000	 1.044295503354088e+001
 3.111269837226000e+000	 3.111269837226000e+000	 1.066551381235910e+001
 3.078885635854434e+000	 3.143320416596433e+000	 1.066532550602979e+001
 3.046173047735802e+000	 3.175032246026067e+000	 1.064694241432948e+001
 3.013137412618763e+000	 3.206400307623170e+000	 1.062669460633121e+001
 2.979784171841943e+000	 3.237419696189816e+000	 1.060480904028220e+001
 2.946118865350410e+000	 3.268085621774658e+000	 1.058151571966983e+001
 2.912147128635764e+000	 3.298393412130610e+000	 1.055704752235218e+001
 2.877874689603441e+000	 3.328338515074862e+000	 1.053164002947046e+001
 2.843307365370841e+000	 3.357916500748686e+000	 1.050553135428203e+001
 2.808451059000032e+000	 3.387123063774738e+000	 1.047896197104453e+001
 2.773311756168852e+000	 3.415954025309669e+000	 1.045217454407312e+001
 3.128947506757750e+000	 3.128947506757750e+000	 1.066519965123888e+001
 3.096379304242098e+000	 3.161180191692723e+000	 1.065361926533661e+001
 3.063480849145600e+000	 3.193072201971341e+000	 1.064063930647342e+001
 3.030257511556385e+000	 3.224618491191119e+000	 1.062518941463377e+001
 2.996714763729785e+000	 3.255814126283693e+000	 1.060748373518737e+001
 2.962858177087821e+000	 3.286654290082079e+000	 1.058773999060010e+001
 2.928693419141937e+000	 3.317134283792333e+000	 1.056617932308779e+001
 2.894226250342484e+000	 3.347249529366971e+000	 1.054302613638714e+001
 2.859462520858667e+000	 3.376995571777615e+000	 1.051850793675998e+001
 2.824408167292676e+000	 3.406368081184548e+000	 1.049285517333950e+001
 2.789069209331887e+000	 3.435362855000992e+000	 1.046630107792081e+001
 3.146625176289000e+000	 3.146625176289000e+000	 1.066044069655168e+001
 3.113872972629181e+000	 3.179039966788615e+000	 1.064901922084975e+001
 3.080788650554756e+000	 3.211112157916316e+000	 1.064117445703253e+001
 3.047377610493342e+000	 3.242836674758869e+000	 1.063025946396470e+001
 3.013645355616966e+000	 3.274208556377470e+000	 1.061647567931908e+001
 2.979597488824608e+000	 3.305222958389499e+000	 1.060002864555975e+001
 2.945239709647550e+000	 3.335875155454158e+000	 1.058112786605287e+001
 2.910577811081064e+000	 3.366160543659283e+000	 1.055998665963660e+001
 2.875617676346155e+000	 3.396074642806846e+000	 1.053682201374294e+001
 2.840365275585138e+000	 3.425613098594759e+000	 1.051185443615916e+001
 2.804826662494924e+000	 3.454771684692816e+000	 1.048530780551078e+001
 3.164302845819750e+000	 3.164302845819750e+000	 1.066266231397204e+001
 3.131366641015677e+000	 3.196899741884106e+000	 1.065321236974035e+001
 3.098096451963273e+000	 3.229152113860990e+000	 1.064849120830398e+001
 3.064497709429635e+000	 3.261054858326421e+000	 1.064185215059083e+001
 3.030575947503487e+000	 3.292602986471148e+000	 1.063173623953347e+001
 2.996336800560771e+000	 3.323791626696921e+000	 1.061833693663045e+001
 2.961786000152606e+000	 3.354616027116082e+000	 1.060185220125975e+001
 2.926929371819180e+000	 3.385071557951795e+000	 1.058248435798959e+001
 2.891772831833304e+000	 3.415153713836378e+000	 1.056043996176623e+001
 2.856322383877419e+000	 3.444858116005372e+000	 1.053592966104508e+001
 2.820584115657964e+000	 3.474180514385142e+000	 1.050916805892704e+001
 3.181980515350000e+000	 3.181980515350000e+000	 1.067173047523573e+001
 3.148860309401589e+000	 3.214759516979199e+000	 1.066720311134477e+001
 3.115404253371151e+000	 3.247192069805366e+000	 1.066253369654121e+001
 3.081617808365265e+000	 3.279273041893772e+000	 1.065991557754174e+001
 3.047506539389349e+000	 3.310997416564726e+000	 1.065321740434970e+001
 3.013076112296310e+000	 3.342360295004343e+000	 1.064262065459089e+001
 2.978332290657104e+000	 3.373356898778109e+000	 1.062831183662387e+001
 2.943280932556835e+000	 3.403982572244510e+000	 1.061048236953523e+001
 2.907927987320116e+000	 3.434232784866211e+000	 1.058932846034347e+001
 2.872279492169517e+000	 3.464103133416387e+000	 1.056505097845578e+001
 2.836341568821007e+000	 3.493589344077969e+000	 1.053785532742029e+001
 2.678767037190700e+000	 3.299501047172260e+000	 1.047141378075617e+001
 2.644558174437429e+000	 3.326982425841761e+000	 1.046572265301997e+001
 2.610087752335312e+000	 3.354093308923843e+000	 1.045678092543185e+001
 2.575361772072695e+000	 3.380830037553033e+000	 1.044479065402181e+001
 2.540386301257157e+000	 3.407189081967097e+000	 1.042995920920910e+001
 2.505167470460533e+000	 3.433167042958188e+000	 1.041249912315305e+001
 2.469711469727998e+000	 3.458760653213694e+000	 1.040645210697230e+001
 2.434024545055290e+000	 3.483966778545825e+000	 1.039620854823844e+001
 2.398112994838170e+000	 3.508782419009180e+000	 1.038033543581656e+001
 2.361983166298252e+000	 3.533204709905684e+000	 1.036016824046502e+001
 2.325641451889307e+000	 3.557230922676468e+000	 1.033704288363405e+001
 2.694524490353718e+000	 3.318909876860575e+000	 1.045568973873224e+001
 2.660114398994962e+000	 3.346552910698207e+000	 1.044922545112467e+001
 2.625441209703059e+000	 3.373823269562664e+000	 1.043934429034627e+001
 2.590510958967460e+000	 3.400717273065733e+000	 1.042624684260832e+001
 2.555329750087556e+000	 3.427231370681872e+000	 1.041013911652074e+001
 2.519903749697368e+000	 3.453362143207897e+000	 1.039123239337657e+001
 2.484239184254103e+000	 3.479106304111707e+000	 1.037737498017141e+001
 2.448342336494648e+000	 3.504460700769115e+000	 1.036747285159608e+001
 2.412219541864152e+000	 3.529422315587981e+000	 1.035170682881917e+001
 2.375877184920825e+000	 3.553988267019064e+000	 1.033144351721334e+001
 2.339321695721108e+000	 3.578155810453152e+000	 1.030805015250766e+001
 2.710281943516740e+000	 3.338318706549391e+000	 1.044500946111201e+001
 2.675670623552684e+000	 3.366123395555250e+000	 1.043768302285676e+001
 2.640794667071147e+000	 3.393553230202165e+000	 1.042677310557778e+001
 2.605660145862692e+000	 3.420604508579188e+000	 1.041247884358516e+001
 2.570273198918516e+000	 3.447273659397470e+000	 1.039500490113065e+001
 2.534640028934830e+000	 3.473557243458482e+000	 1.037456132563909e+001
 2.498766898780868e+000	 3.499451955010642e+000	 1.035198900832970e+001
 2.462660127934670e+000	 3.524954622993360e+000	 1.034214296378842e+001
 2.426326088890773e+000	 3.550062212167762e+000	 1.032619412261588e+001
 2.389771203543982e+000	 3.574771824133441e+000	 1.030554080905399e+001
 2.353001939553409e+000	 3.599080698230837e+000	 1.028158216007028e+001
 2.726039396679764e+000	 3.357727536238708e+000	 1.043934523703424e+001
 2.691226848110592e+000	 3.385693880412889e+000	 1.043106880242021e+001
 2.656148124439577e+000	 3.413283190842348e+000	 1.041904195288974e+001
 2.620809332758391e+000	 3.440491744093400e+000	 1.040346238806581e+001
 2.585216647750037e+000	 3.467315948113887e+000	 1.038453344458694e+001
 2.549376308172916e+000	 3.493752343709943e+000	 1.036246395229947e+001
 2.513294613308291e+000	 3.519797605910497e+000	 1.033746808542172e+001
 2.476977919375356e+000	 3.545448545218562e+000	 1.032040029455484e+001
 2.440432635918029e+000	 3.570702108748523e+000	 1.030397599184014e+001
 2.403665222167720e+000	 3.595555381248813e+000	 1.028263599029389e+001
 2.366682183386207e+000	 3.620005586009521e+000	 1.025781191915099e+001
 2.741796849842790e+000	 3.377136365928527e+000	 1.043866954219972e+001
 2.706783072668689e+000	 3.405264365271124e+000	 1.042935638910965e+001
 2.671501581808350e+000	 3.433013151483212e+000	 1.041612555781519e+001
 2.635958519654555e+000	 3.460378979608367e+000	 1.039917332977237e+001
 2.600160096582120e+000	 3.487358236831126e+000	 1.037870173005495e+001
 2.564112587411627e+000	 3.513947443962279e+000	 1.035491838652211e+001
 2.527822327836374e+000	 3.540143256811271e+000	 1.032803638385258e+001
 2.491295710816704e+000	 3.565942467444717e+000	 1.030242629339322e+001
 2.454539182945926e+000	 3.591342005330265e+000	 1.028523113066717e+001
 2.417559240792042e+000	 3.616338938365179e+000	 1.026290493478156e+001
 2.380362427219501e+000	 3.640930473789204e+000	 1.023691242234585e+001
 2.757554303005820e+000	 3.396545195618847e+000	 1.044295503354088e+001
 2.722339297226972e+000	 3.424834850129955e+000	 1.043251954259371e+001
 2.686855039177465e+000	 3.452743112124757e+000	 1.041799878554910e+001
 2.651107706551188e+000	 3.480266215124091e+000	 1.039958764153234e+001
 2.615103545414763e+000	 3.507400525549186e+000	 1.037748683941399e+001
 2.578848866650964e+000	 3.534142544215492e+000	 1.035190281996816e+001
 2.542350042365117e+000	 3.560488907712966e+000	 1.032304759279375e+001
 2.505613502258717e+000	 3.586436389671829e+000	 1.029113858806868e+001
 2.468645729974460e+000	 3.611981901912987e+000	 1.027013825225558e+001
 2.431453259416945e+000	 3.637122495482539e+000	 1.024652351592028e+001
 2.394042671053293e+000	 3.661855361569890e+000	 1.021905664259588e+001
 2.773311756168852e+000	 3.415954025309669e+000	 1.045217454407312e+001
 2.737895521785443e+000	 3.444405334989383e+000	 1.044053217835874e+001
 2.702208496546922e+000	 3.472473072766984e+000	 1.042463663698070e+001
 2.666256893448286e+000	 3.500153450640572e+000	 1.040468141189507e+001
 2.630046994247967e+000	 3.527442814268066e+000	 1.038086595045288e+001
 2.593585145890925e+000	 3.554337644469579e+000	 1.035339552056561e+001
 2.556877756894519e+000	 3.580834558615584e+000	 1.032248107053040e+001
 2.519931293701394e+000	 3.606930311899896e+000	 1.028833908357744e+001
 2.482752277003631e+000	 3.632621798496689e+000	 1.025887608820811e+001
 2.445347278042432e+000	 3.657906052600896e+000	 1.023366760668061e+001
 2.407722914887582e+000	 3.682780249351574e+000	 1.020441753374560e+001
 2.789069209331887e+000	 3.435362855000992e+000	 1.046630107792081e+001
 2.753451746344101e+000	 3.463975819849408e+000	 1.045336836330735e+001
 2.717561953916722e+000	 3.492203033409893e+000	 1.043601424486034e+001
 2.681406080345851e+000	 3.520040686157808e+000	 1.041443084186262e+001
 2.644990443081733e+000	 3.547485102987768e+000	 1.038881633416074e+001
 2.608321425131512e+000	 3.574532744724542e+000	 1.035937483035477e+001
 2.571405471424581e+000	 3.601180209519120e+000	 1.032631623054560e+001
 2.534249085144733e+000	 3.627424234128919e+000	 1.028985608369467e+001
 2.496858824033442e+000	 3.653261695081372e+000	 1.025162338805058e+001
 2.459241296668500e+000	 3.678689609720248e+000	 1.022451307961275e+001
 2.421403158722368e+000	 3.703705137134258e+000	 1.019316803108235e+001
 2.804826662494924e+000	 3.454771684692816e+000	 1.048530780551078e+001
 2.769007970902948e+000	 3.483546304710028e+000	 1.047100231150503e+001
 2.732915411286864e+000	 3.511932994053482e+000	 1.045210687009553e+001
 2.696555267243883e+000	 3.539927921675799e+000	 1.042881224173109e+001
 2.659933891916059e+000	 3.567527391708290e+000	 1.040131535210895e+001
 2.623057704372725e+000	 3.594727844980382e+000	 1.036981916340647e+001
 2.585933185955302e+000	 3.621525860423578e+000	 1.033453253996959e+001
 2.548566876588737e+000	 3.647918156358896e+000	 1.029567010850487e+001
 2.510965371063890e+000	 3.673901591667034e+000	 1.025345211282842e+001
 2.473135315295151e+000	 3.699473166840595e+000	 1.021923580685829e+001
 2.435083402557653e+000	 3.724630024917941e+000	 1.018548105185760e+001
 2.820584115657964e+000	 3.474180514385142e+000	 1.050916805892704e+001
 2.784564195461982e+000	 3.503116789571245e+000	 1.049340838006953e+001
 2.748268868657348e+000	 3.531662954697752e+000	 1.047288989817108e+001
 2.711704454142382e+000	 3.559815157194548e+000	 1.044780202803767e+001
 2.674877340750947e+000	 3.587569680429633e+000	 1.041834045392091e+001
 2.637793983614563e+000	 3.614922945237097e+000	 1.038470700381006e+001
 2.600460900486683e+000	 3.641871511328956e+000	 1.034710951808148e+001
 2.562884668033405e+000	 3.668412078589828e+000	 1.030576171254358e+001
 2.525071918094975e+000	 3.694541488253676e+000	 1.026088303592295e+001
 2.487029333922386e+000	 3.720256723961937e+000	 1.021801166016160e+001
 2.448763646393434e+000	 3.745554912702627e+000	 1.018152949579080e+001
 2.836341568821007e+000	 3.493589344077969e+000	 1.053785532742029e+001
 2.800120420021204e+000	 3.522687274433059e+000	 1.052056106519712e+001
 2.763622326028175e+000	 3.551392915342705e+000	 1.049833883568868e+001
 2.726853641041347e+000	 3.579702392714053e+000	 1.047137672060957e+001
 2.689820789586396e+000	 3.607611969151798e+000	 1.043986917482618e+001
 2.652530262857026e+000	 3.635118045494689e+000	 1.040401690372847e+001
 2.614988615018723e+000	 3.662217162235255e+000	 1.036402673486055e+001
 2.577202459478736e+000	 3.688906000821717e+000	 1.032011148384031e+001
 2.539178465126700e+000	 3.715181384841300e+000	 1.027248981460502e+001
 2.500923352550203e+000	 3.741040281084274e+000	 1.022138609402925e+001
 2.462443890229713e+000	 3.766479800488312e+000	 1.024496038421839e+001
 2.325641451889307e+000	 3.557230922676468e+000	 1.033704288363405e+001
 2.289094285687273e+000	 3.580858465680938e+000	 1.028573014364546e+001
 2.252348139770831e+000	 3.604084884861436e+000	 1.023235599400096e+001
 2.215409520594834e+000	 3.626907864294587e+000	 1.017818594500832e+001
 2.178284965358761e+000	 3.649325226630562e+000	 1.012447641424619e+001
 2.140981038377075e+000	 3.671334933419178e+000	 1.007247187798723e+001
 2.103504327454526e+000	 3.692935085323902e+000	 1.002340207089343e+001
 2.065861440270377e+000	 3.714123922224504e+000	 9.978479240736295e+000
 2.028059000775461e+000	 3.734899823209242e+000	 9.938895464656499e+000
 1.990103645605906e+000	 3.755261306457614e+000	 9.915073857461554e+000
 1.952002020517314e+000	 3.775207029014879e+000	 9.915958366095062e+000
 2.339321695721108e+000	 3.578155810453152e+000	 1.030805015250766e+001
 2.302559546188415e+000	 3.601922339004716e+000	 1.025502795645337e+001
 2.265597246472444e+000	 3.625285384180478e+000	 1.019977740904470e+001
 2.228441341301310e+000	 3.648242616433983e+000	 1.014359281351159e+001
 2.191098406328613e+000	 3.670791845607463e+000	 1.008775939421808e+001
 2.153575044482423e+000	 3.692931021259851e+000	 1.003355038896620e+001
 2.115877882319286e+000	 3.714658232882046e+000	 9.982224190261546e+000
 2.078013566387166e+000	 3.735971710000170e+000	 9.935021542430537e+000
 2.039988759601313e+000	 3.756869822167702e+000	 9.908146573443373e+000
 2.001810137636889e+000	 3.777351078847552e+000	 9.908937141149714e+000
 1.963484385342178e+000	 3.797414129185244e+000	 9.902633475681213e+000
 2.353001939553409e+000	 3.599080698230837e+000	 1.028158216007028e+001
 2.316024806689954e+000	 3.622986212329489e+000	 1.022649940635345e+001
 2.278846353174354e+000	 3.646485883500497e+000	 1.016901988102081e+001
 2.241473162007985e+000	 3.669577368574334e+000	 1.011046729081779e+001
 2.203911847298560e+000	 3.692258464585284e+000	 1.005215627581274e+001
 2.166169050587768e+000	 3.714527109101399e+000	 9.995389441640111e+000
 2.128251437183943e+000	 3.736381380441008e+000	 9.941454441408251e+000
 2.090165692503751e+000	 3.757819497776587e+000	 9.911621371187763e+000
 2.051918518426860e+000	 3.778839821126839e+000	 9.912892789240798e+000
 2.013516629667468e+000	 3.799440851238081e+000	 9.906836875430519e+000
 1.974966750166537e+000	 3.819621229356107e+000	 9.893280552638172e+000
 2.366682183386207e+000	 3.620005586009521e+000	 1.025781191915099e+001
 2.329490067191891e+000	 3.644050085655256e+000	 1.020031547244377e+001
 2.292095459876561e+000	 3.667686382821499e+000	 1.014025228965079e+001
 2.254504982714857e+000	 3.690912120715638e+000	 1.007897609540933e+001
 2.216725288268605e+000	 3.713725083564023e+000	 1.001783155821848e+001
 2.178763056693109e+000	 3.736123196943818e+000	 9.958151261675003e+000
 2.140624992048495e+000	 3.758104528000787e+000	 9.924658194404476e+000
 2.102317818620132e+000	 3.779667285553756e+000	 9.926930571269120e+000
 2.063848277252104e+000	 3.800809820086653e+000	 9.921689158334859e+000
 2.025223121697643e+000	 3.821530623629202e+000	 9.908726528584550e+000
 1.986449114990393e+000	 3.841828329527464e+000	 9.887856483496886e+000
 2.380362427219501e+000	 3.640930473789204e+000	 1.023691242234585e+001
 2.342955327694226e+000	 3.665113958982019e+000	 1.017664707370858e+001
 2.305344566579066e+000	 3.688886882143479e+000	 1.011364341519705e+001
 2.267536803421926e+000	 3.712246872857897e+000	 1.004928580751587e+001
 2.229538729238747e+000	 3.735191702543681e+000	 9.984949564145577e+000
 2.191357062798447e+000	 3.757719284787112e+000	 9.946475221285363e+000
 2.152998546912945e+000	 3.779827675561384e+000	 9.950211651574415e+000
 2.114469944736311e+000	 3.801515073331677e+000	 9.946295772455859e+000
 2.075778036077044e+000	 3.822779819047144e+000	 9.934485378515804e+000
 2.036929613727414e+000	 3.843620396020914e+000	 9.914559210350095e+000
 1.997931479813745e+000	 3.864035429699317e+000	 9.886317761746607e+000
 2.394042671053293e+000	 3.661855361569890e+000	 1.021905664259588e+001
 2.356420588196958e+000	 3.686177832309777e+000	 1.015566507073608e+001
 2.318593673281868e+000	 3.710087381466440e+000	 1.008936194130450e+001
 2.280568624129192e+000	 3.733581625001110e+000	 1.002156287306458e+001
 2.242352170208986e+000	 3.756658321524257e+000	 9.976352346833298e+000
 2.203951068903781e+000	 3.779315372631277e+000	 9.981956696323938e+000
 2.165372101777290e+000	 3.801550823122799e+000	 9.979819332620410e+000
 2.126622070852284e+000	 3.823362861110349e+000	 9.969662955739109e+000
 2.087707794901679e+000	 3.844749818008309e+000	 9.951230833426836e+000
 2.048636105756782e+000	 3.865710168413217e+000	 9.924287682167201e+000
 2.009413844636593e+000	 3.886242529871669e+000	 9.888620499064572e+000
 2.407722914887582e+000	 3.682780249351574e+000	 1.020441753374560e+001
 2.369885848700086e+000	 3.707241705638530e+000	 1.013754026737725e+001
 2.331842779984966e+000	 3.731287880790379e+000	 1.006757645774539e+001
 2.293600444836655e+000	 3.754916377145277e+000	 1.001363455418255e+001
 2.255165611179321e+000	 3.778124940505752e+000	 1.002144936998499e+001
 2.216545075009111e+000	 3.800911460476316e+000	 1.002148323558679e+001
 2.177745656641533e+000	 3.823273970685031e+000	 1.001342355671723e+001
 2.138774196968055e+000	 3.845210648889774e+000	 9.996977830675329e+000
 2.099637553726011e+000	 3.866719816970152e+000	 9.971874601488763e+000
 2.060342597785745e+000	 3.887799940806112e+000	 9.937864367072542e+000
 2.020896209458937e+000	 3.908449630044514e+000	 9.894720436163041e+000
 2.421403158722368e+000	 3.703705137134258e+000	 1.019316803108235e+001
 2.383351109203613e+000	 3.728305578968275e+000	 1.012244341234861e+001
 2.345091886688362e+000	 3.752488380115298e+000	 1.005773516307773e+001
 2.306632265544315e+000	 3.776251129290399e+000	 1.006803971780382e+001
 2.267979052149753e+000	 3.799591559488165e+000	 1.007057517035799e+001
 2.229139081114440e+000	 3.822507548322229e+000	 1.006499355273363e+001
 2.190119211505671e+000	 3.844997118248080e+000	 1.005096641268261e+001
 2.150926323083621e+000	 3.867058436669951e+000	 1.002818584305397e+001
 2.111567312550040e+000	 3.888689815932671e+000	 9.996365464522214e+000
 2.072049089814305e+000	 3.909889713199597e+000	 9.955241359258814e+000
 2.032378574280778e+000	 3.930656730217856e+000	 9.904572953268438e+000
 2.435083402557653e+000	 3.724630024917941e+000	 1.018548105185760e+001
 2.396816369707536e+000	 3.749369452299018e+000	 1.011054520078101e+001
 2.358340993392056e+000	 3.773688879441198e+000	 1.012114742239029e+001
 2.319664086252173e+000	 3.797585881436474e+000	 1.012645051148962e+001
 2.280792493120283e+000	 3.821058178471498e+000	 1.012366491374087e+001
 2.241733087219764e+000	 3.844103636169013e+000	 1.011242617055702e+001
 2.202492766369707e+000	 3.866720265811948e+000	 1.009238976544797e+001
 2.163078449198985e+000	 3.888906224450880e+000	 1.006323218230666e+001
 2.123497071373765e+000	 3.910659814895867e+000	 1.002465191607890e+001
 2.083755581842461e+000	 3.931979485593674e+000	 9.976370433311942e+000
 2.043860939102113e+000	 3.952863830391693e+000	 9.918133080247417e+000
 2.448763646393434e+000	 3.745554912702627e+000	 1.018152949579080e+001
 2.410281630211857e+000	 3.770433325630755e+000	 1.018026492273052e+001
 2.371590100096047e+000	 3.794889378768076e+000	 1.018853558342417e+001
 2.332695906960226e+000	 3.818920633583504e+000	 1.018879861216484e+001
 2.293605934090909e+000	 3.842524797455748e+000	 1.018065361300292e+001
 2.254327093325086e+000	 3.865699724016672e+000	 1.016371942631392e+001
 2.214866321233639e+000	 3.888443413376632e+000	 1.013763526231224e+001
 2.175230575314145e+000	 3.910754012232561e+000	 1.010206178866801e+001
 2.135426830197186e+000	 3.932629813859740e+000	 1.005668216949404e+001
 2.095462073870212e+000	 3.954069257988342e+000	 1.000120305313859e+001
 2.055343303922946e+000	 3.975070930566027e+000	 9.935355506393455e+000
 2.462443890229713e+000	 3.766479800488312e+000	 1.024496038421839e+001
 2.423746890716576e+000	 3.791497198963489e+000	 1.025633078411344e+001
 2.384839206800335e+000	 3.816089878095935e+000	 1.025982789462861e+001
 2.345727727668478e+000	 3.840255385731489e+000	 1.025501558028503e+001
 2.306419375061633e+000	 3.863991416440919e+000	 1.024147613234188e+001
 2.266921099430404e+000	 3.887295811865205e+000	 1.021881147687942e+001
 2.227239876097467e+000	 3.910166560942134e+000	 1.018664433898720e+001
 2.187382701429101e+000	 3.932601800014995e+000	 1.014461936009777e+001
 2.147356589020303e+000	 3.954599812824289e+000	 1.009240416567001e+001
 2.107168565897561e+000	 3.976159030383603e+000	 1.002969038059626e+001
 2.066825668743274e+000	 3.997278030740858e+000	 9.956194589887131e+000
 1.952002020517314e+000	 3.775207029014879e+000	 9.915958366095062e+000
 1.913760776843248e+000	 3.794735786459811e+000	 9.896556278245587e+000
 1.875386567981046e+000	 3.813846512466861e+000	 9.880706017989224e+000
 1.836886045909252e+000	 3.832538278264387e+000	 9.865480759530657e+000
 1.798265857740104e+000	 3.850810291991064e+000	 9.840950862731900e+000
 1.759532642309955e+000	 3.868661897952027e+000	 9.808172702635574e+000
 1.720693026811102e+000	 3.886092575776805e+000	 9.768219614102447e+000
 1.681753623468194e+000	 3.903101939481164e+000	 9.722141107282008e+000
 1.642721026262245e+000	 3.919689736435061e+000	 9.670961118718356e+000
 1.603601807705203e+000	 3.935855846239046e+000	 9.615676347808236e+000
 1.564402515667893e+000	 3.951600279511499e+000	 9.557254681102302e+000
 1.963484385342178e+000	 3.797414129185244e+000	 9.902633475681213e+000
 1.925018193176184e+000	 3.817057761674655e+000	 9.878383004423455e+000
 1.886418253673830e+000	 3.836280903717665e+000	 9.858150678979833e+000
 1.847691257942943e+000	 3.855082621079271e+000	 9.841514626206294e+000
 1.808843892196425e+000	 3.873462117240141e+000	 9.817964513836923e+000
 1.769882834322604e+000	 3.891418732648380e+000	 9.786829901175603e+000
 1.730814750497265e+000	 3.908951943872515e+000	 9.749223256979702e+000
 1.691646291840494e+000	 3.926061362657817e+000	 9.706231845869263e+000
 1.652384091121429e+000	 3.942746734888186e+000	 9.658915939888438e+000
 1.613034759513856e+000	 3.959007939455936e+000	 9.608307118288410e+000
 1.573604883405484e+000	 3.974844987041912e+000	 9.555406658057466e+000
 1.974966750166537e+000	 3.819621229356107e+000	 9.893280552638172e+000
 1.936275609508532e+000	 3.839379736889895e+000	 9.864590646552896e+000
 1.897449939365971e+000	 3.858715294968765e+000	 9.840372917681302e+000
 1.858496469975970e+000	 3.877626963894352e+000	 9.821313089096423e+000
 1.819421926652086e+000	 3.896113942489314e+000	 9.798891138128621e+000
 1.780233026334632e+000	 3.914175567344729e+000	 9.769539620267276e+000
 1.740936474182872e+000	 3.931811311968122e+000	 9.734410429617697e+000
 1.701538960212335e+000	 3.949020785834265e+000	 9.694628876072372e+000
 1.662047155980282e+000	 3.965803733341005e+000	 9.651291856834169e+000
 1.622467711322333e+000	 3.982160032672421e+000	 9.605466119044925e+000
 1.582807251143084e+000	 3.998089694571819e+000	 9.558186616080226e+000
 1.986449114990393e+000	 3.841828329527464e+000	 9.887856483496886e+000
 1.947533025840291e+000	 3.861701712105530e+000	 9.855131251087551e+000
 1.908481625057469e+000	 3.881149686220162e+000	 9.827320099340561e+000
 1.869301682008329e+000	 3.900171306709627e+000	 9.804956352920371e+000
 1.829999961107089e+000	 3.918765767738582e+000	 9.783801775305671e+000
 1.790583218346036e+000	 3.936932402041072e+000	 9.756363921363997e+000
 1.751058197867926e+000	 3.954670680063622e+000	 9.723834406898749e+000
 1.711431628583719e+000	 3.971980209010510e+000	 9.687376882596155e+000
 1.671710220838804e+000	 3.988860731793519e+000	 9.648125165012603e+000
 1.631900663130635e+000	 4.005312125888501e+000	 9.607181461565974e+000
 1.592009618880696e+000	 4.021334402101220e+000	 9.565614692128593e+000
 1.997931479813745e+000	 3.864035429699317e+000	 9.886317761746607e+000
 1.958790442171462e+000	 3.884023687321564e+000	 9.849956626730590e+000
 1.919513310748325e+000	 3.903584077471854e+000	 9.818939502988993e+000
 1.880106894040023e+000	 3.922715649525100e+000	 9.793262173222599e+000
 1.840577995561432e+000	 3.941417592987946e+000	 9.772767670449779e+000
 1.800933410356820e+000	 3.959689236737411e+000	 9.747365211271205e+000
 1.761179921552423e+000	 3.977530048159018e+000	 9.717548945081383e+000
 1.721324296954645e+000	 3.994939632186548e+000	 9.684521163560671e+000
 1.681373285696995e+000	 4.011917730245727e+000	 9.649452901312206e+000
 1.641333614938762e+000	 4.028464219104175e+000	 9.613482122730277e+000
 1.601211986618317e+000	 4.044579109630118e+000	 9.577712008421129e+000
 2.009413844636593e+000	 3.886242529871669e+000	 9.888620499064572e+000
 1.970047858502044e+000	 3.906345662537992e+000	 9.849018351227663e+000
 1.930544996438539e+000	 3.926018468723842e+000	 9.815178323905933e+000
 1.890912106071050e+000	 3.945259992340768e+000	 9.787103732842775e+000
 1.851156030015116e+000	 3.964069418237405e+000	 9.765860268157528e+000
 1.811283602366981e+000	 3.982446071433746e+000	 9.742606232279254e+000
 1.771301645236367e+000	 4.000389416254310e+000	 9.715608268046648e+000
 1.731216965325114e+000	 4.017899055362383e+000	 9.686107612974803e+000
 1.691036350554854e+000	 4.034974728697630e+000	 9.655312822869162e+000
 1.650766566746713e+000	 4.051616312319443e+000	 9.624397920081691e+000
 1.610414354355949e+000	 4.067823817158510e+000	 9.594500644286731e+000
 2.020896209458937e+000	 3.908449630044514e+000	 9.894720436163041e+000
 1.981305274832037e+000	 3.928667637754816e+000	 9.852267777928162e+000
 1.941576682128110e+000	 3.948452859976126e+000	 9.815983675997858e+000
 1.901717318101412e+000	 3.967804335156631e+000	 9.785878649763305e+000
 1.861734064468141e+000	 3.986721243486961e+000	 9.763151206872326e+000
 1.821633794376521e+000	 4.005202906130077e+000	 9.742150052632519e+000
 1.781423368919755e+000	 4.023248784349495e+000	 9.718067054013599e+000
 1.741109633695124e+000	 4.040858478538011e+000	 9.692182703807868e+000
 1.700699415412382e+000	 4.058031727149229e+000	 9.665743386605687e+000
 1.660199518554490e+000	 4.074768405534308e+000	 9.639959487946454e+000
 1.619616722093591e+000	 4.091068524686397e+000	 9.616003608973895e+000
 2.032378574280778e+000	 3.930656730217856e+000	 9.904572953268438e+000
 1.992562691161443e+000	 3.950989612972036e+000	 9.859656042124060e+000
 1.952608367817038e+000	 3.970887251228706e+000	 9.821302594097023e+000
 1.912522530131107e+000	 3.990348677972691e+000	 9.789530002796402e+000
 1.872312098920507e+000	 4.009373068736611e+000	 9.764712313408552e+000
 1.831983986385438e+000	 4.027959740826402e+000	 9.746060057321815e+000
 1.791545092602588e+000	 4.046108152444578e+000	 9.724980422704629e+000
 1.751002302064676e+000	 4.063817901713434e+000	 9.702793471634655e+000
 1.710362480269579e+000	 4.081088725600523e+000	 9.680783729462110e+000
 1.669632470362091e+000	 4.097920498748766e+000	 9.660198254360545e+000
 1.628819089831244e+000	 4.114313232213777e+000	 9.642244815381821e+000
 2.043860939102113e+000	 3.952863830391693e+000	 9.918133080247417e+000
 2.003820107490259e+000	 3.973311588189652e+000	 9.871134067175172e+000
 1.963640053505324e+000	 3.993321642481583e+000	 9.831082036182782e+000
 1.923327742160137e+000	 4.012893020788947e+000	 9.798000925586310e+000
 1.882890133372214e+000	 4.032024893986358e+000	 9.771923173435626e+000
 1.842334178393734e+000	 4.050716575522725e+000	 9.754399939186797e+000
 1.801666816284867e+000	 4.068967520539554e+000	 9.736403922943927e+000
 1.760894970433770e+000	 4.086777324888655e+000	 9.717987498831837e+000
 1.720025545126445e+000	 4.104145724051512e+000	 9.700473649295290e+000
 1.679065422169518e+000	 4.121072591962820e+000	 9.685146418774194e+000
 1.638021457568906e+000	 4.137557939740653e+000	 9.673249054676987e+000
 2.055343303922946e+000	 3.975070930566027e+000	 9.935355506393455e+000
 2.015077523818487e+000	 3.995633563407664e+000	 9.886652570429032e+000
 1.974671739192968e+000	 4.015756033734754e+000	 9.845268885528224e+000
 1.934132954188501e+000	 4.035437363605398e+000	 9.811234605077804e+000
 1.893468167823262e+000	 4.054676719236200e+000	 9.784587987881984e+000
 1.852684370401408e+000	 4.073473410219042e+000	 9.767233690317024e+000
 1.811788539966591e+000	 4.091826888634428e+000	 9.752393520671188e+000
 1.770787638802407e+000	 4.109736748063669e+000	 9.737812899304425e+000
 1.729688609982979e+000	 4.127202722502195e+000	 9.724853586417199e+000
 1.688498373976769e+000	 4.144224685176470e+000	 9.714836930504132e+000
 1.647223825306579e+000	 4.160802647267024e+000	 9.709041971760554e+000
 2.066825668743274e+000	 3.997278030740858e+000	 9.956194589887131e+000
 2.026334940146127e+000	 4.017955538626073e+000	 9.906162068943436e+000
 1.985703424879969e+000	 4.038190424988225e+000	 9.863809952775355e+000
 1.944938166216199e+000	 4.057981706422045e+000	 9.829174280035469e+000
 1.904046202273651e+000	 4.077328544486139e+000	 9.802298811926391e+000
 1.863034562408459e+000	 4.096230244915353e+000	 9.784625593739346e+000
 1.821910263647760e+000	 4.114686256729197e+000	 9.773005587355232e+000
 1.780680307170586e+000	 4.132696171238479e+000	 9.762318303720802e+000
 1.739351674839183e+000	 4.150259720952575e+000	 9.753964605748919e+000
 1.697931325783846e+000	 4.167376778389714e+000	 9.749303467903980e+000
 1.656426193044263e+000	 4.184047354792892e+000	 9.749650041553480e+000
 1.564402515667893e+000	 3.951600279511499e+000	 9.557254681102302e+000
 1.525129670264477e+000	 3.966923176588746e+000	 9.520382652466287e+000
 1.485789760794904e+000	 3.981824806142011e+000	 9.483059762083155e+000
 1.446389242748077e+000	 3.996305563713150e+000	 9.446208202675260e+000
 1.406934534869337e+000	 4.010365970170742e+000	 9.410714109753506e+000
 1.367432016293249e+000	 4.024006670090824e+000	 9.377426431639787e+000
 1.327888023744064e+000	 4.037228430064648e+000	 9.347155898859267e+000
 1.288308848805791e+000	 4.050032136936429e+000	 9.320674093310622e+000
 1.248700735263688e+000	 4.062418795974019e+000	 9.298921256111216e+000
 1.209069876518826e+000	 4.074389528975536e+000	 9.282950982503268e+000
 1.169422413077266e+000	 4.085945572314992e+000	 9.262816037350717e+000
 1.573604883405484e+000	 3.974844987041912e+000	 9.555406658057466e+000
 1.534101021264173e+000	 3.990258018807951e+000	 9.524958030564834e+000
 1.494529700562309e+000	 4.005247305005702e+000	 9.493177717039245e+000
 1.454897414762256e+000	 4.019813243503739e+000	 9.461001330776542e+000
 1.415210620366681e+000	 4.033956358234573e+000	 9.429328672831227e+000
 1.375475734034469e+000	 4.047677297565865e+000	 9.399022570605457e+000
 1.335699129764719e+000	 4.060976832598230e+000	 9.370907816646820e+000
 1.295887136150757e+000	 4.073855855392612e+000	 9.345770208107572e+000
 1.256046033705989e+000	 4.086315377130201e+000	 9.324355687031117e+000
 1.216182052263255e+000	 4.098356526207932e+000	 9.309360129105317e+000
 1.176301368449240e+000	 4.109980546272603e+000	 9.291102164703769e+000
 1.582807251143084e+000	 3.998089694571819e+000	 9.558186616080226e+000
 1.543072372264059e+000	 4.013592861026560e+000	 9.533691702977095e+000
 1.503269640330041e+000	 4.028669803868731e+000	 9.506999327937120e+000
 1.463405586776860e+000	 4.043320923293615e+000	 9.479058903993161e+000
 1.423486705864507e+000	 4.057546746297663e+000	 9.450784258790835e+000
 1.383519451776188e+000	 4.071347925040158e+000	 9.423052441473219e+000
 1.343510235785850e+000	 4.084725235131073e+000	 9.396702630646272e+000
 1.303465423496136e+000	 4.097679573848085e+000	 9.372535143922685e+000
 1.263391332148600e+000	 4.110211958285728e+000	 9.351310549249398e+000
 1.223294228007852e+000	 4.122323523439743e+000	 9.336115345868450e+000
 1.183180323821201e+000	 4.134015520229720e+000	 9.319120995948024e+000
 1.592009618880696e+000	 4.021334402101220e+000	 9.565614692128593e+000
 1.552043723264134e+000	 4.036927703244576e+000	 9.546605797049729e+000
 1.512009580098102e+000	 4.052092302731094e+000	 9.524548550472714e+000
 1.471913758791889e+000	 4.066828603082779e+000	 9.500406546136116e+000
 1.431762791362815e+000	 4.081137134360012e+000	 9.475108001179688e+000
 1.391563169518406e+000	 4.095018552513700e+000	 9.449544531050121e+000
 1.351321341807456e+000	 4.108473637663178e+000	 9.424570026393219e+000
 1.311043710841927e+000	 4.121503292302854e+000	 9.400999632474630e+000
 1.270736630591520e+000	 4.134108539440599e+000	 9.379608831374187e+000
 1.230406403752617e+000	 4.146290520670970e+000	 9.363354728423143e+000
 1.190059279193150e+000	 4.158050494186345e+000	 9.347005549390461e+000
 1.601211986618317e+000	 4.044579109630118e+000	 9.577712008421129e+000
 1.561015074264399e+000	 4.060262545461995e+000	 9.563723316969291e+000
 1.520749519866489e+000	 4.075514801592793e+000	 9.545850113334431e+000
 1.480421930807344e+000	 4.090336282871229e+000	 9.525070554752279e+000
 1.440038876861606e+000	 4.104727522421619e+000	 9.502327612629353e+000
 1.399606887261123e+000	 4.118689179986493e+000	 9.478527815192026e+000
 1.359132447829538e+000	 4.132222040194547e+000	 9.454540093061448e+000
 1.318621998188130e+000	 4.145327010756916e+000	 9.431194728340199e+000
 1.278081929034750e+000	 4.158005120594816e+000	 9.409282407495725e+000
 1.237518579497550e+000	 4.170257517901613e+000	 9.391216547596974e+000
 1.196938234565087e+000	 4.182085468142475e+000	 9.374888951651357e+000
 1.610414354355949e+000	 4.067823817158510e+000	 9.594500644286731e+000
 1.569986425264854e+000	 4.083597387678821e+000	 9.585068118709595e+000
 1.529489459635206e+000	 4.098937300453828e+000	 9.570929496117801e+000
 1.488930102823224e+000	 4.113843962658967e+000	 9.553077881874904e+000
 1.448314962360879e+000	 4.128317910482486e+000	 9.532471368310310e+000
 1.407650605004339e+000	 4.142359807458537e+000	 9.510031744830830e+000
 1.366943553852095e+000	 4.155970442725177e+000	 9.486643311930591e+000
 1.326200285534746e+000	 4.169150729210273e+000	 9.463151799729749e+000
 1.285427227478290e+000	 4.181901701748378e+000	 9.440363391366306e+000
 1.244630755242651e+000	 4.194224515131672e+000	 9.419839244408891e+000
 1.203817189937011e+000	 4.206120442098112e+000	 9.402904434569569e+000
 1.619616722093591e+000	 4.091068524686397e+000	 9.616003608973895e+000
 1.578957776265498e+000	 4.106932229895052e+000	 9.610664885833284e+000
 1.538229399404250e+000	 4.122359799314200e+000	 9.599812907992794e+000
 1.497438274839530e+000	 4.137351642445994e+000	 9.584456115430109e+000
 1.456591047860635e+000	 4.151908298542613e+000	 9.565568089950814e+000
 1.415694322748053e+000	 4.166030434929832e+000	 9.544086232478003e+000
 1.374754659875129e+000	 4.179718845255070e+000	 9.520910545246624e+000
 1.333778572881775e+000	 4.192974447662922e+000	 9.496902519577152e+000
 1.292772525922139e+000	 4.205798282901283e+000	 9.472884129591828e+000
 1.251742930987921e+000	 4.218191512361147e+000	 9.449636931935308e+000
 1.210696145308922e+000	 4.230155416053254e+000	 9.431185332213522e+000
 1.628819089831244e+000	 4.114313232213777e+000	 9.642244815381821e+000
 1.587929127266333e+000	 4.130267072110688e+000	 9.640539106113529e+000
 1.546969339173622e+000	 4.145782298173907e+000	 9.632527267094417e+000
 1.505946446856262e+000	 4.160859322232307e+000	 9.619233461273986e+000
 1.464867133360873e+000	 4.175498686601996e+000	 9.601647130397421e+000
 1.423738040492268e+000	 4.189701062400376e+000	 9.580721639185560e+000
 1.382565765898637e+000	 4.203467247784223e+000	 9.557373025460178e+000
 1.341356860229215e+000	 4.216798166114867e+000	 9.532478856931713e+000
 1.300117824366299e+000	 4.229694864053535e+000	 9.506877195053839e+000
 1.258855106733358e+000	 4.242158509590038e+000	 9.481365666039380e+000
 1.217575100680821e+000	 4.254190390007903e+000	 9.459865077993142e+000
 1.638021457568906e+000	 4.137557939740653e+000	 9.673249054676987e+000
 1.596900478267356e+000	 4.153601914325729e+000	 9.674717048943951e+000
 1.555709278943322e+000	 4.169204797032950e+000	 9.669100180607927e+000
 1.514454618873418e+000	 4.184367002017907e+000	 9.657438725834858e+000
 1.473143218861593e+000	 4.199089074660638e+000	 9.640738358695794e+000
 1.431781758236981e+000	 4.213371689870172e+000	 9.619968761946710e+000
 1.390376871922622e+000	 4.227215650312640e+000	 9.596062344827420e+000
 1.348935147577069e+000	 4.240621884566103e+000	 9.569913068640515e+000
 1.307463122810769e+000	 4.253591445205132e+000	 9.542375380553636e+000
 1.265967282478964e+000	 4.266125506818344e+000	 9.514263255754919e+000
 1.224454056052708e+000	 4.278225363962058e+000	 9.489077201869533e+000
 1.647223825306579e+000	 4.160802647267024e+000	 9.709041971760554e+000
 1.605871829268570e+000	 4.176936756540175e+000	 9.713225743505516e+000
 1.564449218713350e+000	 4.192627295891330e+000	 9.709559925521628e+000
 1.522962790891000e+000	 4.207874681802793e+000	 9.699101299337597e+000
 1.481419304362796e+000	 4.222679462718540e+000	 9.682872145671881e+000
 1.439825475982193e+000	 4.237042317339217e+000	 9.661858821518612e+000
 1.398187977947082e+000	 4.250964052840319e+000	 9.637010445359788e+000
 1.356513434925335e+000	 4.264445603016635e+000	 9.609237691309128e+000
 1.314808421255549e+000	 4.277488026356076e+000	 9.579411692669233e+000
 1.273079458224738e+000	 4.290092504046069e+000	 9.548363055066734e+000
 1.231333011424581e+000	 4.302260337915721e+000	 9.518955327657993e+000
 1.656426193044263e+000	 4.184047354792892e+000	 9.749650041553480e+000
 1.614843180269973e+000	 4.200271598754027e+000	 9.756092957661471e+000
 1.573189158483706e+000	 4.216049794749046e+000	 9.753935430021278e+000
 1.531470962909008e+000	 4.231382361586969e+000	 9.744251139586996e+000
 1.489695389864481e+000	 4.246269850775702e+000	 9.728079349993495e+000
 1.447869193727905e+000	 4.260712944807515e+000	 9.706423450651178e+000
 1.405999083972017e+000	 4.274712455367261e+000	 9.680249609108442e+000
 1.364091722274013e+000	 4.288269321466460e+000	 9.650485533530755e+000
 1.322153719700638e+000	 4.301384607506362e+000	 9.618019345817041e+000
 1.280191633970679e+000	 4.314059501273208e+000	 9.583698565552140e+000
 1.238211966796443e+000	 4.326295311868889e+000	 9.549633170420917e+000
 1.169422413077266e+000	 4.085945572314992e+000	 9.262816037350717e+000
 1.129764430115052e+000	 4.097088274930204e+000	 9.240471086708684e+000
 1.090101955120620e+000	 4.107819096255514e+000	 9.215086474195793e+000
 1.050440955616010e+000	 4.118139604102669e+000	 9.188170288514352e+000
 1.010787336957094e+000	 4.128051472493549e+000	 9.161112653650948e+000
 9.711469402141435e-001	 4.137556479447227e+000	 9.135184975159522e+000
 9.315255401334336e-001	 4.146656504724692e+000	 9.111539464812227e+000
 8.919288431804867e-001	 4.155353527534343e+000	 9.091208937975765e+000
 8.523624856654437e-001	 4.163649624201344e+000	 9.075106877471605e+000
 8.128320319509323e-001	 4.171546965803957e+000	 9.064027757115085e+000
 7.733429727426728e-001	 4.179047815779902e+000	 9.058647617605272e+000
 1.176301368449240e+000	 4.109980546272603e+000	 9.291102164703769e+000
 1.136410103235041e+000	 4.121188794197010e+000	 9.270215856580556e+000
 1.096514319564808e+000	 4.131982738000447e+000	 9.245285401899336e+000
 1.056620020063654e+000	 4.142363954717085e+000	 9.217856405873318e+000
 1.016733144824837e+000	 4.152334128215989e+000	 9.189355428575105e+000
 9.768595692778671e-001	 4.161895046975168e+000	 9.161089185677465e+000
 9.370051021381163e-001	 4.171048601813031e+000	 9.134244031873575e+000
 8.971754834385515e-001	 4.179796783580375e+000	 9.109885721301637e+000
 8.573763826440801e-001	 4.188141680816043e+000	 9.088959438687706e+000
 8.176133968488752e-001	 4.196085477369345e+000	 9.072290094346796e+000
 7.778920490569271e-001	 4.203630449992339e+000	 9.060582875648905e+000
 1.183180323821201e+000	 4.134015520229720e+000	 9.319120995948024e+000
 1.143055776354833e+000	 4.145289313463412e+000	 9.298883645234103e+000
 1.102926684008646e+000	 4.156146379745046e+000	 9.273641089604388e+000
 1.062799084510824e+000	 4.166588305331214e+000	 9.244977137967622e+000
 1.022678952692014e+000	 4.176616783938171e+000	 9.214355419035002e+000
 9.825721983409630e-001	 4.186233614502861e+000	 9.183118536460993e+000
 9.424846641421393e-001	 4.195440698901107e+000	 9.152487511065290e+000
 9.024221236959544e-001	 4.204240039626114e+000	 9.123561504426379e+000
 8.623902796220819e-001	 4.212633737430395e+000	 9.097317817513806e+000
 8.223947617462398e-001	 4.220623988934316e+000	 9.074612157441598e+000
 7.824411253706887e-001	 4.228213084204269e+000	 9.056179164882433e+000
 1.190059279193150e+000	 4.158050494186345e+000	 9.347005549390461e+000
 1.149701449474428e+000	 4.169389832729408e+000	 9.326606333446362e+000
 1.109339048452133e+000	 4.180310021489308e+000	 9.300284082011128e+000
 1.068978148957521e+000	 4.190812655945057e+000	 9.269661501029018e+000
 1.028624760558625e+000	 4.200899439660094e+000	 9.236239926478319e+000
 9.882848274034312e-001	 4.210572182030300e+000	 9.201398433847933e+000
 9.479642261455025e-001	 4.219832795988921e+000	 9.166393239188212e+000
 9.076687639526953e-001	 4.228683295671556e+000	 9.132357385989090e+000
 8.674041765994487e-001	 4.237125794044403e+000	 9.100300711503245e+000
 8.271761266430265e-001	 4.245162500498869e+000	 9.071110085538480e+000
 7.869902016839576e-001	 4.252795718415691e+000	 9.045549914187134e+000
 1.196938234565087e+000	 4.182085468142475e+000	 9.374888951651357e+000
 1.156347122593826e+000	 4.193490351995003e+000	 9.353515756985951e+000
 1.115751412895269e+000	 4.204473663233235e+000	 9.325344734328059e+000
 1.075157213403744e+000	 4.215037006558611e+000	 9.292038186147025e+000
 1.034570568424671e+000	 4.225182095381759e+000	 9.255135800380895e+000
 9.939974564652718e-001	 4.234910749557491e+000	 9.216053714179596e+000
 9.534437881482060e-001	 4.244224893076472e+000	 9.176083873805823e+000
 9.129154042087739e-001	 4.253126551716705e+000	 9.136393684907937e+000
 8.724180735761806e-001	 4.261617850658064e+000	 9.098025946731823e+000
 8.319574915392348e-001	 4.269701012063006e+000	 9.061899063233248e+000
 7.915392779967340e-001	 4.277378352626607e+000	 9.028807523486753e+000
 1.203817189937011e+000	 4.206120442098112e+000	 9.402904434569569e+000
 1.162992795713028e+000	 4.217590871260192e+000	 9.379743707899049e+000
 1.122163777338056e+000	 4.228637304976828e+000	 9.348953217686249e+000
 1.081336277849494e+000	 4.239261357171881e+000	 9.312235568558595e+000
 1.040516376290152e+000	 4.249464751103163e+000	 9.271169451160306e+000
 9.997100855264847e-001	 4.259249317084431e+000	 9.227208660086573e+000
 9.589233501502497e-001	 4.268616990163761e+000	 9.181681412650914e+000
 9.181620444641909e-001	 4.277569807761561e+000	 9.135789962658102e+000
 8.774319705522782e-001	 4.286109907271380e+000	 9.090610502697160e+000
 8.367388564348647e-001	 4.294239523626726e+000	 9.047093347851359e+000
 7.960883543090176e-001	 4.301960986837015e+000	 9.006063393146166e+000
 1.210696145308922e+000	 4.230155416053254e+000	 9.431185332213522e+000
 1.169638468832031e+000	 4.241691390524976e+000	 9.405421935751459e+000
 1.128576141780491e+000	 4.252800946720085e+000	 9.371239524368660e+000
 1.087515342294771e+000	 4.263485707784863e+000	 9.330381716621290e+000
 1.046462184155066e+000	 4.273747406824312e+000	 9.284466862648936e+000
 1.005422714587070e+000	 4.283587884611121e+000	 9.234987016218973e+000
 9.644029121516335e-001	 4.293009087250787e+000	 9.183307212370890e+000
 9.234086847189454e-001	 4.302013063806119e+000	 9.130665044789922e+000
 8.824458675277407e-001	 4.310601963884349e+000	 9.078170536369179e+000
 8.415202213299167e-001	 4.318778035190029e+000	 9.026806295790580e+000
 8.006374306208084e-001	 4.326543621046915e+000	 8.977427952367988e+000
 1.217575100680821e+000	 4.254190390007903e+000	 9.459865077993142e+000
 1.176284141950838e+000	 4.265791909789358e+000	 9.430682148828629e+000
 1.134988506222576e+000	 4.276964588463007e+000	 9.392333472862440e+000
 1.093694406739574e+000	 4.287710058397558e+000	 9.346604400482189e+000
 1.052407992019415e+000	 4.298030062545200e+000	 9.295153604144639e+000
 1.011135343647027e+000	 4.307926452137561e+000	 9.239512004443709e+000
 9.698824741523578e-001	 4.317401184337552e+000	 9.181082006637409e+000
 9.286553249730383e-001	 4.326456319850386e+000	 9.121137041717672e+000
 8.874597645025687e-001	 4.335094020496972e+000	 9.060821405425312e+000
 8.463015862243902e-001	 4.343316546752914e+000	 9.001150387971119e+000
 8.051865069321068e-001	 4.351126255256308e+000	 8.943010686626543e+000
 1.224454056052708e+000	 4.278225363962058e+000	 9.489077201869533e+000
 1.182929815069449e+000	 4.289892429053334e+000	 9.455656015295290e+000
 1.141400870664311e+000	 4.301128230205595e+000	 9.412364712740772e+000
 1.099873471183905e+000	 4.311934409009967e+000	 9.361031100454456e+000
 1.058353799883198e+000	 4.322312718265832e+000	 9.303354842054715e+000
 1.016847972706357e+000	 4.332265019663749e+000	 9.240906338529443e+000
 9.753620361524223e-001	 4.341793281424052e+000	 9.175125923645890e+000
 9.339019652264692e-001	 4.350899575894357e+000	 9.107323368807837e+000
 8.924736614767618e-001	 4.359586077109249e+000	 9.038677690702613e+000
 8.510829511182857e-001	 4.367855058315383e+000	 8.970237254427584e+000
 8.097355832429123e-001	 4.375708889465194e+000	 8.910459330929610e+000
 1.231333011424581e+000	 4.302260337915721e+000	 9.518955327657993e+000
 1.189575488187862e+000	 4.313992948316907e+000	 9.480475164316005e+000
 1.147813235105695e+000	 4.325291871947846e+000	 9.431462729381188e+000
 1.106052535627762e+000	 4.336158759622090e+000	 9.373789015113447e+000
 1.064299607746416e+000	 4.346595373986204e+000	 9.309195351150070e+000
 1.022560601765059e+000	 4.356603587189687e+000	 9.239292238339196e+000
 9.808415981518268e-001	 4.366185378510290e+000	 9.165558503028006e+000
 9.391486054792375e-001	 4.375342831938033e+000	 9.093295566587756e+000
 8.974875584503200e-001	 4.384078133721181e+000	 9.114508734600731e+000
 8.558643160116030e-001	 4.392393569877435e+000	 9.126025615091880e+000
 8.142846595532254e-001	 4.400291523673573e+000	 9.127914850596566e+000
 1.238211966796443e+000	 4.326295311868889e+000	 9.549633170420917e+000
 1.196221161306078e+000	 4.338093467580077e+000	 9.505271187138655e+000
 1.154225599546729e+000	 4.349455513689764e+000	 9.449756848526478e+000
 1.112231600071146e+000	 4.360383110233927e+000	 9.385005069122640e+000
 1.070245415609068e+000	 4.370878029706319e+000	 9.312799525443843e+000
 1.028273230823134e+000	 4.380942154715376e+000	 9.305325794622849e+000
 9.863211601505719e-001	 4.390577475596267e+000	 9.335559392287033e+000
 9.443952457313445e-001	 4.399786087981418e+000	 9.354375720847681e+000
 9.025014554232437e-001	 4.408570190332767e+000	 9.361854498700023e+000
 8.606456809043420e-001	 4.416932081439071e+000	 9.358073671613157e+000
 8.188337358630459e-001	 4.424874157881446e+000	 9.343109428975945e+000
 7.733429727426728e-001	 4.179047815779902e+000	 9.058647617605272e+000
 7.339007234633732e-001	 4.186154527505775e+000	 9.062107728374903e+000
 6.945106227088217e-001	 4.192869541852530e+000	 9.065730037810333e+000
 6.551779307865256e-001	 4.199195384720042e+000	 9.069860109542615e+000
 6.159078283377327e-001	 4.205134664553649e+000	 9.070072188506016e+000
 5.767054150413704e-001	 4.210690069845527e+000	 9.054226701894692e+000
 5.375757083998125e-001	 4.215864366623789e+000	 9.036979333578390e+000
 4.985236426059487e-001	 4.220660395932038e+000	 9.018353851939999e+000
 4.595540674909452e-001	 4.225081071302156e+000	 8.998263088508063e+000
 4.206717475519851e-001	 4.229129376222967e+000	 8.976512916539392e+000
 3.818813610591916e-001	 4.232808361607396e+000	 8.952806333248248e+000
 7.778920490569271e-001	 4.203630449992339e+000	 9.060582875648905e+000
 7.382177865464501e-001	 4.210778965904968e+000	 9.057083141604103e+000
 6.985959793168153e-001	 4.217533480336205e+000	 9.055041080691936e+000
 6.590319186185143e-001	 4.223896534044159e+000	 9.054816789400547e+000
 6.195308155671546e-001	 4.229870750817963e+000	 9.053660835275489e+000
 5.800977998397751e-001	 4.235458834964458e+000	 9.034778327952678e+000
 5.407379184534678e-001	 4.240663568782508e+000	 9.015930380877745e+000
 5.014561346257865e-001	 4.245487810027735e+000	 8.997124006471603e+000
 4.622573267163152e-001	 4.249934489370448e+000	 8.978252680806698e+000
 4.231462872486904e-001	 4.254006607849407e+000	 8.959100419988223e+000
 3.841277220122707e-001	 4.257707234324079e+000	 8.939345962066462e+000
 7.824411253706887e-001	 4.228213084204269e+000	 9.056179164882433e+000
 7.425348496291238e-001	 4.235403404303565e+000	 9.045558528144714e+000
 7.026813359244744e-001	 4.242197418819215e+000	 9.037715353938335e+000
 6.628859064502167e-001	 4.248597683367563e+000	 9.033024562528878e+000
 6.231538027963185e-001	 4.254606837081536e+000	 9.030691744160064e+000
 5.834901846379291e-001	 4.260227600082640e+000	 9.009159158841843e+000
 5.439001285068604e-001	 4.265462770940488e+000	 8.989126101009646e+000
 5.043886266453294e-001	 4.270315224122728e+000	 8.970582394595827e+000
 4.649605859413387e-001	 4.274787907438088e+000	 8.953401694410117e+000
 4.256208269449779e-001	 4.278883839475262e+000	 8.937345661694922e+000
 3.863740829648416e-001	 4.282606107040270e+000	 8.922068247116293e+000
 7.869902016839576e-001	 4.252795718415691e+000	 9.045549914187134e+000
 7.468519127113944e-001	 4.260027842701565e+000	 9.027641165588422e+000
 7.067666925317991e-001	 4.266861357301558e+000	 9.013854250778836e+000
 6.667398942816334e-001	 4.273298832690252e+000	 9.004579207389371e+000
 6.267767900252242e-001	 4.279342923344370e+000	 9.000089127073975e+000
 5.868825694358326e-001	 4.284996365200072e+000	 8.977332289224892e+000
 5.470623385599900e-001	 4.290261973097731e+000	 8.956532910171912e+000
 5.073211186645774e-001	 4.295142638217015e+000	 8.938699059691214e+000
 4.676638451660153e-001	 4.299641325505075e+000	 8.923684101041744e+000
 4.280953666408476e-001	 4.303761071100537e+000	 8.911226838171791e+000
 3.886204439169041e-001	 4.307504979755969e+000	 8.900955901194617e+000
 7.915392779967340e-001	 4.277378352626607e+000	 9.028807523486753e+000
 7.511689757932621e-001	 4.284652281098968e+000	 9.003437312498457e+000
 7.108520491387896e-001	 4.291525295783235e+000	 8.983558154518534e+000
 6.705938821127639e-001	 4.297999982012227e+000	 8.969575500802574e+000
 6.303997772538719e-001	 4.304079009606460e+000	 8.961774885550678e+000
 5.902749542334858e-001	 4.309765130316755e+000	 8.939259826242331e+000
 5.502245486128572e-001	 4.315061175254239e+000	 8.918116242885397e+000
 5.102536106835305e-001	 4.319970052310598e+000	 8.901443068502104e+000
 4.703671043903454e-001	 4.324494743571407e+000	 8.889072900036563e+000
 4.305699063362993e-001	 4.328638302725229e+000	 8.880721176997406e+000
 3.908668048684583e-001	 4.332403852471176e+000	 8.875990670834710e+000
 7.960883543090176e-001	 4.301960986837015e+000	 9.006063393146166e+000
 7.554860388747265e-001	 4.309276719495773e+000	 8.973052237524698e+000
 7.149374057454458e-001	 4.316189234264248e+000	 8.946926467393285e+000
 6.744478699436082e-001	 4.322701131333487e+000	 8.928107246566194e+000
 6.340227644822613e-001	 4.328815095867807e+000	 8.916892809691507e+000
 5.936673390308883e-001	 4.334533895432688e+000	 8.894902917727345e+000
 5.533867586654613e-001	 4.339860377410006e+000	 8.873840580042018e+000
 5.131861027021888e-001	 4.344797466403475e+000	 8.858782539042455e+000
 4.730703636143287e-001	 4.349348161637087e+000	 8.849540146123555e+000
 4.330444460313332e-001	 4.353515534349340e+000	 8.845804964500454e+000
 3.931131658195043e-001	 4.357302725185893e+000	 8.847153363913805e+000
 8.006374306208084e-001	 4.326543621046915e+000	 8.977427952367988e+000
 7.598031019557878e-001	 4.333901157891983e+000	 8.936590247526134e+000
 7.190227623517680e-001	 4.340853172744595e+000	 8.904057638441005e+000
 6.783018577741667e-001	 4.347402280654036e+000	 8.880267303097677e+000
 6.376457517103924e-001	 4.353551182128414e+000	 8.865530436854240e+000
 5.970597238280406e-001	 4.359302660547872e+000	 8.844221779458902e+000
 5.565489687178027e-001	 4.364659579565039e+000	 8.823669475996327e+000
 5.161185947205521e-001	 4.369624880495647e+000	 8.810684667548369e+000
 4.757736228379655e-001	 4.374201579702113e+000	 8.805056976261149e+000
 4.355189857259491e-001	 4.378392765972867e+000	 8.824464578471634e+000
 3.953595267700419e-001	 4.382201597900117e+000	 8.846947666499480e+000
 8.051865069321068e-001	 4.351126255256308e+000	 8.943010686626543e+000
 7.641201650364461e-001	 4.358525596287595e+000	 8.894154714740255e+000
 7.231081189577555e-001	 4.365517111224277e+000	 8.855049190428186e+000
 6.821558456044390e-001	 4.372103429973867e+000	 8.826147610140060e+000
 6.412687389382656e-001	 4.378287268388279e+000	 8.836437623944496e+000
 6.004521086249425e-001	 4.384071425662305e+000	 8.860970222985653e+000
 5.597111787698814e-001	 4.389458781719332e+000	 8.876061581220681e+000
 5.190510867386203e-001	 4.394452294587113e+000	 8.889943970977166e+000
 4.784768820612556e-001	 4.399054997766487e+000	 8.902555466526582e+000
 4.379935254201473e-001	 4.403269997595813e+000	 8.913818740102006e+000
 3.976058877200713e-001	 4.407100470613849e+000	 8.923641383197035e+000
 8.097355832429123e-001	 4.375708889465194e+000	 8.910459330929610e+000
 7.684372281167010e-001	 4.383150034682610e+000	 8.929396417293347e+000
 7.271934755634087e-001	 4.390181049703290e+000	 8.949042889128348e+000
 6.860098334344252e-001	 4.396804579292986e+000	 8.969385773944023e+000
 6.448917261658805e-001	 4.403023354647401e+000	 8.990402206978310e+000
 6.038444934215939e-001	 4.408840190775990e+000	 9.001733752401023e+000
 5.628733888216974e-001	 4.414257983872891e+000	 9.002869103447271e+000
 5.219835787563939e-001	 4.419279708677875e+000	 9.003113645397717e+000
 4.811801412841987e-001	 4.423908415830205e+000	 9.002408051827134e+000
 4.404680651139277e-001	 4.428147229218177e+000	 9.000677042408583e+000
 3.998522486695924e-001	 4.431999343327089e+000	 8.997829712799236e+000
 8.142846595532254e-001	 4.400291523673573e+000	 9.127914850596566e+000
 7.727542911965530e-001	 4.407774473077029e+000	 9.130083389363666e+000
 7.312788321687278e-001	 4.414844988181641e+000	 9.133203668891694e+000
 6.898638212641257e-001	 4.421505728611392e+000	 9.137264122371160e+000
 6.485147133932374e-001	 4.427759440905780e+000	 9.142242924616696e+000
 6.072368782179947e-001	 4.433608955888925e+000	 9.140113361607835e+000
 5.660355988732504e-001	 4.439057186025711e+000	 9.127272864432481e+000
 5.249160707738723e-001	 4.444107122767933e+000	 9.113861923654229e+000
 4.838834005067956e-001	 4.448761833893272e+000	 9.099823873758458e+000
 4.429426048072900e-001	 4.453024460839958e+000	 9.085085537861389e+000
 4.020986096186051e-001	 4.456898216039838e+000	 9.069557566225193e+000
 8.188337358630459e-001	 4.424874157881446e+000	 9.343109428975945e+000
 7.770713542760024e-001	 4.432398911470850e+000	 9.328551014714881e+000
 7.353641887737129e-001	 4.439508926659324e+000	 9.315187105141796e+000
 6.937178090935400e-001	 4.446206877929083e+000	 9.303007528068905e+000
 6.521377006203363e-001	 4.452495527163420e+000	 9.291991484875966e+000
 6.106292630141452e-001	 4.458377721001112e+000	 9.276159506509343e+000
 5.691978089245410e-001	 4.463856388177795e+000	 9.249321916326185e+000
 5.278485627910562e-001	 4.468934536857285e+000	 9.222236519816901e+000
 4.865866597290456e-001	 4.473615251955685e+000	 9.194849374318187e+000
 4.454171445002347e-001	 4.477901692461160e+000	 9.167089462664928e+000
 4.043449705671096e-001	 4.481797088752095e+000	 9.138869040377909e+000
 3.818813610591916e-001	 4.232808361607396e+000	 8.952806333248248e+000
 3.431874992402947e-001	 4.236121143260720e+000	 8.930253762303126e+000
 3.045946655437639e-001	 4.239070899352234e+000	 8.910912903088796e+000
 2.661072749782476e-001	 4.241660867892877e+000	 8.894118245560149e+000
 2.277296535260610e-001	 4.243894344221187e+000	 8.879115376855697e+000
 1.894660376312568e-001	 4.245774678499766e+000	 8.865065543396913e+000
 1.513205737604614e-001	 4.247305273224471e+000	 8.851050242867341e+000
 1.132973180351722e-001	 4.248489580748445e+000	 8.836075834687856e+000
 7.540023593415254e-002	 4.249331100823046e+000	 8.819078157975184e+000
 3.763320206451105e-002	 4.249833378157620e+000	 8.798927146359986e+000
 0.000000000000000e+000	 4.250000000000000e+000	 8.774431429445116e+000
 3.841277220122707e-001	 4.257707234324079e+000	 8.939345962066462e+000
 3.452062492418693e-001	 4.261039502928045e+000	 8.921485348826309e+000
 3.063863988766923e-001	 4.264006610525749e+000	 8.907793237667137e+000
 2.676726118960295e-001	 4.266611814175252e+000	 8.897579709995512e+000
 2.290692397291529e-001	 4.268858428599436e+000	 8.890064094484893e+000
 1.905805437403765e-001	 4.270749823667742e+000	 8.884379625319738e+000
 1.522106947873091e-001	 4.272289421890706e+000	 8.879578130757464e+000
 1.139637728509888e-001	 4.273480695929437e+000	 8.874634740404529e+000
 7.584376673652662e-002	 4.274327166122058e+000	 8.868452599981524e+000
 3.785457384284010e-002	 4.274832398029147e+000	 8.859867582748494e+000
 0.000000000000000e+000	 4.275000000000000e+000	 8.847652987174234e+000
 3.863740829648416e-001	 4.282606107040270e+000	 8.922068247116293e+000
 3.472249992428512e-001	 4.285957862594974e+000	 8.909517143812378e+000
 3.081781322089745e-001	 4.288942321698952e+000	 8.902120579971134e+000
 2.692379488131421e-001	 4.291562760457388e+000	 8.899163551777249e+000
 2.304088259315829e-001	 4.293822512977510e+000	 8.899838426951584e+000
 1.916950498488716e-001	 4.295724968835597e+000	 8.903249700657121e+000
 1.531008158135993e-001	 4.297273570556868e+000	 8.908418782160542e+000
 1.146302276663440e-001	 4.298471811110384e+000	 8.914288800423361e+000
 7.628729753856453e-002	 4.299323231421050e+000	 8.919729417181879e+000
 3.807594562098688e-002	 4.299831417900672e+000	 8.923541636479429e+000
 0.000000000000000e+000	 4.300000000000000e+000	 8.924462600035398e+000
 3.886204439169041e-001	 4.307504979755969e+000	 8.900955901194617e+000
 3.492437492432404e-001	 4.310876222261504e+000	 8.894335507923346e+000
 3.099698655406105e-001	 4.313878032871843e+000	 8.893885153791945e+000
 2.708032857295856e-001	 4.316513706739286e+000	 8.898864068656016e+000
 2.317484121333510e-001	 4.318786597355411e+000	 8.908436952195338e+000
 1.928095559567420e-001	 4.320700114003332e+000	 8.921678829007824e+000
 1.539909368393317e-001	 4.322257719222949e+000	 8.937579934897549e+000
 1.152966824812377e-001	 4.323462926291289e+000	 8.955050622304425e+000
 7.673082834026622e-002	 4.324319296720022e+000	 8.972926273216785e+000
 3.829731739895138e-002	 4.324830437772191e+000	 8.989972208319989e+000
 0.000000000000000e+000	 4.324999999999999e+000	 9.004888581562986e+000
 3.908668048684583e-001	 4.332403852471176e+000	 8.875990670834710e+000
 3.512624992430367e-001	 4.335794581927638e+000	 8.875925863995807e+000
 3.117615988716001e-001	 4.338813744044420e+000	 8.883076274272609e+000
 2.723686226453598e-001	 4.341464653020945e+000	 8.896674679632250e+000
 2.330879983344570e-001	 4.343750681733136e+000	 8.915857400004867e+000
 1.939240620639878e-001	 4.345675259170946e+000	 8.939669253101897e+000
 1.548810578645064e-001	 4.347241867888957e+000	 8.967068541866487e+000
 1.159631372956699e-001	 4.348454041472150e+000	 8.996932061275050e+000
 7.717435914163169e-002	 4.349315362018978e+000	 9.028060112609810e+000
 3.851868917673360e-002	 4.349829457643705e+000	 9.059181513742345e+000
 0.000000000000000e+000	 4.350000000000000e+000	 9.088958594405446e+000
 3.931131658195043e-001	 4.357302725185893e+000	 8.847153363913805e+000
 3.532812492422405e-001	 4.360712941593376e+000	 8.854272723835852e+000
 3.135533322019435e-001	 4.363749455216683e+000	 8.869682373869452e+000
 2.739339595604647e-001	 4.366415599302365e+000	 8.892587950063247e+000
 2.344275845349013e-001	 4.368714766110686e+000	 8.922096676250975e+000
 1.950385681706090e-001	 4.370650404338439e+000	 8.957222422139786e+000
 1.557711788891233e-001	 4.372226016554885e+000	 8.996890793468747e+000
 1.166295921096407e-001	 4.373445156652971e+000	 9.039944241725099e+000
 7.761788994266097e-002	 4.374311427317911e+000	 9.085147181313594e+000
 3.874006095433356e-002	 4.374828477515214e+000	 9.131191102503500e+000
 0.000000000000000e+000	 4.374999999999999e+000	 9.176699668922133e+000
 3.953595267700419e-001	 4.382201597900117e+000	 8.846947666499480e+000
 3.552999992408514e-001	 4.385631301258716e+000	 8.868515409816409e+000
 3.153450655316407e-001	 4.388685166388635e+000	 8.892147434903151e+000
 2.754992964749006e-001	 4.391366545583549e+000	 8.917660877239523e+000
 2.357671707346836e-001	 4.393678850488062e+000	 8.944857522919888e+000
 1.961530742766055e-001	 4.395625549505810e+000	 8.973524338610565e+000
 1.566612999131826e-001	 4.397210165220736e+000	 9.003434020918297e+000
 1.172960469231500e-001	 4.398436271833745e+000	 9.034345563410904e+000
 7.806142074335404e-002	 4.399307492616827e+000	 9.066004839540527e+000
 3.896143273175123e-002	 4.399827497386718e+000	 9.098145199734363e+000
 0.000000000000000e+000	 4.400000000000000e+000	 9.130488080936710e+000
 3.976058877200713e-001	 4.407100470613849e+000	 8.923641383197035e+000
 3.573187492388698e-001	 4.410549660923660e+000	 8.932666530043687e+000
 3.171367988606916e-001	 4.413620877560275e+000	 8.943758962179338e+000
 2.770646333886671e-001	 4.416317491864493e+000	 8.956741781403999e+000
 2.371067569338040e-001	 4.418642934865264e+000	 8.971422377209656e+000
 1.972675803819774e-001	 4.420600694673062e+000	 8.987592959816405e+000
 1.575514209366841e-001	 4.422194313886512e+000	 9.005031113210249e+000
 1.179625017361979e-001	 4.423427387014476e+000	 9.023500366395076e+000
 7.850495154371090e-002	 4.424303557915724e+000	 9.042750781079558e+000
 3.918280450898664e-002	 4.424826517258219e+000	 9.062519554034861e+000
 0.000000000000000e+000	 4.425000000000000e+000	 9.082531632377229e+000
 3.998522486695924e-001	 4.431999343327089e+000	 8.997829712799236e+000
 3.593374992362954e-001	 4.435468020588207e+000	 8.994365132657112e+000
 3.189285321890961e-001	 4.438556588731601e+000	 8.992976648476349e+000
 2.786299703017645e-001	 4.441268438145198e+000	 8.993493303428995e+000
 2.384463431322625e-001	 4.443607019242291e+000	 8.995728059286932e+000
 1.983820864867247e-001	 4.445575839840191e+000	 8.999478332682605e+000
 1.584415419596280e-001	 4.447178462552210e+000	 9.004526551968723e+000
 1.186289565487843e-001	 4.448418502195166e+000	 9.010640732859507e+000
 7.894848234373154e-002	 4.449299623214602e+000	 9.017575071045016e+000
 3.940417628603975e-002	 4.449825537129714e+000	 9.025070549984097e+000
 0.000000000000000e+000	 4.449999999999999e+000	 9.032855562100451e+000
 4.020986096186051e-001	 4.456898216039838e+000	 9.069557566225193e+000
 3.613562492331282e-001	 4.460386380252357e+000	 9.053654047976073e+000
 3.207202655168545e-001	 4.463492299902615e+000	 9.039841253651055e+000
 2.801953072141926e-001	 4.466219384425665e+000	 9.027954143865935e+000
 2.397859293300590e-001	 4.468571103619142e+000	 9.017811222533343e+000
 1.994965925908473e-001	 4.470550985007201e+000	 9.009215076494298e+000
 1.593316629820141e-001	 4.472162611217829e+000	 9.001952936352208e+000
 1.192954113609092e-001	 4.473409617375812e+000	 8.995797256661749e+000
 7.939201314341601e-002	 4.474295688513460e+000	 8.990506313634370e+000
 3.962554806291059e-002	 4.474824557001203e+000	 8.985824818535328e+000
 0.000000000000000e+000	 4.474999999999999e+000	 8.981484544966218e+000
 4.043449705671096e-001	 4.481797088752095e+000	 9.138869040377909e+000
 3.633749992293684e-001	 4.485304739916109e+000	 9.110575316261230e+000
 3.225119988439666e-001	 4.488428011073319e+000	 9.084392772081676e+000
 2.817606441259515e-001	 4.491170330705895e+000	 9.060162262974574e+000
 2.411255155271938e-001	 4.493535187995821e+000	 9.037707805816954e+000
 2.006110986943454e-001	 4.495526130174090e+000	 9.016837122376261e+000
 1.602217840038425e-001	 4.497146759883374e+000	 8.997342204271121e+000
 1.199618661725727e-001	 4.498400732556415e+000	 8.978999897866517e+000
 7.983554394276425e-002	 4.499291753812299e+000	 8.961572507234422e+000
 3.984691983959917e-002	 4.499823576872690e+000	 8.944808413323997e+000
 0.000000000000000e+000	 4.500000000000000e+000	 8.928442707504155e+000
 4.500000000000000e+000	 0.000000000000000e+000	 1.030759793250247e+001
 4.499823576872690e+000	 3.984691983959790e-002	 1.032502143587667e+001
 4.499291753812299e+000	 7.983554394276311e-002	 1.034101473881776e+001
 4.498400732556415e+000	 1.199618661725717e-001	 1.035552944881833e+001
 4.497146759883374e+000	 1.602217840038416e-001	 1.036852235236048e+001
 4.495526130174089e+000	 2.006110986943446e-001	 1.037995554865372e+001
 4.493535187995821e+000	 2.411255155271932e-001	 1.038979657491010e+001
 4.491170330705895e+000	 2.817606441259510e-001	 1.039801852260512e+001
 4.488428011073320e+000	 3.225119988439663e-001	 1.040460014417810e+001
 4.485304739916110e+000	 3.633749992293682e-001	 1.040952594963360e+001
 4.481797088752097e+000	 4.043449705671097e-001	 1.041278629251464e+001
 4.525000000000000e+000	 0.000000000000000e+000	 1.032193359503355e+001
 4.524822596744175e+000	 4.006829161619294e-002	 1.033736282025282e+001
 4.524287819111140e+000	 8.027907474193370e-002	 1.035140163601388e+001
 4.523391847737016e+000	 1.206283209839829e-001	 1.036401321403045e+001
 4.522130908548916e+000	 1.611119050253526e-001	 1.037516618241578e+001
 4.520501275340979e+000	 2.017256047974699e-001	 1.038483475448755e+001
 4.518499272372498e+000	 2.424651017239095e-001	 1.039299884856160e+001
 4.516121276986123e+000	 2.833259810372560e-001	 1.039964419817315e+001
 4.513363722244021e+000	 3.243037321705990e-001	 1.040476245216927e+001
 4.510223099579862e+000	 3.653937492251135e-001	 1.040835126412603e+001
 4.506695961464353e+000	 4.065913315151141e-001	 1.041041437055332e+001
 4.550000000000000e+000	 0.000000000000000e+000	 1.033447630848945e+001
 4.549821616615666e+000	 4.028966339278321e-002	 1.034809913922996e+001
 4.549283884409996e+000	 8.072260554108510e-002	 1.036036950769819e+001
 4.548382962917662e+000	 1.212947757953508e-001	 1.037126208000540e+001
 4.547115057214539e+000	 1.620020260467866e-001	 1.038075725703089e+001
 4.545476420507988e+000	 2.028401109004743e-001	 1.038884129836280e+001
 4.543463356749350e+000	 2.438046879204513e-001	 1.039550643667918e+001
 4.541072223266592e+000	 2.848913179483225e-001	 1.040075098199688e+001
 4.538299433415035e+000	 3.260954654969190e-001	 1.040457941522321e+001
 4.535141459244013e+000	 3.674124992204619e-001	 1.040700247045452e+001
 4.531594834177102e+000	 4.088376924626270e-001	 1.040803720547723e+001
 4.574999999999999e+000	 0.000000000000000e+000	 1.034525117371701e+001
 4.574820636487161e+000	 4.051103516936872e-002	 1.035725141170992e+001
 4.574279949708873e+000	 8.116613634021740e-002	 1.036793528495432e+001
 4.573374078098351e+000	 1.219612306066755e-001	 1.037728888572534e+001
 4.572099205880235e+000	 1.628921470681434e-001	 1.038530432042806e+001
 4.570451565675120e+000	 2.039546170033579e-001	 1.039197982874295e+001
 4.568427441126377e+000	 2.451442741168184e-001	 1.039731989266190e+001
 4.566023169547297e+000	 2.864566548591504e-001	 1.040133533483206e+001
 4.563235144586363e+000	 3.278871988229265e-001	 1.040404340563266e+001
 4.560059818908560e+000	 3.694312492154132e-001	 1.040546785842009e+001
 4.556493706890342e+000	 4.110840534096479e-001	 1.040563901238896e+001
 4.600000000000000e+000	 0.000000000000000e+000	 1.035428274589249e+001
 4.599819656358659e+000	 4.073240694594946e-002	 1.036484019003830e+001
 4.599276015007772e+000	 8.160966713933057e-002	 1.037411551126745e+001
 4.598365193279084e+000	 1.226276854179570e-001	 1.038210616134361e+001
 4.597083354546008e+000	 1.637822680894232e-001	 1.038881588655048e+001
 4.595426710842369e+000	 2.050691231061205e-001	 1.039425484210978e+001
 4.593391525503580e+000	 2.464838603130109e-001	 1.039843969593958e+001
 4.590974115828240e+000	 2.880219917697399e-001	 1.040139372115953e+001
 4.588170855758002e+000	 3.296789321486214e-001	 1.040314687675823e+001
 4.584978178573502e+000	 3.714499992099676e-001	 1.040373587584913e+001
 4.581392579604074e+000	 4.133304143561773e-001	 1.040320424095458e+001
 4.624999999999999e+000	 0.000000000000000e+000	 1.036159504926942e+001
 4.624818676230165e+000	 4.095377872252544e-002	 1.037088557261411e+001
 4.624272080306688e+000	 8.205319793842462e-002	 1.037892635299992e+001
 4.623356308459858e+000	 1.232941402291954e-001	 1.038572613653153e+001
 4.622067503211861e+000	 1.646723891106259e-001	 1.039130024528605e+001
 4.620401856009741e+000	 2.061836292087624e-001	 1.039567068707104e+001
 4.618355609880956e+000	 2.478234465090287e-001	 1.039886625397196e+001
 4.615925062109422e+000	 2.895873286800908e-001	 1.040092260908452e+001
 4.613106566929955e+000	 3.314706654740036e-001	 1.040188236083740e+001
 4.609896538238842e+000	 3.734687492041250e-001	 1.040179512432248e+001
 4.606291452318299e+000	 4.155767753022150e-001	 1.040071756906406e+001
 4.650000000000000e+000	 0.000000000000000e+000	 1.036721159145073e+001
 4.649817696101674e+000	 4.117515049909665e-002	 1.037540721609265e+001
 4.649268145605621e+000	 8.249672873749950e-002	 1.038238360952900e+001
 4.648347423640677e+000	 1.239605950403905e-001	 1.038816074855588e+001
 4.647051651877790e+000	 1.655625101317515e-001	 1.039276546849034e+001
 4.645377001177234e+000	 2.072981353112834e-001	 1.039623156833554e+001
 4.643319694258506e+000	 2.491630327048719e-001	 1.039859990418338e+001
 4.640876008390843e+000	 2.911526655902032e-001	 1.039991847023924e+001
 4.638042278102218e+000	 3.332623987990734e-001	 1.040024246686416e+001
 4.634814897904580e+000	 3.754874991978856e-001	 1.039963435504219e+001
 4.631190325033014e+000	 4.178231362477610e-001	 1.039816389669631e+001
 4.675000000000000e+000	 0.000000000000000e+000	 1.037115537720292e+001
 4.674816715973187e+000	 4.139652227566309e-002	 1.037842434719684e+001
 4.674264210904576e+000	 8.294025953655530e-002	 1.038450272305929e+001
 4.673338538821540e+000	 1.246270498515425e-001	 1.038942165009713e+001
 4.672035800543796e+000	 1.664526311528001e-001	 1.039321941581635e+001
 4.670352146344847e+000	 2.084126414136835e-001	 1.039594155056070e+001
 4.668283778636232e+000	 2.505026189005405e-001	 1.039764091583537e+001
 4.665826954672503e+000	 2.927180025000771e-001	 1.039837777968858e+001
 4.662977989274797e+000	 3.350541321238305e-001	 1.039821987853670e+001
 4.659733257570715e+000	 3.775062491912491e-001	 1.039724246483103e+001
 4.656089197748221e+000	 4.200694971928152e-001	 1.039552833998083e+001
 4.699999999999999e+000	 0.000000000000000e+000	 1.037344892182935e+001
 4.699815735844708e+000	 4.161789405222478e-002	 1.037995577415159e+001
 4.699260276203549e+000	 8.338379033559194e-002	 1.038529878812197e+001
 4.698329654002444e+000	 1.252935046626512e-001	 1.038952021681833e+001
 4.697019949209879e+000	 1.673427521737716e-001	 1.039266974035820e+001
 4.695327291512582e+000	 2.095271475159628e-001	 1.039480456207740e+001
 4.693247863014131e+000	 2.518422050960345e-001	 1.039598949183953e+001
 4.690777900954401e+000	 2.942833394097125e-001	 1.039629701583877e+001
 4.687913700447687e+000	 3.368458654482750e-001	 1.039580735227063e+001
 4.684651617237246e+000	 3.795249991842157e-001	 1.039460849225953e+001
 4.680988070463921e+000	 4.223158581373777e-001	 1.039279622544919e+001
 4.725000000000000e+000	 0.000000000000000e+000	 1.037411426411906e+001
 4.724814755716230e+000	 4.183926582878168e-002	 1.038001989775513e+001
 4.724256341502540e+000	 8.382732113460945e-002	 1.038478656077258e+001
 4.723320769183393e+000	 1.259599594737167e-001	 1.038846755469348e+001
 4.722004097876039e+000	 1.682328731946660e-001	 1.039112389411562e+001
 4.720302436680437e+000	 2.106416536181212e-001	 1.039282439849636e+001
 4.718211947392206e+000	 2.531817912913539e-001	 1.039364577051277e+001
 4.715728847236537e+000	 2.958486763191094e-001	 1.039367266034902e+001
 4.712849411620889e+000	 3.386375987724069e-001	 1.039299771527514e+001
 4.709569976904175e+000	 3.815437491767853e-001	 1.039172161389608e+001
 4.705886943180112e+000	 4.245622190814485e-001	 1.038995308446867e+001
 4.750000000000000e+000	 0.000000000000000e+000	 1.037317297888655e+001
 4.749813775587761e+000	 4.206063760533384e-002	 1.037863472210085e+001
 4.749252406801552e+000	 8.427085193360784e-002	 1.038298046749818e+001
 4.748311884364385e+000	 1.266264142847391e-001	 1.038627450710475e+001
 4.746988246542276e+000	 1.691229942154834e-001	 1.038858913328598e+001
 4.745277581848414e+000	 2.117561597201589e-001	 1.039000472620092e+001
 4.743176031770457e+000	 2.545213774864986e-001	 1.039060982727720e+001
 4.740679793518913e+000	 2.974140132282679e-001	 1.039050119804595e+001
 4.737785122794405e+000	 3.404293320962263e-001	 1.038978386369013e+001
 4.734488336571500e+000	 3.835624991689580e-001	 1.038857114067538e+001
 4.730785815896796e+000	 4.268085800250276e-001	 1.038698464785199e+001
 4.481797088752097e+000	 4.043449705671097e-001	 1.041278629251464e+001
 4.477901692461161e+000	 4.454171445002335e-001	 1.041632329194095e+001
 4.473615251955686e+000	 4.865866597290444e-001	 1.041919995733860e+001
 4.468934536857286e+000	 5.278485627910552e-001	 1.042148835452983e+001
 4.463856388177796e+000	 5.691978089245402e-001	 1.042326697569955e+001
 4.458377721001111e+000	 6.106292630141446e-001	 1.042462071066259e+001
 4.452495527163420e+000	 6.521377006203358e-001	 1.043837598880178e+001
 4.446206877929084e+000	 6.937178090935400e-001	 1.045743066605009e+001
 4.439508926659324e+000	 7.353641887737129e-001	 1.047489619415915e+001
 4.432398911470851e+000	 7.770713542760025e-001	 1.049089262899666e+001
 4.424874157881446e+000	 8.188337358630459e-001	 1.050554252616018e+001
 4.506695961464353e+000	 4.065913315151141e-001	 1.041041437055332e+001
 4.502778924082358e+000	 4.478916841926803e-001	 1.041395444487206e+001
 4.498468670018098e+000	 4.892899189508041e-001	 1.041690520034118e+001
 4.493761950946636e+000	 5.307810548077607e-001	 1.041934265930789e+001
 4.488655590329878e+000	 5.723600189753693e-001	 1.042134936325709e+001
 4.483146486113297e+000	 6.140216478098557e-001	 1.042301434067742e+001
 4.477231613421060e+000	 6.557606878470224e-001	 1.043746046889801e+001
 4.470908027246774e+000	 6.975717969225737e-001	 1.045517148527670e+001
 4.464172865137007e+000	 7.394495453783545e-001	 1.047142140552018e+001
 4.457023349864672e+000	 7.813884173551503e-001	 1.048632966278560e+001
 4.449456792089316e+000	 8.233828121726123e-001	 1.050001809347502e+001
 4.531594834177102e+000	 4.088376924626270e-001	 1.040803720547723e+001
 4.527656155704141e+000	 4.503662238845501e-001	 1.041154634739364e+001
 4.523322088081165e+000	 4.919931781719295e-001	 1.041453509923705e+001
 4.518589365036693e+000	 5.337135468238041e-001	 1.041708346636139e+001
 4.513454792482697e+000	 5.755222290255385e-001	 1.041927806863169e+001
 4.507915251226232e+000	 6.174140326049388e-001	 1.042121210489692e+001
 4.501967699679440e+000	 6.593836750731418e-001	 1.043606391149125e+001
 4.495609176565179e+000	 7.014257847511329e-001	 1.045247979257180e+001
 4.488836803615358e+000	 7.435349019826437e-001	 1.046756162928647e+001
 4.481647788259090e+000	 7.857054804340989e-001	 1.048142813866121e+001
 4.474039426297694e+000	 8.279318884821644e-001	 1.049420034385299e+001
 4.556493706890342e+000	 4.110840534096479e-001	 1.040563901238896e+001
 4.552533387326506e+000	 4.528407635758423e-001	 1.040908243546268e+001
 4.548175506144886e+000	 4.946964373924210e-001	 1.041207231573527e+001
 4.543416779127454e+000	 5.366460388391862e-001	 1.041469266858605e+001
 4.538253994636254e+000	 5.786844390750477e-001	 1.041703422188809e+001
 4.532684016339917e+000	 6.208064173993935e-001	 1.041919437709536e+001
 4.526703785938563e+000	 6.630066622986950e-001	 1.043419459264794e+001
 4.520310325884299e+000	 7.052797725792174e-001	 1.044936503440572e+001
 4.513500742094372e+000	 7.476202585865805e-001	 1.046332749793168e+001
 4.506272226654105e+000	 7.900225435128488e-001	 1.047619988999738e+001
 4.498622060506580e+000	 8.324809647917016e-001	 1.048810232574437e+001
 4.581392579604074e+000	 4.133304143561773e-001	 1.040320424095458e+001
 4.577410618949450e+000	 4.553153032665570e-001	 1.040654638425118e+001
 4.573028924209256e+000	 4.973996966122782e-001	 1.040949975506702e+001
 4.568244193218922e+000	 5.395785308539064e-001	 1.041215240635735e+001
 4.563053196790550e+000	 5.818466491238975e-001	 1.041459920417391e+001
 4.557452781454351e+000	 6.241988021932196e-001	 1.041694178537372e+001
 4.551439872198428e+000	 6.666296495236816e-001	 1.043186104564107e+001
 4.545011475204132e+000	 7.091337604068273e-001	 1.044583691696647e+001
 4.538164680574053e+000	 7.517056151901652e-001	 1.045872990578523e+001
 4.530896665049718e+000	 7.943396065913998e-001	 1.047065701378451e+001
 4.523204694715974e+000	 8.370300411012241e-001	 1.048173735259520e+001
 4.606291452318299e+000	 4.155767753022150e-001	 1.040071756906406e+001
 4.602287850572980e+000	 4.577898429566946e-001	 1.040392210168089e+001
 4.597882342274284e+000	 5.001029558315013e-001	 1.040680055940393e+001
 4.593071607311094e+000	 5.425110228679650e-001	 1.040944506084188e+001
 4.587852398945583e+000	 5.850088591720871e-001	 1.041195464093370e+001
 4.582221546569534e+000	 6.275911869864179e-001	 1.041516573973212e+001
 4.576175958459033e+000	 6.702526367481012e-001	 1.042907205399865e+001
 4.569712624524679e+000	 7.129877482339623e-001	 1.044190539914041e+001
 4.562828619054400e+000	 7.557909717933976e-001	 1.045378000195521e+001
 4.555521103445926e+000	 7.986566696697516e-001	 1.046481186350474e+001
 4.547787328925875e+000	 8.415791174107322e-001	 1.047511899568516e+001
 4.631190325033014e+000	 4.178231362477610e-001	 1.039816389669631e+001
 4.627165082197091e+000	 4.602643826462549e-001	 1.040119372216651e+001
 4.622735760339963e+000	 5.028062150500905e-001	 1.040395810148869e+001
 4.617899021403971e+000	 5.454435148813617e-001	 1.040655324752446e+001
 4.612651601101351e+000	 5.881710692196172e-001	 1.040908239534180e+001
 4.606990311685467e+000	 6.309835717789877e-001	 1.041314382635563e+001
 4.600912044720382e+000	 6.738756239719546e-001	 1.042583664477646e+001
 4.594413773845941e+000	 7.168417360606224e-001	 1.043758068571921e+001
 4.587492557535412e+000	 7.598763283962778e-001	 1.044848918347935e+001
 4.580145541842733e+000	 8.029737327479043e-001	 1.045867704223699e+001
 4.572369963136282e+000	 8.461281937202254e-001	 1.046826107719659e+001
 4.656089197748221e+000	 4.200694971928152e-001	 1.039552833998083e+001
 4.652042313821781e+000	 4.627389223352377e-001	 1.039834560055983e+001
 4.647589178406295e+000	 5.055094742680454e-001	 1.040095597847008e+001
 4.642726435497552e+000	 5.483760068940969e-001	 1.040345980994297e+001
 4.637450803257858e+000	 5.913332792664872e-001	 1.040596456194590e+001
 4.631759076802149e+000	 6.343759565709294e-001	 1.041062952669209e+001
 4.625648130982472e+000	 6.774986111952412e-001	 1.042216408204655e+001
 4.619114923167916e+000	 7.206957238868079e-001	 1.043287322082491e+001
 4.612156496017089e+000	 7.639616849988056e-001	 1.044286908869602e+001
 4.604769980240135e+000	 8.072907958258581e-001	 1.045226539598328e+001
 4.596952597347198e+000	 8.506772700297042e-001	 1.046117766350590e+001
 4.680988070463921e+000	 4.223158581373777e-001	 1.039279622544919e+001
 4.676919545447057e+000	 4.652134620236433e-001	 1.039536230628701e+001
 4.672442596473283e+000	 5.082127334853663e-001	 1.039777800593467e+001
 4.667553849591841e+000	 5.513084989061705e-001	 1.040014781362308e+001
 4.662250005415101e+000	 5.944954893126973e-001	 1.040258346051353e+001
 4.656527841919582e+000	 6.377683413622428e-001	 1.040763116776028e+001
 4.650384217245304e+000	 6.811215984179611e-001	 1.041806386059366e+001
 4.643816072490604e+000	 7.245497117125187e-001	 1.042779368154469e+001
 4.636820434499434e+000	 7.680470416009811e-001	 1.043693159082659e+001
 4.629394418638134e+000	 8.116078589036129e-001	 1.044559000720798e+001
 4.621535231558619e+000	 8.552263463391679e-001	 1.045388305868898e+001
 4.705886943180112e+000	 4.245622190814485e-001	 1.038995308446867e+001
 4.701796777072913e+000	 4.676880017114715e-001	 1.039222861767194e+001
 4.697296014540921e+000	 5.109159927020531e-001	 1.039440821212810e+001
 4.692381263686833e+000	 5.542409909175823e-001	 1.039660054020555e+001
 4.687049207573082e+000	 5.976576993582478e-001	 1.039892163007381e+001
 4.681296607037763e+000	 6.411607261529280e-001	 1.040415729867334e+001
 4.675120303508878e+000	 6.847445856401145e-001	 1.041354569981170e+001
 4.668517221814008e+000	 7.284036995377549e-001	 1.042235297176784e+001
 4.661484372982443e+000	 7.721323982028044e-001	 1.043068879176160e+001
 4.654018857036731e+000	 8.159249219811687e-001	 1.043866418858221e+001
 4.646117865770552e+000	 8.597754226486175e-001	 1.044639179823290e+001
 4.730785815896796e+000	 4.268085800250276e-001	 1.038698464785199e+001
 4.726674008699353e+000	 4.701625413987225e-001	 1.038892951643905e+001
 4.722149432609216e+000	 5.136192519181059e-001	 1.039083083235877e+001
 4.717208677782532e+000	 5.571734829283325e-001	 1.039280148175906e+001
 4.711848409731800e+000	 6.008199094031386e-001	 1.039496182314750e+001
 4.706065372156694e+000	 6.445531109429850e-001	 1.040021668479418e+001
 4.699856389773194e+000	 6.883675728617011e-001	 1.040861953779300e+001
 4.693218371138125e+000	 7.322576873625164e-001	 1.041656221621721e+001
 4.686148311466119e+000	 7.762177548042758e-001	 1.042415301604317e+001
 4.678643295435927e+000	 8.202419850585258e-001	 1.043150147692579e+001
 4.670700499982989e+000	 8.643244989580522e-001	 1.043871864294611e+001
 4.424874157881446e+000	 8.188337358630459e-001	 1.050554252616018e+001
 4.416932081439071e+000	 8.606456809043407e-001	 1.050761467018144e+001
 4.408570190332767e+000	 9.025014554232427e-001	 1.051169364186297e+001
 4.399786087981418e+000	 9.443952457313437e-001	 1.051794093429576e+001
 4.390577475596269e+000	 9.863211601505713e-001	 1.052651922958193e+001
 4.380942154715376e+000	 1.028273230823133e+000	 1.053759257567727e+001
 4.370878029706319e+000	 1.070245415609068e+000	 1.054579491153818e+001
 4.360383110233927e+000	 1.112231600071145e+000	 1.054789118812573e+001
 4.349455513689764e+000	 1.154225599546729e+000	 1.055182808957802e+001
 4.338093467580077e+000	 1.196221161306078e+000	 1.055773056606495e+001
 4.326295311868889e+000	 1.238211966796443e+000	 1.056572170825463e+001
 4.449456792089316e+000	 8.233828121726123e-001	 1.050001809347502e+001
 4.441470593000705e+000	 8.654270457968737e-001	 1.050127927497214e+001
 4.433062246944354e+000	 9.075153523960031e-001	 1.050436413197228e+001
 4.424229344024800e+000	 9.496418859833249e-001	 1.050943956053607e+001
 4.414969572682244e+000	 9.918007221492239e-001	 1.051667394086529e+001
 4.405280722241064e+000	 1.033985859881143e+000	 1.052623731985143e+001
 4.395160685426432e+000	 1.076191223471678e+000	 1.053830159907343e+001
 4.384607460845763e+000	 1.118410664514506e+000	 1.055304072762259e+001
 4.373619155431682e+000	 1.160637963987752e+000	 1.056870093832919e+001
 4.362193986843245e+000	 1.202866834424291e+000	 1.057302945856302e+001
 4.350330285822056e+000	 1.245090922168304e+000	 1.057934882474240e+001
 4.474039426297694e+000	 8.279318884821644e-001	 1.049420034385299e+001
 4.466009104562758e+000	 8.702084106895727e-001	 1.049487250401042e+001
 4.457554303556283e+000	 9.125292493690713e-001	 1.049718774469217e+001
 4.448672600068478e+000	 9.548885262357173e-001	 1.050131822765080e+001
 4.439361669768483e+000	 9.972802841483514e-001	 1.050743789100227e+001
 4.429619289767003e+000	 1.039698488939652e+000	 1.051572263762124e+001
 4.419443341146805e+000	 1.082137031334772e+000	 1.052635052879558e+001
 4.408831811457884e+000	 1.124589728958293e+000	 1.053950198249654e+001
 4.397782797173934e+000	 1.167050328429106e+000	 1.055535997557670e+001
 4.386294506106817e+000	 1.209512507542697e+000	 1.057411024916480e+001
 4.374365259775718e+000	 1.251969877540177e+000	 1.059395123282235e+001
 4.498622060506580e+000	 8.324809647917016e-001	 1.048810232574437e+001
 4.490547616125227e+000	 8.749897755824375e-001	 1.048840571649916e+001
 4.482046360168561e+000	 9.175431463424479e-001	 1.049017409814722e+001
 4.473115856112449e+000	 9.601351664885214e-001	 1.049358476077527e+001
 4.463753766854984e+000	 1.002759846147954e+000	 1.049881706017896e+001
 4.453957857293190e+000	 1.045411117998660e+000	 1.050605261224691e+001
 4.443725996867435e+000	 1.088082839198349e+000	 1.051547549242034e+001
 4.433056162070295e+000	 1.130768793402507e+000	 1.052727243956341e+001
 4.421946438916521e+000	 1.173462692870789e+000	 1.054163306353464e+001
 4.410395025370796e+000	 1.216158180661294e+000	 1.055875005570592e+001
 4.398400233729874e+000	 1.258848832912064e+000	 1.057435053231428e+001
 4.523204694715974e+000	 8.370300411012241e-001	 1.048173735259520e+001
 4.515086127688112e+000	 8.797711404754689e-001	 1.048189060106030e+001
 4.506538416781186e+000	 9.225570433161329e-001	 1.048333320531765e+001
 4.497559112156713e+000	 9.653818067417365e-001	 1.048624744633148e+001
 4.488145863941748e+000	 1.008239408148032e+000	 1.049081795727441e+001
 4.478296424819631e+000	 1.051123747058167e+000	 1.049723192404265e+001
 4.468008652588326e+000	 1.094028647062409e+000	 1.050567929067034e+001
 4.457280512682989e+000	 1.136947857847147e+000	 1.051635296895610e+001
 4.446110080659443e+000	 1.179875057312801e+000	 1.052944905157000e+001
 4.434495544635176e+000	 1.222803853780083e+000	 1.054516702786520e+001
 4.422435207684522e+000	 1.265727788283963e+000	 1.055635344493877e+001
 4.547787328925875e+000	 8.415791174107322e-001	 1.047511899568516e+001
 4.539624639251415e+000	 8.845525053686660e-001	 1.047533916683167e+001
 4.531030473394155e+000	 9.275709402901259e-001	 1.047667546336753e+001
 4.522002368201274e+000	 9.706284469953628e-001	 1.047931501956107e+001
 4.512537961028775e+000	 1.013718970148584e+000	 1.048344760557161e+001
 4.502634992346319e+000	 1.056836376118173e+000	 1.048926583423991e+001
 4.492291308309473e+000	 1.099974454926952e+000	 1.049696537260732e+001
 4.481504863295974e+000	 1.143126922292215e+000	 1.050674515745547e+001
 4.470273722402701e+000	 1.186287421755143e+000	 1.051880761411209e+001
 4.458596063899960e+000	 1.229449526899063e+000	 1.053335887772454e+001
 4.446470181639666e+000	 1.272606743655874e+000	 1.054084708017779e+001
 4.572369963136282e+000	 8.461281937202254e-001	 1.046826107719659e+001
 4.564163150815135e+000	 8.893338702620293e-001	 1.046876373485092e+001
 4.555522530007471e+000	 9.325848372644270e-001	 1.047021164331729e+001
 4.546445624246128e+000	 9.758750872494004e-001	 1.047279665246011e+001
 4.536930058116062e+000	 1.019198532149612e+000	 1.047671352892950e+001
 4.526973559873260e+000	 1.062549005178679e+000	 1.048216016937152e+001
 4.516573964030879e+000	 1.105920262791978e+000	 1.048933781820370e+001
 4.505729213909241e+000	 1.149305986737709e+000	 1.049845128922559e+001
 4.494437364146293e+000	 1.192699786197816e+000	 1.050970919028764e+001
 4.482696583165150e+000	 1.236095200018235e+000	 1.052332415019674e+001
 4.470505155595303e+000	 1.279485699027798e+000	 1.052780010561930e+001
 4.596952597347198e+000	 8.506772700297042e-001	 1.046117766350590e+001
 4.588701662379272e+000	 8.941152351555588e-001	 1.046217692971595e+001
 4.580014586621130e+000	 9.375987342390362e-001	 1.046395288004754e+001
 4.570888880291277e+000	 9.811217275038494e-001	 1.046670194210131e+001
 4.561322155203614e+000	 1.024678094151114e+000	 1.047062373839848e+001
 4.551312127400450e+000	 1.068261634239683e+000	 1.047592130615650e+001
 4.540856619752545e+000	 1.111866070657487e+000	 1.048280132147321e+001
 4.529953564522797e+000	 1.155485051183629e+000	 1.049147432716712e+001
 4.518601005890221e+000	 1.199112150640817e+000	 1.050215496347430e+001
 4.506797102430744e+000	 1.242740873137600e+000	 1.051506220075730e+001
 4.494540129551432e+000	 1.286364654399735e+000	 1.051718206650064e+001
 4.621535231558619e+000	 8.552263463391679e-001	 1.045388305868898e+001
 4.613240173943826e+000	 8.988966000492542e-001	 1.045559167151157e+001
 4.604506643235138e+000	 9.426126312139539e-001	 1.045791066262195e+001
 4.595332136336721e+000	 9.863683677587096e-001	 1.046104089932872e+001
 4.585714252291427e+000	 1.030157656153092e+000	 1.046518671926329e+001
 4.575650694927891e+000	 1.073974263301187e+000	 1.047055615686759e+001
 4.565139275474467e+000	 1.117811878523480e+000	 1.047736117414016e+001
 4.554177915136639e+000	 1.161664115629977e+000	 1.048581789486583e+001
 4.542764647634484e+000	 1.205524515084149e+000	 1.049614684150679e+001
 4.530897621696741e+000	 1.249386546257156e+000	 1.050857317388689e+001
 4.518575103508055e+000	 1.293243609771683e+000	 1.050896336236679e+001
 4.646117865770552e+000	 8.597754226486175e-001	 1.044639179823290e+001
 4.637778685508796e+000	 9.036779649431156e-001	 1.044902116799231e+001
 4.628998699849491e+000	 9.476265281891795e-001	 1.045209682491730e+001
 4.619775392382458e+000	 9.916150080139811e-001	 1.045582393781139e+001
 4.610106349379503e+000	 1.035637218155545e+000	 1.046041141849705e+001
 4.599989262455583e+000	 1.079686892363189e+000	 1.046607215516309e+001
 4.589421931196648e+000	 1.123757686389955e+000	 1.047302324982683e+001
 4.578402265750768e+000	 1.167843180076752e+000	 1.048148625911410e+001
 4.566928289379082e+000	 1.211936879527810e+000	 1.049168743751133e+001
 4.554998140963142e+000	 1.256032219376904e+000	 1.050215527814616e+001
 4.542610077465175e+000	 1.300122565143645e+000	 1.050311522446961e+001
 4.670700499982989e+000	 8.643244989580522e-001	 1.043871864294611e+001
 4.662317197074184e+000	 9.084593298371435e-001	 1.044247890701222e+001
 4.653490756464190e+000	 9.526404251647136e-001	 1.044652353654949e+001
 4.644218648428491e+000	 9.968616482696642e-001	 1.045106186344275e+001
 4.634498446467843e+000	 1.041116780158473e+000	 1.045630723261164e+001
 4.624327829983526e+000	 1.085399521425691e+000	 1.046247724236618e+001
 4.613704586919089e+000	 1.129703494256914e+000	 1.046979398874048e+001
 4.602626616365185e+000	 1.174022244523953e+000	 1.047848431298452e+001
 4.591091931124016e+000	 1.218349243971802e+000	 1.048878005134535e+001
 4.579098660229948e+000	 1.262677892496843e+000	 1.049769676779775e+001
 4.566645051422785e+000	 1.307001520515620e+000	 1.049960969388088e+001
 4.326295311868889e+000	 1.238211966796443e+000	 1.056572170825463e+001
 4.314059501273209e+000	 1.280191633970678e+000	 1.058118400622802e+001
 4.301384607506363e+000	 1.322153719700637e+000	 1.058864441990798e+001
 4.288269321466461e+000	 1.364091722274012e+000	 1.059556186033847e+001
 4.274712455367261e+000	 1.405999083972017e+000	 1.060212298664702e+001
 4.260712944807515e+000	 1.447869193727904e+000	 1.060853184182436e+001
 4.246269850775702e+000	 1.489695389864481e+000	 1.061501014451719e+001
 4.231382361586969e+000	 1.531470962909008e+000	 1.062179754858811e+001
 4.216049794749046e+000	 1.573189158483706e+000	 1.062915186875847e+001
 4.200271598754028e+000	 1.614843180269973e+000	 1.063734927069937e+001
 4.184047354792891e+000	 1.656426193044263e+000	 1.064668442399258e+001
 4.350330285822056e+000	 1.245090922168304e+000	 1.057934882474240e+001
 4.338026498500345e+000	 1.287303809716620e+000	 1.058843439696750e+001
 4.325281188656641e+000	 1.329499018145727e+000	 1.059389566954250e+001
 4.312093039916263e+000	 1.371670009622691e+000	 1.059876028441960e+001
 4.298460857894163e+000	 1.413810189996953e+000	 1.060321661233954e+001
 4.284383572275750e+000	 1.455912911473615e+000	 1.060747074276465e+001
 4.269860238832774e+000	 1.497971475366166e+000	 1.061174678299591e+001
 4.254890041371024e+000	 1.539979134927016e+000	 1.061628712449930e+001
 4.239472293606604e+000	 1.581929098254062e+000	 1.062135267472437e+001
 4.223606440967679e+000	 1.623814531271376e+000	 1.062722305274854e+001
 4.207292062318510e+000	 1.665628560781946e+000	 1.063419674713760e+001
 4.374365259775718e+000	 1.251969877540177e+000	 1.059395123282235e+001
 4.361993495728061e+000	 1.294415985462394e+000	 1.059828766679786e+001
 4.349177769807554e+000	 1.336844316590506e+000	 1.060179711051152e+001
 4.335916758366729e+000	 1.379248296970957e+000	 1.060465186845351e+001
 4.322209260421725e+000	 1.421621296021413e+000	 1.060704196589733e+001
 4.308054199744611e+000	 1.463956629218827e+000	 1.060917548707595e+001
 4.293450626890411e+000	 1.506247560867369e+000	 1.061127888179616e+001
 4.278397721155550e+000	 1.548487306944599e+000	 1.061359723869723e+001
 4.262894792464511e+000	 1.590669038024090e+000	 1.061639452340420e+001
 4.246941283181525e+000	 1.632785882272590e+000	 1.061995377987638e+001
 4.230536769844139e+000	 1.674830928519619e+000	 1.062457729331042e+001
 4.398400233729874e+000	 1.258848832912064e+000	 1.057435053231428e+001
 4.385960492956355e+000	 1.301528161207999e+000	 1.059463355573303e+001
 4.373074350959102e+000	 1.344189615034976e+000	 1.061234415463537e+001
 4.359740476817858e+000	 1.386826584318810e+000	 1.061323261262551e+001
 4.345957662949947e+000	 1.429432402045397e+000	 1.061359560893900e+001
 4.331724827214101e+000	 1.472000346963540e+000	 1.061364317042078e+001
 4.317041014948613e+000	 1.514523646368090e+000	 1.061360404280754e+001
 4.301905400940547e+000	 1.556995478961755e+000	 1.061372597108606e+001
 4.286317291322765e+000	 1.599408977793790e+000	 1.061427594414085e+001
 4.270276125395566e+000	 1.641757233273613e+000	 1.061554040195905e+001
 4.253781477369779e+000	 1.684033296257282e+000	 1.061782540371981e+001
 4.422435207684522e+000	 1.265727788283963e+000	 1.055635344493877e+001
 4.409927490185231e+000	 1.308640336953436e+000	 1.057442381387197e+001
 4.396970932111286e+000	 1.351534913479136e+000	 1.059291614739030e+001
 4.383564195269647e+000	 1.394404871666250e+000	 1.061173071205524e+001
 4.369706065478828e+000	 1.437243508068906e+000	 1.062287507395544e+001
 4.355395454684217e+000	 1.480044064707754e+000	 1.062087186344305e+001
 4.340631403007379e+000	 1.522799731868328e+000	 1.061872084680121e+001
 4.325413080726016e+000	 1.565503650978487e+000	 1.061667238413941e+001
 4.309739790181370e+000	 1.608148917563162e+000	 1.061499645231938e+001
 4.293610967609800e+000	 1.650728584274447e+000	 1.061398285816943e+001
 4.277026184895429e+000	 1.693235663994934e+000	 1.061394141190477e+001
 4.446470181639666e+000	 1.272606743655874e+000	 1.054084708017779e+001
 4.433894487414683e+000	 1.315752512698706e+000	 1.055672904930889e+001
 4.420867513264104e+000	 1.358880211922986e+000	 1.057317233582897e+001
 4.407387913722100e+000	 1.401983159013279e+000	 1.059007632817438e+001
 4.393454468008369e+000	 1.445054614091939e+000	 1.060733312209361e+001
 4.379066082154961e+000	 1.488087782451469e+000	 1.062482766872962e+001
 4.364221791066710e+000	 1.531075817368083e+000	 1.062662882697356e+001
 4.348920760511959e+000	 1.574011822994792e+000	 1.062243649634442e+001
 4.333162289040322e+000	 1.616888857332206e+000	 1.061855652271725e+001
 4.316945809824231e+000	 1.659699935275091e+000	 1.061528205023933e+001
 4.300270892421088e+000	 1.702438031732576e+000	 1.061292661691471e+001
 4.470505155595303e+000	 1.279485699027798e+000	 1.052780010561930e+001
 4.457861484644715e+000	 1.322864688443807e+000	 1.054151820206501e+001
 4.444764094417560e+000	 1.366225510366526e+000	 1.055593741078972e+001
 4.431211632175216e+000	 1.409561446359895e+000	 1.057095618882462e+001
 4.417202870538569e+000	 1.452865720114497e+000	 1.058646551602893e+001
 4.402736709626332e+000	 1.496131500194685e+000	 1.060234904439770e+001
 4.387812179126604e+000	 1.539351902867356e+000	 1.061848326680776e+001
 4.372428440298370e+000	 1.582519995010672e+000	 1.063101925650247e+001
 4.356584787899623e+000	 1.625628797100923e+000	 1.062495756371418e+001
 4.340280652038857e+000	 1.668671286275547e+000	 1.061943981658430e+001
 4.323515599946758e+000	 1.711640399470208e+000	 1.061478325735500e+001
 4.494540129551432e+000	 1.286364654399735e+000	 1.051718206650064e+001
 4.481828481875328e+000	 1.329976864188740e+000	 1.052876109433716e+001
 4.468660675571649e+000	 1.373570808809755e+000	 1.054118148701889e+001
 4.455035350628992e+000	 1.417139733706099e+000	 1.055434071663192e+001
 4.440951273069429e+000	 1.460676826136579e+000	 1.056812859182840e+001
 4.426407337098330e+000	 1.504175217937402e+000	 1.058242740841556e+001
 4.411402567187063e+000	 1.547627988366147e+000	 1.059711211975630e+001
 4.395936120085255e+000	 1.591028167026127e+000	 1.061205052695619e+001
 4.380007286759271e+000	 1.634368736869311e+000	 1.062710348875417e+001
 4.363615494253678e+000	 1.677642637275812e+000	 1.062645890725861e+001
 4.346760307472438e+000	 1.720842767207830e+000	 1.061951448626499e+001
 4.518575103508055e+000	 1.293243609771683e+000	 1.050896336236679e+001
 4.505795479106517e+000	 1.337089039933506e+000	 1.051842840703569e+001
 4.492557256726375e+000	 1.380916107252676e+000	 1.052887554220672e+001
 4.478859069083431e+000	 1.424718021051889e+000	 1.054020120121820e+001
 4.464699675600948e+000	 1.468487932158185e+000	 1.055229396591733e+001
 4.450077964570956e+000	 1.512218935679620e+000	 1.056503471858671e+001
 4.434992955248089e+000	 1.555904073864455e+000	 1.057829681406014e+001
 4.419443799872612e+000	 1.599536339041157e+000	 1.059194627200469e+001
 4.403429785619271e+000	 1.643108676637371e+000	 1.060584198928733e+001
 4.386950336468694e+000	 1.686613988275887e+000	 1.061983597228391e+001
 4.370005014998127e+000	 1.730045134945440e+000	 1.062712434679808e+001
 4.542610077465175e+000	 1.300122565143645e+000	 1.050311522446961e+001
 4.529762476338289e+000	 1.344201215678103e+000	 1.051049165706713e+001
 4.516453837881738e+000	 1.388261405695286e+000	 1.051899139415827e+001
 4.502682787538534e+000	 1.432296308397268e+000	 1.052850977626494e+001
 4.488448078133128e+000	 1.476299038179315e+000	 1.053893410254859e+001
 4.473748592044207e+000	 1.520262653421339e+000	 1.055014378413058e+001
 4.458583343309677e+000	 1.564180159362281e+000	 1.056201051798396e+001
 4.442951479660441e+000	 1.608044511055761e+000	 1.057439848137597e+001
 4.426852284479617e+000	 1.651848616405103e+000	 1.058716454678024e+001
 4.410285178683903e+000	 1.695585339275773e+000	 1.060015851711669e+001
 4.393249722523829e+000	 1.739247502683042e+000	 1.061322338111453e+001
 4.566645051422785e+000	 1.307001520515620e+000	 1.049960969388088e+001
 4.553729473570638e+000	 1.351313391422532e+000	 1.050492317533428e+001
 4.540350419037734e+000	 1.395606704137587e+000	 1.051150167868503e+001
 4.526506505994300e+000	 1.439874595742234e+000	 1.051923939730108e+001
 4.512196480665969e+000	 1.484110144199970e+000	 1.052802229149143e+001
 4.497419219518086e+000	 1.528306371162558e+000	 1.053772824327687e+001
 4.482173731371831e+000	 1.572456244859625e+000	 1.054822723211890e+001
 4.466459159448743e+000	 1.616552683069939e+000	 1.055938153158803e+001
 4.450274783340313e+000	 1.660588556172508e+000	 1.057104592689164e+001
 4.433620020899308e+000	 1.704556690275470e+000	 1.058306795311902e+001
 4.416494430049541e+000	 1.748449870420633e+000	 1.059528815399811e+001
 4.184047354792891e+000	 1.656426193044263e+000	 1.064668442399258e+001
 4.167376778389714e+000	 1.697931325783844e+000	 1.065173184139286e+001
 4.150259720952576e+000	 1.739351674839182e+000	 1.065959413004353e+001
 4.132696171238480e+000	 1.780680307170584e+000	 1.067090284662986e+001
 4.114686256729197e+000	 1.821910263647758e+000	 1.068631046991111e+001
 4.096230244915355e+000	 1.863034562408458e+000	 1.070649008234341e+001
 4.077328544486139e+000	 1.904046202273650e+000	 1.071422618492888e+001
 4.057981706422046e+000	 1.944938166216197e+000	 1.071891342013113e+001
 4.038190424988224e+000	 1.985703424879968e+000	 1.072789243825998e+001
 4.017955538626073e+000	 2.026334940146125e+000	 1.074140783524683e+001
 3.997278030740859e+000	 2.066825668743275e+000	 1.075970389519857e+001
 4.207292062318510e+000	 1.665628560781946e+000	 1.063419674713760e+001
 4.190528871602665e+000	 1.707364277590921e+000	 1.064161376270611e+001
 4.173316719402627e+000	 1.749014739695385e+000	 1.065172863136466e+001
 4.155655594412936e+000	 1.790572975538763e+000	 1.066514541951402e+001
 4.137545624823596e+000	 1.832031987328927e+000	 1.068248921829174e+001
 4.118987079611292e+000	 1.873384754415509e+000	 1.070440585639493e+001
 4.099980369735707e+000	 1.914624236724038e+000	 1.070859469360087e+001
 4.080526049238338e+000	 1.955743378243895e+000	 1.071579404142117e+001
 4.060624816241361e+000	 1.996735110566969e+000	 1.072711574920511e+001
 4.040277513844186e+000	 2.037592356473764e+000	 1.074276953384214e+001
 4.019485130915437e+000	 2.078308033563603e+000	 1.076296464506718e+001
 4.230536769844139e+000	 1.674830928519619e+000	 1.062457729331042e+001
 4.213680964815437e+000	 1.716797229398172e+000	 1.063377074550417e+001
 4.196373717852327e+000	 1.758677804551919e+000	 1.064554017674440e+001
 4.178615017586891e+000	 1.800465643907400e+000	 1.066046243100362e+001
 4.160404992917361e+000	 1.842153711010651e+000	 1.067913548875055e+001
 4.141743914306483e+000	 1.883734946423183e+000	 1.069759835087740e+001
 4.122632194984438e+000	 1.925202271175086e+000	 1.070294445597677e+001
 4.103070392053720e+000	 1.966548590272258e+000	 1.071206825951047e+001
 4.083059207493538e+000	 2.007766796254612e+000	 1.072514546487523e+001
 4.062599489061307e+000	 2.048849772801992e+000	 1.074235114001019e+001
 4.041692231089015e+000	 2.089790398384435e+000	 1.076385973196940e+001
 4.253781477369779e+000	 1.684033296257282e+000	 1.061782540371981e+001
 4.236833058028028e+000	 1.726230181205598e+000	 1.062821232563859e+001
 4.219430716301676e+000	 1.768340869408785e+000	 1.064104847036688e+001
 4.201574440760342e+000	 1.810358312276494e+000	 1.065688372267733e+001
 4.183264361010493e+000	 1.852275434692930e+000	 1.067628922469225e+001
 4.164500749000932e+000	 1.894085138431478e+000	 1.069048136439246e+001
 4.145284020232332e+000	 1.935780305626793e+000	 1.069730875802916e+001
 4.125614734868195e+000	 1.977353802301288e+000	 1.070777957359616e+001
 4.105493598744757e+000	 2.018798481942898e+000	 1.072203527991273e+001
 4.084921464277440e+000	 2.060107189130809e+000	 1.074021652102089e+001
 4.063899331261593e+000	 2.101272763205771e+000	 1.076246316792235e+001
 4.277026184895429e+000	 1.693235663994934e+000	 1.061394141190477e+001
 4.259985151240440e+000	 1.735663133013200e+000	 1.062494882034494e+001
 4.242487714750674e+000	 1.778003934265982e+000	 1.063827378655439e+001
 4.224533863933293e+000	 1.820250980646046e+000	 1.065443949480022e+001
 4.206123729102992e+000	 1.862397158375763e+000	 1.067399051664558e+001
 4.187257583694635e+000	 1.904435330440396e+000	 1.068397958049754e+001
 4.167935845479390e+000	 1.946358340079158e+000	 1.069172060978210e+001
 4.148159077681762e+000	 1.988159014330984e+000	 1.070297099561113e+001
 4.127927989995016e+000	 2.029830167631827e+000	 1.071783819065796e+001
 4.107243439492581e+000	 2.071364605460214e+000	 1.073642863518076e+001
 4.086106431433171e+000	 2.112755128027612e+000	 1.075884784579462e+001
 4.300270892421088e+000	 1.702438031732576e+000	 1.061292661691471e+001
 4.283137244452671e+000	 1.745096084820976e+000	 1.062399130712436e+001
 4.265544713199322e+000	 1.787666999123510e+000	 1.063723695435814e+001
 4.247493287105741e+000	 1.830143649016057e+000	 1.065316029662955e+001
 4.228983097194856e+000	 1.872518882059152e+000	 1.067227959828688e+001
 4.210014418387592e+000	 1.914785522449936e+000	 1.067811593200734e+001
 4.190587670725611e+000	 1.956936374532184e+000	 1.068621275276924e+001
 4.170703420494422e+000	 1.998964226361345e+000	 1.069768506339347e+001
 4.150362381244317e+000	 2.040861853321398e+000	 1.071260651402217e+001
 4.129565414706734e+000	 2.082622021790207e+000	 1.073104955639961e+001
 4.108313531603750e+000	 2.124237492849956e+000	 1.075308556955354e+001
 4.323515599946758e+000	 1.711640399470208e+000	 1.061478325735500e+001
 4.306289337664721e+000	 1.754529036628928e+000	 1.062535160330631e+001
 4.288601711647618e+000	 1.797330063981369e+000	 1.063795934264627e+001
 4.270452710277686e+000	 1.840036317386525e+000	 1.065307701703327e+001
 4.251842465286088e+000	 1.882640605743094e+000	 1.066820912654900e+001
 4.232771253079805e+000	 1.925135714460097e+000	 1.067291329071107e+001
 4.213239495970997e+000	 1.967514408985869e+000	 1.068081766725130e+001
 4.193247763306173e+000	 2.009769438392373e+000	 1.069196385343080e+001
 4.172796772492659e+000	 2.051893539011612e+000	 1.070639190575181e+001
 4.151887389919897e+000	 2.093879438120789e+000	 1.072414049796455e+001
 4.130520631773328e+000	 2.135719857672803e+000	 1.074524708353671e+001
 4.346760307472438e+000	 1.720842767207830e+000	 1.061951448626499e+001
 4.329441430876592e+000	 1.763961988437055e+000	 1.062904224626704e+001
 4.311658710095563e+000	 1.806993128839560e+000	 1.064046284567021e+001
 4.293412133449130e+000	 1.849928985757451e+000	 1.065422087540947e+001
 4.274701833376686e+000	 1.892762329427593e+000	 1.066432123602085e+001
 4.255528087771272e+000	 1.935485906470880e+000	 1.066839446900422e+001
 4.235891321215545e+000	 1.978092443440211e+000	 1.067556757920198e+001
 4.215792106117017e+000	 2.020574650424067e+000	 1.068584899319596e+001
 4.195231163740042e+000	 2.062925224702467e+000	 1.069924537810664e+001
 4.174209365132070e+000	 2.105136854451960e+000	 1.071576183555134e+001
 4.152727731941906e+000	 2.147202222496155e+000	 1.073540210078441e+001
 4.370005014998127e+000	 1.730045134945440e+000	 1.062712434679808e+001
 4.352593524088284e+000	 1.773394940245357e+000	 1.063507647427944e+001
 4.334715708543159e+000	 1.816656193698082e+000	 1.064476986909173e+001
 4.316371556620073e+000	 1.859821654128835e+000	 1.065662341289579e+001
 4.297561201466651e+000	 1.902884053112646e+000	 1.066166948235253e+001
 4.278284922461995e+000	 1.945836098482286e+000	 1.066458222146807e+001
 4.258543146459256e+000	 1.988670477895214e+000	 1.067049446707090e+001
 4.238336448926953e+000	 2.031379862456426e+000	 1.067938167308881e+001
 4.217665554986465e+000	 2.073956910393966e+000	 1.069121731697384e+001
 4.196531340343254e+000	 2.116394270783719e+000	 1.070597312950132e+001
 4.174934832109484e+000	 2.158684587320011e+000	 1.072361933046759e+001
 4.393249722523829e+000	 1.739247502683042e+000	 1.061322338111453e+001
 4.375745617299795e+000	 1.782827892053834e+000	 1.064251550999604e+001
 4.357772706990403e+000	 1.826319258556935e+000	 1.065090331645357e+001
 4.339330979790512e+000	 1.869714322500677e+000	 1.066031648385769e+001
 4.320420569555982e+000	 1.913005776798254e+000	 1.066026751733280e+001
 4.301041757151973e+000	 1.956186290494313e+000	 1.066149924639923e+001
 4.281194971702131e+000	 1.999248512350875e+000	 1.066563006833186e+001
 4.260880791735980e+000	 2.042185074489451e+000	 1.067260265799906e+001
 4.240099946231929e+000	 2.084988596086107e+000	 1.068235749843861e+001
 4.218853315553447e+000	 2.127651687116066e+000	 1.069483314639102e+001
 4.197141932276062e+000	 2.170166952144371e+000	 1.070996650444540e+001
 4.416494430049541e+000	 1.748449870420633e+000	 1.059528815399811e+001
 4.398897710511125e+000	 1.792260843862486e+000	 1.062356012365281e+001
 4.380829705437297e+000	 1.835982323416120e+000	 1.065180115765352e+001
 4.362290402960451e+000	 1.879606990872976e+000	 1.066397589379538e+001
 4.343279937644680e+000	 1.923127500484416e+000	 1.066012911784748e+001
 4.323798591841205e+000	 1.966536482506963e+000	 1.065916818729083e+001
 4.303846796944171e+000	 2.009826546807196e+000	 1.066100588582431e+001
 4.283425134544102e+000	 2.052990286523143e+000	 1.066555229850390e+001
 4.262534337476437e+000	 2.096020281778891e+000	 1.067271510483168e+001
 4.241175290762652e+000	 2.138909103449004e+000	 1.068239987992077e+001
 4.219349032441642e+000	 2.181649316969236e+000	 1.069451040298383e+001
 3.997278030740859e+000	 2.066825668743275e+000	 1.075970389519857e+001
 3.976159030383603e+000	 2.107168565897559e+000	 1.075782833147918e+001
 3.954599812824290e+000	 2.147356589020302e+000	 1.075749776776889e+001
 3.932601800014996e+000	 2.187382701429100e+000	 1.075862407124798e+001
 3.910166560942135e+000	 2.227239876097466e+000	 1.076111925193039e+001
 3.887295811865206e+000	 2.266921099430403e+000	 1.076489575654829e+001
 3.863991416440920e+000	 2.306419375061632e+000	 1.076986676357164e+001
 3.840255385731489e+000	 2.345727727668477e+000	 1.077594647853423e+001
 3.816089878095935e+000	 2.384839206800333e+000	 1.078305042882662e+001
 3.791497198963489e+000	 2.423746890716575e+000	 1.079109575710625e+001
 3.766479800488311e+000	 2.462443890229713e+000	 1.080000151246958e+001
 4.019485130915437e+000	 2.078308033563603e+000	 1.076296464506718e+001
 3.998248802778659e+000	 2.118875057924907e+000	 1.075772242406043e+001
 3.976569811788677e+000	 2.159286347843419e+000	 1.075414146964965e+001
 3.954449587797304e+000	 2.199534827544055e+000	 1.075216599367487e+001
 3.931889708507547e+000	 2.239613430961295e+000	 1.075174051422091e+001
 3.908891899713674e+000	 2.279515105535721e+000	 1.075281012028140e+001
 3.885458035426050e+000	 2.319232816032355e+000	 1.075532073704831e+001
 3.861590137879450e+000	 2.358759548376727e+000	 1.075921939103640e+001
 3.837290377423783e+000	 2.398088313504621e+000	 1.076445447424181e+001
 3.812561072296218e+000	 2.437212151221293e+000	 1.077097600652570e+001
 3.787404688273996e+000	 2.476124134065992e+000	 1.077873589540928e+001
 4.041692231089015e+000	 2.089790398384435e+000	 1.076385973196940e+001
 4.020338575172714e+000	 2.130581549952659e+000	 1.075585359385372e+001
 3.998539810752065e+000	 2.171216106666839e+000	 1.074962365688318e+001
 3.976297375578613e+000	 2.211686953659215e+000	 1.074514614831972e+001
 3.953612856071957e+000	 2.251986985825226e+000	 1.074239776428337e+001
 3.930487987561143e+000	 2.292109111641043e+000	 1.074135590552389e+001
 3.906924654410178e+000	 2.332046257002981e+000	 1.074199891331220e+001
 3.882924890026412e+000	 2.371791369084782e+000	 1.074430630469814e+001
 3.858490876750632e+000	 2.411337420208612e+000	 1.074825900637184e+001
 3.833624945627949e+000	 2.450677411725614e+000	 1.075383958636013e+001
 3.808329576058680e+000	 2.489804377901773e+000	 1.076103248278483e+001
 4.063899331261593e+000	 2.101272763205771e+000	 1.076246316792235e+001
 4.042428347565767e+000	 2.142288041980814e+000	 1.075228650317027e+001
 4.020509809714452e+000	 2.183145865490564e+000	 1.074399964870908e+001
 3.998145163358922e+000	 2.223839079774578e+000	 1.073761052213809e+001
 3.975336003635369e+000	 2.264360540689262e+000	 1.073312767175416e+001
 3.952084075407609e+000	 2.304703117746367e+000	 1.073056048375611e+001
 3.928391273393308e+000	 2.344859697973510e+000	 1.072991938906664e+001
 3.904259642172374e+000	 2.384823189792640e+000	 1.073121606905480e+001
 3.879691376076480e+000	 2.424586526912305e+000	 1.073446365943421e+001
 3.854688818958676e+000	 2.464142672229537e+000	 1.073967695160770e+001
 3.829254463842364e+000	 2.503484621737058e+000	 1.074430509267283e+001
 4.086106431433171e+000	 2.112755128027612e+000	 1.075884784579462e+001
 4.064518119957823e+000	 2.153994534009374e+000	 1.074708490863946e+001
 4.042479808675839e+000	 2.195075624314593e+000	 1.073732407185638e+001
 4.019992951138231e+000	 2.235991205890145e+000	 1.072960462234999e+001
 3.997059151197778e+000	 2.276734095553400e+000	 1.072396663881176e+001
 3.973680163253079e+000	 2.317297123851694e+000	 1.072045117067913e+001
 3.949857892375436e+000	 2.357673138943943e+000	 1.071910041621342e+001
 3.925594394317335e+000	 2.397855010500300e+000	 1.071995789901505e+001
 3.900891875401328e+000	 2.437835633615702e+000	 1.072306864228941e+001
 3.875752692288407e+000	 2.477607932733064e+000	 1.072847934017216e+001
 3.850179351625048e+000	 2.517164865571844e+000	 1.072434155509952e+001
 4.108313531603750e+000	 2.124237492849956e+000	 1.075308556955354e+001
 4.086607892348878e+000	 2.165701026038337e+000	 1.074031168568671e+001
 4.064449807636226e+000	 2.207005383138925e+000	 1.072965087926003e+001
 4.041840738916539e+000	 2.248143332005915e+000	 1.072117348940575e+001
 4.018782298759190e+000	 2.289107650417643e+000	 1.071495080740535e+001
 3.995276251097546e+000	 2.329891129957026e+000	 1.071105522772237e+001
 3.971324511356565e+000	 2.370486579914278e+000	 1.070956039765824e+001
 3.946929146461295e+000	 2.410886831207762e+000	 1.071054136498585e+001
 3.922092374725176e+000	 2.451084740318801e+000	 1.071407472291014e+001
 3.896816565617136e+000	 2.491073193236193e+000	 1.072023875170324e+001
 3.871104239406733e+000	 2.530845109406134e+000	 1.070903418990338e+001
 4.130520631773328e+000	 2.135719857672803e+000	 1.074524708353671e+001
 4.108697664738933e+000	 2.177407518067704e+000	 1.073202885222178e+001
 4.086419806595614e+000	 2.218935141963561e+000	 1.072103336817363e+001
 4.063688526693849e+000	 2.260295458121890e+000	 1.071236170953356e+001
 4.040505446319600e+000	 2.301481205281988e+000	 1.070611606625028e+001
 4.016872338941014e+000	 2.342485136062360e+000	 1.070239986350235e+001
 3.992791130336695e+000	 2.383300020884517e+000	 1.070131788325148e+001
 3.968263898604257e+000	 2.423918651915029e+000	 1.070297638331611e+001
 3.943292874048022e+000	 2.464333847021602e+000	 1.070748321335132e+001
 3.917880438944865e+000	 2.504538453738924e+000	 1.071235116513022e+001
 3.892029127187417e+000	 2.544525353239926e+000	 1.069830227377261e+001
 4.152727731941906e+000	 2.147202222496155e+000	 1.073540210078441e+001
 4.130787437127987e+000	 2.189114010097476e+000	 1.072229759156697e+001
 4.108389805554000e+000	 2.230864900788501e+000	 1.071152419770108e+001
 4.085536314470157e+000	 2.272447584238067e+000	 1.070321342688450e+001
 4.062228593879011e+000	 2.313854760146438e+000	 1.069749805759892e+001
 4.038468426783482e+000	 2.355079142167698e+000	 1.069451223523497e+001
 4.014257749315824e+000	 2.396113461854660e+000	 1.069439156585918e+001
 3.989598650746219e+000	 2.436950472622097e+000	 1.069727320704689e+001
 3.964493373369871e+000	 2.477582953724107e+000	 1.070329595520247e+001
 3.938944312271595e+000	 2.518003714241259e+000	 1.070297564029640e+001
 3.912954014967101e+000	 2.558205597073220e+000	 1.069206599573650e+001
 4.174934832109484e+000	 2.158684587320011e+000	 1.072361933046759e+001
 4.152877209516043e+000	 2.200820502127651e+000	 1.071117827465361e+001
 4.130359804511387e+000	 2.242794659613744e+000	 1.070117540576855e+001
 4.107384102245465e+000	 2.284599710354449e+000	 1.069377235528987e+001
 4.083951741437423e+000	 2.326228315010991e+000	 1.068913218379564e+001
 4.060064514624951e+000	 2.367673148273040e+000	 1.068741945010243e+001
 4.035724368293952e+000	 2.408926902824704e+000	 1.068880027755945e+001
 4.010933402887179e+000	 2.449982293328969e+000	 1.069344241695679e+001
 3.985693872690720e+000	 2.490832060426314e+000	 1.070151530550436e+001
 3.960008185597324e+000	 2.531468974743195e+000	 1.069749907808647e+001
 3.933878902745785e+000	 2.571885840906018e+000	 1.069024643290097e+001
 4.197141932276062e+000	 2.170166952144371e+000	 1.070996650444540e+001
 4.174966981903096e+000	 2.212526994158230e+000	 1.069873048151390e+001
 4.152329803467775e+000	 2.254724418439292e+000	 1.069003842555786e+001
 4.129231890019775e+000	 2.296751836471034e+000	 1.068408178964531e+001
 4.105674888994834e+000	 2.338601869875647e+000	 1.068105361362348e+001
 4.081660602465419e+000	 2.380267154378384e+000	 1.068114856657693e+001
 4.057190987271080e+000	 2.421740343794652e+000	 1.068456298595961e+001
 4.032268155027141e+000	 2.463014114035644e+000	 1.069149491289168e+001
 4.006894372010566e+000	 2.504081167128224e+000	 1.070037941134731e+001
 3.981072058922055e+000	 2.544934235244736e+000	 1.069585172860989e+001
 3.954803790523469e+000	 2.585566084738318e+000	 1.069276552695453e+001
 4.219349032441642e+000	 2.181649316969236e+000	 1.069451040298383e+001
 4.197056754289153e+000	 2.224233486189214e+000	 1.068501302209403e+001
 4.174299802423162e+000	 2.266654177265143e+000	 1.067816410142070e+001
 4.151079677793085e+000	 2.308903962587824e+000	 1.067418461693544e+001
 4.127398036551244e+000	 2.350975424740407e+000	 1.067329728845057e+001
 4.103256690304888e+000	 2.392861160483732e+000	 1.067572659570250e+001
 4.078657606247211e+000	 2.434553784764503e+000	 1.068169879062958e+001
 4.053602907166103e+000	 2.476045934742122e+000	 1.069144190536817e+001
 4.028094871329415e+000	 2.517330273829837e+000	 1.069823542124350e+001
 4.002135932245784e+000	 2.558399495745879e+000	 1.069796450766754e+001
 3.975728678300154e+000	 2.599246328570120e+000	 1.069954606141606e+001
 3.766479800488311e+000	 2.462443890229713e+000	 1.080000151246958e+001
 3.741040281084275e+000	 2.500923352550201e+000	 1.083774203996134e+001
 3.715181384841301e+000	 2.539178465126698e+000	 1.083151232150911e+001
 3.688906000821718e+000	 2.577202459478735e+000	 1.082548722388392e+001
 3.662217162235256e+000	 2.614988615018722e+000	 1.081989950706911e+001
 3.635118045494689e+000	 2.652530262857025e+000	 1.081499329405394e+001
 3.607611969151799e+000	 2.689820789586394e+000	 1.081102383260337e+001
 3.579702392714055e+000	 2.726853641041346e+000	 1.080825722720311e+001
 3.551392915342706e+000	 2.763622326028174e+000	 1.080697014142931e+001
 3.522687274433060e+000	 2.800120420021203e+000	 1.080744947108420e+001
 3.493589344077969e+000	 2.836341568821007e+000	 1.080999198853072e+001
 3.787404688273996e+000	 2.476124134065992e+000	 1.077873589540928e+001
 3.761823838206611e+000	 2.514817371178015e+000	 1.081040164253340e+001
 3.735821281428924e+000	 2.553285012158412e+000	 1.081241710357319e+001
 3.709399923053606e+000	 2.591520250924044e+000	 1.080670310857815e+001
 3.682562813141554e+000	 2.629516329550722e+000	 1.080123294962512e+001
 3.655313145752281e+000	 2.667266542099426e+000	 1.079624331462179e+001
 3.627654257873964e+000	 2.704764238421754e+000	 1.079198234679801e+001
 3.599589628233558e+000	 2.742002827940189e+000	 1.078870938510620e+001
 3.571122875987657e+000	 2.778975783398840e+000	 1.078669467441960e+001
 3.542257759294873e+000	 2.815676644580222e+000	 1.078621904585306e+001
 3.512998173770796e+000	 2.852099021983801e+000	 1.078757356762447e+001
 3.808329576058680e+000	 2.489804377901773e+000	 1.076103248278483e+001
 3.782607395327954e+000	 2.528711389805241e+000	 1.078195206469758e+001
 3.756461178015566e+000	 2.567391559189468e+000	 1.079397841362324e+001
 3.729893845284540e+000	 2.605838042368645e+000	 1.079250988440268e+001
 3.702908464046932e+000	 2.644044044081983e+000	 1.078695410080498e+001
 3.675508246008996e+000	 2.682002821341077e+000	 1.078167637692470e+001
 3.647696546595307e+000	 2.719707687256372e+000	 1.077691787626209e+001
 3.619476863752307e+000	 2.757152014838322e+000	 1.077293130055530e+001
 3.590852836631927e+000	 2.794329240768846e+000	 1.076998060769216e+001
 3.561828244156089e+000	 2.831232869138650e+000	 1.076834069909323e+001
 3.532407003463121e+000	 2.867856475146093e+000	 1.076829707696977e+001
 3.829254463842364e+000	 2.503484621737058e+000	 1.074430509267283e+001
 3.803390952448300e+000	 2.542605408431881e+000	 1.075813225033449e+001
 3.777101074601229e+000	 2.581498106219867e+000	 1.077101460917014e+001
 3.750387767514518e+000	 2.620155833812538e+000	 1.078267045605680e+001
 3.723254114951390e+000	 2.658571758612505e+000	 1.077706996848593e+001
 3.695703346264835e+000	 2.696739100581979e+000	 1.077130247347827e+001
 3.667738835315830e+000	 2.734651136090251e+000	 1.076584335083449e+001
 3.639364099270299e+000	 2.772301201735744e+000	 1.076093879206377e+001
 3.610582797275516e+000	 2.809682698138190e+000	 1.075684659849048e+001
 3.581398729016710e+000	 2.846789093696487e+000	 1.075383587557821e+001
 3.551815833154945e+000	 2.883613928307883e+000	 1.075218669645507e+001
 3.850179351625048e+000	 2.517164865571844e+000	 1.072434155509952e+001
 3.824174509567652e+000	 2.556499427057932e+000	 1.073886264718624e+001
 3.797740971185911e+000	 2.595604653249607e+000	 1.075241643135039e+001
 3.770881689743540e+000	 2.634473625255720e+000	 1.076470608766233e+001
 3.743599765854925e+000	 2.673099473142290e+000	 1.077158828743433e+001
 3.715898446519798e+000	 2.711475379822131e+000	 1.076513225894494e+001
 3.687781124035530e+000	 2.749594584923389e+000	 1.075877229824329e+001
 3.659251334787535e+000	 2.787450388632455e+000	 1.075274821229268e+001
 3.630312757918424e+000	 2.825036155506874e+000	 1.074731177501232e+001
 3.600969213876734e+000	 2.862345318253733e+000	 1.074272642842170e+001
 3.571224662846269e+000	 2.899371381469173e+000	 1.073926695230548e+001
 3.871104239406733e+000	 2.530845109406134e+000	 1.070903418990338e+001
 3.844958066686008e+000	 2.570393445683397e+000	 1.072406460173104e+001
 3.818380867769612e+000	 2.609711200278689e+000	 1.073810824542449e+001
 3.791375611971606e+000	 2.648791416698196e+000	 1.075085323355023e+001
 3.763945416757542e+000	 2.687627187671334e+000	 1.076197944847551e+001
 3.736093546773886e+000	 2.726211659061534e+000	 1.076317703223826e+001
 3.707823412754411e+000	 2.764538033755787e+000	 1.075571882794651e+001
 3.679138570304016e+000	 2.802599575528457e+000	 1.074837643361440e+001
 3.650042718560651e+000	 2.840389612874897e+000	 1.074139572368121e+001
 3.620539698736161e+000	 2.877901542810388e+000	 1.073503460804139e+001
 3.590633492537089e+000	 2.915128834629961e+000	 1.072956270772230e+001
 3.892029127187417e+000	 2.544525353239926e+000	 1.069830227377261e+001
 3.865741623803371e+000	 2.584287464308273e+000	 1.071366033502369e+001
 3.839020764352334e+000	 2.623817747307115e+000	 1.072801522873709e+001
 3.811869534198717e+000	 2.663109208139963e+000	 1.074104003760168e+001
 3.784291067659238e+000	 2.702154902199639e+000	 1.075239940519983e+001
 3.756288647027099e+000	 2.740947938300187e+000	 1.076175002178679e+001
 3.727865701472470e+000	 2.779481482587446e+000	 1.075669761549431e+001
 3.699025805819740e+000	 2.817748762423748e+000	 1.074784083414187e+001
 3.669772679202196e+000	 2.855743070242259e+000	 1.073911847682853e+001
 3.640110183594994e+000	 2.893457767366451e+000	 1.073078305147873e+001
 3.610042322227410e+000	 2.930886287790248e+000	 1.072309915382453e+001
 3.912954014967101e+000	 2.558205597073220e+000	 1.069206599573650e+001
 3.886525180919736e+000	 2.598181482932562e+000	 1.070757291931112e+001
 3.859660660934076e+000	 2.637924294334881e+000	 1.072206334900357e+001
 3.832363456424873e+000	 2.677426999581022e+000	 1.073519537360442e+001
 3.804636718560013e+000	 2.716682616727206e+000	 1.074661842953628e+001
 3.776483747279436e+000	 2.755684217538092e+000	 1.075597380437683e+001
 3.747907990189709e+000	 2.794424931418365e+000	 1.076172388739277e+001
 3.718913041334707e+000	 2.832897949318327e+000	 1.075115928420610e+001
 3.689502639843061e+000	 2.871096527608960e+000	 1.074050050077088e+001
 3.659680668453230e+000	 2.909013991921924e+000	 1.072999477206139e+001
 3.629451151917229e+000	 2.946643740950033e+000	 1.071990180088100e+001
 3.933878902745785e+000	 2.571885840906018e+000	 1.069024643290097e+001
 3.907308738035108e+000	 2.612075501556264e+000	 1.070572625539434e+001
 3.880300557514837e+000	 2.652030841361990e+000	 1.072017934328949e+001
 3.852857378650074e+000	 2.691744791021372e+000	 1.073324882584041e+001
 3.824982369459868e+000	 2.731210331254034e+000	 1.074456896228950e+001
 3.796678847530897e+000	 2.770420496775246e+000	 1.075376566312057e+001
 3.767950278906126e+000	 2.809368380248543e+000	 1.076045704206756e+001
 3.738800276848919e+000	 2.848047136212197e+000	 1.075835013326531e+001
 3.709232600483244e+000	 2.886449984975000e+000	 1.074556268426791e+001
 3.679251153310868e+000	 2.924570216476804e+000	 1.073269314939566e+001
 3.648859981606546e+000	 2.962401194109317e+000	 1.071999646982236e+001
 3.954803790523469e+000	 2.585566084738318e+000	 1.069276552695453e+001
 3.928092295149484e+000	 2.625969520179377e+000	 1.070804505070899e+001
 3.900940454094619e+000	 2.666137388388442e+000	 1.072229069765744e+001
 3.873351300874320e+000	 2.706062582461015e+000	 1.073513067028963e+001
 3.845328020358802e+000	 2.745738045780124e+000	 1.074618407903009e+001
 3.816873947781481e+000	 2.785156776011651e+000	 1.075506148120876e+001
 3.787992567621723e+000	 2.824311829077981e+000	 1.076136545144581e+001
 3.758687512362374e+000	 2.863196323105355e+000	 1.076469118251384e+001
 3.728962561122746e+000	 2.901803442340379e+000	 1.075432632734657e+001
 3.698821638167911e+000	 2.940126441031094e+000	 1.073890191967653e+001
 3.668268811295363e+000	 2.978158647268101e+000	 1.072340928402253e+001
 3.975728678300154e+000	 2.599246328570120e+000	 1.069954606141606e+001
 3.948875852262866e+000	 2.639863538801905e+000	 1.071445479809813e+001
 3.921580350673420e+000	 2.680243935414237e+000	 1.072832562745657e+001
 3.893845223097610e+000	 2.720380373899949e+000	 1.074077185642753e+001
 3.865673671256817e+000	 2.760265760305474e+000	 1.075139747339025e+001
 3.837069048031190e+000	 2.799893055247307e+000	 1.075979770484453e+001
 3.808034856336499e+000	 2.839255277906679e+000	 1.076555960416950e+001
 3.778574747875074e+000	 2.878345509997804e+000	 1.076826267149771e+001
 3.748692521761567e+000	 2.917156899705098e+000	 1.076681313047827e+001
 3.718392123024358e+000	 2.955682665584793e+000	 1.074864516630375e+001
 3.687677640983678e+000	 2.993916100426382e+000	 1.073016666133961e+001
 3.493589344077969e+000	 2.836341568821007e+000	 1.080999198853072e+001
 3.464103133416387e+000	 2.872279492169516e+000	 1.077998076456679e+001
 3.434232784866212e+000	 2.907927987320115e+000	 1.075341043076648e+001
 3.403982572244511e+000	 2.943280932556834e+000	 1.073072853785766e+001
 3.373356898778110e+000	 2.978332290657102e+000	 1.071239046025934e+001
 3.342360295004344e+000	 3.013076112296309e+000	 1.069885877617892e+001
 3.310997416564727e+000	 3.047506539389349e+000	 1.069060262362140e+001
 3.279273041893774e+000	 3.081617808365264e+000	 1.068809703357309e+001
 3.247192069805367e+000	 3.115404253371149e+000	 1.069182224170038e+001
 3.214759516979200e+000	 3.148860309401588e+000	 1.068556474102456e+001
 3.181980515350000e+000	 3.181980515350000e+000	 1.067173047523573e+001
 3.512998173770796e+000	 2.852099021983801e+000	 1.078757356762447e+001
 3.483348150827399e+000	 2.888236600461318e+000	 1.075834686997500e+001
 3.453311855896036e+000	 2.924083142806598e+000	 1.073255063877748e+001
 3.422893586537202e+000	 2.959632493294132e+000	 1.071063540147289e+001
 3.392097770440096e+000	 2.994878581161230e+000	 1.069305967859027e+001
 3.360928963311705e+000	 3.029815424031473e+000	 1.068028935823931e+001
 3.329391846658216e+000	 3.064437131274841e+000	 1.067279704607237e+001
 3.297491225461002e+000	 3.098737907300537e+000	 1.067106139199162e+001
 3.265232025749582e+000	 3.132712054778697e+000	 1.067172914899538e+001
 3.232619292074090e+000	 3.166353977787204e+000	 1.066082156630843e+001
 3.199658184880000e+000	 3.199658184880000e+000	 1.064778422644074e+001
 3.532407003463121e+000	 2.867856475146093e+000	 1.076829707696977e+001
 3.502593168238003e+000	 2.904193708752715e+000	 1.073976599962945e+001
 3.472390926925537e+000	 2.940238298292759e+000	 1.071465196542144e+001
 3.441804600829648e+000	 2.975984054031187e+000	 1.069340856436798e+001
 3.410838642101901e+000	 3.011424871665177e+000	 1.067649755302856e+001
 3.379497631618939e+000	 3.046554735766512e+000	 1.066438822328034e+001
 3.347786276751622e+000	 3.081367723160253e+000	 1.065755674611788e+001
 3.315709409028185e+000	 3.115858006235765e+000	 1.065648549176122e+001
 3.283271981693775e+000	 3.150019856186222e+000	 1.065083819447801e+001
 3.250479067168973e+000	 3.183847646172815e+000	 1.064067956009937e+001
 3.217335854410000e+000	 3.217335854410000e+000	 1.062841892050899e+001
 3.551815833154945e+000	 2.883613928307883e+000	 1.075218669645507e+001
 3.521838185648202e+000	 2.920150817043707e+000	 1.072426301613451e+001
 3.491469997954720e+000	 2.956393453778600e+000	 1.069973994160118e+001
 3.460715615121846e+000	 2.992335614767993e+000	 1.067907421123814e+001
 3.429579513763525e+000	 3.027971162168942e+000	 1.066273090748731e+001
 3.398066299926047e+000	 3.063294047501425e+000	 1.065118281981020e+001
 3.366180706844950e+000	 3.098298315045584e+000	 1.064490978221025e+001
 3.333927592595324e+000	 3.132978105170948e+000	 1.064233315369744e+001
 3.301311937637951e+000	 3.167327657593730e+000	 1.063446890454452e+001
 3.268338842263852e+000	 3.201341314558420e+000	 1.062503820932935e+001
 3.235013523940000e+000	 3.235013523940000e+000	 1.061353608735994e+001
 3.571224662846269e+000	 2.899371381469173e+000	 1.073926695230548e+001
 3.541083203057994e+000	 2.936107925334290e+000	 1.071186311052138e+001
 3.510549068983579e+000	 2.972548609264119e+000	 1.068784040853230e+001
 3.479626629413799e+000	 3.008687175504554e+000	 1.066765881878146e+001
 3.448320385424970e+000	 3.044517452672527e+000	 1.065178683938533e+001
 3.416634968233030e+000	 3.080033359236212e+000	 1.064070085116718e+001
 3.384575136938196e+000	 3.115228906930835e+000	 1.063488444878639e+001
 3.352145776162416e+000	 3.150098204106086e+000	 1.062972511252475e+001
 3.319351893582105e+000	 3.184635459001217e+000	 1.062251897762677e+001
 3.286198617358726e+000	 3.218834982944022e+000	 1.061379717945073e+001
 3.252691193470001e+000	 3.252691193470001e+000	 1.060303741600001e+001
 3.590633492537089e+000	 2.915128834629961e+000	 1.072956270772230e+001
 3.560328220467381e+000	 2.952065033624467e+000	 1.070259179337169e+001
 3.529628140012117e+000	 2.988703764749316e+000	 1.067897950935631e+001
 3.498537643705507e+000	 3.025038736240869e+000	 1.065918914780690e+001
 3.467061257086231e+000	 3.061063743175931e+000	 1.064369271225512e+001
 3.435203636539888e+000	 3.096772670970874e+000	 1.063297026863218e+001
 3.402969567031362e+000	 3.132159498816006e+000	 1.062709108601610e+001
 3.370363959729464e+000	 3.167218303041179e+000	 1.062145455169507e+001
 3.337391849526239e+000	 3.201943260408684e+000	 1.061488630463074e+001
 3.304058392453595e+000	 3.236328651329618e+000	 1.060685630961147e+001
 3.270368862999999e+000	 3.270368862999999e+000	 1.059682475022305e+001
 3.610042322227410e+000	 2.930886287790248e+000	 1.072309915382453e+001
 3.579573237876362e+000	 2.968022141914240e+000	 1.069647488622747e+001
 3.548707211040334e+000	 3.004858920234193e+000	 1.067318368102443e+001
 3.517448657996968e+000	 3.041390296976939e+000	 1.065369223559697e+001
 3.485802128747313e+000	 3.077610033679155e+000	 1.063847614858918e+001
 3.453772304846619e+000	 3.113511982705410e+000	 1.062801926476371e+001
 3.421363997124447e+000	 3.149090090701097e+000	 1.062250910474062e+001
 3.388582143296466e+000	 3.184338401976226e+000	 1.061741767773989e+001
 3.355431805470353e+000	 3.219251061816130e+000	 1.061146896376261e+001
 3.321918167548458e+000	 3.253822319715209e+000	 1.060411560798589e+001
 3.288046532530000e+000	 3.288046532530000e+000	 1.059480008444929e+001
 3.629451151917229e+000	 2.946643740950033e+000	 1.071990180088100e+001
 3.598818255284934e+000	 2.983979250203605e+000	 1.069353851327665e+001
 3.567786282068231e+000	 3.021014075718749e+000	 1.067047964644162e+001
 3.536359672288182e+000	 3.057741857712761e+000	 1.065119538851529e+001
 3.504543000408214e+000	 3.094156324182197e+000	 1.063616502291604e+001
 3.472340973153226e+000	 3.130251294439821e+000	 1.062641687810367e+001
 3.439758427217453e+000	 3.166020682586106e+000	 1.062207715702918e+001
 3.406800326863423e+000	 3.201458500911228e+000	 1.061751089713671e+001
 3.373471761414447e+000	 3.236558863223557e+000	 1.061216521552066e+001
 3.339777942643317e+000	 3.271315988100795e+000	 1.060547524725519e+001
 3.305724202060000e+000	 3.305724202060000e+000	 1.059686555969794e+001
 3.648859981606546e+000	 2.962401194109317e+000	 1.071999646982236e+001
 3.618063272693102e+000	 2.999936358492565e+000	 1.069380909330403e+001
 3.586865353095806e+000	 3.037169231202983e+000	 1.067089440686146e+001
 3.555270686579151e+000	 3.074093418448338e+000	 1.065172617485026e+001
 3.523283872068935e+000	 3.110702614685059e+000	 1.063678745509714e+001
 3.490909641459706e+000	 3.146990606174107e+000	 1.062962141670429e+001
 3.458152857310378e+000	 3.182951274471036e+000	 1.062569006712211e+001
 3.425018510430335e+000	 3.218578599846186e+000	 1.062163081099139e+001
 3.391511717358521e+000	 3.253866664630963e+000	 1.061687349784710e+001
 3.357637717738171e+000	 3.288809656486376e+000	 1.061083556023231e+001
 3.323401871590000e+000	 3.323401871590000e+000	 1.060292345968828e+001
 3.668268811295363e+000	 2.978158647268101e+000	 1.072340928402253e+001
 3.637308290100862e+000	 3.015893466781117e+000	 1.069731333189767e+001
 3.605944424123060e+000	 3.053324386686897e+000	 1.067445523452248e+001
 3.574181700869874e+000	 3.090444979183670e+000	 1.065531241788581e+001
 3.542024743729474e+000	 3.127248905187740e+000	 1.064087690986252e+001
 3.509478309766062e+000	 3.163729917908265e+000	 1.063678599304458e+001
 3.476547287403223e+000	 3.199881866355886e+000	 1.063324286533653e+001
 3.443236693997202e+000	 3.235698698781097e+000	 1.062967420988920e+001
 3.409551673302576e+000	 3.271174466038349e+000	 1.062549242143381e+001
 3.375497492833020e+000	 3.306303324871952e+000	 1.062009703562568e+001
 3.341079541120000e+000	 3.341079541120000e+000	 1.061287620706454e+001
 3.687677640983678e+000	 2.993916100426382e+000	 1.073016666133961e+001
 3.656553307508218e+000	 3.031850575069264e+000	 1.070407821390145e+001
 3.625023495149993e+000	 3.069479542170489e+000	 1.068118966551689e+001
 3.593092715160352e+000	 3.106796539918756e+000	 1.066198218919098e+001
 3.560765615389834e+000	 3.143795195690242e+000	 1.065164866790590e+001
 3.528046978072291e+000	 3.180469229642300e+000	 1.064780415555326e+001
 3.494941717495988e+000	 3.216812458240655e+000	 1.064463078264333e+001
 3.461454877564024e+000	 3.252818797715964e+000	 1.064153806890860e+001
 3.427591629246610e+000	 3.288482267445716e+000	 1.063792076517626e+001
 3.393357267927864e+000	 3.323796993257524e+000	 1.063316031393658e+001
 3.358757210650000e+000	 3.358757210650000e+000	 1.062662635973991e+001
 3.181980515350000e+000	 3.181980515350000e+000	 1.067173047523573e+001
 3.148860309401589e+000	 3.214759516979199e+000	 1.066720311134477e+001
 3.115404253371151e+000	 3.247192069805366e+000	 1.066253369654121e+001
 3.081617808365265e+000	 3.279273041893772e+000	 1.065991557754174e+001
 3.047506539389349e+000	 3.310997416564726e+000	 1.065321740434970e+001
 3.013076112296310e+000	 3.342360295004343e+000	 1.064262065459089e+001
 2.978332290657104e+000	 3.373356898778109e+000	 1.062831183662387e+001
 2.943280932556835e+000	 3.403982572244510e+000	 1.061048236953523e+001
 2.907927987320116e+000	 3.434232784866211e+000	 1.058932846034347e+001
 2.872279492169517e+000	 3.464103133416387e+000	 1.056505097845578e+001
 2.836341568821007e+000	 3.493589344077969e+000	 1.053785532742029e+001
 3.199658184880000e+000	 3.199658184880000e+000	 1.064778422644074e+001
 3.166353977787205e+000	 3.232619292074087e+000	 1.064362511556247e+001
 3.132712054778697e+000	 3.265232025749580e+000	 1.063697043233157e+001
 3.098737907300539e+000	 3.297491225461001e+000	 1.063283437915984e+001
 3.064437131274842e+000	 3.329391846658214e+000	 1.062621666697479e+001
 3.029815424031474e+000	 3.360928963311703e+000	 1.061554205139109e+001
 2.994878581161231e+000	 3.392097770440095e+000	 1.060099983814663e+001
 2.959632493294134e+000	 3.422893586537201e+000	 1.058278430748197e+001
 2.924083142806599e+000	 3.453311855896036e+000	 1.056109458979999e+001
 2.888236600461320e+000	 3.483348150827398e+000	 1.053613453858476e+001
 2.852099021983801e+000	 3.512998173770796e+000	 1.050811260062063e+001
 3.217335854410000e+000	 3.217335854410000e+000	 1.062841892050899e+001
 3.183847646172816e+000	 3.250479067168972e+000	 1.062469594681832e+001
 3.150019856186225e+000	 3.283271981693775e+000	 1.061842092250546e+001
 3.115858006235767e+000	 3.315709409028185e+000	 1.061088663836234e+001
 3.081367723160254e+000	 3.347786276751620e+000	 1.060435178568836e+001
 3.046554735766512e+000	 3.379497631618937e+000	 1.059360133864945e+001
 3.011424871665178e+000	 3.410838642101900e+000	 1.057882737780867e+001
 2.975984054031187e+000	 3.441804600829646e+000	 1.056022702145416e+001
 2.940238298292760e+000	 3.472390926925536e+000	 1.053800229975872e+001
 2.904193708752717e+000	 3.502593168238003e+000	 1.051236002620563e+001
 2.867856475146093e+000	 3.532407003463121e+000	 1.048351166632166e+001
 3.235013523940000e+000	 3.235013523940000e+000	 1.061353608735994e+001
 3.201341314558423e+000	 3.268338842263850e+000	 1.061031783040292e+001
 3.167327657593731e+000	 3.301311937637950e+000	 1.060449402780094e+001
 3.132978105170949e+000	 3.333927592595322e+000	 1.059552642919356e+001
 3.098298315045586e+000	 3.366180706844949e+000	 1.058759275127729e+001
 3.063294047501426e+000	 3.398066299926045e+000	 1.057676814204253e+001
 3.027971162168944e+000	 3.429579513763525e+000	 1.056176372367170e+001
 2.992335614767995e+000	 3.460715615121845e+000	 1.054277942943475e+001
 2.956393453778601e+000	 3.491469997954718e+000	 1.052002016569084e+001
 2.920150817043707e+000	 3.521838185648202e+000	 1.049369568186685e+001
 2.883613928307883e+000	 3.551815833154945e+000	 1.046402043775090e+001
 3.252691193470001e+000	 3.252691193470001e+000	 1.060303741600001e+001
 3.218834982944023e+000	 3.286198617358724e+000	 1.060039316161881e+001
 3.184635459001219e+000	 3.319351893582104e+000	 1.059509289309548e+001
 3.150098204106087e+000	 3.352145776162415e+000	 1.058658497016531e+001
 3.115228906930837e+000	 3.384575136938195e+000	 1.057590975780904e+001
 3.080033359236213e+000	 3.416634968233030e+000	 1.056501230176358e+001
 3.044517452672528e+000	 3.448320385424968e+000	 1.054977836961464e+001
 3.008687175504556e+000	 3.479626629413798e+000	 1.053041068658302e+001
 2.972548609264120e+000	 3.510549068983577e+000	 1.050711701165644e+001
 2.936107925334291e+000	 3.541083203057994e+000	 1.048011000616592e+001
 2.899371381469173e+000	 3.571224662846268e+000	 1.044960709968709e+001
 3.270368862999999e+000	 3.270368862999999e+000	 1.059682475022305e+001
 3.236328651329619e+000	 3.304058392453593e+000	 1.059482450118552e+001
 3.201943260408684e+000	 3.337391849526239e+000	 1.059012083939679e+001
 3.167218303041179e+000	 3.370363959729463e+000	 1.058214848449087e+001
 3.132159498816007e+000	 3.402969567031361e+000	 1.057033766291761e+001
 3.096772670970876e+000	 3.435203636539887e+000	 1.055830386672489e+001
 3.061063743175933e+000	 3.467061257086230e+000	 1.054284102923041e+001
 3.025038736240870e+000	 3.498537643705504e+000	 1.052309017882456e+001
 2.988703764749318e+000	 3.529628140012117e+000	 1.049926190358583e+001
 2.952065033624470e+000	 3.560328220467380e+000	 1.047157175272097e+001
 2.915128834629961e+000	 3.590633492537090e+000	 1.044024010112102e+001
 3.288046532530000e+000	 3.288046532530000e+000	 1.059480008444929e+001
 3.253822319715210e+000	 3.321918167548457e+000	 1.059351457079293e+001
 3.219251061816132e+000	 3.355431805470353e+000	 1.058948135910813e+001
 3.184338401976227e+000	 3.388582143296466e+000	 1.058212127718416e+001
 3.149090090701097e+000	 3.421363997124447e+000	 1.057085044114462e+001
 3.113511982705412e+000	 3.453772304846618e+000	 1.055661308894691e+001
 3.077610033679156e+000	 3.485802128747312e+000	 1.054092162991968e+001
 3.041390296976939e+000	 3.517448657996966e+000	 1.052078751664775e+001
 3.004858920234195e+000	 3.548707211040334e+000	 1.049642414277770e+001
 2.968022141914241e+000	 3.579573237876359e+000	 1.046804992136915e+001
 2.930886287790248e+000	 3.610042322227410e+000	 1.043588814815299e+001
 3.305724202060000e+000	 3.305724202060000e+000	 1.059686555969794e+001
 3.271315988100795e+000	 3.339777942643316e+000	 1.059636624879724e+001
 3.236558863223558e+000	 3.373471761414446e+000	 1.059307811144553e+001
 3.201458500911230e+000	 3.406800326863422e+000	 1.058640783029256e+001
 3.166020682586108e+000	 3.439758427217452e+000	 1.057575715239609e+001
 3.130251294439822e+000	 3.472340973153225e+000	 1.056052447211279e+001
 3.094156324182199e+000	 3.504543000408213e+000	 1.054399030717405e+001
 3.057741857712763e+000	 3.536359672288181e+000	 1.052347252909950e+001
 3.021014075718751e+000	 3.567786282068230e+000	 1.049857325960580e+001
 2.983979250203606e+000	 3.598818255284933e+000	 1.046951375158322e+001
 2.946643740950033e+000	 3.629451151917229e+000	 1.043652019711829e+001
 3.323401871590000e+000	 3.323401871590000e+000	 1.060292345968828e+001
 3.288809656486377e+000	 3.357637717738170e+000	 1.060328256605428e+001
 3.253866664630964e+000	 3.391511717358519e+000	 1.060081491800126e+001
 3.218578599846186e+000	 3.425018510430334e+000	 1.059491279818854e+001
 3.182951274471038e+000	 3.458152857310378e+000	 1.058496332426610e+001
 3.146990606174108e+000	 3.490909641459706e+000	 1.057035006275750e+001
 3.110702614685061e+000	 3.523283872068934e+000	 1.055201739904177e+001
 3.074093418448340e+000	 3.555270686579150e+000	 1.053111525797246e+001
 3.037169231202985e+000	 3.586865353095806e+000	 1.050567900742658e+001
 2.999936358492565e+000	 3.618063272693100e+000	 1.047593271609831e+001
 2.962401194109317e+000	 3.648859981606546e+000	 1.044210544793194e+001
 3.341079541120000e+000	 3.341079541120000e+000	 1.061287620706454e+001
 3.306303324871953e+000	 3.375497492833018e+000	 1.061416670188518e+001
 3.271174466038349e+000	 3.409551673302574e+000	 1.061259575844822e+001
 3.235698698781098e+000	 3.443236693997201e+000	 1.060754100301085e+001
 3.199881866355887e+000	 3.476547287403222e+000	 1.059837466186633e+001
 3.163729917908267e+000	 3.509478309766060e+000	 1.058446520665993e+001
 3.127248905187742e+000	 3.542024743729473e+000	 1.056517902377623e+001
 3.090444979183671e+000	 3.574181700869873e+000	 1.054368595217687e+001
 3.053324386686898e+000	 3.605944424123059e+000	 1.051771135668013e+001
 3.015893466781118e+000	 3.637308290100862e+000	 1.048727651474088e+001
 2.978158647268101e+000	 3.668268811295363e+000	 1.045261333764486e+001
 3.358757210650000e+000	 3.358757210650000e+000	 1.062662635973991e+001
 3.323796993257525e+000	 3.393357267927863e+000	 1.062892198016933e+001
 3.288482267445717e+000	 3.427591629246607e+000	 1.062832476637987e+001
 3.252818797715966e+000	 3.461454877564024e+000	 1.062419743024955e+001
 3.216812458240656e+000	 3.494941717495987e+000	 1.061589704315442e+001
 3.180469229642302e+000	 3.528046978072290e+000	 1.060277671316103e+001
 3.143795195690242e+000	 3.560765615389833e+000	 1.058418728690696e+001
 3.106796539918757e+000	 3.593092715160351e+000	 1.056115506229005e+001
 3.069479542170491e+000	 3.625023495149992e+000	 1.053464048917745e+001
 3.031850575069266e+000	 3.656553307508217e+000	 1.050351506845269e+001
 2.993916100426382e+000	 3.687677640983678e+000	 1.046801353420337e+001
 2.836341568821007e+000	 3.493589344077969e+000	 1.053785532742029e+001
 2.800120420021204e+000	 3.522687274433059e+000	 1.052056106519712e+001
 2.763622326028175e+000	 3.551392915342705e+000	 1.049833883568868e+001
 2.726853641041347e+000	 3.579702392714053e+000	 1.047137672060957e+001
 2.689820789586396e+000	 3.607611969151798e+000	 1.043986917482618e+001
 2.652530262857026e+000	 3.635118045494689e+000	 1.040401690372847e+001
 2.614988615018723e+000	 3.662217162235255e+000	 1.036402673486055e+001
 2.577202459478736e+000	 3.688906000821717e+000	 1.032011148384031e+001
 2.539178465126700e+000	 3.715181384841300e+000	 1.027248981460502e+001
 2.500923352550203e+000	 3.741040281084274e+000	 1.022138609402925e+001
 2.462443890229713e+000	 3.766479800488312e+000	 1.024496038421839e+001
 2.852099021983801e+000	 3.512998173770796e+000	 1.050811260062063e+001
 2.815676644580223e+000	 3.542257759294872e+000	 1.048881192205220e+001
 2.778975783398841e+000	 3.571122875987657e+000	 1.046394263482425e+001
 2.742002827940190e+000	 3.599589628233557e+000	 1.043367657360382e+001
 2.704764238421754e+000	 3.627654257873962e+000	 1.039819257668012e+001
 2.667266542099427e+000	 3.655313145752280e+000	 1.035767637954386e+001
 2.629516329550723e+000	 3.682562813141553e+000	 1.031232050184104e+001
 2.591520250924045e+000	 3.709399923053605e+000	 1.026232412770603e+001
 2.553285012158413e+000	 3.735821281428923e+000	 1.020789297948926e+001
 2.514817371178017e+000	 3.761823838206612e+000	 1.019445204206049e+001
 2.476124134065992e+000	 3.787404688273996e+000	 1.023937867625550e+001
 2.867856475146093e+000	 3.532407003463121e+000	 1.048351166632166e+001
 2.831232869138651e+000	 3.561828244156089e+000	 1.046184713439732e+001
 2.794329240768847e+000	 3.590852836631926e+000	 1.043397848892499e+001
 2.757152014838323e+000	 3.619476863752306e+000	 1.040006144990581e+001
 2.719707687256372e+000	 3.647696546595306e+000	 1.036025936701880e+001
 2.682002821341079e+000	 3.675508246008994e+000	 1.031474312934014e+001
 2.644044044081985e+000	 3.702908464046931e+000	 1.026369106755782e+001
 2.605838042368646e+000	 3.729893845284539e+000	 1.020728884866349e+001
 2.567391559189470e+000	 3.756461178015565e+000	 1.017010595979741e+001
 2.528711389805244e+000	 3.782607395327953e+000	 1.020342815975787e+001
 2.489804377901773e+000	 3.808329576058680e+000	 1.023545215192571e+001
 2.883613928307883e+000	 3.551815833154945e+000	 1.046402043775090e+001
 2.846789093696489e+000	 3.581398729016709e+000	 1.043964014484561e+001
 2.809682698138191e+000	 3.610582797275515e+000	 1.040842528466395e+001
 2.772301201735746e+000	 3.639364099270299e+000	 1.037051559232173e+001
 2.734651136090252e+000	 3.667738835315828e+000	 1.032605905431447e+001
 2.696739100581981e+000	 3.695703346264835e+000	 1.027521183431021e+001
 2.658571758612507e+000	 3.723254114951389e+000	 1.021813819056606e+001
 2.620155833812538e+000	 3.750387767514516e+000	 1.015644798673361e+001
 2.581498106219867e+000	 3.777101074601226e+000	 1.018776640301177e+001
 2.542605408431882e+000	 3.803390952448300e+000	 1.021389677221187e+001
 2.503484621737058e+000	 3.829254463842364e+000	 1.023433802427008e+001
 2.899371381469173e+000	 3.571224662846268e+000	 1.044960709968709e+001
 2.862345318253735e+000	 3.600969213876733e+000	 1.042216455194587e+001
 2.825036155506875e+000	 3.630312757918423e+000	 1.038726195108524e+001
 2.787450388632458e+000	 3.659251334787534e+000	 1.034502317456607e+001
 2.749594584923391e+000	 3.687781124035530e+000	 1.029558096863552e+001
 2.711475379822133e+000	 3.715898446519798e+000	 1.023907689012976e+001
 2.673099473142290e+000	 3.743599765854925e+000	 1.017566123903465e+001
 2.634473625255722e+000	 3.770881689743538e+000	 1.018245535685657e+001
 2.595604653249608e+000	 3.797740971185909e+000	 1.020709581017933e+001
 2.556499427057933e+000	 3.824174509567651e+000	 1.022582273869847e+001
 2.517164865571844e+000	 3.850179351625048e+000	 1.023810757892151e+001
 2.915128834629961e+000	 3.590633492537090e+000	 1.044024010112102e+001
 2.877901542810389e+000	 3.620539698736160e+000	 1.040939410596801e+001
 2.840389612874899e+000	 3.650042718560650e+000	 1.037046745845889e+001
 2.802599575528459e+000	 3.679138570304014e+000	 1.032356830312892e+001
 2.764538033755789e+000	 3.707823412754410e+000	 1.026881426646840e+001
 2.726211659061536e+000	 3.736093546773886e+000	 1.020633241467384e+001
 2.687627187671335e+000	 3.763945416757541e+000	 1.018648947191940e+001
 2.648791416698197e+000	 3.791375611971605e+000	 1.021030163942194e+001
 2.609711200278691e+000	 3.818380867769611e+000	 1.022805236341426e+001
 2.570393445683398e+000	 3.844958066686007e+000	 1.023917024608187e+001
 2.530845109406134e+000	 3.871104239406732e+000	 1.024309907894553e+001
 2.930886287790248e+000	 3.610042322227410e+000	 1.043588814815299e+001
 2.893457767366452e+000	 3.640110183594993e+000	 1.040130270482459e+001
 2.855743070242261e+000	 3.669772679202195e+000	 1.035802081717263e+001
 2.817748762423749e+000	 3.699025805819737e+000	 1.030613501908294e+001
 2.779481482587447e+000	 3.727865701472470e+000	 1.024574793538361e+001
 2.740947938300189e+000	 3.756288647027098e+000	 1.019900411413804e+001
 2.702154902199641e+000	 3.784291067659237e+000	 1.022253712812017e+001
 2.663109208139964e+000	 3.811869534198716e+000	 1.023993845643827e+001
 2.623817747307116e+000	 3.839020764352334e+000	 1.025059368316470e+001
 2.584287464308274e+000	 3.865741623803368e+000	 1.025390282689026e+001
 2.544525353239926e+000	 3.892029127187417e+000	 1.024928187878430e+001
 2.946643740950033e+000	 3.629451151917229e+000	 1.043652019711829e+001
 2.909013991921924e+000	 3.659680668453228e+000	 1.039786439012315e+001
 2.871096527608962e+000	 3.689502639843060e+000	 1.034990107665920e+001
 2.832897949318329e+000	 3.718913041334706e+000	 1.029270729983272e+001
 2.794424931418366e+000	 3.747907990189708e+000	 1.022637079855235e+001
 2.755684217538093e+000	 3.776483747279434e+000	 1.024296729166313e+001
 2.716682616727208e+000	 3.804636718560011e+000	 1.026053249458566e+001
 2.677426999581023e+000	 3.832363456424872e+000	 1.027131697564485e+001
 2.637924294334883e+000	 3.859660660934074e+000	 1.027467684323052e+001
 2.598181482932563e+000	 3.886525180919735e+000	 1.026998337681126e+001
 2.558205597073221e+000	 3.912954014967101e+000	 1.025662460807019e+001
 2.962401194109317e+000	 3.648859981606546e+000	 1.044210544793194e+001
 2.924570216476806e+000	 3.679251153310866e+000	 1.039905334334449e+001
 2.886449984975001e+000	 3.709232600483242e+000	 1.034608732435792e+001
 2.848047136212198e+000	 3.738800276848918e+000	 1.028326906080789e+001
 2.809368380248544e+000	 3.767950278906126e+000	 1.027090252622361e+001
 2.770420496775247e+000	 3.796678847530895e+000	 1.028902934767784e+001
 2.731210331254036e+000	 3.824982369459867e+000	 1.030042040248571e+001
 2.691744791021374e+000	 3.852857378650074e+000	 1.030438792259328e+001
 2.652030841361992e+000	 3.880300557514837e+000	 1.030025838530191e+001
 2.612075501556264e+000	 3.907308738035107e+000	 1.028737417162929e+001
 2.571885840906018e+000	 3.933878902745785e+000	 1.026509519090273e+001
 2.978158647268101e+000	 3.668268811295363e+000	 1.045261333764486e+001
 2.940126441031095e+000	 3.698821638167910e+000	 1.040484388214233e+001
 2.901803442340381e+000	 3.728962561122744e+000	 1.034655868470926e+001
 2.863196323105357e+000	 3.758687512362374e+000	 1.030580157506628e+001
 2.824311829077982e+000	 3.787992567621723e+000	 1.032477049392636e+001
 2.785156776011652e+000	 3.816873947781480e+000	 1.033712889525847e+001
 2.745738045780125e+000	 3.845328020358801e+000	 1.034214534207997e+001
 2.706062582461016e+000	 3.873351300874318e+000	 1.033910159234560e+001
 2.666137388388443e+000	 3.900940454094618e+000	 1.032729433303633e+001
 2.625969520179379e+000	 3.928092295149483e+000	 1.030603688362505e+001
 2.585566084738318e+000	 3.954803790523470e+000	 1.027466086451341e+001
 2.993916100426382e+000	 3.687677640983678e+000	 1.046801353420337e+001
 2.955682665584793e+000	 3.718392123024356e+000	 1.041521045675987e+001
 2.917156899705098e+000	 3.748692521761566e+000	 1.035129431818110e+001
 2.878345509997806e+000	 3.778574747875073e+000	 1.036724696439105e+001
 2.839255277906680e+000	 3.808034856336499e+000	 1.038081523473502e+001
 2.799893055247309e+000	 3.837069048031190e+000	 1.038720430471092e+001
 2.760265760305475e+000	 3.865673671256816e+000	 1.038565147168928e+001
 2.720380373899951e+000	 3.893845223097609e+000	 1.037540786080291e+001
 2.680243935414238e+000	 3.921580350673420e+000	 1.035574020569094e+001
 2.639863538801907e+000	 3.948875852262866e+000	 1.032593259745727e+001
 2.599246328570120e+000	 3.975728678300154e+000	 1.028528819734124e+001
 2.462443890229713e+000	 3.766479800488312e+000	 1.024496038421839e+001
 2.423746890716576e+000	 3.791497198963489e+000	 1.025633078411344e+001
 2.384839206800335e+000	 3.816089878095935e+000	 1.025982789462861e+001
 2.345727727668478e+000	 3.840255385731489e+000	 1.025501558028503e+001
 2.306419375061633e+000	 3.863991416440919e+000	 1.024147613234188e+001
 2.266921099430404e+000	 3.887295811865205e+000	 1.021881147687942e+001
 2.227239876097467e+000	 3.910166560942134e+000	 1.018664433898720e+001
 2.187382701429101e+000	 3.932601800014995e+000	 1.014461936009777e+001
 2.147356589020303e+000	 3.954599812824289e+000	 1.009240416567001e+001
 2.107168565897561e+000	 3.976159030383603e+000	 1.002969038059626e+001
 2.066825668743274e+000	 3.997278030740858e+000	 9.956194589887131e+000
 2.476124134065992e+000	 3.787404688273996e+000	 1.023937867625550e+001
 2.437212151221294e+000	 3.812561072296217e+000	 1.024213785477120e+001
 2.398088313504623e+000	 3.837290377423782e+000	 1.023836507707734e+001
 2.358759548376729e+000	 3.861590137879450e+000	 1.022764656256922e+001
 2.319232816032356e+000	 3.885458035426049e+000	 1.020958546268437e+001
 2.279515105535722e+000	 3.908891899713674e+000	 1.018380307527974e+001
 2.239613430961296e+000	 3.931889708507546e+000	 1.014994001693269e+001
 2.199534827544057e+000	 3.954449587797303e+000	 1.010765735014855e+001
 2.159286347843420e+000	 3.976569811788677e+000	 1.005663766261743e+001
 2.118875057924909e+000	 3.998248802778657e+000	 9.996586095833093e+000
 2.078308033563603e+000	 4.019485130915437e+000	 9.927231320561786e+000
 2.489804377901773e+000	 3.808329576058680e+000	 1.023545215192571e+001
 2.450677411725615e+000	 3.833624945627947e+000	 1.023038315304210e+001
 2.411337420208613e+000	 3.858490876750630e+000	 1.022010530538060e+001
 2.371791369084784e+000	 3.882924890026411e+000	 1.020422665234530e+001
 2.332046257002982e+000	 3.906924654410177e+000	 1.018237068916877e+001
 2.292109111641044e+000	 3.930487987561142e+000	 1.015417758415422e+001
 2.251986985825228e+000	 3.953612856071956e+000	 1.011930535963643e+001
 2.211686953659217e+000	 3.976297375578613e+000	 1.007743102958490e+001
 2.171216106666841e+000	 3.998539810752064e+000	 1.002825169093116e+001
 2.130581549952660e+000	 4.020338575172712e+000	 9.971485565868600e+000
 2.089790398384435e+000	 4.041692231089016e+000	 9.906872992548523e+000
 2.503484621737058e+000	 3.829254463842364e+000	 1.023433802427008e+001
 2.464142672229539e+000	 3.854688818958676e+000	 1.022101361982552e+001
 2.424586526912307e+000	 3.879691376076478e+000	 1.020498572724070e+001
 2.384823189792640e+000	 3.904259642172372e+000	 1.018468351469547e+001
 2.344859697973512e+000	 3.928391273393306e+000	 1.015975030691200e+001
 2.304703117746368e+000	 3.952084075407610e+000	 1.012984464317816e+001
 2.264360540689263e+000	 3.975336003635367e+000	 1.009464146751632e+001
 2.223839079774579e+000	 3.998145163358922e+000	 1.005383327720555e+001
 2.183145865490566e+000	 4.020509809714451e+000	 1.000713122667720e+001
 2.142288041980816e+000	 4.042428347565767e+000	 9.954266183967599e+000
 2.101272763205771e+000	 4.063899331261593e+000	 9.894989737085620e+000
 2.517164865571844e+000	 3.850179351625048e+000	 1.023810757892151e+001
 2.477607932733066e+000	 3.875752692288406e+000	 1.021397566910452e+001
 2.437835633615703e+000	 3.900891875401327e+000	 1.019294321675287e+001
 2.397855010500301e+000	 3.925594394317333e+000	 1.016894478797864e+001
 2.357673138943945e+000	 3.949857892375436e+000	 1.014164302467295e+001
 2.317297123851696e+000	 3.973680163253078e+000	 1.011071433942680e+001
 2.276734095553402e+000	 3.997059151197778e+000	 1.007585011545680e+001
 2.235991205890147e+000	 4.019992951138230e+000	 1.003675786657153e+001
 2.195075624314594e+000	 4.042479808675839e+000	 9.993162354134492e+000
 2.153994534009375e+000	 4.064518119957822e+000	 9.944806658143312e+000
 2.112755128027612e+000	 4.086106431433171e+000	 9.891453199715265e+000
 2.530845109406134e+000	 3.871104239406732e+000	 1.024309907894553e+001
 2.491073193236195e+000	 3.896816565617135e+000	 1.020921520218691e+001
 2.451084740318802e+000	 3.922092374725174e+000	 1.018391438179991e+001
 2.410886831207764e+000	 3.946929146461295e+000	 1.015693808455275e+001
 2.370486579914279e+000	 3.971324511356564e+000	 1.012796775907853e+001
 2.329891129957027e+000	 3.995276251097546e+000	 1.009669719528344e+001
 2.289107650417644e+000	 4.018782298759190e+000	 1.006283373458004e+001
 2.248143332005917e+000	 4.041840738916538e+000	 1.002609944182347e+001
 2.207005383138926e+000	 4.064449807636225e+000	 9.986232235843216e+000
 2.165701026038339e+000	 4.086607892348876e+000	 9.942986975623665e+000
 2.124237492849956e+000	 4.108313531603750e+000	 9.896136499356393e+000
 2.544525353239926e+000	 3.892029127187417e+000	 1.024928187878430e+001
 2.504538453738926e+000	 3.917880438944866e+000	 1.020800717111113e+001
 2.464333847021603e+000	 3.943292874048022e+000	 1.017783557120850e+001
 2.423918651915030e+000	 3.968263898604255e+000	 1.014859099147367e+001
 2.383300020884518e+000	 3.992791130336693e+000	 1.011864362903563e+001
 2.342485136062361e+000	 4.016872338941013e+000	 1.008770415673766e+001
 2.301481205281990e+000	 4.040505446319600e+000	 1.005549539460506e+001
 2.260295458121891e+000	 4.063688526693848e+000	 1.002175349427891e+001
 2.218935141963562e+000	 4.086419806595612e+000	 9.986229083619179e+000
 2.177407518067706e+000	 4.108697664738932e+000	 9.948688368463767e+000
 2.135719857672804e+000	 4.130520631773328e+000	 9.908914188697814e+000
 2.558205597073221e+000	 3.912954014967101e+000	 1.025662460807019e+001
 2.518003714241260e+000	 3.938944312271593e+000	 1.021139810174145e+001
 2.477582953724108e+000	 3.964493373369870e+000	 1.017464288167589e+001
 2.436950472622099e+000	 3.989598650746217e+000	 1.014383107117174e+001
 2.396113461854660e+000	 4.014257749315822e+000	 1.011358995032268e+001
 2.355079142167700e+000	 4.038468426783482e+000	 1.008364658205886e+001
 2.313854760146439e+000	 4.062228593879011e+000	 1.005373878677299e+001
 2.272447584238069e+000	 4.085536314470156e+000	 1.002361633978051e+001
 2.230864900788501e+000	 4.108389805553999e+000	 9.993042130498486e+000
 2.189114010097477e+000	 4.130787437127987e+000	 9.961793280261768e+000
 2.147202222496156e+000	 4.152727731941907e+000	 9.929662215862122e+000
 2.571885840906018e+000	 3.933878902745785e+000	 1.026509519090273e+001
 2.531468974743198e+000	 3.960008185597324e+000	 1.021663738037852e+001
 2.490832060426316e+000	 3.985693872690718e+000	 1.017427216447534e+001
 2.449982293328970e+000	 4.010933402887178e+000	 1.014258586210670e+001
 2.408926902824705e+000	 4.035724368293952e+000	 1.011272623035367e+001
 2.367673148273041e+000	 4.060064514624949e+000	 1.008443623083149e+001
 2.326228315010992e+000	 4.083951741437421e+000	 1.005746820731724e+001
 2.284599710354450e+000	 4.107384102245465e+000	 1.003158509676720e+001
 2.242794659613746e+000	 4.130359804511387e+000	 1.000656160357724e+001
 2.200820502127653e+000	 4.152877209516041e+000	 9.982185333936975e+000
 2.158684587320011e+000	 4.174934832109484e+000	 9.958257887293051e+000
 2.585566084738318e+000	 3.954803790523470e+000	 1.027466086451341e+001
 2.544934235244737e+000	 3.981072058922053e+000	 1.022368347894743e+001
 2.504081167128226e+000	 4.006894372010565e+000	 1.017766260968151e+001
 2.463014114035645e+000	 4.032268155027139e+000	 1.014478287940184e+001
 2.421740343794653e+000	 4.057190987271080e+000	 1.011597216310848e+001
 2.380267154378385e+000	 4.081660602465417e+000	 1.008998525333812e+001
 2.338601869875648e+000	 4.105674888994833e+000	 1.006658854145839e+001
 2.296751836471036e+000	 4.129231890019773e+000	 1.004555766504145e+001
 2.254724418439293e+000	 4.152329803467774e+000	 1.002667869771381e+001
 2.212526994158232e+000	 4.174966981903097e+000	 1.000974930053086e+001
 2.170166952144371e+000	 4.197141932276062e+000	 9.994579831821088e+000
 2.599246328570120e+000	 3.975728678300154e+000	 1.028528819734124e+001
 2.558399495745880e+000	 4.002135932245784e+000	 1.023249442134513e+001
 2.517330273829839e+000	 4.028094871329415e+000	 1.018584472741794e+001
 2.476045934742124e+000	 4.053602907166102e+000	 1.015034961545812e+001
 2.434553784764505e+000	 4.078657606247210e+000	 1.012324762422315e+001
 2.392861160483733e+000	 4.103256690304887e+000	 1.010020618027802e+001
 2.350975424740408e+000	 4.127398036551243e+000	 1.008100524790453e+001
 2.308903962587825e+000	 4.151079677793084e+000	 1.006543270520709e+001
 2.266654177265145e+000	 4.174299802423161e+000	 1.005328555006132e+001
 2.224233486189215e+000	 4.197056754289152e+000	 1.004437106899336e+001
 2.181649316969235e+000	 4.219349032441642e+000	 1.003850796586382e+001
 2.066825668743274e+000	 3.997278030740858e+000	 9.956194589887131e+000
 2.026334940146127e+000	 4.017955538626073e+000	 9.906162068943436e+000
 1.985703424879969e+000	 4.038190424988225e+000	 9.863809952775355e+000
 1.944938166216199e+000	 4.057981706422045e+000	 9.829174280035469e+000
 1.904046202273651e+000	 4.077328544486139e+000	 9.802298811926391e+000
 1.863034562408459e+000	 4.096230244915353e+000	 9.784625593739346e+000
 1.821910263647760e+000	 4.114686256729197e+000	 9.773005587355232e+000
 1.780680307170586e+000	 4.132696171238479e+000	 9.762318303720802e+000
 1.739351674839183e+000	 4.150259720952575e+000	 9.753964605748919e+000
 1.697931325783846e+000	 4.167376778389714e+000	 9.749303467903980e+000
 1.656426193044263e+000	 4.184047354792892e+000	 9.749650041553480e+000
 2.078308033563603e+000	 4.019485130915437e+000	 9.927231320561786e+000
 2.037592356473766e+000	 4.040277513844186e+000	 9.886761272925984e+000
 1.996735110566970e+000	 4.060624816241361e+000	 9.851585701737642e+000
 1.955743378243896e+000	 4.080526049238336e+000	 9.821696024597673e+000
 1.914624236724040e+000	 4.099980369735707e+000	 9.797094142885635e+000
 1.873384754415511e+000	 4.118987079611292e+000	 9.778027270064316e+000
 1.832031987328929e+000	 4.137545624823596e+000	 9.766054510897250e+000
 1.790572975538765e+000	 4.155655594412934e+000	 9.752725491309525e+000
 1.749014739695386e+000	 4.173316719402626e+000	 9.739446081716519e+000
 1.707364277590922e+000	 4.190528871602665e+000	 9.727581940190788e+000
 1.665628560781946e+000	 4.207292062318510e+000	 9.718456531667142e+000
 2.089790398384435e+000	 4.041692231089016e+000	 9.906872992548523e+000
 2.048849772801994e+000	 4.062599489061308e+000	 9.875176350283583e+000
 2.007766796254614e+000	 4.083059207493538e+000	 9.846410007490144e+000
 1.966548590272261e+000	 4.103070392053721e+000	 9.820520787584307e+000
 1.925202271175088e+000	 4.122632194984438e+000	 9.797468747066448e+000
 1.883734946423184e+000	 4.141743914306483e+000	 9.777227883761883e+000
 1.842153711010653e+000	 4.160404992917361e+000	 9.762479621897809e+000
 1.800465643907401e+000	 4.178615017586889e+000	 9.745595669255307e+000
 1.758677804551921e+000	 4.196373717852326e+000	 9.726505634397388e+000
 1.716797229398173e+000	 4.213680964815437e+000	 9.706582406472283e+000
 1.674830928519619e+000	 4.230536769844139e+000	 9.687158284400447e+000
 2.101272763205771e+000	 4.063899331261593e+000	 9.894989737085620e+000
 2.060107189130810e+000	 4.084921464277438e+000	 9.871292914877406e+000
 2.018798481942900e+000	 4.105493598744757e+000	 9.848183557713142e+000
 1.977353802301289e+000	 4.125614734868194e+000	 9.825563915544910e+000
 1.935780305626794e+000	 4.145284020232332e+000	 9.803352209106913e+000
 1.894085138431480e+000	 4.164500749000930e+000	 9.781483365100723e+000
 1.852275434692931e+000	 4.183264361010493e+000	 9.762360740965207e+000
 1.810358312276496e+000	 4.201574440760342e+000	 9.741016898148425e+000
 1.768340869408786e+000	 4.219430716301675e+000	 9.715239165867578e+000
 1.726230181205599e+000	 4.236833058028028e+000	 9.686408212294504e+000
 1.684033296257282e+000	 4.253781477369778e+000	 9.655865691449055e+000
 2.112755128027612e+000	 4.086106431433171e+000	 9.891453199715265e+000
 2.071364605460215e+000	 4.107243439492581e+000	 9.874997799926275e+000
 2.029830167631828e+000	 4.127927989995016e+000	 9.856807973286818e+000
 1.988159014330986e+000	 4.148159077681763e+000	 9.836741410948239e+000
 1.946358340079160e+000	 4.167935845479390e+000	 9.814674501243429e+000
 1.904435330440397e+000	 4.187257583694633e+000	 9.790503092114115e+000
 1.862397158375764e+000	 4.206123729102990e+000	 9.765777566841209e+000
 1.820250980646048e+000	 4.224533863933291e+000	 9.739076875702507e+000
 1.778003934265984e+000	 4.242487714750673e+000	 9.705741983543392e+000
 1.735663133013202e+000	 4.259985151240439e+000	 9.667161886038963e+000
 1.693235663994934e+000	 4.277026184895429e+000	 9.624688114162931e+000
 2.124237492849956e+000	 4.108313531603750e+000	 9.896136499356393e+000
 2.082622021790209e+000	 4.129565414706734e+000	 9.886179025050998e+000
 2.040861853321399e+000	 4.150362381244316e+000	 9.872185783069575e+000
 1.998964226361347e+000	 4.170703420494422e+000	 9.853969914454916e+000
 1.956936374532186e+000	 4.190587670725611e+000	 9.831365972835119e+000
 1.914785522449937e+000	 4.210014418387591e+000	 9.804230714393800e+000
 1.872518882059153e+000	 4.228983097194856e+000	 9.772809679694728e+000
 1.830143649016058e+000	 4.247493287105741e+000	 9.739862946561980e+000
 1.787666999123512e+000	 4.265544713199321e+000	 9.698108816253198e+000
 1.745096084820978e+000	 4.283137244452670e+000	 9.648945161008159e+000
 1.702438031732576e+000	 4.300270892421088e+000	 9.593733911393658e+000
 2.135719857672804e+000	 4.130520631773328e+000	 9.908914188697814e+000
 2.093879438120791e+000	 4.151887389919897e+000	 9.904725764381825e+000
 2.051893539011612e+000	 4.172796772492658e+000	 9.894220399490090e+000
 2.009769438392374e+000	 4.193247763306173e+000	 9.877166687761651e+000
 1.967514408985870e+000	 4.213239495970996e+000	 9.853357340226102e+000
 1.925135714460099e+000	 4.232771253079804e+000	 9.822610003020586e+000
 1.882640605743096e+000	 4.251842465286086e+000	 9.784768011234069e+000
 1.840036317386526e+000	 4.270452710277686e+000	 9.743462111793194e+000
 1.797330063981371e+000	 4.288601711647616e+000	 9.692433829790909e+000
 1.754529036628929e+000	 4.306289337664721e+000	 9.631858996798618e+000
 1.711640399470208e+000	 4.323515599946758e+000	 9.563110466443066e+000
 2.147202222496156e+000	 4.152727731941907e+000	 9.929662215862122e+000
 2.105136854451962e+000	 4.174209365132070e+000	 9.930528315689241e+000
 2.062925224702469e+000	 4.195231163740040e+000	 9.922816094922412e+000
 2.020574650424068e+000	 4.215792106117017e+000	 9.906249596995961e+000
 1.978092443440213e+000	 4.235891321215545e+000	 9.880579676933035e+000
 1.935485906470882e+000	 4.255528087771272e+000	 9.845584847316024e+000
 1.892762329427594e+000	 4.274701833376685e+000	 9.801072056092471e+000
 1.849928985757452e+000	 4.293412133449129e+000	 9.749961038071037e+000
 1.806993128839562e+000	 4.311658710095563e+000	 9.688810641970258e+000
 1.763961988437056e+000	 4.329441430876591e+000	 9.616003599988316e+000
 1.720842767207830e+000	 4.346760307472438e+000	 9.532924213147648e+000
 2.158684587320011e+000	 4.174934832109484e+000	 9.958257887293051e+000
 2.116394270783720e+000	 4.196531340343253e+000	 9.963478070499914e+000
 2.073956910393968e+000	 4.217665554986464e+000	 9.957877978815070e+000
 2.031379862456428e+000	 4.238336448926953e+000	 9.941137096640947e+000
 1.988670477895216e+000	 4.258543146459256e+000	 9.912964404145885e+000
 1.945836098482288e+000	 4.278284922461995e+000	 9.873099251697616e+000
 1.902884053112647e+000	 4.297561201466650e+000	 9.821312161943956e+000
 1.859821654128836e+000	 4.316371556620072e+000	 9.759446066572194e+000
 1.816656193698084e+000	 4.334715708543159e+000	 9.687332337198951e+000
 1.773394940245358e+000	 4.352593524088283e+000	 9.601478444163638e+000
 1.730045134945440e+000	 4.370005014998127e+000	 9.503280661130258e+000
 2.170166952144371e+000	 4.197141932276062e+000	 9.994579831821088e+000
 2.127651687116068e+000	 4.218853315553446e+000	 1.000346748516130e+001
 2.084988596086108e+000	 4.240099946231929e+000	 9.999311975546251e+000
 2.042185074489454e+000	 4.260880791735980e+000	 9.981748213970301e+000
 1.999248512350877e+000	 4.281194971702131e+000	 9.950443281530220e+000
 1.956186290494315e+000	 4.301041757151972e+000	 9.905097332634069e+000
 1.913005776798255e+000	 4.320420569555981e+000	 9.845444421672465e+000
 1.869714322500678e+000	 4.339330979790511e+000	 9.772003221586434e+000
 1.826319258556937e+000	 4.357772706990402e+000	 9.688091480589788e+000
 1.782827892053836e+000	 4.375745617299794e+000	 9.594556373484849e+000
 1.739247502683042e+000	 4.393249722523829e+000	 9.632070444044096e+000
 2.181649316969235e+000	 4.219349032441642e+000	 1.003850796586382e+001
 2.138909103449004e+000	 4.241175290762651e+000	 1.005039005282012e+001
 2.096020281778892e+000	 4.262534337476436e+000	 1.004702480297828e+001
 2.052990286523145e+000	 4.283425134544102e+000	 1.002800253397487e+001
 2.009826546807198e+000	 4.303846796944171e+000	 9.992948398319879e+000
 1.966536482506964e+000	 4.323798591841205e+000	 9.941523315696504e+000
 1.923127500484418e+000	 4.343279937644680e+000	 9.873424824540864e+000
 1.879606990872978e+000	 4.362290402960450e+000	 9.788387851451532e+000
 1.835982323416121e+000	 4.380829705437296e+000	 9.736761867223374e+000
 1.792260843862488e+000	 4.398897710511126e+000	 9.772871154290204e+000
 1.748449870420633e+000	 4.416494430049542e+000	 9.801849180839508e+000
 1.656426193044263e+000	 4.184047354792892e+000	 9.749650041553480e+000
 1.614843180269973e+000	 4.200271598754027e+000	 9.756092957661471e+000
 1.573189158483706e+000	 4.216049794749046e+000	 9.753935430021278e+000
 1.531470962909008e+000	 4.231382361586969e+000	 9.744251139586996e+000
 1.489695389864481e+000	 4.246269850775702e+000	 9.728079349993495e+000
 1.447869193727905e+000	 4.260712944807515e+000	 9.706423450651178e+000
 1.405999083972017e+000	 4.274712455367261e+000	 9.680249609108442e+000
 1.364091722274013e+000	 4.288269321466460e+000	 9.650485533530755e+000
 1.322153719700638e+000	 4.301384607506362e+000	 9.618019345817041e+000
 1.280191633970679e+000	 4.314059501273208e+000	 9.583698565552140e+000
 1.238211966796443e+000	 4.326295311868889e+000	 9.549633170420917e+000
 1.665628560781946e+000	 4.207292062318510e+000	 9.718456531667142e+000
 1.623814531271376e+000	 4.223606440967679e+000	 9.710057124140182e+000
 1.581929098254062e+000	 4.239472293606605e+000	 9.692439115305815e+000
 1.539979134927016e+000	 4.254890041371024e+000	 9.666700809792715e+000
 1.497971475366167e+000	 4.269860238832774e+000	 9.633905938695515e+000
 1.455912911473616e+000	 4.284383572275750e+000	 9.595082165713272e+000
 1.413810189996953e+000	 4.298460857894164e+000	 9.551219704047743e+000
 1.371670009622692e+000	 4.312093039916264e+000	 9.503270044951913e+000
 1.329499018145728e+000	 4.325281188656641e+000	 9.452144798484472e+000
 1.287303809716621e+000	 4.338026498500344e+000	 9.398714646699848e+000
 1.245090922168304e+000	 4.350330285822056e+000	 9.344325157493168e+000
 1.674830928519619e+000	 4.230536769844139e+000	 9.687158284400447e+000
 1.632785882272589e+000	 4.246941283181525e+000	 9.663568084794099e+000
 1.590669038024091e+000	 4.262894792464511e+000	 9.630152737469484e+000
 1.548487306944598e+000	 4.278397721155550e+000	 9.588035535103312e+000
 1.506247560867370e+000	 4.293450626890412e+000	 9.538305024457143e+000
 1.463956629218828e+000	 4.308054199744611e+000	 9.482013475263106e+000
 1.421621296021414e+000	 4.322209260421725e+000	 9.420175461394100e+000
 1.379248296970957e+000	 4.335916758366728e+000	 9.353766555249615e+000
 1.336844316590508e+000	 4.349177769807554e+000	 9.283722135948397e+000
 1.294415985462395e+000	 4.361993495728061e+000	 9.210936311587496e+000
 1.251969877540177e+000	 4.374365259775718e+000	 9.136260955501685e+000
 1.684033296257282e+000	 4.253781477369778e+000	 9.655865691449055e+000
 1.641757233273613e+000	 4.270276125395566e+000	 9.616735529930265e+000
 1.599408977793790e+000	 4.286317291322766e+000	 9.567185196660352e+000
 1.556995478961755e+000	 4.301905400940546e+000	 9.508363339245468e+000
 1.514523646368090e+000	 4.317041014948612e+000	 9.441383670827019e+000
 1.472000346963541e+000	 4.331724827214100e+000	 9.367323401415595e+000
 1.429432402045398e+000	 4.345957662949947e+000	 9.287221783065789e+000
 1.386826584318810e+000	 4.359740476817857e+000	 9.202078769864260e+000
 1.344189615034977e+000	 4.373074350959101e+000	 9.112853793357525e+000
 1.301528161208000e+000	 4.385960492956355e+000	 9.145840684957186e+000
 1.258848832912064e+000	 4.398400233729873e+000	 9.197994694467040e+000
 1.693235663994934e+000	 4.277026184895429e+000	 9.624688114162931e+000
 1.650728584274448e+000	 4.293610967609801e+000	 9.569668075498653e+000
 1.608148917563162e+000	 4.309739790181370e+000	 9.503644277390167e+000
 1.565503650978487e+000	 4.325413080726016e+000	 9.427791091763133e+000
 1.522799731868328e+000	 4.340631403007379e+000	 9.343247751357252e+000
 1.480044064707755e+000	 4.355395454684217e+000	 9.251116743205584e+000
 1.437243508068906e+000	 4.369706065478828e+000	 9.152462317543812e+000
 1.394404871666252e+000	 4.383564195269647e+000	 9.142291287965476e+000
 1.351534913479137e+000	 4.396970932111286e+000	 9.185724022690895e+000
 1.308640336953438e+000	 4.409927490185230e+000	 9.226007442058521e+000
 1.265727788283963e+000	 4.422435207684523e+000	 9.263202693797068e+000
 1.702438031732576e+000	 4.300270892421088e+000	 9.593733911393658e+000
 1.659699935275092e+000	 4.316945809824232e+000	 9.522473292128856e+000
 1.616888857332206e+000	 4.333162289040322e+000	 9.439636678686538e+000
 1.574011822994792e+000	 4.348920760511957e+000	 9.346424539211791e+000
 1.531075817368083e+000	 4.364221791066709e+000	 9.244001981765644e+000
 1.488087782451470e+000	 4.379066082154960e+000	 9.175923646102987e+000
 1.445054614091940e+000	 4.393454468008369e+000	 9.213349500257721e+000
 1.401983159013280e+000	 4.407387913722100e+000	 9.246851096979677e+000
 1.358880211922987e+000	 4.420867513264104e+000	 9.276504759045542e+000
 1.315752512698707e+000	 4.433894487414682e+000	 9.302382402289172e+000
 1.272606743655874e+000	 4.446470181639666e+000	 9.324551418994881e+000
 1.711640399470208e+000	 4.323515599946758e+000	 9.563110466443066e+000
 1.668671286275546e+000	 4.340280652038856e+000	 9.475257733230116e+000
 1.625628797100923e+000	 4.356584787899623e+000	 9.375268043272705e+000
 1.582519995010673e+000	 4.372428440298371e+000	 9.264368335346161e+000
 1.539351902867357e+000	 4.387812179126605e+000	 9.273304157474888e+000
 1.496131500194686e+000	 4.402736709626332e+000	 9.302760741525837e+000
 1.452865720114497e+000	 4.417202870538570e+000	 9.327577736970929e+000
 1.409561446359896e+000	 4.431211632175215e+000	 9.347840787718194e+000
 1.366225510366526e+000	 4.444764094417558e+000	 9.363631679897951e+000
 1.322864688443808e+000	 4.457861484644715e+000	 9.375028196046173e+000
 1.279485699027798e+000	 4.470505155595302e+000	 9.382103985208588e+000
 1.720842767207830e+000	 4.346760307472438e+000	 9.532924213147648e+000
 1.677642637275812e+000	 4.363615494253677e+000	 9.428126962189602e+000
 1.634368736869311e+000	 4.380007286759271e+000	 9.357976479484940e+000
 1.591028167026128e+000	 4.395936120085255e+000	 9.386168715148322e+000
 1.547627988366147e+000	 4.411402567187063e+000	 9.408903719221039e+000
 1.504175217937403e+000	 4.426407337098330e+000	 9.426278570085433e+000
 1.460676826136579e+000	 4.440951273069429e+000	 9.438387263528920e+000
 1.417139733706099e+000	 4.455035350628992e+000	 9.445320522332638e+000
 1.373570808809757e+000	 4.468660675571649e+000	 9.447165621585855e+000
 1.329976864188742e+000	 4.481828481875327e+000	 9.444006229774768e+000
 1.286364654399735e+000	 4.494540129551433e+000	 9.435922265644422e+000
 1.730045134945440e+000	 4.370005014998127e+000	 9.503280661130258e+000
 1.686613988275887e+000	 4.386950336468694e+000	 9.489480714121928e+000
 1.643108676637371e+000	 4.403429785619270e+000	 9.512923715349789e+000
 1.599536339041157e+000	 4.419443799872612e+000	 9.530178239051612e+000
 1.555904073864455e+000	 4.434992955248088e+000	 9.541348063826764e+000
 1.512218935679621e+000	 4.450077964570955e+000	 9.546534533542888e+000
 1.468487932158185e+000	 4.464699675600948e+000	 9.545836338808842e+000
 1.424718021051890e+000	 4.478859069083431e+000	 9.539349313859304e+000
 1.380916107252677e+000	 4.492557256726375e+000	 9.527166248976171e+000
 1.337089039933507e+000	 4.505795479106518e+000	 9.509376718520304e+000
 1.293243609771684e+000	 4.518575103508055e+000	 9.486066924597107e+000
 1.739247502683042e+000	 4.393249722523829e+000	 9.632070444044096e+000
 1.695585339275773e+000	 4.410285178683903e+000	 9.651999041574873e+000
 1.651848616405103e+000	 4.426852284479617e+000	 9.665006286025585e+000
 1.608044511055761e+000	 4.442951479660440e+000	 9.671201585093192e+000
 1.564180159362282e+000	 4.458583343309677e+000	 9.670692593220522e+000
 1.520262653421339e+000	 4.473748592044207e+000	 9.663584965587742e+000
 1.476299038179316e+000	 4.488448078133128e+000	 9.649982127106362e+000
 1.432296308397268e+000	 4.502682787538533e+000	 9.629985056619130e+000
 1.388261405695288e+000	 4.516453837881738e+000	 9.603692086456332e+000
 1.344201215678104e+000	 4.529762476338288e+000	 9.571198717446819e+000
 1.300122565143645e+000	 4.542610077465175e+000	 9.532597449431627e+000
 1.748449870420633e+000	 4.416494430049542e+000	 9.801849180839508e+000
 1.704556690275469e+000	 4.433620020899308e+000	 9.811833120864117e+000
 1.660588556172508e+000	 4.450274783340313e+000	 9.814276475798330e+000
 1.616552683069940e+000	 4.466459159448742e+000	 9.809292140378584e+000
 1.572456244859625e+000	 4.482173731371831e+000	 9.796991697496843e+000
 1.528306371162559e+000	 4.497419219518087e+000	 9.777485159945218e+000
 1.484110144199971e+000	 4.512196480665968e+000	 9.750880726940510e+000
 1.439874595742234e+000	 4.526506505994299e+000	 9.717284555657507e+000
 1.395606704137588e+000	 4.540350419037734e+000	 9.676800547946806e+000
 1.351313391422534e+000	 4.553729473570638e+000	 9.629530152360138e+000
 1.307001520515620e+000	 4.566645051422786e+000	 9.575572181555051e+000
 1.238211966796443e+000	 4.326295311868889e+000	 9.549633170420917e+000
 1.196221161306078e+000	 4.338093467580077e+000	 9.505271187138655e+000
 1.154225599546729e+000	 4.349455513689764e+000	 9.449756848526478e+000
 1.112231600071146e+000	 4.360383110233927e+000	 9.385005069122640e+000
 1.070245415609068e+000	 4.370878029706319e+000	 9.312799525443843e+000
 1.028273230823134e+000	 4.380942154715376e+000	 9.305325794622849e+000
 9.863211601505719e-001	 4.390577475596267e+000	 9.335559392287033e+000
 9.443952457313445e-001	 4.399786087981418e+000	 9.354375720847681e+000
 9.025014554232437e-001	 4.408570190332767e+000	 9.361854498700023e+000
 8.606456809043420e-001	 4.416932081439071e+000	 9.358073671613157e+000
 8.188337358630459e-001	 4.424874157881446e+000	 9.343109428975945e+000
 1.245090922168304e+000	 4.350330285822056e+000	 9.344325157493168e+000
 1.202866834424291e+000	 4.362193986843245e+000	 9.279972113952665e+000
 1.160637963987752e+000	 4.373619155431682e+000	 9.207101334959708e+000
 1.118410664514506e+000	 4.384607460845763e+000	 9.242642337705084e+000
 1.076191223471679e+000	 4.395160685426433e+000	 9.284653146255884e+000
 1.033985859881143e+000	 4.405280722241064e+000	 9.316768089164780e+000
 9.918007221492244e-001	 4.414969572682243e+000	 9.339078385909131e+000
 9.496418859833258e-001	 4.424229344024799e+000	 9.351671740046177e+000
 9.075153523960041e-001	 4.433062246944353e+000	 9.354632358293054e+000
 8.654270457968748e-001	 4.441470593000705e+000	 9.348040983353171e+000
 8.233828121726124e-001	 4.449456792089316e+000	 9.331974939839594e+000
 1.251969877540177e+000	 4.374365259775718e+000	 9.136260955501685e+000
 1.209512507542697e+000	 4.386294506106817e+000	 9.185108414607614e+000
 1.167050328429106e+000	 4.397782797173934e+000	 9.232985736433326e+000
 1.124589728958293e+000	 4.408831811457884e+000	 9.272422797064428e+000
 1.082137031334773e+000	 4.419443341146805e+000	 9.303529343111405e+000
 1.039698488939653e+000	 4.429619289767002e+000	 9.326409825598837e+000
 9.972802841483522e-001	 4.439361669768483e+000	 9.341163412260524e+000
 9.548885262357183e-001	 4.448672600068476e+000	 9.347884016686257e+000
 9.125292493690724e-001	 4.457554303556284e+000	 9.346660343633760e+000
 8.702084106895740e-001	 4.466009104562758e+000	 9.337575949793209e+000
 8.279318884821645e-001	 4.474039426297694e+000	 9.320709319267840e+000
 1.258848832912064e+000	 4.398400233729873e+000	 9.197994694467040e+000
 1.216158180661293e+000	 4.410395025370794e+000	 9.238284517496448e+000
 1.173462692870789e+000	 4.421946438916520e+000	 9.272373724506933e+000
 1.130768793402507e+000	 4.433056162070295e+000	 9.299655261802130e+000
 1.088082839198349e+000	 4.443725996867436e+000	 9.320250351931858e+000
 1.045411117998661e+000	 4.453957857293190e+000	 9.334273144196212e+000
 1.002759846147955e+000	 4.463753766854985e+000	 9.341830749404370e+000
 9.601351664885222e-001	 4.473115856112448e+000	 9.343023293356477e+000
 9.175431463424488e-001	 4.482046360168562e+000	 9.337943988278669e+000
 8.749897755824388e-001	 4.490547616125227e+000	 9.326679221412736e+000
 8.324809647917018e-001	 4.498622060506580e+000	 9.309308659937816e+000
 1.265727788283963e+000	 4.422435207684523e+000	 9.263202693797068e+000
 1.222803853780082e+000	 4.434495544635175e+000	 9.288126629778979e+000
 1.179875057312801e+000	 4.446110080659443e+000	 9.308845541985443e+000
 1.136947857847147e+000	 4.457280512682990e+000	 9.324373691651966e+000
 1.094028647062409e+000	 4.468008652588326e+000	 9.334843757576167e+000
 1.051123747058168e+000	 4.478296424819630e+000	 9.340379575001146e+000
 1.008239408148032e+000	 4.488145863941747e+000	 9.341096192740057e+000
 9.653818067417374e-001	 4.497559112156713e+000	 9.337099950891368e+000
 9.225570433161338e-001	 4.506538416781186e+000	 9.328488578291278e+000
 8.797711404754701e-001	 4.515086127688112e+000	 9.315351308819313e+000
 8.370300411012241e-001	 4.523204694715973e+000	 9.297769015647871e+000
 1.272606743655874e+000	 4.446470181639666e+000	 9.324551418994881e+000
 1.229449526899063e+000	 4.458596063899961e+000	 9.334681264771620e+000
 1.186287421755143e+000	 4.470273722402702e+000	 9.342440838313202e+000
 1.143126922292215e+000	 4.481504863295972e+000	 9.346611184961907e+000
 1.099974454926952e+000	 4.492291308309473e+000	 9.347336420578944e+000
 1.056836376118174e+000	 4.502634992346319e+000	 9.344750054323502e+000
 1.013718970148585e+000	 4.512537961028774e+000	 9.338975068048072e+000
 9.706284469953637e-001	 4.522002368201274e+000	 9.330124018148487e+000
 9.275709402901268e-001	 4.531030473394154e+000	 9.318299158931195e+000
 8.845525053686674e-001	 4.539624639251415e+000	 9.303592586528804e+000
 8.415791174107322e-001	 4.547787328925875e+000	 9.286086402368390e+000
 1.279485699027798e+000	 4.470505155595302e+000	 9.382103985208588e+000
 1.236095200018235e+000	 4.482696583165149e+000	 9.377993811944137e+000
 1.192699786197815e+000	 4.494437364146294e+000	 9.373198285036342e+000
 1.149305986737709e+000	 4.505729213909240e+000	 9.366400001849653e+000
 1.105920262791978e+000	 4.516573964030879e+000	 9.357754496621585e+000
 1.062549005178679e+000	 4.526973559873260e+000	 9.347404940699388e+000
 1.019198532149613e+000	 4.536930058116062e+000	 9.335482244114225e+000
 9.758750872494013e-001	 4.546445624246127e+000	 9.322105181470233e+000
 9.325848372644280e-001	 4.555522530007469e+000	 9.307380541127237e+000
 8.893338702620306e-001	 4.564163150815134e+000	 9.291403296623891e+000
 8.461281937202254e-001	 4.572369963136283e+000	 9.274256799258657e+000
 1.286364654399735e+000	 4.494540129551433e+000	 9.435922265644422e+000
 1.242740873137600e+000	 4.506797102430743e+000	 9.418108566969094e+000
 1.199112150640817e+000	 4.518601005890221e+000	 9.401155601949805e+000
 1.155485051183629e+000	 4.529953564522796e+000	 9.383771586615270e+000
 1.111866070657487e+000	 4.540856619752542e+000	 9.366123455378618e+000
 1.068261634239684e+000	 4.551312127400450e+000	 9.348364030339665e+000
 1.024678094151115e+000	 4.561322155203614e+000	 9.330632144948787e+000
 9.811217275038501e-001	 4.570888880291277e+000	 9.313052793841939e+000
 9.375987342390375e-001	 4.580014586621130e+000	 9.295737307743046e+000
 8.941152351555600e-001	 4.588701662379271e+000	 9.278783552294986e+000
 8.506772700297042e-001	 4.596952597347197e+000	 9.262276149651099e+000
 1.293243609771684e+000	 4.518575103508055e+000	 9.486066924597107e+000
 1.249386546257156e+000	 4.530897621696742e+000	 9.455068760812132e+000
 1.205524515084149e+000	 4.542764647634485e+000	 9.426349582409866e+000
 1.161664115629977e+000	 4.554177915136639e+000	 9.398756589438387e+000
 1.117811878523480e+000	 4.565139275474468e+000	 9.372468098762493e+000
 1.073974263301187e+000	 4.575650694927893e+000	 9.347646572085404e+000
 1.030157656153093e+000	 4.585714252291426e+000	 9.324438761615520e+000
 9.863683677587105e-001	 4.595332136336720e+000	 9.302975883757819e+000
 9.426126312139549e-001	 4.604506643235138e+000	 9.283373819642575e+000
 8.988966000492554e-001	 4.613240173943825e+000	 9.265733341268202e+000
 8.552263463391679e-001	 4.621535231558619e+000	 9.250140362004164e+000
 1.300122565143645e+000	 4.542610077465175e+000	 9.532597449431627e+000
 1.256032219376904e+000	 4.554998140963141e+000	 9.488999706587967e+000
 1.211936879527810e+000	 4.566928289379082e+000	 9.448816117843135e+000
 1.167843180076752e+000	 4.578402265750768e+000	 9.411384887386715e+000
 1.123757686389955e+000	 4.589421931196649e+000	 9.376812578589357e+000
 1.079686892363190e+000	 4.599989262455583e+000	 9.345271281888529e+000
 1.035637218155546e+000	 4.610106349379503e+000	 9.316915663685386e+000
 9.916150080139821e-001	 4.619775392382457e+000	 9.291883163805355e+000
 9.476265281891807e-001	 4.628998699849491e+000	 9.270294221563157e+000
 9.036779649431170e-001	 4.637778685508795e+000	 9.252252529124560e+000
 8.597754226486175e-001	 4.646117865770551e+000	 9.237845310824852e+000
 1.307001520515620e+000	 4.566645051422786e+000	 9.575572181555051e+000
 1.262677892496843e+000	 4.579098660229949e+000	 9.519768878304006e+000
 1.218349243971802e+000	 4.591091931124016e+000	 9.468590221481490e+000
 1.174022244523953e+000	 4.602626616365185e+000	 9.421685604761104e+000
 1.129703494256914e+000	 4.613704586919089e+000	 9.379180413686765e+000
 1.085399521425691e+000	 4.624327829983526e+000	 9.341256356835258e+000
 1.041116780158474e+000	 4.634498446467842e+000	 9.308076010328410e+000
 9.968616482696650e-001	 4.644218648428490e+000	 9.279783038978605e+000
 9.526404251647149e-001	 4.653490756464190e+000	 9.256502447803040e+000
 9.084593298371448e-001	 4.662317197074184e+000	 9.238340862514315e+000
 8.643244989580522e-001	 4.670700499982988e+000	 9.225386837562240e+000
 8.188337358630459e-001	 4.424874157881446e+000	 9.343109428975945e+000
 7.770713542760024e-001	 4.432398911470850e+000	 9.328551014714881e+000
 7.353641887737129e-001	 4.439508926659324e+000	 9.315187105141796e+000
 6.937178090935400e-001	 4.446206877929083e+000	 9.303007528068905e+000
 6.521377006203363e-001	 4.452495527163420e+000	 9.291991484875966e+000
 6.106292630141452e-001	 4.458377721001112e+000	 9.276159506509343e+000
 5.691978089245410e-001	 4.463856388177795e+000	 9.249321916326185e+000
 5.278485627910562e-001	 4.468934536857285e+000	 9.222236519816901e+000
 4.865866597290456e-001	 4.473615251955685e+000	 9.194849374318187e+000
 4.454171445002347e-001	 4.477901692461160e+000	 9.167089462664928e+000
 4.043449705671096e-001	 4.481797088752095e+000	 9.138869040377909e+000
 8.233828121726124e-001	 4.449456792089316e+000	 9.331974939839594e+000
 7.813884173551501e-001	 4.457023349864672e+000	 9.317893007184988e+000
 7.394495453783545e-001	 4.464172865137007e+000	 9.304973340712959e+000
 6.975717969225739e-001	 4.470908027246775e+000	 9.293207415059394e+000
 6.557606878470227e-001	 4.477231613421060e+000	 9.282575927978657e+000
 6.140216478098564e-001	 4.483146486113297e+000	 9.268881682145899e+000
 5.723600189753701e-001	 4.488655590329879e+000	 9.243813943862648e+000
 5.307810548077615e-001	 4.493761950946637e+000	 9.218551366802199e+000
 4.892899189508052e-001	 4.498468670018098e+000	 9.193044095237022e+000
 4.478916841926816e-001	 4.502778924082359e+000	 9.167224819364700e+000
 4.065913315151142e-001	 4.506695961464353e+000	 9.141009124926793e+000
 8.279318884821645e-001	 4.474039426297694e+000	 9.320709319267840e+000
 7.857054804340988e-001	 4.481647788259090e+000	 9.307147247619430e+000
 7.435349019826437e-001	 4.488836803615357e+000	 9.294718742786991e+000
 7.014257847511332e-001	 4.495609176565180e+000	 9.283416885279623e+000
 6.593836750731423e-001	 4.501967699679440e+000	 9.273223824952021e+000
 6.174140326049393e-001	 4.507915251226232e+000	 9.261477740973492e+000
 5.755222290255393e-001	 4.513454792482698e+000	 9.238172947232908e+000
 5.337135468238050e-001	 4.518589365036693e+000	 9.214731555669308e+000
 4.919931781719306e-001	 4.523322088081164e+000	 9.191107824798065e+000
 4.503662238845512e-001	 4.527656155704142e+000	 9.167238172635956e+000
 4.088376924626270e-001	 4.531594834177102e+000	 9.143041528844154e+000
 8.324809647917018e-001	 4.498622060506580e+000	 9.309308659937816e+000
 7.900225435128486e-001	 4.506272226654105e+000	 9.296309555146218e+000
 7.476202585865805e-001	 4.513500742094372e+000	 9.284418855956520e+000
 7.052797725792176e-001	 4.520310325884300e+000	 9.273631207976397e+000
 6.630066622986954e-001	 4.526703785938563e+000	 9.263930169050028e+000
 6.208064173993939e-001	 4.532684016339917e+000	 9.253961206854040e+000
 5.786844390750486e-001	 4.538253994636254e+000	 9.232410779688772e+000
 5.366460388391871e-001	 4.543416779127454e+000	 9.210787285729090e+000
 4.946964373924221e-001	 4.548175506144885e+000	 9.189049125966248e+000
 4.528407635758435e-001	 4.552533387326505e+000	 9.167136467575670e+000
 4.110840534096479e-001	 4.556493706890342e+000	 9.144971598677326e+000
 8.370300411012241e-001	 4.523204694715973e+000	 9.297769015647871e+000
 7.943396065913998e-001	 4.530896665049719e+000	 9.285375718312299e+000
 7.517056151901652e-001	 4.538164680574053e+000	 9.274069202989132e+000
 7.091337604068274e-001	 4.545011475204132e+000	 9.263845639778284e+000
 6.666296495236819e-001	 4.551439872198428e+000	 9.254689950558049e+000
 6.241988021932204e-001	 4.557452781454351e+000	 9.246345610765459e+000
 5.818466491238982e-001	 4.563053196790551e+000	 9.226539312109457e+000
 5.395785308539073e-001	 4.568244193218921e+000	 9.206728784849830e+000
 4.973996966122793e-001	 4.573028924209257e+000	 9.186876601604139e+000
 4.553153032665584e-001	 4.577410618949451e+000	 9.166926700920490e+000
 4.133304143561772e-001	 4.581392579604075e+000	 9.146804744748559e+000
 8.415791174107322e-001	 4.547787328925875e+000	 9.286086402368390e+000
 7.986566696697515e-001	 4.555521103445926e+000	 9.274341495910013e+000
 7.557909717933976e-001	 4.562828619054400e+000	 9.263665285417256e+000
 7.129877482339623e-001	 4.569712624524678e+000	 9.254055425036603e+000
 6.702526367481017e-001	 4.576175958459034e+000	 9.245498156873111e+000
 6.275911869864184e-001	 4.582221546569534e+000	 9.237968656685812e+000
 5.850088591720880e-001	 4.587852398945582e+000	 9.220570432525147e+000
 5.425110228679660e-001	 4.593071607311094e+000	 9.202566308685391e+000
 5.001029558315024e-001	 4.597882342274283e+000	 9.184598893393602e+000
 4.577898429566961e-001	 4.602287850572980e+000	 9.166615919651060e+000
 4.155767753022150e-001	 4.606291452318299e+000	 9.148546439431391e+000
 8.461281937202254e-001	 4.572369963136283e+000	 9.274256799258657e+000
 8.029737327479043e-001	 4.580145541842733e+000	 9.263202617776948e+000
 7.598763283962778e-001	 4.587492557535412e+000	 9.253202584108944e+000
 7.168417360606226e-001	 4.594413773845940e+000	 9.244255796155457e+000
 6.738756239719550e-001	 4.600912044720381e+000	 9.236349772581514e+000
 6.309835717789881e-001	 4.606990311685467e+000	 9.229460802079135e+000
 5.881710692196178e-001	 4.612651601101351e+000	 9.214516045656009e+000
 5.454435148813628e-001	 4.617899021403972e+000	 9.198310139928267e+000
 5.028062150500916e-001	 4.622735760339963e+000	 9.182224680792325e+000
 4.602643826462561e-001	 4.627165082197089e+000	 9.166211219641360e+000
 4.178231362477610e-001	 4.631190325033014e+000	 9.150202215482574e+000
 8.506772700297042e-001	 4.596952597347197e+000	 9.262276149651099e+000
 8.072907958258579e-001	 4.604769980240135e+000	 9.251954785570167e+000
 7.639616849988057e-001	 4.612156496017090e+000	 9.242676559820419e+000
 7.206957238868081e-001	 4.619114923167916e+000	 9.234441973911208e+000
 6.774986111952416e-001	 4.625648130982472e+000	 9.227239779533990e+000
 6.343759565709299e-001	 4.631759076802148e+000	 9.221047331509205e+000
 5.913332792664878e-001	 4.637450803257857e+000	 9.208388072465853e+000
 5.483760068940979e-001	 4.642726435497554e+000	 9.193970587586673e+000
 5.055094742680467e-001	 4.647589178406297e+000	 9.179762680023707e+000
 4.627389223352391e-001	 4.652042313821781e+000	 9.165719744351392e+000
 4.200694971928152e-001	 4.656089197748221e+000	 9.151777664427574e+000
 8.552263463391679e-001	 4.621535231558619e+000	 9.250140362004164e+000
 8.116078589036128e-001	 4.629394418638134e+000	 9.240593673515663e+000
 7.680470416009811e-001	 4.636820434499433e+000	 9.232082653731004e+000
 7.245497117125190e-001	 4.643816072490603e+000	 9.224609167761722e+000
 6.811215984179616e-001	 4.650384217245304e+000	 9.218163156918470e+000
 6.377683413622434e-001	 4.656527841919582e+000	 9.212722995458933e+000
 5.944954893126981e-001	 4.662250005415102e+000	 9.202198449730197e+000
 5.513084989061714e-001	 4.667553849591840e+000	 9.189557986284614e+000
 5.082127334853674e-001	 4.672442596473282e+000	 9.177221643099085e+000
 4.652134620236447e-001	 4.676919545447056e+000	 9.165148683561649e+000
 4.223158581373777e-001	 4.680988070463921e+000	 9.153278434997569e+000
 8.597754226486175e-001	 4.646117865770551e+000	 9.237845310824852e+000
 8.159249219811684e-001	 4.654018857036731e+000	 9.229114929134044e+000
 7.721323982028044e-001	 4.661484372982442e+000	 9.221416287960953e+000
 7.284036995377552e-001	 4.668517221814008e+000	 9.214752576145761e+000
 6.847445856401149e-001	 4.675120303508876e+000	 9.209114881330523e+000
 6.411607261529285e-001	 4.681296607037763e+000	 9.204482550625327e+000
 5.976576993582484e-001	 4.687049207573082e+000	 9.195959129617913e+000
 5.542409909175832e-001	 4.692381263686833e+000	 9.185082695584253e+000
 5.109159927020543e-001	 4.697296014540922e+000	 9.174610356870963e+000
 4.676880017114728e-001	 4.701796777072913e+000	 9.164505272147629e+000
 4.245622190814485e-001	 4.705886943180112e+000	 9.154710231616052e+000
 8.643244989580522e-001	 4.670700499982988e+000	 9.225386837562240e+000
 8.202419850585254e-001	 4.678643295435927e+000	 9.217514173943304e+000
 7.762177548042755e-001	 4.686148311466118e+000	 9.210672866073058e+000
 7.322576873625165e-001	 4.693218371138125e+000	 9.204867386772991e+000
 6.883675728617015e-001	 4.699856389773194e+000	 9.200089926841566e+000
 6.445531109429856e-001	 4.706065372156695e+000	 9.196320759756047e+000
 6.008199094031392e-001	 4.711848409731800e+000	 9.189682079286172e+000
 5.571734829283334e-001	 4.717208677782531e+000	 9.180555099329617e+000
 5.136192519181071e-001	 4.722149432609214e+000	 9.171937642116118e+000
 4.701625413987239e-001	 4.726674008699353e+000	 9.163796788893182e+000
 4.268085800250276e-001	 4.730785815896795e+000	 9.156078812933275e+000
 4.043449705671096e-001	 4.481797088752095e+000	 9.138869040377909e+000
 3.633749992293684e-001	 4.485304739916109e+000	 9.110575316261230e+000
 3.225119988439666e-001	 4.488428011073319e+000	 9.084392772081676e+000
 2.817606441259515e-001	 4.491170330705895e+000	 9.060162262974574e+000
 2.411255155271938e-001	 4.493535187995821e+000	 9.037707805816954e+000
 2.006110986943454e-001	 4.495526130174090e+000	 9.016837122376261e+000
 1.602217840038425e-001	 4.497146759883374e+000	 8.997342204271121e+000
 1.199618661725727e-001	 4.498400732556415e+000	 8.978999897866517e+000
 7.983554394276425e-002	 4.499291753812299e+000	 8.961572507234422e+000
 3.984691983959917e-002	 4.499823576872690e+000	 8.944808413323997e+000
 0.000000000000000e+000	 4.500000000000000e+000	 8.928442707504155e+000
 4.065913315151142e-001	 4.506695961464353e+000	 9.141009124926793e+000
 3.653937492251137e-001	 4.510223099579862e+000	 9.114911286464460e+000
 3.243037321705993e-001	 4.513363722244021e+000	 9.090959988725800e+000
 2.833259810372565e-001	 4.516121276986124e+000	 9.068997259377678e+000
 2.424651017239101e-001	 4.518499272372497e+000	 9.048847970063399e+000
 2.017256047974707e-001	 4.520501275340979e+000	 9.030320385234649e+000
 1.611119050253535e-001	 4.522130908548917e+000	 9.013206733292799e+000
 1.206283209839839e-001	 4.523391847737017e+000	 8.997283798132198e+000
 8.027907474193483e-002	 4.524287819111139e+000	 8.982313529185745e+000
 4.006829161619421e-002	 4.524822596744175e+000	 8.968043668087002e+000
 0.000000000000000e+000	 4.525000000000000e+000	 8.954208390081059e+000
 4.088376924626270e-001	 4.531594834177102e+000	 9.143041528844154e+000
 3.674124992204621e-001	 4.535141459244013e+000	 9.119127609464160e+000
 3.260954654969194e-001	 4.538299433415035e+000	 9.097401406951606e+000
 2.848913179483229e-001	 4.541072223266590e+000	 9.077706122917986e+000
 2.438046879204519e-001	 4.543463356749350e+000	 9.059867478509766e+000
 2.028401109004750e-001	 4.545476420507988e+000	 9.043694269059637e+000
 1.620020260467874e-001	 4.547115057214537e+000	 9.028978941551754e+000
 1.212947757953518e-001	 4.548382962917663e+000	 9.015498192963007e+000
 8.072260554108625e-002	 4.549283884409997e+000	 9.003013587549708e+000
 4.028966339278450e-002	 4.549821616615666e+000	 8.991272191163448e+000
 0.000000000000000e+000	 4.550000000000000e+000	 8.980007220697337e+000
 4.110840534096479e-001	 4.556493706890342e+000	 9.144971598677326e+000
 3.694312492154133e-001	 4.560059818908559e+000	 9.123228571919450e+000
 3.278871988229268e-001	 4.563235144586363e+000	 9.103720266647736e+000
 2.864566548591509e-001	 4.566023169547296e+000	 9.086291060423740e+000
 2.451442741168190e-001	 4.568427441126379e+000	 9.070767519190387e+000
 2.039546170033585e-001	 4.570451565675118e+000	 9.056958957879028e+000
 1.628921470681443e-001	 4.572099205880235e+000	 9.044658024342231e+000
 1.219612306066765e-001	 4.573374078098351e+000	 9.033641304643199e+000
 8.116613634021858e-002	 4.574279949708875e+000	 9.023669947740395e+000
 4.051103516937001e-002	 4.574820636487162e+000	 9.014490307619210e+000
 0.000000000000000e+000	 4.574999999999999e+000	 9.005834600941205e+000
 4.133304143561772e-001	 4.581392579604075e+000	 9.146804744748559e+000
 3.714499992099677e-001	 4.584978178573502e+000	 9.127218525511538e+000
 3.296789321486217e-001	 4.588170855758004e+000	 9.109919874516470e+000
 2.880219917697403e-001	 4.590974115828240e+000	 9.094754347866600e+000
 2.464838603130115e-001	 4.593391525503579e+000	 9.081549352144760e+000
 2.050691231061213e-001	 4.595426710842370e+000	 9.070114711112893e+000
 1.637822680894241e-001	 4.597083354546009e+000	 9.060243256256333e+000
 1.226276854179581e-001	 4.598365193279083e+000	 9.051711439172239e+000
 8.160966713933174e-002	 4.599276015007772e+000	 9.044279963808961e+000
 4.073240694595075e-002	 4.599819656358660e+000	 9.037694436576425e+000
 0.000000000000000e+000	 4.600000000000000e+000	 9.031686032366437e+000
 4.155767753022150e-001	 4.606291452318299e+000	 9.148546439431391e+000
 3.734687492041253e-001	 4.609896538238842e+000	 9.131101885186340e+000
 3.314706654740040e-001	 4.613106566929956e+000	 9.116003602267949e+000
 2.895873286800912e-001	 4.615925062109421e+000	 9.103098328492983e+000
 2.478234465090293e-001	 4.618355609880955e+000	 9.092214307471512e+000
 2.061836292087631e-001	 4.620401856009741e+000	 9.083161861535871e+000
 1.646723891106268e-001	 4.622067503211861e+000	 9.075733989040854e+000
 1.232941402291965e-001	 4.623356308459860e+000	 9.069706984002176e+000
 8.205319793842578e-002	 4.624272080306687e+000	 9.064841076048014e+000
 4.095377872252674e-002	 4.624818676230166e+000	 9.060881088671476e+000
 0.000000000000000e+000	 4.624999999999999e+000	 9.057557113790450e+000
 4.178231362477610e-001	 4.631190325033014e+000	 9.150202215482574e+000
 3.754874991978857e-001	 4.634814897904579e+000	 9.134883127453804e+000
 3.332623987990737e-001	 4.638042278102219e+000	 9.121974884872641e+000
 2.911526655902036e-001	 4.640876008390843e+000	 9.111325411015557e+000
 2.491630327048726e-001	 4.643319694258506e+000	 9.102763783445028e+000
 2.072981353112841e-001	 4.645377001177233e+000	 9.096100813305343e+000
 1.655625101317525e-001	 4.647051651877789e+000	 9.091129649523229e+000
 1.239605950403916e-001	 4.648347423640677e+000	 9.087626405848020e+000
 8.249672873750068e-002	 4.649268145605622e+000	 9.085350808673265e+000
 4.117515049909797e-002	 4.649817696101675e+000	 9.084046863594862e+000
 0.000000000000000e+000	 4.650000000000000e+000	 9.083443538679788e+000
 4.200694971928152e-001	 4.656089197748221e+000	 9.151777664427574e+000
 3.775062491912493e-001	 4.659733257570714e+000	 9.138566788741819e+000
 3.350541321238309e-001	 4.662977989274798e+000	 9.127837218869910e+000
 2.927180025000777e-001	 4.665826954672504e+000	 9.119438067862825e+000
 2.505026189005412e-001	 4.668283778636231e+000	 9.113199244692652e+000
 2.084126414136843e-001	 4.670352146344848e+000	 9.108932040052745e+000
 1.664526311528010e-001	 4.672035800543795e+000	 9.106429737604005e+000
 1.246270498515435e-001	 4.673338538821540e+000	 9.105468248568521e+000
 8.294025953655647e-002	 4.674264210904576e+000	 9.105806767579628e+000
 4.139652227566441e-002	 4.674816715973188e+000	 9.107188447710122e+000
 0.000000000000000e+000	 4.675000000000000e+000	 9.109341092619337e+000
 4.223158581373777e-001	 4.680988070463921e+000	 9.153278434997569e+000
 3.795249991842159e-001	 4.684651617237246e+000	 9.142157463802661e+000
 3.368458654482753e-001	 4.687913700447686e+000	 9.133594160730516e+000
 2.942833394097131e-001	 4.690777900954402e+000	 9.127438833484561e+000
 2.518422050960352e-001	 4.693247863014132e+000	 9.123522220429898e+000
 2.095271475159636e-001	 4.695327291512582e+000	 9.121656083035905e+000
 1.673427521737726e-001	 4.697019949209879e+000	 9.121633824313408e+000
 1.252935046626522e-001	 4.698329654002444e+000	 9.123231131114329e+000
 8.338379033559312e-002	 4.699260276203550e+000	 9.126206638168910e+000
 4.161789405222610e-002	 4.699815735844708e+000	 9.130302611748697e+000
 0.000000000000000e+000	 4.699999999999999e+000	 9.135245650862380e+000
 4.245622190814485e-001	 4.705886943180112e+000	 9.154710231616052e+000
 3.815437491767854e-001	 4.709569976904174e+000	 9.145659804170029e+000
 3.386375987724072e-001	 4.712849411620889e+000	 9.139249325271150e+000
 2.958486763191099e-001	 4.715728847236537e+000	 9.135330302710997e+000
 2.531817912913545e-001	 4.718211947392206e+000	 9.133734302751817e+000
 2.106416536181220e-001	 4.720302436680437e+000	 9.134273549349938e+000
 1.682328731946670e-001	 4.722004097876038e+000	 9.136741549929667e+000
 1.259599594737178e-001	 4.723320769183392e+000	 9.140913745541578e+000
 8.382732113461064e-002	 4.724256341502541e+000	 9.146548183246388e+000
 4.183926582878302e-002	 4.724814755716229e+000	 9.153386208577915e+000
 0.000000000000000e+000	 4.725000000000000e+000	 9.161153175958450e+000
 4.268085800250276e-001	 4.730785815896795e+000	 9.156078812933275e+000
 3.835624991689582e-001	 4.734488336571500e+000	 9.149078516664753e+000
 3.404293320962267e-001	 4.737785122794405e+000	 9.144806384119017e+000
 2.974140132282684e-001	 4.740679793518914e+000	 9.143115129163904e+000
 2.545213774864993e-001	 4.743176031770457e+000	 9.143837144978262e+000
 2.117561597201596e-001	 4.745277581848414e+000	 9.146785110194736e+000
 1.691229942154843e-001	 4.746988246542276e+000	 9.151752622156586e+000
 1.266264142847402e-001	 4.748311884364385e+000	 9.158514855087963e+000
 8.427085193360903e-002	 4.749252406801554e+000	 9.166829240983994e+000
 4.206063760533519e-002	 4.749813775587759e+000	 9.176436171039663e+000
 0.000000000000000e+000	 4.750000000000000e+000	 9.187059715456019e+000
 4.750000000000000e+000	 0.000000000000000e+000	 1.037317297888655e+001
 4.749813775587761e+000	 4.206063760533384e-002	 1.037863472210085e+001
 4.749252406801552e+000	 8.427085193360784e-002	 1.038298046749818e+001
 4.748311884364385e+000	 1.266264142847391e-001	 1.038627450710475e+001
 4.746988246542276e+000	 1.691229942154834e-001	 1.038858913328598e+001
 4.745277581848414e+000	 2.117561597201589e-001	 1.039000472620092e+001
 4.743176031770457e+000	 2.545213774864986e-001	 1.039060982727720e+001
 4.740679793518913e+000	 2.974140132282679e-001	 1.039050119804595e+001
 4.737785122794405e+000	 3.404293320962263e-001	 1.038978386369013e+001
 4.734488336571500e+000	 3.835624991689580e-001	 1.038857114067538e+001
 4.730785815896796e+000	 4.268085800250276e-001	 1.038698464785199e+001
 4.775000000000001e+000	 0.000000000000000e+000	 1.036320208388031e+001
 4.774812795459289e+000	 4.228200938188836e-002	 1.036907356158801e+001
 4.774248472100565e+000	 8.471438273261578e-002	 1.037389192277983e+001
 4.773302999545376e+000	 1.272928690957831e-001	 1.037772245557311e+001
 4.771972395208514e+000	 1.700131152363393e-001	 1.038063850829014e+001
 4.770252727016390e+000	 2.128706658222569e-001	 1.038272157674643e+001
 4.768140116148707e+000	 2.558609636817307e-001	 1.038406137737540e+001
 4.765630739801289e+000	 2.989793501375455e-001	 1.038475590552188e+001
 4.762720833967920e+000	 3.422210654202020e-001	 1.038491147825102e+001
 4.759406696238826e+000	 3.855812491613292e-001	 1.038464276103516e+001
 4.755684688613478e+000	 4.290549409688527e-001	 1.038407277770094e+001
 4.800000000000001e+000	 0.000000000000000e+000	 1.035380737670666e+001
 4.799811815330812e+000	 4.250338115845243e-002	 1.036001548527927e+001
 4.799244537399557e+000	 8.515791353166197e-002	 1.036523053834906e+001
 4.798294114726322e+000	 1.279593239069134e-001	 1.036951883955148e+001
 4.796956543874674e+000	 1.709032362573493e-001	 1.037295481559240e+001
 4.795227872184247e+000	 2.139851719245967e-001	 1.037562110341162e+001
 4.793104200526780e+000	 2.572005498773120e-001	 1.037760862299537e+001
 4.790581686083425e+000	 3.005446870473001e-001	 1.037901663516283e+001
 4.787656545141123e+000	 3.440127987448028e-001	 1.037995278366598e+001
 4.784325055905753e+000	 3.875999991544943e-001	 1.038053312095913e+001
 4.780583561329669e+000	 4.313013019136611e-001	 1.038088211701353e+001
 4.825000000000000e+000	 0.000000000000000e+000	 1.034497583168818e+001
 4.824810835202331e+000	 4.272475293502601e-002	 1.035144756210146e+001
 4.824240602698530e+000	 8.560144433074646e-002	 1.035698348463654e+001
 4.823285229907229e+000	 1.286257787181301e-001	 1.036165093802360e+001
 4.821940692540756e+000	 1.717933572785135e-001	 1.036552544993306e+001
 4.820203017351980e+000	 2.150996780271780e-001	 1.036869082405590e+001
 4.818068284904680e+000	 2.585401360732425e-001	 1.037123921264185e+001
 4.815532632365324e+000	 3.021100239575318e-001	 1.037327117381311e+001
 4.812592256314012e+000	 3.458045320700289e-001	 1.037489571298581e+001
 4.809243415572285e+000	 3.896187491484532e-001	 1.037623030774848e+001
 4.805482434045368e+000	 4.335476628594529e-001	 1.037740091556651e+001
 4.850000000000000e+000	 0.000000000000000e+000	 1.033669469171813e+001
 4.849809855073845e+000	 4.294612471160915e-002	 1.034335711847400e+001
 4.849236667997485e+000	 8.604497512986921e-002	 1.034913817807552e+001
 4.848276345088090e+000	 1.292922335294333e-001	 1.035410626407370e+001
 4.846924841206763e+000	 1.726834782998318e-001	 1.035833802783894e+001
 4.845178162519593e+000	 2.162141841300012e-001	 1.036191846559952e+001
 4.843032369282406e+000	 2.598797222695223e-001	 1.036494099074344e+001
 4.840483578646983e+000	 3.036753608682405e-001	 1.036750749069357e+001
 4.837527967486590e+000	 3.475962653958800e-001	 1.036972836768115e+001
 4.834161775238419e+000	 3.916374991432061e-001	 1.037172256275938e+001
 4.830381306760575e+000	 4.357940238062281e-001	 1.037361756241999e+001
 4.875000000000000e+000	 0.000000000000000e+000	 1.032895146137401e+001
 4.874808874945352e+000	 4.316749648820179e-002	 1.033573173170646e+001
 4.874232733296419e+000	 8.648850592903019e-002	 1.034168227479404e+001
 4.873267460268909e+000	 1.299586883408228e-001	 1.034687255888399e+001
 4.871908989872690e+000	 1.735735993213043e-001	 1.035138038193652e+001
 4.870153307687087e+000	 2.173286902330660e-001	 1.035529195866293e+001
 4.867996453659956e+000	 2.612193084661514e-001	 1.035870199262892e+001
 4.865434524928405e+000	 3.052406977794263e-001	 1.036171373272537e+001
 4.862463678658856e+000	 3.493879987223563e-001	 1.036443901332404e+001
 4.859080134904157e+000	 3.936562491387530e-001	 1.036699827745281e+001
 4.855280179475290e+000	 4.380403847539867e-001	 1.036952058234613e+001
 4.900000000000000e+000	 0.000000000000000e+000	 1.032173390024193e+001
 4.899807894816859e+000	 4.338886826480400e-002	 1.032855922359838e+001
 4.899228798595335e+000	 8.693203672822945e-002	 1.033460366450031e+001
 4.898258575449684e+000	 1.306251431522988e-001	 1.033993778591576e+001
 4.896893138538543e+000	 1.744637203429309e-001	 1.034464055543916e+001
 4.895128452854458e+000	 2.184431963363725e-001	 1.034879943237038e+001
 4.892960538037332e+000	 2.625588946631297e-001	 1.035251043965737e+001
 4.890385471209588e+000	 3.068060346910890e-001	 1.035587821999671e+001
 4.887399389830807e+000	 3.511797320494579e-001	 1.035901607540171e+001
 4.883998494569497e+000	 3.956749991350937e-001	 1.036204598956544e+001
 4.880179052189514e+000	 4.402867457027287e-001	 1.036509863236707e+001
 4.925000000000000e+000	 0.000000000000000e+000	 1.031503001644434e+001
 4.924806914688357e+000	 4.361024004141571e-002	 1.032182765423384e+001
 4.924224863894231e+000	 8.737556752746696e-002	 1.032789046455422e+001
 4.923249690630416e+000	 1.312915979638611e-001	 1.033329012526784e+001
 4.921877287204318e+000	 1.753538413647117e-001	 1.033810679680231e+001
 4.920103598021710e+000	 2.195577024399207e-001	 1.034242920931178e+001
 4.917924622414534e+000	 2.638984808604573e-001	 1.034635473449660e+001
 4.915336417490530e+000	 3.083713716032288e-001	 1.034998944136780e+001
 4.912335101002446e+000	 3.529714653771846e-001	 1.035344813525775e+001
 4.908916854234441e+000	 3.976937491322283e-001	 1.035685437939698e+001
 4.905077924903247e+000	 4.425331066524542e-001	 1.036034049839832e+001
 4.949999999999999e+000	 0.000000000000000e+000	 1.030882806036382e+001
 4.949805934559854e+000	 4.383161181803696e-002	 1.031552531596431e+001
 4.949220929193109e+000	 8.781909832674277e-002	 1.032153101421862e+001
 4.948240805811104e+000	 1.319580527755098e-001	 1.032691796820590e+001
 4.946861435870015e+000	 1.762439623866466e-001	 1.033176755454059e+001
 4.945078743188840e+000	 2.206722085437106e-001	 1.033616980065714e+001
 4.942888706791562e+000	 2.652380670581341e-001	 1.034022345654460e+001
 4.940287363771237e+000	 3.099367085158457e-001	 1.034403605020894e+001
 4.937270812173774e+000	 3.547631987055365e-001	 1.034772392615638e+001
 4.933835213898987e+000	 3.997124991301568e-001	 1.035141226621012e+001
 4.929976797616488e+000	 4.447794676031630e-001	 1.035523509199390e+001
 4.975000000000000e+000	 0.000000000000000e+000	 1.030311651855620e+001
 4.974804954431343e+000	 4.405298359466774e-002	 1.030964072757264e+001
 4.974216994491966e+000	 8.826262912605680e-002	 1.031551386908380e+001
 4.973231920991751e+000	 1.326245075872450e-001	 1.032080991185681e+001
 4.971845584535635e+000	 1.771340834087356e-001	 1.032561147220120e+001
 4.970053888355849e+000	 2.217867146477423e-001	 1.033000990141844e+001
 4.967852791168413e+000	 2.665776532561602e-001	 1.033410535748913e+001
 4.965238310051703e+000	 3.115020454289394e-001	 1.033800686026705e+001
 4.962206523344789e+000	 3.565549320345135e-001	 1.034183232946538e+001
 4.958753573563136e+000	 4.017312491288792e-001	 1.034570860473905e+001
 4.954875670329236e+000	 4.470258285548553e-001	 1.034977144718961e+001
 5.000000000000000e+000	 0.000000000000000e+000	 1.029788410784615e+001
 4.999803974302830e+000	 4.427435537130806e-002	 1.030416262861240e+001
 4.999213059790807e+000	 8.870615992540913e-002	 1.030982779565940e+001
 4.998223036172354e+000	 1.332909623990665e-001	 1.031495475406207e+001
 4.996829733201179e+000	 1.780242044309789e-001	 1.031962738348810e+001
 4.995029033522739e+000	 2.229012207520157e-001	 1.032393838585358e+001
 4.992816875545091e+000	 2.679172394545357e-001	 1.032798935700044e+001
 4.990189256331933e+000	 3.130673823425104e-001	 1.033189084165632e+001
 4.987142234515491e+000	 3.583466653641158e-001	 1.033576237095341e+001
 4.983671933226890e+000	 4.037499991283957e-001	 1.033973248180259e+001
 4.979774543041494e+000	 4.492721895075311e-001	 1.034393871744092e+001
 4.730785815896796e+000	 4.268085800250276e-001	 1.038698464785199e+001
 4.726674008699353e+000	 4.701625413987225e-001	 1.038892951643905e+001
 4.722149432609216e+000	 5.136192519181059e-001	 1.039083083235877e+001
 4.717208677782532e+000	 5.571734829283325e-001	 1.039280148175906e+001
 4.711848409731800e+000	 6.008199094031386e-001	 1.039496182314750e+001
 4.706065372156694e+000	 6.445531109429850e-001	 1.040021668479418e+001
 4.699856389773194e+000	 6.883675728617011e-001	 1.040861953779300e+001
 4.693218371138125e+000	 7.322576873625164e-001	 1.041656221621721e+001
 4.686148311466119e+000	 7.762177548042758e-001	 1.042415301604317e+001
 4.678643295435927e+000	 8.202419850585258e-001	 1.043150147692579e+001
 4.670700499982989e+000	 8.643244989580522e-001	 1.043871864294611e+001
 4.755684688613478e+000	 4.290549409688527e-001	 1.038407277770094e+001
 4.751551240325787e+000	 4.726370810862668e-001	 1.038639427607700e+001
 4.747002850677489e+000	 5.163225111344948e-001	 1.038863213286817e+001
 4.742036091878187e+000	 5.601059749394567e-001	 1.039090291349019e+001
 4.736647611890441e+000	 6.039821194484364e-001	 1.039333084346669e+001
 4.730834137275505e+000	 6.479454957334774e-001	 1.039884549989810e+001
 4.724592476037334e+000	 6.919905600837466e-001	 1.040661381295305e+001
 4.717919520462003e+000	 7.361116751877544e-001	 1.041394958632009e+001
 4.710812249949480e+000	 7.803031114062363e-001	 1.042095943151604e+001
 4.703267733834721e+000	 8.245590481363798e-001	 1.042775117266629e+001
 4.695283134194934e+000	 8.688735752679868e-001	 1.043443411419286e+001
 4.780583561329669e+000	 4.313013019136611e-001	 1.038088211701353e+001
 4.776428471951631e+000	 4.751116207749754e-001	 1.038354618281317e+001
 4.771856268745071e+000	 5.190257703521906e-001	 1.038608543762049e+001
 4.766863505973047e+000	 5.630384669519913e-001	 1.038862016391591e+001
 4.761446814048191e+000	 6.071443294952087e-001	 1.039127849428801e+001
 4.755602902393324e+000	 6.513378805254689e-001	 1.039694767282354e+001
 4.749328562300383e+000	 6.956135473072754e-001	 1.040415499719970e+001
 4.742620669784687e+000	 7.399656630144204e-001	 1.041095765302761e+001
 4.735476188431549e+000	 7.843884680095284e-001	 1.041746047141212e+001
 4.727892172232125e+000	 8.288761112154278e-001	 1.042376946353359e+001
 4.719865768405383e+000	 8.734226515789357e-001	 1.042999209540042e+001
 4.805482434045368e+000	 4.335476628594529e-001	 1.037740091556651e+001
 4.801305703576881e+000	 4.775861604648483e-001	 1.038037263136995e+001
 4.796709686811961e+000	 5.217290295711928e-001	 1.038317727302357e+001
 4.791690920067119e+000	 5.659709589659361e-001	 1.038593887826514e+001
 4.786246016205046e+000	 6.103065395434554e-001	 1.038878952721195e+001
 4.780371667510149e+000	 6.547302653189596e-001	 1.039453379769825e+001
 4.774064648562338e+000	 6.992365345322883e-001	 1.040125467075586e+001
 4.767321819106180e+000	 7.438196508425142e-001	 1.040759898016247e+001
 4.760140126912325e+000	 7.884738246141517e-001	 1.041366967987728e+001
 4.752516610628135e+000	 8.331931742956693e-001	 1.041957086992961e+001
 4.744448402614344e+000	 8.779717278908998e-001	 1.042540807836057e+001
 4.830381306760575e+000	 4.357940238062281e-001	 1.037361756241999e+001
 4.826182935201540e+000	 4.800607001558854e-001	 1.037686116173004e+001
 4.821563104878159e+000	 5.244322887915017e-001	 1.037989431677012e+001
 4.816518334160397e+000	 5.689034509812909e-001	 1.038284485912211e+001
 4.811045218361012e+000	 6.134687495931768e-001	 1.038584885730867e+001
 4.805140432625981e+000	 6.581226501139492e-001	 1.039161463827577e+001
 4.798800734823201e+000	 7.028595217587845e-001	 1.039792458966603e+001
 4.792022968426481e+000	 7.476736386720359e-001	 1.040388631360233e+001
 4.784804065391810e+000	 7.925591812201065e-001	 1.040960078938105e+001
 4.777141049022752e+000	 8.375102373771048e-001	 1.041517010688172e+001
 4.769031036821811e+000	 8.825208042038785e-001	 1.042069775582309e+001
 4.855280179475290e+000	 4.380403847539867e-001	 1.036952058234613e+001
 4.851060166825605e+000	 4.825352398480867e-001	 1.037299945541174e+001
 4.846416522943667e+000	 5.271355480131172e-001	 1.037622339395869e+001
 4.841345748252884e+000	 5.718359429980561e-001	 1.037932406239170e+001
 4.835844420516082e+000	 6.166309596443724e-001	 1.038244155892643e+001
 4.829909197740824e+000	 6.615150349104380e-001	 1.038820112358601e+001
 4.823536821082972e+000	 7.064825089867647e-001	 1.039417668128804e+001
 4.816724117745589e+000	 7.515276265029859e-001	 1.039983257661164e+001
 4.809468003870001e+000	 7.966445378273929e-001	 1.040526771588777e+001
 4.801765487415977e+000	 8.418273004597342e-001	 1.041058207905230e+001
 4.793613671027784e+000	 8.870698805178717e-001	 1.041587701634302e+001
 4.880179052189514e+000	 4.402867457027287e-001	 1.036509863236707e+001
 4.875937398449081e+000	 4.850097795414525e-001	 1.036877533185843e+001
 4.871269941008481e+000	 5.298388072360395e-001	 1.037215147333323e+001
 4.866173162344578e+000	 5.747684350162313e-001	 1.037536259338809e+001
 4.860643622670264e+000	 6.197931696970426e-001	 1.037855286162843e+001
 4.854677962854673e+000	 6.649074197084258e-001	 1.038430434371908e+001
 4.848272907341651e+000	 7.101054962162284e-001	 1.039002303992279e+001
 4.841425267063504e+000	 7.553816143353637e-001	 1.039545086531658e+001
 4.834131942346899e+000	 8.007298944360106e-001	 1.040068455417559e+001
 4.826389925807809e+000	 8.461443635435572e-001	 1.040582187590110e+001
 4.818196305232266e+000	 8.916189568328796e-001	 1.041096193928561e+001
 4.905077924903247e+000	 4.425331066524542e-001	 1.036034049839832e+001
 4.900814630071965e+000	 4.874843192359823e-001	 1.036417674493784e+001
 4.896123359072603e+000	 5.325420664602684e-001	 1.036766566363733e+001
 4.891000576435481e+000	 5.777009270358167e-001	 1.037094670304279e+001
 4.885442824823553e+000	 6.229553797511871e-001	 1.037416814625327e+001
 4.879446727967530e+000	 6.682998045079130e-001	 1.037993554573738e+001
 4.873008993599236e+000	 7.137284834471761e-001	 1.038547592257714e+001
 4.866126416380228e+000	 7.592356021691692e-001	 1.039075444431758e+001
 4.858795880822505e+000	 8.048152510459598e-001	 1.039586557329805e+001
 4.851014364198250e+000	 8.504614266285741e-001	 1.040090476699503e+001
 4.842778939435253e+000	 8.961680331489021e-001	 1.040596878998341e+001
 4.929976797616488e+000	 4.447794676031630e-001	 1.035523509199390e+001
 4.925691861694258e+000	 4.899588589316765e-001	 1.035919177954762e+001
 4.920976777136034e+000	 5.352453256858040e-001	 1.036275321007885e+001
 4.915827990525591e+000	 5.806334190568122e-001	 1.036606278422726e+001
 4.910242026975950e+000	 6.261175898068063e-001	 1.036934045457983e+001
 4.904215493079394e+000	 6.716921893088990e-001	 1.037510612971172e+001
 4.897745079855732e+000	 7.173514706796075e-001	 1.038054774485517e+001
 4.890827565695757e+000	 7.630895900044028e-001	 1.038575674243506e+001
 4.883459819296820e+000	 8.089006076572403e-001	 1.039082521218321e+001
 4.875638802587296e+000	 8.547784897147845e-001	 1.039584619745989e+001
 4.867361573636751e+000	 9.007171094659396e-001	 1.040091401504014e+001
 4.954875670329236e+000	 4.470258285548553e-001	 1.034977144718961e+001
 4.950569093315958e+000	 4.924333986285350e-001	 1.035380864832301e+001
 4.945830195198774e+000	 5.379485849126461e-001	 1.035740149090120e+001
 4.940655404614910e+000	 5.835659110792180e-001	 1.036069736818676e+001
 4.935041229127454e+000	 6.292797998638997e-001	 1.036411203328879e+001
 4.928984258190266e+000	 6.750845741113841e-001	 1.036982764487687e+001
 4.922481166111132e+000	 7.209744579135223e-001	 1.037525107697332e+001
 4.915528715010096e+000	 7.669435778410643e-001	 1.038047134858317e+001
 4.908123757769840e+000	 8.129859642698522e-001	 1.038557807536541e+001
 4.900263240974951e+000	 8.590955528021890e-001	 1.039066178356943e+001
 4.891944207836753e+000	 9.052661857839915e-001	 1.039581423777613e+001
 4.979774543041494e+000	 4.492721895075311e-001	 1.034393871744092e+001
 4.975446324937067e+000	 4.949079383265578e-001	 1.034801568844346e+001
 4.970683613260823e+000	 5.406518441407950e-001	 1.035159801405741e+001
 4.965482818703439e+000	 5.864984031030339e-001	 1.035483712108084e+001
 4.959840431278068e+000	 6.324420099224679e-001	 1.035836495080150e+001
 4.953753023300148e+000	 6.784769589153686e-001	 1.036411178590247e+001
 4.947217252365444e+000	 7.245974451489213e-001	 1.036959863989507e+001
 4.940229864323243e+000	 7.707975656791541e-001	 1.037491200776752e+001
 4.932787696241570e+000	 8.170713208837956e-001	 1.038013892884516e+001
 4.924887679361214e+000	 8.634126158907873e-001	 1.038536730846663e+001
 4.916526842035265e+000	 9.098152621030583e-001	 1.039068625381041e+001
 4.670700499982989e+000	 8.643244989580522e-001	 1.043871864294611e+001
 4.662317197074184e+000	 9.084593298371435e-001	 1.044247890701222e+001
 4.653490756464190e+000	 9.526404251647136e-001	 1.044652353654949e+001
 4.644218648428491e+000	 9.968616482696642e-001	 1.045106186344275e+001
 4.634498446467843e+000	 1.041116780158473e+000	 1.045630723261164e+001
 4.624327829983526e+000	 1.085399521425691e+000	 1.046247724236618e+001
 4.613704586919089e+000	 1.129703494256914e+000	 1.046979398874048e+001
 4.602626616365185e+000	 1.174022244523953e+000	 1.047848431298452e+001
 4.591091931124016e+000	 1.218349243971802e+000	 1.048878005134535e+001
 4.579098660229948e+000	 1.262677892496843e+000	 1.049769676779775e+001
 4.566645051422785e+000	 1.307001520515620e+000	 1.049960969388088e+001
 4.695283134194934e+000	 8.688735752679868e-001	 1.043443411419286e+001
 4.686855708638989e+000	 9.132406947316664e-001	 1.043927325889086e+001
 4.677982813078237e+000	 9.576543221407282e-001	 1.044439732106054e+001
 4.668661904473817e+000	 1.002108288525804e+000	 1.044999883923538e+001
 4.658890543555444e+000	 1.046596342161823e+000	 1.045627413984853e+001
 4.648666397510717e+000	 1.091112150488570e+000	 1.046342359644559e+001
 4.637987242640786e+000	 1.135649302124196e+000	 1.047165189359485e+001
 4.626850966978886e+000	 1.180201308971414e+000	 1.048116829465288e+001
 4.615255572868284e+000	 1.224761608415979e+000	 1.049218691249194e+001
 4.603199179496159e+000	 1.269323565616884e+000	 1.050053459453013e+001
 4.590680025379892e+000	 1.313880475887600e+000	 1.050398308528553e+001
 4.719865768405383e+000	 8.734226515789357e-001	 1.042999209540042e+001
 4.711394220202210e+000	 9.180220596270136e-001	 1.043569499497583e+001
 4.702474869690624e+000	 9.626682191173959e-001	 1.044168246109394e+001
 4.693105160517438e+000	 1.007354928782444e+000	 1.044813025268461e+001
 4.683282640641307e+000	 1.052075904165542e+000	 1.045521769250537e+001
 4.673004965036161e+000	 1.096824779551708e+000	 1.046312794529468e+001
 4.662269898360744e+000	 1.141595109991644e+000	 1.047204830134349e+001
 4.651075317590875e+000	 1.186380373418968e+000	 1.048217046462021e+001
 4.639419214610887e+000	 1.231173972860197e+000	 1.049369084453089e+001
 4.627299698760771e+000	 1.275969238736935e+000	 1.050156832109910e+001
 4.614714999335491e+000	 1.320759431259581e+000	 1.050629576133401e+001
 4.744448402614344e+000	 8.779717278908998e-001	 1.042540807836057e+001
 4.735932731763849e+000	 9.228034245231848e-001	 1.043176506321250e+001
 4.726966926301361e+000	 9.676821160947169e-001	 1.043840536430479e+001
 4.717548416559352e+000	 1.012601569039586e+000	 1.044548797209347e+001
 4.707674737725434e+000	 1.057555466169631e+000	 1.045317521781980e+001
 4.697343532559855e+000	 1.102537408615102e+000	 1.046163307068939e+001
 4.686552554078960e+000	 1.147540917859257e+000	 1.047103144119176e+001
 4.675299668201150e+000	 1.192559437866615e+000	 1.048154448967261e+001
 4.663582856351825e+000	 1.237586337304457e+000	 1.049335093921557e+001
 4.651400218023789e+000	 1.282614911856997e+000	 1.050083523150768e+001
 4.638749973289582e+000	 1.327638386631561e+000	 1.050658968068251e+001
 4.769031036821811e+000	 8.825208042038785e-001	 1.042069775582309e+001
 4.760471243323902e+000	 9.275847894201803e-001	 1.042750452627899e+001
 4.751458982910444e+000	 9.726960130726908e-001	 1.043459246667458e+001
 4.741991672599561e+000	 1.017848209297230e+000	 1.044210380753865e+001
 4.732066834807823e+000	 1.063035028174090e+000	 1.045018389813925e+001
 4.721682100081798e+000	 1.108250037678754e+000	 1.045898152277604e+001
 4.710835209795433e+000	 1.153486725727035e+000	 1.046864922393676e+001
 4.699524018809712e+000	 1.198738502314356e+000	 1.047934363140672e+001
 4.687746498091099e+000	 1.243998701748758e+000	 1.049122579636334e+001
 4.675500737285211e+000	 1.289260584977068e+000	 1.049837203114844e+001
 4.662784947242169e+000	 1.334517342003541e+000	 1.050490613681272e+001
 4.793613671027784e+000	 8.870698805178717e-001	 1.041587701634302e+001
 4.785009754882376e+000	 9.323661543180003e-001	 1.042293455864423e+001
 4.775951039517873e+000	 9.777099100513179e-001	 1.043027023178486e+001
 4.766434928638065e+000	 1.023094849555375e+000	 1.043800951236353e+001
 4.756458931888473e+000	 1.068514590178917e+000	 1.044628077463607e+001
 4.746020667601993e+000	 1.113962666742662e+000	 1.045521562601060e+001
 4.735117865510166e+000	 1.159432533594977e+000	 1.046494925013163e+001
 4.723748369416562e+000	 1.204917566762189e+000	 1.047562075661921e+001
 4.711910139828707e+000	 1.250411066193101e+000	 1.048732349031994e+001
 4.699601256545038e+000	 1.295906258097151e+000	 1.049421486163976e+001
 4.686819921193249e+000	 1.341396297375522e+000	 1.050128577508757e+001
 4.818196305232266e+000	 8.916189568328796e-001	 1.041096193928561e+001
 4.809548266439266e+000	 9.371475192166445e-001	 1.041807644371619e+001
 4.800443096123647e+000	 9.827238070305986e-001	 1.042546515011317e+001
 4.790878184674864e+000	 1.028341489814022e+000	 1.043323678462542e+001
 4.780851028967386e+000	 1.073994152184115e+000	 1.044150275090894e+001
 4.770359235120437e+000	 1.119675295806829e+000	 1.045037748491603e+001
 4.759400521223157e+000	 1.165378341463085e+000	 1.045997881800001e+001
 4.747972720021696e+000	 1.211096631210116e+000	 1.047042834737821e+001
 4.736073781564651e+000	 1.256823430637485e+000	 1.048115020627877e+001
 4.723701775803267e+000	 1.302551931217244e+000	 1.048839931520778e+001
 4.710854895142822e+000	 1.348275252747503e+000	 1.049576860928490e+001
 4.842778939435253e+000	 8.961680331489021e-001	 1.040596878998341e+001
 4.834086777994573e+000	 9.419288841161130e-001	 1.041295157107695e+001
 4.824935152727766e+000	 9.877377040105320e-001	 1.042020373835040e+001
 4.815321440709955e+000	 1.033588130073170e+000	 1.042781726849877e+001
 4.805243126044562e+000	 1.079473714189682e+000	 1.043588659647457e+001
 4.794697802637132e+000	 1.125387924871252e+000	 1.044450898966440e+001
 4.783683176934407e+000	 1.171324149331359e+000	 1.045378493110930e+001
 4.772197070625118e+000	 1.217275695658136e+000	 1.046381851078796e+001
 4.760237423298931e+000	 1.263235795081911e+000	 1.047358913333749e+001
 4.747802295059902e+000	 1.309197604337347e+000	 1.048096044863039e+001
 4.734889869090889e+000	 1.355154208119483e+000	 1.048839403762753e+001
 4.867361573636751e+000	 9.007171094659396e-001	 1.040091401504014e+001
 4.858625289548295e+000	 9.467102490164057e-001	 1.040758143380148e+001
 4.849427209330234e+000	 9.927516009911185e-001	 1.041451253873882e+001
 4.839764696743343e+000	 1.038834770332819e+000	 1.042178255563585e+001
 4.829635223120002e+000	 1.084953276195618e+000	 1.042946895015360e+001
 4.819036370152078e+000	 1.131100553935933e+000	 1.043765182148974e+001
 4.807965832643914e+000	 1.177269957199797e+000	 1.044641430581152e+001
 4.796421421226826e+000	 1.223454760106249e+000	 1.045584298845766e+001
 4.784401065031544e+000	 1.269648159526378e+000	 1.046467054628354e+001
 4.771902814314941e+000	 1.315843277457460e+000	 1.047193279675862e+001
 4.758924843037452e+000	 1.362033163491464e+000	 1.047920085832753e+001
 4.891944207836753e+000	 9.052661857839915e-001	 1.039581423777613e+001
 4.883163801100436e+000	 9.514916139175227e-001	 1.040198762585737e+001
 4.873919265931045e+000	 9.977654979723585e-001	 1.040841811843011e+001
 4.864207952775023e+000	 1.044081410592970e+000	 1.041516418648641e+001
 4.854027320193703e+000	 1.090432838201924e+000	 1.042228632335445e+001
 4.843374937665274e+000	 1.136813183000871e+000	 1.042984745793779e+001
 4.832248488351679e+000	 1.183215765068401e+000	 1.043791337845974e+001
 4.820645771826821e+000	 1.229633824554455e+000	 1.044655316568471e+001
 4.808564706762494e+000	 1.276060523970887e+000	 1.045442428731019e+001
 4.796003333568383e+000	 1.322488950577584e+000	 1.046135038563043e+001
 4.782959816982506e+000	 1.368912118863444e+000	 1.046822728466194e+001
 4.916526842035265e+000	 9.098152621030583e-001	 1.039068625381041e+001
 4.907702312650993e+000	 9.562729788194643e-001	 1.039619183958249e+001
 4.898411322530204e+000	 1.002779394954252e+000	 1.040194706886262e+001
 4.888651208805000e+000	 1.049328050853623e+000	 1.040799365157772e+001
 4.878419417265668e+000	 1.095912400208599e+000	 1.041437510325862e+001
 4.867713505176722e+000	 1.142525812066066e+000	 1.042113717795815e+001
 4.856531144057705e+000	 1.189161572937169e+000	 1.042832831240810e+001
 4.844870122425104e+000	 1.235812889002754e+000	 1.043600008036249e+001
 4.832728348491778e+000	 1.282472888415437e+000	 1.044287977683135e+001
 4.820103852820230e+000	 1.329134623697719e+000	 1.044924674519095e+001
 4.806994790926056e+000	 1.375791074235425e+000	 1.045551095959612e+001
 4.566645051422785e+000	 1.307001520515620e+000	 1.049960969388088e+001
 4.553729473570638e+000	 1.351313391422532e+000	 1.050492317533428e+001
 4.540350419037734e+000	 1.395606704137587e+000	 1.051150167868503e+001
 4.526506505994300e+000	 1.439874595742234e+000	 1.051923939730108e+001
 4.512196480665969e+000	 1.484110144199970e+000	 1.052802229149143e+001
 4.497419219518086e+000	 1.528306371162558e+000	 1.053772824327687e+001
 4.482173731371831e+000	 1.572456244859625e+000	 1.054822723211890e+001
 4.466459159448743e+000	 1.616552683069939e+000	 1.055938153158803e+001
 4.450274783340313e+000	 1.660588556172508e+000	 1.057104592689164e+001
 4.433620020899308e+000	 1.704556690275470e+000	 1.058306795311902e+001
 4.416494430049541e+000	 1.748449870420633e+000	 1.059528815399811e+001
 4.590680025379892e+000	 1.313880475887600e+000	 1.050398308528553e+001
 4.577696470802579e+000	 1.358425567166879e+000	 1.050790576297230e+001
 4.564247000193416e+000	 1.402952002579742e+000	 1.051301592464000e+001
 4.550330224449835e+000	 1.447452883087015e+000	 1.051922263993810e+001
 4.535944883198663e+000	 1.491921250220426e+000	 1.052642693522385e+001
 4.521089846991900e+000	 1.536350088903590e+000	 1.053452193893302e+001
 4.505764119433992e+000	 1.580732330356816e+000	 1.054339304763425e+001
 4.489966839237115e+000	 1.625060855084025e+000	 1.055291811275598e+001
 4.473697282201146e+000	 1.669328495939906e+000	 1.056296764791382e+001
 4.456954863114908e+000	 1.713528041275271e+000	 1.057340505670475e+001
 4.439739137575500e+000	 1.757652238158466e+000	 1.058408688077092e+001
 4.614714999335491e+000	 1.320759431259581e+000	 1.050629576133401e+001
 4.601663468033124e+000	 1.365537742911231e+000	 1.050917452146608e+001
 4.588143581347830e+000	 1.410297301021918e+000	 1.051316608333287e+001
 4.574153942904255e+000	 1.455031170431841e+000	 1.051819421377951e+001
 4.559693285730408e+000	 1.499732356240961e+000	 1.052417482152824e+001
 4.544760474464951e+000	 1.544393806644744e+000	 1.053101609327466e+001
 4.529354507495598e+000	 1.589008415854183e+000	 1.053861865020209e+001
 4.513474519025167e+000	 1.633569027098352e+000	 1.054687572491009e+001
 4.497119781061903e+000	 1.678068435707619e+000	 1.055567335869330e+001
 4.480289705330701e+000	 1.722499392275472e+000	 1.056489061904479e+001
 4.462983845101943e+000	 1.766854605896794e+000	 1.057439983719566e+001
 4.638749973289582e+000	 1.327638386631561e+000	 1.050658968068251e+001
 4.625630465262270e+000	 1.372649918655588e+000	 1.050876672724893e+001
 4.612040162500976e+000	 1.417642599464112e+000	 1.051198472747620e+001
 4.597977661357554e+000	 1.462609457776710e+000	 1.051618196797256e+001
 4.583441688261203e+000	 1.507543462261574e+000	 1.052128905782083e+001
 4.568431101937241e+000	 1.552437524386020e+000	 1.052722905552517e+001
 4.552944895556652e+000	 1.597284501351727e+000	 1.053391761611879e+001
 4.536982198812894e+000	 1.642077199112921e+000	 1.054126315843643e+001
 4.520542279922587e+000	 1.686808375475648e+000	 1.054916705249528e+001
 4.503624547546691e+000	 1.731470743276074e+000	 1.055752382686682e+001
 4.486228552628871e+000	 1.776056973635617e+000	 1.056622139585970e+001
 4.662784947242169e+000	 1.334517342003541e+000	 1.050490613681272e+001
 4.649597462490021e+000	 1.379762094399950e+000	 1.050671909810039e+001
 4.635936743652853e+000	 1.424987897906325e+000	 1.050950397824441e+001
 4.621801379809737e+000	 1.470187745121623e+000	 1.051321340779413e+001
 4.607190090791048e+000	 1.515354568282264e+000	 1.051779251582432e+001
 4.592101729408772e+000	 1.560481242127419e+000	 1.052317904785604e+001
 4.576535283617155e+000	 1.605560586849447e+000	 1.052930350369057e+001
 4.560489878600298e+000	 1.650585371127729e+000	 1.053608929516705e+001
 4.543964778783194e+000	 1.695548315243992e+000	 1.054345292379525e+001
 4.526959389762876e+000	 1.740442094277075e+000	 1.055130417815423e+001
 4.509473260156283e+000	 1.785259341374934e+000	 1.055954635088507e+001
 4.686819921193249e+000	 1.341396297375522e+000	 1.050128577508757e+001
 4.673564459716376e+000	 1.386874270144317e+000	 1.050306780747080e+001
 4.659833324803467e+000	 1.432333196348558e+000	 1.050575551685159e+001
 4.645625098260799e+000	 1.477766032466580e+000	 1.050931570346797e+001
 4.630938493319944e+000	 1.523165674303032e+000	 1.051370783761124e+001
 4.615772356879540e+000	 1.568524959868940e+000	 1.051888416864460e+001
 4.600125671677106e+000	 1.613836672347345e+000	 1.052478985369475e+001
 4.583997558387378e+000	 1.659093543142779e+000	 1.053136310603514e+001
 4.567387277643729e+000	 1.704288255012651e+000	 1.053853536311964e+001
 4.550294231979255e+000	 1.749413445278477e+000	 1.054623147416517e+001
 4.532717967684180e+000	 1.794461709114747e+000	 1.055436990711988e+001
 4.710854895142822e+000	 1.348275252747503e+000	 1.049576860928490e+001
 4.697531456941334e+000	 1.393986445888689e+000	 1.049784849836710e+001
 4.683729905952809e+000	 1.439678494790811e+000	 1.050077059577508e+001
 4.669448816710744e+000	 1.485344319811581e+000	 1.050451569871187e+001
 4.654686895847889e+000	 1.530976780323879e+000	 1.050905744146245e+001
 4.639442984349548e+000	 1.576568677610583e+000	 1.051436239563208e+001
 4.623716059736504e+000	 1.622112757845418e+000	 1.052039018982691e+001
 4.607505238174135e+000	 1.667601715158070e+000	 1.052709364880214e+001
 4.590809776504189e+000	 1.713028194781626e+000	 1.053441895204465e+001
 4.573629074195829e+000	 1.758384796280278e+000	 1.054230581169598e+001
 4.555962675212561e+000	 1.803664076855054e+000	 1.055068766966063e+001
 4.734889869090889e+000	 1.355154208119483e+000	 1.048839403762753e+001
 4.721498454164894e+000	 1.401098621633065e+000	 1.049109629681600e+001
 4.707626487100888e+000	 1.447023793233083e+000	 1.049458004963702e+001
 4.693272535159570e+000	 1.492922607156626e+000	 1.049883991902472e+001
 4.678435298374886e+000	 1.538787886344804e+000	 1.050386352754702e+001
 4.663113611818793e+000	 1.584612395352349e+000	 1.050963158898540e+001
 4.647306447795349e+000	 1.630388843343668e+000	 1.051611801913446e+001
 4.631012917960569e+000	 1.676109887173602e+000	 1.052329006585392e+001
 4.614232275364574e+000	 1.721768134550916e+000	 1.053110845834715e+001
 4.596963916412597e+000	 1.767356147282479e+000	 1.053952757558015e+001
 4.579207382741428e+000	 1.812866444595856e+000	 1.054849563369358e+001
 4.758924843037452e+000	 1.362033163491464e+000	 1.047920085832753e+001
 4.745465451387058e+000	 1.408210797377446e+000	 1.048284582491895e+001
 4.731523068247697e+000	 1.454369091675374e+000	 1.048721430575633e+001
 4.717096253607279e+000	 1.500500894501714e+000	 1.049231457972230e+001
 4.702183700900933e+000	 1.546598992365808e+000	 1.049814808343021e+001
 4.686784239287278e+000	 1.592656113094236e+000	 1.050470949426620e+001
 4.670896835853644e+000	 1.638664928842095e+000	 1.051198683243703e+001
 4.654520597746679e+000	 1.684618059189375e+000	 1.051996158206378e+001
 4.637654774224886e+000	 1.730508074320522e+000	 1.052860883130272e+001
 4.620298758629560e+000	 1.776327498285080e+000	 1.053789743141472e+001
 4.602452090270778e+000	 1.822068812337153e+000	 1.054779017464406e+001
 4.782959816982506e+000	 1.368912118863444e+000	 1.046822728466194e+001
 4.769432448607826e+000	 1.415322973121832e+000	 1.047313121351360e+001
 4.755419649393240e+000	 1.461714390117685e+000	 1.047870339438241e+001
 4.740919972053868e+000	 1.508079181846847e+000	 1.048496559373079e+001
 4.725932103426031e+000	 1.554410098386889e+000	 1.049193288941524e+001
 4.710454866755005e+000	 1.600699830836247e+000	 1.049961374531043e+001
 4.694487223911384e+000	 1.646941014340699e+000	 1.050801010473421e+001
 4.678028277532465e+000	 1.693126231205388e+000	 1.051711750271997e+001
 4.661077273085121e+000	 1.739248014090443e+000	 1.052692519712532e+001
 4.643633600846719e+000	 1.785298849288082e+000	 1.053741631850590e+001
 4.625696797800613e+000	 1.831271180078945e+000	 1.054856803862267e+001
 4.806994790926056e+000	 1.375791074235425e+000	 1.045551095959612e+001
 4.793399445827198e+000	 1.422435148866224e+000	 1.046198611445544e+001
 4.779316230537516e+000	 1.469059688560016e+000	 1.046907695862185e+001
 4.764743690499341e+000	 1.515657469192023e+000	 1.047681857914658e+001
 4.749680505950179e+000	 1.562221204408049e+000	 1.048523952372480e+001
 4.734125494221968e+000	 1.608743548578380e+000	 1.049436186702145e+001
 4.718077611968575e+000	 1.655217099839480e+000	 1.050420129560105e+001
 4.701535957317928e+000	 1.701634403221643e+000	 1.051476721151525e+001
 4.684499771945284e+000	 1.747987953860680e+000	 1.052606285454392e+001
 4.666968443064073e+000	 1.794270200291484e+000	 1.053808544302633e+001
 4.648941505330933e+000	 1.840473547821232e+000	 1.055082633315819e+001
 4.416494430049541e+000	 1.748449870420633e+000	 1.059528815399811e+001
 4.398897710511125e+000	 1.792260843862486e+000	 1.062356012365281e+001
 4.380829705437297e+000	 1.835982323416120e+000	 1.065180115765352e+001
 4.362290402960451e+000	 1.879606990872976e+000	 1.066397589379538e+001
 4.343279937644680e+000	 1.923127500484416e+000	 1.066012911784748e+001
 4.323798591841205e+000	 1.966536482506963e+000	 1.065916818729083e+001
 4.303846796944171e+000	 2.009826546807196e+000	 1.066100588582431e+001
 4.283425134544102e+000	 2.052990286523143e+000	 1.066555229850390e+001
 4.262534337476437e+000	 2.096020281778891e+000	 1.067271510483168e+001
 4.241175290762652e+000	 2.138909103449004e+000	 1.068239987992077e+001
 4.219349032441642e+000	 2.181649316969236e+000	 1.069451040298383e+001
 4.439739137575500e+000	 1.757652238158466e+000	 1.058408688077092e+001
 4.422049803722750e+000	 1.801693795671522e+000	 1.061020423194609e+001
 4.403886703884518e+000	 1.845645388275808e+000	 1.063627585028440e+001
 4.385249826130742e+000	 1.889499659245881e+000	 1.065813016004312e+001
 4.366139305733747e+000	 1.933249224171265e+000	 1.066271743395445e+001
 4.346555426530813e+000	 1.976886674520360e+000	 1.065846053577477e+001
 4.326498622186581e+000	 2.020404581264306e+000	 1.065700464569852e+001
 4.305969477352579e+000	 2.063795498557646e+000	 1.065826491796799e+001
 4.284968728721273e+000	 2.107051967472486e+000	 1.066215418819162e+001
 4.263497265972154e+000	 2.150166519782732e+000	 1.066858327422966e+001
 4.241556132607472e+000	 2.193131681794851e+000	 1.067746128429340e+001
 4.462983845101943e+000	 1.766854605896794e+000	 1.057439983719566e+001
 4.445201896935138e+000	 1.811126747481146e+000	 1.059850761188768e+001
 4.426943702332746e+000	 1.855308453136171e+000	 1.062255619851085e+001
 4.408209249302243e+000	 1.899392327619536e+000	 1.064015623626914e+001
 4.388998673824186e+000	 1.943370947858931e+000	 1.065305242594534e+001
 4.369312261221915e+000	 1.987236866534629e+000	 1.066064175468288e+001
 4.349150447430567e+000	 2.030982615722333e+000	 1.065602960602970e+001
 4.328513820162675e+000	 2.074600710593101e+000	 1.065414138503260e+001
 4.307403119967733e+000	 2.118083653167060e+000	 1.065489497577918e+001
 4.285819241183236e+000	 2.161423936117454e+000	 1.065820633045506e+001
 4.263763232774805e+000	 2.204614046621467e+000	 1.066398977718786e+001
 4.486228552628871e+000	 1.776056973635617e+000	 1.056622139585970e+001
 4.468353990148293e+000	 1.820559699291361e+000	 1.058846326411738e+001
 4.450000700781982e+000	 1.864971517997210e+000	 1.061063381984475e+001
 4.431168672474953e+000	 1.909284995993942e+000	 1.062448762643374e+001
 4.411858041915995e+000	 1.953492671547412e+000	 1.063636875906386e+001
 4.392069095914512e+000	 1.997587058549771e+000	 1.064859596781043e+001
 4.371802272676131e+000	 2.041560650181278e+000	 1.065806926519286e+001
 4.351058162974391e+000	 2.085405922629510e+000	 1.065316871007310e+001
 4.329837511215814e+000	 2.129115338862614e+000	 1.065092297604483e+001
 4.308141216395904e+000	 2.172681352453172e+000	 1.065125304157985e+001
 4.285970332943644e+000	 2.216096411449083e+000	 1.065407834603529e+001
 4.509473260156283e+000	 1.785259341374934e+000	 1.055954635088507e+001
 4.491506083362213e+000	 1.829992651102166e+000	 1.058006465018199e+001
 4.473057699232222e+000	 1.874634582858924e+000	 1.060050083236336e+001
 4.454128095648869e+000	 1.919177664369099e+000	 1.061108850744808e+001
 4.434717410009177e+000	 1.963614395236710e+000	 1.062206676584263e+001
 4.414825930608602e+000	 2.007937250565785e+000	 1.063338991954509e+001
 4.394454097923273e+000	 2.052138684641142e+000	 1.064492537732627e+001
 4.373602505787726e+000	 2.096211134666874e+000	 1.065533460603537e+001
 4.352271902465517e+000	 2.140147024559147e+000	 1.065022444103273e+001
 4.330463191610156e+000	 2.183938768789885e+000	 1.064770818536987e+001
 4.308177433113985e+000	 2.227578776277698e+000	 1.064771028132371e+001
 4.532717967684180e+000	 1.794461709114747e+000	 1.055436990711988e+001
 4.514658176576894e+000	 1.839425602913561e+000	 1.057330568071713e+001
 4.496114697683471e+000	 1.884297647721313e+000	 1.059020505306770e+001
 4.477087518823998e+000	 1.929070332745008e+000	 1.059992358285835e+001
 4.457576778103730e+000	 1.973736118926826e+000	 1.061010915275367e+001
 4.437582765304188e+000	 2.018287442582671e+000	 1.062063975346569e+001
 4.417105923171993e+000	 2.062716719101925e+000	 1.063138926696081e+001
 4.396146848602683e+000	 2.107016346705191e+000	 1.064222751025323e+001
 4.374706293716842e+000	 2.151178710256659e+000	 1.065278634731431e+001
 4.352785166825990e+000	 2.195196185127592e+000	 1.064755730425132e+001
 4.330384533285831e+000	 2.239061141107313e+000	 1.064486967847855e+001
 4.555962675212561e+000	 1.803664076855054e+000	 1.055068766966063e+001
 4.537810269792344e+000	 1.848858554725545e+000	 1.056818070399084e+001
 4.519171696135725e+000	 1.893960712584378e+000	 1.058191905503801e+001
 4.500046942000333e+000	 1.938963001121667e+000	 1.059095806941122e+001
 4.480436146199654e+000	 1.983857842617758e+000	 1.060045917762221e+001
 4.460339600001268e+000	 2.028637634600431e+000	 1.061030676489434e+001
 4.439757748422287e+000	 2.073294753563625e+000	 1.062038114307504e+001
 4.418691191419258e+000	 2.117821558744462e+000	 1.063055858767012e+001
 4.397140684969790e+000	 2.162210395955151e+000	 1.064071138461639e+001
 4.375107142043407e+000	 2.206453601466294e+000	 1.065070788698728e+001
 4.352591633459181e+000	 2.250543505937929e+000	 1.064554141732856e+001
 4.579207382741428e+000	 1.812866444595856e+000	 1.054849563369358e+001
 4.560962363008558e+000	 1.858291506538120e+000	 1.056468449479625e+001
 4.542228694588986e+000	 1.903623777448118e+000	 1.057569322995862e+001
 4.523006365177878e+000	 1.948855669499077e+000	 1.058415768402846e+001
 4.503295514296952e+000	 1.993979566309507e+000	 1.059308063563288e+001
 4.483096434699842e+000	 2.038987826619062e+000	 1.060235282391569e+001
 4.462409573674162e+000	 2.083872788026244e+000	 1.061186094815128e+001
 4.441235534237454e+000	 2.128626770784687e+000	 1.062148769802810e+001
 4.419575076224358e+000	 2.173242081654623e+000	 1.063111179360317e+001
 4.397429117262409e+000	 2.217711017805991e+000	 1.064060803513464e+001
 4.374798733634036e+000	 2.262025870769545e+000	 1.064971114219708e+001
 4.602452090270778e+000	 1.822068812337153e+000	 1.054779017464406e+001
 4.584114456225539e+000	 1.867724458351285e+000	 1.056281224368070e+001
 4.565285693043254e+000	 1.913286842312534e+000	 1.057149566379847e+001
 4.545965788356632e+000	 1.958748337877238e+000	 1.057948863117618e+001
 4.526154882395619e+000	 2.004101290002073e+000	 1.058793784576015e+001
 4.505853269399911e+000	 2.049338018638566e+000	 1.059674036086282e+001
 4.485061398927613e+000	 2.094450822489781e+000	 1.060578922157665e+001
 4.463779877057269e+000	 2.139431982825866e+000	 1.061497348831379e+001
 4.442009467480551e+000	 2.184273767355074e+000	 1.062417826995290e+001
 4.419751092482994e+000	 2.228968434146683e+000	 1.063328476681216e+001
 4.397005833810392e+000	 2.273508235602161e+000	 1.064217032364417e+001
 4.625696797800613e+000	 1.831271180078945e+000	 1.054856803862267e+001
 4.607266549443284e+000	 1.877157410165040e+000	 1.056222019940432e+001
 4.588342691498529e+000	 1.922949907177625e+000	 1.056929488270921e+001
 4.568925211536594e+000	 1.968641006256150e+000	 1.057691759061507e+001
 4.549014250495659e+000	 2.014223013695455e+000	 1.058499563760759e+001
 4.528610104101475e+000	 2.059688210658943e+000	 1.059343235224059e+001
 4.507713224182639e+000	 2.105028856954236e+000	 1.060212708464547e+001
 4.486324219878705e+000	 2.150237194867999e+000	 1.061097522333381e+001
 4.464443858738363e+000	 2.195305453056505e+000	 1.061986822154606e+001
 4.442073067705161e+000	 2.240225850488371e+000	 1.062869363337775e+001
 4.419212933988254e+000	 2.284990600435776e+000	 1.063733515989113e+001
 4.648941505330933e+000	 1.840473547821232e+000	 1.055082633315819e+001
 4.630418642661795e+000	 1.886590361979385e+000	 1.056225023115235e+001
 4.611399689954811e+000	 1.932612972043392e+000	 1.056905984202050e+001
 4.591884634717767e+000	 1.978533674635814e+000	 1.057641170551798e+001
 4.571873618597071e+000	 2.024344737389654e+000	 1.058421933864234e+001
 4.551366938804533e+000	 2.070038402680192e+000	 1.059239230707140e+001
 4.530365049439246e+000	 2.115606891419609e+000	 1.060083622601156e+001
 4.508868562701761e+000	 2.161042406911086e+000	 1.060945277026924e+001
 4.486878249997798e+000	 2.206337138758915e+000	 1.061813969381038e+001
 4.464395042928914e+000	 2.251483266831053e+000	 1.062679085905177e+001
 4.441420034167620e+000	 2.296472965270393e+000	 1.063529627610452e+001
 4.219349032441642e+000	 2.181649316969236e+000	 1.069451040298383e+001
 4.197056754289153e+000	 2.224233486189214e+000	 1.068501302209403e+001
 4.174299802423162e+000	 2.266654177265143e+000	 1.067816410142070e+001
 4.151079677793085e+000	 2.308903962587824e+000	 1.067418461693544e+001
 4.127398036551244e+000	 2.350975424740407e+000	 1.067329728845057e+001
 4.103256690304888e+000	 2.392861160483732e+000	 1.067572659570250e+001
 4.078657606247211e+000	 2.434553784764503e+000	 1.068169879062958e+001
 4.053602907166103e+000	 2.476045934742122e+000	 1.069144190536817e+001
 4.028094871329415e+000	 2.517330273829837e+000	 1.069823542124350e+001
 4.002135932245784e+000	 2.558399495745879e+000	 1.069796450766754e+001
 3.975728678300154e+000	 2.599246328570120e+000	 1.069954606141606e+001
 4.241556132607472e+000	 2.193131681794851e+000	 1.067746128429340e+001
 4.219146526675409e+000	 2.235939978220896e+000	 1.066982568696897e+001
 4.196269801378701e+000	 2.278583936091637e+000	 1.066487512491677e+001
 4.172927465566494e+000	 2.321056088705192e+000	 1.066280048667461e+001
 4.149121184107708e+000	 2.363348979605680e+000	 1.066379419497948e+001
 4.124852778144358e+000	 2.405455166589519e+000	 1.066805025646317e+001
 4.100124225223292e+000	 2.447367225734717e+000	 1.067576430810360e+001
 4.074937659304965e+000	 2.489077755448879e+000	 1.068713365989899e+001
 4.049295370648115e+000	 2.530579380531643e+000	 1.069100273749274e+001
 4.023199805569314e+000	 2.571864756247122e+000	 1.069286943527867e+001
 3.996653566076591e+000	 2.612926572401926e+000	 1.069645124669990e+001
 4.263763232774805e+000	 2.204614046621467e+000	 1.066398977718786e+001
 4.241236299063069e+000	 2.247646470253574e+000	 1.065774007479460e+001
 4.218239800335543e+000	 2.290513694919109e+000	 1.065421076037738e+001
 4.194775253341109e+000	 2.333208214823516e+000	 1.065356280713356e+001
 4.170844331665274e+000	 2.375722534471873e+000	 1.065595851510640e+001
 4.146448865984832e+000	 2.418049172696183e+000	 1.066156159440680e+001
 4.121590844200275e+000	 2.460180666705753e+000	 1.067053724574841e+001
 4.096272411444630e+000	 2.502109576156394e+000	 1.068238192990131e+001
 4.070495869967516e+000	 2.543828487234131e+000	 1.068423325603951e+001
 4.044263678893448e+000	 2.585330016748961e+000	 1.068774288403059e+001
 4.017578453853528e+000	 2.626606816234234e+000	 1.069283382534145e+001
 4.285970332943644e+000	 2.216096411449083e+000	 1.065407834603529e+001
 4.263326071452134e+000	 2.259352962287246e+000	 1.064874664828458e+001
 4.240209799293691e+000	 2.302443453747564e+000	 1.064616947200595e+001
 4.216623041116927e+000	 2.345360340942795e+000	 1.064647804319491e+001
 4.192567479223944e+000	 2.388096089338986e+000	 1.064980470960352e+001
 4.168044953826307e+000	 2.430643178803723e+000	 1.065628305740563e+001
 4.143057463178162e+000	 2.472994107677609e+000	 1.066604802572958e+001
 4.117607163585099e+000	 2.515141396864667e+000	 1.067480413072717e+001
 4.091696369287622e+000	 2.557077593937302e+000	 1.067790906525037e+001
 4.065327552218185e+000	 2.598795277251399e+000	 1.068257448357337e+001
 4.038503341630969e+000	 2.640287060067045e+000	 1.068869097766627e+001
 4.308177433113985e+000	 2.227578776277698e+000	 1.064771028132371e+001
 4.285415843842603e+000	 2.271059454321914e+000	 1.064283654104400e+001
 4.262179798253142e+000	 2.314373212576999e+000	 1.064075023946053e+001
 4.238470828893949e+000	 2.357512467063031e+000	 1.064155301962251e+001
 4.214290626783717e+000	 2.400469644207022e+000	 1.064534744348639e+001
 4.189641041668788e+000	 2.443237184912141e+000	 1.065223714194555e+001
 4.164524082156952e+000	 2.485807548650289e+000	 1.066232696327805e+001
 4.138941915726370e+000	 2.528173217573696e+000	 1.066813643085887e+001
 4.112896868608430e+000	 2.570326700641154e+000	 1.067201183599907e+001
 4.086391425543523e+000	 2.612260537754435e+000	 1.067735329120253e+001
 4.059428229408913e+000	 2.653967303900358e+000	 1.068401915716093e+001
 4.330384533285831e+000	 2.239061141107313e+000	 1.064486967847855e+001
 4.307505616234475e+000	 2.282765946357576e+000	 1.064000154036701e+001
 4.284149797213895e+000	 2.326302971407412e+000	 1.063795254463707e+001
 4.260318616672174e+000	 2.369664593184222e+000	 1.063879491183378e+001
 4.236013774344594e+000	 2.412843199075978e+000	 1.064260158077691e+001
 4.211237129512270e+000	 2.455831191021433e+000	 1.064944639187963e+001
 4.185990701136645e+000	 2.498620989623789e+000	 1.065940426943194e+001
 4.160276667868445e+000	 2.541205038283481e+000	 1.066235287262918e+001
 4.134097367929940e+000	 2.583575807345689e+000	 1.066652283237146e+001
 4.107455298869464e+000	 2.625725798258067e+000	 1.067206780653469e+001
 4.080353117187359e+000	 2.667647547734174e+000	 1.067881410910972e+001
 4.352591633459181e+000	 2.250543505937929e+000	 1.064554141732856e+001
 4.329595388627752e+000	 2.294472438394234e+000	 1.064023407056115e+001
 4.306119796175953e+000	 2.338232730238808e+000	 1.063777635885722e+001
 4.282166404451603e+000	 2.381816719306368e+000	 1.063821123695437e+001
 4.257736921906573e+000	 2.425216753945855e+000	 1.064158217942661e+001
 4.232833217356757e+000	 2.468425197131603e+000	 1.064793339721973e+001
 4.207457320117240e+000	 2.511434430598111e+000	 1.065491178001377e+001
 4.181611420011321e+000	 2.554236858994024e+000	 1.065742724928956e+001
 4.155297867252154e+000	 2.596824914050907e+000	 1.066142292204272e+001
 4.128519172196009e+000	 2.639191058762298e+000	 1.066670598573416e+001
 4.101278004966307e+000	 2.681327791568492e+000	 1.067307088866120e+001
 4.374798733634036e+000	 2.262025870769545e+000	 1.064971114219708e+001
 4.351685161022432e+000	 2.306178930431887e+000	 1.064352717677944e+001
 4.328089795139315e+000	 2.350162489071183e+000	 1.064022213044630e+001
 4.304014192232236e+000	 2.393968845429471e+000	 1.063980984514543e+001
 4.279460069469657e+000	 2.437590308816653e+000	 1.064230448639463e+001
 4.254429305202247e+000	 2.481019203242649e+000	 1.064772079296499e+001
 4.228923939098740e+000	 2.524247871573255e+000	 1.065140096760577e+001
 4.202946172155001e+000	 2.567268679705325e+000	 1.065333311133194e+001
 4.176498366575070e+000	 2.610074020756807e+000	 1.065669258633855e+001
 4.149583045523156e+000	 2.652656319267126e+000	 1.066125525530608e+001
 4.122202892745759e+000	 2.695008035403313e+000	 1.066678387834423e+001
 4.397005833810392e+000	 2.273508235602161e+000	 1.064217032364417e+001
 4.373774933418516e+000	 2.317885422470535e+000	 1.064987450934248e+001
 4.350059794103981e+000	 2.362092247904538e+000	 1.064529077268789e+001
 4.325861980014071e+000	 2.406120971553528e+000	 1.064359891119362e+001
 4.301183217033842e+000	 2.449963863688371e+000	 1.064478393287478e+001
 4.276025393048739e+000	 2.493613209354571e+000	 1.064883125796579e+001
 4.250390558081143e+000	 2.537061312549222e+000	 1.064915333737966e+001
 4.224280924299484e+000	 2.580300500417383e+000	 1.065004377261912e+001
 4.197698865898689e+000	 2.623323127463389e+000	 1.065231192999151e+001
 4.170646918850905e+000	 2.666121579772552e+000	 1.065570252547173e+001
 4.143127780525714e+000	 2.708688279238637e+000	 1.065994680505341e+001
 4.419212933988254e+000	 2.284990600435776e+000	 1.063733515989113e+001
 4.395864705816003e+000	 2.329591914510178e+000	 1.064601133663280e+001
 4.372029793069951e+000	 2.374022006738874e+000	 1.065298365214126e+001
 4.347709767797112e+000	 2.418273097678542e+000	 1.064958692635468e+001
 4.322906364599133e+000	 2.462337418561011e+000	 1.064903612966649e+001
 4.297621480896234e+000	 2.506207215467370e+000	 1.065034184668293e+001
 4.271857177064447e+000	 2.549874753526010e+000	 1.064813533630455e+001
 4.245615676444771e+000	 2.593332321130198e+000	 1.064753231633014e+001
 4.218899365223010e+000	 2.636572234170654e+000	 1.064826069060311e+001
 4.191710792179259e+000	 2.679586840278576e+000	 1.065003420314040e+001
 4.164052668306169e+000	 2.722368523074463e+000	 1.065255275652221e+001
 4.441420034167620e+000	 2.296472965270393e+000	 1.063529627610452e+001
 4.417954478214896e+000	 2.341298406550817e+000	 1.064375052637978e+001
 4.393999792037225e+000	 2.385951765574191e+000	 1.065222884688387e+001
 4.369557555581356e+000	 2.430425223804511e+000	 1.065778269044169e+001
 4.344629512165529e+000	 2.474710973434573e+000	 1.065507686268473e+001
 4.319217568744735e+000	 2.518801221581046e+000	 1.065244589441184e+001
 4.293323796048657e+000	 2.562688194503620e+000	 1.064831331966522e+001
 4.266950428590861e+000	 2.606364141843770e+000	 1.064577160072741e+001
 4.240099864548036e+000	 2.649821340878601e+000	 1.064451824782210e+001
 4.212774665508213e+000	 2.693052100785196e+000	 1.064423620449223e+001
 4.184977556087130e+000	 2.736048766910793e+000	 1.064459419730204e+001
 3.975728678300154e+000	 2.599246328570120e+000	 1.069954606141606e+001
 3.948875852262866e+000	 2.639863538801905e+000	 1.071445479809813e+001
 3.921580350673420e+000	 2.680243935414237e+000	 1.072832562745657e+001
 3.893845223097610e+000	 2.720380373899949e+000	 1.074077185642753e+001
 3.865673671256817e+000	 2.760265760305474e+000	 1.075139747339025e+001
 3.837069048031190e+000	 2.799893055247307e+000	 1.075979770484453e+001
 3.808034856336499e+000	 2.839255277906679e+000	 1.076555960416950e+001
 3.778574747875074e+000	 2.878345509997804e+000	 1.076826267149771e+001
 3.748692521761567e+000	 2.917156899705098e+000	 1.076681313047827e+001
 3.718392123024358e+000	 2.955682665584793e+000	 1.074864516630375e+001
 3.687677640983678e+000	 2.993916100426382e+000	 1.073016666133961e+001
 3.996653566076591e+000	 2.612926572401926e+000	 1.069645124669990e+001
 3.969659409375954e+000	 2.653757557424342e+000	 1.070817255031307e+001
 3.942220247251892e+000	 2.694350482439861e+000	 1.071892952952581e+001
 3.914339145320548e+000	 2.734698165338652e+000	 1.072835590529419e+001
 3.886019322154460e+000	 2.774793474830545e+000	 1.073607590035326e+001
 3.857264148280525e+000	 2.814629334482651e+000	 1.074170477630141e+001
 3.828077145050904e+000	 2.854198726735047e+000	 1.074484940318046e+001
 3.798461983387418e+000	 2.893494696889920e+000	 1.074510886061692e+001
 3.768422482400057e+000	 2.932510357069494e+000	 1.074207506947952e+001
 3.737962607880510e+000	 2.971238890138198e+000	 1.072969444345058e+001
 3.707086470671743e+000	 3.009673553584413e+000	 1.070733368008169e+001
 4.017578453853528e+000	 2.626606816234234e+000	 1.069283382534145e+001
 3.990442966489449e+000	 2.667651576047185e+000	 1.070177256759709e+001
 3.962860143830687e+000	 2.708457029465810e+000	 1.070982263564653e+001
 3.934833067543729e+000	 2.749015956777602e+000	 1.071663791865326e+001
 3.906364973052286e+000	 2.789321189355798e+000	 1.072186262303477e+001
 3.877459248529986e+000	 2.829365613718120e+000	 1.072513179018763e+001
 3.848119433765392e+000	 2.869142175563498e+000	 1.072607184713276e+001
 3.818349218899808e+000	 2.908643883782080e+000	 1.072430118917849e+001
 3.788152443038568e+000	 2.947863814433913e+000	 1.071943079358622e+001
 3.757533092736664e+000	 2.986795114691607e+000	 1.071106486311275e+001
 3.726495300359807e+000	 3.025431006742444e+000	 1.068888682849839e+001
 4.038503341630969e+000	 2.640287060067045e+000	 1.068869097766627e+001
 4.011226523603352e+000	 2.681545594670439e+000	 1.069524571727758e+001
 3.983500040409803e+000	 2.722563576492080e+000	 1.070098953084772e+001
 3.955326989767160e+000	 2.763333748216800e+000	 1.070559623271067e+001
 3.926710623950293e+000	 2.803848903881233e+000	 1.070872976504606e+001
 3.897654348779573e+000	 2.844101892953717e+000	 1.071004469647619e+001
 3.868161722479959e+000	 2.884085624392028e+000	 1.070918675401848e+001
 3.838236454412243e+000	 2.923793070674288e+000	 1.070579338752208e+001
 3.807882403677098e+000	 2.963217271798351e+000	 1.069949436560364e+001
 3.777103577592825e+000	 3.002351339245024e+000	 1.068991240198456e+001
 3.745904130047871e+000	 3.041188459900474e+000	 1.067483800698594e+001
 4.059428229408913e+000	 2.653967303900358e+000	 1.068401915716093e+001
 4.032010080717662e+000	 2.695439613294097e+000	 1.068858227177390e+001
 4.004139936989244e+000	 2.736670123518674e+000	 1.069241433710981e+001
 3.975820911990837e+000	 2.777651539656244e+000	 1.069520885234880e+001
 3.947056274848482e+000	 2.818376618406849e+000	 1.069664925020215e+001
 3.917849449029286e+000	 2.858838172189438e+000	 1.069640937661031e+001
 3.888204011194608e+000	 2.899029073220639e+000	 1.069415400424196e+001
 3.858123689924725e+000	 2.938942257566539e+000	 1.068953937895397e+001
 3.827612364315648e+000	 2.978570729162808e+000	 1.068221379825676e+001
 3.796674062448990e+000	 3.017907563798444e+000	 1.067181822071569e+001
 3.765312959735935e+000	 3.056945913058504e+000	 1.065798690510758e+001
 4.080353117187359e+000	 2.667647547734174e+000	 1.067881410910972e+001
 4.052793637832379e+000	 2.709333631918165e+000	 1.068177192385137e+001
 4.024779833569006e+000	 2.750776670545588e+000	 1.068408072523770e+001
 3.996314834214760e+000	 2.791969331095935e+000	 1.068545345962192e+001
 3.967401925746854e+000	 2.832904332932648e+000	 1.068559280764487e+001
 3.938044549279125e+000	 2.873574451425288e+000	 1.068419164526063e+001
 3.908246299909337e+000	 2.913972522049331e+000	 1.068093353901956e+001
 3.878010925437251e+000	 2.954091444458837e+000	 1.067549327479916e+001
 3.847342324954219e+000	 2.993924186527287e+000	 1.066753741905656e+001
 3.816244547305162e+000	 3.033463788351870e+000	 1.065672491156071e+001
 3.784721789423999e+000	 3.072703366216536e+000	 1.064270768844993e+001
 4.101278004966307e+000	 2.681327791568492e+000	 1.067307088866120e+001
 4.073577194947506e+000	 2.723227650542639e+000	 1.067480380140841e+001
 4.045419730149088e+000	 2.764883217572826e+000	 1.067597192637035e+001
 4.016808756438932e+000	 2.806287122535875e+000	 1.067630742199167e+001
 3.987747576645406e+000	 2.847432047458628e+000	 1.067553197680900e+001
 3.958239649529090e+000	 2.888310730661262e+000	 1.067335725202854e+001
 3.928288588624146e+000	 2.928915970878103e+000	 1.066948535882826e+001
 3.897898160949822e+000	 2.969240631351180e+000	 1.066360936960509e+001
 3.867072285592811e+000	 3.009277643891787e+000	 1.065541386226971e+001
 3.835815032161338e+000	 3.049020012905300e+000	 1.064457549657468e+001
 3.804130619112063e+000	 3.088460819374566e+000	 1.063076362134685e+001
 4.122202892745759e+000	 2.695008035403313e+000	 1.066678387834423e+001
 4.094360752063038e+000	 2.737121669167521e+000	 1.066766648181325e+001
 4.066059626729495e+000	 2.778989764600385e+000	 1.066807074313977e+001
 4.037302678663351e+000	 2.820604913976060e+000	 1.066774780031159e+001
 4.008093227544140e+000	 2.861959761984789e+000	 1.066643811223714e+001
 3.978434749779183e+000	 2.903047009897364e+000	 1.066387188309774e+001
 3.948330877339038e+000	 2.943859419706957e+000	 1.065976952190167e+001
 3.917785396462439e+000	 2.984389818243568e+000	 1.065384213649119e+001
 3.886802246231422e+000	 3.024631101256305e+000	 1.064579206113293e+001
 3.855385517017518e+000	 3.064576237458736e+000	 1.063531341670468e+001
 3.823539448800127e+000	 3.104218272532597e+000	 1.062209270237483e+001
 4.143127780525714e+000	 2.708688279238637e+000	 1.065994680505341e+001
 4.115144309178978e+000	 2.751015687792811e+000	 1.066034800580620e+001
 4.086699523310224e+000	 2.793096311628269e+000	 1.066035956049199e+001
 4.057796600888016e+000	 2.834922705416492e+000	 1.065975135656974e+001
 4.028438878443054e+000	 2.876487476511132e+000	 1.065828238824877e+001
 3.998629850029400e+000	 2.917783289133591e+000	 1.065570116283564e+001
 3.968373166054010e+000	 2.958802868535892e+000	 1.065174614277145e+001
 3.937672631975102e+000	 2.999539005136003e+000	 1.064614622263959e+001
 3.906532206870054e+000	 3.039984558620844e+000	 1.063862124030321e+001
 3.874956001873705e+000	 3.080132462012176e+000	 1.062888252121161e+001
 3.842948278488191e+000	 3.119975725690628e+000	 1.061663345479678e+001
 4.164052668306169e+000	 2.722368523074463e+000	 1.065255275652221e+001
 4.135927866295327e+000	 2.764909706418508e+000	 1.065283589098275e+001
 4.107339419891274e+000	 2.807202858656472e+000	 1.065282035618160e+001
 4.078290523112928e+000	 2.849240496857172e+000	 1.065229456139794e+001
 4.048784529342152e+000	 2.891015191037656e+000	 1.065103580346834e+001
 4.018824950279745e+000	 2.932519568369945e+000	 1.064881065534659e+001
 3.988415454769063e+000	 2.973746317364907e+000	 1.064537539085284e+001
 3.957559867487811e+000	 3.014688192028483e+000	 1.064047644492162e+001
 3.926262167508706e+000	 3.055338015985404e+000	 1.063385090853573e+001
 3.894526486729896e+000	 3.095688686565622e+000	 1.062522705741113e+001
 3.862357108176255e+000	 3.135733178848658e+000	 1.061765052667944e+001
 4.184977556087130e+000	 2.736048766910793e+000	 1.064459419730204e+001
 4.156711423412083e+000	 2.778803725044614e+000	 1.064511714487223e+001
 4.127979316472650e+000	 2.821309405685000e+000	 1.064543471095159e+001
 4.098784445338088e+000	 2.863558288298099e+000	 1.064535360135562e+001
 4.069130180241432e+000	 2.905542905564363e+000	 1.064466918521780e+001
 4.039020050530216e+000	 2.947255847606425e+000	 1.064316586597842e+001
 4.008457743484196e+000	 2.988689766194003e+000	 1.064061748907251e+001
 3.977447103000566e+000	 3.029837378921008e+000	 1.063678778565561e+001
 3.945992128147379e+000	 3.070691473349984e+000	 1.063143085158134e+001
 3.914096971586093e+000	 3.111244911119073e+000	 1.062429166072220e+001
 3.881765937864321e+000	 3.151490632006690e+000	 1.062312851882051e+001
 3.687677640983678e+000	 2.993916100426382e+000	 1.073016666133961e+001
 3.656553307508218e+000	 3.031850575069264e+000	 1.070407821390145e+001
 3.625023495149993e+000	 3.069479542170489e+000	 1.068118966551689e+001
 3.593092715160352e+000	 3.106796539918756e+000	 1.066198218919098e+001
 3.560765615389834e+000	 3.143795195690242e+000	 1.065164866790590e+001
 3.528046978072291e+000	 3.180469229642300e+000	 1.064780415555326e+001
 3.494941717495988e+000	 3.216812458240655e+000	 1.064463078264333e+001
 3.461454877564024e+000	 3.252818797715964e+000	 1.064153806890860e+001
 3.427591629246610e+000	 3.288482267445716e+000	 1.063792076517626e+001
 3.393357267927864e+000	 3.323796993257524e+000	 1.063316031393658e+001
 3.358757210650000e+000	 3.358757210650000e+000	 1.062662635973991e+001
 3.707086470671743e+000	 3.009673553584413e+000	 1.070733368008169e+001
 3.675798324915369e+000	 3.047807683357208e+000	 1.068042637720045e+001
 3.644102566176766e+000	 3.085634697653921e+000	 1.065681490167881e+001
 3.612003729450707e+000	 3.123148100653718e+000	 1.063698253111273e+001
 3.579506487050102e+000	 3.160341486192651e+000	 1.063107011777270e+001
 3.546615646378458e+000	 3.197208541376272e+000	 1.062724539746347e+001
 3.513336147588712e+000	 3.233743050125383e+000	 1.062434861161711e+001
 3.479673061130823e+000	 3.269938896650808e+000	 1.062176973339804e+001
 3.445631585190633e+000	 3.305790068853071e+000	 1.061888336609161e+001
 3.411217043022705e+000	 3.341290661643093e+000	 1.061505023757319e+001
 3.376434880180000e+000	 3.376434880180000e+000	 1.060961874592067e+001
 3.726495300359807e+000	 3.025431006742444e+000	 1.068888682849839e+001
 3.695043342322521e+000	 3.063764791645150e+000	 1.066104644376211e+001
 3.663181637203538e+000	 3.101789853137353e+000	 1.063659345956272e+001
 3.630914743741060e+000	 3.139499661388680e+000	 1.062066758236833e+001
 3.598247358710371e+000	 3.176887776695061e+000	 1.061500727455838e+001
 3.565184314684625e+000	 3.213947853110242e+000	 1.061114696164846e+001
 3.531730577681437e+000	 3.250673642010112e+000	 1.060847435232310e+001
 3.497891244697622e+000	 3.287058995585652e+000	 1.060635970517398e+001
 3.463671541134656e+000	 3.323097870260428e+000	 1.060415730103866e+001
 3.429076818117546e+000	 3.358784330028661e+000	 1.060120697169091e+001
 3.394112549710000e+000	 3.394112549710000e+000	 1.059683568100441e+001
 3.745904130047871e+000	 3.041188459900474e+000	 1.067483800698594e+001
 3.714288359729673e+000	 3.079721899933094e+000	 1.064595132565527e+001
 3.682260708230310e+000	 3.117945008620784e+000	 1.062053926537439e+001
 3.649825758031414e+000	 3.155851222123642e+000	 1.060937064735368e+001
 3.616988230370638e+000	 3.193434067197471e+000	 1.060333943719586e+001
 3.583752982990792e+000	 3.230687164844213e+000	 1.059939028248762e+001
 3.550125007774161e+000	 3.267604233894841e+000	 1.059689165528012e+001
 3.516109428264421e+000	 3.304179094520495e+000	 1.059519392955425e+001
 3.481711497078680e+000	 3.340405671667783e+000	 1.059363088668175e+001
 3.446936593212388e+000	 3.376277998414229e+000	 1.059152127866044e+001
 3.411790219240000e+000	 3.411790219240000e+000	 1.058817044516741e+001
 3.765312959735935e+000	 3.056945913058504e+000	 1.065798690510758e+001
 3.733533377136824e+000	 3.095679008221037e+000	 1.063515449284922e+001
 3.701339779257082e+000	 3.134100164104215e+000	 1.061185760730410e+001
 3.668736772321767e+000	 3.172202782858603e+000	 1.060240293981294e+001
 3.635729102030907e+000	 3.209980357699881e+000	 1.059594638800412e+001
 3.602321651296959e+000	 3.247426476578185e+000	 1.059185725187700e+001
 3.568519437866884e+000	 3.284534825779570e+000	 1.058948460215858e+001
 3.534327611831220e+000	 3.321299193455340e+000	 1.058815875615960e+001
 3.499751453022704e+000	 3.357713473075139e+000	 1.058719281666870e+001
 3.464796368307229e+000	 3.393771666799797e+000	 1.058588427005870e+001
 3.429467888769999e+000	 3.429467888769999e+000	 1.058351663957044e+001
 3.784721789423999e+000	 3.072703366216536e+000	 1.064270768844993e+001
 3.752778394543975e+000	 3.111636116508981e+000	 1.062750020726100e+001
 3.720418850283854e+000	 3.150255319587648e+000	 1.060988277053462e+001
 3.687647786612122e+000	 3.188554343593566e+000	 1.059964271032829e+001
 3.654469973691175e+000	 3.226526648202292e+000	 1.059270838029363e+001
 3.620890319603125e+000	 3.264165788312155e+000	 1.058843020749821e+001
 3.586913867959608e+000	 3.301465417664299e+000	 1.058613769472525e+001
 3.552545795398019e+000	 3.338419292390184e+000	 1.058514092854693e+001
 3.517791408966728e+000	 3.375021274482495e+000	 1.058473215196456e+001
 3.482656143402070e+000	 3.411265335185366e+000	 1.058418739771484e+001
 3.447145558300000e+000	 3.447145558300000e+000	 1.058276817812830e+001
 3.804130619112063e+000	 3.088460819374566e+000	 1.063076362134685e+001
 3.772023411951127e+000	 3.127593224796924e+000	 1.061751143090132e+001
 3.739497921310627e+000	 3.166410475071078e+000	 1.061204822658336e+001
 3.706558800902476e+000	 3.204905904328529e+000	 1.060096869253914e+001
 3.673210845351445e+000	 3.243072938704701e+000	 1.059350612635127e+001
 3.639458987909292e+000	 3.280905100046127e+000	 1.058899192144627e+001
 3.605308298052333e+000	 3.318396009549027e+000	 1.058673584412655e+001
 3.570763978964818e+000	 3.355539391325027e+000	 1.058602757415993e+001
 3.535831364910752e+000	 3.392329075889852e+000	 1.058613831148129e+001
 3.500515918496912e+000	 3.428759003570934e+000	 1.058632244503034e+001
 3.464823227830000e+000	 3.464823227830000e+000	 1.058581927953151e+001
 3.823539448800127e+000	 3.104218272532597e+000	 1.062209270237483e+001
 3.791268429358279e+000	 3.143550333084867e+000	 1.061519190338257e+001
 3.758576992337398e+000	 3.182565630554509e+000	 1.061486181082673e+001
 3.725469815192831e+000	 3.221257465063491e+000	 1.060626009088173e+001
 3.691951717011712e+000	 3.259619229207111e+000	 1.059822078579119e+001
 3.658027656215458e+000	 3.297644411780098e+000	 1.059342558920389e+001
 3.623702728145057e+000	 3.335326601433756e+000	 1.059116436049822e+001
 3.588982162531616e+000	 3.372659490259871e+000	 1.059070619458579e+001
 3.553871320854775e+000	 3.409636877297207e+000	 1.059130106299278e+001
 3.518375693591752e+000	 3.446252671956502e+000	 1.059218151856342e+001
 3.482500897360000e+000	 3.482500897360000e+000	 1.059256445951077e+001
 3.842948278488191e+000	 3.119975725690628e+000	 1.061663345479678e+001
 3.810513446765430e+000	 3.159507441372810e+000	 1.061584974851992e+001
 3.777656063364171e+000	 3.198720786037942e+000	 1.061675127649620e+001
 3.744380829483185e+000	 3.237609025798454e+000	 1.061539656870037e+001
 3.710692588671980e+000	 3.276165519709520e+000	 1.060673395425869e+001
 3.676596324521626e+000	 3.314383723514069e+000	 1.060161481894992e+001
 3.642097158237782e+000	 3.352257193318485e+000	 1.059930894288979e+001
 3.607200346098415e+000	 3.389779589194715e+000	 1.059906465610708e+001
 3.571911276798799e+000	 3.426944678704563e+000	 1.060011051432526e+001
 3.536235468686593e+000	 3.463746340342071e+000	 1.060165703986859e+001
 3.500178566889999e+000	 3.500178566889999e+000	 1.060289852333606e+001
 3.862357108176255e+000	 3.135733178848658e+000	 1.061765052667944e+001
 3.829758464172582e+000	 3.175464549660754e+000	 1.061940830919617e+001
 3.796735134390942e+000	 3.214875941521374e+000	 1.062149521474837e+001
 3.763291843773539e+000	 3.253960586533416e+000	 1.062344739549323e+001
 3.729433460332249e+000	 3.292711810211931e+000	 1.061892765247460e+001
 3.695164992827793e+000	 3.331123035248041e+000	 1.061344362119003e+001
 3.660491588330505e+000	 3.369187785203213e+000	 1.061105566949290e+001
 3.625418529665214e+000	 3.406899688129558e+000	 1.061099118053856e+001
 3.589951232742823e+000	 3.444252480111920e+000	 1.061245710481323e+001
 3.554095243781435e+000	 3.481240008727639e+000	 1.061464173758210e+001
 3.517856236419999e+000	 3.517856236419999e+000	 1.061671655854168e+001
 3.881765937864321e+000	 3.151490632006690e+000	 1.062312851882051e+001
 3.849003481579734e+000	 3.191421657948697e+000	 1.062579140663048e+001
 3.815814205417716e+000	 3.231031097004806e+000	 1.062901889642870e+001
 3.782202858063894e+000	 3.270312147268379e+000	 1.063233374533986e+001
 3.748174331992518e+000	 3.309258100714341e+000	 1.063468431560846e+001
 3.713733661133960e+000	 3.347862346982012e+000	 1.062879639869858e+001
 3.678886018423230e+000	 3.386118377087943e+000	 1.062629098816271e+001
 3.643636713232014e+000	 3.424019787064403e+000	 1.062637433633888e+001
 3.607991188686847e+000	 3.461560281519276e+000	 1.062823159701174e+001
 3.571955018876276e+000	 3.498733677113208e+000	 1.063102863974497e+001
 3.535533905950000e+000	 3.535533905950000e+000	 1.063391392786972e+001
 3.358757210650000e+000	 3.358757210650000e+000	 1.062662635973991e+001
 3.323796993257525e+000	 3.393357267927863e+000	 1.062892198016933e+001
 3.288482267445717e+000	 3.427591629246607e+000	 1.062832476637987e+001
 3.252818797715966e+000	 3.461454877564024e+000	 1.062419743024955e+001
 3.216812458240656e+000	 3.494941717495987e+000	 1.061589704315442e+001
 3.180469229642302e+000	 3.528046978072290e+000	 1.060277671316103e+001
 3.143795195690242e+000	 3.560765615389833e+000	 1.058418728690696e+001
 3.106796539918757e+000	 3.593092715160351e+000	 1.056115506229005e+001
 3.069479542170491e+000	 3.625023495149992e+000	 1.053464048917745e+001
 3.031850575069266e+000	 3.656553307508217e+000	 1.050351506845269e+001
 2.993916100426382e+000	 3.687677640983678e+000	 1.046801353420337e+001
 3.376434880180000e+000	 3.376434880180000e+000	 1.060961874592067e+001
 3.341290661643093e+000	 3.411217043022703e+000	 1.061297561214066e+001
 3.305790068853073e+000	 3.445631585190631e+000	 1.061278312310389e+001
 3.269938896650809e+000	 3.479673061130822e+000	 1.060836381591521e+001
 3.233743050125385e+000	 3.513336147588712e+000	 1.059903498832214e+001
 3.197208541376273e+000	 3.546615646378457e+000	 1.058411043385825e+001
 3.160341486192652e+000	 3.579506487050101e+000	 1.056290220137027e+001
 3.123148100653719e+000	 3.612003729450704e+000	 1.053485719563721e+001
 3.085634697653922e+000	 3.644102566176764e+000	 1.050288167883222e+001
 3.047807683357208e+000	 3.675798324915367e+000	 1.046535532010168e+001
 3.009673553584413e+000	 3.707086470671743e+000	 1.042249568635125e+001
 3.394112549710000e+000	 3.394112549710000e+000	 1.059683568100441e+001
 3.358784330028662e+000	 3.429076818117545e+000	 1.060091446426546e+001
 3.323097870260429e+000	 3.463671541134656e+000	 1.060079739890949e+001
 3.287058995585653e+000	 3.497891244697621e+000	 1.059576678134791e+001
 3.250673642010114e+000	 3.531730577681436e+000	 1.058510005960257e+001
 3.213947853110243e+000	 3.565184314684624e+000	 1.056807162668174e+001
 3.176887776695063e+000	 3.598247358710369e+000	 1.054395463805210e+001
 3.139499661388681e+000	 3.630914743741059e+000	 1.051202284831445e+001
 3.101789853137354e+000	 3.663181637203536e+000	 1.047346213122477e+001
 3.063764791645151e+000	 3.695043342322519e+000	 1.042917610702896e+001
 3.025431006742444e+000	 3.726495300359807e+000	 1.037860732087515e+001
 3.411790219240000e+000	 3.411790219240000e+000	 1.058817044516741e+001
 3.376277998414230e+000	 3.446936593212386e+000	 1.059263905406919e+001
 3.340405671667785e+000	 3.481711497078680e+000	 1.059227528922653e+001
 3.304179094520497e+000	 3.516109428264420e+000	 1.058632113582476e+001
 3.267604233894843e+000	 3.550125007774160e+000	 1.057401411147401e+001
 3.230687164844215e+000	 3.583752982990790e+000	 1.055458911810489e+001
 3.193434067197472e+000	 3.616988230370637e+000	 1.052728031768858e+001
 3.155851222123644e+000	 3.649825758031413e+000	 1.049132302676303e+001
 3.117945008620786e+000	 3.682260708230309e+000	 1.044639146649383e+001
 3.079721899933096e+000	 3.714288359729672e+000	 1.039499235311533e+001
 3.041188459900474e+000	 3.745904130047871e+000	 1.033636854779716e+001
 3.429467888769999e+000	 3.429467888769999e+000	 1.058351663957044e+001
 3.393771666799799e+000	 3.464796368307228e+000	 1.058805009553738e+001
 3.357713473075141e+000	 3.499751453022703e+000	 1.058712456361826e+001
 3.321299193455341e+000	 3.534327611831218e+000	 1.057994164268571e+001
 3.284534825779570e+000	 3.568519437866883e+000	 1.056569883472030e+001
 3.247426476578187e+000	 3.602321651296957e+000	 1.054359145551789e+001
 3.209980357699883e+000	 3.635729102030906e+000	 1.051281456896644e+001
 3.172202782858606e+000	 3.668736772321767e+000	 1.047256493974613e+001
 3.134100164104217e+000	 3.701339779257082e+000	 1.042204299923505e+001
 3.095679008221039e+000	 3.733533377136823e+000	 1.036281826634307e+001
 3.056945913058505e+000	 3.765312959735935e+000	 1.033598510010218e+001
 3.447145558300000e+000	 3.447145558300000e+000	 1.058276817812830e+001
 3.411265335185366e+000	 3.482656143402068e+000	 1.058704849407821e+001
 3.375021274482497e+000	 3.517791408966727e+000	 1.058525306388047e+001
 3.338419292390184e+000	 3.552545795398016e+000	 1.057654302051154e+001
 3.301465417664300e+000	 3.586913867959607e+000	 1.056007576062809e+001
 3.264165788312157e+000	 3.620890319603124e+000	 1.053500691438377e+001
 3.226526648202292e+000	 3.654469973691175e+000	 1.050049233857559e+001
 3.188554343593569e+000	 3.687647786612121e+000	 1.045569012784713e+001
 3.150255319587648e+000	 3.720418850283852e+000	 1.039976263860237e+001
 3.111636116508982e+000	 3.752778394543974e+000	 1.033939152170966e+001
 3.072703366216536e+000	 3.784721789423999e+000	 1.034610896709583e+001
 3.464823227830000e+000	 3.464823227830000e+000	 1.058581927953151e+001
 3.428759003570936e+000	 3.500515918496910e+000	 1.058953534163928e+001
 3.392329075889854e+000	 3.535831364910751e+000	 1.058656870219890e+001
 3.355539391325028e+000	 3.570763978964817e+000	 1.057603994426554e+001
 3.318396009549028e+000	 3.605308298052331e+000	 1.055706626505572e+001
 3.280905100046128e+000	 3.639458987909290e+000	 1.052876350517522e+001
 3.243072938704702e+000	 3.673210845351442e+000	 1.049024820095394e+001
 3.204905904328530e+000	 3.706558800902476e+000	 1.044063965448549e+001
 3.166410475071081e+000	 3.739497921310626e+000	 1.037906201589739e+001
 3.127593224796926e+000	 3.772023411951126e+000	 1.035661635736331e+001
 3.088460819374566e+000	 3.804130619112063e+000	 1.035572449338931e+001
 3.482500897360000e+000	 3.482500897360000e+000	 1.059256445951077e+001
 3.446252671956504e+000	 3.518375693591751e+000	 1.059541191197313e+001
 3.409636877297208e+000	 3.553871320854773e+000	 1.059097945936258e+001
 3.372659490259872e+000	 3.588982162531616e+000	 1.057834704640069e+001
 3.335326601433758e+000	 3.623702728145056e+000	 1.055659157237800e+001
 3.297644411780099e+000	 3.658027656215457e+000	 1.052478898010031e+001
 3.259619229207112e+000	 3.691951717011711e+000	 1.048201636773538e+001
 3.221257465063492e+000	 3.725469815192829e+000	 1.042735411802748e+001
 3.182565630554512e+000	 3.758576992337398e+000	 1.037830600512088e+001
 3.143550333084868e+000	 3.791268429358277e+000	 1.037360340549081e+001
 3.104218272532596e+000	 3.823539448800127e+000	 1.036478747974204e+001
 3.500178566889999e+000	 3.500178566889999e+000	 1.060289852333606e+001
 3.463746340342071e+000	 3.536235468686592e+000	 1.060457965604618e+001
 3.426944678704565e+000	 3.571911276798797e+000	 1.059839338303147e+001
 3.389779589194716e+000	 3.607200346098414e+000	 1.058337891793310e+001
 3.352257193318486e+000	 3.642097158237780e+000	 1.055857275931163e+001
 3.314383723514070e+000	 3.676596324521623e+000	 1.052301083962433e+001
 3.276165519709522e+000	 3.710692588671980e+000	 1.047573069691154e+001
 3.237609025798454e+000	 3.744380829483183e+000	 1.041577366353002e+001
 3.198720786037943e+000	 3.777656063364170e+000	 1.039995126004418e+001
 3.159507441372812e+000	 3.810513446765429e+000	 1.038956007898728e+001
 3.119975725690628e+000	 3.842948278488191e+000	 1.037325298844550e+001
 3.517856236419999e+000	 3.517856236419999e+000	 1.061671655854168e+001
 3.481240008727641e+000	 3.554095243781433e+000	 1.061694019758609e+001
 3.444252480111921e+000	 3.589951232742822e+000	 1.060871858605634e+001
 3.406899688129559e+000	 3.625418529665213e+000	 1.059105010948308e+001
 3.369187785203215e+000	 3.660491588330504e+000	 1.056293075862519e+001
 3.331123035248041e+000	 3.695164992827790e+000	 1.052335633879493e+001
 3.292711810211932e+000	 3.729433460332248e+000	 1.047132470171727e+001
 3.253960586533417e+000	 3.763291843773537e+000	 1.043090373071314e+001
 3.214875941521374e+000	 3.796735134390942e+000	 1.042080988657951e+001
 3.175464549660755e+000	 3.829758464172581e+000	 1.040448004846208e+001
 3.135733178848659e+000	 3.862357108176256e+000	 1.038126658532213e+001
 3.535533905950000e+000	 3.535533905950000e+000	 1.063391392786972e+001
 3.498733677113209e+000	 3.571955018876275e+000	 1.063239532876281e+001
 3.461560281519278e+000	 3.607991188686845e+000	 1.062186324484893e+001
 3.424019787064404e+000	 3.643636713232012e+000	 1.060127513228512e+001
 3.386118377087944e+000	 3.678886018423229e+000	 1.056958636273783e+001
 3.347862346982013e+000	 3.713733661133958e+000	 1.052575249337759e+001
 3.309258100714343e+000	 3.748174331992517e+000	 1.046873155924952e+001
 3.270312147268379e+000	 3.782202858063892e+000	 1.045640441535774e+001
 3.231031097004808e+000	 3.815814205417715e+000	 1.044086962502384e+001
 3.191421657948699e+000	 3.849003481579733e+000	 1.041835637072282e+001
 3.151490632006690e+000	 3.881765937864321e+000	 1.038818745830308e+001
 2.993916100426382e+000	 3.687677640983678e+000	 1.046801353420337e+001
 2.955682665584793e+000	 3.718392123024356e+000	 1.041521045675987e+001
 2.917156899705098e+000	 3.748692521761566e+000	 1.035129431818110e+001
 2.878345509997806e+000	 3.778574747875073e+000	 1.036724696439105e+001
 2.839255277906680e+000	 3.808034856336499e+000	 1.038081523473502e+001
 2.799893055247309e+000	 3.837069048031190e+000	 1.038720430471092e+001
 2.760265760305475e+000	 3.865673671256816e+000	 1.038565147168928e+001
 2.720380373899951e+000	 3.893845223097609e+000	 1.037540786080291e+001
 2.680243935414238e+000	 3.921580350673420e+000	 1.035574020569094e+001
 2.639863538801907e+000	 3.948875852262866e+000	 1.032593259745727e+001
 2.599246328570120e+000	 3.975728678300154e+000	 1.028528819734124e+001
 3.009673553584413e+000	 3.707086470671743e+000	 1.042249568635125e+001
 2.971238890138199e+000	 3.737962607880507e+000	 1.035890698730931e+001
 2.932510357069496e+000	 3.768422482400055e+000	 1.034110921650166e+001
 2.893494696889921e+000	 3.798461983387418e+000	 1.035396284937181e+001
 2.854198726735049e+000	 3.828077145050905e+000	 1.036166107704748e+001
 2.814629334482652e+000	 3.857264148280524e+000	 1.036344986354387e+001
 2.774793474830547e+000	 3.886019322154459e+000	 1.035858579220500e+001
 2.734698165338654e+000	 3.914339145320546e+000	 1.034633787780815e+001
 2.694350482439863e+000	 3.942220247251891e+000	 1.032598935338702e+001
 2.653757557424343e+000	 3.969659409375954e+000	 1.029683942710504e+001
 2.612926572401926e+000	 3.996653566076591e+000	 1.025820500462062e+001
 3.025431006742444e+000	 3.726495300359807e+000	 1.037860732087515e+001
 2.986795114691609e+000	 3.757533092736663e+000	 1.032646769305600e+001
 2.947863814433914e+000	 3.788152443038567e+000	 1.033611913253751e+001
 2.908643883782081e+000	 3.818349218899807e+000	 1.034259281037037e+001
 2.869142175563499e+000	 3.848119433765391e+000	 1.034514742821704e+001
 2.829365613718122e+000	 3.877459248529985e+000	 1.034304907999417e+001
 2.789321189355800e+000	 3.906364973052285e+000	 1.033557308743163e+001
 2.749015956777604e+000	 3.934833067543729e+000	 1.032200581703681e+001
 2.708457029465811e+000	 3.962860143830687e+000	 1.030164647365146e+001
 2.667651576047188e+000	 3.990442966489447e+000	 1.027380886587862e+001
 2.626606816234234e+000	 4.017578453853528e+000	 1.023782313876406e+001
 3.041188459900474e+000	 3.745904130047871e+000	 1.033636854779716e+001
 3.002351339245025e+000	 3.777103577592825e+000	 1.032944552338018e+001
 2.963217271798352e+000	 3.807882403677097e+000	 1.033224434240376e+001
 2.923793070674289e+000	 3.838236454412242e+000	 1.033306829975202e+001
 2.884085624392029e+000	 3.868161722479958e+000	 1.033119705908342e+001
 2.844101892953719e+000	 3.897654348779573e+000	 1.032591629000816e+001
 2.803848903881235e+000	 3.926710623950291e+000	 1.031651950726490e+001
 2.763333748216801e+000	 3.955326989767159e+000	 1.030230989321429e+001
 2.722563576492082e+000	 3.983500040409803e+000	 1.028260209878434e+001
 2.681545594670439e+000	 4.011226523603351e+000	 1.025672401808992e+001
 2.640287060067045e+000	 4.038503341630969e+000	 1.022401853205279e+001
 3.056945913058505e+000	 3.765312959735935e+000	 1.033598510010218e+001
 3.017907563798445e+000	 3.796674062448990e+000	 1.033274544412384e+001
 2.978570729162810e+000	 3.827612364315648e+000	 1.032942485144545e+001
 2.938942257566541e+000	 3.858123689924723e+000	 1.032532061347533e+001
 2.899029073220639e+000	 3.888204011194606e+000	 1.031973279597315e+001
 2.858838172189440e+000	 3.917849449029285e+000	 1.031196609232670e+001
 2.818376618406851e+000	 3.947056274848481e+000	 1.030133166702878e+001
 2.777651539656246e+000	 3.975820911990836e+000	 1.028714898436901e+001
 2.736670123518675e+000	 4.004139936989242e+000	 1.026874761742273e+001
 2.695439613294099e+000	 4.032010080717660e+000	 1.024546903250289e+001
 2.653967303900358e+000	 4.059428229408913e+000	 1.021666834434142e+001
 3.072703366216536e+000	 3.784721789423999e+000	 1.034610896709583e+001
 3.033463788351870e+000	 3.816244547305160e+000	 1.033631582895025e+001
 2.993924186527289e+000	 3.847342324954219e+000	 1.032760030177229e+001
 2.954091444458838e+000	 3.878010925437250e+000	 1.031928089510259e+001
 2.913972522049332e+000	 3.908246299909336e+000	 1.031067751927657e+001
 2.873574451425290e+000	 3.938044549279125e+000	 1.030111334174672e+001
 2.832904332932649e+000	 3.967401925746852e+000	 1.028991663554141e+001
 2.791969331095938e+000	 3.996314834214760e+000	 1.027642261482451e+001
 2.750776670545590e+000	 4.024779833569004e+000	 1.025997525258330e+001
 2.709333631918166e+000	 4.052793637832379e+000	 1.023992907555271e+001
 2.667647547734174e+000	 4.080353117187359e+000	 1.021565093158161e+001
 3.088460819374566e+000	 3.804130619112063e+000	 1.035572449338931e+001
 3.049020012905300e+000	 3.835815032161337e+000	 1.034010448791596e+001
 3.009277643891787e+000	 3.867072285592808e+000	 1.032670998152493e+001
 2.969240631351181e+000	 3.897898160949821e+000	 1.031488013968747e+001
 2.928915970878105e+000	 3.928288588624145e+000	 1.030395416206886e+001
 2.888310730661264e+000	 3.958239649529089e+000	 1.029327314258923e+001
 2.847432047458629e+000	 3.987747576645404e+000	 1.028218192354629e+001
 2.806287122535876e+000	 4.016808756438931e+000	 1.027003093871242e+001
 2.764883217572828e+000	 4.045419730149088e+000	 1.025617804037718e+001
 2.723227650542640e+000	 4.073577194947505e+000	 1.023999030538473e+001
 2.681327791568492e+000	 4.101278004966307e+000	 1.022084581530948e+001
 3.104218272532596e+000	 3.823539448800127e+000	 1.036478747974204e+001
 3.064576237458737e+000	 3.855385517017518e+000	 1.034405868177563e+001
 3.024631101256306e+000	 3.886802246231421e+000	 1.032669283385887e+001
 2.984389818243570e+000	 3.917785396462439e+000	 1.031204919754424e+001
 2.943859419706958e+000	 3.948330877339037e+000	 1.029948570877276e+001
 2.903047009897366e+000	 3.978434749779182e+000	 1.028836084236621e+001
 2.861959761984791e+000	 4.008093227544138e+000	 1.027803547249605e+001
 2.820604913976061e+000	 4.037302678663349e+000	 1.026787472398747e+001
 2.778989764600388e+000	 4.066059626729494e+000	 1.025724980937301e+001
 2.737121669167522e+000	 4.094360752063037e+000	 1.024553984668428e+001
 2.695008035403313e+000	 4.122202892745759e+000	 1.023213365306217e+001
 3.119975725690628e+000	 3.842948278488191e+000	 1.037325298844550e+001
 3.080132462012176e+000	 3.874956001873703e+000	 1.034812513585321e+001
 3.039984558620846e+000	 3.906532206870053e+000	 1.032748746565626e+001
 2.999539005136004e+000	 3.937672631975101e+000	 1.031071877790286e+001
 2.958802868535893e+000	 3.968373166054009e+000	 1.029719519386191e+001
 2.917783289133593e+000	 3.998629850029400e+000	 1.028629202563945e+001
 2.876487476511134e+000	 4.028438878443055e+000	 1.027738564367582e+001
 2.834922705416494e+000	 4.057796600888015e+000	 1.026985533692689e+001
 2.793096311628269e+000	 4.086699523310223e+000	 1.026308516058537e+001
 2.751015687792812e+000	 4.115144309178977e+000	 1.025646576626896e+001
 2.708688279238637e+000	 4.143127780525714e+000	 1.024939620969099e+001
 3.135733178848659e+000	 3.862357108176256e+000	 1.038126658532213e+001
 3.095688686565623e+000	 3.894526486729895e+000	 1.035225005349506e+001
 3.055338015985406e+000	 3.926262167508705e+000	 1.032903215597494e+001
 3.014688192028484e+000	 3.957559867487809e+000	 1.031081945245375e+001
 2.973746317364908e+000	 3.988415454769061e+000	 1.029700570060332e+001
 2.932519568369946e+000	 4.018824950279744e+000	 1.028698250806449e+001
 2.891015191037658e+000	 4.048784529342151e+000	 1.028014120765475e+001
 2.849240496857173e+000	 4.078290523112926e+000	 1.027587472709719e+001
 2.807202858656474e+000	 4.107339419891273e+000	 1.027357944806664e+001
 2.764909706418509e+000	 4.135927866295326e+000	 1.027265704941704e+001
 2.722368523074464e+000	 4.164052668306170e+000	 1.027251632953945e+001
 3.151490632006690e+000	 3.881765937864321e+000	 1.038818745830308e+001
 3.111244911119075e+000	 3.914096971586092e+000	 1.035637912911927e+001
 3.070691473349985e+000	 3.945992128147378e+000	 1.033126486424409e+001
 3.029837378921010e+000	 3.977447103000564e+000	 1.031228165878633e+001
 2.988689766194006e+000	 4.008457743484195e+000	 1.029884035983756e+001
 2.947255847606427e+000	 4.039020050530215e+000	 1.029034833061330e+001
 2.905542905564365e+000	 4.069130180241431e+000	 1.028621133405390e+001
 2.863558288298100e+000	 4.098784445338087e+000	 1.028583541277190e+001
 2.821309405685001e+000	 4.127979316472648e+000	 1.028862876008100e+001
 2.778803725044615e+000	 4.156711423412083e+000	 1.029400357690597e+001
 2.736048766910793e+000	 4.184977556087130e+000	 1.030137790945592e+001
 2.599246328570120e+000	 3.975728678300154e+000	 1.028528819734124e+001
 2.558399495745880e+000	 4.002135932245784e+000	 1.023249442134513e+001
 2.517330273829839e+000	 4.028094871329415e+000	 1.018584472741794e+001
 2.476045934742124e+000	 4.053602907166102e+000	 1.015034961545812e+001
 2.434553784764505e+000	 4.078657606247210e+000	 1.012324762422315e+001
 2.392861160483733e+000	 4.103256690304887e+000	 1.010020618027802e+001
 2.350975424740408e+000	 4.127398036551243e+000	 1.008100524790453e+001
 2.308903962587825e+000	 4.151079677793084e+000	 1.006543270520709e+001
 2.266654177265145e+000	 4.174299802423161e+000	 1.005328555006132e+001
 2.224233486189215e+000	 4.197056754289152e+000	 1.004437106899336e+001
 2.181649316969235e+000	 4.219349032441642e+000	 1.003850796586382e+001
 2.612926572401926e+000	 3.996653566076591e+000	 1.025820500462062e+001
 2.571864756247123e+000	 4.023199805569313e+000	 1.021421049103988e+001
 2.530579380531644e+000	 4.049295370648115e+000	 1.017460503471558e+001
 2.489077755448881e+000	 4.074937659304963e+000	 1.014138297100769e+001
 2.447367225734719e+000	 4.100124225223291e+000	 1.011755985762111e+001
 2.405455166589521e+000	 4.124852778144357e+000	 1.009587341613540e+001
 2.363348979605680e+000	 4.149121184107707e+000	 1.007605129917797e+001
 2.321056088705193e+000	 4.172927465566493e+000	 1.005783130090010e+001
 2.278583936091637e+000	 4.196269801378699e+000	 1.004096261330567e+001
 2.235939978220897e+000	 4.219146526675409e+000	 1.002520704186029e+001
 2.193131681794851e+000	 4.241556132607472e+000	 1.001034017719220e+001
 2.626606816234234e+000	 4.017578453853528e+000	 1.023782313876406e+001
 2.585330016748962e+000	 4.044263678893447e+000	 1.020187798397622e+001
 2.543828487234133e+000	 4.070495869967516e+000	 1.016858377522326e+001
 2.502109576156395e+000	 4.096272411444629e+000	 1.013756761083423e+001
 2.460180666705754e+000	 4.121590844200274e+000	 1.011590338413254e+001
 2.418049172696184e+000	 4.146448865984830e+000	 1.009489837107881e+001
 2.375722534471874e+000	 4.170844331665273e+000	 1.007379907134266e+001
 2.333208214823518e+000	 4.194775253341109e+000	 1.005229318885592e+001
 2.290513694919111e+000	 4.218239800335542e+000	 1.003008209313866e+001
 2.247646470253575e+000	 4.241236299063068e+000	 1.000688208195676e+001
 2.204614046621467e+000	 4.263763232774805e+000	 9.982425596365285e+000
 2.640287060067045e+000	 4.038503341630969e+000	 1.022401853205279e+001
 2.598795277251401e+000	 4.065327552218183e+000	 1.019538724739609e+001
 2.557077593937302e+000	 4.091696369287622e+000	 1.016768544415834e+001
 2.515141396864668e+000	 4.117607163585099e+000	 1.014048191215311e+001
 2.472994107677612e+000	 4.143057463178161e+000	 1.011819608625233e+001
 2.430643178803725e+000	 4.168044953826306e+000	 1.009721238416366e+001
 2.388096089338988e+000	 4.192567479223942e+000	 1.007419307343051e+001
 2.345360340942797e+000	 4.216623041116927e+000	 1.004877575522047e+001
 2.302443453747565e+000	 4.240209799293689e+000	 1.002061395390607e+001
 2.259352962287248e+000	 4.263326071452133e+000	 9.989378427094877e+000
 2.216096411449083e+000	 4.285970332943644e+000	 9.954758424344409e+000
 2.653967303900358e+000	 4.059428229408913e+000	 1.021666834434142e+001
 2.612260537754436e+000	 4.086391425543521e+000	 1.019462959438365e+001
 2.570326700641156e+000	 4.112896868608430e+000	 1.017181524655121e+001
 2.528173217573697e+000	 4.138941915726369e+000	 1.014773581781781e+001
 2.485807548650290e+000	 4.164524082156952e+000	 1.012435606173626e+001
 2.443237184912142e+000	 4.189641041668787e+000	 1.010274677137354e+001
 2.400469644207023e+000	 4.214290626783716e+000	 1.007717755915068e+001
 2.357512467063032e+000	 4.238470828893949e+000	 1.004723590473176e+001
 2.314373212577000e+000	 4.262179798253141e+000	 1.001252745870657e+001
 2.271059454321915e+000	 4.285415843842602e+000	 9.972677400321382e+000
 2.227578776277698e+000	 4.308177433113985e+000	 9.927331740199330e+000
 2.667647547734174e+000	 4.080353117187359e+000	 1.021565093158161e+001
 2.625725798258069e+000	 4.107455298869463e+000	 1.019949727910026e+001
 2.583575807345691e+000	 4.134097367929940e+000	 1.018087907904490e+001
 2.541205038283483e+000	 4.160276667868444e+000	 1.015924860440985e+001
 2.498620989623791e+000	 4.185990701136644e+000	 1.013430161808156e+001
 2.455831191021435e+000	 4.211237129512270e+000	 1.011143282621180e+001
 2.412843199075979e+000	 4.236013774344592e+000	 1.008269653343626e+001
 2.369664593184223e+000	 4.260318616672174e+000	 1.004763007306378e+001
 2.326302971407415e+000	 4.284149797213895e+000	 1.000579118737229e+001
 2.282765946357579e+000	 4.307505616234475e+000	 9.956759433373126e+000
 2.239061141107313e+000	 4.330384533285831e+000	 9.900137529874547e+000
 2.681327791568492e+000	 4.101278004966307e+000	 1.022084581530948e+001
 2.639191058762300e+000	 4.128519172196009e+000	 1.020988347277723e+001
 2.596824914050908e+000	 4.155297867252152e+000	 1.019478351225188e+001
 2.554236858994026e+000	 4.181611420011321e+000	 1.017493998488971e+001
 2.511434430598113e+000	 4.207457320117239e+000	 1.014976481610192e+001
 2.468425197131605e+000	 4.232833217356756e+000	 1.012320182027503e+001
 2.425216753945856e+000	 4.257736921906572e+000	 1.009069375879057e+001
 2.381816719306370e+000	 4.282166404451602e+000	 1.004991423879235e+001
 2.338232730238809e+000	 4.306119796175953e+000	 1.000037305389922e+001
 2.294472438394236e+000	 4.329595388627751e+000	 9.941604089414600e+000
 2.250543505937929e+000	 4.352591633459181e+000	 9.873166714075195e+000
 2.695008035403313e+000	 4.122202892745759e+000	 1.023213365306217e+001
 2.652656319267128e+000	 4.149583045523155e+000	 1.022568224044008e+001
 2.610074020756808e+000	 4.176498366575068e+000	 1.021343577364836e+001
 2.567268679705327e+000	 4.202946172155001e+000	 1.019473009752132e+001
 2.524247871573258e+000	 4.228923939098740e+000	 1.016892097660754e+001
 2.481019203242650e+000	 4.254429305202245e+000	 1.013798500380909e+001
 2.437590308816654e+000	 4.279460069469655e+000	 1.010111276144027e+001
 2.393968845429472e+000	 4.304014192232234e+000	 1.005404393499667e+001
 2.350162489071185e+000	 4.328089795139315e+000	 9.996240323346518e+000
 2.306178930431889e+000	 4.351685161022431e+000	 9.927190085082890e+000
 2.262025870769545e+000	 4.374798733634035e+000	 9.846409175303601e+000
 2.708688279238637e+000	 4.143127780525714e+000	 1.024939620969099e+001
 2.666121579772554e+000	 4.170646918850905e+000	 1.024678851833789e+001
 2.623323127463390e+000	 4.197698865898687e+000	 1.023674373098666e+001
 2.580300500417384e+000	 4.224280924299484e+000	 1.021853949513197e+001
 2.537061312549223e+000	 4.250390558081141e+000	 1.019147541405337e+001
 2.493613209354573e+000	 4.276025393048738e+000	 1.015571360624820e+001
 2.449963863688373e+000	 4.301183217033842e+000	 1.011389683730189e+001
 2.406120971553530e+000	 4.325861980014071e+000	 1.005997426050916e+001
 2.362092247904540e+000	 4.350059794103980e+000	 9.993359628223868e+000
 2.317885422470537e+000	 4.373774933418515e+000	 9.913495311864660e+000
 2.273508235602161e+000	 4.397005833810392e+000	 9.914151646302027e+000
 2.722368523074464e+000	 4.164052668306170e+000	 1.027251632953945e+001
 2.679586840278577e+000	 4.191710792179257e+000	 1.027309809205330e+001
 2.636572234170655e+000	 4.218899365223009e+000	 1.026461587620800e+001
 2.593332321130199e+000	 4.245615676444769e+000	 1.024628913469621e+001
 2.549874753526011e+000	 4.271857177064447e+000	 1.021736130286682e+001
 2.506207215467371e+000	 4.297621480896234e+000	 1.017710159187381e+001
 2.462337418561013e+000	 4.322906364599133e+000	 1.012898905776852e+001
 2.418273097678543e+000	 4.347709767797110e+000	 1.006765989082622e+001
 2.374022006738876e+000	 4.372029793069950e+000	 9.991696984384596e+000
 2.329591914510180e+000	 4.395864705816003e+000	 9.982210387701718e+000
 2.284990600435776e+000	 4.419212933988255e+000	 9.979714068496023e+000
 2.736048766910793e+000	 4.184977556087130e+000	 1.030137790945592e+001
 2.693052100785198e+000	 4.212774665508213e+000	 1.030450757526914e+001
 2.649821340878603e+000	 4.240099864548034e+000	 1.029696130983769e+001
 2.606364141843772e+000	 4.266950428590860e+000	 1.027790036723215e+001
 2.562688194503621e+000	 4.293323796048655e+000	 1.024651200203715e+001
 2.518801221581047e+000	 4.319217568744734e+000	 1.020201132420727e+001
 2.474710973434575e+000	 4.344629512165526e+000	 1.014633227532294e+001
 2.430425223804513e+000	 4.369557555581356e+000	 1.007705508869161e+001
 2.385951765574192e+000	 4.393999792037223e+000	 1.005895825379731e+001
 2.341298406550818e+000	 4.417954478214896e+000	 1.005336877884257e+001
 2.296472965270393e+000	 4.441420034167621e+000	 1.004226269559899e+001
 2.181649316969235e+000	 4.219349032441642e+000	 1.003850796586382e+001
 2.138909103449004e+000	 4.241175290762651e+000	 1.005039005282012e+001
 2.096020281778892e+000	 4.262534337476436e+000	 1.004702480297828e+001
 2.052990286523145e+000	 4.283425134544102e+000	 1.002800253397487e+001
 2.009826546807198e+000	 4.303846796944171e+000	 9.992948398319879e+000
 1.966536482506964e+000	 4.323798591841205e+000	 9.941523315696504e+000
 1.923127500484418e+000	 4.343279937644680e+000	 9.873424824540864e+000
 1.879606990872978e+000	 4.362290402960450e+000	 9.788387851451532e+000
 1.835982323416121e+000	 4.380829705437296e+000	 9.736761867223374e+000
 1.792260843862488e+000	 4.398897710511126e+000	 9.772871154290204e+000
 1.748449870420633e+000	 4.416494430049542e+000	 9.801849180839508e+000
 2.193131681794851e+000	 4.241556132607472e+000	 1.001034017719220e+001
 2.150166519782733e+000	 4.263497265972152e+000	 1.000599402295833e+001
 2.107051967472487e+000	 4.284968728721272e+000	 9.986237961236906e+000
 2.063795498557647e+000	 4.305969477352576e+000	 9.950662690267180e+000
 2.020404581264307e+000	 4.326498622186580e+000	 9.898893981502363e+000
 1.976886674520361e+000	 4.346555426530813e+000	 9.830593625670813e+000
 1.933249224171267e+000	 4.366139305733747e+000	 9.745460297282008e+000
 1.889499659245882e+000	 4.385249826130742e+000	 9.718387316182135e+000
 1.845645388275810e+000	 4.403886703884519e+000	 9.751071808666600e+000
 1.801693795671523e+000	 4.422049803722749e+000	 9.778892286918859e+000
 1.757652238158466e+000	 4.439739137575500e+000	 9.799850001492818e+000
 2.204614046621467e+000	 4.263763232774805e+000	 9.982425596365285e+000
 2.161423936117456e+000	 4.285819241183235e+000	 9.962121600128272e+000
 2.118083653167060e+000	 4.307403119967731e+000	 9.926239741478538e+000
 2.074600710593102e+000	 4.328513820162674e+000	 9.874370771930462e+000
 2.030982615722334e+000	 4.349150447430566e+000	 9.806140762542801e+000
 1.987236866534631e+000	 4.369312261221914e+000	 9.721212064136115e+000
 1.943370947858931e+000	 4.388998673824185e+000	 9.715175035304267e+000
 1.899392327619538e+000	 4.408209249302242e+000	 9.740728351266922e+000
 1.855308453136172e+000	 4.426943702332745e+000	 9.763578173889840e+000
 1.811126747481148e+000	 4.445201896935138e+000	 9.783270941091521e+000
 1.766854605896794e+000	 4.462983845101943e+000	 9.796367221995700e+000
 2.216096411449083e+000	 4.285970332943644e+000	 9.954758424344409e+000
 2.172681352453174e+000	 4.308141216395904e+000	 9.918765594215843e+000
 2.129115338862615e+000	 4.329837511215812e+000	 9.867021595749305e+000
 2.085405922629511e+000	 4.351058162974391e+000	 9.799116905655563e+000
 2.041560650181280e+000	 4.371802272676131e+000	 9.714677574505581e+000
 1.997587058549772e+000	 4.392069095914510e+000	 9.722310131136069e+000
 1.953492671547414e+000	 4.411858041915995e+000	 9.744221698635892e+000
 1.909284995993944e+000	 4.431168672474952e+000	 9.761138815601221e+000
 1.864971517997211e+000	 4.450000700781981e+000	 9.774319987047187e+000
 1.820559699291362e+000	 4.468353990148292e+000	 9.786042721950775e+000
 1.776056973635617e+000	 4.486228552628871e+000	 9.791433082331759e+000
 2.227578776277698e+000	 4.308177433113985e+000	 9.927331740199330e+000
 2.183938768789886e+000	 4.330463191610154e+000	 9.875917761383741e+000
 2.140147024559148e+000	 4.352271902465517e+000	 9.808573989761923e+000
 2.096211134666875e+000	 4.373602505787726e+000	 9.724890298383823e+000
 2.052138684641144e+000	 4.394454097923272e+000	 9.739865279188404e+000
 2.007937250565786e+000	 4.414825930608600e+000	 9.757903448101809e+000
 1.963614395236712e+000	 4.434717410009177e+000	 9.771175389225867e+000
 1.919177664369101e+000	 4.454128095648869e+000	 9.779646985509690e+000
 1.874634582858925e+000	 4.473057699232221e+000	 9.783335672472683e+000
 1.829992651102168e+000	 4.491506083362212e+000	 9.787242696037083e+000
 1.785259341374934e+000	 4.509473260156284e+000	 9.785079344124878e+000
 2.239061141107313e+000	 4.330384533285831e+000	 9.900137529874547e+000
 2.195196185127593e+000	 4.352785166825989e+000	 9.833568831089970e+000
 2.151178710256661e+000	 4.374706293716842e+000	 9.750886428186275e+000
 2.107016346705192e+000	 4.396146848602681e+000	 9.767868144622478e+000
 2.062716719101926e+000	 4.417105923171991e+000	 9.781835399272707e+000
 2.018287442582673e+000	 4.437582765304187e+000	 9.791243877861870e+000
 1.973736118926828e+000	 4.457576778103729e+000	 9.796066616224511e+000
 1.929070332745010e+000	 4.477087518823997e+000	 9.796280492299442e+000
 1.884297647721314e+000	 4.496114697683469e+000	 9.791866227384585e+000
 1.839425602913563e+000	 4.514658176576896e+000	 9.786905405099175e+000
 1.794461709114746e+000	 4.532717967684179e+000	 9.777337302904797e+000
 2.250543505937929e+000	 4.352591633459181e+000	 9.873166714075195e+000
 2.206453601466296e+000	 4.375107142043407e+000	 9.792217210294131e+000
 2.162210395955153e+000	 4.397140684969789e+000	 9.806300753511533e+000
 2.117821558744463e+000	 4.418691191419258e+000	 9.816034369932952e+000
 2.073294753563626e+000	 4.439757748422286e+000	 9.821395245398946e+000
 2.028637634600432e+000	 4.460339600001268e+000	 9.822364101931200e+000
 1.983857842617759e+000	 4.480436146199653e+000	 9.818925200302857e+000
 1.938963001121668e+000	 4.500046942000332e+000	 9.811066338714491e+000
 1.893960712584380e+000	 4.519171696135725e+000	 9.798778847584982e+000
 1.848858554725547e+000	 4.537810269792344e+000	 9.785064879481565e+000
 1.803664076855054e+000	 4.555962675212561e+000	 9.768237799997312e+000
 2.262025870769545e+000	 4.374798733634035e+000	 9.846409175303601e+000
 2.217711017805993e+000	 4.397429117262409e+000	 9.855098907840121e+000
 2.173242081654625e+000	 4.419575076224358e+000	 9.860471572696811e+000
 2.128626770784688e+000	 4.441235534237453e+000	 9.861635500861171e+000
 2.083872788026245e+000	 4.462409573674161e+000	 9.858579611493870e+000
 2.038987826619064e+000	 4.483096434699841e+000	 9.851296071584320e+000
 1.993979566309509e+000	 4.503295514296950e+000	 9.839780291126818e+000
 1.948855669499079e+000	 4.523006365177877e+000	 9.824030914889192e+000
 1.903623777448120e+000	 4.542228694588985e+000	 9.804049810786305e+000
 1.858291506538122e+000	 4.560962363008558e+000	 9.781754651104373e+000
 1.812866444595856e+000	 4.579207382741427e+000	 9.757811234052294e+000
 2.273508235602161e+000	 4.397005833810392e+000	 9.914151646302027e+000
 2.228968434146685e+000	 4.419751092482993e+000	 9.915072035573818e+000
 2.184273767355075e+000	 4.442009467480548e+000	 9.911925080450404e+000
 2.139431982825867e+000	 4.463779877057269e+000	 9.904708384314890e+000
 2.094450822489782e+000	 4.485061398927611e+000	 9.893422521148141e+000
 2.049338018638568e+000	 4.505853269399911e+000	 9.878071026295773e+000
 2.004101290002075e+000	 4.526154882395619e+000	 9.858660384301672e+000
 1.958748337877240e+000	 4.545965788356630e+000	 9.835200013818104e+000
 1.913286842312536e+000	 4.565285693043254e+000	 9.807702249607722e+000
 1.867724458351287e+000	 4.584114456225539e+000	 9.777007766049763e+000
 1.822068812337153e+000	 4.602452090270778e+000	 9.746087572222363e+000
 2.284990600435776e+000	 4.419212933988255e+000	 9.979714068496023e+000
 2.240225850488372e+000	 4.442073067705161e+000	 9.972178273674366e+000
 2.195305453056506e+000	 4.464443858738362e+000	 9.960700117765519e+000
 2.150237194868001e+000	 4.486324219878704e+000	 9.945289058400981e+000
 2.105028856954238e+000	 4.507713224182639e+000	 9.925957246971498e+000
 2.059688210658945e+000	 4.528610104101473e+000	 9.902719511624492e+000
 2.014223013695456e+000	 4.549014250495659e+000	 9.875593337805809e+000
 1.968641006256152e+000	 4.568925211536593e+000	 9.844598846359565e+000
 1.922949907177626e+000	 4.588342691498529e+000	 9.809758769204143e+000
 1.877157410165042e+000	 4.607266549443283e+000	 9.771098422606336e+000
 1.831271180078945e+000	 4.625696797800614e+000	 9.733096361004503e+000
 2.296472965270393e+000	 4.441420034167621e+000	 1.004226269559899e+001
 2.251483266831054e+000	 4.464395042928913e+000	 1.002645839887283e+001
 2.206337138758916e+000	 4.486878249997798e+000	 1.000683467996641e+001
 2.161042406911088e+000	 4.508868562701760e+000	 9.983412772645480e+000
 2.115606891419611e+000	 4.530365049439245e+000	 9.956216329367331e+000
 2.070038402680194e+000	 4.551366938804532e+000	 9.925271396561740e+000
 2.024344737389656e+000	 4.571873618597071e+000	 9.890606387931381e+000
 1.978533674635815e+000	 4.591884634717766e+000	 9.852252055789061e+000
 1.932612972043393e+000	 4.611399689954809e+000	 9.810241460452811e+000
 1.886590361979387e+000	 4.630418642661793e+000	 9.764609937722090e+000
 1.840473547821232e+000	 4.648941505330933e+000	 9.718866736756510e+000
 1.748449870420633e+000	 4.416494430049542e+000	 9.801849180839508e+000
 1.704556690275469e+000	 4.433620020899308e+000	 9.811833120864117e+000
 1.660588556172508e+000	 4.450274783340313e+000	 9.814276475798330e+000
 1.616552683069940e+000	 4.466459159448742e+000	 9.809292140378584e+000
 1.572456244859625e+000	 4.482173731371831e+000	 9.796991697496843e+000
 1.528306371162559e+000	 4.497419219518087e+000	 9.777485159945218e+000
 1.484110144199971e+000	 4.512196480665968e+000	 9.750880726940510e+000
 1.439874595742234e+000	 4.526506505994299e+000	 9.717284555657507e+000
 1.395606704137588e+000	 4.540350419037734e+000	 9.676800547946806e+000
 1.351313391422534e+000	 4.553729473570638e+000	 9.629530152360138e+000
 1.307001520515620e+000	 4.566645051422786e+000	 9.575572181555051e+000
 1.757652238158466e+000	 4.439739137575500e+000	 9.799850001492818e+000
 1.713528041275271e+000	 4.456954863114908e+000	 9.802808897273659e+000
 1.669328495939905e+000	 4.473697282201146e+000	 9.799457990465662e+000
 1.625060855084026e+000	 4.489966839237116e+000	 9.789928189065462e+000
 1.580732330356816e+000	 4.505764119433992e+000	 9.774347655688683e+000
 1.536350088903591e+000	 4.521089846991900e+000	 9.752841550505176e+000
 1.491921250220428e+000	 4.535944883198664e+000	 9.725531790872660e+000
 1.447452883087016e+000	 4.550330224449836e+000	 9.692536827859746e+000
 1.402952002579744e+000	 4.564247000193415e+000	 9.653971439792013e+000
 1.358425567166881e+000	 4.577696470802579e+000	 9.609946542899801e+000
 1.313880475887600e+000	 4.590680025379892e+000	 9.560569019092034e+000
 1.766854605896794e+000	 4.462983845101943e+000	 9.796367221995700e+000
 1.722499392275472e+000	 4.480289705330701e+000	 9.792665196924842e+000
 1.678068435707619e+000	 4.497119781061904e+000	 9.783871775981762e+000
 1.633569027098352e+000	 4.513474519025166e+000	 9.770135853184694e+000
 1.589008415854183e+000	 4.529354507495596e+000	 9.751602150380174e+000
 1.544393806644745e+000	 4.544760474464951e+000	 9.728410961266508e+000
 1.499732356240962e+000	 4.559693285730408e+000	 9.700697914030105e+000
 1.455031170431842e+000	 4.574153942904253e+000	 9.668593752747317e+000
 1.410297301021918e+000	 4.588143581347828e+000	 9.632224137644222e+000
 1.365537742911233e+000	 4.601663468033122e+000	 9.591709464248806e+000
 1.320759431259581e+000	 4.614714999335489e+000	 9.547164701412349e+000
 1.776056973635617e+000	 4.486228552628871e+000	 9.791433082331759e+000
 1.731470743276074e+000	 4.503624547546692e+000	 9.781427725051360e+000
 1.686808375475648e+000	 4.520542279922586e+000	 9.767537217294901e+000
 1.642077199112921e+000	 4.536982198812894e+000	 9.749928413586980e+000
 1.597284501351727e+000	 4.552944895556653e+000	 9.728762576081898e+000
 1.552437524386021e+000	 4.568431101937240e+000	 9.704195119573539e+000
 1.507543462261574e+000	 4.583441688261203e+000	 9.676375377028242e+000
 1.462609457776711e+000	 4.597977661357553e+000	 9.645446385755637e+000
 1.417642599464113e+000	 4.612040162500974e+000	 9.611544694268488e+000
 1.372649918655590e+000	 4.625630465262270e+000	 9.574800189822161e+000
 1.327638386631561e+000	 4.638749973289583e+000	 9.535335946563363e+000
 1.785259341374934e+000	 4.509473260156284e+000	 9.785079344124878e+000
 1.740442094277075e+000	 4.526959389762877e+000	 9.769121834265592e+000
 1.695548315243992e+000	 4.543964778783195e+000	 9.750473468201044e+000
 1.650585371127730e+000	 4.560489878600299e+000	 9.729319037143299e+000
 1.605560586849447e+000	 4.576535283617155e+000	 9.705836326176708e+000
 1.560481242127419e+000	 4.592101729408769e+000	 9.680195860152754e+000
 1.515354568282265e+000	 4.607190090791048e+000	 9.652560672014182e+000
 1.470187745121624e+000	 4.621801379809735e+000	 9.623086093625297e+000
 1.424987897906327e+000	 4.635936743652855e+000	 9.591919569119522e+000
 1.379762094399952e+000	 4.649597462490021e+000	 9.559200490709921e+000
 1.334517342003541e+000	 4.662784947242169e+000	 9.525060056846545e+000
 1.794461709114746e+000	 4.532717967684179e+000	 9.777337302904797e+000
 1.749413445278476e+000	 4.550294231979255e+000	 9.755772533600242e+000
 1.704288255012651e+000	 4.567387277643729e+000	 9.732699457270963e+000
 1.659093543142780e+000	 4.583997558387378e+000	 9.708320779667558e+000
 1.613836672347345e+000	 4.600125671677105e+000	 9.682830792948625e+000
 1.568524959868940e+000	 4.615772356879539e+000	 9.656415122359556e+000
 1.523165674303034e+000	 4.630938493319944e+000	 9.629250497242877e+000
 1.477766032466581e+000	 4.645625098260799e+000	 9.601504546419870e+000
 1.432333196348560e+000	 4.659833324803466e+000	 9.573335617913678e+000
 1.386874270144318e+000	 4.673564459716376e+000	 9.544892622916313e+000
 1.341396297375522e+000	 4.686819921193250e+000	 9.516314903836559e+000
 1.803664076855054e+000	 4.555962675212561e+000	 9.768237799997312e+000
 1.758384796280277e+000	 4.573629074195829e+000	 9.741404497273063e+000
 1.713028194781627e+000	 4.590809776504190e+000	 9.714233893595667e+000
 1.667601715158070e+000	 4.607505238174134e+000	 9.686946588749603e+000
 1.622112757845418e+000	 4.623716059736503e+000	 9.659753367610866e+000
 1.576568677610583e+000	 4.639442984349548e+000	 9.632854947508971e+000
 1.530976780323880e+000	 4.654686895847889e+000	 9.606441751819270e+000
 1.485344319811582e+000	 4.669448816710744e+000	 9.580693709788038e+000
 1.439678494790812e+000	 4.683729905952810e+000	 9.555780082520331e+000
 1.393986445888690e+000	 4.697531456941333e+000	 9.531859314989440e+000
 1.348275252747503e+000	 4.710854895142822e+000	 9.509078913858943e+000
 1.812866444595856e+000	 4.579207382741427e+000	 9.757811234052294e+000
 1.767356147282479e+000	 4.596963916412597e+000	 9.726042073184761e+000
 1.721768134550916e+000	 4.614232275364574e+000	 9.695095272357017e+000
 1.676109887173602e+000	 4.631012917960568e+000	 9.665209306502076e+000
 1.630388843343669e+000	 4.647306447795349e+000	 9.636611440333025e+000
 1.584612395352349e+000	 4.663113611818793e+000	 9.609517476287977e+000
 1.538787886344805e+000	 4.678435298374885e+000	 9.584131530600574e+000
 1.492922607156627e+000	 4.693272535159570e+000	 9.560645837461502e+000
 1.447023793233084e+000	 4.707626487100888e+000	 9.539240581160957e+000
 1.401098621633067e+000	 4.721498454164895e+000	 9.520083756027807e+000
 1.355154208119483e+000	 4.734889869090891e+000	 9.503331053910225e+000
 1.822068812337153e+000	 4.602452090270778e+000	 9.746087572222363e+000
 1.776327498285080e+000	 4.620298758629560e+000	 9.709709291159264e+000
 1.730508074320522e+000	 4.637654774224886e+000	 9.675301880229455e+000
 1.684618059189375e+000	 4.654520597746679e+000	 9.643121672223975e+000
 1.638664928842096e+000	 4.670896835853643e+000	 9.613412400267439e+000
 1.592656113094237e+000	 4.686784239287278e+000	 9.586404946246073e+000
 1.546598992365808e+000	 4.702183700900933e+000	 9.562317119253049e+000
 1.500500894501715e+000	 4.717096253607278e+000	 9.541353463980101e+000
 1.454369091675375e+000	 4.731523068247697e+000	 9.523705098905356e+000
 1.408210797377448e+000	 4.745465451387059e+000	 9.509549584050275e+000
 1.362033163491464e+000	 4.758924843037452e+000	 9.499050818004562e+000
 1.831271180078945e+000	 4.625696797800614e+000	 9.733096361004503e+000
 1.785298849288082e+000	 4.643633600846719e+000	 9.692429870935630e+000
 1.739248014090443e+000	 4.661077273085121e+000	 9.654871800618880e+000
 1.693126231205388e+000	 4.678028277532464e+000	 9.620696324983866e+000
 1.646941014340700e+000	 4.694487223911384e+000	 9.590163635574712e+000
 1.600699830836248e+000	 4.710454866755004e+000	 9.563519689361501e+000
 1.554410098386890e+000	 4.725932103426030e+000	 9.540995989457761e+000
 1.508079181846848e+000	 4.740919972053868e+000	 9.522809397636351e+000
 1.461714390117686e+000	 4.755419649393240e+000	 9.509161978454319e+000
 1.415322973121834e+000	 4.769432448607827e+000	 9.500240874716596e+000
 1.368912118863444e+000	 4.782959816982506e+000	 9.496218213932103e+000
 1.840473547821232e+000	 4.648941505330933e+000	 9.718866736756510e+000
 1.794270200291483e+000	 4.666968443064073e+000	 9.674227229920199e+000
 1.747987953860680e+000	 4.684499771945285e+000	 9.633822918744386e+000
 1.701634403221643e+000	 4.701535957317928e+000	 9.597945806125715e+000
 1.655217099839480e+000	 4.718077611968574e+000	 9.566872533448542e+000
 1.608743548578381e+000	 4.734125494221969e+000	 9.540864129680619e+000
 1.562221204408049e+000	 4.749680505950178e+000	 9.520165794260253e+000
 1.515657469192024e+000	 4.764743690499340e+000	 9.505006713631655e+000
 1.469059688560017e+000	 4.779316230537516e+000	 9.495599911198857e+000
 1.422435148866225e+000	 4.793399445827198e+000	 9.492142130386435e+000
 1.375791074235425e+000	 4.806994790926056e+000	 9.494813750414560e+000
 1.307001520515620e+000	 4.566645051422786e+000	 9.575572181555051e+000
 1.262677892496843e+000	 4.579098660229949e+000	 9.519768878304006e+000
 1.218349243971802e+000	 4.591091931124016e+000	 9.468590221481490e+000
 1.174022244523953e+000	 4.602626616365185e+000	 9.421685604761104e+000
 1.129703494256914e+000	 4.613704586919089e+000	 9.379180413686765e+000
 1.085399521425691e+000	 4.624327829983526e+000	 9.341256356835258e+000
 1.041116780158474e+000	 4.634498446467842e+000	 9.308076010328410e+000
 9.968616482696650e-001	 4.644218648428490e+000	 9.279783038978605e+000
 9.526404251647149e-001	 4.653490756464190e+000	 9.256502447803040e+000
 9.084593298371448e-001	 4.662317197074184e+000	 9.238340862514315e+000
 8.643244989580522e-001	 4.670700499982988e+000	 9.225386837562240e+000
 1.313880475887600e+000	 4.590680025379892e+000	 9.560569019092034e+000
 1.269323565616884e+000	 4.603199179496159e+000	 9.512261239568021e+000
 1.224761608415979e+000	 4.615255572868285e+000	 9.467644210421526e+000
 1.180201308971415e+000	 4.626850966978888e+000	 9.426456779282949e+000
 1.135649302124197e+000	 4.637987242640786e+000	 9.388917322770130e+000
 1.091112150488572e+000	 4.648666397510717e+000	 9.355199975156399e+000
 1.046596342161823e+000	 4.658890543555442e+000	 9.325460348660778e+000
 1.002108288525804e+000	 4.668661904473817e+000	 9.299835750731747e+000
 9.576543221407293e-001	 4.677982813078234e+000	 9.278445431221286e+000
 9.132406947316675e-001	 4.686855708638987e+000	 9.261390858070085e+000
 8.688735752679867e-001	 4.695283134194933e+000	 9.248756020091467e+000
 1.320759431259581e+000	 4.614714999335489e+000	 9.547164701412349e+000
 1.275969238736935e+000	 4.627299698760772e+000	 9.506014565140395e+000
 1.231173972860197e+000	 4.639419214610888e+000	 9.467729317376362e+000
 1.186380373418968e+000	 4.651075317590874e+000	 9.431958161862033e+000
 1.141595109991644e+000	 4.662269898360744e+000	 9.399095780976690e+000
 1.096824779551708e+000	 4.673004965036161e+000	 9.369308788030613e+000
 1.052075904165543e+000	 4.683282640641307e+000	 9.342745874631051e+000
 1.007354928782445e+000	 4.693105160517438e+000	 9.319538024233699e+000
 9.626682191173969e-001	 4.702474869690625e+000	 9.299798755117168e+000
 9.180220596270147e-001	 4.711394220202211e+000	 9.283624391413222e+000
 8.734226515789358e-001	 4.719865768405385e+000	 9.271094360793313e+000
 1.327638386631561e+000	 4.638749973289583e+000	 9.535335946563363e+000
 1.282614911856997e+000	 4.651400218023791e+000	 9.501010223658101e+000
 1.237586337304457e+000	 4.663582856351826e+000	 9.468821226030920e+000
 1.192559437866615e+000	 4.675299668201150e+000	 9.438170075431865e+000
 1.147540917859257e+000	 4.686552554078959e+000	 9.409700619692963e+000
 1.102537408615102e+000	 4.697343532559855e+000	 9.383572003773560e+000
 1.057555466169632e+000	 4.707674737725434e+000	 9.359926041306371e+000
 1.012601569039587e+000	 4.717548416559352e+000	 9.338887424545868e+000
 9.676821160947181e-001	 4.726966926301362e+000	 9.320563963282636e+000
 9.228034245231862e-001	 4.735932731763849e+000	 9.305046851368848e+000
 8.779717278908999e-001	 4.744448402614344e+000	 9.292410959466880e+000
 1.334517342003541e+000	 4.662784947242169e+000	 9.525060056846545e+000
 1.289260584977069e+000	 4.675500737285212e+000	 9.497230064995373e+000
 1.243998701748758e+000	 4.687746498091098e+000	 9.470896001379311e+000
 1.198738502314356e+000	 4.699524018809712e+000	 9.445073127414776e+000
 1.153486725727035e+000	 4.710835209795433e+000	 9.420716861098708e+000
 1.108250037678754e+000	 4.721682100081798e+000	 9.397978930938290e+000
 1.063035028174090e+000	 4.732066834807823e+000	 9.376994314588178e+000
 1.017848209297231e+000	 4.741991672599561e+000	 9.357881445324265e+000
 9.726960130726919e-001	 4.751458982910445e+000	 9.340742447037220e+000
 9.275847894201817e-001	 4.760471243323905e+000	 9.325663396402145e+000
 8.825208042038785e-001	 4.769031036821811e+000	 9.312714610848438e+000
 1.341396297375522e+000	 4.686819921193250e+000	 9.516314903836559e+000
 1.295906258097151e+000	 4.699601256545038e+000	 9.494656407924344e+000
 1.250411066193101e+000	 4.711910139828708e+000	 9.473917700144506e+000
 1.204917566762190e+000	 4.723748369416562e+000	 9.452648202427367e+000
 1.159432533594978e+000	 4.735117865510165e+000	 9.432129713274863e+000
 1.113962666742663e+000	 4.746020667601992e+000	 9.412518975745094e+000
 1.068514590178918e+000	 4.756458931888473e+000	 9.393944172883009e+000
 1.023094849555376e+000	 4.766434928638065e+000	 9.376517510650476e+000
 9.777099100513192e-001	 4.775951039517873e+000	 9.360335449137581e+000
 9.323661543180016e-001	 4.785009754882376e+000	 9.345478960525066e+000
 8.870698805178715e-001	 4.793613671027785e+000	 9.332013812433580e+000
 1.348275252747503e+000	 4.710854895142822e+000	 9.509078913858943e+000
 1.302551931217244e+000	 4.723701775803268e+000	 9.493272028153276e+000
 1.256823430637485e+000	 4.736073781564651e+000	 9.477666555310787e+000
 1.211096631210117e+000	 4.747972720021697e+000	 9.460876455209231e+000
 1.165378341463086e+000	 4.759400521223156e+000	 9.443924565461083e+000
 1.119675295806829e+000	 4.770359235120437e+000	 9.427181639589991e+000
 1.073994152184115e+000	 4.780851028967387e+000	 9.410769106783533e+000
 1.028341489814023e+000	 4.790878184674864e+000	 9.394792976806444e+000
 9.827238070305994e-001	 4.800443096123646e+000	 9.379344067567324e+000
 9.371475192166460e-001	 4.809548266439266e+000	 9.364498259022115e+000
 8.916189568328796e-001	 4.818196305232266e+000	 9.350316772059873e+000
 1.355154208119483e+000	 4.734889869090891e+000	 9.503331053910225e+000
 1.309197604337347e+000	 4.747802295059902e+000	 9.493060146729311e+000
 1.263235795081911e+000	 4.760237423298930e+000	 9.482282661354940e+000
 1.217275695658136e+000	 4.772197070625118e+000	 9.469739303767044e+000
 1.171324149331359e+000	 4.783683176934406e+000	 9.456086983457910e+000
 1.125387924871253e+000	 4.794697802637132e+000	 9.441956516629073e+000
 1.079473714189682e+000	 4.805243126044562e+000	 9.427462618759302e+000
 1.033588130073171e+000	 4.815321440709956e+000	 9.412705133995321e+000
 9.877377040105332e-001	 4.824935152727766e+000	 9.397769259211584e+000
 9.419288841161144e-001	 4.834086777994571e+000	 9.382725794001843e+000
 8.961680331489021e-001	 4.842778939435253e+000	 9.367631415258638e+000
 1.362033163491464e+000	 4.758924843037452e+000	 9.499050818004562e+000
 1.315843277457460e+000	 4.771902814314941e+000	 9.494004418792441e+000
 1.269648159526378e+000	 4.784401065031544e+000	 9.487753710250434e+000
 1.223454760106249e+000	 4.796421421226826e+000	 9.479218422726385e+000
 1.177269957199798e+000	 4.807965832643914e+000	 9.468602705168038e+000
 1.131100553935933e+000	 4.819036370152078e+000	 9.456833291436130e+000
 1.084953276195619e+000	 4.829635223120001e+000	 9.444018222856755e+000
 1.038834770332820e+000	 4.839764696743343e+000	 9.430251208010095e+000
 9.927516009911197e-001	 4.849427209330234e+000	 9.415611843419923e+000
 9.467102490164072e-001	 4.858625289548295e+000	 9.400165859780095e+000
 9.007171094659395e-001	 4.867361573636750e+000	 9.383965392383798e+000
 1.368912118863444e+000	 4.782959816982506e+000	 9.496218213932103e+000
 1.322488950577584e+000	 4.796003333568383e+000	 9.496088922668688e+000
 1.276060523970887e+000	 4.808564706762494e+000	 9.494067729282905e+000
 1.229633824554455e+000	 4.820645771826822e+000	 9.489295736884015e+000
 1.183215765068401e+000	 4.832248488351681e+000	 9.481457636272280e+000
 1.136813183000871e+000	 4.843374937665274e+000	 9.471801736730788e+000
 1.090432838201924e+000	 4.854027320193702e+000	 9.460429444408375e+000
 1.044081410592971e+000	 4.864207952775023e+000	 9.447428361851964e+000
 9.977654979723596e-001	 4.873919265931045e+000	 9.432872505462175e+000
 9.514916139175242e-001	 4.883163801100436e+000	 9.416822548100909e+000
 9.052661857839915e-001	 4.891944207836753e+000	 9.399326085525996e+000
 1.375791074235425e+000	 4.806994790926056e+000	 9.494813750414560e+000
 1.329134623697719e+000	 4.820103852820232e+000	 9.499298149290489e+000
 1.282472888415437e+000	 4.832728348491778e+000	 9.501213072667392e+000
 1.235812889002754e+000	 4.844870122425104e+000	 9.499953414953650e+000
 1.189161572937170e+000	 4.856531144057705e+000	 9.494637846034971e+000
 1.142525812066067e+000	 4.867713505176722e+000	 9.486851711174909e+000
 1.095912400208600e+000	 4.878419417265667e+000	 9.476689819750536e+000
 1.049328050853624e+000	 4.888651208805000e+000	 9.464233697300106e+000
 1.002779394954253e+000	 4.898411322530204e+000	 9.449551799880318e+000
 9.562729788194657e-001	 4.907702312650993e+000	 9.432699753200803e+000
 9.098152621030583e-001	 4.916526842035265e+000	 9.413720615219113e+000
 8.643244989580522e-001	 4.670700499982988e+000	 9.225386837562240e+000
 8.202419850585254e-001	 4.678643295435927e+000	 9.217514173943304e+000
 7.762177548042755e-001	 4.686148311466118e+000	 9.210672866073058e+000
 7.322576873625165e-001	 4.693218371138125e+000	 9.204867386772991e+000
 6.883675728617015e-001	 4.699856389773194e+000	 9.200089926841566e+000
 6.445531109429856e-001	 4.706065372156695e+000	 9.196320759756047e+000
 6.008199094031392e-001	 4.711848409731800e+000	 9.189682079286172e+000
 5.571734829283334e-001	 4.717208677782531e+000	 9.180555099329617e+000
 5.136192519181071e-001	 4.722149432609214e+000	 9.171937642116118e+000
 4.701625413987239e-001	 4.726674008699353e+000	 9.163796788893182e+000
 4.268085800250276e-001	 4.730785815896795e+000	 9.156078812933275e+000
 8.688735752679867e-001	 4.695283134194933e+000	 9.248756020091467e+000
 8.245590481363796e-001	 4.703267733834722e+000	 9.239467517669741e+000
 7.803031114062362e-001	 4.710812249949480e+000	 9.231242411407207e+000
 7.361116751877546e-001	 4.717919520462003e+000	 9.224087540190753e+000
 6.919905600837472e-001	 4.724592476037333e+000	 9.217997227264419e+000
 6.479454957334779e-001	 4.730834137275504e+000	 9.212953649230776e+000
 6.039821194484371e-001	 4.736647611890441e+000	 9.205940904538227e+000
 5.601059749394577e-001	 4.742036091878187e+000	 9.196421591529118e+000
 5.163225111344961e-001	 4.747002850677490e+000	 9.187557574726570e+000
 4.726370810862681e-001	 4.751551240325787e+000	 9.179320714906977e+000
 4.290549409688527e-001	 4.755684688613479e+000	 9.171661570514280e+000
 8.734226515789358e-001	 4.719865768405385e+000	 9.271094360793313e+000
 8.288761112154275e-001	 4.727892172232124e+000	 9.260452097745901e+000
 7.843884680095284e-001	 4.735476188431549e+000	 9.250908347317891e+000
 7.399656630144206e-001	 4.742620669784688e+000	 9.242472270733144e+000
 6.956135473072760e-001	 4.749328562300383e+000	 9.235140276827963e+000
 6.513378805254695e-001	 4.755602902393323e+000	 9.228896395467380e+000
 6.071443294952095e-001	 4.761446814048191e+000	 9.221446322304750e+000
 5.630384669519922e-001	 4.766863505973046e+000	 9.211535156180931e+000
 5.190257703521917e-001	 4.771856268745071e+000	 9.202430060748471e+000
 4.751116207749768e-001	 4.776428471951628e+000	 9.194107702964773e+000
 4.313013019136611e-001	 4.780583561329669e+000	 9.186522946217878e+000
 8.779717278908999e-001	 4.744448402614344e+000	 9.292410959466880e+000
 8.331931742956691e-001	 4.752516610628134e+000	 9.280476486353656e+000
 7.884738246141516e-001	 4.760140126912325e+000	 9.269678728798727e+000
 7.438196508425145e-001	 4.767321819106181e+000	 9.260029126807677e+000
 6.992365345322885e-001	 4.774064648562337e+000	 9.251526128109999e+000
 6.547302653189601e-001	 4.780371667510148e+000	 9.244155566105846e+000
 6.103065395434563e-001	 4.786246016205046e+000	 9.236221839629272e+000
 5.659709589659370e-001	 4.791690920067117e+000	 9.225917460643025e+000
 5.217290295711939e-001	 4.796709686811961e+000	 9.216574956753732e+000
 4.775861604648496e-001	 4.801305703576881e+000	 9.208175828595287e+000
 4.335476628594530e-001	 4.805482434045368e+000	 9.200679265067519e+000
 8.825208042038785e-001	 4.769031036821811e+000	 9.312714610848438e+000
 8.375102373771048e-001	 4.777141049022752e+000	 9.299548963720502e+000
 7.925591812201065e-001	 4.784804065391811e+000	 9.287561332196860e+000
 7.476736386720361e-001	 4.792022968426481e+000	 9.276765391675474e+000
 7.028595217587850e-001	 4.798800734823201e+000	 9.267161582226871e+000
 6.581226501139499e-001	 4.805140432625982e+000	 9.258737491187457e+000
 6.134687495931775e-001	 4.811045218361012e+000	 9.250290739989758e+000
 5.689034509812920e-001	 4.816518334160397e+000	 9.239589962904210e+000
 5.244322887915028e-001	 4.821563104878160e+000	 9.230011924297452e+000
 4.800607001558868e-001	 4.826182935201539e+000	 9.221542986811686e+000
 4.357940238062281e-001	 4.830381306760575e+000	 9.214146686213919e+000
 8.870698805178715e-001	 4.793613671027785e+000	 9.332013812433580e+000
 8.418273004597338e-001	 4.801765487415977e+000	 9.317677525605642e+000
 7.966445378273929e-001	 4.809468003870001e+000	 9.304563662357747e+000
 7.515276265029860e-001	 4.816724117745588e+000	 9.292688090249794e+000
 7.064825089867651e-001	 4.823536821082972e+000	 9.282053195281208e+000
 6.615150349104386e-001	 4.829909197740823e+000	 9.272648269246997e+000
 6.166309596443732e-001	 4.835844420516084e+000	 9.263676089031053e+000
 5.718359429980570e-001	 4.841345748252883e+000	 9.252573916952503e+000
 5.271355480131184e-001	 4.846416522943665e+000	 9.242760434918342e+000
 4.825352398480882e-001	 4.851060166825606e+000	 9.234226896740074e+000
 4.380403847539867e-001	 4.855280179475290e+000	 9.226941207188149e+000
 8.916189568328796e-001	 4.818196305232266e+000	 9.350316772059873e+000
 8.461443635435570e-001	 4.826389925807810e+000	 9.334869890556748e+000
 8.007298944360106e-001	 4.834131942346899e+000	 9.320692959551197e+000
 7.553816143353638e-001	 4.841425267063504e+000	 9.307803995686671e+000
 7.101054962162290e-001	 4.848272907341652e+000	 9.296207284612320e+000
 6.649074197084265e-001	 4.854677962854673e+000	 9.285893773218584e+000
 6.197931696970432e-001	 4.860643622670264e+000	 9.276400740121849e+000
 5.747684350162322e-001	 4.866173162344578e+000	 9.264890377979285e+000
 5.298388072360406e-001	 4.871269941008480e+000	 9.254839774986145e+000
 4.850097795414539e-001	 4.875937398449081e+000	 9.246245106106526e+000
 4.402867457027287e-001	 4.880179052189514e+000	 9.239078668024643e+000
 8.961680331489021e-001	 4.842778939435253e+000	 9.367631415258638e+000
 8.504614266285739e-001	 4.851014364198250e+000	 9.351133506945839e+000
 8.048152510459596e-001	 4.858795880822506e+000	 9.335956206186527e+000
 7.592356021691694e-001	 4.866126416380226e+000	 9.322119635774577e+000
 7.137284834471765e-001	 4.873008993599238e+000	 9.309629934856107e+000
 6.682998045079135e-001	 4.879446727967530e+000	 9.298479656161527e+000
 6.229553797511880e-001	 4.885442824823553e+000	 9.288487339742401e+000
 5.777009270358176e-001	 4.891000576435481e+000	 9.276560207424902e+000
 5.325420664602696e-001	 4.896123359072604e+000	 9.266269050401254e+000
 4.874843192359838e-001	 4.900814630071966e+000	 9.257614995587282e+000
 4.425331066524542e-001	 4.905077924903247e+000	 9.250574755258551e+000
 9.007171094659395e-001	 4.867361573636750e+000	 9.383965392383798e+000
 8.547784897147843e-001	 4.875638802587297e+000	 9.366475559791857e+000
 8.089006076572401e-001	 4.883459819296819e+000	 9.350360133324120e+000
 7.630895900044030e-001	 4.890827565695759e+000	 9.335641299130625e+000
 7.173514706796077e-001	 4.897745079855731e+000	 9.322327003821474e+000
 6.716921893088994e-001	 4.904215493079393e+000	 9.310411356812782e+000
 6.261175898068071e-001	 4.910242026975949e+000	 9.299875050079606e+000
 5.806334190568133e-001	 4.915827990525592e+000	 9.287604077871309e+000
 5.352453256858051e-001	 4.920976777136034e+000	 9.277067191152117e+000
 4.899588589316778e-001	 4.925691861694258e+000	 9.268353783027155e+000
 4.447794676031630e-001	 4.929976797616488e+000	 9.261445005801933e+000
 9.052661857839915e-001	 4.891944207836753e+000	 9.399326085525996e+000
 8.590955528021887e-001	 4.900263240974951e+000	 9.380902977377662e+000
 8.129859642698522e-001	 4.908123757769840e+000	 9.363911226990826e+000
 7.669435778410646e-001	 4.915528715010095e+000	 9.348375041209879e+000
 7.209744579135228e-001	 4.922481166111133e+000	 9.334304128189443e+000
 6.750845741113848e-001	 4.928984258190267e+000	 9.321694104971860e+000
 6.292797998639005e-001	 4.935041229127454e+000	 9.310526922806163e+000
 5.835659110792189e-001	 4.940655404614910e+000	 9.298042477787343e+000
 5.379485849126473e-001	 4.945830195198774e+000	 9.287252955735047e+000
 4.924333986285364e-001	 4.950569093315958e+000	 9.278478527530815e+000
 4.470258285548553e-001	 4.954875670329237e+000	 9.271704810703248e+000
 9.098152621030583e-001	 4.916526842035265e+000	 9.413720615219113e+000
 8.634126158907872e-001	 4.924887679361214e+000	 9.394422437668311e+000
 8.170713208837958e-001	 4.932787696241570e+000	 9.376615734305723e+000
 7.707975656791543e-001	 4.940229864323243e+000	 9.360326690134455e+000
 7.245974451489217e-001	 4.947217252365443e+000	 9.345566729041405e+000
 6.784769589153692e-001	 4.953753023300148e+000	 9.332332926724336e+000
 6.324420099224686e-001	 4.959840431278067e+000	 9.320608441697578e+000
 5.864984031030350e-001	 4.965482818703439e+000	 9.307895716131505e+000
 5.406518441407963e-001	 4.970683613260823e+000	 9.296844935441618e+000
 4.949079383265592e-001	 4.975446324937067e+000	 9.288006133431296e+000
 4.492721895075311e-001	 4.979774543041494e+000	 9.281369418793815e+000
 4.268085800250276e-001	 4.730785815896795e+000	 9.156078812933275e+000
 3.835624991689582e-001	 4.734488336571500e+000	 9.149078516664753e+000
 3.404293320962267e-001	 4.737785122794405e+000	 9.144806384119017e+000
 2.974140132282684e-001	 4.740679793518914e+000	 9.143115129163904e+000
 2.545213774864993e-001	 4.743176031770457e+000	 9.143837144978262e+000
 2.117561597201596e-001	 4.745277581848414e+000	 9.146785110194736e+000
 1.691229942154843e-001	 4.746988246542276e+000	 9.151752622156586e+000
 1.266264142847402e-001	 4.748311884364385e+000	 9.158514855087963e+000
 8.427085193360903e-002	 4.749252406801554e+000	 9.166829240983994e+000
 4.206063760533519e-002	 4.749813775587759e+000	 9.176436171039663e+000
 0.000000000000000e+000	 4.750000000000000e+000	 9.187059715456019e+000
 4.290549409688527e-001	 4.755684688613479e+000	 9.171661570514280e+000
 3.855812491613293e-001	 4.759406696238825e+000	 9.164540430429353e+000
 3.422210654202023e-001	 4.762720833967920e+000	 9.159872966631330e+000
 2.989793501375459e-001	 4.765630739801289e+000	 9.157521766169946e+000
 2.558609636817313e-001	 4.768140116148705e+000	 9.157328840184883e+000
 2.128706658222577e-001	 4.770252727016391e+000	 9.159116226137648e+000
 1.700131152363402e-001	 4.771972395208514e+000	 9.162686617864488e+000
 1.272928690957841e-001	 4.773302999545376e+000	 9.167824021226668e+000
 8.471438273261697e-002	 4.774248472100563e+000	 9.174294433140254e+000
 4.228200938188972e-002	 4.774812795459289e+000	 9.181846541780224e+000
 0.000000000000000e+000	 4.775000000000001e+000	 9.190212445771612e+000
 4.313013019136611e-001	 4.780583561329669e+000	 9.186522946217878e+000
 3.875999991544945e-001	 4.784325055905754e+000	 9.179351409586326e+000
 3.440127987448031e-001	 4.787656545141123e+000	 9.174368528017199e+000
 3.005446870473006e-001	 4.790581686083425e+000	 9.171446696178737e+000
 2.572005498773125e-001	 4.793104200526779e+000	 9.170437469820570e+000
 2.139851719245974e-001	 4.795227872184246e+000	 9.171172164305123e+000
 1.709032362573503e-001	 4.796956543874675e+000	 9.173462481673644e+000
 1.279593239069144e-001	 4.798294114726323e+000	 9.177101163999399e+000
 8.515791353166319e-002	 4.799244537399557e+000	 9.181862670786135e+000
 4.250338115845378e-002	 4.799811815330812e+000	 9.187503878180680e+000
 0.000000000000000e+000	 4.800000000000001e+000	 9.193764797787376e+000
 4.335476628594530e-001	 4.805482434045368e+000	 9.200679265067519e+000
 3.896187491484534e-001	 4.809243415572285e+000	 9.193525285367196e+000
 3.458045320700291e-001	 4.812592256314011e+000	 9.188304369314404e+000
 3.021100239575324e-001	 4.815532632365326e+000	 9.184898655299088e+000
 2.585401360732431e-001	 4.818068284904680e+000	 9.183169171970578e+000
 2.150996780271788e-001	 4.820203017351980e+000	 9.182956433278015e+000
 1.717933572785144e-001	 4.821940692540756e+000	 9.184081062765738e+000
 1.286257787181312e-001	 4.823285229907228e+000	 9.186344444852143e+000
 8.560144433074766e-002	 4.824240602698530e+000	 9.189529400824565e+000
 4.272475293502739e-002	 4.824810835202331e+000	 9.193400887293867e+000
 0.000000000000000e+000	 4.825000000000000e+000	 9.197706714869502e+000
 4.357940238062281e-001	 4.830381306760575e+000	 9.214146686213919e+000
 3.916374991432063e-001	 4.834161775238420e+000	 9.207075753878621e+000
 3.475962653958803e-001	 4.837527967486588e+000	 9.201691688721086e+000
 3.036753608682411e-001	 4.840483578646984e+000	 9.197886310594861e+000
 2.598797222695229e-001	 4.843032369282406e+000	 9.195530050950886e+000
 2.162141841300019e-001	 4.845178162519593e+000	 9.194472544595715e+000
 1.726834782998328e-001	 4.846924841206762e+000	 9.194543251432096e+000
 1.292922335294343e-001	 4.848276345088091e+000	 9.195552105885190e+000
 8.604497512987042e-002	 4.849236667997483e+000	 9.197290191721667e+000
 4.294612471161052e-002	 4.849809855073844e+000	 9.199530439978787e+000
 0.000000000000000e+000	 4.850000000000000e+000	 9.202028347737437e+000
 4.380403847539867e-001	 4.855280179475290e+000	 9.226941207188149e+000
 3.936562491387531e-001	 4.859080134904158e+000	 9.220016379567090e+000
 3.493879987223567e-001	 4.862463678658854e+000	 9.214541584232659e+000
 3.052406977794268e-001	 4.865434524928404e+000	 9.210418261855320e+000
 2.612193084661519e-001	 4.867996453659957e+000	 9.207526178173984e+000
 2.173286902330668e-001	 4.870153307687086e+000	 9.205724012680344e+000
 1.735735993213052e-001	 4.871908989872692e+000	 9.204849978019508e+000
 1.299586883408239e-001	 4.873267460268909e+000	 9.204722467785127e+000
 8.648850592903142e-002	 4.874232733296418e+000	 9.205140730389752e+000
 4.316749648820319e-002	 4.874808874945354e+000	 9.205885566700530e+000
 0.000000000000000e+000	 4.875000000000000e+000	 9.206720049147162e+000
 4.402867457027287e-001	 4.880179052189514e+000	 9.239078668024643e+000
 3.956749991350939e-001	 4.883998494569498e+000	 9.232360598577614e+000
 3.511797320494583e-001	 4.887399389830808e+000	 9.226865056198074e+000
 3.068060346910895e-001	 4.890385471209586e+000	 9.222503043311367e+000
 2.625588946631303e-001	 4.892960538037332e+000	 9.219163592988345e+000
 2.184431963363733e-001	 4.895128452854459e+000	 9.216714354763139e+000
 1.744637203429319e-001	 4.896893138538543e+000	 9.215002211908365e+000
 1.306251431522999e-001	 4.898258575449685e+000	 9.213853927820086e+000
 8.693203672823067e-002	 4.899228798595333e+000	 9.213076819165737e+000
 4.338886826480538e-002	 4.899807894816859e+000	 9.212459453458674e+000
 0.000000000000000e+000	 4.900000000000000e+000	 9.211772368737151e+000
 4.425331066524542e-001	 4.905077924903247e+000	 9.250574755258551e+000
 3.976937491322284e-001	 4.908916854234440e+000	 9.244121722010151e+000
 3.529714653771849e-001	 4.912335101002447e+000	 9.238673009798012e+000
 3.083713716032294e-001	 4.915336417490532e+000	 9.234149125299371e+000
 2.638984808604579e-001	 4.917924622414533e+000	 9.230448303492144e+000
 2.195577024399215e-001	 4.920103598021710e+000	 9.227447090813184e+000
 1.753538413647127e-001	 4.921877287204318e+000	 9.225000960522110e+000
 1.312915979638622e-001	 4.923249690630416e+000	 9.222944957896006e+000
 8.737556752746820e-002	 4.924224863894231e+000	 9.221094372881607e+000
 4.361024004141711e-002	 4.924806914688358e+000	 9.219245437839643e+000
 0.000000000000000e+000	 4.925000000000000e+000	 9.217176048031462e+000
 4.447794676031630e-001	 4.929976797616488e+000	 9.261445005801933e+000
 3.997124991301571e-001	 4.933835213898987e+000	 9.255312939077237e+000
 3.547631987055368e-001	 4.937270812173773e+000	 9.249976257448306e+000
 3.099367085158461e-001	 4.940287363771236e+000	 9.245364915874763e+000
 2.652380670581347e-001	 4.942888706791560e+000	 9.241386287322431e+000
 2.206722085437114e-001	 4.945078743188839e+000	 9.237925743468331e+000
 1.762439623866476e-001	 4.946861435870014e+000	 9.234847268366371e+000
 1.319580527755109e-001	 4.948240805811105e+000	 9.231994102671889e+000
 8.781909832674401e-002	 4.949220929193109e+000	 9.229189416023543e+000
 4.383161181803836e-002	 4.949805934559854e+000	 9.226237005188860e+000
 0.000000000000000e+000	 4.949999999999999e+000	 9.222922015593982e+000
 4.470258285548553e-001	 4.954875670329237e+000	 9.271704810703248e+000
 4.017312491288794e-001	 4.958753573563137e+000	 9.265947320166543e+000
 3.565549320345138e-001	 4.962206523344788e+000	 9.260785521130583e+000
 3.115020454289399e-001	 4.965238310051704e+000	 9.256158762376829e+000
 2.665776532561608e-001	 4.967852791168412e+000	 9.251983492420528e+000
 2.217867146477431e-001	 4.970053888355849e+000	 9.248153837968065e+000
 1.771340834087366e-001	 4.971845584535635e+000	 9.244542216097401e+000
 1.326245075872461e-001	 4.973231920991751e+000	 9.240999977731818e+000
 8.826262912605805e-002	 4.974216994491967e+000	 9.237358079976954e+000
 4.405298359466915e-002	 4.974804954431344e+000	 9.233427784898122e+000
 0.000000000000000e+000	 4.975000000000000e+000	 9.229001382329104e+000
 4.492721895075311e-001	 4.979774543041494e+000	 9.281369418793815e+000
 4.037499991283959e-001	 4.983671933226891e+000	 9.276037819811474e+000
 3.583466653641162e-001	 4.987142234515491e+000	 9.271111434653145e+000
 3.130673823425109e-001	 4.990189256331933e+000	 9.266538952946629e+000
 2.679172394545363e-001	 4.992816875545092e+000	 9.262245837774374e+000
 2.229012207520164e-001	 4.995029033522738e+000	 9.258134902088496e+000
 1.780242044309799e-001	 4.996829733201179e+000	 9.254086919618196e+000
 1.332909623990677e-001	 4.998223036172353e+000	 9.249961267811795e+000
 8.870615992541038e-002	 4.999213059790806e+000	 9.245596600353785e+000
 4.427435537130947e-002	 4.999803974302830e+000	 9.240811546804510e+000
 0.000000000000000e+000	 5.000000000000000e+000	 9.235405436923069e+000
