x	y	stress_xx
 1.0000000000e+000	 0.0000000000e+000	 1.4819436789e+000
 9.9996079486e-001	 8.8548710816e-003	 1.4826666576e+000
 9.9984261196e-001	 1.7741231999e-002	 1.4878153203e+000
 9.9964460724e-001	 2.6658192499e-002	 1.4974332374e+000
 9.9936594664e-001	 3.5604840910e-002	 1.5115596409e+000
 9.9900580671e-001	 4.4580244178e-002	 1.5302292714e+000
 9.9856337512e-001	 5.3583447921e-002	 1.5534722259e+000
 9.9803785128e-001	 6.2613476500e-002	 1.5813138080e+000
 9.9742844692e-001	 7.1669333105e-002	 1.6137743792e+000
 9.9673438666e-001	 8.0749999857e-002	 1.6508692121e+000
 9.9595490863e-001	 8.9854437932e-002	 1.6926083472e+000
 1.0250000000e+000	 0.0000000000e+000	 1.3944790251e+000
 1.0249598147e+000	 9.0762428582e-003	 1.3963602449e+000
 1.0248386773e+000	 1.8184762798e-002	 1.4016423787e+000
 1.0246357224e+000	 2.7324647310e-002	 1.4103558024e+000
 1.0243500953e+000	 3.6494961931e-002	 1.4225270886e+000
 1.0239809519e+000	 4.5694750280e-002	 1.4381788776e+000
 1.0235274595e+000	 5.4923034116e-002	 1.4573297505e+000
 1.0229887976e+000	 6.4178813409e-002	 1.4799941039e+000
 1.0223641581e+000	 7.3461066429e-002	 1.5061820262e+000
 1.0216527463e+000	 8.2768749849e-002	 1.5358991753e+000
 1.0208537813e+000	 9.2100798875e-002	 1.5691466598e+000
 1.0500000000e+000	 0.0000000000e+000	 1.3998829678e+000
 1.0499588346e+000	 9.2976146348e-003	 1.4027853069e+000
 1.0498347426e+000	 1.8628293597e-002	 1.4081144462e+000
 1.0496268376e+000	 2.7991102121e-002	 1.4158881172e+000
 1.0493342440e+000	 3.7385082952e-002	 1.4261207638e+000
 1.0489560970e+000	 4.6809256382e-002	 1.4388234384e+000
 1.0484915439e+000	 5.6262620311e-002	 1.4540036985e+000
 1.0479397438e+000	 6.5744150319e-002	 1.4716655057e+000
 1.0472998693e+000	 7.5252799753e-002	 1.4918091256e+000
 1.0465711060e+000	 8.4787499842e-002	 1.5144310300e+000
 1.0457526541e+000	 9.4347159819e-002	 1.5395238013e+000
 1.0750000000e+000	 0.0000000000e+000	 1.4916228582e+000
 1.0749578545e+000	 9.5189864113e-003	 1.4954261986e+000
 1.0748308079e+000	 1.9071824396e-002	 1.5007292948e+000
 1.0746179528e+000	 2.8657556932e-002	 1.5075377378e+000
 1.0743183926e+000	 3.8275203973e-002	 1.5158543307e+000
 1.0739312422e+000	 4.7923762484e-002	 1.5256790075e+000
 1.0734556282e+000	 5.7602206507e-002	 1.5370087536e+000
 1.0728906901e+000	 6.7309487228e-002	 1.5498375276e+000
 1.0722355804e+000	 7.7044533077e-002	 1.5641561844e+000
 1.0714894657e+000	 8.6806249835e-002	 1.5799524016e+000
 1.0706515268e+000	 9.6593520764e-002	 1.5972106059e+000
 1.1000000000e+000	 0.0000000000e+000	 1.6637599246e+000
 1.0999568743e+000	 9.7403581879e-003	 1.6683599354e+000
 1.0998268732e+000	 1.9515355195e-002	 1.6735764643e+000
 1.0996090680e+000	 2.9324011743e-002	 1.6794034257e+000
 1.0993025413e+000	 3.9165324994e-002	 1.6858324292e+000
 1.0989063874e+000	 4.9038268587e-002	 1.6928527216e+000
 1.0984197126e+000	 5.8941792703e-002	 1.7004511294e+000
 1.0978416364e+000	 6.8874824138e-002	 1.7086120039e+000
 1.0971712916e+000	 7.8836266402e-002	 1.7173171672e+000
 1.0964078253e+000	 8.8824999828e-002	 1.7265458601e+000
 1.0955503995e+000	 9.8839881709e-002	 1.7362746925e+000
 1.1250000000e+000	 0.0000000000e+000	 1.9108832862e+000
 1.1249558942e+000	 9.9617299645e-003	 1.9161903413e+000
 1.1248229385e+000	 1.9958885994e-002	 1.9212715109e+000
 1.1246001831e+000	 2.9990466555e-002	 1.9261094585e+000
 1.1242866900e+000	 4.0055446015e-002	 1.9306850113e+000
 1.1238815325e+000	 5.0152774689e-002	 1.9349771238e+000
 1.1233837970e+000	 6.0281378898e-002	 1.9389628432e+000
 1.1227925827e+000	 7.0440161048e-002	 1.9426172759e+000
 1.1221070028e+000	 8.0627999727e-002	 1.9459135560e+000
 1.1213261850e+000	 9.0843749822e-002	 1.9488228152e+000
 1.1204492722e+000	 1.0108624265e-001	 1.9513141549e+000
 1.1500000000e+000	 0.0000000000e+000	 2.2280525737e+000
 1.1499549141e+000	 1.0183101741e-002	 2.2339907873e+000
 1.1498190038e+000	 2.0402416793e-002	 2.2388988311e+000
 1.1495912983e+000	 3.0656921366e-002	 2.2427485086e+000
 1.1492708386e+000	 4.0945567036e-002	 2.2455102416e+000
 1.1488566777e+000	 5.1267280792e-002	 2.2471530552e+000
 1.1483478814e+000	 6.1620965094e-002	 2.2476445645e+000
 1.1477435290e+000	 7.2005497959e-002	 2.2469509629e+000
 1.1470427139e+000	 8.2419733053e-002	 2.2450370121e+000
 1.1462445446e+000	 9.2862499816e-002	 2.2418660337e+000
 1.1453481449e+000	 1.0333260360e-001	 2.2373999022e+000
 1.1750000000e+000	 0.0000000000e+000	 2.6107478745e+000
 1.1749539340e+000	 1.0404473518e-002	 2.6172542401e+000
 1.1748150691e+000	 2.0845947592e-002	 2.6219617854e+000
 1.1745824135e+000	 3.1323376177e-002	 2.6248318137e+000
 1.1742549873e+000	 4.1835688057e-002	 2.6258246875e+000
 1.1738318229e+000	 5.2381786895e-002	 2.6248998349e+000
 1.1733119658e+000	 6.2960551291e-002	 2.6220157572e+000
 1.1726944752e+000	 7.3570834869e-002	 2.6171300384e+000
 1.1719784251e+000	 8.4211466378e-002	 2.6101993563e+000
 1.1711629043e+000	 9.4881249811e-002	 2.6011794949e+000
 1.1702470176e+000	 1.0557896455e-001	 2.5900253586e+000
 1.2000000000e+000	 0.0000000000e+000	 3.0548259355e+000
 1.1999529538e+000	 1.0625845294e-002	 3.0618495534e+000
 1.1998111344e+000	 2.1289478391e-002	 3.0663390561e+000
 1.1995735287e+000	 3.1989830989e-002	 3.0682455766e+000
 1.1992391360e+000	 4.2725809079e-002	 3.0675197358e+000
 1.1988069680e+000	 5.3496292997e-002	 3.0641116693e+000
 1.1982760501e+000	 6.4300137487e-002	 3.0579710561e+000
 1.1976454215e+000	 7.5136171780e-002	 3.0490471482e+000
 1.1969141363e+000	 8.6003199704e-002	 3.0372888028e+000
 1.1960812640e+000	 9.6899999806e-002	 3.0226445147e+000
 1.1951458903e+000	 1.0782532549e-001	 3.0050624519e+000
 1.2250000000e+000	 0.0000000000e+000	 3.5564817285e+000
 1.2249519737e+000	 1.0847217071e-002	 3.5639831126e+000
 1.2248071996e+000	 2.1733009191e-002	 3.5682463491e+000
 1.2245646439e+000	 3.2656285800e-002	 3.5692127033e+000
 1.2242232846e+000	 4.3615930100e-002	 3.5668233456e+000
 1.2237821132e+000	 5.4610799100e-002	 3.5610193982e+000
 1.2232401345e+000	 6.5639723683e-002	 3.5517419838e+000
 1.2225963678e+000	 7.6701508691e-002	 3.5389322761e+000
 1.2218498475e+000	 8.7794933031e-002	 3.5225315513e+000
 1.2209996236e+000	 9.8918749801e-002	 3.5024812417e+000
 1.2200447631e+000	 1.1007168644e-001	 3.4787229904e+000
 1.2500000000e+000	 0.0000000000e+000	 4.1122146272e+000
 1.2499509936e+000	 1.1068588847e-002	 4.1201650816e+000
 1.2498032649e+000	 2.2176539990e-002	 4.1242026916e+000
 1.2495557590e+000	 3.3322740611e-002	 4.1242591326e+000
 1.2492074333e+000	 4.4506051122e-002	 4.1202663911e+000
 1.2487572584e+000	 5.5725305204e-002	 4.1121568308e+000
 1.2482042189e+000	 6.6979309880e-002	 4.0998632617e+000
 1.2475473141e+000	 7.8266845602e-002	 4.0833190098e+000
 1.2467855586e+000	 8.9586666357e-002	 4.0624579889e+000
 1.2459179833e+000	 1.0093749980e-001	 4.0372147739e+000
 1.2449436358e+000	 1.1231804739e-001	 4.0075246749e+000
 9.9595490863e-001	 8.9854437932e-002	 1.6926083472e+000
 9.9508926501e-001	 9.8981587693e-002	 1.7378209124e+000
 9.9413672268e-001	 1.0813036885e-001	 1.7863763790e+000
 9.9309656377e-001	 1.1729968064e-001	 1.8383029511e+000
 9.9196808628e-001	 1.2648840201e-001	 1.8936248441e+000
 9.9075060469e-001	 1.3569539180e-001	 1.9523621615e+000
 9.8944345050e-001	 1.4491948905e-001	 2.0145307731e+000
 9.8804597288e-001	 1.5415951315e-001	 2.0801421957e+000
 9.8655753926e-001	 1.6341426419e-001	 2.1492034762e+000
 9.8497753588e-001	 1.7268252319e-001	 2.2217170779e+000
 9.8330536841e-001	 1.8196305243e-001	 2.2976807694e+000
 1.0208537813e+000	 9.2100798875e-002	 1.5691466598e+000
 1.0199664966e+000	 1.0145612738e-001	 1.6090509020e+000
 1.0189901407e+000	 1.1083362807e-001	 1.6513644689e+000
 1.0179239779e+000	 1.2023217266e-001	 1.6961049886e+000
 1.0167672884e+000	 1.2965061205e-001	 1.7432866636e+000
 1.0155193698e+000	 1.3908777659e-001	 1.7929201695e+000
 1.0141795368e+000	 1.4854247627e-001	 1.8450125563e+000
 1.0127471222e+000	 1.5801350098e-001	 1.8995671502e+000
 1.0112214777e+000	 1.6749962079e-001	 1.9565834598e+000
 1.0096019743e+000	 1.7699958627e-001	 2.0160570827e+000
 1.0078880026e+000	 1.8651212874e-001	 2.0779796168e+000
 1.0457526541e+000	 9.4347159819e-002	 1.5395238013e+000
 1.0448437283e+000	 1.0393066707e-001	 1.5739412837e+000
 1.0438435588e+000	 1.1353688729e-001	 1.6098791512e+000
 1.0427513919e+000	 1.2316466467e-001	 1.6473449162e+000
 1.0415664906e+000	 1.3281282210e-001	 1.6863432105e+000
 1.0402881349e+000	 1.4248016138e-001	 1.7268757064e+000
 1.0389156230e+000	 1.5216546349e-001	 1.7689410385e+000
 1.0374482715e+000	 1.6186748880e-001	 1.8125347282e+000
 1.0358854162e+000	 1.7158497739e-001	 1.8576491102e+000
 1.0342264127e+000	 1.8131664935e-001	 1.9042732608e+000
 1.0324706368e+000	 1.9106120505e-001	 1.9523929295e+000
 1.0706515268e+000	 9.6593520764e-002	 1.5972106059e+000
 1.0697209599e+000	 1.0640520676e-001	 1.6259819426e+000
 1.0686969769e+000	 1.1624014650e-001	 1.6554261267e+000
 1.0675788060e+000	 1.2609715668e-001	 1.6855409761e+000
 1.0663656927e+000	 1.3597503214e-001	 1.7163219572e+000
 1.0650569000e+000	 1.4587254618e-001	 1.7477621261e+000
 1.0636517093e+000	 1.5578845071e-001	 1.7798520725e+000
 1.0621494208e+000	 1.6572147663e-001	 1.8125798648e+000
 1.0605493547e+000	 1.7567033400e-001	 1.8459309966e+000
 1.0588508511e+000	 1.8563371242e-001	 1.8798883368e+000
 1.0570532710e+000	 1.9561028136e-001	 1.9144320799e+000
 1.0955503995e+000	 9.8839881709e-002	 1.7362746925e+000
 1.0945981915e+000	 1.0887974645e-001	 1.7592581274e+000
 1.0935503949e+000	 1.1894340572e-001	 1.7821053296e+000
 1.0924062201e+000	 1.2902964869e-001	 1.8048048087e+000
 1.0911648949e+000	 1.3913724219e-001	 1.8273432355e+000
 1.0898256651e+000	 1.4926493097e-001	 1.8497054050e+000
 1.0883877955e+000	 1.5941143794e-001	 1.8718742000e+000
 1.0868505702e+000	 1.6957546445e-001	 1.8938305567e+000
 1.0852132932e+000	 1.7975569060e-001	 1.9155534321e+000
 1.0834752895e+000	 1.8995077550e-001	 1.9370197725e+000
 1.0816359052e+000	 2.0015935767e-001	 1.9582044852e+000
 1.1204492722e+000	 1.0108624265e-001	 1.9513141549e+000
 1.1194754231e+000	 1.1135428614e-001	 1.9683842985e+000
 1.1184038130e+000	 1.2164666494e-001	 1.9845449018e+000
 1.1172336342e+000	 1.3196214071e-001	 1.9997755187e+000
 1.1159640970e+000	 1.4229945224e-001	 2.0140543640e+000
 1.1145944303e+000	 1.5265731576e-001	 2.0273582952e+000
 1.1131238818e+000	 1.6303442516e-001	 2.0396627971e+000
 1.1115517195e+000	 1.7342945228e-001	 2.0509419670e+000
 1.1098772317e+000	 1.8384104720e-001	 2.0611685015e+000
 1.1080997279e+000	 1.9426783858e-001	 2.0703136852e+000
 1.1062185395e+000	 2.0470843398e-001	 2.0783473805e+000
 1.1453481449e+000	 1.0333260360e-001	 2.2373999022e+000
 1.1443526547e+000	 1.1382882583e-001	 2.2484466056e+000
 1.1432572311e+000	 1.2434992416e-001	 2.2578437785e+000
 1.1420610483e+000	 1.3489463272e-001	 2.2655623428e+000
 1.1407632992e+000	 1.4546166229e-001	 2.2715723666e+000
 1.1393631954e+000	 1.5604970055e-001	 2.2758430661e+000
 1.1378599681e+000	 1.6665741239e-001	 2.2783428100e+000
 1.1362528688e+000	 1.7728344011e-001	 2.2790391236e+000
 1.1345411701e+000	 1.8792640381e-001	 2.2778986954e+000
 1.1327241663e+000	 1.9858490166e-001	 2.2748873847e+000
 1.1308011737e+000	 2.0925751029e-001	 2.2699702299e+000
 1.1702470176e+000	 1.0557896455e-001	 2.5900253586e+000
 1.1692298864e+000	 1.1630336552e-001	 2.5949527073e+000
 1.1681106491e+000	 1.2705318338e-001	 2.5975216044e+000
 1.1668884624e+000	 1.3782712473e-001	 2.5976946352e+000
 1.1655625014e+000	 1.4862387233e-001	 2.5954340038e+000
 1.1641319605e+000	 1.5944208535e-001	 2.5907015558e+000
 1.1625960543e+000	 1.7028039961e-001	 2.5834588003e+000
 1.1609540181e+000	 1.8113742794e-001	 2.5736669342e+000
 1.1592051086e+000	 1.9201176041e-001	 2.5612868670e+000
 1.1573486046e+000	 2.0290196474e-001	 2.5462792472e+000
 1.1553838079e+000	 2.1380658660e-001	 2.5286044892e+000
 1.1951458903e+000	 1.0782532549e-001	 3.0050624519e+000
 1.1941071180e+000	 1.1877790521e-001	 3.0037878645e+000
 1.1929640672e+000	 1.2975644260e-001	 2.9994749095e+000
 1.1917158765e+000	 1.4075961675e-001	 2.9920781052e+000
 1.1903617035e+000	 1.5178608238e-001	 2.9815520506e+000
 1.1889007256e+000	 1.6283447014e-001	 2.9678514662e+000
 1.1873321406e+000	 1.7390338684e-001	 2.9509312358e+000
 1.1856551674e+000	 1.8499141576e-001	 2.9307464488e+000
 1.1838690471e+000	 1.9609711701e-001	 2.9072524439e+000
 1.1819730430e+000	 2.0721902781e-001	 2.8804048535e+000
 1.1799664421e+000	 2.1835566291e-001	 2.8501596487e+000
 1.2200447631e+000	 1.1007168644e-001	 3.4787229904e+000
 1.2189843496e+000	 1.2125244490e-001	 3.4711764092e+000
 1.2178174853e+000	 1.3245970182e-001	 3.4599386514e+000
 1.2165432906e+000	 1.4369210877e-001	 3.4449564142e+000
 1.2151609057e+000	 1.5494829243e-001	 3.4261769268e+000
 1.2136694907e+000	 1.6622685494e-001	 3.4035480091e+000
 1.2120682268e+000	 1.7752637406e-001	 3.3770181318e+000
 1.2103563168e+000	 1.8884540359e-001	 3.3465364776e+000
 1.2085329856e+000	 2.0018247362e-001	 3.3120530026e+000
 1.2065974814e+000	 2.1153609089e-001	 3.2735184991e+000
 1.2045490763e+000	 2.2290473922e-001	 3.2308846580e+000
 1.2449436358e+000	 1.1231804739e-001	 4.0075246749e+000
 1.2438615812e+000	 1.2372698459e-001	 3.9936478377e+000
 1.2426709033e+000	 1.3516296104e-001	 3.9754523724e+000
 1.2413707047e+000	 1.4662460078e-001	 3.9528773801e+000
 1.2399601078e+000	 1.5811050249e-001	 3.9258629336e+000
 1.2384382558e+000	 1.6961923973e-001	 3.8943501558e+000
 1.2368043131e+000	 1.8114936129e-001	 3.8582812971e+000
 1.2350574661e+000	 1.9269939142e-001	 3.8175998150e+000
 1.2331969241e+000	 2.0426783022e-001	 3.7722504534e+000
 1.2312219198e+000	 2.1585315397e-001	 3.7221793227e+000
 1.2291317105e+000	 2.2745381553e-001	 3.6673339800e+000
 9.8330536841e-001	 1.8196305243e-001	 2.2976807694e+000
 9.8154046252e-001	 1.9125459577e-001	 2.3788691303e+000
 9.7968226449e-001	 2.0055587900e-001	 2.4618924637e+000
 9.7773024174e-001	 2.0986561017e-001	 2.5467732548e+000
 9.7568388343e-001	 2.1918248004e-001	 2.6335309968e+000
 9.7354270101e-001	 2.2850516241e-001	 2.7221820981e+000
 9.7130622879e-001	 2.3783231458e-001	 2.8127397922e+000
 9.6897402446e-001	 2.4716257779e-001	 2.9052140488e+000
 9.6654566967e-001	 2.5649457767e-001	 2.9996114881e+000
 9.6402077054e-001	 2.6582692472e-001	 3.0959352966e+000
 9.6139895816e-001	 2.7515821483e-001	 3.1941851462e+000
 1.0078880026e+000	 1.8651212874e-001	 2.0779796168e+000
 1.0060789741e+000	 1.9603596067e-001	 2.1487243428e+000
 1.0041743211e+000	 2.0556977597e-001	 2.2205111232e+000
 1.0021734978e+000	 2.1511225043e-001	 2.2933547737e+000
 1.0000759805e+000	 2.2466204205e-001	 2.3672676696e+000
 9.9788126854e-001	 2.3421779148e-001	 2.4422596718e+000
 9.9558888451e-001	 2.4377812245e-001	 2.5183380545e+000
 9.9319837507e-001	 2.5334164224e-001	 2.5955074354e+000
 9.9070931141e-001	 2.6290694212e-001	 2.6737697063e+000
 9.8812128980e-001	 2.7247259785e-001	 2.7531239673e+000
 9.8543393212e-001	 2.8203717021e-001	 2.8335664621e+000
 1.0324706368e+000	 1.9106120505e-001	 1.9523929295e+000
 1.0306174856e+000	 2.0081732556e-001	 2.0124525228e+000
 1.0286663777e+000	 2.1058367295e-001	 2.0727982632e+000
 1.0266167538e+000	 2.2035889069e-001	 2.1334376790e+000
 1.0244680776e+000	 2.3014160405e-001	 2.1943763938e+000
 1.0222198361e+000	 2.3993042054e-001	 2.2556180711e+000
 1.0198715402e+000	 2.4972393032e-001	 2.3171643598e+000
 1.0174227257e+000	 2.5952070669e-001	 2.3790148415e+000
 1.0148729532e+000	 2.6931930657e-001	 2.4411669791e+000
 1.0122218091e+000	 2.7911827098e-001	 2.5036160665e+000
 1.0094689061e+000	 2.8891612559e-001	 2.5663551817e+000
 1.0570532710e+000	 1.9561028136e-001	 1.9144320799e+000
 1.0551559972e+000	 2.0559869045e-001	 1.9635869840e+000
 1.0531584343e+000	 2.1559756992e-001	 2.0123063709e+000
 1.0510600099e+000	 2.2560553094e-001	 2.0605908305e+000
 1.0488601747e+000	 2.3562116605e-001	 2.1084395699e+000
 1.0465584036e+000	 2.4564304960e-001	 2.1558503752e+000
 1.0441541959e+000	 2.5566973819e-001	 2.2028195749e+000
 1.0416470763e+000	 2.6569977114e-001	 2.2493420036e+000
 1.0390365949e+000	 2.7573167102e-001	 2.2954109680e+000
 1.0363223283e+000	 2.8576394410e-001	 2.3410182125e+000
 1.0335038800e+000	 2.9579508097e-001	 2.3861538882e+000
 1.0816359052e+000	 2.0015935767e-001	 1.9582044852e+000
 1.0796945088e+000	 2.1038005535e-001	 1.9962553614e+000
 1.0776504909e+000	 2.2061146690e-001	 2.0331807770e+000
 1.0755032659e+000	 2.3085217120e-001	 2.0689747035e+000
 1.0732522718e+000	 2.4110072806e-001	 2.1036302373e+000
 1.0708969711e+000	 2.5135567866e-001	 2.1371395800e+000
 1.0684368517e+000	 2.6161554606e-001	 2.1694940180e+000
 1.0658714269e+000	 2.7187883559e-001	 2.2006839032e+000
 1.0632002366e+000	 2.8214403546e-001	 2.2306986349e+000
 1.0604228476e+000	 2.9240961722e-001	 2.2595266422e+000
 1.0575388540e+000	 3.0267403634e-001	 2.2871553672e+000
 1.1062185395e+000	 2.0470843398e-001	 2.0783473805e+000
 1.1042330203e+000	 2.1516142024e-001	 2.1051135752e+000
 1.1021425476e+000	 2.2562536387e-001	 2.1300937846e+000
 1.0999465220e+000	 2.3609881145e-001	 2.1532756534e+000
 1.0976443689e+000	 2.4658029006e-001	 2.1746464478e+000
 1.0952355386e+000	 2.5706830773e-001	 2.1941930519e+000
 1.0927195074e+000	 2.6756135392e-001	 2.2119019644e+000
 1.0900957775e+000	 2.7805790004e-001	 2.2277592954e+000
 1.0873638784e+000	 2.8855639991e-001	 2.2417507644e+000
 1.0845233669e+000	 2.9905529035e-001	 2.2538616980e+000
 1.0815738279e+000	 3.0955299172e-001	 2.2640770283e+000
 1.1308011737e+000	 2.0925751029e-001	 2.2699702299e+000
 1.1287715319e+000	 2.1994278513e-001	 2.2852884089e+000
 1.1266346042e+000	 2.3063926085e-001	 2.2981873891e+000
 1.1243897780e+000	 2.4134545170e-001	 2.3086487553e+000
 1.1220364660e+000	 2.5205985206e-001	 2.3166541990e+000
 1.1195741062e+000	 2.6278093679e-001	 2.3221855310e+000
 1.1170021631e+000	 2.7350716179e-001	 2.3252246943e+000
 1.1143201281e+000	 2.8423696448e-001	 2.3257537771e+000
 1.1115275201e+000	 2.9496876435e-001	 2.3237550261e+000
 1.1086238861e+000	 3.0570096347e-001	 2.3192108597e+000
 1.1056088019e+000	 3.1643194709e-001	 2.3121038808e+000
 1.1553838079e+000	 2.1380658660e-001	 2.5286044892e+000
 1.1533100435e+000	 2.2472415003e-001	 2.5323274172e+000
 1.1511266608e+000	 2.3565315782e-001	 2.5330233110e+000
 1.1488330341e+000	 2.4659209196e-001	 2.5306679395e+000
 1.1464285630e+000	 2.5753941406e-001	 2.5252376527e+000
 1.1439126737e+000	 2.6849356585e-001	 2.5167094104e+000
 1.1412848188e+000	 2.7945296965e-001	 2.5050608117e+000
 1.1385444787e+000	 2.9041602893e-001	 2.4902701229e+000
 1.1356911619e+000	 3.0138112879e-001	 2.4723163064e+000
 1.1327244054e+000	 3.1234663659e-001	 2.4511790490e+000
 1.1296437758e+000	 3.2331090246e-001	 2.4268387893e+000
 1.1799664421e+000	 2.1835566291e-001	 2.8501596487e+000
 1.1778485550e+000	 2.2950551492e-001	 2.8421550958e+000
 1.1756187174e+000	 2.4066705479e-001	 2.8305392751e+000
 1.1732762901e+000	 2.5183873221e-001	 2.8152823616e+000
 1.1708206601e+000	 2.6301897606e-001	 2.7963555763e+000
 1.1682512412e+000	 2.7420619490e-001	 2.7737312310e+000
 1.1655674746e+000	 2.8539877752e-001	 2.7473827729e+000
 1.1627688294e+000	 2.9659509337e-001	 2.7172848288e+000
 1.1598548036e+000	 3.0779349323e-001	 2.6834132482e+000
 1.1568249247e+000	 3.1899230970e-001	 2.6457451465e+000
 1.1536787498e+000	 3.3018985783e-001	 2.6042589467e+000
 1.2045490763e+000	 2.2290473922e-001	 3.2308846580e+000
 1.2023870666e+000	 2.3428687981e-001	 3.2110344179e+000
 1.2001107740e+000	 2.4568095177e-001	 3.1870106420e+000
 1.1977195461e+000	 2.5708537246e-001	 3.1587781134e+000
 1.1952127572e+000	 2.6849853806e-001	 3.1263031177e+000
 1.1925898088e+000	 2.7991882396e-001	 3.0895535026e+000
 1.1898501303e+000	 2.9134458538e-001	 3.0484987387e+000
 1.1869931800e+000	 3.0277415782e-001	 3.0031099780e+000
 1.1840184454e+000	 3.1420585767e-001	 2.9533601125e+000
 1.1809254439e+000	 3.2563798282e-001	 2.8992238316e+000
 1.1777137238e+000	 3.3706881320e-001	 2.8406776778e+000
 1.2291317105e+000	 2.2745381553e-001	 3.6673339800e+000
 1.2269255782e+000	 2.3906824470e-001	 3.6355329866e+000
 1.2246028306e+000	 2.5069484874e-001	 3.5990166448e+000
 1.2221628022e+000	 2.6233201271e-001	 3.5577445299e+000
 1.2196048543e+000	 2.7397810005e-001	 3.5116781671e+000
 1.2169283763e+000	 2.8563145302e-001	 3.4607811076e+000
 1.2141327860e+000	 2.9729039324e-001	 3.4050190033e+000
 1.2112175306e+000	 3.0895322226e-001	 3.3443596814e+000
 1.2081820871e+000	 3.2061822211e-001	 3.2787732168e+000
 1.2050259632e+000	 3.3228365593e-001	 3.2082320038e+000
 1.2017486977e+000	 3.4394776857e-001	 3.1327108260e+000
 9.6139895816e-001	 2.7515821483e-001	 3.1941851462e+000
 9.5867988915e-001	 2.8448702975e-001	 3.2971519667e+000
 9.5586324609e-001	 2.9381193769e-001	 3.3991818015e+000
 9.5294873809e-001	 3.0313149381e-001	 3.5003087085e+000
 9.4993610118e-001	 3.1244424085e-001	 3.6005662186e+000
 9.4682509884e-001	 3.2174870969e-001	 3.6999872737e+000
 9.4361552239e-001	 3.3104341994e-001	 3.7986041662e+000
 9.4030719147e-001	 3.4032688062e-001	 3.8964484766e+000
 9.3689995439e-001	 3.4959759075e-001	 3.9935510117e+000
 9.3339368862e-001	 3.5885404004e-001	 4.0899417425e+000
 9.2978830108e-001	 3.6809470955e-001	 4.1856497423e+000
 9.8543393212e-001	 2.8203717021e-001	 2.8335664621e+000
 9.8264688638e-001	 2.9159920551e-001	 2.9233489997e+000
 9.7975982724e-001	 3.0115723614e-001	 3.0117829499e+000
 9.7677245654e-001	 3.1070978117e-001	 3.0988971306e+000
 9.7368450371e-001	 3.2025534689e-001	 3.1847201542e+000
 9.7049572631e-001	 3.2979242744e-001	 3.2692803785e+000
 9.6720591045e-001	 3.3931950545e-001	 3.3526058567e+000
 9.6381487125e-001	 3.4883505265e-001	 3.4347242865e+000
 9.6032245325e-001	 3.5833753053e-001	 3.5156629598e+000
 9.5672853083e-001	 3.6782539105e-001	 3.5954487108e+000
 9.5303300860e-001	 3.7729707730e-001	 3.6741078646e+000
 1.0094689061e+000	 2.8891612559e-001	 2.5663551817e+000
 1.0066138836e+000	 2.9871138126e-001	 2.6424749962e+000
 1.0036564084e+000	 3.0850253459e-001	 2.7168531989e+000
 1.0005961750e+000	 3.1828806852e-001	 2.7895136948e+000
 9.9743290624e-001	 3.2806645292e-001	 2.8604804993e+000
 9.9416635378e-001	 3.3783614519e-001	 2.9297777005e+000
 9.9079629851e-001	 3.4759559096e-001	 2.9974294203e+000
 9.8732255103e-001	 3.5734322467e-001	 3.0634597751e+000
 9.8374495210e-001	 3.6707747030e-001	 3.1278928352e+000
 9.8006337304e-001	 3.7679674206e-001	 3.1907525842e+000
 9.7627771612e-001	 3.8649944504e-001	 3.2520628771e+000
 1.0335038800e+000	 2.9579508097e-001	 2.3861538882e+000
 1.0305808808e+000	 3.0582355701e-001	 2.4481689049e+000
 1.0275529895e+000	 3.1584783304e-001	 2.5080663294e+000
 1.0244198934e+000	 3.2586635588e-001	 2.5658654538e+000
 1.0211813088e+000	 3.3587755895e-001	 2.6215859917e+000
 1.0178369812e+000	 3.4587986295e-001	 2.6752480508e+000
 1.0143866866e+000	 3.5587167647e-001	 2.7268721053e+000
 1.0108302308e+000	 3.6585139669e-001	 2.7764789670e+000
 1.0071674510e+000	 3.7581741008e-001	 2.8240897557e+000
 1.0033982153e+000	 3.8576809306e-001	 2.8697258679e+000
 9.9952242364e-001	 3.9570181278e-001	 2.9134089452e+000
 1.0575388540e+000	 3.0267403634e-001	 2.2871553672e+000
 1.0545478781e+000	 3.1293573276e-001	 2.3346567807e+000
 1.0514495707e+000	 3.2319313149e-001	 2.3796802641e+000
 1.0482436119e+000	 3.3344464323e-001	 2.4222407728e+000
 1.0449297113e+000	 3.4368866498e-001	 2.4623539894e+000
 1.0415076087e+000	 3.5392358070e-001	 2.5000363072e+000
 1.0379770746e+000	 3.6414776197e-001	 2.5353048137e+000
 1.0343379106e+000	 3.7435956871e-001	 2.5681772713e+000
 1.0305899498e+000	 3.8455734985e-001	 2.5986720987e+000
 1.0267330575e+000	 3.9473944407e-001	 2.6268083489e+000
 1.0227671312e+000	 4.0490418052e-001	 2.6526056871e+000
 1.0815738279e+000	 3.0955299172e-001	 2.2640770283e+000
 1.0785148753e+000	 3.2004790851e-001	 2.2966865503e+000
 1.0753461519e+000	 3.3053842994e-001	 2.3264721633e+000
 1.0720673303e+000	 3.4102293058e-001	 2.3534447394e+000
 1.0686781138e+000	 3.5149977101e-001	 2.3776161792e+000
 1.0651782362e+000	 3.6196729844e-001	 2.3989994065e+000
 1.0615674627e+000	 3.7242384748e-001	 2.4176083618e+000
 1.0578455904e+000	 3.8286774073e-001	 2.4334579940e+000
 1.0540124487e+000	 3.9329728963e-001	 2.4465642503e+000
 1.0500678997e+000	 4.0371079507e-001	 2.4569440649e+000
 1.0460118387e+000	 4.1410654826e-001	 2.4646153464e+000
 1.1056088019e+000	 3.1643194709e-001	 2.3121038808e+000
 1.1024818725e+000	 3.2716008426e-001	 2.3294712871e+000
 1.0992427330e+000	 3.3788372839e-001	 2.3436819857e+000
 1.0958910488e+000	 3.4860121793e-001	 2.3547429979e+000
 1.0924265164e+000	 3.5931087703e-001	 2.3626626714e+000
 1.0888488637e+000	 3.7001101619e-001	 2.3674506856e+000
 1.0851578507e+000	 3.8069993298e-001	 2.3691180552e+000
 1.0813532702e+000	 3.9137591275e-001	 2.3676771318e+000
 1.0774349475e+000	 4.0203722940e-001	 2.3631416039e+000
 1.0734027419e+000	 4.1268214607e-001	 2.3555264947e+000
 1.0692565462e+000	 4.2330891600e-001	 2.3448481583e+000
 1.1296437758e+000	 3.2331090246e-001	 2.4268387893e+000
 1.1264488698e+000	 3.3427226000e-001	 2.4286397277e+000
 1.1231393142e+000	 3.4522902683e-001	 2.4269632547e+000
 1.1197147673e+000	 3.5617950528e-001	 2.4218127543e+000
 1.1161749189e+000	 3.6712198306e-001	 2.4131932316e+000
 1.1125194911e+000	 3.7805473393e-001	 2.4011113288e+000
 1.1087482388e+000	 3.8897601848e-001	 2.3855753381e+000
 1.1048609500e+000	 3.9988408477e-001	 2.3665952138e+000
 1.1008574464e+000	 4.1077716917e-001	 2.3441825813e+000
 1.0967375841e+000	 4.2165349708e-001	 2.3183507446e+000
 1.0925012537e+000	 4.3251128374e-001	 2.2891146911e+000
 1.1536787498e+000	 3.3018985783e-001	 2.6042589467e+000
 1.1504158670e+000	 3.4138443575e-001	 2.5901929732e+000
 1.1470358953e+000	 3.5257432527e-001	 2.5723399784e+000
 1.1435384857e+000	 3.6375779263e-001	 2.5506999048e+000
 1.1399233214e+000	 3.7493308908e-001	 2.5252746082e+000
 1.1361901186e+000	 3.8609845168e-001	 2.4960678834e+000
 1.1323386269e+000	 3.9725210398e-001	 2.4630854879e+000
 1.1283686297e+000	 4.0839225679e-001	 2.4263351624e+000
 1.1242799453e+000	 4.1951710894e-001	 2.3858266501e+000
 1.1200724263e+000	 4.3062484808e-001	 2.3415717130e+000
 1.1157459613e+000	 4.4171365148e-001	 2.2935841451e+000
 1.1777137238e+000	 3.3706881320e-001	 2.8406776778e+000
 1.1743828642e+000	 3.4849661149e-001	 2.8104664933e+000
 1.1709324765e+000	 3.5991962372e-001	 2.7761688455e+000
 1.1673622042e+000	 3.7133607997e-001	 2.7377814148e+000
 1.1636717239e+000	 3.8274419510e-001	 2.6953030848e+000
 1.1598607461e+000	 3.9414216942e-001	 2.6487349780e+000
 1.1559290149e+000	 4.0552818948e-001	 2.5980804890e+000
 1.1518763095e+000	 4.1690042880e-001	 2.5433453146e+000
 1.1477024441e+000	 4.2825704871e-001	 2.4845374826e+000
 1.1434072685e+000	 4.3959619908e-001	 2.4216673763e+000
 1.1389906688e+000	 4.5091601922e-001	 2.3547477570e+000
 1.2017486977e+000	 3.4394776857e-001	 3.1327108260e+000
 1.1983498614e+000	 3.5560878723e-001	 3.0860966893e+000
 1.1948290576e+000	 3.6726492216e-001	 3.0351059570e+000
 1.1911859226e+000	 3.7891436731e-001	 2.9797322116e+000
 1.1874201265e+000	 3.9055530112e-001	 2.9199715272e+000
 1.1835313736e+000	 4.0218588716e-001	 2.8558225141e+000
 1.1795194030e+000	 4.1380427497e-001	 2.7872863621e+000
 1.1753839893e+000	 4.2540860082e-001	 2.7143668806e+000
 1.1711249430e+000	 4.3699698847e-001	 2.6370705350e+000
 1.1667421108e+000	 4.4856755008e-001	 2.5554064814e+000
 1.1622353763e+000	 4.6011838696e-001	 2.4693865970e+000
 9.2978830108e-001	 3.6809470955e-001	 4.1856497423e+000
 9.2608372854e-001	 3.7731807239e-001	 4.2864391013e+000
 9.2227993800e-001	 3.8652259441e-001	 4.3834599765e+000
 9.1837692696e-001	 3.9570673493e-001	 4.4767675137e+000
 9.1437472374e-001	 4.0486894748e-001	 4.5664190058e+000
 9.1027338778e-001	 4.1400768054e-001	 4.6524738419e+000
 9.0607300991e-001	 4.2312137829e-001	 4.7349934524e+000
 9.0177371256e-001	 4.3220848139e-001	 4.8140412511e+000
 8.9737565002e-001	 4.4126742776e-001	 4.8896825733e+000
 8.9287900861e-001	 4.5029665337e-001	 4.9619846109e+000
 8.8828400685e-001	 4.5929459305e-001	 5.0310163443e+000
 9.5303300860e-001	 3.7729707730e-001	 3.6741078646e+000
 9.4923582175e-001	 3.8675102420e-001	 3.7613580706e+000
 9.4533693645e-001	 3.9618565927e-001	 3.8448040753e+000
 9.4133635013e-001	 4.0559940330e-001	 3.9245010607e+000
 9.3723409182e-001	 4.1499067117e-001	 4.0005064670e+000
 9.3303022247e-001	 4.2435787255e-001	 4.0728799445e+000
 9.2872483515e-001	 4.3369941274e-001	 4.1416833021e+000
 9.2431805537e-001	 4.4301369342e-001	 4.2069804513e+000
 9.1981004127e-001	 4.5229911345e-001	 4.2688373474e+000
 9.1520098382e-001	 4.6155406970e-001	 4.3273219267e+000
 9.1049110702e-001	 4.7077695788e-001	 4.3825040403e+000
 9.7627771612e-001	 3.8649944504e-001	 3.2520628771e+000
 9.7238791496e-001	 3.9618397601e-001	 3.3254016703e+000
 9.6839393489e-001	 4.0584872413e-001	 3.3949026508e+000
 9.6429577330e-001	 4.1549207167e-001	 3.4606212239e+000
 9.6009345991e-001	 4.2511239485e-001	 3.5226151671e+000
 9.5578705716e-001	 4.3470806456e-001	 3.5809445840e+000
 9.5137666039e-001	 4.4427744720e-001	 3.6356718555e+000
 9.4686239818e-001	 4.5381890545e-001	 3.6868615871e+000
 9.4224443251e-001	 4.6333079914e-001	 3.7345805514e+000
 9.3752295903e-001	 4.7281148603e-001	 3.7788976284e+000
 9.3269820719e-001	 4.8225932270e-001	 3.8198837408e+000
 9.9952242364e-001	 3.9570181278e-001	 2.9134089452e+000
 9.9554000817e-001	 4.0561692782e-001	 2.9724905032e+000
 9.9145093334e-001	 4.1551178899e-001	 3.0277023313e+000
 9.8725519647e-001	 4.2538474004e-001	 3.0791002320e+000
 9.8295282800e-001	 4.3523411854e-001	 3.1267424956e+000
 9.7854389185e-001	 4.4505825657e-001	 3.1706898573e+000
 9.7402848564e-001	 4.5485548165e-001	 3.2110054508e+000
 9.6940674099e-001	 4.6462411748e-001	 3.2477547576e+000
 9.6467882376e-001	 4.7436248483e-001	 3.2810055526e+000
 9.5984493424e-001	 4.8406890236e-001	 3.3108278458e+000
 9.5490530736e-001	 4.9374168753e-001	 3.3372938195e+000
 1.0227671312e+000	 4.0490418052e-001	 2.6526056871e+000
 1.0186921014e+000	 4.1504987963e-001	 2.6971083532e+000
 1.0145079318e+000	 4.2517485385e-001	 2.7377106842e+000
 1.0102146196e+000	 4.3527740842e-001	 2.7744690401e+000
 1.0058121961e+000	 4.4535584222e-001	 2.8074423875e+000
 1.0013007265e+000	 4.5540844858e-001	 2.8366922586e+000
 9.9668031088e-001	 4.6543351611e-001	 2.8622827079e+000
 9.9195108380e-001	 4.7542932951e-001	 2.8842802638e+000
 9.8711321501e-001	 4.8539417052e-001	 2.9027538759e+000
 9.8216690946e-001	 4.9532631870e-001	 2.9177748588e+000
 9.7711240753e-001	 5.0522405235e-001	 2.9294168314e+000
 1.0460118387e+000	 4.1410654826e-001	 2.4646153464e+000
 1.0418441946e+000	 4.2448283144e-001	 2.4942396105e+000
 1.0375649302e+000	 4.3483791871e-001	 2.5199338894e+000
 1.0331740428e+000	 4.4517007679e-001	 2.5417552496e+000
 1.0286715642e+000	 4.5547756591e-001	 2.5597634849e+000
 1.0240575612e+000	 4.6575864059e-001	 2.5740210791e+000
 1.0193321361e+000	 4.7601155056e-001	 2.5845931643e+000
 1.0144954266e+000	 4.8623454155e-001	 2.5915474750e+000
 1.0095476063e+000	 4.9642585621e-001	 2.5949542972e+000
 1.0044888847e+000	 5.0658373503e-001	 2.5948864145e+000
 9.9931950770e-001	 5.1670641718e-001	 2.5914190484e+000
 1.0692565462e+000	 4.2330891600e-001	 2.3448481583e+000
 1.0649962878e+000	 4.3391578325e-001	 2.3593148573e+000
 1.0606219287e+000	 4.4450098357e-001	 2.3698225425e+000
 1.0561334660e+000	 4.5506274516e-001	 2.3764291242e+000
 1.0515309323e+000	 4.6559928959e-001	 2.3791953645e+000
 1.0468143959e+000	 4.7610883261e-001	 2.3781848424e+000
 1.0419839614e+000	 4.8658958502e-001	 2.3734639141e+000
 1.0370397694e+000	 4.9703975358e-001	 2.3651016689e+000
 1.0319819975e+000	 5.0745754190e-001	 2.3531698816e+000
 1.0268108599e+000	 5.1784115136e-001	 2.3377429587e+000
 1.0215266079e+000	 5.2818878200e-001	 2.3188978814e+000
 1.0925012537e+000	 4.3251128374e-001	 2.2891146911e+000
 1.0881483810e+000	 4.4334873506e-001	 2.2881634009e+000
 1.0836789271e+000	 4.5416404842e-001	 2.2832243760e+000
 1.0790928892e+000	 4.6495541353e-001	 2.2743564986e+000
 1.0743903004e+000	 4.7572101328e-001	 2.2616216299e+000
 1.0695712306e+000	 4.8645902462e-001	 2.2450845778e+000
 1.0646357866e+000	 4.9716761947e-001	 2.2248130593e+000
 1.0595841122e+000	 5.0784496561e-001	 2.2008776589e+000
 1.0544163888e+000	 5.1848922760e-001	 2.1733517822e+000
 1.0491328351e+000	 5.2909856769e-001	 2.1423116044e+000
 1.0437337080e+000	 5.3967114683e-001	 2.1078360142e+000
 1.1157459613e+000	 4.4171365148e-001	 2.2935841451e+000
 1.1113004742e+000	 4.5278168687e-001	 2.2769717396e+000
 1.1067359256e+000	 4.6382711328e-001	 2.2563428915e+000
 1.1020523123e+000	 4.7484808190e-001	 2.2317575732e+000
 1.0972496685e+000	 4.8584273696e-001	 2.2032788668e+000
 1.0923280653e+000	 4.9680921663e-001	 2.1709729338e+000
 1.0872876119e+000	 5.0774565393e-001	 2.1349089803e+000
 1.0821284551e+000	 5.1865017764e-001	 2.0951592170e+000
 1.0768507800e+000	 5.2952091329e-001	 2.0517988146e+000
 1.0714548103e+000	 5.4035598403e-001	 2.0049058538e+000
 1.0659408082e+000	 5.5115351165e-001	 1.9545612710e+000
 1.1389906688e+000	 4.5091601922e-001	 2.3547477570e+000
 1.1344525674e+000	 4.6221463868e-001	 2.3222471147e+000
 1.1297929240e+000	 4.7349017814e-001	 2.2857010562e+000
 1.1250117355e+000	 4.8474075028e-001	 2.2451707541e+000
 1.1201090366e+000	 4.9596446065e-001	 2.2007206244e+000
 1.1150849000e+000	 5.0715940864e-001	 2.1524182990e+000
 1.1099394371e+000	 5.1832368838e-001	 2.1003345928e+000
 1.1046727979e+000	 5.2945538968e-001	 2.0445434659e+000
 1.0992851713e+000	 5.4055259898e-001	 1.9851219804e+000
 1.0937767855e+000	 5.5161340036e-001	 1.9221502524e+000
 1.0881479084e+000	 5.6263587648e-001	 1.8557113984e+000
 1.1622353763e+000	 4.6011838696e-001	 2.4693865970e+000
 1.1576046607e+000	 4.7164759049e-001	 2.4207854363e+000
 1.1528499225e+000	 4.8315324300e-001	 2.3681093568e+000
 1.1479711587e+000	 4.9463341865e-001	 2.3114208327e+000
 1.1429684047e+000	 5.0608618433e-001	 2.2507857193e+000
 1.1378417347e+000	 5.1750960065e-001	 2.1862732279e+000
 1.1325912624e+000	 5.2890172284e-001	 2.1179558944e+000
 1.1272171407e+000	 5.4026060171e-001	 2.0459095441e+000
 1.1217195625e+000	 5.5158428467e-001	 1.9702132497e+000
 1.1160987607e+000	 5.6287081669e-001	 1.8909492850e+000
 1.1103550086e+000	 5.7411824131e-001	 1.8082030723e+000
 8.8828400685e-001	 4.5929459305e-001	 5.0310163443e+000
 8.8359089566e-001	 4.6825968131e-001	 5.0995088052e+000
 8.7879995843e-001	 4.7719035311e-001	 5.1647806457e+000
 8.7391151114e-001	 4.8608504475e-001	 5.2269770179e+000
 8.6892590245e-001	 4.9494219467e-001	 5.2862452850e+000
 8.6384351377e-001	 5.0376024430e-001	 5.3427348681e+000
 8.5866475923e-001	 5.1253763888e-001	 5.3965970899e+000
 8.5339008574e-001	 5.2127282835e-001	 5.4479850132e+000
 8.4801997294e-001	 5.2996426816e-001	 5.4970532762e+000
 8.4255493313e-001	 5.3861042014e-001	 5.5439579234e+000
 8.3699551125e-001	 5.4720975336e-001	 5.5888562337e+000
 9.1049110702e-001	 4.7077695788e-001	 4.3825040403e+000
 9.0568066805e-001	 4.7996617334e-001	 4.4422696450e+000
 9.0076995739e-001	 4.8912011194e-001	 4.4981279658e+000
 8.9575929892e-001	 4.9823717087e-001	 4.5502159593e+000
 8.9064905002e-001	 5.0731574954e-001	 4.5986734864e+000
 8.8543960162e-001	 5.1635425041e-001	 4.6436431749e+000
 8.8013137822e-001	 5.2535107986e-001	 4.6852702778e+000
 8.7472483789e-001	 5.3430464906e-001	 4.7237025264e+000
 8.6922047226e-001	 5.4321337486e-001	 4.7590899780e+000
 8.6361880646e-001	 5.5207568064e-001	 4.7915848598e+000
 8.5792039903e-001	 5.6088999720e-001	 4.8213414074e+000
 9.3269820719e-001	 4.8225932270e-001	 3.8198837408e+000
 9.2777044045e-001	 4.9167266537e-001	 3.8699707594e+000
 9.2273995635e-001	 5.0104987077e-001	 3.9154985439e+000
 9.1760708670e-001	 5.1038929699e-001	 3.9565964670e+000
 9.1237219758e-001	 5.1968930441e-001	 3.9933974831e+000
 9.0703568946e-001	 5.2894825652e-001	 4.0260380059e+000
 9.0159799720e-001	 5.3816452084e-001	 4.0546577807e+000
 8.9605959003e-001	 5.4733646978e-001	 4.0793997510e+000
 8.9042097158e-001	 5.5646248157e-001	 4.1004099188e+000
 8.8468267979e-001	 5.6554094115e-001	 4.1178372000e+000
 8.7884528681e-001	 5.7457024104e-001	 4.1318332737e+000
 9.5490530736e-001	 4.9374168753e-001	 3.3372938195e+000
 9.4986021284e-001	 5.0337915740e-001	 3.3768147389e+000
 9.4470995531e-001	 5.1297962959e-001	 3.4111565065e+000
 9.3945487447e-001	 5.2254142311e-001	 3.4404414831e+000
 9.3409534514e-001	 5.3206285928e-001	 3.4647962737e+000
 9.2863177731e-001	 5.4154226263e-001	 3.4843516197e+000
 9.2306461618e-001	 5.5097796181e-001	 3.4992422854e+000
 9.1739434218e-001	 5.6036829049e-001	 3.5096069366e+000
 9.1162147091e-001	 5.6971158828e-001	 3.5155880131e+000
 9.0574655311e-001	 5.7900620166e-001	 3.5173315953e+000
 8.9977017459e-001	 5.8825048487e-001	 3.5149872632e+000
 9.7711240753e-001	 5.0522405235e-001	 2.9294168314e+000
 9.7194998523e-001	 5.1508564944e-001	 2.9575425617e+000
 9.6667995427e-001	 5.2490938842e-001	 2.9798988093e+000
 9.6130266225e-001	 5.3469354923e-001	 2.9966014582e+000
 9.5581849270e-001	 5.4443641415e-001	 3.0077712863e+000
 9.5022786515e-001	 5.5413626874e-001	 3.0135338714e+000
 9.4453123516e-001	 5.6379140279e-001	 3.0140194906e+000
 9.3872909432e-001	 5.7340011120e-001	 3.0093630114e+000
 9.3282197023e-001	 5.8296069499e-001	 2.9997037757e+000
 9.2681042644e-001	 5.9247146216e-001	 2.9851854761e+000
 9.2069506237e-001	 6.0193072871e-001	 2.9659560254e+000
 9.9931950770e-001	 5.1670641718e-001	 2.5914190484e+000
 9.9403975762e-001	 5.2679214147e-001	 2.6073737728e+000
 9.8864995323e-001	 5.3683914725e-001	 2.6169960333e+000
 9.8315045003e-001	 5.4684567535e-001	 2.6203957392e+000
 9.7754164026e-001	 5.5680996902e-001	 2.6176883313e+000
 9.7182395300e-001	 5.6673027485e-001	 2.6089947018e+000
 9.6599785414e-001	 5.7660484376e-001	 2.5944411054e+000
 9.6006384646e-001	 5.8643193191e-001	 2.5741590627e+000
 9.5402246955e-001	 5.9620980169e-001	 2.5482852550e+000
 9.4787429977e-001	 6.0593672267e-001	 2.5169614102e+000
 9.4161995015e-001	 6.1561097254e-001	 2.4803341820e+000
 1.0215266079e+000	 5.2818878200e-001	 2.3188978814e+000
 1.0161295300e+000	 5.3849863350e-001	 2.3219544662e+000
 1.0106199522e+000	 5.4876890608e-001	 2.3181409044e+000
 1.0049982378e+000	 5.5899780147e-001	 2.3075616024e+000
 9.9926478782e-001	 5.6918352389e-001	 2.2903271250e+000
 9.9342004084e-001	 5.7932428096e-001	 2.2665541283e+000
 9.8746447312e-001	 5.8941828473e-001	 2.2363652830e+000
 9.8139859860e-001	 5.9946375262e-001	 2.1998891888e+000
 9.7522296887e-001	 6.0945890840e-001	 2.1572602794e+000
 9.6893817309e-001	 6.1940198317e-001	 2.1086187185e+000
 9.6254483793e-001	 6.2929121638e-001	 2.0693263033e+000
 1.0437337080e+000	 5.3967114683e-001	 2.1078360142e+000
 1.0382193024e+000	 5.5020512553e-001	 2.0973119071e+000
 1.0325899511e+000	 5.6069866491e-001	 2.0794033842e+000
 1.0268460256e+000	 5.7114992759e-001	 2.0542097929e+000
 1.0209879354e+000	 5.8155707876e-001	 2.0218372565e+000
 1.0150161287e+000	 5.9191828707e-001	 1.9823986195e+000
 1.0089310921e+000	 6.0223172571e-001	 1.9360133821e+000
 1.0027333507e+000	 6.1249557333e-001	 1.8828076257e+000
 9.9642346820e-001	 6.2270801510e-001	 1.8229139278e+000
 9.9000204642e-001	 6.3286724368e-001	 1.7841471565e+000
 9.8346972570e-001	 6.4297146022e-001	 1.7475680764e+000
 1.0659408082e+000	 5.5115351165e-001	 1.9545612710e+000
 1.0603090748e+000	 5.6191161756e-001	 1.9298148265e+000
 1.0545599501e+000	 5.7262842373e-001	 1.8971913743e+000
 1.0486938134e+000	 5.8330205371e-001	 1.8567856216e+000
 1.0427110829e+000	 5.9393063362e-001	 1.8086996600e+000
 1.0366122165e+000	 6.0451229318e-001	 1.7530429233e+000
 1.0303977111e+000	 6.1504516668e-001	 1.6899321327e+000
 1.0240681029e+000	 6.2552739404e-001	 1.6212961161e+000
 1.0176239675e+000	 6.3595712181e-001	 1.5798751928e+000
 1.0110659197e+000	 6.4633250419e-001	 1.5321716765e+000
 1.0043946135e+000	 6.5665170405e-001	 1.4782686478e+000
 1.0881479084e+000	 5.6263587648e-001	 1.8557113984e+000
 1.0823988472e+000	 5.7361810960e-001	 1.8161385781e+000
 1.0765299491e+000	 5.8455818256e-001	 1.7682162332e+000
 1.0705416011e+000	 5.9545417983e-001	 1.7120348258e+000
 1.0644342305e+000	 6.0630418849e-001	 1.6476928038e+000
 1.0582083044e+000	 6.1710629929e-001	 1.5752965693e+000
 1.0518643301e+000	 6.2785860765e-001	 1.5045314748e+000
 1.0454028550e+000	 6.3855921475e-001	 1.4529420786e+000
 1.0388244668e+000	 6.4920622851e-001	 1.3946092735e+000
 1.0321297931e+000	 6.5979776469e-001	 1.3296081039e+000
 1.0253195013e+000	 6.7033194789e-001	 1.2580181806e+000
 1.1103550086e+000	 5.7411824131e-001	 1.8082030723e+000
 1.1044886196e+000	 5.8532460163e-001	 1.7532344755e+000
 1.0984999480e+000	 5.9648794139e-001	 1.6894624299e+000
 1.0923893889e+000	 6.0760630594e-001	 1.6169735266e+000
 1.0861573781e+000	 6.1867774335e-001	 1.5358629365e+000
 1.0798043922e+000	 6.2970030539e-001	 1.4615262068e+000
 1.0733309490e+000	 6.4067204862e-001	 1.4001411146e+000
 1.0667376072e+000	 6.5159103546e-001	 1.3315932565e+000
 1.0600249662e+000	 6.6245533522e-001	 1.2559490033e+000
 1.0531936664e+000	 6.7326302520e-001	 1.1732797095e+000
 1.0462443890e+000	 6.8401219173e-001	 1.0836616959e+000
 8.3699551125e-001	 5.4720975336e-001	 5.5888562337e+000
 8.3134228471e-001	 5.5576074499e-001	 5.6275651030e+000
 8.2559586333e-001	 5.6426188112e-001	 5.6546977838e+000
 8.1975688910e-001	 5.7271165764e-001	 5.6704170324e+000
 8.1382603608e-001	 5.8110858109e-001	 5.6748955668e+000
 8.0780401013e-001	 5.8945116950e-001	 5.6683159294e+000
 8.0169154872e-001	 5.9773795322e-001	 5.6508703345e+000
 7.9548942062e-001	 6.0596747576e-001	 5.6227605037e+000
 7.8919842564e-001	 6.1413829464e-001	 5.5841974855e+000
 7.8281939432e-001	 6.2224898220e-001	 5.5354014636e+000
 7.7635318757e-001	 6.3029812637e-001	 5.4941916416e+000
 8.5792039903e-001	 5.6088999720e-001	 4.8213414074e+000
 8.5212584183e-001	 5.6965476362e-001	 4.8466759028e+000
 8.4623575991e-001	 5.7836842815e-001	 4.8614484299e+000
 8.4025081132e-001	 5.8702944908e-001	 4.8658250188e+000
 8.3417168698e-001	 5.9563629562e-001	 4.8599809573e+000
 8.2799911038e-001	 6.0418744874e-001	 4.8441006470e+000
 8.2173383744e-001	 6.1268140204e-001	 4.8183774463e+000
 8.1537665613e-001	 6.2111666265e-001	 4.7830135003e+000
 8.0892838628e-001	 6.2949175201e-001	 4.7535803420e+000
 8.0238987918e-001	 6.3780520675e-001	 4.7280057904e+000
 7.9576201726e-001	 6.4605557953e-001	 4.6931922479e+000
 8.7884528681e-001	 5.7457024104e-001	 4.1318332737e+000
 8.7290939895e-001	 5.8354878224e-001	 4.1432011414e+000
 8.6687565649e-001	 5.9247497517e-001	 4.1449780833e+000
 8.6074473355e-001	 6.0134724052e-001	 4.1373336272e+000
 8.5451733788e-001	 6.1016401015e-001	 4.1204458850e+000
 8.4819421063e-001	 6.1892372797e-001	 4.0945014017e+000
 8.4177612615e-001	 6.2762485087e-001	 4.0688589333e+000
 8.3526389165e-001	 6.3626584955e-001	 4.0556426174e+000
 8.2865834692e-001	 6.4484520937e-001	 4.0338504147e+000
 8.2196036404e-001	 6.5336143130e-001	 4.0036457331e+000
 8.1517084695e-001	 6.6181303269e-001	 3.9651984925e+000
 8.9977017459e-001	 5.8825048487e-001	 3.5149872632e+000
 8.9369295606e-001	 5.9744280087e-001	 3.5118329613e+000
 8.8751555307e-001	 6.0658152220e-001	 3.5000183946e+000
 8.8123865577e-001	 6.1566503196e-001	 3.4797168037e+000
 8.7486298878e-001	 6.2469172467e-001	 3.4511093669e+000
 8.6838931088e-001	 6.3366000721e-001	 3.4451095051e+000
 8.6181841487e-001	 6.4256829971e-001	 3.4322952231e+000
 8.5515112716e-001	 6.5141503644e-001	 3.4117244686e+000
 8.4838830756e-001	 6.6019866674e-001	 3.3835503666e+000
 8.4153084889e-001	 6.6891765586e-001	 3.3479318842e+000
 8.3457967664e-001	 6.7757048585e-001	 3.3050337077e+000
 9.2069506237e-001	 6.0193072871e-001	 2.9659560254e+000
 9.1447651318e-001	 6.1133681950e-001	 2.9477573423e+000
 9.0815544965e-001	 6.2068806923e-001	 2.9217912084e+000
 9.0173257800e-001	 6.2998282341e-001	 2.9060081380e+000
 8.9520863967e-001	 6.3921943920e-001	 2.8982813437e+000
 8.8858441113e-001	 6.4839628645e-001	 2.8834592714e+000
 8.8186070358e-001	 6.5751174854e-001	 2.8616810818e+000
 8.7503836267e-001	 6.6656422333e-001	 2.8330912183e+000
 8.6811826820e-001	 6.7555212411e-001	 2.7978392995e+000
 8.6110133375e-001	 6.8447388041e-001	 2.7560800066e+000
 8.5398850633e-001	 6.9332793901e-001	 2.7079729637e+000
 9.4161995015e-001	 6.1561097254e-001	 2.4803341820e+000
 9.3526007029e-001	 6.2523083812e-001	 2.4474197903e+000
 9.2879534623e-001	 6.3479461626e-001	 2.4410444826e+000
 9.2222650022e-001	 6.4430061485e-001	 2.4282336002e+000
 9.1555429057e-001	 6.5374715373e-001	 2.4091151255e+000
 9.0877951138e-001	 6.6313256569e-001	 2.3838217509e+000
 9.0190299230e-001	 6.7245519737e-001	 2.3524907835e+000
 8.9492559818e-001	 6.8171341023e-001	 2.3152640448e+000
 8.8784822884e-001	 6.9090558147e-001	 2.2722877647e+000
 8.8067181861e-001	 7.0003010497e-001	 2.2237124711e+000
 8.7339733601e-001	 7.0908539217e-001	 2.1696928756e+000
 9.6254483793e-001	 6.2929121638e-001	 2.0693263033e+000
 9.5604362741e-001	 6.3912485675e-001	 2.0549393999e+000
 9.4943524281e-001	 6.4890116329e-001	 2.0348881671e+000
 9.4272042245e-001	 6.5861840629e-001	 2.0092962678e+000
 9.3589994147e-001	 6.6827486826e-001	 1.9782914126e+000
 9.2897461163e-001	 6.7786884493e-001	 1.9420052673e+000
 9.2194528101e-001	 6.8739864620e-001	 1.9005733574e+000
 9.1481283370e-001	 6.9686259713e-001	 1.8541349679e+000
 9.0757818948e-001	 7.0625903884e-001	 1.8028330395e+000
 9.0024230346e-001	 7.1558632953e-001	 1.7468140607e+000
 8.9280616570e-001	 7.2484284533e-001	 1.6862279573e+000
 9.8346972570e-001	 6.4297146022e-001	 1.7475680764e+000
 9.7682718452e-001	 6.5301887538e-001	 1.7182233877e+000
 9.7007513939e-001	 6.6300771033e-001	 1.6840840605e+000
 9.6321434467e-001	 6.7293619774e-001	 1.6452742611e+000
 9.5624559237e-001	 6.8280258279e-001	 1.6019214616e+000
 9.4916971188e-001	 6.9260512417e-001	 1.5541563472e+000
 9.4198756973e-001	 7.0234209504e-001	 1.5021127195e+000
 9.3470006921e-001	 7.1201178402e-001	 1.4459273972e+000
 9.2730815011e-001	 7.2161249621e-001	 1.3857401145e+000
 9.1981278832e-001	 7.3114255408e-001	 1.3216934154e+000
 9.1221499539e-001	 7.4060029849e-001	 1.2539325471e+000
 1.0043946135e+000	 6.5665170405e-001	 1.4782686478e+000
 9.9761074164e-001	 6.6691289401e-001	 1.4336032620e+000
 9.9071503597e-001	 6.7711425736e-001	 1.3849901930e+000
 9.8370826689e-001	 6.8725398918e-001	 1.3325541229e+000
 9.7659124327e-001	 6.9733029732e-001	 1.2764223092e+000
 9.6936481213e-001	 7.0734140341e-001	 1.2167244903e+000
 9.6202985844e-001	 7.1728554387e-001	 1.1535927887e+000
 9.5458730472e-001	 7.2716097092e-001	 1.0871616128e+000
 9.4703811075e-001	 7.3696595358e-001	 1.0175675565e+000
 9.3938327317e-001	 7.4669877864e-001	 9.4494929723e-001
 9.3162382508e-001	 7.5635775165e-001	 8.6944749261e-001
 1.0253195013e+000	 6.7033194789e-001	 1.2580181806e+000
 1.0183942987e+000	 6.8080691263e-001	 1.1976917814e+000
 1.0113549325e+000	 6.9122080439e-001	 1.1342437693e+000
 1.0042021891e+000	 7.0157178063e-001	 1.0677993468e+000
 9.9693689417e-001	 7.1185801186e-001	 9.9848557012e-001
 9.8955991238e-001	 7.2207768265e-001	 9.2643125396e-001
 9.8207214715e-001	 7.3222899270e-001	 8.5176687450e-001
 9.7447454023e-001	 7.4231015782e-001	 7.7462447184e-001
 9.6676807139e-001	 7.5231941095e-001	 6.9513755167e-001
 9.5895375803e-001	 7.6225500320e-001	 6.1344098630e-001
 9.5103265477e-001	 7.7211520481e-001	 5.2967091522e-001
 1.0462443890e+000	 6.8401219173e-001	 1.0836616959e+000
 1.0391778559e+000	 6.9470093126e-001	 1.0073548297e+000
 1.0319948291e+000	 7.0532735142e-001	 9.2873325200e-001
 1.0246961113e+000	 7.1588957207e-001	 8.4792268181e-001
 1.0172825451e+000	 7.2638572639e-001	 7.6504997903e-001
 1.0097550126e+000	 7.3681396190e-001	 6.8024304742e-001
 1.0021144359e+000	 7.4717244154e-001	 5.9363073779e-001
 9.9436177575e-001	 7.5745934472e-001	 5.0534275143e-001
 9.8649803203e-001	 7.6767286832e-001	 4.1550954381e-001
 9.7852424289e-001	 7.7781122776e-001	 3.2426222865e-001
 9.7044148445e-001	 7.8787265798e-001	 2.3173248260e-001
 7.7635318757e-001	 6.3029812637e-001	 5.4941916416e+000
 7.6980069631e-001	 6.3828433156e-001	 5.4383465906e+000
 7.6316284107e-001	 6.4620621937e-001	 5.3734154770e+000
 7.5644057159e-001	 6.5406242942e-001	 5.2997278420e+000
 7.4963486637e-001	 6.6185162011e-001	 5.2176203754e+000
 7.4274673220e-001	 6.6957246936e-001	 5.1274366002e+000
 7.3577720365e-001	 6.7722367538e-001	 5.0295265479e+000
 7.2872734261e-001	 6.8480395737e-001	 4.9242464258e+000
 7.2159823770e-001	 6.9231205626e-001	 4.8119582764e+000
 7.1439100374e-001	 6.9974673538e-001	 4.6930296288e+000
 7.0710678115e-001	 7.0710678115e-001	 4.5678331447e+000
 7.9576201726e-001	 6.4605557953e-001	 4.6931922479e+000
 7.8904571372e-001	 6.5424143985e-001	 4.6442991117e+000
 7.8224191210e-001	 6.6236137485e-001	 4.5872542115e+000
 7.7535158588e-001	 6.7041399015e-001	 4.5223593973e+000
 7.6837573803e-001	 6.7839791061e-001	 4.4499228996e+000
 7.6131540050e-001	 6.8631178109e-001	 4.3702590428e+000
 7.5417163374e-001	 6.9415426726e-001	 4.2836879517e+000
 7.4694552618e-001	 7.0192405631e-001	 4.1905352503e+000
 7.3963819364e-001	 7.0961985767e-001	 4.0911317541e+000
 7.3225077883e-001	 7.1724040377e-001	 3.9858131552e+000
 7.2478445068e-001	 7.2478445068e-001	 3.8749197024e+000
 8.1517084695e-001	 6.6181303269e-001	 3.9651984925e+000
 8.0829073112e-001	 6.7019854813e-001	 3.9207866893e+000
 8.0132098312e-001	 6.7851653033e-001	 3.8691247153e+000
 7.9426260017e-001	 6.8676555089e-001	 3.8104877667e+000
 7.8711660969e-001	 6.9494420111e-001	 3.7451566712e+000
 7.7988406881e-001	 7.0305109283e-001	 3.6734176304e+000
 7.7256606384e-001	 7.1108485915e-001	 3.5955619563e+000
 7.6516370974e-001	 7.1904415524e-001	 3.5118858009e+000
 7.5767814959e-001	 7.2692765908e-001	 3.4226898801e+000
 7.5011055393e-001	 7.3473407215e-001	 3.3282791921e+000
 7.4246212021e-001	 7.4246212021e-001	 3.2289627309e+000
 8.3457967664e-001	 6.7757048585e-001	 3.3050337077e+000
 8.2753574853e-001	 6.8615565642e-001	 3.2628088143e+000
 8.2040005415e-001	 6.9467168582e-001	 3.2142052479e+000
 8.1317361446e-001	 7.0311711162e-001	 3.1594725024e+000
 8.0585748135e-001	 7.1149049161e-001	 3.0988649723e+000
 7.9845273712e-001	 7.1979040456e-001	 3.0326417229e+000
 7.9096049393e-001	 7.2801545103e-001	 2.9610662563e+000
 7.8338189331e-001	 7.3616425418e-001	 2.8844062713e+000
 7.7571810553e-001	 7.4423546049e-001	 2.8029334178e+000
 7.6797032902e-001	 7.5222774054e-001	 2.7169230482e+000
 7.6013978974e-001	 7.6013978974e-001	 2.6266539623e+000
 8.5398850633e-001	 6.9332793901e-001	 2.7079729637e+000
 8.4678076594e-001	 7.0211276471e-001	 2.6658009273e+000
 8.3947912518e-001	 7.1082684130e-001	 2.6180940051e+000
 8.3208462875e-001	 7.1946867236e-001	 2.5650768625e+000
 8.2459835301e-001	 7.2803678212e-001	 2.5069783501e+000
 8.1702140542e-001	 7.3652971630e-001	 2.4440313023e+000
 8.0935492402e-001	 7.4494604292e-001	 2.3764723315e+000
 8.0160007688e-001	 7.5328435311e-001	 2.3045416171e+000
 7.9375806148e-001	 7.6154326189e-001	 2.2284826913e+000
 7.8583010412e-001	 7.6972140893e-001	 2.1485422207e+000
 7.7781745927e-001	 7.7781745927e-001	 2.0649697840e+000
 8.7339733601e-001	 7.0908539217e-001	 2.1696928756e+000
 8.6602578334e-001	 7.1806987300e-001	 2.1255859794e+000
 8.5855819620e-001	 7.2698199679e-001	 2.0767624595e+000
 8.5099564304e-001	 7.3582023310e-001	 2.0234229543e+000
 8.4333922467e-001	 7.4458307262e-001	 1.9657715874e+000
 8.3559007373e-001	 7.5326902803e-001	 1.9040157929e+000
 8.2774935411e-001	 7.6187663480e-001	 1.8383661373e+000
 8.1981826044e-001	 7.7040445205e-001	 1.7690361379e+000
 8.1179801742e-001	 7.7885106330e-001	 1.6962420780e+000
 8.0368987921e-001	 7.8721507731e-001	 1.6202028191e+000
 7.9549512880e-001	 7.9549512880e-001	 1.5411396105e+000
 8.9280616570e-001	 7.2484284533e-001	 1.6862279573e+000
 8.8527080075e-001	 7.3402698129e-001	 1.6383323119e+000
 8.7763726723e-001	 7.4313715227e-001	 1.5865147866e+000
 8.6990665733e-001	 7.5217179383e-001	 1.5309527292e+000
 8.6208009633e-001	 7.6112936312e-001	 1.4718262856e+000
 8.5415874203e-001	 7.7000833977e-001	 1.4093182519e+000
 8.4614378421e-001	 7.7880722669e-001	 1.3436139230e+000
 8.3803644401e-001	 7.8752455098e-001	 1.2749009399e+000
 8.2983797336e-001	 7.9615886471e-001	 1.2033691337e+000
 8.2154965430e-001	 8.0470874570e-001	 1.1292103682e+000
 8.1317279833e-001	 8.1317279833e-001	 1.0526183803e+000
 9.1221499539e-001	 7.4060029849e-001	 1.2539325471e+000
 9.0451581816e-001	 7.4998408958e-001	 1.2005169125e+000
 8.9671633826e-001	 7.5929230776e-001	 1.1439524712e+000
 8.8881767162e-001	 7.6852335457e-001	 1.0843939565e+000
 8.8082096799e-001	 7.7767565363e-001	 1.0219982246e+000
 8.7272741034e-001	 7.8674765150e-001	 9.5692413221e-001
 8.6453821430e-001	 7.9573781857e-001	 8.8933241301e-001
 8.5625462758e-001	 8.0464464992e-001	 8.1938555192e-001
 8.4787792931e-001	 8.1346666612e-001	 7.4724765836e-001
 8.3940942940e-001	 8.2220241408e-001	 6.7308433812e-001
 8.3085046786e-001	 8.3085046786e-001	 5.9706256423e-001
 9.3162382508e-001	 7.5635775165e-001	 8.6944749261e-001
 9.2376083557e-001	 7.6594119787e-001	 8.0889326445e-001
 9.1579540928e-001	 7.7544746325e-001	 7.4594333772e-001
 9.0772868592e-001	 7.8487491531e-001	 6.8073045126e-001
 8.9956183966e-001	 7.9422194413e-001	 6.1338880222e-001
 8.9129607865e-001	 8.0348696323e-001	 5.4405394938e-001
 8.8293264439e-001	 8.1266841046e-001	 4.7286271567e-001
 8.7447281114e-001	 8.2176474885e-001	 3.9995309015e-001
 8.6591788525e-001	 8.3077446752e-001	 3.2546412942e-001
 8.5726920449e-001	 8.3969608247e-001	 2.4953585869e-001
 8.4852813739e-001	 8.4852813739e-001	 1.7230917245e-001
 9.5103265477e-001	 7.7211520481e-001	 5.2967091522e-001
 9.4300585297e-001	 7.8189830617e-001	 4.6046313304e-001
 9.3487448031e-001	 7.9160261873e-001	 3.8959437238e-001
 9.2663970021e-001	 8.0122647604e-001	 3.1717594642e-001
 9.1830271132e-001	 8.1076823464e-001	 2.4331997152e-001
 9.0986474695e-001	 8.2022627497e-001	 1.6813929567e-001
 9.0132707449e-001	 8.2959900235e-001	 9.1747427075e-002
 8.9269099471e-001	 8.3888484779e-001	 1.4258463205e-002
 8.8395784120e-001	 8.4808226893e-001	-6.4212979918e-002
 8.7512897959e-001	 8.5718975085e-001	-1.4355183797e-001
 8.6620580692e-001	 8.6620580692e-001	-2.2364266812e-001
 9.7044148445e-001	 7.8787265798e-001	 2.3173248260e-001
 9.6225087038e-001	 7.9785541446e-001	 1.5245173714e-001
 9.5395355134e-001	 8.0775777422e-001	 7.2227807279e-002
 9.4555071450e-001	 8.1757803678e-001	-8.8488984134e-003
 9.3704358298e-001	 8.2731452514e-001	-9.0687814932e-002
 9.2843341526e-001	 8.3696558670e-001	-1.7319826763e-001
 9.1972150458e-001	 8.4652959423e-001	-2.5628951780e-001
 9.1090917828e-001	 8.5600494672e-001	-3.3987080698e-001
 9.0199779714e-001	 8.6539007034e-001	-4.2385140014e-001
 8.9298875468e-001	 8.7468341924e-001	-5.0814062751e-001
 8.8388347645e-001	 8.8388347645e-001	-5.9264792534e-001
 7.0710678115e-001	 7.0710678115e-001	 4.5678331447e+000
 6.9974673538e-001	 7.1439100374e-001	 4.4280914605e+000
 6.9231205626e-001	 7.2159823770e-001	 4.2791034174e+000
 6.8480395737e-001	 7.2872734261e-001	 4.1213106047e+000
 6.7722367538e-001	 7.3577720365e-001	 3.9551616858e+000
 6.6957246936e-001	 7.4274673220e-001	 3.7811119533e+000
 6.6185162011e-001	 7.4963486637e-001	 3.5996228756e+000
 6.5406242942e-001	 7.5644057159e-001	 3.4111616361e+000
 6.4620621937e-001	 7.6316284107e-001	 3.2162006672e+000
 6.3828433156e-001	 7.6980069631e-001	 3.0152171777e+000
 6.3029812637e-001	 7.7635318757e-001	 2.8086926756e+000
 7.2478445068e-001	 7.2478445068e-001	 3.8749197024e+000
 7.1724040377e-001	 7.3225077883e-001	 3.7539720745e+000
 7.0961985767e-001	 7.3963819364e-001	 3.6248768869e+000
 7.0192405631e-001	 7.4694552618e-001	 3.4880354477e+000
 6.9415426726e-001	 7.5417163374e-001	 3.3438553146e+000
 6.8631178109e-001	 7.6131540050e-001	 3.1927498945e+000
 6.7839791061e-001	 7.6837573803e-001	 3.0351380359e+000
 6.7041399015e-001	 7.7535158588e-001	 2.8714436160e+000
 6.6236137485e-001	 7.8224191210e-001	 2.7020951211e+000
 6.5424143985e-001	 7.8904571372e-001	 2.5275252232e+000
 6.4605557953e-001	 7.9576201726e-001	 2.3481703517e+000
 7.4246212021e-001	 7.4246212021e-001	 3.2289627309e+000
 7.3473407215e-001	 7.5011055393e-001	 3.1235805049e+000
 7.2692765908e-001	 7.5767814959e-001	 3.0111054350e+000
 7.1904415524e-001	 7.6516370974e-001	 2.8918999926e+000
 7.1108485915e-001	 7.7256606384e-001	 2.7663320990e+000
 7.0305109283e-001	 7.7988406881e-001	 2.6347747688e+000
 6.9494420111e-001	 7.8711660969e-001	 2.4976057473e+000
 6.8676555089e-001	 7.9426260017e-001	 2.3552071429e+000
 6.7851653033e-001	 8.0132098312e-001	 2.2079650542e+000
 6.7019854813e-001	 8.0829073112e-001	 2.0562691932e+000
 6.6181303269e-001	 8.1517084695e-001	 1.9005125056e+000
 7.6013978974e-001	 7.6013978974e-001	 2.6266539623e+000
 7.5222774054e-001	 7.6797032902e-001	 2.5338401676e+000
 7.4423546049e-001	 7.7571810553e-001	 2.4349474149e+000
 7.3616425418e-001	 7.8338189331e-001	 2.3303006655e+000
 7.2801545103e-001	 7.9096049393e-001	 2.2202295542e+000
 7.1979040456e-001	 7.9845273712e-001	 2.1050680753e+000
 7.1149049161e-001	 8.0585748135e-001	 1.9851542638e+000
 7.0311711162e-001	 8.1317361446e-001	 1.8608298722e+000
 6.9467168582e-001	 8.2040005415e-001	 1.7324400427e+000
 6.8615565642e-001	 8.2753574853e-001	 1.6003329770e+000
 6.7757048585e-001	 8.3457967664e-001	 1.4648596019e+000
 7.7781745927e-001	 7.7781745927e-001	 2.0649697840e+000
 7.6972140893e-001	 7.8583010412e-001	 1.9819384039e+000
 7.6154326189e-001	 7.9375806148e-001	 1.8938040875e+000
 7.5328435311e-001	 8.0160007688e-001	 1.8008555053e+000
 7.4494604292e-001	 8.0935492402e-001	 1.7033852461e+000
 7.3652971630e-001	 8.1702140542e-001	 1.6016895448e+000
 7.2803678212e-001	 8.2459835301e-001	 1.4960680066e+000
 7.1946867236e-001	 8.3208462875e-001	 1.3868233268e+000
 7.1082684130e-001	 8.3947912518e-001	 1.2742610074e+000
 7.0211276471e-001	 8.4678076594e-001	 1.1586890718e+000
 6.9332793901e-001	 8.5398850633e-001	 1.0404177759e+000
 7.9549512880e-001	 7.9549512880e-001	 1.5411396105e+000
 7.8721507731e-001	 8.0368987921e-001	 1.4652971552e+000
 7.7885106330e-001	 8.1179801742e-001	 1.3852926315e+000
 7.7040445205e-001	 8.1981826044e-001	 1.3013795395e+000
 7.6187663480e-001	 8.2774935411e-001	 1.2138145626e+000
 7.5326902803e-001	 8.3559007373e-001	 1.1228573360e+000
 7.4458307262e-001	 8.4333922467e-001	 1.0287702121e+000
 7.3582023310e-001	 8.5099564304e-001	 9.3181802328e-001
 7.2698199679e-001	 8.5855819620e-001	 8.3226784179e-001
 7.1806987300e-001	 8.6602578334e-001	 7.3038873804e-001
 7.0908539217e-001	 8.7339733601e-001	 6.2645153660e-001
 8.1317279833e-001	 8.1317279833e-001	 1.0526183803e+000
 8.0470874570e-001	 8.2154965430e-001	 9.8154746330e-001
 7.9615886471e-001	 8.2983797336e-001	 9.0722267384e-001
 7.8752455098e-001	 8.3803644401e-001	 8.2986337248e-001
 7.7880722669e-001	 8.4614378421e-001	 7.4969138588e-001
 7.7000833977e-001	 8.5415874203e-001	 6.6693081540e-001
 7.6112936312e-001	 8.6208009633e-001	 5.8180784346e-001
 7.5217179383e-001	 8.6990665733e-001	 4.9455053789e-001
 7.4313715227e-001	 8.7763726723e-001	 4.0538865447e-001
 7.3402698129e-001	 8.8527080075e-001	 3.1455343794e-001
 7.2484284533e-001	 8.9280616570e-001	 2.2227742175e-001
 8.3085046786e-001	 8.3085046786e-001	 5.9706256423e-001
 8.2220241408e-001	 8.3940942940e-001	 5.2850722553e-001
 8.1346666612e-001	 8.4787792931e-001	 4.5757581710e-001
 8.0464464992e-001	 8.5625462758e-001	 3.8445450745e-001
 7.9573781857e-001	 8.6453821430e-001	 3.0933123075e-001
 7.8674765150e-001	 8.7272741034e-001	 2.3239553487e-001
 7.7767565363e-001	 8.8082096799e-001	 1.5383842788e-001
 7.6852335457e-001	 8.8881767162e-001	 7.3852223318e-002
 7.5929230776e-001	 8.9671633826e-001	-7.3696156410e-003
 7.4998408958e-001	 9.0451581816e-001	-8.9632632906e-002
 7.4060029849e-001	 9.1221499539e-001	-1.7274153692e-001
 8.4852813739e-001	 8.4852813739e-001	 1.7230917245e-001
 8.3969608247e-001	 8.5726920449e-001	 1.0416173058e-001
 8.3077446752e-001	 8.6591788525e-001	 3.4487724834e-002
 8.2176474885e-001	 8.7447281114e-001	-3.6558997551e-002
 8.1266841046e-001	 8.8293264439e-001	-1.0882350848e-001
 8.0348696323e-001	 8.9129607865e-001	-1.8214991237e-001
 7.9422194413e-001	 8.9956183966e-001	-2.5638146014e-001
 7.8487491531e-001	 9.0772868592e-001	-3.3136066367e-001
 7.7544746325e-001	 9.1579540928e-001	-4.0692941072e-001
 7.6594119787e-001	 9.2376083557e-001	-4.8292908009e-001
 7.5635775165e-001	 9.3162382508e-001	-5.5920065702e-001
 8.6620580692e-001	 8.6620580692e-001	-2.2364266812e-001
 8.5718975085e-001	 8.7512897959e-001	-2.9335342214e-001
 8.4808226893e-001	 8.8395784120e-001	-3.6376759874e-001
 8.3888484779e-001	 8.9269099471e-001	-4.3476287180e-001
 8.2959900235e-001	 9.0132707449e-001	-5.0621650494e-001
 8.2022627497e-001	 9.0986474695e-001	-5.7800542674e-001
 8.1076823464e-001	 9.1830271132e-001	-6.5000630589e-001
 8.0122647604e-001	 9.2663970021e-001	-7.2209562597e-001
 7.9160261873e-001	 9.3487448031e-001	-7.9414976007e-001
 7.8189830617e-001	 9.4300585297e-001	-8.6604504504e-001
 7.7211520481e-001	 9.5103265477e-001	-9.3765785546e-001
 8.8388347645e-001	 8.8388347645e-001	-5.9264792534e-001
 8.7468341924e-001	 8.9298875468e-001	-6.6576735366e-001
 8.6539007034e-001	 9.0199779714e-001	-7.3879164280e-001
 8.5600494672e-001	 9.1090917828e-001	-8.1162925322e-001
 8.4652959423e-001	 9.1972150458e-001	-8.8418889247e-001
 8.3696558670e-001	 9.2843341526e-001	-9.5637955290e-001
 8.2731452514e-001	 9.3704358298e-001	-1.0281105484e+000
 8.1757803678e-001	 9.4555071450e-001	-1.0992915502e+000
 8.0775777422e-001	 9.5395355134e-001	-1.1698326214e+000
 7.9785541446e-001	 9.6225087038e-001	-1.2396442514e+000
 7.8787265798e-001	 9.7044148445e-001	-1.3086373886e+000
 6.3029812637e-001	 7.7635318757e-001	 2.8086926756e+000
 6.2224898220e-001	 7.8281939432e-001	 2.6087824921e+000
 6.1413829464e-001	 7.8919842564e-001	 2.3899566001e+000
 6.0596747576e-001	 7.9548942062e-001	 2.1657476070e+000
 5.9773795322e-001	 8.0169154872e-001	 1.9365943943e+000
 5.8945116950e-001	 8.0780401013e-001	 1.7029389478e+000
 5.8110858109e-001	 8.1382603608e-001	 1.4652258739e+000
 5.7271165764e-001	 8.1975688910e-001	 1.2239019145e+000
 5.6426188112e-001	 8.2559586333e-001	 9.7941546347e-001
 5.5576074499e-001	 8.3134228471e-001	 7.3221608224e-001
 5.4720975336e-001	 8.3699551125e-001	 4.8275401836e-001
 6.4605557953e-001	 7.9576201726e-001	 2.3481703517e+000
 6.3780520675e-001	 8.0238987918e-001	 2.1757716403e+000
 6.2949175201e-001	 8.0892838628e-001	 1.9987491628e+000
 6.2111666265e-001	 8.1537665613e-001	 1.8075324714e+000
 6.1268140204e-001	 8.2173383744e-001	 1.6006998165e+000
 6.0418744874e-001	 8.2799911038e-001	 1.3901186920e+000
 5.9563629562e-001	 8.3417168698e-001	 1.1762084783e+000
 5.8702944908e-001	 8.4025081132e-001	 9.5939018338e-001
 5.7836842815e-001	 8.4623575991e-001	 7.4008598504e-001
 5.6965476362e-001	 8.5212584183e-001	 5.1871877436e-001
 5.6088999720e-001	 8.5792039903e-001	 2.9571170131e-001
 6.6181303269e-001	 8.1517084695e-001	 1.9005125056e+000
 6.5336143130e-001	 8.2196036404e-001	 1.7466668799e+000
 6.4484520937e-001	 8.2865834692e-001	 1.5890030209e+000
 6.3626584955e-001	 8.3526389165e-001	 1.4278537785e+000
 6.2762485087e-001	 8.4177612615e-001	 1.2635545513e+000
 6.1892372797e-001	 8.4819421063e-001	 1.0805371632e+000
 6.1016401015e-001	 8.5451733788e-001	 8.8802029593e-001
 6.0134724052e-001	 8.6074473355e-001	 6.9326597863e-001
 5.9247497517e-001	 8.6687565649e-001	 4.9667151097e-001
 5.8354878224e-001	 8.7290939895e-001	 2.9863446480e-001
 5.7457024104e-001	 8.7884528681e-001	 9.9552255884e-002
 6.7757048585e-001	 8.3457967664e-001	 1.4648596019e+000
 6.6891765586e-001	 8.4153084889e-001	 1.3276020323e+000
 6.6019866674e-001	 8.4838830756e-001	 1.1872967958e+000
 6.5141503644e-001	 8.5515112716e-001	 1.0442503786e+000
 6.4256829971e-001	 8.6181841487e-001	 8.9877127922e-001
 6.3366000721e-001	 8.6838931088e-001	 7.5116971807e-001
 6.2469172467e-001	 8.7486298878e-001	 6.0093437193e-001
 6.1566503196e-001	 8.8123865577e-001	 4.2596517666e-001
 6.0658152220e-001	 8.8751555307e-001	 2.4977286013e-001
 5.9744280087e-001	 8.9369295606e-001	 7.2730944045e-002
 5.8825048487e-001	 8.9977017459e-001	-1.0478760968e-001
 6.9332793901e-001	 8.5398850633e-001	 1.0404177759e+000
 6.8447388041e-001	 8.6110133375e-001	 9.1792485872e-001
 6.7555212411e-001	 8.6811826820e-001	 7.9312226327e-001
 6.6656422333e-001	 8.7503836267e-001	 6.6629090110e-001
 6.5751174854e-001	 8.8186070358e-001	 5.3771317790e-001
 6.4839628645e-001	 8.8858441113e-001	 4.0767273399e-001
 6.3921943920e-001	 8.9520863967e-001	 2.7645418404e-001
 6.2998282341e-001	 9.0173257800e-001	 1.4434285659e-001
 6.2068806923e-001	 9.0815544965e-001	-5.9528302141e-005
 6.1133681950e-001	 9.1447651318e-001	-1.5828978829e-001
 6.0193072871e-001	 9.2069506237e-001	-3.1645256465e-001
 7.0908539217e-001	 8.7339733601e-001	 6.2645153660e-001
 7.0003010497e-001	 8.8067181861e-001	 5.1702928708e-001
 6.9090558147e-001	 8.8784822884e-001	 4.0600494971e-001
 6.8171341023e-001	 8.9492559818e-001	 2.9363457950e-001
 6.7245519737e-001	 9.0190299230e-001	 1.8017522420e-001
 6.6313256569e-001	 9.0877951138e-001	 6.5884695259e-002
 6.5374715373e-001	 9.1555429057e-001	-4.8978661372e-002
 6.4430061485e-001	 9.2222650022e-001	-1.6415619435e-001
 6.3479461626e-001	 9.2879534623e-001	-2.7938917559e-001
 6.2523083812e-001	 9.3526007029e-001	-3.9441902817e-001
 6.1561097254e-001	 9.4161995015e-001	-5.3465961387e-001
 7.2484284533e-001	 8.9280616570e-001	 2.2227742175e-001
 7.1558632953e-001	 9.0024230346e-001	 1.2435039428e-001
 7.0625903884e-001	 9.0757818948e-001	 2.5500463676e-002
 6.9686259713e-001	 9.1481283370e-001	-7.4040518425e-002
 6.8739864620e-001	 9.2194528101e-001	-1.7404019347e-001
 6.7786884493e-001	 9.2897461163e-001	-2.7426589493e-001
 6.6827486826e-001	 9.3589994147e-001	-3.7448484700e-001
 6.5861840629e-001	 9.4272042245e-001	-4.7446436286e-001
 6.4890116329e-001	 9.4943524281e-001	-5.7397204209e-001
 6.3912485675e-001	 9.5604362741e-001	-6.7277596713e-001
 6.2929121638e-001	 9.6254483793e-001	-7.7064489853e-001
 7.4060029849e-001	 9.1221499539e-001	-1.7274153692e-001
 7.3114255408e-001	 9.1981278832e-001	-2.6063997159e-001
 7.2161249621e-001	 9.2730815011e-001	-3.4880870436e-001
 7.1201178402e-001	 9.3470006921e-001	-4.3703949404e-001
 7.0234209504e-001	 9.4198756973e-001	-5.2512406355e-001
 6.9260512417e-001	 9.4916971188e-001	-6.1285426932e-001
 6.8280258279e-001	 9.5624559237e-001	-7.0002226991e-001
 6.7293619774e-001	 9.6321434467e-001	-7.8642069385e-001
 6.6300771033e-001	 9.7007513939e-001	-8.7184280639e-001
 6.5301887538e-001	 9.7682718452e-001	-9.5608267500e-001
 6.4297146022e-001	 9.8346972570e-001	-1.0389353334e+000
 7.5635775165e-001	 9.3162382508e-001	-5.5920065702e-001
 7.4669877864e-001	 9.3938327317e-001	-6.3843702147e-001
 7.3696595358e-001	 9.4703811075e-001	-7.1731598224e-001
 7.2716097092e-001	 9.5458730472e-001	-7.9565237111e-001
 7.1728554387e-001	 9.6202985844e-001	-8.7326144130e-001
 7.0734140341e-001	 9.6936481213e-001	-9.4995900747e-001
 6.9733029732e-001	 9.7659124327e-001	-1.0255615848e+000
 6.8725398918e-001	 9.8370826689e-001	-1.0998865268e+000
 6.7711425736e-001	 9.9071503597e-001	-1.1727521618e+000
 6.6691289401e-001	 9.9761074164e-001	-1.2439779278e+000
 6.5665170405e-001	 1.0043946135e+000	-1.3133845060e+000
 7.7211520481e-001	 9.5103265477e-001	-9.3765785546e-001
 7.6225500320e-001	 9.5895375803e-001	-1.0095063868e+000
 7.5231941095e-001	 9.6676807139e-001	-1.0803931734e+000
 7.4231015782e-001	 9.7447454023e-001	-1.1501556343e+000
 7.3222899270e-001	 9.8207214715e-001	-1.2186320542e+000
 7.2207768265e-001	 9.8955991238e-001	-1.2856616942e+000
 7.1185801186e-001	 9.9693689417e-001	-1.3510849023e+000
 7.0157178063e-001	 1.0042021891e+000	-1.4147432209e+000
 6.9122080439e-001	 1.0113549325e+000	-1.4764794937e+000
 6.8080691263e-001	 1.0183942987e+000	-1.5361379706e+000
 6.7033194789e-001	 1.0253195013e+000	-1.5935644107e+000
 7.8787265798e-001	 9.7044148445e-001	-1.3086373886e+000
 7.7781122776e-001	 9.7852424289e-001	-1.3742870771e+000
 7.6767286832e-001	 9.8649803203e-001	-1.4383926193e+000
 7.5745934472e-001	 9.9436177575e-001	-1.5008135832e+000
 7.4717244154e-001	 1.0021144359e+000	-1.5614108346e+000
 7.3681396190e-001	 1.0097550126e+000	-1.6200466191e+000
 7.2638572639e-001	 1.0172825451e+000	-1.6765846431e+000
 7.1588957207e-001	 1.0246961113e+000	-1.7308901528e+000
 7.0532735142e-001	 1.0319948291e+000	-1.7828300106e+000
 6.9470093126e-001	 1.0391778559e+000	-1.8322727711e+000
 6.8401219173e-001	 1.0462443890e+000	-1.8790887531e+000
 5.4720975336e-001	 8.3699551125e-001	 4.8275401836e-001
 5.3861042014e-001	 8.4255493313e-001	 2.3243264954e-001
 5.2996426816e-001	 8.4801997294e-001	-2.3385536109e-002
 5.2127282835e-001	 8.5339008574e-001	-2.8420498956e-001
 5.1253763888e-001	 8.5866475923e-001	-5.4952785928e-001
 5.0376024430e-001	 8.6384351377e-001	-8.1885453223e-001
 4.9494219467e-001	 8.6892590245e-001	-1.0916841723e+000
 4.8608504475e-001	 8.7391151114e-001	-1.3675152556e+000
 4.7719035311e-001	 8.7879995843e-001	-1.6458461009e+000
 4.6825968131e-001	 8.8359089566e-001	-1.9261753958e+000
 4.5929459305e-001	 8.8828400685e-001	-2.2080027165e+000
 5.6088999720e-001	 8.5792039903e-001	 2.9571170131e-001
 5.5207568064e-001	 8.6361880646e-001	 7.4667553200e-002
 5.4321337486e-001	 8.6922047226e-001	-1.5056347281e-001
 5.3430464906e-001	 8.7472483789e-001	-3.7952615471e-001
 5.2535107986e-001	 8.8013137822e-001	-6.1176384097e-001
 5.1635425041e-001	 8.8543960162e-001	-8.4681894530e-001
 5.0731574954e-001	 8.9064905002e-001	-1.0842334382e+000
 4.9823717087e-001	 8.9575929892e-001	-1.3235493343e+000
 4.8912011194e-001	 9.0076995739e-001	-1.5643091756e+000
 4.7996617334e-001	 9.0568066805e-001	-1.8060565082e+000
 4.7077695788e-001	 9.1049110702e-001	-2.0483363534e+000
 5.7457024104e-001	 8.7884528681e-001	 9.9552255884e-002
 5.6554094115e-001	 8.8468267979e-001	-9.5479940447e-002
 5.5646248157e-001	 8.9042097158e-001	-2.9344925609e-001
 5.4733646978e-001	 8.9605959003e-001	-4.9393893492e-001
 5.3816452084e-001	 9.0159799720e-001	-6.9653163838e-001
 5.2894825652e-001	 9.0703568946e-001	-9.0080989590e-001
 5.1968930441e-001	 9.1237219758e-001	-1.1063565513e+000
 5.1038929699e-001	 9.1760708670e-001	-1.3127552050e+000
 5.0104987077e-001	 9.2273995635e-001	-1.5195906502e+000
 4.9167266537e-001	 9.2777044045e-001	-1.7264493038e+000
 4.8225932270e-001	 9.3269820719e-001	-1.9329196302e+000
 5.8825048487e-001	 8.9977017459e-001	-1.0478760968e-001
 5.7900620166e-001	 9.0574655311e-001	-2.7685292023e-001
 5.6971158828e-001	 9.1162147091e-001	-4.5066156515e-001
 5.6036829049e-001	 9.1739434218e-001	-6.2583351122e-001
 5.5097796181e-001	 9.2306461618e-001	-8.0198896592e-001
 5.4154226263e-001	 9.2863177731e-001	-9.7874878526e-001
 5.3206285928e-001	 9.3409534514e-001	-1.1557348771e+000
 5.2254142311e-001	 9.3945487447e-001	-1.3325705993e+000
 5.1297962959e-001	 9.4470995531e-001	-1.5088811519e+000
 5.0337915740e-001	 9.4986021284e-001	-1.6842939628e+000
 4.9374168753e-001	 9.5490530736e-001	-1.8584390670e+000
 6.0193072871e-001	 9.2069506237e-001	-3.1645256465e-001
 5.9247146216e-001	 9.2681042644e-001	-4.6839609966e-001
 5.8296069499e-001	 9.3282197023e-001	-6.2094133142e-001
 5.7340011120e-001	 9.3872909432e-001	-7.7374331371e-001
 5.6379140279e-001	 9.4453123516e-001	-9.2645814197e-001
 5.5413626874e-001	 9.5022786515e-001	-1.0787433204e+000
 5.4443641415e-001	 9.5581849270e-001	-1.2302581234e+000
 5.3469354923e-001	 9.6130266225e-001	-1.3806639522e+000
 5.2490938842e-001	 9.6667995427e-001	-1.5296246836e+000
 5.1508564944e-001	 9.7194998523e-001	-1.6768070134e+000
 5.0522405235e-001	 9.7711240753e-001	-1.8218807915e+000
 6.1561097254e-001	 9.4161995015e-001	-5.3465961387e-001
 6.0593672267e-001	 9.4787429977e-001	-6.6914452529e-001
 5.9620980169e-001	 9.5402246955e-001	-8.0313815492e-001
 5.8643193191e-001	 9.6006384646e-001	-9.3632910493e-001
 5.7660484376e-001	 9.6599785414e-001	-1.0684077996e+000
 5.6673027485e-001	 9.7182395300e-001	-1.1990668132e+000
 5.5680996902e-001	 9.7754164026e-001	-1.3280011917e+000
 5.4684567535e-001	 9.8315045003e-001	-1.4549087679e+000
 5.3683914725e-001	 9.8864995323e-001	-1.5794904708e+000
 5.2679214147e-001	 9.9403975762e-001	-1.7014506260e+000
 5.1670641718e-001	 9.9931950770e-001	-1.8204972496e+000
 6.2929121638e-001	 9.6254483793e-001	-7.7064489853e-001
 6.1940198317e-001	 9.6893817309e-001	-8.7821375792e-001
 6.0945890840e-001	 9.7522296887e-001	-9.9619849250e-001
 5.9946375262e-001	 9.8139859860e-001	-1.1123651394e+000
 5.8941828473e-001	 9.8746447312e-001	-1.2264369829e+000
 5.7932428096e-001	 9.9342004084e-001	-1.3381401805e+000
 5.6918352389e-001	 9.9926478782e-001	-1.4472040470e+000
 5.5899780147e-001	 1.0049982378e+000	-1.5533613303e+000
 5.4876890608e-001	 1.0106199522e+000	-1.6563484809e+000
 5.3849863350e-001	 1.0161295300e+000	-1.7559059131e+000
 5.2818878200e-001	 1.0215266079e+000	-1.8517782576e+000
 6.4297146022e-001	 9.8346972570e-001	-1.0389353334e+000
 6.3286724368e-001	 9.9000204642e-001	-1.1169494011e+000
 6.2270801510e-001	 9.9642346820e-001	-1.1991553539e+000
 6.1249557333e-001	 1.0027333507e+000	-1.3007270902e+000
 6.0223172571e-001	 1.0089310921e+000	-1.3992612731e+000
 5.9191828707e-001	 1.0150161287e+000	-1.4945162406e+000
 5.8155707876e-001	 1.0209879354e+000	-1.5862541583e+000
 5.7114992759e-001	 1.0268460256e+000	-1.6742412577e+000
 5.6069866491e-001	 1.0325899511e+000	-1.7582480679e+000
 5.5020512553e-001	 1.0382193024e+000	-1.8380496377e+000
 5.3967114683e-001	 1.0437337080e+000	-1.9134257499e+000
 6.5665170405e-001	 1.0043946135e+000	-1.3133845060e+000
 6.4633250419e-001	 1.0110659197e+000	-1.3793814750e+000
 6.3595712181e-001	 1.0176239675e+000	-1.4422528081e+000
 6.2552739404e-001	 1.0240681029e+000	-1.5018630259e+000
 6.1504516668e-001	 1.0303977111e+000	-1.5857006498e+000
 6.0451229318e-001	 1.0366122165e+000	-1.6668659743e+000
 5.9393063362e-001	 1.0427110829e+000	-1.7436711334e+000
 5.8330205371e-001	 1.0486938134e+000	-1.8159144895e+000
 5.7262842373e-001	 1.0545599501e+000	-1.8833992860e+000
 5.6191161756e-001	 1.0603090748e+000	-1.9459338331e+000
 5.5115351165e-001	 1.0659408082e+000	-2.0033316837e+000
 6.7033194789e-001	 1.0253195013e+000	-1.5935644107e+000
 6.5979776469e-001	 1.0321297931e+000	-1.6494701727e+000
 6.4920622851e-001	 1.0388244668e+000	-1.7013671382e+000
 6.3855921475e-001	 1.0454028550e+000	-1.7491546536e+000
 6.2785860765e-001	 1.0518643301e+000	-1.7927348985e+000
 6.1710629929e-001	 1.0582083044e+000	-1.8539664670e+000
 6.0630418849e-001	 1.0644342305e+000	-1.9180932353e+000
 5.9545417983e-001	 1.0705416011e+000	-1.9768783546e+000
 5.8455818256e-001	 1.0765299491e+000	-2.0301564917e+000
 5.7361810960e-001	 1.0823988472e+000	-2.0777679178e+000
 5.6263587648e-001	 1.0881479084e+000	-2.1195586485e+000
 6.8401219173e-001	 1.0462443890e+000	-1.8790887531e+000
 6.7326302520e-001	 1.0531936664e+000	-1.9267054861e+000
 6.6245533522e-001	 1.0600249662e+000	-1.9694676973e+000
 6.5159103546e-001	 1.0667376072e+000	-2.0073087373e+000
 6.4067204862e-001	 1.0733309490e+000	-2.0401653519e+000
 6.2970030539e-001	 1.0798043922e+000	-2.0679776725e+000
 6.1867774335e-001	 1.0861573781e+000	-2.1082655168e+000
 6.0760630594e-001	 1.0923893889e+000	-2.1557484335e+000
 5.9648794139e-001	 1.0984999480e+000	-2.1970039138e+000
 5.8532460163e-001	 1.1044886196e+000	-2.2319029574e+000
 5.7411824131e-001	 1.1103550086e+000	-2.2603228033e+000
 4.5929459305e-001	 8.8828400685e-001	-2.2080027165e+000
 4.5029665337e-001	 8.9287900861e-001	-2.4954441143e+000
 4.4126742776e-001	 8.9737565002e-001	-2.7821079147e+000
 4.3220848139e-001	 9.0177371256e-001	-3.0675634393e+000
 4.2312137829e-001	 9.0607300991e-001	-3.3513834068e+000
 4.1400768054e-001	 9.1027338778e-001	-3.6331443390e+000
 4.0486894748e-001	 9.1437472374e-001	-3.9124269572e+000
 3.9570673493e-001	 9.1837692696e-001	-4.1888165673e+000
 3.8652259441e-001	 9.2227993800e-001	-4.4619034355e+000
 3.7731807239e-001	 9.2608372854e-001	-4.7312831508e+000
 3.6809470955e-001	 9.2978830108e-001	-4.9965569775e+000
 4.7077695788e-001	 9.1049110702e-001	-2.0483363534e+000
 4.6155406970e-001	 9.1520098382e-001	-2.2999050023e+000
 4.5229911345e-001	 9.1981004127e-001	-2.5504766521e+000
 4.4301369342e-001	 9.2431805537e-001	-2.7996536124e+000
 4.3369941274e-001	 9.2872483515e-001	-3.0470415214e+000
 4.2435787255e-001	 9.3303022247e-001	-3.2922497225e+000
 4.1499067117e-001	 9.3723409182e-001	-3.5348916302e+000
 4.0559940330e-001	 9.4133635013e-001	-3.7745850872e+000
 3.9618565927e-001	 9.4533693645e-001	-4.0109527108e+000
 3.8675102420e-001	 9.4923582175e-001	-4.2436222279e+000
 3.7729707730e-001	 9.5303300860e-001	-4.4722267996e+000
 4.8225932270e-001	 9.3269820719e-001	-1.9329196302e+000
 4.7281148603e-001	 9.3752295903e-001	-2.1515505197e+000
 4.6333079914e-001	 9.4224443251e-001	-2.3689753973e+000
 4.5381890545e-001	 9.4686239818e-001	-2.5848280796e+000
 4.4427744720e-001	 9.5137666039e-001	-2.7987456505e+000
 4.3470806456e-001	 9.5578705716e-001	-3.0103688095e+000
 4.2511239485e-001	 9.6009345991e-001	-3.2193422093e+000
 4.1549207167e-001	 9.6429577330e-001	-3.4253147853e+000
 4.0584872413e-001	 9.6839393489e-001	-3.6279400737e+000
 3.9618397601e-001	 9.7238791496e-001	-3.8268765210e+000
 3.8649944504e-001	 9.7627771612e-001	-4.0217877811e+000
 4.9374168753e-001	 9.5490530736e-001	-1.8584390670e+000
 4.8406890236e-001	 9.5984493424e-001	-2.0468694405e+000
 4.7436248483e-001	 9.6467882376e-001	-2.2338943375e+000
 4.6462411748e-001	 9.6940674099e-001	-2.4191776938e+000
 4.5485548165e-001	 9.7402848564e-001	-2.6023866590e+000
 4.4505825657e-001	 9.7854389185e-001	-2.7831919168e+000
 4.3523411854e-001	 9.8295282800e-001	-2.9612679958e+000
 4.2538474004e-001	 9.8725519647e-001	-3.1362935721e+000
 4.1551178899e-001	 9.9145093334e-001	-3.3079517615e+000
 4.0561692782e-001	 9.9554000817e-001	-3.4759304024e+000
 3.9570181278e-001	 9.9952242364e-001	-3.6399223285e+000
 5.0522405235e-001	 9.7711240753e-001	-1.8218807915e+000
 4.9532631870e-001	 9.8216690946e-001	-1.9826683192e+000
 4.8539417052e-001	 9.8711321501e-001	-2.1418596844e+000
 4.7542932951e-001	 9.9195108380e-001	-2.2991476397e+000
 4.6543351611e-001	 9.9668031088e-001	-2.4542281051e+000
 4.5540844858e-001	 1.0013007265e+000	-2.6068004612e+000
 4.4535584222e-001	 1.0058121961e+000	-2.7565678347e+000
 4.3527740842e-001	 1.0102146196e+000	-2.9032373746e+000
 4.2517485385e-001	 1.0145079318e+000	-3.0465205195e+000
 4.1504987963e-001	 1.0186921014e+000	-3.1861332556e+000
 4.0490418052e-001	 1.0227671312e+000	-3.3217963655e+000
 5.1670641718e-001	 9.9931950770e-001	-1.8204972496e+000
 5.0658373503e-001	 1.0044888847e+000	-1.9560361816e+000
 4.9642585621e-001	 1.0095476063e+000	-2.0897963379e+000
 4.8623454155e-001	 1.0144954266e+000	-2.2214980632e+000
 4.7601155056e-001	 1.0193321361e+000	-2.3508648294e+000
 4.6575864059e-001	 1.0240575612e+000	-2.4776235040e+000
 4.5547756591e-001	 1.0286715642e+000	-2.6015046101e+000
 4.4517007679e-001	 1.0331740428e+000	-2.7222425782e+000
 4.3483791871e-001	 1.0375649302e+000	-2.8395759890e+000
 4.2448283144e-001	 1.0418441946e+000	-2.9532478078e+000
 4.1410654826e-001	 1.0460118387e+000	-3.0630056092e+000
 5.2818878200e-001	 1.0215266079e+000	-1.8517782576e+000
 5.1784115136e-001	 1.0268108599e+000	-1.9643138212e+000
 5.0745754190e-001	 1.0319819975e+000	-2.0748954203e+000
 4.9703975358e-001	 1.0370397694e+000	-2.1832698367e+000
 4.8658958502e-001	 1.0419839614e+000	-2.2891869464e+000
 4.7610883261e-001	 1.0468143959e+000	-2.3923999634e+000
 4.6559928959e-001	 1.0515309323e+000	-2.4926656758e+000
 4.5506274516e-001	 1.0561334660e+000	-2.5897446731e+000
 4.4450098357e-001	 1.0606219287e+000	-2.6834015667e+000
 4.3391578325e-001	 1.0649962878e+000	-2.7734052005e+000
 4.2330891600e-001	 1.0692565462e+000	-2.8595288534e+000
 5.3967114683e-001	 1.0437337080e+000	-1.9134257499e+000
 5.2909856769e-001	 1.0491328351e+000	-2.0050670159e+000
 5.1848922760e-001	 1.0544163888e+000	-2.0945859546e+000
 5.0784496561e-001	 1.0595841122e+000	-2.1817546945e+000
 4.9716761947e-001	 1.0646357866e+000	-2.2663484320e+000
 4.8645902462e-001	 1.0695712306e+000	-2.3481456512e+000
 4.7572101328e-001	 1.0743903004e+000	-2.4269283368e+000
 4.6495541353e-001	 1.0790928892e+000	-2.5024821790e+000
 4.5416404842e-001	 1.0836789271e+000	-2.5745967709e+000
 4.4334873506e-001	 1.0881483810e+000	-2.6430657973e+000
 4.3251128374e-001	 1.0925012537e+000	-2.7076872157e+000
 5.5115351165e-001	 1.0659408082e+000	-2.0033316837e+000
 5.4035598403e-001	 1.0714548103e+000	-2.0760630915e+000
 5.2952091329e-001	 1.0768507800e+000	-2.1465100829e+000
 5.1865017764e-001	 1.0821284551e+000	-2.2144691015e+000
 5.0774565393e-001	 1.0872876119e+000	-2.2797396384e+000
 4.9680921663e-001	 1.0923280653e+000	-2.3421244296e+000
 4.8584273696e-001	 1.0972496685e+000	-2.4014296467e+000
 4.7484808190e-001	 1.1020523123e+000	-2.4574650795e+000
 4.6382711328e-001	 1.1067359256e+000	-2.5100443120e+000
 4.5278168687e-001	 1.1113004742e+000	-2.5589848894e+000
 4.4171365148e-001	 1.1157459613e+000	-2.6041084785e+000
 5.6263587648e-001	 1.0881479084e+000	-2.1195586485e+000
 5.5161340036e-001	 1.0937767855e+000	-2.1752503561e+000
 5.4055259898e-001	 1.0992851713e+000	-2.2285013203e+000
 5.2945538968e-001	 1.1046727979e+000	-2.2791313214e+000
 5.1832368838e-001	 1.1099394371e+000	-2.3269631735e+000
 5.0715940864e-001	 1.1150849000e+000	-2.3718228999e+000
 4.9596446065e-001	 1.1201090366e+000	-2.4135399022e+000
 4.8474075028e-001	 1.1250117355e+000	-2.4519471221e+000
 4.7349017814e-001	 1.1297929240e+000	-2.4868811958e+000
 4.6221463868e-001	 1.1344525674e+000	-2.5181826013e+000
 4.5091601922e-001	 1.1389906688e+000	-2.5456957973e+000
 5.7411824131e-001	 1.1103550086e+000	-2.2603228033e+000
 5.6287081669e-001	 1.1160987607e+000	-2.3007400016e+000
 5.5158428467e-001	 1.1217195625e+000	-2.3385654168e+000
 5.4026060171e-001	 1.1272171407e+000	-2.3736412368e+000
 5.2890172284e-001	 1.1325912624e+000	-2.4058126758e+000
 5.1750960065e-001	 1.1378417347e+000	-2.4349281286e+000
 5.0608618433e-001	 1.1429684047e+000	-2.4608393190e+000
 4.9463341865e-001	 1.1479711587e+000	-2.4834014411e+000
 4.8315324300e-001	 1.1528499225e+000	-2.5024732937e+000
 4.7164759049e-001	 1.1576046607e+000	-2.5179174070e+000
 4.6011838696e-001	 1.1622353763e+000	-2.5296001629e+000
 3.6809470955e-001	 9.2978830108e-001	-4.9965569775e+000
 3.5885404004e-001	 9.3339368862e-001	-5.2755602283e+000
 3.4959759075e-001	 9.3689995439e-001	-5.5510245910e+000
 3.4032688062e-001	 9.4030719147e-001	-5.8225280915e+000
 3.3104341994e-001	 9.4361552239e-001	-6.0896550020e+000
 3.2174870969e-001	 9.4682509884e-001	-6.3519961813e+000
 3.1244424085e-001	 9.4993610118e-001	-6.6091494010e+000
 3.0313149381e-001	 9.5294873809e-001	-6.8607196587e+000
 2.9381193769e-001	 9.5586324609e-001	-7.1063194759e+000
 2.8448702975e-001	 9.5867988915e-001	-7.3455691825e+000
 2.7515821483e-001	 9.6139895816e-001	-7.5780971863e+000
 3.7729707730e-001	 9.5303300860e-001	-4.4722267996e+000
 3.6782539105e-001	 9.5672853083e-001	-4.7126702652e+000
 3.5833753053e-001	 9.6032245325e-001	-4.9495347533e+000
 3.4883505265e-001	 9.6381487125e-001	-5.1824449386e+000
 3.3931950545e-001	 9.6720591045e-001	-5.4110313061e+000
 3.2979242744e-001	 9.7049572631e-001	-5.6349304523e+000
 3.2025534689e-001	 9.7368450371e-001	-5.8537853757e+000
 3.1070978117e-001	 9.7677245654e-001	-6.0672457525e+000
 3.0115723614e-001	 9.7975982724e-001	-6.2749682009e+000
 2.9159920551e-001	 9.8264688638e-001	-6.4766165318e+000
 2.8203717021e-001	 9.8543393212e-001	-6.6718619859e+000
 3.8649944504e-001	 9.7627771612e-001	-4.0217877811e+000
 3.7679674206e-001	 9.8006337304e-001	-4.2278570222e+000
 3.6707747030e-001	 9.8374495210e-001	-4.4303079773e+000
 3.5734322467e-001	 9.8732255103e-001	-4.6288100428e+000
 3.4759559096e-001	 9.9079629851e-001	-4.8230380106e+000
 3.3783614519e-001	 9.9416635378e-001	-5.0126723330e+000
 3.2806645292e-001	 9.9743290624e-001	-5.1973993765e+000
 3.1828806852e-001	 1.0005961750e+000	-5.3769116639e+000
 3.0850253459e-001	 1.0036564084e+000	-5.5509081047e+000
 2.9871138126e-001	 1.0066138836e+000	-5.7190942130e+000
 2.8891612559e-001	 1.0094689061e+000	-5.8811823140e+000
 3.9570181278e-001	 9.9952242364e-001	-3.6399223285e+000
 3.8576809306e-001	 1.0033982153e+000	-3.8155163572e+000
 3.7581741008e-001	 1.0071674510e+000	-3.9874533211e+000
 3.6585139669e-001	 1.0108302308e+000	-4.1554455391e+000
 3.5587167647e-001	 1.0143866866e+000	-4.3192103314e+000
 3.4587986295e-001	 1.0178369812e+000	-4.4784702492e+000
 3.3587755895e-001	 1.0211813088e+000	-4.6329532939e+000
 3.2586635588e-001	 1.0244198934e+000	-4.7823931252e+000
 3.1584783304e-001	 1.0275529895e+000	-4.9265292598e+000
 3.0582355701e-001	 1.0305808808e+000	-5.0651072577e+000
 2.9579508097e-001	 1.0335038800e+000	-5.1978788983e+000
 4.0490418052e-001	 1.0227671312e+000	-3.3217963655e+000
 3.9473944407e-001	 1.0267330575e+000	-3.4705538349e+000
 3.8455734985e-001	 1.0305899498e+000	-3.6156157548e+000
 3.7435956871e-001	 1.0343379106e+000	-3.7567356840e+000
 3.6414776197e-001	 1.0379770746e+000	-3.8936718081e+000
 3.5392358070e-001	 1.0415076087e+000	-4.0261871347e+000
 3.4368866498e-001	 1.0449297113e+000	-4.1540496794e+000
 3.3344464323e-001	 1.0482436119e+000	-4.2770326417e+000
 3.2319313149e-001	 1.0514495707e+000	-4.3949145714e+000
 3.1293573276e-001	 1.0545478781e+000	-4.5074795260e+000
 3.0267403634e-001	 1.0575388540e+000	-4.6145172168e+000
 4.1410654826e-001	 1.0460118387e+000	-3.0630056092e+000
 4.0371079507e-001	 1.0500678997e+000	-3.1883280920e+000
 3.9329728963e-001	 1.0540124487e+000	-3.3099166142e+000
 3.8286774073e-001	 1.0578455904e+000	-3.4275643975e+000
 3.7242384748e-001	 1.0615674627e+000	-3.5410689350e+000
 3.6196729844e-001	 1.0651782362e+000	-3.6502321523e+000
 3.5149977101e-001	 1.0686781138e+000	-3.7548605615e+000
 3.4102293058e-001	 1.0720673303e+000	-3.8547654060e+000
 3.3053842994e-001	 1.0753461519e+000	-3.9497627960e+000
 3.2004790851e-001	 1.0785148753e+000	-4.0396738369e+000
 3.0955299172e-001	 1.0815738279e+000	-4.1243247472e+000
 4.2330891600e-001	 1.0692565462e+000	-2.8595288534e+000
 4.1268214607e-001	 1.0734027419e+000	-2.9646015909e+000
 4.0203722940e-001	 1.0774349475e+000	-3.0659018221e+000
 3.9137591275e-001	 1.0813532702e+000	-3.1632609519e+000
 3.8069993298e-001	 1.0851578507e+000	-3.2565143180e+000
 3.7001101619e-001	 1.0888488637e+000	-3.3455013209e+000
 3.5931087703e-001	 1.0924265164e+000	-3.4300655455e+000
 3.4860121793e-001	 1.0958910488e+000	-3.5100548757e+000
 3.3788372839e-001	 1.0992427330e+000	-3.5853216011e+000
 3.2716008426e-001	 1.1024818725e+000	-3.6557225160e+000
 3.1643194709e-001	 1.1056088019e+000	-3.7211190106e+000
 4.3251128374e-001	 1.0925012537e+000	-2.7076872157e+000
 4.2165349708e-001	 1.0967375841e+000	-2.7954976592e+000
 4.1077716917e-001	 1.1008574464e+000	-2.8794967199e+000
 3.9988408477e-001	 1.1048609500e+000	-2.9595525936e+000
 3.8897601848e-001	 1.1087482388e+000	-3.0355370886e+000
 3.7805473393e-001	 1.1125194911e+000	-3.1073257228e+000
 3.6712198306e-001	 1.1161749189e+000	-3.1747978161e+000
 3.5617950528e-001	 1.1197147673e+000	-3.2378365749e+000
 3.4522902683e-001	 1.1231393142e+000	-3.2963291703e+000
 3.3427226000e-001	 1.1264488698e+000	-3.3501668097e+000
 3.2331090246e-001	 1.1296437758e+000	-3.3992448012e+000
 4.4171365148e-001	 1.1157459613e+000	-2.6041084785e+000
 4.3062484808e-001	 1.1200724263e+000	-2.6774628996e+000
 4.1951710894e-001	 1.1242799453e+000	-2.7469665439e+000
 4.0839225679e-001	 1.1283686297e+000	-2.8125230881e+000
 3.9725210398e-001	 1.1323386269e+000	-2.8740395154e+000
 3.8609845168e-001	 1.1361901186e+000	-2.9314261842e+000
 3.7493308908e-001	 1.1399233214e+000	-2.9845968897e+000
 3.6375779263e-001	 1.1435384857e+000	-3.0334689203e+000
 3.5257432527e-001	 1.1470358953e+000	-3.0779631079e+000
 3.4138443575e-001	 1.1504158670e+000	-3.1180038727e+000
 3.3018985783e-001	 1.1536787498e+000	-3.1535192614e+000
 4.5091601922e-001	 1.1389906688e+000	-2.5456957973e+000
 4.3959619908e-001	 1.1434072685e+000	-2.6072342025e+000
 4.2825704871e-001	 1.1477024441e+000	-2.6648817433e+000
 4.1690042880e-001	 1.1518763095e+000	-2.7185763397e+000
 4.0552818948e-001	 1.1559290149e+000	-2.7682589292e+000
 3.9414216942e-001	 1.1598607461e+000	-2.8138735055e+000
 3.8274419510e-001	 1.1636717239e+000	-2.8553671519e+000
 3.7133607997e-001	 1.1673622042e+000	-2.8926900694e+000
 3.5991962372e-001	 1.1709324765e+000	-2.9257956003e+000
 3.4849661149e-001	 1.1743828642e+000	-2.9546402467e+000
 3.3706881320e-001	 1.1777137238e+000	-2.9791836836e+000
 4.6011838696e-001	 1.1622353763e+000	-2.5296001629e+000
 4.4856755008e-001	 1.1667421108e+000	-2.5818097175e+000
 4.3699698847e-001	 1.1711249430e+000	-2.6300874579e+000
 4.2540860082e-001	 1.1753839893e+000	-2.6744043783e+000
 4.1380427497e-001	 1.1795194030e+000	-2.7147342166e+000
 4.0218588716e-001	 1.1835313736e+000	-2.7510534641e+000
 3.9055530112e-001	 1.1874201265e+000	-2.7833413705e+000
 3.7891436731e-001	 1.1911859226e+000	-2.8115799460e+000
 3.6726492216e-001	 1.1948290576e+000	-2.8357539574e+000
 3.5560878723e-001	 1.1983498614e+000	-2.8558509217e+000
 3.4394776857e-001	 1.2017486977e+000	-2.8718610950e+000
 2.7515821483e-001	 9.6139895816e-001	-7.5780971863e+000
 2.6582692472e-001	 9.6402077054e-001	-7.8065408452e+000
 2.5649457767e-001	 9.6654566967e-001	-8.0292592043e+000
 2.4716257779e-001	 9.6897402446e-001	-8.2459726813e+000
 2.3783231458e-001	 9.7130622879e-001	-8.4564080748e+000
 2.2850516241e-001	 9.7354270101e-001	-8.6602987418e+000
 2.1918248004e-001	 9.7568388343e-001	-8.8573847637e+000
 2.0986561017e-001	 9.7773024174e-001	-9.0474131009e+000
 2.0055587900e-001	 9.7968226449e-001	-9.2301377363e+000
 1.9125459577e-001	 9.8154046252e-001	-9.4053198073e+000
 1.8196305243e-001	 9.8330536841e-001	-9.5727277266e+000
 2.8203717021e-001	 9.8543393212e-001	-6.6718619859e+000
 2.7247259785e-001	 9.8812128980e-001	-6.8700840192e+000
 2.6290694212e-001	 9.9070931141e-001	-7.0626449260e+000
 2.5334164224e-001	 9.9319837507e-001	-7.2492991335e+000
 2.4377812245e-001	 9.9558888451e-001	-7.4298070595e+000
 2.3421779148e-001	 9.9788126854e-001	-7.6039352629e+000
 2.2466204205e-001	 1.0000759805e+000	-7.7714565853e+000
 2.1511225043e-001	 1.0021734978e+000	-7.9321502816e+000
 2.0556977597e-001	 1.0041743211e+000	-8.0858021403e+000
 1.9603596067e-001	 1.0060789741e+000	-8.2322045932e+000
 1.8651212874e-001	 1.0078880026e+000	-8.3711568156e+000
 2.8891612559e-001	 1.0094689061e+000	-5.8811823140e+000
 2.7911827098e-001	 1.0122218091e+000	-6.0524026932e+000
 2.6931930657e-001	 1.0148729532e+000	-6.2180262162e+000
 2.5952070669e-001	 1.0174227257e+000	-6.3778399048e+000
 2.4972393032e-001	 1.0198715402e+000	-6.5316364000e+000
 2.3993042054e-001	 1.0222198361e+000	-6.6792140878e+000
 2.3014160405e-001	 1.0244680776e+000	-6.8203772162e+000
 2.2035889069e-001	 1.0266167538e+000	-6.9549360032e+000
 2.1058367295e-001	 1.0286663777e+000	-7.0827067339e+000
 2.0081732556e-001	 1.0306174856e+000	-7.2035118498e+000
 1.9106120505e-001	 1.0324706368e+000	-7.3171800279e+000
 2.9579508097e-001	 1.0335038800e+000	-5.1978788983e+000
 2.8576394410e-001	 1.0363223283e+000	-5.3450962065e+000
 2.7573167102e-001	 1.0390365949e+000	-5.4867807763e+000
 2.6569977114e-001	 1.0416470763e+000	-5.6227509050e+000
 2.5566973819e-001	 1.0441541959e+000	-5.7528301563e+000
 2.4564304960e-001	 1.0465584036e+000	-5.8768474621e+000
 2.3562116605e-001	 1.0488601747e+000	-5.9946372165e+000
 2.2560553094e-001	 1.0510600099e+000	-6.1060393603e+000
 2.1559756992e-001	 1.0531584343e+000	-6.2108994575e+000
 2.0559869045e-001	 1.0551559972e+000	-6.3090687631e+000
 1.9561028136e-001	 1.0570532710e+000	-6.4004042825e+000
 3.0267403634e-001	 1.0575388540e+000	-4.6145172168e+000
 2.9240961722e-001	 1.0604228476e+000	-4.7405288429e+000
 2.8214403546e-001	 1.0632002366e+000	-4.8610714615e+000
 2.7187883559e-001	 1.0658714269e+000	-4.9759934134e+000
 2.6161554606e-001	 1.0684368517e+000	-5.0851479712e+000
 2.5135567866e-001	 1.0708969711e+000	-5.1883934172e+000
 2.4110072806e-001	 1.0732522718e+000	-5.2855931151e+000
 2.3085217120e-001	 1.0755032659e+000	-5.3766155723e+000
 2.2061146690e-001	 1.0776504909e+000	-5.4613344954e+000
 2.1038005535e-001	 1.0796945088e+000	-5.5396288384e+000
 2.0015935767e-001	 1.0816359052e+000	-5.6113828420e+000
 3.0955299172e-001	 1.0815738279e+000	-4.1243247472e+000
 2.9905529035e-001	 1.0845233669e+000	-4.2317448365e+000
 2.8855639991e-001	 1.0873638784e+000	-4.3337590411e+000
 2.7805790004e-001	 1.0900957775e+000	-4.4302445933e+000
 2.6756135392e-001	 1.0927195074e+000	-4.5210833390e+000
 2.5706830773e-001	 1.0952355386e+000	-4.6061617936e+000
 2.4658029006e-001	 1.0976443689e+000	-4.6853711908e+000
 2.3609881145e-001	 1.0999465220e+000	-4.7586075243e+000
 2.2562536387e-001	 1.1021425476e+000	-4.8257715824e+000
 2.1516142024e-001	 1.1042330203e+000	-4.8867689767e+000
 2.0470843398e-001	 1.1062185395e+000	-4.9415101630e+000
 3.1643194709e-001	 1.1056088019e+000	-3.7211190106e+000
 3.0570096347e-001	 1.1086238861e+000	-3.8123944641e+000
 2.9496876435e-001	 1.1115275201e+000	-3.8983263388e+000
 2.8423696448e-001	 1.1143201281e+000	-3.9788196785e+000
 2.7350716179e-001	 1.1170021631e+000	-4.0537838394e+000
 2.6278093679e-001	 1.1195741062e+000	-4.1231325232e+000
 2.5205985206e-001	 1.1220364660e+000	-4.1867838045e+000
 2.4134545170e-001	 1.1243897780e+000	-4.2446601521e+000
 2.3063926085e-001	 1.1266346042e+000	-4.2966884436e+000
 2.1994278513e-001	 1.1287715319e+000	-4.3427999747e+000
 2.0925751029e-001	 1.1308011737e+000	-4.3829304621e+000
 3.2331090246e-001	 1.1296437758e+000	-3.3992448012e+000
 3.1234663659e-001	 1.1327244054e+000	-3.4766695729e+000
 3.0138112879e-001	 1.1356911619e+000	-3.5488120563e+000
 2.9041602893e-001	 1.1385444787e+000	-3.6156040936e+000
 2.7945296965e-001	 1.1412848188e+000	-3.6769815535e+000
 2.6849356585e-001	 1.1439126737e+000	-3.7328843422e+000
 2.5753941406e-001	 1.1464285630e+000	-3.7832564108e+000
 2.4659209196e-001	 1.1488330341e+000	-3.8280457554e+000
 2.3565315782e-001	 1.1511266608e+000	-3.8672044127e+000
 2.2472415003e-001	 1.1533100435e+000	-3.9006884508e+000
 2.1380658660e-001	 1.1553838079e+000	-3.9284579541e+000
 3.3018985783e-001	 1.1536787498e+000	-3.1535192614e+000
 3.1899230970e-001	 1.1568249247e+000	-3.2192471665e+000
 3.0779349323e-001	 1.1598548036e+000	-3.2797528695e+000
 2.9659509337e-001	 1.1627688294e+000	-3.3349940590e+000
 2.8539877752e-001	 1.1655674746e+000	-3.3849321782e+000
 2.7420619490e-001	 1.1682512412e+000	-3.4295324166e+000
 2.6301897606e-001	 1.1708206601e+000	-3.4687636950e+000
 2.5183873221e-001	 1.1732762901e+000	-3.5025986475e+000
 2.4066705479e-001	 1.1756187174e+000	-3.5310135977e+000
 2.2950551492e-001	 1.1778485550e+000	-3.5539885305e+000
 2.1835566291e-001	 1.1799664421e+000	-3.5715070607e+000
 3.3706881320e-001	 1.1777137238e+000	-2.9791836836e+000
 3.2563798282e-001	 1.1809254439e+000	-3.0352398992e+000
 3.1420585767e-001	 1.1840184454e+000	-3.0861326149e+000
 3.0277415782e-001	 1.1869931800e+000	-3.1318444686e+000
 2.9134458538e-001	 1.1898501303e+000	-3.1723615966e+000
 2.7991882396e-001	 1.1925898088e+000	-3.2076736034e+000
 2.6849853806e-001	 1.1952127572e+000	-3.2377735285e+000
 2.5708537246e-001	 1.1977195461e+000	-3.2626578074e+000
 2.4568095177e-001	 1.2001107740e+000	-3.2823262304e+000
 2.3428687981e-001	 1.2023870666e+000	-3.2967818967e+000
 2.2290473922e-001	 1.2045490763e+000	-3.3060311648e+000
 3.4394776857e-001	 1.2017486977e+000	-2.8718610950e+000
 3.3228365593e-001	 1.2050259632e+000	-2.9201525112e+000
 3.2061822211e-001	 1.2081820871e+000	-2.9633375733e+000
 3.0895322226e-001	 1.2112175306e+000	-3.0014230232e+000
 2.9729039324e-001	 1.2141327860e+000	-3.0344188586e+000
 2.8563145302e-001	 1.2169283763e+000	-3.0623382826e+000
 2.7397810005e-001	 1.2196048543e+000	-3.0851976503e+000
 2.6233201271e-001	 1.2221628022e+000	-3.1030164123e+000
 2.5069484874e-001	 1.2246028306e+000	-3.1158170542e+000
 2.3906824470e-001	 1.2269255782e+000	-3.1236250337e+000
 2.2745381553e-001	 1.2291317105e+000	-3.1264687142e+000
 1.8196305243e-001	 9.8330536841e-001	-9.5727277266e+000
 1.7268252319e-001	 9.8497753588e-001	-9.7305484666e+000
 1.6341426419e-001	 9.8655753926e-001	-9.8804333118e+000
 1.5415951315e-001	 9.8804597288e-001	-1.0022283258e+001
 1.4491948905e-001	 9.8944345050e-001	-1.0156004649e+001
 1.3569539180e-001	 9.9075060469e-001	-1.0281509186e+001
 1.2648840201e-001	 9.9196808628e-001	-1.0398713927e+001
 1.1729968064e-001	 9.9309656377e-001	-1.0507541284e+001
 1.0813036885e-001	 9.9413672268e-001	-1.0607919012e+001
 9.8981587693e-002	 9.9508926501e-001	-1.0699780192e+001
 8.9854437932e-002	 9.9595490863e-001	-1.0783063208e+001
 1.8651212874e-001	 1.0078880026e+000	-8.3711568156e+000
 1.7699958627e-001	 1.0096019743e+000	-8.5107875798e+000
 1.6749962079e-001	 1.0112214777e+000	-8.6428032390e+000
 1.5801350098e-001	 1.0127471222e+000	-8.7671192088e+000
 1.4854247627e-001	 1.0141795368e+000	-8.8836559438e+000
 1.3908777659e-001	 1.0155193698e+000	-8.9923389373e+000
 1.2965061205e-001	 1.0167672884e+000	-9.0930987148e+000
 1.2023217266e-001	 1.0179239779e+000	-9.1858708224e+000
 1.1083362807e-001	 1.0189901407e+000	-9.2705958089e+000
 1.0145612738e-001	 1.0199664966e+000	-9.3472192024e+000
 9.2100798875e-002	 1.0208537813e+000	-9.4156914825e+000
 1.9106120505e-001	 1.0324706368e+000	-7.3171800279e+000
 1.8131664935e-001	 1.0342264127e+000	-7.4402984684e+000
 1.7158497739e-001	 1.0358854162e+000	-7.5561153386e+000
 1.6186748880e-001	 1.0374482715e+000	-7.6645598412e+000
 1.5216546349e-001	 1.0389156230e+000	-7.7655659241e+000
 1.4248016138e-001	 1.0402881349e+000	-7.8590722711e+000
 1.3281282210e-001	 1.0415664906e+000	-7.9450222884e+000
 1.2316466467e-001	 1.0427513919e+000	-8.0233640851e+000
 1.1353688729e-001	 1.0438435588e+000	-8.0940504486e+000
 1.0393066707e-001	 1.0448437283e+000	-8.1570388152e+000
 9.4347159819e-002	 1.0457526541e+000	-8.2122912359e+000
 1.9561028136e-001	 1.0570532710e+000	-6.4004042825e+000
 1.8563371242e-001	 1.0588508511e+000	-6.5085717640e+000
 1.7567033400e-001	 1.0605493547e+000	-6.6097442074e+000
 1.6572147663e-001	 1.0621494208e+000	-6.7038640154e+000
 1.5578845071e-001	 1.0636517093e+000	-6.7908780557e+000
 1.4587254618e-001	 1.0650569000e+000	-6.8707376442e+000
 1.3597503214e-001	 1.0663656927e+000	-6.9433985237e+000
 1.2609715668e-001	 1.0675788060e+000	-7.0088208369e+000
 1.1624014650e-001	 1.0686969769e+000	-7.0669690957e+000
 1.0640520676e-001	 1.0697209599e+000	-7.1178121454e+000
 9.6593520764e-002	 1.0706515268e+000	-7.1613231244e+000
 2.0015935767e-001	 1.0816359052e+000	-5.6113828420e+000
 1.8995077550e-001	 1.0834752895e+000	-5.7060550045e+000
 1.7975569060e-001	 1.0852132932e+000	-5.7940318818e+000
 1.6957546445e-001	 1.0868505702e+000	-5.8752685294e+000
 1.5941143794e-001	 1.0883877955e+000	-5.9497242019e+000
 1.4926493097e-001	 1.0898256651e+000	-6.0173623280e+000
 1.3913724219e-001	 1.0911648949e+000	-6.0781504818e+000
 1.2902964869e-001	 1.0924062201e+000	-6.1320603487e+000
 1.1894340572e-001	 1.0935503949e+000	-6.1790676883e+000
 1.0887974645e-001	 1.0945981915e+000	-6.2191522919e+000
 9.8839881709e-002	 1.0955503995e+000	-6.2522979374e+000
 2.0470843398e-001	 1.1062185395e+000	-4.9415101630e+000
 1.9426783858e-001	 1.1080997279e+000	-5.0240463122e+000
 1.8384104720e-001	 1.1098772317e+000	-5.1001803446e+000
 1.7342945228e-001	 1.1115517195e+000	-5.1698794592e+000
 1.6303442516e-001	 1.1131238818e+000	-5.2331148012e+000
 1.5265731576e-001	 1.1145944303e+000	-5.2898614289e+000
 1.4229945224e-001	 1.1159640970e+000	-5.3400982779e+000
 1.3196214071e-001	 1.1172336342e+000	-5.3838081199e+000
 1.2164666494e-001	 1.1184038130e+000	-5.4209775191e+000
 1.1135428614e-001	 1.1194754231e+000	-5.4515967840e+000
 1.0108624265e-001	 1.1204492722e+000	-5.4756599160e+000
 2.0925751029e-001	 1.1308011737e+000	-4.3829304621e+000
 1.9858490166e-001	 1.1327241663e+000	-4.4546019382e+000
 1.8792640381e-001	 1.1345411701e+000	-4.5201580524e+000
 1.7728344011e-001	 1.1362528688e+000	-4.5795776723e+000
 1.6665741239e-001	 1.1378599681e+000	-4.6328433705e+000
 1.5604970055e-001	 1.1393631954e+000	-4.6799413850e+000
 1.4546166229e-001	 1.1407632992e+000	-4.7208615752e+000
 1.3489463272e-001	 1.1420610483e+000	-4.7555973746e+000
 1.2434992416e-001	 1.1432572311e+000	-4.7841457405e+000
 1.1382882583e-001	 1.1443526547e+000	-4.8065070996e+000
 1.0333260360e-001	 1.1453481449e+000	-4.8226852914e+000
 2.1380658660e-001	 1.1553838079e+000	-3.9284579541e+000
 2.0290196474e-001	 1.1573486046e+000	-3.9904556104e+000
 1.9201176041e-001	 1.1592051086e+000	-4.0466183961e+000
 1.8113742794e-001	 1.1609540181e+000	-4.0969364028e+000
 1.7028039961e-001	 1.1625960543e+000	-4.1414031988e+000
 1.5944208535e-001	 1.1641319605e+000	-4.1800157815e+000
 1.4862387233e-001	 1.1655625014e+000	-4.2127745265e+000
 1.3782712473e-001	 1.1668884624e+000	-4.2396831339e+000
 1.2705318338e-001	 1.1681106491e+000	-4.2607485706e+000
 1.1630336552e-001	 1.1692298864e+000	-4.2759810111e+000
 1.0557896455e-001	 1.1702470176e+000	-4.2853937748e+000
 2.1835566291e-001	 1.1799664421e+000	-3.5715070607e+000
 2.0721902781e-001	 1.1819730430e+000	-3.6249479637e+000
 1.9609711701e-001	 1.1838690471e+000	-3.6728283533e+000
 1.8499141576e-001	 1.1856551674e+000	-3.7151491301e+000
 1.7390338684e-001	 1.1873321406e+000	-3.7519144540e+000
 1.6283447014e-001	 1.1889007256e+000	-3.7831316897e+000
 1.5178608238e-001	 1.1903617035e+000	-3.8088113486e+000
 1.4075961675e-001	 1.1917158765e+000	-3.8289670284e+000
 1.2975644260e-001	 1.1929640672e+000	-3.8436153492e+000
 1.1877790521e-001	 1.1941071180e+000	-3.8527758883e+000
 1.0782532549e-001	 1.1951458903e+000	-3.8564711121e+000
 2.2290473922e-001	 1.2045490763e+000	-3.3060311648e+000
 2.1153609089e-001	 1.2065974814e+000	-3.3519646097e+000
 2.0018247362e-001	 1.2085329856e+000	-3.3926058776e+000
 1.8884540359e-001	 1.2103563168e+000	-3.4279662884e+000
 1.7752637406e-001	 1.2120682268e+000	-3.4580602160e+000
 1.6622685494e-001	 1.2136694907e+000	-3.4829050256e+000
 1.5494829243e-001	 1.2151609057e+000	-3.5025210092e+000
 1.4369210877e-001	 1.2165432906e+000	-3.5169313179e+000
 1.3245970182e-001	 1.2178174853e+000	-3.5261618926e+000
 1.2125244490e-001	 1.2189843496e+000	-3.5302413923e+000
 1.1007168644e-001	 1.2200447631e+000	-3.5292011205e+000
 2.2745381553e-001	 1.2291317105e+000	-3.1264687142e+000
 2.1585315397e-001	 1.2312219198e+000	-3.1658816400e+000
 2.0426783022e-001	 1.2331969241e+000	-3.2002648008e+000
 1.9269939142e-001	 1.2350574661e+000	-3.2296395713e+000
 1.8114936129e-001	 1.2368043131e+000	-3.2540301853e+000
 1.6961923973e-001	 1.2384382558e+000	-3.2734636654e+000
 1.5811050249e-001	 1.2399601078e+000	-3.2879697519e+000
 1.4662460078e-001	 1.2413707047e+000	-3.2975808283e+000
 1.3516296104e-001	 1.2426709033e+000	-3.3023318460e+000
 1.2372698459e-001	 1.2438615812e+000	-3.3022602464e+000
 1.1231804739e-001	 1.2449436358e+000	-3.2974058822e+000
 8.9854437932e-002	 9.9595490863e-001	-1.0783063208e+001
 8.0749999857e-002	 9.9673438666e-001	-1.0850090126e+001
 7.1669333105e-002	 9.9742844692e-001	-1.0909716470e+001
 6.2613476500e-002	 9.9803785128e-001	-1.0962012211e+001
 5.3583447921e-002	 9.9856337512e-001	-1.1007049031e+001
 4.4580244178e-002	 9.9900580671e-001	-1.1044900254e+001
 3.5604840910e-002	 9.9936594664e-001	-1.1075640763e+001
 2.6658192499e-002	 9.9964460724e-001	-1.1099346928e+001
 1.7741231999e-002	 9.9984261196e-001	-1.1116096531e+001
 8.8548710816e-003	 9.9996079486e-001	-1.1125968687e+001
 0.0000000000e+000	 1.0000000000e+000	-1.1129043772e+001
 9.2100798875e-002	 1.0208537813e+000	-9.4156914825e+000
 8.2768749849e-002	 1.0216527463e+000	-9.4802355376e+000
 7.3461066429e-002	 1.0223641581e+000	-9.5375672250e+000
 6.4178813409e-002	 1.0229887976e+000	-9.5877507917e+000
 5.4923034116e-002	 1.0235274595e+000	-9.6308523494e+000
 4.5694750280e-002	 1.0239809519e+000	-9.6669397975e+000
 3.6494961931e-002	 1.0243500953e+000	-9.6960827465e+000
 2.7324647310e-002	 1.0246357224e+000	-9.7183524419e+000
 1.8184762798e-002	 1.0248386773e+000	-9.7338216869e+000
 9.0762428582e-003	 1.0249598147e+000	-9.7425647669e+000
 0.0000000000e+000	 1.0250000000e+000	-9.7446573727e+000
 9.4347159819e-002	 1.0457526541e+000	-8.2122912359e+000
 8.4787499842e-002	 1.0465711060e+000	-8.2739260658e+000
 7.5252799753e-002	 1.0472998693e+000	-8.3285409058e+000
 6.5744150319e-002	 1.0479397438e+000	-8.3761944063e+000
 5.6262620311e-002	 1.0484915439e+000	-8.4169472294e+000
 4.6809256382e-002	 1.0489560970e+000	-8.4508619716e+000
 3.7385082952e-002	 1.0493342440e+000	-8.4780030870e+000
 2.7991102121e-002	 1.0496268376e+000	-8.4984368096e+000
 1.8628293597e-002	 1.0498347426e+000	-8.5122310765e+000
 9.2976146348e-003	 1.0499588346e+000	-8.5194554498e+000
 0.0000000000e+000	 1.0500000000e+000	-8.5201810396e+000
 9.6593520764e-002	 1.0706515268e+000	-7.1613231244e+000
 8.6806249835e-002	 1.0714894657e+000	-7.2196504088e+000
 7.7044533077e-002	 1.0722355804e+000	-7.2711537297e+000
 6.7309487228e-002	 1.0728906901e+000	-7.3158862613e+000
 5.7602206507e-002	 1.0734556282e+000	-7.3539033337e+000
 4.7923762484e-002	 1.0739312422e+000	-7.3852623559e+000
 3.8275203973e-002	 1.0743183926e+000	-7.4100227381e+000
 2.8657556932e-002	 1.0746179528e+000	-7.4282458136e+000
 1.9071824396e-002	 1.0748308079e+000	-7.4399947601e+000
 9.5189864113e-003	 1.0749578545e+000	-7.4453345216e+000
 0.0000000000e+000	 1.0750000000e+000	-7.4443317297e+000
 9.8839881709e-002	 1.0955503995e+000	-6.2522979374e+000
 8.8824999828e-002	 1.0964078253e+000	-6.3069447680e+000
 7.8836266402e-002	 1.0971712916e+000	-6.3549668277e+000
 6.8874824138e-002	 1.0978416364e+000	-6.3964119292e+000
 5.8941792703e-002	 1.0984197126e+000	-6.4313301842e+000
 4.9038268587e-002	 1.0989063874e+000	-6.4597739258e+000
 3.9165324994e-002	 1.0993025413e+000	-6.4817976292e+000
 2.9324011743e-002	 1.0996090680e+000	-6.4974578338e+000
 1.9515355195e-002	 1.0998268732e+000	-6.5068130628e+000
 9.7403581879e-003	 1.0999568743e+000	-6.5099237443e+000
 0.0000000000e+000	 1.1000000000e+000	-6.5068521309e+000
 1.0108624265e-001	 1.1204492722e+000	-5.4756599160e+000
 9.0843749822e-002	 1.1213261850e+000	-5.5262764591e+000
 8.0627999727e-002	 1.1221070028e+000	-5.5704701426e+000
 7.0440161048e-002	 1.1227925827e+000	-5.6082835293e+000
 6.0281378898e-002	 1.1233837970e+000	-5.6397616224e+000
 5.0152774689e-002	 1.1238815325e+000	-5.6649517860e+000
 4.0055446015e-002	 1.1242866900e+000	-5.6839036671e+000
 2.9990466555e-002	 1.1246001831e+000	-5.6966691149e+000
 1.9958885994e-002	 1.1248229385e+000	-5.7033021004e+000
 9.9617299645e-003	 1.1249558942e+000	-5.7038586357e+000
 0.0000000000e+000	 1.1250000000e+000	-5.6983966923e+000
 1.0333260360e-001	 1.1453481449e+000	-4.8226852914e+000
 9.2862499816e-002	 1.1462445446e+000	-4.8689427033e+000
 8.2419733053e-002	 1.1470427139e+000	-4.9089814716e+000
 7.2005497959e-002	 1.1477435290e+000	-4.9428390168e+000
 6.1620965094e-002	 1.1483478814e+000	-4.9705553392e+000
 5.1267280792e-002	 1.1488566777e+000	-4.9921729396e+000
 4.0945567036e-002	 1.1492708386e+000	-5.0077367391e+000
 3.0656921366e-002	 1.1495912983e+000	-5.0172939986e+000
 2.0402416793e-002	 1.1498190038e+000	-5.0208942369e+000
 1.0183101741e-002	 1.1499549141e+000	-5.0185891482e+000
 0.0000000000e+000	 1.1500000000e+000	-5.0104325194e+000
 1.0557896455e-001	 1.1702470176e+000	-4.2853937748e+000
 9.4881249811e-002	 1.1711629043e+000	-4.3269823399e+000
 8.4211466378e-002	 1.1719784251e+000	-4.3625583966e+000
 7.3570834869e-002	 1.1726944752e+000	-4.3921543272e+000
 6.2960551291e-002	 1.1733119658e+000	-4.4158052324e+000
 5.2381786895e-002	 1.1738318229e+000	-4.4335488513e+000
 4.1835688057e-002	 1.1742549873e+000	-4.4454254804e+000
 3.1323376177e-002	 1.1745824135e+000	-4.4514778917e+000
 2.0845947592e-002	 1.1748150691e+000	-4.4517512495e+000
 1.0404473518e-002	 1.1749539340e+000	-4.4462930271e+000
 0.0000000000e+000	 1.1750000000e+000	-4.4351529218e+000
 1.0782532549e-001	 1.1951458903e+000	-3.8564711121e+000
 9.6899999806e-002	 1.1960812640e+000	-3.8930985744e+000
 8.6003199704e-002	 1.1969141363e+000	-3.9239212231e+000
 7.5136171780e-002	 1.1976454215e+000	-3.9489665036e+000
 6.4300137487e-002	 1.1982760501e+000	-3.9682647174e+000
 5.3496292997e-002	 1.1988069680e+000	-3.9818489416e+000
 4.2725809079e-002	 1.1992391360e+000	-3.9897549467e+000
 3.1989830989e-002	 1.1995735287e+000	-3.9920211134e+000
 2.1289478391e-002	 1.1998111344e+000	-3.9886883482e+000
 1.0625845294e-002	 1.1999529538e+000	-3.9797999986e+000
 0.0000000000e+000	 1.2000000000e+000	-3.9654017663e+000
 1.1007168644e-001	 1.2200447631e+000	-3.5292011205e+000
 9.8918749801e-002	 1.2209996236e+000	-3.5605911859e+000
 8.7794933031e-002	 1.2218498475e+000	-3.5863853557e+000
 7.6701508691e-002	 1.2225963678e+000	-3.6066062370e+000
 6.5639723683e-002	 1.2232401345e+000	-3.6212794304e+000
 5.4610799100e-002	 1.2237821132e+000	-3.6304334485e+000
 4.3615930100e-002	 1.2242232846e+000	-3.6340996324e+000
 3.2656285800e-002	 1.2245646439e+000	-3.6323120679e+000
 2.1733009191e-002	 1.2248071996e+000	-3.6251074990e+000
 1.0847217071e-002	 1.2249519737e+000	-3.6125252412e+000
 0.0000000000e+000	 1.2250000000e+000	-3.5946070942e+000
 1.1231804739e-001	 1.2449436358e+000	-3.2974058822e+000
 1.0093749980e-001	 1.2459179833e+000	-3.3232968699e+000
 8.9586666357e-002	 1.2467855586e+000	-3.3438017878e+000
 7.8266845602e-002	 1.2475473141e+000	-3.3589385012e+000
 6.6979309880e-002	 1.2482042189e+000	-3.3687280057e+000
 5.5725305204e-002	 1.2487572584e+000	-3.3731943450e+000
 4.4506051122e-002	 1.2492074333e+000	-3.3723645267e+000
 3.3322740611e-002	 1.2495557590e+000	-3.3662684358e+000
 2.2176539990e-002	 1.2498032649e+000	-3.3549387479e+000
 1.1068588847e-002	 1.2499509936e+000	-3.3384108405e+000
 0.0000000000e+000	 1.2500000000e+000	-3.3167227032e+000
 1.2500000000e+000	 0.0000000000e+000	 4.1122146272e+000
 1.2499509936e+000	 1.1068588847e-002	 4.1201650816e+000
 1.2498032649e+000	 2.2176539990e-002	 4.1242026916e+000
 1.2495557590e+000	 3.3322740611e-002	 4.1242591326e+000
 1.2492074333e+000	 4.4506051122e-002	 4.1202663911e+000
 1.2487572584e+000	 5.5725305204e-002	 4.1121568308e+000
 1.2482042189e+000	 6.6979309880e-002	 4.0998632617e+000
 1.2475473141e+000	 7.8266845602e-002	 4.0833190098e+000
 1.2467855586e+000	 8.9586666357e-002	 4.0624579889e+000
 1.2459179833e+000	 1.0093749980e-001	 4.0372147739e+000
 1.2449436358e+000	 1.1231804739e-001	 4.0075246749e+000
 1.2750000000e+000	 0.0000000000e+000	 3.9934768422e+000
 1.2749500134e+000	 1.1289960624e-002	 4.0026194986e+000
 1.2747993302e+000	 2.2620070789e-002	 4.0080749993e+000
 1.2745468742e+000	 3.3989195423e-002	 4.0098366503e+000
 1.2741915820e+000	 4.5396172143e-002	 4.0078955635e+000
 1.2737324036e+000	 5.6839811307e-002	 4.0022405437e+000
 1.2731683033e+000	 6.8318896077e-002	 3.9928579773e+000
 1.2724982604e+000	 7.9832182514e-002	 3.9797317234e+000
 1.2717212698e+000	 9.1378399684e-002	 3.9628430074e+000
 1.2708363430e+000	 1.0295624979e-001	 3.9421703178e+000
 1.2698425085e+000	 1.1456440834e-001	 3.9176893069e+000
 1.3000000000e+000	 0.0000000000e+000	 3.9006620466e+000
 1.2999490333e+000	 1.1511332401e-002	 3.9102768020e+000
 1.2997953955e+000	 2.3063601588e-002	 3.9160515111e+000
 1.2995379894e+000	 3.4655650234e-002	 3.9179764919e+000
 1.2991757306e+000	 4.6286293165e-002	 3.9160397679e+000
 1.2987075487e+000	 5.7954317410e-002	 3.9102269531e+000
 1.2981323876e+000	 6.9658482273e-002	 3.9005211389e+000
 1.2974492067e+000	 8.1397519425e-002	 3.8869027836e+000
 1.2966569810e+000	 9.3170133010e-002	 3.8693496047e+000
 1.2957547027e+000	 1.0497499979e-001	 3.8478364749e+000
 1.2947413812e+000	 1.1681076929e-001	 3.8223353216e+000
 1.3250000000e+000	 0.0000000000e+000	 3.8323920852e+000
 1.3249480532e+000	 1.1732704177e-002	 3.8419515967e+000
 1.3247914608e+000	 2.3507132387e-002	 3.8475402833e+000
 1.3245291046e+000	 3.5322105045e-002	 3.8491459287e+000
 1.3241598793e+000	 4.7176414186e-002	 3.8467539085e+000
 1.3236826939e+000	 5.9068823513e-002	 3.8403470724e+000
 1.3230964720e+000	 7.0998068470e-002	 3.8299056281e+000
 1.3224001529e+000	 8.2962856336e-002	 3.8154070291e+000
 1.3215926922e+000	 9.4961866336e-002	 3.7968258646e+000
 1.3206730623e+000	 1.0699374978e-001	 3.7741337540e+000
 1.3196402539e+000	 1.1905713023e-001	 3.7472992446e+000
 1.3500000000e+000	 0.0000000000e+000	 3.7873908883e+000
 1.3499470731e+000	 1.1954075954e-002	 3.7963810480e+000
 1.3497875261e+000	 2.3950663186e-002	 3.8012914275e+000
 1.3495202198e+000	 3.5988559857e-002	 3.8021077227e+000
 1.3491440280e+000	 4.8066535207e-002	 3.7988130939e+000
 1.3486578391e+000	 6.0183329615e-002	 3.7913880446e+000
 1.3480605564e+000	 7.2337654666e-002	 3.7798103029e+000
 1.3473510992e+000	 8.4528193246e-002	 3.7640547050e+000
 1.3465284033e+000	 9.6753599662e-002	 3.7440930835e+000
 1.3455914220e+000	 1.0901249978e-001	 3.7198941582e+000
 1.3445391266e+000	 1.2130349118e-001	 3.6914234324e+000
 1.3750000000e+000	 0.0000000000e+000	 3.7644751914e+000
 1.3749460929e+000	 1.2175447730e-002	 3.7723939699e+000
 1.3747835914e+000	 2.4394193985e-002	 3.7761455935e+000
 1.3745113349e+000	 3.6655014668e-002	 3.7757141096e+000
 1.3741281766e+000	 4.8956656228e-002	 3.7710808891e+000
 1.3736329842e+000	 6.1297835718e-002	 3.7622245013e+000
 1.3730246408e+000	 7.3677240862e-002	 3.7491205905e+000
 1.3723020455e+000	 8.6093530156e-002	 3.7317417567e+000
 1.3714641145e+000	 9.8545332987e-002	 3.7100574392e+000
 1.3705097816e+000	 1.1103124977e-001	 3.6840338053e+000
 1.3694379994e+000	 1.2354985212e-001	 3.6536336428e+000
 1.4000000000e+000	 0.0000000000e+000	 3.7625462488e+000
 1.3999451128e+000	 1.2396819507e-002	 3.7689026420e+000
 1.3997796567e+000	 2.4837724784e-002	 3.7710258850e+000
 1.3995024501e+000	 3.7321469479e-002	 3.7688988100e+000
 1.3991123253e+000	 4.9846777250e-002	 3.7625014186e+000
 1.3986081294e+000	 6.2412341821e-002	 3.7518107509e+000
 1.3979887252e+000	 7.5016827058e-002	 3.7368007579e+000
 1.3972529918e+000	 8.7658867067e-002	 3.7174421772e+000
 1.3963998257e+000	 1.0033706631e-001	 3.6937024125e+000
 1.3954281413e+000	 1.1304999977e-001	 3.6655454183e+000
 1.3943368721e+000	 1.2579621307e-001	 3.6329315881e+000
 1.4250000000e+000	 0.0000000000e+000	 3.7805824197e+000
 1.4249441327e+000	 1.2618191283e-002	 3.7848954885e+000
 1.4247757220e+000	 2.5281255584e-002	 3.7849306273e+000
 1.4244935653e+000	 3.7987924290e-002	 3.7806698818e+000
 1.4240964740e+000	 5.0736898271e-002	 3.7720922989e+000
 1.4235832746e+000	 6.3526847923e-002	 3.7591737895e+000
 1.4229528095e+000	 7.6356413254e-002	 3.7418869959e+000
 1.4222039381e+000	 8.9224203976e-002	 3.7202011616e+000
 1.4213355368e+000	 1.0212879964e-001	 3.6940820063e+000
 1.4203465010e+000	 1.1506874976e-001	 3.6634916049e+000
 1.4192357448e+000	 1.2804257402e-001	 3.6283882725e+000
 1.4500000000e+000	 0.0000000000e+000	 3.8176325214e+000
 1.4499431525e+000	 1.2839563060e-002	 3.8194305135e+000
 1.4497717873e+000	 2.5724786383e-002	 3.8169268823e+000
 1.4494846805e+000	 3.8654379101e-002	 3.8101033117e+000
 1.4490806226e+000	 5.1627019292e-002	 3.7989383035e+000
 1.4485584197e+000	 6.4641354025e-002	 3.7834070349e+000
 1.4479168939e+000	 7.7695999449e-002	 3.7634812191e+000
 1.4471548843e+000	 9.0789540886e-002	 3.7391289688e+000
 1.4462712480e+000	 1.0392053296e-001	 3.7103146656e+000
 1.4452648606e+000	 1.1708749975e-001	 3.6769988338e+000
 1.4441346175e+000	 1.3028893496e-001	 3.6391380190e+000
 1.4750000000e+000	 0.0000000000e+000	 3.8728098581e+000
 1.4749421724e+000	 1.3060934837e-002	 3.8716294043e+000
 1.4747678526e+000	 2.6168317182e-002	 3.8661446239e+000
 1.4744757957e+000	 3.9320833912e-002	 3.8563372584e+000
 1.4740647713e+000	 5.2517140313e-002	 3.8421856714e+000
 1.4735335649e+000	 6.5755860127e-002	 3.8236646975e+000
 1.4728809783e+000	 7.9035585644e-002	 3.8007454957e+000
 1.4721058306e+000	 9.2354877796e-002	 3.7733954072e+000
 1.4712069592e+000	 1.0571226629e-001	 3.7415778170e+000
 1.4701832203e+000	 1.1910624974e-001	 3.7052520217e+000
 1.4690334902e+000	 1.3253529590e-001	 3.6643731026e+000
 1.5000000000e+000	 0.0000000000e+000	 3.9452868471e+000
 1.4999411923e+000	 1.3282306613e-002	 3.9406722252e+000
 1.4997639179e+000	 2.6611847981e-002	 3.9317714945e+000
 1.4994669109e+000	 3.9987288723e-002	 3.9185668720e+000
 1.4990489200e+000	 5.3407261333e-002	 3.9010369853e+000
 1.4985087101e+000	 6.6870366229e-002	 3.8791567141e+000
 1.4978450627e+000	 8.0375171839e-002	 3.8528970353e+000
 1.4970567769e+000	 9.3920214705e-002	 3.8222248729e+000
 1.4961426704e+000	 1.0750399961e-001	 3.7871029530e+000
 1.4951015800e+000	 1.2112499974e-001	 3.7474896637e+000
 1.4939323629e+000	 1.3478165685e-001	 3.7033389220e+000
 1.2449436358e+000	 1.1231804739e-001	 4.0075246749e+000
 1.2438615812e+000	 1.2372698459e-001	 3.9936478377e+000
 1.2426709033e+000	 1.3516296104e-001	 3.9754523724e+000
 1.2413707047e+000	 1.4662460078e-001	 3.9528773801e+000
 1.2399601078e+000	 1.5811050249e-001	 3.9258629336e+000
 1.2384382558e+000	 1.6961923973e-001	 3.8943501558e+000
 1.2368043131e+000	 1.8114936129e-001	 3.8582812971e+000
 1.2350574661e+000	 1.9269939142e-001	 3.8175998150e+000
 1.2331969241e+000	 2.0426783022e-001	 3.7722504534e+000
 1.2312219198e+000	 2.1585315397e-001	 3.7221793227e+000
 1.2291317105e+000	 2.2745381553e-001	 3.6673339800e+000
 1.2698425085e+000	 1.1456440834e-001	 3.9176893069e+000
 1.2687388129e+000	 1.2620152428e-001	 3.9098204072e+000
 1.2675243214e+000	 1.3786622027e-001	 3.8982502718e+000
 1.2661981188e+000	 1.4955709280e-001	 3.8829469501e+000
 1.2647593100e+000	 1.6127271254e-001	 3.8638753111e+000
 1.2632070210e+000	 1.7301162453e-001	 3.8409969653e+000
 1.2615403994e+000	 1.8477234852e-001	 3.8142701935e+000
 1.2597586154e+000	 1.9655337925e-001	 3.7836498808e+000
 1.2578608626e+000	 2.0835318683e-001	 3.7490874582e+000
 1.2558463582e+000	 2.2017021705e-001	 3.7105308501e+000
 1.2537143447e+000	 2.3200289184e-001	 3.6679244303e+000
 1.2947413812e+000	 1.1681076929e-001	 3.8223353216e+000
 1.2936160445e+000	 1.2867606398e-001	 3.8134723727e+000
 1.2923777395e+000	 1.4056947949e-001	 3.8006340458e+000
 1.2910255329e+000	 1.5248958481e-001	 3.7837846779e+000
 1.2895585122e+000	 1.6443492259e-001	 3.7628853996e+000
 1.2879757861e+000	 1.7640400932e-001	 3.7378940594e+000
 1.2862764856e+000	 1.8839533574e-001	 3.7087651549e+000
 1.2844597647e+000	 2.0040736708e-001	 3.6754497696e+000
 1.2825248010e+000	 2.1243854343e-001	 3.6378955175e+000
 1.2804707966e+000	 2.2448728013e-001	 3.5960464945e+000
 1.2782969789e+000	 2.3655196814e-001	 3.5498432376e+000
 1.3196402539e+000	 1.1905713023e-001	 3.7472992446e+000
 1.3184932761e+000	 1.3115060367e-001	 3.7372357621e+000
 1.3172311575e+000	 1.4327273871e-001	 3.7229522971e+000
 1.3158529470e+000	 1.5542207683e-001	 3.7044097625e+000
 1.3143577143e+000	 1.6759713264e-001	 3.6815658157e+000
 1.3127445512e+000	 1.7979639412e-001	 3.6543747854e+000
 1.3110125719e+000	 1.9201832297e-001	 3.6227876036e+000
 1.3091609141e+000	 2.0426135491e-001	 3.5867517454e+000
 1.3071887395e+000	 2.1652390003e-001	 3.5462111753e+000
 1.3050952350e+000	 2.2880434321e-001	 3.5011063019e+000
 1.3028796131e+000	 2.4110104445e-001	 3.4513739402e+000
 1.3445391266e+000	 1.2130349118e-001	 3.6914234324e+000
 1.3433705078e+000	 1.3362514336e-001	 3.6799584198e+000
 1.3420845756e+000	 1.4597599793e-001	 3.6640577888e+000
 1.3406803611e+000	 1.5835456884e-001	 3.6436793073e+000
 1.3391569165e+000	 1.7075934268e-001	 3.6187774163e+000
 1.3375133163e+000	 1.8318877891e-001	 3.5893031575e+000
 1.3357486582e+000	 1.9564131019e-001	 3.5552041063e+000
 1.3338620634e+000	 2.0811534273e-001	 3.5164243131e+000
 1.3318526780e+000	 2.2060925664e-001	 3.4729042519e+000
 1.3297196734e+000	 2.3312140629e-001	 3.4245807763e+000
 1.3274622474e+000	 2.4565012076e-001	 3.3713870850e+000
 1.3694379994e+000	 1.2354985212e-001	 3.6536336428e+000
 1.3682477394e+000	 1.3609968305e-001	 3.6405712583e+000
 1.3669379937e+000	 1.4867925715e-001	 3.6228860877e+000
 1.3655077752e+000	 1.6128706086e-001	 3.6005330248e+000
 1.3639561186e+000	 1.7392155273e-001	 3.5734635427e+000
 1.3622820814e+000	 1.8658116370e-001	 3.5416256204e+000
 1.3604847444e+000	 1.9926429742e-001	 3.5049636778e+000
 1.3585632127e+000	 2.1196933056e-001	 3.4634185163e+000
 1.3565166165e+000	 2.2469461324e-001	 3.4169272694e+000
 1.3543441118e+000	 2.3743846937e-001	 3.3654233600e+000
 1.3520448816e+000	 2.5019919707e-001	 3.3088364680e+000
 1.3943368721e+000	 1.2579621307e-001	 3.6329315881e+000
 1.3931249710e+000	 1.3857422274e-001	 3.6180808415e+000
 1.3917914117e+000	 1.5138251636e-001	 3.5984481714e+000
 1.3903351893e+000	 1.6421955287e-001	 3.5739858609e+000
 1.3887553208e+000	 1.7708376278e-001	 3.5446426557e+000
 1.3870508465e+000	 1.8997354850e-001	 3.5103636900e+000
 1.3852208307e+000	 2.0288728464e-001	 3.4710904204e+000
 1.3832643620e+000	 2.1582331839e-001	 3.4267605678e+000
 1.3811805550e+000	 2.2877996984e-001	 3.3773080676e+000
 1.3789685502e+000	 2.4175553244e-001	 3.3226630285e+000
 1.3766275158e+000	 2.5474827338e-001	 3.2627517013e+000
 1.4192357448e+000	 1.2804257402e-001	 3.6283882725e+000
 1.4180022026e+000	 1.4104876243e-001	 3.6115627488e+000
 1.4166448298e+000	 1.5408577558e-001	 3.5898238132e+000
 1.4151626033e+000	 1.6715204489e-001	 3.5631213952e+000
 1.4135545229e+000	 1.8024597283e-001	 3.5314017469e+000
 1.4118196117e+000	 1.9336593329e-001	 3.4946073675e+000
 1.4099569169e+000	 2.0651027186e-001	 3.4526769368e+000
 1.4079655113e+000	 2.1967730621e-001	 3.4055452558e+000
 1.4058444934e+000	 2.3286532645e-001	 3.3531431972e+000
 1.4035929886e+000	 2.4607259552e-001	 3.2953976649e+000
 1.4012101500e+000	 2.5929734969e-001	 3.2322315625e+000
 1.4441346175e+000	 1.3028893496e-001	 3.6391380190e+000
 1.4428794342e+000	 1.4352330212e-001	 3.6201556252e+000
 1.4414982479e+000	 1.5678903480e-001	 3.5961556516e+000
 1.4399900174e+000	 1.7008453690e-001	 3.5670859246e+000
 1.4383537251e+000	 1.8340818287e-001	 3.5328904300e+000
 1.4365883768e+000	 1.9675831808e-001	 3.4935092361e+000
 1.4346930032e+000	 2.1013325909e-001	 3.4488784250e+000
 1.4326666607e+000	 2.2353129404e-001	 3.3989300323e+000
 1.4305084319e+000	 2.3695068305e-001	 3.3435919967e+000
 1.4282174270e+000	 2.5038965860e-001	 3.2827881193e+000
 1.4257927842e+000	 2.6384642600e-001	 3.2164380323e+000
 1.4690334902e+000	 1.3253529590e-001	 3.6643731026e+000
 1.4677566659e+000	 1.4599784180e-001	 3.6430558367e+000
 1.4663516659e+000	 1.5949229402e-001	 3.6166438626e+000
 1.4648174315e+000	 1.7301702891e-001	 3.5850831480e+000
 1.4631529272e+000	 1.8657039292e-001	 3.5483156345e+000
 1.4613571419e+000	 2.0015070287e-001	 3.5062791572e+000
 1.4594290895e+000	 2.1375624631e-001	 3.4589073737e+000
 1.4573678100e+000	 2.2738528187e-001	 3.4061297026e+000
 1.4551723704e+000	 2.4103603965e-001	 3.3478712710e+000
 1.4528418654e+000	 2.5470672168e-001	 3.2840528729e+000
 1.4503754184e+000	 2.6839550231e-001	 3.2145909382e+000
 1.4939323629e+000	 1.3478165685e-001	 3.7033389220e+000
 1.4926338975e+000	 1.4847238149e-001	 3.6795126608e+000
 1.4912050840e+000	 1.6219555323e-001	 3.6505413648e+000
 1.4896448456e+000	 1.7594952092e-001	 3.6163693831e+000
 1.4879521294e+000	 1.8973260296e-001	 3.5769368290e+000
 1.4861259070e+000	 2.0354308766e-001	 3.5321794969e+000
 1.4841651757e+000	 2.1737923353e-001	 3.4820287880e+000
 1.4820689593e+000	 2.3123926969e-001	 3.4264116459e+000
 1.4798363089e+000	 2.4512139625e-001	 3.3652505026e+000
 1.4774663038e+000	 2.5902378476e-001	 3.2984632352e+000
 1.4749580526e+000	 2.7294457862e-001	 3.2259631339e+000
 1.2291317105e+000	 2.2745381553e-001	 3.6673339800e+000
 1.2269255782e+000	 2.3906824470e-001	 3.6355329866e+000
 1.2246028306e+000	 2.5069484874e-001	 3.5990166448e+000
 1.2221628022e+000	 2.6233201271e-001	 3.5577445299e+000
 1.2196048543e+000	 2.7397810005e-001	 3.5116781671e+000
 1.2169283763e+000	 2.8563145302e-001	 3.4607811076e+000
 1.2141327860e+000	 2.9729039324e-001	 3.4050190033e+000
 1.2112175306e+000	 3.0895322226e-001	 3.3443596814e+000
 1.2081820871e+000	 3.2061822211e-001	 3.2787732168e+000
 1.2050259632e+000	 3.3228365593e-001	 3.2082320038e+000
 1.2017486977e+000	 3.4394776857e-001	 3.1327108260e+000
 1.2537143447e+000	 2.3200289184e-001	 3.6679244303e+000
 1.2514640897e+000	 2.4384960960e-001	 3.6497891827e+000
 1.2490948872e+000	 2.5570874571e-001	 3.6214264250e+000
 1.2466060582e+000	 2.6757865297e-001	 3.5778079207e+000
 1.2439969514e+000	 2.7945766205e-001	 3.5288751686e+000
 1.2412669438e+000	 2.9134408208e-001	 3.4745886194e+000
 1.2384154417e+000	 3.0323620110e-001	 3.4149112762e+000
 1.2354418812e+000	 3.1513228670e-001	 3.3498087805e+000
 1.2323457289e+000	 3.2703058655e-001	 3.2792494973e+000
 1.2291264825e+000	 3.3892932905e-001	 3.2032045980e+000
 1.2257836717e+000	 3.5082672394e-001	 3.1216481417e+000
 1.2782969789e+000	 2.3655196814e-001	 3.5498432376e+000
 1.2760026013e+000	 2.4863097449e-001	 3.5284544145e+000
 1.2735869439e+000	 2.6072264268e-001	 3.5028162187e+000
 1.2710493143e+000	 2.7282529322e-001	 3.4728646680e+000
 1.2683890485e+000	 2.8493722405e-001	 3.4385322477e+000
 1.2656055113e+000	 2.9705671113e-001	 3.3997479098e+000
 1.2626980974e+000	 3.0918200896e-001	 3.3564370813e+000
 1.2596662318e+000	 3.2131135114e-001	 3.3085216820e+000
 1.2565093706e+000	 3.3344295099e-001	 3.2559201535e+000
 1.2532270017e+000	 3.4557500216e-001	 3.1985474972e+000
 1.2498186456e+000	 3.5770567931e-001	 3.1349741936e+000
 1.3028796131e+000	 2.4110104445e-001	 3.4513739402e+000
 1.3005411129e+000	 2.5341233938e-001	 3.4267746825e+000
 1.2980790005e+000	 2.6573653966e-001	 3.3976807328e+000
 1.2954925703e+000	 2.7807193347e-001	 3.3640238849e+000
 1.2927811456e+000	 2.9041678605e-001	 3.3257323459e+000
 1.2899440789e+000	 3.0276934019e-001	 3.2827307398e+000
 1.2869807532e+000	 3.1512781682e-001	 3.2349401214e+000
 1.2838905824e+000	 3.2749041558e-001	 3.1822779997e+000
 1.2806730123e+000	 3.3985531543e-001	 3.1246583730e+000
 1.2773275210e+000	 3.5222067528e-001	 3.0619917740e+000
 1.2738536196e+000	 3.6458463467e-001	 2.9941853268e+000
 1.3274622474e+000	 2.4565012076e-001	 3.3713870850e+000
 1.3250796244e+000	 2.5819370428e-001	 3.3436230298e+000
 1.3225710571e+000	 2.7075043663e-001	 3.3111482111e+000
 1.3199358264e+000	 2.8331857372e-001	 3.2738902317e+000
 1.3171732427e+000	 2.9589634805e-001	 3.2317730254e+000
 1.3142826464e+000	 3.0848196925e-001	 3.1847168650e+000
 1.3112634089e+000	 3.2107362469e-001	 3.1326383808e+000
 1.3081149330e+000	 3.3366948003e-001	 3.0754505900e+000
 1.3048366541e+000	 3.4626767987e-001	 3.0130629373e+000
 1.3014280403e+000	 3.5886634840e-001	 2.9453813465e+000
 1.2978885935e+000	 3.7146359004e-001	 2.8723082841e+000
 1.3520448816e+000	 2.5019919707e-001	 3.3088364680e+000
 1.3496181360e+000	 2.6297506917e-001	 3.2779559080e+000
 1.3470631137e+000	 2.7576433361e-001	 3.2421772544e+000
 1.3443790824e+000	 2.8856521398e-001	 3.2014239432e+000
 1.3415653397e+000	 3.0137591005e-001	 3.1556156310e+000
 1.3386212139e+000	 3.1419459831e-001	 3.1046682069e+000
 1.3355460646e+000	 3.2701943255e-001	 3.0484938162e+000
 1.3323392837e+000	 3.3984854447e-001	 2.9870008940e+000
 1.3290002958e+000	 3.5268004431e-001	 2.9200942119e+000
 1.3255285595e+000	 3.6551202151e-001	 2.8476749359e+000
 1.3219235675e+000	 3.7834254541e-001	 2.7696406962e+000
 1.3766275158e+000	 2.5474827338e-001	 3.2627517013e+000
 1.3741566475e+000	 2.6775643406e-001	 3.2288057301e+000
 1.3715551703e+000	 2.8077823058e-001	 3.1898026334e+000
 1.3688223385e+000	 2.9381185423e-001	 3.1456616959e+000
 1.3659574368e+000	 3.0685547205e-001	 3.0962982844e+000
 1.3629597814e+000	 3.1990722737e-001	 3.0416238640e+000
 1.3598287203e+000	 3.3296524041e-001	 2.9815460250e+000
 1.3565636343e+000	 3.4602760891e-001	 2.9159685222e+000
 1.3531639376e+000	 3.5909240875e-001	 2.8447913261e+000
 1.3496290788e+000	 3.7215769463e-001	 2.7679106869e+000
 1.3459585415e+000	 3.8522150078e-001	 2.6852192111e+000
 1.4012101500e+000	 2.5929734969e-001	 3.2322315625e+000
 1.3986951591e+000	 2.7253779896e-001	 3.1952742074e+000
 1.3960472269e+000	 2.8579212755e-001	 3.1531286070e+000
 1.3932655945e+000	 2.9905849449e-001	 3.1057099020e+000
 1.3903495339e+000	 3.1233503405e-001	 3.0529291493e+000
 1.3872983490e+000	 3.2561985643e-001	 2.9946933408e+000
 1.3841113760e+000	 3.3891104828e-001	 2.9309054345e+000
 1.3807879849e+000	 3.5220667336e-001	 2.8614643978e+000
 1.3773275793e+000	 3.6550477319e-001	 2.7862652636e+000
 1.3737295980e+000	 3.7880336775e-001	 2.7051992006e+000
 1.3699935154e+000	 3.9210045615e-001	 2.6181535954e+000
 1.4257927842e+000	 2.6384642600e-001	 3.2164380323e+000
 1.4232336707e+000	 2.7731916385e-001	 3.1765263754e+000
 1.4205392835e+000	 2.9080602453e-001	 3.1313229316e+000
 1.4177088505e+000	 3.0430513474e-001	 3.0807386979e+000
 1.4147416310e+000	 3.1781459605e-001	 3.0246803931e+000
 1.4116369165e+000	 3.3133248549e-001	 2.9630504792e+000
 1.4083940318e+000	 3.4485685614e-001	 2.8957471960e+000
 1.4050123355e+000	 3.5838573780e-001	 2.8226646087e+000
 1.4014912211e+000	 3.7191713763e-001	 2.7436926687e+000
 1.3978301173e+000	 3.8544904087e-001	 2.6587172882e+000
 1.3940284894e+000	 3.9897941152e-001	 2.5676204300e+000
 1.4503754184e+000	 2.6839550231e-001	 3.2145909382e+000
 1.4477721822e+000	 2.8210052874e-001	 3.1717852273e+000
 1.4450313401e+000	 2.9581992150e-001	 3.1236114807e+000
 1.4421521066e+000	 3.0955177499e-001	 3.0699765443e+000
 1.4391337281e+000	 3.2329415806e-001	 3.0107827632e+000
 1.4359754840e+000	 3.3704511455e-001	 2.9459280054e+000
 1.4326766875e+000	 3.5080266401e-001	 2.8753056995e+000
 1.4292366861e+000	 3.6456480225e-001	 2.7988048857e+000
 1.4256548628e+000	 3.7832950208e-001	 2.7163102812e+000
 1.4219306366e+000	 3.9209471399e-001	 2.6277023601e+000
 1.4180634633e+000	 4.0585836689e-001	 2.5328574486e+000
 1.4749580526e+000	 2.7294457862e-001	 3.2259631339e+000
 1.4723106938e+000	 2.8688189364e-001	 3.1803268843e+000
 1.4695233968e+000	 3.0083381848e-001	 3.1292734011e+000
 1.4665953626e+000	 3.1479841525e-001	 3.0727053651e+000
 1.4635258252e+000	 3.2877372006e-001	 3.0105207051e+000
 1.4603140515e+000	 3.4275774362e-001	 2.9426126237e+000
 1.4569593432e+000	 3.5674847188e-001	 2.8688696375e+000
 1.4534610367e+000	 3.7074386670e-001	 2.7891756316e+000
 1.4498185045e+000	 3.8474186652e-001	 2.7034099291e+000
 1.4460311558e+000	 3.9874038711e-001	 2.6114473759e+000
 1.4420984373e+000	 4.1273732227e-001	 2.5131584413e+000
 1.2017486977e+000	 3.4394776857e-001	 3.1327108260e+000
 1.1983498614e+000	 3.5560878723e-001	 3.0860966893e+000
 1.1948290576e+000	 3.6726492216e-001	 3.0351059570e+000
 1.1911859226e+000	 3.7891436731e-001	 2.9797322116e+000
 1.1874201265e+000	 3.9055530112e-001	 2.9199715272e+000
 1.1835313736e+000	 4.0218588716e-001	 2.8558225141e+000
 1.1795194030e+000	 4.1380427497e-001	 2.7872863621e+000
 1.1753839893e+000	 4.2540860082e-001	 2.7143668806e+000
 1.1711249430e+000	 4.3699698847e-001	 2.6370705350e+000
 1.1667421108e+000	 4.4856755008e-001	 2.5554064814e+000
 1.1622353763e+000	 4.6011838696e-001	 2.4693865970e+000
 1.2257836717e+000	 3.5082672394e-001	 3.1216481417e+000
 1.2223168587e+000	 3.6272096297e-001	 3.0693192071e+000
 1.2187256388e+000	 3.7461022059e-001	 3.0122266664e+000
 1.2150096411e+000	 3.8649265466e-001	 2.9503645195e+000
 1.2111685290e+000	 3.9836640714e-001	 2.8837296562e+000
 1.2072020010e+000	 4.1022960490e-001	 2.8123219088e+000
 1.2031097911e+000	 4.2208036047e-001	 2.7361441014e+000
 1.1988916691e+000	 4.3391677283e-001	 2.6552020955e+000
 1.1945474418e+000	 4.4573692824e-001	 2.5695048333e+000
 1.1900769530e+000	 4.5753890108e-001	 2.4790643763e+000
 1.1854800839e+000	 4.6932075469e-001	 2.3838959408e+000
 1.2498186456e+000	 3.5770567931e-001	 3.1349741936e+000
 1.2462838559e+000	 3.6983313871e-001	 3.0770927481e+000
 1.2426222199e+000	 3.8195551903e-001	 3.0140708978e+000
 1.2388333595e+000	 3.9407094200e-001	 2.9459030457e+000
 1.2349169315e+000	 4.0617751316e-001	 2.8725868799e+000
 1.2308726285e+000	 4.1827332264e-001	 2.7941234321e+000
 1.2267001791e+000	 4.3035644597e-001	 2.7105171338e+000
 1.2223993489e+000	 4.4242494484e-001	 2.6217758684e+000
 1.2179699407e+000	 4.5447686801e-001	 2.5279110193e+000
 1.2134117952e+000	 4.6651025208e-001	 2.4289375142e+000
 1.2087247914e+000	 4.7852312243e-001	 2.3248738651e+000
 1.2738536196e+000	 3.6458463467e-001	 2.9941853268e+000
 1.2702508531e+000	 3.7694531445e-001	 2.9573197938e+000
 1.2665188011e+000	 3.8930081747e-001	 2.9161816867e+000
 1.2626570780e+000	 4.0164922934e-001	 2.8706783491e+000
 1.2586653341e+000	 4.1398861918e-001	 2.8207134896e+000
 1.2545432560e+000	 4.2631704038e-001	 2.7661872775e+000
 1.2502905672e+000	 4.3863253146e-001	 2.7069964500e+000
 1.2459070287e+000	 4.5093311686e-001	 2.6128234152e+000
 1.2413924396e+000	 4.6321680778e-001	 2.5110134161e+000
 1.2367466374e+000	 4.7548160308e-001	 2.4037384798e+000
 1.2319694989e+000	 4.8772549017e-001	 2.2910203704e+000
 1.2978885935e+000	 3.7146359004e-001	 2.8723082841e+000
 1.2942178504e+000	 3.8405749020e-001	 2.8304931801e+000
 1.2904153822e+000	 3.9664611591e-001	 2.7842726935e+000
 1.2864807964e+000	 4.0922751669e-001	 2.7335490061e+000
 1.2824137366e+000	 4.2179972519e-001	 2.6782205198e+000
 1.2782138834e+000	 4.3436075812e-001	 2.6181819596e+000
 1.2738809552e+000	 4.4690861696e-001	 2.5533244898e+000
 1.2694147085e+000	 4.5944128887e-001	 2.4835358430e+000
 1.2648149384e+000	 4.7195674754e-001	 2.4087004621e+000
 1.2600814796e+000	 4.8445295408e-001	 2.3286996555e+000
 1.2552142064e+000	 4.9692785791e-001	 2.2434117654e+000
 1.3219235675e+000	 3.7834254541e-001	 2.7696406962e+000
 1.3181848476e+000	 3.9116966594e-001	 2.7231264842e+000
 1.3143119634e+000	 4.0399141435e-001	 2.6720969345e+000
 1.3103045149e+000	 4.1680580403e-001	 2.6164488003e+000
 1.3061621391e+000	 4.2961083121e-001	 2.5560748826e+000
 1.3018845109e+000	 4.4240447586e-001	 2.4908641407e+000
 1.2974713433e+000	 4.5518470246e-001	 2.4207018171e+000
 1.2929223883e+000	 4.6794946089e-001	 2.3454695756e+000
 1.2882374373e+000	 4.8069668731e-001	 2.2650456537e+000
 1.2834163219e+000	 4.9342430508e-001	 2.1793050278e+000
 1.2784589140e+000	 5.0613022564e-001	 2.0881195927e+000
 1.3459585415e+000	 3.8522150078e-001	 2.6852192111e+000
 1.3421518448e+000	 3.9828184168e-001	 2.6342587783e+000
 1.3382085446e+000	 4.1133671280e-001	 2.5786956355e+000
 1.3341282333e+000	 4.2438409137e-001	 2.5184208321e+000
 1.3299105417e+000	 4.3742193723e-001	 2.4533212648e+000
 1.3255551384e+000	 4.5044819360e-001	 2.3832797967e+000
 1.3210617314e+000	 4.6346078795e-001	 2.3081753907e+000
 1.3164300681e+000	 4.7645763290e-001	 2.2278832566e+000
 1.3116599362e+000	 4.8943662708e-001	 2.1422750137e+000
 1.3067511641e+000	 5.0239565608e-001	 2.0512188673e+000
 1.3017036215e+000	 5.1533259338e-001	 1.9545797992e+000
 1.3699935154e+000	 3.9210045615e-001	 2.6181535954e+000
 1.3661188421e+000	 4.0539401742e-001	 2.5630026628e+000
 1.3621051257e+000	 4.1868201124e-001	 2.5031840027e+000
 1.3579519518e+000	 4.3196237872e-001	 2.4385826761e+000
 1.3536589442e+000	 4.4523304325e-001	 2.3690793640e+000
 1.3492257659e+000	 4.5849191134e-001	 2.2945504935e+000
 1.3446521194e+000	 4.7173687345e-001	 2.2148683806e+000
 1.3399377478e+000	 4.8496580491e-001	 2.1299013867e+000
 1.3350824350e+000	 4.9817656684e-001	 2.0395140914e+000
 1.3300860063e+000	 5.1136700707e-001	 1.9435674798e+000
 1.3249483290e+000	 5.2453496112e-001	 1.8419191458e+000
 1.3940284894e+000	 3.9897941152e-001	 2.5676204300e+000
 1.3900858393e+000	 4.1250619317e-001	 2.5085379277e+000
 1.3860017069e+000	 4.2602730968e-001	 2.4447448449e+000
 1.3817756702e+000	 4.3954066606e-001	 2.3761199617e+000
 1.3774073467e+000	 4.5304414927e-001	 2.3025374225e+000
 1.3728963933e+000	 4.6653562908e-001	 2.2238668702e+000
 1.3682425075e+000	 4.8001295895e-001	 2.1399735976e+000
 1.3634454276e+000	 4.9347397693e-001	 2.0507187140e+000
 1.3585049339e+000	 5.0691650661e-001	 1.9559593282e+000
 1.3534208485e+000	 5.2033835807e-001	 1.8555487473e+000
 1.3481930365e+000	 5.3373732886e-001	 1.7493366916e+000
 1.4180634633e+000	 4.0585836689e-001	 2.5328574486e+000
 1.4140528365e+000	 4.1961836891e-001	 2.4701058583e+000
 1.4098982880e+000	 4.3337260812e-001	 2.4026228444e+000
 1.4055993887e+000	 4.4711895341e-001	 2.3302806049e+000
 1.4011557493e+000	 4.6085525529e-001	 2.2529464181e+000
 1.3965670208e+000	 4.7457934682e-001	 2.1704827856e+000
 1.3918328955e+000	 4.8828904444e-001	 2.0827475918e+000
 1.3869531074e+000	 5.0198214894e-001	 1.9895942809e+000
 1.3819274327e+000	 5.1565644638e-001	 1.8908720504e+000
 1.3767556907e+000	 5.2930970907e-001	 1.7864260615e+000
 1.3714377441e+000	 5.4293969659e-001	 1.6760976668e+000
 1.4420984373e+000	 4.1273732227e-001	 2.5131584413e+000
 1.4380198337e+000	 4.2673054465e-001	 2.4470041110e+000
 1.4337948692e+000	 4.4071790656e-001	 2.3761194011e+000
 1.4294231071e+000	 4.5469724075e-001	 2.3003696180e+000
 1.4249041518e+000	 4.6866636131e-001	 2.2196148364e+000
 1.4202376483e+000	 4.8262306456e-001	 2.1337100501e+000
 1.4154232836e+000	 4.9656512994e-001	 2.0425053409e+000
 1.4104607872e+000	 5.1049032095e-001	 1.9458460660e+000
 1.4053499316e+000	 5.2439638615e-001	 1.8435730614e+000
 1.4000905329e+000	 5.3828106007e-001	 1.7355228655e+000
 1.3946824516e+000	 5.5214206433e-001	 1.6215279586e+000
 1.1622353763e+000	 4.6011838696e-001	 2.4693865970e+000
 1.1576046607e+000	 4.7164759049e-001	 2.4207854363e+000
 1.1528499225e+000	 4.8315324300e-001	 2.3681093568e+000
 1.1479711587e+000	 4.9463341865e-001	 2.3114208327e+000
 1.1429684047e+000	 5.0608618433e-001	 2.2507857193e+000
 1.1378417347e+000	 5.1750960065e-001	 2.1862732279e+000
 1.1325912624e+000	 5.2890172284e-001	 2.1179558944e+000
 1.1272171407e+000	 5.4026060171e-001	 2.0459095441e+000
 1.1217195625e+000	 5.5158428467e-001	 1.9702132497e+000
 1.1160987607e+000	 5.6287081669e-001	 1.8909492850e+000
 1.1103550086e+000	 5.7411824131e-001	 1.8082030723e+000
 1.1854800839e+000	 4.6932075469e-001	 2.3838959408e+000
 1.1807567539e+000	 4.8108054230e-001	 2.3285499739e+000
 1.1759069209e+000	 4.9281630786e-001	 2.2684804647e+000
 1.1709305819e+000	 5.0452608702e-001	 2.2037466255e+000
 1.1658277727e+000	 5.1620790802e-001	 2.1344116824e+000
 1.1605985694e+000	 5.2785979267e-001	 2.0605428622e+000
 1.1552430876e+000	 5.3947975730e-001	 1.9822113732e+000
 1.1497614835e+000	 5.5106581375e-001	 1.8994923797e+000
 1.1441539538e+000	 5.6261597037e-001	 1.8124649703e+000
 1.1384207360e+000	 5.7412823303e-001	 1.7212121208e+000
 1.1325621087e+000	 5.8560060613e-001	 1.6258206496e+000
 1.2087247914e+000	 4.7852312243e-001	 2.3248738651e+000
 1.2039088471e+000	 4.9051349411e-001	 2.2626032396e+000
 1.1989639194e+000	 5.0247937272e-001	 2.1949805306e+000
 1.1938900050e+000	 5.1441875539e-001	 2.1220618893e+000
 1.1886871408e+000	 5.2632963171e-001	 2.0439081057e+000
 1.1833554041e+000	 5.3820998468e-001	 1.9605846068e+000
 1.1778949129e+000	 5.5005779175e-001	 1.8721614487e+000
 1.1723058263e+000	 5.6187102578e-001	 1.7787133015e+000
 1.1665883450e+000	 5.7364765606e-001	 1.6803194276e+000
 1.1607427112e+000	 5.8538564936e-001	 1.5770636528e+000
 1.1547692089e+000	 5.9708297096e-001	 1.4690343300e+000
 1.2319694989e+000	 4.8772549017e-001	 2.2910203704e+000
 1.2270609403e+000	 4.9994644592e-001	 2.2216568869e+000
 1.2220209178e+000	 5.1214243758e-001	 2.1463314392e+000
 1.2168494282e+000	 5.2431142377e-001	 2.0650973059e+000
 1.2115465089e+000	 5.3645135539e-001	 1.9780130213e+000
 1.2061122388e+000	 5.4856017669e-001	 1.8851423858e+000
 1.2005467381e+000	 5.6063582621e-001	 1.7865544687e+000
 1.1948501691e+000	 5.7267623781e-001	 1.6823236032e+000
 1.1890227363e+000	 5.8467934175e-001	 1.5725293741e+000
 1.1830646864e+000	 5.9664306569e-001	 1.4572565978e+000
 1.1769763091e+000	 6.0856533578e-001	 1.3365952936e+000
 1.2552142064e+000	 4.9692785791e-001	 2.2434117654e+000
 1.2502130335e+000	 5.0937939773e-001	 2.2030004668e+000
 1.2450779163e+000	 5.2180550244e-001	 2.1213584145e+000
 1.2398088514e+000	 5.3420409214e-001	 2.0316863378e+000
 1.2344058770e+000	 5.4657307908e-001	 1.9355667840e+000
 1.2288690735e+000	 5.5891036871e-001	 1.8330620893e+000
 1.2231985634e+000	 5.7121386067e-001	 1.7242404916e+000
 1.2173945119e+000	 5.8348144985e-001	 1.6091761356e+000
 1.2114571275e+000	 5.9571102745e-001	 1.4879490695e+000
 1.2053866616e+000	 6.0790048203e-001	 1.3606452333e+000
 1.1991834092e+000	 6.2004770061e-001	 1.2273564381e+000
 1.2784589140e+000	 5.0613022564e-001	 2.0881195927e+000
 1.2733651267e+000	 5.1881234953e-001	 2.0427893241e+000
 1.2681349147e+000	 5.3146856730e-001	 1.9906725447e+000
 1.2627682746e+000	 5.4409676051e-001	 1.9316382096e+000
 1.2572652451e+000	 5.5669480277e-001	 1.8655545080e+000
 1.2516259082e+000	 5.6926056072e-001	 1.7922891190e+000
 1.2458503886e+000	 5.8179189512e-001	 1.6841620399e+000
 1.2399388547e+000	 5.9428666188e-001	 1.5582160748e+000
 1.2338915188e+000	 6.0674271314e-001	 1.4255250529e+000
 1.2277086368e+000	 6.1915789836e-001	 1.2861761645e+000
 1.2213905094e+000	 6.3153006543e-001	 1.1562969654e+000
 1.3017036215e+000	 5.1533259338e-001	 1.9545797992e+000
 1.2965172200e+000	 5.2824530134e-001	 1.9044403092e+000
 1.2911919132e+000	 5.4113163216e-001	 1.8471231576e+000
 1.2857276977e+000	 5.5398942888e-001	 1.7824832645e+000
 1.2801246132e+000	 5.6681652645e-001	 1.7103748632e+000
 1.2743827429e+000	 5.7961075273e-001	 1.6306517807e+000
 1.2685022138e+000	 5.9236992958e-001	 1.5431677286e+000
 1.2624831976e+000	 6.0509187392e-001	 1.4477766052e+000
 1.2563259100e+000	 6.1777439883e-001	 1.3443328072e+000
 1.2500306120e+000	 6.3041531469e-001	 1.2447590458e+000
 1.2435976096e+000	 6.4301243026e-001	 1.1163105629e+000
 1.3249483290e+000	 5.2453496112e-001	 1.8419191458e+000
 1.3196693132e+000	 5.3767825315e-001	 1.7870989208e+000
 1.3142489116e+000	 5.5079469702e-001	 1.7247358696e+000
 1.3086871209e+000	 5.6388209726e-001	 1.6546705183e+000
 1.3029839813e+000	 5.7693825014e-001	 1.5767427579e+000
 1.2971395776e+000	 5.8996094475e-001	 1.4907921484e+000
 1.2911540391e+000	 6.0294796403e-001	 1.3966582350e+000
 1.2850275404e+000	 6.1589708595e-001	 1.2941808762e+000
 1.2787603012e+000	 6.2880608453e-001	 1.1907718273e+000
 1.2723525872e+000	 6.4167273103e-001	 1.0982831280e+000
 1.2658047097e+000	 6.5449479508e-001	 9.9947610904e-001
 1.3481930365e+000	 5.3373732886e-001	 1.7493366916e+000
 1.3428214064e+000	 5.4711120496e-001	 1.6899824342e+000
 1.3373059101e+000	 5.6045776188e-001	 1.6227454911e+000
 1.3316465441e+000	 5.7377476563e-001	 1.5474516162e+000
 1.3258433494e+000	 5.8705997383e-001	 1.4639259509e+000
 1.3198964122e+000	 6.0031113676e-001	 1.3719933541e+000
 1.3138058643e+000	 6.1352599849e-001	 1.2714787435e+000
 1.3075718832e+000	 6.2670229798e-001	 1.1652041438e+000
 1.3011946925e+000	 6.3983777022e-001	 1.0713155614e+000
 1.2946745624e+000	 6.5293014736e-001	 9.7053233432e-001
 1.2880118099e+000	 6.6597715991e-001	 8.6293410763e-001
 1.3714377441e+000	 5.4293969659e-001	 1.6760976668e+000
 1.3659734996e+000	 5.5654415677e-001	 1.6123738184e+000
 1.3603629085e+000	 5.7012082674e-001	 1.5404521116e+000
 1.3546059672e+000	 5.8366743400e-001	 1.4601431293e+000
 1.3487027175e+000	 5.9718169751e-001	 1.3712568378e+000
 1.3426532469e+000	 6.1066132877e-001	 1.2736029414e+000
 1.3364576896e+000	 6.2410403295e-001	 1.1669912494e+000
 1.3301162260e+000	 6.3750751002e-001	 1.0713636100e+000
 1.3236290837e+000	 6.5086945591e-001	 9.6966353808e-001
 1.3169965376e+000	 6.6418756369e-001	 8.6058283555e-001
 1.3102189101e+000	 6.7745952473e-001	 7.4420443949e-001
 1.3946824516e+000	 5.5214206433e-001	 1.6215279586e+000
 1.3891255928e+000	 5.6597710858e-001	 1.5536162621e+000
 1.3834199070e+000	 5.7978389160e-001	 1.4772156588e+000
 1.3775653904e+000	 5.9356010237e-001	 1.3921211443e+000
 1.3715620856e+000	 6.0730342120e-001	 1.2981270648e+000
 1.3654100816e+000	 6.2101152078e-001	 1.1950274975e+000
 1.3591095148e+000	 6.3468206740e-001	 1.0960853845e+000
 1.3526605688e+000	 6.4831272205e-001	 9.9448547552e-001
 1.3460634750e+000	 6.6190114160e-001	 8.8495442231e-001
 1.3393185129e+000	 6.7544498003e-001	 7.6756961157e-001
 1.3324260102e+000	 6.8894188956e-001	 6.4241749324e-001
 1.1103550086e+000	 5.7411824131e-001	 1.8082030723e+000
 1.1044886196e+000	 5.8532460163e-001	 1.7532344755e+000
 1.0984999480e+000	 5.9648794139e-001	 1.6894624299e+000
 1.0923893889e+000	 6.0760630594e-001	 1.6169735266e+000
 1.0861573781e+000	 6.1867774335e-001	 1.5358629365e+000
 1.0798043922e+000	 6.2970030539e-001	 1.4615262068e+000
 1.0733309490e+000	 6.4067204862e-001	 1.4001411146e+000
 1.0667376072e+000	 6.5159103546e-001	 1.3315932565e+000
 1.0600249662e+000	 6.6245533522e-001	 1.2559490033e+000
 1.0531936664e+000	 6.7326302520e-001	 1.1732797095e+000
 1.0462443890e+000	 6.8401219173e-001	 1.0836616959e+000
 1.1325621087e+000	 5.8560060613e-001	 1.6258206496e+000
 1.1265783920e+000	 5.9703109366e-001	 1.5592224320e+000
 1.1204699470e+000	 6.0841770021e-001	 1.4846879309e+000
 1.1142371767e+000	 6.1975843206e-001	 1.4023108220e+000
 1.1078805256e+000	 6.3105129822e-001	 1.3311787007e+000
 1.1014004800e+000	 6.4229431150e-001	 1.2698710579e+000
 1.0947975680e+000	 6.5348548960e-001	 1.2023610119e+000
 1.0880723593e+000	 6.6462285617e-001	 1.1287113375e+000
 1.0812254655e+000	 6.7570444192e-001	 1.0489888747e+000
 1.0742575397e+000	 6.8672828570e-001	 9.6326450869e-001
 1.0671692768e+000	 6.9769243556e-001	 8.7161314801e-001
 1.1547692089e+000	 5.9708297096e-001	 1.4690343300e+000
 1.1486681643e+000	 6.0873758569e-001	 1.3906981883e+000
 1.1424399459e+000	 6.2034745904e-001	 1.3052560793e+000
 1.1360849645e+000	 6.3191055818e-001	 1.2335414013e+000
 1.1296036732e+000	 6.4342485309e-001	 1.1701075730e+000
 1.1229965679e+000	 6.5488831761e-001	 1.1014041143e+000
 1.1162641870e+000	 6.6629893057e-001	 1.0274919688e+000
 1.1094071114e+000	 6.7765467688e-001	 9.4843524957e-001
 1.1024259648e+000	 6.8895354863e-001	 8.6430121554e-001
 1.0953214130e+000	 7.0019354621e-001	 7.7516024597e-001
 1.0880941646e+000	 7.1137267940e-001	 6.8108581309e-001
 1.1769763091e+000	 6.0856533578e-001	 1.3365952936e+000
 1.1707579367e+000	 6.2044407772e-001	 1.2464176512e+000
 1.1644099449e+000	 6.3227721786e-001	 1.1706033008e+000
 1.1579327522e+000	 6.4406268430e-001	 1.1029355141e+000
 1.1513268207e+000	 6.5579840795e-001	 1.0309028908e+000
 1.1445926557e+000	 6.6748232371e-001	 9.5456625042e-001
 1.1377308060e+000	 6.7911237154e-001	 8.7398871189e-001
 1.1307418636e+000	 6.9068649759e-001	 7.8923566363e-001
 1.1236264641e+000	 7.0220265533e-001	 7.0037473238e-001
 1.1163852864e+000	 7.1365880671e-001	 6.0747575156e-001
 1.1090190524e+000	 7.2505292324e-001	 5.1061072907e-001
 1.1991834092e+000	 6.2004770061e-001	 1.2273564381e+000
 1.1928477091e+000	 6.3215056975e-001	 1.1442546997e+000
 1.1863799439e+000	 6.4420697669e-001	 1.0703352716e+000
 1.1797805400e+000	 6.5621481041e-001	 9.9292738433e-001
 1.1730499683e+000	 6.6817196282e-001	 9.1209338482e-001
 1.1661887436e+000	 6.8007632982e-001	 8.2789707698e-001
 1.1591974249e+000	 6.9192581251e-001	 7.4040368259e-001
 1.1520766157e+000	 7.0371831829e-001	 6.4967980252e-001
 1.1448269634e+000	 7.1545176204e-001	 5.5579337854e-001
 1.1374491597e+000	 7.2712406721e-001	 4.5881365566e-001
 1.1299439401e+000	 7.3873316707e-001	 3.5881114529e-001
 1.2213905094e+000	 6.3153006543e-001	 1.1562969654e+000
 1.2149374815e+000	 6.4385706178e-001	 1.0741931458e+000
 1.2083499428e+000	 6.5613673552e-001	 9.8944834744e-001
 1.2016283278e+000	 6.6836693653e-001	 9.0212804211e-001
 1.1947731158e+000	 6.8054551768e-001	 8.1229834513e-001
 1.1877848314e+000	 6.9267033592e-001	 7.2002596488e-001
 1.1806640439e+000	 7.0473925348e-001	 6.2537815425e-001
 1.1734113679e+000	 7.1675013900e-001	 5.2842266359e-001
 1.1660274628e+000	 7.2870086874e-001	 4.2922769544e-001
 1.1585130330e+000	 7.4058932772e-001	 3.2786186120e-001
 1.1508688279e+000	 7.5241341090e-001	 2.2439413967e-001
 1.2435976096e+000	 6.4301243026e-001	 1.1163105629e+000
 1.2370272539e+000	 6.5556355381e-001	 1.0223470152e+000
 1.2303199418e+000	 6.6806649434e-001	 9.2663069443e-001
 1.2234761156e+000	 6.8051906265e-001	 8.2923160177e-001
 1.2164962634e+000	 6.9291907255e-001	 7.3021953566e-001
 1.2093809192e+000	 7.0526434203e-001	 6.2966403090e-001
 1.2021306629e+000	 7.1755269445e-001	 5.2763430072e-001
 1.1947461200e+000	 7.2978195971e-001	 4.2419918167e-001
 1.1872279621e+000	 7.4194997544e-001	 3.1942708153e-001
 1.1795769063e+000	 7.5405458822e-001	 2.1338593020e-001
 1.1717937157e+000	 7.6609365474e-001	 1.0614313398e-001
 1.2658047097e+000	 6.5449479508e-001	 9.9947610904e-001
 1.2591170263e+000	 6.6727004585e-001	 9.3466510226e-001
 1.2522899407e+000	 6.7999625317e-001	 8.6771787983e-001
 1.2453239033e+000	 6.9267118877e-001	 7.7300797392e-001
 1.2382194110e+000	 7.0529262741e-001	 6.6463395961e-001
 1.2309770071e+000	 7.1785834814e-001	 5.5559696700e-001
 1.2235972819e+000	 7.3036613542e-001	 4.4596809973e-001
 1.2160808721e+000	 7.4281378042e-001	 3.3581721707e-001
 1.2084284614e+000	 7.5519908214e-001	 2.2521287495e-001
 1.2006407797e+000	 7.6751984872e-001	 1.1422227152e-001
 1.1927186035e+000	 7.7977389857e-001	 2.9111970200e-003
 1.2880118099e+000	 6.6597715991e-001	 8.6293410763e-001
 1.2812067987e+000	 6.7897653788e-001	 7.8969258565e-001
 1.2742599397e+000	 6.9192601199e-001	 7.1499676912e-001
 1.2671716911e+000	 7.0482331488e-001	 6.3896571943e-001
 1.2599425585e+000	 7.1766618228e-001	 5.6172192761e-001
 1.2525730949e+000	 7.3045235424e-001	 4.8339116453e-001
 1.2450639008e+000	 7.4317957639e-001	 3.7924297057e-001
 1.2374156243e+000	 7.5584560112e-001	 2.6215126882e-001
 1.2296289607e+000	 7.6844818885e-001	 1.4547215191e-001
 1.2217046530e+000	 7.8098510922e-001	 2.9272033416e-002
 1.2136434913e+000	 7.9345414240e-001	-8.6384959420e-002
 1.3102189101e+000	 6.7745952473e-001	 7.4420443949e-001
 1.3032965711e+000	 6.9068302991e-001	 6.6246431405e-001
 1.2962299386e+000	 7.0385577082e-001	 5.7992643040e-001
 1.2890194789e+000	 7.1697544100e-001	 4.9671745680e-001
 1.2816657061e+000	 7.3003973714e-001	 4.1296701712e-001
 1.2741691828e+000	 7.4304636035e-001	 3.2880752656e-001
 1.2665305198e+000	 7.5599301736e-001	 2.4437402002e-001
 1.2587503764e+000	 7.6887742183e-001	 1.5980397371e-001
 1.2508294600e+000	 7.8169729555e-001	 7.5237120028e-002
 1.2427685263e+000	 7.9445036972e-001	-4.2504382856e-002
 1.2345683790e+000	 8.0713438624e-001	-1.6277037406e-001
 1.3324260102e+000	 6.8894188956e-001	 6.4241749324e-001
 1.3253863434e+000	 7.0238952194e-001	 5.5210984561e-001
 1.3181999376e+000	 7.1578552965e-001	 4.6163667667e-001
 1.3108672667e+000	 7.2912756712e-001	 3.7113235881e-001
 1.3033888536e+000	 7.4241329201e-001	 2.8073376427e-001
 1.2957652706e+000	 7.5564036645e-001	 1.9058008617e-001
 1.2879971388e+000	 7.6880645833e-001	 1.0081265275e-001
 1.2800851286e+000	 7.8190924254e-001	 1.1574735049e-002
 1.2720299594e+000	 7.9494640225e-001	-7.6988651539e-002
 1.2638323996e+000	 8.0791563023e-001	-1.6473095159e-001
 1.2554932668e+000	 8.2081463007e-001	-2.5150427933e-001
 1.0462443890e+000	 6.8401219173e-001	 1.0836616959e+000
 1.0391778559e+000	 6.9470093126e-001	 1.0073548297e+000
 1.0319948291e+000	 7.0532735142e-001	 9.2873325200e-001
 1.0246961113e+000	 7.1588957207e-001	 8.4792268181e-001
 1.0172825451e+000	 7.2638572639e-001	 7.6504997903e-001
 1.0097550126e+000	 7.3681396190e-001	 6.8024304742e-001
 1.0021144359e+000	 7.4717244154e-001	 5.9363073779e-001
 9.9436177575e-001	 7.5745934472e-001	 5.0534275143e-001
 9.8649803203e-001	 7.6767286832e-001	 4.1550954381e-001
 9.7852424289e-001	 7.7781122776e-001	 3.2426222865e-001
 9.7044148445e-001	 7.8787265798e-001	 2.3173248260e-001
 1.0671692768e+000	 6.9769243556e-001	 8.7161314801e-001
 1.0599614130e+000	 7.0859494989e-001	 7.9565192332e-001
 1.0526347257e+000	 7.1943389845e-001	 7.1785709476e-001
 1.0451900336e+000	 7.3020736352e-001	 6.3834274359e-001
 1.0376281960e+000	 7.4091344092e-001	 5.5722357143e-001
 1.0299501129e+000	 7.5155024114e-001	 4.7461481489e-001
 1.0221567246e+000	 7.6211589037e-001	 3.9063216099e-001
 1.0142490113e+000	 7.7260853162e-001	 3.0539166374e-001
 1.0062279927e+000	 7.8302632569e-001	 2.1900966176e-001
 9.9809472774e-001	 7.9336745232e-001	 1.3160269712e-001
 9.8985031414e-001	 8.0363011114e-001	 4.3287435570e-002
 1.0880941646e+000	 7.1137267940e-001	 6.8108581309e-001
 1.0807449701e+000	 7.2248896852e-001	 6.0466047222e-001
 1.0732746223e+000	 7.3354044548e-001	 5.2687459760e-001
 1.0656839558e+000	 7.4452515496e-001	 4.4783088565e-001
 1.0579738469e+000	 7.5544115545e-001	 3.6763213457e-001
 1.0501452131e+000	 7.6628652038e-001	 2.8638117025e-001
 1.0421990133e+000	 7.7705933921e-001	 2.0418077389e-001
 1.0341362468e+000	 7.8775771852e-001	 1.2113361153e-001
 1.0259579533e+000	 7.9837978306e-001	 3.7342165485e-002
 1.0176652126e+000	 8.0892367688e-001	-4.7091332156e-002
 1.0092591438e+000	 8.1938756430e-001	-1.3206496392e-001
 1.1090190524e+000	 7.2505292324e-001	 5.1061072907e-001
 1.1015285272e+000	 7.3638298714e-001	 4.3295797920e-001
 1.0939145189e+000	 7.4764699251e-001	 3.5441065775e-001
 1.0861778780e+000	 7.5884294641e-001	 2.7506030729e-001
 1.0783194978e+000	 7.6996886998e-001	 1.9499805465e-001
 1.0703403134e+000	 7.8102279962e-001	 1.1431454793e-001
 1.0622413020e+000	 7.9200278804e-001	 3.3099896216e-002
 1.0540234823e+000	 8.0290690541e-001	-4.8556388081e-002
 1.0456879139e+000	 8.1373324043e-001	-1.3056544403e-001
 1.0372356975e+000	 8.2447990144e-001	-2.1283911417e-001
 1.0286679735e+000	 8.3514501747e-001	-2.9528999362e-001
 1.1299439401e+000	 7.3873316707e-001	 3.5881114529e-001
 1.1223120843e+000	 7.5027700577e-001	 2.7921078563e-001
 1.1145544154e+000	 7.6175353954e-001	 1.9917558178e-001
 1.1066718002e+000	 7.7316073785e-001	 1.1878613294e-001
 1.0986651487e+000	 7.8449658451e-001	 3.8122105330e-002
 1.0905354136e+000	 7.9575907886e-001	-4.2737819771e-002
 1.0822835907e+000	 8.0694623688e-001	-1.2371599438e-001
 1.0739107178e+000	 8.1805609231e-001	-2.0473584867e-001
 1.0654178746e+000	 8.2908669780e-001	-2.8572193215e-001
 1.0568061823e+000	 8.4003612600e-001	-3.6659995128e-001
 1.0480768032e+000	 8.5090247063e-001	-4.4729680325e-001
 1.1508688279e+000	 7.5241341090e-001	 2.2439413967e-001
 1.1430956414e+000	 7.6417102439e-001	 1.4216599524e-001
 1.1351943120e+000	 7.7586008657e-001	 5.9957321127e-002
 1.1271657225e+000	 7.8747852929e-001	-2.2162035572e-002
 1.1190107996e+000	 7.9902429904e-001	-1.0412367841e-001
 1.1107305139e+000	 8.1049535810e-001	-1.8586070252e-001
 1.1023258794e+000	 8.2188968571e-001	-2.6730773121e-001
 1.0937979533e+000	 8.3320527921e-001	-3.4840094805e-001
 1.0851478352e+000	 8.4444015517e-001	-4.2907812457e-001
 1.0763766672e+000	 8.5559235055e-001	-5.0927864342e-001
 1.0674856329e+000	 8.6665992379e-001	-5.8894351707e-001
 1.1717937157e+000	 7.6609365474e-001	 1.0614313398e-001
 1.1638791986e+000	 7.7806504302e-001	 2.0644263193e-002
 1.1558342086e+000	 7.8996663360e-001	-6.4385460488e-002
 1.1476596447e+000	 8.0179632073e-001	-1.4888676882e-001
 1.1393564505e+000	 8.1355201357e-001	-2.3280236288e-001
 1.1309256141e+000	 8.2523163734e-001	-3.1607694317e-001
 1.1223681682e+000	 8.3683313454e-001	-3.9865723435e-001
 1.1136851888e+000	 8.4835446610e-001	-4.8049200474e-001
 1.1048777959e+000	 8.5979361254e-001	-5.6153208048e-001
 1.0959471520e+000	 8.7114857511e-001	-6.4173035444e-001
 1.0868944626e+000	 8.8241737695e-001	-7.2104178968e-001
 1.1927186035e+000	 7.7977389857e-001	 2.9111970200e-003
 1.1846627557e+000	 7.9195906164e-001	-8.6466655801e-002
 1.1764741052e+000	 8.0407318063e-001	-1.7492958989e-001
 1.1681535669e+000	 8.1611411218e-001	-2.6242875951e-001
 1.1597021014e+000	 8.2807972810e-001	-3.4891780859e-001
 1.1511207144e+000	 8.3996791658e-001	-4.3435288998e-001
 1.1424104569e+000	 8.5177658338e-001	-5.1869267850e-001
 1.1335724243e+000	 8.6350365300e-001	-6.0189837783e-001
 1.1246077565e+000	 8.7514706991e-001	-6.8393372123e-001
 1.1155176369e+000	 8.8670479967e-001	-7.6476496608e-001
 1.1063032923e+000	 8.9817483012e-001	-8.4436088237e-001
 1.2136434913e+000	 7.9345414240e-001	-8.6384959420e-002
 1.2054463128e+000	 8.0585308027e-001	-1.8021769191e-001
 1.1971140018e+000	 8.1817972766e-001	-2.7269294563e-001
 1.1886474891e+000	 8.3043190362e-001	-3.6377215685e-001
 1.1800477523e+000	 8.4260744262e-001	-4.5341977414e-001
 1.1713158147e+000	 8.5470419582e-001	-5.4160326678e-001
 1.1624527456e+000	 8.6672003221e-001	-6.2829312616e-001
 1.1534596599e+000	 8.7865283990e-001	-7.1346286009e-001
 1.1443377172e+000	 8.9050052728e-001	-7.9708898010e-001
 1.1350881218e+000	 9.0226102423e-001	-8.7915098168e-001
 1.1257121220e+000	 9.1393228328e-001	-9.5963131766e-001
 1.2345683790e+000	 8.0713438624e-001	-1.6277037406e-001
 1.2262298699e+000	 8.1974709889e-001	-2.6160365641e-001
 1.2177538984e+000	 8.3228627468e-001	-3.5863945355e-001
 1.2091414114e+000	 8.4474969506e-001	-4.5384935830e-001
 1.2003934032e+000	 8.5713515715e-001	-5.4720850115e-001
 1.1915109149e+000	 8.6944047506e-001	-6.3869554797e-001
 1.1824950343e+000	 8.8166348104e-001	-7.2829268972e-001
 1.1733468954e+000	 8.9380202679e-001	-8.1598562425e-001
 1.1640676778e+000	 9.0585398465e-001	-9.0176353016e-001
 1.1546586066e+000	 9.1781724879e-001	-9.8561903274e-001
 1.1451209517e+000	 9.2968973644e-001	-1.0675481623e+000
 1.2554932668e+000	 8.2081463007e-001	-2.5150427933e-001
 1.2470134270e+000	 8.3364111751e-001	-3.3156791820e-001
 1.2383937949e+000	 8.4639282171e-001	-4.3368358290e-001
 1.2296353336e+000	 8.5906748650e-001	-5.3354532228e-001
 1.2207390541e+000	 8.7166287168e-001	-6.3113884071e-001
 1.2117060152e+000	 8.8417675429e-001	-7.2645389595e-001
 1.2025373230e+000	 8.9660692987e-001	-8.1948427728e-001
 1.1932341309e+000	 9.0895121369e-001	-9.1022777467e-001
 1.1837976384e+000	 9.2120744201e-001	-9.9868613925e-001
 1.1742290915e+000	 9.3337347334e-001	-1.0848650350e+000
 1.1645297814e+000	 9.4544718961e-001	-1.1687739818e+000
 9.7044148445e-001	 7.8787265798e-001	 2.3173248260e-001
 9.6225087038e-001	 7.9785541446e-001	 1.5245173714e-001
 9.5395355134e-001	 8.0775777422e-001	 7.2227807279e-002
 9.4555071450e-001	 8.1757803678e-001	-8.8488984134e-003
 9.3704358298e-001	 8.2731452514e-001	-9.0687814932e-002
 9.2843341526e-001	 8.3696558670e-001	-1.7319826763e-001
 9.1972150458e-001	 8.4652959423e-001	-2.5628951780e-001
 9.1090917828e-001	 8.5600494672e-001	-3.3987080698e-001
 9.0199779714e-001	 8.6539007034e-001	-4.2385140014e-001
 8.9298875468e-001	 8.7468341924e-001	-5.0814062751e-001
 8.8388347645e-001	 8.8388347645e-001	-5.9264792534e-001
 9.8985031414e-001	 8.0363011114e-001	 4.3287435570e-002
 9.8149588779e-001	 8.1381252275e-001	-3.3648622882e-002
 9.7303262236e-001	 8.2391292970e-001	-1.1134629618e-001
 9.6446172879e-001	 8.3392959752e-001	-1.8972003727e-001
 9.5578445464e-001	 8.4386081564e-001	-2.6868433247e-001
 9.4700208356e-001	 8.5370489844e-001	-3.4815374094e-001
 9.3811593467e-001	 8.6346018612e-001	-4.2804293254e-001
 9.2912736184e-001	 8.7312504566e-001	-5.0826672411e-001
 9.2003775308e-001	 8.8269787175e-001	-5.8874011429e-001
 9.1084852978e-001	 8.9217708762e-001	-6.6937831676e-001
 9.0156114598e-001	 9.0156114598e-001	-7.5009679206e-001
 1.0092591438e+000	 8.1938756430e-001	-1.3206496392e-001
 1.0007409052e+000	 8.2976963104e-001	-2.0682857476e-001
 9.9211169339e-001	 8.4006808519e-001	-2.8217103811e-001
 9.8337274308e-001	 8.5028115826e-001	-3.5801173761e-001
 9.7452532630e-001	 8.6040710615e-001	-4.3427028430e-001
 9.6557075187e-001	 8.7044421018e-001	-5.1086654851e-001
 9.5651036476e-001	 8.8039077800e-001	-5.8772068987e-001
 9.4734554541e-001	 8.9024514460e-001	-6.6475318533e-001
 9.3807770903e-001	 9.0000567316e-001	-7.4188485539e-001
 9.2870830487e-001	 9.0967075601e-001	-8.1903688856e-001
 9.1923881551e-001	 9.1923881551e-001	-8.9613086394e-001
 1.0286679735e+000	 8.3514501747e-001	-2.9528999362e-001
 1.0199859226e+000	 8.4572673933e-001	-3.6803869389e-001
 1.0111907644e+000	 8.5622324068e-001	-4.4118198970e-001
 1.0022837574e+000	 8.6663271899e-001	-5.1464427437e-001
 9.9326619796e-001	 8.7695339665e-001	-5.8835036712e-001
 9.8413942018e-001	 8.8718352191e-001	-6.6222553720e-001
 9.7490479486e-001	 8.9732136989e-001	-7.3619552579e-001
 9.6556372898e-001	 9.0736524353e-001	-8.1018656556e-001
 9.5611766497e-001	 9.1731347456e-001	-8.8412539818e-001
 9.4656807997e-001	 9.2716442440e-001	-9.5793928958e-001
 9.3691648504e-001	 9.3691648504e-001	-1.0315560432e+000
 1.0480768032e+000	 8.5090247063e-001	-4.4729680325e-001
 1.0392309400e+000	 8.6168384763e-001	-5.1817433260e-001
 1.0302698354e+000	 8.7237839617e-001	-5.8926041623e-001
 1.0211947717e+000	 8.8298427973e-001	-6.6048454555e-001
 1.0120070696e+000	 8.9349968716e-001	-7.3177684104e-001
 1.0027080885e+000	 9.0392283365e-001	-8.0306806853e-001
 9.9329922495e-001	 9.1425196178e-001	-8.7428965267e-001
 9.8378191255e-001	 9.2448534247e-001	-9.4537368791e-001
 9.7415762092e-001	 9.3462127597e-001	-1.0162529469e+000
 9.6442785507e-001	 9.4465809279e-001	-1.0868608864e+000
 9.5459415457e-001	 9.5459415457e-001	-1.1571316511e+000
 1.0674856329e+000	 8.6665992379e-001	-5.8894351707e-001
 1.0584759574e+000	 8.7764095592e-001	-6.5808064040e-001
 1.0493489065e+000	 8.8853355166e-001	-7.2723821398e-001
 1.0401057860e+000	 8.9933584047e-001	-7.9635092463e-001
 1.0307479413e+000	 9.1004597767e-001	-8.6535429652e-001
 1.0212767568e+000	 9.2066214539e-001	-9.3418469916e-001
 1.0116936550e+000	 9.3118255367e-001	-1.0027793524e+000
 1.0020000961e+000	 9.4160544141e-001	-1.0710763284e+000
 9.9219757686e-001	 9.5192907738e-001	-1.1390145507e+000
 9.8228763016e-001	 9.6215176117e-001	-1.2065337911e+000
 9.7227182411e-001	 9.7227182411e-001	-1.2735746625e+000
 1.0868944626e+000	 8.8241737695e-001	-7.2104178968e-001
 1.0777209748e+000	 8.9359806421e-001	-7.8855704642e-001
 1.0684279775e+000	 9.0468870714e-001	-8.5590231814e-001
 1.0590168002e+000	 9.1568740121e-001	-9.2301759318e-001
 1.0494888129e+000	 9.2659226817e-001	-9.8984391061e-001
 1.0398454251e+000	 9.3740145713e-001	-1.0563233599e+000
 1.0300880851e+000	 9.4811314556e-001	-1.1223990772e+000
 1.0202182797e+000	 9.5872554035e-001	-1.1880152378e+000
 1.0102375328e+000	 9.6923687880e-001	-1.2531170464e+000
 1.0001474053e+000	 9.7964542956e-001	-1.3176507229e+000
 9.8994949364e-001	 9.8994949364e-001	-1.3815634866e+000
 1.1063032923e+000	 8.9817483012e-001	-8.4436088237e-001
 1.0969659922e+000	 9.0955517251e-001	-9.1036126991e-001
 1.0875070485e+000	 9.2084386263e-001	-9.7599864682e-001
 1.0779278145e+000	 9.3203896195e-001	-1.0412184173e+000
 1.0682296846e+000	 9.4313855868e-001	-1.1059672551e+000
 1.0584140934e+000	 9.5414076887e-001	-1.1701930949e+000
 1.0484825152e+000	 9.6504373745e-001	-1.2338451190e+000
 1.0384364633e+000	 9.7584563929e-001	-1.2968737409e+000
 1.0282774888e+000	 9.8654468021e-001	-1.3592305853e+000
 1.0180071804e+000	 9.9713909795e-001	-1.4208684642e+000
 1.0076271632e+000	 1.0076271632e+000	-1.4817413502e+000
 1.1257121220e+000	 9.1393228328e-001	-9.5963131766e-001
 1.1162110097e+000	 9.2551228080e-001	-1.0242129160e+000
 1.1065861196e+000	 9.3699901812e-001	-1.0882356370e+000
 1.0968388288e+000	 9.4839052269e-001	-1.1516504230e+000
 1.0869705563e+000	 9.5968484919e-001	-1.2144097109e+000
 1.0769827617e+000	 9.7088008061e-001	-1.2764674138e+000
 1.0668769453e+000	 9.8197432934e-001	-1.3377788991e+000
 1.0566546468e+000	 9.9296573823e-001	-1.3983009622e+000
 1.0463174447e+000	 1.0038524816e+000	-1.4579917963e+000
 1.0358669555e+000	 1.0146327663e+000	-1.5168109582e+000
 1.0253048327e+000	 1.0253048327e+000	-1.5747193306e+000
 1.1451209517e+000	 9.2968973644e-001	-1.0675481623e+000
 1.1354560271e+000	 9.4146938909e-001	-1.1307967056e+000
 1.1256651906e+000	 9.5315417361e-001	-1.1932874207e+000
 1.1157498431e+000	 9.6474208344e-001	-1.2549769186e+000
 1.1057114279e+000	 9.7623113970e-001	-1.3158235348e+000
 1.0955514300e+000	 9.8761939235e-001	-1.3757873031e+000
 1.0852713754e+000	 9.9890492123e-001	-1.4348299232e+000
 1.0748728304e+000	 1.0100858372e+000	-1.4929147247e+000
 1.0643574006e+000	 1.0211602830e+000	-1.5500066265e+000
 1.0537267306e+000	 1.0321264347e+000	-1.6060720919e+000
 1.0429825022e+000	 1.0429825022e+000	-1.6610790798e+000
 1.1645297814e+000	 9.4544718961e-001	-1.1687739818e+000
 1.1547010445e+000	 9.5742649739e-001	-1.2307653825e+000
 1.1447442616e+000	 9.6930932910e-001	-1.2917966842e+000
 1.1346608574e+000	 9.8109364418e-001	-1.3518303039e+000
 1.1244522996e+000	 9.9277743021e-001	-1.4108306202e+000
 1.1141200983e+000	 1.0043587041e+000	-1.4687639368e+000
 1.1036658055e+000	 1.0158355131e+000	-1.5255984413e+000
 1.0930910140e+000	 1.0272059361e+000	-1.5813041582e+000
 1.0823973566e+000	 1.0384680844e+000	-1.6358528980e+000
 1.0715865057e+000	 1.0496201031e+000	-1.6892182010e+000
 1.0606601718e+000	 1.0606601718e+000	-1.7413752772e+000
 8.8388347645e-001	 8.8388347645e-001	-5.9264792534e-001
 8.7468341924e-001	 8.9298875468e-001	-6.6576735366e-001
 8.6539007034e-001	 9.0199779714e-001	-7.3879164280e-001
 8.5600494672e-001	 9.1090917828e-001	-8.1162925322e-001
 8.4652959423e-001	 9.1972150458e-001	-8.8418889247e-001
 8.3696558670e-001	 9.2843341526e-001	-9.5637955290e-001
 8.2731452514e-001	 9.3704358298e-001	-1.0281105484e+000
 8.1757803678e-001	 9.4555071450e-001	-1.0992915502e+000
 8.0775777422e-001	 9.5395355134e-001	-1.1698326214e+000
 7.9785541446e-001	 9.6225087038e-001	-1.2396442514e+000
 7.8787265798e-001	 9.7044148445e-001	-1.3086373886e+000
 9.0156114598e-001	 9.0156114598e-001	-7.5009679206e-001
 8.9217708762e-001	 9.1084852978e-001	-8.1910266716e-001
 8.8269787175e-001	 9.2003775308e-001	-8.8775889267e-001
 8.7312504566e-001	 9.2912736184e-001	-9.5598307674e-001
 8.6346018612e-001	 9.3811593467e-001	-1.0236932986e+000
 8.5370489844e-001	 9.4700208356e-001	-1.0908081329e+000
 8.4386081564e-001	 9.5578445464e-001	-1.1572466734e+000
 8.3392959752e-001	 9.6446172879e-001	-1.2229285547e+000
 8.2391292970e-001	 9.7303262236e-001	-1.2877739733e+000
 8.1381252275e-001	 9.8149588779e-001	-1.3517037073e+000
 8.0363011114e-001	 9.8985031414e-001	-1.4146391351e+000
 9.1923881551e-001	 9.1923881551e-001	-8.9613086394e-001
 9.0967075601e-001	 9.2870830487e-001	-9.6134445227e-001
 9.0000567316e-001	 9.3807770903e-001	-1.0259585364e+000
 8.9024514460e-001	 9.4734554541e-001	-1.0898998942e+000
 8.8039077800e-001	 9.5651036476e-001	-1.1530959975e+000
 8.7044421018e-001	 9.6557075187e-001	-1.2154750232e+000
 8.6040710615e-001	 9.7452532630e-001	-1.2769658629e+000
 8.5028115826e-001	 9.8337274308e-001	-1.3374981310e+000
 8.4006808519e-001	 9.9211169339e-001	-1.3970021716e+000
 8.2976963104e-001	 1.0007409052e+000	-1.4554090642e+000
 8.1938756430e-001	 1.0092591438e+000	-1.5126506274e+000
 9.3691648504e-001	 9.3691648504e-001	-1.0315560432e+000
 9.2716442440e-001	 9.4656807997e-001	-1.0932724538e+000
 9.1731347456e-001	 9.5611766497e-001	-1.1541436858e+000
 9.0736524353e-001	 9.6556372898e-001	-1.2141057257e+000
 8.9732136989e-001	 9.7490479486e-001	-1.2730954756e+000
 8.8718352191e-001	 9.8413942018e-001	-1.3310507512e+000
 8.7695339665e-001	 9.9326619796e-001	-1.3879102776e+000
 8.6663271899e-001	 1.0022837574e+000	-1.4436136831e+000
 8.5622324068e-001	 1.0111907644e+000	-1.4981014922e+000
 8.4572673933e-001	 1.0199859226e+000	-1.5513151158e+000
 8.3514501747e-001	 1.0286679735e+000	-1.6031968415e+000
 9.5459415457e-001	 9.5459415457e-001	-1.1571316511e+000
 9.4465809279e-001	 9.6442785507e-001	-1.2156215027e+000
 9.3462127597e-001	 9.7415762092e-001	-1.2730242346e+000
 9.2448534247e-001	 9.8378191255e-001	-1.3292850963e+000
 9.1425196178e-001	 9.9329922495e-001	-1.3843504741e+000
 9.0392283365e-001	 1.0027080885e+000	-1.4381678756e+000
 8.9349968716e-001	 1.0120070696e+000	-1.4906859113e+000
 8.8298427973e-001	 1.0211947717e+000	-1.5418542743e+000
 8.7237839617e-001	 1.0302698354e+000	-1.5916237188e+000
 8.6168384763e-001	 1.0392309400e+000	-1.6399460353e+000
 8.5090247063e-001	 1.0480768032e+000	-1.6867740262e+000
 9.7227182411e-001	 9.7227182411e-001	-1.2735746625e+000
 9.6215176117e-001	 9.8228763016e-001	-1.3290855987e+000
 9.5192907738e-001	 9.9219757686e-001	-1.3832707869e+000
 9.4160544141e-001	 1.0020000961e+000	-1.4360848084e+000
 9.3118255367e-001	 1.0116936550e+000	-1.4874836030e+000
 9.2066214539e-001	 1.0212767568e+000	-1.5374244385e+000
 9.1004597767e-001	 1.0307479413e+000	-1.5858658787e+000
 8.9933584047e-001	 1.0401057860e+000	-1.6327677485e+000
 8.8853355166e-001	 1.0493489065e+000	-1.6780910973e+000
 8.7764095592e-001	 1.0584759574e+000	-1.7217981595e+000
 8.6665992379e-001	 1.0674856329e+000	-1.7638523147e+000
 9.8994949364e-001	 9.8994949364e-001	-1.3815634866e+000
 9.7964542956e-001	 1.0001474053e+000	-1.4343215565e+000
 9.6923687880e-001	 1.0102375328e+000	-1.4855181652e+000
 9.5872554035e-001	 1.0202182797e+000	-1.5351173097e+000
 9.4811314556e-001	 1.0300880851e+000	-1.5830845664e+000
 9.3740145713e-001	 1.0398454251e+000	-1.6293870469e+000
 9.2659226817e-001	 1.0494888129e+000	-1.6739933512e+000
 9.1568740121e-001	 1.0590168002e+000	-1.7168735179e+000
 9.0468870714e-001	 1.0684279775e+000	-1.7579989726e+000
 8.9359806421e-001	 1.0777209748e+000	-1.7973424738e+000
 8.8241737695e-001	 1.0868944626e+000	-1.8348780566e+000
 1.0076271632e+000	 1.0076271632e+000	-1.4817413502e+000
 9.9713909795e-001	 1.0180071804e+000	-1.5319522671e+000
 9.8654468021e-001	 1.0282774888e+000	-1.5803685494e+000
 9.7584563929e-001	 1.0384364633e+000	-1.6269637068e+000
 9.6504373745e-001	 1.0484825152e+000	-1.6717130496e+000
 9.5414076887e-001	 1.0584140934e+000	-1.7145936307e+000
 9.4313855868e-001	 1.0682296846e+000	-1.7555841833e+000
 9.3203896195e-001	 1.0779278145e+000	-1.7946650567e+000
 9.2084386263e-001	 1.0875070485e+000	-1.8318181486e+000
 9.0955517251e-001	 1.0969659922e+000	-1.8670268361e+000
 8.9817483012e-001	 1.1063032923e+000	-1.9002759036e+000
 1.0253048327e+000	 1.0253048327e+000	-1.5747193306e+000
 1.0146327663e+000	 1.0358669555e+000	-1.6225696229e+000
 1.0038524816e+000	 1.0463174447e+000	-1.6683942909e+000
 9.9296573823e-001	 1.0566546468e+000	-1.7121764669e+000
 9.8197432934e-001	 1.0668769453e+000	-1.7539013064e+000
 9.7088008061e-001	 1.0769827617e+000	-1.7935559141e+000
 9.5968484919e-001	 1.0869705563e+000	-1.8311292678e+000
 9.4839052269e-001	 1.0968388288e+000	-1.8666121376e+000
 9.3699901812e-001	 1.1065861196e+000	-1.8999970037e+000
 9.2551228080e-001	 1.1162110097e+000	-1.9312779709e+000
 9.1393228328e-001	 1.1257121220e+000	-1.9604506805e+000
 1.0429825022e+000	 1.0429825022e+000	-1.6610790798e+000
 1.0321264347e+000	 1.0537267306e+000	-1.7067371439e+000
 1.0211602830e+000	 1.0643574006e+000	-1.7501404397e+000
 1.0100858372e+000	 1.0748728304e+000	-1.7912818452e+000
 9.9890492123e-001	 1.0852713754e+000	-1.8301564841e+000
 9.8761939235e-001	 1.0955514300e+000	-1.8667616373e+000
 9.7623113970e-001	 1.1057114279e+000	-1.9010966508e+000
 9.6474208344e-001	 1.1157498431e+000	-1.9331628401e+000
 9.5315417361e-001	 1.1256651906e+000	-1.9629633912e+000
 9.4146938909e-001	 1.1354560271e+000	-1.9905032595e+000
 9.2968973644e-001	 1.1451209517e+000	-2.0157890655e+000
 1.0606601718e+000	 1.0606601718e+000	-1.7413752772e+000
 1.0496201031e+000	 1.0715865057e+000	-1.7849923428e+000
 1.0384680844e+000	 1.0823973566e+000	-1.8261270206e+000
 1.0272059361e+000	 1.0930910140e+000	-1.8647820689e+000
 1.0158355131e+000	 1.1036658055e+000	-1.9009627157e+000
 1.0043587041e+000	 1.1141200983e+000	-1.9346765543e+000
 9.9277743021e-001	 1.1244522996e+000	-1.9659334360e+000
 9.8109364418e-001	 1.1346608574e+000	-1.9947453583e+000
 9.6930932910e-001	 1.1447442616e+000	-2.0211263499e+000
 9.5742649739e-001	 1.1547010445e+000	-2.0450923529e+000
 9.4544718961e-001	 1.1645297814e+000	-2.0666611019e+000
 7.8787265798e-001	 9.7044148445e-001	-1.3086373886e+000
 7.7781122776e-001	 9.7852424289e-001	-1.3742870771e+000
 7.6767286832e-001	 9.8649803203e-001	-1.4383926193e+000
 7.5745934472e-001	 9.9436177575e-001	-1.5008135832e+000
 7.4717244154e-001	 1.0021144359e+000	-1.5614108346e+000
 7.3681396190e-001	 1.0097550126e+000	-1.6200466191e+000
 7.2638572639e-001	 1.0172825451e+000	-1.6765846431e+000
 7.1588957207e-001	 1.0246961113e+000	-1.7308901528e+000
 7.0532735142e-001	 1.0319948291e+000	-1.7828300106e+000
 6.9470093126e-001	 1.0391778559e+000	-1.8322727711e+000
 6.8401219173e-001	 1.0462443890e+000	-1.8790887531e+000
 8.0363011114e-001	 9.8985031414e-001	-1.4146391351e+000
 7.9336745232e-001	 9.9809472774e-001	-1.4712524824e+000
 7.8302632569e-001	 1.0062279927e+000	-1.5262909967e+000
 7.7260853162e-001	 1.0142490113e+000	-1.5796424514e+000
 7.6211589037e-001	 1.0221567246e+000	-1.6311958115e+000
 7.5155024114e-001	 1.0299501129e+000	-1.6808412842e+000
 7.4091344092e-001	 1.0376281960e+000	-1.7284703675e+000
 7.3020736352e-001	 1.0451900336e+000	-1.7739758979e+000
 7.1943389845e-001	 1.0526347257e+000	-1.8172520964e+000
 7.0859494989e-001	 1.0599614130e+000	-1.8581946132e+000
 6.9769243556e-001	 1.0671692768e+000	-1.8967005711e+000
 8.1938756430e-001	 1.0092591438e+000	-1.5126506274e+000
 8.0892367688e-001	 1.0176652126e+000	-1.5616948448e+000
 7.9837978306e-001	 1.0259579533e+000	-1.6091332084e+000
 7.8775771852e-001	 1.0341362468e+000	-1.6548811847e+000
 7.7705933921e-001	 1.0421990133e+000	-1.6988553282e+000
 7.6628652038e-001	 1.0501452131e+000	-1.7409732999e+000
 7.5544115545e-001	 1.0579738469e+000	-1.7811538848e+000
 7.4452515496e-001	 1.0656839558e+000	-1.8193170083e+000
 7.3354044548e-001	 1.0732746223e+000	-1.8553837512e+000
 7.2248896852e-001	 1.0807449701e+000	-1.8892763649e+000
 7.1137267940e-001	 1.0880941646e+000	-1.9209182845e+000
 8.3514501747e-001	 1.0286679735e+000	-1.6031968415e+000
 8.2447990144e-001	 1.0372356975e+000	-1.6460468225e+000
 8.1373324043e-001	 1.0456879139e+000	-1.6872595875e+000
 8.0290690541e-001	 1.0540234823e+000	-1.7267778318e+000
 7.9200278804e-001	 1.0622413020e+000	-1.7645452372e+000
 7.8102279962e-001	 1.0703403134e+000	-1.8005064587e+000
 7.6996886998e-001	 1.0783194978e+000	-1.8346071110e+000
 7.5884294641e-001	 1.0861778780e+000	-1.8667937535e+000
 7.4764699251e-001	 1.0939145189e+000	-1.8970138755e+000
 7.3638298714e-001	 1.1015285272e+000	-1.9252158808e+000
 7.2505292324e-001	 1.1090190524e+000	-1.9513490718e+000
 8.5090247063e-001	 1.0480768032e+000	-1.6867740262e+000
 8.4003612600e-001	 1.0568061823e+000	-1.7247188668e+000
 8.2908669780e-001	 1.0654178746e+000	-1.7609947782e+000
 8.1805609231e-001	 1.0739107178e+000	-1.7955712653e+000
 8.0694623688e-001	 1.0822835907e+000	-1.8284187197e+000
 7.9575907886e-001	 1.0905354136e+000	-1.8595083755e+000
 7.8449658451e-001	 1.0986651487e+000	-1.8888122636e+000
 7.7316073785e-001	 1.1066718002e+000	-1.9163031670e+000
 7.6175353954e-001	 1.1145544154e+000	-1.9419545752e+000
 7.5027700577e-001	 1.1223120843e+000	-1.9657406393e+000
 7.3873316707e-001	 1.1299439401e+000	-1.9876361268e+000
 8.6665992379e-001	 1.0674856329e+000	-1.7638523147e+000
 8.5559235055e-001	 1.0763766672e+000	-1.7981012402e+000
 8.4444015517e-001	 1.0851478352e+000	-1.8306491615e+000
 8.3320527921e-001	 1.0937979533e+000	-1.8614920156e+000
 8.2188968571e-001	 1.1023258794e+000	-1.8906265287e+000
 8.1049535810e-001	 1.1107305139e+000	-1.9180501399e+000
 7.9902429904e-001	 1.1190107996e+000	-1.9437609252e+000
 7.8747852929e-001	 1.1271657225e+000	-1.9677575216e+000
 7.7586008657e-001	 1.1351943120e+000	-1.9900390517e+000
 7.6417102439e-001	 1.1430956414e+000	-2.0106050493e+000
 7.5241341090e-001	 1.1508688279e+000	-2.0294553849e+000
 8.8241737695e-001	 1.0868944626e+000	-1.8348780566e+000
 8.7114857511e-001	 1.0959471520e+000	-1.8665658197e+000
 8.5979361254e-001	 1.1048777959e+000	-1.8965201290e+000
 8.4835446610e-001	 1.1136851888e+000	-1.9247630161e+000
 8.3683313454e-001	 1.1223681682e+000	-1.9513172053e+000
 8.2523163734e-001	 1.1309256141e+000	-1.9762060065e+000
 8.1355201357e-001	 1.1393564505e+000	-1.9994532077e+000
 8.0179632073e-001	 1.1476596447e+000	-2.0210829695e+000
 7.8996663360e-001	 1.1558342086e+000	-2.0411197190e+000
 7.7806504302e-001	 1.1638791986e+000	-2.0595880459e+000
 7.6609365474e-001	 1.1717937157e+000	-2.0765125995e+000
 8.9817483012e-001	 1.1063032923e+000	-1.9002759036e+000
 8.8670479967e-001	 1.1155176369e+000	-1.9304677089e+000
 8.7514706991e-001	 1.1246077565e+000	-1.9588932223e+000
 8.6350365300e-001	 1.1335724243e+000	-1.9856002693e+000
 8.5177658338e-001	 1.1424104569e+000	-2.0106372731e+000
 8.3996791658e-001	 1.1511207144e+000	-2.0340531164e+000
 8.2807972810e-001	 1.1597021014e+000	-2.0558970036e+000
 8.1611411218e-001	 1.1681535669e+000	-2.0762183244e+000
 8.0407318063e-001	 1.1764741052e+000	-2.0950665177e+000
 7.9195906164e-001	 1.1846627557e+000	-2.1124909385e+000
 7.7977389857e-001	 1.1927186035e+000	-2.1285407262e+000
 9.1393228328e-001	 1.1257121220e+000	-1.9604506805e+000
 9.0226102423e-001	 1.1350881218e+000	-1.9901466846e+000
 8.9050052728e-001	 1.1443377172e+000	-2.0180431548e+000
 8.7865283990e-001	 1.1534596599e+000	-2.0442134447e+000
 8.6672003221e-001	 1.1624527456e+000	-2.0687314119e+000
 8.5470419582e-001	 1.1713158147e+000	-2.0916712492e+000
 8.4260744262e-001	 1.1800477523e+000	-2.1131073157e+000
 8.3043190362e-001	 1.1886474891e+000	-2.1331139700e+000
 8.1817972766e-001	 1.1971140018e+000	-2.1517654046e+000
 8.0585308027e-001	 1.2054463128e+000	-2.1691354828e+000
 7.9345414240e-001	 1.2136434913e+000	-2.1852975782e+000
 9.2968973644e-001	 1.1451209517e+000	-2.0157890655e+000
 9.1781724879e-001	 1.1546586066e+000	-2.0459284952e+000
 9.0585398465e-001	 1.1640676778e+000	-2.0742347289e+000
 8.9380202679e-001	 1.1733468954e+000	-2.1008064149e+000
 8.8166348104e-001	 1.1824950343e+000	-2.1257426140e+000
 8.6944047506e-001	 1.1915109149e+000	-2.1491425988e+000
 8.5713515715e-001	 1.2003934032e+000	-2.1711056542e+000
 8.4474969506e-001	 1.2091414114e+000	-2.1917308798e+000
 8.3228627468e-001	 1.2177538984e+000	-2.2111169952e+000
 8.1974709889e-001	 1.2262298699e+000	-2.2293621470e+000
 8.0713438624e-001	 1.2345683790e+000	-2.2465637196e+000
 9.4544718961e-001	 1.1645297814e+000	-2.0666611019e+000
 9.3337347334e-001	 1.1742290915e+000	-2.0981260301e+000
 9.2120744201e-001	 1.1837976384e+000	-2.1277236619e+000
 9.0895121369e-001	 1.1932341309e+000	-2.1555777392e+000
 8.9660692987e-001	 1.2025373230e+000	-2.1818123252e+000
 8.8417675429e-001	 1.2117060152e+000	-2.2065515728e+000
 8.7166287168e-001	 1.2207390541e+000	-2.2299194945e+000
 8.5906748650e-001	 1.2296353336e+000	-2.2520397342e+000
 8.4639282171e-001	 1.2383937949e+000	-2.2730353422e+000
 8.3364111751e-001	 1.2470134270e+000	-2.2930285536e+000
 8.2081463007e-001	 1.2554932668e+000	-2.2806162927e+000
 6.8401219173e-001	 1.0462443890e+000	-1.8790887531e+000
 6.7326302520e-001	 1.0531936664e+000	-1.9267054861e+000
 6.6245533522e-001	 1.0600249662e+000	-1.9694676973e+000
 6.5159103546e-001	 1.0667376072e+000	-2.0073087373e+000
 6.4067204862e-001	 1.0733309490e+000	-2.0401653519e+000
 6.2970030539e-001	 1.0798043922e+000	-2.0679776725e+000
 6.1867774335e-001	 1.0861573781e+000	-2.1082655168e+000
 6.0760630594e-001	 1.0923893889e+000	-2.1557484335e+000
 5.9648794139e-001	 1.0984999480e+000	-2.1970039138e+000
 5.8532460163e-001	 1.1044886196e+000	-2.2319029574e+000
 5.7411824131e-001	 1.1103550086e+000	-2.2603228033e+000
 6.9769243556e-001	 1.0671692768e+000	-1.8967005711e+000
 6.8672828570e-001	 1.0742575397e+000	-1.9392860005e+000
 6.7570444192e-001	 1.0812254655e+000	-1.9776392300e+000
 6.6462285617e-001	 1.0880723593e+000	-2.0117096540e+000
 6.5348548960e-001	 1.0947975680e+000	-2.0414493870e+000
 6.4229431150e-001	 1.1014004800e+000	-2.0668132405e+000
 6.3105129822e-001	 1.1078805256e+000	-2.0877586986e+000
 6.1975843206e-001	 1.1142371767e+000	-2.1187695533e+000
 6.0841770021e-001	 1.1204699470e+000	-2.1612611181e+000
 5.9703109366e-001	 1.1265783920e+000	-2.1980192912e+000
 5.8560060613e-001	 1.1325621087e+000	-2.2289262777e+000
 7.1137267940e-001	 1.0880941646e+000	-1.9209182845e+000
 7.0019354621e-001	 1.0953214130e+000	-1.9593876503e+000
 6.8895354863e-001	 1.1024259648e+000	-1.9942275843e+000
 6.7765467688e-001	 1.1094071114e+000	-2.0254033498e+000
 6.6629893057e-001	 1.1162641870e+000	-2.0528822670e+000
 6.5488831761e-001	 1.1229965679e+000	-2.0766336768e+000
 6.4342485309e-001	 1.1296036732e+000	-2.0966289021e+000
 6.3191055818e-001	 1.1360849645e+000	-2.1128412096e+000
 6.2034745904e-001	 1.1424399459e+000	-2.1380538288e+000
 6.0873758569e-001	 1.1486681643e+000	-2.1775713978e+000
 5.9708297096e-001	 1.1547692089e+000	-2.2118400965e+000
 7.2505292324e-001	 1.1090190524e+000	-1.9513490718e+000
 7.1365880671e-001	 1.1163852864e+000	-1.9865571204e+000
 7.0220265533e-001	 1.1236264641e+000	-2.0187202169e+000
 6.9068649759e-001	 1.1307418636e+000	-2.0478193454e+000
 6.7911237154e-001	 1.1377308060e+000	-2.0738368956e+000
 6.6748232371e-001	 1.1445926557e+000	-2.0967566111e+000
 6.5579840795e-001	 1.1513268207e+000	-2.1165635389e+000
 6.4406268430e-001	 1.1579327522e+000	-2.1332439783e+000
 6.3227721786e-001	 1.1644099449e+000	-2.1467854305e+000
 6.2044407772e-001	 1.1707579367e+000	-2.1695942901e+000
 6.0856533578e-001	 1.1769763091e+000	-2.2080572120e+000
 7.3873316707e-001	 1.1299439401e+000	-1.9876361268e+000
 7.2712406721e-001	 1.1374491597e+000	-2.0203812691e+000
 7.1545176204e-001	 1.1448269634e+000	-2.0506488232e+000
 7.0371831829e-001	 1.1520766157e+000	-2.0784353727e+000
 6.9192581251e-001	 1.1591974249e+000	-2.1037382640e+000
 6.8007632982e-001	 1.1661887436e+000	-2.1265555417e+000
 6.6817196282e-001	 1.1730499683e+000	-2.1468858842e+000
 6.5621481041e-001	 1.1797805400e+000	-2.1647285403e+000
 6.4420697669e-001	 1.1863799439e+000	-2.1800832684e+000
 6.3215056975e-001	 1.1928477091e+000	-2.1929502766e+000
 6.2004770061e-001	 1.1991834092e+000	-2.2166438543e+000
 7.5241341090e-001	 1.1508688279e+000	-2.0294553849e+000
 7.4058932772e-001	 1.1585130330e+000	-2.0604834752e+000
 7.2870086874e-001	 1.1660274628e+000	-2.0895853159e+000
 7.1675013900e-001	 1.1734113679e+000	-2.1167729913e+000
 7.0473925348e-001	 1.1806640439e+000	-2.1420587164e+000
 6.9267033592e-001	 1.1877848314e+000	-2.1654547567e+000
 6.8054551768e-001	 1.1947731158e+000	-2.1869733508e+000
 6.6836693653e-001	 1.2016283278e+000	-2.2066266350e+000
 6.5613673552e-001	 1.2083499428e+000	-2.2244265707e+000
 6.4385706178e-001	 1.2149374815e+000	-2.2403848746e+000
 6.3153006543e-001	 1.2213905094e+000	-2.2545129520e+000
 7.6609365474e-001	 1.1717937157e+000	-2.0765125995e+000
 7.5405458822e-001	 1.1795769063e+000	-2.1065203781e+000
 7.4194997544e-001	 1.1872279621e+000	-2.1351382335e+000
 7.2978195971e-001	 1.1947461200e+000	-2.1623936760e+000
 7.1755269445e-001	 1.2021306629e+000	-2.1883137219e+000
 7.0526434203e-001	 1.2093809192e+000	-2.2129247991e+000
 6.9291907255e-001	 1.2164962634e+000	-2.2362526557e+000
 6.8051906265e-001	 1.2234761156e+000	-2.2583222725e+000
 6.6806649434e-001	 1.2303199418e+000	-2.2791577786e+000
 6.5556355381e-001	 1.2370272539e+000	-2.2987823718e+000
 6.4301243026e-001	 1.2435976096e+000	-2.3172182420e+000
 7.7977389857e-001	 1.1927186035e+000	-2.1285407262e+000
 7.6751984872e-001	 1.2006407797e+000	-2.1581789595e+000
 7.5519908214e-001	 1.2084284614e+000	-2.1869495282e+000
 7.4281378042e-001	 1.2160808721e+000	-2.2148953150e+000
 7.3036613542e-001	 1.2235972819e+000	-2.2420580915e+000
 7.1785834814e-001	 1.2309770071e+000	-2.2684784093e+000
 7.0529262741e-001	 1.2382194110e+000	-2.2941954947e+000
 6.9267118877e-001	 1.2453239033e+000	-2.3192471485e+000
 6.7999625317e-001	 1.2522899407e+000	-2.3248653591e+000
 6.6727004585e-001	 1.2591170263e+000	-2.2904767358e+000
 6.5449479508e-001	 1.2658047097e+000	-2.2534006601e+000
 7.9345414240e-001	 1.2136434913e+000	-2.1852975782e+000
 7.8098510922e-001	 1.2217046530e+000	-2.2151739281e+000
 7.6844818885e-001	 1.2296289607e+000	-2.2446916850e+000
 7.5584560112e-001	 1.2374156243e+000	-2.2739090709e+000
 7.4317957639e-001	 1.2450639008e+000	-2.3028825865e+000
 7.3045235424e-001	 1.2525730949e+000	-2.3130117879e+000
 7.1766618228e-001	 1.2599425585e+000	-2.2861029605e+000
 7.0482331488e-001	 1.2671716911e+000	-2.2569108734e+000
 6.9192601199e-001	 1.2742599397e+000	-2.2254278271e+000
 6.7897653788e-001	 1.2812067987e+000	-2.1916490998e+000
 6.6597715991e-001	 1.2880118099e+000	-2.1555730146e+000
 8.0713438624e-001	 1.2345683790e+000	-2.2465637196e+000
 7.9445036972e-001	 1.2427685263e+000	-2.2772453697e+000
 7.8169729555e-001	 1.2508294600e+000	-2.3027827870e+000
 7.6887742183e-001	 1.2587503764e+000	-2.2817025179e+000
 7.5599301736e-001	 1.2665305198e+000	-2.2587180628e+000
 7.4304636035e-001	 1.2741691828e+000	-2.2338195945e+000
 7.3003973714e-001	 1.2816657061e+000	-2.2069996353e+000
 7.1697544100e-001	 1.2890194789e+000	-2.1782531402e+000
 7.0385577082e-001	 1.2962299386e+000	-2.1475775763e+000
 6.9068302991e-001	 1.3032965711e+000	-2.1149729975e+000
 6.7745952473e-001	 1.3102189101e+000	-2.0804421151e+000
 8.2081463007e-001	 1.2554932668e+000	-2.2806162927e+000
 8.0791563023e-001	 1.2638323996e+000	-2.2623760473e+000
 7.9494640225e-001	 1.2720299594e+000	-2.2425681609e+000
 7.8190924254e-001	 1.2800851286e+000	-2.2211850641e+000
 7.6880645833e-001	 1.2879971388e+000	-2.1982209674e+000
 7.5564036645e-001	 1.2957652706e+000	-2.1736719543e+000
 7.4241329201e-001	 1.3033888536e+000	-2.1475360700e+000
 7.2912756712e-001	 1.3108672667e+000	-2.1198134080e+000
 7.1578552965e-001	 1.3181999376e+000	-2.0905061922e+000
 7.0238952194e-001	 1.3253863434e+000	-2.0596188555e+000
 6.8894188956e-001	 1.3324260102e+000	-2.0271581138e+000
 5.7411824131e-001	 1.1103550086e+000	-2.2603228033e+000
 5.6287081669e-001	 1.1160987607e+000	-2.3007400016e+000
 5.5158428467e-001	 1.1217195625e+000	-2.3385654168e+000
 5.4026060171e-001	 1.1272171407e+000	-2.3736412368e+000
 5.2890172284e-001	 1.1325912624e+000	-2.4058126758e+000
 5.1750960065e-001	 1.1378417347e+000	-2.4349281286e+000
 5.0608618433e-001	 1.1429684047e+000	-2.4608393190e+000
 4.9463341865e-001	 1.1479711587e+000	-2.4834014411e+000
 4.8315324300e-001	 1.1528499225e+000	-2.5024732937e+000
 4.7164759049e-001	 1.1576046607e+000	-2.5179174070e+000
 4.6011838696e-001	 1.1622353763e+000	-2.5296001629e+000
 5.8560060613e-001	 1.1325621087e+000	-2.2289262777e+000
 5.7412823303e-001	 1.1384207360e+000	-2.2703946385e+000
 5.6261597037e-001	 1.1441539538e+000	-2.3088289845e+000
 5.5106581375e-001	 1.1497614835e+000	-2.3440875050e+000
 5.3947975730e-001	 1.1552430876e+000	-2.3760317155e+000
 5.2785979267e-001	 1.1605985694e+000	-2.4045265932e+000
 5.1620790802e-001	 1.1658277727e+000	-2.4294407063e+000
 5.0452608702e-001	 1.1709305819e+000	-2.4506463354e+000
 4.9281630786e-001	 1.1759069209e+000	-2.4680195882e+000
 4.8108054230e-001	 1.1807567539e+000	-2.4814405075e+000
 4.6932075469e-001	 1.1854800839e+000	-2.4907931708e+000
 5.9708297096e-001	 1.1547692089e+000	-2.2118400965e+000
 5.8538564936e-001	 1.1607427112e+000	-2.2556330116e+000
 5.7364765606e-001	 1.1665883450e+000	-2.2959642446e+000
 5.6187102578e-001	 1.1723058263e+000	-2.3327072301e+000
 5.5005779175e-001	 1.1778949129e+000	-2.3657390280e+000
 5.3820998468e-001	 1.1833554041e+000	-2.3949404413e+000
 5.2632963171e-001	 1.1886871408e+000	-2.4201961257e+000
 5.1441875539e-001	 1.1938900050e+000	-2.4413946931e+000
 5.0247937272e-001	 1.1989639194e+000	-2.4584288075e+000
 4.9051349411e-001	 1.2039088471e+000	-2.4711952731e+000
 4.7852312243e-001	 1.2087247914e+000	-2.4795951156e+000
 6.0856533578e-001	 1.1769763091e+000	-2.2080572120e+000
 5.9664306569e-001	 1.1830646864e+000	-2.2553833139e+000
 5.8467934175e-001	 1.1890227363e+000	-2.2988336729e+000
 5.7267623781e-001	 1.1948501691e+000	-2.3382962459e+000
 5.6063582621e-001	 1.2005467381e+000	-2.3736629143e+000
 5.4856017669e-001	 1.2061122388e+000	-2.4048295832e+000
 5.3645135539e-001	 1.2115465089e+000	-2.4316962740e+000
 5.2431142377e-001	 1.2168494282e+000	-2.4541672092e+000
 5.1214243758e-001	 1.2220209178e+000	-2.4721508900e+000
 4.9994644592e-001	 1.2270609403e+000	-2.4855601666e+000
 4.8772549017e-001	 1.2319694989e+000	-2.4943123008e+000
 6.2004770061e-001	 1.1991834092e+000	-2.2166438543e+000
 6.0790048203e-001	 1.2053866616e+000	-2.2686519727e+000
 5.9571102745e-001	 1.2114571275e+000	-2.3163830029e+000
 5.8348144985e-001	 1.2173945119e+000	-2.3597387322e+000
 5.7121386067e-001	 1.2231985634e+000	-2.3986251705e+000
 5.5891036871e-001	 1.2288690735e+000	-2.4329526337e+000
 5.4657307908e-001	 1.2344058770e+000	-2.4626358176e+000
 5.3420409214e-001	 1.2398088514e+000	-2.4875938665e+000
 5.2180550244e-001	 1.2450779163e+000	-2.5077504323e+000
 5.0937939773e-001	 1.2502130335e+000	-2.5205873324e+000
 4.9692785791e-001	 1.2552142064e+000	-2.4726030618e+000
 6.3153006543e-001	 1.2213905094e+000	-2.2545129520e+000
 6.1915789836e-001	 1.2277086368e+000	-2.2945165375e+000
 6.0674271314e-001	 1.2338915188e+000	-2.3476336573e+000
 5.9428666188e-001	 1.2399388547e+000	-2.3959991827e+000
 5.8179189512e-001	 1.2458503886e+000	-2.4395325887e+000
 5.6926056072e-001	 1.2516259082e+000	-2.4611144342e+000
 5.5669480277e-001	 1.2572652451e+000	-2.4340885633e+000
 5.4409676051e-001	 1.2627682746e+000	-2.4011792941e+000
 5.3146856730e-001	 1.2681349147e+000	-2.3625340873e+000
 5.1881234953e-001	 1.2733651267e+000	-2.3183017530e+000
 5.0613022564e-001	 1.2784589140e+000	-2.2686320885e+000
 6.4301243026e-001	 1.2435976096e+000	-2.3172182420e+000
 6.3041531469e-001	 1.2500306120e+000	-2.3463040848e+000
 6.1777439883e-001	 1.2563259100e+000	-2.3315623157e+000
 6.0509187392e-001	 1.2624831976e+000	-2.3243696647e+000
 5.9236992958e-001	 1.2685022138e+000	-2.3104274510e+000
 5.7961075273e-001	 1.2743827429e+000	-2.2899077884e+000
 5.6681652645e-001	 1.2801246132e+000	-2.2629853647e+000
 5.5398942888e-001	 1.2857276977e+000	-2.2298370164e+000
 5.4113163216e-001	 1.2911919132e+000	-2.1906413081e+000
 5.2824530134e-001	 1.2965172200e+000	-2.1455781196e+000
 5.1533259338e-001	 1.3017036215e+000	-2.0948282399e+000
 6.5449479508e-001	 1.2658047097e+000	-2.2534006601e+000
 6.4167273103e-001	 1.2723525872e+000	-2.2258883483e+000
 6.2880608453e-001	 1.2787603012e+000	-2.1930356260e+000
 6.1589708595e-001	 1.2850275404e+000	-2.1777642088e+000
 6.0294796403e-001	 1.2911540391e+000	-2.1651948513e+000
 5.8996094475e-001	 1.2971395776e+000	-2.1456493598e+000
 5.7693825014e-001	 1.3029839813e+000	-2.1193337478e+000
 5.6388209726e-001	 1.3086871209e+000	-2.0864562249e+000
 5.5079469702e-001	 1.3142489116e+000	-2.0472267311e+000
 5.3767825315e-001	 1.3196693132e+000	-2.0018564787e+000
 5.2453496112e-001	 1.3249483290e+000	-1.9505575023e+000
 6.6597715991e-001	 1.2880118099e+000	-2.1555730146e+000
 6.5293014736e-001	 1.2946745624e+000	-2.1299129881e+000
 6.3983777022e-001	 1.3011946925e+000	-2.0984762118e+000
 6.2670229798e-001	 1.3075718832e+000	-2.0613068590e+000
 6.1352599849e-001	 1.3138058643e+000	-2.0462801581e+000
 6.0031113676e-001	 1.3198964122e+000	-2.0281383232e+000
 5.8705997383e-001	 1.3258433494e+000	-2.0028646476e+000
 5.7377476563e-001	 1.3316465441e+000	-1.9706990367e+000
 5.6045776188e-001	 1.3373059101e+000	-1.9318831209e+000
 5.4711120496e-001	 1.3428214064e+000	-1.8866597519e+000
 5.3373732886e-001	 1.3481930365e+000	-1.8352725080e+000
 6.7745952473e-001	 1.3102189101e+000	-2.0804421151e+000
 6.6418756369e-001	 1.3169965376e+000	-2.0574490238e+000
 6.5086945591e-001	 1.3236290837e+000	-2.0282509480e+000
 6.3750751002e-001	 1.3301162260e+000	-1.9929051939e+000
 6.2410403295e-001	 1.3364576896e+000	-1.9536092235e+000
 6.1066132877e-001	 1.3426532469e+000	-1.9372362043e+000
 5.9718169751e-001	 1.3487027175e+000	-1.9133746760e+000
 5.8366743400e-001	 1.3546059672e+000	-1.8822966055e+000
 5.7012082674e-001	 1.3603629085e+000	-1.8442756710e+000
 5.5654415677e-001	 1.3659734996e+000	-1.7995867127e+000
 5.4293969659e-001	 1.3714377441e+000	-1.7485051927e+000
 6.8894188956e-001	 1.3324260102e+000	-2.0271581138e+000
 6.7544498003e-001	 1.3393185129e+000	-2.0076127772e+000
 6.6190114160e-001	 1.3460634750e+000	-1.9814418194e+000
 6.4831272205e-001	 1.3526605688e+000	-1.9487150696e+000
 6.3468206740e-001	 1.3591095148e+000	-1.9095087999e+000
 6.2101152078e-001	 1.3654100816e+000	-1.8728616837e+000
 6.0730342120e-001	 1.3715620856e+000	-1.8507206492e+000
 5.9356010237e-001	 1.3775653904e+000	-1.8210433691e+000
 5.7978389160e-001	 1.3834199070e+000	-1.7841359682e+000
 5.6597710858e-001	 1.3891255928e+000	-1.7403056651e+000
 5.5214206433e-001	 1.3946824516e+000	-1.6898601866e+000
 4.6011838696e-001	 1.1622353763e+000	-2.5296001629e+000
 4.4856755008e-001	 1.1667421108e+000	-2.5818097175e+000
 4.3699698847e-001	 1.1711249430e+000	-2.6300874579e+000
 4.2540860082e-001	 1.1753839893e+000	-2.6744043783e+000
 4.1380427497e-001	 1.1795194030e+000	-2.7147342166e+000
 4.0218588716e-001	 1.1835313736e+000	-2.7510534641e+000
 3.9055530112e-001	 1.1874201265e+000	-2.7833413705e+000
 3.7891436731e-001	 1.1911859226e+000	-2.8115799460e+000
 3.6726492216e-001	 1.1948290576e+000	-2.8357539574e+000
 3.5560878723e-001	 1.1983498614e+000	-2.8558509217e+000
 3.4394776857e-001	 1.2017486977e+000	-2.8718610950e+000
 4.6932075469e-001	 1.1854800839e+000	-2.4907931708e+000
 4.5753890108e-001	 1.1900769530e+000	-2.5464454068e+000
 4.4573692824e-001	 1.1945474418e+000	-2.5980027411e+000
 4.3391677283e-001	 1.1988916691e+000	-2.6454293794e+000
 4.2208036047e-001	 1.2031097911e+000	-2.6886925930e+000
 4.1022960490e-001	 1.2072020010e+000	-2.7277627310e+000
 3.9836640714e-001	 1.2111685290e+000	-2.7626132273e+000
 3.8649265466e-001	 1.2150096411e+000	-2.7932206026e+000
 3.7461022059e-001	 1.2187256388e+000	-2.8195644629e+000
 3.6272096297e-001	 1.2223168587e+000	-2.8416274918e+000
 3.5082672394e-001	 1.2257836717e+000	-2.8593954394e+000
 4.7852312243e-001	 1.2087247914e+000	-2.4795951156e+000
 4.6651025208e-001	 1.2134117952e+000	-2.5384336265e+000
 4.5447686801e-001	 1.2179699407e+000	-2.5930197281e+000
 4.4242494484e-001	 1.2223993489e+000	-2.6433108462e+000
 4.3035644597e-001	 1.2267001791e+000	-2.6892677935e+000
 4.1827332264e-001	 1.2308726285e+000	-2.7308547834e+000
 4.0617751316e-001	 1.2349169315e+000	-2.7680394389e+000
 3.9407094200e-001	 1.2388333595e+000	-2.8007927964e+000
 3.8195551903e-001	 1.2426222199e+000	-2.8290893035e+000
 3.6983313871e-001	 1.2462838559e+000	-2.8529068130e+000
 3.5770567931e-001	 1.2498186456e+000	-2.8722265706e+000
 4.8772549017e-001	 1.2319694989e+000	-2.4943123008e+000
 4.7548160308e-001	 1.2367466374e+000	-2.5561007846e+000
 4.6321680778e-001	 1.2413924396e+000	-2.6134844009e+000
 4.5093311686e-001	 1.2459070287e+000	-2.6664137979e+000
 4.3863253146e-001	 1.2502905672e+000	-2.7112444281e+000
 4.2631704038e-001	 1.2545432560e+000	-2.7019063590e+000
 4.1398861918e-001	 1.2586653341e+000	-2.6886710346e+000
 4.0164922934e-001	 1.2626570780e+000	-2.6716437127e+000
 3.8930081747e-001	 1.2665188011e+000	-2.6509278866e+000
 3.7694531445e-001	 1.2702508531e+000	-2.6266250722e+000
 3.6458463467e-001	 1.2738536196e+000	-2.5988346072e+000
 4.9692785791e-001	 1.2552142064e+000	-2.4726030618e+000
 4.8445295408e-001	 1.2600814796e+000	-2.4787394181e+000
 4.7195674754e-001	 1.2648149384e+000	-2.4804436485e+000
 4.5944128887e-001	 1.2694147085e+000	-2.4778331236e+000
 4.4690861696e-001	 1.2738809552e+000	-2.4710243796e+000
 4.3436075812e-001	 1.2782138834e+000	-2.4601328477e+000
 4.2179972519e-001	 1.2824137366e+000	-2.4452725942e+000
 4.0922751669e-001	 1.2864807964e+000	-2.4265560713e+000
 3.9664611591e-001	 1.2904153822e+000	-2.4040938781e+000
 3.8405749020e-001	 1.2942178504e+000	-2.3779945343e+000
 3.7146359004e-001	 1.2978885935e+000	-2.3483642638e+000
 5.0613022564e-001	 1.2784589140e+000	-2.2686320885e+000
 4.9342430508e-001	 1.2834163219e+000	-2.2728830768e+000
 4.8069668731e-001	 1.2882374373e+000	-2.2726085099e+000
 4.6794946089e-001	 1.2929223883e+000	-2.2679339005e+000
 4.5518470246e-001	 1.2974713433e+000	-2.2589838882e+000
 4.4240447586e-001	 1.3018845109e+000	-2.2458819507e+000
 4.2961083121e-001	 1.3061621391e+000	-2.2287501268e+000
 4.1680580403e-001	 1.3103045149e+000	-2.2077087497e+000
 4.0399141435e-001	 1.3143119634e+000	-2.1828761924e+000
 3.9116966594e-001	 1.3181848476e+000	-2.1543686252e+000
 3.7834254541e-001	 1.3219235675e+000	-2.1222997853e+000
 5.1533259338e-001	 1.3017036215e+000	-2.0948282399e+000
 5.0239565608e-001	 1.3067511641e+000	-2.0964983709e+000
 4.8943662708e-001	 1.3116599362e+000	-2.0935565398e+000
 4.7645763290e-001	 1.3164300681e+000	-2.0861371726e+000
 4.6346078795e-001	 1.3210617314e+000	-2.0743737669e+000
 4.5044819360e-001	 1.3255551384e+000	-2.0583985844e+000
 4.3742193723e-001	 1.3299105417e+000	-2.0383423557e+000
 4.2438409137e-001	 1.3341282333e+000	-2.0143339956e+000
 4.1133671280e-001	 1.3382085446e+000	-1.9865003320e+000
 3.9828184168e-001	 1.3421518448e+000	-1.9549658470e+000
 3.8522150078e-001	 1.3459585415e+000	-1.9198524307e+000
 5.2453496112e-001	 1.3249483290e+000	-1.9505575023e+000
 5.1136700707e-001	 1.3300860063e+000	-1.9489456715e+000
 4.9817656684e-001	 1.3350824350e+000	-1.9426421693e+000
 4.8496580491e-001	 1.3399377478e+000	-1.9317911198e+000
 4.7173687345e-001	 1.3446521194e+000	-1.9165356471e+000
 4.5849191134e-001	 1.3492257659e+000	-1.8970175483e+000
 4.4523304325e-001	 1.3536589442e+000	-1.8733769789e+000
 4.3196237872e-001	 1.3579519518e+000	-1.8457521498e+000
 4.1868201124e-001	 1.3621051257e+000	-1.8142790387e+000
 4.0539401742e-001	 1.3661188421e+000	-1.7790911136e+000
 3.9210045615e-001	 1.3699935154e+000	-1.7403190709e+000
 5.3373732886e-001	 1.3481930365e+000	-1.8352725080e+000
 5.2033835807e-001	 1.3534208485e+000	-1.8296710466e+000
 5.0691650661e-001	 1.3585049339e+000	-1.8193046002e+000
 4.9347397693e-001	 1.3634454276e+000	-1.8043277901e+000
 4.8001295895e-001	 1.3682425075e+000	-1.7848941496e+000
 4.6653562908e-001	 1.3728963933e+000	-1.7611557768e+000
 4.5304414927e-001	 1.3774073467e+000	-1.7332629993e+000
 4.3954066606e-001	 1.3817756702e+000	-1.7013640528e+000
 4.2602730968e-001	 1.3860017069e+000	-1.6656047729e+000
 4.1250619317e-001	 1.3900858393e+000	-1.6261283017e+000
 3.9897941152e-001	 1.3940284894e+000	-1.5830748090e+000
 5.4293969659e-001	 1.3714377441e+000	-1.7485051927e+000
 5.2930970907e-001	 1.3767556907e+000	-1.7381989981e+000
 5.1565644638e-001	 1.3819274327e+000	-1.7230606205e+000
 5.0198214894e-001	 1.3869531074e+000	-1.7032559915e+000
 4.8828904444e-001	 1.3918328955e+000	-1.6789498513e+000
 4.7457934682e-001	 1.3965670208e+000	-1.6503053785e+000
 4.6085525529e-001	 1.4011557493e+000	-1.6174838345e+000
 4.4711895341e-001	 1.4055993887e+000	-1.5806442220e+000
 4.3337260812e-001	 1.4098982880e+000	-1.5399429573e+000
 4.1961836891e-001	 1.4140528365e+000	-1.4955335587e+000
 4.0585836689e-001	 1.4180634633e+000	-1.4475663497e+000
 5.5214206433e-001	 1.3946824516e+000	-1.6898601866e+000
 5.3828106007e-001	 1.4000905329e+000	-1.6741259261e+000
 5.2439638615e-001	 1.4053499316e+000	-1.6534981390e+000
 5.1049032095e-001	 1.4104607872e+000	-1.6281548962e+000
 4.9656512994e-001	 1.4154232836e+000	-1.5982729559e+000
 4.8262306456e-001	 1.4202376483e+000	-1.5640273717e+000
 4.6866636131e-001	 1.4249041518e+000	-1.5255911152e+000
 4.5469724075e-001	 1.4294231071e+000	-1.4831347124e+000
 4.4071790656e-001	 1.4337948692e+000	-1.4368258974e+000
 4.2673054465e-001	 1.4380198337e+000	-1.3868292803e+000
 4.1273732227e-001	 1.4420984373e+000	-1.3333060331e+000
 3.4394776857e-001	 1.2017486977e+000	-2.8718610950e+000
 3.3228365593e-001	 1.2050259632e+000	-2.9201525112e+000
 3.2061822211e-001	 1.2081820871e+000	-2.9633375733e+000
 3.0895322226e-001	 1.2112175306e+000	-3.0014230232e+000
 2.9729039324e-001	 1.2141327860e+000	-3.0344188586e+000
 2.8563145302e-001	 1.2169283763e+000	-3.0623382826e+000
 2.7397810005e-001	 1.2196048543e+000	-3.0851976503e+000
 2.6233201271e-001	 1.2221628022e+000	-3.1030164123e+000
 2.5069484874e-001	 1.2246028306e+000	-3.1158170542e+000
 2.3906824470e-001	 1.2269255782e+000	-3.1236250337e+000
 2.2745381553e-001	 1.2291317105e+000	-3.1264687142e+000
 3.5082672394e-001	 1.2257836717e+000	-2.8593954394e+000
 3.3892932905e-001	 1.2291264825e+000	-2.9097364018e+000
 3.2703058655e-001	 1.2323457289e+000	-2.9546898560e+000
 3.1513228670e-001	 1.2354418812e+000	-2.9942641234e+000
 3.0323620110e-001	 1.2384154417e+000	-3.0284710868e+000
 2.9134408208e-001	 1.2412669438e+000	-3.0573261322e+000
 2.7945766205e-001	 1.2439969514e+000	-3.0808480884e+000
 2.6757865297e-001	 1.2466060582e+000	-3.0990591619e+000
 2.5570874571e-001	 1.2490948872e+000	-3.1119848685e+000
 2.4384960960e-001	 1.2514640897e+000	-3.1001479973e+000
 2.3200289184e-001	 1.2537143447e+000	-3.0726672325e+000
 3.5770567931e-001	 1.2498186456e+000	-2.8722265706e+000
 3.4557500216e-001	 1.2532270017e+000	-2.8824024800e+000
 3.3344295099e-001	 1.2565093706e+000	-2.8858233995e+000
 3.2131135114e-001	 1.2596662318e+000	-2.8849604049e+000
 3.0918200896e-001	 1.2626980974e+000	-2.8799155840e+000
 2.9705671113e-001	 1.2656055113e+000	-2.8707887043e+000
 2.8493722405e-001	 1.2683890485e+000	-2.8576770603e+000
 2.7282529322e-001	 1.2710493143e+000	-2.8406753333e+000
 2.6072264268e-001	 1.2735869439e+000	-2.8198754616e+000
 2.4863097449e-001	 1.2760026013e+000	-2.7953665218e+000
 2.3655196814e-001	 1.2782969789e+000	-2.7672346221e+000
 3.6458463467e-001	 1.2738536196e+000	-2.5988346072e+000
 3.5222067528e-001	 1.2773275210e+000	-2.6064506490e+000
 3.3985531543e-001	 1.2806730123e+000	-2.6095727635e+000
 3.2749041558e-001	 1.2838905824e+000	-2.6083159292e+000
 3.1512781682e-001	 1.2869807532e+000	-2.6027928078e+000
 3.0276934019e-001	 1.2899440789e+000	-2.5931135663e+000
 2.9041678605e-001	 1.2927811456e+000	-2.5793857106e+000
 2.7807193347e-001	 1.2954925703e+000	-2.5617139310e+000
 2.6573653966e-001	 1.2980790005e+000	-2.5401999603e+000
 2.5341233938e-001	 1.3005411129e+000	-2.5149424434e+000
 2.4110104445e-001	 1.3028796131e+000	-2.4860368186e+000
 3.7146359004e-001	 1.2978885935e+000	-2.3483642638e+000
 3.5886634840e-001	 1.3014280403e+000	-2.3554839504e+000
 3.4626767987e-001	 1.3048366541e+000	-2.3580198378e+000
 3.3366948003e-001	 1.3081149330e+000	-2.3560980548e+000
 3.2107362469e-001	 1.3112634089e+000	-2.3498422328e+000
 3.0848196925e-001	 1.3142826464e+000	-2.3393733118e+000
 2.9589634805e-001	 1.3171732427e+000	-2.3248093598e+000
 2.8331857372e-001	 1.3199358264e+000	-2.3062654047e+000
 2.7075043663e-001	 1.3225710571e+000	-2.2838532791e+000
 2.5819370428e-001	 1.3250796244e+000	-2.2576814782e+000
 2.4565012076e-001	 1.3274622474e+000	-2.2278550299e+000
 3.7834254541e-001	 1.3219235675e+000	-2.1222997853e+000
 3.6551202151e-001	 1.3255285595e+000	-2.1285981575e+000
 3.5268004431e-001	 1.3290002958e+000	-2.1302384237e+000
 3.3984854447e-001	 1.3323392837e+000	-2.1273583008e+000
 3.2701943255e-001	 1.3355460646e+000	-2.1200928051e+000
 3.1419459831e-001	 1.3386212139e+000	-2.1085740426e+000
 3.0137591005e-001	 1.3415653397e+000	-2.0929310134e+000
 2.8856521398e-001	 1.3443790824e+000	-2.0732894302e+000
 2.7576433361e-001	 1.3470631137e+000	-2.0497715496e+000
 2.6297506917e-001	 1.3496181360e+000	-2.0224960177e+000
 2.5019919707e-001	 1.3520448816e+000	-1.9915777294e+000
 3.8522150078e-001	 1.3459585415e+000	-1.9198524307e+000
 3.7215769463e-001	 1.3496290788e+000	-1.9249831136e+000
 3.5909240875e-001	 1.3531639376e+000	-1.9253966551e+000
 3.4602760891e-001	 1.3565636343e+000	-1.9212428172e+000
 3.3296524041e-001	 1.3598287203e+000	-1.9126684355e+000
 3.1990722737e-001	 1.3629597814e+000	-1.8998171939e+000
 3.0685547205e-001	 1.3659574368e+000	-1.8828294138e+000
 2.9381185423e-001	 1.3688223385e+000	-1.8618418582e+000
 2.8077823058e-001	 1.3715551703e+000	-1.8369875498e+000
 2.6775643406e-001	 1.3741566475e+000	-1.8083956044e+000
 2.5474827338e-001	 1.3766275158e+000	-1.7761910788e+000
 3.9210045615e-001	 1.3699935154e+000	-1.7403190709e+000
 3.7880336775e-001	 1.3737295980e+000	-1.7439144805e+000
 3.6550477319e-001	 1.3773275793e+000	-1.7427487238e+000
 3.5220667336e-001	 1.3807879849e+000	-1.7369840839e+000
 3.3891104828e-001	 1.3841113760e+000	-1.7267796692e+000
 3.2561985643e-001	 1.3872983490e+000	-1.7122911722e+000
 3.1233503405e-001	 1.3903495339e+000	-1.6936706427e+000
 2.9905849449e-001	 1.3932655945e+000	-1.6710662777e+000
 2.8579212755e-001	 1.3960472269e+000	-1.6446222261e+000
 2.7253779896e-001	 1.3986951591e+000	-1.6144784096e+000
 2.5929734969e-001	 1.4012101500e+000	-1.5807703589e+000
 3.9897941152e-001	 1.3940284894e+000	-1.5830748090e+000
 3.8544904087e-001	 1.3978301173e+000	-1.5847463403e+000
 3.7191713763e-001	 1.4014912211e+000	-1.5816274604e+000
 3.5838573780e-001	 1.4050123355e+000	-1.5738934683e+000
 3.4485685614e-001	 1.4083940318e+000	-1.5617162174e+000
 3.3133248549e-001	 1.4116369165e+000	-1.5452638573e+000
 3.1781459605e-001	 1.4147416310e+000	-1.5247005915e+000
 3.0430513474e-001	 1.4177088505e+000	-1.5001864524e+000
 2.9080602453e-001	 1.4205392835e+000	-1.4718770927e+000
 2.7731916385e-001	 1.4232336707e+000	-1.4399235931e+000
 2.6384642600e-001	 1.4257927842e+000	-1.4044722870e+000
 4.0585836689e-001	 1.4180634633e+000	-1.4475663497e+000
 3.9209471399e-001	 1.4219306366e+000	-1.4469045495e+000
 3.7832950208e-001	 1.4256548628e+000	-1.4414376704e+000
 3.6456480225e-001	 1.4292366861e+000	-1.4313545405e+000
 3.5080266401e-001	 1.4326766875e+000	-1.4168402484e+000
 3.3704511455e-001	 1.4359754840e+000	-1.3980758675e+000
 3.2329415806e-001	 1.4391337281e+000	-1.3752381980e+000
 3.0955177499e-001	 1.4421521066e+000	-1.3484995266e+000
 2.9581992150e-001	 1.4450313401e+000	-1.3180274039e+000
 2.8210052874e-001	 1.4477721822e+000	-1.2839844398e+000
 2.6839550231e-001	 1.4503754184e+000	-1.2465281156e+000
 4.1273732227e-001	 1.4420984373e+000	-1.3333060331e+000
 3.9874038711e-001	 1.4460311558e+000	-1.3298807579e+000
 3.8474186652e-001	 1.4498185045e+000	-1.3216501358e+000
 3.7074386670e-001	 1.4534610367e+000	-1.3088170557e+000
 3.5674847188e-001	 1.4569593432e+000	-1.2915803492e+000
 3.4275774362e-001	 1.4603140515e+000	-1.2701344980e+000
 3.2877372006e-001	 1.4635258252e+000	-1.2446693592e+000
 3.1479841525e-001	 1.4665953626e+000	-1.2153699095e+000
 3.0083381848e-001	 1.4695233968e+000	-1.1824160089e+000
 2.8688189364e-001	 1.4723106938e+000	-1.1459821823e+000
 2.7294457862e-001	 1.4749580526e+000	-1.1062374207e+000
 2.2745381553e-001	 1.2291317105e+000	-3.1264687142e+000
 2.1585315397e-001	 1.2312219198e+000	-3.1658816400e+000
 2.0426783022e-001	 1.2331969241e+000	-3.2002648008e+000
 1.9269939142e-001	 1.2350574661e+000	-3.2296395713e+000
 1.8114936129e-001	 1.2368043131e+000	-3.2540301853e+000
 1.6961923973e-001	 1.2384382558e+000	-3.2734636654e+000
 1.5811050249e-001	 1.2399601078e+000	-3.2879697519e+000
 1.4662460078e-001	 1.2413707047e+000	-3.2975808283e+000
 1.3516296104e-001	 1.2426709033e+000	-3.3023318460e+000
 1.2372698459e-001	 1.2438615812e+000	-3.3022602464e+000
 1.1231804739e-001	 1.2449436358e+000	-3.2974058822e+000
 2.3200289184e-001	 1.2537143447e+000	-3.0726672325e+000
 2.2017021705e-001	 1.2558463582e+000	-3.0825391878e+000
 2.0835318683e-001	 1.2578608626e+000	-3.0887456502e+000
 1.9655337925e-001	 1.2597586154e+000	-3.0913457208e+000
 1.8477234852e-001	 1.2615403994e+000	-3.0903956829e+000
 1.7301162453e-001	 1.2632070210e+000	-3.0859489588e+000
 1.6127271254e-001	 1.2647593100e+000	-3.0780560759e+000
 1.4955709280e-001	 1.2661981188e+000	-3.0667646416e+000
 1.3786622027e-001	 1.2675243214e+000	-3.0521193278e+000
 1.2620152428e-001	 1.2687388129e+000	-3.0341618626e+000
 1.1456440834e-001	 1.2698425085e+000	-3.0129310311e+000
 2.3655196814e-001	 1.2782969789e+000	-2.7672346221e+000
 2.2448728013e-001	 1.2804707966e+000	-2.7761546763e+000
 2.1243854343e-001	 1.2825248010e+000	-2.7812843574e+000
 2.0040736708e-001	 1.2844597647e+000	-2.7826970732e+000
 1.8839533574e-001	 1.2862764856e+000	-2.7804631399e+000
 1.7640400932e-001	 1.2879757861e+000	-2.7746497263e+000
 1.6443492259e-001	 1.2895585122e+000	-2.7653208085e+000
 1.5248958481e-001	 1.2910255329e+000	-2.7525371344e+000
 1.4056947949e-001	 1.2923777395e+000	-2.7363561974e+000
 1.2867606398e-001	 1.2936160445e+000	-2.7168322205e+000
 1.1681076929e-001	 1.2947413812e+000	-2.6940161481e+000
 2.4110104445e-001	 1.3028796131e+000	-2.4860368186e+000
 2.2880434321e-001	 1.3050952350e+000	-2.4942591126e+000
 2.1652390003e-001	 1.3071887395e+000	-2.4985881313e+000
 2.0426135491e-001	 1.3091609141e+000	-2.4991115894e+000
 1.9201832297e-001	 1.3110125719e+000	-2.4959138141e+000
 1.7979639412e-001	 1.3127445512e+000	-2.4890756777e+000
 1.6759713264e-001	 1.3143577143e+000	-2.4786745405e+000
 1.5542207683e-001	 1.3158529470e+000	-2.4647842051e+000
 1.4327273871e-001	 1.3172311575e+000	-2.4474748807e+000
 1.3115060367e-001	 1.3184932761e+000	-2.4268131587e+000
 1.1905713023e-001	 1.3196402539e+000	-2.4028619966e+000
 2.4565012076e-001	 1.3274622474e+000	-2.2278550299e+000
 2.3312140629e-001	 1.3297196734e+000	-2.2355891290e+000
 2.2060925664e-001	 1.3318526780e+000	-2.2393486987e+000
 2.0811534273e-001	 1.3338620634e+000	-2.2392357880e+000
 1.9564131019e-001	 1.3357486582e+000	-2.2353487405e+000
 1.8318877891e-001	 1.3375133163e+000	-2.2277821149e+000
 1.7075934268e-001	 1.3391569165e+000	-2.2166266175e+000
 1.5835456884e-001	 1.3406803611e+000	-2.2019690457e+000
 1.4597599793e-001	 1.3420845756e+000	-2.1838922438e+000
 1.3362514336e-001	 1.3433705078e+000	-2.1624750696e+000
 1.2130349118e-001	 1.3445391266e+000	-2.1377923722e+000
 2.5019919707e-001	 1.3520448816e+000	-1.9915777294e+000
 2.3743846937e-001	 1.3543441118e+000	-1.9989906940e+000
 2.2469461324e-001	 1.3565166165e+000	-2.0023692394e+000
 2.1196933056e-001	 1.3585632127e+000	-2.0018298020e+000
 1.9926429742e-001	 1.3604847444e+000	-1.9974847727e+000
 1.8658116370e-001	 1.3622820814e+000	-1.9894424053e+000
 1.7392155273e-001	 1.3639561186e+000	-1.9778067381e+000
 1.6128706086e-001	 1.3655077752e+000	-1.9626775280e+000
 1.4867925715e-001	 1.3669379937e+000	-1.9441501972e+000
 1.3609968305e-001	 1.3682477394e+000	-1.9223157922e+000
 1.2354985212e-001	 1.3694379994e+000	-1.8972609540e+000
 2.5474827338e-001	 1.3766275158e+000	-1.7761910788e+000
 2.4175553244e-001	 1.3789685502e+000	-1.7834093503e+000
 2.2877996984e-001	 1.3811805550e+000	-1.7865544348e+000
 2.1582331839e-001	 1.3832643620e+000	-1.7857572343e+000
 2.0288728464e-001	 1.3852208307e+000	-1.7811442422e+000
 1.8997354850e-001	 1.3870508465e+000	-1.7728374398e+000
 1.7708376278e-001	 1.3887553208e+000	-1.7609542074e+000
 1.6421955287e-001	 1.3903351893e+000	-1.7456072493e+000
 1.5138251636e-001	 1.3917914117e+000	-1.7269045312e+000
 1.3857422274e-001	 1.3931249710e+000	-1.7049492322e+000
 1.2579621307e-001	 1.3943368721e+000	-1.6798397083e+000
 2.5929734969e-001	 1.4012101500e+000	-1.5807703589e+000
 2.4607259552e-001	 1.4035929886e+000	-1.5878814801e+000
 2.3286532645e-001	 1.4058444934e+000	-1.5909015644e+000
 2.1967730621e-001	 1.4079655113e+000	-1.5899760814e+000
 2.0651027186e-001	 1.4099569169e+000	-1.5852457056e+000
 1.9336593329e-001	 1.4118196117e+000	-1.5768462012e+000
 1.8024597283e-001	 1.4135545229e+000	-1.5649083232e+000
 1.6715204489e-001	 1.4151626033e+000	-1.5495577327e+000
 1.5408577558e-001	 1.4166448298e+000	-1.5309149266e+000
 1.4104876243e-001	 1.4180022026e+000	-1.5090951815e+000
 1.2804257402e-001	 1.4192357448e+000	-1.4842085121e+000
 2.6384642600e-001	 1.4257927842e+000	-1.4044722870e+000
 2.5038965860e-001	 1.4282174270e+000	-1.4115264741e+000
 2.3695068305e-001	 1.4305084319e+000	-1.4144925231e+000
 2.2353129404e-001	 1.4326666607e+000	-1.4135305961e+000
 2.1013325909e-001	 1.4346930032e+000	-1.4087956495e+000
 1.9675831808e-001	 1.4365883768e+000	-1.4004373079e+000
 1.8340818287e-001	 1.4383537251e+000	-1.3885997552e+000
 1.7008453690e-001	 1.4399900174e+000	-1.3734216400e+000
 1.5678903480e-001	 1.4414982479e+000	-1.3550359982e+000
 1.4352330212e-001	 1.4428794342e+000	-1.3335701898e+000
 1.3028893496e-001	 1.4441346175e+000	-1.3091458506e+000
 2.6839550231e-001	 1.4503754184e+000	-1.2465281156e+000
 2.5470672168e-001	 1.4528418654e+000	-1.2535396971e+000
 2.4103603965e-001	 1.4551723704e+000	-1.2564866508e+000
 2.2738528187e-001	 1.4573678100e+000	-1.2555439777e+000
 2.1375624631e-001	 1.4594290895e+000	-1.2508810388e+000
 2.0015070287e-001	 1.4613571419e+000	-1.2426614179e+000
 1.8657039292e-001	 1.4631529272e+000	-1.2310428019e+000
 1.7301702891e-001	 1.4648174315e+000	-1.2161768785e+000
 1.5949229402e-001	 1.4663516659e+000	-1.1982092501e+000
 1.4599784180e-001	 1.4677566659e+000	-1.1772793644e+000
 1.3253529590e-001	 1.4690334902e+000	-1.1535204607e+000
 2.7294457862e-001	 1.4749580526e+000	-1.1062374207e+000
 2.5902378476e-001	 1.4774663038e+000	-1.1131861565e+000
 2.4512139625e-001	 1.4798363089e+000	-1.1161142778e+000
 2.3123926969e-001	 1.4820689593e+000	-1.1152117929e+000
 2.1737923353e-001	 1.4841651757e+000	-1.1106626104e+000
 2.0354308766e-001	 1.4861259070e+000	-1.1026443918e+000
 1.8973260296e-001	 1.4879521294e+000	-1.0913284219e+000
 1.7594952092e-001	 1.4896448456e+000	-1.0768794975e+000
 1.6219555323e-001	 1.4912050840e+000	-1.0594558344e+000
 1.4847238149e-001	 1.4926338975e+000	-1.0392089910e+000
 1.3478165685e-001	 1.4939323629e+000	-1.0162838098e+000
 1.1231804739e-001	 1.2449436358e+000	-3.2974058822e+000
 1.0093749980e-001	 1.2459179833e+000	-3.3232968699e+000
 8.9586666357e-002	 1.2467855586e+000	-3.3438017878e+000
 7.8266845602e-002	 1.2475473141e+000	-3.3589385012e+000
 6.6979309880e-002	 1.2482042189e+000	-3.3687280057e+000
 5.5725305204e-002	 1.2487572584e+000	-3.3731943450e+000
 4.4506051122e-002	 1.2492074333e+000	-3.3723645267e+000
 3.3322740611e-002	 1.2495557590e+000	-3.3662684358e+000
 2.2176539990e-002	 1.2498032649e+000	-3.3549387479e+000
 1.1068588847e-002	 1.2499509936e+000	-3.3384108405e+000
 0.0000000000e+000	 1.2500000000e+000	-3.3167227032e+000
 1.1456440834e-001	 1.2698425085e+000	-3.0129310311e+000
 1.0295624979e-001	 1.2708363430e+000	-3.0218649962e+000
 9.1378399684e-002	 1.2717212698e+000	-3.0270261174e+000
 7.9832182514e-002	 1.2724982604e+000	-3.0284236820e+000
 6.8318896077e-002	 1.2731683033e+000	-3.0260649039e+000
 5.6839811307e-002	 1.2737324036e+000	-3.0199549610e+000
 4.5396172143e-002	 1.2741915820e+000	-3.0100970385e+000
 3.3989195423e-002	 1.2745468742e+000	-2.9964923765e+000
 2.2620070789e-002	 1.2747993302e+000	-2.9791403238e+000
 1.1289960624e-002	 1.2749500134e+000	-2.9580383948e+000
 0.0000000000e+000	 1.2750000000e+000	-2.9331823318e+000
 1.1681076929e-001	 1.2947413812e+000	-2.6940161481e+000
 1.0497499979e-001	 1.2957547027e+000	-2.7000153862e+000
 9.3170133010e-002	 1.2966569810e+000	-2.7023612131e+000
 8.1397519425e-002	 1.2974492067e+000	-2.7010817953e+000
 6.9658482273e-002	 1.2981323876e+000	-2.6962026172e+000
 5.7954317410e-002	 1.2987075487e+000	-2.6877465124e+000
 4.6286293165e-002	 1.2991757306e+000	-2.6757337024e+000
 3.4655650234e-002	 1.2995379894e+000	-2.6601818421e+000
 2.3063601588e-002	 1.2997953955e+000	-2.6411060700e+000
 1.1511332401e-002	 1.2999490333e+000	-2.6185190647e+000
 0.0000000000e+000	 1.3000000000e+000	-2.5924311066e+000
 1.1905713023e-001	 1.3196402539e+000	-2.4028619966e+000
 1.0699374978e-001	 1.3206730623e+000	-2.4070969794e+000
 9.4961866336e-002	 1.3215926922e+000	-2.4078126188e+000
 8.2962856336e-002	 1.3224001529e+000	-2.4050555532e+000
 7.0998068470e-002	 1.3230964720e+000	-2.3988691180e+000
 5.9068823513e-002	 1.3236826939e+000	-2.3892933722e+000
 4.7176414186e-002	 1.3241598793e+000	-2.3763651340e+000
 3.5322105045e-002	 1.3245291046e+000	-2.3601180227e+000
 2.3507132387e-002	 1.3247914608e+000	-2.3405825074e+000
 1.1732704177e-002	 1.3249480532e+000	-2.3177859631e+000
 0.0000000000e+000	 1.3250000000e+000	-2.2917527324e+000
 1.2130349118e-001	 1.3445391266e+000	-2.1377923722e+000
 1.0901249978e-001	 1.3455914220e+000	-2.1413480357e+000
 9.6753599662e-002	 1.3465284033e+000	-2.1415333385e+000
 8.4528193246e-002	 1.3473510992e+000	-2.1384130167e+000
 7.2337654666e-002	 1.3480605564e+000	-2.1320478707e+000
 6.0183329615e-002	 1.3486578391e+000	-2.1224947878e+000
 4.8066535207e-002	 1.3491440280e+000	-2.1098067736e+000
 3.5988559857e-002	 1.3495202198e+000	-2.0940329923e+000
 2.3950663186e-002	 1.3497875261e+000	-2.0752188142e+000
 1.1954075954e-002	 1.3499470731e+000	-2.0534058716e+000
 0.0000000000e+000	 1.3500000000e+000	-2.0286321209e+000
 1.2354985212e-001	 1.3694379994e+000	-1.8972609540e+000
 1.1103124977e-001	 1.3705097816e+000	-1.9011419953e+000
 9.8545332987e-002	 1.3714641145e+000	-1.9018168592e+000
 8.6093530156e-002	 1.3723020455e+000	-1.8993680381e+000
 7.3677240862e-002	 1.3730246408e+000	-1.8938734428e+000
 6.1297835718e-002	 1.3736329842e+000	-1.8854064209e+000
 4.8956656228e-002	 1.3741281766e+000	-1.8740357864e+000
 3.6655014668e-002	 1.3745113349e+000	-1.8598258574e+000
 2.4394193985e-002	 1.3747835914e+000	-1.8428365033e+000
 1.2175447730e-002	 1.3749460929e+000	-1.8231232013e+000
 0.0000000000e+000	 1.3750000000e+000	-1.8007370993e+000
 1.2579621307e-001	 1.3943368721e+000	-1.6798397083e+000
 1.1304999977e-001	 1.3954281413e+000	-1.6849754084e+000
 1.0033706631e-001	 1.3963998257e+000	-1.6870846082e+000
 8.7658867067e-002	 1.3972529918e+000	-1.6862672446e+000
 7.5016827058e-002	 1.3979887252e+000	-1.6826180128e+000
 6.2412341821e-002	 1.3986081294e+000	-1.6762263823e+000
 4.9846777250e-002	 1.3991123253e+000	-1.6671766232e+000
 3.7321469479e-002	 1.3995024501e+000	-1.6555478433e+000
 2.4837724784e-002	 1.3997796567e+000	-1.6414140353e+000
 1.2396819507e-002	 1.3999451128e+000	-1.6248441332e+000
 0.0000000000e+000	 1.4000000000e+000	-1.6059020788e+000
 1.2804257402e-001	 1.4192357448e+000	-1.4842085121e+000
 1.1506874976e-001	 1.4203465010e+000	-1.4914571366e+000
 1.0212879964e-001	 1.4213355368e+000	-1.4958747302e+000
 8.9224203976e-002	 1.4222039381e+000	-1.4975783905e+000
 7.6356413254e-002	 1.4229528095e+000	-1.4966792996e+000
 6.3526847923e-002	 1.4235832746e+000	-1.4932827362e+000
 5.0736898271e-002	 1.4240964740e+000	-1.4874881005e+000
 3.7987924290e-002	 1.4244935653e+000	-1.4793889508e+000
 2.5281255584e-002	 1.4247757220e+000	-1.4690730508e+000
 1.2618191283e-002	 1.4249441327e+000	-1.4566224279e+000
 0.0000000000e+000	 1.4250000000e+000	-1.4421134414e+000
 1.3028893496e-001	 1.4441346175e+000	-1.3091458506e+000
 1.1708749975e-001	 1.4452648606e+000	-1.3192986705e+000
 1.0392053296e-001	 1.4462712480e+000	-1.3268320250e+000
 9.0789540886e-002	 1.4471548843e+000	-1.3318799160e+000
 7.7695999449e-002	 1.4479168939e+000	-1.3345697398e+000
 6.4641354025e-002	 1.4485584197e+000	-1.3350222972e+000
 5.1627019292e-002	 1.4490806226e+000	-1.3333518170e+000
 3.8654379101e-002	 1.4494846805e+000	-1.3296659920e+000
 2.5724786383e-002	 1.4497717873e+000	-1.3240660279e+000
 1.2839563060e-002	 1.4499431525e+000	-1.3166467030e+000
 0.0000000000e+000	 1.4500000000e+000	-1.3074964396e+000
 1.3253529590e-001	 1.4690334902e+000	-1.1535204607e+000
 1.1910624974e-001	 1.4701832203e+000	-1.1673054326e+000
 1.0571226629e-001	 1.4712069592e+000	-1.1786989097e+000
 9.2354877796e-002	 1.4721058306e+000	-1.1878515665e+000
 7.9035585644e-002	 1.4728809783e+000	-1.1949067658e+000
 6.5755860127e-002	 1.4735335649e+000	-1.2000005671e+000
 5.2517140313e-002	 1.4740647713e+000	-1.2032617486e+000
 3.9320833912e-002	 1.4744757957e+000	-1.2048118443e+000
 2.6168317182e-002	 1.4747678526e+000	-1.2047651937e+000
 1.3060934837e-002	 1.4749421724e+000	-1.2032290045e+000
 0.0000000000e+000	 1.4750000000e+000	-1.2003034273e+000
 1.3478165685e-001	 1.4939323629e+000	-1.0162838098e+000
 1.2112499974e-001	 1.4951015800e+000	-1.0343689495e+000
 1.0750399961e-001	 1.4961426704e+000	-1.0503072832e+000
 9.3920214705e-002	 1.4970567769e+000	-1.0642659506e+000
 8.0375171839e-002	 1.4978450627e+000	-1.0764040564e+000
 6.6870366229e-002	 1.4985087101e+000	-1.0868726773e+000
 5.3407261333e-002	 1.4990489200e+000	-1.0958148837e+000
 3.9987288723e-002	 1.4994669109e+000	-1.1033657780e+000
 2.6611847981e-002	 1.4997639179e+000	-1.1096525456e+000
 1.3282306613e-002	 1.4999411923e+000	-1.1147945214e+000
 0.0000000000e+000	 1.5000000000e+000	-1.1189032681e+000
 1.5000000000e+000	 0.0000000000e+000	 3.9452868471e+000
 1.4999411923e+000	 1.3282306613e-002	 3.9406722252e+000
 1.4997639179e+000	 2.6611847981e-002	 3.9317714945e+000
 1.4994669109e+000	 3.9987288723e-002	 3.9185668720e+000
 1.4990489200e+000	 5.3407261333e-002	 3.9010369853e+000
 1.4985087101e+000	 6.6870366229e-002	 3.8791567141e+000
 1.4978450627e+000	 8.0375171839e-002	 3.8528970353e+000
 1.4970567769e+000	 9.3920214705e-002	 3.8222248729e+000
 1.4961426704e+000	 1.0750399961e-001	 3.7871029530e+000
 1.4951015800e+000	 1.2112499974e-001	 3.7474896637e+000
 1.4939323629e+000	 1.3478165685e-001	 3.7033389220e+000
 1.5250000000e+000	 0.0000000000e+000	 3.8245606152e+000
 1.5249402122e+000	 1.3503678390e-002	 3.8245734598e+000
 1.5247599832e+000	 2.7055378780e-002	 3.8200479587e+000
 1.5244580260e+000	 4.0653743534e-002	 3.8109658484e+000
 1.5240330686e+000	 5.4297382354e-002	 3.7973052760e+000
 1.5234838552e+000	 6.7984872331e-002	 3.7790406374e+000
 1.5228091470e+000	 8.1714758035e-002	 3.7561424205e+000
 1.5220077232e+000	 9.5485551614e-002	 3.7285770520e+000
 1.5210783815e+000	 1.0929573293e-001	 3.6963067498e+000
 1.5200199396e+000	 1.2314374973e-001	 3.6592893812e+000
 1.5188312356e+000	 1.3702801779e-001	 3.6174783274e+000
 1.5500000000e+000	 0.0000000000e+000	 3.7107185487e+000
 1.5499392320e+000	 1.3725050166e-002	 3.7151039766e+000
 1.5497560485e+000	 2.7498909579e-002	 3.7147298630e+000
 1.5494491412e+000	 4.1320198346e-002	 3.7095779129e+000
 1.5490172173e+000	 5.5187503375e-002	 3.6996262216e+000
 1.5484590004e+000	 6.9099378434e-002	 3.6848491103e+000
 1.5477732314e+000	 8.3054344230e-002	 3.6652169642e+000
 1.5469586695e+000	 9.7050888523e-002	 3.6406960772e+000
 1.5460140927e+000	 1.1108746626e-001	 3.6112485002e+000
 1.5449382993e+000	 1.2516249972e-001	 3.5768318964e+000
 1.5437301083e+000	 1.3927437874e-001	 3.5373994027e+000
 1.5750000000e+000	 0.0000000000e+000	 3.6035078581e+000
 1.5749382519e+000	 1.3946421943e-002	 3.6120078330e+000
 1.5747521138e+000	 2.7942440378e-002	 3.6155576329e+000
 1.5744402564e+000	 4.1986653157e-002	 3.6141393763e+000
 1.5740013660e+000	 5.6077624396e-002	 3.6077315329e+000
 1.5734341456e+000	 7.0213884536e-002	 3.5963087537e+000
 1.5727373158e+000	 8.4393930425e-002	 3.5798417052e+000
 1.5719096157e+000	 9.8616225433e-002	 3.5582969094e+000
 1.5709498039e+000	 1.1287919958e-001	 3.5316365881e+000
 1.5698566590e+000	 1.2718124971e-001	 3.4998185138e+000
 1.5686289811e+000	 1.4152073968e-001	 3.4627958680e+000
 1.6000000000e+000	 0.0000000000e+000	 3.5026915528e+000
 1.5999372718e+000	 1.4167793719e-002	 3.5150449162e+000
 1.5997481791e+000	 2.8385971177e-002	 3.5222876051e+000
 1.5994313716e+000	 4.2653107968e-002	 3.5244025943e+000
 1.5989855146e+000	 5.6967745417e-002	 3.5213691505e+000
 1.5984092907e+000	 7.1328390638e-002	 3.5131626566e+000
 1.5977014002e+000	 8.5733516621e-002	 3.4997544415e+000
 1.5968605620e+000	 1.0018156234e-001	 3.4811116132e+000
 1.5958855150e+000	 1.1467093291e-001	 3.4571968996e+000
 1.5947750186e+000	 1.2919999971e-001	 3.4279684935e+000
 1.5935278538e+000	 1.4376710062e-001	 3.3933799063e+000
 1.6250000000e+000	 0.0000000000e+000	 3.4080472265e+000
 1.6249362916e+000	 1.4389165496e-002	 3.4239897255e+000
 1.6247442444e+000	 2.8829501976e-002	 3.4346908040e+000
 1.6244224868e+000	 4.3319562779e-002	 3.4401347329e+000
 1.6239696633e+000	 5.7857866438e-002	 3.4403019963e+000
 1.6233844359e+000	 7.2442896741e-002	 3.4351691093e+000
 1.6226654846e+000	 8.7073102817e-002	 3.4247084406e+000
 1.6218115083e+000	 1.0174689925e-001	 3.4088880410e+000
 1.6208212262e+000	 1.1646266623e-001	 3.3876714766e+000
 1.6196933783e+000	 1.3121874970e-001	 3.3610176689e+000
 1.6184267265e+000	 1.4601346157e-001	 3.3288807429e+000
 1.6500000000e+000	 0.0000000000e+000	 3.3193659519e+000
 1.6499353115e+000	 1.4610537273e-002	 3.3386302657e+000
 1.6497403097e+000	 2.9273032775e-002	 3.3525518288e+000
 1.6494136019e+000	 4.3986017590e-002	 3.3611166468e+000
 1.6489538120e+000	 5.8747987459e-002	 3.3643068394e+000
 1.6483595811e+000	 7.3557402843e-002	 3.3621004514e+000
 1.6476295689e+000	 8.8412689013e-002	 3.3544712685e+000
 1.6467624546e+000	 1.0331223616e-001	 3.3413886373e+000
 1.6457569374e+000	 1.1825439956e-001	 3.3228172930e+000
 1.6446117380e+000	 1.3323749970e-001	 3.2987171922e+000
 1.6433255992e+000	 1.4825982252e-001	 3.2690433545e+000
 1.6750000000e+000	 0.0000000000e+000	 3.2364512753e+000
 1.6749343314e+000	 1.4831909049e-002	 3.2587670385e+000
 1.6747363750e+000	 2.9716563574e-002	 3.2756678403e+000
 1.6744047171e+000	 4.4652472402e-002	 3.2871418572e+000
 1.6739379606e+000	 5.9638108481e-002	 3.2931732615e+000
 1.6733347262e+000	 7.4671908946e-002	 3.2937420240e+000
 1.6725936533e+000	 8.9752275209e-002	 3.2888237216e+000
 1.6717134009e+000	 1.0487757307e-001	 3.2783893493e+000
 1.6706926486e+000	 1.2004613288e-001	 3.2624051401e+000
 1.6695300976e+000	 1.3525624969e-001	 3.2408323903e+000
 1.6682244719e+000	 1.5050618346e-001	 3.2136272935e+000
 1.7000000000e+000	 0.0000000000e+000	 3.1591182986e+000
 1.6999333513e+000	 1.5053280826e-002	 3.1842121244e+000
 1.6997324403e+000	 3.0160094373e-002	 3.2038476377e+000
 1.6993958323e+000	 4.5318927213e-002	 3.2180156213e+000
 1.6989221093e+000	 6.0528229502e-002	 3.2267027159e+000
 1.6983098714e+000	 7.5786415049e-002	 3.2298912132e+000
 1.6975577377e+000	 9.1091861406e-002	 3.2275588546e+000
 1.6966643472e+000	 1.0644290998e-001	 3.2196786345e+000
 1.6956283597e+000	 1.2183786621e-001	 3.2062186110e+000
 1.6944484573e+000	 1.3727499969e-001	 3.1871417233e+000
 1.6931233446e+000	 1.5275254441e-001	 3.1624056168e+000
 1.7250000000e+000	 0.0000000000e+000	 3.0871928428e+000
 1.7249323711e+000	 1.5274652602e-002	 3.1147883431e+000
 1.7247285056e+000	 3.0603625172e-002	 3.1369108146e+000
 1.7243869475e+000	 4.5985382024e-002	 3.1535540812e+000
 1.7239062580e+000	 6.1418350523e-002	 3.1647076665e+000
 1.7232850166e+000	 7.6900921152e-002	 3.1703565773e+000
 1.7225218221e+000	 9.2431447602e-002	 3.1704810919e+000
 1.7216152934e+000	 1.0800824690e-001	 3.1650565539e+000
 1.7205640709e+000	 1.2362959954e-001	 3.1540531727e+000
 1.7193668170e+000	 1.3929374968e-001	 3.1374358321e+000
 1.7180222173e+000	 1.5499890536e-001	 3.1151639063e+000
 1.7500000000e+000	 0.0000000000e+000	 3.0205106819e+000
 1.7499313910e+000	 1.5496024379e-002	 3.0503284866e+000
 1.7497245709e+000	 3.1047155971e-002	 3.0746869886e+000
 1.7493780627e+000	 4.6651836836e-002	 3.0935834867e+000
 1.7488904066e+000	 6.2308471545e-002	 3.1070108017e+000
 1.7482601617e+000	 7.8015427255e-002	 3.1149570492e+000
 1.7474859064e+000	 9.3771033799e-002	 3.1174054158e+000
 1.7465662397e+000	 1.0957358381e-001	 3.1143339431e+000
 1.7454997821e+000	 1.2542133286e-001	 3.1057153177e+000
 1.7442851766e+000	 1.4131249968e-001	 3.0915166689e+000
 1.7429210901e+000	 1.5724526631e-001	 3.0716993752e+000
 1.4939323629e+000	 1.3478165685e-001	 3.7033389220e+000
 1.4926338975e+000	 1.4847238149e-001	 3.6795126608e+000
 1.4912050840e+000	 1.6219555323e-001	 3.6505413648e+000
 1.4896448456e+000	 1.7594952092e-001	 3.6163693831e+000
 1.4879521294e+000	 1.8973260296e-001	 3.5769368290e+000
 1.4861259070e+000	 2.0354308766e-001	 3.5321794969e+000
 1.4841651757e+000	 2.1737923353e-001	 3.4820287880e+000
 1.4820689593e+000	 2.3123926969e-001	 3.4264116459e+000
 1.4798363089e+000	 2.4512139625e-001	 3.3652505026e+000
 1.4774663038e+000	 2.5902378476e-001	 3.2984632352e+000
 1.4749580526e+000	 2.7294457862e-001	 3.2259631339e+000
 1.5188312356e+000	 1.3702801779e-001	 3.6174783274e+000
 1.5175111291e+000	 1.5094692118e-001	 3.5964520952e+000
 1.5160585020e+000	 1.6489881245e-001	 3.5700133355e+000
 1.5144722597e+000	 1.7888201293e-001	 3.5381031939e+000
 1.5127513315e+000	 1.9289481301e-001	 3.5006585267e+000
 1.5108946721e+000	 2.0693547245e-001	 3.4576118189e+000
 1.5089012620e+000	 2.2100222075e-001	 3.4088911109e+000
 1.5067701086e+000	 2.3509325751e-001	 3.3544199365e+000
 1.5045002474e+000	 2.4920675285e-001	 3.2941172705e+000
 1.5020907422e+000	 2.6334084783e-001	 3.2278974882e+000
 1.4995406868e+000	 2.7749365493e-001	 3.1556703361e+000
 1.5437301083e+000	 1.3927437874e-001	 3.5373994027e+000
 1.5423883607e+000	 1.5342146087e-001	 3.5190817034e+000
 1.5409119201e+000	 1.6760207167e-001	 3.4951183547e+000
 1.5392996738e+000	 1.8181450494e-001	 3.4654475742e+000
 1.5375505337e+000	 1.9605702305e-001	 3.4300032090e+000
 1.5356634372e+000	 2.1032785724e-001	 3.3887146542e+000
 1.5336373482e+000	 2.2462520797e-001	 3.3415067804e+000
 1.5314712579e+000	 2.3894724534e-001	 3.2882998723e+000
 1.5291641858e+000	 2.5329210946e-001	 3.2290095778e+000
 1.5267151806e+000	 2.6765791091e-001	 3.1635468694e+000
 1.5241233210e+000	 2.8204273124e-001	 3.0918180177e+000
 1.5686289811e+000	 1.4152073968e-001	 3.4627958680e+000
 1.5672655924e+000	 1.5589600055e-001	 3.4470949536e+000
 1.5657653382e+000	 1.7030533088e-001	 3.4255491351e+000
 1.5641270879e+000	 1.8474699695e-001	 3.3980939711e+000
 1.5623497358e+000	 1.9921923310e-001	 3.3646605415e+000
 1.5604322023e+000	 2.1372024203e-001	 3.3251753652e+000
 1.5583734345e+000	 2.2824819520e-001	 3.2795603276e+000
 1.5561724073e+000	 2.4280123317e-001	 3.2277326190e+000
 1.5538281243e+000	 2.5737746606e-001	 3.1696046848e+000
 1.5513396190e+000	 2.7197497399e-001	 3.1050841880e+000
 1.5487059552e+000	 2.8659180755e-001	 3.0340739843e+000
 1.5935278538e+000	 1.4376710062e-001	 3.3933799063e+000
 1.5921428240e+000	 1.5837054024e-001	 3.3802038494e+000
 1.5906187562e+000	 1.7300859010e-001	 3.3610170521e+000
 1.5889545020e+000	 1.8767948897e-001	 3.3357526775e+000
 1.5871489380e+000	 2.0238144315e-001	 3.3043392747e+000
 1.5852009674e+000	 2.1711262682e-001	 3.2667006943e+000
 1.5831095208e+000	 2.3187118242e-001	 3.2227560153e+000
 1.5808735566e+000	 2.4665522099e-001	 3.1724194829e+000
 1.5784920628e+000	 2.6146282266e-001	 3.1156004590e+000
 1.5759640574e+000	 2.7629203707e-001	 3.0522033842e+000
 1.5732885894e+000	 2.9114088386e-001	 2.9821277550e+000
 1.6184267265e+000	 1.4601346157e-001	 3.3288807429e+000
 1.6170200556e+000	 1.6084507993e-001	 3.3181375041e+000
 1.6154721743e+000	 1.7571184932e-001	 3.3012507084e+000
 1.6137819161e+000	 1.9061198098e-001	 3.2781513824e+000
 1.6119481402e+000	 2.0554365319e-001	 3.2487657753e+000
 1.6099697326e+000	 2.2050501162e-001	 3.2130152722e+000
 1.6078456070e+000	 2.3549416964e-001	 3.1708163196e+000
 1.6055747059e+000	 2.5050920882e-001	 3.1220803616e+000
 1.6031560013e+000	 2.6554817926e-001	 3.0667137893e+000
 1.6005884958e+000	 2.8060910014e-001	 3.0046179038e+000
 1.5978712237e+000	 2.9568996017e-001	 2.9356888922e+000
 1.6433255992e+000	 1.4825982252e-001	 3.2690433545e+000
 1.6418972872e+000	 1.6331961962e-001	 3.2606408438e+000
 1.6403255924e+000	 1.7841510854e-001	 3.2459946288e+000
 1.6386093302e+000	 1.9354447299e-001	 3.2250338530e+000
 1.6367473423e+000	 2.0870586324e-001	 3.1976826920e+000
 1.6347384977e+000	 2.2389739641e-001	 3.1638602638e+000
 1.6325816933e+000	 2.3911715687e-001	 3.1234805509e+000
 1.6302758552e+000	 2.5436319665e-001	 3.0764523351e+000
 1.6278199398e+000	 2.6963353587e-001	 3.0226791457e+000
 1.6252129342e+000	 2.8492616322e-001	 2.9620592206e+000
 1.6224538579e+000	 3.0023903648e-001	 2.8944854830e+000
 1.6682244719e+000	 1.5050618346e-001	 3.2136272935e+000
 1.6667745188e+000	 1.6579415931e-001	 3.2074734283e+000
 1.6651790104e+000	 1.8111836776e-001	 3.1950080717e+000
 1.6634367443e+000	 1.9647696501e-001	 3.1761587345e+000
 1.6615465445e+000	 2.1186807329e-001	 3.1508477404e+000
 1.6595072628e+000	 2.2728978120e-001	 3.1189921335e+000
 1.6573177795e+000	 2.4274014409e-001	 3.0805035968e+000
 1.6549770045e+000	 2.5821718447e-001	 3.0352883842e+000
 1.6524838782e+000	 2.7371889247e-001	 2.9832472665e+000
 1.6498373726e+000	 2.8924322630e-001	 2.9242754910e+000
 1.6470364921e+000	 3.0478811279e-001	 2.8582627570e+000
 1.6931233446e+000	 1.5275254441e-001	 3.1624056168e+000
 1.6916517505e+000	 1.6826869900e-001	 3.1584083742e+000
 1.6900324285e+000	 1.8382162698e-001	 3.1480639465e+000
 1.6882641584e+000	 1.9940945702e-001	 3.1312984567e+000
 1.6863457466e+000	 2.1503028334e-001	 3.1080325949e+000
 1.6842760279e+000	 2.3068216600e-001	 3.0781815207e+000
 1.6820538658e+000	 2.4636313132e-001	 3.0416547773e+000
 1.6796781539e+000	 2.6207117230e-001	 2.9983562209e+000
 1.6771478167e+000	 2.7780424907e-001	 2.9481839627e+000
 1.6744618110e+000	 2.9356028938e-001	 2.8910303272e+000
 1.6716191263e+000	 3.0933718910e-001	 2.8267818255e+000
 1.7180222173e+000	 1.5499890536e-001	 3.1151639063e+000
 1.7165289821e+000	 1.7074323870e-001	 3.1132313731e+000
 1.7148858466e+000	 1.8652488620e-001	 3.1049478234e+000
 1.7130915724e+000	 2.0234194904e-001	 3.0902382347e+000
 1.7111449488e+000	 2.1819249339e-001	 3.0690218776e+000
 1.7090447930e+000	 2.3407455079e-001	 3.0412122122e+000
 1.7067899521e+000	 2.4998611855e-001	 3.0067167987e+000
 1.7043793032e+000	 2.6592516013e-001	 2.9654372209e+000
 1.7018117552e+000	 2.8188960568e-001	 2.9172690256e+000
 1.6990862494e+000	 2.9787735246e-001	 2.8621016777e+000
 1.6962017605e+000	 3.1388626541e-001	 2.7998185309e+000
 1.7429210901e+000	 1.5724526631e-001	 3.0716993752e+000
 1.7414062137e+000	 1.7321777839e-001	 3.0717397932e+000
 1.7397392646e+000	 1.8922814542e-001	 3.0654570299e+000
 1.7379189865e+000	 2.0527444106e-001	 3.0527751559e+000
 1.7359441509e+000	 2.2135470344e-001	 3.0336122329e+000
 1.7338135582e+000	 2.3746693559e-001	 3.0078802038e+000
 1.7315260383e+000	 2.5360910577e-001	 2.9754847976e+000
 1.7290804525e+000	 2.6977914796e-001	 2.9363254479e+000
 1.7264756937e+000	 2.8597496228e-001	 2.8902952281e+000
 1.7237106878e+000	 3.0219441554e-001	 2.8372808025e+000
 1.7207843947e+000	 3.1843534172e-001	 2.7771623945e+000
 1.4749580526e+000	 2.7294457862e-001	 3.2259631339e+000
 1.4723106938e+000	 2.8688189364e-001	 3.1803268843e+000
 1.4695233968e+000	 3.0083381848e-001	 3.1292734011e+000
 1.4665953626e+000	 3.1479841525e-001	 3.0727053651e+000
 1.4635258252e+000	 3.2877372006e-001	 3.0105207051e+000
 1.4603140515e+000	 3.4275774362e-001	 2.9426126237e+000
 1.4569593432e+000	 3.5674847188e-001	 2.8688696375e+000
 1.4534610367e+000	 3.7074386670e-001	 2.7891756316e+000
 1.4498185045e+000	 3.8474186652e-001	 2.7034099291e+000
 1.4460311558e+000	 3.9874038711e-001	 2.6114473759e+000
 1.4420984373e+000	 4.1273732227e-001	 2.5131584413e+000
 1.4995406868e+000	 2.7749365493e-001	 3.1556703361e+000
 1.4968492054e+000	 2.9166325853e-001	 3.1102948036e+000
 1.4940154534e+000	 3.0584771546e-001	 3.0594416582e+000
 1.4910386187e+000	 3.2004505551e-001	 3.0030090644e+000
 1.4879179223e+000	 3.3425328206e-001	 2.9408901785e+000
 1.4846526191e+000	 3.4847037268e-001	 2.8729731763e+000
 1.4812419989e+000	 3.6269427974e-001	 2.7991412956e+000
 1.4776853873e+000	 3.7692293114e-001	 2.7192728945e+000
 1.4739821463e+000	 3.9115423097e-001	 2.6332415249e+000
 1.4701316751e+000	 4.0538606023e-001	 2.5409160226e+000
 1.4661334112e+000	 4.1961627764e-001	 2.4421606138e+000
 1.5241233210e+000	 2.8204273124e-001	 3.0918180177e+000
 1.5213877169e+000	 2.9644462343e-001	 3.0467987080e+000
 1.5185075100e+000	 3.1086161243e-001	 2.9962689360e+000
 1.5154818747e+000	 3.2529169576e-001	 2.9401223197e+000
 1.5123100193e+000	 3.3973284406e-001	 2.8782471827e+000
 1.5089911866e+000	 3.5418300174e-001	 2.8105265840e+000
 1.5055246547e+000	 3.6864008761e-001	 2.7368383626e+000
 1.5019097379e+000	 3.8310199559e-001	 2.6570551991e+000
 1.4981457880e+000	 3.9756659541e-001	 2.5710446934e+000
 1.4942321944e+000	 4.1203173334e-001	 2.4786694592e+000
 1.4901683852e+000	 4.2649523301e-001	 2.3797872359e+000
 1.5487059552e+000	 2.8659180755e-001	 3.0340739843e+000
 1.5459262285e+000	 3.0122598832e-001	 2.9895087292e+000
 1.5429995666e+000	 3.1587550941e-001	 2.9394275228e+000
 1.5399251308e+000	 3.3053833602e-001	 2.8837193993e+000
 1.5367021164e+000	 3.4521240607e-001	 2.8222677837e+000
 1.5333297541e+000	 3.5989563080e-001	 2.7549505220e+000
 1.5298073104e+000	 3.7458589548e-001	 2.6816399279e+000
 1.5261340886e+000	 3.8928106004e-001	 2.6022028476e+000
 1.5223094298e+000	 4.0397895985e-001	 2.5165007407e+000
 1.5183327136e+000	 4.1867740646e-001	 2.4243897798e+000
 1.5142033591e+000	 4.3337418838e-001	 2.3257209675e+000
 1.5732885894e+000	 2.9114088386e-001	 2.9821277550e+000
 1.5704647400e+000	 3.0600735321e-001	 2.9381168607e+000
 1.5674916232e+000	 3.2088940638e-001	 2.8886117496e+000
 1.5643683868e+000	 3.3578497627e-001	 2.8334968305e+000
 1.5610942135e+000	 3.5069196807e-001	 2.7726505571e+000
 1.5576683217e+000	 3.6560825986e-001	 2.7059454602e+000
 1.5540899661e+000	 3.8053170334e-001	 2.6332481956e+000
 1.5503584392e+000	 3.9546012448e-001	 2.5544196113e+000
 1.5464730715e+000	 4.1039132430e-001	 2.4693148322e+000
 1.5424332329e+000	 4.2532307958e-001	 2.3777833636e+000
 1.5382383331e+000	 4.4025314375e-001	 2.2796692136e+000
 1.5978712237e+000	 2.9568996017e-001	 2.9356888922e+000
 1.5950032516e+000	 3.1078871811e-001	 2.8923352751e+000
 1.5919836798e+000	 3.2590330335e-001	 2.8435362952e+000
 1.5888116429e+000	 3.4103161652e-001	 2.7891716874e+000
 1.5854863106e+000	 3.5617153007e-001	 2.7291148566e+000
 1.5820068892e+000	 3.7132088892e-001	 2.6632329100e+000
 1.5783726218e+000	 3.8647751121e-001	 2.5913867066e+000
 1.5745827898e+000	 4.0163918893e-001	 2.5134309262e+000
 1.5706367133e+000	 4.1680368874e-001	 2.4292141576e+000
 1.5665337522e+000	 4.3196875270e-001	 2.3385790059e+000
 1.5622733070e+000	 4.4713209913e-001	 2.2413622208e+000
 1.6224538579e+000	 3.0023903648e-001	 2.8944854830e+000
 1.6195417632e+000	 3.1557008300e-001	 2.8518947963e+000
 1.6164757364e+000	 3.3091720033e-001	 2.8039346442e+000
 1.6132548989e+000	 3.4627825678e-001	 2.7504800345e+000
 1.6098784077e+000	 3.6165109207e-001	 2.6913992400e+000
 1.6063454567e+000	 3.7703351798e-001	 2.6265538300e+000
 1.6026552775e+000	 3.9242331907e-001	 2.5557987218e+000
 1.5988071404e+000	 4.0781825337e-001	 2.4789822508e+000
 1.5948003550e+000	 4.2321605318e-001	 2.3959462619e+000
 1.5906342714e+000	 4.3861442582e-001	 2.3065262208e+000
 1.5863082810e+000	 4.5401105450e-001	 2.2105513468e+000
 1.6470364921e+000	 3.0478811279e-001	 2.8582627570e+000
 1.6440802747e+000	 3.2035144789e-001	 2.8165435070e+000
 1.6409677930e+000	 3.3593109730e-001	 2.7695576837e+000
 1.6376981549e+000	 3.5152489703e-001	 2.7171755094e+000
 1.6342705048e+000	 3.6713065407e-001	 2.6592600357e+000
 1.6306840242e+000	 3.8274614704e-001	 2.5956671747e+000
 1.6269379333e+000	 3.9836912694e-001	 2.5262457508e+000
 1.6230314910e+000	 4.1399731782e-001	 2.4508375727e+000
 1.6189639967e+000	 4.2962841762e-001	 2.3692775272e+000
 1.6147347907e+000	 4.4526009894e-001	 2.2813936944e+000
 1.6103432550e+000	 4.6089000987e-001	 2.1870074850e+000
 1.6716191263e+000	 3.0933718910e-001	 2.8267818255e+000
 1.6686187863e+000	 3.2513281279e-001	 2.7860454799e+000
 1.6654598497e+000	 3.4094499428e-001	 2.7401724238e+000
 1.6621414110e+000	 3.5677153728e-001	 2.6890280307e+000
 1.6586626019e+000	 3.7261021607e-001	 2.6324700367e+000
 1.6550225918e+000	 3.8845877610e-001	 2.5703485715e+000
 1.6512205890e+000	 4.0431493480e-001	 2.5025062100e+000
 1.6472558416e+000	 4.2017638226e-001	 2.4287780457e+000
 1.6431276385e+000	 4.3604078206e-001	 2.3489917869e+000
 1.6388353100e+000	 4.5190577206e-001	 2.2629678753e+000
 1.6343782289e+000	 4.6776896524e-001	 2.1705196281e+000
 1.6962017605e+000	 3.1388626541e-001	 2.7998185309e+000
 1.6931572979e+000	 3.2991417768e-001	 2.7601796190e+000
 1.6899519063e+000	 3.4595889125e-001	 2.7155608293e+000
 1.6865846670e+000	 3.6201817754e-001	 2.6658226180e+000
 1.6830546990e+000	 3.7808977807e-001	 2.6108173068e+000
 1.6793611593e+000	 3.9417140516e-001	 2.5503891123e+000
 1.6755032447e+000	 4.1026074266e-001	 2.4843741973e+000
 1.6714801922e+000	 4.2635544671e-001	 2.4126007458e+000
 1.6672912802e+000	 4.4245314651e-001	 2.3348890611e+000
 1.6629358292e+000	 4.5855144518e-001	 2.2510516874e+000
 1.6584132029e+000	 4.7464792061e-001	 2.1608935564e+000
 1.7207843947e+000	 3.1843534172e-001	 2.7771623945e+000
 1.7176958094e+000	 3.3469554257e-001	 2.7387386002e+000
 1.7144439629e+000	 3.5097278822e-001	 2.6955187512e+000
 1.7110279231e+000	 3.6726481779e-001	 2.6473583137e+000
 1.7074467960e+000	 3.8356934007e-001	 2.5941040905e+000
 1.7036997268e+000	 3.9988403422e-001	 2.5355942489e+000
 1.6997859004e+000	 4.1620655053e-001	 2.4716583721e+000
 1.6957045429e+000	 4.3253451115e-001	 2.4021175344e+000
 1.6914549220e+000	 4.4886551095e-001	 2.3267844011e+000
 1.6870363485e+000	 4.6519711830e-001	 2.2454633533e+000
 1.6824481768e+000	 4.8152687598e-001	 2.1579506389e+000
 1.4420984373e+000	 4.1273732227e-001	 2.5131584413e+000
 1.4380198337e+000	 4.2673054465e-001	 2.4470041110e+000
 1.4337948692e+000	 4.4071790656e-001	 2.3761194011e+000
 1.4294231071e+000	 4.5469724075e-001	 2.3003696180e+000
 1.4249041518e+000	 4.6866636131e-001	 2.2196148364e+000
 1.4202376483e+000	 4.8262306456e-001	 2.1337100501e+000
 1.4154232836e+000	 4.9656512994e-001	 2.0425053409e+000
 1.4104607872e+000	 5.1049032095e-001	 1.9458460660e+000
 1.4053499316e+000	 5.2439638615e-001	 1.8435730614e+000
 1.4000905329e+000	 5.3828106007e-001	 1.7355228655e+000
 1.3946824516e+000	 5.5214206433e-001	 1.6215279586e+000
 1.4661334112e+000	 4.1961627764e-001	 2.4421606138e+000
 1.4619868310e+000	 4.3384272040e-001	 2.3753884507e+000
 1.4576914503e+000	 4.4806320500e-001	 2.3037471842e+000
 1.4532468256e+000	 4.6227552809e-001	 2.2270920670e+000
 1.4486525543e+000	 4.7647746733e-001	 2.1452728787e+000
 1.4439082757e+000	 4.9066678230e-001	 2.0581340893e+000
 1.4390136716e+000	 5.0484121544e-001	 1.9655150410e+000
 1.4339684670e+000	 5.1899849297e-001	 1.8672501496e+000
 1.4287724304e+000	 5.3313632591e-001	 1.7631691240e+000
 1.4234253751e+000	 5.4725241107e-001	 1.6530972046e+000
 1.4179271591e+000	 5.6134443207e-001	 1.5368554207e+000
 1.4901683852e+000	 4.2649523301e-001	 2.3797872359e+000
 1.4859538282e+000	 4.4095489614e-001	 2.3125951569e+000
 1.4815880315e+000	 4.5540850345e-001	 2.2404213733e+000
 1.4770705440e+000	 4.6985381544e-001	 2.1631108225e+000
 1.4724009568e+000	 4.8428857336e-001	 2.0805026962e+000
 1.4675789032e+000	 4.9871050005e-001	 1.9924306170e+000
 1.4626040597e+000	 5.1311730094e-001	 1.8987228333e+000
 1.4574761468e+000	 5.2750666498e-001	 1.7992024351e+000
 1.4521949293e+000	 5.4187626568e-001	 1.6936875888e+000
 1.4467602173e+000	 5.5622376207e-001	 1.5819917918e+000
 1.4411718666e+000	 5.7054679981e-001	 1.4639241471e+000
 1.5142033591e+000	 4.3337418838e-001	 2.3257209675e+000
 1.5099208254e+000	 4.4806707189e-001	 2.2583152207e+000
 1.5054846126e+000	 4.6275380189e-001	 2.1858410411e+000
 1.5008942625e+000	 4.7743210279e-001	 2.1081327772e+000
 1.4961493594e+000	 4.9209967938e-001	 2.0250187291e+000
 1.4912495307e+000	 5.0675421779e-001	 1.9363213368e+000
 1.4861944478e+000	 5.2139338644e-001	 1.8418573892e+000
 1.4809838265e+000	 5.3601483700e-001	 1.7414382538e+000
 1.4756174281e+000	 5.5061620545e-001	 1.6348701275e+000
 1.4700950595e+000	 5.6519511307e-001	 1.5219543074e+000
 1.4644165742e+000	 5.7974916755e-001	 1.4024874829e+000
 1.5382383331e+000	 4.4025314375e-001	 2.2796692136e+000
 1.5338878227e+000	 4.5517924763e-001	 2.2122643744e+000
 1.5293811938e+000	 4.7009910033e-001	 2.1397300333e+000
 1.5247179809e+000	 4.8501039013e-001	 2.0618896658e+000
 1.5198977619e+000	 4.9991078540e-001	 1.9785603649e+000
 1.5149201581e+000	 5.1479793553e-001	 1.8895530418e+000
 1.5097848358e+000	 5.2966947193e-001	 1.7946726484e+000
 1.5044915063e+000	 5.4452300902e-001	 1.6937184217e+000
 1.4990399270e+000	 5.5935614522e-001	 1.5864841502e+000
 1.4934299018e+000	 5.7416646408e-001	 1.4727584614e+000
 1.4876612817e+000	 5.8895153529e-001	 1.3523251318e+000
 1.5622733070e+000	 4.4713209913e-001	 2.2413622208e+000
 1.5578548199e+000	 4.6229142338e-001	 2.1741811883e+000
 1.5532777749e+000	 4.7744439878e-001	 2.1018350634e+000
 1.5485416994e+000	 4.9258867748e-001	 2.0241361536e+000
 1.5436461644e+000	 5.0772189142e-001	 1.9408900189e+000
 1.5385907856e+000	 5.2284165328e-001	 1.8518956839e+000
 1.5333752239e+000	 5.3794555743e-001	 1.7569458750e+000
 1.5279991861e+000	 5.5303118103e-001	 1.6558272792e+000
 1.5224624259e+000	 5.6809608499e-001	 1.5483208256e+000
 1.5167647440e+000	 5.8313781508e-001	 1.4342019914e+000
 1.5109059892e+000	 5.9815390303e-001	 1.3132411288e+000
 1.5863082810e+000	 4.5401105450e-001	 2.2105513468e+000
 1.5818218171e+000	 4.6940359912e-001	 2.1438253403e+000
 1.5771743561e+000	 4.8478969722e-001	 2.0719239799e+000
 1.5723654179e+000	 5.0016696483e-001	 1.9946481000e+000
 1.5673945670e+000	 5.1553299745e-001	 1.9117913900e+000
 1.5622614131e+000	 5.3088537102e-001	 1.8231406201e+000
 1.5569656119e+000	 5.4622164294e-001	 1.7284758911e+000
 1.5515068659e+000	 5.6153935305e-001	 1.6275709087e+000
 1.5458849247e+000	 5.7683602476e-001	 1.5201932812e+000
 1.5400995862e+000	 5.9210916608e-001	 1.4061048423e+000
 1.5341506967e+000	 6.0735627077e-001	 1.2850619966e+000
 1.6103432550e+000	 4.6089000987e-001	 2.1870074850e+000
 1.6057888143e+000	 4.7651577487e-001	 2.1209760409e+000
 1.6010709372e+000	 4.9213499566e-001	 2.0497841894e+000
 1.5961891363e+000	 5.0774525217e-001	 1.9732209760e+000
 1.5911429695e+000	 5.2334410347e-001	 1.8910678723e+000
 1.5859320406e+000	 5.3892908877e-001	 1.8030990145e+000
 1.5805560000e+000	 5.5449772844e-001	 1.7090814672e+000
 1.5750145457e+000	 5.7004752507e-001	 1.6087755125e+000
 1.5693074236e+000	 5.8557596453e-001	 1.5019349644e+000
 1.5634344284e+000	 6.0108051709e-001	 1.3883075087e+000
 1.5573954043e+000	 6.1655863851e-001	 1.2676350677e+000
 1.6343782289e+000	 4.6776896524e-001	 2.1705196281e+000
 1.6297558116e+000	 4.8362795061e-001	 2.1054305969e+000
 1.6249675184e+000	 4.9948029411e-001	 2.0352212184e+000
 1.6200128548e+000	 5.1532353952e-001	 1.9596684231e+000
 1.6148913720e+000	 5.3115520949e-001	 1.8785411069e+000
 1.6096026680e+000	 5.4697280651e-001	 1.7916003824e+000
 1.6041463881e+000	 5.6277381394e-001	 1.6985998560e+000
 1.5985222255e+000	 5.7855569709e-001	 1.5992859332e+000
 1.5927299224e+000	 5.9431590430e-001	 1.4933981486e+000
 1.5867692706e+000	 6.1005186809e-001	 1.3806695244e+000
 1.5806401118e+000	 6.2576100625e-001	 1.2609173811e+000
 1.6584132029e+000	 4.7464792061e-001	 2.1608935564e+000
 1.6537228088e+000	 4.9074012636e-001	 2.0970031001e+000
 1.6488640995e+000	 5.0682559255e-001	 2.0280574000e+000
 1.6438365732e+000	 5.2290182687e-001	 1.9538209359e+000
 1.6386397745e+000	 5.3896631552e-001	 1.8740496598e+000
 1.6332732955e+000	 5.5501652426e-001	 1.7884912600e+000
 1.6277367761e+000	 5.7104989944e-001	 1.6968854530e+000
 1.6220299053e+000	 5.8706386911e-001	 1.5989643026e+000
 1.6161524213e+000	 6.0305584408e-001	 1.4944525687e+000
 1.6101041128e+000	 6.1902321909e-001	 1.3830680824e+000
 1.6038848193e+000	 6.3496337399e-001	 1.2640821538e+000
 1.6824481768e+000	 4.8152687598e-001	 2.1579506389e+000
 1.6776898060e+000	 4.9785230211e-001	 2.0955232285e+000
 1.6727606807e+000	 5.1417089100e-001	 2.0281306739e+000
 1.6676602917e+000	 5.3048011422e-001	 1.9555246585e+000
 1.6623881771e+000	 5.4677742155e-001	 1.8774478125e+000
 1.6569439230e+000	 5.6306024200e-001	 1.7936339892e+000
 1.6513271642e+000	 5.7932598494e-001	 1.7038085716e+000
 1.6455375851e+000	 5.9557204113e-001	 1.6076888075e+000
 1.6395749202e+000	 6.1179578385e-001	 1.5049841744e+000
 1.6334389551e+000	 6.2799457010e-001	 1.3950400045e+000
 1.6271295268e+000	 6.4416574173e-001	 1.2745195454e+000
 1.3946824516e+000	 5.5214206433e-001	 1.6215279586e+000
 1.3891255928e+000	 5.6597710858e-001	 1.5536162621e+000
 1.3834199070e+000	 5.7978389160e-001	 1.4772156588e+000
 1.3775653904e+000	 5.9356010237e-001	 1.3921211443e+000
 1.3715620856e+000	 6.0730342120e-001	 1.2981270648e+000
 1.3654100816e+000	 6.2101152078e-001	 1.1950274975e+000
 1.3591095148e+000	 6.3468206740e-001	 1.0960853845e+000
 1.3526605688e+000	 6.4831272205e-001	 9.9448547552e-001
 1.3460634750e+000	 6.6190114160e-001	 8.8495442231e-001
 1.3393185129e+000	 6.7544498003e-001	 7.6756961157e-001
 1.3324260102e+000	 6.8894188956e-001	 6.4241749324e-001
 1.4179271591e+000	 5.6134443207e-001	 1.5368554207e+000
 1.4122776860e+000	 5.7541006039e-001	 1.4664531777e+000
 1.4064769054e+000	 5.8944695646e-001	 1.3882544186e+000
 1.4005248136e+000	 6.0345277075e-001	 1.3020472685e+000
 1.3944214536e+000	 6.1742514488e-001	 1.2076183284e+000
 1.3881669163e+000	 6.3136171280e-001	 1.1123021640e+000
 1.3817613401e+000	 6.4526010186e-001	 1.0181604359e+000
 1.3752049116e+000	 6.5911793409e-001	 9.1654979111e-001
 1.3684978662e+000	 6.7293282730e-001	 8.0754591241e-001
 1.3616404881e+000	 6.8670239636e-001	 6.9123328846e-001
 1.3546331104e+000	 7.0042425438e-001	 5.6770517227e-001
 1.4411718666e+000	 5.7054679981e-001	 1.4639241471e+000
 1.4354297792e+000	 5.8484301220e-001	 1.3914816129e+000
 1.4295339039e+000	 5.9911002132e-001	 1.3119267448e+000
 1.4234842367e+000	 6.1334543912e-001	 1.2250400644e+000
 1.4172808217e+000	 6.2754686857e-001	 1.1331404994e+000
 1.4109237510e+000	 6.4171190481e-001	 1.0455210377e+000
 1.4044131653e+000	 6.5583813632e-001	 9.5086682621e-001
 1.3977492544e+000	 6.6992314612e-001	 8.4925239210e-001
 1.3909322575e+000	 6.8396451299e-001	 7.4076084054e-001
 1.3839624633e+000	 6.9795981269e-001	 6.2548381400e-001
 1.3768402106e+000	 7.1190661921e-001	 5.0352143737e-001
 1.4644165742e+000	 5.7974916755e-001	 1.4024874829e+000
 1.4585818724e+000	 5.9427596401e-001	 1.3284599085e+000
 1.4525909023e+000	 6.0877308618e-001	 1.2479970504e+000
 1.4464436599e+000	 6.2323810749e-001	 1.1608710892e+000
 1.4401401898e+000	 6.3766859226e-001	 1.0774572922e+000
 1.4336805857e+000	 6.5206209682e-001	 9.8886921644e-001
 1.4270649905e+000	 6.6641617078e-001	 8.9372634924e-001
 1.4202935972e+000	 6.8072835815e-001	 7.9211092288e-001
 1.4133666487e+000	 6.9499619869e-001	 6.8411350864e-001
 1.4062844385e+000	 7.0921722903e-001	 5.6983296287e-001
 1.3990473107e+000	 7.2338898403e-001	 4.4937635887e-001
 1.4876612817e+000	 5.8895153529e-001	 1.3523251318e+000
 1.4817339656e+000	 6.0370891582e-001	 1.2771731503e+000
 1.4756479008e+000	 6.1843615104e-001	 1.1962568269e+000
 1.4694030831e+000	 6.3313077587e-001	 1.1147589791e+000
 1.4629995579e+000	 6.4779031595e-001	 1.0314185699e+000
 1.4564374204e+000	 6.6241228884e-001	 9.4190120161e-001
 1.4497168158e+000	 6.7699420523e-001	 8.4628867782e-001
 1.4428379400e+000	 6.9153357019e-001	 7.4467097162e-001
 1.4358010400e+000	 7.0602788438e-001	 6.3714617225e-001
 1.4286064137e+000	 7.2047464536e-001	 5.2382041792e-001
 1.4212544109e+000	 7.3487134886e-001	 4.0480781452e-001
 1.5109059892e+000	 5.9815390303e-001	 1.3132411288e+000
 1.5048860588e+000	 6.1314186763e-001	 1.2374311115e+000
 1.4987048992e+000	 6.2809921590e-001	 1.1581187752e+000
 1.4923625062e+000	 6.4302344424e-001	 1.0792776654e+000
 1.4858589260e+000	 6.5791203963e-001	 9.9460986191e-001
 1.4791942551e+000	 6.7276248085e-001	 9.0419711911e-001
 1.4723686410e+000	 6.8757223969e-001	 8.0812921944e-001
 1.4653822828e+000	 7.0233878223e-001	 7.0650392078e-001
 1.4582354312e+000	 7.1705957007e-001	 5.9942689019e-001
 1.4509283889e+000	 7.3173206170e-001	 4.8701162346e-001
 1.4434615111e+000	 7.4635371369e-001	 3.6937935049e-001
 1.5341506967e+000	 6.0735627077e-001	 1.2850619966e+000
 1.5280381520e+000	 6.2257481944e-001	 1.2090663828e+000
 1.5217618977e+000	 6.3776228076e-001	 1.1331133447e+000
 1.5153219294e+000	 6.5291611261e-001	 1.0525877335e+000
 1.5087182941e+000	 6.6803376332e-001	 9.6664023297e-001
 1.5019510898e+000	 6.8311267287e-001	 8.7536077814e-001
 1.4950204663e+000	 6.9815027415e-001	 7.7884716655e-001
 1.4879266257e+000	 7.1314399426e-001	 6.7720499296e-001
 1.4806698225e+000	 7.2809125577e-001	 5.7054756983e-001
 1.4732503641e+000	 7.4298947803e-001	 4.5899583358e-001
 1.4656686112e+000	 7.5783607852e-001	 3.4267823674e-001
 1.5573954043e+000	 6.1655863851e-001	 1.2676350677e+000
 1.5511902453e+000	 6.3200777125e-001	 1.1934990967e+000
 1.5448188961e+000	 6.4742534562e-001	 1.1164753795e+000
 1.5382813526e+000	 6.6280878099e-001	 1.0343257336e+000
 1.5315776622e+000	 6.7815548701e-001	 9.4714052686e-001
 1.5247079245e+000	 6.9346286488e-001	 8.5501790377e-001
 1.5176722915e+000	 7.0872830861e-001	 7.5806372163e-001
 1.5104709685e+000	 7.2394920630e-001	 6.5639147183e-001
 1.5031042137e+000	 7.3912294146e-001	 5.5012218729e-001
 1.4955723393e+000	 7.5424689437e-001	 4.3938433535e-001
 1.4878757114e+000	 7.6931844334e-001	 3.2431369667e-001
 1.5806401118e+000	 6.2576100625e-001	 1.2609173811e+000
 1.5743423385e+000	 6.4144072306e-001	 1.1868209137e+000
 1.5678758946e+000	 6.5708841048e-001	 1.1078675229e+000
 1.5612407758e+000	 6.7270144936e-001	 1.0241482278e+000
 1.5544370303e+000	 6.8827721070e-001	 9.3576176487e-001
 1.5474647592e+000	 7.0381305690e-001	 8.4281452550e-001
 1.5403241168e+000	 7.1930634307e-001	 7.4542047876e-001
 1.5330153113e+000	 7.3475441833e-001	 6.4370107997e-001
 1.5255386050e+000	 7.5015462716e-001	 5.3778516475e-001
 1.5178943146e+000	 7.6550431070e-001	 4.2780882869e-001
 1.5100828116e+000	 7.8080080817e-001	 3.1391529280e-001
 1.6038848193e+000	 6.3496337399e-001	 1.2640821538e+000
 1.5974944317e+000	 6.5087367487e-001	 1.1877878978e+000
 1.5909328930e+000	 6.6675147534e-001	 1.1069707888e+000
 1.5842001989e+000	 6.8259411774e-001	 1.0217303390e+000
 1.5772963984e+000	 6.9839893439e-001	 9.3217368376e-001
 1.5702215939e+000	 7.1416324891e-001	 8.3841550589e-001
 1.5629759420e+000	 7.2988437753e-001	 7.4057794601e-001
 1.5555596541e+000	 7.4555963037e-001	 6.3879049778e-001
 1.5479729962e+000	 7.6118631286e-001	 5.3318988887e-001
 1.5402162898e+000	 7.7676172704e-001	 4.2391994723e-001
 1.5322899118e+000	 7.9228317300e-001	 3.1113145299e-001
 1.6271295268e+000	 6.4416574173e-001	 1.2745195454e+000
 1.6206465249e+000	 6.6030662669e-001	 1.1961042990e+000
 1.6139898915e+000	 6.7641454021e-001	 1.1134832497e+000
 1.6071596221e+000	 6.9248678611e-001	 1.0267644259e+000
 1.6001557665e+000	 7.0852065808e-001	 9.3606339889e-001
 1.5929784285e+000	 7.2451344093e-001	 8.4150319542e-001
 1.5856277673e+000	 7.4046241198e-001	 7.4321419438e-001
 1.5781039969e+000	 7.5636484241e-001	 6.4133400936e-001
 1.5704073875e+000	 7.7221799855e-001	 5.3600735619e-001
 1.5625382650e+000	 7.8801914338e-001	 4.2738590587e-001
 1.5544970119e+000	 8.0376553783e-001	 3.1562812291e-001
 1.3324260102e+000	 6.8894188956e-001	 6.4241749324e-001
 1.3253863434e+000	 7.0238952194e-001	 5.5210984561e-001
 1.3181999376e+000	 7.1578552965e-001	 4.6163667667e-001
 1.3108672667e+000	 7.2912756712e-001	 3.7113235881e-001
 1.3033888536e+000	 7.4241329201e-001	 2.8073376427e-001
 1.2957652706e+000	 7.5564036645e-001	 1.9058008617e-001
 1.2879971388e+000	 7.6880645833e-001	 1.0081265275e-001
 1.2800851286e+000	 7.8190924254e-001	 1.1574735049e-002
 1.2720299594e+000	 7.9494640225e-001	-7.6988651539e-002
 1.2638323996e+000	 8.0791563023e-001	-1.6473095159e-001
 1.2554932668e+000	 8.2081463007e-001	-2.5150427933e-001
 1.3546331104e+000	 7.0042425438e-001	 5.6770517227e-001
 1.3474761158e+000	 7.1409601397e-001	 4.7915417722e-001
 1.3401699365e+000	 7.2771528847e-001	 3.9016060780e-001
 1.3327150544e+000	 7.4127969323e-001	 3.0085805627e-001
 1.3251120012e+000	 7.5478684687e-001	 2.1138294373e-001
 1.3173613584e+000	 7.6823437256e-001	 1.2187434144e-001
 1.3094637578e+000	 7.8161989930e-001	 3.2473784719e-002
 1.3014198807e+000	 7.9494106324e-001	-5.6674920217e-002
 1.2932304587e+000	 8.0819550895e-001	-1.4542589606e-001
 1.2848962730e+000	 8.2138089073e-001	-2.3363140061e-001
 1.2764181546e+000	 8.3449487390e-001	-3.2114203892e-001
 1.3768402106e+000	 7.1190661921e-001	 5.0352143737e-001
 1.3695658882e+000	 7.2580250600e-001	 4.1646748771e-001
 1.3621399355e+000	 7.3964504730e-001	 3.2869924100e-001
 1.3545628422e+000	 7.5343181935e-001	 2.4034982049e-001
 1.3468351487e+000	 7.6716040174e-001	 1.5155550831e-001
 1.3389574463e+000	 7.8082837866e-001	 6.2455566528e-002
 1.3309303768e+000	 7.9443334027e-001	-2.6807949601e-002
 1.3227546328e+000	 8.0797288395e-001	-1.1609038607e-001
 1.3144309580e+000	 8.2144461565e-001	-2.0524469175e-001
 1.3059601463e+000	 8.3484615123e-001	-2.9412162688e-001
 1.2973430424e+000	 8.4817511773e-001	-3.8256997810e-001
 1.3990473107e+000	 7.2338898403e-001	 4.4937635887e-001
 1.3916556606e+000	 7.3750899804e-001	 3.6356753331e-001
 1.3841099345e+000	 7.5157480613e-001	 2.7677757879e-001
 1.3764106300e+000	 7.6558394547e-001	 1.8913945812e-001
 1.3685582963e+000	 7.7953395660e-001	 1.0078962427e-001
 1.3605535341e+000	 7.9342238477e-001	 1.1867840862e-002
 1.3523969957e+000	 8.0724678124e-001	-7.7483005749e-002
 1.3440893850e+000	 8.2100470466e-001	-1.6711710256e-001
 1.3356314573e+000	 8.3469372236e-001	-2.5688591377e-001
 1.3270240196e+000	 8.4831141173e-001	-3.4663839206e-001
 1.3182679302e+000	 8.6185536157e-001	-4.3622119690e-001
 1.4212544109e+000	 7.3487134886e-001	 4.0480781452e-001
 1.4137454330e+000	 7.4921549007e-001	 3.1999918625e-001
 1.4060799334e+000	 7.6350456496e-001	 2.3394707229e-001
 1.3982584178e+000	 7.7773607159e-001	 1.4678458141e-001
 1.3902814439e+000	 7.9190751147e-001	 5.8648645359e-002
 1.3821496220e+000	 8.0601639088e-001	-3.0320161580e-002
 1.3738636147e+000	 8.2006022222e-001	-1.1997781209e-001
 1.3654241371e+000	 8.3403652537e-001	-2.1017702396e-001
 1.3568319566e+000	 8.4794282906e-001	-3.0076746661e-001
 1.3480878930e+000	 8.6177667223e-001	-3.9159597558e-001
 1.3391928179e+000	 8.7553560540e-001	-4.8250677453e-001
 1.4434615111e+000	 7.4635371369e-001	 3.6937935049e-001
 1.4358352054e+000	 7.6092198210e-001	 2.8533234897e-001
 1.4280499324e+000	 7.7543432378e-001	 1.9978358678e-001
 1.4201062055e+000	 7.8988819771e-001	 1.1286662323e-001
 1.4120045914e+000	 8.0428106634e-001	 2.4719175307e-002
 1.4037457098e+000	 8.1861039699e-001	-6.4517064190e-002
 1.3953302337e+000	 8.3287366319e-001	-1.5469661806e-001
 1.3867588893e+000	 8.4706834608e-001	-2.4567042536e-001
 1.3780324560e+000	 8.6119193577e-001	-3.3728605104e-001
 1.3691517663e+000	 8.7524193274e-001	-4.2938790399e-001
 1.3601177057e+000	 8.8921584923e-001	-5.2181746331e-001
 1.4656686112e+000	 7.5783607852e-001	 3.4267823674e-001
 1.4579249778e+000	 7.7262847414e-001	 2.5916005785e-001
 1.4500199313e+000	 7.8736408261e-001	 1.7388555208e-001
 1.4419539933e+000	 8.0204032383e-001	 8.6989032458e-002
 1.4337277390e+000	 8.1665462121e-001	-1.3906935436e-003
 1.4253417977e+000	 8.3120440310e-001	-9.1110507613e-002
 1.4167968527e+000	 8.4568710416e-001	-1.8202317439e-001
 1.4080936414e+000	 8.6010016679e-001	-2.7397754505e-001
 1.3992329553e+000	 8.7444104247e-001	-3.6681877043e-001
 1.3902156396e+000	 8.8870719324e-001	-4.6038852317e-001
 1.3810425935e+000	 9.0289609307e-001	-5.5452522858e-001
 1.4878757114e+000	 7.6931844334e-001	 3.2431369667e-001
 1.4800147502e+000	 7.8433496617e-001	 2.4109675685e-001
 1.4719899303e+000	 7.9929384144e-001	 1.5587227868e-001
 1.4638017811e+000	 8.1419244995e-001	 6.8775630982e-002
 1.4554508865e+000	 8.2902817608e-001	-2.0052983858e-002
 1.4469378855e+000	 8.4379840921e-001	-1.1046871563e-001
 1.4382634717e+000	 8.5850054514e-001	-2.0232226286e-001
 1.4294283936e+000	 8.7313198750e-001	-2.9546007978e-001
 1.4204334546e+000	 8.8769014918e-001	-3.8972459331e-001
 1.4112795129e+000	 9.0217245375e-001	-4.8495442975e-001
 1.4019674813e+000	 9.1657633690e-001	-5.8098465072e-001
 1.5100828116e+000	 7.8080080817e-001	 3.1391529280e-001
 1.5021045226e+000	 7.9604145821e-001	 2.3077672334e-001
 1.4939599293e+000	 8.1122360028e-001	 1.4538242236e-001
 1.4856495689e+000	 8.2634457607e-001	 5.7869115697e-002
 1.4771740341e+000	 8.4140173095e-001	-3.1621295442e-002
 1.4685339734e+000	 8.5639241532e-001	-1.2294192286e-001
 1.4597300906e+000	 8.7131398611e-001	-2.1594109110e-001
 1.4507631457e+000	 8.8616380821e-001	-3.1046254812e-001
 1.4416339539e+000	 9.0093925588e-001	-4.0634568673e-001
 1.4323433863e+000	 9.1563771425e-001	-5.0342577614e-001
 1.4228923691e+000	 9.3025658074e-001	-6.0153420343e-001
 1.5322899118e+000	 7.9228317300e-001	 3.1113145299e-001
 1.5241942950e+000	 8.0774795024e-001	 2.2785263101e-001
 1.5159299282e+000	 8.2315335911e-001	 1.4207258237e-001
 1.5074973567e+000	 8.3849670220e-001	 5.3929690749e-002
 1.4988971817e+000	 8.5377528582e-001	-3.6432140236e-002
 1.4901300612e+000	 8.6898642143e-001	-1.2886367835e-001
 1.4811967096e+000	 8.8412742709e-001	-2.2321056602e-001
 1.4720978979e+000	 8.9919562892e-001	-3.1931353526e-001
 1.4628344533e+000	 9.1418836259e-001	-4.1700863383e-001
 1.4534072596e+000	 9.2910297476e-001	-5.1612746219e-001
 1.4438172569e+000	 9.4393682457e-001	-6.1649742091e-001
 1.5544970119e+000	 8.0376553783e-001	 3.1562812291e-001
 1.5462840674e+000	 8.1945444228e-001	 2.3199423572e-001
 1.5378999272e+000	 8.3508311794e-001	 1.4561601976e-001
 1.5293451444e+000	 8.5064882832e-001	 5.6633817015e-002
 1.5206203292e+000	 8.6614884069e-001	-3.4806162871e-002
 1.5117261490e+000	 8.8158042754e-001	-1.2855203734e-001
 1.5026633286e+000	 8.9694086807e-001	-2.2444645820e-001
 1.4934326500e+000	 9.1222744964e-001	-3.2232683110e-001
 1.4840349526e+000	 9.2743746930e-001	-4.2202554694e-001
 1.4744711329e+000	 9.4256823526e-001	-5.2337022464e-001
 1.4647421446e+000	 9.5761706841e-001	-6.2618396494e-001
 1.2554932668e+000	 8.2081463007e-001	-2.5150427933e-001
 1.2470134270e+000	 8.3364111751e-001	-3.3156791820e-001
 1.2383937949e+000	 8.4639282171e-001	-4.3368358290e-001
 1.2296353336e+000	 8.5906748650e-001	-5.3354532228e-001
 1.2207390541e+000	 8.7166287168e-001	-6.3113884071e-001
 1.2117060152e+000	 8.8417675429e-001	-7.2645389595e-001
 1.2025373230e+000	 8.9660692987e-001	-8.1948427728e-001
 1.1932341309e+000	 9.0895121369e-001	-9.1022777467e-001
 1.1837976384e+000	 9.2120744201e-001	-9.9868613925e-001
 1.1742290915e+000	 9.3337347334e-001	-1.0848650350e+000
 1.1645297814e+000	 9.4544718961e-001	-1.1687739818e+000
 1.2764181546e+000	 8.3449487390e-001	-3.2114203892e-001
 1.2677969841e+000	 8.4753513614e-001	-3.9045738843e-001
 1.2590336915e+000	 8.6049936873e-001	-4.5879486218e-001
 1.2501292558e+000	 8.7338527793e-001	-5.2602212746e-001
 1.2410847050e+000	 8.8619058620e-001	-6.2739781381e-001
 1.2319011154e+000	 8.9891303353e-001	-7.2705214562e-001
 1.2225796118e+000	 9.1155037870e-001	-8.2445061340e-001
 1.2131213664e+000	 9.2410040058e-001	-9.1958666944e-001
 1.2035275991e+000	 9.3656089938e-001	-1.0124577528e+000
 1.1937995763e+000	 9.4892969790e-001	-1.1030652425e+000
 1.1839386111e+000	 9.6120464277e-001	-1.1914144016e+000
 1.2973430424e+000	 8.4817511773e-001	-3.8256997810e-001
 1.2885805413e+000	 8.6142915476e-001	-4.5376078958e-001
 1.2796735881e+000	 8.7460591576e-001	-5.2416068151e-001
 1.2706231781e+000	 8.8770306937e-001	-5.9362557722e-001
 1.2614303559e+000	 9.0071830073e-001	-6.6201026274e-001
 1.2520962157e+000	 9.1364931276e-001	-7.2916861557e-001
 1.2426219005e+000	 9.2649382753e-001	-8.2254875747e-001
 1.2330086019e+000	 9.3924958748e-001	-9.2166656648e-001
 1.2232575597e+000	 9.5191435675e-001	-1.0185268998e+000
 1.2133700612e+000	 9.6448592246e-001	-1.1131271942e+000
 1.2033474407e+000	 9.7696209593e-001	-1.2054688126e+000
 1.3182679302e+000	 8.6185536157e-001	-4.3622119690e-001
 1.3093640984e+000	 8.7532317338e-001	-5.0902859947e-001
 1.3003134847e+000	 8.8871246279e-001	-5.8122590756e-001
 1.2911171003e+000	 9.0202086081e-001	-6.5265721596e-001
 1.2817760068e+000	 9.1524601526e-001	-7.2316520331e-001
 1.2722913159e+000	 9.2838559200e-001	-7.9259137613e-001
 1.2626641892e+000	 9.4143727636e-001	-8.6077631722e-001
 1.2528958375e+000	 9.5439877437e-001	-9.2755993783e-001
 1.2429875204e+000	 9.6726781412e-001	-1.0175909845e+000
 1.2329405461e+000	 9.8004214701e-001	-1.1157641369e+000
 1.2227562704e+000	 9.9271954909e-001	-1.2116664493e+000
 1.3391928179e+000	 8.7553560540e-001	-4.8250677453e-001
 1.3301476555e+000	 8.8921719201e-001	-5.5669011869e-001
 1.3209533813e+000	 9.0281900981e-001	-6.3043839969e-001
 1.3116110225e+000	 9.1633865225e-001	-7.0358378833e-001
 1.3021216577e+000	 9.2977372978e-001	-7.7595676276e-001
 1.2924864162e+000	 9.4312187124e-001	-8.4738636819e-001
 1.2827064779e+000	 9.5638072519e-001	-9.1770048136e-001
 1.2727830730e+000	 9.6954796126e-001	-9.8672607922e-001
 1.2627174810e+000	 9.8262127148e-001	-1.0542895113e+000
 1.2525110309e+000	 9.9559837157e-001	-1.1202167752e+000
 1.2421651001e+000	 1.0084770023e+000	-1.2107039411e+000
 1.3601177057e+000	 8.8921584923e-001	-5.2181746331e-001
 1.3509312126e+000	 9.0311121063e-001	-5.9715342958e-001
 1.3415932779e+000	 9.1692555684e-001	-6.7222388760e-001
 1.3321049447e+000	 9.3065644369e-001	-7.4684897808e-001
 1.3224673086e+000	 9.4430144431e-001	-8.2084687486e-001
 1.3126815164e+000	 9.5785815047e-001	-8.9403406043e-001
 1.3027487666e+000	 9.7132417402e-001	-9.6622560673e-001
 1.2926703085e+000	 9.8469714816e-001	-1.0372354608e+000
 1.2824474417e+000	 9.9797472885e-001	-1.1068767344e+000
 1.2720815158e+000	 1.0111545961e+000	-1.1749619970e+000
 1.2615739298e+000	 1.0242344554e+000	-1.2413035720e+000
 1.3810425935e+000	 9.0289609307e-001	-5.5452522858e-001
 1.3717147697e+000	 9.1700522925e-001	-6.3080700369e-001
 1.3622331744e+000	 9.3103210387e-001	-7.0698764776e-001
 1.3525988670e+000	 9.4497423513e-001	-7.8287515518e-001
 1.3428129595e+000	 9.5882915883e-001	-8.5827528109e-001
 1.3328766167e+000	 9.7259442971e-001	-9.3299183313e-001
 1.3227910554e+000	 9.8626762285e-001	-1.0068269689e+000
 1.3125575440e+000	 9.9984633505e-001	-1.0795814987e+000
 1.3021774023e+000	 1.0133281862e+000	-1.1510551928e+000
 1.2916520006e+000	 1.0267108207e+000	-1.2210470925e+000
 1.2809827595e+000	 1.0399919086e+000	-1.2893558243e+000
 1.4019674813e+000	 9.1657633690e-001	-5.8098465072e-001
 1.3924983268e+000	 9.3089924788e-001	-6.5802116527e-001
 1.3828730710e+000	 9.4513865090e-001	-7.3511602985e-001
 1.3730927892e+000	 9.5929202657e-001	-8.1206496632e-001
 1.3631586104e+000	 9.7335687336e-001	-8.8866118669e-001
 1.3530717169e+000	 9.8733070895e-001	-9.6469570127e-001
 1.3428333441e+000	 1.0012110717e+000	-1.0399576332e+000
 1.3324447795e+000	 1.0149955219e+000	-1.1142345384e+000
 1.3219073629e+000	 1.0286816436e+000	-1.1873127311e+000
 1.3112224855e+000	 1.0422670452e+000	-1.2589776128e+000
 1.3003915892e+000	 1.0557493617e+000	-1.3290140056e+000
 1.4228923691e+000	 9.3025658074e-001	-6.0153420343e-001
 1.4132818840e+000	 9.4479326650e-001	-6.7914942563e-001
 1.4035129676e+000	 9.5924519792e-001	-7.5697784838e-001
 1.3935867114e+000	 9.7360981801e-001	-8.3480278524e-001
 1.3835042613e+000	 9.8788458789e-001	-9.1240477077e-001
 1.3732668172e+000	 1.0020669882e+000	-9.8956188545e-001
 1.3628756328e+000	 1.0161545205e+000	-1.0660500875e+000
 1.3523320150e+000	 1.0301447088e+000	-1.1416435507e+000
 1.3416373236e+000	 1.0440351009e+000	-1.2161150077e+000
 1.3307929704e+000	 1.0578232698e+000	-1.2892360985e+000
 1.3198004189e+000	 1.0715068149e+000	-1.3607777215e+000
 1.4438172569e+000	 9.4393682457e-001	-6.1649742091e-001
 1.4340654411e+000	 9.5868728513e-001	-6.9452970146e-001
 1.4241528642e+000	 9.7335174495e-001	-7.7292565336e-001
 1.4140806337e+000	 9.8792760946e-001	-8.5145603677e-001
 1.4038499122e+000	 1.0024123024e+000	-9.2988856494e-001
 1.3934619174e+000	 1.0168032674e+000	-1.0079882463e+000
 1.3829179215e+000	 1.0310979693e+000	-1.0855177338e+000
 1.3722192506e+000	 1.0452938957e+000	-1.1622376809e+000
 1.3613672842e+000	 1.0593885583e+000	-1.2379071036e+000
 1.3503634552e+000	 1.0733794943e+000	-1.3122837471e+000
 1.3392092486e+000	 1.0872642681e+000	-1.3851244574e+000
 1.4647421446e+000	 9.5761706841e-001	-6.2618396494e-001
 1.4548489982e+000	 9.7258130376e-001	-7.0448542874e-001
 1.4447927608e+000	 9.8745829198e-001	-7.8329689209e-001
 1.4345745559e+000	 1.0022454009e+000	-8.6237640753e-001
 1.4241955631e+000	 1.0169400169e+000	-9.4147871391e-001
 1.4136570177e+000	 1.0315395467e+000	-1.0203555959e+000
 1.4029602102e+000	 1.0460414182e+000	-1.0987562512e+000
 1.3921064861e+000	 1.0604430826e+000	-1.1764276651e+000
 1.3810972449e+000	 1.0747420157e+000	-1.2531149913e+000
 1.3699339401e+000	 1.0889357189e+000	-1.3285619378e+000
 1.3586180783e+000	 1.1030217212e+000	-1.4025111582e+000
 1.1645297814e+000	 9.4544718961e-001	-1.1687739818e+000
 1.1547010445e+000	 9.5742649739e-001	-1.2307653825e+000
 1.1447442616e+000	 9.6930932910e-001	-1.2917966842e+000
 1.1346608574e+000	 9.8109364418e-001	-1.3518303039e+000
 1.1244522996e+000	 9.9277743021e-001	-1.4108306202e+000
 1.1141200983e+000	 1.0043587041e+000	-1.4687639368e+000
 1.1036658055e+000	 1.0158355131e+000	-1.5255984413e+000
 1.0930910140e+000	 1.0272059361e+000	-1.5813041582e+000
 1.0823973566e+000	 1.0384680844e+000	-1.6358528980e+000
 1.0715865057e+000	 1.0496201031e+000	-1.6892182010e+000
 1.0606601718e+000	 1.0606601718e+000	-1.7413752772e+000
 1.1839386111e+000	 9.6120464277e-001	-1.1914144016e+000
 1.1739460619e+000	 9.7338360568e-001	-1.2550252128e+000
 1.1638233327e+000	 9.8546448459e-001	-1.3170273586e+000
 1.1535718717e+000	 9.9744520492e-001	-1.3774052356e+000
 1.1431931713e+000	 1.0093237207e+000	-1.4361458995e+000
 1.1326887666e+000	 1.0210980158e+000	-1.4932390026e+000
 1.1220602356e+000	 1.0327661050e+000	-1.5486767244e+000
 1.1113091975e+000	 1.0443260351e+000	-1.6024536969e+000
 1.1004373125e+000	 1.0557758859e+000	-1.6545669238e+000
 1.0894462808e+000	 1.0671137715e+000	-1.7050156944e+000
 1.0783378413e+000	 1.0783378413e+000	-1.7538014918e+000
 1.2033474407e+000	 9.7696209593e-001	-1.2054688126e+000
 1.1931910793e+000	 9.8934071397e-001	-1.2715909857e+000
 1.1829024037e+000	 1.0016196401e+000	-1.3354666190e+000
 1.1724828860e+000	 1.0137967657e+000	-1.3971018520e+000
 1.1619340429e+000	 1.0258700112e+000	-1.4565061780e+000
 1.1512574349e+000	 1.0378373276e+000	-1.5136923543e+000
 1.1404546657e+000	 1.0496966969e+000	-1.5686763064e+000
 1.1295273811e+000	 1.0614461340e+000	-1.6214770247e+000
 1.1184772685e+000	 1.0730836873e+000	-1.6721164539e+000
 1.1073060559e+000	 1.0846074399e+000	-1.7206193769e+000
 1.0960155108e+000	 1.0960155108e+000	-1.7670132922e+000
 1.2227562704e+000	 9.9271954909e-001	-1.2116664493e+000
 1.2124360967e+000	 1.0052978223e+000	-1.2811437170e+000
 1.2019814747e+000	 1.0177747956e+000	-1.3477463555e+000
 1.1913939003e+000	 1.0301483264e+000	-1.4115020365e+000
 1.1806749146e+000	 1.0424163017e+000	-1.4724424766e+000
 1.1698261033e+000	 1.0545766393e+000	-1.5306033222e+000
 1.1588490958e+000	 1.0666272888e+000	-1.5860240260e+000
 1.1477455647e+000	 1.0785662329e+000	-1.6387477153e+000
 1.1365172244e+000	 1.0903914887e+000	-1.6888210524e+000
 1.1251658309e+000	 1.1021011083e+000	-1.7362940880e+000
 1.1136931804e+000	 1.1136931804e+000	-1.7812201071e+000
 1.2421651001e+000	 1.0084770023e+000	-1.2107039411e+000
 1.2316811141e+000	 1.0212549306e+000	-1.2843346754e+000
 1.2210605457e+000	 1.0339299511e+000	-1.3544716180e+000
 1.2103049146e+000	 1.0464998871e+000	-1.4211637851e+000
 1.1994157862e+000	 1.0589625922e+000	-1.4844649279e+000
 1.1883947716e+000	 1.0713159510e+000	-1.5444333909e+000
 1.1772435259e+000	 1.0835578807e+000	-1.6011319611e+000
 1.1659637482e+000	 1.0956863319e+000	-1.6546277083e+000
 1.1545571804e+000	 1.1076992901e+000	-1.7049918156e+000
 1.1430256060e+000	 1.1195947767e+000	-1.7522994030e+000
 1.1313708499e+000	 1.1313708499e+000	-1.7966293418e+000
 1.2615739298e+000	 1.0242344554e+000	-1.2413035720e+000
 1.2509261315e+000	 1.0372120388e+000	-1.2848012763e+000
 1.2401396168e+000	 1.0500851065e+000	-1.3562226802e+000
 1.2292159289e+000	 1.0628514479e+000	-1.4266230441e+000
 1.2181566579e+000	 1.0755088827e+000	-1.4930643827e+000
 1.2069634399e+000	 1.0880552628e+000	-1.5556275717e+000
 1.1956379560e+000	 1.1004884726e+000	-1.6143985646e+000
 1.1841819318e+000	 1.1128064308e+000	-1.6694682038e+000
 1.1725971363e+000	 1.1250070915e+000	-1.7209320227e+000
 1.1608853811e+000	 1.1370884451e+000	-1.7688900381e+000
 1.1490485194e+000	 1.1490485194e+000	-1.8134465342e+000
 1.2809827595e+000	 1.0399919086e+000	-1.2893558243e+000
 1.2701711489e+000	 1.0531691471e+000	-1.3381908831e+000
 1.2592186878e+000	 1.0662402620e+000	-1.3826176576e+000
 1.2481269432e+000	 1.0792030086e+000	-1.4283953801e+000
 1.2368975296e+000	 1.0920551733e+000	-1.4987138703e+000
 1.2255321082e+000	 1.1047945745e+000	-1.5646156507e+000
 1.2140323861e+000	 1.1174190645e+000	-1.6262096961e+000
 1.2024001154e+000	 1.1299265297e+000	-1.6836104762e+000
 1.1906370923e+000	 1.1423148929e+000	-1.7369377282e+000
 1.1787451562e+000	 1.1545821135e+000	-1.7863162187e+000
 1.1667261890e+000	 1.1667261890e+000	-1.8318754962e+000
 1.3003915892e+000	 1.0557493617e+000	-1.3290140056e+000
 1.2894161663e+000	 1.0691262554e+000	-1.3840078004e+000
 1.2782977588e+000	 1.0823954175e+000	-1.4340852135e+000
 1.2670379575e+000	 1.0955545694e+000	-1.4791438695e+000
 1.2556384012e+000	 1.1086014638e+000	-1.5190849561e+000
 1.2441007765e+000	 1.1215338863e+000	-1.5718133250e+000
 1.2324268162e+000	 1.1343496563e+000	-1.6369395620e+000
 1.2206182989e+000	 1.1470466287e+000	-1.6973866150e+000
 1.2086770482e+000	 1.1596226943e+000	-1.7532983015e+000
 1.1966049313e+000	 1.1720757818e+000	-1.8048240144e+000
 1.1844038585e+000	 1.1844038585e+000	-1.8521184423e+000
 1.3198004189e+000	 1.0715068149e+000	-1.3607777215e+000
 1.3086611837e+000	 1.0850833637e+000	-1.4227218054e+000
 1.2973768299e+000	 1.0985505730e+000	-1.4792520563e+000
 1.2859489718e+000	 1.1119061301e+000	-1.5302741074e+000
 1.2743792729e+000	 1.1251477543e+000	-1.5756976474e+000
 1.2626694448e+000	 1.1382731980e+000	-1.6154366430e+000
 1.2508212463e+000	 1.1512802482e+000	-1.6494095547e+000
 1.2388364825e+000	 1.1641667276e+000	-1.7111201998e+000
 1.2267170042e+000	 1.1769304957e+000	-1.7702969178e+000
 1.2144647064e+000	 1.1895694502e+000	-1.8246556443e+000
 1.2020815280e+000	 1.2020815280e+000	-1.8743761075e+000
 1.3392092486e+000	 1.0872642681e+000	-1.3851244574e+000
 1.3279062012e+000	 1.1010404720e+000	-1.4547824941e+000
 1.3164559009e+000	 1.1147057285e+000	-1.5185393234e+000
 1.3048599860e+000	 1.1282576908e+000	-1.5763080136e+000
 1.2931201445e+000	 1.1416940448e+000	-1.6280061753e+000
 1.2812381131e+000	 1.1550125097e+000	-1.6735561803e+000
 1.2692156764e+000	 1.1682108401e+000	-1.7128853751e+000
 1.2570546661e+000	 1.1812868266e+000	-1.7459262876e+000
 1.2447569601e+000	 1.1942382971e+000	-1.7882110072e+000
 1.2323244815e+000	 1.2070631186e+000	-1.8460497566e+000
 1.2197591976e+000	 1.2197591976e+000	-1.8988478538e+000
 1.3586180783e+000	 1.1030217212e+000	-1.4025111582e+000
 1.3471512186e+000	 1.1169975803e+000	-1.4806207229e+000
 1.3355349719e+000	 1.1308608840e+000	-1.5523512433e+000
 1.3237710003e+000	 1.1446092516e+000	-1.6176226591e+000
 1.3118610162e+000	 1.1582403353e+000	-1.6763599321e+000
 1.2998067814e+000	 1.1717518215e+000	-1.7284932639e+000
 1.2876101065e+000	 1.1851414320e+000	-1.7739583073e+000
 1.2752728496e+000	 1.1984069255e+000	-1.8126963692e+000
 1.2627969161e+000	 1.2115460986e+000	-1.8446546066e+000
 1.2501842566e+000	 1.2245567870e+000	-1.8697862128e+000
 1.2374368671e+000	 1.2374368671e+000	-1.9257317692e+000
 1.0606601718e+000	 1.0606601718e+000	-1.7413752772e+000
 1.0496201031e+000	 1.0715865057e+000	-1.7849923428e+000
 1.0384680844e+000	 1.0823973566e+000	-1.8261270206e+000
 1.0272059361e+000	 1.0930910140e+000	-1.8647820689e+000
 1.0158355131e+000	 1.1036658055e+000	-1.9009627157e+000
 1.0043587041e+000	 1.1141200983e+000	-1.9346765543e+000
 9.9277743021e-001	 1.1244522996e+000	-1.9659334360e+000
 9.8109364418e-001	 1.1346608574e+000	-1.9947453583e+000
 9.6930932910e-001	 1.1447442616e+000	-2.0211263499e+000
 9.5742649739e-001	 1.1547010445e+000	-2.0450923529e+000
 9.4544718961e-001	 1.1645297814e+000	-2.0666611019e+000
 1.0783378413e+000	 1.0783378413e+000	-1.7538014918e+000
 1.0671137715e+000	 1.0894462808e+000	-1.7948988788e+000
 1.0557758859e+000	 1.1004373125e+000	-1.8334534158e+000
 1.0443260351e+000	 1.1113091975e+000	-1.8694976656e+000
 1.0327661050e+000	 1.1220602356e+000	-1.9030667314e+000
 1.0210980158e+000	 1.1326887666e+000	-1.9341981164e+000
 1.0093237207e+000	 1.1431931713e+000	-1.9629315796e+000
 9.9744520492e-001	 1.1535718717e+000	-1.9893089870e+000
 9.8546448459e-001	 1.1638233327e+000	-2.0133741606e+000
 9.7338360568e-001	 1.1739460619e+000	-2.0351727236e+000
 9.6120464277e-001	 1.1839386111e+000	-2.0547519439e+000
 1.0960155108e+000	 1.0960155108e+000	-1.7670132922e+000
 1.0846074399e+000	 1.1073060559e+000	-1.8066963305e+000
 1.0730836873e+000	 1.1184772685e+000	-1.8437732900e+000
 1.0614461340e+000	 1.1295273811e+000	-1.8783062224e+000
 1.0496966969e+000	 1.1404546657e+000	-1.9103597956e+000
 1.0378373276e+000	 1.1512574349e+000	-1.9400011161e+000
 1.0258700112e+000	 1.1619340429e+000	-1.9672995482e+000
 1.0137967657e+000	 1.1724828860e+000	-1.9923265293e+000
 1.0016196401e+000	 1.1829024037e+000	-2.0151553818e+000
 9.8934071397e-001	 1.1931910793e+000	-2.0358611219e+000
 9.7696209593e-001	 1.2033474407e+000	-2.0545202672e+000
 1.1136931804e+000	 1.1136931804e+000	-1.7812201071e+000
 1.1021011083e+000	 1.1251658309e+000	-1.8205324656e+000
 1.0903914887e+000	 1.1365172244e+000	-1.8571726464e+000
 1.0785662329e+000	 1.1477455647e+000	-1.8912319085e+000
 1.0666272888e+000	 1.1588490958e+000	-1.9228042064e+000
 1.0545766393e+000	 1.1698261033e+000	-1.9519859770e+000
 1.0424163017e+000	 1.1806749146e+000	-1.9788759215e+000
 1.0301483264e+000	 1.1913939003e+000	-2.0035747846e+000
 1.0177747956e+000	 1.2019814747e+000	-2.0261851295e+000
 1.0052978223e+000	 1.2124360967e+000	-2.0468111107e+000
 9.9271954909e-001	 1.2227562704e+000	-2.0655582448e+000
 1.1313708499e+000	 1.1313708499e+000	-1.7966293418e+000
 1.1195947767e+000	 1.1430256060e+000	-1.8365566542e+000
 1.1076992901e+000	 1.1545571804e+000	-1.8737427175e+000
 1.0956863319e+000	 1.1659637482e+000	-1.9083077472e+000
 1.0835578807e+000	 1.1772435259e+000	-1.9403747390e+000
 1.0713159510e+000	 1.1883947716e+000	-1.9700692185e+000
 1.0589625922e+000	 1.1994157862e+000	-1.9975189873e+000
 1.0464998871e+000	 1.2103049146e+000	-2.0228538647e+000
 1.0339299511e+000	 1.2210605457e+000	-2.0462054271e+000
 1.0212549306e+000	 1.2316811141e+000	-2.0677067437e+000
 1.0084770023e+000	 1.2421651001e+000	-2.0874921115e+000
 1.1490485194e+000	 1.1490485194e+000	-1.8134465342e+000
 1.1370884451e+000	 1.1608853811e+000	-1.8549197457e+000
 1.1250070915e+000	 1.1725971363e+000	-1.8935795619e+000
 1.1128064308e+000	 1.1841819318e+000	-1.9295749350e+000
 1.1004884726e+000	 1.1956379560e+000	-1.9630576858e+000
 1.0880552628e+000	 1.2069634399e+000	-1.9941822175e+000
 1.0755088827e+000	 1.2181566579e+000	-2.0231052251e+000
 1.0628514479e+000	 1.2292159289e+000	-2.0499854007e+000
 1.0500851065e+000	 1.2401396168e+000	-2.0749831355e+000
 1.0372120388e+000	 1.2509261315e+000	-2.0952148140e+000
 1.0242344554e+000	 1.2615739298e+000	-2.0810818596e+000
 1.1667261890e+000	 1.1667261890e+000	-1.8318754962e+000
 1.1545821135e+000	 1.1787451562e+000	-1.8757739562e+000
 1.1423148929e+000	 1.1906370923e+000	-1.9167836994e+000
 1.1299265297e+000	 1.2024001154e+000	-1.9550822225e+000
 1.1174190645e+000	 1.2140323861e+000	-1.9908499842e+000
 1.1047945745e+000	 1.2255321082e+000	-2.0242700829e+000
 1.0920551733e+000	 1.2368975296e+000	-2.0555279286e+000
 1.0792030086e+000	 1.2481269432e+000	-2.0848109124e+000
 1.0662402620e+000	 1.2592186878e+000	-2.0841320266e+000
 1.0531691471e+000	 1.2701711489e+000	-2.0753594072e+000
 1.0399919086e+000	 1.2809827595e+000	-2.0641110122e+000
 1.1844038585e+000	 1.1844038585e+000	-1.8521184423e+000
 1.1720757818e+000	 1.1966049313e+000	-1.8992727671e+000
 1.1596226943e+000	 1.2086770482e+000	-1.9434597777e+000
 1.1470466287e+000	 1.2206182989e+000	-1.9848853504e+000
 1.1343496563e+000	 1.2324268162e+000	-2.0237584220e+000
 1.1215338863e+000	 1.2441007765e+000	-2.0602906304e+000
 1.1086014638e+000	 1.2556384012e+000	-2.0788298707e+000
 1.0955545694e+000	 1.2670379575e+000	-2.0785786925e+000
 1.0823954175e+000	 1.2782977588e+000	-2.0759507053e+000
 1.0691262554e+000	 1.2894161663e+000	-2.0709519080e+000
 1.0557493617e+000	 1.3003915892e+000	-2.0635890696e+000
 1.2020815280e+000	 1.2020815280e+000	-1.8743761075e+000
 1.1895694502e+000	 1.2144647064e+000	-1.9255708318e+000
 1.1769304957e+000	 1.2267170042e+000	-1.9737162688e+000
 1.1641667276e+000	 1.2388364825e+000	-2.0190465356e+000
 1.1512802482e+000	 1.2508212463e+000	-2.0596348688e+000
 1.1382731980e+000	 1.2626694448e+000	-2.0685899483e+000
 1.1251477543e+000	 1.2743792729e+000	-2.0752105873e+000
 1.1119061301e+000	 1.2859489718e+000	-2.0795166942e+000
 1.0985505730e+000	 1.2973768299e+000	-2.0815285355e+000
 1.0850833637e+000	 1.3086611837e+000	-2.0812668213e+000
 1.0715068149e+000	 1.3198004189e+000	-2.0787527952e+000
 1.2197591976e+000	 1.2197591976e+000	-1.8988478538e+000
 1.2070631186e+000	 1.2323244815e+000	-1.9548238907e+000
 1.1942382971e+000	 1.2447569601e+000	-2.0076651922e+000
 1.1812868266e+000	 1.2570546661e+000	-2.0398582112e+000
 1.1682108401e+000	 1.2692156764e+000	-2.0564840412e+000
 1.1550125097e+000	 1.2812381131e+000	-2.0707963590e+000
 1.1416940448e+000	 1.2931201445e+000	-2.0828295356e+000
 1.1282576908e+000	 1.3048599860e+000	-2.0926180069e+000
 1.1147057285e+000	 1.3164559009e+000	-2.1001963459e+000
 1.1010404720e+000	 1.3279062012e+000	-2.1055993379e+000
 1.0872642681e+000	 1.3392092486e+000	-2.1088620606e+000
 1.2374368671e+000	 1.2374368671e+000	-1.9257317692e+000
 1.2245567870e+000	 1.2501842566e+000	-1.9867369091e+000
 1.2115460986e+000	 1.2627969161e+000	-2.0142461177e+000
 1.1984069255e+000	 1.2752728496e+000	-2.0393883964e+000
 1.1851414320e+000	 1.2876101065e+000	-2.0622127182e+000
 1.1717518215e+000	 1.2998067814e+000	-2.0827677963e+000
 1.1582403353e+000	 1.3118610162e+000	-2.1011021353e+000
 1.1446092516e+000	 1.3237710003e+000	-2.1172640877e+000
 1.1308608840e+000	 1.3355349719e+000	-2.1313019158e+000
 1.1169975803e+000	 1.3471512186e+000	-2.1432638570e+000
 1.1030217212e+000	 1.3586180783e+000	-2.1531981952e+000
 9.4544718961e-001	 1.1645297814e+000	-2.0666611019e+000
 9.3337347334e-001	 1.1742290915e+000	-2.0981260301e+000
 9.2120744201e-001	 1.1837976384e+000	-2.1277236619e+000
 9.0895121369e-001	 1.1932341309e+000	-2.1555777392e+000
 8.9660692987e-001	 1.2025373230e+000	-2.1818123252e+000
 8.8417675429e-001	 1.2117060152e+000	-2.2065515728e+000
 8.7166287168e-001	 1.2207390541e+000	-2.2299194945e+000
 8.5906748650e-001	 1.2296353336e+000	-2.2520397342e+000
 8.4639282171e-001	 1.2383937949e+000	-2.2730353422e+000
 8.3364111751e-001	 1.2470134270e+000	-2.2930285536e+000
 8.2081463007e-001	 1.2554932668e+000	-2.2806162927e+000
 9.6120464277e-001	 1.1839386111e+000	-2.0547519439e+000
 9.4892969790e-001	 1.1937995763e+000	-2.0890445369e+000
 9.3656089938e-001	 1.2035275991e+000	-2.1217072624e+000
 9.2410040058e-001	 1.2131213664e+000	-2.1528597245e+000
 9.1155037870e-001	 1.2225796118e+000	-2.1826216935e+000
 8.9891303353e-001	 1.2319011154e+000	-2.2111128750e+000
 8.8619058620e-001	 1.2410847050e+000	-2.2384526789e+000
 8.7338527793e-001	 1.2501292558e+000	-2.2641126502e+000
 8.6049936873e-001	 1.2590336915e+000	-2.2435674683e+000
 8.4753513614e-001	 1.2677969841e+000	-2.2201996624e+000
 8.3449487390e-001	 1.2764181546e+000	-2.1940065898e+000
 9.7696209593e-001	 1.2033474407e+000	-2.0545202672e+000
 9.6448592246e-001	 1.2133700612e+000	-2.0909991273e+000
 9.5191435675e-001	 1.2232575597e+000	-2.1260803826e+000
 9.3924958748e-001	 1.2330086019e+000	-2.1598800458e+000
 9.2649382753e-001	 1.2426219005e+000	-2.1925141430e+000
 9.1364931276e-001	 1.2520962157e+000	-2.2146752778e+000
 9.0071830073e-001	 1.2614303559e+000	-2.2018759638e+000
 8.8770306937e-001	 1.2706231781e+000	-2.1863494094e+000
 8.7460591576e-001	 1.2796735881e+000	-2.1680731436e+000
 8.6142915476e-001	 1.2885805413e+000	-2.1470271392e+000
 8.4817511773e-001	 1.2973430424e+000	-2.1231939258e+000
 9.9271954909e-001	 1.2227562704e+000	-2.0655582448e+000
 9.8004214701e-001	 1.2329405461e+000	-2.1036019910e+000
 9.6726781412e-001	 1.2429875204e+000	-2.1404754314e+000
 9.5439877437e-001	 1.2528958375e+000	-2.1646034257e+000
 9.4143727636e-001	 1.2626641892e+000	-2.1586372350e+000
 9.2838559200e-001	 1.2722913159e+000	-2.1501048112e+000
 9.1524601526e-001	 1.2817760068e+000	-2.1389645334e+000
 9.0202086081e-001	 1.2911171003e+000	-2.1251769087e+000
 8.8871246279e-001	 1.3003134847e+000	-2.1087047125e+000
 8.7532317338e-001	 1.3093640984e+000	-2.0895131253e+000
 8.6185536157e-001	 1.3182679302e+000	-2.0675698672e+000
 1.0084770023e+000	 1.2421651001e+000	-2.0874921115e+000
 9.9559837157e-001	 1.2525110309e+000	-2.1173750395e+000
 9.8262127148e-001	 1.2627174810e+000	-2.1171803222e+000
 9.6954796126e-001	 1.2727830730e+000	-2.1146442246e+000
 9.5638072519e-001	 1.2827064779e+000	-2.1097069157e+000
 9.4312187124e-001	 1.2924864162e+000	-2.1023102841e+000
 9.2977372978e-001	 1.3021216577e+000	-2.0923981018e+000
 9.1633865225e-001	 1.3116110225e+000	-2.0799161869e+000
 9.0281900981e-001	 1.3209533813e+000	-2.0648125639e+000
 8.8921719201e-001	 1.3301476555e+000	-2.0470376227e+000
 8.7553560540e-001	 1.3391928179e+000	-2.0265442742e+000
 1.0242344554e+000	 1.2615739298e+000	-2.0810818596e+000
 1.0111545961e+000	 1.2720815158e+000	-2.0833949738e+000
 9.9797472885e-001	 1.2824474417e+000	-2.0835761628e+000
 9.8469714816e-001	 1.2926703085e+000	-2.0815498067e+000
 9.7132417402e-001	 1.3027487666e+000	-2.0772416915e+000
 9.5785815047e-001	 1.3126815164e+000	-2.0705791955e+000
 9.4430144431e-001	 1.3224673086e+000	-2.0614914740e+000
 9.3065644369e-001	 1.3321049447e+000	-2.0499096436e+000
 9.1692555684e-001	 1.3415932779e+000	-2.0357669643e+000
 9.0311121063e-001	 1.3509312126e+000	-2.0189990195e+000
 8.8921584923e-001	 1.3601177057e+000	-1.9995438939e+000
 1.0399919086e+000	 1.2809827595e+000	-2.0641110122e+000
 1.0267108207e+000	 1.2916520006e+000	-2.0662824585e+000
 1.0133281862e+000	 1.3021774023e+000	-2.0664684545e+000
 9.9984633505e-001	 1.3125575440e+000	-2.0645791283e+000
 9.8626762285e-001	 1.3227910554e+000	-2.0605258628e+000
 9.7259442971e-001	 1.3328766167e+000	-2.0542215023e+000
 9.5882915883e-001	 1.3428129595e+000	-2.0455805595e+000
 9.4497423513e-001	 1.3525988670e+000	-2.0345194212e+000
 9.3103210387e-001	 1.3622331744e+000	-2.0209565521e+000
 9.1700522925e-001	 1.3717147697e+000	-2.0048126971e+000
 9.0289609307e-001	 1.3810425935e+000	-1.9860110801e+000
 1.0557493617e+000	 1.3003915892e+000	-2.0635890696e+000
 1.0422670452e+000	 1.3112224855e+000	-2.0652724549e+000
 1.0286816436e+000	 1.3219073629e+000	-2.0651156179e+000
 1.0149955219e+000	 1.3324447795e+000	-2.0630144032e+000
 1.0012110717e+000	 1.3428333441e+000	-2.0588657542e+000
 9.8733070895e-001	 1.3530717169e+000	-2.0525679428e+000
 9.7335687336e-001	 1.3631586104e+000	-2.0440207975e+000
 9.5929202657e-001	 1.3730927892e+000	-2.0331259311e+000
 9.4513865090e-001	 1.3828730710e+000	-2.0197869666e+000
 9.3089924788e-001	 1.3924983268e+000	-2.0039097617e+000
 9.1657633690e-001	 1.4019674813e+000	-1.9854026297e+000
 1.0715068149e+000	 1.3198004189e+000	-2.0787527952e+000
 1.0578232698e+000	 1.3307929704e+000	-2.0796237261e+000
 1.0440351009e+000	 1.3416373236e+000	-2.0787987538e+000
 1.0301447088e+000	 1.3523320150e+000	-2.0761593922e+000
 1.0161545205e+000	 1.3628756328e+000	-2.0715880955e+000
 1.0020669882e+000	 1.3732668172e+000	-2.0649685093e+000
 9.8788458789e-001	 1.3835042613e+000	-2.0561857213e+000
 9.7360981801e-001	 1.3935867114e+000	-2.0451265110e+000
 9.5924519792e-001	 1.4035129676e+000	-2.0316795979e+000
 9.4479326650e-001	 1.4132818840e+000	-2.0157358886e+000
 9.3025658074e-001	 1.4228923691e+000	-1.9971887198e+000
 1.0872642681e+000	 1.3392092486e+000	-2.1088620606e+000
 1.0733794943e+000	 1.3503634552e+000	-2.1086171127e+000
 1.0593885583e+000	 1.3613672842e+000	-2.1068199990e+000
 1.0452938957e+000	 1.3722192506e+000	-2.1033378422e+000
 1.0310979693e+000	 1.3829179215e+000	-2.0980385427e+000
 1.0168032674e+000	 1.3934619174e+000	-2.0907910523e+000
 1.0024123024e+000	 1.4038499122e+000	-2.0814656466e+000
 9.8792760946e-001	 1.4140806337e+000	-2.0699341978e+000
 9.7335174495e-001	 1.4241528642e+000	-2.0560704455e+000
 9.5868728513e-001	 1.4340654411e+000	-2.0397502660e+000
 9.4393682457e-001	 1.4438172569e+000	-2.0208519386e+000
 1.1030217212e+000	 1.3586180783e+000	-2.1531981952e+000
 1.0889357189e+000	 1.3699339401e+000	-2.1515539556e+000
 1.0747420157e+000	 1.3810972449e+000	-2.1485010242e+000
 1.0604430826e+000	 1.3921064861e+000	-2.1438920582e+000
 1.0460414182e+000	 1.4029602102e+000	-2.1375803265e+000
 1.0315395467e+000	 1.4136570177e+000	-2.1294200053e+000
 1.0169400169e+000	 1.4241955631e+000	-2.1192664732e+000
 1.0022454009e+000	 1.4345745559e+000	-2.1069766067e+000
 9.8745829198e-001	 1.4447927608e+000	-2.0924090747e+000
 9.7258130376e-001	 1.4548489982e+000	-2.0754246299e+000
 9.5761706841e-001	 1.4647421446e+000	-2.0558863989e+000
 8.2081463007e-001	 1.2554932668e+000	-2.2806162927e+000
 8.0791563023e-001	 1.2638323996e+000	-2.2623760473e+000
 7.9494640225e-001	 1.2720299594e+000	-2.2425681609e+000
 7.8190924254e-001	 1.2800851286e+000	-2.2211850641e+000
 7.6880645833e-001	 1.2879971388e+000	-2.1982209674e+000
 7.5564036645e-001	 1.2957652706e+000	-2.1736719543e+000
 7.4241329201e-001	 1.3033888536e+000	-2.1475360700e+000
 7.2912756712e-001	 1.3108672667e+000	-2.1198134080e+000
 7.1578552965e-001	 1.3181999376e+000	-2.0905061922e+000
 7.0238952194e-001	 1.3253863434e+000	-2.0596188555e+000
 6.8894188956e-001	 1.3324260102e+000	-2.0271581138e+000
 8.3449487390e-001	 1.2764181546e+000	-2.1940065898e+000
 8.2138089073e-001	 1.2848962730e+000	-2.1776081684e+000
 8.0819550895e-001	 1.2932304587e+000	-2.1594229594e+000
 7.9494106324e-001	 1.3014198807e+000	-2.1394346083e+000
 7.8161989930e-001	 1.3094637578e+000	-2.1176287692e+000
 7.6823437256e-001	 1.3173613584e+000	-2.0939932098e+000
 7.5478684687e-001	 1.3251120012e+000	-2.0685179124e+000
 7.4127969323e-001	 1.3327150544e+000	-2.0411951719e+000
 7.2771528847e-001	 1.3401699365e+000	-2.0120196891e+000
 7.1409601397e-001	 1.3474761158e+000	-1.9809886596e+000
 7.0042425438e-001	 1.3546331104e+000	-1.9481018583e+000
 8.4817511773e-001	 1.2973430424e+000	-2.1231939258e+000
 8.3484615123e-001	 1.3059601463e+000	-2.1084000967e+000
 8.2144461565e-001	 1.3144309580e+000	-2.0916048520e+000
 8.0797288395e-001	 1.3227546328e+000	-2.0727829336e+000
 7.9443334027e-001	 1.3309303768e+000	-2.0519113166e+000
 7.8082837866e-001	 1.3389574463e+000	-2.0289693264e+000
 7.6716040174e-001	 1.3468351487e+000	-2.0039387532e+000
 7.5343181935e-001	 1.3545628422e+000	-1.9768039608e+000
 7.3964504730e-001	 1.3621399355e+000	-1.9475519918e+000
 7.2580250600e-001	 1.3695658882e+000	-1.9161726673e+000
 7.1190661921e-001	 1.3768402106e+000	-1.8826586820e+000
 8.6185536157e-001	 1.3182679302e+000	-2.0675698672e+000
 8.4831141173e-001	 1.3270240196e+000	-2.0541624068e+000
 8.3469372236e-001	 1.3356314573e+000	-2.0385432928e+000
 8.2100470466e-001	 1.3440893850e+000	-2.0206782330e+000
 8.0724678124e-001	 1.3523969957e+000	-2.0005353887e+000
 7.9342238477e-001	 1.3605535341e+000	-1.9780855058e+000
 7.7953395660e-001	 1.3685582963e+000	-1.9533020407e+000
 7.6558394547e-001	 1.3764106300e+000	-1.9261612825e+000
 7.5157480613e-001	 1.3841099345e+000	-1.8966424692e+000
 7.3750899804e-001	 1.3916556606e+000	-1.8647278994e+000
 7.2338898403e-001	 1.3990473107e+000	-1.8304030376e+000
 8.7553560540e-001	 1.3391928179e+000	-2.0265442742e+000
 8.6177667223e-001	 1.3480878930e+000	-2.0143231290e+000
 8.4794282906e-001	 1.3568319566e+000	-1.9996843682e+000
 8.3403652537e-001	 1.3654241371e+000	-1.9825845233e+000
 8.2006022222e-001	 1.3738636147e+000	-1.9629827960e+000
 8.0601639088e-001	 1.3821496220e+000	-1.9408412029e+000
 7.9190751147e-001	 1.3902814439e+000	-1.9161247148e+000
 7.7773607159e-001	 1.3982584178e+000	-1.8888013908e+000
 7.6350456496e-001	 1.4060799334e+000	-1.8588425075e+000
 7.4921549007e-001	 1.4137454330e+000	-1.8262226816e+000
 7.3487134886e-001	 1.4212544109e+000	-1.7909199871e+000
 8.8921584923e-001	 1.3601177057e+000	-1.9995438939e+000
 8.7524193274e-001	 1.3691517663e+000	-1.9883264070e+000
 8.6119193577e-001	 1.3780324560e+000	-1.9744895180e+000
 8.4706834608e-001	 1.3867588893e+000	-1.9579804285e+000
 8.3287366319e-001	 1.3953302337e+000	-1.9387492234e+000
 8.1861039699e-001	 1.4037457098e+000	-1.9167490298e+000
 8.0428106634e-001	 1.4120045914e+000	-1.8919361692e+000
 7.8988819771e-001	 1.4201062055e+000	-1.8642703053e+000
 7.7543432378e-001	 1.4280499324e+000	-1.8337145851e+000
 7.6092198210e-001	 1.4358352054e+000	-1.8002357743e+000
 7.4635371369e-001	 1.4434615111e+000	-1.7638043852e+000
 9.0289609307e-001	 1.3810425935e+000	-1.9860110801e+000
 8.8870719324e-001	 1.3902156396e+000	-1.9756312767e+000
 8.7444104247e-001	 1.3992329553e+000	-1.9624343720e+000
 8.6010016679e-001	 1.4080936414e+000	-1.9463580729e+000
 8.4568710416e-001	 1.4167968527e+000	-1.9273431798e+000
 8.3120440310e-001	 1.4253417977e+000	-1.9053337587e+000
 8.1665462121e-001	 1.4337277390e+000	-1.8802773082e+000
 8.0204032383e-001	 1.4419539933e+000	-1.8521249199e+000
 7.8736408261e-001	 1.4500199313e+000	-1.8208314332e+000
 7.7262847414e-001	 1.4579249778e+000	-1.7863555827e+000
 7.5783607852e-001	 1.4656686112e+000	-1.7486601382e+000
 9.1657633690e-001	 1.4019674813e+000	-1.9854026297e+000
 9.0217245375e-001	 1.4112795129e+000	-1.9757105552e+000
 8.8769014918e-001	 1.4204334546e+000	-1.9630076908e+000
 8.7313198750e-001	 1.4294283936e+000	-1.9472220737e+000
 8.5850054514e-001	 1.4382634717e+000	-1.9282850405e+000
 8.4379840921e-001	 1.4469378855e+000	-1.9061314148e+000
 8.2902817608e-001	 1.4554508865e+000	-1.8806996873e+000
 8.1419244995e-001	 1.4638017811e+000	-1.8519321913e+000
 7.9929384144e-001	 1.4719899303e+000	-1.8197752699e+000
 7.8433496617e-001	 1.4800147502e+000	-1.7841794365e+000
 7.6931844334e-001	 1.4878757114e+000	-1.7450995279e+000
 9.3025658074e-001	 1.4228923691e+000	-1.9971887198e+000
 9.1563771425e-001	 1.4323433863e+000	-1.9880498271e+000
 9.0093925588e-001	 1.4416339539e+000	-1.9757104008e+000
 8.8616380821e-001	 1.4507631457e+000	-1.9600886221e+000
 8.7131398611e-001	 1.4597300906e+000	-1.9411061752e+000
 8.5639241532e-001	 1.4685339734e+000	-1.9186884484e+000
 8.4140173095e-001	 1.4771740341e+000	-1.8927647305e+000
 8.2634457607e-001	 1.4856495689e+000	-1.8632683992e+000
 8.1122360028e-001	 1.4939599293e+000	-1.8301371029e+000
 7.9604145821e-001	 1.5021045226e+000	-1.7933129342e+000
 7.8080080817e-001	 1.5100828116e+000	-1.7527425959e+000
 9.4393682457e-001	 1.4438172569e+000	-2.0208519386e+000
 9.2910297476e-001	 1.4534072596e+000	-2.0121465200e+000
 9.1418836259e-001	 1.4628344533e+000	-2.0000547122e+000
 8.9919562892e-001	 1.4720978979e+000	-1.9844846452e+000
 8.8412742709e-001	 1.4811967096e+000	-1.9653481508e+000
 8.6898642143e-001	 1.4901300612e+000	-1.9425609801e+000
 8.5377528582e-001	 1.4988971817e+000	-1.9160430148e+000
 8.3849670220e-001	 1.5074973567e+000	-1.8857184705e+000
 8.2315335911e-001	 1.5159299282e+000	-1.8515160925e+000
 8.0774795024e-001	 1.5241942950e+000	-1.8133693433e+000
 7.9228317300e-001	 1.5322899118e+000	-1.7712165815e+000
 9.5761706841e-001	 1.4647421446e+000	-2.0558863989e+000
 9.4256823526e-001	 1.4744711329e+000	-2.0475090575e+000
 9.2743746930e-001	 1.4840349526e+000	-2.0355633135e+000
 9.1222744964e-001	 1.4934326500e+000	-2.0199470387e+000
 8.9694086807e-001	 1.5026633286e+000	-2.0005620033e+000
 8.8158042754e-001	 1.5117261490e+000	-1.9773141093e+000
 8.6614884069e-001	 1.5206203292e+000	-1.9501136165e+000
 8.5064882832e-001	 1.5293451444e+000	-1.9188753619e+000
 8.3508311794e-001	 1.5378999272e+000	-1.8835189697e+000
 8.1945444228e-001	 1.5462840674e+000	-1.8439690532e+000
 8.0376553783e-001	 1.5544970119e+000	-1.8001554072e+000
 6.8894188956e-001	 1.3324260102e+000	-2.0271581138e+000
 6.7544498003e-001	 1.3393185129e+000	-2.0076127772e+000
 6.6190114160e-001	 1.3460634750e+000	-1.9814418194e+000
 6.4831272205e-001	 1.3526605688e+000	-1.9487150696e+000
 6.3468206740e-001	 1.3591095148e+000	-1.9095087999e+000
 6.2101152078e-001	 1.3654100816e+000	-1.8728616837e+000
 6.0730342120e-001	 1.3715620856e+000	-1.8507206492e+000
 5.9356010237e-001	 1.3775653904e+000	-1.8210433691e+000
 5.7978389160e-001	 1.3834199070e+000	-1.7841359682e+000
 5.6597710858e-001	 1.3891255928e+000	-1.7403056651e+000
 5.5214206433e-001	 1.3946824516e+000	-1.6898601866e+000
 7.0042425438e-001	 1.3546331104e+000	-1.9481018583e+000
 6.8670239636e-001	 1.3616404881e+000	-1.9296275298e+000
 6.7293282730e-001	 1.3684978662e+000	-1.9050502301e+000
 6.5911793409e-001	 1.3752049116e+000	-1.8744230049e+000
 6.4526010186e-001	 1.3817613401e+000	-1.8378050635e+000
 6.3136171280e-001	 1.3881669163e+000	-1.7952617489e+000
 6.1742514488e-001	 1.3944214536e+000	-1.7627076403e+000
 6.0345277075e-001	 1.4005248136e+000	-1.7367334183e+000
 5.8944695646e-001	 1.4064769054e+000	-1.7040023774e+000
 5.7541006039e-001	 1.4122776860e+000	-1.6648228191e+000
 5.6134443207e-001	 1.4179271591e+000	-1.6195030600e+000
 7.1190661921e-001	 1.3768402106e+000	-1.8826586820e+000
 6.9795981269e-001	 1.3839624633e+000	-1.8647214918e+000
 6.8396451299e-001	 1.3909322575e+000	-1.8411811799e+000
 6.6992314612e-001	 1.3977492544e+000	-1.8120741610e+000
 6.5583813632e-001	 1.4044131653e+000	-1.7774427467e+000
 6.4171190481e-001	 1.4109237510e+000	-1.7373351415e+000
 6.2754686857e-001	 1.4172808217e+000	-1.6918054299e+000
 6.1334543912e-001	 1.4234842367e+000	-1.6633071645e+000
 5.9911002132e-001	 1.4295339039e+000	-1.6335083886e+000
 5.8484301220e-001	 1.4354297792e+000	-1.5977162795e+000
 5.7054679981e-001	 1.4411718666e+000	-1.5562410066e+000
 7.2338898403e-001	 1.3990473107e+000	-1.8304030376e+000
 7.0921722903e-001	 1.4062844385e+000	-1.8125023210e+000
 6.9499619869e-001	 1.4133666487e+000	-1.7894765283e+000
 6.8072835815e-001	 1.4202935972e+000	-1.7613455713e+000
 6.6641617078e-001	 1.4270649905e+000	-1.7281350049e+000
 6.5206209682e-001	 1.4336805857e+000	-1.6898760485e+000
 6.3766859226e-001	 1.4401401898e+000	-1.6466055989e+000
 6.2323810749e-001	 1.4464436599e+000	-1.6014827725e+000
 6.0877308618e-001	 1.4525909023e+000	-1.5733860339e+000
 5.9427596401e-001	 1.4585818724e+000	-1.5397327322e+000
 5.7974916755e-001	 1.4644165742e+000	-1.5008361519e+000
 7.3487134886e-001	 1.4212544109e+000	-1.7909199871e+000
 7.2047464536e-001	 1.4286064137e+000	-1.7725866055e+000
 7.0602788438e-001	 1.4358010400e+000	-1.7495853269e+000
 6.9153357019e-001	 1.4428379400e+000	-1.7219196644e+000
 6.7699420523e-001	 1.4497168158e+000	-1.6895985336e+000
 6.6241228884e-001	 1.4564374204e+000	-1.6526362987e+000
 6.4779031595e-001	 1.4629995579e+000	-1.6110528106e+000
 6.3313077587e-001	 1.4694030831e+000	-1.5648734350e+000
 6.1843615104e-001	 1.4756479008e+000	-1.5243629115e+000
 6.0370891582e-001	 1.4817339656e+000	-1.4916123041e+000
 5.8895153529e-001	 1.4876612817e+000	-1.4540418856e+000
 7.4635371369e-001	 1.4434615111e+000	-1.7638043852e+000
 7.3173206170e-001	 1.4509283889e+000	-1.7445991776e+000
 7.1705957007e-001	 1.4582354312e+000	-1.7211632661e+000
 7.0233878223e-001	 1.4653822828e+000	-1.6934838487e+000
 6.8757223969e-001	 1.4723686410e+000	-1.6615532962e+000
 6.7276248085e-001	 1.4791942551e+000	-1.6253692243e+000
 6.5791203963e-001	 1.4858589260e+000	-1.5849345571e+000
 6.4302344424e-001	 1.4923625062e+000	-1.5402575803e+000
 6.2809921590e-001	 1.4987048992e+000	-1.4913519850e+000
 6.1314186763e-001	 1.5048860588e+000	-1.4540890671e+000
 5.9815390303e-001	 1.5109059892e+000	-1.4166035339e+000
 7.5783607852e-001	 1.4656686112e+000	-1.7486601382e+000
 7.4298947803e-001	 1.4732503641e+000	-1.7281724882e+000
 7.2809125577e-001	 1.4806698225e+000	-1.7038721725e+000
 7.1314399426e-001	 1.4879266257e+000	-1.6757301353e+000
 6.9815027415e-001	 1.4950204663e+000	-1.6437222759e+000
 6.8311267287e-001	 1.5019510898e+000	-1.6078295467e+000
 6.6803376332e-001	 1.5087182941e+000	-1.5680380417e+000
 6.5291611261e-001	 1.5153219294e+000	-1.5243390750e+000
 6.3776228076e-001	 1.5217618977e+000	-1.4767292498e+000
 6.2257481944e-001	 1.5280381520e+000	-1.4278914969e+000
 6.0735627077e-001	 1.5341506967e+000	-1.3892589701e+000
 7.6931844334e-001	 1.4878757114e+000	-1.7450995279e+000
 7.5424689437e-001	 1.4955723393e+000	-1.7229460392e+000
 7.3912294146e-001	 1.5031042137e+000	-1.6973795510e+000
 7.2394920630e-001	 1.5104709685e+000	-1.6683547947e+000
 7.0872830861e-001	 1.5176722915e+000	-1.6358312510e+000
 6.9346286488e-001	 1.5247079245e+000	-1.5997732730e+000
 6.7815548701e-001	 1.5315776622e+000	-1.5601502004e+000
 6.6280878099e-001	 1.5382813526e+000	-1.5169364628e+000
 6.4742534562e-001	 1.5448188961e+000	-1.4701116742e+000
 6.3200777125e-001	 1.5511902453e+000	-1.4196607158e+000
 6.1655863851e-001	 1.5573954043e+000	-1.3727391709e+000
 7.8080080817e-001	 1.5100828116e+000	-1.7527425959e+000
 7.6550431070e-001	 1.5178943146e+000	-1.7285658646e+000
 7.5015462716e-001	 1.5255386050e+000	-1.7013581667e+000
 7.3475441833e-001	 1.5330153113e+000	-1.6710580432e+000
 7.1930634307e-001	 1.5403241168e+000	-1.6376085888e+000
 7.0381305690e-001	 1.5474647592e+000	-1.6009576014e+000
 6.8827721070e-001	 1.5544370303e+000	-1.5610577217e+000
 6.7270144936e-001	 1.5612407758e+000	-1.5178665615e+000
 6.5708841048e-001	 1.5678758946e+000	-1.4713468235e+000
 6.4144072306e-001	 1.5743423385e+000	-1.4214664087e+000
 6.2576100625e-001	 1.5806401118e+000	-1.3681985138e+000
 7.9228317300e-001	 1.5322899118e+000	-1.7712165815e+000
 7.7676172704e-001	 1.5402162898e+000	-1.7446840568e+000
 7.6118631286e-001	 1.5479729962e+000	-1.7154856644e+000
 7.4555963037e-001	 1.5555596541e+000	-1.6835437573e+000
 7.2988437753e-001	 1.5629759420e+000	-1.6487850583e+000
 7.1416324891e-001	 1.5702215939e+000	-1.6111408349e+000
 6.9839893439e-001	 1.5772963984e+000	-1.5705470644e+000
 6.8259411774e-001	 1.5842001989e+000	-1.5269445881e+000
 6.6675147534e-001	 1.5909328930e+000	-1.4802792552e+000
 6.5087367487e-001	 1.5974944317e+000	-1.4305020558e+000
 6.3496337399e-001	 1.6038848193e+000	-1.3775692423e+000
 8.0376553783e-001	 1.5544970119e+000	-1.8001554072e+000
 7.8801914338e-001	 1.5625382650e+000	-1.7709583348e+000
 7.7221799855e-001	 1.5704073875e+000	-1.7394442197e+000
 7.5636484241e-001	 1.5781039969e+000	-1.7055192121e+000
 7.4046241198e-001	 1.5856277673e+000	-1.6690936585e+000
 7.2451344093e-001	 1.5929784285e+000	-1.6300823023e+000
 7.0852065808e-001	 1.6001557665e+000	-1.5884044743e+000
 6.9248678611e-001	 1.6071596221e+000	-1.5439842732e+000
 6.7641454021e-001	 1.6139898915e+000	-1.4967507338e+000
 6.6030662669e-001	 1.6206465249e+000	-1.4466379852e+000
 6.4416574173e-001	 1.6271295268e+000	-1.3935853967e+000
 5.5214206433e-001	 1.3946824516e+000	-1.6898601866e+000
 5.3828106007e-001	 1.4000905329e+000	-1.6741259261e+000
 5.2439638615e-001	 1.4053499316e+000	-1.6534981390e+000
 5.1049032095e-001	 1.4104607872e+000	-1.6281548962e+000
 4.9656512994e-001	 1.4154232836e+000	-1.5982729559e+000
 4.8262306456e-001	 1.4202376483e+000	-1.5640273717e+000
 4.6866636131e-001	 1.4249041518e+000	-1.5255911152e+000
 4.5469724075e-001	 1.4294231071e+000	-1.4831347124e+000
 4.4071790656e-001	 1.4337948692e+000	-1.4368258974e+000
 4.2673054465e-001	 1.4380198337e+000	-1.3868292803e+000
 4.1273732227e-001	 1.4420984373e+000	-1.3333060331e+000
 5.6134443207e-001	 1.4179271591e+000	-1.6195030600e+000
 5.4725241107e-001	 1.4234253751e+000	-1.6033129456e+000
 5.3313632591e-001	 1.4287724304e+000	-1.5817985388e+000
 5.1899849297e-001	 1.4339684670e+000	-1.5551727149e+000
 5.0484121544e-001	 1.4390136716e+000	-1.5236468703e+000
 4.9066678230e-001	 1.4439082757e+000	-1.4874304848e+000
 4.7647746733e-001	 1.4486525543e+000	-1.4467307003e+000
 4.6227552809e-001	 1.4532468256e+000	-1.4017519150e+000
 4.4806320500e-001	 1.4576914503e+000	-1.3526953957e+000
 4.3384272040e-001	 1.4619868310e+000	-1.2997589060e+000
 4.1961627764e-001	 1.4661334112e+000	-1.2431363539e+000
 5.7054679981e-001	 1.4411718666e+000	-1.5562410066e+000
 5.5622376207e-001	 1.4467602173e+000	-1.5399533516e+000
 5.4187626568e-001	 1.4521949293e+000	-1.5179216438e+000
 5.2750666498e-001	 1.4574761468e+000	-1.4903938923e+000
 5.1311730094e-001	 1.4626040597e+000	-1.4576164461e+000
 4.9871050005e-001	 1.4675789032e+000	-1.4198335107e+000
 4.8428857336e-001	 1.4724009568e+000	-1.3772866823e+000
 4.6985381544e-001	 1.4770705440e+000	-1.3302144993e+000
 4.5540850345e-001	 1.4815880315e+000	-1.2788520120e+000
 4.4095489614e-001	 1.4859538282e+000	-1.2234303722e+000
 4.2649523301e-001	 1.4901683852e+000	-1.1641764408e+000
 5.7974916755e-001	 1.4644165742e+000	-1.5008361519e+000
 5.6519511307e-001	 1.4700950595e+000	-1.4847466238e+000
 5.5061620545e-001	 1.4756174281e+000	-1.4625038098e+000
 5.3601483700e-001	 1.4809838265e+000	-1.4343912222e+000
 5.2139338644e-001	 1.4861944478e+000	-1.4006905173e+000
 5.0675421779e-001	 1.4912495307e+000	-1.3616809660e+000
 4.9209967938e-001	 1.4961493594e+000	-1.3176389424e+000
 4.7743210279e-001	 1.5008942625e+000	-1.2688374320e+000
 4.6275380189e-001	 1.5054846126e+000	-1.2155455596e+000
 4.4806707189e-001	 1.5099208254e+000	-1.1580281375e+000
 4.3337418838e-001	 1.5142033591e+000	-1.0965452349e+000
 5.8895153529e-001	 1.4876612817e+000	-1.4540418856e+000
 5.7416646408e-001	 1.4934299018e+000	-1.4383862103e+000
 5.5935614522e-001	 1.4990399270e+000	-1.4161780953e+000
 5.4452300902e-001	 1.5044915063e+000	-1.3877369650e+000
 5.2966947193e-001	 1.5097848358e+000	-1.3533801767e+000
 5.1479793553e-001	 1.5149201581e+000	-1.3134224445e+000
 4.9991078540e-001	 1.5198977619e+000	-1.2681752824e+000
 4.8501039013e-001	 1.5247179809e+000	-1.2179464685e+000
 4.7009910033e-001	 1.5293811938e+000	-1.1630395296e+000
 4.5517924763e-001	 1.5338878227e+000	-1.1037532488e+000
 4.4025314375e-001	 1.5382383331e+000	-1.0403811955e+000
 5.9815390303e-001	 1.5109059892e+000	-1.4166035339e+000
 5.8313781508e-001	 1.5167647440e+000	-1.4015599910e+000
 5.6809608499e-001	 1.5224624259e+000	-1.3795745154e+000
 5.5303118103e-001	 1.5279991861e+000	-1.3510028892e+000
 5.3794555743e-001	 1.5333752239e+000	-1.3161986020e+000
 5.2284165328e-001	 1.5385907856e+000	-1.2755122267e+000
 5.0772189142e-001	 1.5436461644e+000	-1.2292908161e+000
 4.9258867748e-001	 1.5485416994e+000	-1.1778773224e+000
 4.7744439878e-001	 1.5532777749e+000	-1.1216100388e+000
 4.6229142338e-001	 1.5578548199e+000	-1.0608220654e+000
 4.4713209913e-001	 1.5622733070e+000	-9.9584079897e-001
 6.0735627077e-001	 1.5341506967e+000	-1.3892589701e+000
 5.9210916608e-001	 1.5400995862e+000	-1.3749507004e+000
 5.7683602476e-001	 1.5458849247e+000	-1.3533202721e+000
 5.6153935305e-001	 1.5515068659e+000	-1.3247603083e+000
 5.4622164294e-001	 1.5569656119e+000	-1.2896608983e+000
 5.3088537102e-001	 1.5622614131e+000	-1.2484089251e+000
 5.1553299745e-001	 1.5673945670e+000	-1.2013874149e+000
 5.0016696483e-001	 1.5723654179e+000	-1.1489749113e+000
 4.8478969722e-001	 1.5771743561e+000	-1.0915448734e+000
 4.6940359912e-001	 1.5818218171e+000	-1.0294650986e+000
 4.5401105450e-001	 1.5863082810e+000	-9.6309717322e-001
 6.1655863851e-001	 1.5573954043e+000	-1.3727391709e+000
 6.0108051709e-001	 1.5634344284e+000	-1.3592363104e+000
 5.8557596453e-001	 1.5693074236e+000	-1.3380399645e+000
 5.7004752507e-001	 1.5750145457e+000	-1.3095801151e+000
 5.5449772844e-001	 1.5805560000e+000	-1.2742839540e+000
 5.3892908877e-001	 1.5859320406e+000	-1.2325751605e+000
 5.2334410347e-001	 1.5911429695e+000	-1.1848732036e+000
 5.0774525217e-001	 1.5961891363e+000	-1.1315926702e+000
 4.9213499566e-001	 1.6010709372e+000	-1.0731426179e+000
 4.7651577487e-001	 1.6057888143e+000	-1.0099259563e+000
 4.6089000987e-001	 1.6103432550e+000	-9.4233885555e-001
 6.2576100625e-001	 1.5806401118e+000	-1.3681985138e+000
 6.1005186809e-001	 1.5867692706e+000	-1.3550903816e+000
 5.9431590430e-001	 1.5927299224e+000	-1.3343557800e+000
 5.7855569709e-001	 1.5985222255e+000	-1.3060328124e+000
 5.6277381394e-001	 1.6041463881e+000	-1.2705863096e+000
 5.4697280651e-001	 1.6096026680e+000	-1.2284772675e+000
 5.3115520949e-001	 1.6148913720e+000	-1.1801621010e+000
 5.1532353952e-001	 1.6200128548e+000	-1.1260919247e+000
 4.9948029411e-001	 1.6249675184e+000	-1.0667118612e+000
 4.8362795061e-001	 1.6297558116e+000	-1.0024603791e+000
 4.6776896524e-001	 1.6343782289e+000	-9.3376865937e-001
 6.3496337399e-001	 1.6038848193e+000	-1.3775692423e+000
 6.1902321909e-001	 1.6101041128e+000	-1.3631823823e+000
 6.0305584408e-001	 1.6161524213e+000	-1.3428876692e+000
 5.8706386911e-001	 1.6220299053e+000	-1.3146885412e+000
 5.7104989944e-001	 1.6277367761e+000	-1.2790880380e+000
 5.5501652426e-001	 1.6332732955e+000	-1.2365850254e+000
 5.3896631552e-001	 1.6386397745e+000	-1.1876733994e+000
 5.2290182687e-001	 1.6438365732e+000	-1.1328413196e+000
 5.0682559255e-001	 1.6488640995e+000	-1.0725704719e+000
 4.9074012636e-001	 1.6537228088e+000	-1.0073353619e+000
 4.7464792061e-001	 1.6584132029e+000	-9.3760263978e-001
 6.4416574173e-001	 1.6271295268e+000	-1.3935853967e+000
 6.2799457010e-001	 1.6334389551e+000	-1.3840024286e+000
 6.1179578385e-001	 1.6395749202e+000	-1.3642535057e+000
 5.9557204113e-001	 1.6455375851e+000	-1.3361171068e+000
 5.7932598494e-001	 1.6513271642e+000	-1.3003106354e+000
 5.6306024200e-001	 1.6569439230e+000	-1.2573714120e+000
 5.4677742155e-001	 1.6623881771e+000	-1.2078313811e+000
 5.3048011422e-001	 1.6676602917e+000	-1.1522162960e+000
 5.1417089100e-001	 1.6727606807e+000	-1.0910449349e+000
 4.9785230211e-001	 1.6776898060e+000	-1.0248283496e+000
 4.8152687598e-001	 1.6824481768e+000	-9.5406914770e-001
 4.1273732227e-001	 1.4420984373e+000	-1.3333060331e+000
 3.9874038711e-001	 1.4460311558e+000	-1.3298807579e+000
 3.8474186652e-001	 1.4498185045e+000	-1.3216501358e+000
 3.7074386670e-001	 1.4534610367e+000	-1.3088170557e+000
 3.5674847188e-001	 1.4569593432e+000	-1.2915803492e+000
 3.4275774362e-001	 1.4603140515e+000	-1.2701344980e+000
 3.2877372006e-001	 1.4635258252e+000	-1.2446693592e+000
 3.1479841525e-001	 1.4665953626e+000	-1.2153699095e+000
 3.0083381848e-001	 1.4695233968e+000	-1.1824160089e+000
 2.8688189364e-001	 1.4723106938e+000	-1.1459821823e+000
 2.7294457862e-001	 1.4749580526e+000	-1.1062374207e+000
 4.1961627764e-001	 1.4661334112e+000	-1.2431363539e+000
 4.0538606023e-001	 1.4701316751e+000	-1.2389301155e+000
 3.9115423097e-001	 1.4739821463e+000	-1.2295845430e+000
 3.7692293114e-001	 1.4776853873e+000	-1.2153257990e+000
 3.6269427974e-001	 1.4812419989e+000	-1.1963757856e+000
 3.4847037268e-001	 1.4846526191e+000	-1.1729518223e+000
 3.3425328206e-001	 1.4879179223e+000	-1.1452663437e+000
 3.2004505551e-001	 1.4910386187e+000	-1.1135266178e+000
 3.0584771546e-001	 1.4940154534e+000	-1.0779344835e+000
 2.9166325853e-001	 1.4968492054e+000	-1.0386861094e+000
 2.7749365493e-001	 1.4995406868e+000	-9.9597177155e-001
 4.2649523301e-001	 1.4901683852e+000	-1.1641764408e+000
 4.1203173334e-001	 1.4942321944e+000	-1.1590702782e+000
 3.9756659541e-001	 1.4981457880e+000	-1.1485133103e+000
 3.8310199559e-001	 1.5019097379e+000	-1.1327553216e+000
 3.6864008761e-001	 1.5055246547e+000	-1.1120416061e+000
 3.5418300174e-001	 1.5089911866e+000	-1.0866126163e+000
 3.3973284406e-001	 1.5123100193e+000	-1.0567036333e+000
 3.2529169576e-001	 1.5154818747e+000	-1.0225444583e+000
 3.1086161243e-001	 1.5185075100e+000	-9.8435912509e-001
 2.9644462343e-001	 1.5213877169e+000	-9.4236563456e-001
 2.8204273124e-001	 1.5241233210e+000	-8.9677571004e-001
 4.3337418838e-001	 1.5142033591e+000	-1.0965452349e+000
 4.1867740646e-001	 1.5183327136e+000	-1.0903831298e+000
 4.0397895985e-001	 1.5223094298e+000	-1.0784807515e+000
 3.8928106004e-001	 1.5261340886e+000	-1.0611118818e+000
 3.7458589548e-001	 1.5298073104e+000	-1.0385455559e+000
 3.5989563080e-001	 1.5333297541e+000	-1.0110456823e+000
 3.4521240607e-001	 1.5367021164e+000	-9.7887068465e-001
 3.3053833602e-001	 1.5399251308e+000	-9.4227316668e-001
 3.1587550941e-001	 1.5429995666e+000	-9.0149959930e-001
 3.0122598832e-001	 1.5459262285e+000	-8.5679003097e-001
 2.8659180755e-001	 1.5487059552e+000	-8.0837782066e-001
 4.4025314375e-001	 1.5382383331e+000	-1.0403811955e+000
 4.2532307958e-001	 1.5424332329e+000	-1.0329712339e+000
 4.1039132430e-001	 1.5464730715e+000	-1.0195530643e+000
 3.9546012448e-001	 1.5503584392e+000	-1.0004248684e+000
 3.8053170334e-001	 1.5540899661e+000	-9.7587979922e-001
 3.6560825986e-001	 1.5576683217e+000	-9.4620557054e-001
 3.5069196807e-001	 1.5610942135e+000	-9.1168407122e-001
 3.3578497627e-001	 1.5643683868e+000	-8.7259100278e-001
 3.2088940638e-001	 1.5674916232e+000	-8.2919554134e-001
 3.0600735321e-001	 1.5704647400e+000	-7.8176002382e-001
 2.9114088386e-001	 1.5732885894e+000	-7.3053965826e-001
 4.4713209913e-001	 1.5622733070e+000	-9.9584079897e-001
 4.3196875270e-001	 1.5665337522e+000	-9.8695624267e-001
 4.1680368874e-001	 1.5706367133e+000	-9.7181664678e-001
 4.0163918893e-001	 1.5745827898e+000	-9.5074502206e-001
 3.8647751121e-001	 1.5783726218e+000	-9.2405904122e-001
 3.7132088892e-001	 1.5820068892e+000	-8.9207059898e-001
 3.5617153007e-001	 1.5854863106e+000	-8.5508539737e-001
 3.4103161652e-001	 1.5888116429e+000	-8.1340255646e-001
 3.2590330335e-001	 1.5919836798e+000	-7.6731425067e-001
 3.1078871811e-001	 1.5950032516e+000	-7.1710537083e-001
 2.9568996017e-001	 1.5978712237e+000	-6.6305321181e-001
 4.5401105450e-001	 1.5863082810e+000	-9.6309717322e-001
 4.3861442582e-001	 1.5906342714e+000	-9.5247745105e-001
 4.2321605318e-001	 1.5948003550e+000	-9.3537656755e-001
 4.0781825337e-001	 1.5988071404e+000	-9.1214281714e-001
 3.9242331907e-001	 1.6026552775e+000	-8.8311882010e-001
 3.7703351798e-001	 1.6063454567e+000	-8.4864105235e-001
 3.6165109207e-001	 1.6098784077e+000	-8.0903940203e-001
 3.4627825678e-001	 1.6132548989e+000	-7.6463675297e-001
 3.3091720033e-001	 1.6164757364e+000	-7.1574859522e-001
 3.1557008300e-001	 1.6195417632e+000	-6.6268266283e-001
 3.0023903648e-001	 1.6224538579e+000	-6.0573859882e-001
 4.6089000987e-001	 1.6103432550e+000	-9.4233885555e-001
 4.4526009894e-001	 1.6147347907e+000	-9.2969047992e-001
 4.2962841762e-001	 1.6189639967e+000	-9.1035517204e-001
 4.1399731782e-001	 1.6230314910e+000	-8.8470698952e-001
 3.9836912694e-001	 1.6269379333e+000	-8.5311395251e-001
 3.8274614704e-001	 1.6306840242e+000	-8.1593754299e-001
 3.6713065407e-001	 1.6342705048e+000	-7.7353223224e-001
 3.5152489703e-001	 1.6376981549e+000	-7.2624503685e-001
 3.3593109730e-001	 1.6409677930e+000	-6.7441510328e-001
 3.2035144789e-001	 1.6440802747e+000	-6.1837332131e-001
 3.0478811279e-001	 1.6470364921e+000	-5.5844196615e-001
 4.6776896524e-001	 1.6343782289e+000	-9.3376865937e-001
 4.5190577206e-001	 1.6388353100e+000	-9.1876607576e-001
 4.3604078206e-001	 1.6431276385e+000	-8.9689081229e-001
 4.2017638226e-001	 1.6472558416e+000	-8.6854319356e-001
 4.0431493480e-001	 1.6512205890e+000	-8.3411711599e-001
 3.8845877610e-001	 1.6550225918e+000	-7.9399951617e-001
 3.7261021607e-001	 1.6586626019e+000	-7.4856986903e-001
 3.5677153728e-001	 1.6621414110e+000	-6.9819971606e-001
 3.4094499428e-001	 1.6654598497e+000	-6.4325222378e-001
 3.2513281279e-001	 1.6686187863e+000	-5.8408177262e-001
 3.0933718910e-001	 1.6716191263e+000	-5.2103357615e-001
 4.7464792061e-001	 1.6584132029e+000	-9.3760263978e-001
 4.5855144518e-001	 1.6629358292e+000	-9.1988901456e-001
 4.4245314651e-001	 1.6672912802e+000	-8.9513668702e-001
 4.2635544671e-001	 1.6714801922e+000	-8.6377277624e-001
 4.1026074266e-001	 1.6755032447e+000	-8.2621755471e-001
 3.9417140516e-001	 1.6793611593e+000	-7.8288388539e-001
 3.7808977807e-001	 1.6830546990e+000	-7.3417669019e-001
 3.6201817754e-001	 1.6865846670e+000	-6.8049245020e-001
 3.4595889125e-001	 1.6899519063e+000	-6.2221873783e-001
 3.2991417768e-001	 1.6931572979e+000	-5.5973378094e-001
 3.1388626541e-001	 1.6962017605e+000	-4.9340605910e-001
 4.8152687598e-001	 1.6824481768e+000	-9.5406914770e-001
 4.6519711830e-001	 1.6870363485e+000	-9.3325709976e-001
 4.4886551095e-001	 1.6914549220e+000	-9.0525978119e-001
 4.3253451115e-001	 1.6957045429e+000	-8.7053165622e-001
 4.1620655053e-001	 1.6997859004e+000	-8.2951989613e-001
 3.9988403422e-001	 1.7036997268e+000	-7.8266378460e-001
 3.8356934007e-001	 1.7074467960e+000	-7.3039415617e-001
 3.6726481779e-001	 1.7110279231e+000	-6.7313286822e-001
 3.5097278822e-001	 1.7144439629e+000	-6.1129230644e-001
 3.3469554257e-001	 1.7176958094e+000	-5.4527492419e-001
 3.1843534172e-001	 1.7207843947e+000	-4.7547281554e-001
 2.7294457862e-001	 1.4749580526e+000	-1.1062374207e+000
 2.5902378476e-001	 1.4774663038e+000	-1.1131861565e+000
 2.4512139625e-001	 1.4798363089e+000	-1.1161142778e+000
 2.3123926969e-001	 1.4820689593e+000	-1.1152117929e+000
 2.1737923353e-001	 1.4841651757e+000	-1.1106626104e+000
 2.0354308766e-001	 1.4861259070e+000	-1.1026443918e+000
 1.8973260296e-001	 1.4879521294e+000	-1.0913284219e+000
 1.7594952092e-001	 1.4896448456e+000	-1.0768794975e+000
 1.6219555323e-001	 1.4912050840e+000	-1.0594558344e+000
 1.4847238149e-001	 1.4926338975e+000	-1.0392089910e+000
 1.3478165685e-001	 1.4939323629e+000	-1.0162838098e+000
 2.7749365493e-001	 1.4995406868e+000	-9.9597177155e-001
 2.6334084783e-001	 1.5020907422e+000	-1.0018024894e+000
 2.4920675285e-001	 1.5045002474e+000	-1.0033317342e+000
 2.3509325751e-001	 1.5067701086e+000	-1.0007650837e+000
 2.2100222075e-001	 1.5089012620e+000	-9.9430181209e-001
 2.0693547245e-001	 1.5108946721e+000	-9.8413472515e-001
 1.9289481301e-001	 1.5127513315e+000	-9.7045001536e-001
 1.7888201293e-001	 1.5144722597e+000	-9.5342713587e-001
 1.6489881245e-001	 1.5160585020e+000	-9.3323869332e-001
 1.5094692118e-001	 1.5175111291e+000	-9.1005035914e-001
 1.3702801779e-001	 1.5188312356e+000	-8.8402079879e-001
 2.8204273124e-001	 1.5241233210e+000	-8.9677571004e-001
 2.6765791091e-001	 1.5267151806e+000	-9.0121557790e-001
 2.5329210946e-001	 1.5291641858e+000	-9.0110422773e-001
 2.3894724534e-001	 1.5314712579e+000	-8.9666299058e-001
 2.2462520797e-001	 1.5336373482e+000	-8.8810665863e-001
 2.1032785724e-001	 1.5356634372e+000	-8.7564330387e-001
 1.9605702305e-001	 1.5375505337e+000	-8.5947411754e-001
 1.8181450494e-001	 1.5392996738e+000	-8.3979326963e-001
 1.6760207167e-001	 1.5409119201e+000	-8.1678778835e-001
 1.5342146087e-001	 1.5423883607e+000	-7.9063745902e-001
 1.3927437874e-001	 1.5437301083e+000	-7.6151474198e-001
 2.8659180755e-001	 1.5487059552e+000	-8.0837782066e-001
 2.7197497399e-001	 1.5513396190e+000	-8.1113169103e-001
 2.5737746606e-001	 1.5538281243e+000	-8.0911516604e-001
 2.4280123317e-001	 1.5561724073e+000	-8.0256553426e-001
 2.2824819520e-001	 1.5583734345e+000	-7.9171327864e-001
 2.1372024203e-001	 1.5604322023e+000	-7.7678187892e-001
 1.9921923310e-001	 1.5623497358e+000	-7.5798763573e-001
 1.8474699695e-001	 1.5641270879e+000	-7.3553951602e-001
 1.7030533088e-001	 1.5657653382e+000	-7.0963901941e-001
 1.5589600055e-001	 1.5672655924e+000	-6.8048006514e-001
 1.4152073968e-001	 1.5686289811e+000	-6.4824889899e-001
 2.9114088386e-001	 1.5732885894e+000	-7.3053965826e-001
 2.7629203707e-001	 1.5759640574e+000	-7.3129045617e-001
 2.6146282266e-001	 1.5784920628e+000	-7.2708175644e-001
 2.4665522099e-001	 1.5808735566e+000	-7.1816702880e-001
 2.3187118242e-001	 1.5831095208e+000	-7.0479263907e-001
 2.1711262682e-001	 1.5852009674e+000	-6.8719763548e-001
 2.0238144315e-001	 1.5871489380e+000	-6.6561355768e-001
 1.8767948897e-001	 1.5889545020e+000	-6.4026426838e-001
 1.7300859010e-001	 1.5906187562e+000	-6.1136580695e-001
 1.5837054024e-001	 1.5921428240e+000	-5.7912626478e-001
 1.4376710062e-001	 1.5935278538e+000	-5.4374568172e-001
 2.9568996017e-001	 1.5978712237e+000	-6.6305321181e-001
 2.8060910014e-001	 1.6005884958e+000	-6.6146229330e-001
 2.6554817926e-001	 1.6031560013e+000	-6.5475240605e-001
 2.5050920882e-001	 1.6055747059e+000	-6.4319344354e-001
 2.3549416964e-001	 1.6078456070e+000	-6.2704786534e-001
 2.2050501162e-001	 1.6099697326e+000	-6.0657046736e-001
 2.0554365319e-001	 1.6119481402e+000	-5.8200817621e-001
 1.9061198098e-001	 1.6137819161e+000	-5.5359986723e-001
 1.7571184932e-001	 1.6154721743e+000	-5.2157620568e-001
 1.6084507993e-001	 1.6170200556e+000	-4.8615951089e-001
 1.4601346157e-001	 1.6184267265e+000	-4.4756364261e-001
 3.0023903648e-001	 1.6224538579e+000	-6.0573859882e-001
 2.8492616322e-001	 1.6252129342e+000	-6.0144608216e-001
 2.6963353587e-001	 1.6278199398e+000	-5.9190435815e-001
 2.5436319665e-001	 1.6302758552e+000	-5.7740000502e-001
 2.3911715687e-001	 1.6325816933e+000	-5.5821180503e-001
 2.2389739641e-001	 1.6347384977e+000	-5.3461049900e-001
 2.0870586324e-001	 1.6367473423e+000	-5.0685856608e-001
 1.9354447299e-001	 1.6386093302e+000	-4.7521002852e-001
 1.7841510854e-001	 1.6403255924e+000	-4.3991028080e-001
 1.6331961962e-001	 1.6418972872e+000	-4.0119594286e-001
 1.4825982252e-001	 1.6433255992e+000	-3.5929473679e-001
 3.0478811279e-001	 1.6470364921e+000	-5.5844196615e-001
 2.8924322630e-001	 1.6498373726e+000	-5.5106703838e-001
 2.7371889247e-001	 1.6524838782e+000	-5.3834154023e-001
 2.5821718447e-001	 1.6549770045e+000	-5.2056901353e-001
 2.4274014409e-001	 1.6573177795e+000	-4.9804480986e-001
 2.2728978120e-001	 1.6595072628e+000	-4.7105582948e-001
 2.1186807329e-001	 1.6615465445e+000	-4.3988028683e-001
 1.9647696501e-001	 1.6634367443e+000	-4.0478750220e-001
 1.8111836776e-001	 1.6651790104e+000	-3.6603771917e-001
 1.6579415931e-001	 1.6667745188e+000	-3.2388194725e-001
 1.5050618346e-001	 1.6682244719e+000	-2.7856182927e-001
 3.0933718910e-001	 1.6716191263e+000	-5.2103357615e-001
 2.9356028938e-001	 1.6744618110e+000	-5.1017477702e-001
 2.7780424907e-001	 1.6771478167e+000	-4.9389260192e-001
 2.6207117230e-001	 1.6796781539e+000	-4.7250785247e-001
 2.4636313132e-001	 1.6820538658e+000	-4.4633271330e-001
 2.3068216600e-001	 1.6842760279e+000	-4.1567047557e-001
 2.1503028334e-001	 1.6863457466e+000	-3.8081528830e-001
 1.9940945702e-001	 1.6882641584e+000	-3.4205193733e-001
 1.8382162698e-001	 1.6900324285e+000	-2.9965565121e-001
 1.6826869900e-001	 1.6916517505e+000	-2.5389193369e-001
 1.5275254441e-001	 1.6931233446e+000	-2.0501642221e-001
 3.1388626541e-001	 1.6962017605e+000	-4.9340605910e-001
 2.9787735246e-001	 1.6990862494e+000	-4.7864154454e-001
 2.8188960568e-001	 1.7018117552e+000	-4.5840912354e-001
 2.6592516013e-001	 1.7043793032e+000	-4.3304717068e-001
 2.4998611855e-001	 1.7067899521e+000	-4.0288498409e-001
 2.3407455079e-001	 1.7090447930e+000	-3.6824249362e-001
 2.1819249339e-001	 1.7111449488e+000	-3.2942999834e-001
 2.0234194904e-001	 1.7130915724e+000	-2.8674793290e-001
 1.8652488620e-001	 1.7148858466e+000	-2.4048666225e-001
 1.7074323870e-001	 1.7165289821e+000	-1.9092630428e-001
 1.5499890536e-001	 1.7180222173e+000	-1.3833657974e-001
 3.1843534172e-001	 1.7207843947e+000	-4.7547281554e-001
 3.0219441554e-001	 1.7237106878e+000	-4.5636060220e-001
 2.8597496228e-001	 1.7264756937e+000	-4.3176397817e-001
 2.6977914796e-001	 1.7290804525e+000	-4.0203922067e-001
 2.5360910577e-001	 1.7315260383e+000	-3.6753303797e-001
 2.3746693559e-001	 1.7338135582e+000	-3.2858226245e-001
 2.2135470344e-001	 1.7359441509e+000	-2.8551357432e-001
 2.0527444106e-001	 1.7379189865e+000	-2.3864325568e-001
 1.8922814542e-001	 1.7397392646e+000	-1.8827697435e-001
 1.7321777839e-001	 1.7414062137e+000	-1.3470959696e-001
 1.5724526631e-001	 1.7429210901e+000	-7.8225030679e-002
 1.3478165685e-001	 1.4939323629e+000	-1.0162838098e+000
 1.2112499974e-001	 1.4951015800e+000	-1.0343689495e+000
 1.0750399961e-001	 1.4961426704e+000	-1.0503072832e+000
 9.3920214705e-002	 1.4970567769e+000	-1.0642659506e+000
 8.0375171839e-002	 1.4978450627e+000	-1.0764040564e+000
 6.6870366229e-002	 1.4985087101e+000	-1.0868726773e+000
 5.3407261333e-002	 1.4990489200e+000	-1.0958148837e+000
 3.9987288723e-002	 1.4994669109e+000	-1.1033657780e+000
 2.6611847981e-002	 1.4997639179e+000	-1.1096525456e+000
 1.3282306613e-002	 1.4999411923e+000	-1.1147945214e+000
 0.0000000000e+000	 1.5000000000e+000	-1.1189032681e+000
 1.3702801779e-001	 1.5188312356e+000	-8.8402079879e-001
 1.2314374973e-001	 1.5200199396e+000	-9.0183828913e-001
 1.0929573293e-001	 1.5210783815e+000	-9.1737889474e-001
 9.5485551614e-002	 1.5220077232e+000	-9.3080735399e-001
 8.1714758035e-002	 1.5228091470e+000	-9.4228034208e-001
 6.7984872331e-002	 1.5234838552e+000	-9.5194647789e-001
 5.4297382354e-002	 1.5240330686e+000	-9.5994634680e-001
 4.0653743534e-002	 1.5244580260e+000	-9.6641253899e-001
 2.7055378780e-002	 1.5247599832e+000	-9.7146970251e-001
 1.3503678390e-002	 1.5249402122e+000	-9.7523461040e-001
 0.0000000000e+000	 1.5250000000e+000	-9.7781624135e-001
 1.3927437874e-001	 1.5437301083e+000	-7.6151474198e-001
 1.2516249972e-001	 1.5449382993e+000	-7.7809228956e-001
 1.1108746626e-001	 1.5460140927e+000	-7.9229718614e-001
 9.7050888523e-002	 1.5469586695e+000	-8.0429202181e-001
 8.3054344230e-002	 1.5477732314e+000	-8.1423126079e-001
 6.9099378434e-002	 1.5484590004e+000	-8.2226124885e-001
 5.5187503375e-002	 1.5490172173e+000	-8.2852023724e-001
 4.1320198346e-002	 1.5494491412e+000	-8.3313842229e-001
 2.7498909579e-002	 1.5497560485e+000	-8.3623800027e-001
 1.3725050166e-002	 1.5499392320e+000	-8.3793323658e-001
 0.0000000000e+000	 1.5500000000e+000	-8.3833054874e-001
 1.4152073968e-001	 1.5686289811e+000	-6.4824889899e-001
 1.2718124971e-001	 1.5698566590e+000	-6.6263566672e-001
 1.1287919958e-001	 1.5709498039e+000	-6.7458784714e-001
 9.8616225433e-002	 1.5719096157e+000	-6.8426613560e-001
 8.4393930425e-002	 1.5727373158e+000	-6.9182300450e-001
 7.0213884536e-002	 1.5734341456e+000	-6.9740271179e-001
 5.6077624396e-002	 1.5740013660e+000	-7.0114132637e-001
 4.1986653157e-002	 1.5744402564e+000	-7.0316676971e-001
 2.7942440378e-002	 1.5747521138e+000	-7.0359887293e-001
 1.3946421943e-002	 1.5749382519e+000	-7.0254944872e-001
 0.0000000000e+000	 1.5750000000e+000	-7.0012237734e-001
 1.4376710062e-001	 1.5935278538e+000	-5.4374568172e-001
 1.2919999971e-001	 1.5947750186e+000	-5.5501015336e-001
 1.1467093291e-001	 1.5958855150e+000	-5.6381150245e-001
 1.0018156234e-001	 1.5968605620e+000	-5.7030878399e-001
 8.5733516621e-002	 1.5977014002e+000	-5.7465269857e-001
 7.1328390638e-002	 1.5984092907e+000	-5.7698560242e-001
 5.6967745417e-002	 1.5989855146e+000	-5.7744153488e-001
 4.2653107968e-002	 1.5994313716e+000	-5.7614626240e-001
 2.8385971177e-002	 1.5997481791e+000	-5.7321733857e-001
 1.4167793719e-002	 1.5999372718e+000	-5.6876417932e-001
 0.0000000000e+000	 1.6000000000e+000	-5.6288815253e-001
 1.4601346157e-001	 1.6184267265e+000	-4.4756364261e-001
 1.3121874970e-001	 1.6196933783e+000	-4.5479165156e-001
 1.1646266623e-001	 1.6208212262e+000	-4.5956102445e-001
 1.0174689925e-001	 1.6218115083e+000	-4.6202943138e-001
 8.7073102817e-002	 1.6226654846e+000	-4.6234602224e-001
 7.2442896741e-002	 1.6233844359e+000	-4.6065143873e-001
 5.7857866438e-002	 1.6239696633e+000	-4.5707784441e-001
 4.3319562779e-002	 1.6244224868e+000	-4.5174897167e-001
 2.8829501976e-002	 1.6247442444e+000	-4.4478018524e-001
 1.4389165496e-002	 1.6249362916e+000	-4.3627856125e-001
 0.0000000000e+000	 1.6250000000e+000	-4.2634298119e-001
 1.4825982252e-001	 1.6433255992e+000	-3.5929473679e-001
 1.3323749970e-001	 1.6446117380e+000	-3.6158764411e-001
 1.1825439956e-001	 1.6457569374e+000	-3.6145909011e-001
 1.0331223616e-001	 1.6467624546e+000	-3.5906561672e-001
 8.8412689013e-002	 1.6476295689e+000	-3.5455504546e-001
 7.3557402843e-002	 1.6483595811e+000	-3.4806649197e-001
 5.8747987459e-002	 1.6489538120e+000	-3.3973039899e-001
 4.3986017590e-002	 1.6494136019e+000	-3.2966858699e-001
 2.9273032775e-002	 1.6497403097e+000	-3.1799432167e-001
 1.4610537273e-002	 1.6499353115e+000	-3.0481239746e-001
 0.0000000000e+000	 1.6500000000e+000	-2.9021923647e-001
 1.5050618346e-001	 1.6682244719e+000	-2.7856182927e-001
 1.3525624969e-001	 1.6695300976e+000	-2.7503483780e-001
 1.2004613288e-001	 1.6706926486e+000	-2.6915595683e-001
 1.0487757307e-001	 1.6717134009e+000	-2.6108085841e-001
 8.9752275209e-002	 1.6725936533e+000	-2.5095625947e-001
 7.4671908946e-002	 1.6733347262e+000	-2.3891993940e-001
 5.9638108481e-002	 1.6739379606e+000	-2.2510077650e-001
 4.4652472402e-002	 1.6744047171e+000	-2.0961880273e-001
 2.9716563574e-002	 1.6747363750e+000	-1.9258527576e-001
 1.4831909049e-002	 1.6749343314e+000	-1.7410276764e-001
 0.0000000000e+000	 1.6750000000e+000	-1.5426526922e-001
 1.5275254441e-001	 1.6931233446e+000	-2.0501642221e-001
 1.3727499969e-001	 1.6944484573e+000	-1.9479701454e-001
 1.2183786621e-001	 1.6956283597e+000	-1.8232743446e-001
 1.0644290998e-001	 1.6966643472e+000	-1.6776274403e-001
 9.1091861406e-002	 1.6975577377e+000	-1.5124878107e-001
 7.5786415049e-002	 1.6983098714e+000	-1.3292218005e-001
 6.0528229502e-002	 1.6989221093e+000	-1.1291041267e-001
 4.5318927213e-002	 1.6993958323e+000	-9.1331847153e-002
 3.0160094373e-002	 1.6997324403e+000	-6.8295825507e-002
 1.5053280826e-002	 1.6999333513e+000	-4.3902757888e-002
 0.0000000000e+000	 1.7000000000e+000	-1.8244233203e-002
 1.5499890536e-001	 1.7180222173e+000	-1.3833657974e-001
 1.3929374968e-001	 1.7193668170e+000	-1.2056306944e-001
 1.2362959954e-001	 1.7205640709e+000	-1.0067303361e-001
 1.0800824690e-001	 1.7216152934e+000	-7.8821186209e-002
 9.2431447602e-002	 1.7225218221e+000	-5.5152713096e-002
 7.6900921152e-002	 1.7232850166e+000	-2.9803296906e-002
 6.1418350523e-002	 1.7239062580e+000	-2.8991621021e-003
 4.5985382024e-002	 1.7243869475e+000	 2.5442860553e-002
 3.0603625172e-002	 1.7247285056e+000	 5.5115250988e-002
 1.5274652602e-002	 1.7249323711e+000	 8.6019699159e-002
 0.0000000000e+000	 1.7250000000e+000	 1.1806698762e-001
 1.5724526631e-001	 1.7429210901e+000	-7.8225030679e-002
 1.4131249968e-001	 1.7442851766e+000	-5.2045216971e-002
 1.2542133286e-001	 1.7454997821e+000	-2.3914272842e-002
 1.0957358381e-001	 1.7465662397e+000	 6.0131720244e-003
 9.3771033799e-002	 1.7474859064e+000	 3.7592354553e-002
 7.8015427255e-002	 1.7482601617e+000	 7.0688349106e-002
 6.2308471545e-002	 1.7488904066e+000	 1.0517601738e-001
 4.6651836836e-002	 1.7493780627e+000	 1.4093993825e-001
 3.1047155971e-002	 1.7497245709e+000	 1.7787431840e-001
 1.5496024379e-002	 1.7499313910e+000	 2.1588288481e-001
 0.0000000000e+000	 1.7500000000e+000	 2.5487875978e-001
 1.7500000000e+000	 0.0000000000e+000	 3.0205106819e+000
 1.7499313910e+000	 1.5496024379e-002	 3.0503284866e+000
 1.7497245709e+000	 3.1047155971e-002	 3.0746869886e+000
 1.7493780627e+000	 4.6651836836e-002	 3.0935834867e+000
 1.7488904066e+000	 6.2308471545e-002	 3.1070108017e+000
 1.7482601617e+000	 7.8015427255e-002	 3.1149570492e+000
 1.7474859064e+000	 9.3771033799e-002	 3.1174054158e+000
 1.7465662397e+000	 1.0957358381e-001	 3.1143339431e+000
 1.7454997821e+000	 1.2542133286e-001	 3.1057153177e+000
 1.7442851766e+000	 1.4131249968e-001	 3.0915166689e+000
 1.7429210901e+000	 1.5724526631e-001	 3.0716993752e+000
 1.7750000000e+000	 0.0000000000e+000	 3.1515515345e+000
 1.7749304109e+000	 1.5717396155e-002	 3.1682748854e+000
 1.7747206362e+000	 3.1490686771e-002	 3.1797839782e+000
 1.7743691778e+000	 4.7318291647e-002	 3.1860831363e+000
 1.7738745553e+000	 6.3198592567e-002	 3.1871718552e+000
 1.7732353069e+000	 7.9129933358e-002	 3.1830445565e+000
 1.7724499908e+000	 9.5110619996e-002	 3.1736903472e+000
 1.7715171860e+000	 1.1113892072e-001	 3.1590927854e+000
 1.7704354933e+000	 1.2721306619e-001	 3.1392296527e+000
 1.7692035363e+000	 1.4333124967e-001	 3.1140727357e+000
 1.7678199628e+000	 1.5949162725e-001	 3.0835876151e+000
 1.8000000000e+000	 0.0000000000e+000	 3.2876496646e+000
 1.7999294307e+000	 1.5938767932e-002	 3.2909341878e+000
 1.7997167015e+000	 3.1934217570e-002	 3.2892698892e+000
 1.7993602930e+000	 4.7984746459e-002	 3.2826684916e+000
 1.7988587040e+000	 6.4088713588e-002	 3.2711365231e+000
 1.7982104521e+000	 8.0244439462e-002	 3.2546750519e+000
 1.7974140752e+000	 9.6450206192e-002	 3.2332794273e+000
 1.7964681323e+000	 1.1270425763e-001	 3.2069390261e+000
 1.7953712044e+000	 1.2900479952e-001	 3.1756370080e+000
 1.7941218960e+000	 1.4534999967e-001	 3.1393500782e+000
 1.7927188355e+000	 1.6173798820e-001	 3.0980482598e+000
 1.8250000000e+000	 0.0000000000e+000	 3.4286619889e+000
 1.8249284506e+000	 1.6160139709e-002	 3.4181628069e+000
 1.8247127668e+000	 3.2377748369e-002	 3.4030008408e+000
 1.8243514082e+000	 4.8651201270e-002	 3.3831955904e+000
 1.8238428526e+000	 6.4978834610e-002	 3.3587609770e+000
 1.8231855972e+000	 8.1358945565e-002	 3.3297050582e+000
 1.8223781596e+000	 9.7789792389e-002	 3.2960297492e+000
 1.8214190786e+000	 1.1426959454e-001	 3.2577305506e+000
 1.8203069156e+000	 1.3079653284e-001	 3.2147962838e+000
 1.8190402556e+000	 1.4736874966e-001	 3.1672088358e+000
 1.8176177082e+000	 1.6398434915e-001	 3.1149429130e+000
 1.8500000000e+000	 0.0000000000e+000	 3.5744531581e+000
 1.8499274705e+000	 1.6381511485e-002	 3.5498247732e+000
 1.8497088321e+000	 3.2821279168e-002	 3.5208404597e+000
 1.8493425234e+000	 4.9317656081e-002	 3.4875278754e+000
 1.8488270013e+000	 6.5868955631e-002	 3.4499086976e+000
 1.8481607424e+000	 8.2473451668e-002	 3.4079983188e+000
 1.8473422440e+000	 9.9129378586e-002	 3.3618055465e+000
 1.8463700248e+000	 1.1583493145e-001	 3.3113323110e+000
 1.8452426268e+000	 1.3258826617e-001	 3.2565733816e+000
 1.8439586153e+000	 1.4938749966e-001	 3.1975160910e+000
 1.8425165809e+000	 1.6623071010e-001	 3.1341400711e+000
 1.8750000000e+000	 0.0000000000e+000	 3.7248950416e+000
 1.8749264904e+000	 1.6602883262e-002	 3.6857912266e+000
 1.8747048974e+000	 3.3264809967e-002	 3.6426593798e+000
 1.8743336386e+000	 4.9984110893e-002	 3.5955357000e+000
 1.8738111500e+000	 6.6759076653e-002	 3.5444499875e+000
 1.8731358876e+000	 8.3587957771e-002	 3.4894253169e+000
 1.8723063283e+000	 1.0046896478e-001	 3.4304777164e+000
 1.8713209711e+000	 1.1740026836e-001	 3.3676158550e+000
 1.8701783379e+000	 1.3437999950e-001	 3.3008407367e+000
 1.8688769750e+000	 1.5140624966e-001	 3.2301454064e+000
 1.8674154536e+000	 1.6847707105e-001	 3.1555146642e+000
 1.9000000000e+000	 0.0000000000e+000	 3.4700977059e+000
 1.8999255102e+000	 1.6824255038e-002	 3.4459197587e+000
 1.8997009627e+000	 3.3708340767e-002	 3.4192289858e+000
 1.8993247537e+000	 5.0650565704e-002	 3.3895997054e+000
 1.8987952986e+000	 6.7649197674e-002	 3.3566221433e+000
 1.8981110327e+000	 8.4702463874e-002	 3.3199034132e+000
 1.8972704127e+000	 1.0180855098e-001	 3.2790684910e+000
 1.8962719174e+000	 1.1896560528e-001	 3.2337611769e+000
 1.8951140491e+000	 1.3617173282e-001	 3.1836450447e+000
 1.8937953346e+000	 1.5342499965e-001	 3.1284043766e+000
 1.8923143264e+000	 1.7072343199e-001	 3.0677450790e+000
 1.9250000000e+000	 0.0000000000e+000	 3.2200183090e+000
 1.9249245301e+000	 1.7045626815e-002	 3.2100563555e+000
 1.9246970280e+000	 3.4151871566e-002	 3.1971369745e+000
 1.9243158689e+000	 5.1317020516e-002	 3.1808188852e+000
 1.9237794473e+000	 6.8539318696e-002	 3.1606775867e+000
 1.9230861779e+000	 8.5816969978e-002	 3.1363063814e+000
 1.9222344971e+000	 1.0314813718e-001	 3.1073173885e+000
 1.9212228637e+000	 1.2053094219e-001	 3.0733425475e+000
 1.9200497603e+000	 1.3796346615e-001	 3.0340346069e+000
 1.9187136943e+000	 1.5544374965e-001	 2.9890680971e+000
 1.9172131991e+000	 1.7296979294e-001	 2.9381402841e+000
 1.9500000000e+000	 0.0000000000e+000	 2.9745476713e+000
 1.9499235500e+000	 1.7266998592e-002	 2.9792134232e+000
 1.9496930933e+000	 3.4595402365e-002	 2.9804533136e+000
 1.9493069841e+000	 5.1983475327e-002	 2.9778101268e+000
 1.9487635960e+000	 6.9429439717e-002	 2.9708443290e+000
 1.9480613231e+000	 8.6931476081e-002	 2.9591351347e+000
 1.9471985815e+000	 1.0448772337e-001	 2.9422815620e+000
 1.9461738100e+000	 1.2209627910e-001	 2.9199034775e+000
 1.9449854715e+000	 1.3975519948e-001	 2.8916426253e+000
 1.9436320540e+000	 1.5746249964e-001	 2.8571636398e+000
 1.9421120718e+000	 1.7521615389e-001	 2.8161550380e+000
 1.9750000000e+000	 0.0000000000e+000	 2.7335821415e+000
 1.9749225698e+000	 1.7488370368e-002	 2.7532865034e+000
 1.9746891586e+000	 3.5038933164e-002	 2.7690720596e+000
 1.9742980993e+000	 5.2649930139e-002	 2.7804653176e+000
 1.9737477446e+000	 7.0319560739e-002	 2.7870113991e+000
 1.9730364682e+000	 8.8045982184e-002	 2.7882751497e+000
 1.9721626658e+000	 1.0582730957e-001	 2.7838422374e+000
 1.9711247563e+000	 1.2366161601e-001	 2.7733202400e+000
 1.9699211826e+000	 1.4154693280e-001	 2.7563397155e+000
 1.9685504136e+000	 1.5948124964e-001	 2.7325552558e+000
 1.9670109445e+000	 1.7746251484e-001	 2.7016465182e+000
 2.0000000000e+000	 0.0000000000e+000	 2.4970232508e+000
 1.9999215897e+000	 1.7709742145e-002	 2.5321762420e+000
 1.9996852239e+000	 3.5482463963e-002	 2.5628922995e+000
 1.9992892145e+000	 5.3316384950e-002	 2.5886813068e+000
 1.9987318933e+000	 7.1209681760e-002	 2.6090727238e+000
 1.9980116134e+000	 8.9160488287e-002	 2.6236167414e+000
 1.9971267502e+000	 1.0716689577e-001	 2.6318854248e+000
 1.9960757025e+000	 1.2522695292e-001	 2.6334738432e+000
 1.9948568938e+000	 1.4333866613e-001	 2.6280011844e+000
 1.9934687733e+000	 1.6149999964e-001	 2.6151118485e+000
 1.9919098172e+000	 1.7970887579e-001	 2.5944765213e+000
 1.7429210901e+000	 1.5724526631e-001	 3.0716993752e+000
 1.7414062137e+000	 1.7321777839e-001	 3.0717397932e+000
 1.7397392646e+000	 1.8922814542e-001	 3.0654570299e+000
 1.7379189865e+000	 2.0527444106e-001	 3.0527751559e+000
 1.7359441509e+000	 2.2135470344e-001	 3.0336122329e+000
 1.7338135582e+000	 2.3746693559e-001	 3.0078802038e+000
 1.7315260383e+000	 2.5360910577e-001	 2.9754847976e+000
 1.7290804525e+000	 2.6977914796e-001	 2.9363254479e+000
 1.7264756937e+000	 2.8597496228e-001	 2.8902952281e+000
 1.7237106878e+000	 3.0219441554e-001	 2.8372808025e+000
 1.7207843947e+000	 3.1843534172e-001	 2.7771623945e+000
 1.7678199628e+000	 1.5949162725e-001	 3.0835876151e+000
 1.7662834454e+000	 1.7569231808e-001	 3.0729766816e+000
 1.7645926827e+000	 1.9193140464e-001	 3.0568356687e+000
 1.7627464006e+000	 2.0820693307e-001	 3.0350973847e+000
 1.7607433531e+000	 2.2451691349e-001	 3.0076878034e+000
 1.7585823233e+000	 2.4085932039e-001	 2.9745259278e+000
 1.7562621246e+000	 2.5723209300e-001	 2.9355236697e+000
 1.7537816018e+000	 2.7363313579e-001	 2.8905857441e+000
 1.7511396322e+000	 2.9006031889e-001	 2.8396095806e+000
 1.7483351262e+000	 3.0651147862e-001	 2.7824852524e+000
 1.7453670289e+000	 3.2298441803e-001	 2.7190954229e+000
 1.7927188355e+000	 1.6173798820e-001	 3.0980482598e+000
 1.7911606770e+000	 1.7816685777e-001	 3.0767432491e+000
 1.7894461008e+000	 1.9463466387e-001	 3.0507110355e+000
 1.7875738147e+000	 2.1113942509e-001	 3.0198931751e+000
 1.7855425553e+000	 2.2767912354e-001	 2.9842235440e+000
 1.7833510884e+000	 2.4425170518e-001	 2.9436281761e+000
 1.7809982109e+000	 2.6085508023e-001	 2.8980251161e+000
 1.7784827512e+000	 2.7748712362e-001	 2.8473242901e+000
 1.7758035707e+000	 2.9414567549e-001	 2.7914273926e+000
 1.7729595646e+000	 3.1082854170e-001	 2.7302277926e+000
 1.7699496631e+000	 3.2753349434e-001	 2.6636104590e+000
 1.8176177082e+000	 1.6398434915e-001	 3.1149429130e+000
 1.8160379086e+000	 1.8064139747e-001	 3.0828993761e+000
 1.8142995188e+000	 1.9733792309e-001	 3.0469420692e+000
 1.8124012288e+000	 2.1407191711e-001	 3.0070213124e+000
 1.8103417574e+000	 2.3084133360e-001	 2.9630788809e+000
 1.8081198535e+000	 2.4764408998e-001	 2.9150478151e+000
 1.8057342971e+000	 2.6447806745e-001	 2.8628522486e+000
 1.8031839005e+000	 2.8134111145e-001	 2.8064072523e+000
 1.8004675091e+000	 2.9823103210e-001	 2.7456186978e+000
 1.7975840030e+000	 3.1514560478e-001	 2.6803831405e+000
 1.7945322974e+000	 3.3208257065e-001	 2.6105877224e+000
 1.8425165809e+000	 1.6623071010e-001	 3.1341400711e+000
 1.8409151402e+000	 1.8311593716e-001	 3.0913119785e+000
 1.8391529369e+000	 2.0004118231e-001	 3.0453948643e+000
 1.8372286429e+000	 2.1700440913e-001	 2.9963478358e+000
 1.8351409596e+000	 2.3400354365e-001	 2.9441205694e+000
 1.8328886186e+000	 2.5103647477e-001	 2.8886530939e+000
 1.8304703834e+000	 2.6810105468e-001	 2.8298755914e+000
 1.8278850498e+000	 2.8519509928e-001	 2.7677082159e+000
 1.8251314476e+000	 3.0231638870e-001	 2.7020609322e+000
 1.8222084414e+000	 3.1946266786e-001	 2.6328333751e+000
 1.8191149316e+000	 3.3663164696e-001	 2.5599147302e+000
 1.8674154536e+000	 1.6847707105e-001	 3.1555146642e+000
 1.8657923719e+000	 1.8559047685e-001	 3.1018545383e+000
 1.8640063550e+000	 2.0274444153e-001	 3.0459421941e+000
 1.8620560570e+000	 2.1993690114e-001	 2.9877455546e+000
 1.8599401617e+000	 2.3716575370e-001	 2.9272222058e+000
 1.8576573837e+000	 2.5442885957e-001	 2.8643191513e+000
 1.8552064696e+000	 2.7172404191e-001	 2.7989725863e+000
 1.8525861991e+000	 2.8904908711e-001	 2.7311076901e+000
 1.8497953861e+000	 3.0640174531e-001	 2.6606384401e+000
 1.8468328798e+000	 3.2377973094e-001	 2.5874674463e+000
 1.8436975658e+000	 3.4118072327e-001	 2.5114858102e+000
 1.8923143264e+000	 1.7072343199e-001	 3.0677450790e+000
 1.8906696035e+000	 1.8806501655e-001	 3.0264305488e+000
 1.8888597730e+000	 2.0544770075e-001	 2.9813504315e+000
 1.8868834711e+000	 2.2286939316e-001	 2.9322954798e+000
 1.8847393639e+000	 2.4032796375e-001	 2.8790801350e+000
 1.8824261489e+000	 2.5782124437e-001	 2.8215432734e+000
 1.8799425559e+000	 2.7534702914e-001	 2.7595489199e+000
 1.8772873485e+000	 2.9290307494e-001	 2.6929869253e+000
 1.8744593246e+000	 3.1048710192e-001	 2.6212420198e+000
 1.8714573182e+000	 3.2809679402e-001	 2.5441807227e+000
 1.8682802000e+000	 3.4572979958e-001	 2.4652016533e+000
 1.9172131991e+000	 1.7296979294e-001	 2.9381402841e+000
 1.9155468351e+000	 1.9053955624e-001	 2.9061800130e+000
 1.9137131911e+000	 2.0815095998e-001	 2.8703200576e+000
 1.9117108852e+000	 2.2580188518e-001	 2.8303512020e+000
 1.9095385661e+000	 2.4349017380e-001	 2.7860888885e+000
 1.9071949140e+000	 2.6121362916e-001	 2.7373739832e+000
 1.9046786422e+000	 2.7897001637e-001	 2.6840735081e+000
 1.9019884978e+000	 2.9675706277e-001	 2.6260813360e+000
 1.8991232631e+000	 3.1457245852e-001	 2.5633188461e+000
 1.8960817566e+000	 3.3241385710e-001	 2.4957355373e+000
 1.8928628342e+000	 3.5027887589e-001	 2.4233095970e+000
 1.9421120718e+000	 1.7521615389e-001	 2.8161550380e+000
 1.9404240667e+000	 1.9301409593e-001	 2.7937761510e+000
 1.9385666092e+000	 2.1085421920e-001	 2.7673271435e+000
 1.9365382993e+000	 2.2873437719e-001	 2.7365987084e+000
 1.9343377682e+000	 2.4665238385e-001	 2.7014072087e+000
 1.9319636791e+000	 2.6460601396e-001	 2.6615954644e+000
 1.9294147284e+000	 2.8259300359e-001	 2.6170335037e+000
 1.9266896471e+000	 3.0061105060e-001	 2.5676192760e+000
 1.9237872016e+000	 3.1865781513e-001	 2.5132793230e+000
 1.9207061950e+000	 3.3673092018e-001	 2.4539694060e+000
 1.9174454684e+000	 3.5482795221e-001	 2.3896750871e+000
 1.9670109445e+000	 1.7746251484e-001	 2.7016465182e+000
 1.9653012984e+000	 1.9548863562e-001	 2.6890658847e+000
 1.9634200273e+000	 2.1355747842e-001	 2.6722080476e+000
 1.9613657134e+000	 2.3166686921e-001	 2.6508634912e+000
 1.9591369704e+000	 2.4981459391e-001	 2.6248494248e+000
 1.9567324442e+000	 2.6799839876e-001	 2.5940105928e+000
 1.9541508147e+000	 2.8621599082e-001	 2.5582200457e+000
 1.9513907964e+000	 3.0446503843e-001	 2.5173798714e+000
 1.9484511400e+000	 3.2274317174e-001	 2.4714218831e+000
 1.9453306334e+000	 3.4104798327e-001	 2.4203082618e+000
 1.9420281026e+000	 3.5937702852e-001	 2.3640321493e+000
 1.9919098172e+000	 1.7970887579e-001	 2.5944765213e+000
 1.9901785300e+000	 1.9796317532e-001	 2.5919008501e+000
 1.9882734453e+000	 2.1626073764e-001	 2.5848039233e+000
 1.9861931275e+000	 2.3459936123e-001	 2.5729759031e+000
 1.9839361725e+000	 2.5297680396e-001	 2.5562347773e+000
 1.9815012093e+000	 2.7139078356e-001	 2.5344271910e+000
 1.9788869010e+000	 2.8983897805e-001	 2.5074292396e+000
 1.9760919458e+000	 3.0831902626e-001	 2.4751472191e+000
 1.9731150785e+000	 3.2682852835e-001	 2.4375183315e+000
 1.9699550718e+000	 3.4536504635e-001	 2.3945113426e+000
 1.9666107368e+000	 3.6392610484e-001	 2.3461271885e+000
 1.7207843947e+000	 3.1843534172e-001	 2.7771623945e+000
 1.7176958094e+000	 3.3469554257e-001	 2.7387386002e+000
 1.7144439629e+000	 3.5097278822e-001	 2.6955187512e+000
 1.7110279231e+000	 3.6726481779e-001	 2.6473583137e+000
 1.7074467960e+000	 3.8356934007e-001	 2.5941040905e+000
 1.7036997268e+000	 3.9988403422e-001	 2.5355942489e+000
 1.6997859004e+000	 4.1620655053e-001	 2.4716583721e+000
 1.6957045429e+000	 4.3253451115e-001	 2.4021175344e+000
 1.6914549220e+000	 4.4886551095e-001	 2.3267844011e+000
 1.6870363485e+000	 4.6519711830e-001	 2.2454633533e+000
 1.6824481768e+000	 4.8152687598e-001	 2.1579506389e+000
 1.7453670289e+000	 3.2298441803e-001	 2.7190954229e+000
 1.7422343210e+000	 3.3947690746e-001	 2.6769700982e+000
 1.7389360195e+000	 3.5598668519e-001	 2.6303836393e+000
 1.7354711791e+000	 3.7251145804e-001	 2.5791901398e+000
 1.7318388931e+000	 3.8904890206e-001	 2.5232344052e+000
 1.7280382943e+000	 4.0559666328e-001	 2.4623519748e+000
 1.7240685561e+000	 4.2215235839e-001	 2.3963691673e+000
 1.7199288935e+000	 4.3871357559e-001	 2.3251031517e+000
 1.7156185637e+000	 4.5527787539e-001	 2.2483620443e+000
 1.7111368678e+000	 4.7184279141e-001	 2.1659450321e+000
 1.7064831508e+000	 4.8840583136e-001	 2.0776425227e+000
 1.7699496631e+000	 3.2753349434e-001	 2.6636104590e+000
 1.7667728326e+000	 3.4425827236e-001	 2.6180079089e+000
 1.7634280761e+000	 3.6100058217e-001	 2.5683025567e+000
 1.7599144352e+000	 3.7775809829e-001	 2.5143469688e+000
 1.7562309902e+000	 3.9452846406e-001	 2.4559837689e+000
 1.7523768619e+000	 4.1130929234e-001	 2.3930456522e+000
 1.7483512119e+000	 4.2809816625e-001	 2.3253554260e+000
 1.7441532441e+000	 4.4489264004e-001	 2.2527260754e+000
 1.7397822055e+000	 4.6169023983e-001	 2.1749608577e+000
 1.7352373870e+000	 4.7848846453e-001	 2.0918534238e+000
 1.7305181247e+000	 4.9528478673e-001	 2.0031879676e+000
 1.7945322974e+000	 3.3208257065e-001	 2.6105877224e+000
 1.7913113441e+000	 3.4903963725e-001	 2.5617315367e+000
 1.7879201327e+000	 3.6601447914e-001	 2.5091545199e+000
 1.7843576912e+000	 3.8300473855e-001	 2.4527075558e+000
 1.7806230873e+000	 4.0000802606e-001	 2.3922308994e+000
 1.7767154294e+000	 4.1702192139e-001	 2.3275541840e+000
 1.7726338676e+000	 4.3404397412e-001	 2.2584964557e+000
 1.7683775947e+000	 4.5107170448e-001	 2.1848662346e+000
 1.7639458472e+000	 4.6810260427e-001	 2.1064616057e+000
 1.7593379063e+000	 4.8513413765e-001	 2.0230703383e+000
 1.7545530987e+000	 5.0216374210e-001	 1.9344700348e+000
 1.8191149316e+000	 3.3663164696e-001	 2.5599147302e+000
 1.8158498557e+000	 3.5382100214e-001	 2.5080280755e+000
 1.8124121893e+000	 3.7102837612e-001	 2.4528264354e+000
 1.8088009473e+000	 3.8825137880e-001	 2.3941588536e+000
 1.8050151844e+000	 4.0548758806e-001	 2.3318630281e+000
 1.8010539969e+000	 4.2273455045e-001	 2.2657653101e+000
 1.7969165233e+000	 4.3998978198e-001	 2.1956807324e+000
 1.7926019453e+000	 4.5725076893e-001	 2.1214130658e+000
 1.7881094890e+000	 4.7451496871e-001	 2.0427549065e+000
 1.7834384256e+000	 4.9177981077e-001	 1.9594877928e+000
 1.7785880727e+000	 5.0904269747e-001	 1.8713823541e+000
 1.8436975658e+000	 3.4118072327e-001	 2.5114858102e+000
 1.8403883673e+000	 3.5860236704e-001	 2.4567917032e+000
 1.8369042460e+000	 3.7604227309e-001	 2.3992125734e+000
 1.8332442033e+000	 3.9349801906e-001	 2.3385954664e+000
 1.8294072815e+000	 4.1096715007e-001	 2.2747753325e+000
 1.8253925645e+000	 4.2844717952e-001	 2.2075750186e+000
 1.8211991790e+000	 4.4593558984e-001	 2.1368052894e+000
 1.8168262959e+000	 4.6342983337e-001	 2.0622648791e+000
 1.8122731307e+000	 4.8092733315e-001	 1.9837405749e+000
 1.8075389448e+000	 4.9842548389e-001	 1.9010073315e+000
 1.8026230466e+000	 5.1592165284e-001	 1.8138284195e+000
 1.8682802000e+000	 3.4572979958e-001	 2.4652016533e+000
 1.8649268788e+000	 3.6338373194e-001	 2.4079232148e+000
 1.8613963026e+000	 3.8105617007e-001	 2.3482140834e+000
 1.8576874594e+000	 3.9874465931e-001	 2.2859191461e+000
 1.8537993786e+000	 4.1644671207e-001	 2.2208704135e+000
 1.8497311320e+000	 4.3415980858e-001	 2.1528870030e+000
 1.8454818348e+000	 4.5188139771e-001	 2.0817751542e+000
 1.8410506465e+000	 4.6960889782e-001	 2.0073282742e+000
 1.8364367724e+000	 4.8733969760e-001	 1.9293270177e+000
 1.8316394641e+000	 5.0507115701e-001	 1.8475393991e+000
 1.8266580206e+000	 5.2280060822e-001	 1.7617209397e+000
 1.8928628342e+000	 3.5027887589e-001	 2.4233095970e+000
 1.8894653904e+000	 3.6816509683e-001	 2.3694458426e+000
 1.8858883592e+000	 3.8607006704e-001	 2.3100965480e+000
 1.8821307154e+000	 4.0399129957e-001	 2.2453188669e+000
 1.8781914757e+000	 4.2192627407e-001	 2.1752009078e+000
 1.8740696995e+000	 4.3987243764e-001	 2.1016121620e+000
 1.8697644905e+000	 4.5782720558e-001	 2.0305028295e+000
 1.8652749971e+000	 4.7578796226e-001	 1.9565176023e+000
 1.8606004142e+000	 4.9375206204e-001	 1.8794306754e+000
 1.8557399833e+000	 5.1171683013e-001	 1.7990027622e+000
 1.8506929945e+000	 5.2967956359e-001	 1.7149812405e+000
 1.9174454684e+000	 3.5482795221e-001	 2.3896750871e+000
 1.9140039020e+000	 3.7294646173e-001	 2.3436031141e+000
 1.9103804158e+000	 3.9108396402e-001	 2.2915062973e+000
 1.9065739715e+000	 4.0923793982e-001	 2.2334520562e+000
 1.9025835728e+000	 4.2740583607e-001	 2.1695402724e+000
 1.8984082670e+000	 4.4558506670e-001	 2.0999036260e+000
 1.8940471462e+000	 4.6377301344e-001	 2.0247078694e+000
 1.8894993478e+000	 4.8196702671e-001	 1.9441520382e+000
 1.8847640559e+000	 5.0016442648e-001	 1.8584685972e+000
 1.8798405026e+000	 5.1836250325e-001	 1.7679235176e+000
 1.8747279685e+000	 5.3655851896e-001	 1.6735387119e+000
 1.9420281026e+000	 3.5937702852e-001	 2.3640321493e+000
 1.9385424135e+000	 3.7772782663e-001	 2.3257316376e+000
 1.9348724724e+000	 3.9609786100e-001	 2.2808421236e+000
 1.9310172275e+000	 4.1448458008e-001	 2.2294416815e+000
 1.9269756698e+000	 4.3288539808e-001	 2.1716423997e+000
 1.9227468346e+000	 4.5129769576e-001	 2.1075907245e+000
 1.9183298019e+000	 4.6971882131e-001	 2.0374677404e+000
 1.9137236984e+000	 4.8814609116e-001	 1.9614893829e+000
 1.9089276977e+000	 5.0657679093e-001	 1.8799065842e+000
 1.9039410219e+000	 5.2500817637e-001	 1.7930053470e+000
 1.8987629424e+000	 5.4343747433e-001	 1.7011067472e+000
 1.9666107368e+000	 3.6392610484e-001	 2.3461271885e+000
 1.9630809251e+000	 3.8250919152e-001	 2.3155598854e+000
 1.9593645290e+000	 4.0111175798e-001	 2.2778139116e+000
 1.9554604835e+000	 4.1973122034e-001	 2.2329783951e+000
 1.9513677669e+000	 4.3836496008e-001	 2.1811780745e+000
 1.9470854021e+000	 4.5701032483e-001	 2.1225736517e+000
 1.9426124576e+000	 4.7566462918e-001	 2.0573620774e+000
 1.9379480490e+000	 4.9432515561e-001	 1.9857767668e+000
 1.9330913394e+000	 5.1298915537e-001	 1.9080877442e+000
 1.9280415411e+000	 5.3165384949e-001	 1.8246017134e+000
 1.9227979164e+000	 5.5031642970e-001	 1.7356620537e+000
 1.6824481768e+000	 4.8152687598e-001	 2.1579506389e+000
 1.6776898060e+000	 4.9785230211e-001	 2.0955232285e+000
 1.6727606807e+000	 5.1417089100e-001	 2.0281306739e+000
 1.6676602917e+000	 5.3048011422e-001	 1.9555246585e+000
 1.6623881771e+000	 5.4677742155e-001	 1.8774478125e+000
 1.6569439230e+000	 5.6306024200e-001	 1.7936339892e+000
 1.6513271642e+000	 5.7932598494e-001	 1.7038085716e+000
 1.6455375851e+000	 5.9557204113e-001	 1.6076888075e+000
 1.6395749202e+000	 6.1179578385e-001	 1.5049841744e+000
 1.6334389551e+000	 6.2799457010e-001	 1.3950400045e+000
 1.6271295268e+000	 6.4416574173e-001	 1.2745195454e+000
 1.7064831508e+000	 4.8840583136e-001	 2.0776425227e+000
 1.7016568033e+000	 5.0496447785e-001	 2.0136728841e+000
 1.6966572618e+000	 5.2151618944e-001	 1.9456610357e+000
 1.6914840101e+000	 5.3805840157e-001	 1.8733539716e+000
 1.6861365796e+000	 5.5458852757e-001	 1.7964884467e+000
 1.6806145504e+000	 5.7110395975e-001	 1.7147912487e+000
 1.6749175522e+000	 5.8760207045e-001	 1.6279795004e+000
 1.6690452648e+000	 6.0408021315e-001	 1.5357609943e+000
 1.6629974190e+000	 6.2053572362e-001	 1.4378345585e+000
 1.6567737973e+000	 6.3696592110e-001	 1.3305028508e+000
 1.6503742344e+000	 6.5336810947e-001	 1.2125243735e+000
 1.7305181247e+000	 4.9528478673e-001	 2.0031879676e+000
 1.7256238005e+000	 5.1207665360e-001	 1.9380825875e+000
 1.7205538430e+000	 5.2886148789e-001	 1.8698606933e+000
 1.7153077286e+000	 5.4563668892e-001	 1.7982640164e+000
 1.7098849821e+000	 5.6239963360e-001	 1.7230228414e+000
 1.7042851779e+000	 5.7914767750e-001	 1.6438562726e+000
 1.6985079403e+000	 5.9587815595e-001	 1.5604725348e+000
 1.6925529446e+000	 6.1258838517e-001	 1.4725693066e+000
 1.6864199179e+000	 6.2927566340e-001	 1.3784447081e+000
 1.6801086395e+000	 6.4593727211e-001	 1.2724466698e+000
 1.6736189419e+000	 6.6257047722e-001	 1.1569863509e+000
 1.7545530987e+000	 5.0216374210e-001	 1.9344700348e+000
 1.7495907977e+000	 5.1918882934e-001	 1.8686385485e+000
 1.7444504242e+000	 5.3620678633e-001	 1.8006199298e+000
 1.7391314470e+000	 5.5321497627e-001	 1.7301500730e+000
 1.7336333847e+000	 5.7021073962e-001	 1.6569521952e+000
 1.7279558054e+000	 5.8719139524e-001	 1.5807370982e+000
 1.7220983284e+000	 6.0415424145e-001	 1.5012034673e+000
 1.7160606244e+000	 6.2109655719e-001	 1.4180382045e+000
 1.7098424168e+000	 6.3801560317e-001	 1.3245602850e+000
 1.7034434817e+000	 6.5490862311e-001	 1.2206392116e+000
 1.6968636494e+000	 6.7177284496e-001	 1.1076711487e+000
 1.7785880727e+000	 5.0904269747e-001	 1.8713823541e+000
 1.7735577950e+000	 5.2630100509e-001	 1.8052378225e+000
 1.7683470053e+000	 5.4355208478e-001	 1.7378401182e+000
 1.7629551655e+000	 5.6079326361e-001	 1.6689187232e+000
 1.7573817872e+000	 5.7802184564e-001	 1.5981891877e+000
 1.7516264329e+000	 5.9523511299e-001	 1.5253533894e+000
 1.7456887164e+000	 6.1243032695e-001	 1.4500998291e+000
 1.7395683042e+000	 6.2960472920e-001	 1.3698306176e+000
 1.7332649156e+000	 6.4675554294e-001	 1.2767124813e+000
 1.7267783239e+000	 6.6387997412e-001	 1.1748600984e+000
 1.7201083570e+000	 6.8097521270e-001	 1.0643562862e+000
 1.8026230466e+000	 5.1592165284e-001	 1.8138284195e+000
 1.7975247922e+000	 5.3341318083e-001	 1.7477875869e+000
 1.7922435865e+000	 5.5089738322e-001	 1.6814329819e+000
 1.7867788839e+000	 5.6837155096e-001	 1.6144870967e+000
 1.7811301897e+000	 5.8583295167e-001	 1.5466572140e+000
 1.7752970603e+000	 6.0327883073e-001	 1.4776356617e+000
 1.7692791045e+000	 6.2070641246e-001	 1.4071001081e+000
 1.7630759840e+000	 6.3811290122e-001	 1.3261241946e+000
 1.7566874145e+000	 6.5549548271e-001	 1.2346946016e+000
 1.7501131661e+000	 6.7285132512e-001	 1.1349000339e+000
 1.7433530645e+000	 6.9017758044e-001	 1.0268303414e+000
 1.8266580206e+000	 5.2280060822e-001	 1.7617209397e+000
 1.8214917894e+000	 5.4052535658e-001	 1.6962044758e+000
 1.8161401676e+000	 5.5824268167e-001	 1.6313199138e+000
 1.8106026024e+000	 5.7594983831e-001	 1.5667821780e+000
 1.8048785923e+000	 5.9364405769e-001	 1.5022896794e+000
 1.7989676878e+000	 6.1132254848e-001	 1.4375245681e+000
 1.7928694926e+000	 6.2898249796e-001	 1.3696819641e+000
 1.7865836638e+000	 6.4662107324e-001	 1.2880459661e+000
 1.7801099133e+000	 6.6423542248e-001	 1.1983102941e+000
 1.7734480084e+000	 6.8182267612e-001	 1.1005600739e+000
 1.7665977720e+000	 6.9937994818e-001	 9.9489222325e-001
 1.8506929945e+000	 5.2967956359e-001	 1.7149812405e+000
 1.8454587867e+000	 5.4763753232e-001	 1.6504139653e+000
 1.8400367488e+000	 5.6558798011e-001	 1.5874313486e+000
 1.8344263209e+000	 5.8352812565e-001	 1.5257401656e+000
 1.8286269948e+000	 6.0145516371e-001	 1.4650293497e+000
 1.8226383153e+000	 6.1936626622e-001	 1.4049702411e+000
 1.8164598806e+000	 6.3725858345e-001	 1.3356767818e+000
 1.8100913436e+000	 6.5512924526e-001	 1.2554122467e+000
 1.8035324122e+000	 6.7297536225e-001	 1.1673728780e+000
 1.7967828506e+000	 6.9079402712e-001	 1.0716509538e+000
 1.7898424795e+000	 7.0858231592e-001	 9.6835050108e-001
 1.8747279685e+000	 5.3655851896e-001	 1.6735387119e+000
 1.8694257839e+000	 5.5474970807e-001	 1.6103498070e+000
 1.8639333299e+000	 5.7293327855e-001	 1.5497061827e+000
 1.8582500393e+000	 5.9110641300e-001	 1.4913058822e+000
 1.8523753973e+000	 6.0926626974e-001	 1.4348277510e+000
 1.8463089428e+000	 6.2740998396e-001	 1.3782437012e+000
 1.8400502687e+000	 6.4553466895e-001	 1.3069239413e+000
 1.8335990234e+000	 6.6363741727e-001	 1.2280483689e+000
 1.8269549111e+000	 6.8171530202e-001	 1.1417047242e+000
 1.8201176928e+000	 6.9976537812e-001	 1.0479924686e+000
 1.8130871871e+000	 7.1778468366e-001	 9.4702278502e-001
 1.8987629424e+000	 5.4343747433e-001	 1.7011067472e+000
 1.8933927811e+000	 5.6186188381e-001	 1.6252326862e+000
 1.8878299111e+000	 5.8027857699e-001	 1.5518585840e+000
 1.8820737578e+000	 5.9868470035e-001	 1.4814129377e+000
 1.8761237999e+000	 6.1707737576e-001	 1.4143521322e+000
 1.8699795702e+000	 6.3545370170e-001	 1.3534589067e+000
 1.8636406567e+000	 6.5381075445e-001	 1.2832605066e+000
 1.8571067031e+000	 6.7214558929e-001	 1.2057881116e+000
 1.8503774099e+000	 6.9045524179e-001	 1.1211366822e+000
 1.8434525350e+000	 7.0873672912e-001	 1.0294128992e+000
 1.8363318946e+000	 7.2698705140e-001	 9.3073515398e-001
 1.9227979164e+000	 5.5031642970e-001	 1.7356620537e+000
 1.9173597783e+000	 5.6897405956e-001	 1.6609451478e+000
 1.9117264922e+000	 5.8762387544e-001	 1.5888155607e+000
 1.9058974762e+000	 6.0626298769e-001	 1.5197310979e+000
 1.8998722024e+000	 6.2488848178e-001	 1.4541785156e+000
 1.8936501977e+000	 6.4349741945e-001	 1.3744326982e+000
 1.8872310448e+000	 6.6208683995e-001	 1.2893469408e+000
 1.8806143829e+000	 6.8065376130e-001	 1.1990093281e+000
 1.8737999088e+000	 6.9919518155e-001	 1.1055075500e+000
 1.8667873772e+000	 7.1770808012e-001	 1.0157484822e+000
 1.8595766021e+000	 7.3618941913e-001	 9.1932162631e-001
 1.6271295268e+000	 6.4416574173e-001	 1.2745195454e+000
 1.6206465249e+000	 6.6030662669e-001	 1.1961042990e+000
 1.6139898915e+000	 6.7641454021e-001	 1.1134832497e+000
 1.6071596221e+000	 6.9248678611e-001	 1.0267644259e+000
 1.6001557665e+000	 7.0852065808e-001	 9.3606339889e-001
 1.5929784285e+000	 7.2451344093e-001	 8.4150319542e-001
 1.5856277673e+000	 7.4046241198e-001	 7.4321419438e-001
 1.5781039969e+000	 7.5636484241e-001	 6.4133400936e-001
 1.5704073875e+000	 7.7221799855e-001	 5.3600735619e-001
 1.5625382650e+000	 7.8801914338e-001	 4.2738590587e-001
 1.5544970119e+000	 8.0376553783e-001	 3.1562812291e-001
 1.6503742344e+000	 6.5336810947e-001	 1.2125243735e+000
 1.6437986181e+000	 6.6973957850e-001	 1.1364490039e+000
 1.6370468899e+000	 6.8607760507e-001	 1.0562234242e+000
 1.6301190453e+000	 7.0237945449e-001	 9.7195345020e-001
 1.6230151346e+000	 7.1864238176e-001	 8.8375249493e-001
 1.6157352632e+000	 7.3486363294e-001	 7.9174148005e-001
 1.6082795925e+000	 7.5104044644e-001	 6.9604873269e-001
 1.6006483397e+000	 7.6717005444e-001	 5.9680986699e-001
 1.5928417787e+000	 7.8324968425e-001	 4.9416765069e-001
 1.5848602402e+000	 7.9927655972e-001	 3.8827185676e-001
 1.5767041121e+000	 8.1524790266e-001	 2.7927910022e-001
 1.6736189419e+000	 6.6257047722e-001	 1.1569863509e+000
 1.6669507113e+000	 6.7917253031e-001	 1.0829089088e+000
 1.6601038884e+000	 6.9574066993e-001	 1.0047269476e+000
 1.6530784685e+000	 7.1227212286e-001	 9.2254432720e-001
 1.6458745027e+000	 7.2876410545e-001	 8.3647257085e-001
 1.6384920979e+000	 7.4521382496e-001	 7.4663077633e-001
 1.6309314178e+000	 7.6161848090e-001	 6.5314551192e-001
 1.6231926825e+000	 7.7797526648e-001	 5.5615069694e-001
 1.6152761700e+000	 7.9428136994e-001	 4.5578746708e-001
 1.6071822154e+000	 8.1053397605e-001	 3.5220402444e-001
 1.5989112123e+000	 8.2673026749e-001	 2.4555547260e-001
 1.6968636494e+000	 6.7177284496e-001	 1.1076711487e+000
 1.6901028046e+000	 6.8860548212e-001	 1.0352603753e+000
 1.6831608868e+000	 7.0540373479e-001	 9.5878098280e-001
 1.6760378917e+000	 7.2216479124e-001	 8.7833512964e-001
 1.6687338708e+000	 7.3888582914e-001	 7.9403271608e-001
 1.6612489326e+000	 7.5556401697e-001	 7.0599129490e-001
 1.6535832430e+000	 7.7219651536e-001	 6.1433596632e-001
 1.6457370254e+000	 7.8878047852e-001	 5.1919925732e-001
 1.6377105612e+000	 8.0531305564e-001	 4.2072098537e-001
 1.6295041906e+000	 8.2179139239e-001	 3.1904810674e-001
 1.6211183125e+000	 8.3821263232e-001	 2.1433454928e-001
 1.7201083570e+000	 6.8097521270e-001	 1.0643562862e+000
 1.7132548978e+000	 6.9803843393e-001	 9.9329089383e-001
 1.7062178853e+000	 7.1506679966e-001	 9.1818309133e-001
 1.6989973148e+000	 7.3205745961e-001	 8.3913358818e-001
 1.6915932389e+000	 7.4900755283e-001	 7.5625092670e-001
 1.6840057673e+000	 7.6591420899e-001	 6.6965139175e-001
 1.6762350683e+000	 7.8277454982e-001	 5.7945890447e-001
 1.6682813682e+000	 7.9958569055e-001	 4.8580490010e-001
 1.6601449525e+000	 8.1634474134e-001	 3.8882818991e-001
 1.6518261659e+000	 8.3304880872e-001	 2.8867480734e-001
 1.6433254126e+000	 8.4969499715e-001	 1.8549783843e-001
 1.7433530645e+000	 6.9017758044e-001	 1.0268303414e+000
 1.7364069910e+000	 7.0747138575e-001	 9.5679834213e-001
 1.7292748837e+000	 7.2472986452e-001	 8.8274054024e-001
 1.7219567380e+000	 7.4195012799e-001	 8.0475644748e-001
 1.7144526070e+000	 7.5912927652e-001	 7.2295351167e-001
 1.7067626020e+000	 7.7626440100e-001	 6.3744702526e-001
 1.6988868935e+000	 7.9335258428e-001	 5.4836001772e-001
 1.6908257110e+000	 8.1039090259e-001	 4.5582313159e-001
 1.6825793437e+000	 8.2737642703e-001	 3.5997448232e-001
 1.6741481411e+000	 8.4430622506e-001	 2.6095950204e-001
 1.6655325128e+000	 8.6117736198e-001	 1.5893076718e-001
 1.7665977720e+000	 6.9937994818e-001	 9.9489222325e-001
 1.7595590842e+000	 7.1690433756e-001	 9.2559030157e-001
 1.7523318822e+000	 7.3439292938e-001	 8.5226966358e-001
 1.7449161612e+000	 7.5184279636e-001	 7.7502887321e-001
 1.7373119751e+000	 7.6925100021e-001	 6.9397454592e-001
 1.7295194367e+000	 7.8661459301e-001	 6.0922125600e-001
 1.7215387188e+000	 8.0393061874e-001	 5.2089142733e-001
 1.7133700538e+000	 8.2119611462e-001	 4.2911520749e-001
 1.7050137350e+000	 8.3840811273e-001	 3.3403032520e-001
 1.6964701163e+000	 8.5556364139e-001	 2.3578193141e-001
 1.6877396130e+000	 8.7265972680e-001	 1.3452242384e-001
 1.7898424795e+000	 7.0858231592e-001	 9.6835050108e-001
 1.7827111774e+000	 7.2633728937e-001	 8.9948342722e-001
 1.7753888806e+000	 7.4405599424e-001	 8.2659527364e-001
 1.7678755844e+000	 7.6173546473e-001	 7.4978390521e-001
 1.7601713431e+000	 7.7937272389e-001	 6.6915536608e-001
 1.7522762714e+000	 7.9696478503e-001	 5.8482378555e-001
 1.7441905440e+000	 8.1450865319e-001	 4.9691126697e-001
 1.7359143966e+000	 8.3200132666e-001	 4.0554775958e-001
 1.7274481262e+000	 8.4943979842e-001	 3.1087091342e-001
 1.7187920915e+000	 8.6682105773e-001	 2.1302591732e-001
 1.7099467131e+000	 8.8414209163e-001	 1.1216532015e-001
 1.8130871871e+000	 7.1778468366e-001	 9.4702278502e-001
 1.8058632706e+000	 7.3577024118e-001	 8.7830286613e-001
 1.7984458791e+000	 7.5371905910e-001	 8.0555011746e-001
 1.7908350075e+000	 7.7162813311e-001	 7.2886195272e-001
 1.7830307112e+000	 7.8949444758e-001	 6.4834410497e-001
 1.7750331061e+000	 8.0731497704e-001	 5.6411053083e-001
 1.7668423693e+000	 8.2508668765e-001	 4.7628329729e-001
 1.7584587394e+000	 8.4280653869e-001	 3.8499245111e-001
 1.7498825175e+000	 8.6047148411e-001	 2.9037587080e-001
 1.7411140667e+000	 8.7807847406e-001	 1.9257910136e-001
 1.7321538133e+000	 8.9562445646e-001	 9.1755171816e-002
 1.8363318946e+000	 7.2698705140e-001	 9.3073515398e-001
 1.8290153638e+000	 7.4520319299e-001	 8.6188171989e-001
 1.8215028775e+000	 7.6338212396e-001	 7.8897437464e-001
 1.8137944307e+000	 7.8152080148e-001	 7.1211032800e-001
 1.8058900793e+000	 7.9961617127e-001	 6.3139526149e-001
 1.7977899408e+000	 8.1766516906e-001	 5.4694323069e-001
 1.7894941945e+000	 8.3566472211e-001	 4.5887654981e-001
 1.7810030823e+000	 8.5361175073e-001	 3.6732565832e-001
 1.7723169087e+000	 8.7150316981e-001	 2.7242896980e-001
 1.7634360419e+000	 8.8933589040e-001	 1.7433270307e-001
 1.7543609135e+000	 9.0710682128e-001	 7.3190695753e-002
 1.8595766021e+000	 7.3618941913e-001	 9.1932162631e-001
 1.8521674571e+000	 7.5463614479e-001	 8.5006054747e-001
 1.8445598760e+000	 7.7304518882e-001	 7.7671519280e-001
 1.8367538539e+000	 7.9141346985e-001	 6.9938281487e-001
 1.8287494474e+000	 8.0973789495e-001	 6.1816930269e-001
 1.8205467755e+000	 8.2801536107e-001	 5.3318908204e-001
 1.8121460198e+000	 8.4624275656e-001	 4.4456499745e-001
 1.8035474251e+000	 8.6441696276e-001	 3.5242817589e-001
 1.7947513000e+000	 8.8253485550e-001	 2.5691787220e-001
 1.7857580172e+000	 9.0059330673e-001	 1.5818129630e-001
 1.7765680137e+000	 9.1858918611e-001	 5.6373422479e-002
 1.5544970119e+000	 8.0376553783e-001	 3.1562812291e-001
 1.5462840674e+000	 8.1945444228e-001	 2.3199423572e-001
 1.5378999272e+000	 8.3508311794e-001	 1.4561601976e-001
 1.5293451444e+000	 8.5064882832e-001	 5.6633817015e-002
 1.5206203292e+000	 8.6614884069e-001	-3.4806162871e-002
 1.5117261490e+000	 8.8158042754e-001	-1.2855203734e-001
 1.5026633286e+000	 8.9694086807e-001	-2.2444645820e-001
 1.4934326500e+000	 9.1222744964e-001	-3.2232683110e-001
 1.4840349526e+000	 9.2743746930e-001	-4.2202554694e-001
 1.4744711329e+000	 9.4256823526e-001	-5.2337022464e-001
 1.4647421446e+000	 9.5761706841e-001	-6.2618396494e-001
 1.5767041121e+000	 8.1524790266e-001	 2.7927910022e-001
 1.5683738397e+000	 8.3116093432e-001	 1.9713695188e-001
 1.5598699262e+000	 8.4701287677e-001	 1.1217894170e-001
 1.5511929322e+000	 8.6280095444e-001	 2.4554793079e-002
 1.5423434768e+000	 8.7852239556e-001	-6.5579667448e-002
 1.5333222369e+000	 8.9417443366e-001	-1.5806271751e-001
 1.5241299476e+000	 9.0975430904e-001	-2.5272695924e-001
 1.5147674021e+000	 9.2525927035e-001	-3.4939955246e-001
 1.5052354519e+000	 9.4068657601e-001	-4.4790246014e-001
 1.4955350063e+000	 9.5603349577e-001	-5.4805270588e-001
 1.4856670324e+000	 9.7129731225e-001	-6.4966264281e-001
 1.5989112123e+000	 8.2673026749e-001	 2.4555547260e-001
 1.5904636121e+000	 8.4286742635e-001	 1.6500124808e-001
 1.5818399251e+000	 8.5894263560e-001	 8.1556643923e-002
 1.5730407200e+000	 8.7495308057e-001	-4.6190957384e-003
 1.5640666244e+000	 8.9089595043e-001	-9.3360382687e-002
 1.5549183247e+000	 9.0676843977e-001	-1.8449550462e-001
 1.5455965666e+000	 9.2256775002e-001	-2.7784685889e-001
 1.5361021543e+000	 9.3829109106e-001	-3.7323119953e-001
 1.5264359512e+000	 9.5393568271e-001	-4.7045989721e-001
 1.5165988796e+000	 9.6949875628e-001	-5.6933921161e-001
 1.5065919202e+000	 9.8497755608e-001	-6.6967057573e-001
 1.6211183125e+000	 8.3821263232e-001	 2.1433454928e-001
 1.6125533845e+000	 8.5457391839e-001	 1.3545459484e-001
 1.6038099241e+000	 8.7087239443e-001	 5.3606690128e-002
 1.5948885078e+000	 8.8710520669e-001	-3.1040253675e-002
 1.5857897719e+000	 9.0326950530e-001	-1.1831073463e-001
 1.5765144126e+000	 9.1936244588e-001	-2.0802289308e-001
 1.5670631856e+000	 9.3538119099e-001	-2.9998875899e-001
 1.5574369064e+000	 9.5132291177e-001	-3.9401451319e-001
 1.5476364506e+000	 9.6718478942e-001	-4.8990076200e-001
 1.5376627529e+000	 9.8296401678e-001	-5.8744282487e-001
 1.5275168080e+000	 9.9865779992e-001	-6.8643103438e-001
 1.6433254126e+000	 8.4969499715e-001	 1.8549783843e-001
 1.6346431569e+000	 8.6628041042e-001	 1.0836901095e-001
 1.6257799230e+000	 8.8280215326e-001	 2.8191542213e-002
 1.6167362956e+000	 8.9925733281e-001	-5.4855836254e-002
 1.6075129195e+000	 9.1564306017e-001	-1.4058754974e-001
 1.5981105004e+000	 9.3195645199e-001	-2.2881142664e-001
 1.5885298045e+000	 9.4819463197e-001	-3.1932895971e-001
 1.5787716586e+000	 9.6435473249e-001	-4.1193558171e-001
 1.5688369499e+000	 9.8043389613e-001	-5.0642095514e-001
 1.5587266262e+000	 9.9642927729e-001	-6.0256927534e-001
 1.5484416958e+000	 1.0123380438e+000	-7.0015958655e-001
 1.6655325128e+000	 8.6117736198e-001	 1.5893076718e-001
 1.6567329293e+000	 8.7798690246e-001	 8.3620760174e-002
 1.6477499220e+000	 8.9473191209e-001	 5.1782337472e-003
 1.6385840833e+000	 9.1140945893e-001	-7.6208100203e-002
 1.6292360671e+000	 9.2801661504e-001	-1.6034242823e-001
 1.6197065883e+000	 9.4455045810e-001	-2.4702209518e-001
 1.6099964235e+000	 9.6100807294e-001	-3.3603787964e-001
 1.6001064107e+000	 9.7738655320e-001	-4.2717428427e-001
 1.5900374492e+000	 9.9368300283e-001	-5.2020984091e-001
 1.5797904996e+000	 1.0098945378e+000	-6.1491742953e-001
 1.5693665835e+000	 1.0260182876e+000	-7.1106461066e-001
 1.6877396130e+000	 8.7265972680e-001	 1.3452242384e-001
 1.6788227017e+000	 8.8969339449e-001	 6.1090072043e-002
 1.6697199210e+000	 9.0666167092e-001	-1.5561930800e-002
 1.6604318711e+000	 9.2356158505e-001	-9.5234725737e-002
 1.6509592146e+000	 9.4039016991e-001	-1.7772208788e-001
 1.6413026761e+000	 9.5714446421e-001	-2.6281070008e-001
 1.6314630425e+000	 9.7382151392e-001	-3.5028044276e-001
 1.6214411629e+000	 9.9041837391e-001	-4.3990469943e-001
 1.6112379485e+000	 1.0069321095e+000	-5.3145067725e-001
 1.6008543729e+000	 1.0233597983e+000	-6.2467974232e-001
 1.5902914713e+000	 1.0396985314e+000	-7.1934776873e-001
 1.7099467131e+000	 8.8414209163e-001	 1.1216532015e-001
 1.7009124741e+000	 9.0139988653e-001	 4.0660884297e-002
 1.6916899199e+000	 9.1859142975e-001	-3.4153653392e-002
 1.6822796589e+000	 9.3571371117e-001	-1.1206911374e-001
 1.6726823622e+000	 9.5276372478e-001	-1.9286868109e-001
 1.6628987640e+000	 9.6973847032e-001	-2.7632819108e-001
 1.6529296615e+000	 9.8663495489e-001	-3.6221643524e-001
 1.6427759150e+000	 1.0034501946e+000	-4.5029548180e-001
 1.6324384478e+000	 1.0201812162e+000	-5.4032101230e-001
 1.6219182462e+000	 1.0368250588e+000	-6.3204267329e-001
 1.6112163591e+000	 1.0533787753e+000	-7.2520444255e-001
 1.7321538133e+000	 8.9562445646e-001	 9.1755171816e-002
 1.7230022465e+000	 9.1310637856e-001	 2.2220605194e-002
 1.7136599189e+000	 9.3052118858e-001	-5.0717898421e-002
 1.7041274467e+000	 9.4786583729e-001	-1.2684066007e-001
 1.6944055097e+000	 9.6513727965e-001	-2.0592008751e-001
 1.6844948518e+000	 9.8233247643e-001	-2.8772097737e-001
 1.6743962805e+000	 9.9944839587e-001	-3.7200083475e-001
 1.6641106671e+000	 1.0164820153e+000	-4.5851020977e-001
 1.6536389472e+000	 1.0334303230e+000	-5.4699305040e-001
 1.6429821195e+000	 1.0502903193e+000	-6.3718707107e-001
 1.6321412469e+000	 1.0670590191e+000	-7.2882413621e-001
 1.7543609135e+000	 9.0710682128e-001	 7.3190695753e-002
 1.7450920189e+000	 9.2481287059e-001	 5.6598938534e-003
 1.7356299178e+000	 9.4245094741e-001	-6.5372129267e-002
 1.7259752344e+000	 9.6001796341e-001	-1.3967500906e-001
 1.7161286573e+000	 9.7751083451e-001	-2.1701018450e-001
 1.7060909396e+000	 9.9492648253e-001	-2.9713121488e-001
 1.6958628994e+000	 1.0122618368e+000	-3.7978411482e-001
 1.6854454193e+000	 1.0295138360e+000	-4.6470770672e-001
 1.6748394465e+000	 1.0466794297e+000	-5.5163399032e-001
 1.6640459929e+000	 1.0637555798e+000	-6.4028852838e-001
 1.6530661346e+000	 1.0807392629e+000	-7.3039084815e-001
 1.7765680137e+000	 9.1858918611e-001	 5.6373422479e-002
 1.7671817913e+000	 9.3651936262e-001	-9.1275429198e-003
 1.7575999168e+000	 9.5438070623e-001	-7.8230527105e-002
 1.7478230222e+000	 9.7217008953e-001	-1.5069428798e-001
 1.7378518049e+000	 9.8988438938e-001	-2.2626909724e-001
 1.7276870275e+000	 1.0075204886e+000	-3.0469707219e-001
 1.7173295184e+000	 1.0250752778e+000	-3.8571252634e-001
 1.7067801714e+000	 1.0425456567e+000	-4.6904233827e-001
 1.6960399458e+000	 1.0599285364e+000	-5.5440633806e-001
 1.6851098662e+000	 1.0772208403e+000	-6.4151771063e-001
 1.6739910224e+000	 1.0944195068e+000	-7.3008341522e-001
 1.4647421446e+000	 9.5761706841e-001	-6.2618396494e-001
 1.4548489982e+000	 9.7258130376e-001	-7.0448542874e-001
 1.4447927608e+000	 9.8745829198e-001	-7.8329689209e-001
 1.4345745559e+000	 1.0022454009e+000	-8.6237640753e-001
 1.4241955631e+000	 1.0169400169e+000	-9.4147871391e-001
 1.4136570177e+000	 1.0315395467e+000	-1.0203555959e+000
 1.4029602102e+000	 1.0460414182e+000	-1.0987562512e+000
 1.3921064861e+000	 1.0604430826e+000	-1.1764276651e+000
 1.3810972449e+000	 1.0747420157e+000	-1.2531149913e+000
 1.3699339401e+000	 1.0889357189e+000	-1.3285619378e+000
 1.3586180783e+000	 1.1030217212e+000	-1.4025111582e+000
 1.4856670324e+000	 9.7129731225e-001	-6.4966264281e-001
 1.4756325553e+000	 9.8647532238e-001	-7.2453443687e-001
 1.4654326574e+000	 1.0015648390e+000	-7.9955583291e-001
 1.4550684781e+000	 1.0165631923e+000	-8.7449431863e-001
 1.4445412140e+000	 1.0314677315e+000	-9.4911440489e-001
 1.4338521179e+000	 1.0462758259e+000	-1.0231779828e+000
 1.4230024989e+000	 1.0609848670e+000	-1.0964446883e+000
 1.4119937216e+000	 1.0755922695e+000	-1.1686722729e+000
 1.4008272055e+000	 1.0900954730e+000	-1.2396169813e+000
 1.3895044249e+000	 1.1044919435e+000	-1.3090339330e+000
 1.3780269080e+000	 1.1187791744e+000	-1.3766775088e+000
 1.5065919202e+000	 9.8497755608e-001	-6.6967057573e-001
 1.4964161124e+000	 1.0003693410e+000	-7.4198431650e-001
 1.4860725539e+000	 1.0156713860e+000	-8.1409885868e-001
 1.4755624003e+000	 1.0308809838e+000	-8.8579051844e-001
 1.4648868649e+000	 1.0459954460e+000	-9.5683296137e-001
 1.4540472182e+000	 1.0610121051e+000	-1.0269975577e+000
 1.4430447877e+000	 1.0759283158e+000	-1.0960537445e+000
 1.4318809571e+000	 1.0907414564e+000	-1.1637693946e+000
 1.4205571661e+000	 1.1054489304e+000	-1.2299111900e+000
 1.4090749098e+000	 1.1200481680e+000	-1.2942450016e+000
 1.3974357376e+000	 1.1345366275e+000	-1.3565362709e+000
 1.5275168080e+000	 9.9865779992e-001	-6.8643103438e-001
 1.5171996695e+000	 1.0142633596e+000	-7.5702969781e-001
 1.5067124505e+000	 1.0297779331e+000	-8.2709153156e-001
 1.4960563226e+000	 1.0451987752e+000	-8.9640108318e-001
 1.4852325158e+000	 1.0605231605e+000	-9.6474056535e-001
 1.4742423185e+000	 1.0757483844e+000	-1.0318902100e+000
 1.4630870764e+000	 1.0908717647e+000	-1.0976286292e+000
 1.4517681926e+000	 1.1058906433e+000	-1.1617331819e+000
 1.4402871268e+000	 1.1208023878e+000	-1.2239803457e+000
 1.4286453946e+000	 1.1356043926e+000	-1.2841460930e+000
 1.4168445673e+000	 1.1502940807e+000	-1.3420062708e+000
 1.5484416958e+000	 1.0123380438e+000	-7.0015958655e-001
 1.5379832267e+000	 1.0281573783e+000	-7.6985925820e-001
 1.5273523471e+000	 1.0438844801e+000	-8.3869523482e-001
 1.5165502448e+000	 1.0595165667e+000	-9.0645970686e-001
 1.5055781667e+000	 1.0750508751e+000	-9.7294283549e-001
 1.4944374187e+000	 1.0904846636e+000	-1.0379331063e+000
 1.4831293651e+000	 1.1058152135e+000	-1.1012176893e+000
 1.4716554281e+000	 1.1210398302e+000	-1.1625828047e+000
 1.4600170874e+000	 1.1361558451e+000	-1.2218140931e+000
 1.4482158795e+000	 1.1511606171e+000	-1.2786969901e+000
 1.4362533970e+000	 1.1660515338e+000	-1.3330171029e+000
 1.5693665835e+000	 1.0260182876e+000	-7.1106461066e-001
 1.5587667838e+000	 1.0420513969e+000	-7.8065611918e-001
 1.5479922437e+000	 1.0579910271e+000	-8.4906745138e-001
 1.5370441670e+000	 1.0738343581e+000	-9.1609786013e-001
 1.5259238176e+000	 1.0895785896e+000	-9.8154486467e-001
 1.5146325190e+000	 1.1052209428e+000	-1.0452046046e+000
 1.5031716538e+000	 1.1207586623e+000	-1.1068721998e+000
 1.4915426636e+000	 1.1361890171e+000	-1.1663421158e+000
 1.4797470481e+000	 1.1515093025e+000	-1.2234085331e+000
 1.4677863643e+000	 1.1667168417e+000	-1.2778657206e+000
 1.4556622267e+000	 1.1818089870e+000	-1.3295084113e+000
 1.5902914713e+000	 1.0396985314e+000	-7.1934776873e-001
 1.5795503409e+000	 1.0559454155e+000	-7.8959821188e-001
 1.5686321403e+000	 1.0720975742e+000	-8.5836202043e-001
 1.5575380892e+000	 1.0881521496e+000	-9.2544493652e-001
 1.5462694685e+000	 1.1041063041e+000	-9.9065125461e-001
 1.5348276192e+000	 1.1199572221e+000	-1.0537841764e+000
 1.5232139425e+000	 1.1357021112e+000	-1.1146461716e+000
 1.5114298991e+000	 1.1513382040e+000	-1.1730393432e+000
 1.4994770087e+000	 1.1668627599e+000	-1.2287657971e+000
 1.4873568492e+000	 1.1822730662e+000	-1.2816280149e+000
 1.4750710564e+000	 1.1975664402e+000	-1.3314292289e+000
 1.6112163591e+000	 1.0533787753e+000	-7.2520444255e-001
 1.6003338980e+000	 1.0698394341e+000	-7.9685861406e-001
 1.5892720368e+000	 1.0862041212e+000	-8.6672937405e-001
 1.5780320114e+000	 1.1024699410e+000	-9.3462838735e-001
 1.5666151194e+000	 1.1186340186e+000	-1.0003661477e+000
 1.5550227194e+000	 1.1346935013e+000	-1.0637523343e+000
 1.5432562312e+000	 1.1506455600e+000	-1.1245961736e+000
 1.5313171347e+000	 1.1664873909e+000	-1.1827068061e+000
 1.5192069693e+000	 1.1822162172e+000	-1.2378936562e+000
 1.5069273341e+000	 1.1978292908e+000	-1.2899668055e+000
 1.4944798861e+000	 1.2133238933e+000	-1.3387373677e+000
 1.6321412469e+000	 1.0670590191e+000	-7.2882413621e-001
 1.6211174551e+000	 1.0837334528e+000	-8.0260586129e-001
 1.6099119334e+000	 1.1003106682e+000	-8.7431675560e-001
 1.5985259337e+000	 1.1167877324e+000	-9.4377384622e-001
 1.5869607703e+000	 1.1331617332e+000	-1.0107932565e+000
 1.5752178197e+000	 1.1494297806e+000	-1.0751905648e+000
 1.5632985200e+000	 1.1655890088e+000	-1.1367811685e+000
 1.5512043702e+000	 1.1816365778e+000	-1.1953806522e+000
 1.5389369300e+000	 1.1975696746e+000	-1.2508051591e+000
 1.5264978189e+000	 1.2133855153e+000	-1.3028717654e+000
 1.5138887158e+000	 1.2290813465e+000	-1.3513988559e+000
 1.6530661346e+000	 1.0807392629e+000	-7.3039084815e-001
 1.6419010122e+000	 1.0976274714e+000	-8.0700423435e-001
 1.6305518300e+000	 1.1144172153e+000	-8.8126842152e-001
 1.6190198559e+000	 1.1311055239e+000	-9.5300524404e-001
 1.6073064212e+000	 1.1476894477e+000	-1.0220358909e+000
 1.5954129199e+000	 1.1641660598e+000	-1.0881812674e+000
 1.5833408087e+000	 1.1805324577e+000	-1.1512623618e+000
 1.5710916057e+000	 1.1967857647e+000	-1.2111006158e+000
 1.5586668906e+000	 1.2129231320e+000	-1.2675182984e+000
 1.5460683038e+000	 1.2289417399e+000	-1.3203388818e+000
 1.5332975455e+000	 1.2448387997e+000	-1.3693874181e+000
 1.6739910224e+000	 1.0944195068e+000	-7.3008341522e-001
 1.6626845693e+000	 1.1115214900e+000	-8.1021402523e-001
 1.6511917266e+000	 1.1285237623e+000	-8.8772582805e-001
 1.6395137781e+000	 1.1454233153e+000	-9.6244491547e-001
 1.6276520721e+000	 1.1622171622e+000	-1.0341969834e+000
 1.6156080202e+000	 1.1789023391e+000	-1.1028076970e+000
 1.6033830974e+000	 1.1954759065e+000	-1.1681030611e+000
 1.5909788412e+000	 1.2119349516e+000	-1.2299097935e+000
 1.5783968513e+000	 1.2282765894e+000	-1.2880557016e+000
 1.5656387886e+000	 1.2444979645e+000	-1.3423700609e+000
 1.5527063751e+000	 1.2605962528e+000	-1.3701239556e+000
 1.3586180783e+000	 1.1030217212e+000	-1.4025111582e+000
 1.3471512186e+000	 1.1169975803e+000	-1.4806207229e+000
 1.3355349719e+000	 1.1308608840e+000	-1.5523512433e+000
 1.3237710003e+000	 1.1446092516e+000	-1.6176226591e+000
 1.3118610162e+000	 1.1582403353e+000	-1.6763599321e+000
 1.2998067814e+000	 1.1717518215e+000	-1.7284932639e+000
 1.2876101065e+000	 1.1851414320e+000	-1.7739583073e+000
 1.2752728496e+000	 1.1984069255e+000	-1.8126963692e+000
 1.2627969161e+000	 1.2115460986e+000	-1.8446546066e+000
 1.2501842566e+000	 1.2245567870e+000	-1.8697862128e+000
 1.2374368671e+000	 1.2374368671e+000	-1.9257317692e+000
 1.3780269080e+000	 1.1187791744e+000	-1.3766775088e+000
 1.3663962360e+000	 1.1329546886e+000	-1.4560512544e+000
 1.3546140429e+000	 1.1470160395e+000	-1.5295297446e+000
 1.3426820146e+000	 1.1609608123e+000	-1.5970217056e+000
 1.3306018879e+000	 1.1747866258e+000	-1.6584404615e+000
 1.3183754497e+000	 1.1884911332e+000	-1.7137041689e+000
 1.3060045366e+000	 1.2020720239e+000	-1.7627360454e+000
 1.2934910332e+000	 1.2155270244e+000	-1.8054645910e+000
 1.2808368720e+000	 1.2288539000e+000	-1.8418238016e+000
 1.2680440317e+000	 1.2420504554e+000	-1.8717533754e+000
 1.2551145366e+000	 1.2551145366e+000	-1.8828464326e+000
 1.3974357376e+000	 1.1345366275e+000	-1.3565362709e+000
 1.3856412534e+000	 1.1489117969e+000	-1.4370311396e+000
 1.3736931140e+000	 1.1631711949e+000	-1.5120986388e+000
 1.3615930289e+000	 1.1773123730e+000	-1.5816361121e+000
 1.3493427595e+000	 1.1913329163e+000	-1.6455450877e+000
 1.3369441180e+000	 1.2052304449e+000	-1.7037315301e+000
 1.3243989666e+000	 1.2190026158e+000	-1.7561060868e+000
 1.3117092168e+000	 1.2326471234e+000	-1.8025843273e+000
 1.2988768279e+000	 1.2461617014e+000	-1.8430869766e+000
 1.2859038068e+000	 1.2595441238e+000	-1.8547176028e+000
 1.2727922062e+000	 1.2727922062e+000	-1.8520167716e+000
 1.4168445673e+000	 1.1502940807e+000	-1.3420062708e+000
 1.4048862708e+000	 1.1648689052e+000	-1.4234920464e+000
 1.3927721850e+000	 1.1793263504e+000	-1.5000029798e+000
 1.3805040432e+000	 1.1936639338e+000	-1.5714248539e+000
 1.3680836312e+000	 1.2078792068e+000	-1.6376472335e+000
 1.3555127863e+000	 1.2219697567e+000	-1.6985637349e+000
 1.3427933967e+000	 1.2359332077e+000	-1.7540722901e+000
 1.3299274003e+000	 1.2497672223e+000	-1.8040754053e+000
 1.3169167839e+000	 1.2634695028e+000	-1.8165944439e+000
 1.3037635819e+000	 1.2770377922e+000	-1.8238322824e+000
 1.2904698757e+000	 1.2904698757e+000	-1.8264211815e+000
 1.4362533970e+000	 1.1660515338e+000	-1.3330171029e+000
 1.4241312882e+000	 1.1808260135e+000	-1.4153759120e+000
 1.4118512560e+000	 1.1954815059e+000	-1.4931975607e+000
 1.3994150575e+000	 1.2100154945e+000	-1.5663560843e+000
 1.3868245028e+000	 1.2244254973e+000	-1.6347289079e+000
 1.3740814546e+000	 1.2387090684e+000	-1.6981971336e+000
 1.3611878268e+000	 1.2528637995e+000	-1.7498952297e+000
 1.3481455839e+000	 1.2668873212e+000	-1.7704030171e+000
 1.3349567398e+000	 1.2807773042e+000	-1.7865201953e+000
 1.3216233570e+000	 1.2945314606e+000	-1.7983158903e+000
 1.3081475452e+000	 1.3081475452e+000	-1.8058619058e+000
 1.4556622267e+000	 1.1818089870e+000	-1.3295084113e+000
 1.4433763056e+000	 1.1967831217e+000	-1.4126342587e+000
 1.4309303270e+000	 1.2116366614e+000	-1.4916462651e+000
 1.4183260718e+000	 1.2263670552e+000	-1.5664065234e+000
 1.4055653745e+000	 1.2409717878e+000	-1.6367801335e+000
 1.3926501229e+000	 1.2554483801e+000	-1.6899621806e+000
 1.3795822569e+000	 1.2697943914e+000	-1.7179831059e+000
 1.3663637675e+000	 1.2840074202e+000	-1.7419481319e+000
 1.3529966958e+000	 1.2980851056e+000	-1.7619198314e+000
 1.3394831321e+000	 1.3120251289e+000	-1.7779631529e+000
 1.3258252148e+000	 1.3258252148e+000	-1.7901452906e+000
 1.4750710564e+000	 1.1975664402e+000	-1.3314292289e+000
 1.4626213230e+000	 1.2127402300e+000	-1.4152275626e+000
 1.4500093981e+000	 1.2277918169e+000	-1.4953214687e+000
 1.4372370861e+000	 1.2427186160e+000	-1.5715608939e+000
 1.4243062462e+000	 1.2575180783e+000	-1.6265600822e+000
 1.4112187912e+000	 1.2721876919e+000	-1.6610922469e+000
 1.3979766870e+000	 1.2867249833e+000	-1.6919016546e+000
 1.3845819510e+000	 1.3011275191e+000	-1.7190452768e+000
 1.3710366517e+000	 1.3153929070e+000	-1.7425821613e+000
 1.3573429072e+000	 1.3295187973e+000	-1.7625733029e+000
 1.3435028843e+000	 1.3435028843e+000	-1.7790815145e+000
 1.4944798861e+000	 1.2133238933e+000	-1.3387373677e+000
 1.4818663404e+000	 1.2286973383e+000	-1.4231246730e+000
 1.4690884691e+000	 1.2439469724e+000	-1.5042034881e+000
 1.4561481004e+000	 1.2590701767e+000	-1.5613381980e+000
 1.4430471178e+000	 1.2740643688e+000	-1.6014092914e+000
 1.4297874596e+000	 1.2889270036e+000	-1.6380879163e+000
 1.4163711171e+000	 1.3036555752e+000	-1.6714263790e+000
 1.4028001346e+000	 1.3182476180e+000	-1.7014787655e+000
 1.3890766077e+000	 1.3327007084e+000	-1.7283008140e+000
 1.3752026823e+000	 1.3470124657e+000	-1.7519497863e+000
 1.3611805538e+000	 1.3611805538e+000	-1.7724843396e+000
 1.5138887158e+000	 1.2290813465e+000	-1.3513988559e+000
 1.5011113578e+000	 1.2446544466e+000	-1.4363022749e+000
 1.4881675401e+000	 1.2601021278e+000	-1.4958699069e+000
 1.4750591147e+000	 1.2754217375e+000	-1.5405375418e+000
 1.4617879895e+000	 1.2906106593e+000	-1.5821388757e+000
 1.4483561279e+000	 1.3056663153e+000	-1.6207224659e+000
 1.4347655472e+000	 1.3205861671e+000	-1.6563383599e+000
 1.4210183182e+000	 1.3353677170e+000	-1.6890379670e+000
 1.4071165636e+000	 1.3500085098e+000	-1.7188739293e+000
 1.3930624574e+000	 1.3645061341e+000	-1.7458999931e+000
 1.3788582233e+000	 1.3788582233e+000	-1.7701708817e+000
 1.5332975455e+000	 1.2448387997e+000	-1.3693874181e+000
 1.5203563752e+000	 1.2606115549e+000	-1.4316553870e+000
 1.5072466111e+000	 1.2762572833e+000	-1.4800075024e+000
 1.4939701289e+000	 1.2917732982e+000	-1.5256141163e+000
 1.4805288611e+000	 1.3071569498e+000	-1.5685209327e+000
 1.4669247962e+000	 1.3224056271e+000	-1.6087748644e+000
 1.4531599773e+000	 1.3375167590e+000	-1.6464239025e+000
 1.4392365017e+000	 1.3524878159e+000	-1.6815169860e+000
 1.4251565195e+000	 1.3673163112e+000	-1.7141038720e+000
 1.4109222325e+000	 1.3819998025e+000	-1.7442350069e+000
 1.3965358929e+000	 1.3965358929e+000	-1.7719613986e+000
 1.5527063751e+000	 1.2605962528e+000	-1.3701239556e+000
 1.5396013926e+000	 1.2765686632e+000	-1.4212792777e+000
 1.5263256822e+000	 1.2924124388e+000	-1.4700033064e+000
 1.5128811432e+000	 1.3081248589e+000	-1.5163397648e+000
 1.4992697328e+000	 1.3237032403e+000	-1.5603333133e+000
 1.4854934645e+000	 1.3391449388e+000	-1.6020294165e+000
 1.4715544074e+000	 1.3544473509e+000	-1.6414742097e+000
 1.4574546853e+000	 1.3696079148e+000	-1.6787143667e+000
 1.4431964755e+000	 1.3846241126e+000	-1.7137969687e+000
 1.4287820076e+000	 1.3994934709e+000	-1.7467693744e+000
 1.4142135624e+000	 1.4142135624e+000	-1.7776790930e+000
 1.2374368671e+000	 1.2374368671e+000	-1.9257317692e+000
 1.2245567870e+000	 1.2501842566e+000	-1.9867369091e+000
 1.2115460986e+000	 1.2627969161e+000	-2.0142461177e+000
 1.1984069255e+000	 1.2752728496e+000	-2.0393883964e+000
 1.1851414320e+000	 1.2876101065e+000	-2.0622127182e+000
 1.1717518215e+000	 1.2998067814e+000	-2.0827677963e+000
 1.1582403353e+000	 1.3118610162e+000	-2.1011021353e+000
 1.1446092516e+000	 1.3237710003e+000	-2.1172640877e+000
 1.1308608840e+000	 1.3355349719e+000	-2.1313019158e+000
 1.1169975803e+000	 1.3471512186e+000	-2.1432638570e+000
 1.1030217212e+000	 1.3586180783e+000	-2.1531981952e+000
 1.2551145366e+000	 1.2551145366e+000	-1.8828464326e+000
 1.2420504554e+000	 1.2680440317e+000	-1.9047224536e+000
 1.2288539000e+000	 1.2808368720e+000	-1.9392343327e+000
 1.2155270244e+000	 1.2934910332e+000	-1.9713094540e+000
 1.2020720239e+000	 1.3060045366e+000	-2.0009739121e+000
 1.1884911332e+000	 1.3183754497e+000	-2.0282534893e+000
 1.1747866258e+000	 1.3306018879e+000	-2.0531737360e+000
 1.1609608123e+000	 1.3426820146e+000	-2.0757600558e+000
 1.1470160395e+000	 1.3546140429e+000	-2.0960377964e+000
 1.1329546886e+000	 1.3663962360e+000	-2.1140323443e+000
 1.1187791744e+000	 1.3780269080e+000	-2.1297692251e+000
 1.2727922062e+000	 1.2727922062e+000	-1.8520167716e+000
 1.2595441238e+000	 1.2859038068e+000	-1.8571974987e+000
 1.2461617014e+000	 1.2988768279e+000	-1.8696969392e+000
 1.2326471234e+000	 1.3117092168e+000	-1.9079363424e+000
 1.2190026158e+000	 1.3243989666e+000	-1.9436806308e+000
 1.2052304449e+000	 1.3369441180e+000	-1.9769328447e+000
 1.1913329163e+000	 1.3493427595e+000	-2.0076957566e+000
 1.1773123730e+000	 1.3615930289e+000	-2.0359719863e+000
 1.1631711949e+000	 1.3736931140e+000	-2.0617641198e+000
 1.1489117969e+000	 1.3856412534e+000	-2.0850748344e+000
 1.1345366275e+000	 1.3974357376e+000	-2.1059070273e+000
 1.2904698757e+000	 1.2904698757e+000	-1.8264211815e+000
 1.2770377922e+000	 1.3037635819e+000	-1.8379778694e+000
 1.2634695028e+000	 1.3169167839e+000	-1.8452035770e+000
 1.2497672223e+000	 1.3299274003e+000	-1.8488988074e+000
 1.2359332077e+000	 1.3427933967e+000	-1.8899987054e+000
 1.2219697567e+000	 1.3555127863e+000	-1.9285078400e+000
 1.2078792068e+000	 1.3680836312e+000	-1.9644063628e+000
 1.1936639338e+000	 1.3805040432e+000	-1.9976742542e+000
 1.1793263504e+000	 1.3927721850e+000	-2.0282914720e+000
 1.1648689052e+000	 1.4048862708e+000	-2.0562381052e+000
 1.1502940807e+000	 1.4168445673e+000	-2.0814945324e+000
 1.3081475452e+000	 1.3081475452e+000	-1.8058619058e+000
 1.2945314606e+000	 1.3216233570e+000	-1.8230334417e+000
 1.2807773042e+000	 1.3349567398e+000	-1.8357635826e+000
 1.2668873212e+000	 1.3481455839e+000	-1.8441366102e+000
 1.2528637995e+000	 1.3611878268e+000	-1.8482391168e+000
 1.2387090684e+000	 1.3740814546e+000	-1.8826758573e+000
 1.2244254973e+000	 1.3868245028e+000	-1.9230373478e+000
 1.2100154945e+000	 1.3994150575e+000	-1.9606330946e+000
 1.1954815059e+000	 1.4118512560e+000	-1.9954205408e+000
 1.1808260135e+000	 1.4241312882e+000	-2.0273572893e+000
 1.1660515338e+000	 1.4362533970e+000	-2.0564012904e+000
 1.3258252148e+000	 1.3258252148e+000	-1.7901452906e+000
 1.3120251289e+000	 1.3394831321e+000	-1.8121994220e+000
 1.2980851056e+000	 1.3529966958e+000	-1.8297046961e+000
 1.2840074202e+000	 1.3663637675e+000	-1.8427306615e+000
 1.2697943914e+000	 1.3795822569e+000	-1.8513492391e+000
 1.2554483801e+000	 1.3926501229e+000	-1.8556345917e+000
 1.2409717878e+000	 1.4055653745e+000	-1.8833145569e+000
 1.2263670552e+000	 1.4183260718e+000	-1.9246071445e+000
 1.2116366614e+000	 1.4309303270e+000	-1.9629427756e+000
 1.1967831217e+000	 1.4433763056e+000	-1.9982566501e+000
 1.1818089870e+000	 1.4556622267e+000	-2.0304843620e+000
 1.3435028843e+000	 1.3435028843e+000	-1.7790815145e+000
 1.3295187973e+000	 1.3573429072e+000	-1.8053132713e+000
 1.3153929070e+000	 1.3710366517e+000	-1.8268916522e+000
 1.3011275191e+000	 1.3845819510e+000	-1.8438718906e+000
 1.2867249833e+000	 1.3979766870e+000	-1.8563116489e+000
 1.2721876919e+000	 1.4112187912e+000	-1.8642709014e+000
 1.2575180783e+000	 1.4243062462e+000	-1.8678118165e+000
 1.2427186160e+000	 1.4372370861e+000	-1.8893479433e+000
 1.2277918169e+000	 1.4500093981e+000	-1.9306409950e+000
 1.2127402300e+000	 1.4626213230e+000	-1.9687502971e+000
 1.1975664402e+000	 1.4750710564e+000	-2.0035891409e+000
 1.3611805538e+000	 1.3611805538e+000	-1.7724843396e+000
 1.3470124657e+000	 1.3752026823e+000	-1.8022145589e+000
 1.3327007084e+000	 1.3890766077e+000	-1.8271898227e+000
 1.3182476180e+000	 1.4028001346e+000	-1.8474514553e+000
 1.3036555752e+000	 1.4163711171e+000	-1.8630432625e+000
 1.2889270036e+000	 1.4297874596e+000	-1.8740114265e+000
 1.2740643688e+000	 1.4430471178e+000	-1.8804044010e+000
 1.2590701767e+000	 1.4561481004e+000	-1.8822728056e+000
 1.2439469724e+000	 1.4690884691e+000	-1.8982899476e+000
 1.2286973383e+000	 1.4818663404e+000	-1.9386428451e+000
 1.2133238933e+000	 1.4944798861e+000	-1.9755501109e+000
 1.3788582233e+000	 1.3788582233e+000	-1.7701708817e+000
 1.3645061341e+000	 1.3930624574e+000	-1.8027448274e+000
 1.3500085098e+000	 1.4071165636e+000	-1.8304651754e+000
 1.3353677170e+000	 1.4210183182e+000	-1.8533597369e+000
 1.3205861671e+000	 1.4347655472e+000	-1.8714588519e+000
 1.3056663153e+000	 1.4483561279e+000	-1.8847952966e+000
 1.2906106593e+000	 1.4617879895e+000	-1.8934041899e+000
 1.2754217375e+000	 1.4750591147e+000	-1.8973229004e+000
 1.2601021278e+000	 1.4881675401e+000	-1.8965909536e+000
 1.2446544466e+000	 1.5011113578e+000	-1.9077300228e+000
 1.2290813465e+000	 1.5138887158e+000	-1.9461915457e+000
 1.3965358929e+000	 1.3965358929e+000	-1.7719613986e+000
 1.3819998025e+000	 1.4109222325e+000	-1.8067474673e+000
 1.3673163112e+000	 1.4251565195e+000	-1.8365842362e+000
 1.3524878159e+000	 1.4392365017e+000	-1.8614863888e+000
 1.3375167590e+000	 1.4531599773e+000	-1.8814711803e+000
 1.3224056271e+000	 1.4669247962e+000	-1.8965583562e+000
 1.3071569498e+000	 1.4805288611e+000	-1.9067700710e+000
 1.2917732982e+000	 1.4939701289e+000	-1.9121308064e+000
 1.2762572833e+000	 1.5072466111e+000	-1.9126672904e+000
 1.2606115549e+000	 1.5203563752e+000	-1.9084084162e+000
 1.2448387997e+000	 1.5332975455e+000	-1.9153281546e+000
 1.4142135624e+000	 1.4142135624e+000	-1.7776790930e+000
 1.3994934709e+000	 1.4287820076e+000	-1.8140676021e+000
 1.3846241126e+000	 1.4431964755e+000	-1.8454140547e+000
 1.3696079148e+000	 1.4574546853e+000	-1.8717203826e+000
 1.3544473509e+000	 1.4715544074e+000	-1.8929911274e+000
 1.3391449388e+000	 1.4854934645e+000	-1.9092333704e+000
 1.3237032403e+000	 1.4992697328e+000	-1.9204566619e+000
 1.3081248589e+000	 1.5128811432e+000	-1.9266729515e+000
 1.2924124388e+000	 1.5263256822e+000	-1.9278965179e+000
 1.2765686632e+000	 1.5396013926e+000	-1.9241438993e+000
 1.2605962528e+000	 1.5527063751e+000	-1.9154338248e+000
 1.1030217212e+000	 1.3586180783e+000	-2.1531981952e+000
 1.0889357189e+000	 1.3699339401e+000	-2.1515539556e+000
 1.0747420157e+000	 1.3810972449e+000	-2.1485010242e+000
 1.0604430826e+000	 1.3921064861e+000	-2.1438920582e+000
 1.0460414182e+000	 1.4029602102e+000	-2.1375803265e+000
 1.0315395467e+000	 1.4136570177e+000	-2.1294200053e+000
 1.0169400169e+000	 1.4241955631e+000	-2.1192664732e+000
 1.0022454009e+000	 1.4345745559e+000	-2.1069766067e+000
 9.8745829198e-001	 1.4447927608e+000	-2.0924090747e+000
 9.7258130376e-001	 1.4548489982e+000	-2.0754246299e+000
 9.5761706841e-001	 1.4647421446e+000	-2.0558863989e+000
 1.1187791744e+000	 1.3780269080e+000	-2.1297692251e+000
 1.1044919435e+000	 1.3895044249e+000	-2.1257129898e+000
 1.0900954730e+000	 1.4008272055e+000	-2.1201290689e+000
 1.0755922695e+000	 1.4119937216e+000	-2.1128796009e+000
 1.0609848670e+000	 1.4230024989e+000	-2.1038272522e+000
 1.0462758259e+000	 1.4338521179e+000	-2.0928355102e+000
 1.0314677315e+000	 1.4445412140e+000	-2.0797689757e+000
 1.0165631923e+000	 1.4550684781e+000	-2.0644936558e+000
 1.0015648390e+000	 1.4654326574e+000	-2.0468772558e+000
 9.8647532238e-001	 1.4756325553e+000	-2.0267894693e+000
 9.7129731225e-001	 1.4856670324e+000	-2.0041022657e+000
 1.1345366275e+000	 1.3974357376e+000	-2.1059070273e+000
 1.1200481680e+000	 1.4090749098e+000	-2.1001992405e+000
 1.1054489304e+000	 1.4205571661e+000	-2.0928494068e+000
 1.0907414564e+000	 1.4318809571e+000	-2.0837285538e+000
 1.0759283158e+000	 1.4430447877e+000	-2.0727081487e+000
 1.0610121051e+000	 1.4540472182e+000	-2.0596603884e+000
 1.0459954460e+000	 1.4648868649e+000	-2.0444584903e+000
 1.0308809838e+000	 1.4755624003e+000	-2.0269769836e+000
 1.0156713860e+000	 1.4860725539e+000	-2.0070919992e+000
 1.0003693410e+000	 1.4964161124e+000	-1.9846815591e+000
 9.8497755608e-001	 1.5065919202e+000	-1.9596258628e+000
 1.1502940807e+000	 1.4168445673e+000	-2.0814945324e+000
 1.1356043926e+000	 1.4286453946e+000	-2.0748718000e+000
 1.1208023878e+000	 1.4402871268e+000	-2.0664974093e+000
 1.1058906433e+000	 1.4517681926e+000	-2.0562506937e+000
 1.0908717647e+000	 1.4630870764e+000	-2.0440113319e+000
 1.0757483844e+000	 1.4742423185e+000	-2.0296596365e+000
 1.0605231605e+000	 1.4852325158e+000	-2.0130768438e+000
 1.0451987752e+000	 1.4960563226e+000	-1.9941454035e+000
 1.0297779331e+000	 1.5067124505e+000	-1.9727492689e+000
 1.0142633596e+000	 1.5171996695e+000	-1.9487741848e+000
 9.9865779992e-001	 1.5275168080e+000	-1.9221079750e+000
 1.1660515338e+000	 1.4362533970e+000	-2.0564012904e+000
 1.1511606171e+000	 1.4482158795e+000	-2.0495778960e+000
 1.1361558451e+000	 1.4600170874e+000	-2.0408981024e+000
 1.1210398302e+000	 1.4716554281e+000	-2.0302489725e+000
 1.1058152135e+000	 1.4831293651e+000	-2.0175178147e+000
 1.0904846636e+000	 1.4944374187e+000	-2.0025924705e+000
 1.0750508751e+000	 1.5055781667e+000	-1.9853616037e+000
 1.0595165667e+000	 1.5165502448e+000	-1.9657149906e+000
 1.0438844801e+000	 1.5273523471e+000	-1.9435438092e+000
 1.0281573783e+000	 1.5379832267e+000	-1.9187409288e+000
 1.0123380438e+000	 1.5484416958e+000	-1.8912011967e+000
 1.1818089870e+000	 1.4556622267e+000	-2.0304843620e+000
 1.1667168417e+000	 1.4677863643e+000	-2.0241536824e+000
 1.1515093025e+000	 1.4797470481e+000	-2.0158668559e+000
 1.1361890171e+000	 1.4915426636e+000	-2.0055181055e+000
 1.1207586623e+000	 1.5031716538e+000	-1.9930017938e+000
 1.1052209428e+000	 1.5146325190e+000	-1.9782127107e+000
 1.0895785896e+000	 1.5259238176e+000	-1.9610463628e+000
 1.0738343581e+000	 1.5370441670e+000	-1.9413992640e+000
 1.0579910271e+000	 1.5479922437e+000	-1.9191692264e+000
 1.0420513969e+000	 1.5587667838e+000	-1.8942556501e+000
 1.0260182876e+000	 1.5693665835e+000	-1.8665598118e+000
 1.1975664402e+000	 1.4750710564e+000	-2.0035891409e+000
 1.1822730662e+000	 1.4873568492e+000	-1.9984249683e+000
 1.1668627599e+000	 1.4994770087e+000	-1.9912100192e+000
 1.1513382040e+000	 1.5114298991e+000	-1.9818451134e+000
 1.1357021112e+000	 1.5232139425e+000	-1.9702310981e+000
 1.1199572221e+000	 1.5348276192e+000	-1.9562691369e+000
 1.1041063041e+000	 1.5462694685e+000	-1.9398609997e+000
 1.0881521496e+000	 1.5575380892e+000	-1.9209093554e+000
 1.0720975742e+000	 1.5686321403e+000	-1.8993180635e+000
 1.0559454155e+000	 1.5795503409e+000	-1.8749924668e+000
 1.0396985314e+000	 1.5902914713e+000	-1.8478396820e+000
 1.2133238933e+000	 1.4944798861e+000	-1.9755501109e+000
 1.1978292908e+000	 1.5069273341e+000	-1.9722078893e+000
 1.1822162172e+000	 1.5192069693e+000	-1.9667255067e+000
 1.1664873909e+000	 1.5313171347e+000	-1.9590098218e+000
 1.1506455600e+000	 1.5432562312e+000	-1.9489676024e+000
 1.1346935013e+000	 1.5550227194e+000	-1.9365058158e+000
 1.1186340186e+000	 1.5666151194e+000	-1.9215319212e+000
 1.1024699410e+000	 1.5780320114e+000	-1.9039541635e+000
 1.0862041212e+000	 1.5892720368e+000	-1.8836818689e+000
 1.0698394341e+000	 1.6003338980e+000	-1.8606257389e+000
 1.0533787753e+000	 1.6112163591e+000	-1.8346981446e+000
 1.2290813465e+000	 1.5138887158e+000	-1.9461915457e+000
 1.2133855153e+000	 1.5264978189e+000	-1.9453095276e+000
 1.1975696746e+000	 1.5389369300e+000	-1.9422033386e+000
 1.1816365778e+000	 1.5512043702e+000	-1.9367853227e+000
 1.1655890088e+000	 1.5632985200e+000	-1.9289676088e+000
 1.1494297806e+000	 1.5752178197e+000	-1.9186624031e+000
 1.1331617332e+000	 1.5869607703e+000	-1.9057822836e+000
 1.1167877324e+000	 1.5985259337e+000	-1.8902404978e+000
 1.1003106682e+000	 1.6099119334e+000	-1.8719512607e+000
 1.0837334528e+000	 1.6211174551e+000	-1.8508300528e+000
 1.0670590191e+000	 1.6321412469e+000	-1.8267939180e+000
 1.2448387997e+000	 1.5332975455e+000	-1.9153281546e+000
 1.2289417399e+000	 1.5460683038e+000	-1.9175284855e+000
 1.2129231320e+000	 1.5586668906e+000	-1.9174261403e+000
 1.1967857647e+000	 1.5710916057e+000	-1.9149384001e+000
 1.1805324577e+000	 1.5833408087e+000	-1.9099821996e+000
 1.1641660598e+000	 1.5954129199e+000	-1.9024744223e+000
 1.1476894477e+000	 1.6073064212e+000	-1.8923321994e+000
 1.1311055239e+000	 1.6190198559e+000	-1.8794732105e+000
 1.1144172153e+000	 1.6305518300e+000	-1.8638159853e+000
 1.0976274714e+000	 1.6419010122e+000	-1.8452802071e+000
 1.0807392629e+000	 1.6530661346e+000	-1.8237870141e+000
 1.2605962528e+000	 1.5527063751e+000	-1.9154338248e+000
 1.2444979645e+000	 1.5656387886e+000	-1.8886554148e+000
 1.2282765894e+000	 1.5783968513e+000	-1.8921696052e+000
 1.2119349516e+000	 1.5909788412e+000	-1.8932299251e+000
 1.1954759065e+000	 1.6033830974e+000	-1.8917575632e+000
 1.1789023391e+000	 1.6156080202e+000	-1.8876735235e+000
 1.1622171622e+000	 1.6276520721e+000	-1.8808989271e+000
 1.1454233153e+000	 1.6395137781e+000	-1.8713553185e+000
 1.1285237623e+000	 1.6511917266e+000	-1.8589649719e+000
 1.1115214900e+000	 1.6626845693e+000	-1.8436511992e+000
 1.0944195068e+000	 1.6739910224e+000	-1.8253386574e+000
 9.5761706841e-001	 1.4647421446e+000	-2.0558863989e+000
 9.4256823526e-001	 1.4744711329e+000	-2.0475090575e+000
 9.2743746930e-001	 1.4840349526e+000	-2.0355633135e+000
 9.1222744964e-001	 1.4934326500e+000	-2.0199470387e+000
 8.9694086807e-001	 1.5026633286e+000	-2.0005620033e+000
 8.8158042754e-001	 1.5117261490e+000	-1.9773141093e+000
 8.6614884069e-001	 1.5206203292e+000	-1.9501136165e+000
 8.5064882832e-001	 1.5293451444e+000	-1.9188753619e+000
 8.3508311794e-001	 1.5378999272e+000	-1.8835189697e+000
 8.1945444228e-001	 1.5462840674e+000	-1.8439690532e+000
 8.0376553783e-001	 1.5544970119e+000	-1.8001554072e+000
 9.7129731225e-001	 1.4856670324e+000	-2.0041022657e+000
 9.5603349577e-001	 1.4955350063e+000	-1.9934950777e+000
 9.4068657601e-001	 1.5052354519e+000	-1.9794565724e+000
 9.2525927035e-001	 1.5147674021e+000	-1.9618808266e+000
 9.0975430904e-001	 1.5241299476e+000	-1.9406656516e+000
 8.9417443366e-001	 1.5333222369e+000	-1.9157128401e+000
 8.7852239556e-001	 1.5423434768e+000	-1.8869284052e+000
 8.6280095444e-001	 1.5511929322e+000	-1.8542228119e+000
 8.4701287677e-001	 1.5598699262e+000	-1.8175112010e+000
 8.3116093432e-001	 1.5683738397e+000	-1.7767136035e+000
 8.1524790266e-001	 1.5767041121e+000	-1.7317551462e+000
 9.8497755608e-001	 1.5065919202e+000	-1.9596258628e+000
 9.6949875628e-001	 1.5165988796e+000	-1.9470462323e+000
 9.5393568271e-001	 1.5264359512e+000	-1.9311667911e+000
 9.3829109106e-001	 1.5361021543e+000	-1.9118774727e+000
 9.2256775002e-001	 1.5455965666e+000	-1.8890717856e+000
 9.0676843977e-001	 1.5549183247e+000	-1.8626470729e+000
 8.9089595043e-001	 1.5640666244e+000	-1.8325047650e+000
 8.7495308057e-001	 1.5730407200e+000	-1.7985506245e+000
 8.5894263560e-001	 1.5818399251e+000	-1.7606949835e+000
 8.4286742635e-001	 1.5904636121e+000	-1.7188529715e+000
 8.2673026749e-001	 1.5989112123e+000	-1.6729447347e+000
 9.9865779992e-001	 1.5275168080e+000	-1.9221079750e+000
 9.8296401678e-001	 1.5376627529e+000	-1.9078124524e+000
 9.6718478942e-001	 1.5476364506e+000	-1.8903434079e+000
 9.5132291177e-001	 1.5574369064e+000	-1.8695862797e+000
 9.3538119099e-001	 1.5670631856e+000	-1.8454299245e+000
 9.1936244588e-001	 1.5765144126e+000	-1.8177668904e+000
 9.0326950530e-001	 1.5857897719e+000	-1.7864936842e+000
 8.8710520669e-001	 1.5948885078e+000	-1.7515110301e+000
 8.7087239443e-001	 1.6038099241e+000	-1.7127241208e+000
 8.5457391839e-001	 1.6125533845e+000	-1.6700428595e+000
 8.3821263232e-001	 1.6211183125e+000	-1.6233820932e+000
 1.0123380438e+000	 1.5484416958e+000	-1.8912011967e+000
 9.9642927729e-001	 1.5587266262e+000	-1.8754458276e+000
 9.8043389613e-001	 1.5688369499e+000	-1.8566383552e+000
 9.6435473249e-001	 1.5787716586e+000	-1.8346593655e+000
 9.4819463197e-001	 1.5885298045e+000	-1.8093927093e+000
 9.3195645199e-001	 1.5981105004e+000	-1.7807257900e+000
 9.1564306017e-001	 1.6075129195e+000	-1.7485498444e+000
 8.9925733281e-001	 1.6167362956e+000	-1.7127602167e+000
 8.8280215326e-001	 1.6257799230e+000	-1.6732566239e+000
 8.6628041042e-001	 1.6346431569e+000	-1.6299434124e+000
 8.4969499715e-001	 1.6433254126e+000	-1.5827298054e+000
 1.0260182876e+000	 1.5693665835e+000	-1.8665598118e+000
 1.0098945378e+000	 1.5797904996e+000	-1.8496004624e+000
 9.9368300283e-001	 1.5900374492e+000	-1.8297058927e+000
 9.7738655320e-001	 1.6001064107e+000	-1.8067514749e+000
 9.6100807294e-001	 1.6099964235e+000	-1.7806156951e+000
 9.4455045810e-001	 1.6197065883e+000	-1.7511804564e+000
 9.2801661504e-001	 1.6292360671e+000	-1.7183313744e+000
 9.1140945893e-001	 1.6385840833e+000	-1.6819580662e+000
 8.9473191209e-001	 1.6477499220e+000	-1.6419544311e+000
 8.7798690246e-001	 1.6567329293e+000	-1.5982189221e+000
 8.6117736198e-001	 1.6655325128e+000	-1.5506548083e+000
 1.0396985314e+000	 1.5902914713e+000	-1.8478396820e+000
 1.0233597983e+000	 1.6008543729e+000	-1.8299323439e+000
 1.0069321095e+000	 1.6112379485e+000	-1.8092024550e+000
 9.9041837391e-001	 1.6214411629e+000	-1.7855198074e+000
 9.7382151392e-001	 1.6314630425e+000	-1.7587571590e+000
 9.5714446421e-001	 1.6413026761e+000	-1.7287905518e+000
 9.4039016991e-001	 1.6509592146e+000	-1.6954996233e+000
 9.2356158505e-001	 1.6604318711e+000	-1.6587679111e+000
 9.0666167092e-001	 1.6697199210e+000	-1.6184831489e+000
 8.8969339449e-001	 1.6788227017e+000	-1.5745375541e+000
 8.7265972680e-001	 1.6877396130e+000	-1.5268281049e+000
 1.0533787753e+000	 1.6112163591e+000	-1.8346981446e+000
 1.0368250588e+000	 1.6219182462e+000	-1.8160992188e+000
 1.0201812162e+000	 1.6324384478e+000	-1.7947865096e+000
 1.0034501946e+000	 1.6427759150e+000	-1.7706238575e+000
 9.8663495489e-001	 1.6529296615e+000	-1.7434779235e+000
 9.6973847032e-001	 1.6628987640e+000	-1.7132185224e+000
 9.5276372478e-001	 1.6726823622e+000	-1.6797189515e+000
 9.3571371117e-001	 1.6822796589e+000	-1.6428563106e+000
 9.1859142975e-001	 1.6916899199e+000	-1.6025118144e+000
 9.0139988653e-001	 1.7009124741e+000	-1.5585710962e+000
 8.8414209163e-001	 1.7099467131e+000	-1.5109245010e+000
 1.0670590191e+000	 1.6321412469e+000	-1.8267939180e+000
 1.0502903193e+000	 1.6429821195e+000	-1.8077604814e+000
 1.0334303230e+000	 1.6536389472e+000	-1.7861184271e+000
 1.0164820153e+000	 1.6641106671e+000	-1.7617252678e+000
 9.9944839587e-001	 1.6743962805e+000	-1.7344411932e+000
 9.8233247643e-001	 1.6844948518e+000	-1.7041294201e+000
 9.6513727965e-001	 1.6944055097e+000	-1.6706565375e+000
 9.4786583729e-001	 1.7041274467e+000	-1.6338928438e+000
 9.3052118858e-001	 1.7136599189e+000	-1.5937126751e+000
 9.1310637856e-001	 1.7230022465e+000	-1.5499947263e+000
 8.9562445646e-001	 1.7321538133e+000	-1.5026223607e+000
 1.0807392629e+000	 1.6530661346e+000	-1.8237870141e+000
 1.0637555798e+000	 1.6640459929e+000	-1.8045770691e+000
 1.0466794297e+000	 1.6748394465e+000	-1.7828603606e+000
 1.0295138360e+000	 1.6854454193e+000	-1.7584876927e+000
 1.0122618368e+000	 1.6958628994e+000	-1.7313124043e+000
 9.9492648253e-001	 1.7060909396e+000	-1.7011907376e+000
 9.7751083451e-001	 1.7161286573e+000	-1.6679822000e+000
 9.6001796341e-001	 1.7259752344e+000	-1.6315499185e+000
 9.4245094741e-001	 1.7356299178e+000	-1.5917609858e+000
 9.2481287059e-001	 1.7450920189e+000	-1.5484867981e+000
 9.0710682128e-001	 1.7543609135e+000	-1.5016033817e+000
 1.0944195068e+000	 1.6739910224e+000	-1.8253386574e+000
 1.0772208403e+000	 1.6851098662e+000	-1.8062113654e+000
 1.0599285364e+000	 1.6960399458e+000	-1.7846761344e+000
 1.0425456567e+000	 1.7067801714e+000	-1.7605766729e+000
 1.0250752778e+000	 1.7173295184e+000	-1.7337590848e+000
 1.0075204886e+000	 1.7276870275e+000	-1.7040722557e+000
 9.8988438938e-001	 1.7378518049e+000	-1.6713682321e+000
 9.7217008953e-001	 1.7478230222e+000	-1.6355025944e+000
 9.5438070623e-001	 1.7575999168e+000	-1.5963348207e+000
 9.3651936262e-001	 1.7671817913e+000	-1.5537286419e+000
 9.1858918611e-001	 1.7765680137e+000	-1.5075523868e+000
 8.0376553783e-001	 1.5544970119e+000	-1.8001554072e+000
 7.8801914338e-001	 1.5625382650e+000	-1.7709583348e+000
 7.7221799855e-001	 1.5704073875e+000	-1.7394442197e+000
 7.5636484241e-001	 1.5781039969e+000	-1.7055192121e+000
 7.4046241198e-001	 1.5856277673e+000	-1.6690936585e+000
 7.2451344093e-001	 1.5929784285e+000	-1.6300823023e+000
 7.0852065808e-001	 1.6001557665e+000	-1.5884044743e+000
 6.9248678611e-001	 1.6071596221e+000	-1.5439842732e+000
 6.7641454021e-001	 1.6139898915e+000	-1.4967507338e+000
 6.6030662669e-001	 1.6206465249e+000	-1.4466379852e+000
 6.4416574173e-001	 1.6271295268e+000	-1.3935853967e+000
 8.1524790266e-001	 1.5767041121e+000	-1.7317551462e+000
 7.9927655972e-001	 1.5848602402e+000	-1.7003522213e+000
 7.8324968425e-001	 1.5928417787e+000	-1.6663516467e+000
 7.6717005444e-001	 1.6006483397e+000	-1.6296649654e+000
 7.5104044644e-001	 1.6082795925e+000	-1.5902081075e+000
 7.3486363294e-001	 1.6157352632e+000	-1.5479015900e+000
 7.1864238176e-001	 1.6230151346e+000	-1.5026707066e+000
 7.0237945449e-001	 1.6301190453e+000	-1.4544457059e+000
 6.8607760507e-001	 1.6370468899e+000	-1.4031619588e+000
 6.6973957850e-001	 1.6437986181e+000	-1.3487601142e+000
 6.5336810947e-001	 1.6503742344e+000	-1.2911862423e+000
 8.2673026749e-001	 1.5989112123e+000	-1.6729447347e+000
 8.1053397605e-001	 1.6071822154e+000	-1.6398995071e+000
 7.9428136994e-001	 1.6152761700e+000	-1.6039770845e+000
 7.7797526648e-001	 1.6231926825e+000	-1.5650938856e+000
 7.6161848090e-001	 1.6309314178e+000	-1.5231709109e+000
 7.4521382496e-001	 1.6384920979e+000	-1.4781339423e+000
 7.2876410545e-001	 1.6458745027e+000	-1.4299137329e+000
 7.1227212286e-001	 1.6530784685e+000	-1.3784461838e+000
 6.9574066993e-001	 1.6601038884e+000	-1.3236725109e+000
 6.7917253031e-001	 1.6669507113e+000	-1.2655393988e+000
 6.6257047722e-001	 1.6736189419e+000	-1.2039991426e+000
 8.3821263232e-001	 1.6211183125e+000	-1.6233820932e+000
 8.2179139239e-001	 1.6295041906e+000	-1.5892451480e+000
 8.0531305564e-001	 1.6377105612e+000	-1.5519524251e+000
 7.8878047852e-001	 1.6457370254e+000	-1.5114247042e+000
 7.7219651536e-001	 1.6535832430e+000	-1.4675875457e+000
 7.5556401697e-001	 1.6612489326e+000	-1.4203714911e+000
 7.3888582914e-001	 1.6687338708e+000	-1.3697122520e+000
 7.2216479124e-001	 1.6760378917e+000	-1.3155508882e+000
 7.0540373479e-001	 1.6831608868e+000	-1.2578339726e+000
 6.8860548212e-001	 1.6901028046e+000	-1.1965137448e+000
 6.7177284496e-001	 1.6968636494e+000	-1.1315482515e+000
 8.4969499715e-001	 1.6433254126e+000	-1.5827298054e+000
 8.3304880872e-001	 1.6518261659e+000	-1.5480398078e+000
 8.1634474134e-001	 1.6601449525e+000	-1.5099163198e+000
 7.9958569055e-001	 1.6682813682e+000	-1.4682839700e+000
 7.8277454982e-001	 1.6762350683e+000	-1.4230723710e+000
 7.6591420899e-001	 1.6840057673e+000	-1.3742163204e+000
 7.4900755283e-001	 1.6915932389e+000	-1.3216559914e+000
 7.3205745961e-001	 1.6989973148e+000	-1.2653371099e+000
 7.1506679966e-001	 1.7062178853e+000	-1.2052111209e+000
 6.9803843393e-001	 1.7132548978e+000	-1.1412353410e+000
 6.8097521270e-001	 1.7201083570e+000	-1.0733730985e+000
 8.6117736198e-001	 1.6655325128e+000	-1.5506548083e+000
 8.4430622506e-001	 1.6741481411e+000	-1.5159394775e+000
 8.2737642703e-001	 1.6825793437e+000	-1.4775137281e+000
 8.1039090259e-001	 1.6908257110e+000	-1.4353055279e+000
 7.9335258428e-001	 1.6988868935e+000	-1.3892480356e+000
 7.7626440100e-001	 1.7067626020e+000	-1.3392798040e+000
 7.5912927652e-001	 1.7144526070e+000	-1.2853449716e+000
 7.4195012799e-001	 1.7219567380e+000	-1.2273934415e+000
 7.2472986452e-001	 1.7292748837e+000	-1.1653810476e+000
 7.0747138575e-001	 1.7364069910e+000	-1.0992697077e+000
 6.9017758044e-001	 1.7433530645e+000	-1.0290275633e+000
 8.7265972680e-001	 1.6877396130e+000	-1.5268281049e+000
 8.5556364139e-001	 1.6964701163e+000	-1.4926051247e+000
 8.3840811273e-001	 1.7050137350e+000	-1.4543955033e+000
 8.2119611462e-001	 1.7133700538e+000	-1.4121300392e+000
 8.0393061874e-001	 1.7215387188e+000	-1.3657449330e+000
 7.8661459301e-001	 1.7295194367e+000	-1.3151819931e+000
 7.6925100021e-001	 1.7373119751e+000	-1.2603888295e+000
 7.5184279636e-001	 1.7449161612e+000	-1.2013190343e+000
 7.3439292938e-001	 1.7523318822e+000	-1.1379323490e+000
 7.1690433756e-001	 1.7595590842e+000	-1.0701948187e+000
 6.9937994818e-001	 1.7665977720e+000	-9.9807893194e-001
 8.8414209163e-001	 1.7099467131e+000	-1.5109245010e+000
 8.6682105773e-001	 1.7187920915e+000	-1.4777023704e+000
 8.4943979842e-001	 1.7274481262e+000	-1.4402180092e+000
 8.3200132666e-001	 1.7359143966e+000	-1.3984045388e+000
 8.1450865319e-001	 1.7441905440e+000	-1.3522006983e+000
 7.9696478503e-001	 1.7522762714e+000	-1.3015510538e+000
 7.7937272389e-001	 1.7601713431e+000	-1.2464061937e+000
 7.6173546473e-001	 1.7678755844e+000	-1.1867229124e+000
 7.4405599424e-001	 1.7753888806e+000	-1.1224643792e+000
 7.2633728937e-001	 1.7827111774e+000	-1.0536002936e+000
 7.0858231592e-001	 1.7898424795e+000	-9.8010702639e-001
 8.9562445646e-001	 1.7321538133e+000	-1.5026223607e+000
 8.7807847406e-001	 1.7411140667e+000	-1.4709011911e+000
 8.6047148411e-001	 1.7498825175e+000	-1.4346427671e+000
 8.4280653869e-001	 1.7584587394e+000	-1.3937820264e+000
 8.2508668765e-001	 1.7668423693e+000	-1.3482597443e+000
 8.0731497704e-001	 1.7750331061e+000	-1.2980227464e+000
 7.8949444758e-001	 1.7830307112e+000	-1.2430241081e+000
 7.7162813311e-001	 1.7908350075e+000	-1.1832233400e+000
 7.5371905910e-001	 1.7984458791e+000	-1.1185865600e+000
 7.3577024118e-001	 1.8058632706e+000	-1.0490866505e+000
 7.1778468366e-001	 1.8130871871e+000	-9.7470340069e-001
 9.0710682128e-001	 1.7543609135e+000	-1.5016033817e+000
 8.8933589040e-001	 1.7634360419e+000	-1.4718756428e+000
 8.7150316981e-001	 1.7723169087e+000	-1.4373361295e+000
 8.5361175073e-001	 1.7810030823e+000	-1.3979210894e+000
 8.3566472211e-001	 1.7894941945e+000	-1.3535728319e+000
 8.1766516906e-001	 1.7977899408e+000	-1.3042399451e+000
 7.9961617127e-001	 1.8058900793e+000	-1.2498774993e+000
 7.8152080148e-001	 1.8137944307e+000	-1.1904472364e+000
 7.6338212396e-001	 1.8215028775e+000	-1.1259177442e+000
 7.4520319299e-001	 1.8290153638e+000	-1.0562646167e+000
 7.2698705140e-001	 1.8363318946e+000	-9.8147059854e-001
 9.1858918611e-001	 1.7765680137e+000	-1.5075523868e+000
 9.0059330673e-001	 1.7857580172e+000	-1.4803036059e+000
 8.8253485550e-001	 1.7947513000e+000	-1.4479689779e+000
 8.6441696276e-001	 1.8035474251e+000	-1.4104855535e+000
 8.4624275656e-001	 1.8121460198e+000	-1.3677966739e+000
 8.2801536107e-001	 1.8205467755e+000	-1.3198521928e+000
 8.0973789495e-001	 1.8287494474e+000	-1.2666086840e+000
 7.9141346985e-001	 1.8367538539e+000	-1.2080296350e+000
 7.7304518882e-001	 1.8445598760e+000	-1.1440856256e+000
 7.5463614479e-001	 1.8521674571e+000	-1.0747544904e+000
 7.3618941913e-001	 1.8595766021e+000	-1.0000214665e+000
 6.4416574173e-001	 1.6271295268e+000	-1.3935853967e+000
 6.2799457010e-001	 1.6334389551e+000	-1.3840024286e+000
 6.1179578385e-001	 1.6395749202e+000	-1.3642535057e+000
 5.9557204113e-001	 1.6455375851e+000	-1.3361171068e+000
 5.7932598494e-001	 1.6513271642e+000	-1.3003106354e+000
 5.6306024200e-001	 1.6569439230e+000	-1.2573714120e+000
 5.4677742155e-001	 1.6623881771e+000	-1.2078313811e+000
 5.3048011422e-001	 1.6676602917e+000	-1.1522162960e+000
 5.1417089100e-001	 1.6727606807e+000	-1.0910449349e+000
 4.9785230211e-001	 1.6776898060e+000	-1.0248283496e+000
 4.8152687598e-001	 1.6824481768e+000	-9.5406914770e-001
 6.5336810947e-001	 1.6503742344e+000	-1.2911862423e+000
 6.3696592110e-001	 1.6567737973e+000	-1.2839126955e+000
 6.2053572362e-001	 1.6629974190e+000	-1.2657011878e+000
 6.0408021315e-001	 1.6690452648e+000	-1.2350660497e+000
 5.8760207045e-001	 1.6749175522e+000	-1.1976178063e+000
 5.7110395975e-001	 1.6806145504e+000	-1.1538934889e+000
 5.5458852757e-001	 1.6861365796e+000	-1.1044238886e+000
 5.3805840157e-001	 1.6914840101e+000	-1.0497327394e+000
 5.2151618944e-001	 1.6966572618e+000	-9.9033593307e-001
 5.0496447785e-001	 1.7016568033e+000	-9.2674076883e-001
 4.8840583136e-001	 1.7064831508e+000	-8.5944523724e-001
 6.6257047722e-001	 1.6736189419e+000	-1.2039991426e+000
 6.4593727211e-001	 1.6801086395e+000	-1.1982243282e+000
 6.2927566340e-001	 1.6864199179e+000	-1.1838266267e+000
 6.1258838517e-001	 1.6925529446e+000	-1.1522899080e+000
 5.9587815595e-001	 1.6985079403e+000	-1.1115291399e+000
 5.7914767750e-001	 1.7042851779e+000	-1.0653328364e+000
 5.6239963360e-001	 1.7098849821e+000	-1.0142321218e+000
 5.4563668892e-001	 1.7153077286e+000	-9.5875018305e-001
 5.2886148789e-001	 1.7205538430e+000	-8.9940148279e-001
 5.1207665360e-001	 1.7256238005e+000	-8.3669100801e-001
 4.9528478673e-001	 1.7305181247e+000	-7.7111355478e-001
 6.7177284496e-001	 1.6968636494e+000	-1.1315482515e+000
 6.5490862311e-001	 1.7034434817e+000	-1.1265036378e+000
 6.3801560317e-001	 1.7098424168e+000	-1.1134553540e+000
 6.2109655719e-001	 1.7160606244e+000	-1.0881782966e+000
 6.0415424145e-001	 1.7220983284e+000	-1.0424532669e+000
 5.8719139524e-001	 1.7279558054e+000	-9.9211798401e-001
 5.7021073962e-001	 1.7336333847e+000	-9.3770538494e-001
 5.5321497627e-001	 1.7391314470e+000	-8.7973957578e-001
 5.3620678633e-001	 1.7444504242e+000	-8.1873504043e-001
 5.1918882934e-001	 1.7495907977e+000	-7.5519588667e-001
 5.0216374210e-001	 1.7545530987e+000	-6.8961513042e-001
 6.8097521270e-001	 1.7201083570e+000	-1.0733730985e+000
 6.6387997412e-001	 1.7267783239e+000	-1.0683303796e+000
 6.4675554294e-001	 1.7332649156e+000	-1.0558785300e+000
 6.2960472920e-001	 1.7395683042e+000	-1.0360607361e+000
 6.1243032695e-001	 1.7456887164e+000	-9.9080618851e-001
 5.9523511299e-001	 1.7516264329e+000	-9.3468271634e-001
 5.7802184564e-001	 1.7573817872e+000	-8.7529607993e-001
 5.6079326361e-001	 1.7629551655e+000	-8.1317276527e-001
 5.4355208478e-001	 1.7683470053e+000	-7.4882872199e-001
 5.2630100509e-001	 1.7735577950e+000	-6.8276860556e-001
 5.0904269747e-001	 1.7785880727e+000	-6.1548505921e-001
 6.9017758044e-001	 1.7433530645e+000	-1.0290275633e+000
 6.7285132512e-001	 1.7501131661e+000	-1.0232968572e+000
 6.5549548271e-001	 1.7566874145e+000	-1.0107276458e+000
 6.3811290122e-001	 1.7630759840e+000	-9.9133735010e-001
 6.2070641246e-001	 1.7692791045e+000	-9.5701078420e-001
 6.0327883073e-001	 1.7752970603e+000	-8.9346572323e-001
 5.8583295167e-001	 1.7811301897e+000	-8.2745950033e-001
 5.6837155096e-001	 1.7867788839e+000	-7.5952243828e-001
 5.5089738322e-001	 1.7922435865e+000	-6.9017339251e-001
 5.3341318083e-001	 1.7975247922e+000	-6.1991898784e-001
 5.1592165284e-001	 1.8026230466e+000	-5.4925289686e-001
 6.9937994818e-001	 1.7665977720e+000	-9.9807893194e-001
 6.8182267612e-001	 1.7734480084e+000	-9.9100709669e-001
 6.6423542248e-001	 1.7801099133e+000	-9.7764418946e-001
 6.4662107324e-001	 1.7865836638e+000	-9.5798207164e-001
 6.2898249796e-001	 1.7928694926e+000	-9.3202129138e-001
 6.1132254848e-001	 1.7989676878e+000	-8.6891027682e-001
 5.9364405769e-001	 1.8048785923e+000	-7.9465364089e-001
 5.7594983831e-001	 1.8106026024e+000	-7.1926206544e-001
 5.5824268167e-001	 1.8161401676e+000	-6.4325874827e-001
 5.4052535658e-001	 1.8214917894e+000	-5.6715370137e-001
 5.2280060822e-001	 1.8266580206e+000	-4.9144302415e-001
 7.0858231592e-001	 1.7898424795e+000	-9.8010702639e-001
 6.9079402712e-001	 1.7967828506e+000	-9.7107608563e-001
 6.7297536225e-001	 1.8035324122e+000	-9.5627899731e-001
 6.5512924526e-001	 1.8100913436e+000	-9.3568224542e-001
 6.3725858345e-001	 1.8164598806e+000	-9.0926093859e-001
 6.1936626622e-001	 1.8226383153e+000	-8.6146393404e-001
 6.0145516371e-001	 1.8286269948e+000	-7.7733902219e-001
 5.8352812565e-001	 1.8344263209e+000	-6.9286585031e-001
 5.6558798011e-001	 1.8400367488e+000	-6.0857339278e-001
 5.4763753232e-001	 1.8454587867e+000	-5.2497646356e-001
 5.2967956359e-001	 1.8506929945e+000	-4.4257498299e-001
 7.1778468366e-001	 1.8130871871e+000	-9.7470340069e-001
 6.9976537812e-001	 1.8201176928e+000	-9.6312907022e-001
 6.8171530202e-001	 1.8269549111e+000	-9.4629165450e-001
 6.6363741727e-001	 1.8335990234e+000	-9.2413241964e-001
 6.4553466895e-001	 1.8400502687e+000	-8.9660120850e-001
 6.2740998396e-001	 1.8463089428e+000	-8.6365654237e-001
 6.0926626974e-001	 1.8523753973e+000	-7.7597852875e-001
 5.9110641300e-001	 1.8582500393e+000	-6.8080868245e-001
 5.7293327855e-001	 1.8639333299e+000	-5.8660490674e-001
 5.5474970807e-001	 1.8694257839e+000	-4.9388823051e-001
 5.3655851896e-001	 1.8747279685e+000	-4.0316378654e-001
 7.2698705140e-001	 1.8363318946e+000	-9.8147059854e-001
 7.0873672912e-001	 1.8434525350e+000	-9.6680090610e-001
 6.9045524179e-001	 1.8503774099e+000	-9.4734994134e-001
 6.7214558929e-001	 1.8571067031e+000	-9.2303389011e-001
 6.5381075445e-001	 1.8636406567e+000	-8.9377748135e-001
 6.3545370170e-001	 1.8699795702e+000	-8.5951412207e-001
 6.1707737576e-001	 1.8761237999e+000	-7.9738992331e-001
 5.9868470035e-001	 1.8820737578e+000	-7.2430019325e-001
 5.8027857699e-001	 1.8878299111e+000	-6.5250749650e-001
 5.6186188381e-001	 1.8933927811e+000	-5.8173343796e-001
 5.4343747433e-001	 1.8987629424e+000	-5.1172448427e-001
 7.3618941913e-001	 1.8595766021e+000	-1.0000214665e+000
 7.1770808012e-001	 1.8667873772e+000	-9.8173545780e-001
 6.9919518155e-001	 1.8737999088e+000	-9.5912932109e-001
 6.8065376130e-001	 1.8806143829e+000	-9.6017823639e-001
 6.6208683995e-001	 1.8872310448e+000	-9.6334934710e-001
 6.4349741945e-001	 1.8936501977e+000	-9.6271949023e-001
 6.2488848178e-001	 1.8998722024e+000	-9.5774788373e-001
 6.0626298769e-001	 1.9058974762e+000	-8.7347212041e-001
 5.8762387544e-001	 1.9117264922e+000	-7.9066190653e-001
 5.6897405956e-001	 1.9173597783e+000	-7.0898446347e-001
 5.5031642970e-001	 1.9227979164e+000	-6.2813306444e-001
 4.8152687598e-001	 1.6824481768e+000	-9.5406914770e-001
 4.6519711830e-001	 1.6870363485e+000	-9.3325709976e-001
 4.4886551095e-001	 1.6914549220e+000	-9.0525978119e-001
 4.3253451115e-001	 1.6957045429e+000	-8.7053165622e-001
 4.1620655053e-001	 1.6997859004e+000	-8.2951989613e-001
 3.9988403422e-001	 1.7036997268e+000	-7.8266378460e-001
 3.8356934007e-001	 1.7074467960e+000	-7.3039415617e-001
 3.6726481779e-001	 1.7110279231e+000	-6.7313286822e-001
 3.5097278822e-001	 1.7144439629e+000	-6.1129230644e-001
 3.3469554257e-001	 1.7176958094e+000	-5.4527492419e-001
 3.1843534172e-001	 1.7207843947e+000	-4.7547281554e-001
 4.8840583136e-001	 1.7064831508e+000	-8.5944523724e-001
 4.7184279141e-001	 1.7111368678e+000	-8.4110489017e-001
 4.5527787539e-001	 1.7156185637e+000	-8.1581737100e-001
 4.3871357559e-001	 1.7199288935e+000	-7.8406070854e-001
 4.2215235839e-001	 1.7240685561e+000	-7.4630487251e-001
 4.0559666328e-001	 1.7280382943e+000	-7.0301115625e-001
 3.8904890206e-001	 1.7318388931e+000	-6.5463159449e-001
 3.7251145804e-001	 1.7354711791e+000	-6.0160841648e-001
 3.5598668519e-001	 1.7389360195e+000	-5.4437353458e-001
 3.3947690746e-001	 1.7422343210e+000	-4.8334806863e-001
 3.2298441803e-001	 1.7453670289e+000	-4.1894190585e-001
 4.9528478673e-001	 1.7305181247e+000	-7.7111355478e-001
 4.7848846453e-001	 1.7352373870e+000	-7.5478089886e-001
 4.6169023983e-001	 1.7397822055e+000	-7.3174662141e-001
 4.4489264004e-001	 1.7441532441e+000	-7.0251301272e-001
 4.2809816625e-001	 1.7483512119e+000	-6.6757351479e-001
 4.1130929234e-001	 1.7523768619e+000	-6.2741208089e-001
 3.9452846406e-001	 1.7562309902e+000	-5.8250257200e-001
 3.7775809829e-001	 1.7599144352e+000	-5.3330819063e-001
 3.6100058217e-001	 1.7634280761e+000	-4.8028095212e-001
 3.4425827236e-001	 1.7667728326e+000	-4.2386119353e-001
 3.2753349434e-001	 1.7699496631e+000	-3.6447712018e-001
 5.0216374210e-001	 1.7545530987e+000	-6.8961513042e-001
 4.8513413765e-001	 1.7593379063e+000	-6.7479823107e-001
 4.6810260427e-001	 1.7639458472e+000	-6.5353298664e-001
 4.5107170448e-001	 1.7683775947e+000	-6.2634666333e-001
 4.3404397412e-001	 1.7726338676e+000	-5.9375686643e-001
 4.1702192139e-001	 1.7767154294e+000	-5.5627087593e-001
 4.0000802606e-001	 1.7806230873e+000	-5.1438502112e-001
 3.8300473855e-001	 1.7843576912e+000	-4.6858409467e-001
 3.6601447914e-001	 1.7879201327e+000	-4.1934080605e-001
 3.4903963725e-001	 1.7913113441e+000	-3.6711527468e-001
 3.3208257065e-001	 1.7945322974e+000	-3.1235456264e-001
 5.0904269747e-001	 1.7785880727e+000	-6.1548505921e-001
 4.9177981077e-001	 1.7834384256e+000	-6.0166456776e-001
 4.7451496871e-001	 1.7881094890e+000	-5.8165700214e-001
 4.5725076893e-001	 1.7926019453e+000	-5.5601533642e-001
 4.3998978198e-001	 1.7969165233e+000	-5.2528204703e-001
 4.2273455045e-001	 1.8010539969e+000	-4.8998842387e-001
 4.0548758806e-001	 1.8050151844e+000	-4.5065392253e-001
 3.8825137880e-001	 1.8088009473e+000	-4.0778555797e-001
 3.7102837612e-001	 1.8124121893e+000	-3.6187733973e-001
 3.5382100214e-001	 1.8158498557e+000	-3.1340974887e-001
 3.3663164696e-001	 1.8191149316e+000	-2.6284925654e-001
 5.1592165284e-001	 1.8026230466e+000	-5.4925289686e-001
 4.9842548389e-001	 1.8075389448e+000	-5.3588252721e-001
 4.8092733315e-001	 1.8122731307e+000	-5.1659461255e-001
 4.6342983337e-001	 1.8168262959e+000	-4.9196858404e-001
 4.4593558984e-001	 1.8211991790e+000	-4.6257251389e-001
 4.2844717952e-001	 1.8253925645e+000	-4.2896240135e-001
 4.1096715007e-001	 1.8294072815e+000	-3.9168150193e-001
 3.9349801906e-001	 1.8332442033e+000	-3.5125970023e-001
 3.7604227309e-001	 1.8369042460e+000	-3.0821292640e-001
 3.5860236704e-001	 1.8403883673e+000	-2.6304261649e-001
 3.4118072327e-001	 1.8436975658e+000	-2.1623521647e-001
 5.2280060822e-001	 1.8266580206e+000	-4.9144302415e-001
 5.0507115701e-001	 1.8316394641e+000	-4.7794999807e-001
 4.8733969760e-001	 1.8364367724e+000	-4.5881747370e-001
 4.6960889782e-001	 1.8410506465e+000	-4.3465210559e-001
 4.5188139771e-001	 1.8454818348e+000	-4.0604830297e-001
 4.3415980858e-001	 1.8497311320e+000	-3.7358748999e-001
 4.1644671207e-001	 1.8537993786e+000	-3.3783741129e-001
 3.9874465931e-001	 1.8576874594e+000	-2.9935148345e-001
 3.8105617007e-001	 1.8613963026e+000	-2.5866819227e-001
 3.6338373194e-001	 1.8649268788e+000	-2.1631053602e-001
 3.4572979958e-001	 1.8682802000e+000	-1.7278551465e-001
 5.2967956359e-001	 1.8506929945e+000	-4.4257498299e-001
 5.1171683013e-001	 1.8557399833e+000	-4.2836044655e-001
 4.9375206204e-001	 1.8606004142e+000	-4.0879323114e-001
 4.7578796226e-001	 1.8652749971e+000	-3.8450799797e-001
 4.5782720558e-001	 1.8697644905e+000	-3.5612625107e-001
 4.3987243764e-001	 1.8740696995e+000	-3.2425557092e-001
 4.2192627407e-001	 1.8781914757e+000	-3.0360306636e-001
 4.0399129957e-001	 1.8821307154e+000	-2.8103248527e-001
 3.8607006704e-001	 1.8858883592e+000	-2.5234309723e-001
 3.6816509683e-001	 1.8894653904e+000	-2.1781446860e-001
 3.5027887589e-001	 1.8928628342e+000	-1.7775496907e-001
 5.3655851896e-001	 1.8747279685e+000	-4.0316378654e-001
 5.1836250325e-001	 1.8798405026e+000	-4.1552627776e-001
 5.0016442648e-001	 1.8847640559e+000	-4.2182185830e-001
 4.8196702671e-001	 1.8894993478e+000	-4.2053587588e-001
 4.6377301344e-001	 1.8940471462e+000	-4.1178273183e-001
 4.4558506670e-001	 1.8984082670e+000	-3.9570753616e-001
 4.2740583607e-001	 1.9025835728e+000	-3.7248618177e-001
 4.0923793982e-001	 1.9065739715e+000	-3.4232534379e-001
 3.9108396402e-001	 1.9103804158e+000	-3.0546240518e-001
 3.7294646173e-001	 1.9140039020e+000	-2.6216531021e-001
 3.5482795221e-001	 1.9174454684e+000	-2.1273234712e-001
 5.4343747433e-001	 1.8987629424e+000	-5.1172448427e-001
 5.2500817637e-001	 1.9039410219e+000	-5.2208396963e-001
 5.0657679093e-001	 1.9089276977e+000	-5.2427225313e-001
 4.8814609116e-001	 1.9137236984e+000	-5.1835114746e-001
 4.6971882131e-001	 1.9183298019e+000	-5.0441451010e-001
 4.5129769576e-001	 1.9227468346e+000	-4.8258842183e-001
 4.3288539808e-001	 1.9269756698e+000	-4.5303128576e-001
 4.1448458008e-001	 1.9310172275e+000	-4.1593384757e-001
 3.9609786100e-001	 1.9348724724e+000	-3.7151913846e-001
 3.7772782663e-001	 1.9385424135e+000	-3.2004234213e-001
 3.5937702852e-001	 1.9420281026e+000	-2.6179058752e-001
 5.5031642970e-001	 1.9227979164e+000	-6.2813306444e-001
 5.3165384949e-001	 1.9280415411e+000	-6.3574292666e-001
 5.1298915537e-001	 1.9330913394e+000	-6.3465169048e-001
 4.9432515561e-001	 1.9379480490e+000	-6.2489762635e-001
 4.7566462918e-001	 1.9426124576e+000	-6.0655259094e-001
 4.5701032483e-001	 1.9470854021e+000	-5.7972223566e-001
 4.3836496008e-001	 1.9513677669e+000	-5.4454613144e-001
 4.1973122034e-001	 1.9554604835e+000	-5.0119781118e-001
 4.0111175798e-001	 1.9593645290e+000	-4.4988473086e-001
 3.8250919152e-001	 1.9630809251e+000	-3.9084815102e-001
 3.6392610484e-001	 1.9666107368e+000	-3.2436294022e-001
 3.1843534172e-001	 1.7207843947e+000	-4.7547281554e-001
 3.0219441554e-001	 1.7237106878e+000	-4.5636060220e-001
 2.8597496228e-001	 1.7264756937e+000	-4.3176397817e-001
 2.6977914796e-001	 1.7290804525e+000	-4.0203922067e-001
 2.5360910577e-001	 1.7315260383e+000	-3.6753303797e-001
 2.3746693559e-001	 1.7338135582e+000	-3.2858226245e-001
 2.2135470344e-001	 1.7359441509e+000	-2.8551357432e-001
 2.0527444106e-001	 1.7379189865e+000	-2.3864325568e-001
 1.8922814542e-001	 1.7397392646e+000	-1.8827697435e-001
 1.7321777839e-001	 1.7414062137e+000	-1.3470959696e-001
 1.5724526631e-001	 1.7429210901e+000	-7.8225030679e-002
 3.2298441803e-001	 1.7453670289e+000	-4.1894190585e-001
 3.0651147862e-001	 1.7483351262e+000	-4.0483188906e-001
 2.9006031889e-001	 1.7511396322e+000	-3.8621440232e-001
 2.7363313579e-001	 1.7537816018e+000	-3.6345318954e-001
 2.5723209300e-001	 1.7562621246e+000	-3.3690120951e-001
 2.4085932039e-001	 1.7585823233e+000	-3.0690033841e-001
 2.2451691349e-001	 1.7607433531e+000	-2.7378110497e-001
 2.0820693307e-001	 1.7627464006e+000	-2.3786245738e-001
 1.9193140464e-001	 1.7645926827e+000	-1.9945156184e-001
 1.7569231808e-001	 1.7662834454e+000	-1.5884363170e-001
 1.5949162725e-001	 1.7678199628e+000	-1.1632178692e-001
 3.2753349434e-001	 1.7699496631e+000	-3.6447712018e-001
 3.1082854170e-001	 1.7729595646e+000	-3.5488619011e-001
 2.9414567549e-001	 1.7758035707e+000	-3.4176345705e-001
 2.7748712362e-001	 1.7784827512e+000	-3.2548076400e-001
 2.6085508023e-001	 1.7809982109e+000	-3.0639793152e-001
 2.4425170518e-001	 1.7833510884e+000	-2.8486246959e-001
 2.2767912354e-001	 1.7855425553e+000	-2.6120932365e-001
 2.1113942509e-001	 1.7875738147e+000	-2.3576065441e-001
 1.9463466387e-001	 1.7894461008e+000	-2.0882565062e-001
 1.7816685777e-001	 1.7911606770e+000	-1.8070037441e-001
 1.6173798820e-001	 1.7927188355e+000	-1.5166763814e-001
 3.3208257065e-001	 1.7945322974e+000	-3.1235456264e-001
 3.1514560478e-001	 1.7975840030e+000	-3.0678016845e-001
 2.9823103210e-001	 1.8004675091e+000	-2.9864938964e-001
 2.8134111145e-001	 1.8031839005e+000	-2.8834280494e-001
 2.6447806745e-001	 1.8057342971e+000	-2.7622771157e-001
 2.4764408998e-001	 1.8081198535e+000	-2.6265784588e-001
 2.3084133360e-001	 1.8103417574e+000	-2.4797314020e-001
 2.1407191711e-001	 1.8124012288e+000	-2.3249951512e-001
 1.9733792309e-001	 1.8142995188e+000	-2.1654870658e-001
 1.8064139747e-001	 1.8160379086e+000	-2.0041812695e-001
 1.6398434915e-001	 1.8176177082e+000	-1.8439075942e-001
 3.3663164696e-001	 1.8191149316e+000	-2.6284925654e-001
 3.1946266786e-001	 1.8222084414e+000	-2.6076958681e-001
 3.0231638870e-001	 1.8251314476e+000	-2.5710968822e-001
 2.8519509928e-001	 1.8278850498e+000	-2.5225951663e-001
 2.6810105468e-001	 1.8304703834e+000	-2.4659446448e-001
 2.5103647477e-001	 1.8328886186e+000	-2.4047509015e-001
 2.3400354365e-001	 1.8351409596e+000	-2.3424688523e-001
 2.1700440913e-001	 1.8372286429e+000	-2.2824007909e-001
 2.0004118231e-001	 1.8391529369e+000	-2.2276948001e-001
 1.8311593716e-001	 1.8409151402e+000	-2.1813435211e-001
 1.6623071010e-001	 1.8425165809e+000	-2.1461832699e-001
 3.4118072327e-001	 1.8436975658e+000	-2.1623521647e-001
 3.2377973094e-001	 1.8468328798e+000	-2.1710936754e-001
 3.0640174531e-001	 1.8497953861e+000	-2.1738113247e-001
 2.8904908711e-001	 1.8525861991e+000	-2.1745049042e-001
 2.7172404191e-001	 1.8552064696e+000	-2.1770155183e-001
 2.5442885957e-001	 1.8576573837e+000	-2.1850229605e-001
 2.3716575370e-001	 1.8599401617e+000	-2.2020434882e-001
 2.1993690114e-001	 1.8620560570e+000	-2.2314279894e-001
 2.0274444153e-001	 1.8640063550e+000	-2.2763605334e-001
 1.8559047685e-001	 1.8657923719e+000	-2.3398572957e-001
 1.6847707105e-001	 1.8674154536e+000	-2.4247658479e-001
 3.4572979958e-001	 1.8682802000e+000	-1.7278551465e-001
 3.2809679402e-001	 1.8714573182e+000	-1.7605364793e-001
 3.1048710192e-001	 1.8744593246e+000	-1.7969984015e-001
 2.9290307494e-001	 1.8772873485e+000	-1.8486747848e-001
 2.7534702914e-001	 1.8799425559e+000	-1.8765343768e-001
 2.5782124437e-001	 1.8824261489e+000	-1.8790946928e-001
 2.4032796375e-001	 1.8847393639e+000	-1.8606414236e-001
 2.2286939316e-001	 1.8868834711e+000	-1.8257055432e-001
 2.0544770075e-001	 1.8888597730e+000	-1.7790568412e-001
 1.8806501655e-001	 1.8906696035e+000	-1.7256969971e-001
 1.7072343199e-001	 1.8923143264e+000	-1.6708522212e-001
 3.5027887589e-001	 1.8928628342e+000	-1.7775496907e-001
 3.3241385710e-001	 1.8960817566e+000	-1.7849425525e-001
 3.1457245852e-001	 1.8991232631e+000	-1.7544660694e-001
 2.9675706277e-001	 1.9019884978e+000	-1.6895242353e-001
 2.7897001637e-001	 1.9046786422e+000	-1.5937947818e-001
 2.6121362916e-001	 1.9071949140e+000	-1.4712242824e-001
 2.4349017380e-001	 1.9095385661e+000	-1.3260226973e-001
 2.2580188518e-001	 1.9117108852e+000	-1.1626573828e-001
 2.0815095998e-001	 1.9137131911e+000	-9.8584658973e-002
 1.9053955624e-001	 1.9155468351e+000	-8.0055247654e-002
 1.7296979294e-001	 1.9172131991e+000	-6.1197366539e-002
 3.5482795221e-001	 1.9174454684e+000	-2.1273234712e-001
 3.3673092018e-001	 1.9207061950e+000	-2.0191170555e-001
 3.1865781513e-001	 1.9237872016e+000	-1.8713295191e-001
 3.0061105060e-001	 1.9266896471e+000	-1.6872455965e-001
 2.8259300359e-001	 1.9294147284e+000	-1.4704364631e-001
 2.6460601396e-001	 1.9319636791e+000	-1.2247548896e-001
 2.4665238385e-001	 1.9343377682e+000	-9.5432980635e-002
 2.2873437719e-001	 1.9365382993e+000	-6.6356030279e-002
 2.1085421920e-001	 1.9385666092e+000	-3.5710908797e-002
 1.9301409593e-001	 1.9404240667e+000	-3.9895438882e-003
 1.7521615389e-001	 1.9421120718e+000	 2.8291233594e-002
 3.5937702852e-001	 1.9420281026e+000	-2.6179058752e-001
 3.4104798327e-001	 1.9453306334e+000	-2.3983749141e-001
 3.2274317174e-001	 1.9484511400e+000	-2.1370803180e-001
 3.0446503843e-001	 1.9513907964e+000	-1.8371800377e-001
 2.8621599082e-001	 1.9541508147e+000	-1.5021318328e-001
 2.6799839876e-001	 1.9567324442e+000	-1.1356884753e-001
 2.4981459391e-001	 1.9591369704e+000	-7.4189233101e-002
 2.3166686921e-001	 1.9613657134e+000	-3.2506934752e-002
 2.1355747842e-001	 1.9634200273e+000	 1.1017752792e-002
 1.9548863562e-001	 1.9653012984e+000	 5.5897547018e-002
 1.7746251484e-001	 1.9670109445e+000	 1.0161894105e-001
 3.6392610484e-001	 1.9666107368e+000	-3.2436294022e-001
 3.4536504635e-001	 1.9699550718e+000	-2.9173846745e-001
 3.2682852835e-001	 1.9731150785e+000	-2.5467218546e-001
 3.0831902626e-001	 1.9760919458e+000	-2.1346643285e-001
 2.8983897805e-001	 1.9788869010e+000	-1.6845493316e-001
 2.7139078356e-001	 1.9815012093e+000	-1.2000232004e-001
 2.5297680396e-001	 1.9839361725e+000	-6.8503597032e-002
 2.3459936123e-001	 1.9861931275e+000	-1.4383534793e-002
 2.1626073764e-001	 1.9882734453e+000	 4.1903991676e-002
 1.9796317532e-001	 1.9901785300e+000	 9.9876722737e-002
 1.7970887579e-001	 1.9919098172e+000	 1.5902478792e-001
 1.5724526631e-001	 1.7429210901e+000	-7.8225030679e-002
 1.4131249968e-001	 1.7442851766e+000	-5.2045216971e-002
 1.2542133286e-001	 1.7454997821e+000	-2.3914272842e-002
 1.0957358381e-001	 1.7465662397e+000	 6.0131720244e-003
 9.3771033799e-002	 1.7474859064e+000	 3.7592354553e-002
 7.8015427255e-002	 1.7482601617e+000	 7.0688349106e-002
 6.2308471545e-002	 1.7488904066e+000	 1.0517601738e-001
 4.6651836836e-002	 1.7493780627e+000	 1.4093993825e-001
 3.1047155971e-002	 1.7497245709e+000	 1.7787431840e-001
 1.5496024379e-002	 1.7499313910e+000	 2.1588288481e-001
 0.0000000000e+000	 1.7500000000e+000	 2.5487875978e-001
 1.5949162725e-001	 1.7678199628e+000	-1.1632178692e-001
 1.4333124967e-001	 1.7692035363e+000	-1.0035952173e-001
 1.2721306619e-001	 1.7704354933e+000	-8.2834518704e-002
 1.1113892072e-001	 1.7715171860e+000	-6.3923014803e-002
 9.5110619996e-002	 1.7724499908e+000	-4.3790321592e-002
 7.9129933358e-002	 1.7732353069e+000	-2.2590854877e-002
 6.3198592567e-002	 1.7738745553e+000	-4.6818694274e-004
 4.7318291647e-002	 1.7743691778e+000	 2.2444879541e-002
 3.1490686771e-002	 1.7747206362e+000	 4.6026216900e-002
 1.5717396155e-002	 1.7749304109e+000	 7.0164258097e-002
 0.0000000000e+000	 1.7750000000e+000	 9.4757863637e-002
 1.6173798820e-001	 1.7927188355e+000	-1.5166763814e-001
 1.4534999967e-001	 1.7941218960e+000	-1.4655454421e-001
 1.2900479952e-001	 1.7953712044e+000	-1.4028503822e-001
 1.1270425763e-001	 1.7964681323e+000	-1.3305680417e-001
 9.6450206192e-002	 1.7974140752e+000	-1.2505552119e-001
 8.0244439462e-002	 1.7982104521e+000	-1.1645489413e-001
 6.4088713588e-002	 1.7988587040e+000	-1.0741670842e-001
 4.7984746459e-002	 1.7993602930e+000	-9.8090908322e-002
 3.1934217570e-002	 1.7997167015e+000	-8.8615697371e-002
 1.5938767932e-002	 1.7999294307e+000	-7.9117660107e-002
 0.0000000000e+000	 1.8000000000e+000	-6.9711903975e-002
 1.6398434915e-001	 1.8176177082e+000	-1.8439075942e-001
 1.4736874966e-001	 1.8190402556e+000	-1.9070409685e-001
 1.3079653284e-001	 1.8203069156e+000	-1.9628574409e-001
 1.1426959454e-001	 1.8214190786e+000	-2.0135469211e-001
 9.7789792389e-002	 1.8223781596e+000	-2.0611682599e-001
 8.1358945565e-002	 1.8231855972e+000	-2.1076495705e-001
 6.4978834610e-002	 1.8238428526e+000	-2.1547888088e-001
 4.8651201270e-002	 1.8243514082e+000	-2.2042546041e-001
 3.2377748369e-002	 1.8247127668e+000	-2.2575873279e-001
 1.6160139709e-002	 1.8249284506e+000	-2.3162003907e-001
 0.0000000000e+000	 1.8250000000e+000	-2.3813817557e-001
 1.6623071010e-001	 1.8425165809e+000	-2.1461832699e-001
 1.4938749966e-001	 1.8439586153e+000	-2.3288324458e-001
 1.3258826617e-001	 1.8452426268e+000	-2.5086004826e-001
 1.1583493145e-001	 1.8463700248e+000	-2.6878891509e-001
 9.9129378586e-002	 1.8473422440e+000	-2.8689579308e-001
 8.2473451668e-002	 1.8481607424e+000	-3.0539243522e-001
 6.5868955631e-002	 1.8488270013e+000	-3.2447646127e-001
 4.9317656081e-002	 1.8493425234e+000	-3.4433144618e-001
 3.2821279168e-002	 1.8497088321e+000	-3.6512703401e-001
 1.6381511485e-002	 1.8499274705e+000	-3.8701907615e-001
 0.0000000000e+000	 1.8500000000e+000	-4.1014979271e-001
 1.6847707105e-001	 1.8674154536e+000	-2.4247658479e-001
 1.5140624966e-001	 1.8688769750e+000	-2.7316822139e-001
 1.3437999950e-001	 1.8701783379e+000	-3.0403462864e-001
 1.1740026836e-001	 1.8713209711e+000	-3.3533706738e-001
 1.0046896478e-001	 1.8723063283e+000	-3.6732142325e-001
 8.3587957771e-002	 1.8731358876e+000	-4.0021824318e-001
 6.6759076653e-002	 1.8738111500e+000	-4.3424280141e-001
 4.9984110893e-002	 1.8743336386e+000	-4.6959519383e-001
 3.3264809967e-002	 1.8747048974e+000	-5.0646045955e-001
 1.6602883262e-002	 1.8749264904e+000	-5.4500872823e-001
 0.0000000000e+000	 1.8750000000e+000	-5.8539539208e-001
 1.7072343199e-001	 1.8923143264e+000	-1.6708522212e-001
 1.5342499965e-001	 1.8937953346e+000	-1.8212069245e-001
 1.3617173282e-001	 1.8951140491e+000	-1.9508581617e-001
 1.1896560528e-001	 1.8962719174e+000	-2.0661596403e-001
 1.0180855098e-001	 1.8972704127e+000	-2.1736706139e-001
 8.4702463874e-002	 1.8981110327e+000	-2.2801459596e-001
 6.7649197674e-002	 1.8987952986e+000	-2.3925259896e-001
 5.0650565704e-002	 1.8993247537e+000	-2.5179260261e-001
 3.3708340767e-002	 1.8997009627e+000	-2.6636257674e-001
 1.6824255038e-002	 1.8999255102e+000	-2.8370584725e-001
 0.0000000000e+000	 1.9000000000e+000	-3.0457999934e-001
 1.7296979294e-001	 1.9172131991e+000	-6.1197366539e-002
 1.5544374965e-001	 1.9187136943e+000	-6.3908427548e-002
 1.3796346615e-001	 1.9200497603e+000	-6.3832404631e-002
 1.2053094219e-001	 1.9212228637e+000	-6.1627983863e-002
 1.0314813718e-001	 1.9222344971e+000	-5.7975541390e-002
 8.5816969978e-002	 1.9230861779e+000	-5.3576109980e-002
 6.8539318696e-002	 1.9237794473e+000	-4.9150317643e-002
 5.1317020516e-002	 1.9243158689e+000	-4.5437301263e-002
 3.4151871566e-002	 1.9246970280e+000	-4.3193598217e-002
 1.7045626815e-002	 1.9249245301e+000	-4.3192018890e-002
 0.0000000000e+000	 1.9250000000e+000	-4.6220502996e-002
 1.7521615389e-001	 1.9421120718e+000	 2.8291233594e-002
 1.5746249964e-001	 1.9436320540e+000	 3.7141649530e-002
 1.3975519948e-001	 1.9449854715e+000	 4.9536343928e-002
 1.2209627910e-001	 1.9461738100e+000	 6.4793850682e-002
 1.0448772337e-001	 1.9471985815e+000	 8.2209816596e-002
 8.6931476081e-002	 1.9480613231e+000	 1.0105807672e-001
 6.9429439717e-002	 1.9487635960e+000	 1.2059175908e-001
 5.1983475327e-002	 1.9493069841e+000	 1.4004441578e-001
 3.4595402365e-002	 1.9496930933e+000	 1.5863117725e-001
 1.7266998592e-002	 1.9499235500e+000	 1.7554992674e-001
 0.0000000000e+000	 1.9500000000e+000	 1.8998249199e-001
 1.7746251484e-001	 1.9670109445e+000	 1.0161894105e-001
 1.5948124964e-001	 1.9685504136e+000	 1.2126922139e-001
 1.4154693280e-001	 1.9699211826e+000	 1.4526216047e-001
 1.2366161601e-001	 1.9711247563e+000	 1.7289404794e-001
 1.0582730957e-001	 1.9721626658e+000	 2.0343702692e-001
 8.8045982184e-002	 1.9730364682e+000	 2.3614021204e-001
 7.0319560739e-002	 1.9737477446e+000	 2.7023083831e-001
 5.2649930139e-002	 1.9742980993e+000	 3.0491543776e-001
 3.5038933164e-002	 1.9746891586e+000	 3.3938104061e-001
 1.7488370368e-002	 1.9749225698e+000	 3.7279639773e-001
 0.0000000000e+000	 1.9750000000e+000	 4.0431322140e-001
 1.7970887579e-001	 1.9919098172e+000	 1.5902478792e-001
 1.6149999964e-001	 1.9934687733e+000	 1.8871313133e-001
 1.4333866613e-001	 1.9948568938e+000	 2.2358443120e-001
 1.2522695292e-001	 1.9960757025e+000	 2.6291326965e-001
 1.0716689577e-001	 1.9971267502e+000	 3.0594875978e-001
 8.9160488287e-002	 1.9980116134e+000	 3.5191570695e-001
 7.1209681760e-002	 1.9987318933e+000	 4.0001580267e-001
 5.3316384950e-002	 1.9992892145e+000	 4.4942884772e-001
 3.5482463963e-002	 1.9996852239e+000	 4.9931400114e-001
 1.7709742145e-002	 1.9999215897e+000	 5.4881105180e-001
 0.0000000000e+000	 2.0000000000e+000	 5.9704170922e-001
 2.0000000000e+000	 0.0000000000e+000	 2.4970232508e+000
 1.9999215897e+000	 1.7709742145e-002	 2.5321762420e+000
 1.9996852239e+000	 3.5482463963e-002	 2.5628922995e+000
 1.9992892145e+000	 5.3316384950e-002	 2.5886813068e+000
 1.9987318933e+000	 7.1209681760e-002	 2.6090727238e+000
 1.9980116134e+000	 8.9160488287e-002	 2.6236167414e+000
 1.9971267502e+000	 1.0716689577e-001	 2.6318854248e+000
 1.9960757025e+000	 1.2522695292e-001	 2.6334738432e+000
 1.9948568938e+000	 1.4333866613e-001	 2.6280011844e+000
 1.9934687733e+000	 1.6149999964e-001	 2.6151118485e+000
 1.9919098172e+000	 1.7970887579e-001	 2.5944765213e+000
 2.0250000000e+000	 0.0000000000e+000	 2.4872963695e+000
 2.0249206096e+000	 1.7931113921e-002	 2.5152043975e+000
 2.0246812892e+000	 3.5925994762e-002	 2.5391143539e+000
 2.0242803297e+000	 5.3982839761e-002	 2.5585430667e+000
 2.0237160419e+000	 7.2099802782e-002	 2.5730275326e+000
 2.0229867586e+000	 9.0274994390e-002	 2.5821260853e+000
 2.0220908346e+000	 1.0850648196e-001	 2.5854195534e+000
 2.0210266488e+000	 1.2679228983e-001	 2.5825124025e+000
 2.0197926050e+000	 1.4513039946e-001	 2.5730338613e+000
 2.0183871330e+000	 1.6351874963e-001	 2.5566390265e+000
 2.0168086899e+000	 1.8195523674e-001	 2.5330099446e+000
 2.0500000000e+000	 0.0000000000e+000	 2.4777059306e+000
 2.0499196295e+000	 1.8152485698e-002	 2.4993181676e+000
 2.0496773545e+000	 3.6369525562e-002	 2.5173196710e+000
 2.0492714448e+000	 5.4649294573e-002	 2.5312333875e+000
 2.0487001906e+000	 7.2989923804e-002	 2.5406030620e+000
 2.0479619037e+000	 9.1389500493e-002	 2.5449944216e+000
 2.0470549190e+000	 1.0984606816e-001	 2.5439963496e+000
 2.0459775951e+000	 1.2835762674e-001	 2.5372220417e+000
 2.0447283162e+000	 1.4692213278e-001	 2.5243101453e+000
 2.0433054926e+000	 1.6553749963e-001	 2.5049258766e+000
 2.0417075627e+000	 1.8420159768e-001	 2.4787621130e+000
 2.0750000000e+000	 0.0000000000e+000	 2.4683149280e+000
 2.0749186493e+000	 1.8373857475e-002	 2.4845598943e+000
 2.0746734198e+000	 3.6813056361e-002	 2.4975301837e+000
 2.0742625600e+000	 5.5315749384e-002	 2.5067540472e+000
 2.0736843393e+000	 7.3880044825e-002	 2.5117812006e+000
 2.0729370489e+000	 9.2504006597e-002	 2.5121840273e+000
 2.0720190034e+000	 1.1118565436e-001	 2.5075587685e+000
 2.0709285414e+000	 1.2992296366e-001	 2.4975266965e+000
 2.0696640273e+000	 1.4871386611e-001	 2.4817352679e+000
 2.0682238523e+000	 1.6755624962e-001	 2.4598592549e+000
 2.0666064354e+000	 1.8644795863e-001	 2.4316018495e+000
 2.1000000000e+000	 0.0000000000e+000	 2.4591833558e+000
 2.0999176692e+000	 1.8595229251e-002	 2.4709697902e+000
 2.0996694851e+000	 3.7256587160e-002	 2.4797665267e+000
 2.0992536752e+000	 5.5982204196e-002	 2.4851063163e+000
 2.0986684879e+000	 7.4770165847e-002	 2.4865440797e+000
 2.0979121941e+000	 9.3618512700e-002	 2.4836581302e+000
 2.0969830877e+000	 1.1252524055e-001	 2.4760513823e+000
 2.0958794877e+000	 1.3148830057e-001	 2.4633525427e+000
 2.0945997385e+000	 1.5050559944e-001	 2.4452172803e+000
 2.0931422120e+000	 1.6957499962e-001	 2.4213293720e+000
 2.0915053081e+000	 1.8869431958e-001	 2.3914018213e+000
 2.1250000000e+000	 0.0000000000e+000	 2.4503683850e+000
 2.1249166891e+000	 1.8816601028e-002	 2.4585860640e+000
 2.1246655504e+000	 3.7700117959e-002	 2.4640481128e+000
 2.1242447904e+000	 5.6648659007e-002	 2.4662909879e+000
 2.1236526366e+000	 7.5660286868e-002	 2.4648740590e+000
 2.1228873393e+000	 9.4733018803e-002	 2.4593808535e+000
 2.1219471721e+000	 1.1386482675e-001	 2.4494202851e+000
 2.1208304339e+000	 1.3305363748e-001	 2.4346278645e+000
 2.1195354497e+000	 1.5229733276e-001	 2.4146668871e+000
 2.1180605716e+000	 1.7159374962e-001	 2.3892295956e+000
 2.1164041808e+000	 1.9094068053e-001	 2.3580383140e+000
 2.1500000000e+000	 0.0000000000e+000	 2.4419245273e+000
 2.1499157090e+000	 1.9037972804e-002	 2.4474450369e+000
 2.1496616157e+000	 3.8143648758e-002	 2.4503932039e+000
 2.1492359056e+000	 5.7315113819e-002	 2.4503084052e+000
 2.1486367853e+000	 7.6550407890e-002	 2.4467537131e+000
 2.1478624844e+000	 9.5847524906e-002	 2.4393171630e+000
 2.1469112565e+000	 1.1520441295e-001	 2.4276130043e+000
 2.1457813802e+000	 1.3461897439e-001	 2.4112829317e+000
 2.1444711609e+000	 1.5408906609e-001	 2.3899972922e+000
 2.1429789313e+000	 1.7361249961e-001	 2.3634562668e+000
 2.1413030535e+000	 1.9318704148e-001	 2.3313910206e+000
 2.1750000000e+000	 0.0000000000e+000	 2.4339037882e+000
 2.1749147288e+000	 1.9259344581e-002	 2.4375812510e+000
 2.1746576810e+000	 3.8587179558e-002	 2.4388189772e+000
 2.1742270207e+000	 5.7981568630e-002	 2.4371584875e+000
 2.1736209339e+000	 7.7440528911e-002	 2.4321658193e+000
 2.1728376296e+000	 9.6962031009e-002	 2.4234328194e+000
 2.1718753409e+000	 1.1654399914e-001	 2.4105784187e+000
 2.1707323265e+000	 1.3618431130e-001	 2.3932498857e+000
 2.1694068720e+000	 1.5588079942e-001	 2.3711240553e+000
 2.1678972910e+000	 1.7563124961e-001	 2.3439085294e+000
 2.1662019262e+000	 1.9543340243e-001	 2.3113428465e+000
 2.2000000000e+000	 0.0000000000e+000	 2.4263558094e+000
 2.1999137487e+000	 1.9480716358e-002	 2.4290275704e+000
 2.1996537463e+000	 3.9030710357e-002	 2.4293415869e+000
 2.1992181359e+000	 5.8648023441e-002	 2.4268407544e+000
 2.1986050826e+000	 7.8330649933e-002	 2.4210933462e+000
 2.1978127748e+000	 9.8076537113e-002	 2.4116943327e+000
 2.1968394252e+000	 1.1788358534e-001	 2.3982666812e+000
 2.1956832728e+000	 1.3774964821e-001	 2.3804626335e+000
 2.1943425832e+000	 1.5767253274e-001	 2.3579649579e+000
 2.1928156506e+000	 1.7764999960e-001	 2.3304881708e+000
 2.1911007990e+000	 1.9767976337e-001	 2.2977797264e+000
 2.2250000000e+000	 0.0000000000e+000	 2.4193280014e+000
 2.2249127686e+000	 1.9702088134e-002	 2.4218152757e+000
 2.2246498116e+000	 3.9474241156e-002	 2.4219762216e+000
 2.2242092511e+000	 5.9314478253e-002	 2.4193543480e+000
 2.2235892313e+000	 7.9220770954e-002	 2.4135194429e+000
 2.2227879199e+000	 9.9191043216e-002	 2.4040689203e+000
 2.2218035096e+000	 1.1922317154e-001	 2.3906291474e+000
 2.2206342191e+000	 1.3931498512e-001	 2.3728567480e+000
 2.2192782944e+000	 1.5946426607e-001	 2.3504398785e+000
 2.2177340103e+000	 1.7966874960e-001	 2.3230994731e+000
 2.2159996717e+000	 1.9992612432e-001	 2.2905904543e+000
 2.2500000000e+000	 0.0000000000e+000	 2.4128656676e+000
 2.2499117884e+000	 1.9923459911e-002	 2.4159741515e+000
 2.2496458769e+000	 3.9917771955e-002	 2.4167371578e+000
 2.2492003663e+000	 5.9980933064e-002	 2.4146980541e+000
 2.2485733799e+000	 8.0110891976e-002	 2.4094274287e+000
 2.2477630651e+000	 1.0030554932e-001	 2.4005244674e+000
 2.2467675940e+000	 1.2056275773e-001	 2.3876183089e+000
 2.2455851654e+000	 1.4088032204e-001	 2.3703693756e+000
 2.2442140055e+000	 1.6125599940e-001	 2.3484706761e+000
 2.2426523700e+000	 1.8168749959e-001	 2.3216490747e+000
 2.2408985444e+000	 2.0217248527e-001	 2.2896665245e+000
 1.9919098172e+000	 1.7970887579e-001	 2.5944765213e+000
 1.9901785300e+000	 1.9796317532e-001	 2.5919008501e+000
 1.9882734453e+000	 2.1626073764e-001	 2.5848039233e+000
 1.9861931275e+000	 2.3459936123e-001	 2.5729759031e+000
 1.9839361725e+000	 2.5297680396e-001	 2.5562347773e+000
 1.9815012093e+000	 2.7139078356e-001	 2.5344271910e+000
 1.9788869010e+000	 2.8983897805e-001	 2.5074292396e+000
 1.9760919458e+000	 3.0831902626e-001	 2.4751472191e+000
 1.9731150785e+000	 3.2682852835e-001	 2.4375183315e+000
 1.9699550718e+000	 3.4536504635e-001	 2.3945113426e+000
 1.9666107368e+000	 3.6392610484e-001	 2.3461271885e+000
 2.0168086899e+000	 1.8195523674e-001	 2.5330099446e+000
 2.0150557616e+000	 2.0043771501e-001	 2.5279493958e+000
 2.0131268634e+000	 2.1896399687e-001	 2.5185082204e+000
 2.0110205416e+000	 2.3753185325e-001	 2.5044857649e+000
 2.0087353747e+000	 2.5613901401e-001	 2.4857101288e+000
 2.0062699745e+000	 2.7478316835e-001	 2.4620390078e+000
 2.0036229872e+000	 2.9346196528e-001	 2.4333604942e+000
 2.0007930951e+000	 3.1217301410e-001	 2.3995938352e+000
 1.9977790170e+000	 3.3091388495e-001	 2.3606901428e+000
 1.9945795102e+000	 3.4968210943e-001	 2.3166330539e+000
 1.9911933711e+000	 3.6847518115e-001	 2.2674393383e+000
 2.0417075627e+000	 1.8420159768e-001	 2.4787621130e+000
 2.0399329932e+000	 2.0291225470e-001	 2.4715899980e+000
 2.0379802815e+000	 2.2166725609e-001	 2.4601295380e+000
 2.0358479557e+000	 2.4046434526e-001	 2.4441889855e+000
 2.0335345769e+000	 2.5930122406e-001	 2.4236063225e+000
 2.0310387396e+000	 2.7817555315e-001	 2.3982501150e+000
 2.0283590735e+000	 2.9708495251e-001	 2.3680203245e+000
 2.0254942444e+000	 3.1602700193e-001	 2.3328490727e+000
 2.0224429555e+000	 3.3499924156e-001	 2.2927013581e+000
 2.0192039486e+000	 3.5399917252e-001	 2.2475757201e+000
 2.0157760053e+000	 3.7302425746e-001	 2.1975048477e+000
 2.0666064354e+000	 1.8644795863e-001	 2.4316018495e+000
 2.0648102249e+000	 2.0538679439e-001	 2.4226748248e+000
 2.0628336995e+000	 2.2437051531e-001	 2.4095034147e+000
 2.0606753698e+000	 2.4339683728e-001	 2.3919045098e+000
 2.0583337790e+000	 2.6246343411e-001	 2.3697257564e+000
 2.0558075047e+000	 2.8156793795e-001	 2.3428464234e+000
 2.0530951598e+000	 3.0070793974e-001	 2.3111782248e+000
 2.0501953937e+000	 3.1988098976e-001	 2.2746660935e+000
 2.0471068940e+000	 3.3908459817e-001	 2.2332889048e+000
 2.0438283870e+000	 3.5831623560e-001	 2.1870601446e+000
 2.0403586395e+000	 3.7757333378e-001	 2.1360285211e+000
 2.0915053081e+000	 1.8869431958e-001	 2.3914018213e+000
 2.0896874565e+000	 2.0786133409e-001	 2.3810602846e+000
 2.0876871176e+000	 2.2707377453e-001	 2.3664699946e+000
 2.0855027839e+000	 2.4632932930e-001	 2.3474562235e+000
 2.0831329812e+000	 2.6562564417e-001	 2.3238760742e+000
 2.0805762698e+000	 2.8496032274e-001	 2.2956193624e+000
 2.0778312460e+000	 3.0433092696e-001	 2.2626094502e+000
 2.0748965430e+000	 3.2373497759e-001	 2.2248040308e+000
 2.0717708325e+000	 3.4316995478e-001	 2.1821958586e+000
 2.0684528254e+000	 3.6263329868e-001	 2.1348134240e+000
 2.0649412737e+000	 3.8212241009e-001	 2.0827215680e+000
 2.1164041808e+000	 1.9094068053e-001	 2.3580383140e+000
 2.1145646881e+000	 2.1033587378e-001	 2.3466067758e+000
 2.1125405357e+000	 2.2977703375e-001	 2.3308737565e+000
 2.1103301980e+000	 2.4926182132e-001	 2.3106726623e+000
 2.1079321833e+000	 2.6878785422e-001	 2.2858698565e+000
 2.1053450349e+000	 2.8835270754e-001	 2.2563655558e+000
 2.1025673323e+000	 3.0795391419e-001	 2.2220946781e+000
 2.0995976924e+000	 3.2758896542e-001	 2.1830276370e+000
 2.0964347709e+000	 3.4725531138e-001	 2.1391710818e+000
 2.0930772638e+000	 3.6695036176e-001	 2.0905685780e+000
 2.0895239079e+000	 3.8667148640e-001	 2.0373012263e+000
 2.1413030535e+000	 1.9318704148e-001	 2.3313910206e+000
 2.1394419197e+000	 2.1281041347e-001	 2.3191784556e+000
 2.1373939537e+000	 2.3248029298e-001	 2.3025632617e+000
 2.1351576121e+000	 2.5219431333e-001	 2.2813867421e+000
 2.1327313855e+000	 2.7195006427e-001	 2.2555243337e+000
 2.1301138000e+000	 2.9174509234e-001	 2.2248865200e+000
 2.1273034185e+000	 3.1157690142e-001	 2.1894196923e+000
 2.1242988417e+000	 3.3144295325e-001	 2.1491069575e+000
 2.1210987094e+000	 3.5134066799e-001	 2.1039688870e+000
 2.1177017022e+000	 3.7126742484e-001	 2.0540642050e+000
 2.1141065421e+000	 3.9122056271e-001	 1.9994904118e+000
 2.1662019262e+000	 1.9543340243e-001	 2.3113428465e+000
 2.1643191514e+000	 2.1528495317e-001	 2.2986430234e+000
 2.1622473718e+000	 2.3518355220e-001	 2.2813909195e+000
 2.1599850262e+000	 2.5512680535e-001	 2.2594355069e+000
 2.1575305876e+000	 2.7511227432e-001	 2.2326611192e+000
 2.1548825652e+000	 2.9513747713e-001	 2.2009883821e+000
 2.1520395048e+000	 3.1519988865e-001	 2.1643750899e+000
 2.1489999910e+000	 3.3529694108e-001	 2.1228170263e+000
 2.1457626479e+000	 3.5542602459e-001	 2.0763487241e+000
 2.1423261406e+000	 3.7558448792e-001	 2.0250441615e+000
 2.1386891763e+000	 3.9576963903e-001	 1.9690173917e+000
 2.1911007990e+000	 1.9767976337e-001	 2.2977797264e+000
 2.1891963830e+000	 2.1775949286e-001	 2.2848715201e+000
 2.1871007899e+000	 2.3788681142e-001	 2.2672127687e+000
 2.1848124402e+000	 2.5805929737e-001	 2.2446598942e+000
 2.1823297898e+000	 2.7827448437e-001	 2.2171059597e+000
 2.1796513303e+000	 2.9852986193e-001	 2.1844816186e+000
 2.1767755911e+000	 3.1882287587e-001	 2.1467560080e+000
 2.1737011403e+000	 3.3915092891e-001	 2.1039375828e+000
 2.1704265864e+000	 3.5951138120e-001	 2.0560748879e+000
 2.1669505789e+000	 3.7990155100e-001	 2.0032572635e+000
 2.1632718105e+000	 4.0031871534e-001	 1.9456154809e+000
 2.2159996717e+000	 1.9992612432e-001	 2.2905904543e+000
 2.2140736146e+000	 2.2023403255e-001	 2.2777381396e+000
 2.2119542079e+000	 2.4059007064e-001	 2.2598882733e+000
 2.2096398543e+000	 2.6099178938e-001	 2.2369045164e+000
 2.2071289919e+000	 2.8143669442e-001	 2.2086885035e+000
 2.2044200954e+000	 3.0192224673e-001	 2.1751808110e+000
 2.2015116773e+000	 3.2244586310e-001	 2.1363618682e+000
 2.1984022896e+000	 3.4300491674e-001	 2.0922528070e+000
 2.1950905249e+000	 3.6359673781e-001	 2.0429162464e+000
 2.1915750173e+000	 3.8421861408e-001	 1.9884570076e+000
 2.1878544447e+000	 4.0486779165e-001	 1.9290227580e+000
 2.2408985444e+000	 2.0217248527e-001	 2.2896665245e+000
 2.2389508462e+000	 2.2270857224e-001	 2.2771200545e+000
 2.2368076260e+000	 2.4329332986e-001	 2.2592801325e+000
 2.2344672684e+000	 2.6392428140e-001	 2.2360174567e+000
 2.2319281941e+000	 2.8459890447e-001	 2.2072420836e+000
 2.2291888605e+000	 3.0531463152e-001	 2.1729044172e+000
 2.2262477636e+000	 3.2606885033e-001	 2.1329961390e+000
 2.2231034390e+000	 3.4685890457e-001	 2.0875510734e+000
 2.2197544633e+000	 3.6768209441e-001	 2.0366459863e+000
 2.2161994557e+000	 3.8853567716e-001	 1.9804013112e+000
 2.2124370789e+000	 4.0941686796e-001	 1.9189818009e+000
 1.9666107368e+000	 3.6392610484e-001	 2.3461271885e+000
 1.9630809251e+000	 3.8250919152e-001	 2.3155598854e+000
 1.9593645290e+000	 4.0111175798e-001	 2.2778139116e+000
 1.9554604835e+000	 4.1973122034e-001	 2.2329783951e+000
 1.9513677669e+000	 4.3836496008e-001	 2.1811780745e+000
 1.9470854021e+000	 4.5701032483e-001	 2.1225736517e+000
 1.9426124576e+000	 4.7566462918e-001	 2.0573620774e+000
 1.9379480490e+000	 4.9432515561e-001	 1.9857767668e+000
 1.9330913394e+000	 5.1298915537e-001	 1.9080877442e+000
 1.9280415411e+000	 5.3165384949e-001	 1.8246017134e+000
 1.9227979164e+000	 5.5031642970e-001	 1.7356620537e+000
 1.9911933711e+000	 3.6847518115e-001	 2.2674393383e+000
 1.9876194366e+000	 3.8729055642e-001	 2.2367489429e+000
 1.9838565856e+000	 4.0612565496e-001	 2.1994968363e+000
 1.9799037396e+000	 4.2497786060e-001	 2.1557916171e+000
 1.9757598640e+000	 4.4384452209e-001	 2.1057781581e+000
 1.9714239696e+000	 4.6272295389e-001	 2.0496379425e+000
 1.9668951134e+000	 4.8161043705e-001	 1.9875893298e+000
 1.9621723996e+000	 5.0050422005e-001	 1.9198877508e+000
 1.9572549812e+000	 5.1940151982e-001	 1.8468258281e+000
 1.9521420604e+000	 5.3829952261e-001	 1.7687334212e+000
 1.9468328903e+000	 5.5719538508e-001	 1.6859775929e+000
 2.0157760053e+000	 3.7302425746e-001	 2.1975048477e+000
 2.0121579482e+000	 3.9207192132e-001	 2.1664859266e+000
 2.0083486423e+000	 4.1113955194e-001	 2.1294648659e+000
 2.0043469956e+000	 4.3022450086e-001	 2.0865699561e+000
 2.0001519611e+000	 4.4932408409e-001	 2.0379664878e+000
 1.9957625371e+000	 4.6843558295e-001	 1.9838570711e+000
 1.9911777691e+000	 4.8755624491e-001	 1.9244818837e+000
 1.9863967502e+000	 5.0668328450e-001	 1.8601188446e+000
 1.9814186229e+000	 5.2581388426e-001	 1.7910837112e+000
 1.9762425797e+000	 5.4494519573e-001	 1.7177300985e+000
 1.9708678643e+000	 5.6407434045e-001	 1.6404494172e+000
 2.0403586395e+000	 3.7757333378e-001	 2.1360285211e+000
 2.0366964598e+000	 3.9685328622e-001	 2.1044629923e+000
 2.0328406989e+000	 4.1615344891e-001	 2.0673979726e+000
 2.0287902517e+000	 4.3547114111e-001	 2.0249816821e+000
 2.0245440582e+000	 4.5480364609e-001	 1.9774001293e+000
 2.0201011047e+000	 4.7414821202e-001	 1.9248774145e+000
 2.0154604248e+000	 4.9350205278e-001	 1.8676759603e+000
 2.0106211008e+000	 5.1286234895e-001	 1.8060966638e+000
 2.0055822646e+000	 5.3222624870e-001	 1.7404789714e+000
 2.0003430989e+000	 5.5159086884e-001	 1.6712008719e+000
 1.9949028382e+000	 5.7095329582e-001	 1.5986788063e+000
 2.0649412737e+000	 3.8212241009e-001	 2.0827215680e+000
 2.0612349713e+000	 4.0163465111e-001	 2.0503786268e+000
 2.0573327555e+000	 4.2116734589e-001	 2.0129823364e+000
 2.0532335077e+000	 4.4071778137e-001	 1.9707011008e+000
 2.0489361553e+000	 4.6028320810e-001	 1.9237419632e+000
 2.0444396722e+000	 4.7986084108e-001	 1.8723508942e+000
 2.0397430805e+000	 4.9944786064e-001	 1.8168130046e+000
 2.0348454514e+000	 5.1904141339e-001	 1.7574526773e+000
 2.0297459064e+000	 5.3863861314e-001	 1.6946336194e+000
 2.0244436182e+000	 5.5823654196e-001	 1.6287588292e+000
 2.0189378122e+000	 5.7783225119e-001	 1.5602704786e+000
 2.0895239079e+000	 3.8667148640e-001	 2.0373012263e+000
 2.0857734829e+000	 4.0641601601e-001	 2.0039372749e+000
 2.0818248121e+000	 4.2618124287e-001	 1.9659099796e+000
 2.0776767638e+000	 4.4596442162e-001	 1.9234081986e+000
 2.0733282524e+000	 4.6576277010e-001	 1.8766603428e+000
 2.0687782397e+000	 4.8557347014e-001	 1.8259346495e+000
 2.0640257362e+000	 5.0539366851e-001	 1.7715393781e+000
 2.0590698020e+000	 5.2522047784e-001	 1.7138229219e+000
 2.0539095481e+000	 5.4505097759e-001	 1.6531738374e+000
 2.0485441375e+000	 5.6488221508e-001	 1.5900207864e+000
 2.0429727862e+000	 5.8471120656e-001	 1.5248323893e+000
 2.1141065421e+000	 3.9122056271e-001	 1.9994904118e+000
 2.1103119945e+000	 4.1119738090e-001	 1.9648489932e+000
 2.1063168687e+000	 4.3119513984e-001	 1.9258784275e+000
 2.1021200198e+000	 4.5121106188e-001	 1.8827883127e+000
 2.0977203495e+000	 4.7124233210e-001	 1.8358287760e+000
 2.0931168073e+000	 4.9128609920e-001	 1.7852907346e+000
 2.0883083920e+000	 5.1133947637e-001	 1.7315060729e+000
 2.0832941527e+000	 5.3139954228e-001	 1.6748477364e+000
 2.0780731899e+000	 5.5146334203e-001	 1.6157297370e+000
 2.0726446567e+000	 5.7152788820e-001	 1.5546070706e+000
 2.0670077601e+000	 5.9159016193e-001	 1.4919755420e+000
 2.1386891763e+000	 3.9576963903e-001	 1.9690173917e+000
 2.1348505060e+000	 4.1597874580e-001	 1.9328291278e+000
 2.1308089253e+000	 4.3620903682e-001	 1.8925903920e+000
 2.1265632759e+000	 4.5645770213e-001	 1.8485318229e+000
 2.1221124465e+000	 4.7672189410e-001	 1.8009256291e+000
 2.1174553748e+000	 4.9699872826e-001	 1.7500858357e+000
 2.1125910477e+000	 5.1728528424e-001	 1.6963684459e+000
 2.1075185033e+000	 5.3757860672e-001	 1.6401715148e+000
 2.1022368316e+000	 5.5787570647e-001	 1.5819351330e+000
 2.0967451760e+000	 5.7817356131e-001	 1.5221413185e+000
 2.0910427341e+000	 5.9846911730e-001	 1.4613138135e+000
 2.1632718105e+000	 4.0031871534e-001	 1.9456154809e+000
 2.1593890176e+000	 4.2076011069e-001	 1.9075980135e+000
 2.1553009819e+000	 4.4122293379e-001	 1.8657534768e+000
 2.1510065319e+000	 4.6170434238e-001	 1.8203338660e+000
 2.1465045436e+000	 4.8220145610e-001	 1.7716338506e+000
 2.1417939423e+000	 5.0271135732e-001	 1.7199910084e+000
 2.1368737034e+000	 5.2323109210e-001	 1.6657859703e+000
 2.1317428539e+000	 5.4375767117e-001	 1.6094424757e+000
 2.1264004734e+000	 5.6428807091e-001	 1.5514273333e+000
 2.1208456953e+000	 5.8481923443e-001	 1.4922502883e+000
 2.1150777080e+000	 6.0534807266e-001	 1.4324637908e+000
 2.1878544447e+000	 4.0486779165e-001	 1.9290227580e+000
 2.1839275292e+000	 4.2554147558e-001	 1.8888806937e+000
 2.1797930386e+000	 4.4623683076e-001	 1.8450799028e+000
 2.1754497879e+000	 4.6695098264e-001	 1.7978940676e+000
 2.1708966407e+000	 4.8768101810e-001	 1.7476407138e+000
 2.1661325098e+000	 5.0842398637e-001	 1.6946814316e+000
 2.1611563591e+000	 5.2917689996e-001	 1.6394220048e+000
 2.1559672045e+000	 5.4993673561e-001	 1.5823124473e+000
 2.1505641151e+000	 5.7070043534e-001	 1.5238469424e+000
 2.1449462145e+000	 5.9146490754e-001	 1.4645636843e+000
 2.1391126820e+000	 6.1222702803e-001	 1.4050446185e+000
 2.2124370789e+000	 4.0941686796e-001	 1.9189818009e+000
 2.2084660407e+000	 4.3032284048e-001	 1.8764066587e+000
 2.2042850952e+000	 4.5125072774e-001	 1.8302862513e+000
 2.1998930440e+000	 4.7219762289e-001	 1.7809162934e+000
 2.1952887378e+000	 4.9316058010e-001	 1.7286375768e+000
 2.1904710774e+000	 5.1413661543e-001	 1.6738361789e+000
 2.1854390149e+000	 5.3512270782e-001	 1.6169435774e+000
 2.1801915551e+000	 5.5611580005e-001	 1.5584366671e+000
 2.1747277568e+000	 5.7711279978e-001	 1.4988376784e+000
 2.1690467338e+000	 5.9811058066e-001	 1.4387139932e+000
 2.1631476559e+000	 6.1910598340e-001	 1.3786778568e+000
 1.9227979164e+000	 5.5031642970e-001	 1.7356620537e+000
 1.9173597783e+000	 5.6897405956e-001	 1.6609451478e+000
 1.9117264922e+000	 5.8762387544e-001	 1.5888155607e+000
 1.9058974762e+000	 6.0626298769e-001	 1.5197310979e+000
 1.8998722024e+000	 6.2488848178e-001	 1.4541785156e+000
 1.8936501977e+000	 6.4349741945e-001	 1.3744326982e+000
 1.8872310448e+000	 6.6208683995e-001	 1.2893469408e+000
 1.8806143829e+000	 6.8065376130e-001	 1.1990093281e+000
 1.8737999088e+000	 6.9919518155e-001	 1.1055075500e+000
 1.8667873772e+000	 7.1770808012e-001	 1.0157484822e+000
 1.8595766021e+000	 7.3618941913e-001	 9.1932162631e-001
 1.9468328903e+000	 5.5719538508e-001	 1.6859775929e+000
 1.9413267756e+000	 5.7608623530e-001	 1.6163534298e+000
 1.9356230734e+000	 5.9496917388e-001	 1.5494773683e+000
 1.9297211947e+000	 6.1384127504e-001	 1.4858304897e+000
 1.9236206049e+000	 6.3269958780e-001	 1.4193475544e+000
 1.9173208252e+000	 6.5154113719e-001	 1.3412238823e+000
 1.9108214328e+000	 6.7036292545e-001	 1.2584096095e+000
 1.9041220627e+000	 6.8916193331e-001	 1.1709053187e+000
 1.8972224076e+000	 7.0793512132e-001	 1.0787114233e+000
 1.8901222194e+000	 7.2667943112e-001	 9.8182825404e-001
 1.8828213097e+000	 7.4539178687e-001	 8.8025615052e-001
 1.9708678643e+000	 5.6407434045e-001	 1.6404494172e+000
 1.9652937728e+000	 5.8319841105e-001	 1.5752817442e+000
 1.9595196545e+000	 6.0231447232e-001	 1.5129873761e+000
 1.9535449131e+000	 6.2141956238e-001	 1.4540715866e+000
 1.9473690074e+000	 6.4051069382e-001	 1.3842106376e+000
 1.9409914526e+000	 6.5958485493e-001	 1.3075675211e+000
 1.9344118209e+000	 6.7863901094e-001	 1.2267923007e+000
 1.9276297425e+000	 6.9767010533e-001	 1.1418794567e+000
 1.9206449065e+000	 7.1667506109e-001	 1.0528226222e+000
 1.9134570617e+000	 7.3565078212e-001	 9.5961466897e-001
 1.9060660172e+000	 7.5459415461e-001	 8.6224780162e-001
 1.9949028382e+000	 5.7095329582e-001	 1.5986788063e+000
 1.9892607700e+000	 5.9031058679e-001	 1.5373196077e+000
 1.9834162357e+000	 6.0965977076e-001	 1.4789233732e+000
 1.9773686316e+000	 6.2899784972e-001	 1.4206574330e+000
 1.9711174100e+000	 6.4832179984e-001	 1.3488562299e+000
 1.9646620801e+000	 6.6762857267e-001	 1.2734827331e+000
 1.9580022090e+000	 6.8691509644e-001	 1.1945268166e+000
 1.9511374223e+000	 7.0617827734e-001	 1.1119767517e+000
 1.9440674054e+000	 7.2541500086e-001	 1.0258192851e+000
 1.9367919039e+000	 7.4462213312e-001	 9.3603972560e-001
 1.9293107247e+000	 7.6379652235e-001	 8.4262203917e-001
 2.0189378122e+000	 5.7783225119e-001	 1.5602704786e+000
 2.0132277673e+000	 5.9742276253e-001	 1.5020596190e+000
 2.0073128168e+000	 6.1700506920e-001	 1.4468658516e+000
 2.0011923500e+000	 6.3657613707e-001	 1.3845709995e+000
 1.9948658125e+000	 6.5613290586e-001	 1.3132931714e+000
 1.9883327076e+000	 6.7567229041e-001	 1.2389900691e+000
 1.9815925970e+000	 6.9519118194e-001	 1.1616459239e+000
 1.9746451021e+000	 7.1468644936e-001	 1.0812426877e+000
 1.9674899042e+000	 7.3415494062e-001	 9.9776011114e-001
 1.9601267461e+000	 7.5359348412e-001	 9.1117583066e-001
 1.9525554322e+000	 7.7299889008e-001	 8.2146546554e-001
 2.0429727862e+000	 5.8471120656e-001	 1.5248323893e+000
 2.0371947645e+000	 6.0453493827e-001	 1.4690972774e+000
 2.0312093980e+000	 6.2435036764e-001	 1.4163978471e+000
 2.0250160685e+000	 6.4415442441e-001	 1.3484667480e+000
 2.0186142150e+000	 6.6394401188e-001	 1.2775320698e+000
 2.0120033350e+000	 6.8371600815e-001	 1.2041114280e+000
 2.0051829851e+000	 7.0346726743e-001	 1.1281832971e+000
 1.9981527819e+000	 7.2319462137e-001	 1.0497231958e+000
 1.9909124031e+000	 7.4289488039e-001	 9.6870376446e-001
 1.9834615883e+000	 7.6256483512e-001	 8.8509485367e-001
 1.9758001398e+000	 7.8220125782e-001	 7.9886362308e-001
 2.0670077601e+000	 5.9159016193e-001	 1.4919755420e+000
 2.0611617617e+000	 6.1164711402e-001	 1.4380308144e+000
 2.0551059791e+000	 6.3169566608e-001	 1.3811776555e+000
 2.0488397869e+000	 6.5173271175e-001	 1.3123465229e+000
 2.0423626176e+000	 6.7175511790e-001	 1.2415851975e+000
 2.0356739625e+000	 6.9175972589e-001	 1.1688699784e+000
 2.0287733731e+000	 7.1174335293e-001	 1.0941734660e+000
 2.0216604616e+000	 7.3170279338e-001	 1.0174646279e+000
 2.0143349019e+000	 7.5163482016e-001	 9.3870887634e-001
 2.0067964305e+000	 7.7153618612e-001	 8.5786815824e-001
 1.9990448473e+000	 7.9140362556e-001	 7.7490105583e-001
 2.0910427341e+000	 5.9846911730e-001	 1.4613138135e+000
 2.0851287589e+000	 6.1875928976e-001	 1.4084610365e+000
 2.0790025603e+000	 6.3904096452e-001	 1.3455621905e+000
 2.0726635054e+000	 6.5931099910e-001	 1.2762140914e+000
 2.0661110201e+000	 6.7956622392e-001	 1.2054663960e+000
 2.0593445900e+000	 6.9980344363e-001	 1.1332900856e+000
 2.0523637612e+000	 7.2001943843e-001	 1.0596517661e+000
 2.0451681414e+000	 7.4021096540e-001	 9.8451373239e-001
 2.0377574008e+000	 7.6037475992e-001	 9.0783404714e-001
 2.0301312727e+000	 7.8050753712e-001	 8.2956663107e-001
 2.0222895548e+000	 8.0060599330e-001	 7.4966136681e-001
 2.1150777080e+000	 6.0534807266e-001	 1.4324637908e+000
 2.1090957562e+000	 6.2587146550e-001	 1.3792467756e+000
 2.1028991414e+000	 6.4638626296e-001	 1.3100838461e+000
 2.0964872238e+000	 6.6688928644e-001	 1.2400750346e+000
 2.0898594226e+000	 6.8737732993e-001	 1.1691909867e+000
 2.0830152175e+000	 7.0784716137e-001	 1.0973972438e+000
 2.0759541493e+000	 7.2829552392e-001	 1.0246542929e+000
 2.0686758212e+000	 7.4871913741e-001	 9.5091763204e-001
 2.0611798997e+000	 7.6911469969e-001	 8.7613784799e-001
 2.0534661149e+000	 7.8947888812e-001	 8.0026070912e-001
 2.0455342623e+000	 8.0980836103e-001	 7.2322727152e-001
 2.1391126820e+000	 6.1222702803e-001	 1.4050446185e+000
 2.1330627534e+000	 6.3298364124e-001	 1.3452227183e+000
 2.1267957226e+000	 6.5373156140e-001	 1.2747409081e+000
 2.1203109423e+000	 6.7446757378e-001	 1.2039366451e+000
 2.1136078252e+000	 6.9518843595e-001	 1.1327756880e+000
 2.1066858449e+000	 7.1589087911e-001	 1.0612180123e+000
 2.0995445373e+000	 7.3657160942e-001	 9.8921785970e-001
 2.0921835010e+000	 7.5722730942e-001	 9.1672380253e-001
 2.0846023985e+000	 7.7785463946e-001	 8.4367882247e-001
 2.0768009572e+000	 7.9845023912e-001	 7.7002040484e-001
 2.0687789699e+000	 8.1901072877e-001	 6.9568064780e-001
 2.1631476559e+000	 6.1910598340e-001	 1.3786778568e+000
 2.1570297506e+000	 6.4009581698e-001	 1.3114549770e+000
 2.1506923038e+000	 6.6107685984e-001	 1.2395335609e+000
 2.1441346607e+000	 6.8204586113e-001	 1.1678078326e+000
 2.1373562277e+000	 7.0299954197e-001	 1.0962385372e+000
 2.1303564724e+000	 7.2393459685e-001	 1.0247799566e+000
 2.1231349254e+000	 7.4484769492e-001	 9.5337995698e-001
 2.1156911808e+000	 7.6573548144e-001	 8.8198005310e-001
 2.1080248974e+000	 7.8659457923e-001	 8.1051548814e-001
 2.1001357994e+000	 8.0742159012e-001	 7.3891532975e-001
 2.0920236774e+000	 8.2821309651e-001	 6.6710258239e-001
 1.8595766021e+000	 7.3618941913e-001	 9.1932162631e-001
 1.8521674571e+000	 7.5463614479e-001	 8.5006054747e-001
 1.8445598760e+000	 7.7304518882e-001	 7.7671519280e-001
 1.8367538539e+000	 7.9141346985e-001	 6.9938281487e-001
 1.8287494474e+000	 8.0973789495e-001	 6.1816930269e-001
 1.8205467755e+000	 8.2801536107e-001	 5.3318908204e-001
 1.8121460198e+000	 8.4624275656e-001	 4.4456499745e-001
 1.8035474251e+000	 8.6441696276e-001	 3.5242817589e-001
 1.7947513000e+000	 8.8253485550e-001	 2.5691787220e-001
 1.7857580172e+000	 9.0059330673e-001	 1.5818129630e-001
 1.7765680137e+000	 9.1858918611e-001	 5.6373422479e-002
 1.8828213097e+000	 7.4539178687e-001	 8.8025615052e-001
 1.8753195503e+000	 7.6406909660e-001	 8.0468320502e-001
 1.8676168744e+000	 7.8270825368e-001	 7.3494728974e-001
 1.8597132771e+000	 8.0130613823e-001	 6.6122065458e-001
 1.8516088155e+000	 8.1985961864e-001	 5.8319585402e-001
 1.8433036102e+000	 8.3836555308e-001	 5.0099598992e-001
 1.8347978450e+000	 8.5682079102e-001	 4.1475318894e-001
 1.8260917679e+000	 8.7522217479e-001	 3.2460845926e-001
 1.8171856912e+000	 8.9356654119e-001	 2.3071152783e-001
 1.8080799924e+000	 9.1185072306e-001	 1.3322065847e-001
 1.7987751138e+000	 9.3007155093e-001	 3.2302450798e-002
 1.9060660172e+000	 7.5459415461e-001	 8.6224780162e-001
 1.8984716435e+000	 7.7350204841e-001	 7.8891587862e-001
 1.8906738729e+000	 7.9237131854e-001	 7.1223192308e-001
 1.8826727002e+000	 8.1119880660e-001	 6.3214060571e-001
 1.8744681836e+000	 8.2998134233e-001	 5.4911934913e-001
 1.8660604449e+000	 8.4871574509e-001	 4.6984716622e-001
 1.8574496703e+000	 8.6739882548e-001	 3.8613423479e-001
 1.8486361107e+000	 8.8602738683e-001	 2.9813158079e-001
 1.8396200825e+000	 9.0459822689e-001	 2.0599954426e-001
 1.8304019676e+000	 9.2310813940e-001	 1.0990758802e-001
 1.8209822140e+000	 9.4155391576e-001	 1.0034086044e-002
 1.9293107247e+000	 7.6379652235e-001	 8.4262203917e-001
 1.9216237367e+000	 7.8293500022e-001	 7.7177000442e-001
 1.9137308713e+000	 8.0203438340e-001	 6.9735974565e-001
 1.9056321234e+000	 8.2109147497e-001	 6.1933402091e-001
 1.8973275517e+000	 8.4010306601e-001	 5.3763421372e-001
 1.8888172796e+000	 8.5906593711e-001	 4.5220050087e-001
 1.8801014955e+000	 8.7797685993e-001	 3.6297202882e-001
 1.8711804535e+000	 8.9683259886e-001	 2.7293341456e-001
 1.8620544737e+000	 9.1562991258e-001	 1.8270617447e-001
 1.8527239428e+000	 9.3436555573e-001	 8.8154423892e-002
 1.8431893142e+000	 9.5303628058e-001	-1.0531533117e-002
 1.9525554322e+000	 7.7299889008e-001	 8.2146546554e-001
 1.9447758299e+000	 7.9236795203e-001	 7.5332885399e-001
 1.9367878698e+000	 8.1169744825e-001	 6.8143671119e-001
 1.9285915466e+000	 8.3098414334e-001	 6.0572965644e-001
 1.9201869198e+000	 8.5022478970e-001	 5.2614701530e-001
 1.9115741143e+000	 8.6941612912e-001	 4.4262699506e-001
 1.9027533208e+000	 8.8855489439e-001	 3.5510686921e-001
 1.8937247963e+000	 9.0763781090e-001	 2.6352317033e-001
 1.8844888650e+000	 9.2666159827e-001	 1.6781189120e-001
 1.8750459180e+000	 9.4562297206e-001	 6.7908693738e-002
 1.8653964143e+000	 9.6451864541e-001	-2.9491656086e-002
 1.9758001398e+000	 7.8220125782e-001	 7.9886362308e-001
 1.9679279231e+000	 8.0180090384e-001	 7.3367494319e-001
 1.9598448682e+000	 8.2136051311e-001	 6.6454213604e-001
 1.9515509698e+000	 8.4087681172e-001	 5.9140345455e-001
 1.9430462879e+000	 8.6034651339e-001	 5.1419592846e-001
 1.9343309490e+000	 8.7976632113e-001	 4.3285554790e-001
 1.9254051460e+000	 8.9913292885e-001	 3.4731745589e-001
 1.9162691391e+000	 9.1844302293e-001	 2.5751614969e-001
 1.9069232562e+000	 9.3769328397e-001	 1.6338569033e-001
 1.8973678932e+000	 9.5688038840e-001	 6.4859920132e-002
 1.8876035145e+000	 9.7600101023e-001	-3.8127312318e-002
 1.9990448473e+000	 7.9140362556e-001	 7.7490105583e-001
 1.9910800163e+000	 8.1123385565e-001	 7.1289007608e-001
 1.9829018667e+000	 8.3102357797e-001	 6.4675492151e-001
 1.9745103929e+000	 8.5076948009e-001	 5.7643124932e-001
 1.9659056560e+000	 8.7046823707e-001	 5.0185355398e-001
 1.9570877837e+000	 8.9011651315e-001	 4.2295535909e-001
 1.9480569713e+000	 9.0971096330e-001	 3.3966941833e-001
 1.9388134820e+000	 9.2924823496e-001	 2.5192792535e-001
 1.9293576475e+000	 9.4872496966e-001	 1.5966273204e-001
 1.9196898685e+000	 9.6813780473e-001	 6.2805575018e-002
 1.9098106147e+000	 9.8748337506e-001	-3.8711690451e-002
 2.0222895548e+000	 8.0060599330e-001	 7.4966136681e-001
 2.0142321096e+000	 8.2066680746e-001	 6.9105538585e-001
 2.0059588651e+000	 8.4068664283e-001	 6.2815357777e-001
 1.9974698161e+000	 8.6066214846e-001	 5.6088877289e-001
 1.9887650241e+000	 8.8058996076e-001	 4.8919268932e-001
 1.9798446184e+000	 9.0046670516e-001	 4.1299613316e-001
 1.9707087965e+000	 9.2028899776e-001	 3.3222920818e-001
 1.9613578248e+000	 9.4005344700e-001	 2.4682153457e-001
 1.9517920388e+000	 9.5975665535e-001	 1.5670247628e-001
 1.9420118437e+000	 9.7939522106e-001	 6.1801376677e-002
 1.9320177149e+000	 9.9896573988e-001	-3.7952198204e-002
 2.0455342623e+000	 8.0980836103e-001	 7.2322727152e-001
 2.0373842028e+000	 8.3009975926e-001	 6.6825137293e-001
 2.0290158636e+000	 8.5034970769e-001	 6.0881624600e-001
 2.0204292393e+000	 8.7055481683e-001	 5.4485166129e-001
 2.0116243922e+000	 8.9071168444e-001	 4.7628631758e-001
 2.0026014531e+000	 9.1081689717e-001	 4.0304805076e-001
 1.9933606218e+000	 9.3086703222e-001	 3.2506405249e-001
 1.9839021676e+000	 9.5085865903e-001	 2.4226109803e-001
 1.9742264300e+000	 9.7078834105e-001	 1.5456578297e-001
 1.9643338189e+000	 9.9065263740e-001	 6.1904768337e-002
 1.9542248150e+000	 1.0104481047e+000	-3.5794966394e-002
 2.0687789699e+000	 8.1901072877e-001	 6.9568064780e-001
 2.0605362960e+000	 8.3953271107e-001	 6.4455794053e-001
 2.0520728620e+000	 8.6001277255e-001	 5.8882071918e-001
 2.0433886625e+000	 8.8044748521e-001	 5.2839545978e-001
 2.0344837603e+000	 9.0083340813e-001	 4.6320759696e-001
 2.0253582878e+000	 9.2116708919e-001	 3.9318174193e-001
 2.0160124470e+000	 9.4144506667e-001	 3.1824191021e-001
 2.0064465104e+000	 9.6166387107e-001	 2.3831175895e-001
 1.9966608213e+000	 9.8182002674e-001	 1.5331483329e-001
 1.9866557941e+000	 1.0019100537e+000	 6.3174821267e-002
 1.9764319152e+000	 1.0219304695e+000	-3.2184183170e-002
 2.0920236774e+000	 8.2821309651e-001	 6.6710258239e-001
 2.0836883892e+000	 8.4896566288e-001	 6.2005442783e-001
 2.0751298605e+000	 8.6967583741e-001	 5.6824446144e-001
 2.0663480856e+000	 8.9034015358e-001	 5.1159562790e-001
 2.0573431284e+000	 9.1095513182e-001	 4.5002985109e-001
 2.0481151225e+000	 9.3151728120e-001	 3.8346826109e-001
 2.0386642723e+000	 9.5202310113e-001	 3.1183143147e-001
 2.0289908532e+000	 9.7246908310e-001	 2.3503962628e-001
 2.0190952125e+000	 9.9285171243e-001	 1.5301305635e-001
 2.0089777693e+000	 1.0131674701e+000	 6.5672144326e-002
 1.9986390154e+000	 1.0334128344e+000	-2.7062201936e-002
 1.7765680137e+000	 9.1858918611e-001	 5.6373422479e-002
 1.7671817913e+000	 9.3651936262e-001	-9.1275429198e-003
 1.7575999168e+000	 9.5438070623e-001	-7.8230527105e-002
 1.7478230222e+000	 9.7217008953e-001	-1.5069428798e-001
 1.7378518049e+000	 9.8988438938e-001	-2.2626909724e-001
 1.7276870275e+000	 1.0075204886e+000	-3.0469707219e-001
 1.7173295184e+000	 1.0250752778e+000	-3.8571252634e-001
 1.7067801714e+000	 1.0425456567e+000	-4.6904233827e-001
 1.6960399458e+000	 1.0599285364e+000	-5.5440633806e-001
 1.6851098662e+000	 1.0772208403e+000	-6.4151771063e-001
 1.6739910224e+000	 1.0944195068e+000	-7.3008341522e-001
 1.7987751138e+000	 9.3007155093e-001	 3.2302450798e-002
 1.7892715637e+000	 9.4822585465e-001	-2.9775181570e-002
 1.7795699158e+000	 9.6631046506e-001	-9.5232080602e-002
 1.7696708100e+000	 9.8432221564e-001	-1.6382887548e-001
 1.7595749524e+000	 1.0022579442e+000	-2.3531782867e-001
 1.7492831153e+000	 1.0201144947e+000	-3.0944317311e-001
 1.7387961374e+000	 1.0378887188e+000	-3.8594146826e-001
 1.7281149236e+000	 1.0555774775e+000	-4.6454197442e-001
 1.7172404451e+000	 1.0731776431e+000	-5.4496704472e-001
 1.7061737395e+000	 1.0906861008e+000	-6.2693253397e-001
 1.6949159102e+000	 1.1080997506e+000	-7.1014822370e-001
 1.8209822140e+000	 9.4155391576e-001	 1.0034086044e-002
 1.8113613361e+000	 9.5993234668e-001	-4.9155651632e-002
 1.8015399147e+000	 9.7824022389e-001	-1.1151434832e-001
 1.7915185978e+000	 9.9647434176e-001	-1.7680408101e-001
 1.7812981000e+000	 1.0146314991e+000	-2.4477866579e-001
 1.7708792032e+000	 1.0327085009e+000	-3.1518400087e-001
 1.7602627564e+000	 1.0507021598e+000	-3.8775842856e-001
 1.7494496757e+000	 1.0686092982e+000	-4.6223311559e-001
 1.7384409444e+000	 1.0864267498e+000	-5.3833245114e-001
 1.7272376128e+000	 1.1041513613e+000	-6.1577446174e-001
 1.7158407980e+000	 1.1217799944e+000	-6.9427124242e-001
 1.8431893142e+000	 9.5303628058e-001	-1.0531533117e-002
 1.8334511084e+000	 9.7163883872e-001	-6.7356265209e-002
 1.8235099137e+000	 9.9016998271e-001	-1.2715183799e-001
 1.8133663856e+000	 1.0086264679e+000	-1.8968135483e-001
 1.8030212475e+000	 1.0270050540e+000	-2.5469975050e-001
 1.7924752910e+000	 1.0453025070e+000	-3.2195414046e-001
 1.7817293753e+000	 1.0635156007e+000	-3.9118418926e-001
 1.7707844278e+000	 1.0816411189e+000	-4.6212249738e-001
 1.7596414438e+000	 1.0996758565e+000	-5.3449500574e-001
 1.7483014862e+000	 1.1176166218e+000	-6.0802141734e-001
 1.7367656858e+000	 1.1354602383e+000	-6.8241563498e-001
 1.8653964143e+000	 9.6451864541e-001	-2.9491656086e-002
 1.8555408808e+000	 9.8334533075e-001	-8.4462480837e-002
 1.8454799126e+000	 1.0020997415e+000	-1.4221797693e-001
 1.8352141733e+000	 1.0207785940e+000	-2.0252185447e-001
 1.8247443951e+000	 1.0393786088e+000	-2.6512973385e-001
 1.8140713789e+000	 1.0578965131e+000	-3.2978950180e-001
 1.8031959943e+000	 1.0763290417e+000	-3.9624168663e-001
 1.7921191800e+000	 1.0946729396e+000	-4.6421985212e-001
 1.7808419431e+000	 1.1129249632e+000	-5.3345100909e-001
 1.7693653595e+000	 1.1310818823e+000	-6.0365604425e-001
 1.7576905735e+000	 1.1491404821e+000	-6.7455016514e-001
 1.8876035145e+000	 9.7600101023e-001	-3.8127312318e-002
 1.8776306532e+000	 9.9505182278e-001	-9.8718871177e-002
 1.8674499116e+000	 1.0140295004e+000	-1.5678517562e-001
 1.8570619611e+000	 1.0329307201e+000	-2.1538646196e-001
 1.8464675427e+000	 1.0517521637e+000	-2.7611774611e-001
 1.8356674667e+000	 1.0704905192e+000	-3.3872724178e-001
 1.8246626133e+000	 1.0891424827e+000	-4.0295588443e-001
 1.8134539321e+000	 1.1077047603e+000	-4.6853773263e-001
 1.8020424424e+000	 1.1261740699e+000	-5.3520038735e-001
 1.7904292328e+000	 1.1445471428e+000	-6.0266542843e-001
 1.7786154613e+000	 1.1628207260e+000	-6.7064886742e-001
 1.9098106147e+000	 9.8748337506e-001	-3.8711690451e-002
 1.8997204256e+000	 1.0067583148e+000	-9.8379880988e-002
 1.8894199106e+000	 1.0259592592e+000	-1.6059162573e-001
 1.8789097489e+000	 1.0450828462e+000	-2.2543599629e-001
 1.8681906902e+000	 1.0641257186e+000	-2.8771336889e-001
 1.8572635545e+000	 1.0830845253e+000	-3.4880569178e-001
 1.8461292323e+000	 1.1019559236e+000	-4.1135365605e-001
 1.8347886843e+000	 1.1207365810e+000	-4.7509134825e-001
 1.8232429417e+000	 1.1394231766e+000	-5.3974648145e-001
 1.8114931061e+000	 1.1580124033e+000	-6.0504083998e-001
 1.7995403491e+000	 1.1765009698e+000	-6.7069074063e-001
 1.9320177149e+000	 9.9896573988e-001	-3.7952198204e-002
 1.9218101980e+000	 1.0184648068e+000	-9.6975882350e-002
 1.9113899095e+000	 1.0378890180e+000	-1.5826593157e-001
 1.9007575367e+000	 1.0572349723e+000	-2.2192702493e-001
 1.8899138378e+000	 1.0764992734e+000	-2.8806517822e-001
 1.8788596424e+000	 1.0956785314e+000	-3.5678745716e-001
 1.8675958513e+000	 1.1147693646e+000	-4.2146367476e-001
 1.8561234364e+000	 1.1337684017e+000	-4.8389841213e-001
 1.8444434411e+000	 1.1526722833e+000	-5.4709585087e-001
 1.8325569795e+000	 1.1714776638e+000	-6.1077749270e-001
 1.8204652369e+000	 1.1901812136e+000	-6.7465946260e-001
 1.9542248150e+000	 1.0104481047e+000	-3.5794966394e-002
 1.9438999704e+000	 1.0301712989e+000	-9.4437015221e-002
 1.9333599085e+000	 1.0498187768e+000	-1.5507450768e-001
 1.9226053244e+000	 1.0693870985e+000	-2.1782783715e-001
 1.9116369853e+000	 1.0888728283e+000	-2.8281916913e-001
 1.9004557302e+000	 1.1082725375e+000	-3.5017213513e-001
 1.8890624702e+000	 1.1275828056e+000	-4.2001151824e-001
 1.8774581886e+000	 1.1468002224e+000	-4.9246293077e-001
 1.8656439404e+000	 1.1659213900e+000	-5.5725809076e-001
 1.8536208528e+000	 1.1849429244e+000	-6.1987432001e-001
 1.8413901247e+000	 1.2038614575e+000	-6.8254312429e-001
 1.9764319152e+000	 1.0219304695e+000	-3.2184183170e-002
 1.9659897428e+000	 1.0418777909e+000	-9.0692040936e-002
 1.9553299075e+000	 1.0617485357e+000	-1.5093044423e-001
 1.9444531122e+000	 1.0815392246e+000	-2.1303561612e-001
 1.9333601329e+000	 1.1012463832e+000	-2.7714598548e-001
 1.9220518181e+000	 1.1208665436e+000	-3.4340186132e-001
 1.9105290892e+000	 1.1403962465e+000	-4.1194509782e-001
 1.8987929407e+000	 1.1598320431e+000	-4.8291875072e-001
 1.8868444397e+000	 1.1791704967e+000	-5.5646672604e-001
 1.8746847261e+000	 1.1984081849e+000	-6.3233376600e-001
 1.8623150124e+000	 1.2175417013e+000	-6.9433398190e-001
 1.9986390154e+000	 1.0334128344e+000	-2.7062201936e-002
 1.9880795152e+000	 1.0535842829e+000	-8.5668418800e-002
 1.9772999064e+000	 1.0736782945e+000	-1.4574607244e-001
 1.9663009000e+000	 1.0936913507e+000	-2.0744733937e-001
 1.9550832805e+000	 1.1136199380e+000	-2.7092703409e-001
 1.9436479059e+000	 1.1334605497e+000	-3.3634226353e-001
 1.9319957082e+000	 1.1532096875e+000	-4.0385207130e-001
 1.9201276929e+000	 1.1728638638e+000	-4.7361707246e-001
 1.9080449390e+000	 1.1924196034e+000	-5.4579907984e-001
 1.8957485995e+000	 1.2118734454e+000	-6.2056072255e-001
 1.8832399002e+000	 1.2312219451e+000	-6.9806505771e-001
 1.6739910224e+000	 1.0944195068e+000	-7.3008341522e-001
 1.6626845693e+000	 1.1115214900e+000	-8.1021402523e-001
 1.6511917266e+000	 1.1285237623e+000	-8.8772582805e-001
 1.6395137781e+000	 1.1454233153e+000	-9.6244491547e-001
 1.6276520721e+000	 1.1622171622e+000	-1.0341969834e+000
 1.6156080202e+000	 1.1789023391e+000	-1.1028076970e+000
 1.6033830974e+000	 1.1954759065e+000	-1.1681030611e+000
 1.5909788412e+000	 1.2119349516e+000	-1.2299097935e+000
 1.5783968513e+000	 1.2282765894e+000	-1.2880557016e+000
 1.5656387886e+000	 1.2444979645e+000	-1.3423700609e+000
 1.5527063751e+000	 1.2605962528e+000	-1.3701239556e+000
 1.6949159102e+000	 1.1080997506e+000	-7.1014822370e-001
 1.6834681265e+000	 1.1254155087e+000	-7.9026386454e-001
 1.6718316232e+000	 1.1426303093e+000	-8.6827712697e-001
 1.6600077003e+000	 1.1597411068e+000	-9.4400180849e-001
 1.6479977230e+000	 1.1767448768e+000	-1.0172507481e+000
 1.6358031204e+000	 1.1936386183e+000	-1.0878362090e+000
 1.6234253861e+000	 1.2104193553e+000	-1.1555702674e+000
 1.6108660767e+000	 1.2270841385e+000	-1.2202652047e+000
 1.5981268119e+000	 1.2436300467e+000	-1.2817339049e+000
 1.5852092735e+000	 1.2600541890e+000	-1.3189031418e+000
 1.5721152048e+000	 1.2763537060e+000	-1.3387178986e+000
 1.7158407980e+000	 1.1217799944e+000	-6.9427124242e-001
 1.7042516836e+000	 1.1393095273e+000	-7.7432012325e-001
 1.6924715197e+000	 1.1567368563e+000	-8.5277260222e-001
 1.6805016226e+000	 1.1740588982e+000	-9.2942992974e-001
 1.6683433739e+000	 1.1912725913e+000	-1.0040918396e+000
 1.6559982207e+000	 1.2083748975e+000	-1.0765569500e+000
 1.6434676748e+000	 1.2253628042e+000	-1.1466231702e+000
 1.6307533122e+000	 1.2422333254e+000	-1.2140881140e+000
 1.6178567725e+000	 1.2589835041e+000	-1.2605988232e+000
 1.6047797583e+000	 1.2756104136e+000	-1.2877062812e+000
 1.5915240345e+000	 1.2921111591e+000	-1.3108425212e+000
 1.7367656858e+000	 1.1354602383e+000	-6.8241563498e-001
 1.7250352407e+000	 1.1532035459e+000	-7.6235595231e-001
 1.7131114163e+000	 1.1708434034e+000	-8.4119581825e-001
 1.7009955448e+000	 1.1883766897e+000	-9.1872367650e-001
 1.6886890248e+000	 1.2058003058e+000	-9.9472590036e-001
 1.6761933210e+000	 1.2231111768e+000	-1.0689872120e+000
 1.6635099635e+000	 1.2403062530e+000	-1.1412911089e+000
 1.6506405477e+000	 1.2573825123e+000	-1.1969693275e+000
 1.6375867332e+000	 1.2743369615e+000	-1.2304193627e+000
 1.6243502432e+000	 1.2911666381e+000	-1.2601927666e+000
 1.6109328642e+000	 1.3078686123e+000	-1.2863547243e+000
 1.7576905735e+000	 1.1491404821e+000	-6.7455016514e-001
 1.7458187978e+000	 1.1670975645e+000	-7.5434980520e-001
 1.7337513129e+000	 1.1849499504e+000	-8.3353532461e-001
 1.7214894670e+000	 1.2026944811e+000	-9.1188209406e-001
 1.7090346757e+000	 1.2203280204e+000	-9.8916286393e-001
 1.6963884212e+000	 1.2378474560e+000	-1.0651482025e+000
 1.6835522522e+000	 1.2552497018e+000	-1.1296959701e+000
 1.6705277832e+000	 1.2725316992e+000	-1.1685668420e+000
 1.6573166938e+000	 1.2896904188e+000	-1.2040524175e+000
 1.6439207281e+000	 1.3067228627e+000	-1.2362135469e+000
 1.6303416939e+000	 1.3236260655e+000	-1.2651131562e+000
 1.7786154613e+000	 1.1628207260e+000	-6.7064886742e-001
 1.7666023549e+000	 1.1809915832e+000	-7.5028512601e-001
 1.7543912095e+000	 1.1990564974e+000	-8.2978436274e-001
 1.7419833892e+000	 1.2170122725e+000	-9.0890860232e-001
 1.7293803266e+000	 1.2348557349e+000	-9.8741670291e-001
 1.7165835215e+000	 1.2525837353e+000	-1.0603850972e+000
 1.7035945410e+000	 1.2701931507e+000	-1.1037841708e+000
 1.6904150188e+000	 1.2876808861e+000	-1.1440847417e+000
 1.6770466545e+000	 1.3050438762e+000	-1.1813441680e+000
 1.6634912129e+000	 1.3222790873e+000	-1.2156216595e+000
 1.6497505236e+000	 1.3393835186e+000	-1.2469781099e+000
 1.7995403491e+000	 1.1765009698e+000	-6.7069074063e-001
 1.7873859120e+000	 1.1948856018e+000	-7.5015005933e-001
 1.7750311061e+000	 1.2131630445e+000	-8.2994059319e-001
 1.7624773115e+000	 1.2313300640e+000	-9.0981074146e-001
 1.7497259775e+000	 1.2493834494e+000	-9.8950519397e-001
 1.7367786217e+000	 1.2673200145e+000	-1.0376343504e+000
 1.7236368297e+000	 1.2851365995e+000	-1.0818813385e+000
 1.7103022543e+000	 1.3028300730e+000	-1.1233655026e+000
 1.6967766151e+000	 1.3203973336e+000	-1.1621431627e+000
 1.6830616978e+000	 1.3378353118e+000	-1.1982721085e+000
 1.6691593533e+000	 1.3551409718e+000	-1.2318114272e+000
 1.8204652369e+000	 1.1901812136e+000	-6.7465946260e-001
 1.8081694692e+000	 1.2087796204e+000	-7.5393718005e-001
 1.7956710026e+000	 1.2272695915e+000	-8.3400584161e-001
 1.7829712337e+000	 1.2456478554e+000	-9.1459993512e-001
 1.7700716284e+000	 1.2639111639e+000	-9.7160947808e-001
 1.7569737220e+000	 1.2820562937e+000	-1.0189637055e+000
 1.7436791184e+000	 1.3000800483e+000	-1.0638272020e+000
 1.7301894898e+000	 1.3179792599e+000	-1.1062541953e+000
 1.7165065757e+000	 1.3357507909e+000	-1.1463001820e+000
 1.7026321826e+000	 1.3533915364e+000	-1.1840217516e+000
 1.6885681830e+000	 1.3708984249e+000	-1.2194764103e+000
 1.8413901247e+000	 1.2038614575e+000	-6.8254312429e-001
 1.8289530263e+000	 1.2226736390e+000	-7.6164324169e-001
 1.8163108992e+000	 1.2413761385e+000	-8.4198586216e-001
 1.8034651559e+000	 1.2599656469e+000	-9.0713206618e-001
 1.7904172793e+000	 1.2784388785e+000	-9.5678457127e-001
 1.7771688222e+000	 1.2967925730e+000	-1.0042110030e+000
 1.7637214071e+000	 1.3150234972e+000	-1.0494642634e+000
 1.7500767253e+000	 1.3331284468e+000	-1.0925983370e+000
 1.7362365364e+000	 1.3511042483e+000	-1.1336681112e+000
 1.7222026675e+000	 1.3689477609e+000	-1.1727291951e+000
 1.7079770127e+000	 1.3866558781e+000	-1.2098377381e+000
 1.8623150124e+000	 1.2175417013e+000	-6.9433398190e-001
 1.8497365834e+000	 1.2365676577e+000	-7.7326894161e-001
 1.8369507958e+000	 1.2554826855e+000	-8.4555615957e-001
 1.8239590782e+000	 1.2742834383e+000	-8.9672902033e-001
 1.8107629302e+000	 1.2929665930e+000	-9.4593186259e-001
 1.7973639225e+000	 1.3115288522e+000	-9.9321699595e-001
 1.7837636958e+000	 1.3299669460e+000	-1.0386376430e+000
 1.7699639608e+000	 1.3482776336e+000	-1.0822477544e+000
 1.7559664970e+000	 1.3664577057e+000	-1.1241018227e+000
 1.7417731524e+000	 1.3845039855e+000	-1.1642546955e+000
 1.7273858424e+000	 1.4024133313e+000	-1.2027613894e+000
 1.8832399002e+000	 1.2312219451e+000	-6.9806505771e-001
 1.8705201405e+000	 1.2504616763e+000	-7.8816827164e-001
 1.8575906924e+000	 1.2695892326e+000	-8.4011542945e-001
 1.8444530004e+000	 1.2886012298e+000	-8.9033889734e-001
 1.8311085811e+000	 1.3074943075e+000	-9.3889109097e-001
 1.8175590227e+000	 1.3262651314e+000	-9.8582518720e-001
 1.8038059846e+000	 1.3449103948e+000	-1.0311949334e+000
 1.7898511964e+000	 1.3634268205e+000	-1.0750544553e+000
 1.7756964577e+000	 1.3818111630e+000	-1.1174580649e+000
 1.7613436372e+000	 1.4000602100e+000	-1.1584600676e+000
 1.7467946721e+000	 1.4181707844e+000	-1.1981145702e+000
 1.5527063751e+000	 1.2605962528e+000	-1.3701239556e+000
 1.5396013926e+000	 1.2765686632e+000	-1.4212792777e+000
 1.5263256822e+000	 1.2924124388e+000	-1.4700033064e+000
 1.5128811432e+000	 1.3081248589e+000	-1.5163397648e+000
 1.4992697328e+000	 1.3237032403e+000	-1.5603333133e+000
 1.4854934645e+000	 1.3391449388e+000	-1.6020294165e+000
 1.4715544074e+000	 1.3544473509e+000	-1.6414742097e+000
 1.4574546853e+000	 1.3696079148e+000	-1.6787143667e+000
 1.4431964755e+000	 1.3846241126e+000	-1.7137969687e+000
 1.4287820076e+000	 1.3994934709e+000	-1.7467693744e+000
 1.4142135624e+000	 1.4142135624e+000	-1.7776790930e+000
 1.5721152048e+000	 1.2763537060e+000	-1.3387178986e+000
 1.5588464100e+000	 1.2925257715e+000	-1.3922159524e+000
 1.5454047532e+000	 1.3085675943e+000	-1.4429628126e+000
 1.5317921575e+000	 1.3244764197e+000	-1.4909980788e+000
 1.5180106045e+000	 1.3402495308e+000	-1.5363625208e+000
 1.5040621328e+000	 1.3558842505e+000	-1.5790979472e+000
 1.4899488375e+000	 1.3713779427e+000	-1.6192470726e+000
 1.4756728689e+000	 1.3867280138e+000	-1.6568533869e+000
 1.4612364314e+000	 1.4019319140e+000	-1.6919610246e+000
 1.4466417827e+000	 1.4169871393e+000	-1.7246146358e+000
 1.4318912319e+000	 1.4318912319e+000	-1.7548592590e+000
 1.5915240345e+000	 1.2921111591e+000	-1.3108425212e+000
 1.5780914275e+000	 1.3084828798e+000	-1.3663936222e+000
 1.5644838242e+000	 1.3247227498e+000	-1.4188803188e+000
 1.5507031718e+000	 1.3408279804e+000	-1.4683383386e+000
 1.5367514761e+000	 1.3567958213e+000	-1.5148048072e+000
 1.5226308011e+000	 1.3726235623e+000	-1.5583181174e+000
 1.5083432676e+000	 1.3883085346e+000	-1.5989177974e+000
 1.4938910524e+000	 1.4038481127e+000	-1.6366443806e+000
 1.4792763874e+000	 1.4192397154e+000	-1.6715392755e+000
 1.4645015578e+000	 1.4344808076e+000	-1.7036446371e+000
 1.4495689015e+000	 1.4495689015e+000	-1.7330032391e+000
 1.6109328642e+000	 1.3078686123e+000	-1.2863547243e+000
 1.5973364449e+000	 1.3244399881e+000	-1.3436768987e+000
 1.5835628953e+000	 1.3408779053e+000	-1.3976279670e+000
 1.5696141861e+000	 1.3571795411e+000	-1.4482400343e+000
 1.5554923478e+000	 1.3733421118e+000	-1.4955468258e+000
 1.5411994694e+000	 1.3893628740e+000	-1.5395835564e+000
 1.5267376977e+000	 1.4052391265e+000	-1.5803867996e+000
 1.5121092360e+000	 1.4209682117e+000	-1.6179943578e+000
 1.4973163433e+000	 1.4365475169e+000	-1.6524451321e+000
 1.4823613329e+000	 1.4519744760e+000	-1.6837789935e+000
 1.4672465710e+000	 1.4672465710e+000	-1.7120366557e+000
 1.6303416939e+000	 1.3236260655e+000	-1.2651131562e+000
 1.6165814623e+000	 1.3403970964e+000	-1.3239316935e+000
 1.6026419663e+000	 1.3570330608e+000	-1.3790787631e+000
 1.5885252004e+000	 1.3735311019e+000	-1.4305830947e+000
 1.5742332195e+000	 1.3898884023e+000	-1.4784752545e+000
 1.5597681377e+000	 1.4061021858e+000	-1.5227875151e+000
 1.5451321278e+000	 1.4221697184e+000	-1.5635537255e+000
 1.5303274196e+000	 1.4380883106e+000	-1.6008091802e+000
 1.5153562993e+000	 1.4538553183e+000	-1.6345904896e+000
 1.5002211079e+000	 1.4694681444e+000	-1.6649354506e+000
 1.4849242405e+000	 1.4849242405e+000	-1.6918829190e+000
 1.6497505236e+000	 1.3393835186e+000	-1.2469781099e+000
 1.6358264797e+000	 1.3563542047e+000	-1.3070251419e+000
 1.6217210373e+000	 1.3731882162e+000	-1.3631065259e+000
 1.6074362147e+000	 1.3898826626e+000	-1.4152478610e+000
 1.5929740911e+000	 1.4064346928e+000	-1.4634767937e+000
 1.5783368060e+000	 1.4228414975e+000	-1.5078228887e+000
 1.5635265579e+000	 1.4391003103e+000	-1.5483174976e+000
 1.5485456031e+000	 1.4552084095e+000	-1.5849936289e+000
 1.5333962552e+000	 1.4711631197e+000	-1.6178858173e+000
 1.5180808830e+000	 1.4869618128e+000	-1.6470299938e+000
 1.5026019100e+000	 1.5026019100e+000	-1.6724633567e+000
 1.6691593533e+000	 1.3551409718e+000	-1.2318114272e+000
 1.6550714971e+000	 1.3723113129e+000	-1.2928255320e+000
 1.6408001083e+000	 1.3893433717e+000	-1.3495858402e+000
 1.6263472290e+000	 1.4062342233e+000	-1.4021150633e+000
 1.6117149628e+000	 1.4229809833e+000	-1.4504381660e+000
 1.5969054743e+000	 1.4395808092e+000	-1.4945822367e+000
 1.5819209879e+000	 1.4560309022e+000	-1.5345763563e+000
 1.5667637867e+000	 1.4723285085e+000	-1.5704514671e+000
 1.5514362112e+000	 1.4884709211e+000	-1.6022402413e+000
 1.5359406581e+000	 1.5044554812e+000	-1.6299769506e+000
 1.5202795796e+000	 1.5202795796e+000	-1.6536973358e+000
 1.6885681830e+000	 1.3708984249e+000	-1.2194764103e+000
 1.6743165145e+000	 1.3882684212e+000	-1.2812022380e+000
 1.6598791794e+000	 1.4054985272e+000	-1.3383920122e+000
 1.6452582433e+000	 1.4225857841e+000	-1.3910657979e+000
 1.6304558344e+000	 1.4395272738e+000	-1.4392461139e+000
 1.6154741426e+000	 1.4563201210e+000	-1.4829578029e+000
 1.6003154180e+000	 1.4729614941e+000	-1.5222278996e+000
 1.5849819703e+000	 1.4894486074e+000	-1.5570854985e+000
 1.5694761671e+000	 1.5057787225e+000	-1.5875616215e+000
 1.5538004332e+000	 1.5219491496e+000	-1.6136890863e+000
 1.5379572491e+000	 1.5379572491e+000	-1.6355023744e+000
 1.7079770127e+000	 1.3866558781e+000	-1.2098377381e+000
 1.6935615319e+000	 1.4042255295e+000	-1.2720256589e+000
 1.6789582504e+000	 1.4216536827e+000	-1.3294010291e+000
 1.6641692576e+000	 1.4389373448e+000	-1.3819815067e+000
 1.6491967061e+000	 1.4560735643e+000	-1.4297873992e+000
 1.6340428109e+000	 1.4730594327e+000	-1.4728415328e+000
 1.6187098481e+000	 1.4898920859e+000	-1.5111691191e+000
 1.6032001538e+000	 1.5065687063e+000	-1.5447976219e+000
 1.5875161230e+000	 1.5230865239e+000	-1.5737566240e+000
 1.5716602083e+000	 1.5394428180e+000	-1.5980776926e+000
 1.5556349186e+000	 1.5556349186e+000	-1.6177942473e+000
 1.7273858424e+000	 1.4024133313e+000	-1.2027613894e+000
 1.7128065493e+000	 1.4201826378e+000	-1.2651671606e+000
 1.6980373214e+000	 1.4378088382e+000	-1.3224895204e+000
 1.6830802719e+000	 1.4552889056e+000	-1.3747439577e+000
 1.6679375778e+000	 1.4726198548e+000	-1.4219488021e+000
 1.6526114792e+000	 1.4897987444e+000	-1.4641250907e+000
 1.6371042782e+000	 1.5068226778e+000	-1.5012964343e+000
 1.6214183374e+000	 1.5236888053e+000	-1.5334888824e+000
 1.6055560790e+000	 1.5403943253e+000	-1.5607307875e+000
 1.5895199834e+000	 1.5569364863e+000	-1.5830526703e+000
 1.5733125882e+000	 1.5733125882e+000	-1.6004870840e+000
 1.7467946721e+000	 1.4181707844e+000	-1.1981145702e+000
 1.7320515667e+000	 1.4361397461e+000	-1.2604990226e+000
 1.7171163925e+000	 1.4539639937e+000	-1.3175347223e+000
 1.7019912862e+000	 1.4716404663e+000	-1.3692352268e+000
 1.6866784494e+000	 1.4891661453e+000	-1.4156171195e+000
 1.6711801475e+000	 1.5065380562e+000	-1.4566998751e+000
 1.6554987083e+000	 1.5237532697e+000	-1.4925057247e+000
 1.6396365210e+000	 1.5408089042e+000	-1.5230595180e+000
 1.6235960349e+000	 1.5577021267e+000	-1.5483885866e+000
 1.6073797585e+000	 1.5744301547e+000	-1.5685226063e+000
 1.5909902577e+000	 1.5909902577e+000	-1.5834934597e+000
 1.4142135624e+000	 1.4142135624e+000	-1.7776790930e+000
 1.3994934709e+000	 1.4287820076e+000	-1.8140676021e+000
 1.3846241126e+000	 1.4431964755e+000	-1.8454140547e+000
 1.3696079148e+000	 1.4574546853e+000	-1.8717203826e+000
 1.3544473509e+000	 1.4715544074e+000	-1.8929911274e+000
 1.3391449388e+000	 1.4854934645e+000	-1.9092333704e+000
 1.3237032403e+000	 1.4992697328e+000	-1.9204566619e+000
 1.3081248589e+000	 1.5128811432e+000	-1.9266729515e+000
 1.2924124388e+000	 1.5263256822e+000	-1.9278965179e+000
 1.2765686632e+000	 1.5396013926e+000	-1.9241438993e+000
 1.2605962528e+000	 1.5527063751e+000	-1.9154338248e+000
 1.4318912319e+000	 1.4318912319e+000	-1.7548592590e+000
 1.4169871393e+000	 1.4466417827e+000	-1.7889163745e+000
 1.4019319140e+000	 1.4612364314e+000	-1.8184096079e+000
 1.3867280138e+000	 1.4756728689e+000	-1.8433449833e+000
 1.3713779427e+000	 1.4899488375e+000	-1.8637305860e+000
 1.3558842505e+000	 1.5040621328e+000	-1.8795764867e+000
 1.3402495308e+000	 1.5180106045e+000	-1.8908946667e+000
 1.3244764197e+000	 1.5317921575e+000	-1.8976989439e+000
 1.3085675943e+000	 1.5454047532e+000	-1.9000048999e+000
 1.2925257715e+000	 1.5588464100e+000	-1.8978298086e+000
 1.2763537060e+000	 1.5721152048e+000	-1.8911925664e+000
 1.4495689015e+000	 1.4495689015e+000	-1.7330032391e+000
 1.4344808076e+000	 1.4645015578e+000	-1.7647832783e+000
 1.4192397154e+000	 1.4792763874e+000	-1.7924663500e+000
 1.4038481127e+000	 1.4938910524e+000	-1.8160626386e+000
 1.3883085346e+000	 1.5083432676e+000	-1.8355838460e+000
 1.3726235623e+000	 1.5226308011e+000	-1.8510431097e+000
 1.3567958213e+000	 1.5367514761e+000	-1.8624549235e+000
 1.3408279804e+000	 1.5507031718e+000	-1.8698350594e+000
 1.3247227498e+000	 1.5644838242e+000	-1.8732004922e+000
 1.3084828798e+000	 1.5780914275e+000	-1.8725693254e+000
 1.2921111591e+000	 1.5915240345e+000	-1.8679607201e+000
 1.4672465710e+000	 1.4672465710e+000	-1.7120366557e+000
 1.4519744760e+000	 1.4823613329e+000	-1.7415901105e+000
 1.4365475169e+000	 1.4973163433e+000	-1.7675027805e+000
 1.4209682117e+000	 1.5121092360e+000	-1.7897890813e+000
 1.4052391265e+000	 1.5267376977e+000	-1.8084644061e+000
 1.3893628740e+000	 1.5411994694e+000	-1.8235450385e+000
 1.3733421118e+000	 1.5554923478e+000	-1.8350480678e+000
 1.3571795411e+000	 1.5696141861e+000	-1.8429913073e+000
 1.3408779053e+000	 1.5835628953e+000	-1.8473932153e+000
 1.3244399881e+000	 1.5973364449e+000	-1.8482728189e+000
 1.3078686123e+000	 1.6109328642e+000	-1.8456496421e+000
 1.4849242405e+000	 1.4849242405e+000	-1.6918829190e+000
 1.4694681444e+000	 1.5002211079e+000	-1.7192565846e+000
 1.4538553183e+000	 1.5153562993e+000	-1.7434354224e+000
 1.4380883106e+000	 1.5303274196e+000	-1.7644381524e+000
 1.4221697184e+000	 1.5451321278e+000	-1.7822839363e+000
 1.4061021858e+000	 1.5597681377e+000	-1.7969922844e+000
 1.3898884023e+000	 1.5742332195e+000	-1.8085829663e+000
 1.3735311019e+000	 1.5885252004e+000	-1.8170759243e+000
 1.3570330608e+000	 1.6026419663e+000	-1.8224911914e+000
 1.3403970964e+000	 1.6165814623e+000	-1.8248488133e+000
 1.3236260655e+000	 1.6303416939e+000	-1.8241687736e+000
 1.5026019100e+000	 1.5026019100e+000	-1.6724633567e+000
 1.4869618128e+000	 1.5180808830e+000	-1.6977004533e+000
 1.4711631197e+000	 1.5333962552e+000	-1.7201789387e+000
 1.4552084095e+000	 1.5485456031e+000	-1.7399219130e+000
 1.4391003103e+000	 1.5635265579e+000	-1.7569523856e+000
 1.4228414975e+000	 1.5783368060e+000	-1.7712931763e+000
 1.4064346928e+000	 1.5929740911e+000	-1.7829668206e+000
 1.3898826626e+000	 1.6074362147e+000	-1.7919954789e+000
 1.3731882162e+000	 1.6217210373e+000	-1.7984008511e+000
 1.3563542047e+000	 1.6358264797e+000	-1.8022040958e+000
 1.3393835186e+000	 1.6497505236e+000	-1.8034257543e+000
 1.5202795796e+000	 1.5202795796e+000	-1.6536973358e+000
 1.5044554812e+000	 1.5359406581e+000	-1.6768376223e+000
 1.4884709211e+000	 1.5514362112e+000	-1.6976462401e+000
 1.4723285085e+000	 1.5667637867e+000	-1.7161507473e+000
 1.4560309022e+000	 1.5819209879e+000	-1.7323780821e+000
 1.4395808092e+000	 1.5969054743e+000	-1.7463544581e+000
 1.4229809833e+000	 1.6117149628e+000	-1.7581052640e+000
 1.4062342233e+000	 1.6263472290e+000	-1.7676549685e+000
 1.3893433717e+000	 1.6408001083e+000	-1.7750270310e+000
 1.3723113129e+000	 1.6550714971e+000	-1.7802438181e+000
 1.3551409718e+000	 1.6691593533e+000	-1.7833265263e+000
 1.5379572491e+000	 1.5379572491e+000	-1.6355023744e+000
 1.5219491496e+000	 1.5538004332e+000	-1.6565822568e+000
 1.5057787225e+000	 1.5694761671e+000	-1.6757485863e+000
 1.4894486074e+000	 1.5849819703e+000	-1.6930334592e+000
 1.4729614941e+000	 1.6003154180e+000	-1.7084678259e+000
 1.4563201210e+000	 1.6154741426e+000	-1.7220813800e+000
 1.4395272738e+000	 1.6304558344e+000	-1.7339024520e+000
 1.4225857841e+000	 1.6452582433e+000	-1.7439579097e+000
 1.4054985272e+000	 1.6598791794e+000	-1.7522730656e+000
 1.3882684212e+000	 1.6743165145e+000	-1.7588715901e+000
 1.3708984249e+000	 1.6885681830e+000	-1.7637754321e+000
 1.5556349186e+000	 1.5556349186e+000	-1.6177942473e+000
 1.5394428180e+000	 1.5716602083e+000	-1.6368468802e+000
 1.5230865239e+000	 1.5875161230e+000	-1.6543956793e+000
 1.5065687063e+000	 1.6032001538e+000	-1.6704773620e+000
 1.4898920859e+000	 1.6187098481e+000	-1.6851269764e+000
 1.4730594327e+000	 1.6340428109e+000	-1.6983777835e+000
 1.4560735643e+000	 1.6491967061e+000	-1.7102611456e+000
 1.4389373448e+000	 1.6641692576e+000	-1.7208064222e+000
 1.4216536827e+000	 1.6789582504e+000	-1.7300408727e+000
 1.4042255295e+000	 1.6935615319e+000	-1.7379895674e+000
 1.3866558781e+000	 1.7079770127e+000	-1.7446753054e+000
 1.5733125882e+000	 1.5733125882e+000	-1.6004870840e+000
 1.5569364863e+000	 1.5895199834e+000	-1.6175424661e+000
 1.5403943253e+000	 1.6055560790e+000	-1.6334957512e+000
 1.5236888053e+000	 1.6214183374e+000	-1.6483883624e+000
 1.5068226778e+000	 1.6371042782e+000	-1.6622595328e+000
 1.4897987444e+000	 1.6526114792e+000	-1.6751461802e+000
 1.4726198548e+000	 1.6679375778e+000	-1.6870827904e+000
 1.4552889056e+000	 1.6830802719e+000	-1.6981013076e+000
 1.4378088382e+000	 1.6980373214e+000	-1.7082310331e+000
 1.4201826378e+000	 1.7128065493e+000	-1.7174985335e+000
 1.4024133313e+000	 1.7273858424e+000	-1.7259275560e+000
 1.5909902577e+000	 1.5909902577e+000	-1.5834934597e+000
 1.5744301547e+000	 1.6073797585e+000	-1.5985785250e+000
 1.5577021267e+000	 1.6235960349e+000	-1.6129556457e+000
 1.5408089042e+000	 1.6396365210e+000	-1.6266710382e+000
 1.5237532697e+000	 1.6554987083e+000	-1.6397682097e+000
 1.5065380562e+000	 1.6711801475e+000	-1.6522878261e+000
 1.4891661453e+000	 1.6866784494e+000	-1.6642675892e+000
 1.4716404663e+000	 1.7019912862e+000	-1.6757421223e+000
 1.4539639937e+000	 1.7171163925e+000	-1.6867428645e+000
 1.4361397461e+000	 1.7320515667e+000	-1.6972979755e+000
 1.4181707844e+000	 1.7467946721e+000	-1.7074322486e+000
 1.2605962528e+000	 1.5527063751e+000	-1.9154338248e+000
 1.2444979645e+000	 1.5656387886e+000	-1.8886554148e+000
 1.2282765894e+000	 1.5783968513e+000	-1.8921696052e+000
 1.2119349516e+000	 1.5909788412e+000	-1.8932299251e+000
 1.1954759065e+000	 1.6033830974e+000	-1.8917575632e+000
 1.1789023391e+000	 1.6156080202e+000	-1.8876735235e+000
 1.1622171622e+000	 1.6276520721e+000	-1.8808989271e+000
 1.1454233153e+000	 1.6395137781e+000	-1.8713553185e+000
 1.1285237623e+000	 1.6511917266e+000	-1.8589649719e+000
 1.1115214900e+000	 1.6626845693e+000	-1.8436511992e+000
 1.0944195068e+000	 1.6739910224e+000	-1.8253386574e+000
 1.2763537060e+000	 1.5721152048e+000	-1.8911925664e+000
 1.2600541890e+000	 1.5852092735e+000	-1.8531081720e+000
 1.2436300467e+000	 1.5981268119e+000	-1.8311679284e+000
 1.2270841385e+000	 1.6108660767e+000	-1.8373144165e+000
 1.2104193553e+000	 1.6234253861e+000	-1.8403745527e+000
 1.1936386183e+000	 1.6358031204e+000	-1.8402596242e+000
 1.1767448768e+000	 1.6479977230e+000	-1.8368814536e+000
 1.1597411068e+000	 1.6600077003e+000	-1.8301527211e+000
 1.1426303093e+000	 1.6718316232e+000	-1.8199872860e+000
 1.1254155087e+000	 1.6834681265e+000	-1.8063005101e+000
 1.1080997506e+000	 1.6949159102e+000	-1.7890095795e+000
 1.2921111591e+000	 1.5915240345e+000	-1.8679607201e+000
 1.2756104136e+000	 1.6047797583e+000	-1.8354699473e+000
 1.2589835041e+000	 1.6178567725e+000	-1.7988483164e+000
 1.2422333254e+000	 1.6307533122e+000	-1.7822798063e+000
 1.2253628042e+000	 1.6434676748e+000	-1.7899243858e+000
 1.2083748975e+000	 1.6559982207e+000	-1.7938477962e+000
 1.1912725913e+000	 1.6683433739e+000	-1.7939522278e+000
 1.1740588982e+000	 1.6805016226e+000	-1.7901411482e+000
 1.1567368563e+000	 1.6924715197e+000	-1.7823196407e+000
 1.1393095273e+000	 1.7042516836e+000	-1.7703947431e+000
 1.1217799944e+000	 1.7158407980e+000	-1.7542757841e+000
 1.3078686123e+000	 1.6109328642e+000	-1.8456496421e+000
 1.2911666381e+000	 1.6243502432e+000	-1.8186331256e+000
 1.2743369615e+000	 1.6375867332e+000	-1.7869551409e+000
 1.2573825123e+000	 1.6506405477e+000	-1.7507349115e+000
 1.2403062530e+000	 1.6635099635e+000	-1.7401152411e+000
 1.2231111768e+000	 1.6761933210e+000	-1.7481535659e+000
 1.2058003058e+000	 1.6886890248e+000	-1.7518337917e+000
 1.1883766897e+000	 1.7009955448e+000	-1.7510498199e+000
 1.1708434034e+000	 1.7131114163e+000	-1.7456975909e+000
 1.1532035459e+000	 1.7250352407e+000	-1.7356754387e+000
 1.1354602383e+000	 1.7367656858e+000	-1.7208844436e+000
 1.3236260655e+000	 1.6303416939e+000	-1.8241687736e+000
 1.3067228627e+000	 1.6439207281e+000	-1.8025109456e+000
 1.2896904188e+000	 1.6573166938e+000	-1.7756756174e+000
 1.2725316992e+000	 1.6705277832e+000	-1.7437823553e+000
 1.2552497018e+000	 1.6835522522e+000	-1.7069518285e+000
 1.2378474560e+000	 1.6963884212e+000	-1.7028897229e+000
 1.2203280204e+000	 1.7090346757e+000	-1.7102458539e+000
 1.2026944811e+000	 1.7214894670e+000	-1.7126050485e+000
 1.1849499504e+000	 1.7337513129e+000	-1.7098537315e+000
 1.1670975645e+000	 1.7458187978e+000	-1.7018811484e+000
 1.1491404821e+000	 1.7576905735e+000	-1.6885797345e+000
 1.3393835186e+000	 1.6497505236e+000	-1.8034257543e+000
 1.3222790873e+000	 1.6634912129e+000	-1.7870146467e+000
 1.3050438762e+000	 1.6770466545e+000	-1.7649242353e+000
 1.2876808861e+000	 1.6904150188e+000	-1.7372745097e+000
 1.2701931507e+000	 1.7035945410e+000	-1.7041869373e+000
 1.2525837353e+000	 1.7165835215e+000	-1.6657842959e+000
 1.2348557349e+000	 1.7293803266e+000	-1.6689054558e+000
 1.2170122725e+000	 1.7419833892e+000	-1.6745304093e+000
 1.1990564974e+000	 1.7543912095e+000	-1.6745178722e+000
 1.1809915832e+000	 1.7666023549e+000	-1.6687476111e+000
 1.1628207260e+000	 1.7786154613e+000	-1.6571030144e+000
 1.3551409718e+000	 1.6691593533e+000	-1.7833265263e+000
 1.3378353118e+000	 1.6830616978e+000	-1.7720535854e+000
 1.3203973336e+000	 1.6967766151e+000	-1.7546134353e+000
 1.3028300730e+000	 1.7103022543e+000	-1.7311265696e+000
 1.2851365995e+000	 1.7236368297e+000	-1.7017153215e+000
 1.2673200145e+000	 1.7367786217e+000	-1.6665036932e+000
 1.2493834494e+000	 1.7497259775e+000	-1.6275271267e+000
 1.2313300640e+000	 1.7624773115e+000	-1.6365468999e+000
 1.2131630445e+000	 1.7750311061e+000	-1.6394171990e+000
 1.1948856018e+000	 1.7873859120e+000	-1.6360079160e+000
 1.1765009698e+000	 1.7995403491e+000	-1.6261929851e+000
 1.3708984249e+000	 1.6885681830e+000	-1.7637754321e+000
 1.3533915364e+000	 1.7026321826e+000	-1.7575353435e+000
 1.3357507909e+000	 1.7165065757e+000	-1.7446537273e+000
 1.3179792599e+000	 1.7301894898e+000	-1.7252516613e+000
 1.3000800483e+000	 1.7436791184e+000	-1.6994524129e+000
 1.2820562937e+000	 1.7569737220e+000	-1.6673812642e+000
 1.2639111639e+000	 1.7700716284e+000	-1.6291653394e+000
 1.2456478554e+000	 1.7829712337e+000	-1.5983730881e+000
 1.2272695915e+000	 1.7956710026e+000	-1.6042764251e+000
 1.2087796204e+000	 1.8081694692e+000	-1.6033926551e+000
 1.1901812136e+000	 1.8204652369e+000	-1.5955858460e+000
 1.3866558781e+000	 1.7079770127e+000	-1.7446753054e+000
 1.3689477609e+000	 1.7222026675e+000	-1.7433658288e+000
 1.3511042483e+000	 1.7362365364e+000	-1.7349537996e+000
 1.3331284468e+000	 1.7500767253e+000	-1.7195609601e+000
 1.3150234972e+000	 1.7637214071e+000	-1.6973115803e+000
 1.2967925730e+000	 1.7771688222e+000	-1.6683322779e+000
 1.2784388785e+000	 1.7904172793e+000	-1.6327518427e+000
 1.2599656469e+000	 1.8034651559e+000	-1.5907010623e+000
 1.2413761385e+000	 1.8163108992e+000	-1.5688179314e+000
 1.2226736390e+000	 1.8289530263e+000	-1.5706300655e+000
 1.2038614575e+000	 1.8413901247e+000	-1.5650154356e+000
 1.4024133313e+000	 1.7273858424e+000	-1.7259275560e+000
 1.3845039855e+000	 1.7417731524e+000	-1.7294493695e+000
 1.3664577057e+000	 1.7559664970e+000	-1.7254206219e+000
 1.3482776336e+000	 1.7699639608e+000	-1.7139638004e+000
 1.3299669460e+000	 1.7837636958e+000	-1.6952042455e+000
 1.3115288522e+000	 1.7973639225e+000	-1.6692699676e+000
 1.2929665930e+000	 1.8107629302e+000	-1.6362914657e+000
 1.2742834383e+000	 1.8239590782e+000	-1.5964015494e+000
 1.2554826855e+000	 1.8369507958e+000	-1.5497351637e+000
 1.2365676577e+000	 1.8497365834e+000	-1.5374461608e+000
 1.2175417013e+000	 1.8623150124e+000	-1.5342133648e+000
 1.4181707844e+000	 1.7467946721e+000	-1.7074322486e+000
 1.4000602100e+000	 1.7613436372e+000	-1.7156888013e+000
 1.3818111630e+000	 1.7756964577e+000	-1.7159595401e+000
 1.3634268205e+000	 1.7898511964e+000	-1.7083677771e+000
 1.3449103948e+000	 1.8038059846e+000	-1.6930399920e+000
 1.3262651314e+000	 1.8175590227e+000	-1.6701056440e+000
 1.3074943075e+000	 1.8311085811e+000	-1.6396969862e+000
 1.2886012298e+000	 1.8444530004e+000	-1.6019488831e+000
 1.2695892326e+000	 1.8575906924e+000	-1.5569986299e+000
 1.2504616763e+000	 1.8705201405e+000	-1.5049857765e+000
 1.2312219451e+000	 1.8832399002e+000	-1.5212391873e+000
 1.0944195068e+000	 1.6739910224e+000	-1.8253386574e+000
 1.0772208403e+000	 1.6851098662e+000	-1.8062113654e+000
 1.0599285364e+000	 1.6960399458e+000	-1.7846761344e+000
 1.0425456567e+000	 1.7067801714e+000	-1.7605766729e+000
 1.0250752778e+000	 1.7173295184e+000	-1.7337590848e+000
 1.0075204886e+000	 1.7276870275e+000	-1.7040722557e+000
 9.8988438938e-001	 1.7378518049e+000	-1.6713682321e+000
 9.7217008953e-001	 1.7478230222e+000	-1.6355025944e+000
 9.5438070623e-001	 1.7575999168e+000	-1.5963348207e+000
 9.3651936262e-001	 1.7671817913e+000	-1.5537286419e+000
 9.1858918611e-001	 1.7765680137e+000	-1.5075523868e+000
 1.1080997506e+000	 1.6949159102e+000	-1.7890095795e+000
 1.0906861008e+000	 1.7061737395e+000	-1.7672197933e+000
 1.0731776431e+000	 1.7172404451e+000	-1.7427402050e+000
 1.0555774775e+000	 1.7281149236e+000	-1.7154102513e+000
 1.0378887188e+000	 1.7387961374e+000	-1.6850719567e+000
 1.0201144947e+000	 1.7492831153e+000	-1.6515703316e+000
 1.0022579442e+000	 1.7595749524e+000	-1.6147537639e+000
 9.8432221564e-001	 1.7696708100e+000	-1.5744744037e+000
 9.6631046506e-001	 1.7795699158e+000	-1.5305885383e+000
 9.4822585465e-001	 1.7892715637e+000	-1.4829569586e+000
 9.3007155093e-001	 1.7987751138e+000	-1.4314453141e+000
 1.1217799944e+000	 1.7158407980e+000	-1.7542757841e+000
 1.1041513613e+000	 1.7272376128e+000	-1.7301305238e+000
 1.0864267498e+000	 1.7384409444e+000	-1.7030199911e+000
 1.0686092982e+000	 1.7494496757e+000	-1.6727788989e+000
 1.0507021598e+000	 1.7602627564e+000	-1.6392447357e+000
 1.0327085009e+000	 1.7708792032e+000	-1.6022581772e+000
 1.0146314991e+000	 1.7812981000e+000	-1.5616634913e+000
 9.9647434176e-001	 1.7915185978e+000	-1.5173089342e+000
 9.7824022389e-001	 1.8015399147e+000	-1.4690471383e+000
 9.5993234668e-001	 1.8113613361e+000	-1.4167354900e+000
 9.4155391576e-001	 1.8209822140e+000	-1.3602364958e+000
 1.1354602383e+000	 1.7367656858e+000	-1.7208844436e+000
 1.1176166218e+000	 1.7483014862e+000	-1.6946908844e+000
 1.0996758565e+000	 1.7596414438e+000	-1.6652629113e+000
 1.0816411189e+000	 1.7707844278e+000	-1.6324300572e+000
 1.0635156007e+000	 1.7817293753e+000	-1.5960248151e+000
 1.0453025070e+000	 1.7924752910e+000	-1.5558830636e+000
 1.0270050540e+000	 1.8030212475e+000	-1.5118444852e+000
 1.0086264679e+000	 1.8133663856e+000	-1.4637529761e+000
 9.9016998271e-001	 1.8235099137e+000	-1.4114570464e+000
 9.7163883872e-001	 1.8334511084e+000	-1.3548102104e+000
 9.5303628058e-001	 1.8431893142e+000	-1.2936713646e+000
 1.1491404821e+000	 1.7576905735e+000	-1.6885797345e+000
 1.1310818823e+000	 1.7693653595e+000	-1.6606454666e+000
 1.1129249632e+000	 1.7808419431e+000	-1.6292139154e+000
 1.0946729396e+000	 1.7921191800e+000	-1.5941089745e+000
 1.0763290417e+000	 1.8031959943e+000	-1.5551576782e+000
 1.0578965131e+000	 1.8140713789e+000	-1.5121906420e+000
 1.0393786088e+000	 1.8247443951e+000	-1.4650424950e+000
 1.0207785940e+000	 1.8352141733e+000	-1.4135523033e+000
 1.0020997415e+000	 1.8454799126e+000	-1.3575639842e+000
 9.8334533075e-001	 1.8555408808e+000	-1.2969267093e+000
 9.6451864541e-001	 1.8653964143e+000	-1.2314952947e+000
 1.1628207260e+000	 1.7786154613e+000	-1.6571030144e+000
 1.1445471428e+000	 1.7904292328e+000	-1.6277362867e+000
 1.1261740699e+000	 1.8020424424e+000	-1.5946156296e+000
 1.1077047603e+000	 1.8134539321e+000	-1.5575588343e+000
 1.0891424827e+000	 1.8246626133e+000	-1.5163870100e+000
 1.0704905192e+000	 1.8356674667e+000	-1.4709250394e+000
 1.0517521637e+000	 1.8464675427e+000	-1.4210020261e+000
 1.0329307201e+000	 1.8570619611e+000	-1.3664517331e+000
 1.0140295004e+000	 1.8674499116e+000	-1.3071130109e+000
 9.9505182278e-001	 1.8776306532e+000	-1.2503234125e+000
 9.7600101023e-001	 1.8876035145e+000	-1.2100021121e+000
 1.1765009698e+000	 1.7995403491e+000	-1.6261929851e+000
 1.1580124033e+000	 1.8114931061e+000	-1.5957029354e+000
 1.1394231766e+000	 1.8232429417e+000	-1.5612084917e+000
 1.1207365810e+000	 1.8347886843e+000	-1.5225208762e+000
 1.1019559236e+000	 1.8461292323e+000	-1.4794548023e+000
 1.0830845253e+000	 1.8572635545e+000	-1.4318289467e+000
 1.0641257186e+000	 1.8681906902e+000	-1.3794664122e+000
 1.0450828462e+000	 1.8789097489e+000	-1.3325219888e+000
 1.0259592592e+000	 1.8894199106e+000	-1.2985020957e+000
 1.0067583148e+000	 1.8997204256e+000	-1.2595807545e+000
 9.8748337506e-001	 1.9098106147e+000	-1.2156790673e+000
 1.1901812136e+000	 1.8204652369e+000	-1.5955858460e+000
 1.1714776638e+000	 1.8325569795e+000	-1.5642827175e+000
 1.1526722833e+000	 1.8444434411e+000	-1.5287308769e+000
 1.1337684017e+000	 1.8561234364e+000	-1.4887345067e+000
 1.1147693646e+000	 1.8675958513e+000	-1.4441014505e+000
 1.0956785314e+000	 1.8788596424e+000	-1.4042010388e+000
 1.0764992734e+000	 1.8899138378e+000	-1.3775177463e+000
 1.0572349723e+000	 1.9007575367e+000	-1.3457984849e+000
 1.0378890180e+000	 1.9113899095e+000	-1.3089501156e+000
 1.0184648068e+000	 1.9218101980e+000	-1.2668880400e+000
 9.9896573988e-001	 1.9320177149e+000	-1.2195362289e+000
 1.2038614575e+000	 1.8413901247e+000	-1.5650154356e+000
 1.1849429244e+000	 1.8536208528e+000	-1.5332107815e+000
 1.1659213900e+000	 1.8656439404e+000	-1.4969192149e+000
 1.1468002224e+000	 1.8774581886e+000	-1.4617212773e+000
 1.1275828056e+000	 1.8890624702e+000	-1.4433806302e+000
 1.1082725375e+000	 1.9004557302e+000	-1.4198935010e+000
 1.0888728283e+000	 1.9116369853e+000	-1.3911507400e+000
 1.0693870985e+000	 1.9226053244e+000	-1.3570520952e+000
 1.0498187768e+000	 1.9333599085e+000	-1.3175062739e+000
 1.0301712989e+000	 1.9438999704e+000	-1.2724309849e+000
 1.0104481047e+000	 1.9542248150e+000	-1.2217529606e+000
 1.2175417013e+000	 1.8623150124e+000	-1.5342133648e+000
 1.1984081849e+000	 1.8746847261e+000	-1.5022202408e+000
 1.1791704967e+000	 1.8868444397e+000	-1.4924684640e+000
 1.1598320431e+000	 1.8987929407e+000	-1.4782052588e+000
 1.1403962465e+000	 1.9105290892e+000	-1.4585878069e+000
 1.1208665436e+000	 1.9220518181e+000	-1.4334984281e+000
 1.1012463832e+000	 1.9333601329e+000	-1.4028287418e+000
 1.0815392246e+000	 1.9444531122e+000	-1.3664797452e+000
 1.0617485357e+000	 1.9553299075e+000	-1.3243618698e+000
 1.0418777909e+000	 1.9659897428e+000	-1.2763950189e+000
 1.0219304695e+000	 1.9764319152e+000	-1.2225085823e+000
 1.2312219451e+000	 1.8832399002e+000	-1.5212391873e+000
 1.2118734454e+000	 1.8957485995e+000	-1.5171383371e+000
 1.1924196034e+000	 1.9080449390e+000	-1.5076182195e+000
 1.1728638638e+000	 1.9201276929e+000	-1.4925420196e+000
 1.1532096875e+000	 1.9319957082e+000	-1.4717825001e+000
 1.1334605497e+000	 1.9436479059e+000	-1.4452221197e+000
 1.1136199380e+000	 1.9550832805e+000	-1.4127531294e+000
 1.0936913507e+000	 1.9663009000e+000	-1.3742776466e+000
 1.0736782945e+000	 1.9772999064e+000	-1.3297077081e+000
 1.0535842829e+000	 1.9880795152e+000	-1.2789653013e+000
 1.0334128344e+000	 1.9986390154e+000	-1.2219823730e+000
 9.1858918611e-001	 1.7765680137e+000	-1.5075523868e+000
 9.0059330673e-001	 1.7857580172e+000	-1.4803036059e+000
 8.8253485550e-001	 1.7947513000e+000	-1.4479689779e+000
 8.6441696276e-001	 1.8035474251e+000	-1.4104855535e+000
 8.4624275656e-001	 1.8121460198e+000	-1.3677966739e+000
 8.2801536107e-001	 1.8205467755e+000	-1.3198521928e+000
 8.0973789495e-001	 1.8287494474e+000	-1.2666086840e+000
 7.9141346985e-001	 1.8367538539e+000	-1.2080296350e+000
 7.7304518882e-001	 1.8445598760e+000	-1.1440856256e+000
 7.5463614479e-001	 1.8521674571e+000	-1.0747544904e+000
 7.3618941913e-001	 1.8595766021e+000	-1.0000214665e+000
 9.3007155093e-001	 1.7987751138e+000	-1.4314453141e+000
 9.1185072306e-001	 1.8080799924e+000	-1.4006495780e+000
 8.9356654119e-001	 1.8171856912e+000	-1.3645265651e+000
 8.7522217479e-001	 1.8260917679e+000	-1.3230133617e+000
 8.5682079102e-001	 1.8347978450e+000	-1.2760535583e+000
 8.3836555308e-001	 1.8433036102e+000	-1.2235974783e+000
 8.1985961864e-001	 1.8516088155e+000	-1.1656023919e+000
 8.0130613823e-001	 1.8597132771e+000	-1.1020327157e+000
 7.8270825368e-001	 1.8676168744e+000	-1.0328601959e+000
 7.6406909660e-001	 1.8753195503e+000	-9.5944022066e-001
 7.4539178687e-001	 1.8828213097e+000	-9.1218435236e-001
 9.4155391576e-001	 1.8209822140e+000	-1.3602364958e+000
 9.2310813940e-001	 1.8304019676e+000	-1.3263235725e+000
 9.0459822689e-001	 1.8396200825e+000	-1.2868417582e+000
 8.8602738683e-001	 1.8486361107e+000	-1.2417276900e+000
 8.6739882548e-001	 1.8574496703e+000	-1.1909247278e+000
 8.4871574509e-001	 1.8660604449e+000	-1.1343831900e+000
 8.2998134233e-001	 1.8744681836e+000	-1.0720605744e+000
 8.1119880660e-001	 1.8826727002e+000	-1.0338885772e+000
 7.9237131854e-001	 1.8906738729e+000	-9.9269114874e-001
 7.7350204841e-001	 1.8984716435e+000	-9.4646506431e-001
 7.5459415461e-001	 1.9060660172e+000	-8.9524048026e-001
 9.5303628058e-001	 1.8431893142e+000	-1.2936713646e+000
 9.3436555573e-001	 1.8527239428e+000	-1.2570675154e+000
 9.1562991258e-001	 1.8620544737e+000	-1.2146529517e+000
 8.9683259886e-001	 1.8711804535e+000	-1.1663633753e+000
 8.7797685993e-001	 1.8801014955e+000	-1.1298220135e+000
 8.5906593711e-001	 1.8888172796e+000	-1.1009384123e+000
 8.4010306601e-001	 1.8973275517e+000	-1.0667798726e+000
 8.2109147497e-001	 1.9056321234e+000	-1.0273651771e+000
 8.0203438340e-001	 1.9137308713e+000	-9.8271976931e-001
 7.8293500022e-001	 1.9216237367e+000	-9.3287561718e-001
 7.6379652235e-001	 1.9293107247e+000	-8.7787106511e-001
 9.6451864541e-001	 1.8653964143e+000	-1.2314952947e+000
 9.4562297206e-001	 1.8750459180e+000	-1.1927659833e+000
 9.2666159827e-001	 1.8844888650e+000	-1.1776998524e+000
 9.0763781090e-001	 1.8937247963e+000	-1.1571248042e+000
 8.8855489439e-001	 1.9027533208e+000	-1.1310454719e+000
 8.6941612912e-001	 1.9115741143e+000	-1.0994737822e+000
 8.5022478970e-001	 1.9201869198e+000	-1.0624288449e+000
 8.3098414334e-001	 1.9285915466e+000	-1.0199368284e+000
 8.1169744825e-001	 1.9367878698e+000	-9.7203082368e-001
 7.9236795203e-001	 1.9447758299e+000	-9.1875069487e-001
 7.7299889008e-001	 1.9525554322e+000	-8.6014291847e-001
 9.7600101023e-001	 1.8876035145e+000	-1.2100021121e+000
 9.5688038840e-001	 1.8973678932e+000	-1.1988275570e+000
 9.3769328397e-001	 1.9069232562e+000	-1.1819170073e+000
 9.1844302293e-001	 1.9162691391e+000	-1.1592738136e+000
 8.9913292885e-001	 1.9254051460e+000	-1.1309090333e+000
 8.7976632113e-001	 1.9343309490e+000	-1.0968413237e+000
 8.6034651339e-001	 1.9430462879e+000	-1.0570968198e+000
 8.4087681172e-001	 1.9515509698e+000	-1.0117089986e+000
 8.2136051311e-001	 1.9598448682e+000	-9.6071852999e-001
 8.0180090384e-001	 1.9679279231e+000	-9.0417311533e-001
 7.8220125782e-001	 1.9758001398e+000	-8.4212731325e-001
 9.8748337506e-001	 1.9098106147e+000	-1.2156790673e+000
 9.6813780473e-001	 1.9196898685e+000	-1.2030923607e+000
 9.4872496966e-001	 1.9293576475e+000	-1.1845348066e+000
 9.2924823496e-001	 1.9388134820e+000	-1.1600157518e+000
 9.0971096330e-001	 1.9480569713e+000	-1.1295525773e+000
 8.9011651315e-001	 1.9570877837e+000	-1.0931705795e+000
 8.7046823707e-001	 1.9659056560e+000	-1.0509028371e+000
 8.5076948009e-001	 1.9745103929e+000	-1.0027900634e+000
 8.3102357797e-001	 1.9829018667e+000	-9.4888044472e-001
 8.1123385565e-001	 1.9910800163e+000	-8.8922946618e-001
 7.9140362556e-001	 1.9990448473e+000	-8.2389972438e-001
 9.9896573988e-001	 1.9320177149e+000	-1.2195362289e+000
 9.7939522106e-001	 1.9420118437e+000	-1.2057305769e+000
 9.5975665535e-001	 1.9517920388e+000	-1.1857140208e+000
 9.4005344700e-001	 1.9613578248e+000	-1.1595017981e+000
 9.2028899776e-001	 1.9707087965e+000	-1.1271175169e+000
 9.0046670516e-001	 1.9798446184e+000	-1.0885930267e+000
 8.8058996076e-001	 1.9887650241e+000	-1.0439682733e+000
 8.6066214846e-001	 1.9974698161e+000	-9.9329113957e-001
 8.4068664283e-001	 2.0059588651e+000	-9.3661727087e-001
 8.2066680746e-001	 2.0142321096e+000	-8.7400988810e-001
 8.0060599330e-001	 2.0222895548e+000	-8.0553958727e-001
 1.0104481047e+000	 1.9542248150e+000	-1.2217529606e+000
 9.9065263740e-001	 1.9643338189e+000	-1.2069127117e+000
 9.7078834105e-001	 1.9742264300e+000	-1.1856161166e+000
 9.5085865903e-001	 1.9839021676e+000	-1.1578842018e+000
 9.3086703222e-001	 1.9933606218e+000	-1.1237467115e+000
 9.1081689717e-001	 2.0026014531e+000	-1.0832419669e+000
 8.9071168444e-001	 2.0116243922e+000	-1.0364167094e+000
 8.7055481683e-001	 2.0204292393e+000	-9.8332592934e-001
 8.5034970769e-001	 2.0290158636e+000	-9.2403267912e-001
 8.3009975926e-001	 2.0373842028e+000	-8.5860787289e-001
 8.0980836103e-001	 2.0455342623e+000	-7.8713007281e-001
 1.0219304695e+000	 1.9764319152e+000	-1.2225085823e+000
 1.0019100537e+000	 1.9866557941e+000	-1.2068095765e+000
 9.8182002674e-001	 1.9966608213e+000	-1.1844032168e+000
 9.6166387107e-001	 2.0064465104e+000	-1.1553162221e+000
 9.4144506667e-001	 2.0160124470e+000	-1.1195843858e+000
 9.2116708919e-001	 2.0253582878e+000	-1.0772524238e+000
 9.0083340813e-001	 2.0344837603e+000	-1.0283738065e+000
 8.8044748521e-001	 2.0433886625e+000	-9.7301057491e-001
 8.6001277255e-001	 2.0520728620e+000	-9.1123314117e-001
 8.3953271107e-001	 2.0605362960e+000	-8.4312007523e-001
 8.1901072877e-001	 2.0687789699e+000	-7.6875787747e-001
 1.0334128344e+000	 1.9986390154e+000	-1.2219823730e+000
 1.0131674701e+000	 2.0089777693e+000	-1.2055922712e+000
 9.9285171243e-001	 2.0190952125e+000	-1.1822380647e+000
 9.7246908310e-001	 2.0289908532e+000	-1.1519520722e+000
 9.5202310113e-001	 2.0386642723e+000	-1.1147760536e+000
 9.3151728120e-001	 2.0481151225e+000	-1.0707610474e+000
 9.1095513182e-001	 2.0573431284e+000	-1.0199671907e+000
 8.9034015358e-001	 2.0663480856e+000	-9.6246352306e-001
 8.6967583741e-001	 2.0751298605e+000	-8.9832777408e-001
 8.4896566288e-001	 2.0836883892e+000	-8.2764613700e-001
 8.2821309651e-001	 2.0920236774e+000	-7.5051302751e-001
 7.3618941913e-001	 1.8595766021e+000	-1.0000214665e+000
 7.1770808012e-001	 1.8667873772e+000	-9.8173545780e-001
 6.9919518155e-001	 1.8737999088e+000	-9.5912932109e-001
 6.8065376130e-001	 1.8806143829e+000	-9.6017823639e-001
 6.6208683995e-001	 1.8872310448e+000	-9.6334934710e-001
 6.4349741945e-001	 1.8936501977e+000	-9.6271949023e-001
 6.2488848178e-001	 1.8998722024e+000	-9.5774788373e-001
 6.0626298769e-001	 1.9058974762e+000	-8.7347212041e-001
 5.8762387544e-001	 1.9117264922e+000	-7.9066190653e-001
 5.6897405956e-001	 1.9173597783e+000	-7.0898446347e-001
 5.5031642970e-001	 1.9227979164e+000	-6.2813306444e-001
 7.4539178687e-001	 1.8828213097e+000	-9.1218435236e-001
 7.2667943112e-001	 1.8901222194e+000	-9.1820439294e-001
 7.0793512132e-001	 1.8972224076e+000	-9.2120797792e-001
 6.8916193331e-001	 1.9041220627e+000	-9.2111895241e-001
 6.7036292545e-001	 1.9108214328e+000	-9.1786655512e-001
 6.5154113719e-001	 1.9173208252e+000	-9.1138536112e-001
 6.3269958780e-001	 1.9236206049e+000	-9.0161521512e-001
 6.1384127504e-001	 1.9297211947e+000	-8.3745370563e-001
 5.9496917388e-001	 1.9356230734e+000	-7.3874095971e-001
 5.7608623530e-001	 1.9413267756e+000	-6.4144436340e-001
 5.5719538508e-001	 1.9468328903e+000	-5.4522882175e-001
 7.5459415461e-001	 1.9060660172e+000	-8.9524048026e-001
 7.3565078212e-001	 1.9134570617e+000	-8.9368389897e-001
 7.1667506109e-001	 1.9206449065e+000	-8.8963007947e-001
 6.9767010533e-001	 1.9276297425e+000	-8.8301359215e-001
 6.7863901094e-001	 1.9344118209e+000	-8.7377393023e-001
 6.5958485493e-001	 1.9409914526e+000	-8.6185544672e-001
 6.4051069382e-001	 1.9473690074e+000	-8.4720728261e-001
 6.2141956238e-001	 1.9535449131e+000	-8.1180155281e-001
 6.0231447232e-001	 1.9595196545e+000	-6.9848428243e-001
 5.8319841105e-001	 1.9652937728e+000	-5.8683099328e-001
 5.6407434045e-001	 1.9708678643e+000	-4.7647647733e-001
 7.6379652235e-001	 1.9293107247e+000	-8.7787106511e-001
 7.4462213312e-001	 1.9367919039e+000	-8.6921674476e-001
 7.2541500086e-001	 1.9440674054e+000	-8.5856282230e-001
 7.0617827734e-001	 1.9511374223e+000	-8.4585453625e-001
 6.8691509644e-001	 1.9580022090e+000	-8.3104159563e-001
 6.6762857267e-001	 1.9646620801e+000	-8.1407811093e-001
 6.4832179984e-001	 1.9711174100e+000	-7.9492251672e-001
 6.2899784972e-001	 1.9773686316e+000	-7.7353748649e-001
 6.0965977076e-001	 1.9834162357e+000	-6.6858839223e-001
 5.9031058679e-001	 1.9892607700e+000	-5.4386568437e-001
 5.7095329582e-001	 1.9949028382e+000	-4.2062252610e-001
 7.7299889008e-001	 1.9525554322e+000	-8.6014291847e-001
 7.5359348412e-001	 1.9601267461e+000	-8.4484704856e-001
 7.3415494062e-001	 1.9674899042e+000	-8.2802807958e-001
 7.1468644936e-001	 1.9746451021e+000	-8.0964186825e-001
 6.9519118194e-001	 1.9815925970e+000	-7.8964830759e-001
 6.7567229041e-001	 1.9883327076e+000	-7.6801125163e-001
 6.5613290586e-001	 1.9948658125e+000	-7.4469843225e-001
 6.3657613707e-001	 2.0011923500e+000	-7.1968136861e-001
 6.1700506920e-001	 2.0073128168e+000	-6.4776186689e-001
 5.9742276253e-001	 2.0132277673e+000	-5.1128261090e-001
 5.7783225119e-001	 2.0189378122e+000	-3.7642705866e-001
 7.8220125782e-001	 1.9758001398e+000	-8.4212731325e-001
 7.6256483512e-001	 1.9834615883e+000	-8.2062434630e-001
 7.4289488039e-001	 1.9909124031e+000	-7.9805407177e-001
 7.2319462137e-001	 1.9981527819e+000	-7.7438292154e-001
 7.0346726743e-001	 2.0051829851e+000	-7.4958094756e-001
 6.8371600815e-001	 2.0120033350e+000	-7.2362173990e-001
 6.6394401188e-001	 2.0186142150e+000	-6.9648233752e-001
 6.4415442441e-001	 2.0250160685e+000	-6.6814313206e-001
 6.2435036764e-001	 2.0312093980e+000	-6.3472463501e-001
 6.0453493827e-001	 2.0371947645e+000	-4.8782803453e-001
 5.8471120656e-001	 2.0429727862e+000	-3.4266296151e-001
 7.9140362556e-001	 1.9990448473e+000	-8.2389972438e-001
 7.7153618612e-001	 2.0067964305e+000	-7.9660327658e-001
 7.5163482016e-001	 2.0143349019e+000	-7.6867499748e-001
 7.3170279338e-001	 2.0216604616e+000	-7.4009185782e-001
 7.1174335293e-001	 2.0287733731e+000	-7.1083404981e-001
 6.9175972589e-001	 2.0356739625e+000	-6.8088489829e-001
 6.7175511790e-001	 2.0423626176e+000	-6.5023076503e-001
 6.5173271175e-001	 2.0488397869e+000	-6.1886094663e-001
 6.3169566608e-001	 2.0551059791e+000	-5.8676756651e-001
 6.1164711402e-001	 2.0611617617e+000	-4.7225960163e-001
 5.9159016193e-001	 2.0670077601e+000	-3.1811517312e-001
 8.0060599330e-001	 2.0222895548e+000	-8.0553958727e-001
 7.8050753712e-001	 2.0301312727e+000	-7.7284328748e-001
 7.6037475992e-001	 2.0377574008e+000	-7.3993069000e-001
 7.4021096540e-001	 2.0451681414e+000	-7.0678927469e-001
 7.2001943843e-001	 2.0523637612e+000	-6.7340936162e-001
 6.9980344363e-001	 2.0593445900e+000	-6.3978401511e-001
 6.7956622392e-001	 2.0661110201e+000	-6.0590894130e-001
 6.5931099910e-001	 2.0726635054e+000	-5.7178237974e-001
 6.3904096452e-001	 2.0790025603e+000	-5.3740498952e-001
 6.1875928976e-001	 2.0851287589e+000	-4.6334568896e-001
 5.9846911730e-001	 2.0910427341e+000	-3.0157999130e-001
 8.0980836103e-001	 2.0455342623e+000	-7.8713007281e-001
 7.8947888812e-001	 2.0534661149e+000	-7.4940836319e-001
 7.6911469969e-001	 2.0611798997e+000	-7.1186629709e-001
 7.4871913741e-001	 2.0686758212e+000	-6.7450183995e-001
 7.2829552392e-001	 2.0759541493e+000	-6.3731543340e-001
 7.0784716137e-001	 2.0830152175e+000	-6.0030989184e-001
 6.8737732993e-001	 2.0898594226e+000	-5.6349029292e-001
 6.6688928644e-001	 2.0964872238e+000	-5.2686386252e-001
 6.4638626296e-001	 2.1028991414e+000	-4.9043985470e-001
 6.2587146550e-001	 2.1090957562e+000	-4.5422942722e-001
 6.0534807266e-001	 2.1150777080e+000	-2.9186442774e-001
 8.1901072877e-001	 2.0687789699e+000	-7.6875787747e-001
 7.9845023912e-001	 2.0768009572e+000	-7.2636676927e-001
 7.7785463946e-001	 2.0846023985e+000	-6.8453198244e-001
 7.5722730942e-001	 2.0921835010e+000	-6.4326195059e-001
 7.3657160942e-001	 2.0995445373e+000	-6.0256723654e-001
 7.1589087911e-001	 2.1066858449e+000	-5.6246042103e-001
 6.9518843595e-001	 2.1136078252e+000	-5.2295598584e-001
 6.7446757378e-001	 2.1203109423e+000	-4.8407019183e-001
 6.5373156140e-001	 2.1267957226e+000	-4.4582095234e-001
 6.3298364124e-001	 2.1330627534e+000	-4.0822770260e-001
 6.1222702803e-001	 2.1391126820e+000	-2.8778560615e-001
 8.2821309651e-001	 2.0920236774e+000	-7.5051302751e-001
 8.0742159012e-001	 2.1001357994e+000	-7.0379081475e-001
 7.8659457923e-001	 2.1080248974e+000	-6.5798264697e-001
 7.6573548144e-001	 2.1156911808e+000	-6.1310741453e-001
 7.4484769492e-001	 2.1231349254e+000	-5.6918580670e-001
 7.2393459685e-001	 2.1303564724e+000	-5.2624019237e-001
 7.0299954197e-001	 2.1373562277e+000	-4.8429449542e-001
 6.8204586113e-001	 2.1441346607e+000	-4.4337406549e-001
 6.6107685984e-001	 2.1506923038e+000	-4.0350554443e-001
 6.4009581698e-001	 2.1570297506e+000	-3.6471672927e-001
 6.1910598340e-001	 2.1631476559e+000	-2.8817020048e-001
 5.5031642970e-001	 1.9227979164e+000	-6.2813306444e-001
 5.3165384949e-001	 1.9280415411e+000	-6.3574292666e-001
 5.1298915537e-001	 1.9330913394e+000	-6.3465169048e-001
 4.9432515561e-001	 1.9379480490e+000	-6.2489762635e-001
 4.7566462918e-001	 1.9426124576e+000	-6.0655259094e-001
 4.5701032483e-001	 1.9470854021e+000	-5.7972223566e-001
 4.3836496008e-001	 1.9513677669e+000	-5.4454613144e-001
 4.1973122034e-001	 1.9554604835e+000	-5.0119781118e-001
 4.0111175798e-001	 1.9593645290e+000	-4.4988473086e-001
 3.8250919152e-001	 1.9630809251e+000	-3.9084815102e-001
 3.6392610484e-001	 1.9666107368e+000	-3.2436294022e-001
 5.5719538508e-001	 1.9468328903e+000	-5.4522882175e-001
 5.3829952261e-001	 1.9521420604e+000	-5.4666297713e-001
 5.1940151982e-001	 1.9572549812e+000	-5.4079246301e-001
 5.0050422005e-001	 1.9621723996e+000	-5.2760094687e-001
 4.8161043705e-001	 1.9668951134e+000	-5.0710606592e-001
 4.6272295389e-001	 1.9714239696e+000	-4.7935971789e-001
 4.4384452209e-001	 1.9757598640e+000	-4.4444826457e-001
 4.2497786060e-001	 1.9799037396e+000	-4.0249264930e-001
 4.0612565496e-001	 1.9838565856e+000	-3.5364842953e-001
 3.8729055642e-001	 1.9876194366e+000	-2.9810572584e-001
 3.6847518115e-001	 1.9911933711e+000	-2.3608908931e-001
 5.6407434045e-001	 1.9708678643e+000	-4.7647647733e-001
 5.4494519573e-001	 1.9762425797e+000	-4.7205542662e-001
 5.2581388426e-001	 1.9814186229e+000	-4.6165790267e-001
 5.0668328450e-001	 1.9863967502e+000	-4.4521201065e-001
 4.8755624491e-001	 1.9911777691e+000	-4.2268028384e-001
 4.6843558295e-001	 1.9957625371e+000	-3.9406005728e-001
 4.4932408409e-001	 2.0001519611e+000	-3.5938375060e-001
 4.3022450086e-001	 2.0043469956e+000	-3.1871906094e-001
 4.1113955194e-001	 2.0083486423e+000	-2.7216906701e-001
 3.9207192132e-001	 2.0121579482e+000	-2.1987224592e-001
 3.7302425746e-001	 2.0157760053e+000	-1.6200240425e-001
 5.7095329582e-001	 1.9949028382e+000	-4.2062252610e-001
 5.5159086884e-001	 2.0003430989e+000	-4.1072354251e-001
 5.3222624870e-001	 2.0055822646e+000	-3.9610933624e-001
 5.1286234895e-001	 2.0106211008e+000	-3.7665143900e-001
 4.9350205278e-001	 2.0154604248e+000	-3.5225634397e-001
 4.7414821202e-001	 2.0201011047e+000	-3.2286596315e-001
 4.5480364609e-001	 2.0245440582e+000	-2.8845798988e-001
 4.3547114111e-001	 2.0287902517e+000	-2.4904616756e-001
 4.1615344891e-001	 2.0328406989e+000	-2.0468046560e-001
 3.9685328622e-001	 2.0366964598e+000	-1.5544716404e-001
 3.7757333378e-001	 2.0403586395e+000	-1.0146884843e-001
 5.7783225119e-001	 2.0189378122e+000	-3.7642705866e-001
 5.5823654196e-001	 2.0244436182e+000	-3.6148342053e-001
 5.3863861314e-001	 2.0297459064e+000	-3.4302007386e-001
 5.1904141339e-001	 2.0348454514e+000	-3.2085091484e-001
 4.9944786064e-001	 2.0397430805e+000	-2.9482540982e-001
 4.7986084108e-001	 2.0444396722e+000	-2.6482913695e-001
 4.6028320810e-001	 2.0489361553e+000	-2.3078422906e-001
 4.4071778137e-001	 2.0532335077e+000	-1.9264971861e-001
 4.2116734589e-001	 2.0573327555e+000	-1.5042178579e-001
 4.0163465111e-001	 2.0612349713e+000	-1.0413391112e-001
 3.8212241009e-001	 2.0649412737e+000	-5.3856934165e-002
 5.8471120656e-001	 2.0429727862e+000	-3.4266296151e-001
 5.6488221508e-001	 2.0485441375e+000	-3.2316323019e-001
 5.4505097759e-001	 2.0539095481e+000	-3.0127470415e-001
 5.2522047784e-001	 2.0590698020e+000	-2.7675253210e-001
 5.0539366851e-001	 2.0640257362e+000	-2.4938811709e-001
 4.8557347014e-001	 2.0687782397e+000	-2.1900974324e-001
 4.6576277010e-001	 2.0733282524e+000	-1.8548309954e-001
 4.4596442162e-001	 2.0776767638e+000	-1.4871170161e-001
 4.2618124287e-001	 2.0818248121e+000	-1.0863721222e-001
 4.0641601601e-001	 2.0857734829e+000	-6.5239662138e-002
 3.8667148640e-001	 2.0895239079e+000	-1.8537572695e-002
 5.9159016193e-001	 2.0670077601e+000	-3.1811517312e-001
 5.7152788820e-001	 2.0726446567e+000	-2.9460251277e-001
 5.5146334203e-001	 2.0780731899e+000	-2.6976843848e-001
 5.3139954228e-001	 2.0832941527e+000	-2.4330819041e-001
 5.1133947637e-001	 2.0883083920e+000	-2.1495402303e-001
 4.9128609920e-001	 2.0931168073e+000	-1.8447591768e-001
 4.7124233210e-001	 2.0977203495e+000	-1.5168218814e-001
 4.5121106188e-001	 2.1021200198e+000	-1.1641997947e-001
 4.3119513984e-001	 2.1063168687e+000	-7.8575661592e-002
 4.1119738090e-001	 2.1103119945e+000	-3.8075118475e-002
 3.9122056271e-001	 2.1141065421e+000	 5.1160652622e-003
 5.9846911730e-001	 2.0910427341e+000	-3.0157999130e-001
 5.7817356131e-001	 2.0967451760e+000	-2.7465152778e-001
 5.5787570647e-001	 2.1022368316e+000	-2.4740650044e-001
 5.3757860672e-001	 2.1075185033e+000	-2.1947903153e-001
 5.1728528424e-001	 2.1125910477e+000	-1.9054109361e-001
 4.9699872826e-001	 2.1174553748e+000	-1.6030330895e-001
 4.7672189410e-001	 2.1221124465e+000	-1.2851563733e-001
 4.5645770213e-001	 2.1265632759e+000	-9.4967952849e-002
 4.3620903682e-001	 2.1308089253e+000	-5.9490510726e-002
 4.1597874580e-001	 2.1348505060e+000	-2.1954305269e-002
 3.9576963903e-001	 2.1386891763e+000	 1.7728679374e-002
 6.0534807266e-001	 2.1150777080e+000	-2.9186442774e-001
 5.8481923443e-001	 2.1208456953e+000	-2.6217064398e-001
 5.6428807091e-001	 2.1264004734e+000	-2.3310355699e-001
 5.4375767117e-001	 2.1317428539e+000	-2.0423491423e-001
 5.2323109210e-001	 2.1368737034e+000	-1.7517522584e-001
 5.0271135732e-001	 2.1417939423e+000	-1.4557465180e-001
 4.8220145610e-001	 2.1465045436e+000	-1.1512377279e-001
 4.6170434238e-001	 2.1510065319e+000	-8.3554245487e-002
 4.4122293379e-001	 2.1553009819e+000	-5.0639343121e-002
 4.2076011069e-001	 2.1593890176e+000	-1.6194382544e-002
 4.0031871534e-001	 2.1632718105e+000	 1.9922960690e-002
 6.1222702803e-001	 2.1391126820e+000	-2.8778560615e-001
 5.9146490754e-001	 2.1449462145e+000	-2.5602977146e-001
 5.7070043534e-001	 2.1505641151e+000	-2.2578318796e-001
 5.4993673561e-001	 2.1559672045e+000	-1.9655392460e-001
 5.2917689996e-001	 2.1611563591e+000	-1.6788980215e-001
 5.0842398637e-001	 2.1661325098e+000	-1.3937936902e-001
 4.8768101810e-001	 2.1708966407e+000	-1.1065275602e-001
 4.6695098264e-001	 2.1754497879e+000	-8.1382410783e-002
 4.4623683076e-001	 2.1797930386e+000	-5.1283712639e-002
 4.2554147558e-001	 2.1839275292e+000	-2.0115469096e-002
 4.0486779165e-001	 2.1878544447e+000	 1.2319704486e-002
 6.1910598340e-001	 2.1631476559e+000	-2.8817020048e-001
 5.9811058066e-001	 2.1690467338e+000	-2.5510783152e-001
 5.7711279978e-001	 2.1747277568e+000	-2.2437739083e-001
 5.5611580005e-001	 2.1801915551e+000	-1.9542191895e-001
 5.3512270782e-001	 2.1854390149e+000	-1.6772527457e-001
 5.1413661543e-001	 2.1904710774e+000	-1.4081319986e-001
 4.9316058010e-001	 2.1952887378e+000	-1.1425426011e-001
 4.7219762289e-001	 2.1998930440e+000	-8.7660657926e-002
 4.5125072774e-001	 2.2042850952e+000	-6.0688922924e-002
 4.3032284048e-001	 2.2084660407e+000	-3.3040478124e-002
 4.0941686796e-001	 2.2124370789e+000	-4.4620844122e-003
 3.6392610484e-001	 1.9666107368e+000	-3.2436294022e-001
 3.4536504635e-001	 1.9699550718e+000	-2.9173846745e-001
 3.2682852835e-001	 1.9731150785e+000	-2.5467218546e-001
 3.0831902626e-001	 1.9760919458e+000	-2.1346643285e-001
 2.8983897805e-001	 1.9788869010e+000	-1.6845493316e-001
 2.7139078356e-001	 1.9815012093e+000	-1.2000232004e-001
 2.5297680396e-001	 1.9839361725e+000	-6.8503597032e-002
 2.3459936123e-001	 1.9861931275e+000	-1.4383534793e-002
 2.1626073764e-001	 1.9882734453e+000	 4.1903991676e-002
 1.9796317532e-001	 1.9901785300e+000	 9.9876722737e-002
 1.7970887579e-001	 1.9919098172e+000	 1.5902478792e-001
 3.6847518115e-001	 1.9911933711e+000	-2.3608908931e-001
 3.4968210943e-001	 1.9945795102e+000	-2.0672251050e-001
 3.3091388495e-001	 1.9977790170e+000	-1.7344215681e-001
 3.1217301410e-001	 2.0007930951e+000	-1.3650820147e-001
 2.9346196528e-001	 2.0036229872e+000	-9.6213438099e-002
 2.7478316835e-001	 2.0062699745e+000	-5.2882841765e-002
 2.5613901401e-001	 2.0087353747e+000	-6.8730608298e-003
 2.3753185325e-001	 2.0110205416e+000	 4.1428157500e-002
 2.1896399687e-001	 2.0131268634e+000	 9.1602605208e-002
 2.0043771501e-001	 2.0150557616e+000	 1.4320231210e-001
 1.8195523674e-001	 2.0168086899e+000	 1.9575030201e-001
 3.7302425746e-001	 2.0157760053e+000	-1.6200240425e-001
 3.5399917252e-001	 2.0192039486e+000	-1.3560014171e-001
 3.3499924156e-001	 2.0224429555e+000	-1.0574609413e-001
 3.1602700193e-001	 2.0254942444e+000	-7.2657950332e-002
 2.9708495251e-001	 2.0283590735e+000	-3.6587327101e-002
 2.7817555315e-001	 2.0310387396e+000	 2.1806344373e-003
 2.5930122406e-001	 2.0335345769e+000	 4.3327745473e-002
 2.4046434526e-001	 2.0358479557e+000	 8.6503316344e-002
 2.2166725609e-001	 2.0379802815e+000	 1.3132477069e-001
 2.0291225470e-001	 2.0399329932e+000	 1.7737832390e-001
 1.8420159768e-001	 2.0417075627e+000	 2.2421972275e-001
 3.7757333378e-001	 2.0403586395e+000	-1.0146884843e-001
 3.5831623560e-001	 2.0438283870e+000	-7.7800967210e-002
 3.3908459817e-001	 2.0471068940e+000	-5.1077726414e-002
 3.1988098976e-001	 2.0501953937e+000	-2.1473967852e-002
 3.0070793974e-001	 2.0530951598e+000	 1.0800158313e-002
 2.8156793795e-001	 2.0558075047e+000	 4.5499562342e-002
 2.6246343411e-001	 2.0583337790e+000	 8.2344660674e-002
 2.4339683728e-001	 2.0606753698e+000	 1.2102189583e-001
 2.2437051531e-001	 2.0628336995e+000	 1.6118432746e-001
 2.0538679439e-001	 2.0648102249e+000	 2.0245229152e-001
 1.8644795863e-001	 2.0666064354e+000	 2.4441412433e-001
 3.8212241009e-001	 2.0649412737e+000	-5.3856934165e-002
 3.6263329868e-001	 2.0684528254e+000	-3.2755820996e-002
 3.4316995478e-001	 2.0717708325e+000	-8.9306371744e-003
 3.2373497759e-001	 2.0748965430e+000	 1.7487027660e-002
 3.0433092696e-001	 2.0778312460e+000	 4.6328821583e-002
 2.8496032274e-001	 2.0805762698e+000	 7.7389964741e-002
 2.6562564417e-001	 2.0831329812e+000	 1.1042966478e-001
 2.4632932930e-001	 2.0855027839e+000	 1.4517161045e-001
 2.2707377453e-001	 2.0876871176e+000	 1.8130454040e-001
 2.0786133409e-001	 2.0896874565e+000	 2.1848288389e-001
 1.8869431958e-001	 2.0915053081e+000	 2.5632747023e-001
 3.8667148640e-001	 2.0895239079e+000	-1.8537572695e-002
 3.6695036176e-001	 2.0930772638e+000	 1.0330729289e-004
 3.4725531138e-001	 2.0964347709e+000	 2.1201726970e-002
 3.2758896542e-001	 2.0995976924e+000	 4.4669795617e-002
 3.0795391419e-001	 2.1025673323e+000	 7.0381331994e-002
 2.8835270754e-001	 2.1053450349e+000	 9.8172164684e-002
 2.6878785422e-001	 2.1079321833e+000	 1.2784051773e-001
 2.4926182132e-001	 2.1103301980e+000	 1.5914747864e-001
 2.2977703375e-001	 2.1125405357e+000	 1.9181754555e-001
 2.1033587378e-001	 2.1145646881e+000	 2.2553925047e-001
 1.9094068053e-001	 2.1164041808e+000	 2.5996585502e-001
 3.9122056271e-001	 2.1141065421e+000	 5.1160652622e-003
 3.7126742484e-001	 2.1177017022e+000	 2.1343339564e-002
 3.5134066799e-001	 2.1210987094e+000	 3.9826048350e-002
 3.3144295325e-001	 2.1242988417e+000	 6.0520487247e-002
 3.1157690142e-001	 2.1273034185e+000	 8.3343058054e-002
 2.9174509234e-001	 2.1301138000e+000	 1.0817053546e-001
 2.7195006427e-001	 2.1327313855e+000	 1.3484042341e-001
 2.5219431333e-001	 2.1351576121e+000	 1.6315139808e-001
 2.3248029298e-001	 2.1373939537e+000	 1.9286383429e-001
 2.1281041347e-001	 2.1394419197e+000	 2.2370041193e-001
 1.9318704148e-001	 2.1413030535e+000	 2.5534679906e-001
 3.9576963903e-001	 2.1386891763e+000	 1.7728679374e-002
 3.7558448792e-001	 2.1423261406e+000	 3.1530171824e-002
 3.5542602459e-001	 2.1457626479e+000	 4.7449130828e-002
 3.3529694108e-001	 2.1489999910e+000	 6.5486565604e-002
 3.1519988865e-001	 2.1520395048e+000	 8.5601912370e-002
 2.9513747713e-001	 2.1548825652e+000	 1.0771326782e-001
 2.7511227432e-001	 2.1575305876e+000	 1.3169771671e-001
 2.5512680535e-001	 2.1599850262e+000	 1.5739175039e-001
 2.3518355220e-001	 2.1622473718e+000	 1.8459177317e-001
 2.1528495317e-001	 2.1643191514e+000	 2.1305469281e-001
 1.9543340243e-001	 2.1662019262e+000	 2.4249859182e-001
 4.0031871534e-001	 2.1632718105e+000	 1.9922960690e-002
 3.7990155100e-001	 2.1669505789e+000	 3.1228732472e-002
 3.5951138120e-001	 2.1704265864e+000	 4.4577892901e-002
 3.3915092891e-001	 2.1737011403e+000	 6.0016731030e-002
 3.1882287587e-001	 2.1767755911e+000	 7.7548207097e-002
 2.9852986193e-001	 2.1796513303e+000	 9.7132153096e-002
 2.7827448437e-001	 2.1823297898e+000	 1.1868557204e-001
 2.5805929737e-001	 2.1848124402e+000	 1.4208303269e-001
 2.3788681142e-001	 2.1871007899e+000	 1.6715715647e-001
 2.1775949286e-001	 2.1891963830e+000	 1.9369919291e-001
 1.9767976337e-001	 2.1911007990e+000	 2.2145968008e-001
 4.0486779165e-001	 2.1878544447e+000	 1.2319704486e-002
 3.8421861408e-001	 2.1915750173e+000	 2.1003036657e-002
 3.6359673781e-001	 2.1950905249e+000	 3.1719361253e-002
 3.4300491674e-001	 2.1984022896e+000	 4.4560851646e-002
 3.2244586310e-001	 2.2015116773e+000	 5.9574519127e-002
 3.0192224673e-001	 2.2044200954e+000	 7.6762380894e-002
 2.8143669442e-001	 2.2071289919e+000	 9.6081731434e-002
 2.6099178938e-001	 2.2096398543e+000	 1.1744551402e-001
 2.4059007064e-001	 2.2119542079e+000	 1.4072278887e-001
 2.2023403255e-001	 2.2140736146e+000	 1.6573929430e-001
 1.9992612432e-001	 2.2159996717e+000	 1.9227809718e-001
 4.0941686796e-001	 2.2124370789e+000	-4.4620844122e-003
 3.8853567716e-001	 2.2161994557e+000	 1.4162370136e-003
 3.6768209441e-001	 2.2197544633e+000	 9.3806647479e-003
 3.4685890457e-001	 2.2231034390e+000	 1.9569898478e-002
 3.2606885033e-001	 2.2262477636e+000	 3.2075564277e-002
 3.0531463152e-001	 2.2291888605e+000	 4.6942350318e-002
 2.8459890447e-001	 2.2319281941e+000	 6.4168250797e-002
 2.6392428140e-001	 2.2344672684e+000	 8.3704914728e-002
 2.4329332986e-001	 2.2368076260e+000	 1.0545809603e-001
 2.2270857224e-001	 2.2389508462e+000	 1.2928820118e-001
 2.0217248527e-001	 2.2408985444e+000	 1.5501093055e-001
 1.7970887579e-001	 1.9919098172e+000	 1.5902478792e-001
 1.6149999964e-001	 1.9934687733e+000	 1.8871313133e-001
 1.4333866613e-001	 1.9948568938e+000	 2.2358443120e-001
 1.2522695292e-001	 1.9960757025e+000	 2.6291326965e-001
 1.0716689577e-001	 1.9971267502e+000	 3.0594875978e-001
 8.9160488287e-002	 1.9980116134e+000	 3.5191570695e-001
 7.1209681760e-002	 1.9987318933e+000	 4.0001580267e-001
 5.3316384950e-002	 1.9992892145e+000	 4.4942884772e-001
 3.5482463963e-002	 1.9996852239e+000	 4.9931400114e-001
 1.7709742145e-002	 1.9999215897e+000	 5.4881105180e-001
 0.0000000000e+000	 2.0000000000e+000	 5.9704170922e-001
 1.8195523674e-001	 2.0168086899e+000	 1.9575030201e-001
 1.6351874963e-001	 2.0183871330e+000	 2.1446726967e-001
 1.4513039946e-001	 2.0197926050e+000	 2.3782038529e-001
 1.2679228983e-001	 2.0210266488e+000	 2.6513206924e-001
 1.0850648196e-001	 2.0220908346e+000	 2.9569774481e-001
 9.0274994390e-002	 2.0229867586e+000	 3.2878698306e-001
 7.2099802782e-002	 2.0237160419e+000	 3.6364468365e-001
 5.3982839761e-002	 2.0242803297e+000	 3.9949228830e-001
 3.5925994762e-002	 2.0246812892e+000	 4.3552902339e-001
 1.7931113921e-002	 2.0249206096e+000	 4.7093316813e-001
 0.0000000000e+000	 2.0250000000e+000	 5.0486334519e-001
 1.8420159768e-001	 2.0417075627e+000	 2.2421972275e-001
 1.6553749963e-001	 2.0433054926e+000	 2.3369384369e-001
 1.4692213278e-001	 2.0447283162e+000	 2.4733055641e-001
 1.2835762674e-001	 2.0459775951e+000	 2.6449937900e-001
 1.0984606816e-001	 2.0470549190e+000	 2.8454124393e-001
 9.1389500493e-002	 2.0479619037e+000	 3.0676962808e-001
 7.2989923804e-002	 2.0487001906e+000	 3.3047172221e-001
 5.4649294573e-002	 2.0492714448e+000	 3.5490963659e-001
 3.6369525562e-002	 2.0496773545e+000	 3.7932163887e-001
 1.8152485698e-002	 2.0499196295e+000	 4.0292342097e-001
 0.0000000000e+000	 2.0500000000e+000	 4.2490939121e-001
 1.8644795863e-001	 2.0666064354e+000	 2.4441412433e-001
 1.6755624962e-001	 2.0682238523e+000	 2.4627956908e-001
 1.4871386611e-001	 2.0696640273e+000	 2.5190696228e-001
 1.2992296366e-001	 2.0709285414e+000	 2.6071222805e-001
 1.1118565436e-001	 2.0720190034e+000	 2.7208105482e-001
 9.2504006597e-002	 2.0729370489e+000	 2.8537001214e-001
 7.3880044825e-002	 2.0736843393e+000	 2.9990771056e-001
 5.5315749384e-002	 2.0742625600e+000	 3.1499600112e-001
 3.6813056361e-002	 2.0746734198e+000	 3.2991121041e-001
 1.8373857475e-002	 2.0749186493e+000	 3.4390540786e-001
 0.0000000000e+000	 2.0750000000e+000	 3.5620770142e-001
 1.8869431958e-001	 2.0915053081e+000	 2.5632747023e-001
 1.6957499962e-001	 2.0931422120e+000	 2.5212717013e-001
 1.5050559944e-001	 2.0945997385e+000	 2.5136080243e-001
 1.3148830057e-001	 2.0958794877e+000	 2.5349005258e-001
 1.1252524055e-001	 2.0969830877e+000	 2.5794465774e-001
 9.3618512700e-002	 2.0979121941e+000	 2.6412351197e-001
 7.4770165847e-002	 2.0986684879e+000	 2.7139581829e-001
 5.5982204196e-002	 2.0992536752e+000	 2.7910228362e-001
 3.7256587160e-002	 2.0996694851e+000	 2.8655635296e-001
 1.8595229251e-002	 2.0999176692e+000	 2.9304547887e-001
 0.0000000000e+000	 2.1000000000e+000	 2.9783242261e-001
 1.9094068053e-001	 2.1164041808e+000	 2.5996585502e-001
 1.7159374962e-001	 2.1180605716e+000	 2.5115443808e-001
 1.5229733276e-001	 2.1195354497e+000	 2.4552132983e-001
 1.3305363748e-001	 2.1208304339e+000	 2.4257337773e-001
 1.1386482675e-001	 2.1219471721e+000	 2.4178370474e-001
 9.4733018803e-002	 2.1228873393e+000	 2.4259280465e-001
 7.5660286868e-002	 2.1236526366e+000	 2.4440968782e-001
 5.6648659007e-002	 2.1242447904e+000	 2.4661307347e-001
 3.7700117959e-002	 2.1246655504e+000	 2.4855262465e-001
 1.8816601028e-002	 2.1249166891e+000	 2.4955022178e-001
 0.0000000000e+000	 2.1250000000e+000	 2.4890127112e-001
 1.9318704148e-001	 2.1413030535e+000	 2.5534679906e-001
 1.7361249961e-001	 2.1429789313e+000	 2.4329335509e-001
 1.5408906609e-001	 2.1444711609e+000	 2.3423480130e-001
 1.3461897439e-001	 2.1457813802e+000	 2.2772259151e-001
 1.1520441295e-001	 2.1469112565e+000	 2.2327261438e-001
 9.5847524906e-002	 2.1478624844e+000	 2.2036628034e-001
 7.6550407890e-002	 2.1486367853e+000	 2.1845166273e-001
 5.7315113819e-002	 2.1492359056e+000	 2.1694468914e-001
 3.8143648758e-002	 2.1496616157e+000	 2.1523037891e-001
 1.9037972804e-002	 2.1499157090e+000	 2.1266412263e-001
 0.0000000000e+000	 2.1500000000e+000	 2.0857299975e-001
 1.9543340243e-001	 2.1662019262e+000	 2.4249859182e-001
 1.7563124961e-001	 2.1678972910e+000	 2.2848927873e-001
 1.5588079942e-001	 2.1694068720e+000	 2.1736350024e-001
 1.3618431130e-001	 2.1707323265e+000	 2.0871680324e-001
 1.1654399914e-001	 2.1718753409e+000	 2.0210726327e-001
 9.6962031009e-002	 2.1728376296e+000	 1.9705656456e-001
 7.7440528911e-002	 2.1736209339e+000	 1.9305113829e-001
 5.7981568630e-002	 2.1742270207e+000	 1.8954335468e-001
 3.8587179558e-002	 2.1746576810e+000	 1.8595276476e-001
 1.9259344581e-002	 2.1749147288e+000	 1.8166738769e-001
 0.0000000000e+000	 2.1750000000e+000	 1.7604503934e-001
 1.9767976337e-001	 2.1911007990e+000	 2.2145968008e-001
 1.7764999960e-001	 2.1928156506e+000	 2.0670018196e-001
 1.5767253274e-001	 2.1943425832e+000	 1.9478482604e-001
 1.3774964821e-001	 2.1956832728e+000	 1.8535277989e-001
 1.1788358534e-001	 2.1968394252e+000	 1.7800376688e-001
 9.8076537113e-002	 2.1978127748e+000	 1.7229914115e-001
 7.8330649933e-002	 2.1986050826e+000	 1.6776302440e-001
 5.8648023441e-002	 2.1992181359e+000	 1.6388350053e-001
 3.9030710357e-002	 2.1996537463e+000	 1.6011386343e-001
 1.9480716358e-002	 2.1999137487e+000	 1.5587391390e-001
 0.0000000000e+000	 2.2000000000e+000	 1.5055130114e-001
 1.9992612432e-001	 2.2159996717e+000	 1.9227809718e-001
 1.7966874960e-001	 2.2177340103e+000	 1.7789594442e-001
 1.5946426607e-001	 2.2192782944e+000	 1.6639044491e-001
 1.3931498512e-001	 2.2206342191e+000	 1.5744395399e-001
 1.1922317154e-001	 2.2218035096e+000	 1.5069734253e-001
 9.9191043216e-002	 2.2227879199e+000	 1.4575106810e-001
 7.9220770954e-002	 2.2235892313e+000	 1.4216631219e-001
 5.9314478253e-002	 2.2242092511e+000	 1.3946617888e-001
 3.9474241156e-002	 2.2246498116e+000	 1.3713695056e-001
 1.9702088134e-002	 2.2249127686e+000	 1.3462939615e-001
 0.0000000000e+000	 2.2250000000e+000	 1.3136012735e-001
 2.0217248527e-001	 2.2408985444e+000	 1.5501093055e-001
 1.8168749959e-001	 2.2426523700e+000	 1.4205769098e-001
 1.6125599940e-001	 2.2442140055e+000	 1.3208549721e-001
 1.4088032204e-001	 2.2455851654e+000	 1.2481949785e-001
 1.2056275773e-001	 2.2467675940e+000	 1.1994124813e-001
 1.0030554932e-001	 2.2477630651e+000	 1.1708977900e-001
 8.0110891976e-002	 2.2485733799e+000	 1.1586273618e-001
 5.9980933064e-002	 2.2492003663e+000	 1.1581758475e-001
 3.9917771955e-002	 2.2496458769e+000	 1.1647287434e-001
 1.9923459911e-002	 2.2499117884e+000	 1.1730956067e-001
 0.0000000000e+000	 2.2500000000e+000	 1.1777237831e-001
 2.2500000000e+000	 0.0000000000e+000	 2.4128656676e+000
 2.2499117884e+000	 1.9923459911e-002	 2.4159741515e+000
 2.2496458769e+000	 3.9917771955e-002	 2.4167371578e+000
 2.2492003663e+000	 5.9980933064e-002	 2.4146980541e+000
 2.2485733799e+000	 8.0110891976e-002	 2.4094274287e+000
 2.2477630651e+000	 1.0030554932e-001	 2.4005244674e+000
 2.2467675940e+000	 1.2056275773e-001	 2.3876183089e+000
 2.2455851654e+000	 1.4088032204e-001	 2.3703693756e+000
 2.2442140055e+000	 1.6125599940e-001	 2.3484706761e+000
 2.2426523700e+000	 1.8168749959e-001	 2.3216490747e+000
 2.2408985444e+000	 2.0217248527e-001	 2.2896665245e+000
 2.2750000000e+000	 0.0000000000e+000	 2.3589421355e+000
 2.2749108083e+000	 2.0144831687e-002	 2.3601660541e+000
 2.2746419422e+000	 4.0361302754e-002	 2.3592364150e+000
 2.2741914815e+000	 6.0647387876e-002	 2.3556993837e+000
 2.2735575286e+000	 8.1001012998e-002	 2.3491291791e+000
 2.2727382103e+000	 1.0142005542e-001	 2.3391294749e+000
 2.2717316784e+000	 1.2190234393e-001	 2.3253347788e+000
 2.2705361116e+000	 1.4244565895e-001	 2.3074117854e+000
 2.2691497167e+000	 1.6304773272e-001	 2.2850606997e+000
 2.2675707296e+000	 1.8370624959e-001	 2.2580165257e+000
 2.2657974171e+000	 2.0441884622e-001	 2.2260503178e+000
 2.3000000000e+000	 0.0000000000e+000	 2.3054446013e+000
 2.2999098282e+000	 2.0366203464e-002	 2.3055849614e+000
 2.2996380075e+000	 4.0804833554e-002	 2.3037072590e+000
 2.2991825966e+000	 6.1313842688e-002	 2.2993596450e+000
 2.2985416773e+000	 8.1891134020e-002	 2.2921191992e+000
 2.2977133554e+000	 1.0253456153e-001	 2.2815933591e+000
 2.2966957628e+000	 1.2324193013e-001	 2.2674213235e+000
 2.2954870579e+000	 1.4401099586e-001	 2.2492754301e+000
 2.2940854279e+000	 1.6483946605e-001	 2.2268625010e+000
 2.2924890893e+000	 1.8572499959e-001	 2.1999251529e+000
 2.2906962898e+000	 2.0666520717e-001	 2.1682430677e+000
 2.3250000000e+000	 0.0000000000e+000	 2.2524199450e+000
 2.3249088481e+000	 2.0587575241e-002	 2.2522630809e+000
 2.3246340728e+000	 4.1248364354e-002	 2.2501673484e+000
 2.3241737118e+000	 6.1980297500e-002	 2.2456820784e+000
 2.3235258259e+000	 8.2781255043e-002	 2.2383864508e+000
 2.3226885006e+000	 1.0364906763e-001	 2.2278909506e+000
 2.3216598471e+000	 1.2458151633e-001	 2.2138387988e+000
 2.3204380042e+000	 1.4557633277e-001	 2.1959073561e+000
 2.3190211390e+000	 1.6663119938e-001	 2.1738094921e+000
 2.3174074490e+000	 1.8774374958e-001	 2.1472949188e+000
 2.3155951625e+000	 2.0891156812e-001	 2.1161514818e+000
 2.3500000000e+000	 0.0000000000e+000	 2.1999130514e+000
 2.3499078679e+000	 2.0808947019e-002	 2.2002311488e+000
 2.3496301381e+000	 4.1691895154e-002	 2.1986333633e+000
 2.3491648270e+000	 6.2646752313e-002	 2.1946694089e+000
 2.3485099746e+000	 8.3671376066e-002	 2.1879198116e+000
 2.3476636458e+000	 1.0476357374e-001	 2.1779973956e+000
 2.3466239315e+000	 1.2592110253e-001	 2.1645487438e+000
 2.3453889505e+000	 1.4714166968e-001	 2.1472556281e+000
 2.3439568502e+000	 1.6842293271e-001	 2.1258364053e+000
 2.3423258086e+000	 1.8976249958e-001	 2.1000473745e+000
 2.3404940352e+000	 2.1115792906e-001	 2.0696840912e+000
 2.3750000000e+000	 0.0000000000e+000	 2.1479669157e+000
 2.3749068878e+000	 2.1030318796e-002	 2.1495185069e+000
 2.3746262034e+000	 4.2135425955e-002	 2.1491210574e+000
 2.3741559422e+000	 6.3313207127e-002	 2.1463238731e+000
 2.3734941233e+000	 8.4561497090e-002	 2.1407080794e+000
 2.3726387909e+000	 1.0587807984e-001	 2.1318881394e+000
 2.3715880159e+000	 1.2726068872e-001	 2.1195133449e+000
 2.3703398968e+000	 1.4870700660e-001	 2.1032692758e+000
 2.3688925614e+000	 1.7021466604e-001	 2.0828792238e+000
 2.3672441683e+000	 1.9178124958e-001	 2.0581055761e+000
 2.3653929079e+000	 2.1340429001e-001	 2.0287511540e+000
 2.4000000000e+000	 0.0000000000e+000	 2.0966227413e+000
 2.3999059077e+000	 2.1251690574e-002	 2.1001531758e+000
 2.3996222687e+000	 4.2578956756e-002	 2.1016453057e+000
 2.3991470574e+000	 6.3979661940e-002	 2.1006472442e+000
 2.3984782719e+000	 8.5451618114e-002	 2.0967399765e+000
 2.3976139361e+000	 1.0699258595e-001	 2.0895389108e+000
 2.3965521003e+000	 1.2860027492e-001	 2.0786954022e+000
 2.3952908430e+000	 1.5027234351e-001	 2.0638982431e+000
 2.3938282726e+000	 1.7200639936e-001	 2.0448751164e+000
 2.3921625279e+000	 1.9379999957e-001	 2.0213940068e+000
 2.3902917807e+000	 2.1565065096e-001	 1.9932645659e+000
 2.4250000000e+000	 0.0000000000e+000	 2.0459200329e+000
 2.4249049275e+000	 2.1473062351e-002	 2.0521619227e+000
 2.4246183340e+000	 4.3022487557e-002	 2.0562201498e+000
 2.4241381725e+000	 6.4646116755e-002	 2.0576408566e+000
 2.4234624206e+000	 8.6341739139e-002	 2.0560041536e+000
 2.4225890813e+000	 1.0810709205e-001	 2.0509257073e+000
 2.4215161846e+000	 1.2993986112e-001	 2.0420582976e+000
 2.4202417893e+000	 1.5183768043e-001	 2.0290933414e+000
 2.4187639837e+000	 1.7379813269e-001	 2.0117623765e+000
 2.4170808876e+000	 1.9581874957e-001	 1.9898385030e+000
 2.4151906534e+000	 2.1789701191e-001	 1.9631377751e+000
 2.4500000000e+000	 0.0000000000e+000	 1.9958966823e+000
 2.4499039474e+000	 2.1694434129e-002	 2.0055703252e+000
 2.4496143993e+000	 4.3466018359e-002	 2.0128588411e+000
 2.4491292877e+000	 6.5312571569e-002	 2.0173056276e+000
 2.4484465693e+000	 8.7231860164e-002	 2.0184891931e+000
 2.4475642264e+000	 1.0922159816e-001	 2.0160247815e+000
 2.4464802690e+000	 1.3127944732e-001	 2.0095659656e+000
 2.4451927356e+000	 1.5340301734e-001	 1.9988062053e+000
 2.4436996949e+000	 1.7558986602e-001	 1.9834803649e+000
 2.4419992473e+000	 1.9783749957e-001	 1.9633661849e+000
 2.4400895261e+000	 2.2014337286e-001	 1.9382857040e+000
 2.4750000000e+000	 0.0000000000e+000	 1.9465890508e+000
 2.4749029673e+000	 2.1915805907e-002	 1.9604028319e+000
 2.4746104646e+000	 4.3909549161e-002	 1.9715738797e+000
 2.4741204029e+000	 6.5979026384e-002	 1.9796420789e+000
 2.4734307179e+000	 8.8121981189e-002	 1.9841836131e+000
 2.4725393716e+000	 1.1033610427e-001	 1.9848126283e+000
 2.4714443534e+000	 1.3261903353e-001	 1.9811828648e+000
 2.4701436819e+000	 1.5496835426e-001	 1.9729892510e+000
 2.4686354061e+000	 1.7738159935e-001	 1.9599694555e+000
 2.4669176069e+000	 1.9985624957e-001	 1.9419053925e+000
 2.4649883988e+000	 2.2238973381e-001	 1.9186246738e+000
 2.5000000000e+000	 0.0000000000e+000	 1.8980320448e+000
 2.4999019872e+000	 2.2137177686e-002	 1.9166828184e+000
 2.4996065299e+000	 4.4353079963e-002	 1.9323770528e+000
 2.4991115181e+000	 6.6645481200e-002	 1.9446503563e+000
 2.4984148666e+000	 8.9012102215e-002	 1.9530758700e+000
 2.4975145168e+000	 1.1145061038e-001	 1.9572659728e+000
 2.4964084378e+000	 1.3395861973e-001	 1.9568739522e+000
 2.4950946282e+000	 1.5653369117e-001	 1.9515956369e+000
 2.4935711173e+000	 1.7917333268e-001	 1.9411709850e+000
 2.4918359666e+000	 2.0187499956e-001	 1.9253856238e+000
 2.4898872715e+000	 2.2463609475e-001	 1.9040723352e+000
 2.2408985444e+000	 2.0217248527e-001	 2.2896665245e+000
 2.2389508462e+000	 2.2270857224e-001	 2.2771200545e+000
 2.2368076260e+000	 2.4329332986e-001	 2.2592801325e+000
 2.2344672684e+000	 2.6392428140e-001	 2.2360174567e+000
 2.2319281941e+000	 2.8459890447e-001	 2.2072420836e+000
 2.2291888605e+000	 3.0531463152e-001	 2.1729044172e+000
 2.2262477636e+000	 3.2606885033e-001	 2.1329961390e+000
 2.2231034390e+000	 3.4685890457e-001	 2.0875510734e+000
 2.2197544633e+000	 3.6768209441e-001	 2.0366459863e+000
 2.2161994557e+000	 3.8853567716e-001	 1.9804013112e+000
 2.2124370789e+000	 4.0941686796e-001	 1.9189818009e+000
 2.2657974171e+000	 2.0441884622e-001	 2.2260503178e+000
 2.2638280779e+000	 2.2518311194e-001	 2.2136560578e+000
 2.2616610440e+000	 2.4599658909e-001	 2.1962632727e+000
 2.2592946825e+000	 2.6685677342e-001	 2.1737530983e+000
 2.2567273962e+000	 2.8776111452e-001	 2.1460469804e+000
 2.2539576256e+000	 3.0870701632e-001	 2.1131076721e+000
 2.2509838498e+000	 3.2969183756e-001	 2.0749401710e+000
 2.2478045883e+000	 3.5071289240e-001	 2.0315925881e+000
 2.2444184018e+000	 3.7176745101e-001	 1.9831569488e+000
 2.2408238941e+000	 3.9285274024e-001	 1.9297699185e+000
 2.2370197131e+000	 4.1396594427e-001	 1.8716134510e+000
 2.2906962898e+000	 2.0666520717e-001	 2.1682430677e+000
 2.2887053095e+000	 2.2765765163e-001	 2.1561244688e+000
 2.2865144621e+000	 2.4869984831e-001	 2.1392388220e+000
 2.2841220966e+000	 2.6978926543e-001	 2.1174774199e+000
 2.2815265984e+000	 2.9092332457e-001	 2.0907728765e+000
 2.2787263907e+000	 3.1209940111e-001	 2.0591001362e+000
 2.2757199361e+000	 3.3331482478e-001	 2.0224774165e+000
 2.2725057376e+000	 3.5456688023e-001	 1.9809670845e+000
 2.2690823403e+000	 3.7585280762e-001	 1.9346764595e+000
 2.2654483325e+000	 3.9716980332e-001	 1.8837585398e+000
 2.2616023474e+000	 4.1851502058e-001	 1.8284126493e+000
 2.3155951625e+000	 2.0891156812e-001	 2.1161514818e+000
 2.3135825411e+000	 2.3013219132e-001	 2.1044216008e+000
 2.3113678802e+000	 2.5140310753e-001	 2.0880929497e+000
 2.3089495107e+000	 2.7272175745e-001	 2.0670667072e+000
 2.3063258005e+000	 2.9408553462e-001	 2.0412864466e+000
 2.3034951558e+000	 3.1549178591e-001	 2.0107391552e+000
 2.3004560224e+000	 3.3693781201e-001	 1.9754561874e+000
 2.2972068869e+000	 3.5842086805e-001	 1.9355141467e+000
 2.2937462788e+000	 3.7993816422e-001	 1.8910356931e+000
 2.2900727709e+000	 4.0148686640e-001	 1.8421902718e+000
 2.2861849816e+000	 4.2306409689e-001	 1.7891947581e+000
 2.3404940352e+000	 2.1115792906e-001	 2.0696840912e+000
 2.3384597727e+000	 2.3260673101e-001	 2.0584456772e+000
 2.3362212982e+000	 2.5410636675e-001	 2.0427137858e+000
 2.3337769248e+000	 2.7565424947e-001	 2.0223992214e+000
 2.3311250027e+000	 2.9724774467e-001	 1.9974563173e+000
 2.3282639210e+000	 3.1888417070e-001	 1.9678839674e+000
 2.3251921086e+000	 3.4056079923e-001	 1.9337265898e+000
 2.3219080362e+000	 3.6227485588e-001	 1.8950750171e+000
 2.3184102172e+000	 3.8402352083e-001	 1.8520673086e+000
 2.3146972093e+000	 4.0580392948e-001	 1.8048894821e+000
 2.3107676158e+000	 4.2761317319e-001	 1.7537761587e+000
 2.3653929079e+000	 2.1340429001e-001	 2.0287511540e+000
 2.3633370043e+000	 2.3508127071e-001	 2.0180967314e+000
 2.3610747163e+000	 2.5680962597e-001	 2.0029913184e+000
 2.3586043389e+000	 2.7858674148e-001	 1.9833550948e+000
 2.3559242049e+000	 3.0040995472e-001	 1.9591529648e+000
 2.3530326861e+000	 3.2227655550e-001	 1.9303956030e+000
 2.3499281949e+000	 3.4418378646e-001	 1.8971404294e+000
 2.3466091856e+000	 3.6612884371e-001	 1.8594925089e+000
 2.3430741557e+000	 3.8810887743e-001	 1.8176053705e+000
 2.3393216477e+000	 4.1012099256e-001	 1.7716817422e+000
 2.3353502500e+000	 4.3216224950e-001	 1.7219741978e+000
 2.3902917807e+000	 2.1565065096e-001	 1.9932645659e+000
 2.3882142360e+000	 2.3755581040e-001	 1.9832765121e+000
 2.3859281344e+000	 2.5951288519e-001	 1.9688172966e+000
 2.3834317530e+000	 2.8151923350e-001	 1.9498162336e+000
 2.3807234070e+000	 3.0357216477e-001	 1.9262486188e+000
 2.3778014512e+000	 3.2566894029e-001	 1.8981367916e+000
 2.3746642811e+000	 3.4780677368e-001	 1.8655511228e+000
 2.3713103349e+000	 3.6998283154e-001	 1.8286109241e+000
 2.3677380942e+000	 3.9219423403e-001	 1.7874852756e+000
 2.3639460861e+000	 4.1443805563e-001	 1.7423937652e+000
 2.3599328842e+000	 4.3671132581e-001	 1.6936071374e+000
 2.4151906534e+000	 2.1789701191e-001	 1.9631377751e+000
 2.4130914676e+000	 2.4003035009e-001	 1.9538883952e+000
 2.4107815524e+000	 2.6221614441e-001	 1.9400851401e+000
 2.4082591671e+000	 2.8445172551e-001	 1.9216662262e+000
 2.4055226092e+000	 3.0673437482e-001	 1.8986171716e+000
 2.4025702163e+000	 3.2906132508e-001	 1.8709718743e+000
 2.3994003674e+000	 3.5142976091e-001	 1.8388136149e+000
 2.3960114842e+000	 3.7383681936e-001	 1.8022759772e+000
 2.3924020327e+000	 3.9627959064e-001	 1.7615436847e+000
 2.3885705245e+000	 4.1875511871e-001	 1.7168533463e+000
 2.3845155184e+000	 4.4126040212e-001	 1.6684941076e+000
 2.4400895261e+000	 2.2014337286e-001	 1.9382857040e+000
 2.4379686992e+000	 2.4250488978e-001	 1.9298373007e+000
 2.4356349705e+000	 2.6491940363e-001	 1.9166898534e+000
 2.4330865812e+000	 2.8738421752e-001	 1.8987902577e+000
 2.4303218113e+000	 3.0989658487e-001	 1.8761340935e+000
 2.4273389814e+000	 3.3245370987e-001	 1.8487667214e+000
 2.4241364537e+000	 3.5505274813e-001	 1.8167843006e+000
 2.4207126335e+000	 3.7769080719e-001	 1.7803347226e+000
 2.4170659712e+000	 4.0036494724e-001	 1.7396184578e+000
 2.4131949629e+000	 4.2307218179e-001	 1.6948893081e+000
 2.4090981526e+000	 4.4580947843e-001	 1.6464550622e+000
 2.4649883988e+000	 2.2238973381e-001	 1.9186246738e+000
 2.4628459308e+000	 2.4497942947e-001	 1.9110296146e+000
 2.4604883886e+000	 2.6762266285e-001	 1.8985279461e+000
 2.4579139953e+000	 2.9031670954e-001	 1.8810750289e+000
 2.4551210135e+000	 3.1305879491e-001	 1.8586763534e+000
 2.4521077465e+000	 3.3584609467e-001	 1.8313886554e+000
 2.4488725399e+000	 3.5867573535e-001	 1.7993209517e+000
 2.4454137828e+000	 3.8154479501e-001	 1.7626354874e+000
 2.4417299097e+000	 4.0445030384e-001	 1.7215485938e+000
 2.4378194013e+000	 4.2738924487e-001	 1.6763314486e+000
 2.4336807868e+000	 4.5035855474e-001	 1.6273107371e+000
 2.4898872715e+000	 2.2463609475e-001	 1.9040723352e+000
 2.4877231625e+000	 2.4745396916e-001	 1.8973731156e+000
 2.4853418066e+000	 2.7032592207e-001	 1.8854973577e+000
 2.4827414094e+000	 2.9324920155e-001	 1.8684086810e+000
 2.4799202156e+000	 3.1622100496e-001	 1.8461223432e+000
 2.4768765117e+000	 3.3923847946e-001	 1.8187063781e+000
 2.4736086262e+000	 3.6229872257e-001	 1.7862826480e+000
 2.4701149322e+000	 3.8539878284e-001	 1.7490278076e+000
 2.4663938481e+000	 4.0853566044e-001	 1.7071741731e+000
 2.4624438397e+000	 4.3170630795e-001	 1.6610104923e+000
 2.4582634210e+000	 4.5490763105e-001	 1.6108826112e+000
 2.2124370789e+000	 4.0941686796e-001	 1.9189818009e+000
 2.2084660407e+000	 4.3032284048e-001	 1.8764066587e+000
 2.2042850952e+000	 4.5125072774e-001	 1.8302862513e+000
 2.1998930440e+000	 4.7219762289e-001	 1.7809162934e+000
 2.1952887378e+000	 4.9316058010e-001	 1.7286375768e+000
 2.1904710774e+000	 5.1413661543e-001	 1.6738361789e+000
 2.1854390149e+000	 5.3512270782e-001	 1.6169435774e+000
 2.1801915551e+000	 5.5611580005e-001	 1.5584366671e+000
 2.1747277568e+000	 5.7711279978e-001	 1.4988376784e+000
 2.1690467338e+000	 5.9811058066e-001	 1.4387139932e+000
 2.1631476559e+000	 6.1910598340e-001	 1.3786778568e+000
 2.2370197131e+000	 4.1396594427e-001	 1.8716134510e+000
 2.2330045523e+000	 4.3510420537e-001	 1.8321788602e+000
 2.2287771518e+000	 4.5626462471e-001	 1.7892313658e+000
 2.2243363000e+000	 4.7744426314e-001	 1.7430881937e+000
 2.2196808349e+000	 4.9864014209e-001	 1.6941129621e+000
 2.2148096449e+000	 5.1984924449e-001	 1.6427158788e+000
 2.2097216706e+000	 5.4106851568e-001	 1.5893538420e+000
 2.2044159057e+000	 5.6229486449e-001	 1.5345304396e+000
 2.1988913986e+000	 5.8352516422e-001	 1.4787958465e+000
 2.1931472531e+000	 6.0475625377e-001	 1.4227466166e+000
 2.1871826299e+000	 6.2598493877e-001	 1.3661953088e+000
 2.2616023474e+000	 4.1851502058e-001	 1.8284126493e+000
 2.2575430638e+000	 4.3988557026e-001	 1.7917917278e+000
 2.2532692084e+000	 4.6127852168e-001	 1.7516363445e+000
 2.2487795561e+000	 4.8269090339e-001	 1.7082856123e+000
 2.2440729320e+000	 5.0411970409e-001	 1.6621264167e+000
 2.2391482124e+000	 5.2556187355e-001	 1.6135936027e+000
 2.2340043263e+000	 5.4701432354e-001	 1.5631700615e+000
 2.2286402563e+000	 5.6847392893e-001	 1.5113867130e+000
 2.2230550403e+000	 5.8993752866e-001	 1.4588223820e+000
 2.2172477723e+000	 6.1140192689e-001	 1.4061035655e+000
 2.2112176038e+000	 6.3286389413e-001	 1.3473612426e+000
 2.2861849816e+000	 4.2306409689e-001	 1.7891947581e+000
 2.2820815754e+000	 4.4466693515e-001	 1.7550471402e+000
 2.2777612650e+000	 4.6629241865e-001	 1.7172896472e+000
 2.2732228121e+000	 4.8793754364e-001	 1.6762836686e+000
 2.2684650291e+000	 5.0959926609e-001	 1.6324398121e+000
 2.2634867799e+000	 5.3127450260e-001	 1.5862180814e+000
 2.2582869820e+000	 5.5296013141e-001	 1.5381279483e+000
 2.2528646070e+000	 5.7465299337e-001	 1.4887283189e+000
 2.2472186821e+000	 5.9634989310e-001	 1.4386273887e+000
 2.2413482916e+000	 6.1804760000e-001	 1.3884823865e+000
 2.2352525778e+000	 6.3974284950e-001	 1.3271502085e+000
 2.3107676158e+000	 4.2761317319e-001	 1.7537761587e+000
 2.3066200870e+000	 4.4944830005e-001	 1.7217479640e+000
 2.3022533216e+000	 4.7130631563e-001	 1.6859806644e+000
 2.2976660682e+000	 4.9318418390e-001	 1.6468583287e+000
 2.2928571261e+000	 5.1507882809e-001	 1.6048157563e+000
 2.2878253475e+000	 5.3698713166e-001	 1.5603386446e+000
 2.2825696377e+000	 5.5890593927e-001	 1.5139636490e+000
 2.2770889576e+000	 5.8083205782e-001	 1.4662783312e+000
 2.2713823238e+000	 6.0276225754e-001	 1.4179209946e+000
 2.2654488109e+000	 6.2469327312e-001	 1.3695804031e+000
 2.2592875518e+000	 6.4662180487e-001	 1.3056092775e+000
 2.3353502500e+000	 4.3216224950e-001	 1.7219741978e+000
 2.3311585985e+000	 4.5422966494e-001	 1.6916980021e+000
 2.3267453782e+000	 4.7632021260e-001	 1.6574996686e+000
 2.3221093242e+000	 4.9843082415e-001	 1.6197863616e+000
 2.3172492232e+000	 5.2055839009e-001	 1.5790175548e+000
 2.3121639150e+000	 5.4269976072e-001	 1.5357051897e+000
 2.3068522935e+000	 5.6485174713e-001	 1.4904137220e+000
 2.3013133082e+000	 5.8701112226e-001	 1.4437600541e+000
 2.2955459656e+000	 6.0917462198e-001	 1.3964133495e+000
 2.2895493301e+000	 6.3133894624e-001	 1.3442519034e+000
 2.2833225257e+000	 6.5350076025e-001	 1.2827850500e+000
 2.3599328842e+000	 4.3671132581e-001	 1.6936071374e+000
 2.3556971101e+000	 4.5901102983e-001	 1.6647019447e+000
 2.3512374348e+000	 4.8133410958e-001	 1.6316377679e+000
 2.3465525803e+000	 5.0367746441e-001	 1.5948452963e+000
 2.3416413203e+000	 5.2603795209e-001	 1.5548091745e+000
 2.3365024825e+000	 5.4841238978e-001	 1.5120681516e+000
 2.3311349492e+000	 5.7079755500e-001	 1.4672151157e+000
 2.3255376588e+000	 5.9319018671e-001	 1.4208970096e+000
 2.3197096073e+000	 6.1558698643e-001	 1.3738146251e+000
 2.3136498494e+000	 6.3798461936e-001	 1.3175639024e+000
 2.3073574997e+000	 6.6037971562e-001	 1.2587236797e+000
 2.3845155184e+000	 4.4126040212e-001	 1.6684941076e+000
 2.3802356217e+000	 4.6379239473e-001	 1.6405653236e+000
 2.3757294915e+000	 4.8634800655e-001	 1.6081868634e+000
 2.3709958363e+000	 5.0892410466e-001	 1.5718133836e+000
 2.3660334174e+000	 5.3151751410e-001	 1.5319552093e+000
 2.3608410500e+000	 5.5412501884e-001	 1.4891784754e+000
 2.3554176049e+000	 5.7674336287e-001	 1.4441051485e+000
 2.3497620094e+000	 5.9936925116e-001	 1.3974129266e+000
 2.3438732491e+000	 6.2199935087e-001	 1.3498350126e+000
 2.3377503686e+000	 6.4463029248e-001	 1.2898013323e+000
 2.3313924736e+000	 6.6725867099e-001	 1.2334708974e+000
 2.4090981526e+000	 4.4580947843e-001	 1.6464550622e+000
 2.4047741332e+000	 4.6857375962e-001	 1.6190944693e+000
 2.4002215481e+000	 4.9136190353e-001	 1.5869396086e+000
 2.3954390923e+000	 5.1417074492e-001	 1.5504695586e+000
 2.3904255145e+000	 5.3699707610e-001	 1.5102208485e+000
 2.3851796176e+000	 5.5983764791e-001	 1.4667875904e+000
 2.3797002606e+000	 5.8268917073e-001	 1.4208214900e+000
 2.3739863600e+000	 6.0554831560e-001	 1.3730317298e+000
 2.3680368908e+000	 6.2841171532e-001	 1.3218378444e+000
 2.3618508879e+000	 6.5127596560e-001	 1.2610018690e+000
 2.3554274476e+000	 6.7413762637e-001	 1.2070720320e+000
 2.4336807868e+000	 4.5035855474e-001	 1.6273107371e+000
 2.4293126448e+000	 4.7335512452e-001	 1.6000964707e+000
 2.4247136047e+000	 4.9637580050e-001	 1.5676893711e+000
 2.4198823484e+000	 5.1941738517e-001	 1.5305934067e+000
 2.4148176116e+000	 5.4247663810e-001	 1.4893718465e+000
 2.4095181851e+000	 5.6555027697e-001	 1.4446473855e+000
 2.4039829163e+000	 5.8863497860e-001	 1.3971021431e+000
 2.3982107106e+000	 6.1172738005e-001	 1.3474775305e+000
 2.3922005325e+000	 6.3482407976e-001	 1.2906604132e+000
 2.3859514072e+000	 6.5792163873e-001	 1.2312030177e+000
 2.3794624215e+000	 6.8101658174e-001	 1.1795720312e+000
 2.4582634210e+000	 4.5490763105e-001	 1.6108826112e+000
 2.4538511564e+000	 4.7813648941e-001	 1.5833791371e+000
 2.4492056613e+000	 5.0138969748e-001	 1.5502301974e+000
 2.4443256044e+000	 5.2466402543e-001	 1.5119651304e+000
 2.4392097087e+000	 5.4795620010e-001	 1.4691744945e+000
 2.4338567526e+000	 5.7126290603e-001	 1.4225101864e+000
 2.4282655721e+000	 5.9458078647e-001	 1.3726854276e+000
 2.4224350612e+000	 6.1790644450e-001	 1.3204746169e+000
 2.4163641743e+000	 6.4123644421e-001	 1.2586053901e+000
 2.4100519264e+000	 6.6456731185e-001	 1.2004421210e+000
 2.4034973955e+000	 6.8789553712e-001	 1.1510154802e+000
 2.1631476559e+000	 6.1910598340e-001	 1.3786778568e+000
 2.1570297506e+000	 6.4009581698e-001	 1.3114549770e+000
 2.1506923038e+000	 6.6107685984e-001	 1.2395335609e+000
 2.1441346607e+000	 6.8204586113e-001	 1.1678078326e+000
 2.1373562277e+000	 7.0299954197e-001	 1.0962385372e+000
 2.1303564724e+000	 7.2393459685e-001	 1.0247799566e+000
 2.1231349254e+000	 7.4484769492e-001	 9.5337995698e-001
 2.1156911808e+000	 7.6573548144e-001	 8.8198005310e-001
 2.1080248974e+000	 7.8659457923e-001	 8.1051548814e-001
 2.1001357994e+000	 8.0742159012e-001	 7.3891532975e-001
 2.0920236774e+000	 8.2821309651e-001	 6.6710258239e-001
 2.1871826299e+000	 6.2598493877e-001	 1.3661953088e+000
 2.1809967479e+000	 6.4720799272e-001	 1.2971349377e+000
 2.1745888849e+000	 6.6842215828e-001	 1.2277088298e+000
 2.1679583792e+000	 6.8962414847e-001	 1.1578776741e+000
 2.1611046302e+000	 7.1081064799e-001	 1.0875959756e+000
 2.1540270999e+000	 7.3197831459e-001	 1.0168121018e+000
 2.1467253135e+000	 7.5312378041e-001	 9.4546834624e-001
 2.1391988606e+000	 7.7424365345e-001	 8.7350100692e-001
 2.1314473962e+000	 7.9533451899e-001	 8.0084048133e-001
 2.1234706416e+000	 8.1639294112e-001	 7.2741137733e-001
 2.1152683849e+000	 8.3741546425e-001	 6.5313264032e-001
 2.2112176038e+000	 6.3286389413e-001	 1.3473612426e+000
 2.2049637451e+000	 6.5432016846e-001	 1.2815192152e+000
 2.1984854661e+000	 6.7576745672e-001	 1.2147375540e+000
 2.1917820976e+000	 6.9720243581e-001	 1.1469703383e+000
 2.1848530328e+000	 7.1862175401e-001	 1.0781657578e+000
 2.1776977274e+000	 7.4002203233e-001	 1.0082661743e+000
 2.1703157015e+000	 7.6139986591e-001	 9.3720819972e-001
 2.1627065404e+000	 7.8275182547e-001	 8.6492278946e-001
 2.1548698951e+000	 8.0407445876e-001	 7.9133535220e-001
 2.1468054838e+000	 8.2536429212e-001	 7.1636587573e-001
 2.1385130925e+000	 8.4661783199e-001	 6.3992906901e-001
 2.2352525778e+000	 6.3974284950e-001	 1.3271502085e+000
 2.2289307423e+000	 6.6143234421e-001	 1.2646552199e+000
 2.2223820472e+000	 6.8311275516e-001	 1.2006665564e+000
 2.2156058161e+000	 7.0478072316e-001	 1.1351316253e+000
 2.2086014353e+000	 7.2643286003e-001	 1.0679922222e+000
 2.2013683548e+000	 7.4806575007e-001	 9.9918460758e-001
 2.1939060896e+000	 7.6967595141e-001	 9.2863959893e-001
 2.1862142202e+000	 7.9125999748e-001	 8.5628267930e-001
 2.1782923940e+000	 8.1281439853e-001	 7.8203412186e-001
 2.1701403260e+000	 8.3433564312e-001	 7.0580913074e-001
 2.1617578000e+000	 8.5582019972e-001	 6.2751799788e-001
 2.2592875518e+000	 6.4662180487e-001	 1.3056092775e+000
 2.2528977396e+000	 6.6854451995e-001	 1.2465899793e+000
 2.2462786284e+000	 6.9045805361e-001	 1.1855424119e+000
 2.2394295346e+000	 7.1235901050e-001	 1.1224072443e+000
 2.2323498378e+000	 7.3424396605e-001	 1.0571197950e+000
 2.2250389823e+000	 7.5610946781e-001	 9.8961012311e-001
 2.2174964776e+000	 7.7795203691e-001	 9.1980313507e-001
 2.2097219000e+000	 7.9976816950e-001	 8.4761870820e-001
 2.2017148928e+000	 8.2155433830e-001	 7.7297183001e-001
 2.1934751683e+000	 8.4330699412e-001	 6.9577275392e-001
 2.1850025075e+000	 8.6502256746e-001	 6.1592717119e-001
 2.2833225257e+000	 6.5350076025e-001	 1.2827850500e+000
 2.2768647368e+000	 6.7565669569e-001	 1.2273701581e+000
 2.2701752095e+000	 6.9780335205e-001	 1.1694114612e+000
 2.2632532530e+000	 7.1993729785e-001	 1.1088428189e+000
 2.2560982403e+000	 7.4205507208e-001	 1.0455929856e+000
 2.2487096098e+000	 7.6415318556e-001	 9.7958571495e-001
 2.2410868657e+000	 7.8622812241e-001	 9.1073988211e-001
 2.2332295797e+000	 8.0827634151e-001	 8.3896962153e-001
 2.2251373917e+000	 8.3029427807e-001	 7.6418448133e-001
 2.2168100105e+000	 8.5227834513e-001	 6.8628959392e-001
 2.2082472150e+000	 8.7422493520e-001	 6.0518586301e-001
 2.3073574997e+000	 6.6037971562e-001	 1.2587236797e+000
 2.3008317340e+000	 6.8276887144e-001	 1.2070420771e+000
 2.2940717907e+000	 7.0514865049e-001	 1.1523198223e+000
 2.2870769715e+000	 7.2751558520e-001	 1.0944838911e+000
 2.2798466429e+000	 7.4986617810e-001	 1.0334563819e+000
 2.2723802372e+000	 7.7219690330e-001	 9.6915463565e-001
 2.2646772538e+000	 7.9450420791e-001	 9.0149137172e-001
 2.2567372595e+000	 8.1678451353e-001	 8.3037484107e-001
 2.2485598905e+000	 8.3903421784e-001	 7.5570899521e-001
 2.2401448527e+000	 8.6124969613e-001	 6.7739367200e-001
 2.2314919226e+000	 8.8342730294e-001	 5.9532479759e-001
 2.3313924736e+000	 6.6725867099e-001	 1.2334708974e+000
 2.3247987313e+000	 6.8988104719e-001	 1.1856517308e+000
 2.3179683718e+000	 7.1249394894e-001	 1.1343134026e+000
 2.3109006899e+000	 7.3509387254e-001	 1.0793759255e+000
 2.3035950454e+000	 7.5767728412e-001	 1.0207546469e+000
 2.2960508647e+000	 7.8024062105e-001	 9.5836038295e-001
 2.2882676418e+000	 8.0278029341e-001	 8.9209956966e-001
 2.2802449393e+000	 8.2529268555e-001	 8.2187443010e-001
 2.2719823894e+000	 8.4777415761e-001	 7.4758315862e-001
 2.2634796949e+000	 8.7022104713e-001	 6.6912012158e-001
 2.2547366301e+000	 8.9262967068e-001	 5.8637607452e-001
 2.3554274476e+000	 6.7413762637e-001	 1.2070720320e+000
 2.3487657285e+000	 6.9699322293e-001	 1.1632448043e+000
 2.3418649530e+000	 7.1983924738e-001	 1.1154379094e+000
 2.3347244084e+000	 7.4267215989e-001	 1.0635643136e+000
 2.3273434479e+000	 7.6548839015e-001	 1.0075325141e+000
 2.3197214922e+000	 7.8828433879e-001	 9.4724668721e-001
 2.3118580299e+000	 8.1105637891e-001	 8.8260685361e-001
 2.3037526191e+000	 8.3380085757e-001	 8.1350906076e-001
 2.2954048883e+000	 8.5651409738e-001	 7.3984558184e-001
 2.2868145371e+000	 8.7919239814e-001	 6.6150513157e-001
 2.2779813376e+000	 9.0183203843e-001	 5.7837309865e-001
 2.3794624215e+000	 6.8101658174e-001	 1.1795720312e+000
 2.3727327257e+000	 7.0410539868e-001	 1.1398666888e+000
 2.3657615341e+000	 7.2718454583e-001	 1.0957388598e+000
 2.3585481268e+000	 7.5025044724e-001	 1.0470943772e+000
 2.3510918505e+000	 7.7329949618e-001	 9.9383478475e-001
 2.3433921197e+000	 7.9632805654e-001	 9.3585749971e-001
 2.3354484179e+000	 8.1933246442e-001	 8.7305599238e-001
 2.3272602989e+000	 8.4230902959e-001	 8.0531998323e-001
 2.3188273871e+000	 8.6525403716e-001	 7.3253565686e-001
 2.3101493793e+000	 8.8816374914e-001	 6.5458589297e-001
 2.3012260451e+000	 9.1103440617e-001	 5.7135051413e-001
 2.4034973955e+000	 6.8789553712e-001	 1.1510154802e+000
 2.3966997229e+000	 7.1121757443e-001	 1.1155624963e+000
 2.3896581153e+000	 7.3452984428e-001	 1.0752615906e+000
 2.3823718453e+000	 7.5782873460e-001	 1.0300113718e+000
 2.3748402530e+000	 7.8111060220e-001	 9.7970632377e-001
 2.3670627471e+000	 8.0437177429e-001	 9.2423698158e-001
 2.3590388060e+000	 8.2760854992e-001	 8.6349012637e-001
 2.3507679787e+000	 8.5081720161e-001	 7.9734899685e-001
 2.3422498860e+000	 8.7399397693e-001	 7.2569351831e-001
 2.3334842215e+000	 8.9713510015e-001	 6.4840054883e-001
 2.3244707527e+000	 9.2023677391e-001	 5.6534414242e-001
 2.0920236774e+000	 8.2821309651e-001	 6.6710258239e-001
 2.0836883892e+000	 8.4896566288e-001	 6.2005442783e-001
 2.0751298605e+000	 8.6967583741e-001	 5.6824446144e-001
 2.0663480856e+000	 8.9034015358e-001	 5.1159562790e-001
 2.0573431284e+000	 9.1095513182e-001	 4.5002985109e-001
 2.0481151225e+000	 9.3151728120e-001	 3.8346826109e-001
 2.0386642723e+000	 9.5202310113e-001	 3.1183143147e-001
 2.0289908532e+000	 9.7246908310e-001	 2.3503962628e-001
 2.0190952125e+000	 9.9285171243e-001	 1.5301305635e-001
 2.0089777693e+000	 1.0131674701e+000	 6.5672144326e-002
 1.9986390154e+000	 1.0334128344e+000	-2.7062201936e-002
 2.1152683849e+000	 8.3741546425e-001	 6.5313264032e-001
 2.1068404824e+000	 8.5839861469e-001	 6.0492043501e-001
 2.0981868589e+000	 8.7933890227e-001	 5.5238846955e-001
 2.0893075088e+000	 9.0023282195e-001	 4.9545274724e-001
 2.0802024965e+000	 9.2107685550e-001	 4.3402767895e-001
 2.0708719572e+000	 9.4186747321e-001	 3.6802631622e-001
 2.0613160975e+000	 9.6260113559e-001	 2.9736059567e-001
 2.0515351960e+000	 9.8327429514e-001	 2.2194159407e-001
 2.0415296038e+000	 1.0038833981e+000	 1.4167979372e-001
 2.0312997445e+000	 1.0244248864e+000	 5.6485357629e-002
 2.0208461156e+000	 1.0448951992e+000	-3.3731586107e-002
 2.1385130925e+000	 8.4661783199e-001	 6.3992906901e-001
 2.1299925756e+000	 8.6783156650e-001	 5.9051637504e-001
 2.1212438574e+000	 8.8900196713e-001	 5.3722059227e-001
 2.1122669320e+000	 9.1012549032e-001	 4.7995058496e-001
 2.1030618646e+000	 9.3119857919e-001	 4.1861305187e-001
 2.0936287919e+000	 9.5221766522e-001	 3.5311276585e-001
 2.0839679228e+000	 9.7317917004e-001	 2.8335282561e-001
 2.0740795389e+000	 9.9407950717e-001	 2.0923491916e-001
 2.0639639950e+000	 1.0149150838e+000	 1.3065959869e-001
 2.0536217198e+000	 1.0356823027e+000	 4.7526566136e-002
 2.0430532157e+000	 1.0563775640e+000	-4.0265030988e-002
 2.1617578000e+000	 8.5582019972e-001	 6.2751799788e-001
 2.1531446689e+000	 8.7726451831e-001	 5.7687546320e-001
 2.1443008558e+000	 8.9866503199e-001	 5.2278144855e-001
 2.1352263552e+000	 9.2001815870e-001	 4.6513747802e-001
 2.1259212327e+000	 9.4132030288e-001	 4.0384233550e-001
 2.1163856266e+000	 9.6256785724e-001	 3.3879231094e-001
 2.1066197480e+000	 9.8375720450e-001	 2.6988145989e-001
 2.0966238817e+000	 1.0048847192e+000	 1.9700187565e-001
 2.0863983863e+000	 1.0259467695e+000	 1.2004397394e-001
 2.0759436950e+000	 1.0469397191e+000	 3.8896789212e-002
 2.0652603159e+000	 1.0678599288e+000	-4.6551717729e-002
 2.1850025075e+000	 8.6502256746e-001	 6.1592717119e-001
 2.1762967621e+000	 8.8669747012e-001	 5.6403236142e-001
 2.1673578543e+000	 9.0832809685e-001	 5.0911292431e-001
 2.1581857783e+000	 9.2991082707e-001	 4.5106283916e-001
 2.1487806008e+000	 9.5144202657e-001	 3.8977276845e-001
 2.1391424613e+000	 9.7291804925e-001	 3.2513031109e-001
 2.1292715733e+000	 9.9433523896e-001	 2.5702026999e-001
 2.1191682245e+000	 1.0156899312e+000	 1.8532493332e-001
 2.1088327775e+000	 1.0369784552e+000	 1.0992436924e-001
 2.0982656702e+000	 1.0581971354e+000	 3.0696733360e-002
 2.0874674161e+000	 1.0793422937e+000	-5.2481411534e-002
 2.2082472150e+000	 8.7422493520e-001	 6.0518586301e-001
 2.1994488553e+000	 8.9613042193e-001	 5.5202310220e-001
 2.1904148527e+000	 9.1799116171e-001	 4.9625810579e-001
 2.1811452015e+000	 9.3980349544e-001	 4.3777710023e-001
 2.1716399689e+000	 9.6156375025e-001	 3.7646241634e-001
 2.1618992960e+000	 9.8326824127e-001	 3.1219274989e-001
 2.1519233985e+000	 1.0049132734e+000	 2.4484343750e-001
 2.1417125673e+000	 1.0264951433e+000	 1.7428674732e-001
 2.1312671688e+000	 1.0480101409e+000	 1.0039218421e-001
 2.1205876454e+000	 1.0694545517e+000	 2.3026808687e-002
 2.1096745162e+000	 1.0908246585e+000	-5.7944430920e-002
 2.2314919226e+000	 8.8342730294e-001	 5.9532479759e-001
 2.2226009485e+000	 9.0556337374e-001	 5.4088501720e-001
 2.2134718512e+000	 9.2765422657e-001	 4.8426121702e-001
 2.2041046247e+000	 9.4969616382e-001	 4.2533165912e-001
 2.1944993369e+000	 9.7168547394e-001	 3.6397012872e-001
 2.1846561306e+000	 9.9361843328e-001	 3.0004620242e-001
 2.1745752237e+000	 1.0154913079e+000	 2.3342553271e-001
 2.1642569101e+000	 1.0373003553e+000	 1.6397014849e-001
 2.1537015600e+000	 1.0590418266e+000	 9.1538770941e-002
 2.1429096206e+000	 1.0807119681e+000	 1.5987144343e-002
 2.1318816164e+000	 1.1023070233e+000	-6.2831618900e-002
 2.2547366301e+000	 8.9262967068e-001	 5.8637607452e-001
 2.2457530417e+000	 9.1499632555e-001	 5.3065667028e-001
 2.2365288496e+000	 9.3731729143e-001	 4.7316756118e-001
 2.2270640479e+000	 9.5958883219e-001	 4.1377882997e-001
 2.2173587050e+000	 9.8180719763e-001	 3.5235549867e-001
 2.2074129653e+000	 1.0039686253e+000	 2.8875780475e-001
 2.1972270490e+000	 1.0260693423e+000	 2.2284149464e-001
 2.1868012529e+000	 1.0481055673e+000	 1.5445813434e-001
 2.1761359513e+000	 1.0700735123e+000	 8.3455436414e-002
 2.1652315958e+000	 1.0919693844e+000	 9.6776029987e-003
 2.1540887166e+000	 1.1137893881e+000	-6.7034315947e-002
 2.2779813376e+000	 9.0183203843e-001	 5.7837309865e-001
 2.2689051349e+000	 9.2442927736e-001	 5.2137779462e-001
 2.2595858481e+000	 9.4698035630e-001	 4.6302346555e-001
 2.2500234710e+000	 9.6948150057e-001	 4.0317179644e-001
 2.2402180731e+000	 9.9192892132e-001	 3.4167882487e-001
 2.2301698000e+000	 1.0143188173e+000	 2.7839522534e-001
 2.2198788742e+000	 1.0366473768e+000	 2.1316661218e-001
 2.2093455957e+000	 1.0589107794e+000	 1.4583386052e-001
 2.1985703425e+000	 1.0811051980e+000	 7.6233444839e-002
 2.1875535710e+000	 1.1032268007e+000	 4.1977944487e-003
 2.1762958168e+000	 1.1252717530e+000	-7.0444334612e-002
 2.3012260451e+000	 9.1103440617e-001	 5.7135051413e-001
 2.2920572281e+000	 9.3386222918e-001	 5.1308923370e-001
 2.2826428465e+000	 9.5664342116e-001	 4.5387622974e-001
 2.2729828942e+000	 9.7937416894e-001	 3.9356456776e-001
 2.2630774412e+000	 1.0020506450e+000	 3.3200107594e-001
 2.2529266347e+000	 1.0246690093e+000	 2.6902663813e-001
 2.2425306995e+000	 1.0472254113e+000	 2.0447650643e-001
 2.2318899385e+000	 1.0697159914e+000	 1.3818063286e-001
 2.2210047338e+000	 1.0921368837e+000	 6.9964019799e-002
 2.2098755463e+000	 1.1144842171e+000	-3.5291162332e-004
 2.1985029169e+000	 1.1367541178e+000	-7.2953935683e-002
 2.3244707527e+000	 9.2023677391e-001	 5.6534414242e-001
 2.3152093213e+000	 9.4329518099e-001	 5.0583288572e-001
 2.3056998450e+000	 9.6630648602e-001	 4.4577407716e-001
 2.2959423174e+000	 9.8926683732e-001	 3.8501193748e-001
 2.2859368093e+000	 1.0121723687e+000	 3.2338385696e-001
 2.2756834694e+000	 1.0350192013e+000	 2.6072069728e-001
 2.2651825247e+000	 1.0578034457e+000	 1.9684711409e-001
 2.2544342814e+000	 1.0805212035e+000	 1.3158189982e-001
 2.2434391250e+000	 1.1031685694e+000	 6.4738346282e-002
 2.2321975215e+000	 1.1257416334e+000	-3.8753736363e-003
 2.2207100171e+000	 1.1482364826e+000	-7.4455805774e-002
 1.9986390154e+000	 1.0334128344e+000	-2.7062201936e-002
 1.9880795152e+000	 1.0535842829e+000	-8.5668418800e-002
 1.9772999064e+000	 1.0736782945e+000	-1.4574607244e-001
 1.9663009000e+000	 1.0936913507e+000	-2.0744733937e-001
 1.9550832805e+000	 1.1136199380e+000	-2.7092703409e-001
 1.9436479059e+000	 1.1334605497e+000	-3.3634226353e-001
 1.9319957082e+000	 1.1532096875e+000	-4.0385207130e-001
 1.9201276929e+000	 1.1728638638e+000	-4.7361707246e-001
 1.9080449390e+000	 1.1924196034e+000	-5.4579907984e-001
 1.8957485995e+000	 1.2118734454e+000	-6.2056072255e-001
 1.8832399002e+000	 1.2312219451e+000	-6.9806505771e-001
 2.0208461156e+000	 1.0448951992e+000	-3.3731586107e-002
 2.0101692876e+000	 1.0652907750e+000	-9.2579628589e-002
 1.9992699054e+000	 1.0856080533e+000	-1.5284434282e-001
 1.9881486878e+000	 1.1058434768e+000	-2.1468884999e-001
 1.9768064280e+000	 1.1259934929e+000	-2.7827911605e-001
 1.9652439938e+000	 1.1460545558e+000	-3.4378358945e-001
 1.9534623272e+000	 1.1660231285e+000	-4.1137282808e-001
 1.9414624450e+000	 1.1858956845e+000	-4.8121911628e-001
 1.9292454384e+000	 1.2056687101e+000	-5.5349607290e-001
 1.9168124728e+000	 1.2253387059e+000	-6.2837825111e-001
 1.9041647880e+000	 1.2449021889e+000	-7.0604073104e-001
 2.0430532157e+000	 1.0563775640e+000	-4.0265030988e-002
 2.0322590600e+000	 1.0769972670e+000	-9.9352991594e-002
 2.0212399043e+000	 1.0975378121e+000	-1.5980381117e-001
 2.0099964756e+000	 1.1179956029e+000	-2.2179177389e-001
 1.9985295756e+000	 1.1383670478e+000	-2.8549421768e-001
 1.9868400816e+000	 1.1586485619e+000	-3.5109115482e-001
 1.9749289462e+000	 1.1788365695e+000	-4.1876488122e-001
 1.9627971972e+000	 1.1989275052e+000	-4.8869957531e-001
 1.9504459377e+000	 1.2189178168e+000	-5.6108088739e-001
 1.9378763461e+000	 1.2388039664e+000	-6.3609552037e-001
 1.9250896758e+000	 1.2585824328e+000	-7.0296785543e-001
 2.0652603159e+000	 1.0678599288e+000	-4.6551717729e-002
 2.0543488324e+000	 1.0887037590e+000	-1.0587087495e-001
 2.0432099033e+000	 1.1094675710e+000	-1.6649996640e-001
 2.0318442634e+000	 1.1301477291e+000	-2.2862466287e-001
 2.0202527232e+000	 1.1507406026e+000	-2.9243390010e-001
 2.0084361695e+000	 1.1712425680e+000	-3.5811948196e-001
 1.9963955652e+000	 1.1916500104e+000	-4.2587567164e-001
 1.9841319493e+000	 1.2119593259e+000	-4.9589877203e-001
 1.9716464370e+000	 1.2321669235e+000	-5.6838669597e-001
 1.9589402195e+000	 1.2522692269e+000	-6.4090734881e-001
 1.9460145636e+000	 1.2722626766e+000	-6.9351674995e-001
 2.0874674161e+000	 1.0793422937e+000	-5.2481411534e-002
 2.0764386048e+000	 1.1004102511e+000	-1.1201637340e-001
 2.0651799023e+000	 1.1213973298e+000	-1.7280917090e-001
 2.0536920511e+000	 1.1422998552e+000	-2.3505709024e-001
 2.0419758707e+000	 1.1631141575e+000	-2.9896089617e-001
 2.0300322573e+000	 1.1838365741e+000	-3.6472441725e-001
 2.0178621842e+000	 1.2044634514e+000	-4.3255411869e-001
 2.0054667014e+000	 1.2249911467e+000	-5.0265866371e-001
 1.9928469363e+000	 1.2454160302e+000	-5.7524846437e-001
 1.9800040928e+000	 1.2657344874e+000	-6.3261416116e-001
 1.9669394514e+000	 1.2859429204e+000	-6.8423415631e-001
 2.1096745162e+000	 1.0908246585e+000	-5.7944430920e-002
 2.0985283772e+000	 1.1121167431e+000	-1.1767327097e-001
 2.0871499012e+000	 1.1333270886e+000	-1.7860861447e-001
 2.0755398389e+000	 1.1544519813e+000	-2.4095959701e-001
 2.0636990183e+000	 1.1754877124e+000	-3.0493904876e-001
 2.0516283452e+000	 1.1964305802e+000	-3.7076306142e-001
 2.0393288031e+000	 1.2172768924e+000	-4.3865054231e-001
 2.0268014536e+000	 1.2380229674e+000	-5.0882275635e-001
 2.0140474357e+000	 1.2586651369e+000	-5.7265534205e-001
 2.0010679661e+000	 1.2791997479e+000	-6.2435575144e-001
 1.9878643392e+000	 1.2996231643e+000	-6.7508270228e-001
 2.1318816164e+000	 1.1023070233e+000	-6.2831618900e-002
 2.1206181496e+000	 1.1238232351e+000	-1.2272600508e-001
 2.1091199002e+000	 1.1452568475e+000	-1.8377627128e-001
 2.0973876267e+000	 1.1666041074e+000	-2.4620364153e-001
 2.0854221659e+000	 1.1878612672e+000	-3.1023325298e-001
 2.0732244330e+000	 1.2090245863e+000	-3.7609370423e-001
 2.0607954221e+000	 1.2300903333e+000	-4.4401659014e-001
 2.0481362057e+000	 1.2510547881e+000	-5.1328034934e-001
 2.0352479350e+000	 1.2719142436e+000	-5.6518718772e-001
 2.0221318395e+000	 1.2926650084e+000	-6.1609953218e-001
 2.0087892269e+000	 1.3133034081e+000	-6.6602691500e-001
 2.1540887166e+000	 1.1137893881e+000	-6.7034315947e-002
 2.1427079219e+000	 1.1355297272e+000	-1.2705963291e-001
 2.1310898991e+000	 1.1571866063e+000	-1.8819085944e-001
 2.1192354145e+000	 1.1787562335e+000	-2.5066155217e-001
 2.1071453134e+000	 1.2002348221e+000	-3.1470940194e-001
 2.0948205209e+000	 1.2216185925e+000	-3.8057576318e-001
 2.0822620411e+000	 1.2429037743e+000	-4.4850516901e-001
 2.0694709579e+000	 1.2640866088e+000	-5.0638099482e-001
 2.0564484343e+000	 1.2851633503e+000	-5.5760119808e-001
 2.0431957128e+000	 1.3061302689e+000	-6.0781457947e-001
 2.0297141147e+000	 1.3269836519e+000	-6.5703312311e-001
 2.1762958168e+000	 1.1252717530e+000	-7.0444334612e-002
 2.1647976943e+000	 1.1472362192e+000	-1.3055979969e-001
 2.1530598981e+000	 1.1691163651e+000	-1.9173180301e-001
 2.1410832022e+000	 1.1909083597e+000	-2.5420648292e-001
 2.1288684610e+000	 1.2126083770e+000	-3.1823433581e-001
 2.1164166087e+000	 1.2342125986e+000	-3.8406972596e-001
 2.1037286601e+000	 1.2557172153e+000	-4.4760193220e-001
 2.0908057100e+000	 1.2771184295e+000	-4.9925220043e-001
 2.0776489336e+000	 1.2984124570e+000	-5.4987061454e-001
 2.0642595861e+000	 1.3195955294e+000	-5.9947154817e-001
 2.0506390025e+000	 1.3406638958e+000	-6.4806936484e-001
 2.1985029169e+000	 1.1367541178e+000	-7.2953935683e-002
 2.1868874667e+000	 1.1589427112e+000	-1.3311270909e-001
 2.1750298971e+000	 1.1810461240e+000	-1.9427919639e-001
 2.1629309900e+000	 1.2030604858e+000	-2.5671237176e-001
 2.1505916085e+000	 1.2249819318e+000	-3.2067579397e-001
 2.1380126965e+000	 1.2468066047e+000	-3.8643709643e-001
 2.1251952790e+000	 1.2685306563e+000	-4.4072882756e-001
 2.1121404622e+000	 1.2901502502e+000	-4.9187101799e-001
 2.0988494330e+000	 1.3116615637e+000	-5.4197005461e-001
 2.0853234594e+000	 1.3330607899e+000	-5.9104259210e-001
 2.0715638903e+000	 1.3543441396e+000	-6.3910530166e-001
 2.2207100171e+000	 1.1482364826e+000	-7.4455805774e-002
 2.2089772391e+000	 1.1706492033e+000	-1.3460509522e-001
 2.1969998960e+000	 1.1929758828e+000	-1.9571377075e-001
 2.1847787778e+000	 1.2152126119e+000	-2.5805390139e-001
 2.1723147561e+000	 1.2373554867e+000	-3.2190237013e-001
 2.1596087844e+000	 1.2594006108e+000	-3.8171902901e-001
 2.1466618980e+000	 1.2813440973e+000	-4.3350316715e-001
 2.1334752143e+000	 1.3031820709e+000	-4.8421569123e-001
 2.1200499323e+000	 1.3249106704e+000	-5.3387544311e-001
 2.1063873328e+000	 1.3465260504e+000	-5.8250128914e-001
 2.0924887780e+000	 1.3680243835e+000	-6.3011213712e-001
 1.8832399002e+000	 1.2312219451e+000	-6.9806505771e-001
 1.8705201405e+000	 1.2504616763e+000	-7.8816827164e-001
 1.8575906924e+000	 1.2695892326e+000	-8.4011542945e-001
 1.8444530004e+000	 1.2886012298e+000	-8.9033889734e-001
 1.8311085811e+000	 1.3074943075e+000	-9.3889109097e-001
 1.8175590227e+000	 1.3262651314e+000	-9.8582518720e-001
 1.8038059846e+000	 1.3449103948e+000	-1.0311949334e+000
 1.7898511964e+000	 1.3634268205e+000	-1.0750544553e+000
 1.7756964577e+000	 1.3818111630e+000	-1.1174580649e+000
 1.7613436372e+000	 1.4000602100e+000	-1.1584600676e+000
 1.7467946721e+000	 1.4181707844e+000	-1.1981145702e+000
 1.9041647880e+000	 1.2449021889e+000	-7.0604073104e-001
 1.8913036977e+000	 1.2643556949e+000	-7.8334124193e-001
 1.8782305890e+000	 1.2836957796e+000	-8.5574711344e-001
 1.8649469226e+000	 1.3029190212e+000	-9.1047993824e-001
 1.8514542320e+000	 1.3220220220e+000	-9.5728754815e-001
 1.8377541230e+000	 1.3410014107e+000	-1.0020222247e+000
 1.8238482733e+000	 1.3598538436e+000	-1.0447389314e+000
 1.8097384319e+000	 1.3785760074e+000	-1.0854933810e+000
 1.7954264183e+000	 1.3971646204e+000	-1.1243418392e+000
 1.7809141221e+000	 1.4156164346e+000	-1.1613409275e+000
 1.7662035017e+000	 1.4339282376e+000	-1.1965474260e+000
 1.9250896758e+000	 1.2585824328e+000	-7.0296785543e-001
 1.9120872548e+000	 1.2782497135e+000	-7.7154293729e-001
 1.8988704856e+000	 1.2978023266e+000	-8.4148205570e-001
 1.8854408449e+000	 1.3172368126e+000	-9.1275934461e-001
 1.8717998829e+000	 1.3365497366e+000	-9.7855176856e-001
 1.8579492232e+000	 1.3557376899e+000	-1.0209545923e+000
 1.8438905620e+000	 1.3747972925e+000	-1.0608939583e+000
 1.8296256674e+000	 1.3937251943e+000	-1.0984273722e+000
 1.8151563790e+000	 1.4125180778e+000	-1.1336132537e+000
 1.8004846069e+000	 1.4311726591e+000	-1.1665107341e+000
 1.7856123314e+000	 1.4496856907e+000	-1.1971794548e+000
 1.9460145636e+000	 1.2722626766e+000	-6.9351674995e-001
 1.9328708119e+000	 1.2921437321e+000	-7.5982962502e-001
 1.9195103822e+000	 1.3119088736e+000	-8.2718716907e-001
 1.9059347671e+000	 1.3315546041e+000	-8.9555899972e-001
 1.8921455338e+000	 1.3510774511e+000	-9.6491256617e-001
 1.8781443235e+000	 1.3704739692e+000	-1.0352132001e+000
 1.8639328507e+000	 1.3897407413e+000	-1.0795295644e+000
 1.8495129029e+000	 1.4088743812e+000	-1.1137263015e+000
 1.8348863396e+000	 1.4278715351e+000	-1.1451422751e+000
 1.8200550918e+000	 1.4467288837e+000	-1.1738393215e+000
 1.8050211611e+000	 1.4654431439e+000	-1.1998801317e+000
 1.9669394514e+000	 1.2859429204e+000	-6.8423415631e-001
 1.9536543690e+000	 1.3060377508e+000	-7.4816595937e-001
 1.9401502787e+000	 1.3260154207e+000	-8.1283089731e-001
 1.9264286893e+000	 1.3458723955e+000	-8.7819411076e-001
 1.9124911847e+000	 1.3656051656e+000	-9.4421883992e-001
 1.8983394238e+000	 1.3852102484e+000	-1.0108664831e+000
 1.8839751394e+000	 1.4046841901e+000	-1.0780966587e+000
 1.8694001384e+000	 1.4240235681e+000	-1.1312612767e+000
 1.8546163002e+000	 1.4432249925e+000	-1.1588000244e+000
 1.8396255767e+000	 1.4622851082e+000	-1.1831976081e+000
 1.8244299908e+000	 1.4812005971e+000	-1.2045199581e+000
 1.9878643392e+000	 1.2996231643e+000	-6.7508270228e-001
 1.9744379261e+000	 1.3199317694e+000	-7.3651844806e-001
 1.9607901753e+000	 1.3401219677e+000	-7.9838339764e-001
 1.9469226115e+000	 1.3601901869e+000	-8.6063825114e-001
 1.9328368356e+000	 1.3801328802e+000	-9.2324207135e-001
 1.9185345240e+000	 1.3999465276e+000	-9.8615234986e-001
 1.9040174282e+000	 1.4196276390e+000	-1.0493250764e+000
 1.8892873739e+000	 1.4391727550e+000	-1.1127148111e+000
 1.8743462609e+000	 1.4585784499e+000	-1.1744587162e+000
 1.8591960615e+000	 1.4778413328e+000	-1.1944575401e+000
 1.8438388205e+000	 1.4969580502e+000	-1.2109704078e+000
 2.0087892269e+000	 1.3133034081e+000	-6.6602691500e-001
 1.9952214832e+000	 1.3338257880e+000	-7.2485535583e-001
 1.9814300719e+000	 1.3542285147e+000	-7.8381645156e-001
 1.9674165338e+000	 1.3745079784e+000	-8.4286649561e-001
 1.9531824865e+000	 1.3946605947e+000	-9.0196040234e-001
 1.9387296243e+000	 1.4146828069e+000	-9.6105178079e-001
 1.9240597169e+000	 1.4345710878e+000	-1.0200930113e+000
 1.9091746095e+000	 1.4543219419e+000	-1.0790353249e+000
 1.8940762215e+000	 1.4739319072e+000	-1.1378288851e+000
 1.8787665464e+000	 1.4933975573e+000	-1.1964228725e+000
 1.8632476502e+000	 1.5127155034e+000	-1.2191038766e+000
 2.0297141147e+000	 1.3269836519e+000	-6.5703312311e-001
 2.0160050404e+000	 1.3477198066e+000	-7.1314661379e-001
 2.0020699685e+000	 1.3683350618e+000	-7.6910338109e-001
 1.9879104560e+000	 1.3888257698e+000	-8.2485534286e-001
 1.9735281374e+000	 1.4091883092e+000	-8.8035329153e-001
 1.9589247245e+000	 1.4294190861e+000	-9.3554697537e-001
 1.9441020056e+000	 1.4495145366e+000	-9.9038518243e-001
 1.9290618450e+000	 1.4694711288e+000	-1.0448158269e+000
 1.9138061822e+000	 1.4892853646e+000	-1.0987860378e+000
 1.8983370312e+000	 1.5089537819e+000	-1.1522422494e+000
 1.8826564799e+000	 1.5284729565e+000	-1.2051302942e+000
 2.0506390025e+000	 1.3406638958e+000	-6.4806936484e-001
 2.0367885975e+000	 1.3616138253e+000	-7.0136373447e-001
 2.0227098651e+000	 1.3824416088e+000	-7.5421897017e-001
 2.0084043782e+000	 1.4031435613e+000	-8.0658264288e-001
 1.9938737883e+000	 1.4237160237e+000	-8.5840144712e-001
 1.9791198248e+000	 1.4441553653e+000	-9.0962128985e-001
 1.9641442943e+000	 1.4644579854e+000	-9.6018738172e-001
 1.9489490805e+000	 1.4846203157e+000	-1.0100443304e+000
 1.9335361428e+000	 1.5046388219e+000	-1.0591362361e+000
 1.9179075161e+000	 1.5245100065e+000	-1.1074067881e+000
 1.9020653096e+000	 1.5442304097e+000	-1.1547993639e+000
 2.0715638903e+000	 1.3543441396e+000	-6.3910530166e-001
 2.0575721546e+000	 1.3755078439e+000	-6.8947973190e-001
 2.0433497617e+000	 1.3965481558e+000	-7.3913939087e-001
 2.0288983004e+000	 1.4174613527e+000	-7.8802752872e-001
 2.0142194392e+000	 1.4382437383e+000	-8.3608676376e-001
 1.9993149250e+000	 1.4588916446e+000	-8.8325917887e-001
 1.9841865830e+000	 1.4794014343e+000	-9.2948642005e-001
 1.9688363160e+000	 1.4997695026e+000	-9.7470979681e-001
 1.9532661034e+000	 1.5199922793e+000	-1.0188703842e+000
 1.9374780009e+000	 1.5400662310e+000	-1.0619091261e+000
 1.9214741392e+000	 1.5599878628e+000	-1.1037669400e+000
 2.0924887780e+000	 1.3680243835e+000	-6.3011213712e-001
 2.0783557117e+000	 1.3894018625e+000	-6.7746904656e-001
 2.0639896582e+000	 1.4106547028e+000	-7.2384213392e-001
 2.0493922227e+000	 1.4317791441e+000	-7.6917035232e-001
 2.0345650901e+000	 1.4527714528e+000	-8.1339226323e-001
 2.0195100253e+000	 1.4736279238e+000	-8.5644614051e-001
 2.0042288717e+000	 1.4943448831e+000	-8.9827007622e-001
 1.9887235515e+000	 1.5149186895e+000	-9.3880208800e-001
 1.9729960641e+000	 1.5353457367e+000	-9.7798022783e-001
 1.9570484858e+000	 1.5556224556e+000	-1.0157426918e+000
 1.9408829689e+000	 1.5757453160e+000	-1.0520279309e+000
 1.7467946721e+000	 1.4181707844e+000	-1.1981145702e+000
 1.7320515667e+000	 1.4361397461e+000	-1.2604990226e+000
 1.7171163925e+000	 1.4539639937e+000	-1.3175347223e+000
 1.7019912862e+000	 1.4716404663e+000	-1.3692352268e+000
 1.6866784494e+000	 1.4891661453e+000	-1.4156171195e+000
 1.6711801475e+000	 1.5065380562e+000	-1.4566998751e+000
 1.6554987083e+000	 1.5237532697e+000	-1.4925057247e+000
 1.6396365210e+000	 1.5408089042e+000	-1.5230595180e+000
 1.6235960349e+000	 1.5577021267e+000	-1.5483885866e+000
 1.6073797585e+000	 1.5744301547e+000	-1.5685226063e+000
 1.5909902577e+000	 1.5909902577e+000	-1.5834934597e+000
 1.7662035017e+000	 1.4339282376e+000	-1.1965474260e+000
 1.7512965841e+000	 1.4520968544e+000	-1.2534324678e+000
 1.7361954635e+000	 1.4701191492e+000	-1.3057641978e+000
 1.7209023004e+000	 1.4879920270e+000	-1.3535572152e+000
 1.7054193211e+000	 1.5057124358e+000	-1.3968283081e+000
 1.6897488158e+000	 1.5232773679e+000	-1.4355963130e+000
 1.6738931384e+000	 1.5406838616e+000	-1.4698819741e+000
 1.6578547045e+000	 1.5579290031e+000	-1.4997078024e+000
 1.6416359909e+000	 1.5750099281e+000	-1.5250979366e+000
 1.6252395336e+000	 1.5919238231e+000	-1.5460780034e+000
 1.6086679272e+000	 1.6086679272e+000	-1.5626749811e+000
 1.7856123314e+000	 1.4496856907e+000	-1.1971794548e+000
 1.7705416015e+000	 1.4680539627e+000	-1.2483791734e+000
 1.7552745345e+000	 1.4862743046e+000	-1.2958033793e+000
 1.7398133147e+000	 1.5043435878e+000	-1.3394679073e+000
 1.7241601927e+000	 1.5222587263e+000	-1.3793899534e+000
 1.7083174841e+000	 1.5400166796e+000	-1.4155879287e+000
 1.6922875685e+000	 1.5576144535e+000	-1.4480813124e+000
 1.6760728881e+000	 1.5750491021e+000	-1.4768905081e+000
 1.6596759468e+000	 1.5923177295e+000	-1.5020367007e+000
 1.6430993087e+000	 1.6094174915e+000	-1.5235417161e+000
 1.6263455968e+000	 1.6263455968e+000	-1.5414278839e+000
 1.8050211611e+000	 1.4654431439e+000	-1.1998801317e+000
 1.7897866190e+000	 1.4840110710e+000	-1.2452114252e+000
 1.7743536055e+000	 1.5024294601e+000	-1.2875280083e+000
 1.7587243290e+000	 1.5206951485e+000	-1.3268471452e+000
 1.7429010644e+000	 1.5388050168e+000	-1.3631866436e+000
 1.7268861525e+000	 1.5567559914e+000	-1.3965647011e+000
 1.7106819986e+000	 1.5745450454e+000	-1.4269997537e+000
 1.6942910717e+000	 1.5921692010e+000	-1.4545103269e+000
 1.6777159028e+000	 1.6096255309e+000	-1.4791148900e+000
 1.6609590838e+000	 1.6269111599e+000	-1.5008317137e+000
 1.6440232663e+000	 1.6440232663e+000	-1.5196787323e+000
 1.8244299908e+000	 1.4812005971e+000	-1.2045199581e+000
 1.8090316364e+000	 1.4999681792e+000	-1.2438023445e+000
 1.7934326766e+000	 1.5185846156e+000	-1.2808144451e+000
 1.7776353433e+000	 1.5370467092e+000	-1.3155751481e+000
 1.7616419361e+000	 1.5553513073e+000	-1.3481030765e+000
 1.7454548208e+000	 1.5734953031e+000	-1.3784164267e+000
 1.7290764287e+000	 1.5914756372e+000	-1.4065328119e+000
 1.7125092552e+000	 1.6092892999e+000	-1.4324691084e+000
 1.6957558587e+000	 1.6269333323e+000	-1.4562413060e+000
 1.6788188589e+000	 1.6444048283e+000	-1.4778643645e+000
 1.6617009358e+000	 1.6617009358e+000	-1.4973520737e+000
 1.8438388205e+000	 1.4969580502e+000	-1.2109704078e+000
 1.8282766538e+000	 1.5159252875e+000	-1.2440258439e+000
 1.8125117476e+000	 1.5347397711e+000	-1.2755396361e+000
 1.7965463576e+000	 1.5533982700e+000	-1.3055324921e+000
 1.7803828077e+000	 1.5718975978e+000	-1.3340240538e+000
 1.7640234891e+000	 1.5902346148e+000	-1.3610327288e+000
 1.7474708588e+000	 1.6084062291e+000	-1.3865755273e+000
 1.7307274388e+000	 1.6264093989e+000	-1.4106679041e+000
 1.7137958146e+000	 1.6442411337e+000	-1.4333236049e+000
 1.6966786340e+000	 1.6618984966e+000	-1.4545545201e+000
 1.6793786053e+000	 1.6793786053e+000	-1.4743705443e+000
 1.8632476502e+000	 1.5127155034e+000	-1.2191038766e+000
 1.8475216712e+000	 1.5318823958e+000	-1.2457565862e+000
 1.8315908186e+000	 1.5508949266e+000	-1.2715810835e+000
 1.8154573719e+000	 1.5697498307e+000	-1.2966000917e+000
 1.7991236794e+000	 1.5884438884e+000	-1.3208344758e+000
 1.7825921574e+000	 1.6069739266e+000	-1.3443030666e+000
 1.7658652889e+000	 1.6253368210e+000	-1.3670224911e+000
 1.7489456224e+000	 1.6435294978e+000	-1.3890070091e+000
 1.7318357706e+000	 1.6615489351e+000	-1.4102683563e+000
 1.7145384091e+000	 1.6793921650e+000	-1.4308155942e+000
 1.6970562749e+000	 1.6970562749e+000	-1.4506549689e+000
 1.8826564799e+000	 1.5284729565e+000	-1.2051302942e+000
 1.8667666886e+000	 1.5478395041e+000	-1.2488699456e+000
 1.8506698896e+000	 1.5670500821e+000	-1.2688168164e+000
 1.8343683862e+000	 1.5861013914e+000	-1.2886591823e+000
 1.8178645510e+000	 1.6049901789e+000	-1.3084193361e+000
 1.8011608257e+000	 1.6237132383e+000	-1.3281167437e+000
 1.7842597190e+000	 1.6422674129e+000	-1.3477678683e+000
 1.7671638059e+000	 1.6606495967e+000	-1.3673860011e+000
 1.7498757265e+000	 1.6788567365e+000	-1.3869810999e+000
 1.7323981842e+000	 1.6968858334e+000	-1.4065596369e+000
 1.7147339444e+000	 1.7147339444e+000	-1.4261244544e+000
 1.9020653096e+000	 1.5442304097e+000	-1.1547993639e+000
 1.8860117060e+000	 1.5637966124e+000	-1.2176398267e+000
 1.8697489607e+000	 1.5832052375e+000	-1.2671253640e+000
 1.8532794005e+000	 1.6024529522e+000	-1.2815913041e+000
 1.8366054227e+000	 1.6215364694e+000	-1.2966637170e+000
 1.8197294940e+000	 1.6404525500e+000	-1.3123629162e+000
 1.8026541490e+000	 1.6591980048e+000	-1.3287054201e+000
 1.7853819895e+000	 1.6777696957e+000	-1.3457037767e+000
 1.7679156825e+000	 1.6961645380e+000	-1.3633663981e+000
 1.7502579593e+000	 1.7143795018e+000	-1.3816974042e+000
 1.7324116139e+000	 1.7324116139e+000	-1.4006964773e+000
 1.9214741392e+000	 1.5599878628e+000	-1.1037669400e+000
 1.9052567234e+000	 1.5797537207e+000	-1.1594037333e+000
 1.8888280317e+000	 1.5993603930e+000	-1.2198404102e+000
 1.8721904147e+000	 1.6188045129e+000	-1.2752782861e+000
 1.8553462943e+000	 1.6380827599e+000	-1.2854527848e+000
 1.8382981623e+000	 1.6571918618e+000	-1.2969305999e+000
 1.8210485791e+000	 1.6761285967e+000	-1.3097285238e+000
 1.8036001731e+000	 1.6948897946e+000	-1.3238585863e+000
 1.7859556384e+000	 1.7134723394e+000	-1.3393278847e+000
 1.7681177343e+000	 1.7318731702e+000	-1.3561384235e+000
 1.7500892834e+000	 1.7500892834e+000	-1.3742869660e+000
 1.9408829689e+000	 1.5757453160e+000	-1.0520279309e+000
 1.9245017408e+000	 1.5957108290e+000	-1.1003481542e+000
 1.9079071027e+000	 1.6155155485e+000	-1.1541881711e+000
 1.8911014290e+000	 1.6351560736e+000	-1.2134234718e+000
 1.8740871660e+000	 1.6546290504e+000	-1.2746717859e+000
 1.8568668306e+000	 1.6739311735e+000	-1.2817086773e+000
 1.8394430092e+000	 1.6930591885e+000	-1.2907301918e+000
 1.8218183566e+000	 1.7120098935e+000	-1.3017480660e+000
 1.8039955943e+000	 1.7307801408e+000	-1.3147683121e+000
 1.7859775094e+000	 1.7493668386e+000	-1.3297910546e+000
 1.7677669530e+000	 1.7677669530e+000	-1.3468103785e+000
 1.5909902577e+000	 1.5909902577e+000	-1.5834934597e+000
 1.5744301547e+000	 1.6073797585e+000	-1.5985785250e+000
 1.5577021267e+000	 1.6235960349e+000	-1.6129556457e+000
 1.5408089042e+000	 1.6396365210e+000	-1.6266710382e+000
 1.5237532697e+000	 1.6554987083e+000	-1.6397682097e+000
 1.5065380562e+000	 1.6711801475e+000	-1.6522878261e+000
 1.4891661453e+000	 1.6866784494e+000	-1.6642675892e+000
 1.4716404663e+000	 1.7019912862e+000	-1.6757421223e+000
 1.4539639937e+000	 1.7171163925e+000	-1.6867428645e+000
 1.4361397461e+000	 1.7320515667e+000	-1.6972979755e+000
 1.4181707844e+000	 1.7467946721e+000	-1.7074322486e+000
 1.6086679272e+000	 1.6086679272e+000	-1.5626749811e+000
 1.5919238231e+000	 1.6252395336e+000	-1.5800398650e+000
 1.5750099281e+000	 1.6416359909e+000	-1.5957781293e+000
 1.5579290031e+000	 1.6578547045e+000	-1.6099419833e+000
 1.5406838616e+000	 1.6738931384e+000	-1.6225816685e+000
 1.5232773679e+000	 1.6897488158e+000	-1.6337453153e+000
 1.5057124358e+000	 1.7054193211e+000	-1.6434788087e+000
 1.4879920270e+000	 1.7209023004e+000	-1.6518256612e+000
 1.4701191492e+000	 1.7361954635e+000	-1.6588268945e+000
 1.4520968544e+000	 1.7512965841e+000	-1.6645209297e+000
 1.4339282376e+000	 1.7662035017e+000	-1.6689434866e+000
 1.6263455968e+000	 1.6263455968e+000	-1.5414278839e+000
 1.6094174915e+000	 1.6430993087e+000	-1.5611079125e+000
 1.5923177295e+000	 1.6596759468e+000	-1.5782640742e+000
 1.5750491021e+000	 1.6760728881e+000	-1.5929546360e+000
 1.5576144535e+000	 1.6922875685e+000	-1.6052366212e+000
 1.5400166796e+000	 1.7083174841e+000	-1.6151656555e+000
 1.5222587263e+000	 1.7241601927e+000	-1.6227958210e+000
 1.5043435878e+000	 1.7398133147e+000	-1.6281795166e+000
 1.4862743046e+000	 1.7552745345e+000	-1.6313673266e+000
 1.4680539627e+000	 1.7705416015e+000	-1.6324078966e+000
 1.4496856907e+000	 1.7856123314e+000	-1.6313478189e+000
 1.6440232663e+000	 1.6440232663e+000	-1.5196787323e+000
 1.6269111599e+000	 1.6609590838e+000	-1.5417059494e+000
 1.6096255309e+000	 1.6777159028e+000	-1.5603329259e+000
 1.5921692010e+000	 1.6942910717e+000	-1.5756240536e+000
 1.5745450454e+000	 1.7106819986e+000	-1.5876431886e+000
 1.5567559914e+000	 1.7268861525e+000	-1.5964534867e+000
 1.5388050168e+000	 1.7429010644e+000	-1.6021172449e+000
 1.5206951485e+000	 1.7587243290e+000	-1.6046957499e+000
 1.5024294601e+000	 1.7743536055e+000	-1.6042491331e+000
 1.4840110710e+000	 1.7897866190e+000	-1.6008362331e+000
 1.4654431439e+000	 1.8050211611e+000	-1.5945144655e+000
 1.6617009358e+000	 1.6617009358e+000	-1.4973520737e+000
 1.6444048283e+000	 1.6788188589e+000	-1.5217553331e+000
 1.6269333323e+000	 1.6957558587e+000	-1.5419023233e+000
 1.6092892999e+000	 1.7125092552e+000	-1.5578636317e+000
 1.5914756372e+000	 1.7290764287e+000	-1.5697100013e+000
 1.5734953031e+000	 1.7454548208e+000	-1.5775121560e+000
 1.5553513073e+000	 1.7616419361e+000	-1.5813406297e+000
 1.5370467092e+000	 1.7776353433e+000	-1.5812656024e+000
 1.5185846156e+000	 1.7934326766e+000	-1.5773567418e+000
 1.4999681792e+000	 1.8090316364e+000	-1.5696830519e+000
 1.4812005971e+000	 1.8244299908e+000	-1.5583127284e+000
 1.6793786053e+000	 1.6793786053e+000	-1.4743705443e+000
 1.6618984966e+000	 1.6966786340e+000	-1.5011755969e+000
 1.6442411337e+000	 1.7137958146e+000	-1.5228881943e+000
 1.6264093989e+000	 1.7307274388e+000	-1.5395851920e+000
 1.6084062291e+000	 1.7474708588e+000	-1.5513442780e+000
 1.5902346148e+000	 1.7640234891e+000	-1.5582437856e+000
 1.5718975978e+000	 1.7803828077e+000	-1.5603625114e+000
 1.5533982700e+000	 1.7965463576e+000	-1.5577795384e+000
 1.5347397711e+000	 1.8125117476e+000	-1.5505740639e+000
 1.5159252875e+000	 1.8282766538e+000	-1.5388252347e+000
 1.4969580502e+000	 1.8438388205e+000	-1.5226119876e+000
 1.6970562749e+000	 1.6970562749e+000	-1.4506549689e+000
 1.6793921650e+000	 1.7145384091e+000	-1.4798845459e+000
 1.6615489351e+000	 1.7318357706e+000	-1.5032048443e+000
 1.6435294978e+000	 1.7489456224e+000	-1.5206990642e+000
 1.6253368210e+000	 1.7658652889e+000	-1.5324518990e+000
 1.6069739266e+000	 1.7825921574e+000	-1.5385493367e+000
 1.5884438884e+000	 1.7991236794e+000	-1.5390784658e+000
 1.5697498307e+000	 1.8154573719e+000	-1.5341272856e+000
 1.5508949266e+000	 1.8315908186e+000	-1.5237845211e+000
 1.5318823958e+000	 1.8475216712e+000	-1.5081394435e+000
 1.5127155034e+000	 1.8632476502e+000	-1.4872816967e+000
 1.7147339444e+000	 1.7147339444e+000	-1.4261244544e+000
 1.6968858334e+000	 1.7323981842e+000	-1.4577983453e+000
 1.6788567365e+000	 1.7498757265e+000	-1.4827650401e+000
 1.6606495967e+000	 1.7671638059e+000	-1.5011141626e+000
 1.6422674129e+000	 1.7842597190e+000	-1.5129374752e+000
 1.6237132383e+000	 1.8011608257e+000	-1.5183286691e+000
 1.6049901789e+000	 1.8178645510e+000	-1.5173831575e+000
 1.5861013914e+000	 1.8343683862e+000	-1.5101978735e+000
 1.5670500821e+000	 1.8506698896e+000	-1.4968710713e+000
 1.5478395041e+000	 1.8667666886e+000	-1.4775021326e+000
 1.5284729565e+000	 1.8826564799e+000	-1.4677160517e+000
 1.7324116139e+000	 1.7324116139e+000	-1.4006964773e+000
 1.7143795018e+000	 1.7502579593e+000	-1.4348316045e+000
 1.6961645380e+000	 1.7679156825e+000	-1.4614800886e+000
 1.6777696957e+000	 1.7853819895e+000	-1.4807380587e+000
 1.6591980048e+000	 1.8026541490e+000	-1.4927044131e+000
 1.6404525500e+000	 1.8197294940e+000	-1.4974805976e+000
 1.6215364694e+000	 1.8366054227e+000	-1.4951703868e+000
 1.6024529522e+000	 1.8532794005e+000	-1.4858796684e+000
 1.5832052375e+000	 1.8697489607e+000	-1.4697162316e+000
 1.5637966124e+000	 1.8860117060e+000	-1.4687487194e+000
 1.5442304097e+000	 1.9020653096e+000	-1.4713719411e+000
 1.7500892834e+000	 1.7500892834e+000	-1.3742869660e+000
 1.7318731702e+000	 1.7681177343e+000	-1.4108974556e+000
 1.7134723394e+000	 1.7859556384e+000	-1.4392599102e+000
 1.6948897946e+000	 1.8036001731e+000	-1.4594770488e+000
 1.6761285967e+000	 1.8210485791e+000	-1.4716549752e+000
 1.6571918618e+000	 1.8382981623e+000	-1.4759029448e+000
 1.6380827599e+000	 1.8553462943e+000	-1.4723331330e+000
 1.6188045129e+000	 1.8721904147e+000	-1.4610604072e+000
 1.5993603930e+000	 1.8888280317e+000	-1.4692978516e+000
 1.5797537207e+000	 1.9052567234e+000	-1.4754306969e+000
 1.5599878628e+000	 1.9214741392e+000	-1.4740179255e+000
 1.7677669530e+000	 1.7677669530e+000	-1.3468103785e+000
 1.7493668386e+000	 1.7859775094e+000	-1.3859076272e+000
 1.7307801408e+000	 1.8039955943e+000	-1.4160131084e+000
 1.7120098935e+000	 1.8218183566e+000	-1.4372362179e+000
 1.6930591885e+000	 1.8394430092e+000	-1.4496903377e+000
 1.6739311735e+000	 1.8568668306e+000	-1.4534925904e+000
 1.6546290504e+000	 1.8740871660e+000	-1.4487635959e+000
 1.6351560736e+000	 1.8911014290e+000	-1.4665976922e+000
 1.6155155485e+000	 1.9079071027e+000	-1.4778567683e+000
 1.5957108290e+000	 1.9245017408e+000	-1.4808346845e+000
 1.5757453160e+000	 1.9408829689e+000	-1.4755741051e+000
 1.4181707844e+000	 1.7467946721e+000	-1.7074322486e+000
 1.4000602100e+000	 1.7613436372e+000	-1.7156888013e+000
 1.3818111630e+000	 1.7756964577e+000	-1.7159595401e+000
 1.3634268205e+000	 1.7898511964e+000	-1.7083677771e+000
 1.3449103948e+000	 1.8038059846e+000	-1.6930399920e+000
 1.3262651314e+000	 1.8175590227e+000	-1.6701056440e+000
 1.3074943075e+000	 1.8311085811e+000	-1.6396969862e+000
 1.2886012298e+000	 1.8444530004e+000	-1.6019488831e+000
 1.2695892326e+000	 1.8575906924e+000	-1.5569986299e+000
 1.2504616763e+000	 1.8705201405e+000	-1.5049857765e+000
 1.2312219451e+000	 1.8832399002e+000	-1.5212391873e+000
 1.4339282376e+000	 1.7662035017e+000	-1.6689434866e+000
 1.4156164346e+000	 1.7809141221e+000	-1.6741327677e+000
 1.3971646204e+000	 1.7954264183e+000	-1.6720692362e+000
 1.3785760074e+000	 1.8097384319e+000	-1.6628668926e+000
 1.3598538436e+000	 1.8238482733e+000	-1.6466421510e+000
 1.3410014107e+000	 1.8377541230e+000	-1.6235136641e+000
 1.3220220220e+000	 1.8514542320e+000	-1.5936021514e+000
 1.3029190212e+000	 1.8649469226e+000	-1.5570302313e+000
 1.2836957796e+000	 1.8782305890e+000	-1.5210389228e+000
 1.2643556949e+000	 1.8913036977e+000	-1.5002258480e+000
 1.2449021889e+000	 1.9041647880e+000	-1.4880236232e+000
 1.4496856907e+000	 1.7856123314e+000	-1.6313478189e+000
 1.4311726591e+000	 1.8004846069e+000	-1.6330935313e+000
 1.4125180778e+000	 1.8151563790e+000	-1.6283070359e+000
 1.3937251943e+000	 1.8296256674e+000	-1.6170932954e+000
 1.3747972925e+000	 1.8438905620e+000	-1.5995589361e+000
 1.3557376899e+000	 1.8579492232e+000	-1.5758120849e+000
 1.3365497366e+000	 1.8717998829e+000	-1.5459622113e+000
 1.3172368126e+000	 1.8854408449e+000	-1.5328420029e+000
 1.2978023266e+000	 1.8988704856e+000	-1.5202353815e+000
 1.2782497135e+000	 1.9120872548e+000	-1.5012290023e+000
 1.2585824328e+000	 1.9250896758e+000	-1.4758874404e+000
 1.4654431439e+000	 1.8050211611e+000	-1.5945144655e+000
 1.4467288837e+000	 1.8200550918e+000	-1.5924518781e+000
 1.4278715351e+000	 1.8348863396e+000	-1.5845658681e+000
 1.4088743812e+000	 1.8495129029e+000	-1.5709526286e+000
 1.3897407413e+000	 1.8639328507e+000	-1.5517092690e+000
 1.3704739692e+000	 1.8781443235e+000	-1.5336985579e+000
 1.3510774511e+000	 1.8921455338e+000	-1.5335763257e+000
 1.3315546041e+000	 1.9059347671e+000	-1.5275651871e+000
 1.3119088736e+000	 1.9195103822e+000	-1.5157094849e+000
 1.2921437321e+000	 1.9328708119e+000	-1.4980559209e+000
 1.2722626766e+000	 1.9460145636e+000	-1.4746535214e+000
 1.4812005971e+000	 1.8244299908e+000	-1.5583127284e+000
 1.4622851082e+000	 1.8396255767e+000	-1.5520881670e+000
 1.4432249925e+000	 1.8546163002e+000	-1.5407377049e+000
 1.4240235681e+000	 1.8694001384e+000	-1.5243490275e+000
 1.4046841901e+000	 1.8839751394e+000	-1.5220627550e+000
 1.3852102484e+000	 1.8983394238e+000	-1.5263367036e+000
 1.3656051656e+000	 1.9124911847e+000	-1.5253131079e+000
 1.3458723955e+000	 1.9264286893e+000	-1.5190203043e+000
 1.3260154207e+000	 1.9401502787e+000	-1.5074884341e+000
 1.3060377508e+000	 1.9536543690e+000	-1.4907494285e+000
 1.2859429204e+000	 1.9669394514e+000	-1.4688369934e+000
 1.4969580502e+000	 1.8438388205e+000	-1.5226119876e+000
 1.4778413328e+000	 1.8591960615e+000	-1.5118823529e+000
 1.4585784499e+000	 1.8743462609e+000	-1.4967136117e+000
 1.4391727550e+000	 1.8892873739e+000	-1.5070975454e+000
 1.4196276390e+000	 1.9040174282e+000	-1.5141470169e+000
 1.3999465276e+000	 1.9185345240e+000	-1.5165071866e+000
 1.3801328802e+000	 1.9328368356e+000	-1.5141917671e+000
 1.3601901869e+000	 1.9469226115e+000	-1.5072156893e+000
 1.3401219677e+000	 1.9607901753e+000	-1.4955951047e+000
 1.3199317694e+000	 1.9744379261e+000	-1.4793473894e+000
 1.2996231643e+000	 1.9878643392e+000	-1.4584911494e+000
 1.5127155034e+000	 1.8632476502e+000	-1.4872816967e+000
 1.4933975573e+000	 1.8787665464e+000	-1.4794733661e+000
 1.4739319072e+000	 1.8940762215e+000	-1.4917511111e+000
 1.4543219419e+000	 1.9091746095e+000	-1.4999627961e+000
 1.4345710878e+000	 1.9240597169e+000	-1.5041083380e+000
 1.4146828069e+000	 1.9387296243e+000	-1.5041882397e+000
 1.3946605947e+000	 1.9531824865e+000	-1.5002036059e+000
 1.3745079784e+000	 1.9674165338e+000	-1.4921561613e+000
 1.3542285147e+000	 1.9814300719e+000	-1.4800482717e+000
 1.3338257880e+000	 1.9952214832e+000	-1.4638829662e+000
 1.3133034081e+000	 2.0087892269e+000	-1.4436639625e+000
 1.5284729565e+000	 1.8826564799e+000	-1.4677160517e+000
 1.5089537819e+000	 1.8983370312e+000	-1.4789041930e+000
 1.4892853646e+000	 1.9138061822e+000	-1.4866734664e+000
 1.4694711288e+000	 1.9290618450e+000	-1.4910126784e+000
 1.4495145366e+000	 1.9441020056e+000	-1.4919105649e+000
 1.4294190861e+000	 1.9589247245e+000	-1.4893558203e+000
 1.4091883092e+000	 1.9735281374e+000	-1.4833371298e+000
 1.3888257698e+000	 1.9879104560e+000	-1.4738432047e+000
 1.3683350618e+000	 2.0020699685e+000	-1.4608628211e+000
 1.3477198066e+000	 2.0160050404e+000	-1.4443848617e+000
 1.3269836519e+000	 2.0297141147e+000	-1.4243983596e+000
 1.5442304097e+000	 1.9020653096e+000	-1.4713719411e+000
 1.5245100065e+000	 1.9179075161e+000	-1.4771042756e+000
 1.5046388219e+000	 1.9335361428e+000	-1.4800535338e+000
 1.4846203157e+000	 1.9489490805e+000	-1.4801981535e+000
 1.4644579854e+000	 1.9641442943e+000	-1.4775158632e+000
 1.4441553653e+000	 1.9791198248e+000	-1.4719837264e+000
 1.4237160237e+000	 1.9938737883e+000	-1.4635781906e+000
 1.4031435613e+000	 2.0084043782e+000	-1.4522751391e+000
 1.3824416088e+000	 2.0227098651e+000	-1.4380499481e+000
 1.3616138253e+000	 2.0367885975e+000	-1.4208775464e+000
 1.3406638958e+000	 2.0506390025e+000	-1.4007324794e+000
 1.5599878628e+000	 1.9214741392e+000	-1.4740179255e+000
 1.5400662310e+000	 1.9374780009e+000	-1.4740031474e+000
 1.5199922793e+000	 1.9532661034e+000	-1.4718307698e+000
 1.4997695026e+000	 1.9688363160e+000	-1.4674690252e+000
 1.4794014343e+000	 1.9841865830e+000	-1.4608848023e+000
 1.4588916446e+000	 1.9993149250e+000	-1.4520437056e+000
 1.4382437383e+000	 2.0142194392e+000	-1.4409101199e+000
 1.4174613527e+000	 2.0288983004e+000	-1.4274472798e+000
 1.3965481558e+000	 2.0433497617e+000	-1.4116173438e+000
 1.3755078439e+000	 2.0575721546e+000	-1.3933814730e+000
 1.3543441396e+000	 2.0715638903e+000	-1.3726999137e+000
 1.5757453160e+000	 1.9408829689e+000	-1.4755741051e+000
 1.5556224556e+000	 1.9570484858e+000	-1.4695300308e+000
 1.5353457367e+000	 1.9729960641e+000	-1.4619439333e+000
 1.5149186895e+000	 1.9887235515e+000	-1.4527739980e+000
 1.4943448831e+000	 2.0042288717e+000	-1.4419764358e+000
 1.4736279238e+000	 2.0195100253e+000	-1.4295055577e+000
 1.4527714528e+000	 2.0345650901e+000	-1.4153138554e+000
 1.4317791441e+000	 2.0493922227e+000	-1.3993520873e+000
 1.4106547028e+000	 2.0639896582e+000	-1.3815693702e+000
 1.3894018625e+000	 2.0783557117e+000	-1.3619132765e+000
 1.3680243835e+000	 2.0924887780e+000	-1.3403299352e+000
 1.2312219451e+000	 1.8832399002e+000	-1.5212391873e+000
 1.2118734454e+000	 1.8957485995e+000	-1.5171383371e+000
 1.1924196034e+000	 1.9080449390e+000	-1.5076182195e+000
 1.1728638638e+000	 1.9201276929e+000	-1.4925420196e+000
 1.1532096875e+000	 1.9319957082e+000	-1.4717825001e+000
 1.1334605497e+000	 1.9436479059e+000	-1.4452221197e+000
 1.1136199380e+000	 1.9550832805e+000	-1.4127531294e+000
 1.0936913507e+000	 1.9663009000e+000	-1.3742776466e+000
 1.0736782945e+000	 1.9772999064e+000	-1.3297077081e+000
 1.0535842829e+000	 1.9880795152e+000	-1.2789653013e+000
 1.0334128344e+000	 1.9986390154e+000	-1.2219823730e+000
 1.2449021889e+000	 1.9041647880e+000	-1.4880236232e+000
 1.2253387059e+000	 1.9168124728e+000	-1.4870106505e+000
 1.2056687101e+000	 1.9292454384e+000	-1.4800548627e+000
 1.1858956845e+000	 1.9414624450e+000	-1.4670293397e+000
 1.1660231285e+000	 1.9534623272e+000	-1.4478173271e+000
 1.1460545558e+000	 1.9652439938e+000	-1.4223123410e+000
 1.1259934929e+000	 1.9768064280e+000	-1.3904182488e+000
 1.1058434768e+000	 1.9881486878e+000	-1.3520493280e+000
 1.0856080533e+000	 1.9992699054e+000	-1.3071303020e+000
 1.0652907750e+000	 2.0101692876e+000	-1.2555963536e+000
 1.0448951992e+000	 2.0208461156e+000	-1.1973931161e+000
 1.2585824328e+000	 1.9250896758e+000	-1.4758874404e+000
 1.2388039664e+000	 1.9378763461e+000	-1.4521761082e+000
 1.2189178168e+000	 1.9504459377e+000	-1.4482883517e+000
 1.1989275052e+000	 1.9627971972e+000	-1.4378165665e+000
 1.1788365695e+000	 1.9749289462e+000	-1.4206541425e+000
 1.1586485619e+000	 1.9868400816e+000	-1.3967053227e+000
 1.1383670478e+000	 1.9985295756e+000	-1.3658852696e+000
 1.1179956029e+000	 2.0099964756e+000	-1.3281201086e+000
 1.0975378121e+000	 2.0212399043e+000	-1.2833469467e+000
 1.0769972670e+000	 2.0322590600e+000	-1.2315138688e+000
 1.0563775640e+000	 2.0430532157e+000	-1.1725799112e+000
 1.2722626766e+000	 1.9460145636e+000	-1.4746535214e+000
 1.2522692269e+000	 1.9589402195e+000	-1.4197602254e+000
 1.2321669235e+000	 1.9716464370e+000	-1.4126094907e+000
 1.2119593259e+000	 1.9841319493e+000	-1.4051788196e+000
 1.1916500104e+000	 1.9963955652e+000	-1.3905520538e+000
 1.1712425680e+000	 2.0084361695e+000	-1.3686438405e+000
 1.1507406026e+000	 2.0202527232e+000	-1.3393803241e+000
 1.1301477291e+000	 2.0318442634e+000	-1.3026991734e+000
 1.1094675710e+000	 2.0432099033e+000	-1.2585495845e+000
 1.0887037590e+000	 2.0543488324e+000	-1.2068922600e+000
 1.0678599288e+000	 2.0652603159e+000	-1.1476993638e+000
 1.2859429204e+000	 1.9669394514e+000	-1.4688369934e+000
 1.2657344874e+000	 1.9800040928e+000	-1.4168385686e+000
 1.2454160302e+000	 1.9928469363e+000	-1.3733044667e+000
 1.2249911467e+000	 2.0054667014e+000	-1.3693872678e+000
 1.2044634514e+000	 2.0178621842e+000	-1.3577668924e+000
 1.1838365741e+000	 2.0300322573e+000	-1.3383680769e+000
 1.1631141575e+000	 2.0419758707e+000	-1.3111276415e+000
 1.1422998552e+000	 2.0536920511e+000	-1.2759945020e+000
 1.1213973298e+000	 2.0651799023e+000	-1.2329296572e+000
 1.1004102511e+000	 2.0764386048e+000	-1.1819061502e+000
 1.0793422937e+000	 2.0874674161e+000	-1.1229090065e+000
 1.2996231643e+000	 1.9878643392e+000	-1.4584911494e+000
 1.2791997479e+000	 2.0010679661e+000	-1.4098395082e+000
 1.2586651369e+000	 2.0140474357e+000	-1.3559018626e+000
 1.2380229674e+000	 2.0268014536e+000	-1.3307093371e+000
 1.2172768924e+000	 2.0393288031e+000	-1.3225513866e+000
 1.1964305802e+000	 2.0516283452e+000	-1.3061157582e+000
 1.1754877124e+000	 2.0636990183e+000	-1.2813496487e+000
 1.1544519813e+000	 2.0755398389e+000	-1.2482129325e+000
 1.1333270886e+000	 2.0871499012e+000	-1.2066781317e+000
 1.1121167431e+000	 2.0985283772e+000	-1.1567303614e+000
 1.0908246585e+000	 2.1096745162e+000	-1.0983672499e+000
 1.3133034081e+000	 2.0087892269e+000	-1.4436639625e+000
 1.2926650084e+000	 2.0221318395e+000	-1.3987982437e+000
 1.2719142436e+000	 2.0352479350e+000	-1.3483266712e+000
 1.2510547881e+000	 2.0481362057e+000	-1.2923689588e+000
 1.2300903333e+000	 2.0607954221e+000	-1.2851553227e+000
 1.2090245863e+000	 2.0732244330e+000	-1.2721222814e+000
 1.1878612672e+000	 2.0854221659e+000	-1.2502670638e+000
 1.1666041074e+000	 2.0973876267e+000	-1.2195602205e+000
 1.1452568475e+000	 2.1091199002e+000	-1.1799855254e+000
 1.1238232351e+000	 2.1206181496e+000	-1.1315399043e+000
 1.1023070233e+000	 2.1318816164e+000	-1.0742333373e+000
 1.3269836519e+000	 2.0297141147e+000	-1.4243983596e+000
 1.3061302689e+000	 2.0431957128e+000	-1.3837454815e+000
 1.2851633503e+000	 2.0564484343e+000	-1.3371742316e+000
 1.2640866088e+000	 2.0694709579e+000	-1.2848173066e+000
 1.2429037743e+000	 2.0822620411e+000	-1.2458256969e+000
 1.2216185925e+000	 2.0948205209e+000	-1.2366208353e+000
 1.2002348221e+000	 2.1071453134e+000	-1.2180989841e+000
 1.1787562335e+000	 2.1192354145e+000	-1.1902410950e+000
 1.1571866063e+000	 2.1310898991e+000	-1.1530419290e+000
 1.1355297272e+000	 2.1427079219e+000	-1.1065099684e+000
 1.1137893881e+000	 2.1540887166e+000	-1.0506673017e+000
 1.3406638958e+000	 2.0506390025e+000	-1.4007324794e+000
 1.3195955294e+000	 2.0642595861e+000	-1.3647076639e+000
 1.2984124570e+000	 2.0776489336e+000	-1.3224591589e+000
 1.2771184295e+000	 2.0908057100e+000	-1.2741324020e+000
 1.2557172153e+000	 2.1037286601e+000	-1.2198741579e+000
 1.2342125986e+000	 2.1164166087e+000	-1.1998425126e+000
 1.2126083770e+000	 2.1288684610e+000	-1.1850629689e+000
 1.1909083597e+000	 2.1410832022e+000	-1.1604593108e+000
 1.1691163651e+000	 2.1530598981e+000	-1.1260370283e+000
 1.1472362192e+000	 2.1647976943e+000	-1.0818159130e+000
 1.1252717530e+000	 2.1762958168e+000	-1.0278299252e+000
 1.3543441396e+000	 2.0715638903e+000	-1.3726999137e+000
 1.3330607899e+000	 2.0853234594e+000	-1.3417071849e+000
 1.3116615637e+000	 2.0988494330e+000	-1.3041925245e+000
 1.2901502502e+000	 2.1121404622e+000	-1.2603138753e+000
 1.2685306563e+000	 2.1251952790e+000	-1.2102306160e+000
 1.2468066047e+000	 2.1380126965e+000	-1.1620164158e+000
 1.2249819318e+000	 2.1505916085e+000	-1.1513751173e+000
 1.2030604858e+000	 2.1629309900e+000	-1.1304176978e+000
 1.1810461240e+000	 2.1750298971e+000	-1.0991601249e+000
 1.1589427112e+000	 2.1868874667e+000	-1.0576332586e+000
 1.1367541178e+000	 2.1985029169e+000	-1.0058827017e+000
 1.3680243835e+000	 2.0924887780e+000	-1.3403299352e+000
 1.3465260504e+000	 2.1063873328e+000	-1.3147625923e+000
 1.3249106704e+000	 2.1200499323e+000	-1.2823820337e+000
 1.3031820709e+000	 2.1334752143e+000	-1.2433584764e+000
 1.2813440973e+000	 2.1466618980e+000	-1.1978636782e+000
 1.2594006108e+000	 2.1596087844e+000	-1.1460707979e+000
 1.2373554867e+000	 2.1723147561e+000	-1.1172501411e+000
 1.2152126119e+000	 2.1847787778e+000	-1.1003182072e+000
 1.1929758828e+000	 2.1969998960e+000	-1.0726001550e+000
 1.1706492033e+000	 2.2089772391e+000	-1.0341376788e+000
 1.1482364826e+000	 2.2207100171e+000	-9.8498780059e-001
 1.0334128344e+000	 1.9986390154e+000	-1.2219823730e+000
 1.0131674701e+000	 2.0089777693e+000	-1.2055922712e+000
 9.9285171243e-001	 2.0190952125e+000	-1.1822380647e+000
 9.7246908310e-001	 2.0289908532e+000	-1.1519520722e+000
 9.5202310113e-001	 2.0386642723e+000	-1.1147760536e+000
 9.3151728120e-001	 2.0481151225e+000	-1.0707610474e+000
 9.1095513182e-001	 2.0573431284e+000	-1.0199671907e+000
 8.9034015358e-001	 2.0663480856e+000	-9.6246352306e-001
 8.6967583741e-001	 2.0751298605e+000	-8.9832777408e-001
 8.4896566288e-001	 2.0836883892e+000	-8.2764613700e-001
 8.2821309651e-001	 2.0920236774e+000	-7.5051302751e-001
 1.0448951992e+000	 2.0208461156e+000	-1.1973931161e+000
 1.0244248864e+000	 2.0312997445e+000	-1.1821354938e+000
 1.0038833981e+000	 2.0415296038e+000	-1.1602358564e+000
 9.8327429514e-001	 2.0515351960e+000	-1.1317197261e+000
 9.6260113559e-001	 2.0613160975e+000	-1.0966220274e+000
 9.4186747321e-001	 2.0708719572e+000	-1.0549869306e+000
 9.2107685550e-001	 2.0802024965e+000	-1.0068676783e+000
 9.0023282195e-001	 2.0893075088e+000	-9.5232639436e-001
 8.7933890227e-001	 2.0981868589e+000	-8.9143387799e-001
 8.5839861469e-001	 2.1068404824e+000	-8.2426938189e-001
 8.3741546425e-001	 2.1152683849e+000	-7.5092037623e-001
 1.0563775640e+000	 2.0430532157e+000	-1.1725799112e+000
 1.0356823027e+000	 2.0536217198e+000	-1.1582968476e+000
 1.0149150838e+000	 2.0639639950e+000	-1.1376756246e+000
 9.9407950717e-001	 2.0740795389e+000	-1.1107350916e+000
 9.7317917004e-001	 2.0839679228e+000	-1.0775034773e+000
 9.5221766522e-001	 2.0936287919e+000	-1.0380182399e+000
 9.3119857919e-001	 2.1030618646e+000	-9.9232589854e-001
 9.1012549032e-001	 2.1122669320e+000	-9.4048184871e-001
 8.8900196713e-001	 2.1212438574e+000	-8.8255016076e-001
 8.6783156650e-001	 2.1299925756e+000	-8.1860336317e-001
 8.4661783199e-001	 2.1385130925e+000	-7.4872221106e-001
 1.0678599288e+000	 2.0652603159e+000	-1.1476993638e+000
 1.0469397191e+000	 2.0759436950e+000	-1.1342356486e+000
 1.0259467695e+000	 2.0863983863e+000	-1.1147196156e+000
 1.0048847192e+000	 2.0966238817e+000	-1.0891635617e+000
 9.8375720450e-001	 2.1066197480e+000	-1.0575891568e+000
 9.6256785724e-001	 2.1163856266e+000	-1.0200272995e+000
 9.4132030288e-001	 2.1259212327e+000	-9.7651795429e-001
 9.2001815870e-001	 2.1352263552e+000	-9.2710997173e-001
 8.9866503199e-001	 2.1443008558e+000	-8.7186089199e-001
 8.7726451831e-001	 2.1531446689e+000	-8.1083673248e-001
 8.5582019972e-001	 2.1617578000e+000	-7.4411176048e-001
 1.0793422937e+000	 2.0874674161e+000	-1.1229090065e+000
 1.0581971354e+000	 2.0982656702e+000	-1.1101119784e+000
 1.0369784552e+000	 2.1088327775e+000	-1.0915306642e+000
 1.0156899312e+000	 2.1191682245e+000	-1.0671709264e+000
 9.9433523896e-001	 2.1292715733e+000	-1.0370480099e+000
 9.7291804925e-001	 2.1391424613e+000	-1.0011864037e+000
 9.5144202657e-001	 2.1487806008e+000	-9.5961968307e-001
 9.2991082707e-001	 2.1581857783e+000	-9.1239033447e-001
 9.0832809685e-001	 2.1673578543e+000	-8.5954956355e-001
 8.8669747012e-001	 2.1762967621e+000	-8.0115708675e-001
 8.6502256746e-001	 2.1850025075e+000	-7.3728090776e-001
 1.0908246585e+000	 2.1096745162e+000	-1.0983672499e+000
 1.0694545517e+000	 2.1205876454e+000	-1.0860866431e+000
 1.0480101409e+000	 2.1312671688e+000	-1.0682721628e+000
 1.0264951433e+000	 2.1417125673e+000	-1.0449233517e+000
 1.0049132734e+000	 2.1519233985e+000	-1.0160491613e+000
 9.8326824127e-001	 2.1618992960e+000	-9.8166781819e-001
 9.6156375025e-001	 2.1716399689e+000	-9.4180667113e-001
 9.3980349544e-001	 2.1811452015e+000	-8.9650202058e-001
 9.1799116171e-001	 2.1904148527e+000	-8.4579893048e-001
 8.9613042193e-001	 2.1994488553e+000	-7.8975102371e-001
 8.7422493520e-001	 2.2082472150e+000	-7.2842026174e-001
 1.1023070233e+000	 2.1318816164e+000	-1.0742333373e+000
 1.0807119681e+000	 2.1429096206e+000	-1.0623211366e+000
 1.0590418266e+000	 2.1537015600e+000	-1.0451080322e+000
 1.0373003553e+000	 2.1642569101e+000	-1.0225873601e+000
 1.0154913079e+000	 2.1745752237e+000	-9.9476190699e-001
 9.9361843328e-001	 2.1846561306e+000	-9.6164378158e-001
 9.7168547394e-001	 2.1944993369e+000	-9.2325426653e-001
 9.4969616382e-001	 2.2041046247e+000	-8.7962365162e-001
 9.2765422657e-001	 2.2134718512e+000	-8.3079104942e-001
 9.0556337374e-001	 2.2226009485e+000	-7.7680419394e-001
 8.8342730294e-001	 2.2314919226e+000	-7.1771922322e-001
 1.1137893881e+000	 2.1540887166e+000	-1.0506673017e+000
 1.0919693844e+000	 2.1652315958e+000	-1.0389776041e+000
 1.0700735123e+000	 2.1761359513e+000	-1.0222026947e+000
 1.0481055673e+000	 2.1868012529e+000	-1.0003298122e+000
 1.0260693423e+000	 2.1972270490e+000	-9.7335570518e-001
 1.0039686253e+000	 2.2074129653e+000	-9.4128650682e-001
 9.8180719763e-001	 2.2173587050e+000	-9.0413759136e-001
 9.5958883219e-001	 2.2270640479e+000	-8.6193341094e-001
 9.3731729143e-001	 2.2365288496e+000	-8.1470731456e-001
 9.1499632555e-001	 2.2457530417e+000	-7.6250134967e-001
 8.9262967068e-001	 2.2547366301e+000	-7.0536604721e-001
 1.1252717530e+000	 2.1762958168e+000	-1.0278299252e+000
 1.1032268007e+000	 2.1875535710e+000	-1.0162188100e+000
 1.0811051980e+000	 2.1985703425e+000	-9.9972104798e-001
 1.0589107794e+000	 2.2093455957e+000	-9.7831788941e-001
 1.0366473768e+000	 2.2198788742e+000	-9.5200016833e-001
 1.0143188173e+000	 2.2301698000e+000	-9.2076818254e-001
 9.9192892132e-001	 2.2402180731e+000	-8.8463155335e-001
 9.6948150057e-001	 2.2500234710e+000	-8.4360906599e-001
 9.4698035630e-001	 2.2595858481e+000	-7.9772849147e-001
 9.2442927736e-001	 2.2689051349e+000	-7.4702639065e-001
 9.0183203843e-001	 2.2779813376e+000	-6.9154790143e-001
 1.1367541178e+000	 2.1985029169e+000	-1.0058827017e+000
 1.1144842171e+000	 2.2098755463e+000	-9.9420810545e-001
 1.0921368837e+000	 2.2210047338e+000	-9.7782844176e-001
 1.0697159914e+000	 2.2318899385e+000	-9.5671907774e-001
 1.0472254113e+000	 2.2425306995e+000	-9.3086505518e-001
 1.0246690093e+000	 2.2529266347e+000	-9.0026097420e-001
 1.0020506450e+000	 2.2630774412e+000	-8.6491085663e-001
 9.7937416894e-001	 2.2729828942e+000	-8.2482798936e-001
 9.5664342116e-001	 2.2826428465e+000	-7.8003474882e-001
 9.3386222918e-001	 2.2920572281e+000	-7.3056240716e-001
 9.1103440617e-001	 2.3012260451e+000	-6.7645092116e-001
 1.1482364826e+000	 2.2207100171e+000	-9.8498780059e-001
 1.1257416334e+000	 2.2321975215e+000	-9.7310939995e-001
 1.1031685694e+000	 2.2434391250e+000	-9.5669065465e-001
 1.0805212035e+000	 2.2544342814e+000	-9.3570115268e-001
 1.0578034457e+000	 2.2651825247e+000	-9.1012026346e-001
 1.0350192013e+000	 2.2756834694e+000	-8.7993702532e-001
 1.0121723687e+000	 2.2859368093e+000	-8.4515001195e-001
 9.8926683732e-001	 2.2959423174e+000	-8.0576717851e-001
 9.6630648602e-001	 2.3056998450e+000	-7.6180568825e-001
 9.4329518099e-001	 2.3152093213e+000	-7.1329172053e-001
 9.2023677391e-001	 2.3244707527e+000	-6.6026026093e-001
 8.2821309651e-001	 2.0920236774e+000	-7.5051302751e-001
 8.0742159012e-001	 2.1001357994e+000	-7.0379081475e-001
 7.8659457923e-001	 2.1080248974e+000	-6.5798264697e-001
 7.6573548144e-001	 2.1156911808e+000	-6.1310741453e-001
 7.4484769492e-001	 2.1231349254e+000	-5.6918580670e-001
 7.2393459685e-001	 2.1303564724e+000	-5.2624019237e-001
 7.0299954197e-001	 2.1373562277e+000	-4.8429449542e-001
 6.8204586113e-001	 2.1441346607e+000	-4.4337406549e-001
 6.6107685984e-001	 2.1506923038e+000	-4.0350554443e-001
 6.4009581698e-001	 2.1570297506e+000	-3.6471672927e-001
 6.1910598340e-001	 2.1631476559e+000	-2.8817020048e-001
 8.3741546425e-001	 2.1152683849e+000	-7.5092037623e-001
 8.1639294112e-001	 2.1234706416e+000	-7.0657336219e-001
 7.9533451899e-001	 2.1314473962e+000	-6.6212220881e-001
 7.7424365345e-001	 2.1391988606e+000	-6.1761442726e-001
 7.5312378041e-001	 2.1467253135e+000	-5.7309998956e-001
 7.3197831459e-001	 2.1540270999e+000	-5.2863116721e-001
 7.1081064799e-001	 2.1611046302e+000	-4.8426236431e-001
 6.8962414847e-001	 2.1679583792e+000	-4.4004994573e-001
 6.6842215828e-001	 2.1745888849e+000	-3.9605206104e-001
 6.4720799272e-001	 2.1809967479e+000	-3.5232846473e-001
 6.2598493877e-001	 2.1871826299e+000	-3.0894033345e-001
 8.4661783199e-001	 2.1385130925e+000	-7.4872221106e-001
 8.2536429212e-001	 2.1468054838e+000	-7.0740770513e-001
 8.0407445876e-001	 2.1548698951e+000	-6.6498039235e-001
 7.8275182547e-001	 2.1627065404e+000	-6.2151605734e-001
 7.6139986591e-001	 2.1703157015e+000	-5.7709361068e-001
 7.4002203233e-001	 2.1776977274e+000	-5.3179488569e-001
 7.1862175401e-001	 2.1848530328e+000	-4.8570442932e-001
 6.9720243581e-001	 2.1917820976e+000	-4.3890928802e-001
 6.7576745672e-001	 2.1984854661e+000	-3.9149878910e-001
 6.5432016846e-001	 2.2049637451e+000	-3.4356431850e-001
 6.3286389413e-001	 2.2112176038e+000	-2.9519909543e-001
 8.5582019972e-001	 2.1617578000e+000	-7.4411176048e-001
 8.3433564312e-001	 2.1701403260e+000	-7.0645990103e-001
 8.1281439853e-001	 2.1782923940e+000	-6.6669543930e-001
 7.9125999748e-001	 2.1862142202e+000	-6.2492210265e-001
 7.6967595141e-001	 2.1939060896e+000	-5.8124741297e-001
 7.4806575007e-001	 2.2013683548e+000	-5.3578244170e-001
 7.2643286003e-001	 2.2086014353e+000	-4.8864155874e-001
 7.0478072316e-001	 2.2156058161e+000	-4.3994217602e-001
 6.8311275516e-001	 2.2223820472e+000	-3.8980448649e-001
 6.6143234421e-001	 2.2289307423e+000	-3.3835119943e-001
 6.3974284950e-001	 2.2352525778e+000	-2.8570727271e-001
 8.6502256746e-001	 2.1850025075e+000	-7.3728090776e-001
 8.4330699412e-001	 2.1934751683e+000	-7.0389571737e-001
 8.2155433830e-001	 2.2017148928e+000	-6.6740637903e-001
 7.9976816950e-001	 2.2097219000e+000	-6.2794424808e-001
 7.7795203691e-001	 2.2174964776e+000	-5.8564514672e-001
 7.5610946781e-001	 2.2250389823e+000	-5.4064907740e-001
 7.3424396605e-001	 2.2323498378e+000	-4.9309992978e-001
 7.1235901050e-001	 2.2394295346e+000	-4.4314518213e-001
 6.9045805361e-001	 2.2462786284e+000	-3.9093559809e-001
 6.6854451995e-001	 2.2528977396e+000	-3.3662491956e-001
 6.4662180487e-001	 2.2592875518e+000	-2.8036955663e-001
 8.7422493520e-001	 2.2082472150e+000	-7.2842026174e-001
 8.5227834513e-001	 2.2168100105e+000	-6.9988064697e-001
 8.3029427807e-001	 2.2251373917e+000	-6.6725298711e-001
 8.0827634151e-001	 2.2332295797e+000	-6.3069596617e-001
 7.8622812241e-001	 2.2410868657e+000	-5.9037341135e-001
 7.6415318556e-001	 2.2487096098e+000	-5.4645396488e-001
 7.4205507208e-001	 2.2560982403e+000	-4.9911074912e-001
 7.1993729785e-001	 2.2632532530e+000	-4.4852102596e-001
 6.9780335205e-001	 2.2701752095e+000	-3.9486585128e-001
 6.7565669569e-001	 2.2768647368e+000	-3.3832972556e-001
 6.5350076025e-001	 2.2833225257e+000	-2.7910024155e-001
 8.8342730294e-001	 2.2314919226e+000	-7.1771922322e-001
 8.6124969613e-001	 2.2401448527e+000	-6.9457992229e-001
 8.3903421784e-001	 2.2485598905e+000	-6.6637574648e-001
 8.1678451353e-001	 2.2567372595e+000	-6.3329242406e-001
 7.9450420791e-001	 2.2646772538e+000	-5.9552150702e-001
 7.7219690330e-001	 2.2723802372e+000	-5.5326000146e-001
 7.4986617810e-001	 2.2798466429e+000	-5.0670999102e-001
 7.2751558520e-001	 2.2870769715e+000	-4.5607825417e-001
 7.0514865049e-001	 2.2940717907e+000	-4.0157587657e-001
 6.8276887144e-001	 2.3008317340e+000	-3.4341785941e-001
 6.6037971562e-001	 2.3073574997e+000	-2.8182272477e-001
 8.9262967068e-001	 2.2547366301e+000	-7.0536604721e-001
 8.7022104713e-001	 2.2634796949e+000	-6.8815852879e-001
 8.4777415761e-001	 2.2719823894e+000	-6.6491581096e-001
 8.2529268555e-001	 2.2802449393e+000	-6.3585039611e-001
 8.0278029341e-001	 2.2882676418e+000	-6.0118129538e-001
 7.8024062105e-001	 2.2960508647e+000	-5.6113361770e-001
 7.5767728412e-001	 2.3035950454e+000	-5.1593815151e-001
 7.3509387254e-001	 2.3109006899e+000	-4.6583094010e-001
 7.1249394894e-001	 2.3179683718e+000	-4.1105285183e-001
 6.8988104719e-001	 2.3247987313e+000	-3.5184914626e-001
 6.6725867099e-001	 2.3313924736e+000	-2.8846903724e-001
 9.0183203843e-001	 2.2779813376e+000	-6.9154790143e-001
 8.7919239814e-001	 2.2868145371e+000	-6.8078121761e-001
 8.5651409738e-001	 2.2954048883e+000	-6.6301497103e-001
 8.3380085757e-001	 2.3037526191e+000	-6.3848818189e-001
 8.1105637891e-001	 2.3118580299e+000	-6.0744706892e-001
 7.8828433879e-001	 2.3197214922e+000	-5.7014459709e-001
 7.6548839015e-001	 2.3273434479e+000	-5.2684001770e-001
 7.4267215989e-001	 2.3347244084e+000	-4.7779840178e-001
 7.1983924738e-001	 2.3418649530e+000	-4.2329016819e-001
 6.9699322293e-001	 2.3487657285e+000	-3.6359060755e-001
 6.7413762637e-001	 2.3554274476e+000	-2.9897940311e-001
 9.1103440617e-001	 2.3012260451e+000	-6.7645092116e-001
 8.8816374914e-001	 2.3101493793e+000	-6.7261251736e-001
 8.6525403716e-001	 2.3188273871e+000	-6.6081562167e-001
 8.4230902959e-001	 2.3272602989e+000	-6.4132552918e-001
 8.1933246442e-001	 2.3354484179e+000	-6.1441542818e-001
 7.9632805654e-001	 2.3433921197e+000	-5.8036590676e-001
 7.7329949618e-001	 2.3510918505e+000	-5.3946445109e-001
 7.5025044724e-001	 2.3585481268e+000	-4.9200493707e-001
 7.2718454583e-001	 2.3657615341e+000	-4.3828711627e-001
 7.0410539868e-001	 2.3727327257e+000	-3.7861609758e-001
 6.8101658174e-001	 2.3794624215e+000	-3.1330182591e-001
 9.2023677391e-001	 2.3244707527e+000	-6.6026026093e-001
 8.9713510015e-001	 2.3334842215e+000	-6.6381674526e-001
 8.7399397693e-001	 2.3422498860e+000	-6.5846073216e-001
 8.5081720161e-001	 2.3507679787e+000	-6.4448356151e-001
 8.2760854992e-001	 2.3590388060e+000	-6.2218516638e-001
 8.0437177429e-001	 2.3670627471e+000	-5.9187353824e-001
 7.8111060220e-001	 2.3748402530e+000	-5.5386418382e-001
 7.5782873460e-001	 2.3823718453e+000	-5.0847957469e-001
 7.3452984428e-001	 2.3896581153e+000	-4.5604859119e-001
 7.1121757443e-001	 2.3966997229e+000	-3.9690596181e-001
 6.8789553712e-001	 2.4034973955e+000	-3.3139169958e-001
 6.1910598340e-001	 2.1631476559e+000	-2.8817020048e-001
 5.9811058066e-001	 2.1690467338e+000	-2.5510783152e-001
 5.7711279978e-001	 2.1747277568e+000	-2.2437739083e-001
 5.5611580005e-001	 2.1801915551e+000	-1.9542191895e-001
 5.3512270782e-001	 2.1854390149e+000	-1.6772527457e-001
 5.1413661543e-001	 2.1904710774e+000	-1.4081319986e-001
 4.9316058010e-001	 2.1952887378e+000	-1.1425426011e-001
 4.7219762289e-001	 2.1998930440e+000	-8.7660657926e-002
 4.5125072774e-001	 2.2042850952e+000	-6.0688922924e-002
 4.3032284048e-001	 2.2084660407e+000	-3.3040478124e-002
 4.0941686796e-001	 2.2124370789e+000	-4.4620844122e-003
 6.2598493877e-001	 2.1871826299e+000	-3.0894033345e-001
 6.0475625377e-001	 2.1931472531e+000	-2.7572081788e-001
 5.8352516422e-001	 2.1988913986e+000	-2.3903643213e-001
 5.6229486449e-001	 2.2044159057e+000	-2.0475503845e-001
 5.4106851568e-001	 2.2097216706e+000	-1.7229018465e-001
 5.1984924449e-001	 2.2148096449e+000	-1.4109870094e-001
 4.9864014209e-001	 2.2196808349e+000	-1.1068172732e-001
 4.7744426314e-001	 2.2243363000e+000	-8.0585610411e-002
 4.5626462471e-001	 2.2287771518e+000	-5.0402670211e-002
 4.3510420537e-001	 2.2330045523e+000	-1.9771838243e-002
 4.1396594427e-001	 2.2370197131e+000	 1.1620831644e-002
 6.3286389413e-001	 2.2112176038e+000	-2.9519909543e-001
 6.1140192689e-001	 2.2172477723e+000	-3.0089097303e-001
 5.8993752866e-001	 2.2230550403e+000	-2.5879674954e-001
 5.6847392893e-001	 2.2286402563e+000	-2.1967647125e-001
 5.4701432354e-001	 2.2340043263e+000	-1.8287209947e-001
 5.2556187355e-001	 2.2391482124e+000	-1.4777035303e-001
 5.0411970409e-001	 2.2440729320e+000	-1.1380382453e-001
 4.8269090339e-001	 2.2487795561e+000	-8.0451960334e-002
 4.6127852168e-001	 2.2532692084e+000	-4.7241905189e-002
 4.3988557026e-001	 2.2575430638e+000	-1.3749212490e-002
 4.1851502058e-001	 2.2616023474e+000	 2.0401578249e-002
 6.3974284950e-001	 2.2352525778e+000	-2.8570727271e-001
 6.1804760000e-001	 2.2413482916e+000	-3.2947123676e-001
 5.9634989310e-001	 2.2472186821e+000	-2.8257102476e-001
 5.7465299337e-001	 2.2528646070e+000	-2.3915919053e-001
 5.5296013141e-001	 2.2582869820e+000	-1.9850478650e-001
 5.3127450260e-001	 2.2634867799e+000	-1.5992317464e-001
 5.0959926609e-001	 2.2684650291e+000	-1.2277723242e-001
 4.8793754364e-001	 2.2732228121e+000	-8.6478416897e-002
 4.6629241865e-001	 2.2777612650e+000	-5.0487687688e-002
 4.4466693515e-001	 2.2820815754e+000	-1.4316289959e-002
 4.2306409689e-001	 2.2861849816e+000	 2.2473601118e-002
 6.4662180487e-001	 2.2592875518e+000	-2.8036955663e-001
 6.2469327312e-001	 2.2654488109e+000	-3.6032389878e-001
 6.0276225754e-001	 2.2713823238e+000	-3.0928046276e-001
 5.8083205782e-001	 2.2770889576e+000	-2.6218382665e-001
 5.5890593927e-001	 2.2825696377e+000	-2.1822876561e-001
 5.3698713166e-001	 2.2878253475e+000	-1.7665799383e-001
 5.1507882809e-001	 2.2928571261e+000	-1.3676346115e-001
 4.9318418390e-001	 2.2976660682e+000	-9.7887502047e-002
 4.7130631563e-001	 2.3022533216e+000	-5.9423837713e-002
 4.4944830005e-001	 2.3066200870e+000	-2.0818432244e-002
 4.2761317319e-001	 2.3107676158e+000	 1.8429795517e-002
 6.5350076025e-001	 2.2833225257e+000	-2.7910024155e-001
 6.3133894624e-001	 2.2895493301e+000	-3.5331122678e-001
 6.0917462198e-001	 2.2955459656e+000	-3.3785434312e-001
 5.8701112226e-001	 2.3013133082e+000	-2.8773826407e-001
 5.6485174713e-001	 2.3068522935e+000	-2.4109095362e-001
 5.4269976072e-001	 2.3121639150e+000	-1.9708114245e-001
 5.2055839009e-001	 2.3172492232e+000	-1.5492859612e-001
 4.9843082415e-001	 2.3221093242e+000	-1.1390534980e-001
 4.7632021260e-001	 2.3267453782e+000	-7.3336790172e-002
 4.5422966494e-001	 2.3311585985e+000	-3.2602585405e-002
 4.3216224950e-001	 2.3353502500e+000	 8.8625352297e-003
 6.6037971562e-001	 2.3073574997e+000	-2.8182272477e-001
 6.3798461936e-001	 2.3136498494e+000	-3.4765220506e-001
 6.1558698643e-001	 2.3197096073e+000	-3.6722959953e-001
 5.9319018671e-001	 2.3255376588e+000	-3.1481726360e-001
 5.7079755500e-001	 2.3311349492e+000	-2.6614433116e-001
 5.4841238978e-001	 2.3365024825e+000	-2.2030416950e-001
 5.2603795209e-001	 2.3416413203e+000	-1.7644305970e-001
 5.0367746441e-001	 2.3465525803e+000	-1.3376151810e-001
 4.8133410958e-001	 2.3512374348e+000	-9.1515458688e-002
 4.5901102983e-001	 2.3556971101e+000	-4.9017197451e-002
 4.3671132581e-001	 2.3599328842e+000	-5.6363002786e-003
 6.6725867099e-001	 2.3313924736e+000	-2.8846903724e-001
 6.4463029248e-001	 2.3377503686e+000	-3.4523828596e-001
 6.2199935087e-001	 2.3438732491e+000	-3.9635042521e-001
 5.9936925116e-001	 2.3497620094e+000	-3.4242210793e-001
 5.7674336287e-001	 2.3554176049e+000	-2.9244763010e-001
 5.5412501884e-001	 2.3608410500e+000	-2.4544357217e-001
 5.3151751410e-001	 2.3660334174e+000	-2.0048138769e-001
 5.0892410466e-001	 2.3709958363e+000	-1.5668881237e-001
 4.8634800655e-001	 2.3757294915e+000	-1.1325110782e-001
 4.6379239473e-001	 2.3802356217e+000	-6.9412140912e-002
 4.4126040212e-001	 2.3845155184e+000	-2.4475300383e-002
 6.7413762637e-001	 2.3554274476e+000	-2.9897940311e-001
 6.5127596560e-001	 2.3618508879e+000	-3.4602116698e-001
 6.2841171532e-001	 2.3680368908e+000	-4.0572806841e-001
 6.0554831560e-001	 2.3739863600e+000	-3.6956026886e-001
 5.8268917073e-001	 2.3797002606e+000	-3.1906504009e-001
 5.5983764791e-001	 2.3851796176e+000	-2.7162054342e-001
 5.3699707610e-001	 2.3904255145e+000	-2.2622201941e-001
 5.1417074492e-001	 2.3954390923e+000	-1.8192311977e-001
 4.9136190353e-001	 2.4002215481e+000	-1.3783723314e-001
 4.6857375962e-001	 2.4047741332e+000	-9.3138640169e-002
 4.4580947843e-001	 2.4090981526e+000	-4.7063499377e-002
 6.8101658174e-001	 2.3794624215e+000	-3.1330182591e-001
 6.5792163873e-001	 2.3859514072e+000	-3.4995972130e-001
 6.3482407976e-001	 2.3922005325e+000	-4.0035181747e-001
 6.1172738005e-001	 2.3982107106e+000	-3.9524509474e-001
 5.8863497860e-001	 2.4039829163e+000	-3.4506593298e-001
 5.6555027697e-001	 2.4095181851e+000	-2.9796073480e-001
 5.4247663810e-001	 2.4148176116e+000	-2.5284710062e-001
 5.1941738517e-001	 2.4198823484e+000	-2.0870325360e-001
 4.9637580050e-001	 2.4247136047e+000	-1.6456944851e-001
 4.7335512452e-001	 2.4293126448e+000	-1.1954920317e-001
 4.5035855474e-001	 2.4336807868e+000	-7.2810354002e-002
 6.8789553712e-001	 2.4034973955e+000	-3.3139169958e-001
 6.6456731185e-001	 2.4100519264e+000	-3.5701963899e-001
 6.4123644421e-001	 2.4163641743e+000	-3.9742206432e-001
 6.1790644450e-001	 2.4224350612e+000	-4.1849551663e-001
 5.9458078647e-001	 2.4282655721e+000	-3.6952460361e-001
 5.7126290603e-001	 2.4338567526e+000	-3.2359403352e-001
 5.4795620010e-001	 2.4392097087e+000	-2.7954229811e-001
 5.2466402543e-001	 2.4443256044e+000	-2.3627080695e-001
 5.0138969748e-001	 2.4492056613e+000	-1.9274538023e-001
 4.7813648941e-001	 2.4538511564e+000	-1.4799755725e-001
 4.5490763105e-001	 2.4582634210e+000	-1.0112572233e-001
 4.0941686796e-001	 2.2124370789e+000	-4.4620844122e-003
 3.8853567716e-001	 2.2161994557e+000	 1.4162370136e-003
 3.6768209441e-001	 2.2197544633e+000	 9.3806647479e-003
 3.4685890457e-001	 2.2231034390e+000	 1.9569898478e-002
 3.2606885033e-001	 2.2262477636e+000	 3.2075564277e-002
 3.0531463152e-001	 2.2291888605e+000	 4.6942350318e-002
 2.8459890447e-001	 2.2319281941e+000	 6.4168250797e-002
 2.6392428140e-001	 2.2344672684e+000	 8.3704914728e-002
 2.4329332986e-001	 2.2368076260e+000	 1.0545809603e-001
 2.2270857224e-001	 2.2389508462e+000	 1.2928820118e-001
 2.0217248527e-001	 2.2408985444e+000	 1.5501093055e-001
 4.1396594427e-001	 2.2370197131e+000	 1.1620831644e-002
 3.9285274024e-001	 2.2408238941e+000	 2.0883255194e-002
 3.7176745101e-001	 2.2444184018e+000	 3.1620315717e-002
 3.5071289240e-001	 2.2478045883e+000	 4.4022021644e-002
 3.2969183756e-001	 2.2509838498e+000	 5.8229859871e-002
 3.0870701632e-001	 2.2539576256e+000	 7.4336883901e-002
 2.8776111452e-001	 2.2567273962e+000	 9.2387914890e-002
 2.6685677342e-001	 2.2592946825e+000	 1.1237985217e-001
 2.4599658909e-001	 2.2616610440e+000	 1.3426208965e-001
 2.2518311194e-001	 2.2638280779e+000	 1.5793703419e-001
 2.0441884622e-001	 2.2657974171e+000	 1.8326072213e-001
 4.1851502058e-001	 2.2616023474e+000	 2.0401578249e-002
 3.9716980332e-001	 2.2654483325e+000	 3.2676222397e-002
 3.7585280762e-001	 2.2690823403e+000	 4.5892961475e-002
 3.5456688023e-001	 2.2725057376e+000	 6.0293714098e-002
 3.3331482478e-001	 2.2757199361e+000	 7.6070342221e-002
 3.1209940111e-001	 2.2787263907e+000	 9.3364692206e-002
 2.9092332457e-001	 2.2815265984e+000	 1.1226875359e-001
 2.6978926543e-001	 2.2841220966e+000	 1.3282493211e-001
 2.4869984831e-001	 2.2865144621e+000	 1.5502643322e-001
 2.2765765163e-001	 2.2887053095e+000	 1.7881775224e-001
 2.0666520717e-001	 2.2906962898e+000	 2.0409526713e-001
 4.2306409689e-001	 2.2861849816e+000	 2.2473601118e-002
 4.0148686640e-001	 2.2900727709e+000	 3.7337809851e-002
 3.7993816422e-001	 2.2937462788e+000	 5.2689920747e-002
 3.5842086805e-001	 2.2972068869e+000	 6.8824403273e-002
 3.3693781201e-001	 2.3004560224e+000	 8.5984047316e-002
 3.1549178591e-001	 2.3034951558e+000	 1.0435995762e-001
 2.9408553462e-001	 2.3063258005e+000	 1.2409167086e-001
 2.7272175745e-001	 2.3089495107e+000	 1.4526739190e-001
 2.5140310753e-001	 2.3113678802e+000	 1.6792434525e-001
 2.3013219132e-001	 2.3135825411e+000	 1.9204923801e-001
 2.0891156812e-001	 2.3155951625e+000	 2.1757882987e-001
 4.2761317319e-001	 2.3107676158e+000	 1.8429795517e-002
 4.0580392948e-001	 2.3146972093e+000	 3.5410771226e-002
 3.8402352083e-001	 2.3184102172e+000	 5.2503278508e-002
 3.6227485588e-001	 2.3219080362e+000	 7.0055016856e-002
 3.4056079923e-001	 2.3251921086e+000	 8.8360294830e-002
 3.1888417070e-001	 2.3282639210e+000	 1.0765997829e-001
 2.9724774467e-001	 2.3311250027e+000	 1.2814156639e-001
 2.7565424947e-001	 2.3337769248e+000	 1.4993939166e-001
 2.5410636675e-001	 2.3362212982e+000	 1.7313494035e-001
 2.3260673101e-001	 2.3384597727e+000	 1.9775728897e-001
 2.1115792906e-001	 2.3404940352e+000	 2.2378365273e-001
 4.3216224950e-001	 2.3353502500e+000	 8.8625352297e-003
 4.1012099256e-001	 2.3393216477e+000	 2.7437938295e-002
 3.8810887743e-001	 2.3430741557e+000	 4.5825845663e-002
 3.6612884371e-001	 2.3466091856e+000	 6.4427903830e-002
 3.4418378646e-001	 2.3499281949e+000	 8.3590567933e-002
 3.2227655550e-001	 2.3530326861e+000	 1.0360500420e-001
 3.0040995472e-001	 2.3559242049e+000	 1.2470712533e-001
 2.7858674148e-001	 2.3586043389e+000	 1.4707775522e-001
 2.5680962597e-001	 2.3610747163e+000	 1.7084291884e-001
 2.3508127071e-001	 2.3633370043e+000	 1.9607425343e-001
 2.1340429001e-001	 2.3653929079e+000	 2.2278953628e-001
 4.3671132581e-001	 2.3599328842e+000	-5.6363002786e-003
 4.1443805563e-001	 2.3639460861e+000	 1.3962216864e-002
 3.9219423403e-001	 2.3677380942e+000	 3.3151121233e-002
 3.6998283154e-001	 2.3713103349e+000	 5.2386760445e-002
 3.4780677368e-001	 2.3746642811e+000	 7.2068400604e-002
 3.2566894029e-001	 2.3778014512e+000	 9.2538083329e-002
 3.0357216477e-001	 2.3807234070e+000	 1.1408062111e-001
 2.8151923350e-001	 2.3834317530e+000	 1.3692372719e-001
 2.5951288519e-001	 2.3859281344e+000	 1.6123827592e-001
 2.3755581040e-001	 2.3882142360e+000	 1.8713868937e-001
 2.1565065096e-001	 2.3902917807e+000	 2.1468344561e-001
 4.4126040212e-001	 2.3845155184e+000	-2.4475300383e-002
 4.1875511871e-001	 2.3885705245e+000	-4.4734170412e-003
 3.9627959064e-001	 2.3924020327e+000	 1.4973256886e-002
 3.7383681936e-001	 2.3960114842e+000	 3.4376560773e-002
 3.5142976091e-001	 2.3994003674e+000	 5.4189271919e-002
 3.2906132508e-001	 2.4025702163e+000	 7.4804917524e-002
 3.0673437482e-001	 2.4055226092e+000	 9.6557730479e-002
 2.8445172551e-001	 2.4082591671e+000	 1.1972274509e-001
 2.6221614441e-001	 2.4107815524e+000	 1.4451602865e-001
 2.4003035009e-001	 2.4130914676e+000	 1.7109504434e-001
 2.1789701191e-001	 2.4151906534e+000	 1.9955914103e-001
 4.4580947843e-001	 2.4090981526e+000	-4.7063499377e-002
 4.2307218179e-001	 2.4131949629e+000	-2.7325920760e-002
 4.0036494724e-001	 2.4170659712e+000	-8.2129763601e-003
 3.7769080719e-001	 2.4207126335e+000	 1.0843491512e-002
 3.5505274813e-001	 2.4241364537e+000	 3.0350506817e-002
 3.3245370987e-001	 2.4273389814e+000	 5.0753727037e-002
 3.0989658487e-001	 2.4303218113e+000	 7.2437359876e-002
 2.8738421752e-001	 2.4330865812e+000	 9.5724225462e-002
 2.6491940363e-001	 2.4356349705e+000	 1.2087595980e-001
 2.4250488978e-001	 2.4379686992e+000	 1.4809335497e-001
 2.2014337286e-001	 2.4400895261e+000	 1.7751683137e-001
 4.5035855474e-001	 2.4336807868e+000	-7.2810354002e-002
 4.2738924487e-001	 2.4378194013e+000	-5.4052188360e-002
 4.0445030384e-001	 2.4417299097e+000	-3.5912219420e-002
 3.8154479501e-001	 2.4454137828e+000	-1.7765109257e-002
 3.5867573535e-001	 2.4488725399e+000	 9.5118286866e-004
 3.3584609467e-001	 2.4521077465e+000	 2.0735123351e-002
 3.1305879491e-001	 2.4551210135e+000	 4.2021482307e-002
 2.9031670954e-001	 2.4579139953e+000	 6.5181362838e-002
 2.6762266285e-001	 2.4604883886e+000	 9.0522377123e-002
 2.4497942947e-001	 2.4628459308e+000	 1.1828896473e-001
 2.2238973381e-001	 2.4649883988e+000	 1.4866284830e-001
 4.5490763105e-001	 2.4582634210e+000	-1.0112572233e-001
 4.3170630795e-001	 2.4624438397e+000	-8.4109053804e-002
 4.0853566044e-001	 2.4663938481e+000	-6.7628554542e-002
 3.8539878284e-001	 2.4701149322e+000	-5.1000809640e-002
 3.6229872257e-001	 2.4736086262e+000	-3.3607957352e-002
 3.3923847946e-001	 2.4768765117e+000	-1.4898010378e-002
 3.1622100496e-001	 2.4799202156e+000	 5.6149840184e-003
 2.9324920155e-001	 2.4827414094e+000	 2.8350940901e-002
 2.7032592207e-001	 2.4853418066e+000	 5.3663887109e-002
 2.4745396916e-001	 2.4877231625e+000	 8.1842258529e-002
 2.2463609475e-001	 2.4898872715e+000	 1.1310934017e-001
 2.0217248527e-001	 2.2408985444e+000	 1.5501093055e-001
 1.8168749959e-001	 2.2426523700e+000	 1.4205769098e-001
 1.6125599940e-001	 2.2442140055e+000	 1.3208549721e-001
 1.4088032204e-001	 2.2455851654e+000	 1.2481949785e-001
 1.2056275773e-001	 2.2467675940e+000	 1.1994124813e-001
 1.0030554932e-001	 2.2477630651e+000	 1.1708977900e-001
 8.0110891976e-002	 2.2485733799e+000	 1.1586273618e-001
 5.9980933064e-002	 2.2492003663e+000	 1.1581758475e-001
 3.9917771955e-002	 2.2496458769e+000	 1.1647287434e-001
 1.9923459911e-002	 2.2499117884e+000	 1.1730956067e-001
 0.0000000000e+000	 2.2500000000e+000	 1.1777237831e-001
 2.0441884622e-001	 2.2657974171e+000	 1.8326072213e-001
 1.8370624959e-001	 2.2675707296e+000	 1.7193335024e-001
 1.6304773272e-001	 2.2691497167e+000	 1.6313417692e-001
 1.4244565895e-001	 2.2705361116e+000	 1.5663053358e-001
 1.2190234393e-001	 2.2717316784e+000	 1.5214451576e-001
 1.0142005542e-001	 2.2727382103e+000	 1.4935403948e-001
 8.1001012998e-002	 2.2735575286e+000	 1.4789397127e-001
 6.0647387876e-002	 2.2741914815e+000	 1.4735732752e-001
 4.0361302754e-002	 2.2746419422e+000	 1.4729653795e-001
 2.0144831687e-002	 2.2749108083e+000	 1.4722476887e-001
 0.0000000000e+000	 2.2750000000e+000	 1.4661730106e-001
 2.0666520717e-001	 2.2906962898e+000	 2.0409526713e-001
 1.8572499959e-001	 2.2924890893e+000	 1.9498868096e-001
 1.6483946605e-001	 2.2940854279e+000	 1.8804406951e-001
 1.4401099586e-001	 2.2954870579e+000	 1.8307059286e-001
 1.2324193013e-001	 2.2966957628e+000	 1.7983045470e-001
 1.0253456153e-001	 2.2977133554e+000	 1.7803994754e-001
 8.1891134020e-002	 2.2985416773e+000	 1.7737057556e-001
 6.1313842688e-002	 2.2991825966e+000	 1.7745025050e-001
 4.0804833554e-002	 2.2996380075e+000	 1.7786455545e-001
 2.0366203464e-002	 2.2999098282e+000	 1.7815807176e-001
 0.0000000000e+000	 2.3000000000e+000	 1.7783576404e-001
 2.0891156812e-001	 2.3155951625e+000	 2.1757882987e-001
 1.8774374958e-001	 2.3174074490e+000	 2.1122789345e-001
 1.6663119938e-001	 2.3190211390e+000	 2.0675893731e-001
 1.4557633277e-001	 2.3204380042e+000	 2.0402263213e-001
 1.2458151633e-001	 2.3216598471e+000	 2.0282089284e-001
 1.0364906763e-001	 2.3226885006e+000	 2.0290791432e-001
 8.2781255043e-002	 2.3235258259e+000	 2.0399128895e-001
 6.1980297500e-002	 2.3241737118e+000	 2.0573320081e-001
 4.1248364354e-002	 2.3246340728e+000	 2.0775169168e-001
 2.0587575241e-002	 2.3249088481e+000	 2.0962199363e-001
 0.0000000000e+000	 2.3250000000e+000	 2.1087792319e-001
 2.1115792906e-001	 2.3404940352e+000	 2.2378365273e-001
 1.8976249958e-001	 2.3423258086e+000	 2.2066450383e-001
 1.6842293271e-001	 2.3439568502e+000	 2.1923322663e-001
 1.4714166968e-001	 2.3453889505e+000	 2.1938171934e-001
 1.2592110253e-001	 2.3466239315e+000	 2.2095124542e-001
 1.0476357374e-001	 2.3476636458e+000	 2.2373346150e-001
 8.3671376066e-002	 2.3485099746e+000	 2.2747153126e-001
 6.2646752313e-002	 2.3491648270e+000	 2.3186131993e-001
 4.1691895154e-002	 2.3496301381e+000	 2.3655266430e-001
 2.0808947019e-002	 2.3499078679e+000	 2.4115071305e-001
 0.0000000000e+000	 2.3500000000e+000	 2.4521733205e-001
 2.1340429001e-001	 2.3653929079e+000	 2.2278953628e-001
 1.9178124958e-001	 2.3672441683e+000	 2.2332084422e-001
 1.7021466604e-001	 2.3688925614e+000	 2.2543150540e-001
 1.4870700660e-001	 2.3703398968e+000	 2.2905439650e-001
 1.2726068872e-001	 2.3715880159e+000	 2.3406979999e-001
 1.0587807984e-001	 2.3726387909e+000	 2.4030642602e-001
 8.4561497090e-002	 2.3734941233e+000	 2.4754252432e-001
 6.3313207127e-002	 2.3741559422e+000	 2.5550708086e-001
 4.2135425955e-002	 2.3746262034e+000	 2.6388109375e-001
 2.1030318796e-002	 2.3749068878e+000	 2.7229892326e-001
 0.0000000000e+000	 2.3750000000e+000	 2.8034971035e-001
 2.1565065096e-001	 2.3902917807e+000	 2.1468344561e-001
 1.9379999957e-001	 2.3921625279e+000	 2.1922760361e-001
 1.7200639936e-001	 2.3938282726e+000	 2.2532793604e-001
 1.5027234351e-001	 2.3952908430e+000	 2.3295808205e-001
 1.2860027492e-001	 2.3965521003e+000	 2.4203704589e-001
 1.0699258595e-001	 2.3976139361e+000	 2.5243021445e-001
 8.5451618114e-002	 2.3984782719e+000	 2.6395046893e-001
 6.3979661940e-002	 2.3991470574e+000	 2.7635938541e-001
 4.2578956756e-002	 2.3996222687e+000	 2.8936851863e-001
 2.1251690574e-002	 2.3999059077e+000	 3.0264076363e-001
 0.0000000000e+000	 2.4000000000e+000	 3.1579178948e-001
 2.1789701191e-001	 2.4151906534e+000	 1.9955914103e-001
 1.9581874957e-001	 2.4170808876e+000	 2.0842339708e-001
 1.7379813269e-001	 2.4187639837e+000	 2.1890578090e-001
 1.5183768043e-001	 2.4202417893e+000	 2.3102051025e-001
 1.2993986112e-001	 2.4215161846e+000	 2.4472504534e-001
 1.0810709205e-001	 2.4225890813e+000	 2.5992110357e-001
 8.6341739139e-002	 2.4234624206e+000	 2.7645577275e-001
 6.4646116755e-002	 2.4241381725e+000	 2.9412271736e-001
 4.3022487557e-002	 2.4246183340e+000	 3.1266347216e-001
 2.1473062351e-002	 2.4249049275e+000	 3.3176881730e-001
 0.0000000000e+000	 2.4250000000e+000	 3.5108022944e-001
 2.2014337286e-001	 2.4400895261e+000	 1.7751683137e-001
 1.9783749957e-001	 2.4419992473e+000	 1.9095436139e-001
 1.7558986602e-001	 2.4436996949e+000	 2.0615693794e-001
 1.5340301734e-001	 2.4451927356e+000	 2.2317920486e-001
 1.3127944732e-001	 2.4464802690e+000	 2.4201684300e-001
 1.0922159816e-001	 2.4475642264e+000	 2.6260758373e-001
 8.7231860164e-002	 2.4484465693e+000	 2.8483232547e-001
 6.5312571569e-002	 2.4491292877e+000	 3.0851634749e-001
 4.3466018359e-002	 2.4496143993e+000	 3.3343061506e-001
 2.1694434129e-002	 2.4499039474e+000	 3.5929317020e-001
 0.0000000000e+000	 2.4500000000e+000	 3.8577060206e-001
 2.2238973381e-001	 2.4649883988e+000	 1.4866284830e-001
 1.9985624957e-001	 2.4669176069e+000	 1.6687377514e-001
 1.7738159935e-001	 2.4686354061e+000	 1.8708150461e-001
 1.5496835426e-001	 2.4701436819e+000	 2.0938098468e-001
 1.3261903353e-001	 2.4714443534e+000	 2.3380591123e-001
 1.1033610427e-001	 2.4725393716e+000	 2.6032974195e-001
 8.8121981189e-002	 2.4734307179e+000	 2.8886681793e-001
 6.5979026384e-002	 2.4741204029e+000	 3.1927358672e-001
 4.3909549161e-002	 2.4746104646e+000	 3.5134992104e-001
 2.1915805907e-002	 2.4749029673e+000	 3.8484052702e-001
 0.0000000000e+000	 2.4750000000e+000	 4.1943643587e-001
 2.2463609475e-001	 2.4898872715e+000	 1.1310934017e-001
 2.0187499956e-001	 2.4918359666e+000	 1.3624170164e-001
 1.7917333268e-001	 2.4935711173e+000	 1.6168736789e-001
 1.5653369117e-001	 2.4950946282e+000	 1.8958149888e-001
 1.3395861973e-001	 2.4964084378e+000	 2.1999562879e-001
 1.1145061038e-001	 2.4975145168e+000	 2.5293868216e-001
 8.9012102215e-002	 2.4984148666e+000	 2.8835810200e-001
 6.6645481200e-002	 2.4991115181e+000	 3.2614108413e-001
 4.4353079963e-002	 2.4996065299e+000	 3.6611591118e-001
 2.2137177686e-002	 2.4999019872e+000	 4.0805338032e-001
 0.0000000000e+000	 2.5000000000e+000	 4.5166831826e-001
 2.5000000000e+000	 0.0000000000e+000	 1.8980320448e+000
 2.4999019872e+000	 2.2137177686e-002	 1.9166828184e+000
 2.4996065299e+000	 4.4353079963e-002	 1.9323770528e+000
 2.4991115181e+000	 6.6645481200e-002	 1.9446503563e+000
 2.4984148666e+000	 8.9012102215e-002	 1.9530758700e+000
 2.4975145168e+000	 1.1145061038e-001	 1.9572659728e+000
 2.4964084378e+000	 1.3395861973e-001	 1.9568739522e+000
 2.4950946282e+000	 1.5653369117e-001	 1.9515956369e+000
 2.4935711173e+000	 1.7917333268e-001	 1.9411709850e+000
 2.4918359666e+000	 2.0187499956e-001	 1.9253856238e+000
 2.4898872715e+000	 2.2463609475e-001	 1.9040723352e+000
 2.5250000000e+000	 0.0000000000e+000	 1.8775396424e+000
 2.5249010070e+000	 2.2358549464e-002	 1.8950204704e+000
 2.5246025952e+000	 4.4796610765e-002	 1.9051780998e+000
 2.5241026333e+000	 6.7311936015e-002	 1.9085468839e+000
 2.5233990153e+000	 8.9902223242e-002	 1.9056279348e+000
 2.5224896619e+000	 1.1256511648e-001	 1.8968873712e+000
 2.5213725222e+000	 1.3529820593e-001	 1.8827545957e+000
 2.5200455744e+000	 1.5809902809e-001	 1.8636206027e+000
 2.5185068284e+000	 1.8096506601e-001	 1.8398363253e+000
 2.5167543263e+000	 2.0389374956e-001	 1.8117110236e+000
 2.5147861442e+000	 2.2688245570e-001	 1.7795107217e+000
 2.5500000000e+000	 0.0000000000e+000	 1.8587407355e+000
 2.5499000269e+000	 2.2579921242e-002	 1.8767234204e+000
 2.5495986605e+000	 4.5240141567e-002	 1.8874939943e+000
 2.5490937484e+000	 6.7978390830e-002	 1.8915860571e+000
 2.5483831639e+000	 9.0792344267e-002	 1.8894986224e+000
 2.5474648071e+000	 1.1367962259e-001	 1.8816943250e+000
 2.5463366065e+000	 1.3663779213e-001	 1.8685976570e+000
 2.5449965207e+000	 1.5966436500e-001	 1.8505932380e+000
 2.5434425396e+000	 1.8275679934e-001	 1.8280241251e+000
 2.5416726859e+000	 2.0591249956e-001	 1.8011901668e+000
 2.5396850170e+000	 2.2912881665e-001	 1.7703464073e+000
 2.5750000000e+000	 0.0000000000e+000	 1.8415694850e+000
 2.5748990468e+000	 2.2801293020e-002	 1.8591753944e+000
 2.5745947258e+000	 4.5683672368e-002	 1.8697262235e+000
 2.5740848636e+000	 6.8644845644e-002	 1.8737555495e+000
 2.5733673126e+000	 9.1682465292e-002	 1.8717609787e+000
 2.5724399523e+000	 1.1479412870e-001	 1.8642023091e+000
 2.5713006909e+000	 1.3797737833e-001	 1.8514997258e+000
 2.5699474670e+000	 1.6122970192e-001	 1.8340320309e+000
 2.5683782508e+000	 1.8454853267e-001	 1.8121349149e+000
 2.5665910456e+000	 2.0793124956e-001	 1.7860992746e+000
 2.5645838897e+000	 2.3137517760e-001	 1.7561695831e+000
 2.6000000000e+000	 0.0000000000e+000	 1.8259625840e+000
 2.5998980666e+000	 2.3022664798e-002	 1.8423282313e+000
 2.5995907911e+000	 4.6127203170e-002	 1.8518420173e+000
 2.5990759788e+000	 6.9311300459e-002	 1.8550382246e+000
 2.5983514613e+000	 9.2572586317e-002	 1.8524137377e+000
 2.5974150974e+000	 1.1590863480e-001	 1.8444261610e+000
 2.5962647753e+000	 1.3931696453e-001	 1.8314919704e+000
 2.5948984133e+000	 1.6279503883e-001	 1.8139847015e+000
 2.5933139620e+000	 1.8634026600e-001	 1.7922331814e+000
 2.5915094053e+000	 2.0994999955e-001	 1.7665198084e+000
 2.5894827624e+000	 2.3362153855e-001	 1.7370788863e+000
 2.6250000000e+000	 0.0000000000e+000	 1.8118591372e+000
 2.6248970865e+000	 2.3244036575e-002	 1.8261356808e+000
 2.6245868564e+000	 4.6570733970e-002	 1.8338100287e+000
 2.6240670940e+000	 6.9977755272e-002	 1.8354178928e+000
 2.6233356099e+000	 9.3462707341e-002	 1.8314561177e+000
 2.6223902426e+000	 1.1702314091e-001	 1.8223807525e+000
 2.6212288597e+000	 1.4065655073e-001	 1.8086051568e+000
 2.6198493596e+000	 1.6436037574e-001	 1.7904981454e+000
 2.6182496731e+000	 1.8813199933e-001	 1.7683821788e+000
 2.6164277650e+000	 2.1196874955e-001	 1.7425316032e+000
 2.6143816351e+000	 2.3586789950e-001	 1.7131709480e+000
 2.6500000000e+000	 0.0000000000e+000	 1.7992005473e+000
 2.6498961064e+000	 2.3465408353e-002	 1.8105533137e+000
 2.6495829217e+000	 4.7014264771e-002	 1.8156002663e+000
 2.6490582092e+000	 7.0644210086e-002	 1.8148792668e+000
 2.6483197586e+000	 9.4352828365e-002	 1.8088877983e+000
 2.6473653878e+000	 1.1813764702e-001	 1.7980809884e+000
 2.6461929440e+000	 1.4199613693e-001	 1.7828696684e+000
 2.6448003059e+000	 1.6592571266e-001	 1.7636184728e+000
 2.6431853843e+000	 1.8992373266e-001	 1.7406439867e+000
 2.6413461246e+000	 2.1398749955e-001	 1.7142129445e+000
 2.6392805078e+000	 2.3811426044e-001	 1.6845404887e+000
 2.6750000000e+000	 0.0000000000e+000	 1.7879304076e+000
 2.6748951263e+000	 2.3686780130e-002	 1.7955384367e+000
 2.6745789870e+000	 4.7457795571e-002	 1.7971840310e+000
 2.6740493244e+000	 7.1310664899e-002	 1.7934079197e+000
 2.6733039073e+000	 9.5242949388e-002	 1.7847088988e+000
 2.6723405329e+000	 1.1925215312e-001	 1.7715418046e+000
 2.6711570284e+000	 1.4333572313e-001	 1.7543155235e+000
 2.6697512521e+000	 1.6749104957e-001	 1.7333910454e+000
 2.6681210955e+000	 1.9171546598e-001	 1.7090795652e+000
 2.6662644843e+000	 2.1600624954e-001	 1.6816406401e+000
 2.6641793805e+000	 2.4036062139e-001	 1.6512804066e+000
 2.7000000000e+000	 0.0000000000e+000	 1.7779944005e+000
 2.6998941461e+000	 2.3908151907e-002	 1.7810500120e+000
 2.6995750523e+000	 4.7901326371e-002	 1.7785338563e+000
 2.6990404395e+000	 7.1977119711e-002	 1.7709902446e+000
 2.6982880559e+000	 9.6133070411e-002	 1.7589199578e+000
 2.6973156781e+000	 1.2036665923e-001	 1.7427781668e+000
 2.6961211128e+000	 1.4467530933e-001	 1.7229723925e+000
 2.6947021984e+000	 1.6905638648e-001	 1.6998605107e+000
 2.6930568066e+000	 1.9350719931e-001	 1.6737488069e+000
 2.6911828440e+000	 2.1802499954e-001	 1.6448900891e+000
 2.6890782533e+000	 2.4260698234e-001	 1.6134818630e+000
 2.7250000000e+000	 0.0000000000e+000	 1.7693402018e+000
 2.7248931660e+000	 2.4129523684e-002	 1.7670485815e+000
 2.7245711176e+000	 4.8344857171e-002	 1.7596234515e+000
 2.7240315547e+000	 7.2643574523e-002	 1.7476134179e+000
 2.7232722046e+000	 9.7023191433e-002	 1.7315219142e+000
 2.7222908233e+000	 1.2148116533e-001	 1.7118050691e+000
 2.7210851972e+000	 1.4601489552e-001	 1.6888696134e+000
 2.7196531447e+000	 1.7062172340e-001	 1.6630708350e+000
 2.7179925178e+000	 1.9529893264e-001	 1.6347105854e+000
 2.7161012036e+000	 2.2004374954e-001	 1.6040353461e+000
 2.7139771260e+000	 2.4485334329e-001	 1.5712343611e+000
 2.7500000000e+000	 0.0000000000e+000	 1.7619173897e+000
 2.7498921859e+000	 2.4350895461e-002	 1.7534961945e+000
 2.7495671829e+000	 4.8788387970e-002	 1.7404276486e+000
 2.7490226699e+000	 7.3310029335e-002	 1.7232653626e+000
 2.7482563533e+000	 9.7913312455e-002	 1.7025160888e+000
 2.7472659684e+000	 1.2259567143e-001	 1.6786375329e+000
 2.7460492816e+000	 1.4735448172e-001	 1.6520362075e+000
 2.7446040910e+000	 1.7218706031e-001	 1.6230653344e+000
 2.7429282290e+000	 1.9709066597e-001	 1.5920228018e+000
 2.7410195633e+000	 2.2206249953e-001	 1.5591491828e+000
 2.7388759987e+000	 2.4709970424e-001	 1.5246258220e+000
 2.4898872715e+000	 2.2463609475e-001	 1.9040723352e+000
 2.4877231625e+000	 2.4745396916e-001	 1.8973731156e+000
 2.4853418066e+000	 2.7032592207e-001	 1.8854973577e+000
 2.4827414094e+000	 2.9324920155e-001	 1.8684086810e+000
 2.4799202156e+000	 3.1622100496e-001	 1.8461223432e+000
 2.4768765117e+000	 3.3923847946e-001	 1.8187063781e+000
 2.4736086262e+000	 3.6229872257e-001	 1.7862826480e+000
 2.4701149322e+000	 3.8539878284e-001	 1.7490278076e+000
 2.4663938481e+000	 4.0853566044e-001	 1.7071741731e+000
 2.4624438397e+000	 4.3170630795e-001	 1.6610104923e+000
 2.4582634210e+000	 4.5490763105e-001	 1.6108826112e+000
 2.5147861442e+000	 2.2688245570e-001	 1.7795107217e+000
 2.5126003941e+000	 2.4992850885e-001	 1.7629615099e+000
 2.5101952247e+000	 2.7302918129e-001	 1.7431410777e+000
 2.5075688234e+000	 2.9618169356e-001	 1.7201630703e+000
 2.5047194178e+000	 3.1938321501e-001	 1.6940916164e+000
 2.5016452768e+000	 3.4263086425e-001	 1.6649400805e+000
 2.4983447125e+000	 3.6592170980e-001	 1.6420874262e+000
 2.4948160815e+000	 3.8925277066e-001	 1.6228948340e+000
 2.4910577866e+000	 4.1262101704e-001	 1.5968951924e+000
 2.4870682781e+000	 4.3602337102e-001	 1.5643780644e+000
 2.4828460553e+000	 4.5945670736e-001	 1.5256932339e+000
 2.5396850170e+000	 2.2912881665e-001	 1.7703464073e+000
 2.5374776257e+000	 2.5240304855e-001	 1.7546939754e+000
 2.5350486428e+000	 2.7573244051e-001	 1.7356808063e+000
 2.5323962375e+000	 2.9911418558e-001	 1.7134096995e+000
 2.5295186200e+000	 3.2254542506e-001	 1.6879324673e+000
 2.5264140419e+000	 3.4602324904e-001	 1.6592486664e+000
 2.5230807987e+000	 3.6954469702e-001	 1.6273044125e+000
 2.5195172308e+000	 3.9310675849e-001	 1.5919912821e+000
 2.5157217251e+000	 4.1670637365e-001	 1.5531453076e+000
 2.5116927165e+000	 4.4034043410e-001	 1.5105460695e+000
 2.5074286895e+000	 4.6400578367e-001	 1.4639158930e+000
 2.5645838897e+000	 2.3137517760e-001	 1.7561695831e+000
 2.5623548573e+000	 2.5487758824e-001	 1.7412587130e+000
 2.5599020608e+000	 2.7843569973e-001	 1.7229520663e+000
 2.5572236516e+000	 3.0204667759e-001	 1.7013417812e+000
 2.5543178221e+000	 3.2570763510e-001	 1.6764674780e+000
 2.5511828070e+000	 3.4941563383e-001	 1.6483149695e+000
 2.5478168850e+000	 3.7316768424e-001	 1.6168150568e+000
 2.5442183801e+000	 3.9696074632e-001	 1.5818424150e+000
 2.5403856636e+000	 4.2079173025e-001	 1.5432145754e+000
 2.5363171549e+000	 4.4465749718e-001	 1.5006910088e+000
 2.5320113237e+000	 4.6855485998e-001	 1.4539723149e+000
 2.5894827624e+000	 2.3362153855e-001	 1.7370788863e+000
 2.5872320890e+000	 2.5735212793e-001	 1.7227649100e+000
 2.5847554789e+000	 2.8113895895e-001	 1.7050746855e+000
 2.5820510657e+000	 3.0497916961e-001	 1.6840898660e+000
 2.5791170243e+000	 3.2886984515e-001	 1.6598379972e+000
 2.5759515721e+000	 3.5280801863e-001	 1.6322912037e+000
 2.5725529713e+000	 3.7679067147e-001	 1.6013649652e+000
 2.5689195295e+000	 4.0081473414e-001	 1.5669169852e+000
 2.5650496021e+000	 4.2487708685e-001	 1.5287461592e+000
 2.5609415933e+000	 4.4897456026e-001	 1.4865916475e+000
 2.5565939579e+000	 4.7310393629e-001	 1.4401320575e+000
 2.6143816351e+000	 2.3586789950e-001	 1.7131709480e+000
 2.6121093206e+000	 2.5982666762e-001	 1.6993196437e+000
 2.6096088970e+000	 2.8384221817e-001	 1.6821662956e+000
 2.6068784798e+000	 3.0791166162e-001	 1.6617822425e+000
 2.6039162264e+000	 3.3203205520e-001	 1.6381830643e+000
 2.6007203373e+000	 3.5620040342e-001	 1.6113272458e+000
 2.5972890575e+000	 3.8041365869e-001	 1.5811149300e+000
 2.5936206788e+000	 4.0466872197e-001	 1.5473867698e+000
 2.5897135406e+000	 4.2896244345e-001	 1.5099228806e+000
 2.5855660317e+000	 4.5329162333e-001	 1.4684419018e+000
 2.5811765921e+000	 4.7765301260e-001	 1.4226001713e+000
 2.6392805078e+000	 2.3811426044e-001	 1.6845404887e+000
 2.6369865522e+000	 2.6230120731e-001	 1.6710279807e+000
 2.6344623150e+000	 2.8654547739e-001	 1.6543424366e+000
 2.6317058939e+000	 3.1084415364e-001	 1.6345450436e+000
 2.6287154286e+000	 3.3519426525e-001	 1.6116395186e+000
 2.6254891024e+000	 3.5959278821e-001	 1.5855707461e+000
 2.6220251438e+000	 3.8403664592e-001	 1.5562235097e+000
 2.6183218281e+000	 4.0852270980e-001	 1.5234213234e+000
 2.6143774790e+000	 4.3304780006e-001	 1.4869253694e+000
 2.6101904701e+000	 4.5760868641e-001	 1.4464335461e+000
 2.6057592263e+000	 4.8220208891e-001	 1.4015796341e+000
 2.6641793805e+000	 2.4036062139e-001	 1.6512804066e+000
 2.6618637839e+000	 2.6477574700e-001	 1.6379930710e+000
 2.6593157331e+000	 2.8924873661e-001	 1.6217166540e+000
 2.6565333080e+000	 3.1377664565e-001	 1.6025023479e+000
 2.6535146308e+000	 3.3835647530e-001	 1.5803421018e+000
 2.6502578675e+000	 3.6298517301e-001	 1.5551672326e+000
 2.6467612300e+000	 3.8765963314e-001	 1.5268471330e+000
 2.6430229774e+000	 4.1237669763e-001	 1.4951880821e+000
 2.6390414175e+000	 4.3713315666e-001	 1.4599321661e+000
 2.6348149085e+000	 4.6192574949e-001	 1.4207563130e+000
 2.6303418605e+000	 4.8675116522e-001	 1.3772714483e+000
 2.6890782533e+000	 2.4260698234e-001	 1.6134818630e+000
 2.6867410155e+000	 2.6725028670e-001	 1.6003162366e+000
 2.6841691512e+000	 2.9195199583e-001	 1.5844005911e+000
 2.6813607221e+000	 3.1670913767e-001	 1.5657762741e+000
 2.6783138329e+000	 3.4151868535e-001	 1.5444235551e+000
 2.6750266326e+000	 3.6637755780e-001	 1.5202602088e+000
 2.6714973163e+000	 3.9128262037e-001	 1.4931401976e+000
 2.6677241268e+000	 4.1623068545e-001	 1.4628524611e+000
 2.6637053560e+000	 4.4121851326e-001	 1.4291198182e+000
 2.6594393469e+000	 4.6624281257e-001	 1.3915979875e+000
 2.6549244947e+000	 4.9130024153e-001	 1.3498747321e+000
 2.7139771260e+000	 2.4485334329e-001	 1.5712343611e+000
 2.7116182471e+000	 2.6972482639e-001	 1.5580970556e+000
 2.7090225692e+000	 2.9465525505e-001	 1.5425040768e+000
 2.7061881362e+000	 3.1964162968e-001	 1.5244870714e+000
 2.7031130351e+000	 3.4468089540e-001	 1.5040147113e+000
 2.6997953977e+000	 3.6976994260e-001	 1.4809912468e+000
 2.6962334026e+000	 3.9490560759e-001	 1.4552551633e+000
 2.6924252761e+000	 4.2008467328e-001	 1.4265779479e+000
 2.6883692945e+000	 4.4530386987e-001	 1.3946629721e+000
 2.6840637853e+000	 4.7055987565e-001	 1.3591444969e+000
 2.6795071290e+000	 4.9584931784e-001	 1.3195868058e+000
 2.7388759987e+000	 2.4709970424e-001	 1.5246258220e+000
 2.7364954787e+000	 2.7219936608e-001	 1.5114334413e+000
 2.7338759873e+000	 2.9735851428e-001	 1.4961352075e+000
 2.7310155503e+000	 3.2257412170e-001	 1.4787532044e+000
 2.7279122372e+000	 3.4784310545e-001	 1.4592445813e+000
 2.7245641628e+000	 3.7316232739e-001	 1.4375000751e+000
 2.7209694888e+000	 3.9852859482e-001	 1.4133426400e+000
 2.7171264254e+000	 4.2393866111e-001	 1.3865261895e+000
 2.7130332330e+000	 4.4938922647e-001	 1.3567344591e+000
 2.7086882237e+000	 4.7487693873e-001	 1.3235799948e+000
 2.7040897632e+000	 5.0039839415e-001	 1.2866032739e+000
 2.4582634210e+000	 4.5490763105e-001	 1.6108826112e+000
 2.4538511564e+000	 4.7813648941e-001	 1.5833791371e+000
 2.4492056613e+000	 5.0138969748e-001	 1.5502301974e+000
 2.4443256044e+000	 5.2466402543e-001	 1.5119651304e+000
 2.4392097087e+000	 5.4795620010e-001	 1.4691744945e+000
 2.4338567526e+000	 5.7126290603e-001	 1.4225101864e+000
 2.4282655721e+000	 5.9458078647e-001	 1.3726854276e+000
 2.4224350612e+000	 6.1790644450e-001	 1.3204746169e+000
 2.4163641743e+000	 6.4123644421e-001	 1.2586053901e+000
 2.4100519264e+000	 6.6456731185e-001	 1.2004421210e+000
 2.4034973955e+000	 6.8789553712e-001	 1.1510154802e+000
 2.4828460553e+000	 4.5945670736e-001	 1.5256932339e+000
 2.4783896679e+000	 4.8291785430e-001	 1.5087001755e+000
 2.4736977179e+000	 5.0640359445e-001	 1.4840697177e+000
 2.4687688605e+000	 5.2991066568e-001	 1.4523448276e+000
 2.4636018058e+000	 5.5343576211e-001	 1.4141328227e+000
 2.4581953202e+000	 5.7697553510e-001	 1.3701055146e+000
 2.4525482278e+000	 6.0052659434e-001	 1.3209992164e+000
 2.4466594119e+000	 6.2408550895e-001	 1.2676146096e+000
 2.4405278160e+000	 6.4764880865e-001	 1.2022077552e+000
 2.4341524457e+000	 6.7121298497e-001	 1.1443521240e+000
 2.4275323694e+000	 6.9477449249e-001	 1.0945845444e+000
 2.5074286895e+000	 4.6400578367e-001	 1.4639158930e+000
 2.5029281795e+000	 4.8769921920e-001	 1.4415724343e+000
 2.4981897745e+000	 5.1141749143e-001	 1.4168276504e+000
 2.4932121165e+000	 5.3515730594e-001	 1.3911759554e+000
 2.4879939028e+000	 5.5891532411e-001	 1.3570523391e+000
 2.4825338877e+000	 5.8268816416e-001	 1.3151493690e+000
 2.4768308835e+000	 6.0647240220e-001	 1.2662273459e+000
 2.4708837625e+000	 6.3026457340e-001	 1.2084381056e+000
 2.4646914578e+000	 6.5406117310e-001	 1.1436088187e+000
 2.4582529650e+000	 6.7785865809e-001	 1.0862757216e+000
 2.4515673434e+000	 7.0165344787e-001	 1.0364040115e+000
 2.5320113237e+000	 4.6855485998e-001	 1.4539723149e+000
 2.5274666911e+000	 4.9248058409e-001	 1.4324996141e+000
 2.5226818311e+000	 5.1643138840e-001	 1.4040781127e+000
 2.5176553726e+000	 5.4040394619e-001	 1.3682375267e+000
 2.5123859999e+000	 5.6439488611e-001	 1.3244487514e+000
 2.5068724552e+000	 5.8840079322e-001	 1.2721236839e+000
 2.5011135392e+000	 6.1241821007e-001	 1.2106151784e+000
 2.4951081131e+000	 6.3644363785e-001	 1.1463746108e+000
 2.4888550995e+000	 6.6047353755e-001	 1.0828796279e+000
 2.4823534842e+000	 6.8450433122e-001	 1.0262818129e+000
 2.4756023173e+000	 7.0853240324e-001	 9.7654023671e-001
 2.5565939579e+000	 4.7310393629e-001	 1.4401320575e+000
 2.5520052026e+000	 4.9726194898e-001	 1.4198756893e+000
 2.5471738878e+000	 5.2144528538e-001	 1.3926942646e+000
 2.5420986286e+000	 5.4565058645e-001	 1.3580904893e+000
 2.5367780970e+000	 5.6987444812e-001	 1.3155064269e+000
 2.5312110227e+000	 5.9411342228e-001	 1.2643233309e+000
 2.5253961950e+000	 6.1836401794e-001	 1.2038616126e+000
 2.5193324637e+000	 6.4262270229e-001	 1.1286097081e+000
 2.5130187412e+000	 6.6688590199e-001	 1.0533616529e+000
 2.5064540035e+000	 6.9115000434e-001	 9.8183769789e-001
 2.4996372913e+000	 7.1541135862e-001	 9.1505840358e-001
 2.5811765921e+000	 4.7765301260e-001	 1.4226001713e+000
 2.5765437142e+000	 5.0204331388e-001	 1.4039184720e+000
 2.5716659444e+000	 5.2645918235e-001	 1.3783853944e+000
 2.5665418847e+000	 5.5089722670e-001	 1.3454761443e+000
 2.5611701941e+000	 5.7535401012e-001	 1.3046033963e+000
 2.5555495903e+000	 5.9982605134e-001	 1.2551171346e+000
 2.5496788507e+000	 6.2430982580e-001	 1.1963046343e+000
 2.5435568143e+000	 6.4880176674e-001	 1.1230734132e+000
 2.5371823830e+000	 6.7329826643e-001	 1.0524997913e+000
 2.5305545228e+000	 6.9779567746e-001	 9.8489403774e-001
 2.5236722653e+000	 7.2229031399e-001	 9.2025000586e-001
 2.6057592263e+000	 4.8220208891e-001	 1.4015796341e+000
 2.6010822257e+000	 5.0682467877e-001	 1.3848437305e+000
 2.5961580010e+000	 5.3147307933e-001	 1.3613801994e+000
 2.5909851407e+000	 5.5614386696e-001	 1.3306362457e+000
 2.5855622912e+000	 5.8083357212e-001	 1.2919945854e+000
 2.5798881578e+000	 6.0553868040e-001	 1.2447732958e+000
 2.5739615064e+000	 6.3025563367e-001	 1.1863125917e+000
 2.5677811649e+000	 6.5498083118e-001	 1.1182622637e+000
 2.5613460247e+000	 6.7971063087e-001	 1.0524429320e+000
 2.5546550420e+000	 7.0444135058e-001	 9.8885036031e-001
 2.5477072392e+000	 7.2916926936e-001	 9.2747781796e-001
 2.6303418605e+000	 4.8675116522e-001	 1.3772714483e+000
 2.6256207373e+000	 5.1160604366e-001	 1.3628652849e+000
 2.6206500576e+000	 5.3648697630e-001	 1.3419054715e+000
 2.6154283968e+000	 5.6139050721e-001	 1.3138106991e+000
 2.6099543883e+000	 5.8631313412e-001	 1.2779331446e+000
 2.6042267253e+000	 6.1125130946e-001	 1.2335583276e+000
 2.5982441621e+000	 6.3620144153e-001	 1.1766449578e+000
 2.5920055155e+000	 6.6115989563e-001	 1.1141482521e+000
 2.5855096665e+000	 6.8612299532e-001	 1.0531571989e+000
 2.5787555613e+000	 7.1108702369e-001	 9.9366653769e-001
 2.5717422132e+000	 7.3604822473e-001	 9.3566910571e-001
 2.6549244947e+000	 4.9130024153e-001	 1.3498747321e+000
 2.6501592489e+000	 5.1638740856e-001	 1.3381950972e+000
 2.6451421142e+000	 5.4150087327e-001	 1.3201861844e+000
 2.6398716528e+000	 5.6663714746e-001	 1.2952376476e+000
 2.6343464854e+000	 5.9179269612e-001	 1.2626705310e+000
 2.6285652928e+000	 6.1696393852e-001	 1.2217371340e+000
 2.6225268178e+000	 6.4214724939e-001	 1.1675910208e+000
 2.6162298662e+000	 6.6733896007e-001	 1.1107019741e+000
 2.6096733082e+000	 6.9253535976e-001	 1.0546074477e+000
 2.6028560806e+000	 7.1773269681e-001	 9.9930131690e-001
 2.5957771871e+000	 7.4292718010e-001	 9.4477613956e-001
 2.6795071290e+000	 4.9584931784e-001	 1.3195868058e+000
 2.6746977604e+000	 5.2116877345e-001	 1.3110433566e+000
 2.6696341708e+000	 5.4651477025e-001	 1.2964455781e+000
 2.6643149089e+000	 5.7188378771e-001	 1.2751535522e+000
 2.6587385825e+000	 5.9727225811e-001	 1.2464565858e+000
 2.6529038604e+000	 6.2267656758e-001	 1.2095730835e+000
 2.6468094736e+000	 6.4809305726e-001	 1.1591253062e+000
 2.6404542168e+000	 6.7351802451e-001	 1.1078926924e+000
 2.6338369500e+000	 6.9894772419e-001	 1.0567573237e+000
 2.6269565998e+000	 7.2437836993e-001	 1.0057123715e+000
 2.6198121611e+000	 7.4980613547e-001	 9.5475026764e-001
 2.7040897632e+000	 5.0039839415e-001	 1.2866032739e+000
 2.6992362720e+000	 5.2595013834e-001	 1.2816185599e+000
 2.6941262274e+000	 5.5152866722e-001	 1.2709052368e+000
 2.6887581649e+000	 5.7713042797e-001	 1.2537932684e+000
 2.6831306796e+000	 6.0275182011e-001	 1.2295396083e+000
 2.6772424279e+000	 6.2838919664e-001	 1.1961743588e+000
 2.6710921293e+000	 6.5403886512e-001	 1.1512209641e+000
 2.6646785674e+000	 6.7969708895e-001	 1.1056883976e+000
 2.6580005917e+000	 7.0536008863e-001	 1.0595693170e+000
 2.6510571191e+000	 7.3102404304e-001	 1.0128563505e+000
 2.6438471350e+000	 7.5668509084e-001	 9.6554195762e-001
 2.4034973955e+000	 6.8789553712e-001	 1.1510154802e+000
 2.3966997229e+000	 7.1121757443e-001	 1.1155624963e+000
 2.3896581153e+000	 7.3452984428e-001	 1.0752615906e+000
 2.3823718453e+000	 7.5782873460e-001	 1.0300113718e+000
 2.3748402530e+000	 7.8111060220e-001	 9.7970632377e-001
 2.3670627471e+000	 8.0437177429e-001	 9.2423698158e-001
 2.3590388060e+000	 8.2760854992e-001	 8.6349012637e-001
 2.3507679787e+000	 8.5081720161e-001	 7.9734899685e-001
 2.3422498860e+000	 8.7399397693e-001	 7.2569351831e-001
 2.3334842215e+000	 8.9713510015e-001	 6.4840054883e-001
 2.3244707527e+000	 9.2023677391e-001	 5.6534414242e-001
 2.4275323694e+000	 6.9477449249e-001	 1.0945845444e+000
 2.4206667202e+000	 7.1832975018e-001	 1.0604957223e+000
 2.4135546964e+000	 7.4187514273e-001	 1.0219565192e+000
 2.4061955637e+000	 7.6540702195e-001	 9.7886278676e-001
 2.3985886555e+000	 7.8892170823e-001	 9.3110571487e-001
 2.3907333746e+000	 8.1241549204e-001	 8.7857200797e-001
 2.3826291940e+000	 8.3588463542e-001	 8.2114407931e-001
 2.3742756584e+000	 8.5932537363e-001	 7.5870026379e-001
 2.3656723848e+000	 8.8273391670e-001	 6.9111504900e-001
 2.3568190637e+000	 9.0610645115e-001	 6.1825932448e-001
 2.3477154602e+000	 9.2943914165e-001	 5.4000064883e-001
 2.4515673434e+000	 7.0165344787e-001	 1.0364040115e+000
 2.4446337174e+000	 7.2544192593e-001	 1.0037689035e+000
 2.4374512776e+000	 7.4922044118e-001	 9.6708162400e-001
 2.4300192822e+000	 7.7298530930e-001	 9.2623507557e-001
 2.4223370580e+000	 7.9673281426e-001	 8.8111695557e-001
 2.4144040021e+000	 8.2045920978e-001	 8.3160993178e-001
 2.4062195821e+000	 8.4416072093e-001	 7.7759183708e-001
 2.3977833382e+000	 8.6783354565e-001	 7.1893588362e-001
 2.3890948837e+000	 8.9147385648e-001	 6.5551089606e-001
 2.3801539060e+000	 9.1507780216e-001	 5.8718156417e-001
 2.3709601677e+000	 9.3864150939e-001	 5.1380871414e-001
 2.4756023173e+000	 7.0853240324e-001	 9.7654023671e-001
 2.4686007146e+000	 7.3255410168e-001	 9.4545037655e-001
 2.4613478587e+000	 7.5656573962e-001	 9.1070743424e-001
 2.4538430006e+000	 7.8056359665e-001	 8.7220117024e-001
 2.4460854606e+000	 8.0454392028e-001	 8.2981558926e-001
 2.4380746295e+000	 8.2850292753e-001	 7.8342911530e-001
 2.4298099702e+000	 8.5243680643e-001	 7.3291478693e-001
 2.4212910180e+000	 8.7634171767e-001	 6.7814047283e-001
 2.4125173825e+000	 9.0021379625e-001	 6.1896910769e-001
 2.4034887482e+000	 9.2404915316e-001	 5.5525894815e-001
 2.3942048752e+000	 9.4784387714e-001	 4.8686384878e-001
 2.4996372913e+000	 7.1541135862e-001	 9.1505840358e-001
 2.4925677118e+000	 7.3966627743e-001	 8.8560732742e-001
 2.4852444399e+000	 7.6391103807e-001	 8.5290334379e-001
 2.4776667191e+000	 7.8814188400e-001	 8.1683287720e-001
 2.4698338631e+000	 8.1235502631e-001	 7.7727603841e-001
 2.4617452570e+000	 8.3654664528e-001	 7.3410679914e-001
 2.4534003582e+000	 8.6071289193e-001	 6.8719318806e-001
 2.4447986978e+000	 8.8484988969e-001	 6.3639750806e-001
 2.4359398814e+000	 9.0895373602e-001	 5.8157657478e-001
 2.4268235904e+000	 9.3302050416e-001	 5.2258197638e-001
 2.4174495828e+000	 9.5704624488e-001	 4.5926035424e-001
 2.5236722653e+000	 7.2229031399e-001	 9.2025000586e-001
 2.5165347091e+000	 7.4677845317e-001	 8.7398780786e-001
 2.5091410210e+000	 7.7125633651e-001	 8.2225381625e-001
 2.5014904375e+000	 7.9572017134e-001	 7.6501031623e-001
 2.4935822656e+000	 8.2016613233e-001	 7.2357165798e-001
 2.4854158845e+000	 8.4459036302e-001	 6.8371915558e-001
 2.4769907463e+000	 8.6898897743e-001	 6.4050622538e-001
 2.4683063776e+000	 8.9335806171e-001	 5.9378938029e-001
 2.4593623803e+000	 9.1769367579e-001	 5.4341908600e-001
 2.4501584326e+000	 9.4199185517e-001	 4.8924002465e-001
 2.4406942903e+000	 9.6624861262e-001	 4.3109138063e-001
 2.5477072392e+000	 7.2916926936e-001	 9.2747781796e-001
 2.5405017063e+000	 7.5389062892e-001	 8.8530680097e-001
 2.5330376022e+000	 7.7860163495e-001	 8.3788081360e-001
 2.5253141560e+000	 8.0329845869e-001	 7.8516541065e-001
 2.5173306682e+000	 8.2797723835e-001	 7.2712946839e-001
 2.5090865119e+000	 8.5263408076e-001	 6.6374513702e-001
 2.5005811343e+000	 8.7726506293e-001	 5.9498778829e-001
 2.4918140574e+000	 9.0186623372e-001	 5.5039744612e-001
 2.4827848791e+000	 9.2643361556e-001	 5.0458137983e-001
 2.4734932748e+000	 9.5096320617e-001	 4.5532139770e-001
 2.4639389978e+000	 9.7545098036e-001	 4.0244898097e-001
 2.5717422132e+000	 7.3604822473e-001	 9.3566910571e-001
 2.5644687035e+000	 7.6100280466e-001	 8.9756165883e-001
 2.5569341833e+000	 7.8594693340e-001	 8.5441301954e-001
 2.5491378744e+000	 8.1087674604e-001	 8.0619207754e-001
 2.5410790707e+000	 8.3578834438e-001	 7.5287086558e-001
 2.5327571394e+000	 8.6067779851e-001	 6.9442450153e-001
 2.5241715224e+000	 8.8554114843e-001	 6.3083112569e-001
 2.5153217372e+000	 9.1037440574e-001	 5.6207183356e-001
 2.5062073780e+000	 9.3517355533e-001	 4.8813060429e-001
 2.4968281170e+000	 9.5993455717e-001	 4.2091337919e-001
 2.4871837053e+000	 9.8465334810e-001	 3.7342416248e-001
 2.5957771871e+000	 7.4292718010e-001	 9.4477613956e-001
 2.5884357008e+000	 7.6811498040e-001	 9.1070187107e-001
 2.5808307645e+000	 7.9329223184e-001	 8.7179728252e-001
 2.5729615929e+000	 8.1845503338e-001	 8.2803466678e-001
 2.5648274732e+000	 8.4359945040e-001	 7.7938928267e-001
 2.5564277669e+000	 8.6872151625e-001	 7.2583928659e-001
 2.5477619105e+000	 8.9381723393e-001	 6.6736565939e-001
 2.5388294169e+000	 9.1888257776e-001	 6.0395212881e-001
 2.5296298768e+000	 9.4391349510e-001	 5.3558508762e-001
 2.5201629592e+000	 9.6890590817e-001	 4.6225350795e-001
 2.5104284129e+000	 9.9385571584e-001	 3.8394885205e-001
 2.6198121611e+000	 7.4980613547e-001	 9.5475026764e-001
 2.6124026980e+000	 7.7522715614e-001	 9.2467602127e-001
 2.6047273457e+000	 8.0063753028e-001	 8.8997955712e-001
 2.5967853113e+000	 8.2603332072e-001	 8.5063664226e-001
 2.5885758757e+000	 8.5141055642e-001	 8.0662583400e-001
 2.5800983944e+000	 8.7676523399e-001	 7.5792840086e-001
 2.5713522985e+000	 9.0209331943e-001	 7.0452823890e-001
 2.5623370967e+000	 9.2739074977e-001	 6.4641178362e-001
 2.5530523757e+000	 9.5265343487e-001	 5.8356791774e-001
 2.5434978015e+000	 9.7787725917e-001	 5.1598787524e-001
 2.5336731204e+000	 1.0030580836e+000	 4.4366514200e-001
 2.6438471350e+000	 7.5668509084e-001	 9.6554195762e-001
 2.6363696952e+000	 7.8233933189e-001	 9.3943182819e-001
 2.6286239268e+000	 8.0798282872e-001	 9.0890494465e-001
 2.6206090298e+000	 8.3361160807e-001	 8.7394062219e-001
 2.6123242783e+000	 8.5922166244e-001	 8.3452079173e-001
 2.6037690218e+000	 8.8480895173e-001	 7.9062991019e-001
 2.5949426866e+000	 9.1036940492e-001	 7.4225486612e-001
 2.5858447765e+000	 9.3589892178e-001	 6.8938488089e-001
 2.5764748746e+000	 9.6139337463e-001	 6.3201140598e-001
 2.5668326437e+000	 9.8684861017e-001	 5.7012801653e-001
 2.5569178279e+000	 1.0122604513e+000	 5.0373030175e-001
 2.3244707527e+000	 9.2023677391e-001	 5.6534414242e-001
 2.3152093213e+000	 9.4329518099e-001	 5.0583288572e-001
 2.3056998450e+000	 9.6630648602e-001	 4.4577407716e-001
 2.2959423174e+000	 9.8926683732e-001	 3.8501193748e-001
 2.2859368093e+000	 1.0121723687e+000	 3.2338385696e-001
 2.2756834694e+000	 1.0350192013e+000	 2.6072069728e-001
 2.2651825247e+000	 1.0578034457e+000	 1.9684711409e-001
 2.2544342814e+000	 1.0805212035e+000	 1.3158189982e-001
 2.2434391250e+000	 1.1031685694e+000	 6.4738346282e-002
 2.2321975215e+000	 1.1257416334e+000	-3.8753736363e-003
 2.2207100171e+000	 1.1482364826e+000	-7.4455805774e-002
 2.3477154602e+000	 9.2943914165e-001	 5.4000064883e-001
 2.3383614145e+000	 9.5272813280e-001	 4.8386929472e-001
 2.3287568434e+000	 9.7596955088e-001	 4.2694161593e-001
 2.3189017405e+000	 9.9915950569e-001	 3.6905380560e-001
 2.3087961774e+000	 1.0222940924e+000	 3.1003524790e-001
 2.2984403041e+000	 1.0453693934e+000	 2.4970883516e-001
 2.2878343500e+000	 1.0683814802e+000	 1.8789130606e-001
 2.2769786242e+000	 1.0913264155e+000	 1.2439360447e-001
 2.2658735162e+000	 1.1142002551e+000	 5.9021258383e-002
 2.2545194967e+000	 1.1369990498e+000	-8.4252217101e-003
 2.2429171172e+000	 1.1597188475e+000	-7.8149925690e-002
 2.3709601677e+000	 9.3864150939e-001	 5.1380871414e-001
 2.3615135077e+000	 9.6216108461e-001	 4.6125330286e-001
 2.3518138419e+000	 9.8563261575e-001	 4.0766307830e-001
 2.3418611637e+000	 1.0090521741e+000	 3.5286596906e-001
 2.3316555455e+000	 1.0324158161e+000	 2.9668310455e-001
 2.3211971388e+000	 1.0557195854e+000	 2.3892914752e-001
 2.3104861752e+000	 1.0789595146e+000	 1.7941264823e-001
 2.2995229670e+000	 1.1021316275e+000	 1.1793641954e-001
 2.2883079075e+000	 1.1252319408e+000	 5.4297932530e-002
 2.2768414719e+000	 1.1482564661e+000	-1.1710268141e-002
 2.2651242174e+000	 1.1712012123e+000	-8.0300129806e-002
 2.3942048752e+000	 9.4784387714e-001	 4.8686384878e-001
 2.3846656010e+000	 9.7159403643e-001	 4.3808126470e-001
 2.3748708403e+000	 9.9529568061e-001	 3.8803551153e-001
 2.3648205869e+000	 1.0189448424e+000	 3.3654601318e-001
 2.3545149136e+000	 1.0425375398e+000	 2.8342539241e-001
 2.3439539735e+000	 1.0660697774e+000	 2.2847981903e-001
 2.3331380004e+000	 1.0895375491e+000	 1.7150938026e-001
 2.3220673098e+000	 1.1129368396e+000	 1.1230847242e-001
 2.3107422987e+000	 1.1362636265e+000	 5.0666213548e-002
 2.2991634471e+000	 1.1595138824e+000	-1.3633123942e-002
 2.2873313176e+000	 1.1826835771e+000	-8.0809661164e-002
 2.4174495828e+000	 9.5704624488e-001	 4.5926035424e-001
 2.4078176942e+000	 9.8102698824e-001	 4.1444841394e-001
 2.3979278388e+000	 1.0049587455e+000	 3.6815493770e-001
 2.3877800100e+000	 1.0288375108e+000	 3.2019060140e-001
 2.3773742817e+000	 1.0526592634e+000	 2.7035926601e-001
 2.3667108082e+000	 1.0764199694e+000	 2.1845834183e-001
 2.3557898257e+000	 1.1001155835e+000	 1.6427917531e-001
 2.3446116526e+000	 1.1237420516e+000	 1.0760745760e-001
 2.3331766900e+000	 1.1472953122e+000	 4.8223654485e-002
 2.3214854223e+000	 1.1707712988e+000	-1.4096543275e-002
 2.3095384178e+000	 1.1941659420e+000	-7.9581749854e-002
 2.4406942903e+000	 9.6624861262e-001	 4.3109138063e-001
 2.4309697874e+000	 9.9045994005e-001	 3.9044891680e-001
 2.4209848372e+000	 1.0146218103e+000	 3.4811640259e-001
 2.4107394332e+000	 1.0387301792e+000	 3.0389551921e-001
 2.4002336497e+000	 1.0627809871e+000	 2.5758110751e-001
 2.3894676429e+000	 1.0867701614e+000	 2.0896154854e-001
 2.3784416509e+000	 1.1106936180e+000	 1.5781916705e-001
 2.3671559954e+000	 1.1345472636e+000	 1.0393065729e-001
 2.3556110812e+000	 1.1583269979e+000	 4.7067530515e-002
 2.3438073975e+000	 1.1820287151e+000	-1.3003416633e-002
 2.3317455179e+000	 1.2056483068e+000	-7.6519613639e-002
 2.4639389978e+000	 9.7545098036e-001	 4.0244898097e-001
 2.4541218806e+000	 9.9989289186e-001	 3.6617592237e-001
 2.4440418357e+000	 1.0242848752e+000	 3.2801402169e-001
 2.4336988564e+000	 1.0486228476e+000	 2.8775571554e-001
 2.4230930178e+000	 1.0729027108e+000	 2.4518656315e-001
 2.4122244775e+000	 1.0971203534e+000	 2.0008564334e-001
 2.4010934762e+000	 1.1212716525e+000	 1.5222597511e-001
 2.3897003382e+000	 1.1453524757e+000	 1.0137496089e-001
 2.3780454725e+000	 1.1693586836e+000	 4.7294852038e-002
 2.3661293727e+000	 1.1932861314e+000	-1.0256764413e-002
 2.3539526181e+000	 1.2171306716e+000	-7.1526458530e-002
 2.4871837053e+000	 9.8465334810e-001	 3.7342416248e-001
 2.4772739738e+000	 1.0093258437e+000	 3.4172161017e-001
 2.4670988341e+000	 1.0339479401e+000	 3.0794102366e-001
 2.4566582796e+000	 1.0585155159e+000	 2.7186534188e-001
 2.4459523859e+000	 1.0830244345e+000	 2.3327057762e-001
 2.4349813122e+000	 1.1074705454e+000	 1.9192623136e-001
 2.4237453014e+000	 1.1318496869e+000	 1.4759572905e-001
 2.4122446810e+000	 1.1561576877e+000	 1.0003688330e-001
 2.4004798637e+000	 1.1803903692e+000	 4.9002377053e-002
 2.3884513479e+000	 1.2045435478e+000	-5.7597308423e-003
 2.3761597183e+000	 1.2286130364e+000	-6.4505479341e-002
 2.5104284129e+000	 9.9385571584e-001	 3.8394885205e-001
 2.5004260670e+000	 1.0187587955e+000	 3.1882047285e-001
 2.4901558326e+000	 1.0436110049e+000	 2.8798979142e-001
 2.4796177027e+000	 1.0684081843e+000	 2.5631778916e-001
 2.4688117540e+000	 1.0931461582e+000	 2.2192742657e-001
 2.4577381469e+000	 1.1178207375e+000	 1.8457834639e-001
 2.4463971267e+000	 1.1424277214e+000	 1.4402409112e-001
 2.4347890238e+000	 1.1669628997e+000	 1.0001258229e-001
 2.4229142550e+000	 1.1914220549e+000	 5.2286622850e-002
 2.4107733232e+000	 1.2158009641e+000	 5.8442175158e-004
 2.3983668184e+000	 1.2400954013e+000	-5.5359860200e-002
 2.5336731204e+000	 1.0030580836e+000	 4.4366514200e-001
 2.5235781602e+000	 1.0281917473e+000	 3.8377084889e-001
 2.5132128310e+000	 1.0532740698e+000	 3.1964829541e-001
 2.5025771259e+000	 1.0783008527e+000	 2.5127459127e-001
 2.4916711221e+000	 1.1032678819e+000	 2.1125074726e-001
 2.4804949816e+000	 1.1281709295e+000	 1.7813647712e-001
 2.4690489519e+000	 1.1530057558e+000	 1.4160627762e-001
 2.4573333667e+000	 1.1777681118e+000	 1.0139787488e-001
 2.4453486462e+000	 1.2024537406e+000	 5.7243877044e-002
 2.4330952984e+000	 1.2270583804e+000	 8.8723183613e-003
 2.4205739186e+000	 1.2515777661e+000	-4.4075110829e-002
 2.5569178279e+000	 1.0122604513e+000	 5.0373030175e-001
 2.5467302535e+000	 1.0376246991e+000	 4.4909815908e-001
 2.5362698295e+000	 1.0629371346e+000	 3.8996994751e-001
 2.5255365491e+000	 1.0881935211e+000	 3.2632424747e-001
 2.5145304902e+000	 1.1133896056e+000	 2.5814087166e-001
 2.5032518163e+000	 1.1385211215e+000	 1.8540076313e-001
 2.4917007772e+000	 1.1635837903e+000	 1.4043707925e-001
 2.4798777095e+000	 1.1885733238e+000	 1.0428825283e-001
 2.4677830375e+000	 1.2134854263e+000	 6.3970208017e-002
 2.4554172736e+000	 1.2383157968e+000	 1.9200476419e-002
 2.4427810188e+000	 1.2630601309e+000	-3.1706771308e-002
 2.2207100171e+000	 1.1482364826e+000	-7.4455805774e-002
 2.2089772391e+000	 1.1706492033e+000	-1.3460509522e-001
 2.1969998960e+000	 1.1929758828e+000	-1.9571377075e-001
 2.1847787778e+000	 1.2152126119e+000	-2.5805390139e-001
 2.1723147561e+000	 1.2373554867e+000	-3.2190237013e-001
 2.1596087844e+000	 1.2594006108e+000	-3.8171902901e-001
 2.1466618980e+000	 1.2813440973e+000	-4.3350316715e-001
 2.1334752143e+000	 1.3031820709e+000	-4.8421569123e-001
 2.1200499323e+000	 1.3249106704e+000	-5.3387544311e-001
 2.1063873328e+000	 1.3465260504e+000	-5.8250128914e-001
 2.0924887780e+000	 1.3680243835e+000	-6.3011213712e-001
 2.2429171172e+000	 1.1597188475e+000	-7.8149925690e-002
 2.2310670115e+000	 1.1823556953e+000	-1.3969309793e-001
 2.2189698950e+000	 1.2049056416e+000	-2.0222454607e-001
 2.2066265656e+000	 1.2273647380e+000	-2.6601786166e-001
 2.1940379036e+000	 1.2497290416e+000	-3.3135151046e-001
 2.1812048722e+000	 1.2719946169e+000	-3.8573116237e-001
 2.1681285170e+000	 1.2941575382e+000	-4.3889778089e-001
 2.1548099664e+000	 1.3162138916e+000	-4.9099868005e-001
 2.1412504316e+000	 1.3381597771e+000	-5.4204223594e-001
 2.1274512061e+000	 1.3599913109e+000	-5.9203675828e-001
 2.1134136658e+000	 1.3817046273e+000	-6.4099051903e-001
 2.2651242174e+000	 1.1712012123e+000	-8.0300129806e-002
 2.2531567839e+000	 1.1940621873e+000	-1.4279781617e-001
 2.2409398939e+000	 1.2168354005e+000	-2.0631088123e-001
 2.2284743533e+000	 1.2395168641e+000	-2.7111487392e-001
 2.2157610512e+000	 1.2621025965e+000	-3.3176957877e-001
 2.2028009601e+000	 1.2845886230e+000	-3.8706459798e-001
 2.1895951360e+000	 1.3069709792e+000	-4.4130193646e-001
 2.1761447186e+000	 1.3292457123e+000	-4.9447981084e-001
 2.1624509309e+000	 1.3514088839e+000	-5.4659624191e-001
 2.1485150794e+000	 1.3734565714e+000	-5.9764909317e-001
 2.1343385536e+000	 1.3953848711e+000	-6.4763611096e-001
 2.2873313176e+000	 1.1826835771e+000	-8.0809661164e-002
 2.2752465563e+000	 1.2057686794e+000	-1.4382774589e-001
 2.2629098929e+000	 1.2287651593e+000	-2.0788654284e-001
 2.2503221411e+000	 1.2516689903e+000	-2.7264715218e-001
 2.2374841988e+000	 1.2744761513e+000	-3.2972290920e-001
 2.2243970479e+000	 1.2971826291e+000	-3.8576934669e-001
 2.2110617550e+000	 1.3197844202e+000	-4.4077487997e-001
 2.1974794707e+000	 1.3422775331e+000	-4.9472757851e-001
 2.1836514302e+000	 1.3646579906e+000	-5.4761521357e-001
 2.1695789527e+000	 1.3869218319e+000	-5.9942530809e-001
 2.1552634414e+000	 1.4090651150e+000	-6.5014518836e-001
 2.3095384178e+000	 1.1941659420e+000	-7.9581749854e-002
 2.2973363287e+000	 1.2174751714e+000	-1.4269103571e-001
 2.2848798918e+000	 1.2406949181e+000	-2.0686461474e-001
 2.2721699289e+000	 1.2638211164e+000	-2.6788351742e-001
 2.2592073463e+000	 1.2868497062e+000	-3.2538978364e-001
 2.2459931357e+000	 1.3097766352e+000	-3.8189372525e-001
 2.2325283739e+000	 1.3325978612e+000	-4.3737382515e-001
 2.2188142229e+000	 1.3553093538e+000	-4.9180810697e-001
 2.2048519296e+000	 1.3779070973e+000	-5.4517419373e-001
 2.1906428261e+000	 1.4003870924e+000	-5.9744936892e-001
 2.1761883292e+000	 1.4227453588e+000	-6.4861063965e-001
 2.3317455179e+000	 1.2056483068e+000	-7.6519613639e-002
 2.3194261010e+000	 1.2291816635e+000	-1.3929550346e-001
 2.3068498908e+000	 1.2526246769e+000	-2.0256151190e-001
 2.2940177167e+000	 1.2759732425e+000	-2.6115713517e-001
 2.2809304939e+000	 1.2992232611e+000	-3.1880834782e-001
 2.2675892236e+000	 1.3223706413e+000	-3.7548443695e-001
 2.2539949929e+000	 1.3454113021e+000	-4.3115405009e-001
 2.2401489750e+000	 1.3683411745e+000	-4.8578526206e-001
 2.2260524289e+000	 1.3911562040e+000	-5.3934564454e-001
 2.2117066994e+000	 1.4138523529e+000	-5.9180233824e-001
 2.1971132169e+000	 1.4364256026e+000	-6.4312212758e-001
 2.3539526181e+000	 1.2171306716e+000	-7.1526458530e-002
 2.3415158734e+000	 1.2408881555e+000	-1.3354865181e-001
 2.3288198898e+000	 1.2645544358e+000	-1.9407049993e-001
 2.3158655044e+000	 1.2881253686e+000	-2.5249669033e-001
 2.3026536414e+000	 1.3115968159e+000	-3.1001551665e-001
 2.2891853114e+000	 1.3349646475e+000	-3.6658664769e-001
 2.2754616119e+000	 1.3582247431e+000	-4.2216898856e-001
 2.2614837271e+000	 1.3813729952e+000	-4.7672075807e-001
 2.2472529282e+000	 1.4044053107e+000	-5.3019956917e-001
 2.2327705727e+000	 1.4273176134e+000	-5.8256251229e-001
 2.2180381047e+000	 1.4501058465e+000	-6.3376624132e-001
 2.3761597183e+000	 1.2286130364e+000	-6.4505479341e-002
 2.3636056458e+000	 1.2525946475e+000	-1.2513430645e-001
 2.3507898887e+000	 1.2764841946e+000	-1.8394278165e-001
 2.3377132922e+000	 1.3002774948e+000	-2.4192998615e-001
 2.3243767890e+000	 1.3239703708e+000	-2.9904703173e-001
 2.3107813993e+000	 1.3475586536e+000	-3.5524405788e-001
 2.2969282309e+000	 1.3710381841e+000	-4.1047031619e-001
 2.2828184793e+000	 1.3944048159e+000	-4.6467425822e-001
 2.2684534275e+000	 1.4176544174e+000	-5.1780362678e-001
 2.2538344460e+000	 1.4407828739e+000	-5.6980555028e-001
 2.2389629925e+000	 1.4637860903e+000	-6.2062664008e-001
 2.3983668184e+000	 1.2400954013e+000	-5.5359860200e-002
 2.3856954182e+000	 1.2643011396e+000	-1.1413680758e-001
 2.3727598877e+000	 1.2884139534e+000	-1.7219768311e-001
 2.3595610800e+000	 1.3124296209e+000	-2.2948398508e-001
 2.3460999366e+000	 1.3363439257e+000	-2.8593751567e-001
 2.3323774871e+000	 1.3601526597e+000	-3.4149897024e-001
 2.3183948499e+000	 1.3838516251e+000	-3.9610803187e-001
 2.3041532314e+000	 1.4074366366e+000	-4.4970346971e-001
 2.2896539269e+000	 1.4309035241e+000	-5.0222324098e-001
 2.2748983194e+000	 1.4542481344e+000	-5.5360459640e-001
 2.2598878803e+000	 1.4774663341e+000	-6.0378418884e-001
 2.4205739186e+000	 1.2515777661e+000	-4.4075110829e-002
 2.4077851906e+000	 1.2760076316e+000	-1.0179538610e-001
 2.3947298867e+000	 1.3003437123e+000	-1.5885399292e-001
 2.3814088678e+000	 1.3245817470e+000	-2.1518484732e-001
 2.3678230841e+000	 1.3487174805e+000	-2.7072052344e-001
 2.3539735750e+000	 1.3727466658e+000	-3.2539235395e-001
 2.3398614688e+000	 1.3966650660e+000	-3.7913053468e-001
 2.3254879836e+000	 1.4204684573e+000	-4.3186423336e-001
 2.3108544262e+000	 1.4441526308e+000	-4.8352170241e-001
 2.2959621927e+000	 1.4677133949e+000	-5.3403039527e-001
 2.2808127681e+000	 1.4911465780e+000	-5.8331708641e-001
 2.4427810188e+000	 1.2630601309e+000	-3.1706771308e-002
 2.4298749630e+000	 1.2877141236e+000	-8.8121224885e-002
 2.4166998856e+000	 1.3122734711e+000	-1.4392998666e-001
 2.4032566556e+000	 1.3367338731e+000	-1.9905796726e-001
 2.3895462317e+000	 1.3610910354e+000	-2.5342859085e-001
 2.3755696628e+000	 1.3853406719e+000	-3.0696390524e-001
 2.3613280878e+000	 1.4094785070e+000	-3.5958469656e-001
 2.3468227357e+000	 1.4335002780e+000	-4.1121060851e-001
 2.3320549255e+000	 1.4574017375e+000	-4.6176026567e-001
 2.3170260660e+000	 1.4811786555e+000	-5.1115140096e-001
 2.3017376559e+000	 1.5048268218e+000	-5.5930098671e-001
 2.0924887780e+000	 1.3680243835e+000	-6.3011213712e-001
 2.0783557117e+000	 1.3894018625e+000	-6.7746904656e-001
 2.0639896582e+000	 1.4106547028e+000	-7.2384213392e-001
 2.0493922227e+000	 1.4317791441e+000	-7.6917035232e-001
 2.0345650901e+000	 1.4527714528e+000	-8.1339226323e-001
 2.0195100253e+000	 1.4736279238e+000	-8.5644614051e-001
 2.0042288717e+000	 1.4943448831e+000	-8.9827007622e-001
 1.9887235515e+000	 1.5149186895e+000	-9.3880208800e-001
 1.9729960641e+000	 1.5353457367e+000	-9.7798022783e-001
 1.9570484858e+000	 1.5556224556e+000	-1.0157426918e+000
 1.9408829689e+000	 1.5757453160e+000	-1.0520279309e+000
 2.1134136658e+000	 1.3817046273e+000	-6.4099051903e-001
 2.0991392688e+000	 1.4032958811e+000	-6.8745083573e-001
 2.0846295548e+000	 1.4247612499e+000	-7.3290067850e-001
 2.0698861449e+000	 1.4460969356e+000	-7.7728782477e-001
 2.0549107410e+000	 1.4672991673e+000	-8.2055970937e-001
 2.0397051255e+000	 1.4883642030e+000	-8.6266352079e-001
 2.0242711605e+000	 1.5092883319e+000	-9.0354629928e-001
 2.0086107870e+000	 1.5300678764e+000	-9.4315503638e-001
 1.9927260247e+000	 1.5506991940e+000	-9.8143677574e-001
 1.9766189706e+000	 1.5711786801e+000	-1.0183387150e+000
 1.9602917986e+000	 1.5915027692e+000	-1.0538083083e+000
 2.1343385536e+000	 1.3953848711e+000	-6.4763611096e-001
 2.1199228259e+000	 1.4171898998e+000	-6.9350801860e-001
 2.1052694514e+000	 1.4388677969e+000	-7.3834400860e-001
 2.0903800671e+000	 1.4604147270e+000	-7.8210049926e-001
 2.0752563919e+000	 1.4818268818e+000	-8.2473361352e-001
 2.0599002258e+000	 1.5031004823e+000	-8.6619926784e-001
 2.0443134492e+000	 1.5242317808e+000	-9.0645326261e-001
 2.0284980225e+000	 1.5452170632e+000	-9.4545137409e-001
 2.0124559853e+000	 1.5660526514e+000	-9.8314944751e-001
 1.9961894555e+000	 1.5867349047e+000	-1.0195034912e+000
 1.9797006283e+000	 1.6072602223e+000	-1.0544697712e+000
 2.1552634414e+000	 1.4090651150e+000	-6.5014518836e-001
 2.1407063830e+000	 1.4310839184e+000	-6.9572815437e-001
 2.1259093480e+000	 1.4529743439e+000	-7.4025094835e-001
 2.1108739893e+000	 1.4747325185e+000	-7.8367844967e-001
 2.0956020428e+000	 1.4963545964e+000	-8.2597528795e-001
 2.0800953260e+000	 1.5178367615e+000	-8.6710592462e-001
 2.0643557379e+000	 1.5391752296e+000	-9.0703473596e-001
 2.0483852580e+000	 1.5603662501e+000	-9.4572609758e-001
 2.0321859460e+000	 1.5814061088e+000	-9.8314447000e-001
 2.0157599404e+000	 1.6022911292e+000	-1.0192544851e+000
 1.9991094580e+000	 1.6230176755e+000	-1.0540210335e+000
 2.1761883292e+000	 1.4227453588e+000	-6.4861063965e-001
 2.1614899402e+000	 1.4449779370e+000	-6.9419576826e-001
 2.1465492446e+000	 1.4670808910e+000	-7.3869764170e-001
 2.1313679116e+000	 1.4890503099e+000	-7.8208942419e-001
 2.1159476937e+000	 1.5108823109e+000	-8.2434407416e-001
 2.1002904263e+000	 1.5325730408e+000	-8.6543441862e-001
 2.0843980266e+000	 1.5541186784e+000	-9.0533322908e-001
 2.0682724935e+000	 1.5755154370e+000	-9.4401329874e-001
 2.0519159066e+000	 1.5967595661e+000	-9.8144752070e-001
 2.0353304252e+000	 1.6178473538e+000	-1.0176089672e+000
 2.0185182877e+000	 1.6387751286e+000	-1.0524709691e+000
 2.1971132169e+000	 1.4364256026e+000	-6.4312212758e-001
 2.1822734973e+000	 1.4588719557e+000	-6.8899249594e-001
 2.1671891411e+000	 1.4811874380e+000	-7.3375768002e-001
 2.1518618338e+000	 1.5033681014e+000	-7.7739895605e-001
 2.1362933446e+000	 1.5254100254e+000	-8.1989743676e-001
 2.1204855265e+000	 1.5473093200e+000	-8.6123413880e-001
 2.1044403153e+000	 1.5690621273e+000	-9.0139005169e-001
 2.0881597291e+000	 1.5906646239e+000	-9.4034620789e-001
 2.0716458673e+000	 1.6121130235e+000	-9.7808375390e-001
 2.0549009101e+000	 1.6334035783e+000	-1.0145840223e+000
 2.0379271174e+000	 1.6545325818e+000	-1.0498286041e+000
 2.2180381047e+000	 1.4501058465e+000	-6.3376624132e-001
 2.2030570544e+000	 1.4727659743e+000	-6.8019721987e-001
 2.1878290377e+000	 1.4952939850e+000	-7.2550222256e-001
 2.1723557560e+000	 1.5176858928e+000	-7.6967046800e-001
 2.1566389955e+000	 1.5399377400e+000	-8.1269105199e-001
 2.1406806268e+000	 1.5620455992e+000	-8.5455300816e-001
 2.1244826040e+000	 1.5840055761e+000	-8.9524537009e-001
 2.1080469646e+000	 1.6058138108e+000	-9.3475723447e-001
 2.0913758279e+000	 1.6274664809e+000	-9.7307782534e-001
 2.0744713949e+000	 1.6489598029e+000	-1.0101965590e+000
 2.0573359470e+000	 1.6702900350e+000	-1.0461031096e+000
 2.2389629925e+000	 1.4637860903e+000	-6.2062664008e-001
 2.2238406115e+000	 1.4866599929e+000	-6.6788619792e-001
 2.2084689343e+000	 1.5094005321e+000	-7.1400011003e-001
 2.1928496783e+000	 1.5320036842e+000	-7.5896537092e-001
 2.1769846464e+000	 1.5544654545e+000	-8.0277889130e-001
 2.1608757270e+000	 1.5767818785e+000	-8.4543755225e-001
 2.1445248928e+000	 1.5989490249e+000	-8.8693826058e-001
 2.1279342001e+000	 1.6209629977e+000	-9.2727800541e-001
 2.1111057885e+000	 1.6428199382e+000	-9.6645391553e-001
 2.0940418798e+000	 1.6645160274e+000	-1.0044633176e+000
 2.0767447767e+000	 1.6860474881e+000	-1.0413037948e+000
 2.2598878803e+000	 1.4774663341e+000	-6.0378418884e-001
 2.2446241686e+000	 1.5005540115e+000	-6.5213318492e-001
 2.2291088309e+000	 1.5235070791e+000	-6.9931797203e-001
 2.2133436005e+000	 1.5463214757e+000	-7.4534315699e-001
 2.1973302973e+000	 1.5689931690e+000	-7.9021330028e-001
 2.1810708273e+000	 1.5915181577e+000	-8.3393296384e-001
 2.1645671815e+000	 1.6138924738e+000	-8.7650675996e-001
 2.1478214356e+000	 1.6361121846e+000	-9.1793940131e-001
 2.1308357492e+000	 1.6581733956e+000	-9.5823575173e-001
 2.1136123646e+000	 1.6800722520e+000	-9.9740087786e-001
 2.0961536064e+000	 1.7018049413e+000	-1.0354401011e+000
 2.2808127681e+000	 1.4911465780e+000	-5.8331708641e-001
 2.2654077258e+000	 1.5144480302e+000	-6.3300954742e-001
 2.2497487275e+000	 1.5376136261e+000	-6.8152032838e-001
 2.2338375227e+000	 1.5606392671e+000	-7.2886148765e-001
 2.2176759482e+000	 1.5835208835e+000	-7.7504507320e-001
 2.2012659275e+000	 1.6062544370e+000	-8.2008316410e-001
 2.1846094702e+000	 1.6288359226e+000	-8.6398791318e-001
 2.1677086711e+000	 1.6512613715e+000	-9.0677159070e-001
 2.1505657098e+000	 1.6735268530e+000	-9.4844662876e-001
 2.1331828495e+000	 1.6956284766e+000	-9.8902566646e-001
 2.1155624361e+000	 1.7175623944e+000	-1.0285215955e+000
 2.3017376559e+000	 1.5048268218e+000	-5.5930098671e-001
 2.2861912829e+000	 1.5283420488e+000	-6.1058437231e-001
 2.2703886241e+000	 1.5517201731e+000	-6.6066968509e-001
 2.2543314449e+000	 1.5749570586e+000	-7.0957627690e-001
 2.2380215991e+000	 1.5980485981e+000	-7.5732352358e-001
 2.2214610278e+000	 1.6209907162e+000	-8.0393086035e-001
 2.2046517589e+000	 1.6437793714e+000	-8.4941781843e-001
 2.1875959066e+000	 1.6664105584e+000	-8.9380406243e-001
 2.1702956705e+000	 1.6888803104e+000	-9.3710942865e-001
 2.1527533344e+000	 1.7111847011e+000	-9.7935396394e-001
 2.1349712658e+000	 1.7333198476e+000	-1.0205579650e+000
 1.9408829689e+000	 1.5757453160e+000	-1.0520279309e+000
 1.9245017408e+000	 1.5957108290e+000	-1.1003481542e+000
 1.9079071027e+000	 1.6155155485e+000	-1.1541881711e+000
 1.8911014290e+000	 1.6351560736e+000	-1.2134234718e+000
 1.8740871660e+000	 1.6546290504e+000	-1.2746717859e+000
 1.8568668306e+000	 1.6739311735e+000	-1.2817086773e+000
 1.8394430092e+000	 1.6930591885e+000	-1.2907301918e+000
 1.8218183566e+000	 1.7120098935e+000	-1.3017480660e+000
 1.8039955943e+000	 1.7307801408e+000	-1.3147683121e+000
 1.7859775094e+000	 1.7493668386e+000	-1.3297910546e+000
 1.7677669530e+000	 1.7677669530e+000	-1.3468103785e+000
 1.9602917986e+000	 1.5915027692e+000	-1.0538083083e+000
 1.9437467582e+000	 1.6116679373e+000	-1.0987699761e+000
 1.9269861737e+000	 1.6316707040e+000	-1.1482320337e+000
 1.9100124433e+000	 1.6515076344e+000	-1.2020740992e+000
 1.8928280376e+000	 1.6711753409e+000	-1.2601704429e+000
 1.8754354989e+000	 1.6906704852e+000	-1.3223901525e+000
 1.8578374393e+000	 1.7099897804e+000	-1.3245436137e+000
 1.8400365402e+000	 1.7291299925e+000	-1.3260803772e+000
 1.8220355503e+000	 1.7480879422e+000	-1.3286199267e+000
 1.8038372845e+000	 1.7668605069e+000	-1.3321788634e+000
 1.7854446225e+000	 1.7854446225e+000	-1.3367685664e+000
 1.9797006283e+000	 1.6072602223e+000	-1.0544697712e+000
 1.9629917756e+000	 1.6276250456e+000	-1.0962651146e+000
 1.9460652448e+000	 1.6478258595e+000	-1.1415618698e+000
 1.9289234576e+000	 1.6678591951e+000	-1.1902436671e+000
 1.9115689093e+000	 1.6877216314e+000	-1.2421897357e+000
 1.8940041672e+000	 1.7074097970e+000	-1.2972750680e+000
 1.8762318694e+000	 1.7269203723e+000	-1.3553705899e+000
 1.8582547237e+000	 1.7462500914e+000	-1.3523286104e+000
 1.8400755062e+000	 1.7653957436e+000	-1.3446730765e+000
 1.8216970596e+000	 1.7843541753e+000	-1.3370757733e+000
 1.8031222920e+000	 1.8031222920e+000	-1.3295653470e+000
 1.9991094580e+000	 1.6230176755e+000	-1.0540210335e+000
 1.9822367930e+000	 1.6435821538e+000	-1.0928370322e+000
 1.9651443158e+000	 1.6639810150e+000	-1.1341752942e+000
 1.9478344719e+000	 1.6842107558e+000	-1.1779233485e+000
 1.9303097810e+000	 1.7042679219e+000	-1.2239652566e+000
 1.9125728355e+000	 1.7241491087e+000	-1.2721817762e+000
 1.8946262995e+000	 1.7438509642e+000	-1.3224505293e+000
 1.8764729073e+000	 1.7633701903e+000	-1.3746461759e+000
 1.8581154622e+000	 1.7827035450e+000	-1.3627430845e+000
 1.8395568347e+000	 1.8018478437e+000	-1.3442854987e+000
 1.8207999616e+000	 1.8207999616e+000	-1.3249923257e+000
 2.0185182877e+000	 1.6387751286e+000	-1.0524709691e+000
 2.0014818104e+000	 1.6595392621e+000	-1.0884895704e+000
 1.9842233868e+000	 1.6801361704e+000	-1.1260705433e+000
 1.9667454862e+000	 1.7005623166e+000	-1.1651052032e+000
 1.9490506526e+000	 1.7208142124e+000	-1.2054823192e+000
 1.9311415038e+000	 1.7408884204e+000	-1.2470882769e+000
 1.9130207296e+000	 1.7607815561e+000	-1.2898072458e+000
 1.8946910909e+000	 1.7804902893e+000	-1.3335213483e+000
 1.8761554181e+000	 1.8000113464e+000	-1.3781108337e+000
 1.8574166098e+000	 1.8193415121e+000	-1.3536147015e+000
 1.8384776311e+000	 1.8384776311e+000	-1.3228444755e+000
 2.0379271174e+000	 1.6545325818e+000	-1.0498286041e+000
 2.0207268278e+000	 1.6754963704e+000	-1.0832269323e+000
 2.0033024578e+000	 1.6962913259e+000	-1.1172464461e+000
 1.9856565005e+000	 1.7169138773e+000	-1.1517821361e+000
 1.9677915243e+000	 1.7373605029e+000	-1.1867273558e+000
 1.9497101721e+000	 1.7576277322e+000	-1.2219739845e+000
 1.9314151596e+000	 1.7777121480e+000	-1.2574125918e+000
 1.9129092744e+000	 1.7976103882e+000	-1.2929326049e+000
 1.8941953740e+000	 1.8173191478e+000	-1.3284224772e+000
 1.8752763849e+000	 1.8368351805e+000	-1.3637698586e+000
 1.8561553006e+000	 1.8561553006e+000	-1.3229199767e+000
 2.0573359470e+000	 1.6702900350e+000	-1.0461031096e+000
 2.0399718452e+000	 1.6914534787e+000	-1.0770536655e+000
 2.0223815288e+000	 1.7124464814e+000	-1.1077023957e+000
 2.0045675147e+000	 1.7332654380e+000	-1.1379478565e+000
 1.9865323959e+000	 1.7539067934e+000	-1.1676878649e+000
 1.9682788404e+000	 1.7743670439e+000	-1.1968196605e+000
 1.9498095897e+000	 1.7946427398e+000	-1.2252400690e+000
 1.9311274580e+000	 1.8147304871e+000	-1.2528456666e+000
 1.9122353300e+000	 1.8346269492e+000	-1.2795329446e+000
 1.8931361600e+000	 1.8543288489e+000	-1.3051984740e+000
 1.8738329701e+000	 1.8738329701e+000	-1.3250200654e+000
 2.0767447767e+000	 1.6860474881e+000	-1.0413037948e+000
 2.0592168626e+000	 1.7074105870e+000	-1.0699746456e+000
 2.0414605999e+000	 1.7286016369e+000	-1.0974383233e+000
 2.0234785290e+000	 1.7496169988e+000	-1.1235968415e+000
 2.0052732676e+000	 1.7704530839e+000	-1.1483523610e+000
 1.9868475087e+000	 1.7911063556e+000	-1.1716073509e+000
 1.9682040198e+000	 1.8115733317e+000	-1.1932647511e+000
 1.9493456416e+000	 1.8318505861e+000	-1.2132281337e+000
 1.9302752859e+000	 1.8519347506e+000	-1.2314018639e+000
 1.9109959351e+000	 1.8718225172e+000	-1.2476912598e+000
 1.8915106397e+000	 1.8915106397e+000	-1.2887858762e+000
 2.0961536064e+000	 1.7018049413e+000	-1.0354401011e+000
 2.0784618800e+000	 1.7233676953e+000	-1.0619950615e+000
 2.0605396709e+000	 1.7447567924e+000	-1.0864546730e+000
 2.0423895433e+000	 1.7659685595e+000	-1.1087242996e+000
 2.0240141392e+000	 1.7869993744e+000	-1.1287103276e+000
 2.0054161770e+000	 1.8078456674e+000	-1.1463203267e+000
 1.9865984499e+000	 1.8285039236e+000	-1.1614632110e+000
 1.9675638251e+000	 1.8489706850e+000	-1.1740493980e+000
 1.9483152419e+000	 1.8692425520e+000	-1.1839909660e+000
 1.9288557102e+000	 1.8893161856e+000	-1.2137350477e+000
 1.9091883092e+000	 1.9091883092e+000	-1.2502519591e+000
 2.1155624361e+000	 1.7175623944e+000	-1.0285215955e+000
 2.0977068974e+000	 1.7393248036e+000	-1.0531204006e+000
 2.0796187419e+000	 1.7609119479e+000	-1.0747523786e+000
 2.0613005576e+000	 1.7823201203e+000	-1.0933261378e+000
 2.0427550109e+000	 1.8035456649e+000	-1.1087521732e+000
 2.0239848453e+000	 1.8245849791e+000	-1.1209430278e+000
 2.0049928800e+000	 1.8454345155e+000	-1.1298134522e+000
 1.9857820087e+000	 1.8660907839e+000	-1.1352805613e+000
 1.9663551978e+000	 1.8865503534e+000	-1.1549218889e+000
 1.9467154853e+000	 1.9068098540e+000	-1.1850339617e+000
 1.9268659787e+000	 1.9268659787e+000	-1.2121834912e+000
 2.1349712658e+000	 1.7333198476e+000	-1.0205579650e+000
 2.1169519149e+000	 1.7552819119e+000	-1.0433564357e+000
 2.0986978130e+000	 1.7770671034e+000	-1.0623328410e+000
 2.0802115719e+000	 1.7986716810e+000	-1.0773989291e+000
 2.0614958826e+000	 1.8200919554e+000	-1.0884691885e+000
 2.0425535136e+000	 1.8413242908e+000	-1.0954610096e+000
 2.0233873101e+000	 1.8623651074e+000	-1.0982948437e+000
 2.0040001923e+000	 1.8832108829e+000	-1.1091012676e+000
 1.9843951538e+000	 1.9038581548e+000	-1.1346793056e+000
 1.9645752604e+000	 1.9243035224e+000	-1.1564918791e+000
 1.9445436483e+000	 1.9445436482e+000	-1.1745502163e+000
 1.7677669530e+000	 1.7677669530e+000	-1.3468103785e+000
 1.7493668386e+000	 1.7859775094e+000	-1.3859076272e+000
 1.7307801408e+000	 1.8039955943e+000	-1.4160131084e+000
 1.7120098935e+000	 1.8218183566e+000	-1.4372362179e+000
 1.6930591885e+000	 1.8394430092e+000	-1.4496903377e+000
 1.6739311735e+000	 1.8568668306e+000	-1.4534925904e+000
 1.6546290504e+000	 1.8740871660e+000	-1.4487635959e+000
 1.6351560736e+000	 1.8911014290e+000	-1.4665976922e+000
 1.6155155485e+000	 1.9079071027e+000	-1.4778567683e+000
 1.5957108290e+000	 1.9245017408e+000	-1.4808346845e+000
 1.5757453160e+000	 1.9408829689e+000	-1.4755741051e+000
 1.7854446225e+000	 1.7854446225e+000	-1.3367685664e+000
 1.7668605069e+000	 1.8038372845e+000	-1.3669259717e+000
 1.7480879422e+000	 1.8220355503e+000	-1.3892511853e+000
 1.7291299925e+000	 1.8400365402e+000	-1.4038439196e+000
 1.7099897804e+000	 1.8578374393e+000	-1.4108066841e+000
 1.6906704852e+000	 1.8754354989e+000	-1.4110596846e+000
 1.6711753409e+000	 1.8928280376e+000	-1.4358880676e+000
 1.6515076344e+000	 1.9100124433e+000	-1.4534521188e+000
 1.6316707040e+000	 1.9269861737e+000	-1.4637670551e+000
 1.6116679373e+000	 1.9437467582e+000	-1.4668512760e+000
 1.5915027692e+000	 1.9602917986e+000	-1.4627263350e+000
 1.8031222920e+000	 1.8031222920e+000	-1.3295653470e+000
 1.7843541753e+000	 1.8216970596e+000	-1.3502934252e+000
 1.7653957436e+000	 1.8400755062e+000	-1.3643296310e+000
 1.7462500914e+000	 1.8582547237e+000	-1.3717643508e+000
 1.7269203723e+000	 1.8762318694e+000	-1.3749445711e+000
 1.7074097970e+000	 1.8940041672e+000	-1.4022969917e+000
 1.6877216314e+000	 1.9115689093e+000	-1.4234617213e+000
 1.6678591951e+000	 1.9289234576e+000	-1.4384330834e+000
 1.6478258595e+000	 1.9460652448e+000	-1.4472075551e+000
 1.6276250456e+000	 1.9629917756e+000	-1.4497837617e+000
 1.6072602223e+000	 1.9797006283e+000	-1.4461624717e+000
 1.8207999616e+000	 1.8207999616e+000	-1.3249923257e+000
 1.8018478437e+000	 1.8395568347e+000	-1.3358134815e+000
 1.7827035450e+000	 1.8581154622e+000	-1.3410645376e+000
 1.7633701903e+000	 1.8764729073e+000	-1.3434597571e+000
 1.7438509642e+000	 1.8946262995e+000	-1.3706280381e+000
 1.7241491087e+000	 1.9125728355e+000	-1.3927031770e+000
 1.7042679219e+000	 1.9303097810e+000	-1.4096610125e+000
 1.6842107558e+000	 1.9478344719e+000	-1.4214784752e+000
 1.6639810150e+000	 1.9651443158e+000	-1.4281336017e+000
 1.6435821538e+000	 1.9822367930e+000	-1.4296055508e+000
 1.6230176755e+000	 1.9991094580e+000	-1.4258746223e+000
 1.8384776311e+000	 1.8384776311e+000	-1.3228444755e+000
 1.8193415121e+000	 1.8574166098e+000	-1.3232925017e+000
 1.8000113464e+000	 1.8761554181e+000	-1.3212876937e+000
 1.7804902893e+000	 1.8946910909e+000	-1.3455839128e+000
 1.7607815561e+000	 1.9130207296e+000	-1.3658960174e+000
 1.7408884204e+000	 1.9311415038e+000	-1.3821837927e+000
 1.7208142124e+000	 1.9490506526e+000	-1.3944070266e+000
 1.7005623166e+000	 1.9667454862e+000	-1.4025255392e+000
 1.6801361704e+000	 1.9842233868e+000	-1.4064992169e+000
 1.6595392621e+000	 2.0014818104e+000	-1.4062880509e+000
 1.6387751286e+000	 2.0185182877e+000	-1.4018521793e+000
 1.8561553006e+000	 1.8561553006e+000	-1.3229199767e+000
 1.8368351805e+000	 1.8752763849e+000	-1.3130081714e+000
 1.8173191478e+000	 1.8941953740e+000	-1.3317675423e+000
 1.7976103882e+000	 1.9129092744e+000	-1.3476628657e+000
 1.7777121480e+000	 1.9314151596e+000	-1.3606403222e+000
 1.7576277322e+000	 1.9497101721e+000	-1.3706449826e+000
 1.7373605029e+000	 1.9677915243e+000	-1.3776208495e+000
 1.7169138773e+000	 1.9856565005e+000	-1.3815109068e+000
 1.6962913259e+000	 2.0033024578e+000	-1.3822571732e+000
 1.6754963704e+000	 2.0207268278e+000	-1.3798007628e+000
 1.6545325818e+000	 2.0379271174e+000	-1.3740819506e+000
 1.8738329701e+000	 1.8738329701e+000	-1.3250200654e+000
 1.8543288489e+000	 1.8931361600e+000	-1.3336828344e+000
 1.8346269492e+000	 1.9122353300e+000	-1.3425302627e+000
 1.8147304871e+000	 1.9311274580e+000	-1.3495763436e+000
 1.7946427398e+000	 1.9498095897e+000	-1.3547538723e+000
 1.7743670439e+000	 1.9682788404e+000	-1.3579934548e+000
 1.7539067934e+000	 1.9865323959e+000	-1.3592235677e+000
 1.7332654380e+000	 2.0045675147e+000	-1.3583706251e+000
 1.7124464814e+000	 2.0223815288e+000	-1.3553590530e+000
 1.6914534787e+000	 2.0399718452e+000	-1.3501113711e+000
 1.6702900350e+000	 2.0573359470e+000	-1.3425482806e+000
 1.8915106397e+000	 1.8915106397e+000	-1.2887858762e+000
 1.8718225172e+000	 1.9109959351e+000	-1.3549291816e+000
 1.8519347506e+000	 1.9302752859e+000	-1.3534450205e+000
 1.8318505861e+000	 1.9493456416e+000	-1.3512056256e+000
 1.8115733317e+000	 1.9682040198e+000	-1.3481306420e+000
 1.7911063556e+000	 1.9868475087e+000	-1.3441364552e+000
 1.7704530839e+000	 2.0052732676e+000	-1.3391362676e+000
 1.7496169988e+000	 2.0234785290e+000	-1.3330401836e+000
 1.7286016369e+000	 2.0414605999e+000	-1.3257553040e+000
 1.7074105870e+000	 2.0592168626e+000	-1.3171858282e+000
 1.6860474881e+000	 2.0767447767e+000	-1.3072331660e+000
 1.9091883092e+000	 1.9091883092e+000	-1.2502519591e+000
 1.8893161856e+000	 1.9288557102e+000	-1.3179595591e+000
 1.8692425520e+000	 1.9483152419e+000	-1.3643829140e+000
 1.8489706850e+000	 1.9675638251e+000	-1.3524334696e+000
 1.8285039236e+000	 1.9865984499e+000	-1.3406656114e+000
 1.8078456674e+000	 2.0054161770e+000	-1.3289817423e+000
 1.7869993744e+000	 2.0240141392e+000	-1.3172800361e+000
 1.7659685595e+000	 2.0423895433e+000	-1.3054545407e+000
 1.7447567924e+000	 2.0605396709e+000	-1.2933952915e+000
 1.7233676953e+000	 2.0784618800e+000	-1.2809884354e+000
 1.7018049413e+000	 2.0961536064e+000	-1.2681163642e+000
 1.9268659787e+000	 1.9268659787e+000	-1.2121834912e+000
 1.9068098540e+000	 1.9467154853e+000	-1.2680766801e+000
 1.8865503534e+000	 1.9663551978e+000	-1.3274685505e+000
 1.8660907839e+000	 1.9857820087e+000	-1.3531440451e+000
 1.8454345155e+000	 2.0049928800e+000	-1.3322547205e+000
 1.8245849791e+000	 2.0239848453e+000	-1.3124375642e+000
 1.8035456649e+000	 2.0427550109e+000	-1.2935759606e+000
 1.7823201203e+000	 2.0613005576e+000	-1.2755481475e+000
 1.7609119479e+000	 2.0796187419e+000	-1.2582273486e+000
 1.7393248036e+000	 2.0977068974e+000	-1.2414819181e+000
 1.7175623944e+000	 2.1155624361e+000	-1.2251754960e+000
 1.9445436483e+000	 1.9445436482e+000	-1.1745502163e+000
 1.9243035224e+000	 1.9645752604e+000	-1.2182509692e+000
 1.9038581548e+000	 1.9843951538e+000	-1.2664432788e+000
 1.8832108829e+000	 2.0040001923e+000	-1.3190085752e+000
 1.8623651074e+000	 2.0233873101e+000	-1.3227948255e+000
 1.8413242908e+000	 2.0425535136e+000	-1.2944126358e+000
 1.8200919554e+000	 2.0614958826e+000	-1.2679451284e+000
 1.7986716810e+000	 2.0802115719e+000	-1.2432549711e+000
 1.7770671034e+000	 2.0986978130e+000	-1.2201988226e+000
 1.7552819119e+000	 2.1169519149e+000	-1.1986274974e+000
 1.7333198476e+000	 2.1349712658e+000	-1.1783861428e+000
 1.5757453160e+000	 1.9408829689e+000	-1.4755741051e+000
 1.5556224556e+000	 1.9570484858e+000	-1.4695300308e+000
 1.5353457367e+000	 1.9729960641e+000	-1.4619439333e+000
 1.5149186895e+000	 1.9887235515e+000	-1.4527739980e+000
 1.4943448831e+000	 2.0042288717e+000	-1.4419764358e+000
 1.4736279238e+000	 2.0195100253e+000	-1.4295055577e+000
 1.4527714528e+000	 2.0345650901e+000	-1.4153138554e+000
 1.4317791441e+000	 2.0493922227e+000	-1.3993520873e+000
 1.4106547028e+000	 2.0639896582e+000	-1.3815693702e+000
 1.3894018625e+000	 2.0783557117e+000	-1.3619132765e+000
 1.3680243835e+000	 2.0924887780e+000	-1.3403299352e+000
 1.5915027692e+000	 1.9602917986e+000	-1.4627263350e+000
 1.5711786801e+000	 1.9766189706e+000	-1.4564123512e+000
 1.5506991940e+000	 1.9927260247e+000	-1.4482141068e+000
 1.5300678764e+000	 2.0086107870e+000	-1.4381106768e+000
 1.5092883319e+000	 2.0242711605e+000	-1.4260792924e+000
 1.4883642030e+000	 2.0397051255e+000	-1.4120953931e+000
 1.4672991673e+000	 2.0549107410e+000	-1.3961326850e+000
 1.4460969356e+000	 2.0698861449e+000	-1.3781632045e+000
 1.4247612499e+000	 2.0846295548e+000	-1.3581573883e+000
 1.4032958811e+000	 2.0991392688e+000	-1.3360841482e+000
 1.3817046273e+000	 2.1134136658e+000	-1.3119109514e+000
 1.6072602223e+000	 1.9797006283e+000	-1.4461624717e+000
 1.5867349047e+000	 1.9961894555e+000	-1.4402085123e+000
 1.5660526514e+000	 2.0124559853e+000	-1.4320366140e+000
 1.5452170632e+000	 2.0284980225e+000	-1.4216464197e+000
 1.5242317808e+000	 2.0443134492e+000	-1.4090358531e+000
 1.5031004823e+000	 2.0599002258e+000	-1.3942011482e+000
 1.4818268818e+000	 2.0752563919e+000	-1.3771368857e+000
 1.4604147270e+000	 2.0903800671e+000	-1.3578360354e+000
 1.4388677969e+000	 2.1052694514e+000	-1.3362900041e+000
 1.4171898998e+000	 2.1199228259e+000	-1.3124886889e+000
 1.3953848711e+000	 2.1343385536e+000	-1.2864205364e+000
 1.6230176755e+000	 1.9991094580e+000	-1.4258746223e+000
 1.6022911292e+000	 2.0157599404e+000	-1.4208926708e+000
 1.5814061088e+000	 2.0321859460e+000	-1.4133675187e+000
 1.5603662501e+000	 2.0483852580e+000	-1.4033190645e+000
 1.5391752296e+000	 2.0643557379e+000	-1.3907656047e+000
 1.5178367615e+000	 2.0800953260e+000	-1.3757238431e+000
 1.4963545964e+000	 2.0956020428e+000	-1.3582089046e+000
 1.4747325185e+000	 2.1108739893e+000	-1.3382343565e+000
 1.4529743439e+000	 2.1259093480e+000	-1.3158122350e+000
 1.4310839184e+000	 2.1407063830e+000	-1.2909530774e+000
 1.4090651150e+000	 2.1552634414e+000	-1.2636659604e+000
 1.6387751286e+000	 2.0185182877e+000	-1.4018521793e+000
 1.6178473538e+000	 2.0353304252e+000	-1.3984369677e+000
 1.5967595661e+000	 2.0519159066e+000	-1.3921615755e+000
 1.5755154370e+000	 2.0682724935e+000	-1.3830658517e+000
 1.5541186784e+000	 2.0843980266e+000	-1.3711881560e+000
 1.5325730408e+000	 2.1002904263e+000	-1.3565653453e+000
 1.5108823109e+000	 2.1159476937e+000	-1.3392327669e+000
 1.4890503099e+000	 2.1313679116e+000	-1.3192242587e+000
 1.4670808910e+000	 2.1465492446e+000	-1.2965721541e+000
 1.4449779370e+000	 2.1614899402e+000	-1.2713072941e+000
 1.4227453588e+000	 2.1761883292e+000	-1.2434590447e+000
 1.6545325818e+000	 2.0379271174e+000	-1.3740819506e+000
 1.6334035783e+000	 2.0549009101e+000	-1.3728116249e+000
 1.6121130235e+000	 2.0716458673e+000	-1.3683722912e+000
 1.5906646239e+000	 2.0881597291e+000	-1.3608234536e+000
 1.5690621273e+000	 2.1044403153e+000	-1.3502232323e+000
 1.5473093200e+000	 2.1204855265e+000	-1.3366283293e+000
 1.5254100254e+000	 2.1362933446e+000	-1.3200940011e+000
 1.5033681014e+000	 2.1518618338e+000	-1.3006740371e+000
 1.4811874380e+000	 2.1671891411e+000	-1.2784207445e+000
 1.4588719557e+000	 2.1822734973e+000	-1.2533849398e+000
 1.4364256026e+000	 2.1971132169e+000	-1.2256159459e+000
 1.6702900350e+000	 2.0573359470e+000	-1.3425482806e+000
 1.6489598029e+000	 2.0744713949e+000	-1.3439850350e+000
 1.6274664809e+000	 2.0913758279e+000	-1.3419519847e+000
 1.6058138108e+000	 2.1080469646e+000	-1.3365280007e+000
 1.5840055761e+000	 2.1244826040e+000	-1.3277906696e+000
 1.5620455992e+000	 2.1406806268e+000	-1.3158162387e+000
 1.5399377400e+000	 2.1566389955e+000	-1.3006795678e+000
 1.5176858928e+000	 2.1723557560e+000	-1.2824540872e+000
 1.4952939850e+000	 2.1878290377e+000	-1.2612117623e+000
 1.4727659743e+000	 2.2030570544e+000	-1.2370230650e+000
 1.4501058465e+000	 2.2180381047e+000	-1.2099569504e+000
 1.6860474881e+000	 2.0767447767e+000	-1.3072331660e+000
 1.6645160274e+000	 2.0940418798e+000	-1.3119238473e+000
 1.6428199382e+000	 2.1111057885e+000	-1.3128518419e+000
 1.6209629977e+000	 2.1279342001e+000	-1.3101151073e+000
 1.5989490249e+000	 2.1445248928e+000	-1.3038104099e+000
 1.5767818785e+000	 2.1608757270e+000	-1.2940332500e+000
 1.5544654545e+000	 2.1769846464e+000	-1.2808777929e+000
 1.5320036842e+000	 2.1928496783e+000	-1.2644368066e+000
 1.5094005321e+000	 2.2084689343e+000	-1.2448016070e+000
 1.4866599929e+000	 2.2238406115e+000	-1.2220620085e+000
 1.4637860903e+000	 2.2389629925e+000	-1.1963062821e+000
 1.7018049413e+000	 2.0961536064e+000	-1.2681163642e+000
 1.6800722520e+000	 2.1136123646e+000	-1.2765930482e+000
 1.6581733956e+000	 2.1308357492e+000	-1.2810219683e+000
 1.6361121846e+000	 2.1478214356e+000	-1.2815198951e+000
 1.6138924738e+000	 2.1645671815e+000	-1.2782024959e+000
 1.5915181577e+000	 2.1810708273e+000	-1.2711842389e+000
 1.5689931690e+000	 2.1973302973e+000	-1.2605783042e+000
 1.5463214757e+000	 2.2133436005e+000	-1.2464965024e+000
 1.5235070791e+000	 2.2291088309e+000	-1.2290491988e+000
 1.5005540115e+000	 2.2446241686e+000	-1.2083452456e+000
 1.4774663341e+000	 2.2598878803e+000	-1.1844919202e+000
 1.7175623944e+000	 2.1155624361e+000	-1.2251754960e+000
 1.6956284766e+000	 2.1331828495e+000	-1.2379560378e+000
 1.6735268530e+000	 2.1505657098e+000	-1.2464114385e+000
 1.6512613715e+000	 2.1677086711e+000	-1.2506770162e+000
 1.6288359226e+000	 2.1846094702e+000	-1.2508870666e+000
 1.6062544370e+000	 2.2012659275e+000	-1.2471747480e+000
 1.5835208835e+000	 2.2176759482e+000	-1.2396719723e+000
 1.5606392671e+000	 2.2338375227e+000	-1.2285093036e+000
 1.5376136261e+000	 2.2497487275e+000	-1.2138158635e+000
 1.5144480302e+000	 2.2654077258e+000	-1.1957192439e+000
 1.4911465780e+000	 2.2808127681e+000	-1.1743454261e+000
 1.7333198476e+000	 2.1349712658e+000	-1.1783861428e+000
 1.7111847011e+000	 2.1527533344e+000	-1.1959747015e+000
 1.6888803104e+000	 2.1702956705e+000	-1.2089683432e+000
 1.6664105584e+000	 2.1875959066e+000	-1.2175206739e+000
 1.6437793714e+000	 2.2046517589e+000	-1.2217843526e+000
 1.6209907162e+000	 2.2214610278e+000	-1.2219109567e+000
 1.5980485981e+000	 2.2380215991e+000	-1.2180508531e+000
 1.5749570586e+000	 2.2543314449e+000	-1.2103530780e+000
 1.5517201731e+000	 2.2703886241e+000	-1.1989652226e+000
 1.5283420488e+000	 2.2861912829e+000	-1.1840333272e+000
 1.5048268218e+000	 2.3017376559e+000	-1.1657017816e+000
 1.3680243835e+000	 2.0924887780e+000	-1.3403299352e+000
 1.3465260504e+000	 2.1063873328e+000	-1.3147625923e+000
 1.3249106704e+000	 2.1200499323e+000	-1.2823820337e+000
 1.3031820709e+000	 2.1334752143e+000	-1.2433584764e+000
 1.2813440973e+000	 2.1466618980e+000	-1.1978636782e+000
 1.2594006108e+000	 2.1596087844e+000	-1.1460707979e+000
 1.2373554867e+000	 2.1723147561e+000	-1.1172501411e+000
 1.2152126119e+000	 2.1847787778e+000	-1.1003182072e+000
 1.1929758828e+000	 2.1969998960e+000	-1.0726001550e+000
 1.1706492033e+000	 2.2089772391e+000	-1.0341376788e+000
 1.1482364826e+000	 2.2207100171e+000	-9.8498780059e-001
 1.3817046273e+000	 2.1134136658e+000	-1.3119109514e+000
 1.3599913109e+000	 2.1274512061e+000	-1.2897983794e+000
 1.3381597771e+000	 2.1412504316e+000	-1.2612914306e+000
 1.3162138916e+000	 2.1548099664e+000	-1.2265369047e+000
 1.2941575382e+000	 2.1681285170e+000	-1.1856828888e+000
 1.2719946169e+000	 2.1812048722e+000	-1.1388786457e+000
 1.2497290416e+000	 2.1940379036e+000	-1.0868776151e+000
 1.2273647380e+000	 2.2066265656e+000	-1.0756657136e+000
 1.2049056416e+000	 2.2189698950e+000	-1.0536630390e+000
 1.1823556953e+000	 2.2310670115e+000	-1.0208849149e+000
 1.1597188475e+000	 2.2429171172e+000	-9.7736247839e-001
 1.3953848711e+000	 2.1343385536e+000	-1.2864205364e+000
 1.3734565714e+000	 2.1485150794e+000	-1.2671094286e+000
 1.3514088839e+000	 2.1624509309e+000	-1.2418182303e+000
 1.3292457123e+000	 2.1761447186e+000	-1.2106706314e+000
 1.3069709792e+000	 2.1895951360e+000	-1.1737913551e+000
 1.2845886230e+000	 2.2028009601e+000	-1.1313060745e+000
 1.2621025965e+000	 2.2157610512e+000	-1.0833413312e+000
 1.2395168641e+000	 2.2284743533e+000	-1.0511724069e+000
 1.2168354005e+000	 2.2409398939e+000	-1.0341410101e+000
 1.1940621873e+000	 2.2531567839e+000	-1.0062904559e+000
 1.1712012123e+000	 2.2651242174e+000	-9.6762633091e-001
 1.4090651150e+000	 2.1552634414e+000	-1.2636659604e+000
 1.3869218319e+000	 2.1695789527e+000	-1.2465234670e+000
 1.3646579906e+000	 2.1836514302e+000	-1.2238108460e+000
 1.3422775331e+000	 2.1974794707e+000	-1.1956289738e+000
 1.3197844202e+000	 2.2110617550e+000	-1.1620795059e+000
 1.2971826291e+000	 2.2243970479e+000	-1.1232648204e+000
 1.2744761513e+000	 2.2374841988e+000	-1.0792879643e+000
 1.2516689903e+000	 2.2503221411e+000	-1.0302526029e+000
 1.2287651593e+000	 2.2629098929e+000	-1.0142592569e+000
 1.2057686794e+000	 2.2752465563e+000	-9.9059972715e-001
 1.1826835771e+000	 2.2873313176e+000	-9.5604499501e-001
 1.4227453588e+000	 2.1761883292e+000	-1.2434590447e+000
 1.4003870924e+000	 2.1906428261e+000	-1.2278720109e+000
 1.3779070973e+000	 2.2048519296e+000	-1.2071207100e+000
 1.3553093538e+000	 2.2188142229e+000	-1.1812834916e+000
 1.3325978612e+000	 2.2325283739e+000	-1.1504392289e+000
 1.3097766352e+000	 2.2459931357e+000	-1.1146672894e+000
 1.2868497062e+000	 2.2592073463e+000	-1.0740475090e+000
 1.2638211164e+000	 2.2721699289e+000	-1.0286601679e+000
 1.2406949181e+000	 2.2848798918e+000	-9.9424123659e-001
 1.2174751714e+000	 2.2973363287e+000	-9.7405561299e-001
 1.1941659420e+000	 2.3095384178e+000	-9.4288075195e-001
 1.4364256026e+000	 2.1971132169e+000	-1.2256159459e+000
 1.4138523529e+000	 2.2117066994e+000	-1.2109901850e+000
 1.3911562040e+000	 2.2260524289e+000	-1.1916021300e+000
 1.3683411745e+000	 2.2401489750e+000	-1.1675078800e+000
 1.3454113021e+000	 2.2539949929e+000	-1.1387638013e+000
 1.3223706413e+000	 2.2675892236e+000	-1.1054265255e+000
 1.2992232611e+000	 2.2809304939e+000	-1.0675529497e+000
 1.2759732425e+000	 2.2940177167e+000	-1.0252002408e+000
 1.2526246769e+000	 2.3068498908e+000	-9.7842584137e-001
 1.2291816635e+000	 2.3194261010e+000	-9.5689857716e-001
 1.2056483068e+000	 2.3317455179e+000	-9.2839268720e-001
 1.4501058465e+000	 2.2180381047e+000	-1.2099569504e+000
 1.4273176134e+000	 2.2327705727e+000	-1.1957165525e+000
 1.4044053107e+000	 2.2472529282e+000	-1.1771121535e+000
 1.3813729952e+000	 2.2614837271e+000	-1.1541778692e+000
 1.3582247431e+000	 2.2754616119e+000	-1.1269478248e+000
 1.3349646475e+000	 2.2891853114e+000	-1.0954561801e+000
 1.3115968159e+000	 2.3026536414e+000	-1.0597371570e+000
 1.2881253686e+000	 2.3158655044e+000	-1.0198250702e+000
 1.2645544358e+000	 2.3288198898e+000	-9.7575436090e-001
 1.2408881555e+000	 2.3415158734e+000	-9.3936677725e-001
 1.2171306716e+000	 2.3539526181e+000	-9.1283684117e-001
 1.4637860903e+000	 2.2389629925e+000	-1.1963062821e+000
 1.4407828739e+000	 2.2538344460e+000	-1.1818929540e+000
 1.4176544174e+000	 2.2684534275e+000	-1.1635104398e+000
 1.3944048159e+000	 2.2828184793e+000	-1.1411711292e+000
 1.3710381841e+000	 2.2969282309e+000	-1.1148871630e+000
 1.3475586536e+000	 2.3107813993e+000	-1.0846704842e+000
 1.3239703708e+000	 2.3243767890e+000	-1.0505328931e+000
 1.3002774948e+000	 2.3377132922e+000	-1.0124861041e+000
 1.2764841946e+000	 2.3507898887e+000	-9.7054180677e-001
 1.2525946475e+000	 2.3636056458e+000	-9.2471172880e-001
 1.2286130364e+000	 2.3761597183e+000	-8.9646635149e-001
 1.4774663341e+000	 2.2598878803e+000	-1.1844919202e+000
 1.4542481344e+000	 2.2748983194e+000	-1.1693643563e+000
 1.4309035241e+000	 2.2896539269e+000	-1.1506591389e+000
 1.4074366366e+000	 2.3041532314e+000	-1.1283671801e+000
 1.3838516251e+000	 2.3183948499e+000	-1.1024788834e+000
 1.3601526597e+000	 2.3323774871e+000	-1.0729842213e+000
 1.3363439257e+000	 2.3460999366e+000	-1.0398728166e+000
 1.3124296209e+000	 2.3595610800e+000	-1.0031340261e+000
 1.2884139534e+000	 2.3727598877e+000	-9.6275702866e-001
 1.2643011396e+000	 2.3856954182e+000	-9.1873091462e-001
 1.2400954013e+000	 2.3983668184e+000	-8.7953158745e-001
 1.4911465780e+000	 2.2808127681e+000	-1.1743454261e+000
 1.4677133949e+000	 2.2959621927e+000	-1.1579787088e+000
 1.4441526308e+000	 2.3108544262e+000	-1.1384227774e+000
 1.4204684573e+000	 2.3254879836e+000	-1.1156473069e+000
 1.3966650660e+000	 2.3398614688e+000	-1.0896212021e+000
 1.3727466658e+000	 2.3539735750e+000	-1.0603127021e+000
 1.3487174805e+000	 2.3678230841e+000	-1.0276894873e+000
 1.3245817470e+000	 2.3814088678e+000	-9.9171879120e-001
 1.3003437123e+000	 2.3947298867e+000	-9.5236751339e-001
 1.2760076316e+000	 2.4077851906e+000	-9.0960233652e-001
 1.2515777661e+000	 2.4205739186e+000	-8.6338984475e-001
 1.5048268218e+000	 2.3017376559e+000	-1.1657017816e+000
 1.4811786555e+000	 2.3170260660e+000	-1.1475868075e+000
 1.4574017375e+000	 2.3320549255e+000	-1.1266681506e+000
 1.4335002780e+000	 2.3468227357e+000	-1.1028944799e+000
 1.4094785070e+000	 2.3613280878e+000	-1.0762134317e+000
 1.3853406719e+000	 2.3755696628e+000	-1.0465717402e+000
 1.3610910354e+000	 2.3895462317e+000	-1.0139153711e+000
 1.3367338731e+000	 2.4032566556e+000	-9.7818965870e-001
 1.3122734711e+000	 2.4166998856e+000	-9.3933944683e-001
 1.2877141236e+000	 2.4298749630e+000	-8.9730923136e-001
 1.2630601309e+000	 2.4427810188e+000	-8.5204330546e-001
 1.1482364826e+000	 2.2207100171e+000	-9.8498780059e-001
 1.1257416334e+000	 2.2321975215e+000	-9.7310939995e-001
 1.1031685694e+000	 2.2434391250e+000	-9.5669065465e-001
 1.0805212035e+000	 2.2544342814e+000	-9.3570115268e-001
 1.0578034457e+000	 2.2651825247e+000	-9.1012026346e-001
 1.0350192013e+000	 2.2756834694e+000	-8.7993702532e-001
 1.0121723687e+000	 2.2859368093e+000	-8.4515001195e-001
 9.8926683732e-001	 2.2959423174e+000	-8.0576717851e-001
 9.6630648602e-001	 2.3056998450e+000	-7.6180568825e-001
 9.4329518099e-001	 2.3152093213e+000	-7.1329172053e-001
 9.2023677391e-001	 2.3244707527e+000	-6.6026026093e-001
 1.1597188475e+000	 2.2429171172e+000	-9.7736247839e-001
 1.1369990498e+000	 2.2545194967e+000	-9.6800694276e-001
 1.1142002551e+000	 2.2658735162e+000	-9.5299852609e-001
 1.0913264155e+000	 2.2769786242e+000	-9.3231210300e-001
 1.0683814802e+000	 2.2878343500e+000	-9.0593349180e-001
 1.0453693934e+000	 2.2984403041e+000	-8.7385932128e-001
 1.0222940924e+000	 2.3087961774e+000	-8.3609687496e-001
 9.9915950569e-001	 2.3189017405e+000	-7.9266391356e-001
 9.7596955088e-001	 2.3287568434e+000	-7.4358847660e-001
 9.5272813280e-001	 2.3383614145e+000	-6.8890866402e-001
 9.2943914165e-001	 2.3477154602e+000	-6.2867239875e-001
 1.1712012123e+000	 2.2651242174e+000	-9.6762633091e-001
 1.1482564661e+000	 2.2768414719e+000	-9.6079332054e-001
 1.1252319408e+000	 2.2883079075e+000	-9.4720194612e-001
 1.1021316275e+000	 2.2995229670e+000	-9.2683227846e-001
 1.0789595146e+000	 2.3104861752e+000	-8.9967649738e-001
 1.0557195854e+000	 2.3211971388e+000	-8.6573873783e-001
 1.0324158161e+000	 2.3316555455e+000	-8.2503491197e-001
 1.0090521741e+000	 2.3418611637e+000	-7.7759250793e-001
 9.8563261575e-001	 2.3518138419e+000	-7.2345036642e-001
 9.6216108461e-001	 2.3615135077e+000	-6.6265843591e-001
 9.3864150939e-001	 2.3709601677e+000	-5.9527750753e-001
 1.1826835771e+000	 2.2873313176e+000	-9.5604499501e-001
 1.1595138824e+000	 2.2991634471e+000	-9.5173160426e-001
 1.1362636265e+000	 2.3107422987e+000	-9.3956082996e-001
 1.1129368396e+000	 2.3220673098e+000	-9.1951785245e-001
 1.0895375491e+000	 2.3331380004e+000	-8.9160112992e-001
 1.0660697774e+000	 2.3439539735e+000	-8.5582222383e-001
 1.0425375398e+000	 2.3545149136e+000	-8.1220559877e-001
 1.0189448424e+000	 2.3648205869e+000	-7.6078839758e-001
 9.9529568061e-001	 2.3748708403e+000	-7.0162019280e-001
 9.7159403643e-001	 2.3846656010e+000	-6.3476271545e-001
 9.4784387714e-001	 2.3942048752e+000	-5.6028956227e-001
 1.1941659420e+000	 2.3095384178e+000	-9.4288075195e-001
 1.1707712988e+000	 2.3214854223e+000	-9.4108156607e-001
 1.1472953122e+000	 2.3331766900e+000	-9.3033186828e-001
 1.1237420516e+000	 2.3446116526e+000	-9.1062186557e-001
 1.1001155835e+000	 2.3557898257e+000	-8.8195621545e-001
 1.0764199694e+000	 2.3667108082e+000	-8.4435383072e-001
 1.0526592634e+000	 2.3773742817e+000	-7.9784765709e-001
 1.0288375108e+000	 2.3877800100e+000	-7.4248442457e-001
 1.0049587455e+000	 2.3979278388e+000	-6.7832437380e-001
 9.8102698824e-001	 2.4078176942e+000	-6.0544095834e-001
 9.5704624488e-001	 2.4174495828e+000	-5.2392052414e-001
 1.2056483068e+000	 2.3317455179e+000	-9.2839268720e-001
 1.1820287151e+000	 2.3438073975e+000	-9.2909983633e-001
 1.1583269979e+000	 2.3556110812e+000	-9.1976868076e-001
 1.1345472636e+000	 2.3671559954e+000	-9.0039437482e-001
 1.1106936180e+000	 2.3784416509e+000	-8.7098770030e-001
 1.0867701614e+000	 2.3894676429e+000	-8.3157485051e-001
 1.0627809871e+000	 2.4002336497e+000	-7.8219718568e-001
 1.0387301792e+000	 2.4107394332e+000	-7.2291096056e-001
 1.0146218103e+000	 2.4209848372e+000	-6.5378702557e-001
 9.9045994005e-001	 2.4309697874e+000	-5.7491050255e-001
 9.6624861262e-001	 2.4406942903e+000	-4.8638043639e-001
 1.2171306716e+000	 2.3539526181e+000	-9.1283684117e-001
 1.1932861314e+000	 2.3661293727e+000	-9.1604005183e-001
 1.1693586836e+000	 2.3780454725e+000	-9.0812196093e-001
 1.1453524757e+000	 2.3897003382e+000	-8.8908259434e-001
 1.1212716525e+000	 2.4010934762e+000	-8.5893878692e-001
 1.0971203534e+000	 2.4122244775e+000	-8.1772394593e-001
 1.0729027108e+000	 2.4230930178e+000	-7.6548778407e-001
 1.0486228476e+000	 2.4336988564e+000	-7.0229602334e-001
 1.0242848752e+000	 2.4440418357e+000	-6.2823007091e-001
 9.9989289186e-001	 2.4541218806e+000	-5.4338666824e-001
 9.7545098036e-001	 2.4639389978e+000	-4.4787751482e-001
 1.2286130364e+000	 2.3761597183e+000	-8.9646635149e-001
 1.2045435478e+000	 2.3884513479e+000	-9.0215299567e-001
 1.1803903692e+000	 2.4004798637e+000	-8.9563961294e-001
 1.1561576877e+000	 2.4122446810e+000	-8.7693102826e-001
 1.1318496869e+000	 2.4237453014e+000	-8.4605006215e-001
 1.1074705454e+000	 2.4349813122e+000	-8.0303727331e-001
 1.0830244345e+000	 2.4459523859e+000	-7.4795066937e-001
 1.0585155159e+000	 2.4566582796e+000	-6.8086538686e-001
 1.0339479401e+000	 2.4670988341e+000	-6.0187334180e-001
 1.0093258437e+000	 2.4772739738e+000	-5.1108285207e-001
 9.8465334810e-001	 2.4871837053e+000	-4.0861823316e-001
 1.2400954013e+000	 2.3983668184e+000	-8.7953158745e-001
 1.2158009641e+000	 2.4107733232e+000	-8.8768672940e-001
 1.1914220549e+000	 2.4229142550e+000	-8.8256688067e-001
 1.1669628997e+000	 2.4347890238e+000	-8.6418159616e-001
 1.1424277214e+000	 2.4463971267e+000	-8.3255961824e-001
 1.1178207375e+000	 2.4577381469e+000	-7.8774859859e-001
 1.0931461582e+000	 2.4688117540e+000	-7.2981478651e-001
 1.0684081843e+000	 2.4796177027e+000	-6.5884268507e-001
 1.0436110049e+000	 2.4901558326e+000	-5.7493467616e-001
 1.0187587955e+000	 2.5004260670e+000	-4.7979906675e-001
 9.9385571584e-001	 2.5104284129e+000	-4.1016421068e-001
 1.2515777661e+000	 2.4205739186e+000	-8.6338984475e-001
 1.2270583804e+000	 2.4330952984e+000	-8.7288671784e-001
 1.2024537406e+000	 2.4453486462e+000	-8.6914646976e-001
 1.1777681118e+000	 2.4573333667e+000	-8.5107375161e-001
 1.1530057558e+000	 2.4690489519e+000	-8.1870316735e-001
 1.1281709295e+000	 2.4804949816e+000	-7.7208940699e-001
 1.1032678819e+000	 2.4916711221e+000	-7.1130691256e-001
 1.0783008527e+000	 2.5025771259e+000	-6.4496188477e-001
 1.0532740698e+000	 2.5132128310e+000	-5.9394575627e-001
 1.0281917473e+000	 2.5235781602e+000	-5.3290269365e-001
 1.0030580836e+000	 2.5336731204e+000	-4.6245349503e-001
 1.2630601309e+000	 2.4427810188e+000	-8.5204330546e-001
 1.2383157968e+000	 2.4554172736e+000	-8.5799594710e-001
 1.2134854263e+000	 2.4677830375e+000	-8.5561866301e-001
 1.1885733238e+000	 2.4798777095e+000	-8.3784459429e-001
 1.1635837903e+000	 2.4917007772e+000	-8.0471414967e-001
 1.1385211215e+000	 2.5032518163e+000	-7.6582953907e-001
 1.1133896056e+000	 2.5145304902e+000	-7.3766679432e-001
 1.0881935211e+000	 2.5255365491e+000	-6.9777805122e-001
 1.0629371346e+000	 2.5362698295e+000	-6.4686183952e-001
 1.0376246991e+000	 2.5467302535e+000	-5.8558714073e-001
 1.0122604513e+000	 2.5569178279e+000	-5.1459311495e-001
 9.2023677391e-001	 2.3244707527e+000	-6.6026026093e-001
 8.9713510015e-001	 2.3334842215e+000	-6.6381674526e-001
 8.7399397693e-001	 2.3422498860e+000	-6.5846073216e-001
 8.5081720161e-001	 2.3507679787e+000	-6.4448356151e-001
 8.2760854992e-001	 2.3590388060e+000	-6.2218516638e-001
 8.0437177429e-001	 2.3670627471e+000	-5.9187353824e-001
 7.8111060220e-001	 2.3748402530e+000	-5.5386418382e-001
 7.5782873460e-001	 2.3823718453e+000	-5.0847957469e-001
 7.3452984428e-001	 2.3896581153e+000	-4.5604859119e-001
 7.1121757443e-001	 2.3966997229e+000	-3.9690596181e-001
 6.8789553712e-001	 2.4034973955e+000	-3.3139169958e-001
 9.2943914165e-001	 2.3477154602e+000	-6.2867239875e-001
 9.0610645115e-001	 2.3568190637e+000	-6.3085002183e-001
 8.8273391670e-001	 2.3656723848e+000	-6.2387753774e-001
 8.5932537363e-001	 2.3742756584e+000	-6.0801851552e-001
 8.3588463542e-001	 2.3826291940e+000	-5.8354589629e-001
 8.1241549204e-001	 2.3907333746e+000	-5.5074147141e-001
 7.8892170823e-001	 2.3985886555e+000	-5.0989535050e-001
 7.6540702195e-001	 2.4061955637e+000	-4.6130542110e-001
 7.4187514273e-001	 2.4135546964e+000	-4.0527680101e-001
 7.1832975018e-001	 2.4206667202e+000	-3.4212128498e-001
 6.9477449249e-001	 2.4275323694e+000	-2.7215678681e-001
 9.3864150939e-001	 2.3709601677e+000	-5.9527750753e-001
 9.1507780216e-001	 2.3801539060e+000	-5.9483659022e-001
 8.9147385648e-001	 2.3890948837e+000	-5.8500132438e-001
 8.6783354565e-001	 2.3977833382e+000	-5.6600811837e-001
 8.4416072093e-001	 2.4062195821e+000	-5.3810353509e-001
 8.2045920978e-001	 2.4144040021e+000	-5.0154378211e-001
 7.9673281426e-001	 2.4223370580e+000	-4.5659419055e-001
 7.7298530930e-001	 2.4300192822e+000	-4.0352868389e-001
 7.4922044118e-001	 2.4374512776e+000	-3.4262923825e-001
 7.2544192593e-001	 2.4446337174e+000	-2.7418533557e-001
 7.0165344787e-001	 2.4515673434e+000	-1.9849341093e-001
 9.4784387714e-001	 2.3942048752e+000	-5.6028956227e-001
 9.2404915316e-001	 2.4034887482e+000	-5.5602022328e-001
 9.0021379625e-001	 2.4125173825e+000	-5.4210550448e-001
 8.7634171767e-001	 2.4212910180e+000	-5.1875525165e-001
 8.5243680643e-001	 2.4298099702e+000	-4.8619025123e-001
 8.2850292753e-001	 2.4380746295e+000	-4.4464173197e-001
 8.0454392028e-001	 2.4460854606e+000	-3.9435085375e-001
 7.8056359665e-001	 2.4538430006e+000	-3.3556818507e-001
 7.5656573962e-001	 2.4613478587e+000	-2.6855317053e-001
 7.3255410168e-001	 2.4686007146e+000	-1.9357358991e-001
 7.0853240324e-001	 2.4756023173e+000	-1.1090501001e-001
 9.5704624488e-001	 2.4174495828e+000	-5.2392052414e-001
 9.3302050416e-001	 2.4268235904e+000	-5.1464144276e-001
 9.0895373602e-001	 2.4359398814e+000	-4.9545900352e-001
 8.8484988969e-001	 2.4447986978e+000	-4.6655707616e-001
 8.6071289193e-001	 2.4534003582e+000	-4.2813126121e-001
 8.3654664528e-001	 2.4617452570e+000	-3.8038840247e-001
 8.1235502631e-001	 2.4698338631e+000	-3.2354608519e-001
 7.8814188400e-001	 2.4776667191e+000	-2.5783212149e-001
 7.6391103807e-001	 2.4852444399e+000	-1.8348402453e-001
 7.3966627743e-001	 2.4925677118e+000	-1.0074847270e-001
 7.1541135862e-001	 2.4996372913e+000	-9.8807654529e-003
 9.6624861262e-001	 2.4406942903e+000	-4.8638043639e-001
 9.4199185517e-001	 2.4501584326e+000	-4.7093767409e-001
 9.1769367579e-001	 2.4593623803e+000	-4.4532647370e-001
 8.9335806171e-001	 2.4683063776e+000	-4.0970530439e-001
 8.6898897743e-001	 2.4769907463e+000	-3.6424516058e-001
 8.4459036302e-001	 2.4854158845e+000	-3.0912908450e-001
 8.2016613233e-001	 2.4935822656e+000	-2.4455167310e-001
 7.9572017134e-001	 2.5014904375e+000	-1.7956477412e-001
 7.7125633651e-001	 2.5091410210e+000	-1.4538731617e-001
 7.4677845317e-001	 2.5165347091e+000	-1.0645707733e-001
 7.2229031399e-001	 2.5236722653e+000	-6.3076886067e-002
 9.7545098036e-001	 2.4639389978e+000	-4.4787751482e-001
 9.5096320617e-001	 2.4734932748e+000	-4.2514339245e-001
 9.2643361556e-001	 2.4827848791e+000	-3.9196849550e-001
 9.0186623372e-001	 2.4918140574e+000	-3.4848645752e-001
 8.7726506293e-001	 2.5005811343e+000	-2.9775944830e-001
 8.5263408076e-001	 2.5090865119e+000	-2.7966814228e-001
 8.2797723835e-001	 2.5173306682e+000	-2.5598002254e-001
 8.0329845869e-001	 2.5253141560e+000	-2.2704891797e-001
 7.7860163495e-001	 2.5330376022e+000	-1.9320212427e-001
 7.5389062892e-001	 2.5405017063e+000	-1.5474075508e-001
 7.2916926936e-001	 2.5477072392e+000	-1.1194014477e-001
 9.8465334810e-001	 2.4871837053e+000	-4.0861823316e-001
 9.5993455717e-001	 2.4968281170e+000	-3.7749026064e-001
 9.3517355533e-001	 2.5062073780e+000	-3.6340036414e-001
 9.1037440574e-001	 2.5153217372e+000	-3.5612899187e-001
 8.8554114843e-001	 2.5241715224e+000	-3.4275940114e-001
 8.6067779851e-001	 2.5327571394e+000	-3.2367484654e-001
 8.3578834438e-001	 2.5410790707e+000	-2.9923085827e-001
 8.1087674604e-001	 2.5491378744e+000	-2.6975552403e-001
 7.8594693340e-001	 2.5569341833e+000	-2.3554982827e-001
 7.6100280466e-001	 2.5644687035e+000	-1.9688804615e-001
 7.3604822473e-001	 2.5717422132e+000	-1.5401818975e-001
 9.9385571584e-001	 2.5104284129e+000	-4.1016421068e-001
 9.6890590817e-001	 2.5201629592e+000	-4.1336844041e-001
 9.4391349510e-001	 2.5296298768e+000	-4.0997625025e-001
 9.1888257776e-001	 2.5388294169e+000	-4.0040427437e-001
 8.9381723393e-001	 2.5477619105e+000	-3.8504027527e-001
 8.6872151625e-001	 2.5564277669e+000	-3.6424334334e-001
 8.4359945040e-001	 2.5648274732e+000	-3.3834415964e-001
 8.1845503338e-001	 2.5729615929e+000	-3.0764531936e-001
 7.9329223184e-001	 2.5808307645e+000	-2.7242171351e-001
 7.6811498040e-001	 2.5884357008e+000	-2.3292096621e-001
 7.4292718010e-001	 2.5957771871e+000	-1.8936392474e-001
 1.0030580836e+000	 2.5336731204e+000	-4.6245349503e-001
 9.7787725917e-001	 2.5434978015e+000	-4.6190794698e-001
 9.5265343487e-001	 2.5530523757e+000	-4.5513704881e-001
 9.2739074977e-001	 2.5623370967e+000	-4.4253512344e-001
 9.0209331943e-001	 2.5713522985e+000	-4.2446682479e-001
 8.7676523399e-001	 2.5800983944e+000	-4.0126737713e-001
 8.5141055642e-001	 2.5885758757e+000	-3.7324287874e-001
 8.2603332072e-001	 2.5967853113e+000	-3.4067066734e-001
 8.0063753028e-001	 2.6047273457e+000	-3.0379974462e-001
 7.7522715614e-001	 2.6124026980e+000	-2.6285125723e-001
 7.4980613547e-001	 2.6198121611e+000	-2.1801903119e-001
 1.0122604513e+000	 2.5569178279e+000	-5.1459311495e-001
 9.8684861017e-001	 2.5668326437e+000	-5.0955761448e-001
 9.6139337463e-001	 2.5764748746e+000	-4.9868686743e-001
 9.3589892178e-001	 2.5858447765e+000	-4.8235323514e-001
 9.1036940492e-001	 2.5949426866e+000	-4.6089858023e-001
 8.8480895173e-001	 2.6037690218e+000	-4.3463454596e-001
 8.5922166244e-001	 2.6123242783e+000	-4.0384290115e-001
 8.3361160807e-001	 2.6206090298e+000	-3.6877594785e-001
 8.0798282872e-001	 2.6286239268e+000	-3.2965698919e-001
 7.8233933189e-001	 2.6363696952e+000	-2.8668085444e-001
 7.5668509084e-001	 2.6438471350e+000	-2.4001447838e-001
 6.8789553712e-001	 2.4034973955e+000	-3.3139169958e-001
 6.6456731185e-001	 2.4100519264e+000	-3.5701963899e-001
 6.4123644421e-001	 2.4163641743e+000	-3.9742206432e-001
 6.1790644450e-001	 2.4224350612e+000	-4.1849551663e-001
 5.9458078647e-001	 2.4282655721e+000	-3.6952460361e-001
 5.7126290603e-001	 2.4338567526e+000	-3.2359403352e-001
 5.4795620010e-001	 2.4392097087e+000	-2.7954229811e-001
 5.2466402543e-001	 2.4443256044e+000	-2.3627080695e-001
 5.0138969748e-001	 2.4492056613e+000	-1.9274538023e-001
 4.7813648941e-001	 2.4538511564e+000	-1.4799755725e-001
 4.5490763105e-001	 2.4582634210e+000	-1.0112572233e-001
 6.9477449249e-001	 2.4275323694e+000	-2.7215678681e-001
 6.7121298497e-001	 2.4341524457e+000	-2.8108169339e-001
 6.4764880865e-001	 2.4405278160e+000	-3.0267331845e-001
 6.2408550895e-001	 2.4466594119e+000	-3.3285331773e-001
 6.0052659434e-001	 2.4525482278e+000	-2.7176925347e-001
 5.7697553510e-001	 2.4581953202e+000	-2.1064739300e-001
 5.5343576211e-001	 2.4636018058e+000	-1.4829347991e-001
 5.2991066568e-001	 2.4687688605e+000	-8.3580360983e-002
 5.0640359445e-001	 2.4736977179e+000	-1.5449483839e-002
 4.8291785430e-001	 2.4783896679e+000	 5.7087797141e-002
 4.5945670736e-001	 2.4828460553e+000	 1.3494910480e-001
 7.0165344787e-001	 2.4515673434e+000	-1.9849341093e-001
 6.7785865809e-001	 2.4582529650e+000	-1.9061549736e-001
 6.5406117310e-001	 2.4646914578e+000	-1.9332578054e-001
 6.3026457340e-001	 2.4708837625e+000	-2.0651557340e-001
 6.0647240220e-001	 2.4768308835e+000	-1.5495450493e-001
 5.8268816416e-001	 2.4825338877e+000	-8.0336605759e-002
 5.5891532411e-001	 2.4879939028e+000	-1.3717387561e-003
 5.3515730594e-001	 2.4932121165e+000	 8.3098059163e-002
 5.1141749143e-001	 2.4981897745e+000	 1.7415789510e-001
 4.8769921920e-001	 2.5029281795e+000	 2.3713801547e-001
 4.6400578367e-001	 2.5074286895e+000	 2.8157489791e-001
 7.0853240324e-001	 2.4756023173e+000	-1.1090501001e-001
 6.8450433122e-001	 2.4823534842e+000	-8.6117869570e-002
 6.6047353755e-001	 2.4888550995e+000	-6.9868518734e-002
 6.3644363785e-001	 2.4951081131e+000	-6.2074208814e-002
 6.1241821007e-001	 2.5011135392e+000	-2.8035324271e-002
 5.8840079322e-001	 2.5068724552e+000	 6.0378773657e-003
 5.6439488611e-001	 2.5123859999e+000	 4.2588280240e-002
 5.4040394619e-001	 2.5176553726e+000	 8.1622263988e-002
 5.1643138840e-001	 2.5226818311e+000	 1.2319808672e-001
 4.9248058409e-001	 2.5274666911e+000	 1.6742622279e-001
 4.6855485998e-001	 2.5320113237e+000	 2.1446955862e-001
 7.1541135862e-001	 2.4996372913e+000	-9.8807654529e-003
 6.9115000434e-001	 2.5064540035e+000	-1.5416099474e-002
 6.6688590199e-001	 2.5130187412e+000	-3.3628220396e-002
 6.4262270229e-001	 2.5193324637e+000	-6.1923536437e-002
 6.1836401794e-001	 2.5253961950e+000	-8.0812810806e-002
 5.9411342228e-001	 2.5312110227e+000	-4.9431691397e-002
 5.6987444812e-001	 2.5367780970e+000	-1.4351182213e-002
 5.4565058645e-001	 2.5420986286e+000	 2.4375539673e-002
 5.2144528538e-001	 2.5471738878e+000	 6.6748333422e-002
 4.9726194898e-001	 2.5520052026e+000	 1.1282051148e-001
 4.7310393629e-001	 2.5565939579e+000	 1.6269910955e-001
 7.2229031399e-001	 2.5236722653e+000	-6.3076886067e-002
 6.9779567746e-001	 2.5305545228e+000	-6.5170855776e-002
 6.7329826643e-001	 2.5371823830e+000	-7.5943540557e-002
 6.4880176674e-001	 2.5435568143e+000	-9.5332574205e-002
 6.2430982580e-001	 2.5496788507e+000	-1.2159063438e-001
 5.9982605134e-001	 2.5555495903e+000	-9.2334580596e-002
 5.7535401012e-001	 2.5611701941e+000	-5.8213593319e-002
 5.5089722670e-001	 2.5665418847e+000	-1.9341573151e-002
 5.2645918235e-001	 2.5716659444e+000	 2.4221849174e-002
 5.0204331388e-001	 2.5765437142e+000	 7.2471809789e-002
 4.7765301260e-001	 2.5811765921e+000	 1.2545855625e-001
 7.2916926936e-001	 2.5477072392e+000	-1.1194014477e-001
 7.0444135058e-001	 2.5546550420e+000	-1.0846433267e-001
 6.7971063087e-001	 2.5613460247e+000	-1.1223320185e-001
 6.5498083118e-001	 2.5677811649e+000	-1.2319802971e-001
 6.3025563367e-001	 2.5739615064e+000	-1.4128039197e-001
 6.0553868040e-001	 2.5798881578e+000	-1.2367970999e-001
 5.8083357212e-001	 2.5855622912e+000	-8.9965925413e-002
 5.5614386696e-001	 2.5909851407e+000	-5.0453620178e-002
 5.3147307933e-001	 2.5961580010e+000	-5.2630409491e-003
 5.0682467877e-001	 2.6010822257e+000	 4.5541723054e-002
 4.8220208891e-001	 2.6057592263e+000	 1.0195315974e-001
 7.3604822473e-001	 2.5717422132e+000	-1.5401818975e-001
 7.1108702369e-001	 2.5787555613e+000	-1.4536380931e-001
 6.8612299532e-001	 2.5855096665e+000	-1.4256647938e-001
 6.6115989563e-001	 2.5920055155e+000	-1.4559056008e-001
 6.3620144153e-001	 2.5982441621e+000	-1.5437100178e-001
 6.1125130946e-001	 2.6042267253e+000	-1.4446453194e-001
 5.8631313412e-001	 2.6099543883e+000	-1.1056395712e-001
 5.6139050721e-001	 2.6154283968e+000	-6.9874259770e-002
 5.3648697630e-001	 2.6206500576e+000	-2.2577463186e-002
 5.1160604366e-001	 2.6256207373e+000	 3.1202034818e-002
 4.8675116522e-001	 2.6303418605e+000	 9.1397957280e-002
 7.4292718010e-001	 2.5957771871e+000	-1.8936392474e-001
 7.1773269681e-001	 2.6028560806e+000	-1.7592490300e-001
 6.9253535976e-001	 2.6096733082e+000	-1.6700111922e-001
 6.6733896007e-001	 2.6162298662e+000	-1.6256945883e-001
 6.4214724939e-001	 2.6225268178e+000	-1.6257765495e-001
 6.1696393852e-001	 2.6285652928e+000	-1.5567556229e-001
 5.9179269612e-001	 2.6343464854e+000	-1.2095279159e-001
 5.6663714746e-001	 2.6398716528e+000	-7.8506766995e-002
 5.4150087327e-001	 2.6451421142e+000	-2.8582483449e-002
 5.1638740856e-001	 2.6501592489e+000	 2.8634235592e-002
 4.9130024153e-001	 2.6549244947e+000	 9.3017309815e-002
 7.4980613547e-001	 2.6198121611e+000	-2.1801903119e-001
 7.2437836993e-001	 2.6269565998e+000	-2.0019210415e-001
 6.9894772419e-001	 2.6338369500e+000	-1.8558386728e-001
 6.7351802451e-001	 2.6404542168e+000	-1.7418317713e-001
 6.4809305726e-001	 2.6468094736e+000	-1.6594996091e-001
 6.2267656758e-001	 2.6529038604e+000	-1.5828888204e-001
 5.9727225811e-001	 2.6587385825e+000	-1.2206734619e-001
 5.7188378771e-001	 2.6643149089e+000	-7.7244509928e-002
 5.4651477025e-001	 2.6696341708e+000	-2.4129568809e-002
 5.2116877345e-001	 2.6746977604e+000	 3.7029077594e-002
 4.9584931784e-001	 2.6795071290e+000	 1.0604447423e-001
 7.5668509084e-001	 2.6438471350e+000	-2.4001447838e-001
 7.3102404304e-001	 2.6510571191e+000	-2.1819928200e-001
 7.0536008863e-001	 2.6580005917e+000	-1.9835096933e-001
 6.7969708895e-001	 2.6646785674e+000	-1.8046981661e-001
 6.5403886512e-001	 2.6710921293e+000	-1.6452735952e-001
 6.2838919664e-001	 2.6772424279e+000	-1.5046734956e-001
 6.0275182011e-001	 2.6831306796e+000	-1.1483281550e-001
 5.7713042797e-001	 2.6887581649e+000	-6.6971399967e-002
 5.5152866722e-001	 2.6941262274e+000	-1.0061023805e-002
 5.2595013834e-001	 2.6992362720e+000	 5.5586153752e-002
 5.0039839415e-001	 2.7040897632e+000	 1.2972119901e-001
 4.5490763105e-001	 2.4582634210e+000	-1.0112572233e-001
 4.3170630795e-001	 2.4624438397e+000	-8.4109053804e-002
 4.0853566044e-001	 2.4663938481e+000	-6.7628554542e-002
 3.8539878284e-001	 2.4701149322e+000	-5.1000809640e-002
 3.6229872257e-001	 2.4736086262e+000	-3.3607957352e-002
 3.3923847946e-001	 2.4768765117e+000	-1.4898010378e-002
 3.1622100496e-001	 2.4799202156e+000	 5.6149840184e-003
 2.9324920155e-001	 2.4827414094e+000	 2.8350940901e-002
 2.7032592207e-001	 2.4853418066e+000	 5.3663887109e-002
 2.4745396916e-001	 2.4877231625e+000	 8.1842258529e-002
 2.2463609475e-001	 2.4898872715e+000	 1.1310934017e-001
 4.5945670736e-001	 2.4828460553e+000	 1.3494910480e-001
 4.3602337102e-001	 2.4870682781e+000	 1.8356522861e-001
 4.1262101704e-001	 2.4910577866e+000	 2.3439724517e-001
 3.8925277066e-001	 2.4948160815e+000	 2.8813131430e-001
 3.6592170980e-001	 2.4983447125e+000	 3.4538442533e-001
 3.4263086425e-001	 2.5016452768e+000	 3.7317445742e-001
 3.1938321501e-001	 2.5047194178e+000	 3.6842564169e-001
 2.9618169356e-001	 2.5075688234e+000	 3.6285626302e-001
 2.7302918129e-001	 2.5101952247e+000	 3.5713323496e-001
 2.4992850885e-001	 2.5126003941e+000	 3.5197254304e-001
 2.2688245570e-001	 2.5147861442e+000	 3.4813806377e-001
 4.6400578367e-001	 2.5074286895e+000	 2.8157489791e-001
 4.4034043410e-001	 2.5116927165e+000	 2.8983498159e-001
 4.1670637365e-001	 2.5157217251e+000	 2.9526235736e-001
 3.9310675849e-001	 2.5195172308e+000	 2.9821336111e-001
 3.6954469702e-001	 2.5230807987e+000	 2.9909959439e-001
 3.4602324904e-001	 2.5264140419e+000	 2.9838731861e-001
 3.2254542506e-001	 2.5295186200e+000	 2.9659672803e-001
 2.9911418558e-001	 2.5323962375e+000	 2.9430110601e-001
 2.7573244051e-001	 2.5350486428e+000	 2.9212586887e-001
 2.5240304855e-001	 2.5374776257e+000	 2.9074750254e-001
 2.2912881665e-001	 2.5396850170e+000	 2.9089239666e-001
 4.6855485998e-001	 2.5320113237e+000	 2.1446955862e-001
 4.4465749718e-001	 2.5363171549e+000	 2.2335513204e-001
 4.2079173025e-001	 2.5403856636e+000	 2.2990645530e-001
 3.9696074632e-001	 2.5442183801e+000	 2.3442812597e-001
 3.7316768424e-001	 2.5478168850e+000	 2.3728192656e-001
 3.4941563383e-001	 2.5511828070e+000	 2.3888625868e-001
 3.2570763510e-001	 2.5543178221e+000	 2.3971545064e-001
 3.0204667759e-001	 2.5572236516e+000	 2.4029894309e-001
 2.7843569973e-001	 2.5599020608e+000	 2.4122035737e-001
 2.5487758824e-001	 2.5623548573e+000	 2.4311645137e-001
 2.3137517760e-001	 2.5645838897e+000	 2.4667596829e-001
 4.7310393629e-001	 2.5565939579e+000	 1.6269910955e-001
 4.4897456026e-001	 2.5609415933e+000	 1.7219609392e-001
 4.2487708685e-001	 2.5650496021e+000	 1.7980373221e-001
 4.0081473414e-001	 2.5689195295e+000	 1.8577419908e-001
 3.7679067147e-001	 2.5725529713e+000	 1.9041884537e-001
 3.5280801863e-001	 2.5759515721e+000	 1.9410767207e-001
 3.2886984515e-001	 2.5791170243e+000	 1.9726867236e-001
 3.0497916961e-001	 2.5820510657e+000	 2.0038704632e-001
 2.8113895895e-001	 2.5847554789e+000	 2.0400429317e-001
 2.5735212793e-001	 2.5872320890e+000	 2.0871718599e-001
 2.3362153855e-001	 2.5894827624e+000	 2.1517663427e-001
 4.7765301260e-001	 2.5811765921e+000	 1.2545855625e-001
 4.5329162333e-001	 2.5855660317e+000	 1.3560249009e-001
 4.2896244345e-001	 2.5897135406e+000	 1.4424850380e-001
 4.0466872197e-001	 2.5936206788e+000	 1.5159563195e-001
 3.8041365869e-001	 2.5972890575e+000	 1.5790414924e-001
 3.5620040342e-001	 2.6007203373e+000	 1.6349508415e-001
 3.3203205520e-001	 2.6039162264e+000	 1.6874959522e-001
 3.0791166162e-001	 2.6068784798e+000	 1.7410821452e-001
 2.8384221817e-001	 2.6096088970e+000	 1.8006996334e-001
 2.5982666762e-001	 2.6121093206e+000	 1.8719134520e-001
 2.3586789950e-001	 2.6143816351e+000	 1.9608522155e-001
 4.8220208891e-001	 2.6057592263e+000	 1.0195315974e-001
 4.5760868641e-001	 2.6101904701e+000	 1.1282854979e-001
 4.3304780006e-001	 2.6143774790e+000	 1.2254402105e-001
 4.0852270980e-001	 2.6183218281e+000	 1.3124471872e-001
 3.8403664592e-001	 2.6220251438e+000	 1.3913916551e-001
 3.5959278821e-001	 2.6254891024e+000	 1.4649881488e-001
 3.3519426525e-001	 2.6287154286e+000	 1.5365746139e-001
 3.1084415364e-001	 2.6317058939e+000	 1.6101051261e-001
 2.8654547739e-001	 2.6344623150e+000	 1.6901412786e-001
 2.6230120731e-001	 2.6369865522e+000	 1.7818422893e-001
 2.3811426044e-001	 2.6392805078e+000	 1.8909538828e-001
 4.8675116522e-001	 2.6303418605e+000	 9.1397957280e-002
 4.6192574949e-001	 2.6348149085e+000	 1.0313765978e-001
 4.3713315666e-001	 2.6390414175e+000	 1.1400205272e-001
 4.1237669763e-001	 2.6430229774e+000	 1.2408161102e-001
 3.8765963314e-001	 2.6467612300e+000	 1.3353239860e-001
 3.6298517301e-001	 2.6502578675e+000	 1.4257566128e-001
 3.3835647530e-001	 2.6535146308e+000	 1.5149727090e-001
 3.1377664565e-001	 2.6565333080e+000	 1.6064702549e-001
 2.8924873661e-001	 2.6593157331e+000	 1.7043781059e-001
 2.6477574700e-001	 2.6618637839e+000	 1.8134462713e-001
 2.4036062139e-001	 2.6641793805e+000	 1.9390349152e-001
 4.9130024153e-001	 2.6549244947e+000	 9.3017309815e-002
 4.6624281257e-001	 2.6594393469e+000	 1.0580194037e-001
 4.4121851326e-001	 2.6637053560e+000	 1.1794249099e-001
 4.1623068545e-001	 2.6677241268e+000	 1.2947395416e-001
 3.9128262037e-001	 2.6714973163e+000	 1.4049919776e-001
 3.6637755780e-001	 2.6750266326e+000	 1.5118859758e-001
 3.4151868535e-001	 2.6783138329e+000	 1.6177951513e-001
 3.1670913767e-001	 2.6813607221e+000	 1.7257562571e-001
 2.9195199583e-001	 2.6841691512e+000	 1.8394610191e-001
 2.6725028670e-001	 2.6867410155e+000	 1.9632465821e-001
 2.4260698234e-001	 2.6890782533e+000	 2.1020846228e-001
 4.9584931784e-001	 2.6795071290e+000	 1.0604447423e-001
 4.7055987565e-001	 2.6840637853e+000	 1.2010184479e-001
 4.4530386987e-001	 2.6883692945e+000	 1.3369297884e-001
 4.2008467328e-001	 2.6924252761e+000	 1.4679654343e-001
 3.9490560759e-001	 2.6962334026e+000	 1.5946144307e-001
 3.6976994260e-001	 2.6997953977e+000	 1.7180649186e-001
 3.4468089540e-001	 2.7031130351e+000	 1.8401992487e-001
 3.1964162968e-001	 2.7061881362e+000	 1.9635875374e-001
 2.9465525505e-001	 2.7090225692e+000	 2.0914797213e-001
 2.6972482639e-001	 2.7116182471e+000	 2.2277961636e-001
 2.4485334329e-001	 2.7139771260e+000	 2.3771168742e-001
 5.0039839415e-001	 2.7040897632e+000	 1.2972119901e-001
 4.7487693873e-001	 2.7086882237e+000	 1.4532578045e-001
 4.4938922647e-001	 2.7130332330e+000	 1.6058855773e-001
 4.2393866111e-001	 2.7171264254e+000	 1.7543099905e-001
 3.9852859482e-001	 2.7209694888e+000	 1.8984724857e-001
 3.7316232739e-001	 2.7245641628e+000	 2.0390383817e-001
 3.4784310545e-001	 2.7279122372e+000	 2.1773923218e-001
 3.2257412170e-001	 2.7310155503e+000	 2.3156321045e-001
 2.9735851428e-001	 2.7338759873e+000	 2.4565609516e-001
 2.7219936608e-001	 2.7364954787e+000	 2.6036782719e-001
 2.4709970424e-001	 2.7388759987e+000	 2.7611689809e-001
 2.2463609475e-001	 2.4898872715e+000	 1.1310934017e-001
 2.0187499956e-001	 2.4918359666e+000	 1.3624170164e-001
 1.7917333268e-001	 2.4935711173e+000	 1.6168736789e-001
 1.5653369117e-001	 2.4950946282e+000	 1.8958149888e-001
 1.3395861973e-001	 2.4964084378e+000	 2.1999562879e-001
 1.1145061038e-001	 2.4975145168e+000	 2.5293868216e-001
 8.9012102215e-002	 2.4984148666e+000	 2.8835810200e-001
 6.6645481200e-002	 2.4991115181e+000	 3.2614108413e-001
 4.4353079963e-002	 2.4996065299e+000	 3.6611591118e-001
 2.2137177686e-002	 2.4999019872e+000	 4.0805338032e-001
 0.0000000000e+000	 2.5000000000e+000	 4.5166831826e-001
 2.2688245570e-001	 2.5147861442e+000	 3.4813806377e-001
 2.0389374956e-001	 2.5167543263e+000	 3.3809311314e-001
 1.8096506601e-001	 2.5185068284e+000	 3.2977252999e-001
 1.5809902809e-001	 2.5200455744e+000	 3.2415538206e-001
 1.3529820593e-001	 2.5213725222e+000	 3.2226216107e-001
 1.1256511648e-001	 2.5224896619e+000	 3.2515314081e-001
 8.9902223242e-002	 2.5233990153e+000	 3.3392667143e-001
 6.7311936015e-002	 2.5241026333e+000	 3.4971741541e-001
 4.4796610765e-002	 2.5246025952e+000	 3.7369453052e-001
 2.2358549464e-002	 2.5249010070e+000	 4.0705980528e-001
 0.0000000000e+000	 2.5250000000e+000	 4.5104575235e-001
 2.2912881665e-001	 2.5396850170e+000	 2.9089239666e-001
 2.0591249956e-001	 2.5416726859e+000	 2.8696103145e-001
 1.8275679934e-001	 2.5434425396e+000	 2.8465094096e-001
 1.5966436500e-001	 2.5449965207e+000	 2.8488628677e-001
 1.3663779213e-001	 2.5463366065e+000	 2.8863536082e-001
 1.1367962259e-001	 2.5474648071e+000	 2.9690894299e-001
 9.0792344267e-002	 2.5483831639e+000	 3.1075858991e-001
 6.7978390830e-002	 2.5490937484e+000	 3.3127486066e-001
 4.5240141567e-002	 2.5495986605e+000	 3.5958548515e-001
 2.2579921242e-002	 2.5499000269e+000	 3.9685348055e-001
 0.0000000000e+000	 2.5500000000e+000	 4.4427522153e-001
 2.3137517760e-001	 2.5645838897e+000	 2.4667596829e-001
 2.0793124956e-001	 2.5665910456e+000	 2.4720506606e-001
 1.8454853267e-001	 2.5683782508e+000	 2.4920299500e-001
 1.6122970192e-001	 2.5699474670e+000	 2.5353937255e-001
 1.3797737833e-001	 2.5713006909e+000	 2.6113070868e-001
 1.1479412870e-001	 2.5724399523e+000	 2.7293876159e-001
 9.1682465292e-002	 2.5733673126e+000	 2.8996881976e-001
 6.8644845644e-002	 2.5740848636e+000	 3.1326791621e-001
 4.5683672368e-002	 2.5745947258e+000	 3.4392298069e-001
 2.2801293020e-002	 2.5748990468e+000	 3.8305893576e-001
 0.0000000000e+000	 2.5750000000e+000	 4.3183674236e-001
 2.3362153855e-001	 2.5894827624e+000	 2.1517663427e-001
 2.0994999955e-001	 2.5915094053e+000	 2.1859271214e-001
 1.8634026600e-001	 2.5933139620e+000	 2.2327540878e-001
 1.6279503883e-001	 2.5948984133e+000	 2.3004012526e-001
 1.3931696453e-001	 2.5962647753e+000	 2.3975197407e-001
 1.1590863480e-001	 2.5974150974e+000	 2.5332413186e-001
 9.2572586317e-002	 2.5983514613e+000	 2.7171611342e-001
 6.9311300459e-002	 2.5990759788e+000	 2.9593197311e-001
 4.6127203170e-002	 2.5995907911e+000	 3.2701843959e-001
 2.3022664798e-002	 2.5998980666e+000	 3.6606298998e-001
 0.0000000000e+000	 2.6000000000e+000	 4.1419186924e-001
 2.3586789950e-001	 2.6143816351e+000	 1.9608522155e-001
 2.1196874955e-001	 2.6164277650e+000	 2.0089241330e-001
 1.8813199933e-001	 2.6182496731e+000	 2.0671381504e-001
 1.6436037574e-001	 2.6198493596e+000	 2.1431090569e-001
 1.4065655073e-001	 2.6212288597e+000	 2.2449775246e-001
 1.1702314091e-001	 2.6223902426e+000	 2.3813935930e-001
 9.3462707341e-002	 2.6233356099e+000	 2.5614993167e-001
 6.9977755272e-002	 2.6240670940e+000	 2.7949106370e-001
 4.6570733970e-002	 2.6245868564e+000	 3.0916985412e-001
 2.3244036575e-002	 2.6248970865e+000	 3.4623695700e-001
 0.0000000000e+000	 2.6250000000e+000	 3.9178457354e-001
 2.3811426044e-001	 2.6392805078e+000	 1.8909538828e-001
 2.1398749955e-001	 2.6413461246e+000	 1.9387351689e-001
 1.8992373266e-001	 2.6431853843e+000	 1.9936281365e-001
 1.6592571266e-001	 2.6448003059e+000	 2.0627109696e-001
 1.4199613693e-001	 2.6461929440e+000	 2.1536170937e-001
 1.1813764702e-001	 2.6473653878e+000	 2.2745186065e-001
 9.4352828365e-002	 2.6483197586e+000	 2.4341088192e-001
 7.0644210086e-002	 2.6490582092e+000	 2.6415839735e-001
 4.7014264771e-002	 2.6495829217e+000	 2.9066241982e-001
 2.3465408353e-002	 2.6498961064e+000	 3.2393737679e-001
 0.0000000000e+000	 2.6500000000e+000	 3.6504207298e-001
 2.4036062139e-001	 2.6641793805e+000	 1.9390349152e-001
 2.1600624954e-001	 2.6662644843e+000	 1.9730623177e-001
 1.9171546598e-001	 2.6681210955e+000	 2.0106601991e-001
 1.6749104957e-001	 2.6697512521e+000	 2.0583724366e-001
 1.4333572313e-001	 2.6711570284e+000	 2.1233281084e-001
 1.1925215312e-001	 2.6723405329e+000	 2.2132248583e-001
 9.5242949388e-002	 2.6733039073e+000	 2.3363113194e-001
 7.1310664899e-002	 2.6740493244e+000	 2.5013686624e-001
 4.7457795571e-002	 2.6745789870e+000	 2.7176913348e-001
 2.3686780130e-002	 2.6748951263e+000	 2.9950670578e-001
 0.0000000000e+000	 2.6750000000e+000	 3.3437561455e-001
 2.4260698234e-001	 2.6890782533e+000	 2.1020846228e-001
 2.1802499954e-001	 2.6911828440e+000	 2.1096158839e-001
 1.9350719931e-001	 2.6930568066e+000	 2.1166611014e-001
 1.6905638648e-001	 2.6947021984e+000	 2.1292318329e-001
 1.4467530933e-001	 2.6961211128e+000	 2.1539554089e-001
 1.2036665923e-001	 2.6973156781e+000	 2.1980582192e-001
 9.6133070411e-002	 2.6982880559e+000	 2.2693480059e-001
 7.1977119711e-002	 2.6990404395e+000	 2.3761952298e-001
 4.7901326371e-002	 2.6995750523e+000	 2.5275135794e-001
 2.3908151907e-002	 2.6998941461e+000	 2.7327396893e-001
 0.0000000000e+000	 2.7000000000e+000	 3.0018121384e-001
 2.4485334329e-001	 2.7139771260e+000	 2.3771168742e-001
 2.2004374954e-001	 2.7161012036e+000	 2.3461140113e-001
 1.9529893264e-001	 2.7179925178e+000	 2.3100486472e-001
 1.7062172340e-001	 2.7196531447e+000	 2.2744017041e-001
 1.4601489552e-001	 2.7210851972e+000	 2.2453010719e-001
 1.2148116533e-001	 2.7222908233e+000	 2.2295048046e-001
 9.7023191433e-002	 2.7232722046e+000	 2.2343832698e-001
 7.2643574523e-002	 2.7240315547e+000	 2.2679003201e-001
 4.8344857171e-002	 2.7245711176e+000	 2.3385935571e-001
 2.4129523684e-002	 2.7248931660e+000	 2.4555537584e-001
 0.0000000000e+000	 2.7250000000e+000	 2.6284035377e-001
 2.4709970424e-001	 2.7388759987e+000	 2.7611689809e-001
 2.2206249953e-001	 2.7410195633e+000	 2.6802823268e-001
 1.9709066597e-001	 2.7429282290e+000	 2.5892320883e-001
 1.7218706031e-001	 2.7446040910e+000	 2.4929699406e-001
 1.4735448172e-001	 2.7460492816e+000	 2.3971263544e-001
 1.2259567143e-001	 2.7472659684e+000	 2.3079936910e-001
 9.7913312455e-002	 2.7482563533e+000	 2.2325081961e-001
 7.3310029335e-002	 2.7490226699e+000	 2.1782309626e-001
 4.8788387970e-002	 2.7495671829e+000	 2.1533279357e-001
 2.4350895461e-002	 2.7498921859e+000	 2.1665490328e-001
 0.0000000000e+000	 2.7500000000e+000	 2.2272064517e-001
 2.7500000000e+000	 0.0000000000e+000	 1.7619173897e+000
 2.7498921859e+000	 2.4350895461e-002	 1.7534961945e+000
 2.7495671829e+000	 4.8788387970e-002	 1.7404276486e+000
 2.7490226699e+000	 7.3310029335e-002	 1.7232653626e+000
 2.7482563533e+000	 9.7913312455e-002	 1.7025160888e+000
 2.7472659684e+000	 1.2259567143e-001	 1.6786375329e+000
 2.7460492816e+000	 1.4735448172e-001	 1.6520362075e+000
 2.7446040910e+000	 1.7218706031e-001	 1.6230653344e+000
 2.7429282290e+000	 1.9709066597e-001	 1.5920228018e+000
 2.7410195633e+000	 2.2206249953e-001	 1.5591491828e+000
 2.7388759987e+000	 2.4709970424e-001	 1.5246258220e+000
 2.7750000000e+000	 0.0000000000e+000	 1.6837148116e+000
 2.7748912057e+000	 2.4572267237e-002	 1.6849815978e+000
 2.7745632482e+000	 4.9231918770e-002	 1.6809239052e+000
 2.7740137851e+000	 7.3976484146e-002	 1.6720915136e+000
 2.7732405019e+000	 9.8803433477e-002	 1.6589864644e+000
 2.7722411136e+000	 1.2371017754e-001	 1.6420608431e+000
 2.7710133659e+000	 1.4869406792e-001	 1.6217146050e+000
 2.7695550373e+000	 1.7375239722e-001	 1.5982934514e+000
 2.7678639402e+000	 1.9888239929e-001	 1.5720867616e+000
 2.7659379230e+000	 2.2408124953e-001	 1.5433255897e+000
 2.7637748714e+000	 2.4934606519e-001	 1.5121807299e+000
 2.8000000000e+000	 0.0000000000e+000	 1.6039671799e+000
 2.7998902256e+000	 2.4793639014e-002	 1.6143563241e+000
 2.7995593135e+000	 4.9675449569e-002	 1.6188155050e+000
 2.7990049003e+000	 7.4642938958e-002	 1.6178915480e+000
 2.7982246506e+000	 9.9693554498e-002	 1.6120826052e+000
 2.7972162588e+000	 1.2482468364e-001	 1.6018359059e+000
 2.7959774503e+000	 1.5003365411e-001	 1.5875455530e+000
 2.7945059836e+000	 1.7531773413e-001	 1.5695503702e+000
 2.7927996513e+000	 2.0067413262e-001	 1.5481318083e+000
 2.7908562826e+000	 2.2609999953e-001	 1.5235119163e+000
 2.7886737441e+000	 2.5159242613e-001	 1.4958513851e+000
 2.8250000000e+000	 0.0000000000e+000	 1.5227004612e+000
 2.8248892455e+000	 2.5015010790e-002	 1.5416526082e+000
 2.8245553788e+000	 5.0118980368e-002	 1.5541406756e+000
 2.8239960154e+000	 7.5309393769e-002	 1.5607094050e+000
 2.8232087993e+000	 1.0058367552e-001	 1.5618538739e+000
 2.8221914039e+000	 1.2593918974e-001	 1.5580172133e+000
 2.8209415347e+000	 1.5137324031e-001	 1.5495883715e+000
 2.8194569298e+000	 1.7688307104e-001	 1.5368999311e+000
 2.8177353625e+000	 2.0246586595e-001	 1.5202259867e+000
 2.8157746423e+000	 2.2811874952e-001	 1.4997800894e+000
 2.8135726168e+000	 2.5383878708e-001	 1.4757132658e+000
 2.8500000000e+000	 0.0000000000e+000	 1.4399397108e+000
 2.8498882654e+000	 2.5236382567e-002	 1.4669016243e+000
 2.8495514441e+000	 5.0562511167e-002	 1.4869364643e+000
 2.8489871306e+000	 7.5975848581e-002	 1.5005877531e+000
 2.8481929479e+000	 1.0147379654e-001	 1.5083483029e+000
 2.8471665491e+000	 1.2705369585e-001	 1.5106578976e+000
 2.8459056191e+000	 1.5271282651e-001	 1.5079010226e+000
 2.8444078761e+000	 1.7844840795e-001	 1.5004046492e+000
 2.8426710737e+000	 2.0425759927e-001	 1.4884360815e+000
 2.8406930020e+000	 2.3013749952e-001	 1.4722008723e+000
 2.8384714896e+000	 2.5608514803e-001	 1.4518408157e+000
 2.8750000000e+000	 0.0000000000e+000	 1.3557091126e+000
 2.8748872852e+000	 2.5457754343e-002	 1.3901335320e+000
 2.8745475094e+000	 5.1006041966e-002	 1.4172387888e+000
 2.8739782458e+000	 7.6642303392e-002	 1.4375680452e+000
 2.8731770966e+000	 1.0236391756e-001	 1.4516126515e+000
 2.8721416943e+000	 1.2816820195e-001	 1.4598097904e+000
 2.8708697034e+000	 1.5405241270e-001	 1.4625401698e+000
 2.8693588224e+000	 1.8001374486e-001	 1.4601257728e+000
 2.8676067849e+000	 2.0604933260e-001	 1.4528276721e+000
 2.8656113616e+000	 2.3215624951e-001	 1.4408439152e+000
 2.8633703623e+000	 2.5833150898e-001	 1.4243074886e+000
 2.9000000000e+000	 0.0000000000e+000	 1.2700320164e+000
 2.8998863051e+000	 2.5679126120e-002	 1.3113775202e+000
 2.8995435747e+000	 5.1449572765e-002	 1.3450824863e+000
 2.8989693610e+000	 7.7308758203e-002	 1.3716905711e+000
 2.8981612453e+000	 1.0325403858e-001	 1.3916924616e+000
 2.8971168394e+000	 1.2928270805e-001	 1.4055234790e+000
 2.8958337878e+000	 1.5539199890e-001	 1.4135612334e+000
 2.8943097687e+000	 1.8157908178e-001	 1.4161233372e+000
 2.8925424960e+000	 2.0784106593e-001	 1.4134651845e+000
 2.8905297213e+000	 2.3417499951e-001	 1.4057778037e+000
 2.8882692350e+000	 2.6057786993e-001	 1.3931857913e+000
 2.9250000000e+000	 0.0000000000e+000	 1.1829309741e+000
 2.9248853250e+000	 2.5900497897e-002	 1.2306618484e+000
 2.9245396400e+000	 5.1893103565e-002	 1.2705013594e+000
 2.9239604762e+000	 7.7975213015e-002	 1.3029945073e+000
 2.9231453939e+000	 1.0414415961e-001	 1.3286321090e+000
 2.9220919846e+000	 1.3039721416e-001	 1.3478483591e+000
 2.9207978722e+000	 1.5673158510e-001	 1.3610184442e+000
 2.9192607150e+000	 1.8314441869e-001	 1.3684562173e+000
 2.9174782072e+000	 2.0963279925e-001	 1.3704119406e+000
 2.9154480810e+000	 2.3619374951e-001	 1.3670701035e+000
 2.9131681077e+000	 2.6282423087e-001	 1.3585473238e+000
 2.9500000000e+000	 0.0000000000e+000	 1.0944277727e+000
 2.9498843448e+000	 2.6121869673e-002	 1.1480138862e+000
 2.9495357053e+000	 5.2336634364e-002	 1.1935282201e+000
 2.9489515913e+000	 7.8641667826e-002	 1.2315179640e+000
 2.9481295426e+000	 1.0503428063e-001	 1.2624748533e+000
 2.9470671298e+000	 1.3151172026e-001	 1.2868326858e+000
 2.9457619566e+000	 1.5807117129e-001	 1.3049648935e+000
 2.9442116612e+000	 1.8470975560e-001	 1.3171821762e+000
 2.9424139184e+000	 2.1142453258e-001	 1.3237302051e+000
 2.9403664406e+000	 2.3821249950e-001	 1.3247874045e+000
 2.9380669804e+000	 2.6507059182e-001	 1.3204628181e+000
 2.9750000000e+000	 0.0000000000e+000	 1.0045434672e+000
 2.9748833647e+000	 2.6343241450e-002	 1.0634601504e+000
 2.9745317706e+000	 5.2780165163e-002	 1.1141949314e+000
 2.9739427065e+000	 7.9308122638e-002	 1.1572980301e+000
 2.9731136913e+000	 1.0592440165e-001	 1.1932628845e+000
 2.9720422749e+000	 1.3262622636e-001	 1.2225236210e+000
 2.9707260410e+000	 1.5941075749e-001	 1.2454525812e+000
 2.9691626075e+000	 1.8627509251e-001	 1.2623579122e+000
 2.9673496295e+000	 2.1321626591e-001	 1.2734812298e+000
 2.9652848003e+000	 2.4023124950e-001	 1.2789953609e+000
 2.9629658531e+000	 2.6731695277e-001	 1.2790021743e+000
 3.0000000000e+000	 0.0000000000e+000	 9.1329841046e-001
 2.9998823846e+000	 2.6564613226e-002	 9.7702634107e-001
 2.9995278359e+000	 5.3223695962e-002	 1.0325324470e+000
 2.9989338217e+000	 7.9974577449e-002	 1.0803708156e+000
 2.9980978399e+000	 1.0681452267e-001	 1.1210373678e+000
 2.9970174201e+000	 1.3374073246e-001	 1.1549672795e+000
 2.9956901253e+000	 1.6075034369e-001	 1.1825324611e+000
 2.9941135538e+000	 1.8784042942e-001	 1.2040391031e+000
 2.9922853407e+000	 2.1500799923e-001	 1.2197252957e+000
 2.9902031599e+000	 2.4224999949e-001	 1.2297587311e+000
 2.9878647258e+000	 2.6956331372e-001	 1.2342344958e+000
 2.7388759987e+000	 2.4709970424e-001	 1.5246258220e+000
 2.7364954787e+000	 2.7219936608e-001	 1.5114334413e+000
 2.7338759873e+000	 2.9735851428e-001	 1.4961352075e+000
 2.7310155503e+000	 3.2257412170e-001	 1.4787532044e+000
 2.7279122372e+000	 3.4784310545e-001	 1.4592445813e+000
 2.7245641628e+000	 3.7316232739e-001	 1.4375000751e+000
 2.7209694888e+000	 3.9852859482e-001	 1.4133426400e+000
 2.7171264254e+000	 4.2393866111e-001	 1.3865261895e+000
 2.7130332330e+000	 4.4938922647e-001	 1.3567344591e+000
 2.7086882237e+000	 4.7487693873e-001	 1.3235799948e+000
 2.7040897632e+000	 5.0039839415e-001	 1.2866032739e+000
 2.7637748714e+000	 2.4934606519e-001	 1.5121807299e+000
 2.7613727104e+000	 2.7467390578e-001	 1.5028363746e+000
 2.7587294054e+000	 3.0006177350e-001	 1.4905900833e+000
 2.7558429644e+000	 3.2550661372e-001	 1.4754433783e+000
 2.7527114394e+000	 3.5100531550e-001	 1.4573316653e+000
 2.7493329280e+000	 3.7655471219e-001	 1.4361227513e+000
 2.7457055751e+000	 4.0215158205e-001	 1.4116154735e+000
 2.7418275747e+000	 4.2779264894e-001	 1.3835384436e+000
 2.7376971715e+000	 4.5347458308e-001	 1.3515489160e+000
 2.7333126621e+000	 4.7919400181e-001	 1.3152317850e+000
 2.7286723974e+000	 5.0494747046e-001	 1.2740987179e+000
 2.7886737441e+000	 2.5159242613e-001	 1.4958513851e+000
 2.7862499420e+000	 2.7714844547e-001	 1.4903074460e+000
 2.7835828235e+000	 3.0276503272e-001	 1.4811431207e+000
 2.7806703785e+000	 3.2843910574e-001	 1.4683396950e+000
 2.7775106416e+000	 3.5416752555e-001	 1.4518110828e+000
 2.7741016931e+000	 3.7994709699e-001	 1.4314023383e+000
 2.7704416614e+000	 4.0577456927e-001	 1.4068882823e+000
 2.7665287241e+000	 4.3164663677e-001	 1.3779722470e+000
 2.7623611099e+000	 4.5755993968e-001	 1.3442849489e+000
 2.7579371005e+000	 4.8351106489e-001	 1.3053834928e+000
 2.7532550316e+000	 5.0949654677e-001	 1.2607505168e+000
 2.8135726168e+000	 2.5383878708e-001	 1.4757132658e+000
 2.8111271736e+000	 2.7962298516e-001	 1.4739314747e+000
 2.8084362415e+000	 3.0546829194e-001	 1.4678881343e+000
 2.8054977926e+000	 3.3137159775e-001	 1.4575446086e+000
 2.8023098437e+000	 3.5732973560e-001	 1.4427935602e+000
 2.7988704582e+000	 3.8333948178e-001	 1.4234574563e+000
 2.7951777476e+000	 4.0939755650e-001	 1.3992871899e+000
 2.7912298734e+000	 4.3550062460e-001	 1.3699608247e+000
 2.7870250484e+000	 4.6164529629e-001	 1.3350824699e+000
 2.7825615389e+000	 4.8782812797e-001	 1.2941812911e+000
 2.7778376658e+000	 5.1404562308e-001	 1.2467106649e+000
 2.8384714896e+000	 2.5608514803e-001	 1.4518408157e+000
 2.8360044052e+000	 2.8209752485e-001	 1.4537921912e+000
 2.8332896596e+000	 3.0817155116e-001	 1.4509178293e+000
 2.8303252067e+000	 3.3430408977e-001	 1.4431594755e+000
 2.8271090459e+000	 3.6049194565e-001	 1.4303887716e+000
 2.8236392233e+000	 3.8673186658e-001	 1.4124057518e+000
 2.8199138339e+000	 4.1302054373e-001	 1.3889374592e+000
 2.8159310227e+000	 4.3935461243e-001	 1.3596366877e+000
 2.8116889869e+000	 4.6573065289e-001	 1.3240808586e+000
 2.8071859773e+000	 4.9214519105e-001	 1.2817710361e+000
 2.8024203000e+000	 5.1859469938e-001	 1.2321310907e+000
 2.8633703623e+000	 2.5833150898e-001	 1.4243074886e+000
 2.8608816369e+000	 2.8457206455e-001	 1.4299722852e+000
 2.8581430777e+000	 3.1087481039e-001	 1.4303238494e+000
 2.8551526208e+000	 3.3723658179e-001	 1.4252846023e+000
 2.8519082480e+000	 3.6365415570e-001	 1.4147053840e+000
 2.8484079884e+000	 3.9012425137e-001	 1.3983639399e+000
 2.8446499202e+000	 4.1664353095e-001	 1.3759635293e+000
 2.8406321720e+000	 4.4320860026e-001	 1.3471316643e+000
 2.8363529254e+000	 4.6981600950e-001	 1.3114189855e+000
 2.8318104157e+000	 4.9646225412e-001	 1.2682982816e+000
 2.8270029342e+000	 5.2314377569e-001	 1.2171636605e+000
 2.8882692350e+000	 2.6057786993e-001	 1.3931857913e+000
 2.8857588685e+000	 2.8704660424e-001	 1.4025534497e+000
 2.8829964957e+000	 3.1357806961e-001	 1.4061968229e+000
 2.8799800349e+000	 3.4016907380e-001	 1.4040192908e+000
 2.8767074502e+000	 3.6681636576e-001	 1.3958511016e+000
 2.8731767535e+000	 3.9351663617e-001	 1.3814478448e+000
 2.8693860064e+000	 4.2026651818e-001	 1.3604890518e+000
 2.8653333213e+000	 4.4706258809e-001	 1.3325769294e+000
 2.8610168639e+000	 4.7390136610e-001	 1.2972352334e+000
 2.8564348541e+000	 5.0077931720e-001	 1.2539082917e+000
 2.8515855684e+000	 5.2769285200e-001	 1.2019601804e+000
 2.9131681077e+000	 2.6282423087e-001	 1.3585473238e+000
 2.9106361001e+000	 2.8952114393e-001	 1.3716164242e+000
 2.9078499138e+000	 3.1628132883e-001	 1.3786264056e+000
 2.9048074490e+000	 3.4310156582e-001	 1.3794618811e+000
 2.9015066523e+000	 3.6997857581e-001	 1.3739327060e+000
 2.8979455187e+000	 3.9690902097e-001	 1.3617724374e+000
 2.8941220927e+000	 4.2388950541e-001	 1.3426369239e+000
 2.8900344707e+000	 4.5091657592e-001	 1.3161030322e+000
 2.8856808023e+000	 4.7798672271e-001	 1.2816675189e+000
 2.8810592925e+000	 5.0509638028e-001	 1.2387460532e+000
 2.8761682026e+000	 5.3224192831e-001	 1.1866723994e+000
 2.9380669804e+000	 2.6507059182e-001	 1.3204628181e+000
 2.9355133317e+000	 2.9199568362e-001	 1.3372410349e+000
 2.9327033318e+000	 3.1898458805e-001	 1.3477013225e+000
 2.9296348631e+000	 3.4603405784e-001	 1.3517097922e+000
 2.9263058545e+000	 3.7314078586e-001	 1.3490560962e+000
 2.9227142838e+000	 4.0030140576e-001	 1.3394518721e+000
 2.9188581789e+000	 4.2751249264e-001	 1.3225293204e+000
 2.9147356200e+000	 4.5477056375e-001	 1.2978399233e+000
 2.9103447408e+000	 4.8207207931e-001	 1.2648533115e+000
 2.9056837309e+000	 5.0941344336e-001	 1.2229562875e+000
 2.9007508368e+000	 5.3679100462e-001	 1.1714520115e+000
 2.9629658531e+000	 2.6731695277e-001	 1.2790021743e+000
 2.9603905634e+000	 2.9447022332e-001	 1.2995062330e+000
 2.9575567499e+000	 3.2168784727e-001	 1.3135094067e+000
 2.9544622771e+000	 3.4896654985e-001	 1.3208595608e+000
 2.9511050566e+000	 3.7630299591e-001	 1.3213263248e+000
 2.9474830489e+000	 4.0369379056e-001	 1.3145995203e+000
 2.9435942652e+000	 4.3113547986e-001	 1.3002877244e+000
 2.9394367693e+000	 4.5862455157e-001	 1.2779169792e+000
 2.9350086793e+000	 4.8615743592e-001	 1.2469296530e+000
 2.9303081693e+000	 5.1373050644e-001	 1.2066834618e+000
 2.9253334710e+000	 5.4134008093e-001	 1.1564506581e+000
 2.9878647258e+000	 2.6956331372e-001	 1.2342344958e+000
 2.9852677950e+000	 2.9694476301e-001	 1.2584901311e+000
 2.9824101680e+000	 3.2439110650e-001	 1.2761376365e+000
 2.9792896912e+000	 3.5189904187e-001	 1.2870068781e+000
 2.9759042588e+000	 3.7946520596e-001	 1.2908476341e+000
 2.9722518140e+000	 4.0708617535e-001	 1.2873280037e+000
 2.9683303514e+000	 4.3475846709e-001	 1.2760329558e+000
 2.9641379186e+000	 4.6247853940e-001	 1.2564630267e+000
 2.9596726178e+000	 4.9024279252e-001	 1.2280331748e+000
 2.9549326076e+000	 5.1804756952e-001	 1.1900717993e+000
 2.9499161052e+000	 5.4588915724e-001	 1.1418199302e+000
 2.7040897632e+000	 5.0039839415e-001	 1.2866032739e+000
 2.6992362720e+000	 5.2595013834e-001	 1.2816185599e+000
 2.6941262274e+000	 5.5152866722e-001	 1.2709052368e+000
 2.6887581649e+000	 5.7713042797e-001	 1.2537932684e+000
 2.6831306796e+000	 6.0275182011e-001	 1.2295396083e+000
 2.6772424279e+000	 6.2838919664e-001	 1.1961743588e+000
 2.6710921293e+000	 6.5403886512e-001	 1.1512209641e+000
 2.6646785674e+000	 6.7969708895e-001	 1.1056883976e+000
 2.6580005917e+000	 7.0536008863e-001	 1.0595693170e+000
 2.6510571191e+000	 7.3102404304e-001	 1.0128563505e+000
 2.6438471350e+000	 7.5668509084e-001	 9.6554195762e-001
 2.7286723974e+000	 5.0494747046e-001	 1.2740987179e+000
 2.7237747836e+000	 5.3073150323e-001	 1.2653695289e+000
 2.7186182841e+000	 5.5654256419e-001	 1.2515044009e+000
 2.7132014209e+000	 5.8237706822e-001	 1.2318096870e+000
 2.7075227766e+000	 6.0823138211e-001	 1.2055163364e+000
 2.7015809954e+000	 6.3410182569e-001	 1.1689121432e+000
 2.6953747850e+000	 6.5998467298e-001	 1.1237778933e+000
 2.6889029180e+000	 6.8587615339e-001	 1.0776451853e+000
 2.6821642335e+000	 7.1177245307e-001	 1.0305122867e+000
 2.6751576384e+000	 7.3766971615e-001	 9.8237786681e-001
 2.6678821090e+000	 7.6356404620e-001	 9.3324085527e-001
 2.7532550316e+000	 5.0949654677e-001	 1.2607505168e+000
 2.7483132951e+000	 5.3551286813e-001	 1.2488626733e+000
 2.7431103407e+000	 5.6155646116e-001	 1.2324791679e+000
 2.7376446770e+000	 5.8762370847e-001	 1.2108820873e+000
 2.7319148737e+000	 6.1371094411e-001	 1.1832756518e+000
 2.7259195630e+000	 6.3981445475e-001	 1.1442487421e+000
 2.7196574407e+000	 6.6593048084e-001	 1.0990731207e+000
 2.7131272686e+000	 6.9205521784e-001	 1.0524884426e+000
 2.7063278752e+000	 7.1818481751e-001	 1.0044986716e+000
 2.6992581576e+000	 7.4431538927e-001	 9.5510860004e-001
 2.6919170830e+000	 7.7044300157e-001	 9.0432370432e-001
 2.7778376658e+000	 5.1404562308e-001	 1.2467106649e+000
 2.7728518067e+000	 5.4029423302e-001	 1.2322592969e+000
 2.7676023973e+000	 5.6657035814e-001	 1.2140004764e+000
 2.7620879330e+000	 5.9287034872e-001	 1.1911913613e+000
 2.7563069708e+000	 6.1919050611e-001	 1.1630087078e+000
 2.7502581305e+000	 6.4552708381e-001	 1.1221019344e+000
 2.7439400964e+000	 6.7187628870e-001	 1.0770167049e+000
 2.7373516192e+000	 6.9823428228e-001	 1.0301203099e+000
 2.7304915169e+000	 7.2459718195e-001	 9.8142249879e-001
 2.7233586769e+000	 7.5096106238e-001	 9.3093427142e-001
 2.7159520569e+000	 7.7732195694e-001	 8.7866773053e-001
 2.8024203000e+000	 5.1859469938e-001	 1.2321310907e+000
 2.7973903183e+000	 5.4507559791e-001	 1.2157207854e+000
 2.7920944539e+000	 5.7158425511e-001	 1.1962395033e+000
 2.7865311891e+000	 5.9811698897e-001	 1.1729188014e+000
 2.7806990679e+000	 6.2467006810e-001	 1.1449072289e+000
 2.7745966980e+000	 6.5123971286e-001	 1.1023902481e+000
 2.7682227522e+000	 6.7782209656e-001	 1.0575196388e+000
 2.7615759698e+000	 7.0441334672e-001	 1.0104440550e+000
 2.7546551587e+000	 7.3100954638e-001	 9.6117912337e-001
 2.7474591962e+000	 7.5760673550e-001	 9.0974213815e-001
 2.7399870309e+000	 7.8420091230e-001	 8.5615191088e-001
 2.8270029342e+000	 5.2314377569e-001	 1.2171636605e+000
 2.8219288298e+000	 5.4985696280e-001	 1.1994086038e+000
 2.8165865105e+000	 5.7659815208e-001	 1.1793676527e+000
 2.8109744451e+000	 6.0336362922e-001	 1.1562460836e+000
 2.8050911650e+000	 6.3014963010e-001	 1.1269620094e+000
 2.7989352655e+000	 6.5695234192e-001	 1.0850329277e+000
 2.7925054079e+000	 6.8376790442e-001	 1.0404938096e+000
 2.7858003204e+000	 7.1059241116e-001	 9.9336402469e-001
 2.7788188004e+000	 7.3742191082e-001	 9.4366517077e-001
 2.7715597154e+000	 7.6425240861e-001	 8.9142092658e-001
 2.7640220048e+000	 7.9107986767e-001	 8.3665689747e-001
 2.8515855684e+000	 5.2769285200e-001	 1.2019601804e+000
 2.8464673414e+000	 5.5463832770e-001	 1.1834842921e+000
 2.8410785671e+000	 5.8161204905e-001	 1.1635565464e+000
 2.8354177012e+000	 6.0861026947e-001	 1.1413552503e+000
 2.8294832621e+000	 6.3562919210e-001	 1.1110544034e+000
 2.8232738331e+000	 6.6266497097e-001	 1.0699499036e+000
 2.8167880636e+000	 6.8971371228e-001	 1.0258519598e+000
 2.8100246711e+000	 7.1677147560e-001	 9.7878559737e-001
 2.8029824422e+000	 7.4383427526e-001	 9.2877848192e-001
 2.7956602347e+000	 7.7089808172e-001	 8.7586076889e-001
 2.7880569788e+000	 7.9795882304e-001	 8.2006494531e-001
 2.8761682026e+000	 5.3224192831e-001	 1.1866723994e+000
 2.8710058529e+000	 5.5941969259e-001	 1.1681094628e+000
 2.8655706237e+000	 5.8662594603e-001	 1.1489780146e+000
 2.8598609572e+000	 6.1385690972e-001	 1.1284286953e+000
 2.8538753591e+000	 6.4110875410e-001	 1.0972466901e+000
 2.8476124006e+000	 6.6837760003e-001	 1.0570617622e+000
 2.8410707193e+000	 6.9565952014e-001	 1.0135076508e+000
 2.8342490217e+000	 7.2295054004e-001	 9.6661513963e-001
 2.8271460839e+000	 7.5024663970e-001	 9.1641806137e-001
 2.8197607539e+000	 7.7754375484e-001	 8.6295314300e-001
 2.8120919527e+000	 8.0483777841e-001	 8.0625984380e-001
 2.9007508368e+000	 5.3679100462e-001	 1.1714520115e+000
 2.8955443645e+000	 5.6420105748e-001	 1.1534457975e+000
 2.8900626803e+000	 5.9163984300e-001	 1.1358040867e+000
 2.8843042132e+000	 6.1910354998e-001	 1.1176491484e+000
 2.8782674562e+000	 6.4658831609e-001	 1.0854667886e+000
 2.8719509681e+000	 6.7409022909e-001	 1.0462897188e+000
 2.8653533750e+000	 7.0160532800e-001	 1.0033752280e+000
 2.8584733723e+000	 7.2912960448e-001	 9.5675996413e-001
 2.8513097256e+000	 7.5665900413e-001	 9.0648402795e-001
 2.8438612732e+000	 7.8418942795e-001	 8.5259081559e-001
 2.8361269267e+000	 8.1171673377e-001	 7.9512685174e-001
 2.9253334710e+000	 5.4134008093e-001	 1.1564506581e+000
 2.9200828761e+000	 5.6898242237e-001	 1.1396550438e+000
 2.9145547369e+000	 5.9665373997e-001	 1.1242069837e+000
 2.9087474693e+000	 6.2435019023e-001	 1.1091996616e+000
 2.9026595533e+000	 6.5206787809e-001	 1.0756430771e+000
 2.8962895356e+000	 6.7980285814e-001	 1.0375555906e+000
 2.8896360307e+000	 7.0755113586e-001	 9.9536978842e-001
 2.8826977229e+000	 7.3530866892e-001	 9.4912828987e-001
 2.8754733674e+000	 7.6307136857e-001	 8.9887756798e-001
 2.8679617925e+000	 7.9083510107e-001	 8.4466778788e-001
 2.8601619006e+000	 8.1859568914e-001	 7.8655263555e-001
 2.9499161052e+000	 5.4588915724e-001	 1.1418199302e+000
 2.9446213876e+000	 5.7376378727e-001	 1.1268990130e+000
 2.9390467935e+000	 6.0166763694e-001	 1.1143591093e+000
 2.9331907253e+000	 6.2959683048e-001	 1.1001306602e+000
 2.9270516504e+000	 6.5754744009e-001	 1.0677043736e+000
 2.9206281031e+000	 6.8551548720e-001	 1.0307817718e+000
 2.9139186865e+000	 7.1349694372e-001	 9.8940714863e-001
 2.9069220735e+000	 7.4148773336e-001	 9.4362920442e-001
 2.8996370091e+000	 7.6948373301e-001	 8.9350089075e-001
 2.8920623117e+000	 7.9748077418e-001	 8.3907924426e-001
 2.8841968746e+000	 8.2547464451e-001	 7.8042521069e-001
 2.6438471350e+000	 7.5668509084e-001	 9.6554195762e-001
 2.6363696952e+000	 7.8233933189e-001	 9.3943182819e-001
 2.6286239268e+000	 8.0798282872e-001	 9.0890494465e-001
 2.6206090298e+000	 8.3361160807e-001	 8.7394062219e-001
 2.6123242783e+000	 8.5922166244e-001	 8.3452079173e-001
 2.6037690218e+000	 8.8480895173e-001	 7.9062991019e-001
 2.5949426866e+000	 9.1036940492e-001	 7.4225486612e-001
 2.5858447765e+000	 9.3589892178e-001	 6.8938488089e-001
 2.5764748746e+000	 9.6139337463e-001	 6.3201140598e-001
 2.5668326437e+000	 9.8684861017e-001	 5.7012801653e-001
 2.5569178279e+000	 1.0122604513e+000	 5.0373030175e-001
 2.6678821090e+000	 7.6356404620e-001	 9.3324085527e-001
 2.6603366925e+000	 7.8945150763e-001	 9.0566996423e-001
 2.6525205080e+000	 8.1532812716e-001	 8.7412481217e-001
 2.6444327482e+000	 8.4118989541e-001	 8.3858795920e-001
 2.6360726808e+000	 8.6703276845e-001	 7.9904419054e-001
 2.6274396493e+000	 8.9285266947e-001	 7.5548041346e-001
 2.6185330746e+000	 9.1864549042e-001	 7.0788554972e-001
 2.6093524563e+000	 9.4440709380e-001	 6.5625042411e-001
 2.5998973734e+000	 9.7013331440e-001	 6.0056764922e-001
 2.5901674859e+000	 9.9581996117e-001	 5.4083150700e-001
 2.5801625355e+000	 1.0214628190e+000	 4.7703782750e-001
 2.6919170830e+000	 7.7044300157e-001	 9.0432370432e-001
 2.6843036897e+000	 7.9656368337e-001	 8.7516382770e-001
 2.6764170891e+000	 8.2267342560e-001	 8.4246564548e-001
 2.6682564667e+000	 8.4876818275e-001	 8.0621505136e-001
 2.6598210833e+000	 8.7484387447e-001	 7.6639977731e-001
 2.6511102768e+000	 9.0089638721e-001	 7.2300927699e-001
 2.6421234627e+000	 9.2692157592e-001	 6.7603460498e-001
 2.6328601361e+000	 9.5291526581e-001	 6.2546829242e-001
 2.6233198723e+000	 9.7887325417e-001	 5.7130421921e-001
 2.6135023281e+000	 1.0047913122e+000	 5.1353748340e-001
 2.6034072430e+000	 1.0306651868e+000	 4.5216426812e-001
 2.7159520569e+000	 7.7732195694e-001	 8.7866773053e-001
 2.7082706869e+000	 8.0367585911e-001	 8.4779024430e-001
 2.7003136703e+000	 8.3001872403e-001	 8.1380410093e-001
 2.6920801852e+000	 8.5634647009e-001	 7.7669861889e-001
 2.6835694859e+000	 8.8265498049e-001	 7.3646457166e-001
 2.6747809043e+000	 9.0894010495e-001	 6.9309405756e-001
 2.6657138508e+000	 9.3519766141e-001	 6.4658036571e-001
 2.6563678159e+000	 9.6142343782e-001	 5.9691783850e-001
 2.6467423712e+000	 9.8761319394e-001	 5.4410173114e-001
 2.6368371703e+000	 1.0137626632e+000	 4.8812806873e-001
 2.6266519505e+000	 1.0398675545e+000	 4.2899350121e-001
 2.7399870309e+000	 7.8420091230e-001	 8.5615191088e-001
 2.7322376842e+000	 8.1078803485e-001	 8.2342772303e-001
 2.7242102514e+000	 8.3736402247e-001	 7.8801844309e-001
 2.7159039036e+000	 8.6392475744e-001	 7.4991690786e-001
 2.7073178884e+000	 8.9046608651e-001	 7.0911702946e-001
 2.6984515317e+000	 9.1698382269e-001	 6.6561365142e-001
 2.6893042388e+000	 9.4347374691e-001	 6.1940240109e-001
 2.6798754957e+000	 9.6993160984e-001	 5.7047953900e-001
 2.6701648700e+000	 9.9635313370e-001	 5.1884180551e-001
 2.6601720126e+000	 1.0227340142e+000	 4.6448626540e-001
 2.6498966580e+000	 1.0490699223e+000	 4.0741015070e-001
 2.7640220048e+000	 7.9107986767e-001	 8.3665689747e-001
 2.7562046814e+000	 8.1790021059e-001	 8.0195638307e-001
 2.7481068326e+000	 8.4470932091e-001	 7.6498847481e-001
 2.7397276221e+000	 8.7150304478e-001	 7.2574962386e-001
 2.7310662909e+000	 8.9827719253e-001	 6.8423698045e-001
 2.7221221592e+000	 9.2502754043e-001	 6.4044823597e-001
 2.7128946269e+000	 9.5174983241e-001	 5.9438146189e-001
 2.7033831755e+000	 9.7843978185e-001	 5.4603494568e-001
 2.6935873689e+000	 1.0050930735e+000	 4.9540702448e-001
 2.6835068548e+000	 1.0317053652e+000	 4.4249591706e-001
 2.6731413656e+000	 1.0582722900e+000	 3.8729955437e-001
 2.7880569788e+000	 7.9795882304e-001	 8.2006494531e-001
 2.7801716786e+000	 8.2501238633e-001	 7.8325788431e-001
 2.7720034137e+000	 8.5205461935e-001	 7.4459547091e-001
 2.7635513405e+000	 8.7908133212e-001	 7.0407786911e-001
 2.7548146935e+000	 9.0608829855e-001	 6.6170556895e-001
 2.7457927867e+000	 9.3307125817e-001	 6.1747921463e-001
 2.7364850150e+000	 9.6002591790e-001	 5.7139942960e-001
 2.7268908553e+000	 9.8694795386e-001	 5.2346663904e-001
 2.7170098677e+000	 1.0138330132e+000	 4.7368089038e-001
 2.7068416970e+000	 1.0406767162e+000	 4.2204167232e-001
 2.6963860731e+000	 1.0674746577e+000	 3.6854773312e-001
 2.8120919527e+000	 8.0483777841e-001	 8.0625984380e-001
 2.8041386758e+000	 8.3212456207e-001	 7.6721536156e-001
 2.7958999949e+000	 8.5939991779e-001	 7.2672211532e-001
 2.7873750590e+000	 8.8665961946e-001	 6.8478408274e-001
 2.7785630960e+000	 9.1389940457e-001	 6.4140519773e-001
 2.7694634141e+000	 9.4111497591e-001	 5.9658916437e-001
 2.7600754030e+000	 9.6830200340e-001	 5.5033926806e-001
 2.7503985350e+000	 9.9545612588e-001	 5.0265818441e-001
 2.7404323666e+000	 1.0225729530e+000	 4.5354778637e-001
 2.7301765392e+000	 1.0496480672e+000	 4.0300895032e-001
 2.7196307806e+000	 1.0766770255e+000	 3.5104136175e-001
 2.8361269267e+000	 8.1171673377e-001	 7.9512685174e-001
 2.8281056731e+000	 8.3923673781e-001	 7.5371336203e-001
 2.8197965760e+000	 8.6674521623e-001	 7.1125244131e-001
 2.8111987774e+000	 8.9423790680e-001	 6.6775198417e-001
 2.8023114985e+000	 9.2171051058e-001	 6.2321947467e-001
 2.7931340416e+000	 9.4915869365e-001	 5.7766178602e-001
 2.7836657911e+000	 9.7657808889e-001	 5.3108497763e-001
 2.7739062148e+000	 1.0039642979e+000	 4.8349409015e-001
 2.7638548655e+000	 1.0313128928e+000	 4.3489293917e-001
 2.7535113814e+000	 1.0586194182e+000	 3.8528390814e-001
 2.7428754882e+000	 1.0858793932e+000	 3.3466774126e-001
 2.8601619006e+000	 8.1859568914e-001	 7.8655263555e-001
 2.8520726703e+000	 8.4634891355e-001	 7.4263778596e-001
 2.8436931572e+000	 8.7409051467e-001	 6.9807177484e-001
 2.8350224959e+000	 9.0181619415e-001	 6.5286651929e-001
 2.8260599011e+000	 9.2952161660e-001	 6.0703316212e-001
 2.8168046691e+000	 9.5720241139e-001	 5.6058185707e-001
 2.8072561791e+000	 9.8485417439e-001	 5.1352155161e-001
 2.7974138946e+000	 1.0124724699e+000	 4.6585976807e-001
 2.7872773643e+000	 1.0400528325e+000	 4.1760238358e-001
 2.7768462236e+000	 1.0675907692e+000	 3.6875340974e-001
 2.7661201957e+000	 1.0950817609e+000	 3.1931477252e-001
 2.8841968746e+000	 8.2547464451e-001	 7.8042521069e-001
 2.8760396675e+000	 8.5346108929e-001	 7.3387583029e-001
 2.8675897383e+000	 8.8143581311e-001	 6.8706668068e-001
 2.8588462143e+000	 9.0939448149e-001	 6.4001380938e-001
 2.8498083036e+000	 9.3733272262e-001	 5.9273212879e-001
 2.8404752965e+000	 9.6524612913e-001	 5.4523518674e-001
 2.8308465672e+000	 9.9313025989e-001	 4.9753493492e-001
 2.8209215744e+000	 1.0209806419e+000	 4.4964149579e-001
 2.8106998632e+000	 1.0487927723e+000	 4.0156292882e-001
 2.8001810658e+000	 1.0765621202e+000	 3.5330499653e-001
 2.7893649032e+000	 1.1042841287e+000	 3.0487093134e-001
 2.5569178279e+000	 1.0122604513e+000	 5.0373030175e-001
 2.5467302535e+000	 1.0376246991e+000	 4.4909815908e-001
 2.5362698295e+000	 1.0629371346e+000	 3.8996994751e-001
 2.5255365491e+000	 1.0881935211e+000	 3.2632424747e-001
 2.5145304902e+000	 1.1133896056e+000	 2.5814087166e-001
 2.5032518163e+000	 1.1385211215e+000	 1.8540076313e-001
 2.4917007772e+000	 1.1635837903e+000	 1.4043707925e-001
 2.4798777095e+000	 1.1885733238e+000	 1.0428825283e-001
 2.4677830375e+000	 1.2134854263e+000	 6.3970208017e-002
 2.4554172736e+000	 1.2383157968e+000	 1.9200476419e-002
 2.4427810188e+000	 1.2630601309e+000	-3.1706771308e-002
 2.5801625355e+000	 1.0214628190e+000	 4.7703782750e-001
 2.5698823467e+000	 1.0470576509e+000	 4.2496458587e-001
 2.5593268279e+000	 1.0726001995e+000	 3.6909330295e-001
 2.5484959723e+000	 1.0980861894e+000	 3.0940111202e-001
 2.5373898583e+000	 1.1235113293e+000	 2.4586563996e-001
 2.5260086510e+000	 1.1488713135e+000	 1.7846489372e-001
 2.5143526024e+000	 1.1741618247e+000	 1.0717714770e-001
 2.5024220523e+000	 1.1993785358e+000	 3.1980832374e-002
 2.4902174287e+000	 1.2245171120e+000	-9.6929994814e-003
 2.4777392488e+000	 1.2495732131e+000	-4.5786038745e-002
 2.4649881190e+000	 1.2745424957e+000	-8.9997510982e-002
 2.6034072430e+000	 1.0306651868e+000	 4.5216426812e-001
 2.5930344399e+000	 1.0564906027e+000	 4.0241959790e-001
 2.5823838264e+000	 1.0822632644e+000	 3.4956497992e-001
 2.5714553954e+000	 1.1079788578e+000	 2.9357621458e-001
 2.5602492264e+000	 1.1336330529e+000	 2.3442886220e-001
 2.5487654857e+000	 1.1592215055e+000	 1.7209811778e-001
 2.5370044277e+000	 1.1847398592e+000	 1.0655868746e-001
 2.5249663951e+000	 1.2101837479e+000	 3.7784667371e-002
 2.5126518200e+000	 1.2355487977e+000	-3.4250574877e-002
 2.5000612240e+000	 1.2608306294e+000	-1.1222254402e-001
 2.4871952191e+000	 1.2860248606e+000	-1.4888126874e-001
 2.6266519505e+000	 1.0398675545e+000	 4.2899350121e-001
 2.6161865331e+000	 1.0659235545e+000	 3.8135016788e-001
 2.6054408248e+000	 1.0919263292e+000	 3.3127541345e-001
 2.5944148186e+000	 1.1178715262e+000	 2.7874382089e-001
 2.5831085945e+000	 1.1437547766e+000	 2.2372900420e-001
 2.5715223204e+000	 1.1695716975e+000	 1.6620347124e-001
 2.5596562529e+000	 1.1953178937e+000	 1.0613848925e-001
 2.5475107379e+000	 1.2209889599e+000	 4.3503953551e-002
 2.5350862112e+000	 1.2465804834e+000	-2.1731740003e-002
 2.5223831993e+000	 1.2720880458e+000	-9.6234426252e-002
 2.5094023193e+000	 1.2975072254e+000	-1.7372174761e-001
 2.6498966580e+000	 1.0490699223e+000	 4.0741015070e-001
 2.6393386263e+000	 1.0753565063e+000	 3.6164383617e-001
 2.6284978233e+000	 1.1015893941e+000	 3.1411541614e-001
 2.6173742418e+000	 1.1277641945e+000	 2.6479837290e-001
 2.6059679626e+000	 1.1538765003e+000	 2.1366449530e-001
 2.5942791551e+000	 1.1799218895e+000	 1.6068372969e-001
 2.5823080782e+000	 1.2058959281e+000	 1.0582403420e-001
 2.5700550807e+000	 1.2317941719e+000	 4.9051237245e-002
 2.5575206025e+000	 1.2576121691e+000	-1.2454069620e-002
 2.5447051745e+000	 1.2833454621e+000	-8.2143767789e-002
 2.5316094195e+000	 1.3089895902e+000	-1.5313212752e-001
 2.6731413656e+000	 1.0582722900e+000	 3.8729955437e-001
 2.6624907195e+000	 1.0847894581e+000	 3.4318868606e-001
 2.6515548217e+000	 1.1112524589e+000	 2.9797616181e-001
 2.6403336650e+000	 1.1376568629e+000	 2.5163448112e-001
 2.6288273307e+000	 1.1639982240e+000	 2.0413373000e-001
 2.6170359898e+000	 1.1902720815e+000	 1.5544141962e-001
 2.6049599034e+000	 1.2164739626e+000	 1.0552232943e-001
 2.5925994236e+000	 1.2425993840e+000	 5.4338355139e-002
 2.5799549938e+000	 1.2686438548e+000	-5.8669650118e-003
 2.5670271497e+000	 1.2946028784e+000	-6.9915359021e-002
 2.5538165197e+000	 1.3204719550e+000	-1.3466073494e-001
 2.6963860731e+000	 1.0674746577e+000	 3.6854773312e-001
 2.6856428127e+000	 1.0942224100e+000	 3.2587332040e-001
 2.6746118202e+000	 1.1209155238e+000	 2.8274916982e-001
 2.6632930881e+000	 1.1475495313e+000	 2.3914691736e-001
 2.6516866988e+000	 1.1741199477e+000	 1.9503506941e-001
 2.6397928245e+000	 1.2006222736e+000	 1.5037882922e-001
 2.6276117287e+000	 1.2270519970e+000	 1.0513992850e-001
 2.6151437664e+000	 1.2534045960e+000	 5.7678893086e-002
 2.6023893850e+000	 1.2796755405e+000	-8.6958428993e-004
 2.5893491249e+000	 1.3058602948e+000	-5.9515150854e-002
 2.5760236198e+000	 1.3319543199e+000	-1.1826626946e-001
 2.7196307806e+000	 1.0766770255e+000	 3.5104136175e-001
 2.7087949060e+000	 1.1036553618e+000	 3.0958683936e-001
 2.6976688186e+000	 1.1305785886e+000	 2.6832629042e-001
 2.6862525113e+000	 1.1574421997e+000	 2.2723060783e-001
 2.6745460669e+000	 1.1842416714e+000	 1.8626684273e-001
 2.6625496592e+000	 1.2109724656e+000	 1.4539801852e-001
 2.6502635539e+000	 1.2376300315e+000	 1.0458295076e-001
 2.6376881092e+000	 1.2642098080e+000	 5.6530706049e-002
 2.6248237763e+000	 1.2907072262e+000	 2.5642777203e-003
 2.6116711001e+000	 1.3171177111e+000	-5.0910205108e-002
 2.5982307200e+000	 1.3434366847e+000	-1.0390878649e-001
 2.7428754882e+000	 1.0858793932e+000	 3.3466774126e-001
 2.7319469992e+000	 1.1130883136e+000	 2.9421881939e-001
 2.7207258171e+000	 1.1402416535e+000	 2.5459969065e-001
 2.7092119345e+000	 1.1673348680e+000	 2.1578062659e-001
 2.6974054350e+000	 1.1943633951e+000	 1.7772734858e-001
 2.6853064939e+000	 1.2213226576e+000	 1.4040082907e-001
 2.6729153792e+000	 1.2482080659e+000	 1.0375709980e-001
 2.6602324520e+000	 1.2750150201e+000	 5.4059842354e-002
 2.6472581675e+000	 1.3017389119e+000	 4.4599876651e-003
 2.6339930753e+000	 1.3283751274e+000	-4.4068647455e-002
 2.6204378202e+000	 1.3549190495e+000	-9.1549639860e-002
 2.7661201957e+000	 1.0950817609e+000	 3.1931477252e-001
 2.7550990924e+000	 1.1225212654e+000	 2.7965929319e-001
 2.7437828155e+000	 1.1499047184e+000	 2.4146184105e-001
 2.7321713577e+000	 1.1772275364e+000	 2.0469218937e-001
 2.7202648031e+000	 1.2044851188e+000	 1.6931485628e-001
 2.7080633286e+000	 1.2316728496e+000	 1.3528889314e-001
 2.6955672044e+000	 1.2587861004e+000	 9.7396974573e-002
 2.6827767948e+000	 1.2858202321e+000	 5.0284830558e-002
 2.6696925588e+000	 1.3127705976e+000	 4.8421088950e-003
 2.6563150506e+000	 1.3396325438e+000	-3.8959622711e-002
 2.6426449203e+000	 1.3664014143e+000	-8.1151427214e-002
 2.7893649032e+000	 1.1042841287e+000	 3.0487093134e-001
 2.7782511856e+000	 1.1319542172e+000	 2.6579873073e-001
 2.7668398140e+000	 1.1595677832e+000	 2.2880550302e-001
 2.7551307808e+000	 1.1871202048e+000	 1.9386064762e-001
 2.7431241712e+000	 1.2146068424e+000	 1.6092760705e-001
 2.7308201633e+000	 1.2420230416e+000	 1.2996364240e-001
 2.7182190297e+000	 1.2693641349e+000	 8.8949586478e-002
 2.7053211376e+000	 1.2966254442e+000	 4.5223627728e-002
 2.6921269500e+000	 1.3238022833e+000	 3.7344349352e-003
 2.6786370258e+000	 1.3508899601e+000	-3.5553252379e-002
 2.6648520205e+000	 1.3778837792e+000	-7.2677938219e-002
 2.4427810188e+000	 1.2630601309e+000	-3.1706771308e-002
 2.4298749630e+000	 1.2877141236e+000	-8.8121224885e-002
 2.4166998856e+000	 1.3122734711e+000	-1.4392998666e-001
 2.4032566556e+000	 1.3367338731e+000	-1.9905796726e-001
 2.3895462317e+000	 1.3610910354e+000	-2.5342859085e-001
 2.3755696628e+000	 1.3853406719e+000	-3.0696390524e-001
 2.3613280878e+000	 1.4094785070e+000	-3.5958469656e-001
 2.3468227357e+000	 1.4335002780e+000	-4.1121060851e-001
 2.3320549255e+000	 1.4574017375e+000	-4.6176026567e-001
 2.3170260660e+000	 1.4811786555e+000	-5.1115140096e-001
 2.3017376559e+000	 1.5048268218e+000	-5.5930098671e-001
 2.4649881190e+000	 1.2745424957e+000	-8.9997510982e-002
 2.4519647354e+000	 1.2994206156e+000	-1.3879857685e-001
 2.4386698846e+000	 1.3242032299e+000	-1.8740119453e-001
 2.4251044434e+000	 1.3488859992e+000	-2.3573266558e-001
 2.4112693793e+000	 1.3734645903e+000	-2.8371841983e-001
 2.3971657507e+000	 1.3979346780e+000	-3.3128212166e-001
 2.3827947068e+000	 1.4222919480e+000	-3.7834578142e-001
 2.3681574879e+000	 1.4465320987e+000	-4.2482987180e-001
 2.3532554248e+000	 1.4706508442e+000	-4.7065344895e-001
 2.3380899394e+000	 1.4946439160e+000	-5.1573427813e-001
 2.3226625436e+000	 1.5185070657e+000	-5.5998896372e-001
 2.4871952191e+000	 1.2860248606e+000	-1.4888126874e-001
 2.4740545078e+000	 1.3111271077e+000	-1.9009494818e-001
 2.4606398835e+000	 1.3361329887e+000	-2.3151179353e-001
 2.4469522311e+000	 1.3610381253e+000	-2.7306142405e-001
 2.4329925268e+000	 1.3858381451e+000	-3.1467120457e-001
 2.4187618385e+000	 1.4105286841e+000	-3.5626634797e-001
 2.4042613258e+000	 1.4351053889e+000	-3.9777002342e-001
 2.3894922400e+000	 1.4595639195e+000	-4.3910347006e-001
 2.3744559242e+000	 1.4838999509e+000	-4.8018611596e-001
 2.3591538127e+000	 1.5081091765e+000	-5.2093570220e-001
 2.3435874314e+000	 1.5321873095e+000	-5.6126841174e-001
 2.5094023193e+000	 1.2975072254e+000	-1.7372174761e-001
 2.4961442802e+000	 1.3228335997e+000	-2.4196956455e-001
 2.4826098825e+000	 1.3480627476e+000	-2.7622065559e-001
 2.4688000189e+000	 1.3731902515e+000	-3.1100294186e-001
 2.4547156744e+000	 1.3982117000e+000	-3.4624565299e-001
 2.4403579264e+000	 1.4231226902e+000	-3.8187548267e-001
 2.4257279448e+000	 1.4479188299e+000	-4.1781669379e-001
 2.4108269922e+000	 1.4725957402e+000	-4.5399122956e-001
 2.3956564235e+000	 1.4971490576e+000	-4.9031883041e-001
 2.3802176860e+000	 1.5215744370e+000	-5.2671715656e-001
 2.3645123192e+000	 1.5458675533e+000	-5.6310191594e-001
 2.5316094195e+000	 1.3089895902e+000	-1.5313212752e-001
 2.5182340526e+000	 1.3345400917e+000	-2.2864226653e-001
 2.5045798815e+000	 1.3599925064e+000	-3.0513690589e-001
 2.4906478067e+000	 1.3853423776e+000	-3.4951754634e-001
 2.4764388219e+000	 1.4105852549e+000	-3.7840211582e-001
 2.4619540142e+000	 1.4357166963e+000	-4.0807007563e-001
 2.4471945638e+000	 1.4607322709e+000	-4.3844671753e-001
 2.4321617443e+000	 1.4856275609e+000	-4.6945462652e-001
 2.4168569228e+000	 1.5103981643e+000	-5.0101379584e-001
 2.4012815594e+000	 1.5350396975e+000	-5.3304174814e-001
 2.3854372070e+000	 1.5595477972e+000	-5.6545366250e-001
 2.5538165197e+000	 1.3204719550e+000	-1.3466073494e-001
 2.5403238250e+000	 1.3462465838e+000	-2.0340066788e-001
 2.5265498804e+000	 1.3719222652e+000	-2.7346073789e-001
 2.5124955945e+000	 1.3974945037e+000	-3.4482561578e-001
 2.4981619695e+000	 1.4229588097e+000	-4.1110251525e-001
 2.4835501020e+000	 1.4483107024e+000	-4.3481225634e-001
 2.4686611827e+000	 1.4735457119e+000	-4.5962260148e-001
 2.4534964965e+000	 1.4986593816e+000	-4.8545671533e-001
 2.4380574221e+000	 1.5236472710e+000	-5.1223478439e-001
 2.4223454327e+000	 1.5485049580e+000	-5.3987413687e-001
 2.4063620948e+000	 1.5732280410e+000	-5.6828936895e-001
 2.5760236198e+000	 1.3319543199e+000	-1.1826626946e-001
 2.5624135974e+000	 1.3579530758e+000	-1.8024634109e-001
 2.5485198794e+000	 1.3838520240e+000	-2.4387601954e-001
 2.5343433823e+000	 1.4096466298e+000	-3.0914393494e-001
 2.5198851171e+000	 1.4353323646e+000	-3.7603802283e-001
 2.5051461899e+000	 1.4609047085e+000	-4.4454551629e-001
 2.4901278017e+000	 1.4863591528e+000	-4.8130836619e-001
 2.4748312486e+000	 1.5116912023e+000	-5.0196206057e-001
 2.4592579215e+000	 1.5368963777e+000	-5.2394706914e-001
 2.4434093060e+000	 1.5619702185e+000	-5.4718046869e-001
 2.4272869826e+000	 1.5869082848e+000	-5.7157621823e-001
 2.5982307200e+000	 1.3434366847e+000	-1.0390878649e-001
 2.5845033698e+000	 1.3696595678e+000	-1.5913843745e-001
 2.5704898784e+000	 1.3957817829e+000	-2.1634114660e-001
 2.5561911700e+000	 1.4217987559e+000	-2.7550948262e-001
 2.5416082646e+000	 1.4477059195e+000	-3.3663504464e-001
 2.5267422777e+000	 1.4734987146e+000	-3.9970844803e-001
 2.5115944207e+000	 1.4991725938e+000	-4.6471931085e-001
 2.4961660007e+000	 1.5247230230e+000	-5.1893667245e-001
 2.4804584208e+000	 1.5501454844e+000	-5.3611736000e-001
 2.4644731793e+000	 1.5754354790e+000	-5.5492831208e-001
 2.4482118703e+000	 1.6005885287e+000	-5.7528279602e-001
 2.6204378202e+000	 1.3549190495e+000	-9.1549639860e-002
 2.6065931422e+000	 1.3813660599e+000	-1.4003743430e-001
 2.5924598773e+000	 1.4077115417e+000	-1.9081586342e-001
 2.5780389578e+000	 1.4339508820e+000	-2.4388141473e-001
 2.5633314122e+000	 1.4600794743e+000	-2.9922933495e-001
 2.5483383656e+000	 1.4860927207e+000	-3.5685360944e-001
 2.5330610397e+000	 1.5119860348e+000	-4.1674694259e-001
 2.5175007529e+000	 1.5377548437e+000	-4.7890073923e-001
 2.5016589201e+000	 1.5633945911e+000	-5.4330508706e-001
 2.4855370527e+000	 1.5889007395e+000	-5.6308659777e-001
 2.4691367581e+000	 1.6142687725e+000	-5.7937903129e-001
 2.6426449203e+000	 1.3664014143e+000	-8.1151427214e-002
 2.6286829145e+000	 1.3930725519e+000	-1.2290507930e-001
 2.6144298763e+000	 1.4196413005e+000	-1.6726120629e-001
 2.5998867456e+000	 1.4461030082e+000	-2.1422019588e-001
 2.5850545598e+000	 1.4724530292e+000	-2.6378092728e-001
 2.5699344534e+000	 1.4986867268e+000	-3.1594074437e-001
 2.5545276587e+000	 1.5247994757e+000	-3.7069543014e-001
 2.5388355050e+000	 1.5507866644e+000	-4.2803918235e-001
 2.5228594194e+000	 1.5766436978e+000	-4.8796459061e-001
 2.5066009260e+000	 1.6023660000e+000	-5.5046261494e-001
 2.4900616459e+000	 1.6279490163e+000	-5.8383613993e-001
 2.6648520205e+000	 1.3778837792e+000	-7.2677938219e-002
 2.6507726869e+000	 1.4047790439e+000	-1.0770433752e-001
 2.6363998752e+000	 1.4315710593e+000	-1.4563944966e-001
 2.6217345334e+000	 1.4582551343e+000	-1.8648754484e-001
 2.6067777073e+000	 1.4848265841e+000	-2.3025112062e-001
 2.5915305413e+000	 1.5112807329e+000	-2.7693086880e-001
 2.5759942776e+000	 1.5376129167e+000	-3.2652564389e-001
 2.5601702572e+000	 1.5638184851e+000	-3.7903243319e-001
 2.5440599187e+000	 1.5898928045e+000	-4.3444632845e-001
 2.5276647993e+000	 1.6158312605e+000	-4.9276049944e-001
 2.5109865337e+000	 1.6416292602e+000	-5.5396616928e-001
 2.3017376559e+000	 1.5048268218e+000	-5.5930098671e-001
 2.2861912829e+000	 1.5283420488e+000	-6.1058437231e-001
 2.2703886241e+000	 1.5517201731e+000	-6.6066968509e-001
 2.2543314449e+000	 1.5749570586e+000	-7.0957627690e-001
 2.2380215991e+000	 1.5980485981e+000	-7.5732352358e-001
 2.2214610278e+000	 1.6209907162e+000	-8.0393086035e-001
 2.2046517589e+000	 1.6437793714e+000	-8.4941781843e-001
 2.1875959066e+000	 1.6664105584e+000	-8.9380406243e-001
 2.1702956705e+000	 1.6888803104e+000	-9.3710942865e-001
 2.1527533344e+000	 1.7111847011e+000	-9.7935396394e-001
 2.1349712658e+000	 1.7333198476e+000	-1.0205579650e+000
 2.3226625436e+000	 1.5185070657e+000	-5.5998896372e-001
 2.3069748400e+000	 1.5422360674e+000	-6.1043751220e-001
 2.2910285207e+000	 1.5658267202e+000	-6.5989398283e-001
 2.2748253672e+000	 1.5892748500e+000	-7.0835884439e-001
 2.2583672500e+000	 1.6125763126e+000	-7.5583229995e-001
 2.2416561281e+000	 1.6357269954e+000	-8.0231434270e-001
 2.2246940476e+000	 1.6587228203e+000	-8.4780481350e-001
 2.2074831422e+000	 1.6815597453e+000	-8.9230345972e-001
 2.1900256311e+000	 1.7042337677e+000	-9.3580999545e-001
 2.1723238192e+000	 1.7267409257e+000	-9.7832416259e-001
 2.1543800955e+000	 1.7490773008e+000	-1.0198457929e+000
 2.3435874314e+000	 1.5321873095e+000	-5.6126841174e-001
 2.3277583971e+000	 1.5561300860e+000	-6.1036080382e-001
 2.3116684172e+000	 1.5799332672e+000	-6.5866404472e-001
 2.2953192894e+000	 1.6035926415e+000	-7.0615991692e-001
 2.2787129009e+000	 1.6271040271e+000	-7.5282964993e-001
 2.2618512283e+000	 1.6504632747e+000	-7.9865399645e-001
 2.2447363364e+000	 1.6736662691e+000	-8.4361331074e-001
 2.2273703777e+000	 1.6967089322e+000	-8.8768762876e-001
 2.2097555918e+000	 1.7195872251e+000	-9.3085675012e-001
 2.1918943041e+000	 1.7422971502e+000	-9.7310032134e-001
 2.1737889252e+000	 1.7648347539e+000	-1.0143979204e+000
 2.3645123192e+000	 1.5458675533e+000	-5.6310191594e-001
 2.3485419542e+000	 1.5700241047e+000	-6.1033107311e-001
 2.3323083138e+000	 1.5940398142e+000	-6.5697103469e-001
 2.3158132116e+000	 1.6179104329e+000	-7.0298508671e-001
 2.2990585519e+000	 1.6416317417e+000	-7.4833567732e-001
 2.2820463286e+000	 1.6651995539e+000	-7.9298451320e-001
 2.2647786251e+000	 1.6886097179e+000	-8.3689265853e-001
 2.2472576132e+000	 1.7118581191e+000	-8.8002063644e-001
 2.2294855524e+000	 1.7349406825e+000	-9.2232853249e-001
 2.2114647889e+000	 1.7578533748e+000	-9.6377609996e-001
 2.1931977549e+000	 1.7805922071e+000	-1.0043228668e+000
 2.3854372070e+000	 1.5595477972e+000	-5.6545366250e-001
 2.3693255114e+000	 1.5839181233e+000	-6.1032626350e-001
 2.3529482104e+000	 1.6081463613e+000	-6.5480674737e-001
 2.3363071339e+000	 1.6322282244e+000	-6.9884008681e-001
 2.3194042028e+000	 1.6561594562e+000	-7.4237013401e-001
 2.3022414288e+000	 1.6799358332e+000	-7.8533973715e-001
 2.2848209138e+000	 1.7035531668e+000	-8.2769086000e-001
 2.2671448487e+000	 1.7270073060e+000	-8.6936470437e-001
 2.2492155131e+000	 1.7502941398e+000	-9.1030183509e-001
 2.2310352738e+000	 1.7734095994e+000	-9.5044230728e-001
 2.2126065846e+000	 1.7963496603e+000	-9.8972579549e-001
 2.4063620948e+000	 1.5732280410e+000	-5.6828936895e-001
 2.3901090685e+000	 1.5978121419e+000	-6.1032538737e-001
 2.3735881070e+000	 1.6222529083e+000	-6.5216358071e-001
 2.3568010561e+000	 1.6465460158e+000	-6.9373078496e-001
 2.3397498537e+000	 1.6706871707e+000	-7.3495243518e-001
 2.3224365291e+000	 1.6946721124e+000	-7.7575270197e-001
 2.3048632025e+000	 1.7184966156e+000	-8.1605463155e-001
 2.2870320842e+000	 1.7421564929e+000	-8.5578028913e-001
 2.2689454737e+000	 1.7656475972e+000	-8.9485090531e-001
 2.2506057587e+000	 1.7889658239e+000	-9.3318702512e-001
 2.2320154143e+000	 1.8121071134e+000	-9.7070865932e-001
 2.4272869826e+000	 1.5869082848e+000	-5.7157621823e-001
 2.4108926256e+000	 1.6117061606e+000	-6.1030847995e-001
 2.3942280036e+000	 1.6363594553e+000	-6.4903450993e-001
 2.3772949783e+000	 1.6608638072e+000	-6.8766317778e-001
 2.3600955046e+000	 1.6852148853e+000	-7.2610167388e-001
 2.3426316293e+000	 1.7094083916e+000	-7.6425566572e-001
 2.3249054912e+000	 1.7334400644e+000	-8.0202945827e-001
 2.3069193198e+000	 1.7573056798e+000	-8.3932615832e-001
 2.2886754343e+000	 1.7810010546e+000	-8.7604784207e-001
 2.2701762435e+000	 1.8045220485e+000	-9.1209572584e-001
 2.2514242440e+000	 1.8278645666e+000	-9.4737033948e-001
 2.4482118703e+000	 1.6005885287e+000	-5.7528279602e-001
 2.4316761827e+000	 1.6256001792e+000	-6.1025655562e-001
 2.4148679002e+000	 1.6504660024e+000	-6.4541306287e-001
 2.3977889005e+000	 1.6751815987e+000	-6.8064338528e-001
 2.3804411555e+000	 1.6997425998e+000	-7.1583663481e-001
 2.3628267296e+000	 1.7241446709e+000	-7.5088014398e-001
 2.3449477800e+000	 1.7483835133e+000	-7.8565964662e-001
 2.3268065553e+000	 1.7724548667e+000	-8.2005946279e-001
 2.3084053950e+000	 1.7963545119e+000	-8.5396268769e-001
 2.2897467284e+000	 1.8200782730e+000	-8.8725138388e-001
 2.2708330737e+000	 1.8436220197e+000	-9.1980677655e-001
 2.4691367581e+000	 1.6142687725e+000	-5.7937903129e-001
 2.4524597398e+000	 1.6394941978e+000	-6.1015156638e-001
 2.4355077967e+000	 1.6645725494e+000	-6.4129329659e-001
 2.4182828228e+000	 1.6894993901e+000	-6.7267764563e-001
 2.4007868064e+000	 1.7142703143e+000	-7.0417580731e-001
 2.3830218298e+000	 1.7388809501e+000	-7.3565694135e-001
 2.3649900687e+000	 1.7633269621e+000	-7.6698837429e-001
 2.3466937908e+000	 1.7876040536e+000	-7.9803580509e-001
 2.3281353556e+000	 1.8117079693e+000	-8.2866351504e-001
 2.3093172132e+000	 1.8356344976e+000	-8.5873458154e-001
 2.2902419033e+000	 1.8593794729e+000	-8.8811109517e-001
 2.4900616459e+000	 1.6279490163e+000	-5.8383613993e-001
 2.4732432969e+000	 1.6533882164e+000	-6.0997636252e-001
 2.4561476933e+000	 1.6786790964e+000	-6.3666977511e-001
 2.4387767450e+000	 1.7038171816e+000	-6.6377231016e-001
 2.4211324573e+000	 1.7287980288e+000	-6.9113739783e-001
 2.4032169301e+000	 1.7536172294e+000	-7.1861618129e-001
 2.3850323574e+000	 1.7782704109e+000	-7.4605773773e-001
 2.3665810263e+000	 1.8027532405e+000	-7.7330930455e-001
 2.3478653163e+000	 1.8270614267e+000	-8.0021651026e-001
 2.3288876981e+000	 1.8511907221e+000	-8.2662360959e-001
 2.3096507330e+000	 1.8751369261e+000	-8.5254641372e-001
 2.5109865337e+000	 1.6416292602e+000	-5.5396616928e-001
 2.4940268541e+000	 1.6672822350e+000	-6.0971465515e-001
 2.4767875899e+000	 1.6927856434e+000	-6.3153754828e-001
 2.4592706672e+000	 1.7181349730e+000	-6.5393383870e-001
 2.4414781082e+000	 1.7433257434e+000	-6.7673934172e-001
 2.4234120303e+000	 1.7683535086e+000	-6.9978733451e-001
 2.4050746461e+000	 1.7932138597e+000	-7.2290879710e-001
 2.3864682618e+000	 1.8179024274e+000	-7.4593265909e-001
 2.3675952769e+000	 1.8424148840e+000	-7.6868605140e-001
 2.3484581830e+000	 1.8667469467e+000	-7.9099456265e-001
 2.3290595627e+000	 1.8908943792e+000	-8.3255260180e-001
 2.1349712658e+000	 1.7333198476e+000	-1.0205579650e+000
 2.1169519149e+000	 1.7552819119e+000	-1.0433564357e+000
 2.0986978130e+000	 1.7770671034e+000	-1.0623328410e+000
 2.0802115719e+000	 1.7986716810e+000	-1.0773989291e+000
 2.0614958826e+000	 1.8200919554e+000	-1.0884691885e+000
 2.0425535136e+000	 1.8413242908e+000	-1.0954610096e+000
 2.0233873101e+000	 1.8623651074e+000	-1.0982948437e+000
 2.0040001923e+000	 1.8832108829e+000	-1.1091012676e+000
 1.9843951538e+000	 1.9038581548e+000	-1.1346793056e+000
 1.9645752604e+000	 1.9243035224e+000	-1.1564918791e+000
 1.9445436483e+000	 1.9445436482e+000	-1.1745502163e+000
 2.1543800955e+000	 1.7490773008e+000	-1.0198457929e+000
 2.1361969323e+000	 1.7712390202e+000	-1.0402399164e+000
 2.1177768840e+000	 1.7932222588e+000	-1.0566669155e+000
 2.0991225862e+000	 1.8150232417e+000	-1.0690520813e+000
 2.0802367542e+000	 1.8366382459e+000	-1.0773236086e+000
 2.0611221819e+000	 1.8580636026e+000	-1.0814127463e+000
 2.0417817402e+000	 1.8792956993e+000	-1.0874730195e+000
 2.0222183758e+000	 1.9003309818e+000	-1.1139212870e+000
 2.0024351097e+000	 1.9211659562e+000	-1.1365434704e+000
 1.9824350355e+000	 1.9417971908e+000	-1.1553643494e+000
 1.9622213178e+000	 1.9622213178e+000	-1.1704124872e+000
 2.1737889252e+000	 1.7648347539e+000	-1.0143979204e+000
 2.1554419497e+000	 1.7871961285e+000	-1.0328138903e+000
 2.1368559550e+000	 1.8093774143e+000	-1.0471200209e+000
 2.1180336005e+000	 1.8313748025e+000	-1.0572548979e+000
 2.0989776259e+000	 1.8531845364e+000	-1.0631601732e+000
 2.0796908502e+000	 1.8748029143e+000	-1.0647807021e+000
 2.0601761703e+000	 1.8962262912e+000	-1.0923797647e+000
 2.0404365594e+000	 1.9174510807e+000	-1.1163405296e+000
 2.0204750656e+000	 1.9384737576e+000	-1.1364225647e+000
 2.0002948105e+000	 1.9592908592e+000	-1.1526676909e+000
 1.9798989873e+000	 1.9798989873e+000	-1.1651216210e+000
 2.1931977549e+000	 1.7805922071e+000	-1.0043228668e+000
 2.1746869671e+000	 1.8031532367e+000	-1.0211760408e+000
 2.1559350260e+000	 1.8255325698e+000	-1.0337789403e+000
 2.1369446148e+000	 1.8477263632e+000	-1.0420832024e+000
 2.1177184976e+000	 1.8697308269e+000	-1.0460436907e+000
 2.0982595185e+000	 1.8915422260e+000	-1.0686723080e+000
 2.0785706004e+000	 1.9131568830e+000	-1.0945347923e+000
 2.0586547430e+000	 1.9345711797e+000	-1.1164116762e+000
 2.0385150216e+000	 1.9557815590e+000	-1.1343575581e+000
 2.0181545856e+000	 1.9767845275e+000	-1.1484311198e+000
 1.9975766568e+000	 1.9975766568e+000	-1.1586950440e+000
 2.2126065846e+000	 1.7963496603e+000	-9.8972579549e-001
 2.1939319845e+000	 1.8191103450e+000	-1.0054210915e+000
 2.1750140971e+000	 1.8416877253e+000	-1.0167278954e+000
 2.1558556291e+000	 1.8640779239e+000	-1.0236106568e+000
 2.1364593692e+000	 1.8862771174e+000	-1.0414015977e+000
 2.1168281868e+000	 1.9082815378e+000	-1.0697620255e+000
 2.0969650305e+000	 1.9300874749e+000	-1.0940014966e+000
 2.0768729265e+000	 1.9516912786e+000	-1.1141868640e+000
 2.0565549775e+000	 1.9730893604e+000	-1.1303892838e+000
 2.0360143607e+000	 1.9942781959e+000	-1.1426841234e+000
 2.0152543264e+000	 2.0152543264e+000	-1.1511508621e+000
 2.2320154143e+000	 1.8121071134e+000	-9.7070865932e-001
 2.2131770019e+000	 1.8350674533e+000	-9.8564093485e-001
 2.1940931681e+000	 1.8578428808e+000	-9.9604865791e-001
 2.1747666434e+000	 1.8804294847e+000	-1.0091555608e+000
 2.1552002409e+000	 1.9028234079e+000	-1.0406421060e+000
 2.1353968551e+000	 1.9250208495e+000	-1.0678448593e+000
 2.1153594606e+000	 1.9470180668e+000	-1.0908423628e+000
 2.0950911101e+000	 1.9688113775e+000	-1.1097177097e+000
 2.0745949335e+000	 1.9903971619e+000	-1.1245584437e+000
 2.0538741358e+000	 2.0117718643e+000	-1.1354564487e+000
 2.0329319959e+000	 2.0329319959e+000	-1.1425078316e+000
 2.2514242440e+000	 1.8278645666e+000	-9.4737033948e-001
 2.2324220193e+000	 1.8510245616e+000	-9.6192475413e-001
 2.2131722391e+000	 1.8739980363e+000	-9.7182065513e-001
 2.1936776577e+000	 1.8967810454e+000	-1.0057792173e+000
 2.1739411125e+000	 1.9193696984e+000	-1.0365777590e+000
 2.1539655234e+000	 1.9417601612e+000	-1.0629928714e+000
 2.1337538907e+000	 1.9639486587e+000	-1.0851190063e+000
 2.1133092937e+000	 1.9859314765e+000	-1.1030553322e+000
 2.0926348894e+000	 2.0077049633e+000	-1.1169056148e+000
 2.0717339109e+000	 2.0292655327e+000	-1.1267780906e+000
 2.0506096654e+000	 2.0506096654e+000	-1.1327853305e+000
 2.2708330737e+000	 1.8436220197e+000	-9.1980677655e-001
 2.2516670367e+000	 1.8669816699e+000	-9.3435913937e-001
 2.2322513102e+000	 1.8901531918e+000	-9.6376215870e-001
 2.2125886720e+000	 1.9131326061e+000	-9.9881960681e-001
 2.1926819842e+000	 1.9359159889e+000	-1.0292894684e+000
 2.1725341917e+000	 1.9584994730e+000	-1.0552769361e+000
 2.1521483208e+000	 1.9808792506e+000	-1.0768922103e+000
 2.1315274772e+000	 2.0030515754e+000	-1.0942503737e+000
 2.1106748454e+000	 2.0250127647e+000	-1.1074712543e+000
 2.0895936860e+000	 2.0467592011e+000	-1.1166792817e+000
 2.0682873350e+000	 2.0682873350e+000	-1.1220033328e+000
 2.2902419033e+000	 1.8593794729e+000	-8.8811109517e-001
 2.2709120541e+000	 1.8829387782e+000	-9.1316476215e-001
 2.2513303812e+000	 1.9063083472e+000	-9.5317359545e-001
 2.2314996862e+000	 1.9294841669e+000	-9.8836580557e-001
 2.2114228559e+000	 1.9524622794e+000	-1.0188566701e+000
 2.1911028601e+000	 1.9752387847e+000	-1.0447667908e+000
 2.1705427509e+000	 1.9978098425e+000	-1.0662219606e+000
 2.1497456608e+000	 2.0201716744e+000	-1.0833530200e+000
 2.1287148013e+000	 2.0423205661e+000	-1.0962957044e+000
 2.1074534611e+000	 2.0642528695e+000	-1.1051904820e+000
 2.0859650045e+000	 2.0859650045e+000	-1.1101823825e+000
 2.3096507330e+000	 1.8751369261e+000	-8.5254641372e-001
 2.2901570715e+000	 1.8988958865e+000	-8.9822717026e-001
 2.2704094522e+000	 1.9224635027e+000	-9.3883852607e-001
 2.2504107005e+000	 1.9458357276e+000	-9.7450515297e-001
 2.2301637275e+000	 1.9690085699e+000	-1.0053573859e+000
 2.2096715284e+000	 1.9919780964e+000	-1.0315310836e+000
 2.1889371809e+000	 2.0147404344e+000	-1.0531674791e+000
 2.1679638444e+000	 2.0372917733e+000	-1.0704130198e+000
 2.1467547572e+000	 2.0596283675e+000	-1.0834191976e+000
 2.1253132362e+000	 2.0817465379e+000	-1.0923423698e+000
 2.1036426740e+000	 2.1036426740e+000	-1.0973435701e+000
 2.3290595627e+000	 1.8908943792e+000	-8.3255260180e-001
 2.3094020889e+000	 1.9148529948e+000	-8.7930778741e-001
 2.2894885232e+000	 1.9386186582e+000	-9.2085157307e-001
 2.2693217148e+000	 1.9621872884e+000	-9.5732332373e-001
 2.2489045992e+000	 1.9855548604e+000	-9.8886828310e-001
 2.2282401967e+000	 2.0087174082e+000	-1.0156374187e+000
 2.2073316110e+000	 2.0316710262e+000	-1.0377872561e+000
 2.1861820279e+000	 2.0544118722e+000	-1.0554797027e+000
 2.1647947132e+000	 2.0769361689e+000	-1.0688818608e+000
 2.1431730113e+000	 2.0992402062e+000	-1.0781658319e+000
 2.1213203436e+000	 2.1213203435e+000	-1.0835085097e+000
 1.9445436483e+000	 1.9445436482e+000	-1.1745502163e+000
 1.9243035224e+000	 1.9645752604e+000	-1.2182509692e+000
 1.9038581548e+000	 1.9843951538e+000	-1.2664432788e+000
 1.8832108829e+000	 2.0040001923e+000	-1.3190085752e+000
 1.8623651074e+000	 2.0233873101e+000	-1.3227948255e+000
 1.8413242908e+000	 2.0425535136e+000	-1.2944126358e+000
 1.8200919554e+000	 2.0614958826e+000	-1.2679451284e+000
 1.7986716810e+000	 2.0802115719e+000	-1.2432549711e+000
 1.7770671034e+000	 2.0986978130e+000	-1.2201988226e+000
 1.7552819119e+000	 2.1169519149e+000	-1.1986274974e+000
 1.7333198476e+000	 2.1349712658e+000	-1.1783861428e+000
 1.9622213178e+000	 1.9622213178e+000	-1.1704124872e+000
 1.9417971908e+000	 1.9824350355e+000	-1.2074152327e+000
 1.9211659562e+000	 2.0024351097e+000	-1.2486006873e+000
 1.9003309818e+000	 2.0222183758e+000	-1.2938680730e+000
 1.8792956993e+000	 2.0417817402e+000	-1.3431128377e+000
 1.8580636026e+000	 2.0611221819e+000	-1.3246737878e+000
 1.8366382459e+000	 2.0802367542e+000	-1.2899101275e+000
 1.8150232417e+000	 2.0991225862e+000	-1.2567261383e+000
 1.7932222588e+000	 2.1177768840e+000	-1.2249967323e+000
 1.7712390202e+000	 2.1361969323e+000	-1.1945910186e+000
 1.7490773008e+000	 2.1543800955e+000	-1.1653724613e+000
 1.9798989873e+000	 1.9798989873e+000	-1.1651216210e+000
 1.9592908592e+000	 2.0002948105e+000	-1.1958565675e+000
 1.9384737576e+000	 2.0204750656e+000	-1.2304708581e+000
 1.9174510807e+000	 2.0404365594e+000	-1.2688813137e+000
 1.8962262912e+000	 2.0601761703e+000	-1.3110012780e+000
 1.8748029143e+000	 2.0796908502e+000	-1.3559089371e+000
 1.8531845364e+000	 2.0989776259e+000	-1.3133253731e+000
 1.8313748025e+000	 2.1180336005e+000	-1.2721312691e+000
 1.8093774143e+000	 2.1368559550e+000	-1.2322195607e+000
 1.7871961285e+000	 2.1554419497e+000	-1.1934774153e+000
 1.7648347539e+000	 2.1737889252e+000	-1.1557863717e+000
 1.9975766568e+000	 1.9975766568e+000	-1.1586950440e+000
 1.9767845275e+000	 2.0181545856e+000	-1.1835801982e+000
 1.9557815590e+000	 2.0385150216e+000	-1.2120466355e+000
 1.9345711797e+000	 2.0586547430e+000	-1.2440285887e+000
 1.9131568830e+000	 2.0785706004e+000	-1.2794571079e+000
 1.8915422260e+000	 2.0982595185e+000	-1.3182601044e+000
 1.8697308269e+000	 2.1177184976e+000	-1.3380181086e+000
 1.8477263632e+000	 2.1369446148e+000	-1.2892847524e+000
 1.8255325698e+000	 2.1559350260e+000	-1.2416687629e+000
 1.8031532367e+000	 2.1746869671e+000	-1.1950751360e+000
 1.7805922071e+000	 2.1931977549e+000	-1.1494032491e+000
 2.0152543264e+000	 2.0152543264e+000	-1.1511508621e+000
 1.9942781959e+000	 2.0360143607e+000	-1.1705924514e+000
 1.9730893604e+000	 2.0565549775e+000	-1.1933223937e+000
 1.9516912786e+000	 2.0768729265e+000	-1.2192921524e+000
 1.9300874749e+000	 2.0969650305e+000	-1.2484503010e+000
 1.9082815378e+000	 2.1168281868e+000	-1.2807425471e+000
 1.8862771174e+000	 2.1364593692e+000	-1.3161117582e+000
 1.8640779239e+000	 2.1558556291e+000	-1.3080047226e+000
 1.8416877253e+000	 2.1750140971e+000	-1.2531499963e+000
 1.8191103450e+000	 2.1939319845e+000	-1.1991772927e+000
 1.7963496603e+000	 2.2126065846e+000	-1.1460035975e+000
 2.0329319959e+000	 2.0329319959e+000	-1.1425078316e+000
 2.0117718643e+000	 2.0538741358e+000	-1.1569007079e+000
 1.9903971619e+000	 2.0745949335e+000	-1.1742939701e+000
 1.9688113775e+000	 2.0950911101e+000	-1.1946561370e+000
 1.9470180668e+000	 2.1153594606e+000	-1.2179531280e+000
 1.9250208495e+000	 2.1353968551e+000	-1.2441482680e+000
 1.9028234079e+000	 2.1552002409e+000	-1.2732022934e+000
 1.8804294847e+000	 2.1747666434e+000	-1.3050733594e+000
 1.8578428808e+000	 2.1940931681e+000	-1.2664729387e+000
 1.8350674533e+000	 2.2131770019e+000	-1.2055814581e+000
 1.8121071134e+000	 2.2320154143e+000	-1.1453728260e+000
 2.0506096654e+000	 2.0506096654e+000	-1.1327853305e+000
 2.0292655327e+000	 2.0717339109e+000	-1.1425133570e+000
 2.0077049633e+000	 2.0926348894e+000	-1.1549586026e+000
 1.9859314765e+000	 2.1133092937e+000	-1.1701064717e+000
 1.9639486587e+000	 2.1337538907e+000	-1.1879400580e+000
 1.9417601612e+000	 2.1539655234e+000	-1.2084401302e+000
 1.9193696984e+000	 2.1739411125e+000	-1.2315851185e+000
 1.8967810454e+000	 2.1936776577e+000	-1.2573511025e+000
 1.8739980363e+000	 2.2131722391e+000	-1.2814511141e+000
 1.8510245616e+000	 2.2324220193e+000	-1.2140894738e+000
 1.8278645666e+000	 2.2514242440e+000	-1.1473010380e+000
 2.0682873350e+000	 2.0682873350e+000	-1.1220033328e+000
 2.0467592011e+000	 2.0895936860e+000	-1.1274397536e+000
 2.0250127647e+000	 2.1106748454e+000	-1.1353148694e+000
 2.0030515754e+000	 2.1315274772e+000	-1.1456308056e+000
 1.9808792506e+000	 2.1521483208e+000	-1.1583876640e+000
 1.9584994730e+000	 2.1725341917e+000	-1.1735834893e+000
 1.9359159889e+000	 2.1926819842e+000	-1.1912142364e+000
 1.9131326061e+000	 2.2125886720e+000	-1.2112737383e+000
 1.8901531918e+000	 2.2322513102e+000	-1.2337536748e+000
 1.8669816699e+000	 2.2516670367e+000	-1.2245072673e+000
 1.8436220197e+000	 2.2708330737e+000	-1.1515828303e+000
 2.0859650045e+000	 2.0859650045e+000	-1.1101823825e+000
 2.0642528695e+000	 2.1074534611e+000	-1.1116901774e+000
 2.0423205661e+000	 2.1287148013e+000	-1.1153626323e+000
 2.0201716744e+000	 2.1497456608e+000	-1.1212184348e+000
 1.9978098425e+000	 2.1705427509e+000	-1.1292745340e+000
 1.9752387847e+000	 2.1911028601e+000	-1.1395460883e+000
 1.9524622794e+000	 2.2114228559e+000	-1.1520464131e+000
 1.9294841669e+000	 2.2314996862e+000	-1.1667869296e+000
 1.9063083472e+000	 2.2513303812e+000	-1.1837771136e+000
 1.8829387782e+000	 2.2709120541e+000	-1.2030244454e+000
 1.8593794729e+000	 2.2902419033e+000	-1.1580171026e+000
 2.1036426740e+000	 2.1036426740e+000	-1.0973435701e+000
 2.0817465379e+000	 2.1253132362e+000	-1.0952757935e+000
 2.0596283675e+000	 2.1467547572e+000	-1.0951029829e+000
 2.0372917733e+000	 2.1679638444e+000	-1.0968602337e+000
 2.0147404344e+000	 2.1889371809e+000	-1.1005811867e+000
 1.9919780964e+000	 2.2096715284e+000	-1.1062979566e+000
 1.9690085699e+000	 2.2301637275e+000	-1.1140410612e+000
 1.9458357276e+000	 2.2504107005e+000	-1.1238393501e+000
 1.9224635027e+000	 2.2704094522e+000	-1.1357199341e+000
 1.8988958865e+000	 2.2901570715e+000	-1.1497081147e+000
 1.8751369261e+000	 2.3096507330e+000	-1.1658273145e+000
 2.1213203436e+000	 2.1213203435e+000	-1.0835085097e+000
 2.0992402062e+000	 2.1431730113e+000	-1.0782086163e+000
 2.0769361689e+000	 2.1647947132e+000	-1.0745381912e+000
 2.0544118722e+000	 2.1861820279e+000	-1.0725485886e+000
 2.0316710262e+000	 2.2073316110e+000	-1.0722899903e+000
 2.0087174082e+000	 2.2282401967e+000	-1.0738113153e+000
 1.9855548604e+000	 2.2489045992e+000	-1.0771601302e+000
 1.9621872884e+000	 2.2693217148e+000	-1.0823825587e+000
 1.9386186582e+000	 2.2894885232e+000	-1.0895231910e+000
 1.9148529948e+000	 2.3094020889e+000	-1.0986249935e+000
 1.8908943792e+000	 2.3290595627e+000	-1.1097292189e+000
 1.7333198476e+000	 2.1349712658e+000	-1.1783861428e+000
 1.7111847011e+000	 2.1527533344e+000	-1.1959747015e+000
 1.6888803104e+000	 2.1702956705e+000	-1.2089683432e+000
 1.6664105584e+000	 2.1875959066e+000	-1.2175206739e+000
 1.6437793714e+000	 2.2046517589e+000	-1.2217843526e+000
 1.6209907162e+000	 2.2214610278e+000	-1.2219109567e+000
 1.5980485981e+000	 2.2380215991e+000	-1.2180508531e+000
 1.5749570586e+000	 2.2543314449e+000	-1.2103530780e+000
 1.5517201731e+000	 2.2703886241e+000	-1.1989652226e+000
 1.5283420488e+000	 2.2861912829e+000	-1.1840333272e+000
 1.5048268218e+000	 2.3017376559e+000	-1.1657017816e+000
 1.7490773008e+000	 2.1543800955e+000	-1.1653724613e+000
 1.7267409257e+000	 2.1723238192e+000	-1.1824418130e+000
 1.7042337677e+000	 2.1900256311e+000	-1.1952911008e+000
 1.6815597453e+000	 2.2074831422e+000	-1.2040491802e+000
 1.6587228203e+000	 2.2246940476e+000	-1.2088436611e+000
 1.6357269954e+000	 2.2416561281e+000	-1.2098008017e+000
 1.6125763126e+000	 2.2583672500e+000	-1.2070454081e+000
 1.5892748500e+000	 2.2748253672e+000	-1.2007007435e+000
 1.5658267202e+000	 2.2910285207e+000	-1.1908884432e+000
 1.5422360674e+000	 2.3069748400e+000	-1.1777284382e+000
 1.5185070657e+000	 2.3226625436e+000	-1.1613388853e+000
 1.7648347539e+000	 2.1737889252e+000	-1.1557863717e+000
 1.7422971502e+000	 2.1918943041e+000	-1.1716419538e+000
 1.7195872251e+000	 2.2097555918e+000	-1.1836503850e+000
 1.6967089322e+000	 2.2273703777e+000	-1.1919161078e+000
 1.6736662691e+000	 2.2447363364e+000	-1.1965420183e+000
 1.6504632747e+000	 2.2618512283e+000	-1.1976293879e+000
 1.6271040271e+000	 2.2787129009e+000	-1.1952777924e+000
 1.6035926415e+000	 2.2953192894e+000	-1.1895850490e+000
 1.5799332672e+000	 2.3116684172e+000	-1.1806471613e+000
 1.5561300860e+000	 2.3277583971e+000	-1.1685582713e+000
 1.5321873095e+000	 2.3435874314e+000	-1.1534106197e+000
 1.7805922071e+000	 2.1931977549e+000	-1.1494032491e+000
 1.7578533748e+000	 2.2114647889e+000	-1.1633693781e+000
 1.7349406825e+000	 2.2294855524e+000	-1.1738594933e+000
 1.7118581191e+000	 2.2472576132e+000	-1.1809539519e+000
 1.6886097179e+000	 2.2647786251e+000	-1.1847312619e+000
 1.6651995539e+000	 2.2820463286e+000	-1.1852680314e+000
 1.6416317417e+000	 2.2990585519e+000	-1.1826389259e+000
 1.6179104329e+000	 2.3158132116e+000	-1.1769166346e+000
 1.5940398142e+000	 2.3323083138e+000	-1.1681718430e+000
 1.5700241047e+000	 2.3485419542e+000	-1.1564732153e+000
 1.5458675533e+000	 2.3645123192e+000	-1.1418873830e+000
 1.7963496603e+000	 2.2126065846e+000	-1.1460035975e+000
 1.7734095994e+000	 2.2310352738e+000	-1.1574228141e+000
 1.7502941398e+000	 2.2492155131e+000	-1.1657355376e+000
 1.7270073060e+000	 2.2671448487e+000	-1.1709983592e+000
 1.7035531668e+000	 2.2848209138e+000	-1.1732657148e+000
 1.6799358332e+000	 2.3022414288e+000	-1.1725898632e+000
 1.6561594562e+000	 2.3194042028e+000	-1.1690208711e+000
 1.6322282244e+000	 2.3363071339e+000	-1.1626066071e+000
 1.6081463613e+000	 2.3529482104e+000	-1.1533927439e+000
 1.5839181233e+000	 2.3693255114e+000	-1.1414227690e+000
 1.5595477972e+000	 2.3854372070e+000	-1.1267380020e+000
 1.8121071134e+000	 2.2320154143e+000	-1.1453728260e+000
 1.7889658239e+000	 2.2506057587e+000	-1.1536052689e+000
 1.7656475972e+000	 2.2689454737e+000	-1.1590992790e+000
 1.7421564929e+000	 2.2870320842e+000	-1.1618879910e+000
 1.7184966156e+000	 2.3048632025e+000	-1.1620020770e+000
 1.6946721124e+000	 2.3224365291e+000	-1.1594697511e+000
 1.6706871707e+000	 2.3397498537e+000	-1.1543167831e+000
 1.6465460158e+000	 2.3568010561e+000	-1.1465665204e+000
 1.6222529083e+000	 2.3735881070e+000	-1.1362399184e+000
 1.5978121419e+000	 2.3901090685e+000	-1.1233555795e+000
 1.5732280410e+000	 2.4063620948e+000	-1.1079298002e+000
 1.8278645666e+000	 2.2514242440e+000	-1.1473010380e+000
 1.8045220485e+000	 2.2701762435e+000	-1.1517238445e+000
 1.7810010546e+000	 2.2886754343e+000	-1.1537749698e+000
 1.7573056798e+000	 2.3069193198e+000	-1.1534643936e+000
 1.7334400644e+000	 2.3249054912e+000	-1.1507993230e+000
 1.7094083916e+000	 2.3426316293e+000	-1.1457842241e+000
 1.6852148853e+000	 2.3600955046e+000	-1.1384208631e+000
 1.6608638072e+000	 2.3772949783e+000	-1.1287083560e+000
 1.6363594553e+000	 2.3942280036e+000	-1.1166432277e+000
 1.6117061606e+000	 2.4108926256e+000	-1.1022194793e+000
 1.5869082848e+000	 2.4272869826e+000	-1.0854286628e+000
 1.8436220197e+000	 2.2708330737e+000	-1.1515828303e+000
 1.8200782730e+000	 2.2897467284e+000	-1.1515895626e+000
 1.7963545119e+000	 2.3084053950e+000	-1.1495902046e+000
 1.7724548667e+000	 2.3268065553e+000	-1.1455718745e+000
 1.7483835133e+000	 2.3449477800e+000	-1.1395186050e+000
 1.7241446709e+000	 2.3628267296e+000	-1.1314114020e+000
 1.6997425998e+000	 2.3804411555e+000	-1.1212283129e+000
 1.6751815987e+000	 2.3977889005e+000	-1.1089445044e+000
 1.6504660024e+000	 2.4148679002e+000	-1.0945323490e+000
 1.6256001792e+000	 2.4316761827e+000	-1.0779615205e+000
 1.6005885287e+000	 2.4482118703e+000	-1.0591990977e+000
 1.8593794729e+000	 2.2902419033e+000	-1.1580171026e+000
 1.8356344976e+000	 2.3093172132e+000	-1.1530171986e+000
 1.8117079693e+000	 2.3281353556e+000	-1.1463757790e+000
 1.7876040536e+000	 2.3466937908e+000	-1.1380573859e+000
 1.7633269621e+000	 2.3649900687e+000	-1.1280231602e+000
 1.7388809501e+000	 2.3830218298e+000	-1.1162309276e+000
 1.7142703143e+000	 2.4007868064e+000	-1.1026352934e+000
 1.6894993901e+000	 2.4182828228e+000	-1.0871877484e+000
 1.6645725494e+000	 2.4355077967e+000	-1.0698367825e+000
 1.6394941978e+000	 2.4524597398e+000	-1.0505280087e+000
 1.6142687725e+000	 2.4691367581e+000	-1.0292042946e+000
 1.8751369261e+000	 2.3096507330e+000	-1.1658273145e+000
 1.8511907221e+000	 2.3288876981e+000	-1.1558251237e+000
 1.8270614267e+000	 2.3478653163e+000	-1.1439655546e+000
 1.8027532405e+000	 2.3665810263e+000	-1.1307704130e+000
 1.7782704109e+000	 2.3850323574e+000	-1.1161782233e+000
 1.7536172294e+000	 2.4032169301e+000	-1.1001239028e+000
 1.7287980288e+000	 2.4211324573e+000	-1.0825388836e+000
 1.7038171816e+000	 2.4387767450e+000	-1.0633512459e+000
 1.6786790964e+000	 2.4561476933e+000	-1.0424858592e+000
 1.6533882164e+000	 2.4732432969e+000	-1.0198645336e+000
 1.6279490163e+000	 2.4900616459e+000	-9.9540617984e-001
 1.8908943792e+000	 2.3290595627e+000	-1.1097292189e+000
 1.8667469467e+000	 2.3484581830e+000	-1.1598351553e+000
 1.8424148840e+000	 2.3675952769e+000	-1.1421963313e+000
 1.8179024274e+000	 2.3864682618e+000	-1.1235628690e+000
 1.7932138597e+000	 2.4050746461e+000	-1.1038509435e+000
 1.7683535086e+000	 2.4234120303e+000	-1.0829728279e+000
 1.7433257434e+000	 2.4414781082e+000	-1.0608370427e+000
 1.7181349730e+000	 2.4592706672e+000	-1.0373485150e+000
 1.6927856434e+000	 2.4767875899e+000	-1.0124087479e+000
 1.6672822350e+000	 2.4940268541e+000	-9.8591599918e-001
 1.6416292602e+000	 2.5109865337e+000	-9.7502862608e-001
 1.5048268218e+000	 2.3017376559e+000	-1.1657017816e+000
 1.4811786555e+000	 2.3170260660e+000	-1.1475868075e+000
 1.4574017375e+000	 2.3320549255e+000	-1.1266681506e+000
 1.4335002780e+000	 2.3468227357e+000	-1.1028944799e+000
 1.4094785070e+000	 2.3613280878e+000	-1.0762134317e+000
 1.3853406719e+000	 2.3755696628e+000	-1.0465717402e+000
 1.3610910354e+000	 2.3895462317e+000	-1.0139153711e+000
 1.3367338731e+000	 2.4032566556e+000	-9.7818965870e-001
 1.3122734711e+000	 2.4166998856e+000	-9.3933944683e-001
 1.2877141236e+000	 2.4298749630e+000	-8.9730923136e-001
 1.2630601309e+000	 2.4427810188e+000	-8.5204330546e-001
 1.5185070657e+000	 2.3226625436e+000	-1.1613388853e+000
 1.4946439160e+000	 2.3380899394e+000	-1.1401917425e+000
 1.4706508442e+000	 2.3532554248e+000	-1.1160841519e+000
 1.4465320987e+000	 2.3681574879e+000	-1.0889727499e+000
 1.4222919480e+000	 2.3827947068e+000	-1.0588131400e+000
 1.3979346780e+000	 2.3971657507e+000	-1.0255600167e+000
 1.3734645903e+000	 2.4112693793e+000	-9.8916729290e-001
 1.3488859992e+000	 2.4251044434e+000	-9.4958823142e-001
 1.3242032299e+000	 2.4386698846e+000	-9.0677557915e-001
 1.2994206156e+000	 2.4519647354e+000	-8.6068170438e-001
 1.2745424957e+000	 2.4649881190e+000	-8.1125873632e-001
 1.5321873095e+000	 2.3435874314e+000	-1.1534106197e+000
 1.5081091765e+000	 2.3591538127e+000	-1.1295016855e+000
 1.4838999509e+000	 2.3744559242e+000	-1.1024809481e+000
 1.4595639195e+000	 2.3894922400e+000	-1.0723128425e+000
 1.4351053889e+000	 2.4042613258e+000	-1.0389607659e+000
 1.4105286841e+000	 2.4187618385e+000	-1.0023871961e+000
 1.3858381451e+000	 2.4329925268e+000	-9.6255381233e-001
 1.3610381253e+000	 2.4469522311e+000	-9.1942162086e-001
 1.3361329887e+000	 2.4606398835e+000	-8.7295108381e-001
 1.3111271077e+000	 2.4740545078e+000	-8.2310225071e-001
 1.2860248606e+000	 2.4871952191e+000	-7.6983489271e-001
 1.5458675533e+000	 2.3645123192e+000	-1.1418873830e+000
 1.5215744370e+000	 2.3802176860e+000	-1.1154813825e+000
 1.4971490576e+000	 2.3956564235e+000	-1.0858175910e+000
 1.4725957402e+000	 2.4108269922e+000	-1.0528680753e+000
 1.4479188299e+000	 2.4257279448e+000	-1.0166038565e+000
 1.4231226902e+000	 2.4403579264e+000	-9.7699502049e-001
 1.3982117000e+000	 2.4547156744e+000	-9.3401083456e-001
 1.3731902515e+000	 2.4688000189e+000	-8.8761986652e-001
 1.3480627476e+000	 2.4826098825e+000	-8.3779010816e-001
 1.3228335997e+000	 2.4961442802e+000	-7.8448910168e-001
 1.2975072254e+000	 2.5094023193e+000	-7.4897302966e-001
 1.5595477972e+000	 2.3854372070e+000	-1.1267380020e+000
 1.5350396975e+000	 2.4012815594e+000	-1.0980942287e+000
 1.5103981643e+000	 2.4168569228e+000	-1.0660520044e+000
 1.4856275609e+000	 2.4321617443e+000	-1.0305908646e+000
 1.4607322709e+000	 2.4471945638e+000	-9.9168928555e-001
 1.4357166963e+000	 2.4619540142e+000	-9.4932478984e-001
 1.4105852549e+000	 2.4764388219e+000	-9.0347405650e-001
 1.3853423776e+000	 2.4906478067e+000	-8.5411303534e-001
 1.3599925064e+000	 2.5045798815e+000	-8.1076953221e-001
 1.3345400917e+000	 2.5182340526e+000	-7.8386132458e-001
 1.3089895902e+000	 2.5316094195e+000	-7.5448831053e-001
 1.5732280410e+000	 2.4063620948e+000	-1.1079298002e+000
 1.5485049580e+000	 2.4223454327e+000	-1.0773023266e+000
 1.5236472710e+000	 2.4380574221e+000	-1.0431410336e+000
 1.4986593816e+000	 2.4534964965e+000	-1.0054327639e+000
 1.4735457119e+000	 2.4686611827e+000	-9.6416328343e-001
 1.4483107024e+000	 2.4835501020e+000	-9.1931738160e-001
 1.4229588097e+000	 2.4981619695e+000	-8.7087897578e-001
 1.3974945037e+000	 2.5124955945e+000	-8.4358382024e-001
 1.3719222652e+000	 2.5265498804e+000	-8.1714544263e-001
 1.3462465838e+000	 2.5403238250e+000	-7.8812701834e-001
 1.3204719550e+000	 2.5538165197e+000	-7.5663912542e-001
 1.5869082848e+000	 2.4272869826e+000	-1.0854286628e+000
 1.5619702185e+000	 2.4434093060e+000	-1.0530665425e+000
 1.5368963777e+000	 2.4592579215e+000	-1.0170404918e+000
 1.5116912023e+000	 2.4748312486e+000	-9.7734450158e-001
 1.4863591528e+000	 2.4901278017e+000	-9.3397146434e-001
 1.4609047085e+000	 2.5051461899e+000	-8.9639845302e-001
 1.4353323646e+000	 2.5198851171e+000	-8.7365229062e-001
 1.4096466298e+000	 2.5343433823e+000	-8.4805082704e-001
 1.3838520240e+000	 2.5485198794e+000	-8.1972724062e-001
 1.3579530758e+000	 2.5624135974e+000	-7.8881015511e-001
 1.3319543199e+000	 2.5760236198e+000	-7.5542339497e-001
 1.6005885287e+000	 2.4482118703e+000	-1.0591990977e+000
 1.5754354790e+000	 2.4644731793e+000	-1.0253465585e+000
 1.5501454844e+000	 2.4804584208e+000	-9.8770520385e-001
 1.5247230230e+000	 2.4961660007e+000	-9.4627601600e-001
 1.4991725938e+000	 2.5115944207e+000	-9.2150460225e-001
 1.4734987146e+000	 2.5267422777e+000	-9.0017402578e-001
 1.4477059195e+000	 2.5416082646e+000	-8.7580101610e-001
 1.4217987559e+000	 2.5561911700e+000	-8.4853672447e-001
 1.3957817829e+000	 2.5704898784e+000	-8.1852787999e-001
 1.3696595678e+000	 2.5845033698e+000	-7.8591651322e-001
 1.3434366847e+000	 2.5982307200e+000	-7.5083969447e-001
 1.6142687725e+000	 2.4691367581e+000	-1.0292042946e+000
 1.5889007395e+000	 2.4855370527e+000	-9.9410092352e-001
 1.5633945911e+000	 2.5016589201e+000	-9.5785595557e-001
 1.5377548437e+000	 2.5175007529e+000	-9.4181471478e-001
 1.5119860348e+000	 2.5330610397e+000	-9.2234364427e-001
 1.4860927207e+000	 2.5483383656e+000	-8.9961575495e-001
 1.4600794743e+000	 2.5633314122e+000	-8.7380013607e-001
 1.4339508820e+000	 2.5780389578e+000	-8.4506163272e-001
 1.4077115417e+000	 2.5924598773e+000	-8.1356053719e-001
 1.3813660599e+000	 2.6065931422e+000	-7.7945229503e-001
 1.3549190495e+000	 2.6204378202e+000	-7.4288722610e-001
 1.6279490163e+000	 2.4900616459e+000	-9.9540617984e-001
 1.6023660000e+000	 2.5066009260e+000	-9.6994385971e-001
 1.5766436978e+000	 2.5228594194e+000	-9.5649126077e-001
 1.5507866644e+000	 2.5388355050e+000	-9.3934948917e-001
 1.5247994757e+000	 2.5545276587e+000	-9.1870915018e-001
 1.4986867268e+000	 2.5699344534e+000	-8.9475718426e-001
 1.4724530292e+000	 2.5850545598e+000	-8.6767651223e-001
 1.4461030082e+000	 2.5998867456e+000	-8.3764569404e-001
 1.4196413005e+000	 2.6144298763e+000	-8.0483860201e-001
 1.3930725519e+000	 2.6286829145e+000	-7.6942410907e-001
 1.3664014143e+000	 2.6426449203e+000	-7.3156579263e-001
 1.6416292602e+000	 2.5109865337e+000	-9.7502862608e-001
 1.6158312605e+000	 2.5276647993e+000	-9.6468812133e-001
 1.5898928045e+000	 2.5440599187e+000	-9.5037186528e-001
 1.5638184851e+000	 2.5601702572e+000	-9.3228786960e-001
 1.5376129167e+000	 2.5759942776e+000	-9.1064078565e-001
 1.5112807329e+000	 2.5915305413e+000	-8.8563151710e-001
 1.4848265841e+000	 2.6067777073e+000	-8.5745684579e-001
 1.4582551343e+000	 2.6217345334e+000	-8.2630907188e-001
 1.4315710593e+000	 2.6363998752e+000	-7.9237566867e-001
 1.4047790439e+000	 2.6507726869e+000	-7.5583895313e-001
 1.3778837792e+000	 2.6648520205e+000	-7.1687577239e-001
 1.2630601309e+000	 2.4427810188e+000	-8.5204330546e-001
 1.2383157968e+000	 2.4554172736e+000	-8.5799594710e-001
 1.2134854263e+000	 2.4677830375e+000	-8.5561866301e-001
 1.1885733238e+000	 2.4798777095e+000	-8.3784459429e-001
 1.1635837903e+000	 2.4917007772e+000	-8.0471414967e-001
 1.1385211215e+000	 2.5032518163e+000	-7.6582953907e-001
 1.1133896056e+000	 2.5145304902e+000	-7.3766679432e-001
 1.0881935211e+000	 2.5255365491e+000	-6.9777805122e-001
 1.0629371346e+000	 2.5362698295e+000	-6.4686183952e-001
 1.0376246991e+000	 2.5467302535e+000	-5.8558714073e-001
 1.0122604513e+000	 2.5569178279e+000	-5.1459311495e-001
 1.2745424957e+000	 2.4649881190e+000	-8.1125873632e-001
 1.2495732131e+000	 2.4777392488e+000	-8.1244133352e-001
 1.2245171120e+000	 2.4902174287e+000	-8.0711093741e-001
 1.1993785358e+000	 2.5024220523e+000	-7.9243482414e-001
 1.1741618247e+000	 2.5143526024e+000	-7.8882188853e-001
 1.1488713135e+000	 2.5260086510e+000	-7.7231254583e-001
 1.1235113293e+000	 2.5373898583e+000	-7.4365817824e-001
 1.0980861894e+000	 2.5484959723e+000	-7.0358037347e-001
 1.0726001995e+000	 2.5593268279e+000	-6.5277050894e-001
 1.0470576509e+000	 2.5698823467e+000	-5.9188941880e-001
 1.0214628190e+000	 2.5801625355e+000	-5.2156714225e-001
 1.2860248606e+000	 2.4871952191e+000	-7.6983489271e-001
 1.2608306294e+000	 2.5000612240e+000	-7.6996169031e-001
 1.2355487977e+000	 2.5126518200e+000	-7.9203901410e-001
 1.2101837479e+000	 2.5249663951e+000	-8.0007791971e-001
 1.1847398592e+000	 2.5370044277e+000	-7.9477572174e-001
 1.1592215055e+000	 2.5487654857e+000	-7.7690950867e-001
 1.1336330529e+000	 2.5602492264e+000	-7.4722599348e-001
 1.1079788578e+000	 2.5714553954e+000	-7.0644102917e-001
 1.0822632644e+000	 2.5823838264e+000	-6.5523921043e-001
 1.0564906027e+000	 2.5930344399e+000	-5.9427356020e-001
 1.0306651868e+000	 2.6034072430e+000	-5.2416529969e-001
 1.2975072254e+000	 2.5094023193e+000	-7.4897302966e-001
 1.2720880458e+000	 2.5223831993e+000	-7.7824551590e-001
 1.2465804834e+000	 2.5350862112e+000	-8.0125745278e-001
 1.2209889599e+000	 2.5475107379e+000	-8.0669352120e-001
 1.1953178937e+000	 2.5596562529e+000	-7.9914287887e-001
 1.1695716975e+000	 2.5715223204e+000	-7.7937948952e-001
 1.1437547766e+000	 2.5831085945e+000	-7.4814582699e-001
 1.1178715262e+000	 2.5944148186e+000	-7.0615240591e-001
 1.0919263292e+000	 2.6054408248e+000	-6.5407740086e-001
 1.0659235545e+000	 2.6161865331e+000	-5.9256635251e-001
 1.0398675545e+000	 2.6266519505e+000	-5.2223195943e-001
 1.3089895902e+000	 2.5316094195e+000	-7.5448831053e-001
 1.2833454621e+000	 2.5447051745e+000	-7.8259623971e-001
 1.2576121691e+000	 2.5575206025e+000	-8.0582554308e-001
 1.2317941719e+000	 2.5700550807e+000	-8.1200759228e-001
 1.2058959281e+000	 2.5823080782e+000	-8.0166472808e-001
 1.1799218895e+000	 2.5942791551e+000	-7.7947955032e-001
 1.1538765003e+000	 2.6059679626e+000	-7.4619071758e-001
 1.1277641945e+000	 2.6173742418e+000	-7.0250379603e-001
 1.1015893941e+000	 2.6284978233e+000	-6.4909089600e-001
 1.0753565063e+000	 2.6393386263e+000	-5.8659039784e-001
 1.0490699223e+000	 2.6498966580e+000	-5.1560676553e-001
 1.3204719550e+000	 2.5538165197e+000	-7.5663912542e-001
 1.2946028784e+000	 2.5670271497e+000	-7.8302448692e-001
 1.2686438548e+000	 2.5799549938e+000	-8.0472068141e-001
 1.2425993840e+000	 2.5925994236e+000	-8.1574523414e-001
 1.2164739626e+000	 2.6049599034e+000	-8.0208124953e-001
 1.1902720815e+000	 2.6170359898e+000	-7.7696483994e-001
 1.1639982240e+000	 2.6288273307e+000	-7.4113126671e-001
 1.1376568629e+000	 2.6403336650e+000	-6.9528153119e-001
 1.1112524589e+000	 2.6515548217e+000	-6.4008202883e-001
 1.0847894581e+000	 2.6624907195e+000	-5.7616429477e-001
 1.0582722900e+000	 2.6731413656e+000	-5.0412483951e-001
 1.3319543199e+000	 2.5760236198e+000	-7.5542339497e-001
 1.3058602948e+000	 2.5893491249e+000	-7.7954106370e-001
 1.2796755405e+000	 2.6023893850e+000	-7.9916163190e-001
 1.2534045960e+000	 2.6151437664e+000	-8.1436680247e-001
 1.2270519970e+000	 2.6276117287e+000	-8.0013109514e-001
 1.2006222736e+000	 2.6397928245e+000	-7.7158867668e-001
 1.1741199477e+000	 2.6516866988e+000	-7.3273574355e-001
 1.1475495313e+000	 2.6632930881e+000	-6.8426910999e-001
 1.1209155238e+000	 2.6746118202e+000	-6.2684979963e-001
 1.0942224100e+000	 2.6856428127e+000	-5.6110281100e-001
 1.0674746577e+000	 2.6963860731e+000	-4.8761697531e-001
 1.3434366847e+000	 2.5982307200e+000	-7.5083969447e-001
 1.3171177111e+000	 2.6116711001e+000	-7.7215694942e-001
 1.2907072262e+000	 2.6248237763e+000	-7.8917180602e-001
 1.2642098080e+000	 2.6376881092e+000	-8.0195143417e-001
 1.2376300315e+000	 2.6502635539e+000	-7.9555164545e-001
 1.2109724656e+000	 2.6625496592e+000	-7.6310262644e-001
 1.1842416714e+000	 2.6745460669e+000	-7.2077018466e-001
 1.1574421997e+000	 2.6862525113e+000	-6.6924731905e-001
 1.1305785886e+000	 2.6976688186e+000	-6.0919001843e-001
 1.1036553618e+000	 2.7087949060e+000	-5.4121704696e-001
 1.0766770255e+000	 2.7196307806e+000	-4.6590982420e-001
 1.3549190495e+000	 2.6204378202e+000	-7.4288722610e-001
 1.3283751274e+000	 2.6339930753e+000	-7.6088328933e-001
 1.3017389119e+000	 2.6472581675e+000	-7.7477431986e-001
 1.2750150201e+000	 2.6602324520e+000	-7.8461328915e-001
 1.2482080659e+000	 2.6729153792e+000	-7.8807906340e-001
 1.2213226576e+000	 2.6853064939e+000	-7.5125657705e-001
 1.1943633951e+000	 2.6974054350e+000	-7.0499848856e-001
 1.1673348680e+000	 2.7092119345e+000	-6.4999434788e-001
 1.1402416535e+000	 2.7207258171e+000	-5.8689544017e-001
 1.1130883136e+000	 2.7319469992e+000	-5.1631459129e-001
 1.0858793932e+000	 2.7428754882e+000	-4.3882607034e-001
 1.3664014143e+000	 2.6426449203e+000	-7.3156579263e-001
 1.3396325438e+000	 2.6563150506e+000	-7.4573138758e-001
 1.3127705976e+000	 2.6696925588e+000	-7.5599200660e-001
 1.2858202321e+000	 2.6827767948e+000	-7.6238675267e-001
 1.2587861004e+000	 2.6955672044e+000	-7.6495076582e-001
 1.2316728496e+000	 2.7080633286e+000	-7.3579880870e-001
 1.2044851188e+000	 2.7202648031e+000	-6.8518250560e-001
 1.1772275364e+000	 2.7321713577e+000	-6.2628589808e-001
 1.1499047184e+000	 2.7437828155e+000	-5.5975589309e-001
 1.1225212654e+000	 2.7550990924e+000	-4.8619966834e-001
 1.0950817609e+000	 2.7661201957e+000	-4.0618459743e-001
 1.3778837792e+000	 2.6648520205e+000	-7.1687577239e-001
 1.3508899601e+000	 2.6786370258e+000	-7.2671270064e-001
 1.3238022833e+000	 2.6921269500e+000	-7.3284742825e-001
 1.2966254442e+000	 2.7053211376e+000	-7.3530551543e-001
 1.2693641349e+000	 2.7182190297e+000	-7.3410845737e-001
 1.2420230416e+000	 2.7308201633e+000	-7.1647606100e-001
 1.2146068424e+000	 2.7431241712e+000	-6.6108212327e-001
 1.1871202048e+000	 2.7551307808e+000	-5.9789528692e-001
 1.1595677832e+000	 2.7668398140e+000	-5.2755840065e-001
 1.1319542172e+000	 2.7782511856e+000	-4.5067327838e-001
 1.1042841287e+000	 2.7893649032e+000	-3.6780064713e-001
 1.0122604513e+000	 2.5569178279e+000	-5.1459311495e-001
 9.8684861017e-001	 2.5668326437e+000	-5.0955761448e-001
 9.6139337463e-001	 2.5764748746e+000	-4.9868686743e-001
 9.3589892178e-001	 2.5858447765e+000	-4.8235323514e-001
 9.1036940492e-001	 2.5949426866e+000	-4.6089858023e-001
 8.8480895173e-001	 2.6037690218e+000	-4.3463454596e-001
 8.5922166244e-001	 2.6123242783e+000	-4.0384290115e-001
 8.3361160807e-001	 2.6206090298e+000	-3.6877594785e-001
 8.0798282872e-001	 2.6286239268e+000	-3.2965698919e-001
 7.8233933189e-001	 2.6363696952e+000	-2.8668085444e-001
 7.5668509084e-001	 2.6438471350e+000	-2.4001447838e-001
 1.0214628190e+000	 2.5801625355e+000	-5.2156714225e-001
 9.9581996117e-001	 2.5901674859e+000	-5.1342718530e-001
 9.7013331440e-001	 2.5998973734e+000	-5.0006942955e-001
 9.4440709380e-001	 2.6093524563e+000	-4.8186935511e-001
 9.1864549042e-001	 2.6185330746e+000	-4.5917053419e-001
 8.9285266947e-001	 2.6274396493e+000	-4.3228493395e-001
 8.6703276845e-001	 2.6360726808e+000	-4.0149328708e-001
 8.4118989541e-001	 2.6444327482e+000	-3.6704552741e-001
 8.1532812716e-001	 2.6525205080e+000	-3.2916128765e-001
 7.8945150763e-001	 2.6603366925e+000	-2.8803045620e-001
 7.6356404620e-001	 2.6678821090e+000	-2.4381379010e-001
 1.0306651868e+000	 2.6034072430e+000	-5.2416529969e-001
 1.0047913122e+000	 2.6135023281e+000	-5.1303972617e-001
 9.7887325417e-001	 2.6233198723e+000	-4.9732738571e-001
 9.5291526581e-001	 2.6328601361e+000	-4.7740688341e-001
 9.2692157592e-001	 2.6421234627e+000	-4.5362348145e-001
 9.0089638721e-001	 2.6511102768e+000	-4.2628942594e-001
 8.7484387447e-001	 2.6598210833e+000	-3.9568434376e-001
 8.4876818275e-001	 2.6682564667e+000	-3.6205570651e-001
 8.2267342560e-001	 2.6764170891e+000	-3.2561935873e-001
 7.9656368337e-001	 2.6843036897e+000	-2.8656010714e-001
 7.7044300157e-001	 2.6919170830e+000	-2.4503236779e-001
 1.0398675545e+000	 2.6266519505e+000	-5.2223195943e-001
 1.0137626632e+000	 2.6368371703e+000	-5.0824268243e-001
 9.8761319394e-001	 2.6467423712e+000	-4.9031168798e-001
 9.6142343782e-001	 2.6563678159e+000	-4.6882070933e-001
 9.3519766141e-001	 2.6657138508e+000	-4.4411667573e-001
 9.0894010495e-001	 2.6747809043e+000	-4.1651206361e-001
 8.8265498049e-001	 2.6835694859e+000	-3.8628532018e-001
 8.5634647009e-001	 2.6920801852e+000	-3.5368135637e-001
 8.3001872403e-001	 2.7003136703e+000	-3.1891210602e-001
 8.0367585911e-001	 2.7082706869e+000	-2.8215714819e-001
 7.7732195694e-001	 2.7159520569e+000	-2.4356438920e-001
 1.0490699223e+000	 2.6498966580e+000	-5.1560676553e-001
 1.0227340142e+000	 2.6601720126e+000	-4.9887874849e-001
 9.9635313370e-001	 2.6701648700e+000	-4.7886850991e-001
 9.6993160984e-001	 2.6798754957e+000	-4.5596091156e-001
 9.4347374691e-001	 2.6893042388e+000	-4.3050452346e-001
 9.1698382269e-001	 2.6984515317e+000	-4.0281200008e-001
 8.9046608651e-001	 2.7073178884e+000	-3.7316053109e-001
 8.6392475744e-001	 2.7159039036e+000	-3.4179236385e-001
 8.3736402247e-001	 2.7242102514e+000	-3.0891539425e-001
 8.1078803485e-001	 2.7322376842e+000	-2.7470382263e-001
 7.8420091230e-001	 2.7399870309e+000	-2.3929887135e-001
 1.0582722900e+000	 2.6731413656e+000	-5.0412483951e-001
 1.0317053652e+000	 2.6835068548e+000	-4.8478607433e-001
 1.0050930735e+000	 2.6935873689e+000	-4.6283945437e-001
 9.7843978185e-001	 2.7033831755e+000	-4.3867296733e-001
 9.5174983241e-001	 2.7128946269e+000	-4.1263679454e-001
 9.2502754043e-001	 2.7221221592e+000	-3.8504371252e-001
 8.9827719253e-001	 2.7310662909e+000	-3.5616957155e-001
 8.7150304478e-001	 2.7397276221e+000	-3.2625384819e-001
 8.4470932091e-001	 2.7481068326e+000	-2.9550026839e-001
 8.1790021059e-001	 2.7562046814e+000	-2.6407749765e-001
 7.9107986767e-001	 2.7640220048e+000	-2.3211989486e-001
 1.0674746577e+000	 2.6963860731e+000	-4.8761697531e-001
 1.0406767162e+000	 2.7068416970e+000	-4.6579846143e-001
 1.0138330132e+000	 2.7170098677e+000	-4.4206175052e-001
 9.8694795386e-001	 2.7268908553e+000	-4.1679795078e-001
 9.6002591790e-001	 2.7364850150e+000	-3.9035882214e-001
 9.3307125817e-001	 2.7457927867e+000	-3.6305720364e-001
 9.0608829855e-001	 2.7548146935e+000	-3.3516752033e-001
 8.7908133212e-001	 2.7635513405e+000	-3.0692636645e-001
 8.5205461935e-001	 2.7720034137e+000	-2.7853316134e-001
 8.2501238633e-001	 2.7801716786e+000	-2.5015087460e-001
 7.9795882304e-001	 2.7880569788e+000	-2.2190681675e-001
 1.0766770255e+000	 2.7196307806e+000	-4.6590982420e-001
 1.0496480672e+000	 2.7301765392e+000	-4.4174554861e-001
 1.0225729530e+000	 2.7404323666e+000	-4.1636844073e-001
 9.9545612588e-001	 2.7503985350e+000	-3.9017272111e-001
 9.6830200340e-001	 2.7600754030e+000	-3.6351169235e-001
 9.4111497591e-001	 2.7694634141e+000	-3.3669819294e-001
 9.1389940457e-001	 2.7785630960e+000	-3.1000513296e-001
 8.8665961946e-001	 2.7873750590e+000	-2.8366610852e-001
 8.5939991779e-001	 2.7958999949e+000	-2.5787609110e-001
 8.3212456207e-001	 2.8041386758e+000	-2.3279218835e-001
 8.0483777841e-001	 2.8120919527e+000	-2.0853447230e-001
 1.0858793932e+000	 2.7428754882e+000	-4.3882607034e-001
 1.0586194182e+000	 2.7535113814e+000	-4.1245298835e-001
 1.0313128928e+000	 2.7638548655e+000	-3.8558855800e-001
 1.0039642979e+000	 2.7739062148e+000	-3.5863010117e-001
 9.7657808889e-001	 2.7836657911e+000	-3.3193242414e-001
 9.4915869365e-001	 2.7931340416e+000	-3.0580829821e-001
 9.2171051058e-001	 2.8023114985e+000	-2.8052902491e-001
 8.9423790680e-001	 2.8111987774e+000	-2.5632508215e-001
 8.6674521623e-001	 2.8197965760e+000	-2.3338684778e-001
 8.3923673781e-001	 2.8281056731e+000	-2.1186539656e-001
 8.1171673377e-001	 2.8361269267e+000	-1.9187336666e-001
 1.0950817609e+000	 2.7661201957e+000	-4.0618459743e-001
 1.0675907692e+000	 2.7768462236e+000	-3.7774261435e-001
 1.0400528325e+000	 2.7872773643e+000	-3.4954729438e-001
 1.0124724699e+000	 2.7974138946e+000	-3.2199904707e-001
 9.8485417439e-001	 2.8072561791e+000	-2.9545414020e-001
 9.5720241139e-001	 2.8168046691e+000	-2.7022520784e-001
 9.2952161660e-001	 2.8260599011e+000	-2.4658184549e-001
 9.0181619415e-001	 2.8350224959e+000	-2.2475128869e-001
 8.7409051467e-001	 2.8436931572e+000	-2.0491917130e-001
 8.4634891355e-001	 2.8520726703e+000	-1.8723035937e-001
 8.1859568914e-001	 2.8601619006e+000	-1.7178985675e-001
 1.1042841287e+000	 2.7893649032e+000	-3.6780064713e-001
 1.0765621202e+000	 2.8001810658e+000	-3.3743260064e-001
 1.0487927723e+000	 2.8106998632e+000	-3.0806616109e-001
 1.0209806419e+000	 2.8209215744e+000	-2.8010480929e-001
 9.9313025989e-001	 2.8308465672e+000	-2.5390622934e-001
 9.6524612913e-001	 2.8404752965e+000	-2.2978284456e-001
 9.3733272262e-001	 2.8498083036e+000	-2.0800244317e-001
 9.0939448149e-001	 2.8588462143e+000	-1.8878889000e-001
 8.8143581311e-001	 2.8675897383e+000	-1.7232292007e-001
 8.5346108929e-001	 2.8760396675e+000	-1.5874301018e-001
 8.2547464451e-001	 2.8841968746e+000	-1.4814632415e-001
 7.5668509084e-001	 2.6438471350e+000	-2.4001447838e-001
 7.3102404304e-001	 2.6510571191e+000	-2.1819928200e-001
 7.0536008863e-001	 2.6580005917e+000	-1.9835096933e-001
 6.7969708895e-001	 2.6646785674e+000	-1.8046981661e-001
 6.5403886512e-001	 2.6710921293e+000	-1.6452735952e-001
 6.2838919664e-001	 2.6772424279e+000	-1.5046734956e-001
 6.0275182011e-001	 2.6831306796e+000	-1.1483281550e-001
 5.7713042797e-001	 2.6887581649e+000	-6.6971399967e-002
 5.5152866722e-001	 2.6941262274e+000	-1.0061023805e-002
 5.2595013834e-001	 2.6992362720e+000	 5.5586153752e-002
 5.0039839415e-001	 2.7040897632e+000	 1.2972119901e-001
 7.6356404620e-001	 2.6678821090e+000	-2.4381379010e-001
 7.3766971615e-001	 2.6751576384e+000	-2.2316835324e-001
 7.1177245307e-001	 2.6821642335e+000	-2.0372107673e-001
 6.8587615339e-001	 2.6889029180e+000	-1.8547196268e-001
 6.5998467298e-001	 2.6953747850e+000	-1.6839222618e-001
 6.3410182569e-001	 2.7015809954e+000	-1.5242526464e-001
 6.0823138211e-001	 2.7075227766e+000	-1.2349704782e-001
 5.8237706822e-001	 2.7132014209e+000	-7.9111698221e-002
 5.5654256419e-001	 2.7186182841e+000	-2.5346459388e-002
 5.3073150323e-001	 2.7237747836e+000	 3.7433672752e-002
 5.0494747046e-001	 2.7286723974e+000	 1.0892890577e-001
 7.7044300157e-001	 2.6919170830e+000	-2.4503236779e-001
 7.4431538927e-001	 2.6992581576e+000	-2.2574677662e-001
 7.1818481751e-001	 2.7063278752e+000	-2.0692763668e-001
 6.9205521784e-001	 2.7131272686e+000	-1.8857427696e-001
 6.6593048084e-001	 2.7196574407e+000	-1.7065716110e-001
 6.3981445475e-001	 2.7259195630e+000	-1.5311887082e-001
 6.1371094411e-001	 2.7319148737e+000	-1.2829023480e-001
 5.8762370847e-001	 2.7376446770e+000	-8.6383426595e-002
 5.6155646116e-001	 2.7431103407e+000	-3.4816371592e-002
 5.3551286813e-001	 2.7483132951e+000	 2.5991690997e-002
 5.0949654677e-001	 2.7532550316e+000	 9.5688782961e-002
 7.7732195694e-001	 2.7159520569e+000	-2.4356438920e-001
 7.5096106238e-001	 2.7233586769e+000	-2.2583760343e-001
 7.2459718195e-001	 2.7304915169e+000	-2.0788231205e-001
 6.9823428228e-001	 2.7373516192e+000	-1.8969677011e-001
 6.7187628870e-001	 2.7439400964e+000	-1.7125025724e-001
 6.4552708381e-001	 2.7502581305e+000	-1.5248407608e-001
 6.1919050611e-001	 2.7563069708e+000	-1.3004044888e-001
 5.9287034872e-001	 2.7620879330e+000	-8.9580845127e-002
 5.6657035814e-001	 2.7676023973e+000	-3.9231116473e-002
 5.4029423302e-001	 2.7728518067e+000	 2.0533820087e-002
 5.1404562308e-001	 2.7778376658e+000	 8.9308446240e-002
 7.8420091230e-001	 2.7399870309e+000	-2.3929887135e-001
 7.5760673550e-001	 2.7474591962e+000	-2.2333859925e-001
 7.3100954638e-001	 2.7546551587e+000	-2.0649137370e-001
 7.0441334672e-001	 2.7615759698e+000	-1.8875397311e-001
 6.7782209656e-001	 2.7682227522e+000	-1.7009405856e-001
 6.5123971286e-001	 2.7745966980e+000	-1.5045118843e-001
 6.2467006810e-001	 2.7806990679e+000	-1.2957012984e-001
 5.9811698897e-001	 2.7865311891e+000	-8.9492566468e-002
 5.7158425511e-001	 2.7920944539e+000	-3.9345405926e-002
 5.4507559791e-001	 2.7973903183e+000	 2.0339294790e-002
 5.1859469938e-001	 2.8024203000e+000	 8.9101095819e-002
 7.9107986767e-001	 2.7640220048e+000	-2.3211989486e-001
 7.6425240861e-001	 2.7715597154e+000	-2.1814247379e-001
 7.3742191082e-001	 2.7788188004e+000	-2.0265593498e-001
 7.1059241116e-001	 2.7858003204e+000	-1.8565517550e-001
 6.8376790442e-001	 2.7925054079e+000	-1.6710580133e-001
 6.5695234192e-001	 2.7989352655e+000	-1.4694515943e-001
 6.3014963010e-001	 2.8050911650e+000	-1.2508340874e-001
 6.0336362922e-001	 2.8109744451e+000	-8.6901801419e-002
 5.7659815208e-001	 2.8165865105e+000	-3.5908553080e-002
 5.4985696280e-001	 2.8219288298e+000	 2.4692728555e-002
 5.2314377569e-001	 2.8270029342e+000	 9.4385273673e-002
 7.9795882304e-001	 2.7880569788e+000	-2.2190681675e-001
 7.7089808172e-001	 2.7956602347e+000	-2.1013709881e-001
 7.4383427526e-001	 2.8029824422e+000	-1.9627217403e-001
 7.1677147560e-001	 2.8100246711e+000	-1.8030465127e-001
 6.8971371228e-001	 2.8167880636e+000	-1.6219764286e-001
 6.6266497097e-001	 2.8232738331e+000	-1.4188581508e-001
 6.3562919210e-001	 2.8294832621e+000	-1.1927647814e-001
 6.0861026947e-001	 2.8354177012e+000	-8.2586591771e-002
 5.8161204905e-001	 2.8410785671e+000	-2.9664705011e-002
 5.5463832770e-001	 2.8464673414e+000	 3.2883881675e-002
 5.2769285200e-001	 2.8515855684e+000	 1.0448463329e-001
 8.0483777841e-001	 2.8120919527e+000	-2.0853447230e-001
 7.7754375484e-001	 2.8197607539e+000	-1.9920571486e-001
 7.5024663970e-001	 2.8271460839e+000	-1.8723154462e-001
 7.2295054004e-001	 2.8342490217e+000	-1.7260187324e-001
 6.9565952014e-001	 2.8410707193e+000	-1.5527687858e-001
 6.6837760003e-001	 2.8476124006e+000	-1.3518807482e-001
 6.4110875410e-001	 2.8538753591e+000	-1.1223942254e-001
 6.1385690972e-001	 2.8598609572e+000	-7.7320031201e-002
 5.8662594603e-001	 2.8655706237e+000	-2.1353063506e-002
 5.5941969259e-001	 2.8710058529e+000	 4.4207441333e-002
 5.3224192831e-001	 2.8761682026e+000	 1.1872772123e-001
 8.1171673377e-001	 2.8361269267e+000	-1.9187336666e-001
 7.8418942795e-001	 2.8438612732e+000	-1.8522712754e-001
 7.5665900413e-001	 2.8513097256e+000	-1.7542097644e-001
 7.2912960448e-001	 2.8584733723e+000	-1.6244171649e-001
 7.0160532800e-001	 2.8653533750e+000	-1.4624614804e-001
 6.7409022909e-001	 2.8719509681e+000	-1.2676215946e-001
 6.4658831609e-001	 2.8782674562e+000	-1.0388985852e-001
 6.1910354998e-001	 2.8843042132e+000	-7.1870474941e-002
 5.9163984300e-001	 2.8900626803e+000	-1.1708094615e-002
 5.6420105748e-001	 2.8955443645e+000	 5.7962812838e-002
 5.3679100462e-001	 2.9007508368e+000	 1.3644776980e-001
 8.1859568914e-001	 2.8601619006e+000	-1.7178985675e-001
 7.9083510107e-001	 2.8679617925e+000	-1.6807589382e-001
 7.6307136857e-001	 2.8754733674e+000	-1.6072306509e-001
 7.3530866892e-001	 2.8826977229e+000	-1.4971465152e-001
 7.0755113586e-001	 2.8896360307e+000	-1.3500363052e-001
 6.7980285814e-001	 2.8962895356e+000	-1.1651378860e-001
 6.5206787809e-001	 2.9026595533e+000	-9.4140875144e-002
 6.2435019023e-001	 2.9087474693e+000	-6.7001738869e-002
 5.9665373997e-001	 2.9145547369e+000	-1.4597276256e-003
 5.6898242237e-001	 2.9200828761e+000	 7.3453921382e-002
 5.4134008093e-001	 2.9253334710e+000	 1.5698250015e-001
 8.2547464451e-001	 2.8841968746e+000	-1.4814632415e-001
 7.9748077418e-001	 2.8920623117e+000	-1.4762249907e-001
 7.6948373301e-001	 2.8996370091e+000	-1.4301625272e-001
 7.4148773336e-001	 2.9069220735e+000	-1.3430692781e-001
 7.1349694372e-001	 2.9139186865e+000	-1.2144323093e-001
 6.8551548720e-001	 2.9206281031e+000	-1.0434436819e-001
 6.5754744009e-001	 2.9270516504e+000	-8.2901222563e-002
 6.2959683048e-001	 2.9331907253e+000	-5.6977568843e-002
 6.0166763694e-001	 2.9390467935e+000	 8.6664558985e-003
 5.7376378727e-001	 2.9446213876e+000	 8.9989023715e-002
 5.4588915724e-001	 2.9499161052e+000	 1.7967393526e-001
 5.0039839415e-001	 2.7040897632e+000	 1.2972119901e-001
 4.7487693873e-001	 2.7086882237e+000	 1.4532578045e-001
 4.4938922647e-001	 2.7130332330e+000	 1.6058855773e-001
 4.2393866111e-001	 2.7171264254e+000	 1.7543099905e-001
 3.9852859482e-001	 2.7209694888e+000	 1.8984724857e-001
 3.7316232739e-001	 2.7245641628e+000	 2.0390383817e-001
 3.4784310545e-001	 2.7279122372e+000	 2.1773923218e-001
 3.2257412170e-001	 2.7310155503e+000	 2.3156321045e-001
 2.9735851428e-001	 2.7338759873e+000	 2.4565609516e-001
 2.7219936608e-001	 2.7364954787e+000	 2.6036782719e-001
 2.4709970424e-001	 2.7388759987e+000	 2.7611689809e-001
 5.0494747046e-001	 2.7286723974e+000	 1.0892890577e-001
 4.7919400181e-001	 2.7333126621e+000	 1.1850164637e-001
 4.5347458308e-001	 2.7376971715e+000	 1.2922921334e-001
 4.2779264894e-001	 2.7418275747e+000	 1.4096084166e-001
 4.0215158205e-001	 2.7457055751e+000	 1.5361999227e-001
 3.7655471219e-001	 2.7493329280e+000	 1.6720413760e-001
 3.5100531550e-001	 2.7527114394e+000	 1.8178437414e-001
 3.2550661372e-001	 2.7558429644e+000	 1.9750486738e-001
 3.0006177350e-001	 2.7587294054e+000	 2.1458213473e-001
 2.7467390578e-001	 2.7613727104e+000	 2.3330417217e-001
 2.4934606519e-001	 2.7637748714e+000	 2.5402943088e-001
 5.0949654677e-001	 2.7532550316e+000	 9.5688782961e-002
 4.8351106489e-001	 2.7579371005e+000	 9.9542701409e-002
 4.5755993968e-001	 2.7623611099e+000	 1.0596948377e-001
 4.3164663677e-001	 2.7665287241e+000	 1.1474545492e-001
 4.0577456927e-001	 2.7704416614e+000	 1.2572280426e-001
 3.7994709699e-001	 2.7741016931e+000	 1.3882944460e-001
 3.5416752555e-001	 2.7775106416e+000	 1.5406869213e-001
 3.2843910574e-001	 2.7806703785e+000	 1.7151877256e-001
 3.0276503272e-001	 2.7835828235e+000	 1.9133215942e-001
 2.7714844547e-001	 2.7862499420e+000	 2.1373475008e-001
 2.5159242613e-001	 2.7886737441e+000	 2.3902488610e-001
 5.1404562308e-001	 2.7778376658e+000	 8.9308446240e-002
 4.8782812797e-001	 2.7825615389e+000	 8.7803161749e-002
 4.6164529629e-001	 2.7870250484e+000	 9.0210776794e-002
 4.3550062460e-001	 2.7912298734e+000	 9.6233993092e-002
 4.0939755650e-001	 2.7951777476e+000	 1.0565310448e-001
 3.8333948178e-001	 2.7988704582e+000	 1.1832592886e-001
 3.5732973560e-001	 2.8023098437e+000	 1.3418755503e-001
 3.3137159775e-001	 2.8054977926e+000	 1.5324990947e-001
 3.0546829194e-001	 2.8084362415e+000	 1.7560114924e-001
 2.7962298516e-001	 2.8111271736e+000	 2.0140488659e-001
 2.5383878708e-001	 2.8135726168e+000	 2.3089925192e-001
 5.1859469938e-001	 2.8024203000e+000	 8.9101095819e-002
 4.9214519105e-001	 2.8071859773e+000	 8.2642330471e-002
 4.6573065289e-001	 2.8116889869e+000	 8.1359050832e-002
 4.3935461243e-001	 2.8159310227e+000	 8.4879586823e-002
 4.1302054373e-001	 2.8199138339e+000	 9.2911677597e-002
 3.8673186658e-001	 2.8236392233e+000	 1.0524247629e-001
 3.6049194565e-001	 2.8271090459e+000	 1.2173836319e-001
 3.3430408977e-001	 2.8303252067e+000	 1.4234457269e-001
 3.0817155116e-001	 2.8332896596e+000	 1.6708463998e-001
 2.8209752485e-001	 2.8360044052e+000	 1.9605967341e-001
 2.5608514803e-001	 2.8384714896e+000	 2.2944745918e-001
 5.2314377569e-001	 2.8270029342e+000	 9.4385273673e-002
 4.9646225412e-001	 2.8318104157e+000	 8.3424376376e-002
 4.6981600950e-001	 2.8363529254e+000	 7.8824617105e-002
 4.4320860026e-001	 2.8406321720e+000	 8.0139170277e-002
 4.1664353095e-001	 2.8446499202e+000	 8.7002526716e-002
 3.9012425137e-001	 2.8484079884e+000	 9.9130570904e-002
 3.6365415570e-001	 2.8519082480e+000	 1.1632046011e-001
 3.3723658179e-001	 2.8551526208e+000	 1.3845031091e-001
 3.1087481039e-001	 2.8581430777e+000	 1.6547869900e-001
 2.8457206455e-001	 2.8608816369e+000	 1.9744397849e-001
 2.5833150898e-001	 2.8633703623e+000	 2.3446342731e-001
 5.2769285200e-001	 2.8515855684e+000	 1.0448463329e-001
 5.0077931720e-001	 2.8564348541e+000	 8.9518124257e-002
 4.7390136610e-001	 2.8610168639e+000	 8.2021952004e-002
 4.4706258809e-001	 2.8653333213e+000	 8.1473317184e-002
 4.2026651818e-001	 2.8693860064e+000	 8.7432734630e-002
 3.9351663617e-001	 2.8731767535e+000	 9.9544182835e-002
 3.6681636576e-001	 2.8767074502e+000	 1.1753504867e-001
 3.4016907380e-001	 2.8799800349e+000	 1.4121587287e-001
 3.1357806961e-001	 2.8829964957e+000	 1.7047990236e-001
 2.8704660424e-001	 2.8857588685e+000	 2.0530245564e-001
 2.6057786993e-001	 2.8882692350e+000	 2.4574010800e-001
 5.3224192831e-001	 2.8761682026e+000	 1.1872772123e-001
 5.0509638028e-001	 2.8810592925e+000	 1.0029685593e-001
 4.7798672271e-001	 2.8856808023e+000	 9.0369519093e-002
 4.5091657592e-001	 2.8900344707e+000	 8.8346085305e-002
 4.2388950541e-001	 2.8941220927e+000	 9.3712332231e-002
 3.9690902097e-001	 2.8979455187e+000	 1.0603966211e-001
 3.6997857581e-001	 2.9015066523e+000	 1.2498511167e-001
 3.4310156582e-001	 2.9048074490e+000	 1.5029115607e-001
 3.1628132883e-001	 2.9078499138e+000	 1.8178531307e-001
 2.8952114393e-001	 2.9106361001e+000	 2.1937955373e-001
 2.6282423087e-001	 2.9131681077e+000	 2.6306952648e-001
 5.3679100462e-001	 2.9007508368e+000	 1.3644776980e-001
 5.0941344336e-001	 2.9056837309e+000	 1.1513812137e-001
 4.8207207931e-001	 2.9103447408e+000	 1.0328960016e-001
 4.5477056375e-001	 2.9147356200e+000	 1.0022486880e-001
 4.2751249264e-001	 2.9188581789e+000	 1.0535417358e-001
 4.0030140576e-001	 2.9227142838e+000	 1.1817563780e-001
 3.7314078586e-001	 2.9263058545e+000	 1.3827533642e-001
 3.4603405784e-001	 2.9296348631e+000	 1.6532715809e-001
 3.1898458805e-001	 2.9327033318e+000	 1.9909246044e-001
 2.9199568362e-001	 2.9355133317e+000	 2.3941952530e-001
 2.6507059182e-001	 2.9380669804e+000	 2.8624282083e-001
 5.4134008093e-001	 2.9253334710e+000	 1.5698250015e-001
 5.1373050644e-001	 2.9303081693e+000	 1.3342355939e-001
 4.8615743592e-001	 2.9350086793e+000	 1.2020813480e-001
 4.5862455157e-001	 2.9394367693e+000	 1.1658025804e-001
 4.3113547986e-001	 2.9435942652e+000	 1.2187381731e-001
 4.0369379056e-001	 2.9474830489e+000	 1.3551292223e-001
 3.7630299591e-001	 2.9511050566e+000	 1.5701204312e-001
 3.4896654985e-001	 2.9544622771e+000	 1.8597593040e-001
 3.2168784727e-001	 2.9575567499e+000	 2.2209932050e-001
 2.9447022332e-001	 2.9603905634e+000	 2.6516643487e-001
 2.6731695277e-001	 2.9629658531e+000	 3.1505027921e-001
 5.4588915724e-001	 2.9499161052e+000	 1.7967393526e-001
 5.1804756952e-001	 2.9549326076e+000	 1.5453872724e-001
 4.9024279252e-001	 2.9596726178e+000	 1.4055456797e-001
 4.6247853940e-001	 2.9641379186e+000	 1.3688590644e-001
 4.3475846709e-001	 2.9683303514e+000	 1.4278941388e-001
 4.0708617535e-001	 2.9722518140e+000	 1.5761442008e-001
 3.7946520596e-001	 2.9759042588e+000	 1.8080311683e-001
 3.5189904187e-001	 2.9792896912e+000	 2.1189053440e-001
 3.2439110650e-001	 2.9824101680e+000	 2.5050429739e-001
 2.9694476301e-001	 2.9852677950e+000	 2.9636416675e-001
 2.6956331372e-001	 2.9878647258e+000	 3.4928137532e-001
 2.4709970424e-001	 2.7388759987e+000	 2.7611689809e-001
 2.2206249953e-001	 2.7410195633e+000	 2.6802823268e-001
 1.9709066597e-001	 2.7429282290e+000	 2.5892320883e-001
 1.7218706031e-001	 2.7446040910e+000	 2.4929699406e-001
 1.4735448172e-001	 2.7460492816e+000	 2.3971263544e-001
 1.2259567143e-001	 2.7472659684e+000	 2.3079936910e-001
 9.7913312455e-002	 2.7482563533e+000	 2.2325081961e-001
 7.3310029335e-002	 2.7490226699e+000	 2.1782309626e-001
 4.8788387970e-002	 2.7495671829e+000	 2.1533279357e-001
 2.4350895461e-002	 2.7498921859e+000	 2.1665490328e-001
 0.0000000000e+000	 2.7500000000e+000	 2.2272064517e-001
 2.4934606519e-001	 2.7637748714e+000	 2.5402943088e-001
 2.2408124953e-001	 2.7659379230e+000	 2.4628962931e-001
 1.9888239929e-001	 2.7678639402e+000	 2.3827212478e-001
 1.7375239722e-001	 2.7695550373e+000	 2.3043869866e-001
 1.4869406792e-001	 2.7710133659e+000	 2.2332073376e-001
 1.2371017754e-001	 2.7722411136e+000	 2.1751752992e-001
 9.8803433477e-002	 2.7732405019e+000	 2.1369450507e-001
 7.3976484146e-002	 2.7740137851e+000	 2.1258128928e-001
 4.9231918770e-002	 2.7745632482e+000	 2.1496971901e-001
 2.4572267237e-002	 2.7748912057e+000	 2.2171173921e-001
 0.0000000000e+000	 2.7750000000e+000	 2.3371722054e-001
 2.5159242613e-001	 2.7886737441e+000	 2.3902488610e-001
 2.2609999953e-001	 2.7908562826e+000	 2.3186694399e-001
 2.0067413262e-001	 2.7927996513e+000	 2.2508852959e-001
 1.7531773413e-001	 2.7945059836e+000	 2.1911793284e-001
 1.5003365411e-001	 2.7959774503e+000	 2.1445485090e-001
 1.2482468364e-001	 2.7972162588e+000	 2.1166870825e-001
 9.9693554498e-002	 2.7982246506e+000	 2.1139685817e-001
 7.4642938958e-002	 2.7990049003e+000	 2.1434267274e-001
 4.9675449569e-002	 2.7995593135e+000	 2.2127352935e-001
 2.4793639014e-002	 2.7998902256e+000	 2.3301870102e-001
 0.0000000000e+000	 2.8000000000e+000	 2.5046715821e-001
 2.5383878708e-001	 2.8135726168e+000	 2.3089925192e-001
 2.2811874952e-001	 2.8157746423e+000	 2.2458784234e-001
 2.0246586595e-001	 2.8177353625e+000	 2.1923202012e-001
 1.7688307104e-001	 2.8194569298e+000	 2.1522645574e-001
 1.5137324031e-001	 2.8209415347e+000	 2.1303911704e-001
 1.2593918974e-001	 2.8221914039e+000	 2.1320959259e-001
 1.0058367552e-001	 2.8232087993e+000	 2.1634729186e-001
 7.5309393769e-002	 2.8239960154e+000	 2.2312952984e-001
 5.0118980368e-002	 2.8245553788e+000	 2.3429950392e-001
 2.5015010790e-002	 2.8248892455e+000	 2.5066417077e-001
 0.0000000000e+000	 2.8250000000e+000	 2.7309203098e-001
 2.5608514803e-001	 2.8384714896e+000	 2.2944745918e-001
 2.3013749952e-001	 2.8406930020e+000	 2.2427875235e-001
 2.0425759927e-001	 2.8426710737e+000	 2.2056074292e-001
 1.7844840795e-001	 2.8444078761e+000	 2.1865433150e-001
 1.5271282651e-001	 2.8459056191e+000	 2.1899569125e-001
 1.2705369585e-001	 2.8471665491e+000	 2.2209459301e-001
 1.0147379654e-001	 2.8481929479e+000	 2.2853260277e-001
 7.5975848581e-002	 2.8489871306e+000	 2.3896115926e-001
 5.0562511167e-002	 2.8495514441e+000	 2.5409953957e-001
 2.5236382567e-002	 2.8498882654e+000	 2.7473272085e-001
 0.0000000000e+000	 2.8500000000e+000	 3.0170914590e-001
 2.5833150898e-001	 2.8633703623e+000	 2.3446342731e-001
 2.3215624951e-001	 2.8656113616e+000	 2.3076491818e-001
 2.0604933260e-001	 2.8676067849e+000	 2.2893145725e-001
 1.8001374486e-001	 2.8693588224e+000	 2.2929000302e-001
 1.5405241270e-001	 2.8708697034e+000	 2.3224484716e-001
 1.2816820195e-001	 2.8721416943e+000	 2.3827594024e-001
 1.0236391756e-001	 2.8731770966e+000	 2.4793708491e-001
 7.6642303392e-002	 2.8739782458e+000	 2.6185400490e-001
 5.1006041966e-002	 2.8745475094e+000	 2.8072229778e-001
 2.5457754343e-002	 2.8748872852e+000	 3.0530527962e-001
 0.0000000000e+000	 2.8750000000e+000	 3.3643172981e-001
 2.6057786993e-001	 2.8882692350e+000	 2.4574010800e-001
 2.3417499951e-001	 2.8905297213e+000	 2.4387045112e-001
 2.0784106593e-001	 2.8925424960e+000	 2.4419959492e-001
 1.8157908178e-001	 2.8943097687e+000	 2.4702036178e-001
 1.5539199890e-001	 2.8958337878e+000	 2.5270505424e-001
 1.2928270805e-001	 2.8971168394e+000	 2.6170377959e-001
 1.0325403858e-001	 2.8981612453e+000	 2.7454263755e-001
 7.7308758203e-002	 2.8989693610e+000	 2.9182177897e-001
 5.1449572765e-002	 2.8995435747e+000	 3.1421334408e-001
 2.5679126120e-002	 2.8998863051e+000	 3.4245928847e-001
 0.0000000000e+000	 2.9000000000e+000	 3.7736910515e-001
 2.6282423087e-001	 2.9131681077e+000	 2.6306952648e-001
 2.3619374951e-001	 2.9154480810e+000	 2.6341837810e-001
 2.0963279925e-001	 2.9174782072e+000	 2.6621931695e-001
 1.8314441869e-001	 2.9192607150e+000	 2.7173081422e-001
 1.5673158510e-001	 2.9207978722e+000	 2.8029305489e-001
 1.3039721416e-001	 2.9220919846e+000	 2.9232626009e-001
 1.0414415961e-001	 2.9231453939e+000	 3.0832886756e-001
 7.7975213015e-002	 2.9239604762e+000	 3.2887557867e-001
 5.1893103565e-002	 2.9245396400e+000	 3.5461528039e-001
 2.5900497897e-002	 2.9248853250e+000	 3.8626885084e-001
 0.0000000000e+000	 2.9250000000e+000	 4.2462685686e-001
 2.6507059182e-001	 2.9380669804e+000	 2.8624282083e-001
 2.3821249950e-001	 2.9403664406e+000	 2.8923068758e-001
 2.1142453258e-001	 2.9424139184e+000	 2.9484356749e-001
 1.8470975560e-001	 2.9442116612e+000	 3.0330534457e-001
 1.5807117129e-001	 2.9457619566e+000	 3.1492393763e-001
 1.3151172026e-001	 2.9470671298e+000	 3.3008961904e-001
 1.0503428063e-001	 2.9481295426e+000	 3.4927318657e-001
 7.8641667826e-002	 2.9489515913e+000	 3.7302399706e-001
 5.2336634364e-002	 2.9495357053e+000	 4.0196787056e-001
 2.6121869673e-002	 2.9498843448e+000	 4.3680487365e-001
 0.0000000000e+000	 2.9500000000e+000	 4.7830699071e-001
 2.6731695277e-001	 2.9629658531e+000	 3.1505027921e-001
 2.4023124950e-001	 2.9652848003e+000	 3.2112837317e-001
 2.1321626591e-001	 2.9673496295e+000	 3.2992412492e-001
 1.8627509251e-001	 2.9691626075e+000	 3.4162657469e-001
 1.5941075749e-001	 2.9707260410e+000	 3.5651120660e-001
 1.3262622636e-001	 2.9720422749e+000	 3.7493826239e-001
 1.0592440165e-001	 2.9731136913e+000	 3.9735090317e-001
 7.9308122638e-002	 2.9739427065e+000	 4.2427322824e-001
 5.2780165163e-002	 2.9745317706e+000	 4.5630815965e-001
 2.6343241450e-002	 2.9748833647e+000	 4.9413520164e-001
 0.0000000000e+000	 2.9750000000e+000	 5.3850808373e-001
 2.6956331372e-001	 2.9878647258e+000	 3.4928137532e-001
 2.4224999949e-001	 2.9902031599e+000	 3.5893147514e-001
 2.1500799923e-001	 2.9922853407e+000	 3.7131165041e-001
 1.8784042942e-001	 2.9941135538e+000	 3.8657582078e-001
 1.6075034369e-001	 2.9956901253e+000	 4.0496684756e-001
 1.3374073246e-001	 2.9970174201e+000	 4.2681484099e-001
 1.0681452267e-001	 2.9980978399e+000	 4.5253531057e-001
 7.9974577449e-002	 2.9989338217e+000	 4.8262716730e-001
 5.3223695962e-002	 2.9995278359e+000	 5.1767058719e-001
 2.6564613226e-002	 2.9998823846e+000	 5.5832474492e-001
 0.0000000000e+000	 3.0000000000e+000	 6.0532542703e-001
 3.0000000000e+000	 0.0000000000e+000	 9.1329841046e-001
 2.9998823846e+000	 2.6564613226e-002	 9.7702634107e-001
 2.9995278359e+000	 5.3223695962e-002	 1.0325324470e+000
 2.9989338217e+000	 7.9974577449e-002	 1.0803708156e+000
 2.9980978399e+000	 1.0681452267e-001	 1.1210373678e+000
 2.9970174201e+000	 1.3374073246e-001	 1.1549672795e+000
 2.9956901253e+000	 1.6075034369e-001	 1.1825324611e+000
 2.9941135538e+000	 1.8784042942e-001	 1.2040391031e+000
 2.9922853407e+000	 2.1500799923e-001	 1.2197252957e+000
 2.9902031599e+000	 2.4224999949e-001	 1.2297587311e+000
 2.9878647258e+000	 2.6956331372e-001	 1.2342344958e+000
 3.0250000000e+000	 0.0000000000e+000	 1.1763796800e+000
 3.0248814045e+000	 2.6785985003e-002	 1.2095341749e+000
 3.0245239012e+000	 5.3667226761e-002	 1.2359087777e+000
 3.0239249369e+000	 8.0641032261e-002	 1.2560802671e+000
 3.0230819886e+000	 1.0770464369e-001	 1.2705649141e+000
 3.0219925653e+000	 1.3485523857e-001	 1.2798158155e+000
 3.0206542097e+000	 1.6208992988e-001	 1.2842202886e+000
 3.0190645001e+000	 1.8940576633e-001	 1.2840973323e+000
 3.0172210519e+000	 2.1679973256e-001	 1.2796951663e+000
 3.0151215196e+000	 2.4426874949e-001	 1.2711888542e+000
 3.0127635985e+000	 2.7180967467e-001	 1.2586780206e+000
 3.0500000000e+000	 0.0000000000e+000	 1.4406612081e+000
 3.0498804243e+000	 2.7007356780e-002	 1.4426890393e+000
 3.0495199665e+000	 5.4110757560e-002	 1.4394235876e+000
 3.0489160521e+000	 8.1307487072e-002	 1.4314649029e+000
 3.0480661373e+000	 1.0859476471e-001	 1.4193501382e+000
 3.0469677104e+000	 1.3596974467e-001	 1.4035507938e+000
 3.0456182941e+000	 1.6342951608e-001	 1.3844700243e+000
 3.0440154464e+000	 1.9097110324e-001	 1.3624400143e+000
 3.0421567631e+000	 2.1859146589e-001	 1.3377194353e+000
 3.0400398793e+000	 2.4628749948e-001	 1.3104909879e+000
 3.0376624713e+000	 2.7405603562e-001	 1.2808590423e+000
 3.0750000000e+000	 0.0000000000e+000	 1.7060998914e+000
 3.0748794442e+000	 2.7228728556e-002	 1.6764539397e+000
 3.0745160318e+000	 5.4554288360e-002	 1.6430465798e+000
 3.0739071672e+000	 8.1973941883e-002	 1.6065017160e+000
 3.0730502859e+000	 1.0948488573e-001	 1.5673779178e+000
 3.0719428556e+000	 1.3708425077e-001	 1.5261655733e+000
 3.0705823785e+000	 1.6476910228e-001	 1.4832841062e+000
 3.0689663926e+000	 1.9253644015e-001	 1.4390792654e+000
 3.0670924742e+000	 2.2038319921e-001	 1.3938204961e+000
 3.0649582389e+000	 2.4830624948e-001	 1.3476984014e+000
 3.0625613440e+000	 2.7630239656e-001	 1.3008223035e+000
 3.1000000000e+000	 0.0000000000e+000	 1.9726540169e+000
 3.0998784641e+000	 2.7450100333e-002	 1.9107931393e+000
 3.0995120971e+000	 5.4997819159e-002	 1.8467485823e+000
 3.0988982824e+000	 8.2640396694e-002	 1.7811686906e+000
 3.0980344346e+000	 1.1037500676e-001	 1.7146339875e+000
 3.0969180008e+000	 1.3819875688e-001	 1.6476542349e+000
 3.0955464628e+000	 1.6610868847e-001	 1.5806655593e+000
 3.0939173389e+000	 1.9410177707e-001	 1.5140276524e+000
 3.0920281854e+000	 2.2217493254e-001	 1.4480210563e+000
 3.0898765986e+000	 2.5032499947e-001	 1.3828445413e+000
 3.0874602167e+000	 2.7854875751e-001	 1.3186125867e+000
 3.1250000000e+000	 0.0000000000e+000	 2.2402832062e+000
 3.1248774839e+000	 2.7671472109e-002	 2.1456721094e+000
 3.1245081624e+000	 5.5441349958e-002	 2.0505015034e+000
 3.1238893976e+000	 8.3306851506e-002	 1.9554447628e+000
 3.1230185833e+000	 1.1126512778e-001	 1.8611049046e+000
 3.1218931460e+000	 1.3931326298e-001	 1.7680115526e+000
 3.1205105472e+000	 1.6744827467e-001	 1.6766179711e+000
 3.1188682852e+000	 1.9566711398e-001	 1.5872981746e+000
 3.1169638966e+000	 2.2396666586e-001	 1.5003441251e+000
 3.1147949583e+000	 2.5234374947e-001	 1.4159630244e+000
 3.1123590894e+000	 2.8079511845e-001	 1.3342747133e+000
 3.1500000000e+000	 0.0000000000e+000	 1.9366187718e+000
 3.1498765038e+000	 2.7892843886e-002	 1.8735994233e+000
 3.1495042277e+000	 5.5884880757e-002	 1.8129465197e+000
 3.1488805128e+000	 8.3973306317e-002	 1.7537052661e+000
 3.1480027319e+000	 1.1215524880e-001	 1.6949871388e+000
 3.1468682911e+000	 1.4042776908e-001	 1.6359729629e+000
 3.1454746316e+000	 1.6878786087e-001	 1.5759159277e+000
 3.1438192315e+000	 1.9723245089e-001	 1.5141445290e+000
 3.1418996077e+000	 2.2575839919e-001	 1.4500654308e+000
 3.1397133179e+000	 2.5436249946e-001	 1.3831662366e+000
 3.1372579621e+000	 2.8304147940e-001	 1.3130181607e+000
 3.1750000000e+000	 0.0000000000e+000	 1.6362744535e+000
 3.1748755237e+000	 2.8114215663e-002	 1.6025194031e+000
 3.1745002930e+000	 5.6328411556e-002	 1.5701348798e+000
 3.1738716280e+000	 8.4639761128e-002	 1.5381390355e+000
 3.1729868806e+000	 1.1304536982e-001	 1.5056184192e+000
 3.1718434363e+000	 1.4154227518e-001	 1.4717311397e+000
 3.1704387160e+000	 1.7012744706e-001	 1.4357099637e+000
 3.1687701778e+000	 1.9879778780e-001	 1.3968653404e+000
 3.1668353189e+000	 2.2755013251e-001	 1.3545883411e+000
 3.1646316776e+000	 2.5638124945e-001	 1.3083535068e+000
 3.1621568348e+000	 2.8528784035e-001	 1.2577215935e+000
 3.2000000000e+000	 0.0000000000e+000	 1.3392135698e+000
 3.1998745436e+000	 2.8335587439e-002	 1.3349007381e+000
 3.1994963583e+000	 5.6771942355e-002	 1.3309209635e+000
 3.1988627432e+000	 8.5306215939e-002	 1.3262650241e+000
 3.1979710292e+000	 1.1393549084e-001	 1.3199942706e+000
 3.1968185815e+000	 1.4265678129e-001	 1.3112438755e+000
 3.1954028003e+000	 1.7146703326e-001	 1.2992260166e+000
 3.1937211241e+000	 2.0036312471e-001	 1.2832329832e+000
 3.1917710301e+000	 2.2934186584e-001	 1.2626401969e+000
 3.1895500373e+000	 2.5839999945e-001	 1.2369091362e+000
 3.1870557075e+000	 2.8753420129e-001	 1.2055901567e+000
 3.2250000000e+000	 0.0000000000e+000	 1.0454005762e+000
 3.2248735634e+000	 2.8556959216e-002	 1.0707065066e+000
 3.2244924236e+000	 5.7215473154e-002	 1.0952659590e+000
 3.2238538583e+000	 8.5972670750e-002	 1.1180420137e+000
 3.2229551779e+000	 1.1482561186e-001	 1.1380705491e+000
 3.2217937266e+000	 1.4377128739e-001	 1.1544635797e+000
 3.2203668847e+000	 1.7280661945e-001	 1.1664125250e+000
 3.2186720703e+000	 2.0192846161e-001	 1.1731914006e+000
 3.2167067413e+000	 2.3113359916e-001	 1.1741599201e+000
 3.2144683969e+000	 2.6041874944e-001	 1.1687664991e+000
 3.2119545803e+000	 2.8978056223e-001	 1.1565511509e+000
 3.2500000000e+000	 0.0000000000e+000	 7.5480102227e-001
 3.2498725833e+000	 2.8778330992e-002	 8.0990077658e-001
 3.2494884889e+000	 5.7659003953e-002	 8.6313193932e-001
 3.2488449735e+000	 8.6639125561e-002	 9.1342956578e-001
 3.2479393266e+000	 1.1571573288e-001	 9.5980378536e-001
 3.2467688718e+000	 1.4488579349e-001	 1.0013432296e+000
 3.2453309691e+000	 1.7414620565e-001	 1.0372183892e+000
 3.2436230166e+000	 2.0349379852e-001	 1.0666848904e+000
 3.2416424524e+000	 2.3292533249e-001	 1.0890866798e+000
 3.2393867566e+000	 2.6243749943e-001	 1.1038591093e+000
 3.2368534530e+000	 2.9202692318e-001	 1.1105319084e+000
 2.9878647258e+000	 2.6956331372e-001	 1.2342344958e+000
 2.9852677950e+000	 2.9694476301e-001	 1.2584901311e+000
 2.9824101680e+000	 3.2439110650e-001	 1.2761376365e+000
 2.9792896912e+000	 3.5189904187e-001	 1.2870068781e+000
 2.9759042588e+000	 3.7946520596e-001	 1.2908476341e+000
 2.9722518140e+000	 4.0708617535e-001	 1.2873280037e+000
 2.9683303514e+000	 4.3475846709e-001	 1.2760329558e+000
 2.9641379186e+000	 4.6247853940e-001	 1.2564630267e+000
 2.9596726178e+000	 4.9024279252e-001	 1.2280331748e+000
 2.9549326076e+000	 5.1804756952e-001	 1.1900717993e+000
 2.9499161052e+000	 5.4588915724e-001	 1.1418199302e+000
 3.0127635985e+000	 2.7180967467e-001	 1.2586780206e+000
 3.0101450266e+000	 2.9941930270e-001	 1.2669872177e+000
 3.0072635860e+000	 3.2709436572e-001	 1.2705775694e+000
 3.0041171053e+000	 3.5483153389e-001	 1.2692807265e+000
 3.0007034609e+000	 3.8262741601e-001	 1.2628449804e+000
 2.9970205791e+000	 4.1047856015e-001	 1.2509336047e+000
 2.9930664377e+000	 4.3838145432e-001	 1.2331233423e+000
 2.9888390679e+000	 4.6633252723e-001	 1.2089030455e+000
 2.9843365562e+000	 4.9432814913e-001	 1.1776724781e+000
 2.9795570460e+000	 5.2236463260e-001	 1.1387412863e+000
 2.9744987394e+000	 5.5043823355e-001	 1.0913281477e+000
 3.0376624713e+000	 2.7405603562e-001	 1.2808590423e+000
 3.0350222582e+000	 3.0189384239e-001	 1.2732371373e+000
 3.0321170041e+000	 3.2979762494e-001	 1.2628285955e+000
 3.0289445194e+000	 3.5776402590e-001	 1.2494667866e+000
 3.0255026631e+000	 3.8578962606e-001	 1.2328983866e+000
 3.0217893442e+000	 4.1387094494e-001	 1.2127816520e+000
 3.0178025240e+000	 4.4200444154e-001	 1.1886848431e+000
 3.0135402172e+000	 4.7018651506e-001	 1.1600848061e+000
 3.0090004947e+000	 4.9841350573e-001	 1.1263657212e+000
 3.0041814844e+000	 5.2668169568e-001	 1.0868180261e+000
 2.9990813737e+000	 5.5498730986e-001	 1.0406375216e+000
 3.0625613440e+000	 2.7630239656e-001	 1.3008223035e+000
 3.0598994898e+000	 3.0436838209e-001	 1.2772942179e+000
 3.0569704222e+000	 3.3250088416e-001	 1.2529553483e+000
 3.0537719335e+000	 3.6069651792e-001	 1.2276407162e+000
 3.0503018652e+000	 3.8895183611e-001	 1.2010952526e+000
 3.0465581093e+000	 4.1726332974e-001	 1.1729720023e+000
 3.0425386102e+000	 4.4562742877e-001	 1.1428304839e+000
 3.0382413666e+000	 4.7404050289e-001	 1.1101352111e+000
 3.0336644332e+000	 5.0249886233e-001	 1.0742543876e+000
 3.0288059228e+000	 5.3099875876e-001	 1.0344587808e+000
 3.0236640079e+000	 5.5953638617e-001	 9.8992078460e-001
 3.0874602167e+000	 2.7854875751e-001	 1.3186125867e+000
 3.0847767215e+000	 3.0684292178e-001	 1.2792127705e+000
 3.0818238402e+000	 3.3520414338e-001	 1.2410223824e+000
 3.0785993476e+000	 3.6362900993e-001	 1.2038780284e+000
 3.0751010674e+000	 3.9211404616e-001	 1.1675227628e+000
 3.0713268744e+000	 4.2065571453e-001	 1.1316042226e+000
 3.0672746965e+000	 4.4925041599e-001	 1.0956729213e+000
 3.0629425159e+000	 4.7789449072e-001	 1.0591807108e+000
 3.0583283717e+000	 5.0658421894e-001	 1.0214794202e+000
 3.0534303612e+000	 5.3531582184e-001	 9.8181967989e-001
 3.0482466421e+000	 5.6408546248e-001	 9.3934994017e-001
 3.1123590894e+000	 2.8079511845e-001	 1.3342747133e+000
 3.1096539531e+000	 3.0931746147e-001	 1.2790470894e+000
 3.1066772583e+000	 3.3790740260e-001	 1.2270941768e+000
 3.1034267617e+000	 3.6656150195e-001	 1.1782540974e+000
 3.0999002695e+000	 3.9527625621e-001	 1.1322678956e+000
 3.0960956396e+000	 4.2404809933e-001	 1.0887776014e+000
 3.0920107827e+000	 4.5287340322e-001	 1.0473244580e+000
 3.0876436652e+000	 4.8174847854e-001	 1.0073473214e+000
 3.0829923102e+000	 5.1066957554e-001	 9.6818124360e-001
 3.0780547996e+000	 5.3963288491e-001	 9.2905624565e-001
 3.0728292763e+000	 5.6863453879e-001	 8.8909629181e-001
 3.1372579621e+000	 2.8304147940e-001	 1.3130181607e+000
 3.1345311847e+000	 3.1179200116e-001	 1.2629869653e+000
 3.1315306764e+000	 3.4061066182e-001	 1.2100355797e+000
 3.1282541758e+000	 3.6949399396e-001	 1.1540014628e+000
 3.1246994717e+000	 3.9843846626e-001	 1.0954174307e+000
 3.1208644047e+000	 4.2744048412e-001	 1.0445911603e+000
 3.1167468690e+000	 4.5649639044e-001	 9.9789705646e-001
 3.1123448145e+000	 4.8560246637e-001	 9.5476064192e-001
 3.1076562486e+000	 5.1475493214e-001	 9.1449978416e-001
 3.1026792380e+000	 5.4394994799e-001	 8.7632341738e-001
 3.0974119105e+000	 5.7318361510e-001	 8.3933047080e-001
 3.1621568348e+000	 2.8528784035e-001	 1.2577215935e+000
 3.1594084163e+000	 3.1426654084e-001	 1.2261112278e+000
 3.1563840944e+000	 3.4331392104e-001	 1.1907262068e+000
 3.1530815899e+000	 3.7242648597e-001	 1.1514074116e+000
 3.1494986739e+000	 4.0160067630e-001	 1.1080908224e+000
 3.1456331698e+000	 4.3083286891e-001	 1.0608095838e+000
 3.1414829553e+000	 4.6011937766e-001	 1.0096959117e+000
 3.1370459638e+000	 4.8945645420e-001	 9.5498283272e-001
 3.1323201871e+000	 5.1884028875e-001	 8.9700574664e-001
 3.1273036764e+000	 5.4826701107e-001	 8.3620380345e-001
 3.1219945447e+000	 5.7773269141e-001	 7.9022246274e-001
 3.1870557075e+000	 2.8753420129e-001	 1.2055901567e+000
 3.1842856480e+000	 3.1674108053e-001	 1.1922429334e+000
 3.1812375125e+000	 3.4601718025e-001	 1.1742197594e+000
 3.1779090040e+000	 3.7535897799e-001	 1.1513651010e+000
 3.1742978760e+000	 4.0476288635e-001	 1.1236212901e+000
 3.1704019349e+000	 4.3422525370e-001	 1.0910306374e+000
 3.1662190415e+000	 4.6374236489e-001	 1.0537373831e+000
 3.1617471132e+000	 4.9331044202e-001	 1.0119894740e+000
 3.1569841256e+000	 5.2292564535e-001	 9.6614016020e-001
 3.1519281148e+000	 5.5258407415e-001	 9.1664940071e-001
 3.1465771789e+000	 5.8228176772e-001	 8.6408506969e-001
 3.2119545803e+000	 2.8978056223e-001	 1.1565511509e+000
 3.2091628796e+000	 3.1921562022e-001	 1.1613007357e+000
 3.2060909306e+000	 3.4872043947e-001	 1.1604258249e+000
 3.2027364181e+000	 3.7829147000e-001	 1.1537746358e+000
 3.1990970782e+000	 4.0792509639e-001	 1.1412960830e+000
 3.1951707000e+000	 4.3761763849e-001	 1.1230419400e+000
 3.1909551278e+000	 4.6736535211e-001	 1.0991688342e+000
 3.1864482625e+000	 4.9716442985e-001	 1.0699400634e+000
 3.1816480641e+000	 5.2701100195e-001	 1.0357272266e+000
 3.1765525532e+000	 5.5690113723e-001	 9.9701165956e-001
 3.1711598131e+000	 5.8683084403e-001	 9.5438566421e-001
 3.2368534530e+000	 2.9202692318e-001	 1.1105319084e+000
 3.2340401112e+000	 3.2169015991e-001	 1.1332032750e+000
 3.2309443486e+000	 3.5142369869e-001	 1.1492539284e+000
 3.2275638322e+000	 3.8122396201e-001	 1.1585360069e+000
 3.2238962803e+000	 4.1108730644e-001	 1.1610052428e+000
 3.2199394651e+000	 4.4101002328e-001	 1.1567231739e+000
 3.2156912140e+000	 4.7098833933e-001	 1.1458591834e+000
 3.2111494118e+000	 5.0101841767e-001	 1.1286923566e+000
 3.2063120026e+000	 5.3109635855e-001	 1.1056131472e+000
 3.2011769916e+000	 5.6121820030e-001	 1.0771248422e+000
 3.1957424473e+000	 5.9137992034e-001	 1.0438448163e+000
 2.9499161052e+000	 5.4588915724e-001	 1.1418199302e+000
 2.9446213876e+000	 5.7376378727e-001	 1.1268990130e+000
 2.9390467935e+000	 6.0166763694e-001	 1.1143591093e+000
 2.9331907253e+000	 6.2959683048e-001	 1.1001306602e+000
 2.9270516504e+000	 6.5754744009e-001	 1.0677043736e+000
 2.9206281031e+000	 6.8551548720e-001	 1.0307817718e+000
 2.9139186865e+000	 7.1349694372e-001	 9.8940714863e-001
 2.9069220735e+000	 7.4148773336e-001	 9.4362920442e-001
 2.8996370091e+000	 7.6948373301e-001	 8.9350089075e-001
 2.8920623117e+000	 7.9748077418e-001	 8.3907924426e-001
 2.8841968746e+000	 8.2547464451e-001	 7.8042521069e-001
 2.9744987394e+000	 5.5043823355e-001	 1.0913281477e+000
 2.9691598992e+000	 5.7854515216e-001	 1.0785958526e+000
 2.9635388501e+000	 6.0668153392e-001	 1.0699676390e+000
 2.9576339813e+000	 6.3484347073e-001	 1.0568753998e+000
 2.9514437475e+000	 6.6302700209e-001	 1.0276023549e+000
 2.9449666706e+000	 6.9122811626e-001	 9.9412924108e-001
 2.9382013422e+000	 7.1944275158e-001	 9.5650838380e-001
 2.9311464241e+000	 7.4766679780e-001	 9.1479636266e-001
 2.9238006509e+000	 7.7589609745e-001	 8.6905383997e-001
 2.9161628310e+000	 8.0412644730e-001	 8.1934537882e-001
 2.9082318485e+000	 8.3235359987e-001	 7.6573925097e-001
 2.9990813737e+000	 5.5498730986e-001	 1.0406375216e+000
 2.9936984107e+000	 5.8332651705e-001	 1.0307389381e+000
 2.9880309068e+000	 6.1169543089e-001	 1.0267079566e+000
 2.9820772374e+000	 6.4009011098e-001	 1.0142839239e+000
 2.9758358445e+000	 6.6850656409e-001	 9.8814805136e-001
 2.9693052382e+000	 6.9694074532e-001	 9.5810422083e-001
 2.9624839979e+000	 7.2538855945e-001	 9.2421285185e-001
 2.9553707747e+000	 7.5384586224e-001	 8.8653846818e-001
 2.9479642926e+000	 7.8230846189e-001	 8.4514951047e-001
 2.9402633502e+000	 8.1077212041e-001	 8.0011813833e-001
 2.9322668225e+000	 8.3923255524e-001	 7.5152002200e-001
 3.0236640079e+000	 5.5953638617e-001	 9.8992078460e-001
 3.0182369223e+000	 5.8810788194e-001	 9.8351250652e-001
 3.0125229634e+000	 6.1670932786e-001	 9.8477645388e-001
 3.0065204934e+000	 6.4533675123e-001	 9.7231714701e-001
 3.0002279416e+000	 6.7398612608e-001	 9.4929823139e-001
 2.9936438057e+000	 7.0265337437e-001	 9.2265945968e-001
 2.9867666536e+000	 7.3133436731e-001	 8.9246941127e-001
 2.9795951253e+000	 7.6002492669e-001	 8.5880062252e-001
 2.9721279343e+000	 7.8872082633e-001	 8.2172938344e-001
 2.9643638695e+000	 8.1741779353e-001	 7.8133552357e-001
 2.9563017964e+000	 8.4611151061e-001	 7.3770218737e-001
 3.0482466421e+000	 5.6408546248e-001	 9.3934994017e-001
 3.0427754338e+000	 5.9288924684e-001	 9.3710013119e-001
 3.0370150200e+000	 6.2172322484e-001	 9.4436891988e-001
 3.0309637495e+000	 6.5058339149e-001	 9.3093543919e-001
 3.0246200387e+000	 6.7946568808e-001	 9.1100917337e-001
 3.0179823732e+000	 7.0836600343e-001	 8.8774726688e-001
 3.0110493093e+000	 7.3728017517e-001	 8.6122652816e-001
 3.0038194759e+000	 7.6620399113e-001	 8.3152757803e-001
 2.9962915761e+000	 7.9513319077e-001	 7.9873463022e-001
 2.9884643887e+000	 8.2406346665e-001	 7.6293526094e-001
 2.9803367704e+000	 8.5299046598e-001	 7.2422016787e-001
 3.0728292763e+000	 5.6863453879e-001	 8.8909629181e-001
 3.0673139454e+000	 5.9767061173e-001	 8.9168474772e-001
 3.0615070766e+000	 6.2673712181e-001	 9.0382420222e-001
 3.0554070055e+000	 6.5583003174e-001	 8.9009864791e-001
 3.0490121358e+000	 6.8494525008e-001	 8.7323668524e-001
 3.0423209407e+000	 7.1407863249e-001	 8.5331952988e-001
 3.0353319650e+000	 7.4322598304e-001	 8.3043229193e-001
 3.0280438265e+000	 7.7238305558e-001	 8.0466375184e-001
 3.0204552178e+000	 8.0154555521e-001	 7.7610612473e-001
 3.0125649080e+000	 8.3070913976e-001	 7.4485481348e-001
 3.0043717443e+000	 8.5986942135e-001	 7.1100815119e-001
 3.0974119105e+000	 5.7318361510e-001	 8.3933047080e-001
 3.0918524570e+000	 6.0245197662e-001	 8.4744867963e-001
 3.0859991332e+000	 6.3175101878e-001	 8.6072800116e-001
 3.0798502615e+000	 6.6107667200e-001	 8.4976611867e-001
 3.0734042329e+000	 6.9042481209e-001	 8.3593612314e-001
 3.0666595083e+000	 7.1979126155e-001	 8.1932773110e-001
 3.0596146208e+000	 7.4917179090e-001	 8.0003443025e-001
 3.0522681771e+000	 7.7856212002e-001	 7.7815323915e-001
 3.0446188595e+000	 8.0795791965e-001	 7.5378445522e-001
 3.0366654273e+000	 8.3735481288e-001	 7.2703139124e-001
 3.0284067183e+000	 8.6674837673e-001	 6.9800010114e-001
 3.1219945447e+000	 5.7773269141e-001	 7.9022246274e-001
 3.1163909685e+000	 6.0723334152e-001	 8.0457366235e-001
 3.1104911898e+000	 6.3676491576e-001	 8.1812758679e-001
 3.1042935176e+000	 6.6632331225e-001	 8.0989671485e-001
 3.0977963300e+000	 6.9590437409e-001	 7.9906240922e-001
 3.0909980758e+000	 7.2550389062e-001	 7.8572296388e-001
 3.0838972765e+000	 7.5511759877e-001	 7.6998032330e-001
 3.0764925277e+000	 7.8474118447e-001	 7.5193982592e-001
 3.0687825013e+000	 8.1437028410e-001	 7.3170993556e-001
 3.0607659465e+000	 8.4400048600e-001	 7.0940196134e-001
 3.0524416922e+000	 8.7362733210e-001	 6.8512976654e-001
 3.1465771789e+000	 5.8228176772e-001	 8.6408506969e-001
 3.1409294801e+000	 6.1201470641e-001	 8.5576711315e-001
 3.1349832464e+000	 6.4177881273e-001	 8.3441551094e-001
 3.1287367736e+000	 6.7156995251e-001	 7.9243544940e-001
 3.1221884270e+000	 7.0138393609e-001	 7.6257004859e-001
 3.1153366433e+000	 7.3121651968e-001	 7.5245594765e-001
 3.1081799322e+000	 7.6106340663e-001	 7.4021701735e-001
 3.1007168783e+000	 7.9092024892e-001	 7.2596700091e-001
 3.0929461430e+000	 8.2078264854e-001	 7.0982261592e-001
 3.0848664658e+000	 8.5064615913e-001	 6.9190325738e-001
 3.0764766662e+000	 8.8050628747e-001	 6.7233068951e-001
 3.1711598131e+000	 5.8683084403e-001	 9.5438566421e-001
 3.1654679917e+000	 6.1679607131e-001	 9.5631815087e-001
 3.1594753030e+000	 6.4679270971e-001	 9.3382915682e-001
 3.1531800297e+000	 6.7681659276e-001	 8.9546722521e-001
 3.1465805241e+000	 7.0686349809e-001	 8.5272166645e-001
 3.1396752108e+000	 7.3692914874e-001	 8.0574960430e-001
 3.1324625879e+000	 7.6700921450e-001	 7.5472327150e-001
 3.1249412290e+000	 7.9709931337e-001	 7.0017796726e-001
 3.1171097848e+000	 8.2719501299e-001	 6.8806229305e-001
 3.1089669851e+000	 8.5729183225e-001	 6.7447178852e-001
 3.1005116401e+000	 8.8738524285e-001	 6.5953621359e-001
 3.1957424473e+000	 5.9137992034e-001	 1.0438448163e+000
 3.1900065032e+000	 6.2157743620e-001	 1.0555659412e+000
 3.1839673596e+000	 6.5180660668e-001	 1.0305464243e+000
 3.1776232857e+000	 6.8206323302e-001	 9.9591185733e-001
 3.1709726212e+000	 7.1234306010e-001	 9.5700609543e-001
 3.1640137784e+000	 7.4264177780e-001	 9.1399069405e-001
 3.1567452436e+000	 7.7295502237e-001	 8.6704251216e-001
 3.1491655796e+000	 8.0327837781e-001	 8.1635389365e-001
 3.1412734265e+000	 8.3360737744e-001	 7.6213282319e-001
 3.1330675043e+000	 8.6393750537e-001	 7.0460305545e-001
 3.1245466141e+000	 8.9426419823e-001	 6.4667949129e-001
 2.8841968746e+000	 8.2547464451e-001	 7.8042521069e-001
 2.8760396675e+000	 8.5346108929e-001	 7.3387583029e-001
 2.8675897383e+000	 8.8143581311e-001	 6.8706668068e-001
 2.8588462143e+000	 9.0939448149e-001	 6.4001380938e-001
 2.8498083036e+000	 9.3733272262e-001	 5.9273212879e-001
 2.8404752965e+000	 9.6524612913e-001	 5.4523518674e-001
 2.8308465672e+000	 9.9313025989e-001	 4.9753493492e-001
 2.8209215744e+000	 1.0209806419e+000	 4.4964149579e-001
 2.8106998632e+000	 1.0487927723e+000	 4.0156292882e-001
 2.8001810658e+000	 1.0765621202e+000	 3.5330499653e-001
 2.7893649032e+000	 1.1042841287e+000	 3.0487093134e-001
 2.9082318485e+000	 8.3235359987e-001	 7.6573925097e-001
 2.9000066647e+000	 8.6057326503e-001	 7.2208624563e-001
 2.8914863195e+000	 8.8878111155e-001	 6.7780578488e-001
 2.8826699328e+000	 9.1697276883e-001	 6.3292371191e-001
 2.8735567061e+000	 9.4514382864e-001	 5.8746514772e-001
 2.8641459240e+000	 9.7328984687e-001	 5.4145425254e-001
 2.8544369552e+000	 1.0014063454e+000	 4.9491398454e-001
 2.8444292542e+000	 1.0294888139e+000	 4.4786585635e-001
 2.8341223620e+000	 1.0575327121e+000	 4.0032969019e-001
 2.8235159081e+000	 1.0855334712e+000	 3.5232337226e-001
 2.8126096107e+000	 1.1134864964e+000	 3.0386260723e-001
 2.9322668225e+000	 8.3923255524e-001	 7.5152002200e-001
 2.9239736620e+000	 8.6768544077e-001	 7.1095405886e-001
 2.9153829006e+000	 8.9612640999e-001	 6.6940156821e-001
 2.9064936512e+000	 9.2455105618e-001	 6.2689825004e-001
 2.8973051086e+000	 9.5295493466e-001	 5.8347948924e-001
 2.8878165515e+000	 9.8133356461e-001	 5.3918010779e-001
 2.8780273433e+000	 1.0096824309e+000	 4.9403411344e-001
 2.8679369340e+000	 1.0379969859e+000	 4.4807444558e-001
 2.8575448609e+000	 1.0662726518e+000	 4.0133271913e-001
 2.8468507503e+000	 1.0945048222e+000	 3.5383896698e-001
 2.8358543183e+000	 1.1226888642e+000	 3.0562138195e-001
 2.9563017964e+000	 8.4611151061e-001	 7.3770218737e-001
 2.9479406592e+000	 8.7479761651e-001	 7.0040502866e-001
 2.9392794818e+000	 9.0347170843e-001	 6.6177073509e-001
 2.9303173697e+000	 9.3212934352e-001	 6.2184492812e-001
 2.9210535112e+000	 9.6076604068e-001	 5.8067331556e-001
 2.9114871789e+000	 9.8937728235e-001	 5.3830143426e-001
 2.9016177314e+000	 1.0179585164e+000	 4.9477438853e-001
 2.8914446137e+000	 1.0465051580e+000	 4.5013658521e-001
 2.8809673597e+000	 1.0750125916e+000	 4.0443146593e-001
 2.8701855925e+000	 1.1034761732e+000	 3.5770123753e-001
 2.8590990258e+000	 1.1318912319e+000	 3.0998660122e-001
 2.9803367704e+000	 8.5299046598e-001	 7.2422016787e-001
 2.9719076564e+000	 8.8190979226e-001	 6.9036488280e-001
 2.9631760629e+000	 9.1081700687e-001	 6.5483017657e-001
 2.9541410881e+000	 9.3970763087e-001	 6.1767166027e-001
 2.9448019137e+000	 9.6857714670e-001	 5.7894542731e-001
 2.9351578064e+000	 9.9742100009e-001	 5.3870778626e-001
 2.9252081194e+000	 1.0262346019e+000	 4.9701498883e-001
 2.9149522935e+000	 1.0550133300e+000	 4.5392295388e-001
 2.9043898586e+000	 1.0837525314e+000	 4.0948698788e-001
 2.8935204347e+000	 1.1124475242e+000	 3.6376150303e-001
 2.8823437333e+000	 1.1410935996e+000	 3.1679973342e-001
 3.0043717443e+000	 8.5986942135e-001	 7.1100815119e-001
 2.9958746536e+000	 8.8902196800e-001	 6.8075931937e-001
 2.9870726441e+000	 9.1816230531e-001	 6.4849696286e-001
 2.9779648066e+000	 9.4728591821e-001	 6.1428675401e-001
 2.9685503162e+000	 9.7638825273e-001	 5.7819523803e-001
 2.9588284339e+000	 1.0054647178e+000	 5.4028955574e-001
 2.9487985075e+000	 1.0345106874e+000	 5.0063716091e-001
 2.9384599733e+000	 1.0635215020e+000	 4.5930553285e-001
 2.9278123575e+000	 1.0924924711e+000	 4.1636188500e-001
 2.9168552769e+000	 1.1214188752e+000	 3.7187287040e-001
 2.9055884408e+000	 1.1502959674e+000	 3.2590428466e-001
 3.0284067183e+000	 8.6674837673e-001	 6.9800010114e-001
 3.0198416509e+000	 8.9613414375e-001	 6.7151400800e-001
 3.0109692252e+000	 9.2550760376e-001	 6.4268833626e-001
 3.0017885250e+000	 9.5486420556e-001	 6.1159889463e-001
 2.9922987187e+000	 9.8419935875e-001	 5.7832274983e-001
 2.9824990614e+000	 1.0135084356e+000	 5.4293793908e-001
 2.9723888955e+000	 1.0427867729e+000	 5.0552317655e-001
 2.9619676531e+000	 1.0720296740e+000	 4.6615755432e-001
 2.9512348563e+000	 1.1012324109e+000	 4.2492023881e-001
 2.9401901191e+000	 1.1303902262e+000	 3.8189016337e-001
 2.9288331484e+000	 1.1594983351e+000	 3.3714571793e-001
 3.0524416922e+000	 8.7362733210e-001	 6.8512976654e-001
 3.0438086481e+000	 9.0324631949e-001	 6.6255459092e-001
 3.0348658064e+000	 9.3285290220e-001	 6.3732170435e-001
 3.0256122435e+000	 9.6244249291e-001	 6.0951713031e-001
 3.0160471213e+000	 9.9201046477e-001	 5.7922853019e-001
 3.0061696888e+000	 1.0215521533e+000	 5.4654490538e-001
 2.9959792836e+000	 1.0510628584e+000	 5.1155629240e-001
 2.9854753329e+000	 1.0805378460e+000	 4.7435345219e-001
 2.9746573552e+000	 1.1099723507e+000	 4.3502755399e-001
 2.9635249613e+000	 1.1393615772e+000	 3.9366985494e-001
 2.9520778559e+000	 1.1687007029e+000	 3.5037137605e-001
 3.0764766662e+000	 8.8050628747e-001	 6.7233068951e-001
 3.0677756453e+000	 9.1035849524e-001	 6.5380668408e-001
 3.0587623875e+000	 9.4019820065e-001	 6.3231463357e-001
 3.0494359619e+000	 9.7002078026e-001	 6.0795085795e-001
 3.0397955238e+000	 9.9982157080e-001	 5.8081368994e-001
 3.0298403163e+000	 1.0295958711e+000	 5.5100316627e-001
 3.0195696717e+000	 1.0593389439e+000	 5.1862071149e-001
 3.0089830127e+000	 1.0890460181e+000	 4.8376881510e-001
 2.9980798540e+000	 1.1187122905e+000	 4.4655070283e-001
 2.9868598036e+000	 1.1483329282e+000	 4.0707000293e-001
 2.9753225634e+000	 1.1779030706e+000	 3.6543040824e-001
 3.1005116401e+000	 8.8738524285e-001	 6.5953621359e-001
 3.0917426426e+000	 9.1747067099e-001	 6.4519587812e-001
 3.0826589687e+000	 9.4754349910e-001	 6.2758484301e-001
 3.0732596804e+000	 9.7759906761e-001	 6.0680980968e-001
 3.0635439263e+000	 1.0076326768e+000	 5.8297986214e-001
 3.0535109438e+000	 1.0376395888e+000	 5.5620614718e-001
 3.0431600597e+000	 1.0676150294e+000	 5.2660154652e-001
 3.0324906925e+000	 1.0975541901e+000	 4.9428034165e-001
 3.0215023529e+000	 1.1274522302e+000	 4.5935787218e-001
 3.0101946458e+000	 1.1573042792e+000	 4.2195018855e-001
 2.9985672709e+000	 1.1871054383e+000	 3.8217370011e-001
 3.1245466141e+000	 8.9426419823e-001	 6.4667949129e-001
 3.1157096398e+000	 9.2458284674e-001	 6.3664773942e-001
 3.1065555498e+000	 9.5488879754e-001	 6.2305019858e-001
 3.0970833988e+000	 9.8517735496e-001	 6.0600403993e-001
 3.0872923289e+000	 1.0154437829e+000	 5.8562918203e-001
 3.0771815712e+000	 1.0456833066e+000	 5.6204795984e-001
 3.0667504478e+000	 1.0758911149e+000	 5.3538478494e-001
 3.0559983723e+000	 1.1060623621e+000	 5.0576579778e-001
 3.0449248518e+000	 1.1361921700e+000	 4.7331851289e-001
 3.0335294880e+000	 1.1662756302e+000	 4.3817145783e-001
 3.0218119785e+000	 1.1963078061e+000	 4.0045380687e-001
 2.7893649032e+000	 1.1042841287e+000	 3.0487093134e-001
 2.7782511856e+000	 1.1319542172e+000	 2.6579873073e-001
 2.7668398140e+000	 1.1595677832e+000	 2.2880550302e-001
 2.7551307808e+000	 1.1871202048e+000	 1.9386064762e-001
 2.7431241712e+000	 1.2146068424e+000	 1.6092760705e-001
 2.7308201633e+000	 1.2420230416e+000	 1.2996364240e-001
 2.7182190297e+000	 1.2693641349e+000	 8.8949586478e-002
 2.7053211376e+000	 1.2966254442e+000	 4.5223627728e-002
 2.6921269500e+000	 1.3238022833e+000	 3.7344349352e-003
 2.6786370258e+000	 1.3508899601e+000	-3.5553252379e-002
 2.6648520205e+000	 1.3778837792e+000	-7.2677938219e-002
 2.8126096107e+000	 1.1134864964e+000	 3.0386260723e-001
 2.8014032788e+000	 1.1413871690e+000	 2.6361102343e-001
 2.7898968124e+000	 1.1692308481e+000	 2.2556011025e-001
 2.7780902040e+000	 1.1970128732e+000	 1.8968556130e-001
 2.7659835393e+000	 1.2247285661e+000	 1.5595696157e-001
 2.7535769980e+000	 1.2523732336e+000	 1.2279548014e-001
 2.7408708549e+000	 1.2799421693e+000	 7.5488844585e-002
 2.7278654804e+000	 1.3074306562e+000	 3.0561383831e-002
 2.7145613413e+000	 1.3348339690e+000	-1.2015820290e-002
 2.7009590010e+000	 1.3621473764e+000	-5.2275008668e-002
 2.6870591207e+000	 1.3893661440e+000	-9.0251736464e-002
 2.8358543183e+000	 1.1226888642e+000	 3.0562138195e-001
 2.8245553720e+000	 1.1508201208e+000	 2.6422556974e-001
 2.8129538109e+000	 1.1788939129e+000	 2.2515435984e-001
 2.8010496272e+000	 1.2069055415e+000	 1.8838980689e-001
 2.7888429074e+000	 1.2348502898e+000	 1.5390770203e-001
 2.7763338327e+000	 1.2627234256e+000	 1.1313013306e-001
 2.7635226802e+000	 1.2905202038e+000	 6.4622585888e-002
 2.7504098233e+000	 1.3182358682e+000	 1.8604359065e-002
 2.7369957325e+000	 1.3458656546e+000	-2.4950438613e-002
 2.7232809762e+000	 1.3734047928e+000	-6.6071088772e-002
 2.7092662209e+000	 1.4008485088e+000	-1.0479025841e-001
 2.8590990258e+000	 1.1318912319e+000	 3.0998660122e-001
 2.8477074652e+000	 1.1602530726e+000	 2.6747743401e-001
 2.8360108093e+000	 1.1885569778e+000	 2.2741908957e-001
 2.8240090504e+000	 1.2167982099e+000	 1.8980005321e-001
 2.8117022754e+000	 1.2449720135e+000	 1.5460238879e-001
 2.7990906674e+000	 1.2730736177e+000	 1.0587239381e-001
 2.7861745054e+000	 1.3010982382e+000	 5.6272793113e-002
 2.7729541661e+000	 1.3290410803e+000	 9.2724180855e-003
 2.7594301238e+000	 1.3568973403e+000	-3.5151654430e-002
 2.7456029514e+000	 1.3846622091e+000	-7.7025806114e-002
 2.7314733210e+000	 1.4123308736e+000	-1.1637987548e-001
 2.8823437333e+000	 1.1410935996e+000	 3.1679973342e-001
 2.8708595585e+000	 1.1696860244e+000	 2.7320387690e-001
 2.8590678078e+000	 1.1982200427e+000	 2.3218740684e-001
 2.8469684735e+000	 1.2266908783e+000	 1.9374531168e-001
 2.8345616435e+000	 1.2550937372e+000	 1.5425912988e-001
 2.8218475021e+000	 1.2834238097e+000	 1.0094886828e-001
 2.8088263307e+000	 1.3116762727e+000	 5.0364007629e-002
 2.7954985089e+000	 1.3398462923e+000	 2.4880552013e-003
 2.7818645150e+000	 1.3679290260e+000	-4.2699002039e-002
 2.7679249266e+000	 1.3959196254e+000	-8.5220704181e-002
 2.7536804212e+000	 1.4238132385e+000	-1.2510411998e-001
 2.9055884408e+000	 1.1502959674e+000	 3.2590428466e-001
 2.8940116517e+000	 1.1791189762e+000	 2.8124426754e-001
 2.8821248062e+000	 1.2078831075e+000	 2.3929459791e-001
 2.8699278967e+000	 1.2365835466e+000	 2.0005684255e-001
 2.8574210116e+000	 1.2652154609e+000	 1.5258583183e-001
 2.8446043368e+000	 1.2937740017e+000	 9.8288549997e-002
 2.8314781559e+000	 1.3222543071e+000	 4.6823227096e-002
 2.8180428517e+000	 1.3506515043e+000	-1.8237108149e-003
 2.8042989063e+000	 1.3789607117e+000	-4.7669423645e-002
 2.7902469018e+000	 1.4071770418e+000	-9.0734667315e-002
 2.7758875214e+000	 1.4352956033e+000	-1.3104379862e-001
 2.9288331484e+000	 1.1594983351e+000	 3.3714571793e-001
 2.9171637449e+000	 1.1885519280e+000	 2.9143999986e-001
 2.9051818047e+000	 1.2175461724e+000	 2.4857804142e-001
 2.8928873199e+000	 1.2464762150e+000	 2.0856806567e-001
 2.8802803797e+000	 1.2753371846e+000	 1.5300402591e-001
 2.8673611715e+000	 1.3041241937e+000	 9.7822725340e-002
 2.8541299812e+000	 1.3328323416e+000	 4.5579807996e-002
 2.8405871945e+000	 1.3614567164e+000	-3.7354369018e-003
 2.8267332975e+000	 1.3899923974e+000	-5.0137372224e-002
 2.8125688771e+000	 1.4184344581e+000	-9.3644026240e-002
 2.7980946215e+000	 1.4467779681e+000	-1.3427710068e-001
 2.9520778559e+000	 1.1687007029e+000	 3.5037137605e-001
 2.9403158381e+000	 1.1979848799e+000	 3.0363441285e-001
 2.9282388031e+000	 1.2272092372e+000	 2.5987712601e-001
 2.9158467430e+000	 1.2563688834e+000	 2.1446217657e-001
 2.9031397478e+000	 1.2854589082e+000	 1.5544908277e-001
 2.8901180061e+000	 1.3144743857e+000	 9.9484883291e-002
 2.8767818064e+000	 1.3434103761e+000	 4.6565372765e-002
 2.8631315373e+000	 1.3722619284e+000	-3.3173511544e-003
 2.8491676888e+000	 1.4010240831e+000	-5.0174909518e-002
 2.8348908523e+000	 1.4296918744e+000	-9.4022658597e-002
 2.8203017217e+000	 1.4582603330e+000	-1.3487970110e-001
 2.9753225634e+000	 1.1779030706e+000	 3.6543040824e-001
 2.9634679313e+000	 1.2074178317e+000	 3.1767271460e-001
 2.9512958016e+000	 1.2368723021e+000	 2.7303317180e-001
 2.9388061662e+000	 1.2662615518e+000	 2.1965850497e-001
 2.9259991159e+000	 1.2955806319e+000	 1.5985842830e-001
 2.9128748408e+000	 1.3248245777e+000	 1.0321062938e-001
 2.8994336316e+000	 1.3539884105e+000	 4.9713721282e-002
 2.8856758801e+000	 1.3830671404e+000	-6.3744379429e-004
 2.8716020800e+000	 1.4120557688e+000	-4.7851799449e-002
 2.8572128275e+000	 1.4409492908e+000	-9.1942084766e-002
 2.8425088219e+000	 1.4697426978e+000	-1.3292485862e-001
 2.9985672709e+000	 1.1871054383e+000	 3.8217370011e-001
 2.9866200245e+000	 1.2168507835e+000	 3.3340190985e-001
 2.9743528000e+000	 1.2465353670e+000	 2.8788935557e-001
 2.9617655894e+000	 1.2761542201e+000	 2.2666094848e-001
 2.9488584840e+000	 1.3057023556e+000	 1.6617146400e-001
 2.9356316755e+000	 1.3351747697e+000	 1.0893760367e-001
 2.9220854569e+000	 1.3645664450e+000	 5.4960746468e-002
 2.9082202229e+000	 1.3938723525e+000	 4.2384460909e-003
 2.8940364712e+000	 1.4230874545e+000	-4.3235597176e-002
 2.8795348027e+000	 1.4522067071e+000	-8.7471559232e-002
 2.8647159220e+000	 1.4812250626e+000	-1.2848350952e-001
 3.0218119785e+000	 1.1963078061e+000	 4.0045380687e-001
 3.0097721177e+000	 1.2262837353e+000	 3.5067073089e-001
 2.9974097985e+000	 1.2561984318e+000	 2.9984656095e-001
 2.9847250126e+000	 1.2860468885e+000	 2.3541252609e-001
 2.9717178521e+000	 1.3158240793e+000	 1.7432949095e-001
 2.9583885102e+000	 1.3455249618e+000	 1.1660540247e-001
 2.9447372821e+000	 1.3751444794e+000	 6.2244353787e-002
 2.9307645658e+000	 1.4046775645e+000	 1.1246547812e-002
 2.9164708625e+000	 1.4341191402e+000	-3.6391734053e-002
 2.9018567779e+000	 1.4634641235e+000	-8.0678157739e-002
 2.8869230222e+000	 1.4927074274e+000	-1.2162435689e-001
 2.6648520205e+000	 1.3778837792e+000	-7.2677938219e-002
 2.6507726869e+000	 1.4047790439e+000	-1.0770433752e-001
 2.6363998752e+000	 1.4315710593e+000	-1.4563944966e-001
 2.6217345334e+000	 1.4582551343e+000	-1.8648754484e-001
 2.6067777073e+000	 1.4848265841e+000	-2.3025112062e-001
 2.5915305413e+000	 1.5112807329e+000	-2.7693086880e-001
 2.5759942776e+000	 1.5376129167e+000	-3.2652564389e-001
 2.5601702572e+000	 1.5638184851e+000	-3.7903243319e-001
 2.5440599187e+000	 1.5898928045e+000	-4.3444632845e-001
 2.5276647993e+000	 1.6158312605e+000	-4.9276049944e-001
 2.5109865337e+000	 1.6416292602e+000	-5.5396616928e-001
 2.6870591207e+000	 1.3893661440e+000	-9.0251736464e-002
 2.6728624593e+000	 1.4164855360e+000	-1.2445792232e-001
 2.6583698742e+000	 1.4435008182e+000	-1.6107901530e-001
 2.6435823211e+000	 1.4704072604e+000	-2.0013631757e-001
 2.6285008549e+000	 1.4972001389e+000	-2.4164993117e-001
 2.6131266291e+000	 1.5238747391e+000	-2.8563871150e-001
 2.5974608966e+000	 1.5504263577e+000	-3.3212022154e-001
 2.5815050093e+000	 1.5768503058e+000	-3.8111068668e-001
 2.5652604181e+000	 1.6031419112e+000	-4.3262495050e-001
 2.5487286726e+000	 1.6292965210e+000	-4.8667643142e-001
 2.5319114214e+000	 1.6553095040e+000	-5.4327708038e-001
 2.7092662209e+000	 1.4008485088e+000	-1.0479025841e-001
 2.6949522317e+000	 1.4281920280e+000	-1.3863241927e-001
 2.6803398731e+000	 1.4554305770e+000	-1.7440322009e-001
 2.6654301089e+000	 1.4825593865e+000	-2.1214082077e-001
 2.6502240024e+000	 1.5095736938e+000	-2.5188274789e-001
 2.6347227169e+000	 1.5364687452e+000	-2.9366583485e-001
 2.6189275156e+000	 1.5632397986e+000	-3.3752616196e-001
 2.6028397614e+000	 1.5898821265e+000	-3.8349899622e-001
 2.5864609174e+000	 1.6163910179e+000	-4.3161873119e-001
 2.5697925460e+000	 1.6427617815e+000	-4.8191882696e-001
 2.5528363092e+000	 1.6689897478e+000	-5.3443175034e-001
 2.7314733210e+000	 1.4123308736e+000	-1.1637987548e-001
 2.7170420041e+000	 1.4398985200e+000	-1.5030244829e-001
 2.7023098721e+000	 1.4673603358e+000	-1.8567473925e-001
 2.6872778967e+000	 1.4947115126e+000	-2.2255159659e-001
 2.6719471500e+000	 1.5219472487e+000	-2.6098779636e-001
 2.6563188048e+000	 1.5490627513e+000	-3.0103796949e-001
 2.6403941346e+000	 1.5760532396e+000	-3.4275652769e-001
 2.6241745136e+000	 1.6029139472e+000	-3.8619758839e-001
 2.6076614167e+000	 1.6296401246e+000	-4.3141489884e-001
 2.5908564193e+000	 1.6562270420e+000	-4.7846175948e-001
 2.5737611970e+000	 1.6826699917e+000	-5.2739094673e-001
 2.7536804212e+000	 1.4238132385e+000	-1.2510411998e-001
 2.7391317765e+000	 1.4516050121e+000	-1.5954016637e-001
 2.7242798711e+000	 1.4792900947e+000	-1.9495416752e-001
 2.7091256845e+000	 1.5068636388e+000	-2.3141749514e-001
 2.6936702975e+000	 1.5343208035e+000	-2.6900200452e-001
 2.6779148926e+000	 1.5616567574e+000	-3.0777994848e-001
 2.6618607536e+000	 1.5888666806e+000	-3.4782388932e-001
 2.6455092657e+000	 1.6159457679e+000	-3.8920660893e-001
 2.6288619160e+000	 1.6428892313e+000	-4.3200101723e-001
 2.6119202926e+000	 1.6696923025e+000	-4.7628005914e-001
 2.5946860848e+000	 1.6963502355e+000	-5.2211662009e-001
 2.7758875214e+000	 1.4352956033e+000	-1.3104379862e-001
 2.7612215489e+000	 1.4633115041e+000	-1.6641536610e-001
 2.7462498700e+000	 1.4912198535e+000	-2.0230010235e-001
 2.7309734722e+000	 1.5190157649e+000	-2.3878574219e-001
 2.7153934451e+000	 1.5466943584e+000	-2.7596105454e-001
 2.6995109805e+000	 1.5742507635e+000	-3.1391574325e-001
 2.6833273725e+000	 1.6016801216e+000	-3.5274034526e-001
 2.6668440179e+000	 1.6289775887e+000	-3.9252612596e-001
 2.6500624153e+000	 1.6561383380e+000	-4.3336497216e-001
 2.6329841659e+000	 1.6831575630e+000	-4.7534928263e-001
 2.6156109726e+000	 1.7100304793e+000	-5.1857185661e-001
 2.7980946215e+000	 1.4467779681e+000	-1.3427710068e-001
 2.7833113213e+000	 1.4750179961e+000	-1.7099556952e-001
 2.7682198690e+000	 1.5031496123e+000	-2.0776922319e-001
 2.7528212600e+000	 1.5311678910e+000	-2.4470200367e-001
 2.7371165927e+000	 1.5590679133e+000	-2.8189943229e-001
 2.7211070683e+000	 1.5868447696e+000	-3.1946849776e-001
 2.7047939915e+000	 1.6144935625e+000	-3.5751754041e-001
 2.6881787700e+000	 1.6420094094e+000	-3.9615613310e-001
 2.6712629147e+000	 1.6693874448e+000	-4.3549495867e-001
 2.6540480393e+000	 1.6966228235e+000	-4.7564568431e-001
 2.6365358603e+000	 1.7237107232e+000	-5.1672083305e-001
 2.8203017217e+000	 1.4582603330e+000	-1.3487970110e-001
 2.8054010937e+000	 1.4867244882e+000	-1.7334611746e-001
 2.7901898679e+000	 1.5150793711e+000	-2.1141636698e-001
 2.7746690478e+000	 1.5433200171e+000	-2.4921044698e-001
 2.7588397402e+000	 1.5714414681e+000	-2.8685047443e-001
 2.7427031562e+000	 1.5994387757e+000	-3.2446056106e-001
 2.7262606105e+000	 1.6273070035e+000	-3.6216668405e-001
 2.7095135222e+000	 1.6550412301e+000	-4.0009655236e-001
 2.6924634140e+000	 1.6826365515e+000	-4.3837946887e-001
 2.6751119126e+000	 1.7100880840e+000	-4.7714618872e-001
 2.6574607481e+000	 1.7373909670e+000	-5.1652877381e-001
 2.8425088219e+000	 1.4697426978e+000	-1.3292485862e-001
 2.8274908661e+000	 1.4984309802e+000	-1.7353025477e-001
 2.8121598669e+000	 1.5270091300e+000	-2.1329460013e-001
 2.7965168356e+000	 1.5554721432e+000	-2.5235379965e-001
 2.7805628878e+000	 1.5838150230e+000	-2.9084641327e-001
 2.7642992440e+000	 1.6120327818e+000	-3.2891351838e-001
 2.7477272295e+000	 1.6401204445e+000	-3.6669856685e-001
 2.7308482743e+000	 1.6680730508e+000	-4.0434723696e-001
 2.7136639133e+000	 1.6958856582e+000	-4.4200728037e-001
 2.6961757859e+000	 1.7235533445e+000	-4.7982836444e-001
 2.6783856359e+000	 1.7510712108e+000	-5.1796191002e-001
 2.8647159220e+000	 1.4812250626e+000	-1.2848350952e-001
 2.8495806385e+000	 1.5101374722e+000	-1.7160921159e-001
 2.8341298659e+000	 1.5389388888e+000	-2.1345528716e-001
 2.8183646234e+000	 1.5676242694e+000	-2.5417340502e-001
 2.8022860354e+000	 1.5961885779e+000	-2.9391841962e-001
 2.7858953319e+000	 1.6246267879e+000	-3.3284822073e-001
 2.7691938485e+000	 1.6529338855e+000	-3.7112357709e-001
 2.7521830265e+000	 1.6811048715e+000	-4.0890797398e-001
 2.7348644126e+000	 1.7091347649e+000	-4.4636744514e-001
 2.7172396593e+000	 1.7370186050e+000	-4.8367039912e-001
 2.6993105237e+000	 1.7647514547e+000	-5.2098744050e-001
 2.8869230222e+000	 1.4927074274e+000	-1.2162435689e-001
 2.8716704108e+000	 1.5218439643e+000	-1.6764228078e-001
 2.8560998648e+000	 1.5508686476e+000	-2.1194815611e-001
 2.8402124111e+000	 1.5797763955e+000	-2.5470927561e-001
 2.8240091829e+000	 1.6085621327e+000	-2.9609664359e-001
 2.8074914197e+000	 1.6372207940e+000	-3.3628481311e-001
 2.7906604674e+000	 1.6657473264e+000	-3.7545171613e-001
 2.7735177786e+000	 1.6941366922e+000	-4.1377848694e-001
 2.7560649120e+000	 1.7223838716e+000	-4.5144927902e-001
 2.7383035326e+000	 1.7504838655e+000	-4.8865107565e-001
 2.7202354115e+000	 1.7784316985e+000	-5.2557349456e-001
 2.5109865337e+000	 1.6416292602e+000	-5.5396616928e-001
 2.4940268541e+000	 1.6672822350e+000	-6.0971465515e-001
 2.4767875899e+000	 1.6927856434e+000	-6.3153754828e-001
 2.4592706672e+000	 1.7181349730e+000	-6.5393383870e-001
 2.4414781082e+000	 1.7433257434e+000	-6.7673934172e-001
 2.4234120303e+000	 1.7683535086e+000	-6.9978733451e-001
 2.4050746461e+000	 1.7932138597e+000	-7.2290879710e-001
 2.3864682618e+000	 1.8179024274e+000	-7.4593265909e-001
 2.3675952769e+000	 1.8424148840e+000	-7.6868605140e-001
 2.3484581830e+000	 1.8667469467e+000	-7.9099456265e-001
 2.3290595627e+000	 1.8908943792e+000	-8.3255260180e-001
 2.5319114214e+000	 1.6553095040e+000	-5.4327708038e-001
 2.5148104112e+000	 1.6811762537e+000	-6.1121955905e-001
 2.4974274865e+000	 1.7068921905e+000	-6.7212128989e-001
 2.4797645894e+000	 1.7324527644e+000	-6.8739698518e-001
 2.4618237591e+000	 1.7578534579e+000	-7.0289380974e-001
 2.4436071306e+000	 1.7830897878e+000	-7.1844500279e-001
 2.4251169348e+000	 1.8081573086e+000	-7.3388168291e-001
 2.4063554973e+000	 1.8330516143e+000	-7.4903309831e-001
 2.3873252375e+000	 1.8577683414e+000	-7.6372688200e-001
 2.3680286678e+000	 1.8823031712e+000	-7.8684289621e-001
 2.3484683924e+000	 1.9066518324e+000	-8.3028066392e-001
 2.5528363092e+000	 1.6689897478e+000	-5.3443175034e-001
 2.5355939683e+000	 1.6950702723e+000	-5.9583885511e-001
 2.5180673831e+000	 1.7209987375e+000	-6.5794905574e-001
 2.5002585117e+000	 1.7467705559e+000	-7.2069374574e-001
 2.4821694100e+000	 1.7723811724e+000	-7.2973384189e-001
 2.4638022308e+000	 1.7978260671e+000	-7.3785535262e-001
 2.4451592235e+000	 1.8231007574e+000	-7.4567837049e-001
 2.4262427328e+000	 1.8482008012e+000	-7.5303238876e-001
 2.4070551982e+000	 1.8731217988e+000	-7.5974546606e-001
 2.3875991527e+000	 1.8978593958e+000	-7.9377486644e-001
 2.3678772221e+000	 1.9224092855e+000	-8.2884758220e-001
 2.5737611970e+000	 1.6826699917e+000	-5.2739094673e-001
 2.5563775254e+000	 1.7089642909e+000	-5.8228496779e-001
 2.5387072796e+000	 1.7351052845e+000	-6.3767012149e-001
 2.5207524339e+000	 1.7610883473e+000	-6.9348048078e-001
 2.5025150609e+000	 1.7869088869e+000	-7.4965005399e-001
 2.4839973311e+000	 1.8125623463e+000	-7.5798547555e-001
 2.4652015122e+000	 1.8380442062e+000	-7.5826479344e-001
 2.4461299684e+000	 1.8633499881e+000	-7.5789521652e-001
 2.4267851588e+000	 1.8884752561e+000	-7.7321874901e-001
 2.4071696375e+000	 1.9134156203e+000	-8.0146667637e-001
 2.3872860518e+000	 1.9381667387e+000	-8.2823824272e-001
 2.5946860848e+000	 1.6963502355e+000	-5.2211662009e-001
 2.5771610825e+000	 1.7228583095e+000	-5.7051861785e-001
 2.5593471762e+000	 1.7492118315e+000	-6.1920319632e-001
 2.5412463561e+000	 1.7754061388e+000	-6.6810711556e-001
 2.5228607118e+000	 1.8014366015e+000	-7.1716729358e-001
 2.5041924313e+000	 1.8272986255e+000	-7.6632085504e-001
 2.4852438010e+000	 1.8529876551e+000	-7.7160833943e-001
 2.4660172039e+000	 1.8784991749e+000	-7.6787186406e-001
 2.4465151195e+000	 1.9038287135e+000	-7.8969659369e-001
 2.4267401224e+000	 1.9289718449e+000	-8.0990675996e-001
 2.4066948815e+000	 1.9539241918e+000	-8.2843922394e-001
 2.6156109726e+000	 1.7100304793e+000	-5.1857185661e-001
 2.5979446396e+000	 1.7367523282e+000	-5.6050169802e-001
 2.5799870728e+000	 1.7633183786e+000	-6.0250889413e-001
 2.5617402783e+000	 1.7897239302e+000	-6.4453290018e-001
 2.5432063627e+000	 1.8159643160e+000	-6.8651354986e-001
 2.5243875316e+000	 1.8420349048e+000	-7.2839110250e-001
 2.5052860897e+000	 1.8679311039e+000	-7.7010628971e-001
 2.4859044394e+000	 1.8936483618e+000	-7.9280686744e-001
 2.4662450801e+000	 1.9191821709e+000	-8.0685473440e-001
 2.4463106072e+000	 1.9445280695e+000	-8.1908511462e-001
 2.4261037112e+000	 1.9696816450e+000	-8.2943872895e-001
 2.6365358603e+000	 1.7237107232e+000	-5.1672083305e-001
 2.6187281968e+000	 1.7506463468e+000	-5.5219722653e-001
 2.6006269694e+000	 1.7774249256e+000	-5.8754899192e-001
 2.5822342006e+000	 1.8040417216e+000	-6.2271828815e-001
 2.5635520136e+000	 1.8304920305e+000	-6.5764787108e-001
 2.5445826318e+000	 1.8567711840e+000	-6.9228113914e-001
 2.5253283784e+000	 1.8828745527e+000	-7.3619131310e-001
 2.5057916749e+000	 1.9087975487e+000	-8.0147936742e-001
 2.4859750407e+000	 1.9345356282e+000	-8.2468630564e-001
 2.4658810921e+000	 1.9600842940e+000	-8.2899323911e-001
 2.4455125409e+000	 1.9854390982e+000	-8.3122652107e-001
 2.6574607481e+000	 1.7373909670e+000	-5.1652877381e-001
 2.6395117539e+000	 1.7645403654e+000	-5.4556930277e-001
 2.6212668660e+000	 1.7915314726e+000	-5.7428638402e-001
 2.6027281228e+000	 1.8183595131e+000	-6.0262488906e-001
 2.5838976645e+000	 1.8450197450e+000	-6.3053050287e-001
 2.5647777321e+000	 1.8715074632e+000	-6.5794976797e-001
 2.5453706671e+000	 1.8978180015e+000	-7.1265929806e-001
 2.5256789104e+000	 1.9239467356e+000	-7.7044281910e-001
 2.5057050014e+000	 1.9498890856e+000	-8.2676341039e-001
 2.4854515770e+000	 1.9756405186e+000	-8.3962407447e-001
 2.4649213705e+000	 2.0011965513e+000	-8.3379386239e-001
 2.6783856359e+000	 1.7510712108e+000	-5.1796191002e-001
 2.6602953110e+000	 1.7784343840e+000	-5.4058306509e-001
 2.6419067626e+000	 1.8056380196e+000	-5.6268503841e-001
 2.6232220450e+000	 1.8326773045e+000	-5.8421542336e-001
 2.6042433154e+000	 1.8595474596e+000	-6.0512284147e-001
 2.5849728324e+000	 1.8862437425e+000	-6.3909168010e-001
 2.5654129558e+000	 1.9127614504e+000	-6.9083914856e-001
 2.5455661459e+000	 1.9390959225e+000	-7.4120268301e-001
 2.5254349620e+000	 1.9652425429e+000	-7.8991916691e-001
 2.5050220618e+000	 1.9911967431e+000	-8.3672600280e-001
 2.4843302002e+000	 2.0169540045e+000	-8.3713345523e-001
 2.6993105237e+000	 1.7647514547e+000	-5.2098744050e-001
 2.6810788681e+000	 1.7923284027e+000	-5.3720465050e-001
 2.6625466591e+000	 1.8197445667e+000	-5.5270995512e-001
 2.6437159673e+000	 1.8469950960e+000	-5.6745367936e-001
 2.6245889663e+000	 1.8740751741e+000	-5.8138738910e-001
 2.6051679326e+000	 1.9009800217e+000	-6.2614451116e-001
 2.5854552446e+000	 1.9277048992e+000	-6.7073448072e-001
 2.5654533815e+000	 1.9542451094e+000	-7.1376229095e-001
 2.5451649227e+000	 1.9805960003e+000	-7.5496142160e-001
 2.5245925467e+000	 2.0067529677e+000	-7.9406606664e-001
 2.5037390299e+000	 2.0327114576e+000	-8.3081166254e-001
 2.7202354115e+000	 1.7784316985e+000	-5.2557349456e-001
 2.7018624252e+000	 1.8062224213e+000	-5.3540115627e-001
 2.6831865557e+000	 1.8338511137e+000	-5.4432712656e-001
 2.6642098895e+000	 1.8613128874e+000	-5.5230447211e-001
 2.6449346172e+000	 1.8886028886e+000	-5.7585482462e-001
 2.6253630329e+000	 1.9157163009e+000	-6.1483612592e-001
 2.6054975333e+000	 1.9426483480e+000	-6.5235005435e-001
 2.5853406170e+000	 1.9693942963e+000	-6.8812616192e-001
 2.5648948833e+000	 1.9959494577e+000	-7.2189437059e-001
 2.5441630315e+000	 2.0223091922e+000	-7.5338551004e-001
 2.5231478596e+000	 2.0484689108e+000	-7.8233185675e-001
 2.3290595627e+000	 1.8908943792e+000	-8.3255260180e-001
 2.3094020889e+000	 1.9148529948e+000	-8.7930778741e-001
 2.2894885232e+000	 1.9386186582e+000	-9.2085157307e-001
 2.2693217148e+000	 1.9621872884e+000	-9.5732332373e-001
 2.2489045992e+000	 1.9855548604e+000	-9.8886828310e-001
 2.2282401967e+000	 2.0087174082e+000	-1.0156374187e+000
 2.2073316110e+000	 2.0316710262e+000	-1.0377872561e+000
 2.1861820279e+000	 2.0544118722e+000	-1.0554797027e+000
 2.1647947132e+000	 2.0769361689e+000	-1.0688818608e+000
 2.1431730113e+000	 2.0992402062e+000	-1.0781658319e+000
 2.1213203436e+000	 2.1213203435e+000	-1.0835085097e+000
 2.3484683924e+000	 1.9066518324e+000	-8.3028066392e-001
 2.3286471064e+000	 1.9308101031e+000	-8.7423525696e-001
 2.3085675943e+000	 1.9547738137e+000	-9.1370678741e-001
 2.2882327291e+000	 1.9785388491e+000	-9.4882426023e-001
 2.2676454708e+000	 2.0021011509e+000	-9.7972192263e-001
 2.2468088650e+000	 2.0254567199e+000	-1.0065391190e+000
 2.2257260411e+000	 2.0486016181e+000	-1.0294201362e+000
 2.2044002115e+000	 2.0715319712e+000	-1.0485140383e+000
 2.1828346691e+000	 2.0942439703e+000	-1.0639744929e+000
 2.1610327864e+000	 2.1167338746e+000	-1.0759595872e+000
 2.1389980131e+000	 2.1389980131e+000	-1.0846316357e+000
 2.3678772221e+000	 1.9224092855e+000	-8.2884758220e-001
 2.3478921238e+000	 1.9467672113e+000	-8.6964956836e-001
 2.3276466653e+000	 1.9709289692e+000	-9.0668393100e-001
 2.3071437434e+000	 1.9948904098e+000	-9.4006948179e-001
 2.2863863425e+000	 2.0186474414e+000	-9.6992964780e-001
 2.2653775333e+000	 2.0421960316e+000	-9.9639233630e-001
 2.2441204712e+000	 2.0655322100e+000	-1.0195897905e+000
 2.2226183951e+000	 2.0886520701e+000	-1.0396584359e+000
 2.2008746251e+000	 2.1115517717e+000	-1.0567387186e+000
 2.1788925615e+000	 2.1342275430e+000	-1.0709749341e+000
 2.1566756826e+000	 2.1566756826e+000	-1.0825150490e+000
 2.3872860518e+000	 1.9381667387e+000	-8.2823824272e-001
 2.3671371412e+000	 1.9627243196e+000	-8.6554383519e-001
 2.3467257363e+000	 1.9870841247e+000	-8.9978461558e-001
 2.3260547577e+000	 2.0112419706e+000	-9.3106936534e-001
 2.3051272142e+000	 2.0351937319e+000	-9.5951086392e-001
 2.2839462016e+000	 2.0589353434e+000	-9.8522576336e-001
 2.2625149013e+000	 2.0824628019e+000	-1.0083344544e+000
 2.2408365786e+000	 2.1057721690e+000	-1.0289609243e+000
 2.2189145810e+000	 2.1288595731e+000	-1.0472326065e+000
 2.1967523366e+000	 2.1517212114e+000	-1.0632802228e+000
 2.1743533521e+000	 2.1743533521e+000	-1.0772376177e+000
 2.4066948815e+000	 1.9539241918e+000	-8.2843922394e-001
 2.3863821586e+000	 1.9786814279e+000	-8.6191259922e-001
 2.3658048074e+000	 2.0032392801e+000	-8.9301160751e-001
 2.3449657720e+000	 2.0275935313e+000	-9.2183515952e-001
 2.3238680858e+000	 2.0517400224e+000	-9.4848555598e-001
 2.3025148699e+000	 2.0756746551e+000	-9.7306837177e-001
 2.2809093314e+000	 2.0993933938e+000	-9.9569233232e-001
 2.2590547622e+000	 2.1228922680e+000	-1.0164691825e+000
 2.2369545370e+000	 2.1461673745e+000	-1.0355135481e+000
 2.2146121117e+000	 2.1692148798e+000	-1.0529427902e+000
 2.1920310217e+000	 2.1920310217e+000	-1.0688768532e+000
 2.4261037112e+000	 1.9696816450e+000	-8.2943872895e-001
 2.4056271760e+000	 1.9946385362e+000	-8.5875177327e-001
 2.3848838784e+000	 2.0193944356e+000	-8.8636878152e-001
 2.3638767863e+000	 2.0439450920e+000	-9.1237894984e-001
 2.3426089575e+000	 2.0682863129e+000	-9.3687426550e-001
 2.3210835382e+000	 2.0924139668e+000	-9.5994940054e-001
 2.2993037615e+000	 2.1163239857e+000	-9.8170159836e-001
 2.2772729458e+000	 2.1400123669e+000	-1.0022305534e+000
 2.2549944929e+000	 2.1634751759e+000	-1.0216382844e+000
 2.2324718868e+000	 2.1867085482e+000	-1.0400290009e+000
 2.2097086912e+000	 2.2097086912e+000	-1.0575089640e+000
 2.4455125409e+000	 1.9854390982e+000	-8.3122652107e-001
 2.4248721934e+000	 2.0105956445e+000	-8.5605858680e-001
 2.4039629494e+000	 2.0355495911e+000	-8.7986107682e-001
 2.3827878006e+000	 2.0602966528e+000	-9.0271362546e-001
 2.3613498291e+000	 2.0848326034e+000	-9.2469806840e-001
 2.3396522065e+000	 2.1091532786e+000	-9.4589834557e-001
 2.3176981916e+000	 2.1332545775e+000	-9.6640039781e-001
 2.2954911293e+000	 2.1571324658e+000	-9.8629205732e-001
 2.2730344489e+000	 2.1807829773e+000	-1.0056629322e+000
 2.2503316619e+000	 2.2042022166e+000	-1.0246042853e+000
 2.2273863607e+000	 2.2273863607e+000	-1.0432089075e+000
 2.4649213705e+000	 2.0011965513e+000	-8.3379386239e-001
 2.4441172108e+000	 2.0265527528e+000	-8.5383153408e-001
 2.4230420204e+000	 2.0517047466e+000	-8.7349445509e-001
 2.4016988149e+000	 2.0766482135e+000	-8.9285284754e-001
 2.3800907008e+000	 2.1013788939e+000	-9.1197855398e-001
 2.3582208748e+000	 2.1258925903e+000	-9.3094494950e-001
 2.3360926217e+000	 2.1501851694e+000	-9.4982684824e-001
 2.3137093129e+000	 2.1742525648e+000	-9.6870040446e-001
 2.2910744048e+000	 2.1980907787e+000	-9.8764300834e-001
 2.2681914370e+000	 2.2216958849e+000	-1.0067331767e+000
 2.2450640303e+000	 2.2450640303e+000	-1.0260504389e+000
 2.4843302002e+000	 2.0169540045e+000	-8.3713345523e-001
 2.4633622282e+000	 2.0425098611e+000	-8.5207032480e-001
 2.4421210915e+000	 2.0678599021e+000	-8.6727586061e-001
 2.4206098292e+000	 2.0929997742e+000	-8.8281101908e-001
 2.3988315725e+000	 2.1179251844e+000	-8.9873780488e-001
 2.3767895431e+000	 2.1426319020e+000	-9.1511919209e-001
 2.3544870518e+000	 2.1671157613e+000	-9.3201904053e-001
 2.3319274965e+000	 2.1913726637e+000	-9.4950200721e-001
 2.3091143607e+000	 2.2153985802e+000	-9.6763345325e-001
 2.2860512121e+000	 2.2391895533e+000	-9.8647934635e-001
 2.2627416998e+000	 2.2627416998e+000	-1.0061061591e+000
 2.5037390299e+000	 2.0327114576e+000	-8.3081166254e-001
 2.4826072456e+000	 2.0584669694e+000	-8.5077583693e-001
 2.4612001625e+000	 2.0840150576e+000	-8.6121318217e-001
 2.4395208435e+000	 2.1093513350e+000	-8.7260325620e-001
 2.4175724441e+000	 2.1344714749e+000	-8.8499837793e-001
 2.3953582114e+000	 2.1593712138e+000	-8.9845128104e-001
 2.3728814819e+000	 2.1840463532e+000	-9.1301503997e-001
 2.3501456800e+000	 2.2084927626e+000	-9.2874299163e-001
 2.3271543167e+000	 2.2327063816e+000	-9.4568865329e-001
 2.3039109872e+000	 2.2566832217e+000	-9.6390563663e-001
 2.2804193693e+000	 2.2804193693e+000	-9.8344755818e-001
 2.5231478596e+000	 2.0484689108e+000	-7.8233185675e-001
 2.5018522630e+000	 2.0744240777e+000	-8.4488399945e-001
 2.4802792335e+000	 2.1001702130e+000	-8.5531521670e-001
 2.4584318577e+000	 2.1257028957e+000	-8.6224536067e-001
 2.4363133158e+000	 2.1510177654e+000	-8.7078328593e-001
 2.4139268797e+000	 2.1761105255e+000	-8.8097164321e-001
 2.3912759120e+000	 2.2009769451e+000	-8.9285288719e-001
 2.3683638636e+000	 2.2256128616e+000	-9.0646920844e-001
 2.3451942726e+000	 2.2500141830e+000	-9.2186246207e-001
 2.3217707623e+000	 2.2741768901e+000	-9.3907409315e-001
 2.2980970388e+000	 2.2980970388e+000	-9.5814505923e-001
 2.1213203436e+000	 2.1213203435e+000	-1.0835085097e+000
 2.0992402062e+000	 2.1431730113e+000	-1.0782086163e+000
 2.0769361689e+000	 2.1647947132e+000	-1.0745381912e+000
 2.0544118722e+000	 2.1861820279e+000	-1.0725485886e+000
 2.0316710262e+000	 2.2073316110e+000	-1.0722899903e+000
 2.0087174082e+000	 2.2282401967e+000	-1.0738113153e+000
 1.9855548604e+000	 2.2489045992e+000	-1.0771601302e+000
 1.9621872884e+000	 2.2693217148e+000	-1.0823825587e+000
 1.9386186582e+000	 2.2894885232e+000	-1.0895231910e+000
 1.9148529948e+000	 2.3094020889e+000	-1.0986249935e+000
 1.8908943792e+000	 2.3290595627e+000	-1.1097292189e+000
 2.1389980131e+000	 2.1389980131e+000	-1.0846316357e+000
 2.1167338746e+000	 2.1610327864e+000	-1.0796100080e+000
 2.0942439703e+000	 2.1828346691e+000	-1.0754664001e+000
 2.0715319712e+000	 2.2044002115e+000	-1.0722720474e+000
 2.0486016181e+000	 2.2257260411e+000	-1.0700977415e+000
 2.0254567199e+000	 2.2468088650e+000	-1.0690137168e+000
 2.0021011509e+000	 2.2676454708e+000	-1.0690895357e+000
 1.9785388491e+000	 2.2882327291e+000	-1.0703939733e+000
 1.9547738137e+000	 2.3085675943e+000	-1.0729948998e+000
 1.9308101031e+000	 2.3286471064e+000	-1.0769591637e+000
 1.9066518324e+000	 2.3484683924e+000	-1.0823524730e+000
 2.1566756826e+000	 2.1566756826e+000	-1.0825150490e+000
 2.1342275430e+000	 2.1788925615e+000	-1.0781929184e+000
 2.1115517717e+000	 2.2008746251e+000	-1.0740087950e+000
 2.0886520701e+000	 2.2226183951e+000	-1.0700536035e+000
 2.0655322100e+000	 2.2441204712e+000	-1.0664185475e+000
 2.0421960316e+000	 2.2653775333e+000	-1.0631949731e+000
 2.0186474414e+000	 2.2863863425e+000	-1.0604742294e+000
 1.9948904098e+000	 2.3071437434e+000	-1.0583475277e+000
 1.9709289692e+000	 2.3276466653e+000	-1.0569057980e+000
 1.9467672113e+000	 2.3478921238e+000	-1.0562395450e+000
 1.9224092855e+000	 2.3678772221e+000	-1.0564387015e+000
 2.1743533521e+000	 2.1743533521e+000	-1.0772376177e+000
 2.1517212114e+000	 2.1967523366e+000	-1.0740251713e+000
 2.1288595731e+000	 2.2189145810e+000	-1.0702218390e+000
 2.1057721690e+000	 2.2408365786e+000	-1.0659380493e+000
 2.0824628019e+000	 2.2625149013e+000	-1.0612852260e+000
 2.0589353434e+000	 2.2839462016e+000	-1.0563756294e+000
 2.0351937319e+000	 2.3051272142e+000	-1.0513221922e+000
 2.0112419706e+000	 2.3260547577e+000	-1.0462383533e+000
 1.9870841247e+000	 2.3467257363e+000	-1.0412378889e+000
 1.9627243196e+000	 2.3671371412e+000	-1.0364347410e+000
 1.9381667387e+000	 2.3872860518e+000	-1.0319428438e+000
 2.1920310217e+000	 2.1920310217e+000	-1.0688768532e+000
 2.1692148798e+000	 2.2146121117e+000	-1.0671735839e+000
 2.1461673745e+000	 2.2369545370e+000	-1.0641613495e+000
 2.1228922680e+000	 2.2590547622e+000	-1.0599699013e+000
 2.0993933938e+000	 2.2809093314e+000	-1.0547306980e+000
 2.0756746551e+000	 2.3025148699e+000	-1.0485767220e+000
 2.0517400224e+000	 2.3238680858e+000	-1.0416422927e+000
 2.0275935313e+000	 2.3449657720e+000	-1.0340628748e+000
 2.0032392801e+000	 2.3658048074e+000	-1.0259748832e+000
 1.9786814279e+000	 2.3863821586e+000	-1.0175154852e+000
 1.9539241918e+000	 2.4066948815e+000	-1.0088223992e+000
 2.2097086912e+000	 2.2097086912e+000	-1.0575089640e+000
 2.1867085482e+000	 2.2324718868e+000	-1.0577040078e+000
 2.1634751759e+000	 2.2549944929e+000	-1.0558825237e+000
 2.1400123669e+000	 2.2772729458e+000	-1.0521934114e+000
 2.1163239857e+000	 2.2993037615e+000	-1.0467879833e+000
 2.0924139668e+000	 2.3210835382e+000	-1.0398197587e+000
 2.0682863129e+000	 2.3426089575e+000	-1.0314442526e+000
 2.0439450920e+000	 2.3638767863e+000	-1.0218187590e+000
 2.0193944356e+000	 2.3848838784e+000	-1.0111021309e+000
 1.9946385362e+000	 2.4056271760e+000	-9.9945455516e-001
 1.9696816450e+000	 2.4261037112e+000	-9.8703732432e-001
 2.2273863607e+000	 2.2273863607e+000	-1.0432089075e+000
 2.2042022166e+000	 2.2503316619e+000	-1.0456813668e+000
 2.1807829773e+000	 2.2730344489e+000	-1.0454399640e+000
 2.1571324658e+000	 2.2954911293e+000	-1.0426525770e+000
 2.1332545775e+000	 2.3176981916e+000	-1.0374901972e+000
 2.1091532786e+000	 2.3396522065e+000	-1.0301267004e+000
 2.0848326034e+000	 2.3613498291e+000	-1.0207386119e+000
 2.0602966528e+000	 2.3827878006e+000	-1.0095048651e+000
 2.0355495911e+000	 2.4039629494e+000	-9.9660655619e-001
 2.0105956445e+000	 2.4248721934e+000	-9.8222669205e-001
 1.9854390982e+000	 2.4455125409e+000	-9.6654993556e-001
 2.2450640303e+000	 2.2450640303e+000	-1.0260504389e+000
 2.2216958849e+000	 2.2681914370e+000	-1.0311696937e+000
 2.1980907787e+000	 2.2910744048e+000	-1.0328877005e+000
 2.1742525648e+000	 2.3137093129e+000	-1.0313911511e+000
 2.1501851694e+000	 2.3360926217e+000	-1.0268705461e+000
 2.1258925903e+000	 2.3582208748e+000	-1.0195199429e+000
 2.1013788939e+000	 2.3800907008e+000	-1.0095366974e+000
 2.0766482135e+000	 2.4016988149e+000	-9.9712119821e-001
 2.0517047466e+000	 2.4230420204e+000	-9.8247659543e-001
 2.0265527528e+000	 2.4441172108e+000	-9.6580852295e-001
 2.0011965513e+000	 2.4649213705e+000	-9.4732481629e-001
 2.2627416998e+000	 2.2627416998e+000	-1.0061061591e+000
 2.2391895533e+000	 2.2860512121e+000	-1.0142321649e+000
 2.2153985802e+000	 2.3091143607e+000	-1.0182792139e+000
 2.1913726637e+000	 2.3319274965e+000	-1.0184526521e+000
 2.1671157613e+000	 2.3544870518e+000	-1.0149623243e+000
 2.1426319020e+000	 2.3767895431e+000	-1.0080223001e+000
 2.1179251844e+000	 2.3988315725e+000	-9.9785059159e-001
 2.0929997742e+000	 2.4206098292e+000	-9.8466886399e-001
 2.0678599021e+000	 2.4421210915e+000	-9.6870213812e-001
 2.0425098611e+000	 2.4633622282e+000	-9.5017848733e-001
 2.0169540045e+000	 2.4843302002e+000	-9.2932872827e-001
 2.2804193693e+000	 2.2804193693e+000	-9.8344755818e-001
 2.2566832217e+000	 2.3039109872e+000	-9.9493113366e-001
 2.2327063816e+000	 2.3271543167e+000	-1.0016674569e+000
 2.2084927626e+000	 2.3501456800e+000	-1.0038803727e+000
 2.1840463532e+000	 2.3728814819e+000	-1.0017989105e+000
 2.1593712138e+000	 2.3953582114e+000	-9.9565698756e-001
 2.1344714749e+000	 2.4175724441e+000	-9.8569310356e-001
 2.1093513350e+000	 2.4395208435e+000	-9.7215002649e-001
 2.0840150576e+000	 2.4612001625e+000	-9.5527447053e-001
 2.0584669694e+000	 2.4826072456e+000	-9.3531676675e-001
 2.0327114576e+000	 2.5037390299e+000	-9.1867399355e-001
 2.2980970388e+000	 2.2980970388e+000	-9.5814505923e-001
 2.2741768901e+000	 2.3217707623e+000	-9.7332816202e-001
 2.2500141830e+000	 2.3451942726e+000	-9.8310487395e-001
 2.2256128616e+000	 2.3683638636e+000	-9.8771738850e-001
 2.2009769451e+000	 2.3912759120e+000	-9.8741376453e-001
 2.1761105255e+000	 2.4139268797e+000	-9.8244760755e-001
 2.1510177654e+000	 2.4363133158e+000	-9.7307774085e-001
 2.1257028957e+000	 2.4584318577e+000	-9.5956786726e-001
 2.1001702130e+000	 2.4802792335e+000	-9.4218622206e-001
 2.0744240777e+000	 2.5018522630e+000	-9.2429472996e-001
 2.0484689108e+000	 2.5231478596e+000	-9.3514475615e-001
 1.8908943792e+000	 2.3290595627e+000	-1.1097292189e+000
 1.8667469467e+000	 2.3484581830e+000	-1.1598351553e+000
 1.8424148840e+000	 2.3675952769e+000	-1.1421963313e+000
 1.8179024274e+000	 2.3864682618e+000	-1.1235628690e+000
 1.7932138597e+000	 2.4050746461e+000	-1.1038509435e+000
 1.7683535086e+000	 2.4234120303e+000	-1.0829728279e+000
 1.7433257434e+000	 2.4414781082e+000	-1.0608370427e+000
 1.7181349730e+000	 2.4592706672e+000	-1.0373485150e+000
 1.6927856434e+000	 2.4767875899e+000	-1.0124087479e+000
 1.6672822350e+000	 2.4940268541e+000	-9.8591599918e-001
 1.6416292602e+000	 2.5109865337e+000	-9.7502862608e-001
 1.9066518324e+000	 2.3484683924e+000	-1.0823524730e+000
 1.8823031712e+000	 2.3680286678e+000	-1.1590882951e+000
 1.8577683414e+000	 2.3873252375e+000	-1.1643228964e+000
 1.8330516143e+000	 2.4063554973e+000	-1.1381681442e+000
 1.8081573086e+000	 2.4251169348e+000	-1.1111635758e+000
 1.7830897878e+000	 2.4436071306e+000	-1.0832063318e+000
 1.7578534579e+000	 2.4618237591e+000	-1.0541895732e+000
 1.7324527644e+000	 2.4797645894e+000	-1.0240026594e+000
 1.7068921905e+000	 2.4974274865e+000	-9.9253133740e-001
 1.6811762537e+000	 2.5148104112e+000	-9.8244648212e-001
 1.6553095040e+000	 2.5319114214e+000	-9.7456879416e-001
 1.9224092855e+000	 2.3678772221e+000	-1.0564387015e+000
 1.8978593958e+000	 2.3875991527e+000	-1.1245198656e+000
 1.8731217988e+000	 2.4070551982e+000	-1.1861181824e+000
 1.8482008012e+000	 2.4262427328e+000	-1.1520825703e+000
 1.8231007574e+000	 2.4451592235e+000	-1.1174270559e+000
 1.7978260671e+000	 2.4638022308e+000	-1.0820338116e+000
 1.7723811724e+000	 2.4821694100e+000	-1.0457807988e+000
 1.7467705559e+000	 2.5002585117e+000	-1.0089350863e+000
 1.7209987375e+000	 2.5180673831e+000	-9.9759130688e-001
 1.6950702723e+000	 2.5355939683e+000	-9.8456911046e-001
 1.6689897478e+000	 2.5528363092e+000	-9.6993791783e-001
 1.9381667387e+000	 2.3872860518e+000	-1.0319428438e+000
 1.9134156203e+000	 2.4071696375e+000	-1.0909756905e+000
 1.8884752561e+000	 2.4267851588e+000	-1.1515893848e+000
 1.8633499881e+000	 2.4461299684e+000	-1.1651764927e+000
 1.8380442062e+000	 2.4652015122e+000	-1.1225212933e+000
 1.8125623463e+000	 2.4839973311e+000	-1.0793448210e+000
 1.7869088869e+000	 2.5025150609e+000	-1.0393231653e+000
 1.7610883473e+000	 2.5207524339e+000	-1.0221222798e+000
 1.7351052845e+000	 2.5387072796e+000	-1.0033216536e+000
 1.7089642909e+000	 2.5563775254e+000	-9.8298667904e-001
 1.6826699917e+000	 2.5737611970e+000	-9.6117912257e-001
 1.9539241918e+000	 2.4066948815e+000	-1.0088223992e+000
 1.9289718449e+000	 2.4267401224e+000	-1.0584217049e+000
 1.9038287135e+000	 2.4465151195e+000	-1.1098084530e+000
 1.8784991749e+000	 2.4660172039e+000	-1.1628886451e+000
 1.8529876551e+000	 2.4852438010e+000	-1.1263275765e+000
 1.8272986255e+000	 2.5041924313e+000	-1.0814134248e+000
 1.8014366015e+000	 2.5228607118e+000	-1.0576973463e+000
 1.7754061388e+000	 2.5412463561e+000	-1.0324715846e+000
 1.7492118315e+000	 2.5593471762e+000	-1.0057977898e+000
 1.7228583095e+000	 2.5771610825e+000	-9.7773414945e-001
 1.6963502355e+000	 2.5946860848e+000	-9.4833510805e-001
 1.9696816450e+000	 2.4261037112e+000	-9.8703732432e-001
 1.9445280695e+000	 2.4463106072e+000	-1.0268260201e+000
 1.9191821709e+000	 2.4662450801e+000	-1.0686064022e+000
 1.8936483618e+000	 2.4859044394e+000	-1.1122728459e+000
 1.8679311039e+000	 2.5052860897e+000	-1.1368705220e+000
 1.8420349048e+000	 2.5243875316e+000	-1.1059712507e+000
 1.8159643160e+000	 2.5432063627e+000	-1.0736626793e+000
 1.7897239302e+000	 2.5617402783e+000	-1.0400030053e+000
 1.7633183786e+000	 2.5799870728e+000	-1.0050471289e+000
 1.7367523282e+000	 2.5979446396e+000	-9.6884636495e-001
 1.7100304793e+000	 2.6156109726e+000	-9.3144816513e-001
 1.9854390982e+000	 2.4455125409e+000	-9.6654993556e-001
 1.9600842940e+000	 2.4658810921e+000	-9.9615883753e-001
 1.9345356282e+000	 2.4859750407e+000	-1.0279613495e+000
 1.9087975487e+000	 2.5057916749e+000	-1.0709092694e+000
 1.8828745527e+000	 2.5253283784e+000	-1.1366692376e+000
 1.8567711840e+000	 2.5445826318e+000	-1.1285353080e+000
 1.8304920305e+000	 2.5635520136e+000	-1.0872325027e+000
 1.8040417216e+000	 2.5822342006e+000	-1.0447369893e+000
 1.7774249256e+000	 2.6006269694e+000	-1.0010972496e+000
 1.7506463468e+000	 2.6187281968e+000	-9.5635805523e-001
 1.7237107232e+000	 2.6365358603e+000	-9.1056019212e-001
 2.0011965513e+000	 2.4649213705e+000	-9.4732481629e-001
 1.9756405186e+000	 2.4854515770e+000	-9.6639236610e-001
 1.9498890856e+000	 2.5057050014e+000	-9.9693421278e-001
 1.9239467356e+000	 2.5256789104e+000	-1.0518370380e+000
 1.8978180015e+000	 2.5453706671e+000	-1.1073358947e+000
 1.8715074632e+000	 2.5647777321e+000	-1.1491128074e+000
 1.8450197450e+000	 2.5838976645e+000	-1.0984208462e+000
 1.8183595131e+000	 2.6027281228e+000	-1.0466944093e+000
 1.7915314726e+000	 2.6212668660e+000	-9.9397588893e-001
 1.7645403654e+000	 2.6395117539e+000	-9.4030384083e-001
 1.7373909670e+000	 2.6574607481e+000	-8.8571271019e-001
 2.0169540045e+000	 2.4843302002e+000	-9.2932872827e-001
 1.9911967431e+000	 2.5050220618e+000	-9.4562437226e-001
 1.9652425429e+000	 2.5254349620e+000	-9.8886087123e-001
 1.9390959225e+000	 2.5455661459e+000	-1.0330791022e+000
 1.9127614504e+000	 2.5654129558e+000	-1.0779589105e+000
 1.8862437425e+000	 2.5849728324e+000	-1.1231879697e+000
 1.8595474596e+000	 2.6042433154e+000	-1.1072424045e+000
 1.8326773045e+000	 2.6232220450e+000	-1.0458965467e+000
 1.8056380196e+000	 2.6419067626e+000	-9.8371093598e-001
 1.7784343840e+000	 2.6602953110e+000	-9.2071823743e-001
 1.7510712108e+000	 2.6783856359e+000	-8.5694687815e-001
 2.0327114576e+000	 2.5037390299e+000	-9.1867399355e-001
 2.0067529677e+000	 2.5245925467e+000	-9.4940661167e-001
 1.9805960003e+000	 2.5451649227e+000	-9.8153925180e-001
 1.9542451094e+000	 2.5654533815e+000	-1.0147285419e+000
 1.9277048992e+000	 2.5854552446e+000	-1.0486388217e+000
 1.9009800217e+000	 2.6051679326e+000	-1.0829425209e+000
 1.8740751741e+000	 2.6245889663e+000	-1.1137125107e+000
 1.8469950960e+000	 2.6437159673e+000	-1.0423650757e+000
 1.8197445667e+000	 2.6625466591e+000	-9.7033042628e-001
 1.7923284027e+000	 2.6810788681e+000	-8.9763565988e-001
 1.7647514547e+000	 2.6993105237e+000	-8.2430350645e-001
 2.0484689108e+000	 2.5231478596e+000	-9.3514475615e-001
 2.0223091922e+000	 2.5441630315e+000	-9.5435848164e-001
 1.9959494577e+000	 2.5648948833e+000	-9.7505648463e-001
 1.9693942963e+000	 2.5853406170e+000	-9.9687975559e-001
 1.9426483480e+000	 2.6054975333e+000	-1.0194772496e+000
 1.9157163009e+000	 2.6253630329e+000	-1.0425062818e+000
 1.8886028886e+000	 2.6449346172e+000	-1.0656328954e+000
 1.8613128874e+000	 2.6642098895e+000	-1.0361220485e+000
 1.8338511137e+000	 2.6831865557e+000	-9.5386253601e-001
 1.8062224213e+000	 2.7018624252e+000	-8.7109042614e-001
 1.7784316985e+000	 2.7202354115e+000	-7.8782307062e-001
 1.6416292602e+000	 2.5109865337e+000	-9.7502862608e-001
 1.6158312605e+000	 2.5276647993e+000	-9.6468812133e-001
 1.5898928045e+000	 2.5440599187e+000	-9.5037186528e-001
 1.5638184851e+000	 2.5601702572e+000	-9.3228786960e-001
 1.5376129167e+000	 2.5759942776e+000	-9.1064078565e-001
 1.5112807329e+000	 2.5915305413e+000	-8.8563151710e-001
 1.4848265841e+000	 2.6067777073e+000	-8.5745684579e-001
 1.4582551343e+000	 2.6217345334e+000	-8.2630907188e-001
 1.4315710593e+000	 2.6363998752e+000	-7.9237566867e-001
 1.4047790439e+000	 2.6507726869e+000	-7.5583895313e-001
 1.3778837792e+000	 2.6648520205e+000	-7.1687577239e-001
 1.6553095040e+000	 2.5319114214e+000	-9.7456879416e-001
 1.6292965210e+000	 2.5487286726e+000	-9.6186760888e-001
 1.6031419112e+000	 2.5652604181e+000	-9.4554921999e-001
 1.5768503058e+000	 2.5815050093e+000	-9.2584689710e-001
 1.5504263577e+000	 2.5974608966e+000	-9.0298998101e-001
 1.5238747391e+000	 2.6131266291e+000	-8.7720346939e-001
 1.4972001389e+000	 2.6285008549e+000	-8.4870761704e-001
 1.4704072604e+000	 2.6435823211e+000	-8.1771755126e-001
 1.4435008182e+000	 2.6583698742e+000	-7.8444290348e-001
 1.4164855360e+000	 2.6728624593e+000	-7.4908745749e-001
 1.3893661440e+000	 2.6870591207e+000	-7.1184881514e-001
 1.6689897478e+000	 2.5528363092e+000	-9.6993791783e-001
 1.6427617815e+000	 2.5697925460e+000	-9.5534512326e-001
 1.6163910179e+000	 2.5864609174e+000	-9.3749025493e-001
 1.5898821265e+000	 2.6028397614e+000	-9.1663176281e-001
 1.5632397986e+000	 2.6189275156e+000	-8.9302360110e-001
 1.5364687452e+000	 2.6347227169e+000	-8.6691478707e-001
 1.5095736938e+000	 2.6502240024e+000	-8.3854897542e-001
 1.4825593865e+000	 2.6654301089e+000	-8.0816404910e-001
 1.4554305770e+000	 2.6803398731e+000	-7.7599172748e-001
 1.4281920280e+000	 2.6949522317e+000	-7.4225719235e-001
 1.4008485088e+000	 2.7092662209e+000	-7.0717873268e-001
 1.6826699917e+000	 2.5737611970e+000	-9.6117912257e-001
 1.6562270420e+000	 2.5908564193e+000	-9.4514992227e-001
 1.6296401246e+000	 2.6076614167e+000	-9.2621049107e-001
 1.6029139472e+000	 2.6241745136e+000	-9.0464438879e-001
 1.5760532396e+000	 2.6403941346e+000	-8.8073011403e-001
 1.5490627513e+000	 2.6563188048e+000	-8.5474063602e-001
 1.5219472487e+000	 2.6719471500e+000	-8.2694294308e-001
 1.4947115126e+000	 2.6872778967e+000	-7.9759760883e-001
 1.4673603358e+000	 2.7023098721e+000	-7.6695837675e-001
 1.4398985200e+000	 2.7170420041e+000	-7.3527176402e-001
 1.4123308736e+000	 2.7314733210e+000	-7.0277668525e-001
 1.6963502355e+000	 2.5946860848e+000	-9.4833510805e-001
 1.6696923025e+000	 2.6119202926e+000	-9.3131124219e-001
 1.6428892313e+000	 2.6288619160e+000	-9.1172582811e-001
 1.6159457679e+000	 2.6455092657e+000	-8.8988747193e-001
 1.5888666806e+000	 2.6618607536e+000	-8.6609915447e-001
 1.5616567574e+000	 2.6779148926e+000	-8.4065773591e-001
 1.5343208035e+000	 2.6936702975e+000	-8.1385347850e-001
 1.5068636388e+000	 2.7091256845e+000	-7.8596958783e-001
 1.4792900947e+000	 2.7242798711e+000	-7.5728177399e-001
 1.4516050121e+000	 2.7391317765e+000	-7.2805783300e-001
 1.4238132385e+000	 2.7536804212e+000	-6.9855724950e-001
 1.7100304793e+000	 2.6156109726e+000	-9.3144816513e-001
 1.6831575630e+000	 2.6329841659e+000	-9.1385829861e-001
 1.6561383380e+000	 2.6500624153e+000	-8.9405252932e-001
 1.6289775887e+000	 2.6668440179e+000	-8.7236445296e-001
 1.6016801216e+000	 2.6833273725e+000	-8.4912147695e-001
 1.5742507635e+000	 2.6995109805e+000	-8.2464429805e-001
 1.5466943584e+000	 2.7153934451e+000	-7.9924639896e-001
 1.5190157649e+000	 2.7309734722e+000	-7.7323356493e-001
 1.4912198535e+000	 2.7462498700e+000	-7.4690342115e-001
 1.4633115041e+000	 2.7612215489e+000	-7.2054499184e-001
 1.4352956033e+000	 2.7758875214e+000	-6.9443828185e-001
 1.7237107232e+000	 2.6365358603e+000	-9.1056019212e-001
 1.6966228235e+000	 2.6540480393e+000	-8.9282028724e-001
 1.6693874448e+000	 2.6712629147e+000	-8.7320720715e-001
 1.6420094094e+000	 2.6881787700e+000	-8.5207948692e-001
 1.6144935625e+000	 2.7047939915e+000	-8.2978891151e-001
 1.5868447696e+000	 2.7211070683e+000	-8.0667996614e-001
 1.5590679133e+000	 2.7371165927e+000	-7.8308930687e-001
 1.5311678910e+000	 2.7528212600e+000	-7.5934525224e-001
 1.5031496123e+000	 2.7682198690e+000	-7.3576729700e-001
 1.4750179961e+000	 2.7833113213e+000	-7.1266564875e-001
 1.4467779681e+000	 2.7980946215e+000	-6.9034078832e-001
 1.7373909670e+000	 2.6574607481e+000	-8.8571271019e-001
 1.7100880840e+000	 2.6751119126e+000	-8.6822638474e-001
 1.6826365515e+000	 2.6924634140e+000	-8.4920680943e-001
 1.6550412301e+000	 2.7095135222e+000	-8.2903741503e-001
 1.6273070035e+000	 2.7262606105e+000	-8.0809432127e-001
 1.5994387757e+000	 2.7427031562e+000	-7.8674575997e-001
 1.5714414681e+000	 2.7588397402e+000	-7.6535151944e-001
 1.5433200171e+000	 2.7746690478e+000	-7.4426241115e-001
 1.5150793711e+000	 2.7901898679e+000	-7.2381975965e-001
 1.4867244882e+000	 2.8054010937e+000	-7.0435491675e-001
 1.4582603330e+000	 2.8203017217e+000	-6.8618880056e-001
 1.7510712108e+000	 2.6783856359e+000	-8.5694687815e-001
 1.7235533445e+000	 2.6961757859e+000	-8.4010574940e-001
 1.6958856582e+000	 2.7136639133e+000	-8.2206860630e-001
 1.6680730508e+000	 2.7308482743e+000	-8.0324373790e-001
 1.6401204445e+000	 2.7477272295e+000	-7.8403156212e-001
 1.6120327818e+000	 2.7642992440e+000	-7.6482402159e-001
 1.5838150230e+000	 2.7805628878e+000	-7.4600400170e-001
 1.5554721432e+000	 2.7965168356e+000	-7.2794477228e-001
 1.5270091300e+000	 2.8121598669e+000	-7.1100945362e-001
 1.4984309802e+000	 2.8274908661e+000	-6.9555050805e-001
 1.4697426978e+000	 2.8425088219e+000	-6.8190925763e-001
 1.7647514547e+000	 2.6993105237e+000	-8.2430350645e-001
 1.7370186050e+000	 2.7172396593e+000	-8.0848752194e-001
 1.7091347649e+000	 2.7348644126e+000	-7.9181017774e-001
 1.6811048715e+000	 2.7521830265e+000	-7.7470458996e-001
 1.6529338855e+000	 2.7691938485e+000	-7.5759544424e-001
 1.6246267879e+000	 2.7858953319e+000	-7.4089836408e-001
 1.5961885779e+000	 2.8022860354e+000	-7.2501930264e-001
 1.5676242694e+000	 2.8183646234e+000	-7.1035395918e-001
 1.5389388888e+000	 2.8341298659e+000	-6.9728722120e-001
 1.5101374722e+000	 2.8495806385e+000	-6.8619263326e-001
 1.4812250626e+000	 2.8647159220e+000	-6.7743189331e-001
 1.7784316985e+000	 2.7202354115e+000	-7.8782307062e-001
 1.7504838655e+000	 2.7383035326e+000	-7.7340082607e-001
 1.7223838716e+000	 2.7560649120e+000	-7.5844940160e-001
 1.6941366922e+000	 2.7735177786e+000	-7.4342671512e-001
 1.6657473264e+000	 2.7906604674e+000	-7.2878169538e-001
 1.6372207940e+000	 2.8074914197e+000	-7.1495362268e-001
 1.6085621327e+000	 2.8240091829e+000	-7.0237149427e-001
 1.5797763955e+000	 2.8402124111e+000	-6.9145341549e-001
 1.5508686476e+000	 2.8560998648e+000	-6.8260601792e-001
 1.5218439643e+000	 2.8716704108e+000	-6.7622390535e-001
 1.4927074274e+000	 2.8869230222e+000	-6.7268912867e-001
 1.3778837792e+000	 2.6648520205e+000	-7.1687577239e-001
 1.3508899601e+000	 2.6786370258e+000	-7.2671270064e-001
 1.3238022833e+000	 2.6921269500e+000	-7.3284742825e-001
 1.2966254442e+000	 2.7053211376e+000	-7.3530551543e-001
 1.2693641349e+000	 2.7182190297e+000	-7.3410845737e-001
 1.2420230416e+000	 2.7308201633e+000	-7.1647606100e-001
 1.2146068424e+000	 2.7431241712e+000	-6.6108212327e-001
 1.1871202048e+000	 2.7551307808e+000	-5.9789528692e-001
 1.1595677832e+000	 2.7668398140e+000	-5.2755840065e-001
 1.1319542172e+000	 2.7782511856e+000	-4.5067327838e-001
 1.1042841287e+000	 2.7893649032e+000	-3.6780064713e-001
 1.3893661440e+000	 2.6870591207e+000	-7.1184881514e-001
 1.3621473764e+000	 2.7009590010e+000	-7.1993163828e-001
 1.3348339690e+000	 2.7145613413e+000	-7.2458269159e-001
 1.3074306562e+000	 2.7278654804e+000	-7.2583216112e-001
 1.2799421693e+000	 2.7408708549e+000	-7.2370583411e-001
 1.2523732336e+000	 2.7535769980e+000	-7.1822497487e-001
 1.2247285661e+000	 2.7659835393e+000	-6.6518570317e-001
 1.1970128732e+000	 2.7780902040e+000	-6.0103840666e-001
 1.1692308481e+000	 2.7898968124e+000	-5.3041495870e-001
 1.1413871690e+000	 2.8014032788e+000	-4.5392835075e-001
 1.1134864964e+000	 2.8126096107e+000	-3.7214885450e-001
 1.4008485088e+000	 2.7092662209e+000	-7.0717873268e-001
 1.3734047928e+000	 2.7232809762e+000	-7.1353147705e-001
 1.3458656546e+000	 2.7369957325e+000	-7.1672454249e-001
 1.3182358682e+000	 2.7504098233e+000	-7.1679283353e-001
 1.2905202038e+000	 2.7635226802e+000	-7.1376651826e-001
 1.2627234256e+000	 2.7763338327e+000	-7.0767089907e-001
 1.2348502898e+000	 2.7888429074e+000	-6.7122862640e-001
 1.2069055415e+000	 2.8010496272e+000	-6.0624004371e-001
 1.1788939129e+000	 2.8129538109e+000	-5.3546932081e-001
 1.1508201208e+000	 2.8245553720e+000	-4.5954069293e-001
 1.1226888642e+000	 2.8358543183e+000	-3.7903401017e-001
 1.4123308736e+000	 2.7314733210e+000	-7.0277668525e-001
 1.3846622091e+000	 2.7456029514e+000	-7.0742106101e-001
 1.3568973403e+000	 2.7594301238e+000	-7.0917956292e-001
 1.3290410803e+000	 2.7729541661e+000	-7.0809190829e-001
 1.3010982382e+000	 2.7861745054e+000	-7.0419273655e-001
 1.2730736177e+000	 2.7990906674e+000	-6.9751147460e-001
 1.2449720135e+000	 2.8117022754e+000	-6.7880171564e-001
 1.2167982099e+000	 2.8240090504e+000	-6.1309130506e-001
 1.1885569778e+000	 2.8360108093e+000	-5.4231321641e-001
 1.1602530726e+000	 2.8477074652e+000	-4.6710299469e-001
 1.1318912319e+000	 2.8590990258e+000	-3.8805010152e-001
 1.4238132385e+000	 2.7536804212e+000	-6.9855724950e-001
 1.3959196254e+000	 2.7679249266e+000	-7.0151268676e-001
 1.3679290260e+000	 2.7818645150e+000	-7.0185782246e-001
 1.3398462923e+000	 2.7954985089e+000	-6.9963728273e-001
 1.3116762727e+000	 2.8088263307e+000	-6.9489027038e-001
 1.2834238097e+000	 2.8218475021e+000	-6.8765042491e-001
 1.2550937372e+000	 2.8345616435e+000	-6.7794569925e-001
 1.2266908783e+000	 2.8469684735e+000	-6.2118694499e-001
 1.1982200427e+000	 2.8590678078e+000	-5.5054205090e-001
 1.1696860244e+000	 2.8708595585e+000	-4.7621164936e-001
 1.1410935996e+000	 2.8823437333e+000	-3.9879484606e-001
 1.4352956033e+000	 2.7758875214e+000	-6.9443828185e-001
 1.4071770418e+000	 2.7902469018e+000	-6.9572196535e-001
 1.3789607117e+000	 2.8042989063e+000	-6.9467273884e-001
 1.3506515043e+000	 2.8180428517e+000	-6.9134023498e-001
 1.3222543071e+000	 2.8314781559e+000	-6.8576831368e-001
 1.2937740017e+000	 2.8446043368e+000	-6.7799491659e-001
 1.2652154609e+000	 2.8574210116e+000	-6.6805193901e-001
 1.2365835466e+000	 2.8699278967e+000	-6.3012521919e-001
 1.2078831075e+000	 2.8821248062e+000	-5.5975475867e-001
 1.1791189762e+000	 2.8940116517e+000	-4.8646660577e-001
 1.1502959674e+000	 2.9055884408e+000	-4.1086954223e-001
 1.4467779681e+000	 2.7980946215e+000	-6.9034078832e-001
 1.4184344581e+000	 2.8125688771e+000	-6.8996769072e-001
 1.3899923974e+000	 2.8267332975e+000	-6.8754094504e-001
 1.3614567164e+000	 2.8405871945e+000	-6.8311528983e-001
 1.3328323416e+000	 2.8541299812e+000	-6.7673933743e-001
 1.3041241937e+000	 2.8673611715e+000	-6.6845542278e-001
 1.2753371846e+000	 2.8802803797e+000	-6.5829947037e-001
 1.2464762150e+000	 2.8928873199e+000	-6.3950774578e-001
 1.2175461724e+000	 2.9051818047e+000	-5.6955366299e-001
 1.1885519280e+000	 2.9171637449e+000	-4.9747122710e-001
 1.1594983351e+000	 2.9288331484e+000	-4.2387892726e-001
 1.4582603330e+000	 2.8203017217e+000	-6.8618880056e-001
 1.4296918744e+000	 2.8348908523e+000	-6.8417171444e-001
 1.4010240831e+000	 2.8491676888e+000	-6.8038216272e-001
 1.3722619284e+000	 2.8631315373e+000	-6.7488009090e-001
 1.3434103761e+000	 2.8767818064e+000	-6.6771896067e-001
 1.3144743857e+000	 2.8901180061e+000	-6.5894559294e-001
 1.2854589082e+000	 2.9031397478e+000	-6.4860002969e-001
 1.2563688834e+000	 2.9158467430e+000	-6.3671541474e-001
 1.2272092372e+000	 2.9282388031e+000	-5.7954434266e-001
 1.1979848799e+000	 2.9403158381e+000	-5.0883215649e-001
 1.1687007029e+000	 2.9520778559e+000	-4.3743104183e-001
 1.4697426978e+000	 2.8425088219e+000	-6.8190925763e-001
 1.4409492908e+000	 2.8572128275e+000	-6.7825882622e-001
 1.4120557688e+000	 2.8716020800e+000	-6.7311908159e-001
 1.3830671404e+000	 2.8856758801e+000	-6.6655527884e-001
 1.3539884105e+000	 2.8994336316e+000	-6.5862582756e-001
 1.3248245777e+000	 2.9128748408e+000	-6.4938212882e-001
 1.2955806319e+000	 2.9259991159e+000	-6.3886843190e-001
 1.2662615518e+000	 2.9388061662e+000	-6.2712171049e-001
 1.2368723021e+000	 2.9512958016e+000	-5.8933550476e-001
 1.2074178317e+000	 2.9634679313e+000	-5.2015918891e-001
 1.1779030706e+000	 2.9753225634e+000	-4.5113710101e-001
 1.4812250626e+000	 2.8647159220e+000	-6.7743189331e-001
 1.4522067071e+000	 2.8795348027e+000	-6.7215664008e-001
 1.4230874545e+000	 2.8940364712e+000	-6.6567724431e-001
 1.3938723525e+000	 2.9082202229e+000	-6.5806437513e-001
 1.3645664450e+000	 2.9220854569e+000	-6.4938149007e-001
 1.3351747697e+000	 2.9356316755e+000	-6.3968466614e-001
 1.3057023556e+000	 2.9488584840e+000	-6.2902245112e-001
 1.2761542201e+000	 2.9617655894e+000	-6.1743573524e-001
 1.2465353670e+000	 2.9743528000e+000	-5.9853886348e-001
 1.2168507835e+000	 2.9866200245e+000	-5.3106514898e-001
 1.1871054383e+000	 2.9985672709e+000	-4.6461137122e-001
 1.4927074274e+000	 2.8869230222e+000	-6.7268912867e-001
 1.4634641235e+000	 2.9018567779e+000	-6.6579548566e-001
 1.4341191402e+000	 2.9164708625e+000	-6.5798493683e-001
 1.4046775645e+000	 2.9307645658e+000	-6.4933367128e-001
 1.3751444794e+000	 2.9447372821e+000	-6.3991029618e-001
 1.3455249618e+000	 2.9583885102e+000	-6.2977566172e-001
 1.3158240793e+000	 2.9717178521e+000	-6.1898270689e-001
 1.2860468885e+000	 2.9847250126e+000	-6.0757632647e-001
 1.2561984318e+000	 2.9974097985e+000	-5.9559325919e-001
 1.2262837353e+000	 3.0097721177e+000	-5.4116577446e-001
 1.1963078061e+000	 3.0218119785e+000	-4.7747105289e-001
 1.1042841287e+000	 2.7893649032e+000	-3.6780064713e-001
 1.0765621202e+000	 2.8001810658e+000	-3.3743260064e-001
 1.0487927723e+000	 2.8106998632e+000	-3.0806616109e-001
 1.0209806419e+000	 2.8209215744e+000	-2.8010480929e-001
 9.9313025989e-001	 2.8308465672e+000	-2.5390622934e-001
 9.6524612913e-001	 2.8404752965e+000	-2.2978284456e-001
 9.3733272262e-001	 2.8498083036e+000	-2.0800244317e-001
 9.0939448149e-001	 2.8588462143e+000	-1.8878889000e-001
 8.8143581311e-001	 2.8675897383e+000	-1.7232292007e-001
 8.5346108929e-001	 2.8760396675e+000	-1.5874301018e-001
 8.2547464451e-001	 2.8841968746e+000	-1.4814632415e-001
 1.1134864964e+000	 2.8126096107e+000	-3.7214885450e-001
 1.0855334712e+000	 2.8235159081e+000	-3.4323804903e-001
 1.0575327121e+000	 2.8341223620e+000	-3.1518789441e-001
 1.0294888139e+000	 2.8444292542e+000	-2.8838008432e-001
 1.0014063454e+000	 2.8544369552e+000	-2.6315005348e-001
 9.7328984687e-001	 2.8641459240e+000	-2.3978754803e-001
 9.4514382864e-001	 2.8735567061e+000	-2.1853728664e-001
 9.1697276883e-001	 2.8826699328e+000	-1.9959970859e-001
 8.8878111155e-001	 2.8914863195e+000	-1.8313180446e-001
 8.6057326503e-001	 2.9000066647e+000	-1.6924802556e-001
 8.3235359987e-001	 2.9082318485e+000	-1.5802126758e-001
 1.1226888642e+000	 2.8358543183e+000	-3.7903401017e-001
 1.0945048222e+000	 2.8468507503e+000	-3.5086699727e-001
 1.0662726518e+000	 2.8575448609e+000	-3.2345554760e-001
 1.0379969859e+000	 2.8679369340e+000	-2.9715980726e-001
 1.0096824309e+000	 2.8780273433e+000	-2.7229315783e-001
 9.8133356461e-001	 2.8878165515e+000	-2.4912282166e-001
 9.5295493466e-001	 2.8973051086e+000	-2.2787055906e-001
 9.2455105618e-001	 2.9064936512e+000	-2.0871345326e-001
 8.9612640999e-001	 2.9153829006e+000	-1.9178477901e-001
 8.6768544077e-001	 2.9239736620e+000	-1.7717495049e-001
 8.3923255524e-001	 2.9322668225e+000	-1.6493254425e-001
 1.1318912319e+000	 2.8590990258e+000	-3.8805010152e-001
 1.1034761732e+000	 2.8701855925e+000	-3.5993734339e-001
 1.0750125916e+000	 2.8809673597e+000	-3.3251088185e-001
 1.0465051580e+000	 2.8914446137e+000	-3.0610954605e-001
 1.0179585164e+000	 2.9016177314e+000	-2.8102485161e-001
 9.8937728235e-001	 2.9114871789e+000	-2.5750164150e-001
 9.6076604068e-001	 2.9210535112e+000	-2.3573881973e-001
 9.3212934352e-001	 2.9303173697e+000	-2.1589017398e-001
 9.0347170843e-001	 2.9392794818e+000	-1.9806528268e-001
 8.7479761651e-001	 2.9479406592e+000	-1.8233050226e-001
 8.4611151061e-001	 2.9563017964e+000	-1.6871003000e-001
 1.1410935996e+000	 2.8823437333e+000	-3.9879484606e-001
 1.1124475242e+000	 2.8935204347e+000	-3.7007002232e-001
 1.0837525314e+000	 2.9043898586e+000	-3.4199801335e-001
 1.0550133300e+000	 2.9149522935e+000	-3.1489655312e-001
 1.0262346019e+000	 2.9252081194e+000	-2.8903546977e-001
 9.9742100009e-001	 2.9351578064e+000	-2.6463736238e-001
 9.6857714670e-001	 2.9448019137e+000	-2.4187837197e-001
 9.3970763087e-001	 2.9541410881e+000	-2.2088904225e-001
 9.1081700687e-001	 2.9631760629e+000	-2.0175526599e-001
 8.8190979226e-001	 2.9719076564e+000	-1.8451931232e-001
 8.5299046598e-001	 2.9803367704e+000	-1.6918093037e-001
 1.1502959674e+000	 2.9055884408e+000	-4.1086954223e-001
 1.1214188752e+000	 2.9168552769e+000	-3.8088888449e-001
 1.0924924711e+000	 2.9278123575e+000	-3.5156331906e-001
 1.0635215020e+000	 2.9384599733e+000	-3.2318969803e-001
 1.0345106874e+000	 2.9487985075e+000	-2.9601633189e-001
 1.0054647178e+000	 2.9588284339e+000	-2.7024370279e-001
 9.7638825273e-001	 2.9685503162e+000	-2.4602527333e-001
 9.4728591821e-001	 2.9779648066e+000	-2.2346838620e-001
 9.1816230531e-001	 2.9870726441e+000	-2.0263525047e-001
 8.8902196800e-001	 2.9958746536e+000	-1.8354400975e-001
 8.5986942135e-001	 3.0043717443e+000	-1.6616988739e-001
 1.1594983351e+000	 2.9288331484e+000	-4.2387892726e-001
 1.1303902262e+000	 2.9401901191e+000	-3.9202058009e-001
 1.1012324109e+000	 2.9512348563e+000	-3.6085534701e-001
 1.0720296740e+000	 2.9619676531e+000	-3.3065940327e-001
 1.0427867729e+000	 2.9723888955e+000	-3.0165970315e-001
 1.0135084356e+000	 2.9824990614e+000	-2.7403473042e-001
 9.8419935875e-001	 2.9922987187e+000	-2.4791534537e-001
 9.5486420556e-001	 3.0017885250e+000	-2.2338572410e-001
 9.2550760376e-001	 3.0109692252e+000	-2.0048438546e-001
 8.9613414375e-001	 3.0198416509e+000	-1.7920530072e-001
 8.6674837673e-001	 3.0284067183e+000	-1.5949908133e-001
 1.1687007029e+000	 2.9520778559e+000	-4.3743104183e-001
 1.1393615772e+000	 2.9635249613e+000	-4.0309444882e-001
 1.1099723507e+000	 2.9746573552e+000	-3.6952473083e-001
 1.0805378460e+000	 2.9854753329e+000	-3.3697758311e-001
 1.0510628584e+000	 2.9959792836e+000	-3.0565875710e-001
 1.0215521533e+000	 3.0061696888e+000	-2.7572484842e-001
 9.9201046477e-001	 3.0160471213e+000	-2.4728418292e-001
 9.6244249291e-001	 3.0256122435e+000	-2.2039779623e-001
 9.3285290220e-001	 3.0348658064e+000	-1.9508050204e-001
 9.0324631949e-001	 3.0438086481e+000	-1.7130204417e-001
 8.7362733210e-001	 3.0524416922e+000	-1.4898832757e-001
 1.1779030706e+000	 2.9753225634e+000	-4.5113710101e-001
 1.1483329282e+000	 2.9868598036e+000	-4.1374241489e-001
 1.1187122905e+000	 2.9980798540e+000	-3.7722410826e-001
 1.0890460181e+000	 3.0089830127e+000	-3.4181758538e-001
 1.0593389439e+000	 3.0195696717e+000	-3.0770754017e-001
 1.0295958711e+000	 3.0298403163e+000	-2.7502878230e-001
 9.9982157080e-001	 3.0397955238e+000	-2.4386716296e-001
 9.7002078026e-001	 3.0494359619e+000	-2.1426059526e-001
 9.4019820065e-001	 3.0587623875e+000	-1.8620016460e-001
 9.1035849524e-001	 3.0677756453e+000	-1.5963132398e-001
 8.8050628747e-001	 3.0764766662e+000	-1.3445516905e-001
 1.1871054383e+000	 2.9985672709e+000	-4.6461137122e-001
 1.1573042792e+000	 3.0101946458e+000	-4.2359888680e-001
 1.1274522302e+000	 3.0215023529e+000	-3.8360804350e-001
 1.0975541901e+000	 3.0324906925e+000	-3.4485413587e-001
 1.0676150294e+000	 3.0431600597e+000	-3.0750093780e-001
 1.0376395888e+000	 3.0535109438e+000	-2.7166156743e-001
 1.0076326768e+000	 3.0635439263e+000	-2.3739945306e-001
 9.7759906761e-001	 3.0732596804e+000	-2.0472939522e-001
 9.4754349910e-001	 3.0826589687e+000	-1.7361871989e-001
 9.1747067099e-001	 3.0917426426e+000	-1.4398851777e-001
 8.8738524285e-001	 3.1005116401e+000	-1.1571496429e-001
 1.1963078061e+000	 3.0218119785e+000	-4.7747105289e-001
 1.1662756302e+000	 3.0335294880e+000	-4.3230066181e-001
 1.1361921700e+000	 3.0449248518e+000	-3.8833295309e-001
 1.1060623621e+000	 3.0559983723e+000	-3.4576328531e-001
 1.0758911149e+000	 3.0667504478e+000	-3.0473464225e-001
 1.0456833066e+000	 3.0771815712e+000	-2.6533853714e-001
 1.0154437829e+000	 3.0872923289e+000	-2.2761601942e-001
 9.8517735496e-001	 3.0970833988e+000	-1.9155877916e-001
 9.5488879754e-001	 3.1065555498e+000	-1.5711034388e-001
 9.2458284674e-001	 3.1157096398e+000	-1.2416736254e-001
 8.9426419823e-001	 3.1245466141e+000	-9.2580971437e-002
 8.2547464451e-001	 2.8841968746e+000	-1.4814632415e-001
 7.9748077418e-001	 2.8920623117e+000	-1.4762249907e-001
 7.6948373301e-001	 2.8996370091e+000	-1.4301625272e-001
 7.4148773336e-001	 2.9069220735e+000	-1.3430692781e-001
 7.1349694372e-001	 2.9139186865e+000	-1.2144323093e-001
 6.8551548720e-001	 2.9206281031e+000	-1.0434436819e-001
 6.5754744009e-001	 2.9270516504e+000	-8.2901222563e-002
 6.2959683048e-001	 2.9331907253e+000	-5.6977568843e-002
 6.0166763694e-001	 2.9390467935e+000	 8.6664558985e-003
 5.7376378727e-001	 2.9446213876e+000	 8.9989023715e-002
 5.4588915724e-001	 2.9499161052e+000	 1.7967393526e-001
 8.3235359987e-001	 2.9082318485e+000	-1.5802126758e-001
 8.0412644730e-001	 2.9161628310e+000	-1.5523624342e-001
 7.7589609745e-001	 2.9238006509e+000	-1.4893983800e-001
 7.4766679780e-001	 2.9311464241e+000	-1.3908300631e-001
 7.1944275158e-001	 2.9382013422e+000	-1.2558522703e-001
 6.9122811626e-001	 2.9449666706e+000	-1.0833569501e-001
 6.6302700209e-001	 2.9514437475e+000	-8.7194556051e-002
 6.3484347073e-001	 2.9576339813e+000	-6.1994179668e-002
 6.0668153392e-001	 2.9635388501e+000	 4.2275016143e-004
 5.7854515216e-001	 2.9691598992e+000	 8.7934028560e-002
 5.5043823355e-001	 2.9744987394e+000	 1.8272592826e-001
 8.3923255524e-001	 2.9322668225e+000	-1.6493254425e-001
 8.1077212041e-001	 2.9402633502e+000	-1.5967210067e-001
 7.8230846189e-001	 2.9479642926e+000	-1.5149191762e-001
 7.5384586224e-001	 2.9553707747e+000	-1.4031446879e-001
 7.2538855945e-001	 2.9624839979e+000	-1.2602988394e-001
 6.9694074532e-001	 2.9693052382e+000	-1.0849719906e-001
 6.6850656409e-001	 2.9758358445e+000	-8.7545649426e-002
 6.4009011098e-001	 2.9820772374e+000	-6.2976000973e-002
 6.1169543089e-001	 2.9880309068e+000	-5.9721299200e-003
 5.8332651705e-001	 2.9936984107e+000	 8.9556632938e-002
 5.5498730986e-001	 2.9990813737e+000	 1.9124246306e-001
 8.4611151061e-001	 2.9563017964e+000	-1.6871003000e-001
 8.1741779353e-001	 2.9643638695e+000	-1.6077968771e-001
 7.8872082633e-001	 2.9721279343e+000	-1.5054209685e-001
 7.6002492669e-001	 2.9795951253e+000	-1.3789114559e-001
 7.3133436731e-001	 2.9867666536e+000	-1.2268748301e-001
 7.0265337437e-001	 2.9936438057e+000	-1.0475982776e-001
 6.7398612608e-001	 3.0002279416e+000	-8.3906320155e-002
 6.4533675123e-001	 3.0065204934e+000	-5.9895913138e-002
 6.1670932786e-001	 3.0125229634e+000	-1.1314932641e-002
 5.8810788194e-001	 3.0182369223e+000	 9.4079370866e-002
 5.5953638617e-001	 3.0236640079e+000	 2.0446495826e-001
 8.5299046598e-001	 2.9803367704e+000	-1.6918093037e-001
 8.2406346665e-001	 2.9884643887e+000	-1.5840548569e-001
 7.9513319077e-001	 2.9962915761e+000	-1.4595638050e-001
 7.6620399113e-001	 3.0038194759e+000	-1.3169880282e-001
 7.3728017517e-001	 3.0110493093e+000	-1.1546377870e-001
 7.0836600343e-001	 3.0179823732e+000	-9.7049540204e-002
 6.7946568808e-001	 3.0246200387e+000	-7.6222937466e-002
 6.5058339149e-001	 3.0309637495e+000	-5.2720890044e-002
 6.2172322484e-001	 3.0370150200e+000	-1.6396043368e-002
 5.9288924684e-001	 3.0427754338e+000	 1.0073159371e-001
 5.6408546248e-001	 3.0482466421e+000	 2.2164210202e-001
 8.5986942135e-001	 3.0043717443e+000	-1.6616988739e-001
 8.3070913976e-001	 3.0125649080e+000	-1.5239296546e-001
 8.0154555521e-001	 3.0204552178e+000	-1.3759731698e-001
 7.7238305558e-001	 3.0280438265e+000	-1.2161930494e-001
 7.4322598304e-001	 3.0353319650e+000	-1.0426017962e-001
 7.1407863249e-001	 3.0423209407e+000	-8.5287506725e-002
 6.8494525008e-001	 3.0490121358e+000	-6.4436640287e-002
 6.5583003174e-001	 3.0554070055e+000	-4.1412235331e-002
 6.2673712181e-001	 3.0615070766e+000	-1.5889795449e-002
 5.9767061173e-001	 3.0673139454e+000	 1.0874919750e-001
 5.6863453879e-001	 3.0728292763e+000	 2.4202956135e-001
 8.6674837673e-001	 3.0284067183e+000	-1.5949908133e-001
 8.3735481288e-001	 3.0366654273e+000	-1.4258270702e-001
 8.0795791965e-001	 3.0446188595e+000	-1.2532413544e-001
 7.7856212002e-001	 3.0522681771e+000	-1.0753076959e-001
 7.4917179090e-001	 3.0596146208e+000	-8.8973920998e-002
 7.1979126155e-001	 3.0666595083e+000	-6.9390298893e-002
 6.9042481209e-001	 3.0734042329e+000	-4.8483544791e-002
 6.6107667200e-001	 3.0798502615e+000	-2.5925807410e-002
 6.3175101878e-001	 3.0859991332e+000	-1.3593528499e-003
 6.0245197662e-001	 3.0918524570e+000	 1.1737436321e-001
 5.7318361510e-001	 3.0974119105e+000	 2.6488970509e-001
 8.7362733210e-001	 3.0524416922e+000	-1.4898832757e-001
 8.4400048600e-001	 3.0607659465e+000	-1.2881251332e-001
 8.1437028410e-001	 3.0687825013e+000	-1.0899287643e-001
 7.8474118447e-001	 3.0764925277e+000	-8.9307715071e-002
 7.5511759877e-001	 3.0838972765e+000	-6.9498228987e-002
 7.2550389062e-001	 3.0909980758e+000	-4.9270070590e-002
 6.9590437409e-001	 3.0977963300e+000	-2.8294942147e-002
 6.6632331225e-001	 3.1042935176e+000	-6.2122338415e-003
 6.3676491576e-001	 3.1104911898e+000	 1.7369302473e-002
 6.0723334152e-001	 3.1163909685e+000	 1.2585530931e-001
 5.7773269141e-001	 3.1219945447e+000	 2.8949134011e-001
 8.8050628747e-001	 3.0764766662e+000	-1.3445516905e-001
 8.5064615913e-001	 3.0848664658e+000	-1.1091751879e-001
 8.2078264854e-001	 3.0929461430e+000	-8.8456516510e-002
 7.9092024892e-001	 3.1007168783e+000	-6.6821200985e-002
 7.6106340663e-001	 3.1081799322e+000	-4.5722477265e-002
 7.3121651968e-001	 3.1153366433e+000	-2.4834730569e-002
 7.0138393609e-001	 3.1221884270e+000	-3.7974869905e-003
 6.7156995251e-001	 3.1287367736e+000	-2.9879477320e-004
 6.4177881273e-001	 3.1349832464e+000	-6.2817911754e-003
 6.1201470641e-001	 3.1409294801e+000	 6.1786265998e-002
 5.8228176772e-001	 3.1465771789e+000	 2.2257562515e-001
 8.8738524285e-001	 3.1005116401e+000	-1.1571496429e-001
 8.5729183225e-001	 3.1089669851e+000	-8.8730292684e-002
 8.2719501299e-001	 3.1171097848e+000	-6.3565086943e-002
 7.9709931337e-001	 3.1249412290e+000	-3.9938962267e-002
 7.6700921450e-001	 3.1324625879e+000	-5.5139279579e-002
 7.3692914874e-001	 3.1396752108e+000	-6.7664233590e-002
 7.0686349809e-001	 3.1465805241e+000	-7.6730085700e-002
 6.7681659276e-001	 3.1531800297e+000	-8.1861289302e-002
 6.4679270971e-001	 3.1594753030e+000	-8.2585473797e-002
 6.1679607131e-001	 3.1654679917e+000	-2.9855662881e-002
 5.8683084403e-001	 3.1711598131e+000	 1.5530246277e-001
 8.9426419823e-001	 3.1245466141e+000	-9.2580971437e-002
 8.6393750537e-001	 3.1330675043e+000	-1.0432799320e-001
 8.3360737744e-001	 3.1412734265e+000	-1.1720667851e-001
 8.0327837781e-001	 3.1491655796e+000	-1.2828754773e-001
 7.7295502237e-001	 3.1567452436e+000	-1.3707480212e-001
 7.4264177780e-001	 3.1640137784e+000	-1.4307717096e-001
 7.1234306010e-001	 3.1709726212e+000	-1.4580745933e-001
 6.8206323302e-001	 3.1776232857e+000	-1.4478211300e-001
 6.5180660668e-001	 3.1839673596e+000	-1.3952080186e-001
 6.2157743620e-001	 3.1900065032e+000	-1.0737907657e-001
 5.9137992034e-001	 3.1957424473e+000	 1.0165074388e-001
 5.4588915724e-001	 2.9499161052e+000	 1.7967393526e-001
 5.1804756952e-001	 2.9549326076e+000	 1.5453872724e-001
 4.9024279252e-001	 2.9596726178e+000	 1.4055456797e-001
 4.6247853940e-001	 2.9641379186e+000	 1.3688590644e-001
 4.3475846709e-001	 2.9683303514e+000	 1.4278941388e-001
 4.0708617535e-001	 2.9722518140e+000	 1.5761442008e-001
 3.7946520596e-001	 2.9759042588e+000	 1.8080311683e-001
 3.5189904187e-001	 2.9792896912e+000	 2.1189053440e-001
 3.2439110650e-001	 2.9824101680e+000	 2.5050429739e-001
 2.9694476301e-001	 2.9852677950e+000	 2.9636416675e-001
 2.6956331372e-001	 2.9878647258e+000	 3.4928137532e-001
 5.5043823355e-001	 2.9744987394e+000	 1.8272592826e-001
 5.2236463260e-001	 2.9795570460e+000	 1.5329025406e-001
 4.9432814913e-001	 2.9843365562e+000	 1.3474247993e-001
 4.6633252723e-001	 2.9888390679e+000	 1.2617344906e-001
 4.3838145432e-001	 2.9930664377e+000	 1.2676945984e-001
 4.1047856015e-001	 2.9970205791e+000	 1.3581275059e-001
 3.8262741601e-001	 3.0007034609e+000	 1.5268174350e-001
 3.5483153389e-001	 3.0041171053e+000	 1.7685105399e-001
 3.2709436572e-001	 3.0072635860e+000	 2.0789127197e-001
 2.9941930270e-001	 3.0101450266e+000	 2.4546852192e-001
 2.7180967467e-001	 3.0127635985e+000	 2.8934380925e-001
 5.5498730986e-001	 2.9990813737e+000	 1.9124246306e-001
 5.2668169568e-001	 3.0041814844e+000	 1.5816761502e-001
 4.9841350573e-001	 3.0090004947e+000	 1.3566091784e-001
 4.7018651506e-001	 3.0135402172e+000	 1.2273846813e-001
 4.4200444154e-001	 3.0178025240e+000	 1.1851513655e-001
 4.1387094494e-001	 3.0217893442e+000	 1.2220510092e-001
 3.8578962606e-001	 3.0255026631e+000	 1.3312213072e-001
 3.5776402590e-001	 3.0289445194e+000	 1.5067962913e-001
 3.2979762494e-001	 3.0321170041e+000	 1.7439043936e-001
 3.0189384239e-001	 3.0350222582e+000	 2.0386642238e-001
 2.7405603562e-001	 3.0376624713e+000	 2.3881781355e-001
 5.5953638617e-001	 3.0236640079e+000	 2.0446495826e-001
 5.3099875876e-001	 3.0288059228e+000	 1.6845708817e-001
 5.0249886233e-001	 3.0336644332e+000	 1.4264086049e-001
 4.7404050289e-001	 3.0382413666e+000	 1.2595645612e-001
 4.4562742877e-001	 3.0425386102e+000	 1.1744623543e-001
 4.1726332974e-001	 3.0465581093e+000	 1.1625531989e-001
 3.8895183611e-001	 3.0503018652e+000	 1.2163191717e-001
 3.6069651792e-001	 3.0537719335e+000	 1.3292739569e-001
 3.3250088416e-001	 3.0569704222e+000	 1.4959611569e-001
 3.0436838209e-001	 3.0598994898e+000	 1.7119502418e-001
 2.7630239656e-001	 3.0625613440e+000	 1.9738302129e-001
 5.6408546248e-001	 3.0482466421e+000	 2.2164210202e-001
 5.3531582184e-001	 3.0534303612e+000	 1.8345181975e-001
 5.0658421894e-001	 3.0583283717e+000	 1.5501974226e-001
 4.7789449072e-001	 3.0629425159e+000	 1.3520893746e-001
 4.4925041599e-001	 3.0672746965e+000	 1.2298814544e-001
 4.2065571453e-001	 3.0713268744e+000	 1.1743240901e-001
 3.9211404616e-001	 3.0751010674e+000	 1.1772343921e-001
 3.6362900993e-001	 3.0785993476e+000	 1.2314972228e-001
 3.3520414338e-001	 3.0818238402e+000	 1.3310637528e-001
 3.0684292178e-001	 3.0847767215e+000	 1.4709475764e-001
 2.7854875751e-001	 3.0874602167e+000	 1.6472184685e-001
 5.6863453879e-001	 3.0728292763e+000	 2.4202956135e-001
 5.3963288491e-001	 3.0780547996e+000	 2.0245154947e-001
 5.1066957554e-001	 3.0829923102e+000	 1.7214119487e-001
 4.8174847854e-001	 3.0876436652e+000	 1.4988322715e-001
 4.5287340322e-001	 3.0920107827e+000	 1.3457162914e-001
 4.2404809933e-001	 3.0960956396e+000	 1.2521031633e-001
 3.9527625621e-001	 3.0999002695e+000	 1.2091354288e-001
 3.6656150195e-001	 3.1034267617e+000	 1.2090604091e-001
 3.3790740260e-001	 3.1066772583e+000	 1.2452290026e-001
 3.0931746147e-001	 3.1096539531e+000	 1.3120919640e-001
 2.8079511845e-001	 3.1123590894e+000	 1.4051937468e-001
 5.7318361510e-001	 3.0974119105e+000	 2.6488970509e-001
 5.4394994799e-001	 3.1026792380e+000	 2.2476234892e-001
 5.1475493214e-001	 3.1076562486e+000	 1.9335480144e-001
 4.8560246637e-001	 3.1123448145e+000	 1.6937220107e-001
 4.5649639044e-001	 3.1167468690e+000	 1.5163260949e-001
 4.2744048412e-001	 3.1208644047e+000	 1.3906774019e-001
 3.9843846626e-001	 3.1246994717e+000	 1.3072340505e-001
 3.6949399396e-001	 3.1282541758e+000	 1.2335320003e-001
 3.4061066182e-001	 3.1315306764e+000	 1.2420312598e-001
 3.1179200116e-001	 3.1345311847e+000	 1.3311377977e-001
 2.8304147940e-001	 3.1372579621e+000	 1.4947824105e-001
 5.7773269141e-001	 3.1219945447e+000	 2.8949134011e-001
 5.4826701107e-001	 3.1273036764e+000	 2.3999026217e-001
 5.1884028875e-001	 3.1323201871e+000	 1.9004994795e-001
 4.8945645420e-001	 3.1370459638e+000	 1.5260596176e-001
 4.6011937766e-001	 3.1414829553e+000	 1.2697171980e-001
 4.3083286891e-001	 3.1456331698e+000	 1.1247925256e-001
 4.0160067630e-001	 3.1494986739e+000	 1.0847732150e-001
 3.7242648597e-001	 3.1530815899e+000	 1.1432958716e-001
 3.4331392104e-001	 3.1563840944e+000	 1.2941283252e-001
 3.1426654084e-001	 3.1594084163e+000	 1.5311524538e-001
 2.8528784035e-001	 3.1621568348e+000	 1.8483476270e-001
 5.8228176772e-001	 3.1465771789e+000	 2.2257562515e-001
 5.5258407415e-001	 3.1519281148e+000	 1.6854812034e-001
 5.2292564535e-001	 3.1569841256e+000	 1.2821287298e-001
 4.9331044202e-001	 3.1617471132e+000	 1.0087146668e-001
 4.6374236489e-001	 3.1662190415e+000	 8.5845866675e-002
 4.3422525370e-001	 3.1704019349e+000	 8.2476431915e-002
 4.0476288635e-001	 3.1742978760e+000	 9.0119976529e-002
 3.7535897799e-001	 3.1779090040e+000	 1.0814788500e-001
 3.4601718025e-001	 3.1812375125e+000	 1.3594428498e-001
 3.1674108053e-001	 3.1842856480e+000	 1.7290428148e-001
 2.8753420129e-001	 3.1870557075e+000	 2.1843225562e-001
 5.8683084403e-001	 3.1711598131e+000	 1.5530246277e-001
 5.5690113723e-001	 3.1765525532e+000	 1.0899948798e-001
 5.2701100195e-001	 3.1816480641e+000	 7.6852272280e-002
 4.9716442985e-001	 3.1864482625e+000	 5.8172774434e-002
 4.6736535211e-001	 3.1909551278e+000	 5.2293168589e-002
 4.3761763849e-001	 3.1951707000e+000	 5.8563796741e-002
 4.0792509639e-001	 3.1990970782e+000	 7.6351172815e-002
 3.7829147000e-001	 3.2027364181e+000	 1.0503604278e-001
 3.4872043947e-001	 3.2060909306e+000	 1.4401150488e-001
 3.1921562022e-001	 3.2091628796e+000	 1.9268119369e-001
 2.8978056223e-001	 3.2119545803e+000	 2.5045753129e-001
 5.9137992034e-001	 3.1957424473e+000	 1.0165074388e-001
 5.6121820030e-001	 3.2011769916e+000	 6.1665138118e-002
 5.3109635855e-001	 3.2063120026e+000	 3.6273620038e-002
 5.0101841767e-001	 3.2111494118e+000	 2.4800198293e-002
 4.7098833933e-001	 3.2156912140e+000	 2.6588927465e-002
 4.4101002328e-001	 3.2199394651e+000	 4.1001798625e-002
 4.1108730644e-001	 3.2238962803e+000	 6.7416683827e-002
 3.8122396201e-001	 3.2275638322e+000	 1.0522533906e-001
 3.5142369869e-001	 3.2309443486e+000	 1.5383146982e-001
 3.2169015991e-001	 3.2340401112e+000	 2.1264886305e-001
 2.9202692318e-001	 3.2368534530e+000	 2.8109958889e-001
 2.6956331372e-001	 2.9878647258e+000	 3.4928137532e-001
 2.4224999949e-001	 2.9902031599e+000	 3.5893147514e-001
 2.1500799923e-001	 2.9922853407e+000	 3.7131165041e-001
 1.8784042942e-001	 2.9941135538e+000	 3.8657582078e-001
 1.6075034369e-001	 2.9956901253e+000	 4.0496684756e-001
 1.3374073246e-001	 2.9970174201e+000	 4.2681484099e-001
 1.0681452267e-001	 2.9980978399e+000	 4.5253531057e-001
 7.9974577449e-002	 2.9989338217e+000	 4.8262716730e-001
 5.3223695962e-002	 2.9995278359e+000	 5.1767058719e-001
 2.6564613226e-002	 2.9998823846e+000	 5.5832474492e-001
 0.0000000000e+000	 3.0000000000e+000	 6.0532542703e-001
 2.7180967467e-001	 3.0127635985e+000	 2.8934380925e-001
 2.4426874949e-001	 3.0151215196e+000	 2.8972815877e-001
 2.1679973256e-001	 3.0172210519e+000	 2.9210708644e-001
 1.8940576633e-001	 3.0190645001e+000	 2.9658220411e-001
 1.6208992988e-001	 3.0206542097e+000	 3.0334762431e-001
 1.3485523857e-001	 3.0219925653e+000	 3.1268825299e-001
 1.0770464369e-001	 3.0230819886e+000	 3.2497791927e-001
 8.0641032261e-002	 3.0239249369e+000	 3.4067735106e-001
 5.3667226761e-002	 3.0245239012e+000	 3.6033200617e-001
 2.6785985003e-002	 3.0248814045e+000	 3.8456976829e-001
 0.0000000000e+000	 3.0250000000e+000	 4.1409851715e-001
 2.7405603562e-001	 3.0376624713e+000	 2.3881781355e-001
 2.4628749948e-001	 3.0400398793e+000	 2.2962008299e-001
 2.1859146589e-001	 3.0421567631e+000	 2.2161655014e-001
 1.9097110324e-001	 3.0440154464e+000	 2.1485637619e-001
 1.6342951608e-001	 3.0456182941e+000	 2.0948486076e-001
 1.3596974467e-001	 3.0469677104e+000	 2.0574171898e-001
 1.0859476471e-001	 3.0480661373e+000	 2.0395918915e-001
 8.1307487072e-002	 3.0489160521e+000	 2.0455998035e-001
 5.4110757560e-002	 3.0495199665e+000	 2.0805506973e-001
 2.7007356780e-002	 3.0498804243e+000	 2.1504135900e-001
 0.0000000000e+000	 3.0500000000e+000	 2.2619920006e-001
 2.7630239656e-001	 3.0625613440e+000	 1.9738302129e-001
 2.4830624948e-001	 3.0649582389e+000	 1.7833801160e-001
 2.2038319921e-001	 3.0670924742e+000	 1.5962154824e-001
 1.9253644015e-001	 3.0689663926e+000	 1.4123017531e-001
 1.6476910228e-001	 3.0705823785e+000	 1.2326029274e-001
 1.3708425077e-001	 3.0719428556e+000	 1.0590641652e-001
 1.0948488573e-001	 3.0730502859e+000	 8.9459262898e-002
 8.1973941883e-002	 3.0739071672e+000	 7.4303666588e-002
 5.4554288360e-002	 3.0745160318e+000	 6.0916342567e-002
 2.7228728556e-002	 3.0748794442e+000	 4.9863501647e-002
 0.0000000000e+000	 3.0750000000e+000	 4.1798329699e-002
 2.7854875751e-001	 3.0874602167e+000	 1.6472184685e-001
 2.5032499947e-001	 3.0898765986e+000	 1.3561469640e-001
 2.2217493254e-001	 3.0920281854e+000	 1.0590477314e-001
 1.9410177707e-001	 3.0939173389e+000	 7.5535814405e-002
 1.6610868847e-001	 3.0955464628e+000	 4.4555211447e-002
 1.3819875688e-001	 3.0969180008e+000	 1.3112251416e-002
 1.1037500676e-001	 3.0980344346e+000	-1.8543823079e-002
 8.2640396694e-002	 3.0988982824e+000	-5.0065926788e-002
 5.4997819159e-002	 3.0995120971e+000	-8.1011406897e-002
 2.7450100333e-002	 3.0998784641e+000	-1.1084447011e-001
 0.0000000000e+000	 3.1000000000e+000	-1.3893875144e-001
 2.8079511845e-001	 3.1123590894e+000	 1.4051937468e-001
 2.5234374947e-001	 3.1147949583e+000	 1.0118479770e-001
 2.2396666586e-001	 3.1169638966e+000	 6.0250055467e-002
 1.9566711398e-001	 3.1188682852e+000	 1.7605866107e-002
 1.6744827467e-001	 3.1205105472e+000	-2.6749518742e-002
 1.3931326298e-001	 3.1218931460e+000	-7.2712091363e-002
 1.1126512778e-001	 3.1230185833e+000	-1.2007405446e-001
 8.3306851506e-002	 3.1238893976e+000	-1.6852596639e-001
 5.5441349958e-002	 3.1245081624e+000	-2.1765905470e-001
 2.7671472109e-002	 3.1248774839e+000	-2.6696768746e-001
 0.0000000000e+000	 3.1250000000e+000	-3.1585199180e-001
 2.8304147940e-001	 3.1372579621e+000	 1.4947824105e-001
 2.5436249946e-001	 3.1397133179e+000	 1.2058361509e-001
 2.2575839919e-001	 3.1418996077e+000	 9.4406617141e-002
 1.9723245089e-001	 3.1438192315e+000	 7.0364495315e-002
 1.6878786087e-001	 3.1454746316e+000	 4.7881957385e-002
 1.4042776908e-001	 3.1468682911e+000	 2.6389822088e-002
 1.1215524880e-001	 3.1480027319e+000	 5.3237406429e-003
 8.3973306317e-002	 3.1488805128e+000	-1.5877010382e-002
 5.5884880757e-002	 3.1495042277e+000	-3.7770664034e-002
 2.7892843886e-002	 3.1498765038e+000	-6.0914025179e-002
 0.0000000000e+000	 3.1500000000e+000	-8.5863459653e-002
 2.8528784035e-001	 3.1621568348e+000	 1.8483476270e-001
 2.5638124945e-001	 3.1646316776e+000	 1.7035163858e-001
 2.2755013251e-001	 3.1668353189e+000	 1.5926756959e-001
 1.9879778780e-001	 3.1687701778e+000	 1.5099160047e-001
 1.7012744706e-001	 3.1704387160e+000	 1.4493978969e-001
 1.4154227518e-001	 3.1718434363e+000	 1.4053383646e-001
 1.1304536982e-001	 3.1729868806e+000	 1.3719978008e-001
 8.4639761128e-002	 3.1738716280e+000	 1.3436677291e-001
 5.6328411556e-002	 3.1745002930e+000	 1.3146592772e-001
 2.8114215663e-002	 3.1748755237e+000	 1.2792923989e-001
 0.0000000000e+000	 3.1750000000e+000	 1.2318858499e-001
 2.8753420129e-001	 3.1870557075e+000	 2.1843225562e-001
 2.5839999945e-001	 3.1895500373e+000	 2.1648269295e-001
 2.2934186584e-001	 3.1917710301e+000	 2.1860368639e-001
 2.0036312471e-001	 3.1937211241e+000	 2.2419773886e-001
 1.7146703326e-001	 3.1954028003e+000	 2.3267389734e-001
 1.4265678129e-001	 3.1968185815e+000	 2.4344635399e-001
 1.1393549084e-001	 3.1979710292e+000	 2.5593312184e-001
 8.5306215939e-002	 3.1988627432e+000	 2.6955478654e-001
 5.6771942355e-002	 3.1994963583e+000	 2.8373333455e-001
 2.8335587439e-002	 3.1998745436e+000	 2.9789105876e-001
 0.0000000000e+000	 3.2000000000e+000	 3.1144954143e-001
 2.8978056223e-001	 3.2119545803e+000	 2.5045753129e-001
 2.6041874944e-001	 3.2144683969e+000	 2.5915778028e-001
 2.3113359916e-001	 3.2167067413e+000	 2.7259041565e-001
 2.0192846161e-001	 3.2186720703e+000	 2.9015306618e-001
 1.7280661945e-001	 3.2203668847e+000	 3.1124941107e-001
 1.4377128739e-001	 3.2217937266e+000	 3.3528775343e-001
 1.1482561186e-001	 3.2229551779e+000	 3.6167967106e-001
 8.5972670750e-002	 3.2238538583e+000	 3.8983874537e-001
 5.7215473154e-002	 3.2244924236e+000	 4.1917936927e-001
 2.8556959216e-002	 3.2248735634e+000	 4.4911563480e-001
 0.0000000000e+000	 3.2250000000e+000	 4.7906030044e-001
 2.9202692318e-001	 3.2368534530e+000	 2.8109958889e-001
 2.6243749943e-001	 3.2393867566e+000	 2.9855946634e-001
 2.3292533249e-001	 3.2416424524e+000	 3.2140413806e-001
 2.0349379852e-001	 3.2436230166e+000	 3.4902803284e-001
 1.7414620565e-001	 3.2453309691e+000	 3.8083111186e-001
 1.4488579349e-001	 3.2467688718e+000	 4.1621741322e-001
 1.1571573288e-001	 3.2479393266e+000	 4.5459367610e-001
 8.6639125561e-002	 3.2488449735e+000	 4.9536804549e-001
 5.7659003953e-002	 3.2494884889e+000	 5.3794885860e-001
 2.8778330992e-002	 3.2498725833e+000	 5.8174351309e-001
 0.0000000000e+000	 3.2500000000e+000	 6.2615741769e-001
 3.2500000000e+000	 0.0000000000e+000	 7.5480102227e-001
 3.2498725833e+000	 2.8778330992e-002	 8.0990077658e-001
 3.2494884889e+000	 5.7659003953e-002	 8.6313193932e-001
 3.2488449735e+000	 8.6639125561e-002	 9.1342956578e-001
 3.2479393266e+000	 1.1571573288e-001	 9.5980378536e-001
 3.2467688718e+000	 1.4488579349e-001	 1.0013432296e+000
 3.2453309691e+000	 1.7414620565e-001	 1.0372183892e+000
 3.2436230166e+000	 2.0349379852e-001	 1.0666848904e+000
 3.2416424524e+000	 2.3292533249e-001	 1.0890866798e+000
 3.2393867566e+000	 2.6243749943e-001	 1.1038591093e+000
 3.2368534530e+000	 2.9202692318e-001	 1.1105319084e+000
 3.2750000000e+000	 0.0000000000e+000	 7.9813102653e-001
 3.2748716032e+000	 2.8999702769e-002	 8.4328243929e-001
 3.2744845542e+000	 5.8102534752e-002	 8.8695511425e-001
 3.2738360887e+000	 8.7305580372e-002	 9.2810598293e-001
 3.2729234752e+000	 1.1660585390e-001	 9.6576899499e-001
 3.2717440170e+000	 1.4600029959e-001	 9.9905858279e-001
 3.2702950535e+000	 1.7548579184e-001	 1.0271730518e+000
 3.2685739629e+000	 2.0505913543e-001	 1.0493978873e+000
 3.2665781636e+000	 2.3471706581e-001	 1.0651089662e+000
 3.2643051163e+000	 2.6445624942e-001	 1.0737756650e+000
 3.2617523257e+000	 2.9427328412e-001	 1.0749638520e+000
 3.3000000000e+000	 0.0000000000e+000	 8.3952106762e-001
 3.2998706230e+000	 2.9221074545e-002	 8.7580541350e-001
 3.2994806195e+000	 5.8546065551e-002	 9.1093380079e-001
 3.2988272039e+000	 8.7972035183e-002	 9.4388411339e-001
 3.2979076239e+000	 1.1749597492e-001	 9.7371325221e-001
 3.2967191621e+000	 1.4711480569e-001	 9.9956063822e-001
 3.2952591379e+000	 1.7682537804e-001	 1.0206516386e+000
 3.2935249092e+000	 2.0662447234e-001	 1.0363009053e+000
 3.2915138748e+000	 2.3650879913e-001	 1.0459156165e+000
 3.2892234759e+000	 2.6647499942e-001	 1.0489986093e+000
 3.2866511984e+000	 2.9651964507e-001	 1.0451513935e+000
 3.3250000000e+000	 0.0000000000e+000	 8.7905449128e-001
 3.3248696429e+000	 2.9442446322e-002	 9.0753075984e-001
 3.3244766848e+000	 5.8989596350e-002	 9.3510678894e-001
 3.3238183191e+000	 8.8638489994e-002	 9.6078050105e-001
 3.3228917726e+000	 1.1838609594e-001	 9.8363088966e-001
 3.3216943073e+000	 1.4822931180e-001	 1.0028215631e+000
 3.3202232222e+000	 1.7816496423e-001	 1.0176042080e+000
 3.3184758555e+000	 2.0818980925e-001	 1.0273219630e+000
 3.3164495860e+000	 2.3830053246e-001	 1.0314126902e+000
 3.3141418356e+000	 2.6849374941e-001	 1.0294121355e+000
 3.3115500711e+000	 2.9876600601e-001	 1.0209569662e+000
 3.3500000000e+000	 0.0000000000e+000	 9.1681215529e-001
 3.3498686628e+000	 2.9663818098e-002	 9.3851757409e-001
 3.3494727501e+000	 5.9433127149e-002	 9.5951141072e-001
 3.3488094342e+000	 8.9304944806e-002	 9.7881072199e-001
 3.3478759212e+000	 1.1927621697e-001	 9.9551574539e-001
 3.3466694525e+000	 1.4934381790e-001	 1.0088134856e+000
 3.3451873066e+000	 1.7950455043e-001	 1.0179812180e+000
 3.3434268017e+000	 2.0975514616e-001	 1.0223898983e+000
 3.3413852971e+000	 2.4009226578e-001	 1.0215074673e+000
 3.3390601953e+000	 2.7051249940e-001	 1.0149020404e+000
 3.3364489438e+000	 3.0101236695e-001	 1.0022449702e+000
 3.3750000000e+000	 0.0000000000e+000	 9.5287252165e-001
 3.3748676827e+000	 2.9885189875e-002	 9.6882306001e-001
 3.3744688154e+000	 5.9876657948e-002	 9.8418359415e-001
 3.3738005494e+000	 8.9971399617e-002	 9.9798942033e-001
 3.3728600699e+000	 1.2016633799e-001	 1.0093611811e+000
 3.3716445976e+000	 1.5045832400e-001	 1.0175084968e+000
 3.3701513910e+000	 1.8084413662e-001	 1.0217335108e+000
 3.3683777480e+000	 2.1132048307e-001	 1.0214343378e+000
 3.3663210083e+000	 2.4188399911e-001	 1.0161084034e+000
 3.3639785549e+000	 2.7253124940e-001	 1.0053556647e+000
 3.3613478166e+000	 3.0325872790e-001	 9.8888170018e-001
 3.4000000000e+000	 0.0000000000e+000	 9.8731174465e-001
 3.3998667025e+000	 3.0106561652e-002	 9.9850259887e-001
 3.3994648807e+000	 6.0320188747e-002	 1.0091579149e+000
 3.3987916646e+000	 9.0637854428e-002	 1.0183303425e+000
 3.3978442186e+000	 1.2105645901e-001	 1.0251600997e+000
 3.3966197428e+000	 1.5157283010e-001	 1.0288786515e+000
 3.3951154754e+000	 1.8218372282e-001	 1.0288122990e+000
 3.3933286943e+000	 2.1288581998e-001	 1.0243856681e+000
 3.3912567195e+000	 2.4367573243e-001	 1.0151250864e+000
 3.3888969146e+000	 2.7454999939e-001	 1.0006618365e+000
 3.3862466893e+000	 3.0550508885e-001	 9.8073527495e-001
 3.4250000000e+000	 0.0000000000e+000	 1.0202037551e+000
 3.4248657224e+000	 3.0327933428e-002	 1.0276098159e+000
 3.4244609460e+000	 6.0763719546e-002	 1.0344676456e+000
 3.4237827798e+000	 9.1304309239e-002	 1.0398463700e+000
 3.4228283672e+000	 1.2194658003e-001	 1.0429049621e+000
 3.4215948880e+000	 1.5268733621e-001	 1.0428959699e+000
 3.4200795598e+000	 1.8352330902e-001	 1.0391691518e+000
 3.4182796406e+000	 2.1445115689e-001	 1.0311750078e+000
 3.4161924307e+000	 2.4546746576e-001	 1.0184681950e+000
 3.4138152743e+000	 2.7656874939e-001	 1.0007108167e+000
 3.4111455620e+000	 3.0775144979e-001	 9.7767557142e-001
 3.4500000000e+000	 0.0000000000e+000	 1.0516203409e+000
 3.4498647423e+000	 3.0549305205e-002	 1.0561966442e+000
 3.4494570113e+000	 6.1207250346e-002	 1.0601448032e+000
 3.4487738950e+000	 9.1970764051e-002	 1.0625495508e+000
 3.4478125159e+000	 1.2283670105e-001	 1.0625878030e+000
 3.4465700331e+000	 1.5380184231e-001	 1.0595324387e+000
 3.4450436441e+000	 1.8486289521e-001	 1.0527559825e+000
 3.4432305869e+000	 2.1601649380e-001	 1.0417341810e+000
 3.4411281418e+000	 2.4725919909e-001	 1.0260494595e+000
 3.4387336339e+000	 2.7858749938e-001	 1.0053942473e+000
 3.4360444347e+000	 3.0999781074e-001	 9.7957416072e-001
 3.4750000000e+000	 0.0000000000e+000	 1.0816312241e+000
 3.4748637621e+000	 3.0770676981e-002	 1.0843133851e+000
 3.4744530766e+000	 6.1650781145e-002	 1.0862201939e+000
 3.4737650101e+000	 9.2637218862e-002	 1.0864511291e+000
 3.4727966646e+000	 1.2372682207e-001	 1.0842002466e+000
 3.4715451783e+000	 1.5491634841e-001	 1.0787600123e+000
 3.4700077285e+000	 1.8620248141e-001	 1.0695250356e+000
 3.4681815332e+000	 2.1758183071e-001	 1.0559956921e+000
 3.4660638530e+000	 2.4905093241e-001	 1.0377816235e+000
 3.4636519936e+000	 2.8060624938e-001	 1.0146051019e+000
 3.4609433074e+000	 3.1224417169e-001	 9.8630424722e-001
 3.5000000000e+000	 0.0000000000e+000	 1.1103041347e+000
 3.4998627820e+000	 3.0992048758e-002	 1.1120087669e+000
 3.4994491419e+000	 6.2094311944e-002	 1.1127234564e+000
 3.4987561253e+000	 9.3303673673e-002	 1.1115615743e+000
 3.4977808132e+000	 1.2461694309e-001	 1.1077335210e+000
 3.4965203235e+000	 1.5603085452e-001	 1.1005506142e+000
 3.4949718129e+000	 1.8754206761e-001	 1.0894288755e+000
 3.4931324794e+000	 2.1914716763e-001	 1.0738927014e+000
 3.4909995642e+000	 2.5084266574e-001	 1.0535784082e+000
 3.4885703533e+000	 2.8262499937e-001	 1.0282376375e+000
 3.4858421801e+000	 3.1449053264e-001	 9.9774061029e-001
 3.2368534530e+000	 2.9202692318e-001	 1.1105319084e+000
 3.2340401112e+000	 3.2169015991e-001	 1.1332032750e+000
 3.2309443486e+000	 3.5142369869e-001	 1.1492539284e+000
 3.2275638322e+000	 3.8122396201e-001	 1.1585360069e+000
 3.2238962803e+000	 4.1108730644e-001	 1.1610052428e+000
 3.2199394651e+000	 4.4101002328e-001	 1.1567231739e+000
 3.2156912140e+000	 4.7098833933e-001	 1.1458591834e+000
 3.2111494118e+000	 5.0101841767e-001	 1.1286923566e+000
 3.2063120026e+000	 5.3109635855e-001	 1.1056131472e+000
 3.2011769916e+000	 5.6121820030e-001	 1.0771248422e+000
 3.1957424473e+000	 5.9137992034e-001	 1.0438448163e+000
 3.2617523257e+000	 2.9427328412e-001	 1.0749638520e+000
 3.2589173428e+000	 3.2416469960e-001	 1.0930381933e+000
 3.2557977667e+000	 3.5412695790e-001	 1.1053776951e+000
 3.2523912463e+000	 3.8415645402e-001	 1.1118732118e+000
 3.2486954825e+000	 4.1424951648e-001	 1.1125210998e+000
 3.2447082303e+000	 4.4440240807e-001	 1.1074254253e+000
 3.2404273003e+000	 4.7461132655e-001	 1.0967999955e+000
 3.2358505611e+000	 5.0487240550e-001	 1.0809702031e+000
 3.2309759410e+000	 5.3518171515e-001	 1.0603746735e+000
 3.2258014300e+000	 5.6553526338e-001	 1.0355667073e+000
 3.2203250815e+000	 5.9592899665e-001	 1.0072155061e+000
 3.2866511984e+000	 2.9651964507e-001	 1.0451513935e+000
 3.2837945745e+000	 3.2663923928e-001	 1.0588407204e+000
 3.2806511848e+000	 3.5683021712e-001	 1.0676041052e+000
 3.2772186604e+000	 3.8708894603e-001	 1.0713708659e+000
 3.2734946847e+000	 4.1741172653e-001	 1.0701778068e+000
 3.2694769954e+000	 4.4779479286e-001	 1.0641714241e+000
 3.2651633866e+000	 4.7823431377e-001	 1.0536099301e+000
 3.2605517105e+000	 5.0872639332e-001	 1.0388650859e+000
 3.2556398795e+000	 5.3926707176e-001	 1.0204238322e+000
 3.2504258684e+000	 5.6985232646e-001	 9.9888970944e-001
 3.2449077157e+000	 6.0047807296e-001	 9.7498405653e-001
 3.3115500711e+000	 2.9876600601e-001	 1.0209569662e+000
 3.3086718061e+000	 3.2911377897e-001	 1.0304553473e+000
 3.3055046028e+000	 3.5953347634e-001	 1.0357599164e+000
 3.3020460744e+000	 3.9002143804e-001	 1.0368382162e+000
 3.2982938868e+000	 4.2057393658e-001	 1.0337673367e+000
 3.2942457605e+000	 4.5118717765e-001	 1.0267361195e+000
 3.2898994728e+000	 4.8185730100e-001	 1.0160471773e+000
 3.2852528598e+000	 5.1258038115e-001	 1.0021187160e+000
 3.2803038180e+000	 5.4335242836e-001	 9.8548614986e-001
 3.2750503068e+000	 5.7416938954e-001	 9.6680350092e-001
 3.2694903500e+000	 6.0502714927e-001	 9.4684457161e-001
 3.3364489438e+000	 3.0101236695e-001	 1.0022449702e+000
 3.3335490377e+000	 3.3158831866e-001	 1.0077287655e+000
 3.3303580209e+000	 3.6223673555e-001	 1.0096742986e+000
 3.3268734885e+000	 3.9295393006e-001	 1.0080871115e+000
 3.3230930890e+000	 4.2373614662e-001	 1.0030844305e+000
 3.3190145256e+000	 4.5457956245e-001	 9.9489737239e-001
 3.3146355591e+000	 4.8548028822e-001	 9.8387295975e-001
 3.3099540091e+000	 5.1643436897e-001	 9.7047593375e-001
 3.3049677565e+000	 5.4743778496e-001	 9.5529035562e-001
 3.2996747452e+000	 5.7848645261e-001	 9.3902098597e-001
 3.2940729842e+000	 6.0957622558e-001	 9.2249443238e-001
 3.3613478166e+000	 3.0325872790e-001	 9.8888170018e-001
 3.3584262693e+000	 3.3406285835e-001	 9.9050978572e-001
 3.3552114390e+000	 3.6493999477e-001	 9.8917874505e-001
 3.3517009026e+000	 3.9588642207e-001	 9.8493190583e-001
 3.3478922911e+000	 4.2689835667e-001	 9.7792649513e-001
 3.3437832907e+000	 4.5797194724e-001	 9.6843584805e-001
 3.3393716454e+000	 4.8910327544e-001	 9.5685142016e-001
 3.3346551584e+000	 5.2028835680e-001	 9.4368459308e-001
 3.3296316950e+000	 5.5152314156e-001	 9.2956826275e-001
 3.3242991836e+000	 5.8280351569e-001	 9.1525820029e-001
 3.3186556184e+000	 6.1412530188e-001	 9.0163417540e-001
 3.3862466893e+000	 3.0550508885e-001	 9.8073527495e-001
 3.3833035010e+000	 3.3653739804e-001	 9.7864926019e-001
 3.3800648570e+000	 3.6764325399e-001	 9.7410698638e-001
 3.3765283167e+000	 3.9881891408e-001	 9.6718936648e-001
 3.3726914933e+000	 4.3006056672e-001	 9.5809350540e-001
 3.3685520559e+000	 4.6136433203e-001	 9.4713491275e-001
 3.3641077316e+000	 4.9272626267e-001	 9.3474951418e-001
 3.3593563078e+000	 5.2414234463e-001	 9.2149545069e-001
 3.3542956335e+000	 5.5560849817e-001	 9.0805465518e-001
 3.3489236220e+000	 5.8712057877e-001	 8.9523419591e-001
 3.3432382526e+000	 6.1867437819e-001	 8.8396737676e-001
 3.4111455620e+000	 3.0775144979e-001	 9.7767557142e-001
 3.4081807326e+000	 3.3901193773e-001	 9.7200000782e-001
 3.4049182751e+000	 3.7034651321e-001	 9.6429490935e-001
 3.4013557308e+000	 4.0175140610e-001	 9.5467858593e-001
 3.3974906954e+000	 4.3322277677e-001	 9.4338791010e-001
 3.3933208210e+000	 4.6475671683e-001	 9.3078053528e-001
 3.3888438179e+000	 4.9634924989e-001	 9.1733690756e-001
 3.3840574571e+000	 5.2799633246e-001	 9.0366206010e-001
 3.3789595719e+000	 5.5969385477e-001	 8.9048717913e-001
 3.3735480604e+000	 5.9143764185e-001	 8.7867093115e-001
 3.3678208868e+000	 6.2322345450e-001	 8.6920054113e-001
 3.4360444347e+000	 3.0999781074e-001	 9.7957416072e-001
 3.4330579642e+000	 3.4148647742e-001	 9.7041674311e-001
 3.4297716932e+000	 3.7304977243e-001	 9.5958047854e-001
 3.4261831449e+000	 4.0468389811e-001	 9.4722089758e-001
 3.4222898976e+000	 4.3638498682e-001	 9.3361454249e-001
 3.4180895861e+000	 4.6814910162e-001	 9.1916119260e-001
 3.4135799042e+000	 4.9997223712e-001	 9.0438587802e-001
 3.4087586064e+000	 5.3185032028e-001	 8.8994067033e-001
 3.4036235104e+000	 5.6377921137e-001	 8.7660623935e-001
 3.3981724988e+000	 5.9575470493e-001	 8.6529316526e-001
 3.3924035210e+000	 6.2777253081e-001	 8.5173346923e-001
 3.4609433074e+000	 3.1224417169e-001	 9.8630424722e-001
 3.4579351959e+000	 3.4396101711e-001	 9.7375600793e-001
 3.4546251112e+000	 3.7575303165e-001	 9.5980366167e-001
 3.4510105590e+000	 4.0761639013e-001	 9.4463979511e-001
 3.4470890998e+000	 4.3954719687e-001	 9.2858053449e-001
 3.4428583512e+000	 4.7154148642e-001	 9.1206777970e-001
 3.4383159904e+000	 5.0359522435e-001	 8.9567122130e-001
 3.4334597557e+000	 5.3570430811e-001	 8.8009012889e-001
 3.4282874489e+000	 5.6786456798e-001	 8.6615489992e-001
 3.4227969372e+000	 6.0007176801e-001	 8.5482835773e-001
 3.4169861552e+000	 6.3232160712e-001	 8.3312790180e-001
 3.4858421801e+000	 3.1449053264e-001	 9.9774061029e-001
 3.4828124275e+000	 3.4643555681e-001	 9.8187610624e-001
 3.4794785293e+000	 3.7845629087e-001	 9.6480635805e-001
 3.4758379731e+000	 4.1054888215e-001	 9.4676085538e-001
 3.4718883019e+000	 4.4270940692e-001	 9.2809523461e-001
 3.4676271163e+000	 4.7493387121e-001	 9.0929352317e-001
 3.4630520767e+000	 5.0721821157e-001	 8.9097016119e-001
 3.4581609051e+000	 5.3955829594e-001	 8.7387178906e-001
 3.4529513874e+000	 5.7194992458e-001	 8.5887878928e-001
 3.4474213756e+000	 6.0438883109e-001	 8.4700657180e-001
 3.4415687894e+000	 6.3687068343e-001	 8.1667969986e-001
 3.1957424473e+000	 5.9137992034e-001	 1.0438448163e+000
 3.1900065032e+000	 6.2157743620e-001	 1.0555659412e+000
 3.1839673596e+000	 6.5180660668e-001	 1.0305464243e+000
 3.1776232857e+000	 6.8206323302e-001	 9.9591185733e-001
 3.1709726212e+000	 7.1234306010e-001	 9.5700609543e-001
 3.1640137784e+000	 7.4264177780e-001	 9.1399069405e-001
 3.1567452436e+000	 7.7295502237e-001	 8.6704251216e-001
 3.1491655796e+000	 8.0327837781e-001	 8.1635389365e-001
 3.1412734265e+000	 8.3360737744e-001	 7.6213282319e-001
 3.1330675043e+000	 8.6393750537e-001	 7.0460305545e-001
 3.1245466141e+000	 8.9426419823e-001	 6.4667949129e-001
 3.2203250815e+000	 5.9592899665e-001	 1.0072155061e+000
 3.2145450148e+000	 6.2635880109e-001	 1.0232436378e+000
 3.2084594163e+000	 6.5682050366e-001	 9.9438494313e-001
 3.2020665418e+000	 6.8730987327e-001	 9.6159828550e-001
 3.1953647183e+000	 7.1782262210e-001	 9.2502271176e-001
 3.1883523459e+000	 7.4835440687e-001	 8.8481206372e-001
 3.1810278994e+000	 7.7890083024e-001	 8.4113518795e-001
 3.1733899302e+000	 8.0945744226e-001	 7.9417612155e-001
 3.1654370683e+000	 8.4001974188e-001	 7.4413425258e-001
 3.1571680236e+000	 8.7058317850e-001	 6.9122445412e-001
 3.1485815881e+000	 9.0114315360e-001	 6.3567719076e-001
 3.2449077157e+000	 6.0047807296e-001	 9.7498405653e-001
 3.2390835264e+000	 6.3114016599e-001	 9.8818411983e-001
 3.2329514729e+000	 6.6183440064e-001	 9.6038559401e-001
 3.2265097978e+000	 6.9255651353e-001	 9.2913459489e-001
 3.2197568154e+000	 7.2330218410e-001	 8.9456278673e-001
 3.2126909134e+000	 7.5406703593e-001	 8.5681633870e-001
 3.2053105551e+000	 7.8484663811e-001	 8.1605613907e-001
 3.1976142808e+000	 8.1563650671e-001	 7.7245798557e-001
 3.1896007100e+000	 8.4643210633e-001	 7.2621275062e-001
 3.1812685429e+000	 8.7722885162e-001	 6.7752652042e-001
 3.1726165620e+000	 9.0802210898e-001	 6.2662070658e-001
 3.2694903500e+000	 6.0502714927e-001	 9.4684457161e-001
 3.2636220379e+000	 6.3592153088e-001	 9.5550926091e-001
 3.2574435295e+000	 6.6684829761e-001	 9.2848148690e-001
 3.2509530539e+000	 6.9780315378e-001	 8.9846268942e-001
 3.2441489125e+000	 7.2878174611e-001	 8.6557717597e-001
 3.2370294809e+000	 7.5977966499e-001	 8.2996348176e-001
 3.2295932108e+000	 7.9079244597e-001	 7.9177458846e-001
 3.2218386314e+000	 8.2181557116e-001	 7.5117811935e-001
 3.2137643518e+000	 8.5284447077e-001	 7.0835650967e-001
 3.2053690621e+000	 8.8387452474e-001	 6.6350715076e-001
 3.1966515360e+000	 9.1490106435e-001	 6.1684250709e-001
 3.2940729842e+000	 6.0957622558e-001	 9.2249443238e-001
 3.2881605495e+000	 6.4070289577e-001	 9.2514658314e-001
 3.2819355861e+000	 6.7186219458e-001	 8.9860854090e-001
 3.2753963099e+000	 7.0304979404e-001	 8.6952703856e-001
 3.2685410096e+000	 7.3426130811e-001	 8.3801905053e-001
 3.2613680485e+000	 7.6549229405e-001	 8.0421551446e-001
 3.2538758665e+000	 7.9673825384e-001	 7.6826155479e-001
 3.2460629820e+000	 8.2799463561e-001	 7.3031668296e-001
 3.2379279935e+000	 8.5925683522e-001	 6.9055497291e-001
 3.2294695814e+000	 8.9052019786e-001	 6.4916521061e-001
 3.2206865099e+000	 9.2178001972e-001	 6.0635101657e-001
 3.3186556184e+000	 6.1412530188e-001	 9.0163417540e-001
 3.3126990611e+000	 6.4548426067e-001	 8.9702654220e-001
 3.3064276427e+000	 6.7687609156e-001	 8.7070538034e-001
 3.2998395660e+000	 7.0829643429e-001	 8.4227458231e-001
 3.2929331067e+000	 7.3974087011e-001	 8.1184381105e-001
 3.2857066160e+000	 7.7120492311e-001	 7.7953644084e-001
 3.2781585222e+000	 8.0268406170e-001	 7.4548978601e-001
 3.2702873326e+000	 8.3417370005e-001	 7.0985530637e-001
 3.2620916352e+000	 8.6566919966e-001	 6.7279878805e-001
 3.2535701007e+000	 8.9716587098e-001	 6.3450049860e-001
 3.2447214839e+000	 9.2865897510e-001	 5.9515531522e-001
 3.3432382526e+000	 6.1867437819e-001	 8.8396737676e-001
 3.3372375726e+000	 6.5026562556e-001	 8.7108241943e-001
 3.3309196993e+000	 6.8188998853e-001	 8.4471323524e-001
 3.3242828220e+000	 7.1354307455e-001	 8.1665464040e-001
 3.3173252037e+000	 7.4522043211e-001	 7.8700900584e-001
 3.3100451835e+000	 7.7691755217e-001	 7.5589217458e-001
 3.3024411780e+000	 8.0862986957e-001	 7.2343369575e-001
 3.2945116833e+000	 8.4035276450e-001	 6.8977703541e-001
 3.2862552770e+000	 8.7208156410e-001	 6.5507976302e-001
 3.2776706199e+000	 9.0381154410e-001	 6.1951371225e-001
 3.2687564578e+000	 9.3553793047e-001	 5.8326511503e-001
 3.3678208868e+000	 6.2322345450e-001	 8.6920054113e-001
 3.3617760842e+000	 6.5504699045e-001	 8.4725021874e-001
 3.3554117559e+000	 6.8690388551e-001	 8.2057584626e-001
 3.3487260780e+000	 7.1878971480e-001	 7.9261882537e-001
 3.3417173008e+000	 7.5069999411e-001	 7.6347425247e-001
 3.3343837511e+000	 7.8263018123e-001	 7.3325046931e-001
 3.3267238337e+000	 8.1457567743e-001	 7.0206930252e-001
 3.3187360339e+000	 8.4653182894e-001	 6.7006628009e-001
 3.3104189187e+000	 8.7849392854e-001	 6.3739082363e-001
 3.3017711392e+000	 9.1045721722e-001	 6.0420641508e-001
 3.2927914318e+000	 9.4241688584e-001	 5.7069073677e-001
 3.3924035210e+000	 6.2777253081e-001	 8.5173346923e-001
 3.3863145957e+000	 6.5982835535e-001	 8.2546856795e-001
 3.3799038126e+000	 6.9191778248e-001	 7.9823937372e-001
 3.3731693341e+000	 7.2403635505e-001	 7.7012095957e-001
 3.3661093979e+000	 7.5617955611e-001	 7.4120116282e-001
 3.3587223186e+000	 7.8834281029e-001	 7.1158085191e-001
 3.3510064894e+000	 8.2052148530e-001	 6.8137417157e-001
 3.3429603845e+000	 8.5271089338e-001	 6.5070876519e-001
 3.3345825605e+000	 8.8490629298e-001	 6.1972597309e-001
 3.3258716585e+000	 9.1710289033e-001	 5.8858100532e-001
 3.3168264057e+000	 9.4929584121e-001	 5.5744308786e-001
 3.4169861552e+000	 6.3232160712e-001	 8.3312790180e-001
 3.4108531073e+000	 6.6460972024e-001	 8.0567862441e-001
 3.4043958692e+000	 6.9693167945e-001	 7.7765231058e-001
 3.3976125901e+000	 7.2928299530e-001	 7.4911699561e-001
 3.3905014950e+000	 7.6165911811e-001	 7.2015327134e-001
 3.3830608861e+000	 7.9405543935e-001	 6.9085455876e-001
 3.3752891451e+000	 8.2646729316e-001	 6.6132735924e-001
 3.3671847351e+000	 8.5888995783e-001	 6.3169148293e-001
 3.3587462022e+000	 8.9131865742e-001	 6.0208025323e-001
 3.3499721777e+000	 9.2374856345e-001	 5.7264068584e-001
 3.3408613797e+000	 9.5617479658e-001	 5.4353364133e-001
 3.4415687894e+000	 6.3687068343e-001	 8.1667969986e-001
 3.4353916189e+000	 6.6939108513e-001	 7.8782398464e-001
 3.4288879258e+000	 7.0194557643e-001	 7.5876539909e-001
 3.4220558462e+000	 7.3452963556e-001	 7.2956494034e-001
 3.4148935921e+000	 7.6713868010e-001	 7.0029596635e-001
 3.4073994536e+000	 7.9976806841e-001	 6.7104447466e-001
 3.3995718009e+000	 8.3241310102e-001	 6.4190935974e-001
 3.3914090857e+000	 8.6506902227e-001	 6.1300264776e-001
 3.3829098440e+000	 8.9773102186e-001	 5.8444970741e-001
 3.3740726970e+000	 9.3039423656e-001	 5.5638943541e-001
 3.3648963537e+000	 9.6305375194e-001	 5.2897441560e-001
 3.1245466141e+000	 8.9426419823e-001	 6.4667949129e-001
 3.1157096398e+000	 9.2458284674e-001	 6.3664773942e-001
 3.1065555498e+000	 9.5488879754e-001	 6.2305019858e-001
 3.0970833988e+000	 9.8517735496e-001	 6.0600403993e-001
 3.0872923289e+000	 1.0154437829e+000	 5.8562918203e-001
 3.0771815712e+000	 1.0456833066e+000	 5.6204795984e-001
 3.0667504478e+000	 1.0758911149e+000	 5.3538478494e-001
 3.0559983723e+000	 1.1060623621e+000	 5.0576579778e-001
 3.0449248518e+000	 1.1361921700e+000	 4.7331851289e-001
 3.0335294880e+000	 1.1662756302e+000	 4.3817145783e-001
 3.0218119785e+000	 1.1963078061e+000	 4.0045380687e-001
 3.1485815881e+000	 9.0114315360e-001	 6.3567719076e-001
 3.1396766370e+000	 9.3169502249e-001	 5.7895488615e-001
 3.1304521310e+000	 9.6223409599e-001	 5.1756890373e-001
 3.1209071173e+000	 9.9275564231e-001	 4.7573868297e-001
 3.1110407314e+000	 1.0232548889e+000	 4.6339120081e-001
 3.1008521987e+000	 1.0537270243e+000	 4.4867832428e-001
 3.0903408358e+000	 1.0841672004e+000	 4.3171678950e-001
 3.0795060520e+000	 1.1145705341e+000	 4.1262412829e-001
 3.0683473506e+000	 1.1449321098e+000	 3.9151830132e-001
 3.0568643302e+000	 1.1752469812e+000	 3.6851732613e-001
 3.0450566860e+000	 1.2055101738e+000	 3.4373890100e-001
 3.1726165620e+000	 9.0802210898e-001	 6.2662070658e-001
 3.1636436342e+000	 9.3880719824e-001	 5.7497510193e-001
 3.1543487122e+000	 9.6957939444e-001	 5.1933301232e-001
 3.1447308357e+000	 1.0003339297e+000	 4.5994445489e-001
 3.1347891339e+000	 1.0310659949e+000	 3.9707676141e-001
 3.1245228262e+000	 1.0617707421e+000	 3.3378073782e-001
 3.1139312239e+000	 1.0924432859e+000	 3.2597203829e-001
 3.1030137318e+000	 1.1230787061e+000	 3.1684697520e-001
 3.0917698495e+000	 1.1536720496e+000	 3.0651422394e-001
 3.0801991724e+000	 1.1842183322e+000	 2.9508156734e-001
 3.0683013935e+000	 1.2147125416e+000	 2.8265550939e-001
 3.1966515360e+000	 9.1490106435e-001	 6.1684250709e-001
 3.1876106315e+000	 9.4591937399e-001	 5.6990206429e-001
 3.1782452933e+000	 9.7692469289e-001	 5.1961508039e-001
 3.1685545542e+000	 1.0079122170e+000	 4.6622522670e-001
 3.1585375365e+000	 1.0388771009e+000	 4.0999307434e-001
 3.1481934537e+000	 1.0698144598e+000	 3.5119609925e-001
 3.1375216120e+000	 1.1007193714e+000	 2.9012865259e-001
 3.1265214116e+000	 1.1315868782e+000	 2.2710189558e-001
 3.1151923483e+000	 1.1624119893e+000	 2.1827172046e-001
 3.1035340146e+000	 1.1931896832e+000	 2.1783867187e-001
 3.0915461010e+000	 1.2239149093e+000	 2.1718748307e-001
 3.2206865099e+000	 9.2178001972e-001	 6.0635101657e-001
 3.2115776287e+000	 9.5303154973e-001	 5.6375294523e-001
 3.2021418745e+000	 9.8426999133e-001	 5.1844124642e-001
 3.1923782726e+000	 1.0154905044e+000	 4.7065334614e-001
 3.1822859390e+000	 1.0466882070e+000	 4.2064317140e-001
 3.1718640811e+000	 1.0778581776e+000	 3.6868115525e-001
 3.1611120000e+000	 1.1089954569e+000	 3.1505420732e-001
 3.1500290914e+000	 1.1400950502e+000	 2.6006564906e-001
 3.1386148472e+000	 1.1711519291e+000	 2.0403511284e-001
 3.1268688568e+000	 1.2021610342e+000	 1.4729840426e-001
 3.1147908086e+000	 1.2331172771e+000	 1.4731632370e-001
 3.2447214839e+000	 9.2865897510e-001	 5.9515531522e-001
 3.2355446259e+000	 9.6014372548e-001	 5.5654531760e-001
 3.2260384556e+000	 9.9161528978e-001	 5.1583778634e-001
 3.2162019911e+000	 1.0230687917e+000	 4.7326400079e-001
 3.2060343415e+000	 1.0544993130e+000	 4.2907135851e-001
 3.1955347086e+000	 1.0859018953e+000	 3.8352338029e-001
 3.1847023881e+000	 1.1172715424e+000	 3.3689968103e-001
 3.1735367712e+000	 1.1486032222e+000	 2.8949590544e-001
 3.1620373461e+000	 1.1798918689e+000	 2.4162362779e-001
 3.1502036991e+000	 1.2111323852e+000	 1.9361021499e-001
 3.1380355161e+000	 1.2423196448e+000	 1.4579865231e-001
 3.2687564578e+000	 9.3553793047e-001	 5.8326511503e-001
 3.2595116232e+000	 9.6725590122e-001	 5.4829714038e-001
 3.2499350368e+000	 9.9896058822e-001	 5.1183110844e-001
 3.2400257095e+000	 1.0306470791e+000	 4.7409224894e-001
 3.2297827441e+000	 1.0623104190e+000	 4.3532154266e-001
 3.2192053361e+000	 1.0939456130e+000	 3.9577572684e-001
 3.2082927761e+000	 1.1255476279e+000	 3.5572726639e-001
 3.1970444510e+000	 1.1571113942e+000	 3.1546429013e-001
 3.1854598449e+000	 1.1886318086e+000	 2.7529049127e-001
 3.1735385413e+000	 1.2201037362e+000	 2.3552499133e-001
 3.1612802236e+000	 1.2515220125e+000	 1.9560760953e-001
 3.2927914318e+000	 9.4241688584e-001	 5.7069073677e-001
 3.2834786204e+000	 9.7436807697e-001	 5.3902674456e-001
 3.2738316179e+000	 1.0063058867e+000	 5.0644774863e-001
 3.2638494280e+000	 1.0382253664e+000	 4.7317302426e-001
 3.2535311466e+000	 1.0701215250e+000	 4.3943724646e-001
 3.2428759635e+000	 1.1019893308e+000	 4.0549049566e-001
 3.2318831642e+000	 1.1338237134e+000	 3.7159822950e-001
 3.2205521308e+000	 1.1656195662e+000	 3.3804121965e-001
 3.2088823438e+000	 1.1973717484e+000	 3.0511545312e-001
 3.1968733835e+000	 1.2290750872e+000	 2.7313199701e-001
 3.1845249311e+000	 1.2607243803e+000	 2.3638567387e-001
 3.3168264057e+000	 9.4929584121e-001	 5.5744308786e-001
 3.3074456176e+000	 9.8148025271e-001	 5.2875281970e-001
 3.2977281991e+000	 1.0136511851e+000	 4.9971436572e-001
 3.2876731465e+000	 1.0458036537e+000	 4.7054114038e-001
 3.2772795491e+000	 1.0779326310e+000	 4.4146162208e-001
 3.2665465910e+000	 1.1100330485e+000	 4.1271935940e-001
 3.2554735523e+000	 1.1420997989e+000	 3.8457294342e-001
 3.2440598105e+000	 1.1741277382e+000	 3.5729594543e-001
 3.2323048426e+000	 1.2061116882e+000	 3.3117681891e-001
 3.2202082257e+000	 1.2380464382e+000	 3.0651876530e-001
 3.2077696387e+000	 1.2699267480e+000	 2.7292637176e-001
 3.3408613797e+000	 9.5617479658e-001	 5.4353364133e-001
 3.3314126149e+000	 9.8859242845e-001	 5.1749440098e-001
 3.3216247802e+000	 1.0209964835e+000	 4.9165773706e-001
 3.3114968649e+000	 1.0533819411e+000	 4.6623129517e-001
 3.3010279516e+000	 1.0857437371e+000	 4.4143746459e-001
 3.2902172185e+000	 1.1180767663e+000	 4.1751338516e-001
 3.2790639403e+000	 1.1503758844e+000	 3.9471092034e-001
 3.2675674903e+000	 1.1826359103e+000	 3.7329659571e-001
 3.2557273415e+000	 1.2148516279e+000	 3.5355150189e-001
 3.2435430679e+000	 1.2470177892e+000	 3.3577116127e-001
 3.2310143462e+000	 1.2791291158e+000	 3.0530757881e-001
 3.3648963537e+000	 9.6305375194e-001	 5.2897441560e-001
 3.3553796121e+000	 9.9570460419e-001	 5.0527085690e-001
 3.3455213614e+000	 1.0283417820e+000	 4.8230475428e-001
 3.3353205834e+000	 1.0609602284e+000	 4.6027807487e-001
 3.3247763542e+000	 1.0935548431e+000	 4.3940722468e-001
 3.3138878460e+000	 1.1261204840e+000	 4.1992305618e-001
 3.3026543284e+000	 1.1586519699e+000	 4.0207084227e-001
 3.2910751701e+000	 1.1911440823e+000	 3.8611021565e-001
 3.2791498404e+000	 1.2235915677e+000	 3.7231507273e-001
 3.2668779101e+000	 1.2559891402e+000	 3.5801973781e-001
 3.2542590537e+000	 1.2883314835e+000	 3.3360528951e-001
 3.0218119785e+000	 1.1963078061e+000	 4.0045380687e-001
 3.0097721177e+000	 1.2262837353e+000	 3.5067073089e-001
 2.9974097985e+000	 1.2561984318e+000	 2.9984656095e-001
 2.9847250126e+000	 1.2860468885e+000	 2.3541252609e-001
 2.9717178521e+000	 1.3158240793e+000	 1.7432949095e-001
 2.9583885102e+000	 1.3455249618e+000	 1.1660540247e-001
 2.9447372821e+000	 1.3751444794e+000	 6.2244353787e-002
 2.9307645658e+000	 1.4046775645e+000	 1.1246547812e-002
 2.9164708625e+000	 1.4341191402e+000	-3.6391734053e-002
 2.9018567779e+000	 1.4634641235e+000	-8.0678157739e-002
 2.8869230222e+000	 1.4927074274e+000	-1.2162435689e-001
 3.0450566860e+000	 1.2055101738e+000	 3.4373890100e-001
 3.0329242109e+000	 1.2357166871e+000	 3.0414823996e-001
 3.0204667969e+000	 1.2658614967e+000	 2.5606559627e-001
 3.0076844357e+000	 1.2959395569e+000	 2.0053534703e-001
 2.9945772202e+000	 1.3259458030e+000	 1.4760478922e-001
 2.9811453449e+000	 1.3558751538e+000	 9.7284663114e-002
 2.9673891074e+000	 1.3857225139e+000	 4.9582569730e-002
 2.9533089086e+000	 1.4154827765e+000	 4.5029390995e-003
 2.9389052537e+000	 1.4451508259e+000	-3.7952997002e-002
 2.9241787531e+000	 1.4747215398e+000	-7.7787227850e-002
 2.9091301224e+000	 1.5041897923e+000	-1.1500498198e-001
 3.0683013935e+000	 1.2147125416e+000	 2.8265550939e-001
 3.0560763041e+000	 1.2451496389e+000	 2.5337222627e-001
 3.0435237954e+000	 1.2755245616e+000	 2.0846907142e-001
 3.0306438589e+000	 1.3058322253e+000	 1.6207969455e-001
 3.0174365883e+000	 1.3360675267e+000	 1.1755122637e-001
 3.0039021796e+000	 1.3662253458e+000	 7.4897150134e-002
 2.9900409326e+000	 1.3963005484e+000	 3.4128515951e-002
 2.9758532514e+000	 1.4262879886e+000	-4.7460861292e-003
 2.9613396450e+000	 1.4561825116e+000	-4.1720549484e-002
 2.9465007283e+000	 1.4859789561e+000	-7.6791270668e-002
 2.9313372226e+000	 1.5156721571e+000	-1.0995716546e-001
 3.0915461010e+000	 1.2239149093e+000	 2.1718748307e-001
 3.0792283974e+000	 1.2545825907e+000	 1.9526041864e-001
 3.0665807938e+000	 1.2851876264e+000	 1.5712767471e-001
 3.0536032821e+000	 1.3157248936e+000	 1.2011142545e-001
 3.0402959564e+000	 1.3461892504e+000	 8.4229557742e-002
 3.0266590143e+000	 1.3765755378e+000	 4.9498248131e-002
 3.0126927579e+000	 1.4068785828e+000	 1.5931937984e-002
 2.9983975942e+000	 1.4370932006e+000	-1.6456688674e-002
 2.9837740362e+000	 1.4672141973e+000	-4.7656724640e-002
 2.9688227035e+000	 1.4972363725e+000	-7.7659056246e-002
 2.9535443227e+000	 1.5271545219e+000	-1.0645637726e-001
 3.1147908086e+000	 1.2331172771e+000	 1.4731632370e-001
 3.1023804906e+000	 1.2640155425e+000	 1.2992556644e-001
 3.0896377923e+000	 1.2948506913e+000	 1.0211001369e-001
 3.0765627052e+000	 1.3256175620e+000	 7.4694462308e-002
 3.0631553244e+000	 1.3563109741e+000	 4.7698759063e-002
 3.0494158490e+000	 1.3869257298e+000	 2.1141724819e-002
 3.0353445831e+000	 1.4174566173e+000	-4.9588647556e-003
 3.0209419370e+000	 1.4478984127e+000	-3.0586296658e-002
 3.0062084275e+000	 1.4782458830e+000	-5.5724936154e-002
 2.9911446788e+000	 1.5084937888e+000	-8.0360240469e-002
 2.9757514229e+000	 1.5386368868e+000	-1.0447877055e-001
 3.1380355161e+000	 1.2423196448e+000	 1.4579865231e-001
 3.1255325838e+000	 1.2734484944e+000	 6.3716738342e-002
 3.1126947907e+000	 1.3045137561e+000	 4.3482692240e-002
 3.0995221284e+000	 1.3355102304e+000	 2.5890865121e-002
 3.0860146925e+000	 1.3664326978e+000	 8.0160923698e-003
 3.0721726837e+000	 1.3972759218e+000	-1.0120209093e-002
 3.0579964084e+000	 1.4280346517e+000	-2.8496985413e-002
 3.0434862798e+000	 1.4587036247e+000	-4.7093558591e-002
 3.0286428187e+000	 1.4892775687e+000	-6.5889638233e-002
 3.0134666540e+000	 1.5197512051e+000	-8.4865332238e-002
 2.9979585231e+000	 1.5501192516e+000	-1.0400115641e-001
 3.1612802236e+000	 1.2515220125e+000	 1.9560760953e-001
 3.1486846770e+000	 1.2828814462e+000	 1.1866930014e-001
 3.1357517892e+000	 1.3141768210e+000	 4.0099657362e-002
 3.1224815516e+000	 1.3454028988e+000	-2.6239100235e-002
 3.1088740606e+000	 1.3765544214e+000	-3.4762830990e-002
 3.0949295184e+000	 1.4076261138e+000	-4.4236842661e-002
 3.0806482336e+000	 1.4386126862e+000	-5.4636858495e-002
 3.0660306226e+000	 1.4695088367e+000	-6.5938298501e-002
 3.0510772100e+000	 1.5003092544e+000	-7.8116287359e-002
 3.0357886292e+000	 1.5310086215e+000	-9.1145662116e-002
 3.0201656232e+000	 1.5616016164e+000	-1.0500097965e-001
 3.1845249311e+000	 1.2607243803e+000	 2.3638567387e-001
 3.1718367702e+000	 1.2923143980e+000	 1.6946214050e-001
 3.1588087876e+000	 1.3238398859e+000	 1.0014407846e-001
 3.1454409748e+000	 1.3552955671e+000	 2.8678334380e-002
 3.1317334287e+000	 1.3866761451e+000	-4.4678015795e-002
 3.1176863531e+000	 1.4179763059e+000	-8.1158909965e-002
 3.1033000588e+000	 1.4491907206e+000	-8.3334210916e-002
 3.0885749654e+000	 1.4803140488e+000	-8.7081473033e-002
 3.0735116012e+000	 1.5113409401e+000	-9.2371305702e-002
 3.0581106044e+000	 1.5422660378e+000	-9.9173352336e-002
 3.0423727234e+000	 1.5730839812e+000	-1.0745629569e-001
 3.2077696387e+000	 1.2699267480e+000	 2.7292637176e-001
 3.1949888634e+000	 1.3017473498e+000	 2.1617099063e-001
 3.1818657860e+000	 1.3335029507e+000	 1.5626637761e-001
 3.1684003979e+000	 1.3651882355e+000	 9.3465534044e-002
 3.1545927968e+000	 1.3967978688e+000	 2.8032603866e-002
 3.1404431878e+000	 1.4283264979e+000	-3.9757348614e-002
 3.1259518841e+000	 1.4597687551e+000	-1.0961858682e-001
 3.1111193082e+000	 1.4911192608e+000	-1.1048513041e-001
 3.0959459925e+000	 1.5223726258e+000	-1.0862204614e-001
 3.0804325796e+000	 1.5535234541e+000	-1.0892128812e-001
 3.0645798236e+000	 1.5845663461e+000	-1.1134574844e-001
 3.2310143462e+000	 1.2791291158e+000	 3.0530757881e-001
 3.2181409566e+000	 1.3111803016e+000	 2.5886973909e-001
 3.2049227845e+000	 1.3431660156e+000	 2.0853619748e-001
 3.1913598211e+000	 1.3750809039e+000	 1.5456615215e-001
 3.1774521649e+000	 1.4069195925e+000	 9.7230854851e-002
 3.1632000224e+000	 1.4386766899e+000	 3.6813390510e-002
 3.1486037093e+000	 1.4703467896e+000	-2.6391570466e-002
 3.1336636511e+000	 1.5019244728e+000	-9.2078047166e-002
 3.1183803837e+000	 1.5334043115e+000	-1.2683675876e-001
 3.1027545548e+000	 1.5647808705e+000	-1.2036309023e-001
 3.0867869237e+000	 1.5960487109e+000	-1.1664854911e-001
 3.2542590537e+000	 1.2883314835e+000	 3.3360528951e-001
 3.2412930498e+000	 1.3206132534e+000	 2.9763049761e-001
 3.2279797829e+000	 1.3528290804e+000	 2.5702151472e-001
 3.2143192443e+000	 1.3849735723e+000	 2.1204377875e-001
 3.2003115330e+000	 1.4170413162e+000	 1.6297569013e-001
 3.1859568571e+000	 1.4490268819e+000	 1.1010839307e-001
 3.1712555346e+000	 1.4809248240e+000	 5.3745528215e-002
 3.1562079939e+000	 1.5127296849e+000	-5.7970434483e-003
 3.1408147750e+000	 1.5444359972e+000	-6.8191545162e-002
 3.1250765300e+000	 1.5760382868e+000	-1.3309861751e-001
 3.1089940239e+000	 1.6075310757e+000	-1.2334445595e-001
 2.8869230222e+000	 1.4927074274e+000	-1.2162435689e-001
 2.8716704108e+000	 1.5218439643e+000	-1.6764228078e-001
 2.8560998648e+000	 1.5508686476e+000	-2.1194815611e-001
 2.8402124111e+000	 1.5797763955e+000	-2.5470927561e-001
 2.8240091829e+000	 1.6085621327e+000	-2.9609664359e-001
 2.8074914197e+000	 1.6372207940e+000	-3.3628481311e-001
 2.7906604674e+000	 1.6657473264e+000	-3.7545171613e-001
 2.7735177786e+000	 1.6941366922e+000	-4.1377848694e-001
 2.7560649120e+000	 1.7223838716e+000	-4.5144927902e-001
 2.7383035326e+000	 1.7504838655e+000	-4.8865107565e-001
 2.7202354115e+000	 1.7784316985e+000	-5.2557349456e-001
 2.9091301224e+000	 1.5041897923e+000	-1.1500498198e-001
 2.8937601832e+000	 1.5335504563e+000	-1.6113747458e-001
 2.8780698638e+000	 1.5627984065e+000	-2.0585451637e-001
 2.8620601989e+000	 1.5919285216e+000	-2.4930282608e-001
 2.8457323305e+000	 1.6209356876e+000	-2.9163239606e-001
 2.8290875075e+000	 1.6498148002e+000	-3.3299634683e-001
 2.8121270864e+000	 1.6785607674e+000	-3.7355077556e-001
 2.7948525307e+000	 1.7071685129e+000	-4.1345459832e-001
 2.7772654113e+000	 1.7356329783e+000	-4.5286938663e-001
 2.7593674059e+000	 1.7639491260e+000	-4.9195919832e-001
 2.7411602993e+000	 1.7921119423e+000	-5.3089040311e-001
 2.9313372226e+000	 1.5156721571e+000	-1.0995716546e-001
 2.9158499556e+000	 1.5452569483e+000	-1.5559996165e-001
 2.9000398628e+000	 1.5747281653e+000	-2.0011788042e-001
 2.8839079867e+000	 1.6040806477e+000	-2.4363733313e-001
 2.8674554780e+000	 1.6333092425e+000	-2.8628757226e-001
 2.8506835954e+000	 1.6624088063e+000	-3.2820056337e-001
 2.8335937054e+000	 1.6913742084e+000	-3.6951085146e-001
 2.8161872829e+000	 1.7202003336e+000	-4.1035542203e-001
 2.7984659106e+000	 1.7488820850e+000	-4.5087355695e-001
 2.7804312793e+000	 1.7774143865e+000	-4.9120668544e-001
 2.7620851870e+000	 1.8057921862e+000	-5.3149823028e-001
 2.9535443227e+000	 1.5271545219e+000	-1.0645637726e-001
 2.9379397280e+000	 1.5569634404e+000	-1.5101823736e-001
 2.9220098617e+000	 1.5866579241e+000	-1.9473989608e-001
 2.9057557745e+000	 1.6162327739e+000	-2.3772771845e-001
 2.8891786256e+000	 1.6456827974e+000	-2.8009048367e-001
 2.8722796832e+000	 1.6750028124e+000	-3.2193927410e-001
 2.8550603244e+000	 1.7041876494e+000	-3.6338735943e-001
 2.8375220350e+000	 1.7332321543e+000	-4.0455007627e-001
 2.8196664100e+000	 1.7621311917e+000	-4.4554470318e-001
 2.8014951526e+000	 1.7908796470e+000	-4.8649033146e-001
 2.7830100748e+000	 1.8194724300e+000	-5.2750773180e-001
 2.9757514229e+000	 1.5386368868e+000	-1.0447877055e-001
 2.9600295004e+000	 1.5686699324e+000	-1.4738108887e-001
 2.9439798607e+000	 1.5985876830e+000	-1.8972210762e-001
 2.9276035623e+000	 1.6283849000e+000	-2.3158840130e-001
 2.9109017732e+000	 1.6580563522e+000	-2.7306853689e-001
 2.8938757711e+000	 1.6875968185e+000	-3.1425297978e-001
 2.8765269434e+000	 1.7170010903e+000	-3.5523399560e-001
 2.8588567872e+000	 1.7462639751e+000	-3.9610554799e-001
 2.8408669093e+000	 1.7753802984e+000	-4.3696319267e-001
 2.8225590259e+000	 1.8043449075e+000	-4.7790396778e-001
 2.8039349626e+000	 1.8331526738e+000	-5.1902628080e-001
 2.9979585231e+000	 1.5501192516e+000	-1.0400115641e-001
 2.9821192728e+000	 1.5803764244e+000	-1.4467758428e-001
 2.9659498596e+000	 1.6105174418e+000	-1.8506595966e-001
 2.9494513500e+000	 1.6405370261e+000	-2.2523331708e-001
 2.9326249207e+000	 1.6704299071e+000	-2.6524826713e-001
 2.9154718589e+000	 1.7001908246e+000	-3.0518091914e-001
 2.8979935624e+000	 1.7298145313e+000	-3.4510280034e-001
 2.8801915393e+000	 1.7592957958e+000	-3.8508677180e-001
 2.8620674086e+000	 1.7886294051e+000	-4.2520694119e-001
 2.8436228993e+000	 1.8178101680e+000	-4.6553857254e-001
 2.8248598504e+000	 1.8468329177e+000	-5.0615799312e-001
 3.0201656232e+000	 1.5616016164e+000	-1.0500097965e-001
 3.0042090452e+000	 1.5920829165e+000	-1.4289706232e-001
 2.9879198586e+000	 1.6224472006e+000	-1.8077280079e-001
 2.9712991378e+000	 1.6526891522e+000	-2.1867593514e-001
 2.9543480683e+000	 1.6828034620e+000	-2.5665537032e-001
 2.9370679468e+000	 1.7127848307e+000	-2.9476111521e-001
 2.9194601813e+000	 1.7426279723e+000	-3.3304421910e-001
 2.9015262915e+000	 1.7723276165e+000	-3.7155670541e-001
 2.8832679079e+000	 1.8018785118e+000	-4.1035150310e-001
 2.8646867726e+000	 1.8312754286e+000	-4.4948237551e-001
 2.8457847382e+000	 1.8605131615e+000	-4.8900384707e-001
 3.0423727234e+000	 1.5730839812e+000	-1.0745629569e-001
 3.0262988176e+000	 1.6037894085e+000	-1.4202912251e-001
 3.0098898576e+000	 1.6343769594e+000	-1.7684388707e-001
 2.9931469256e+000	 1.6648412783e+000	-2.1192927579e-001
 2.9760712159e+000	 1.6951770168e+000	-2.4731473368e-001
 2.9586640346e+000	 1.7253788368e+000	-2.8303041977e-001
 2.9409268003e+000	 1.7554414133e+000	-3.1910716063e-001
 2.9228610436e+000	 1.7853594372e+000	-3.5557640181e-001
 2.9044684072e+000	 1.8151276185e+000	-3.9247015749e-001
 2.8857506459e+000	 1.8447406891e+000	-4.2982095838e-001
 2.8667096260e+000	 1.8741934053e+000	-4.6766179791e-001
 3.0645798236e+000	 1.5845663461e+000	-1.1134574844e-001
 3.0483885900e+000	 1.6154959005e+000	-1.4206361561e-001
 3.0318598565e+000	 1.6463067183e+000	-1.7328038542e-001
 3.0149947134e+000	 1.6769934045e+000	-2.0500592656e-001
 2.9977943634e+000	 1.7075505717e+000	-2.3725046503e-001
 2.9802601225e+000	 1.7379728429e+000	-2.7002455571e-001
 2.9623934193e+000	 1.7682548542e+000	-3.0333905269e-001
 2.9441957958e+000	 1.7983912579e+000	-3.3720507826e-001
 2.9256689066e+000	 1.8283767252e+000	-3.7163399065e-001
 2.9068145192e+000	 1.8582059496e+000	-4.0663735070e-001
 2.8876345137e+000	 1.8878736492e+000	-4.5729877239e-001
 3.0867869237e+000	 1.5960487109e+000	-1.1664854911e-001
 3.0704783624e+000	 1.6272023926e+000	-1.4299063471e-001
 3.0538298555e+000	 1.6582364771e+000	-1.7008337680e-001
 3.0368425011e+000	 1.6891455306e+000	-1.9791805778e-001
 3.0195175110e+000	 1.7199241266e+000	-2.2648592086e-001
 3.0018562103e+000	 1.7505668490e+000	-2.5577815769e-001
 2.9838600383e+000	 1.7810682952e+000	-2.8578589528e-001
 2.9655305479e+000	 1.8114230786e+000	-3.1650018233e-001
 2.9468694059e+000	 1.8416258319e+000	-3.4791197493e-001
 2.9278783926e+000	 1.8716712101e+000	-3.8001212173e-001
 2.9085594015e+000	 1.9015538930e+000	-4.4392125755e-001
 3.1089940239e+000	 1.6075310757e+000	-1.2334445595e-001
 3.0925681348e+000	 1.6389088846e+000	-1.4480050646e-001
 3.0757998544e+000	 1.6701662359e+000	-1.6725385927e-001
 3.0586902889e+000	 1.7012976567e+000	-1.9067743745e-001
 3.0412406585e+000	 1.7322976814e+000	-2.1504373312e-001
 3.0234522981e+000	 1.7631608551e+000	-2.4032481098e-001
 3.0053266573e+000	 1.7938817362e+000	-2.6649231164e-001
 2.9868653000e+000	 1.8244548993e+000	-2.9351745511e-001
 2.9680699052e+000	 1.8548749386e+000	-3.2137104424e-001
 2.9489422659e+000	 1.8851364706e+000	-3.6166534265e-001
 2.9294842893e+000	 1.9152341368e+000	-4.2671141901e-001
 2.7202354115e+000	 1.7784316985e+000	-5.2557349456e-001
 2.7018624252e+000	 1.8062224213e+000	-5.3540115627e-001
 2.6831865557e+000	 1.8338511137e+000	-5.4432712656e-001
 2.6642098895e+000	 1.8613128874e+000	-5.5230447211e-001
 2.6449346172e+000	 1.8886028886e+000	-5.7585482462e-001
 2.6253630329e+000	 1.9157163009e+000	-6.1483612592e-001
 2.6054975333e+000	 1.9426483480e+000	-6.5235005435e-001
 2.5853406170e+000	 1.9693942963e+000	-6.8812616192e-001
 2.5648948833e+000	 1.9959494577e+000	-7.2189437059e-001
 2.5441630315e+000	 2.0223091922e+000	-7.5338551004e-001
 2.5231478596e+000	 2.0484689108e+000	-7.8233185675e-001
 2.7411602993e+000	 1.7921119423e+000	-5.3089040311e-001
 2.7226459824e+000	 1.8201164399e+000	-5.3733999125e-001
 2.7038264523e+000	 1.8479576607e+000	-5.4253724085e-001
 2.6847038117e+000	 1.8756306788e+000	-5.4723273933e-001
 2.6652802681e+000	 1.9031306032e+000	-5.8334791589e-001
 2.6455581331e+000	 1.9304525802e+000	-6.1802763107e-001
 2.6255398220e+000	 1.9575917969e+000	-6.5102817088e-001
 2.6052278525e+000	 1.9845434832e+000	-6.8210599175e-001
 2.5846248440e+000	 2.0113029150e+000	-7.1101823469e-001
 2.5637335164e+000	 2.0378654168e+000	-7.3752324172e-001
 2.5425566893e+000	 2.0642263640e+000	-7.6138107324e-001
 2.7620851870e+000	 1.8057921862e+000	-5.3149823028e-001
 2.7434295395e+000	 1.8340104585e+000	-5.3531677075e-001
 2.7244663489e+000	 1.8620642078e+000	-5.3753722331e-001
 2.7051977340e+000	 1.8899484703e+000	-5.5628740034e-001
 2.6856259190e+000	 1.9176583177e+000	-5.8915521153e-001
 2.6657532334e+000	 1.9451888594e+000	-6.2035296273e-001
 2.6455821107e+000	 1.9725352457e+000	-6.4966300526e-001
 2.6251150880e+000	 1.9996926701e+000	-6.7686819240e-001
 2.6043548046e+000	 2.0266563724e+000	-7.0175237340e-001
 2.5833040013e+000	 2.0534216413e+000	-7.2410088910e-001
 2.5619655190e+000	 2.0799838171e+000	-7.4370106801e-001
 2.7830100748e+000	 1.8194724300e+000	-5.2750773180e-001
 2.7642130966e+000	 1.8479044772e+000	-5.2942473107e-001
 2.7451062455e+000	 1.8761707548e+000	-5.3081021402e-001
 2.7256916562e+000	 1.9042662617e+000	-5.6293846566e-001
 2.7059715699e+000	 1.9321860322e+000	-5.9335817319e-001
 2.6859483336e+000	 1.9599251387e+000	-6.2187689849e-001
 2.6656243995e+000	 1.9874786945e+000	-6.4830256130e-001
 2.6450023235e+000	 2.0148418570e+000	-6.7244391115e-001
 2.6240847652e+000	 2.0420098298e+000	-6.9411100170e-001
 2.6028744861e+000	 2.0689778659e+000	-7.1311566608e-001
 2.5813743487e+000	 2.0957412703e+000	-7.2927199228e-001
 2.8039349626e+000	 1.8331526738e+000	-5.1902628080e-001
 2.7849966537e+000	 1.8617984958e+000	-5.1975424608e-001
 2.7657461421e+000	 1.8902773018e+000	-5.3656674564e-001
 2.7461855784e+000	 1.9185840532e+000	-5.6728217243e-001
 2.7263172208e+000	 1.9467137467e+000	-5.9603698005e-001
 2.7061434339e+000	 1.9746614179e+000	-6.2266346573e-001
 2.6856666882e+000	 2.0024221433e+000	-6.4699462736e-001
 2.6648895590e+000	 2.0299910439e+000	-6.6886461677e-001
 2.6438147259e+000	 2.0573632871e+000	-6.8810919487e-001
 2.6224449710e+000	 2.0845340904e+000	-7.0456618737e-001
 2.6007831784e+000	 2.1114987234e+000	-7.1807593997e-001
 2.8248598504e+000	 1.8468329177e+000	-5.0615799312e-001
 2.8057802108e+000	 1.8756925144e+000	-5.0721577051e-001
 2.7863860387e+000	 1.9043838488e+000	-5.3934672625e-001
 2.7666795006e+000	 1.9329018446e+000	-5.6941301279e-001
 2.7466628717e+000	 1.9612414613e+000	-5.9727057627e-001
 2.7263385341e+000	 1.9893976971e+000	-6.2277596945e-001
 2.7057089769e+000	 2.0173655922e+000	-6.4578678437e-001
 2.6847767946e+000	 2.0451402308e+000	-6.6616208759e-001
 2.6635446865e+000	 2.0727167445e+000	-6.8376285663e-001
 2.6420154558e+000	 2.1000903150e+000	-6.9845241661e-001
 2.6201920081e+000	 2.1272561766e+000	-7.1009687577e-001
 2.8457847382e+000	 1.8605131615e+000	-4.8900384707e-001
 2.8265637680e+000	 1.8895865330e+000	-5.0675973333e-001
 2.8070259352e+000	 1.9184903959e+000	-5.3925792904e-001
 2.7871734229e+000	 1.9472196360e+000	-5.6942379803e-001
 2.7670085226e+000	 1.9757691758e+000	-5.9713671647e-001
 2.7465336344e+000	 2.0041339764e+000	-6.2227701880e-001
 2.7257512656e+000	 2.0323090410e+000	-6.4472641340e-001
 2.7046640301e+000	 2.0602894177e+000	-6.6436840011e-001
 2.6832746472e+000	 2.0880702019e+000	-6.8108868868e-001
 2.6615859407e+000	 2.1156465395e+000	-6.9477561678e-001
 2.6396008378e+000	 2.1430136297e+000	-7.0532056636e-001
 2.8667096260e+000	 1.8741934053e+000	-4.6766179791e-001
 2.8473473251e+000	 1.9034805517e+000	-5.0281061761e-001
 2.8276658318e+000	 1.9325969429e+000	-5.3640603700e-001
 2.8076673451e+000	 1.9615374275e+000	-5.6740571992e-001
 2.7873541735e+000	 1.9902968903e+000	-5.9571200906e-001
 2.7667287347e+000	 2.0188702556e+000	-6.2122855253e-001
 2.7457935543e+000	 2.0472524898e+000	-6.4386070299e-001
 2.7245512656e+000	 2.0754386045e+000	-6.6351591816e-001
 2.7030046078e+000	 2.1034236592e+000	-6.8010416161e-001
 2.6811564256e+000	 2.1312027641e+000	-6.9353830274e-001
 2.6590096675e+000	 2.1587710829e+000	-7.0373451461e-001
 2.8876345137e+000	 1.8878736492e+000	-4.5729877239e-001
 2.8681308822e+000	 1.9173745703e+000	-4.9548603420e-001
 2.8483057284e+000	 1.9467034899e+000	-5.3089471856e-001
 2.8281612673e+000	 1.9758552189e+000	-5.6344840940e-001
 2.8076998244e+000	 2.0048246048e+000	-5.9307195784e-001
 2.7869238349e+000	 2.0336065348e+000	-6.1969186322e-001
 2.7658358430e+000	 2.0621959387e+000	-6.4323665613e-001
 2.7444385011e+000	 2.0905877914e+000	-6.6363728244e-001
 2.7227345685e+000	 2.1187771166e+000	-6.8082748696e-001
 2.7007269104e+000	 2.1467589886e+000	-6.9474419591e-001
 2.6784184972e+000	 2.1745285361e+000	-7.0532789673e-001
 2.9085594015e+000	 1.9015538930e+000	-4.4392125755e-001
 2.8889144393e+000	 1.9312685889e+000	-4.8490121713e-001
 2.8689456250e+000	 1.9608100369e+000	-5.2282570013e-001
 2.8486551895e+000	 1.9901730104e+000	-5.5763999271e-001
 2.8280454753e+000	 2.0193523194e+000	-5.8929100169e-001
 2.8071189352e+000	 2.0483428141e+000	-6.1772762054e-001
 2.7858781318e+000	 2.0771393875e+000	-6.4290109691e-001
 2.7643257366e+000	 2.1057369783e+000	-6.6476540059e-001
 2.7424645291e+000	 2.1341305740e+000	-6.8327759066e-001
 2.7202973953e+000	 2.1623152132e+000	-6.9839818088e-001
 2.6978273268e+000	 2.1902859892e+000	-7.1009150202e-001
 2.9294842893e+000	 1.9152341368e+000	-4.2671141901e-001
 2.9096979964e+000	 1.9451626075e+000	-4.7116910853e-001
 2.8895855216e+000	 1.9749165840e+000	-5.1229883543e-001
 2.8691491118e+000	 2.0044908018e+000	-5.5006714518e-001
 2.8483911262e+000	 2.0338800339e+000	-5.8444255263e-001
 2.8273140354e+000	 2.0630790933e+000	-6.1539589352e-001
 2.8059204205e+000	 2.0920828363e+000	-6.4290067692e-001
 2.7842129721e+000	 2.1208861652e+000	-6.6693343766e-001
 2.7621944897e+000	 2.1494840313e+000	-6.8747408746e-001
 2.7398678801e+000	 2.1778714378e+000	-7.0450626381e-001
 2.7172361565e+000	 2.2060434424e+000	-7.1801767533e-001
 2.5231478596e+000	 2.0484689108e+000	-7.8233185675e-001
 2.5018522630e+000	 2.0744240777e+000	-8.4488399945e-001
 2.4802792335e+000	 2.1001702130e+000	-8.5531521670e-001
 2.4584318577e+000	 2.1257028957e+000	-8.6224536067e-001
 2.4363133158e+000	 2.1510177654e+000	-8.7078328593e-001
 2.4139268797e+000	 2.1761105255e+000	-8.8097164321e-001
 2.3912759120e+000	 2.2009769451e+000	-8.9285288719e-001
 2.3683638636e+000	 2.2256128616e+000	-9.0646920844e-001
 2.3451942726e+000	 2.2500141830e+000	-9.2186246207e-001
 2.3217707623e+000	 2.2741768901e+000	-9.3907409315e-001
 2.2980970388e+000	 2.2980970388e+000	-9.5814505923e-001
 2.5425566893e+000	 2.0642263640e+000	-7.6138107324e-001
 2.5210972804e+000	 2.0903811859e+000	-8.2008384749e-001
 2.4993583046e+000	 2.1163253685e+000	-8.7827335073e-001
 2.4773428720e+000	 2.1420544564e+000	-8.8092249133e-001
 2.4550541875e+000	 2.1675640559e+000	-8.8502897918e-001
 2.4324955480e+000	 2.1928498373e+000	-8.9063282923e-001
 2.4096703421e+000	 2.2179075370e+000	-8.9777407233e-001
 2.3865820472e+000	 2.2427329605e+000	-9.0649269012e-001
 2.3632342286e+000	 2.2673219844e+000	-9.1682854623e-001
 2.3396305373e+000	 2.2916705585e+000	-9.2882131398e-001
 2.3157747084e+000	 2.3157747084e+000	-9.4251040065e-001
 2.5619655190e+000	 2.0799838171e+000	-7.4370106801e-001
 2.5403422979e+000	 2.1063382942e+000	-7.9846844684e-001
 2.5184373756e+000	 2.1324805240e+000	-8.5428516131e-001
 2.4962538863e+000	 2.1584060172e+000	-9.0116915736e-001
 2.4737950591e+000	 2.1841103464e+000	-9.0072111089e-001
 2.4510642163e+000	 2.2095891490e+000	-9.0161877432e-001
 2.4280647722e+000	 2.2348381289e+000	-9.0389982771e-001
 2.4048002307e+000	 2.2598530594e+000	-9.0760211723e-001
 2.3812741845e+000	 2.2846297858e+000	-9.1276358877e-001
 2.3574903124e+000	 2.3091642269e+000	-9.1942221782e-001
 2.3334523779e+000	 2.3334523779e+000	-9.2761593546e-001
 2.5813743487e+000	 2.0957412703e+000	-7.2927199228e-001
 2.5595873153e+000	 2.1222954025e+000	-7.8002152914e-001
 2.5375164466e+000	 2.1486356795e+000	-8.3166757142e-001
 2.5151649006e+000	 2.1747575779e+000	-8.8399022083e-001
 2.4925359308e+000	 2.2006566370e+000	-9.1784167223e-001
 2.4696328847e+000	 2.2263284607e+000	-9.1391370943e-001
 2.4464592022e+000	 2.2517687207e+000	-9.1121654558e-001
 2.4230184143e+000	 2.2769731584e+000	-9.0978596377e-001
 2.3993141405e+000	 2.3019375872e+000	-9.0965806500e-001
 2.3753500875e+000	 2.3266578953e+000	-9.1086919998e-001
 2.3511300474e+000	 2.3511300474e+000	-9.1345589685e-001
 2.6007831784e+000	 2.1114987234e+000	-7.1807593997e-001
 2.5788323327e+000	 2.1382525108e+000	-7.6472869400e-001
 2.5565955176e+000	 2.1647908350e+000	-8.1212619863e-001
 2.5340759149e+000	 2.1911091386e+000	-8.6003804839e-001
 2.5112768024e+000	 2.2172029275e+000	-9.0823409003e-001
 2.4882015530e+000	 2.2430677725e+000	-9.2750345059e-001
 2.4648536323e+000	 2.2686993126e+000	-9.1971213674e-001
 2.4412365979e+000	 2.2940932573e+000	-9.1303415761e-001
 2.4173540964e+000	 2.3192453886e+000	-9.0750384117e-001
 2.3932098626e+000	 2.3441515636e+000	-9.0315598560e-001
 2.3688077170e+000	 2.3688077170e+000	-9.0002578859e-001
 2.6201920081e+000	 2.1272561766e+000	-7.1009687577e-001
 2.5980773501e+000	 2.1542096191e+000	-7.5257733977e-001
 2.5756745887e+000	 2.1809459905e+000	-7.9565180762e-001
 2.5529869292e+000	 2.2074606994e+000	-8.3907928233e-001
 2.5300176741e+000	 2.2337492180e+000	-8.8261920483e-001
 2.5067702213e+000	 2.2598070842e+000	-9.2603198203e-001
 2.4832480624e+000	 2.2856299045e+000	-9.2937597434e-001
 2.4594547814e+000	 2.3112133562e+000	-9.1733802661e-001
 2.4353940524e+000	 2.3365531900e+000	-9.0629412293e-001
 2.4110696377e+000	 2.3616452320e+000	-8.9627758041e-001
 2.3864853865e+000	 2.3864853865e+000	-8.8732233800e-001
 2.6396008378e+000	 2.1430136297e+000	-7.0532056636e-001
 2.6173223675e+000	 2.1701667274e+000	-7.4355659742e-001
 2.5947536597e+000	 2.1971011459e+000	-7.8223682782e-001
 2.5718979435e+000	 2.2238122601e+000	-8.2110958211e-001
 2.5487585458e+000	 2.2502955085e+000	-8.5992380864e-001
 2.5253388896e+000	 2.2765463959e+000	-8.9842962597e-001
 2.5016424925e+000	 2.3025604964e+000	-9.3637886610e-001
 2.4776729650e+000	 2.3283334552e+000	-9.2269024716e-001
 2.4534340083e+000	 2.3538609914e+000	-9.0602340613e-001
 2.4289294128e+000	 2.3791389004e+000	-8.9023022363e-001
 2.4041630560e+000	 2.4041630560e+000	-8.7534345093e-001
 2.6590096675e+000	 2.1587710829e+000	-7.0373451461e-001
 2.6365673849e+000	 2.1861238357e+000	-7.3765726731e-001
 2.6138327307e+000	 2.2132563014e+000	-7.7187529266e-001
 2.5908089578e+000	 2.2401638209e+000	-8.0612614720e-001
 2.5674994174e+000	 2.2668417990e+000	-8.4014819751e-001
 2.5439075579e+000	 2.2932857077e+000	-8.7368118499e-001
 2.5200369226e+000	 2.3194910883e+000	-9.0646678733e-001
 2.4958911486e+000	 2.3454535541e+000	-9.2908479501e-001
 2.4714739642e+000	 2.3711687928e+000	-9.0668742967e-001
 2.4467891879e+000	 2.3966325688e+000	-8.8501134296e-001
 2.4218407256e+000	 2.4218407256e+000	-8.6408816876e-001
 2.6784184972e+000	 2.1745285361e+000	-7.0532789673e-001
 2.6558124023e+000	 2.2020809440e+000	-7.3487175870e-001
 2.6329118018e+000	 2.2294114569e+000	-7.6456278139e-001
 2.6097199721e+000	 2.2565153816e+000	-7.9412766131e-001
 2.5862402891e+000	 2.2833880895e+000	-8.2329409152e-001
 2.5624762262e+000	 2.3100250194e+000	-8.5179134505e-001
 2.5384313527e+000	 2.3364216802e+000	-8.7935085474e-001
 2.5141093321e+000	 2.3625736530e+000	-9.0570678798e-001
 2.4895139202e+000	 2.3884765942e+000	-9.0828313053e-001
 2.4646489630e+000	 2.4141262372e+000	-8.8061951154e-001
 2.4395183951e+000	 2.4395183951e+000	-8.5355662730e-001
 2.6978273268e+000	 2.1902859892e+000	-7.1009150202e-001
 2.6750574197e+000	 2.2180380522e+000	-7.3519403190e-001
 2.6519908728e+000	 2.2455666124e+000	-7.6029636354e-001
 2.6286309864e+000	 2.2728669423e+000	-7.8511423895e-001
 2.6049811607e+000	 2.2999343800e+000	-8.0936458350e-001
 2.5810448945e+000	 2.3267643311e+000	-8.3276610823e-001
 2.5568257828e+000	 2.3533522720e+000	-8.5503990824e-001
 2.5323275157e+000	 2.3796937520e+000	-8.7591005570e-001
 2.5075538761e+000	 2.4057843956e+000	-8.9510418579e-001
 2.4825087381e+000	 2.4316199056e+000	-8.7705440672e-001
 2.4571960646e+000	 2.4571960646e+000	-8.4375001736e-001
 2.7172361565e+000	 2.2060434424e+000	-7.1801767533e-001
 2.6943024371e+000	 2.2339951605e+000	-7.3861954283e-001
 2.6710699438e+000	 2.2617217679e+000	-7.5907454567e-001
 2.6475420007e+000	 2.2892185031e+000	-7.7908737438e-001
 2.6237220324e+000	 2.3164806705e+000	-7.9836409006e-001
 2.5996135628e+000	 2.3435036429e+000	-8.1661274575e-001
 2.5752202129e+000	 2.3702828639e+000	-8.3354400364e-001
 2.5505456993e+000	 2.3968138509e+000	-8.4887174644e-001
 2.5255938321e+000	 2.4230921970e+000	-8.6231368143e-001
 2.5003685132e+000	 2.4491135740e+000	-8.7359193563e-001
 2.4748737342e+000	 2.4748737342e+000	-8.3467054710e-001
 2.2980970388e+000	 2.2980970388e+000	-9.5814505923e-001
 2.2741768901e+000	 2.3217707623e+000	-9.7332816202e-001
 2.2500141830e+000	 2.3451942726e+000	-9.8310487395e-001
 2.2256128616e+000	 2.3683638636e+000	-9.8771738850e-001
 2.2009769451e+000	 2.3912759120e+000	-9.8741376453e-001
 2.1761105255e+000	 2.4139268797e+000	-9.8244760755e-001
 2.1510177654e+000	 2.4363133158e+000	-9.7307774085e-001
 2.1257028957e+000	 2.4584318577e+000	-9.5956786726e-001
 2.1001702130e+000	 2.4802792335e+000	-9.4218622206e-001
 2.0744240777e+000	 2.5018522630e+000	-9.2429472996e-001
 2.0484689108e+000	 2.5231478596e+000	-9.3514475615e-001
 2.3157747084e+000	 2.3157747084e+000	-9.4251040065e-001
 2.2916705585e+000	 2.3396305373e+000	-9.5672356750e-001
 2.2673219844e+000	 2.3632342286e+000	-9.6578899853e-001
 2.2427329605e+000	 2.3865820472e+000	-9.6992773412e-001
 2.2179075370e+000	 2.4096703421e+000	-9.6936655396e-001
 2.1928498373e+000	 2.4324955480e+000	-9.6433768022e-001
 2.1675640559e+000	 2.4550541875e+000	-9.5507847054e-001
 2.1420544564e+000	 2.4773428720e+000	-9.4183110156e-001
 2.1163253685e+000	 2.4993583046e+000	-9.2484224371e-001
 2.0903811859e+000	 2.5210972804e+000	-9.3979176151e-001
 2.0642263640e+000	 2.5425566893e+000	-9.5141792914e-001
 2.3334523779e+000	 2.3334523779e+000	-9.2761593546e-001
 2.3091642269e+000	 2.3574903124e+000	-9.4026353929e-001
 2.2846297858e+000	 2.3812741845e+000	-9.4801750293e-001
 2.2598530594e+000	 2.4048002307e+000	-9.5107802574e-001
 2.2348381289e+000	 2.4280647722e+000	-9.4965092415e-001
 2.2095891490e+000	 2.4510642163e+000	-9.4394735621e-001
 2.1841103464e+000	 2.4737950591e+000	-9.3418353621e-001
 2.1584060172e+000	 2.4962538863e+000	-9.2058043973e-001
 2.1324805240e+000	 2.5184373756e+000	-9.3481050518e-001
 2.1063382942e+000	 2.5403422979e+000	-9.5103840929e-001
 2.0799838171e+000	 2.5619655190e+000	-9.6283645336e-001
 2.3511300474e+000	 2.3511300474e+000	-9.1345589685e-001
 2.3266578953e+000	 2.3753500875e+000	-9.2395498282e-001
 2.3019375872e+000	 2.3993141405e+000	-9.2981002770e-001
 2.2769731584e+000	 2.4230184143e+000	-9.3120069601e-001
 2.2517687207e+000	 2.4464592022e+000	-9.2831215069e-001
 2.2263284607e+000	 2.4696328847e+000	-9.2133479893e-001
 2.2006566370e+000	 2.4925359308e+000	-9.1046402793e-001
 2.1747575779e+000	 2.5151649006e+000	-9.2214716309e-001
 2.1486356795e+000	 2.5375164466e+000	-9.4240989678e-001
 2.1222954025e+000	 2.5595873153e+000	-9.5824581520e-001
 2.0957412703e+000	 2.5813743487e+000	-9.6962499540e-001
 2.3688077170e+000	 2.3688077170e+000	-9.0002578859e-001
 2.3441515636e+000	 2.3932098626e+000	-9.0780569087e-001
 2.3192453886e+000	 2.4173540964e+000	-9.1118671506e-001
 2.2940932573e+000	 2.4412365979e+000	-9.1032829122e-001
 2.2686993126e+000	 2.4648536323e+000	-9.0539523280e-001
 2.2430677725e+000	 2.4882015530e+000	-8.9655750346e-001
 2.2172029275e+000	 2.5112768024e+000	-9.0377627786e-001
 2.1911091386e+000	 2.5340759149e+000	-9.2744491295e-001
 2.1647908350e+000	 2.5565955176e+000	-9.4675034904e-001
 2.1382525108e+000	 2.5788323327e+000	-9.6162286979e-001
 2.1114987234e+000	 2.6007831784e+000	-9.7200557196e-001
 2.3864853865e+000	 2.3864853865e+000	-8.8732233800e-001
 2.3616452320e+000	 2.4110696377e+000	-8.9182431067e-001
 2.3365531900e+000	 2.4353940524e+000	-8.9216819028e-001
 2.3112133562e+000	 2.4594547814e+000	-8.8849346712e-001
 2.2856299045e+000	 2.4832480624e+000	-8.8094490352e-001
 2.2598070842e+000	 2.5067702213e+000	-8.8170169746e-001
 2.2337492180e+000	 2.5300176741e+000	-9.0808520600e-001
 2.2074606994e+000	 2.5529869292e+000	-9.3022982271e-001
 2.1809459905e+000	 2.5756745887e+000	-9.4802579347e-001
 2.1542096191e+000	 2.5980773501e+000	-9.6137629568e-001
 2.1272561766e+000	 2.6201920081e+000	-9.7019764796e-001
 2.4041630560e+000	 2.4041630560e+000	-8.7534345093e-001
 2.3791389004e+000	 2.4289294128e+000	-8.7602031255e-001
 2.3538609914e+000	 2.4534340083e+000	-8.7277554395e-001
 2.3283334552e+000	 2.4776729650e+000	-8.6572898491e-001
 2.3025604964e+000	 2.5016424925e+000	-8.5795744924e-001
 2.2765463959e+000	 2.5253388896e+000	-8.8630268295e-001
 2.2502955085e+000	 2.5487585458e+000	-9.1059405971e-001
 2.2238122601e+000	 2.5718979435e+000	-9.3068163911e-001
 2.1971011459e+000	 2.5947536597e+000	-9.4642844220e-001
 2.1701667274e+000	 2.6173223675e+000	-9.5771072720e-001
 2.1430136297e+000	 2.6396008378e+000	-9.6441823039e-001
 2.4218407256e+000	 2.4218407256e+000	-8.6408816876e-001
 2.3966325688e+000	 2.4467891879e+000	-8.6040395984e-001
 2.3711687928e+000	 2.4714739642e+000	-8.5303031495e-001
 2.3454535541e+000	 2.4958911486e+000	-8.4206770735e-001
 2.3194910883e+000	 2.5200369226e+000	-8.6410027883e-001
 2.2932857077e+000	 2.5439075579e+000	-8.8978386676e-001
 2.2668417990e+000	 2.5674994174e+000	-9.1146913463e-001
 2.2401638209e+000	 2.5908089578e+000	-9.2897880657e-001
 2.2132563014e+000	 2.6138327307e+000	-9.4214885067e-001
 2.1861238357e+000	 2.6365673849e+000	-9.5082878668e-001
 2.1587710829e+000	 2.6590096675e+000	-9.5488195798e-001
 2.4395183951e+000	 2.4395183951e+000	-8.5355662730e-001
 2.4141262372e+000	 2.4646489630e+000	-8.4498628019e-001
 2.3884765942e+000	 2.4895139202e+000	-8.3295447427e-001
 2.3625736530e+000	 2.5141093321e+000	-8.4351276186e-001
 2.3364216802e+000	 2.5384313527e+000	-8.6977190051e-001
 2.3100250194e+000	 2.5624762262e+000	-8.9229878874e-001
 2.2833880895e+000	 2.5862402891e+000	-9.1087581163e-001
 2.2565153816e+000	 2.6097199721e+000	-9.2529851438e-001
 2.2294114569e+000	 2.6329118018e+000	-9.3537597769e-001
 2.2020809440e+000	 2.6558124023e+000	-9.4093115730e-001
 2.1745285361e+000	 2.6784184972e+000	-9.4180118704e-001
 2.4571960646e+000	 2.4571960646e+000	-8.4375001736e-001
 2.4316199056e+000	 2.4825087381e+000	-8.2977903803e-001
 2.4057843956e+000	 2.5075538761e+000	-8.2660747319e-001
 2.3796937520e+000	 2.5323275157e+000	-8.5256347186e-001
 2.3533522720e+000	 2.5568257828e+000	-8.7511375730e-001
 2.3267643311e+000	 2.5810448945e+000	-8.9400043375e-001
 2.2999343800e+000	 2.6049811607e+000	-9.0897858974e-001
 2.2728669423e+000	 2.6286309864e+000	-9.1981674186e-001
 2.2455666124e+000	 2.6519908728e+000	-9.2629724283e-001
 2.2180380522e+000	 2.6750574197e+000	-9.2821665286e-001
 2.1902859892e+000	 2.6978273268e+000	-9.2538607354e-001
 2.4748737342e+000	 2.4748737342e+000	-8.3467054710e-001
 2.4491135740e+000	 2.5003685132e+000	-8.1548499950e-001
 2.4230921970e+000	 2.5255938321e+000	-8.4019728619e-001
 2.3968138509e+000	 2.5505456993e+000	-8.6189064874e-001
 2.3702828639e+000	 2.5752202129e+000	-8.8026707087e-001
 2.3435036429e+000	 2.5996135628e+000	-8.9504125151e-001
 2.3164806705e+000	 2.6237220324e+000	-9.0594111765e-001
 2.2892185031e+000	 2.6475420007e+000	-9.1270830156e-001
 2.2617217679e+000	 2.6710699438e+000	-9.1509858146e-001
 2.2339951605e+000	 2.6943024371e+000	-9.1288228453e-001
 2.2060434424e+000	 2.7172361565e+000	-9.0584465170e-001
 2.0484689108e+000	 2.5231478596e+000	-9.3514475615e-001
 2.0223091922e+000	 2.5441630315e+000	-9.5435848164e-001
 1.9959494577e+000	 2.5648948833e+000	-9.7505648463e-001
 1.9693942963e+000	 2.5853406170e+000	-9.9687975559e-001
 1.9426483480e+000	 2.6054975333e+000	-1.0194772496e+000
 1.9157163009e+000	 2.6253630329e+000	-1.0425062818e+000
 1.8886028886e+000	 2.6449346172e+000	-1.0656328954e+000
 1.8613128874e+000	 2.6642098895e+000	-1.0361220485e+000
 1.8338511137e+000	 2.6831865557e+000	-9.5386253601e-001
 1.8062224213e+000	 2.7018624252e+000	-8.7109042614e-001
 1.7784316985e+000	 2.7202354115e+000	-7.8782307062e-001
 2.0642263640e+000	 2.5425566893e+000	-9.5141792914e-001
 2.0378654168e+000	 2.5637335164e+000	-9.6195230136e-001
 2.0113029150e+000	 2.5846248440e+000	-9.7381273952e-001
 1.9845434832e+000	 2.6052278525e+000	-9.8669181006e-001
 1.9575917969e+000	 2.6255398220e+000	-1.0002901781e+000
 1.9304525802e+000	 2.6455581331e+000	-1.0143169494e+000
 1.9031306032e+000	 2.6652802681e+000	-1.0284899842e+000
 1.8756306788e+000	 2.6847038117e+000	-1.0425361831e+000
 1.8479576607e+000	 2.7038264523e+000	-9.5496037846e-001
 1.8201164399e+000	 2.7226459824e+000	-8.6487709315e-001
 1.7921119423e+000	 2.7411602993e+000	-7.7473492164e-001
 2.0799838171e+000	 2.5619655190e+000	-9.6283645336e-001
 2.0534216413e+000	 2.5833040013e+000	-9.6596739567e-001
 2.0266563724e+000	 2.6043548046e+000	-9.7026125534e-001
 1.9996926701e+000	 2.6251150880e+000	-9.7546151608e-001
 1.9725352457e+000	 2.6455821107e+000	-9.8131990478e-001
 1.9451888594e+000	 2.6657532334e+000	-9.8759668030e-001
 1.9176583177e+000	 2.6856259190e+000	-9.9406089412e-001
 1.8899484703e+000	 2.7051977340e+000	-1.0004906228e+000
 1.8620642078e+000	 2.7244663489e+000	-9.5921918852e-001
 1.8340104585e+000	 2.7434295395e+000	-8.6303850666e-001
 1.8057921862e+000	 2.7620851870e+000	-7.6723172750e-001
 2.0957412703e+000	 2.5813743487e+000	-9.6962499540e-001
 2.0689778659e+000	 2.6028744861e+000	-9.6659935921e-001
 2.0420098298e+000	 2.6240847652e+000	-9.6456847828e-001
 2.0148418570e+000	 2.6450023235e+000	-9.6332610848e-001
 1.9874786945e+000	 2.6656243995e+000	-9.6267440390e-001
 1.9599251387e+000	 2.6859483336e+000	-9.6242415293e-001
 1.9321860322e+000	 2.7059715699e+000	-9.6239498617e-001
 1.9042662617e+000	 2.7256916562e+000	-9.6241555597e-001
 1.8761707548e+000	 2.7451062455e+000	-9.6232368734e-001
 1.8479044772e+000	 2.7642130966e+000	-8.6543347380e-001
 1.8194724300e+000	 2.7830100748e+000	-7.6514231099e-001
 2.1114987234e+000	 2.6007831784e+000	-9.7200557196e-001
 2.0845340904e+000	 2.6224449710e+000	-9.6404200732e-001
 2.0573632871e+000	 2.6438147259e+000	-9.5689994573e-001
 2.0299910439e+000	 2.6648895590e+000	-9.5042278344e-001
 2.0024221433e+000	 2.6856666882e+000	-9.4446248032e-001
 1.9746614179e+000	 2.7061434339e+000	-9.3887974403e-001
 1.9467137467e+000	 2.7263172208e+000	-9.3354418557e-001
 1.9185840532e+000	 2.7461855784e+000	-9.2833444631e-001
 1.8902773018e+000	 2.7657461421e+000	-9.2313829652e-001
 1.8617984958e+000	 2.7849966537e+000	-8.7192594968e-001
 1.8331526738e+000	 2.8039349626e+000	-7.6830149797e-001
 2.1272561766e+000	 2.6201920081e+000	-9.7019764796e-001
 2.1000903150e+000	 2.6420154558e+000	-9.5848744197e-001
 2.0727167445e+000	 2.6635446865e+000	-9.4742032005e-001
 2.0451402308e+000	 2.6847767946e+000	-9.3688869981e-001
 2.0173655922e+000	 2.7057089769e+000	-9.2679373851e-001
 1.9893976971e+000	 2.7263385341e+000	-9.1704546567e-001
 1.9612414613e+000	 2.7466628717e+000	-9.0756288682e-001
 1.9329018446e+000	 2.7666795006e+000	-8.9827405863e-001
 1.9043838488e+000	 2.7863860387e+000	-8.8911613525e-001
 1.8756925144e+000	 2.8057802108e+000	-8.8003538638e-001
 1.8468329177e+000	 2.8248598504e+000	-7.7654989499e-001
 2.1430136297e+000	 2.6396008378e+000	-9.6441823039e-001
 2.1156465395e+000	 2.6615859407e+000	-9.5012611473e-001
 2.0880702019e+000	 2.6832746472e+000	-9.3629342064e-001
 2.0602894177e+000	 2.7046640301e+000	-9.2286098058e-001
 2.0323090410e+000	 2.7257512656e+000	-9.0977855323e-001
 2.0041339764e+000	 2.7465336344e+000	-8.9700490511e-001
 1.9757691758e+000	 2.7670085226e+000	-8.8450786301e-001
 1.9472196360e+000	 2.7871734229e+000	-8.7226433762e-001
 1.9184903959e+000	 2.8070259352e+000	-8.6026031825e-001
 1.8895865330e+000	 2.8265637680e+000	-8.4849083926e-001
 1.8605131615e+000	 2.8457847382e+000	-7.8973367680e-001
 2.1587710829e+000	 2.6590096675e+000	-9.5488195798e-001
 2.1312027641e+000	 2.6811564256e+000	-9.3914688699e-001
 2.1034236592e+000	 2.7030046078e+000	-9.2368225475e-001
 2.0754386045e+000	 2.7245512656e+000	-9.0847671412e-001
 2.0472524898e+000	 2.7457935543e+000	-8.9352804139e-001
 2.0188702556e+000	 2.7667287347e+000	-8.7884316733e-001
 1.9902968903e+000	 2.7873541735e+000	-8.6443817892e-001
 1.9615374275e+000	 2.8076673451e+000	-8.5033829181e-001
 1.9325969429e+000	 2.8276658318e+000	-8.3657779390e-001
 1.9034805517e+000	 2.8473473251e+000	-8.2319996051e-001
 1.8741934053e+000	 2.8667096260e+000	-8.0770438313e-001
 2.1745285361e+000	 2.6784184972e+000	-9.4180118704e-001
 2.1467589886e+000	 2.7007269104e+000	-9.2573708762e-001
 2.1187771166e+000	 2.7227345685e+000	-9.0974904693e-001
 2.0905877914e+000	 2.7444385011e+000	-8.9387295550e-001
 2.0621959387e+000	 2.7658358430e+000	-8.7815403515e-001
 2.0336065348e+000	 2.7869238349e+000	-8.6264682005e-001
 2.0048246048e+000	 2.8076998244e+000	-8.4741510804e-001
 1.9758552189e+000	 2.8281612673e+000	-8.3253188253e-001
 1.9467034899e+000	 2.8483057284e+000	-8.1807920529e-001
 1.9173745703e+000	 2.8681308822e+000	-8.0414808074e-001
 1.8878736492e+000	 2.8876345137e+000	-7.9083829221e-001
 2.1902859892e+000	 2.6978273268e+000	-9.2538607354e-001
 2.1623152132e+000	 2.7202973953e+000	-9.1008256806e-001
 2.1341305740e+000	 2.7424645291e+000	-8.9465526712e-001
 2.1057369783e+000	 2.7643257366e+000	-8.7918672760e-001
 2.0771393875e+000	 2.7858781318e+000	-8.6376905622e-001
 2.0483428141e+000	 2.8071189352e+000	-8.4850384108e-001
 2.0193523194e+000	 2.8280454753e+000	-8.3350205310e-001
 1.9901730104e+000	 2.8486551895e+000	-8.1888391771e-001
 1.9608100369e+000	 2.8689456250e+000	-8.0477875732e-001
 1.9312685889e+000	 2.8889144393e+000	-7.9132480513e-001
 1.9015538930e+000	 2.9085594015e+000	-7.7866899090e-001
 2.2060434424e+000	 2.7172361565e+000	-9.0584465170e-001
 2.1778714378e+000	 2.7398678801e+000	-8.9236775509e-001
 2.1494840313e+000	 2.7621944897e+000	-8.7856165767e-001
 2.1208861652e+000	 2.7842129721e+000	-8.6455502235e-001
 2.0920828363e+000	 2.8059204205e+000	-8.5048629122e-001
 2.0630790933e+000	 2.8273140354e+000	-8.3650356800e-001
 2.0338800339e+000	 2.8483911262e+000	-8.2276447002e-001
 2.0044908018e+000	 2.8691491118e+000	-8.0943595019e-001
 1.9749165840e+000	 2.8895855216e+000	-7.9669408952e-001
 1.9451626075e+000	 2.9096979964e+000	-7.8472386080e-001
 1.9152341368e+000	 2.9294842893e+000	-7.7371886429e-001
 1.7784316985e+000	 2.7202354115e+000	-7.8782307062e-001
 1.7504838655e+000	 2.7383035326e+000	-7.7340082607e-001
 1.7223838716e+000	 2.7560649120e+000	-7.5844940160e-001
 1.6941366922e+000	 2.7735177786e+000	-7.4342671512e-001
 1.6657473264e+000	 2.7906604674e+000	-7.2878169538e-001
 1.6372207940e+000	 2.8074914197e+000	-7.1495362268e-001
 1.6085621327e+000	 2.8240091829e+000	-7.0237149427e-001
 1.5797763955e+000	 2.8402124111e+000	-6.9145341549e-001
 1.5508686476e+000	 2.8560998648e+000	-6.8260601792e-001
 1.5218439643e+000	 2.8716704108e+000	-6.7622390535e-001
 1.4927074274e+000	 2.8869230222e+000	-6.7268912867e-001
 1.7921119423e+000	 2.7411602993e+000	-7.7473492164e-001
 1.7639491260e+000	 2.7593674059e+000	-7.6391148281e-001
 1.7356329783e+000	 2.7772654113e+000	-7.5246797683e-001
 1.7071685129e+000	 2.7948525307e+000	-7.4082657762e-001
 1.6785607674e+000	 2.8121270864e+000	-7.2940084341e-001
 1.6498148002e+000	 2.8290875075e+000	-7.1859508490e-001
 1.6209356876e+000	 2.8457323305e+000	-7.0880375744e-001
 1.5919285216e+000	 2.8620601989e+000	-7.0041087838e-001
 1.5627984065e+000	 2.8780698638e+000	-6.9378947054e-001
 1.5335504563e+000	 2.8937601832e+000	-6.8930103286e-001
 1.5041897923e+000	 2.9091301224e+000	-6.8729503914e-001
 1.8057921862e+000	 2.7620851870e+000	-7.6723172750e-001
 1.7774143865e+000	 2.7804312793e+000	-7.5885723425e-001
 1.7488820850e+000	 2.7984659106e+000	-7.4977913779e-001
 1.7202003336e+000	 2.8161872829e+000	-7.4038452345e-001
 1.6913742084e+000	 2.8335937054e+000	-7.3105222452e-001
 1.6624088063e+000	 2.8506835954e+000	-7.2215221738e-001
 1.6333092425e+000	 2.8674554780e+000	-7.1404503988e-001
 1.6040806477e+000	 2.8839079867e+000	-7.0708123416e-001
 1.5747281653e+000	 2.9000398628e+000	-7.0160081501e-001
 1.5452569483e+000	 2.9158499556e+000	-6.9793276461e-001
 1.5156721571e+000	 2.9313372226e+000	-6.9639455468e-001
 1.8194724300e+000	 2.7830100748e+000	-7.6514231099e-001
 1.7908796470e+000	 2.8014951526e+000	-7.5809019396e-001
 1.7621311917e+000	 2.8196664100e+000	-7.5025816892e-001
 1.7332321543e+000	 2.8375220350e+000	-7.4199887846e-001
 1.7041876494e+000	 2.8550603244e+000	-7.3365706733e-001
 1.6750028124e+000	 2.8722796832e+000	-7.2556900366e-001
 1.6456827974e+000	 2.8891786256e+000	-7.1806192305e-001
 1.6162327739e+000	 2.9057557745e+000	-7.1145349636e-001
 1.5866579241e+000	 2.9220098617e+000	-7.0605132229e-001
 1.5569634404e+000	 2.9379397280e+000	-7.0215244580e-001
 1.5271545219e+000	 2.9535443227e+000	-7.0004290299e-001
 1.8331526738e+000	 2.8039349626e+000	-7.6830149797e-001
 1.8043449075e+000	 2.8225590259e+000	-7.6146774347e-001
 1.7753802984e+000	 2.8408669093e+000	-7.5378489124e-001
 1.7462639751e+000	 2.8588567872e+000	-7.4557177798e-001
 1.7170010903e+000	 2.8765269434e+000	-7.3713968715e-001
 1.6875968185e+000	 2.8938757711e+000	-7.2879179589e-001
 1.6580563522e+000	 2.9109017732e+000	-7.2082264410e-001
 1.6283849000e+000	 2.9276035623e+000	-7.1351762664e-001
 1.5985876830e+000	 2.9439798607e+000	-7.0715250967e-001
 1.5686699324e+000	 2.9600295004e+000	-7.0199297207e-001
 1.5386368868e+000	 2.9757514229e+000	-6.9829417274e-001
 1.8468329177e+000	 2.8248598504e+000	-7.7654989499e-001
 1.8178101680e+000	 2.8436228993e+000	-7.6885233716e-001
 1.7886294051e+000	 2.8620674086e+000	-7.6024349444e-001
 1.7592957958e+000	 2.8801915393e+000	-7.5100902564e-001
 1.7298145313e+000	 2.8979935624e+000	-7.4142737160e-001
 1.7001908246e+000	 2.9154718589e+000	-7.3176922714e-001
 1.6704299071e+000	 2.9326249207e+000	-7.2229703457e-001
 1.6405370261e+000	 2.9494513500e+000	-7.1326449975e-001
 1.6105174418e+000	 2.9659498596e+000	-7.0491613163e-001
 1.5803764244e+000	 2.9821192728e+000	-6.9748680622e-001
 1.5501192516e+000	 2.9979585231e+000	-6.9120135571e-001
 1.8605131615e+000	 2.8457847382e+000	-7.8973367680e-001
 1.8312754286e+000	 2.8646867726e+000	-7.8011131572e-001
 1.8018785118e+000	 2.8832679079e+000	-7.6952237615e-001
 1.7723276165e+000	 2.9015262915e+000	-7.5821995855e-001
 1.7426279723e+000	 2.9194601813e+000	-7.4645027138e-001
 1.7127848307e+000	 2.9370679468e+000	-7.3445212753e-001
 1.6828034620e+000	 2.9543480683e+000	-7.2245646174e-001
 1.6526891522e+000	 2.9712991378e+000	-7.1068586987e-001
 1.6224472006e+000	 2.9879198586e+000	-6.9935417114e-001
 1.5920829165e+000	 3.0042090452e+000	-6.8866599409e-001
 1.5616016164e+000	 3.0201656232e+000	-6.7881638712e-001
 1.8741934053e+000	 2.8667096260e+000	-8.0770438313e-001
 1.8447406891e+000	 2.8857506459e+000	-7.9511672788e-001
 1.8151276185e+000	 2.9044684072e+000	-7.8151398847e-001
 1.7853594372e+000	 2.9228610436e+000	-7.6711731832e-001
 1.7554414133e+000	 2.9409268003e+000	-7.5214129571e-001
 1.7253788368e+000	 2.9586640346e+000	-7.3679344407e-001
 1.6951770168e+000	 2.9760712159e+000	-7.2127377266e-001
 1.6648412783e+000	 2.9931469256e+000	-7.0577433861e-001
 1.6343769594e+000	 3.0098898576e+000	-6.9047883129e-001
 1.6037894085e+000	 3.0262988176e+000	-6.7556217977e-001
 1.5730839812e+000	 3.0423727234e+000	-6.6119018424e-001
 1.8878736492e+000	 2.8876345137e+000	-7.9083829221e-001
 1.8582059496e+000	 2.9068145192e+000	-8.1374515977e-001
 1.8283767252e+000	 2.9256689066e+000	-7.9611469099e-001
 1.7983912579e+000	 2.9441957958e+000	-7.7761712773e-001
 1.7682548542e+000	 2.9623934193e+000	-7.5843601247e-001
 1.7379728429e+000	 2.9802601225e+000	-7.3874816392e-001
 1.7075505717e+000	 2.9977943634e+000	-7.1872324043e-001
 1.6769934045e+000	 3.0149947134e+000	-6.9852332422e-001
 1.6463067183e+000	 3.0318598565e+000	-6.7830252734e-001
 1.6154959005e+000	 3.0483885900e+000	-6.5820662018e-001
 1.5845663461e+000	 3.0645798236e+000	-6.3837268321e-001
 1.9015538930e+000	 2.9085594015e+000	-7.7866899090e-001
 1.8716712101e+000	 2.9278783926e+000	-8.3587757176e-001
 1.8416258319e+000	 2.9468694059e+000	-8.1322461028e-001
 1.8114230786e+000	 2.9655305479e+000	-7.8963857268e-001
 1.7810682952e+000	 2.9838600383e+000	-7.6527255249e-001
 1.7505668490e+000	 3.0018562103e+000	-7.4027324103e-001
 1.7199241266e+000	 3.0195175110e+000	-7.1478051298e-001
 1.6891455306e+000	 3.0368425011e+000	-6.8892703228e-001
 1.6582364771e+000	 3.0538298555e+000	-6.6283787911e-001
 1.6272023926e+000	 3.0704783624e+000	-6.3663019898e-001
 1.5960487109e+000	 3.0867869237e+000	-6.1041287436e-001
 1.9152341368e+000	 2.9294842893e+000	-7.7371886429e-001
 1.8851364706e+000	 2.9489422659e+000	-8.3302686286e-001
 1.8548749386e+000	 2.9680699052e+000	-8.3274750533e-001
 1.8244548993e+000	 2.9868653000e+000	-8.0310388924e-001
 1.7938817362e+000	 3.0053266573e+000	-7.7259151806e-001
 1.7631608551e+000	 3.0234522981e+000	-7.4132752590e-001
 1.7322976814e+000	 3.0412406585e+000	-7.0942256396e-001
 1.7012976567e+000	 3.0586902889e+000	-6.7698042753e-001
 1.6701662359e+000	 3.0757998544e+000	-6.4409770362e-001
 1.6389088846e+000	 3.0925681348e+000	-6.1086343991e-001
 1.6075310757e+000	 3.1089940239e+000	-5.7735883600e-001
 1.4927074274e+000	 2.8869230222e+000	-6.7268912867e-001
 1.4634641235e+000	 2.9018567779e+000	-6.6579548566e-001
 1.4341191402e+000	 2.9164708625e+000	-6.5798493683e-001
 1.4046775645e+000	 2.9307645658e+000	-6.4933367128e-001
 1.3751444794e+000	 2.9447372821e+000	-6.3991029618e-001
 1.3455249618e+000	 2.9583885102e+000	-6.2977566172e-001
 1.3158240793e+000	 2.9717178521e+000	-6.1898270689e-001
 1.2860468885e+000	 2.9847250126e+000	-6.0757632647e-001
 1.2561984318e+000	 2.9974097985e+000	-5.9559325919e-001
 1.2262837353e+000	 3.0097721177e+000	-5.4116577446e-001
 1.1963078061e+000	 3.0218119785e+000	-4.7747105289e-001
 1.5041897923e+000	 2.9091301224e+000	-6.8729503914e-001
 1.4747215398e+000	 2.9241787531e+000	-6.7464132751e-001
 1.4451508259e+000	 2.9389052537e+000	-6.6107640862e-001
 1.4154827765e+000	 2.9533089086e+000	-6.4666680332e-001
 1.3857225139e+000	 2.9673891074e+000	-6.3147146543e-001
 1.3558751538e+000	 2.9811453449e+000	-6.1554161201e-001
 1.3259458030e+000	 2.9945772202e+000	-5.9892057463e-001
 1.2959395569e+000	 3.0076844357e+000	-5.8164367189e-001
 1.2658614967e+000	 3.0204667969e+000	-5.6373810321e-001
 1.2357166871e+000	 3.0329242109e+000	-5.2099846642e-001
 1.2055101738e+000	 3.0450566860e+000	-4.5303958523e-001
 1.5156721571e+000	 2.9313372226e+000	-6.9639455468e-001
 1.4859789561e+000	 2.9465007283e+000	-6.7754825794e-001
 1.4561825116e+000	 2.9613396450e+000	-6.5780254814e-001
 1.4262879886e+000	 2.9758532514e+000	-6.3721456632e-001
 1.3963005484e+000	 2.9900409326e+000	-6.1583389296e-001
 1.3662253458e+000	 3.0039021796e+000	-5.9370238341e-001
 1.3360675267e+000	 3.0174365883e+000	-5.7085402439e-001
 1.3058322253e+000	 3.0306438589e+000	-5.4731481186e-001
 1.2755245616e+000	 3.0435237954e+000	-5.2310265022e-001
 1.2451496389e+000	 3.0560763041e+000	-4.9039474338e-001
 1.2147125416e+000	 3.0683013935e+000	-4.1797212145e-001
 1.5271545219e+000	 2.9535443227e+000	-7.0004290299e-001
 1.4972363725e+000	 2.9688227035e+000	-6.7457930076e-001
 1.4672141973e+000	 2.9837740362e+000	-6.4823413197e-001
 1.4370932006e+000	 2.9983975942e+000	-6.2105544377e-001
 1.4068785828e+000	 3.0126927579e+000	-5.9308372096e-001
 1.3765755378e+000	 3.0266590143e+000	-5.6435172625e-001
 1.3461892504e+000	 3.0402959564e+000	-5.3488436175e-001
 1.3157248936e+000	 3.0536032821e+000	-5.0469855201e-001
 1.2851876264e+000	 3.0665807938e+000	-4.7380314840e-001
 1.2545825907e+000	 3.0792283974e+000	-4.4219885496e-001
 1.2239149093e+000	 3.0915461010e+000	-3.7210297832e-001
 1.5386368868e+000	 2.9757514229e+000	-6.9829417274e-001
 1.5084937888e+000	 2.9911446788e+000	-6.6579607234e-001
 1.4782458830e+000	 3.0062084275e+000	-6.3244026270e-001
 1.4478984127e+000	 3.0209419370e+000	-5.9826598079e-001
 1.4174566173e+000	 3.0353445831e+000	-5.6330489105e-001
 1.3869257298e+000	 3.0494158490e+000	-5.2758093033e-001
 1.3563109741e+000	 3.0631553244e+000	-4.9111017421e-001
 1.3256175620e+000	 3.0765627052e+000	-4.5390072481e-001
 1.2948506913e+000	 3.0896377923e+000	-4.1595262032e-001
 1.2640155425e+000	 3.1023804906e+000	-3.7725776596e-001
 1.2331172771e+000	 3.1147908086e+000	-3.1526275034e-001
 1.5501192516e+000	 2.9979585231e+000	-6.9120135571e-001
 1.5197512051e+000	 3.0134666540e+000	-6.5125883363e-001
 1.4892775687e+000	 3.0286428187e+000	-6.1048843096e-001
 1.4587036247e+000	 3.0434862798e+000	-5.6892085589e-001
 1.4280346517e+000	 3.0579964084e+000	-5.2657922570e-001
 1.3972759218e+000	 3.0721726837e+000	-4.8347891605e-001
 1.3664326978e+000	 3.0860146925e+000	-4.3962743183e-001
 1.3355102304e+000	 3.0995221284e+000	-3.9502429972e-001
 1.3045137561e+000	 3.1126947907e+000	-3.4966098249e-001
 1.2734484944e+000	 3.1255325838e+000	-3.0646972634e-001
 1.2423196448e+000	 3.1380355161e+000	-3.1963497896e-001
 1.5616016164e+000	 3.0201656232e+000	-6.7881638712e-001
 1.5310086215e+000	 3.0357886292e+000	-6.3102654008e-001
 1.5003092544e+000	 3.0510772100e+000	-5.8244457466e-001
 1.4695088367e+000	 3.0660306226e+000	-5.3309294965e-001
 1.4386126862e+000	 3.0806482336e+000	-4.8298650624e-001
 1.4076261138e+000	 3.0949295184e+000	-4.3213232149e-001
 1.3765544214e+000	 3.1088740606e+000	-3.8052958351e-001
 1.3454028988e+000	 3.1224815516e+000	-3.2816948845e-001
 1.3141768210e+000	 3.1357517892e+000	-3.3442342878e-001
 1.2828814462e+000	 3.1486846770e+000	-3.5236549701e-001
 1.2515220125e+000	 3.1612802236e+000	-3.6788737048e-001
 1.5730839812e+000	 3.0423727234e+000	-6.6119018424e-001
 1.5422660378e+000	 3.0581106044e+000	-6.0515688925e-001
 1.5113409401e+000	 3.0735116012e+000	-5.4837313570e-001
 1.4803140488e+000	 3.0885749654e+000	-4.9085341029e-001
 1.4491907206e+000	 3.1033000588e+000	-4.3260454727e-001
 1.4179763059e+000	 3.1176863531e+000	-3.7362558574e-001
 1.3866761451e+000	 3.1317334287e+000	-3.5083200923e-001
 1.3552955671e+000	 3.1454409748e+000	-3.6608794095e-001
 1.3238398859e+000	 3.1588087876e+000	-3.7924270285e-001
 1.2923143980e+000	 3.1718367702e+000	-3.9001948806e-001
 1.2607243803e+000	 3.1845249311e+000	-3.9815203607e-001
 1.5845663461e+000	 3.0645798236e+000	-6.3837268321e-001
 1.5535234541e+000	 3.0804325796e+000	-5.7370636638e-001
 1.5223726258e+000	 3.0959459925e+000	-5.0833711410e-001
 1.4911192608e+000	 3.1111193082e+000	-4.4227171646e-001
 1.4597687551e+000	 3.1259518841e+000	-3.8067905314e-001
 1.4283264979e+000	 3.1404431878e+000	-3.9248929809e-001
 1.3967978688e+000	 3.1545927968e+000	-4.0259646677e-001
 1.3651882355e+000	 3.1684003979e+000	-4.1069231337e-001
 1.3335029507e+000	 3.1818657860e+000	-4.1648015976e-001
 1.3017473498e+000	 3.1949888634e+000	-4.1967465872e-001
 1.2699267480e+000	 3.2077696387e+000	-4.2000153855e-001
 1.5960487109e+000	 3.0867869237e+000	-6.1041287436e-001
 1.5647808705e+000	 3.1027545548e+000	-5.3673028802e-001
 1.5334043115e+000	 3.1183803837e+000	-4.6239811996e-001
 1.5019244728e+000	 3.1336636511e+000	-4.3429878120e-001
 1.4703467896e+000	 3.1486037093e+000	-4.4048490029e-001
 1.4386766899e+000	 3.1632000224e+000	-4.4510901175e-001
 1.4069195925e+000	 3.1774521649e+000	-4.4784121789e-001
 1.3750809039e+000	 3.1913598211e+000	-4.4836395500e-001
 1.3431660156e+000	 3.2049227845e+000	-4.4637177109e-001
 1.3111803016e+000	 3.2181409566e+000	-4.4157108254e-001
 1.2791291158e+000	 3.2310143462e+000	-4.3367991125e-001
 1.6075310757e+000	 3.1089940239e+000	-5.7735883600e-001
 1.5760382868e+000	 3.1250765300e+000	-4.9469140133e-001
 1.5444359972e+000	 3.1408147750e+000	-4.9587725371e-001
 1.5127296849e+000	 3.1562079939e+000	-4.9603939474e-001
 1.4809248240e+000	 3.1712555346e+000	-4.9481199467e-001
 1.4490268819e+000	 3.1859568571e+000	-4.9184249492e-001
 1.4170413162e+000	 3.2003115330e+000	-4.8679142807e-001
 1.3849735723e+000	 3.2143192443e+000	-4.7933221287e-001
 1.3528290804e+000	 3.2279797829e+000	-4.6915092575e-001
 1.3206132534e+000	 3.2412930498e+000	-4.5594605040e-001
 1.2883314835e+000	 3.2542590537e+000	-4.3942820711e-001
 1.1963078061e+000	 3.0218119785e+000	-4.7747105289e-001
 1.1662756302e+000	 3.0335294880e+000	-4.3230066181e-001
 1.1361921700e+000	 3.0449248518e+000	-3.8833295309e-001
 1.1060623621e+000	 3.0559983723e+000	-3.4576328531e-001
 1.0758911149e+000	 3.0667504478e+000	-3.0473464225e-001
 1.0456833066e+000	 3.0771815712e+000	-2.6533853714e-001
 1.0154437829e+000	 3.0872923289e+000	-2.2761601942e-001
 9.8517735496e-001	 3.0970833988e+000	-1.9155877916e-001
 9.5488879754e-001	 3.1065555498e+000	-1.5711034388e-001
 9.2458284674e-001	 3.1157096398e+000	-1.2416736254e-001
 8.9426419823e-001	 3.1245466141e+000	-9.2580971437e-002
 1.2055101738e+000	 3.0450566860e+000	-4.5303958523e-001
 1.1752469812e+000	 3.0568643302e+000	-3.9703367108e-001
 1.1449321098e+000	 3.0683473506e+000	-3.4290616020e-001
 1.1145705341e+000	 3.0795060520e+000	-2.9089518750e-001
 1.0841672004e+000	 3.0903408358e+000	-2.4118430275e-001
 1.0537270243e+000	 3.1008521987e+000	-1.9390337206e-001
 1.0232548889e+000	 3.1110407314e+000	-1.4912958593e-001
 9.9275564231e-001	 3.1209071173e+000	-1.0688856880e-001
 9.6223409599e-001	 3.1304521310e+000	-9.6642690871e-002
 9.3169502249e-001	 3.1396766370e+000	-1.0768935538e-001
 9.0114315360e-001	 3.1485815881e+000	-1.1708467876e-001
 1.2147125416e+000	 3.0683013935e+000	-4.1797212145e-001
 1.1842183322e+000	 3.0801991724e+000	-3.5230377122e-001
 1.1536720496e+000	 3.0917698495e+000	-2.8921367444e-001
 1.1230787061e+000	 3.1030137318e+000	-2.2898223365e-001
 1.0924432859e+000	 3.1139312239e+000	-1.7183302604e-001
 1.0617707421e+000	 3.1245228262e+000	-1.1793370315e-001
 1.0310659949e+000	 3.1347891339e+000	-1.2086231211e-001
 1.0003339297e+000	 3.1447308357e+000	-1.2633531796e-001
 9.6957939444e-001	 3.1543487122e+000	-1.3130160033e-001
 9.3880719824e-001	 3.1636436342e+000	-1.3535674138e-001
 9.0802210898e-001	 3.1726165620e+000	-1.3810320698e-001
 1.2239149093e+000	 3.0915461010e+000	-3.7210297832e-001
 1.1931896832e+000	 3.1035340146e+000	-2.9792556677e-001
 1.1624119893e+000	 3.1151923483e+000	-2.2705069950e-001
 1.1315868782e+000	 3.1265214116e+000	-1.6825035524e-001
 1.1007193714e+000	 3.1375216120e+000	-1.6541747754e-001
 1.0698144598e+000	 3.1481934537e+000	-1.6344334299e-001
 1.0388771009e+000	 3.1585375365e+000	-1.6194640710e-001
 1.0079122170e+000	 3.1685545542e+000	-1.6055366524e-001
 9.7692469289e-001	 3.1782452933e+000	-1.5889988799e-001
 9.4591937399e-001	 3.1876106315e+000	-1.5662686247e-001
 9.1490106435e-001	 3.1966515360e+000	-1.5338264232e-001
 1.2331172771e+000	 3.1147908086e+000	-3.1526275034e-001
 1.2021610342e+000	 3.1268688568e+000	-2.4409891171e-001
 1.1711519291e+000	 3.1386148472e+000	-2.3165518305e-001
 1.1400950502e+000	 3.1500290914e+000	-2.2086357845e-001
 1.1089954569e+000	 3.1611120000e+000	-2.1137159880e-001
 1.0778581776e+000	 3.1718640811e+000	-2.0283653799e-001
 1.0466882070e+000	 3.1822859390e+000	-1.9492464584e-001
 1.0154905044e+000	 3.1923782726e+000	-1.8731029271e-001
 9.8426999133e-001	 3.2021418745e+000	-1.7967513884e-001
 9.5303154973e-001	 3.2115776287e+000	-1.7170731147e-001
 9.2178001972e-001	 3.2206865099e+000	-1.6310059246e-001
 1.2423196448e+000	 3.1380355161e+000	-3.1963497896e-001
 1.2111323852e+000	 3.1502036991e+000	-2.9916279879e-001
 1.1798918689e+000	 3.1620373461e+000	-2.8065258842e-001
 1.1486032222e+000	 3.1735367712e+000	-2.6378996728e-001
 1.1172715424e+000	 3.1847023881e+000	-2.4827098047e-001
 1.0859018953e+000	 3.1955347086e+000	-2.3380119195e-001
 1.0544993130e+000	 3.2060343415e+000	-2.2009477764e-001
 1.0230687917e+000	 3.2162019911e+000	-2.0687362171e-001
 9.9161528978e-001	 3.2260384556e+000	-1.9386641932e-001
 9.6014372548e-001	 3.2355446259e+000	-1.8080778881e-001
 9.2865897510e-001	 3.2447214839e+000	-1.6743739632e-001
 1.2515220125e+000	 3.1612802236e+000	-3.6788737048e-001
 1.2201037362e+000	 3.1735385413e+000	-3.4369806886e-001
 1.1886318086e+000	 3.1854598449e+000	-3.1973728838e-001
 1.1571113942e+000	 3.1970444510e+000	-2.9741331809e-001
 1.1255476279e+000	 3.2082927761e+000	-2.7647087904e-001
 1.0939456130e+000	 3.2192053361e+000	-2.5666394530e-001
 1.0623104190e+000	 3.2297827441e+000	-2.3775476655e-001
 1.0306470791e+000	 3.2400257095e+000	-2.1951289542e-001
 9.9896058822e-001	 3.2499350368e+000	-2.0171422292e-001
 9.6725590122e-001	 3.2595116232e+000	-1.8414002503e-001
 9.3553793047e-001	 3.2687564578e+000	-1.6657602366e-001
 1.2607243803e+000	 3.1845249311e+000	-3.9815203607e-001
 1.2290750872e+000	 3.1968733835e+000	-3.7814256936e-001
 1.1973717484e+000	 3.2088823438e+000	-3.4931938105e-001
 1.1656195662e+000	 3.2205521308e+000	-3.2211587097e-001
 1.1338237134e+000	 3.2318831642e+000	-2.9632558359e-001
 1.1019893308e+000	 3.2428759635e+000	-2.7175105884e-001
 1.0701215250e+000	 3.2535311466e+000	-2.4820278349e-001
 1.0382253664e+000	 3.2638494280e+000	-2.2549814884e-001
 1.0063058867e+000	 3.2738316179e+000	-2.0346041806e-001
 9.7436807697e-001	 3.2834786204e+000	-1.8191770667e-001
 9.4241688584e-001	 3.2927914318e+000	-1.6070197904e-001
 1.2699267480e+000	 3.2077696387e+000	-4.2000153855e-001
 1.2380464382e+000	 3.2202082257e+000	-4.0293151074e-001
 1.2061116882e+000	 3.2323048426e+000	-3.6980689641e-001
 1.1741277382e+000	 3.2440598105e+000	-3.3827836613e-001
 1.1420997989e+000	 3.2554735523e+000	-3.0818845083e-001
 1.1100330485e+000	 3.2665465910e+000	-2.7938842753e-001
 1.0779326310e+000	 3.2772795491e+000	-2.5173719880e-001
 1.0458036537e+000	 3.2876731465e+000	-2.2510018007e-001
 1.0136511851e+000	 3.2977281991e+000	-1.9934819829e-001
 9.8148025271e-001	 3.3074456176e+000	-1.7435640543e-001
 9.4929584121e-001	 3.3168264057e+000	-1.5000320999e-001
 1.2791291158e+000	 3.2310143462e+000	-4.3367991125e-001
 1.2470177892e+000	 3.2435430679e+000	-4.1849756133e-001
 1.2148516279e+000	 3.2557273415e+000	-3.8160587067e-001
 1.1826359103e+000	 3.2675674903e+000	-3.4628009788e-001
 1.1503758844e+000	 3.2790639403e+000	-3.1241193871e-001
 1.1180767663e+000	 3.2902172185e+000	-2.7990159367e-001
 1.0857437371e+000	 3.3010279516e+000	-2.4865657503e-001
 1.0533819411e+000	 3.3114968649e+000	-2.1859052291e-001
 1.0209964835e+000	 3.3216247802e+000	-1.8962203461e-001
 9.8859242845e-001	 3.3314126149e+000	-1.6167351036e-001
 9.5617479658e-001	 3.3408613797e+000	-1.3467001914e-001
 1.2883314835e+000	 3.2542590537e+000	-4.3942820711e-001
 1.2559891402e+000	 3.2668779101e+000	-4.2150285151e-001
 1.2235915677e+000	 3.2791498404e+000	-3.8512041746e-001
 1.1911440823e+000	 3.2910751701e+000	-3.4649896627e-001
 1.1586519699e+000	 3.3026543284e+000	-3.0934763843e-001
 1.1261204840e+000	 3.3138878460e+000	-2.7361575946e-001
 1.0935548431e+000	 3.3247763542e+000	-2.3925966008e-001
 1.0609602284e+000	 3.3353205834e+000	-2.0624142058e-001
 1.0283417820e+000	 3.3455213614e+000	-1.7452762987e-001
 9.9570460419e-001	 3.3553796121e+000	-1.4408816293e-001
 9.6305375194e-001	 3.3648963537e+000	-1.1489498010e-001
 8.9426419823e-001	 3.1245466141e+000	-9.2580971437e-002
 8.6393750537e-001	 3.1330675043e+000	-1.0432799320e-001
 8.3360737744e-001	 3.1412734265e+000	-1.1720667851e-001
 8.0327837781e-001	 3.1491655796e+000	-1.2828754773e-001
 7.7295502237e-001	 3.1567452436e+000	-1.3707480212e-001
 7.4264177780e-001	 3.1640137784e+000	-1.4307717096e-001
 7.1234306010e-001	 3.1709726212e+000	-1.4580745933e-001
 6.8206323302e-001	 3.1776232857e+000	-1.4478211300e-001
 6.5180660668e-001	 3.1839673596e+000	-1.3952080186e-001
 6.2157743620e-001	 3.1900065032e+000	-1.0737907657e-001
 5.9137992034e-001	 3.1957424473e+000	 1.0165074388e-001
 9.0114315360e-001	 3.1485815881e+000	-1.1708467876e-001
 8.7058317850e-001	 3.1571680236e+000	-1.2371487137e-001
 8.4001974188e-001	 3.1654370683e+000	-1.2926102665e-001
 8.0945744226e-001	 3.1733899302e+000	-1.3327035035e-001
 7.7890083024e-001	 3.1810278994e+000	-1.3529431043e-001
 7.4835440687e-001	 3.1883523459e+000	-1.3488811248e-001
 7.1782262210e-001	 3.1953647183e+000	-1.3161019293e-001
 6.8730987327e-001	 3.2020665418e+000	-1.2502173190e-001
 6.5682050366e-001	 3.2084594163e+000	-1.1468618679e-001
 6.2635880109e-001	 3.2145450148e+000	-1.0016884834e-001
 5.9592899665e-001	 3.2203250815e+000	 1.2030087360e-001
 9.0802210898e-001	 3.1726165620e+000	-1.3810320698e-001
 8.7722885162e-001	 3.1812685429e+000	-1.3795447990e-001
 8.4643210633e-001	 3.1896007100e+000	-1.3693294806e-001
 8.1563650671e-001	 3.1976142808e+000	-1.3463387714e-001
 7.8484663811e-001	 3.2053105551e+000	-1.3065606359e-001
 7.5406703593e-001	 3.2126909134e+000	-1.2460125264e-001
 7.2330218410e-001	 3.2197568154e+000	-1.1607357661e-001
 6.9255651353e-001	 3.2265097978e+000	-1.0467901505e-001
 6.6183440064e-001	 3.2329514729e+000	-9.0024878210e-002
 6.3114016599e-001	 3.2390835264e+000	-7.1719315377e-002
 6.0047807296e-001	 3.2449077157e+000	 1.3147412092e-001
 9.1490106435e-001	 3.1966515360e+000	-1.5338264232e-001
 8.8387452474e-001	 3.2053690621e+000	-1.4718911371e-001
 8.5284447077e-001	 3.2137643518e+000	-1.4033223015e-001
 8.2181557116e-001	 3.2218386314e+000	-1.3245539402e-001
 7.9079244597e-001	 3.2295932108e+000	-1.2320480885e-001
 7.5977966499e-001	 3.2370294809e+000	-1.1222883958e-001
 7.2878174611e-001	 3.2441489125e+000	-9.9177395343e-002
 6.9780315378e-001	 3.2509530539e+000	-8.3701336451e-002
 6.6684829761e-001	 3.2574435295e+000	-6.5451907315e-002
 6.3592153088e-001	 3.2636220379e+000	-4.4080196602e-002
 6.0502714927e-001	 3.2694903500e+000	 1.3601400399e-001
 9.2178001972e-001	 3.2206865099e+000	-1.6310059246e-001
 8.9052019786e-001	 3.2294695814e+000	-1.5156460460e-001
 8.5925683522e-001	 3.2379279935e+000	-1.3957289694e-001
 8.2799463561e-001	 3.2460629820e+000	-1.2681710199e-001
 7.9673825384e-001	 3.2538758665e+000	-1.1299092560e-001
 7.6549229405e-001	 3.2613680485e+000	-9.7789448804e-002
 7.3426130811e-001	 3.2685410096e+000	-8.0908454621e-002
 7.0304979404e-001	 3.2753963099e+000	-6.2043781470e-002
 6.7186219458e-001	 3.2819355861e+000	-4.0890704928e-002
 6.4070289577e-001	 3.2881605495e+000	-1.7143349325e-002
 6.0957622558e-001	 3.2940729842e+000	 1.3475427372e-001
 9.2865897510e-001	 3.2447214839e+000	-1.6743739632e-001
 8.9716587098e-001	 3.2535701007e+000	-1.5123019033e-001
 8.6566919966e-001	 3.2620916352e+000	-1.3477305215e-001
 8.3417370005e-001	 3.2702873326e+000	-1.1780595441e-001
 8.0268406170e-001	 3.2781585222e+000	-1.0007021674e-001
 7.7120492311e-001	 3.2857066160e+000	-8.1307748784e-002
 7.3974087011e-001	 3.2929331067e+000	-6.1260320456e-002
 7.0829643429e-001	 3.2998395660e+000	-3.9668861245e-002
 6.7687609156e-001	 3.3064276427e+000	-1.6272790382e-002
 6.4548426067e-001	 3.3126990611e+000	 9.1906206348e-003
 6.1412530188e-001	 3.3186556184e+000	 1.2851927552e-001
 9.3553793047e-001	 3.2687564578e+000	-1.6657602366e-001
 9.0381154410e-001	 3.2776706199e+000	-1.4633838929e-001
 8.7208156410e-001	 3.2862552770e+000	-1.2605472919e-001
 8.4035276450e-001	 3.2945116833e+000	-1.0551348221e-001
 8.0862986957e-001	 3.3024411780e+000	-8.4503709286e-002
 7.7691755217e-001	 3.3100451835e+000	-6.2814277011e-002
 7.4522043211e-001	 3.3173252037e+000	-4.0233070814e-002
 7.1354307455e-001	 3.3242828220e+000	-1.6546239672e-002
 6.8188998853e-001	 3.3309196993e+000	 8.4625258413e-003
 6.5026562556e-001	 3.3372375726e+000	 3.5012680584e-002
 6.1867437819e-001	 3.3432382526e+000	 1.1812429512e-001
 9.4241688584e-001	 3.2927914318e+000	-1.6070197904e-001
 9.1045721722e-001	 3.3017711392e+000	-1.3704488087e-001
 8.7849392854e-001	 3.3104189187e+000	-1.1354374778e-001
 8.4653182894e-001	 3.3187360339e+000	-9.0035626899e-002
 8.1457567743e-001	 3.3267238337e+000	-6.6357463744e-002
 7.8263018123e-001	 3.3343837511e+000	-4.2345225772e-002
 7.5069999411e-001	 3.3417173008e+000	-1.7833057956e-002
 7.1878971480e-001	 3.3487260780e+000	 7.3475276453e-003
 6.8690388551e-001	 3.3554117559e+000	 3.3368426466e-002
 6.5504699045e-001	 3.3617760842e+000	 6.0405678508e-002
 6.2322345450e-001	 3.3678208868e+000	 1.0437588917e-001
 9.4929584121e-001	 3.3168264057e+000	-1.5000320999e-001
 9.1710289033e-001	 3.3258716585e+000	-1.2350839086e-001
 8.8490629298e-001	 3.3345825605e+000	-9.7369576719e-002
 8.5271089338e-001	 3.3429603845e+000	-7.1472580706e-002
 8.2052148530e-001	 3.3510064894e+000	-4.5702391695e-002
 7.8834281029e-001	 3.3587223186e+000	-1.9942237267e-002
 7.5617955611e-001	 3.3661093979e+000	 5.9273188878e-003
 7.2403635505e-001	 3.3731693341e+000	 3.2029243091e-002
 6.9191778248e-001	 3.3799038126e+000	 5.8490859402e-002
 6.5982835535e-001	 3.3863145957e+000	 8.5444637249e-002
 6.2777253081e-001	 3.3924035210e+000	 1.1302893744e-001
 9.5617479658e-001	 3.3408613797e+000	-1.3467001914e-001
 9.2374856345e-001	 3.3499721777e+000	-1.0589058193e-001
 8.9131865742e-001	 3.3587462022e+000	-7.7665202669e-002
 8.5888995783e-001	 3.3671847351e+000	-4.9928633703e-002
 8.2646729316e-001	 3.3752891451e+000	-2.2614081318e-002
 7.9405543935e-001	 3.3830608861e+000	 4.3477924253e-003
 7.6165911811e-001	 3.3905014950e+000	 3.1029831038e-002
 7.2928299530e-001	 3.3976125901e+000	 5.7509305964e-002
 6.9693167945e-001	 3.4043958692e+000	 8.3868797996e-002
 6.6460972024e-001	 3.4108531073e+000	 1.1019703598e-001
 6.3232160712e-001	 3.4169861552e+000	 1.3658969125e-001
 9.6305375194e-001	 3.3648963537e+000	-1.1489498010e-001
 9.3039423656e-001	 3.3740726970e+000	-8.4355948666e-002
 8.9773102186e-001	 3.3829098440e+000	-5.4567004483e-002
 8.6506902227e-001	 3.3914090857e+000	-2.5512027447e-002
 8.3241310102e-001	 3.3995718009e+000	 2.8273696342e-003
 7.9976806841e-001	 3.4073994536e+000	 3.0472900992e-002
 7.6713868010e-001	 3.4148935921e+000	 5.7450628561e-002
 7.3452963556e-001	 3.4220558462e+000	 8.3791941154e-002
 7.0194557643e-001	 3.4288879258e+000	 1.0953449012e-001
 6.6939108513e-001	 3.4353916189e+000	 1.3472307964e-001
 6.3687068343e-001	 3.4415687894e+000	 1.5941051011e-001
 5.9137992034e-001	 3.1957424473e+000	 1.0165074388e-001
 5.6121820030e-001	 3.2011769916e+000	 6.1665138118e-002
 5.3109635855e-001	 3.2063120026e+000	 3.6273620038e-002
 5.0101841767e-001	 3.2111494118e+000	 2.4800198293e-002
 4.7098833933e-001	 3.2156912140e+000	 2.6588927465e-002
 4.4101002328e-001	 3.2199394651e+000	 4.1001798625e-002
 4.1108730644e-001	 3.2238962803e+000	 6.7416683827e-002
 3.8122396201e-001	 3.2275638322e+000	 1.0522533906e-001
 3.5142369869e-001	 3.2309443486e+000	 1.5383146982e-001
 3.2169015991e-001	 3.2340401112e+000	 2.1264886305e-001
 2.9202692318e-001	 3.2368534530e+000	 2.8109958889e-001
 5.9592899665e-001	 3.2203250815e+000	 1.2030087360e-001
 5.6553526338e-001	 3.2258014300e+000	 8.3419043265e-002
 5.3518171515e-001	 3.2309759410e+000	 5.9685400722e-002
 5.0487240550e-001	 3.2358505611e+000	 4.8528958297e-002
 4.7461132655e-001	 3.2404273003e+000	 4.9398402300e-002
 4.4440240807e-001	 3.2447082303e+000	 6.1759837151e-002
 4.1424951648e-001	 3.2486954825e+000	 8.5094588039e-002
 3.8415645402e-001	 3.2523912463e+000	 1.1889706678e-001
 3.5412695790e-001	 3.2557977667e+000	 1.6267270520e-001
 3.2416469960e-001	 3.2589173428e+000	 2.1593595987e-001
 2.9427328412e-001	 3.2617523257e+000	 2.7820839186e-001
 6.0047807296e-001	 3.2449077157e+000	 1.3147412092e-001
 5.6985232646e-001	 3.2504258684e+000	 9.8357523051e-002
 5.3926707176e-001	 3.2556398795e+000	 7.6936678263e-002
 5.0872639332e-001	 3.2605517105e+000	 6.6746269612e-002
 4.7823431377e-001	 3.2651633866e+000	 6.7340283015e-002
 4.4779479286e-001	 3.2694769954e+000	 7.8289603414e-002
 4.1741172653e-001	 3.2734946847e+000	 9.9179674089e-002
 3.8708894603e-001	 3.2772186604e+000	 1.2960822398e-001
 3.5683021712e-001	 3.2806511848e+000	 1.6918306745e-001
 3.2663923928e-001	 3.2837945745e+000	 2.1751998053e-001
 2.9651964507e-001	 3.2866511984e+000	 2.7424065731e-001
 6.0502714927e-001	 3.2694903500e+000	 1.3601400399e-001
 5.7416938954e-001	 3.2750503068e+000	 1.0726041695e-001
 5.4335242836e-001	 3.2803038180e+000	 8.8743299657e-002
 5.1258038115e-001	 3.2852528598e+000	 8.0103708627e-002
 4.8185730100e-001	 3.2898994728e+000	 8.1001632682e-002
 4.5118717765e-001	 3.2942457605e+000	 9.1113439545e-002
 4.2057393658e-001	 3.2982938868e+000	 1.1012939029e-001
 3.9002143804e-001	 3.3020460744e+000	 1.3775122665e-001
 3.5953347634e-001	 3.3055046028e+000	 1.7368983570e-001
 3.2911377897e-001	 3.3086718061e+000	 2.1766299631e-001
 2.9876600601e-001	 3.3115500711e+000	 2.6939321073e-001
 6.0957622558e-001	 3.2940729842e+000	 1.3475427372e-001
 5.7848645261e-001	 3.2996747452e+000	 1.1089894076e-001
 5.4743778496e-001	 3.3049677565e+000	 9.5813636549e-002
 5.1643436897e-001	 3.3099540091e+000	 8.9246529006e-002
 4.8548028822e-001	 3.3146355591e+000	 9.0964348039e-002
 4.5457956245e-001	 3.3190145256e+000	 1.0074968101e-001
 4.2373614662e-001	 3.3230930890e+000	 1.1839834073e-001
 3.9295393006e-001	 3.3268734885e+000	 1.4371681125e-001
 3.6223673555e-001	 3.3303580209e+000	 1.7651977608e-001
 3.3158831866e-001	 3.3335490377e+000	 2.1662773326e-001
 3.0101236695e-001	 3.3364489438e+000	 2.6386470106e-001
 6.1412530188e-001	 3.3186556184e+000	 1.2851927552e-001
 5.8280351569e-001	 3.3242991836e+000	 1.1003600596e-001
 5.5152314156e-001	 3.3296316950e+000	 9.8848862102e-002
 5.2028835680e-001	 3.3346551584e+000	 9.4813895858e-002
 4.8910327544e-001	 3.3393716454e+000	 9.7805350840e-002
 4.5797194724e-001	 3.3437832907e+000	 1.0771280499e-001
 4.2689835667e-001	 3.3478922911e+000	 1.2443839060e-001
 3.9588642207e-001	 3.3517009026e+000	 1.4789409696e-001
 3.6493999477e-001	 3.3552114390e+000	 1.7799916068e-001
 3.3406285835e-001	 3.3584262693e+000	 2.1467754802e-001
 3.0325872790e-001	 3.3613478166e+000	 2.5785553316e-001
 6.1867437819e-001	 3.3432382526e+000	 1.1812429512e-001
 5.8712057877e-001	 3.3489236220e+000	 1.0542652507e-001
 5.5560849817e-001	 3.3542956335e+000	 9.8543215642e-002
 5.2414234463e-001	 3.3593563078e+000	 9.7439109587e-002
 4.9272626267e-001	 3.3641077316e+000	 1.0209677075e-001
 4.6136433203e-001	 3.3685520559e+000	 1.1251357226e-001
 4.3006056672e-001	 3.3726914933e+000	 1.2869876688e-001
 3.9881891408e-001	 3.3765283167e+000	 1.5067064506e-001
 3.6764325399e-001	 3.3800648570e+000	 1.7845378576e-001
 3.3653739804e-001	 3.3833035010e+000	 2.1207640457e-001
 3.0550508885e-001	 3.3862466893e+000	 2.5156780327e-001
 6.2322345450e-001	 3.3678208868e+000	 1.0437588917e-001
 5.9143764185e-001	 3.3735480604e+000	 9.7817703526e-002
 5.5969385477e-001	 3.3789595719e+000	 9.5584255723e-002
 5.2799633246e-001	 3.3840574571e+000	 9.7749819928e-002
 4.9634924989e-001	 3.3888438179e+000	 1.0440612025e-001
 4.6475671683e-001	 3.3933208210e+000	 1.1565916279e-001
 4.3322277677e-001	 3.3974906954e+000	 1.3162615465e-001
 4.0175140610e-001	 3.4013557308e+000	 1.5243251585e-001
 3.7034651321e-001	 3.4049182751e+000	 1.7820898906e-001
 3.3901193773e-001	 3.4081807326e+000	 2.0908885210e-001
 3.0775144979e-001	 3.4111455620e+000	 2.4520523727e-001
 6.2777253081e-001	 3.3924035210e+000	 1.1302893744e-001
 5.9575470493e-001	 3.3981724988e+000	 8.7949318968e-002
 5.6377921137e-001	 3.4036235104e+000	 9.0653102181e-002
 5.3185032028e-001	 3.4087586064e+000	 9.6368230684e-002
 4.9997223712e-001	 3.4135799042e+000	 1.0529646193e-001
 4.6814910162e-001	 3.4180895861e+000	 1.1765330549e-001
 4.3638498682e-001	 3.4222898976e+000	 1.3366478917e-001
 4.0468389811e-001	 3.4261831449e+000	 1.5356432302e-001
 3.7304977243e-001	 3.4297716932e+000	 1.7758966649e-001
 3.4148647742e-001	 3.4330579642e+000	 2.0598000380e-001
 3.0999781074e-001	 3.4360444347e+000	 2.3897313161e-001
 6.3232160712e-001	 3.4169861552e+000	 1.3658969125e-001
 6.0007176801e-001	 3.4227969372e+000	 7.6553988401e-002
 5.6786456798e-001	 3.4282874489e+000	 8.4424667743e-002
 5.3570430811e-001	 3.4334597557e+000	 9.3911295618e-002
 5.0359522435e-001	 3.4383159904e+000	 1.0532656852e-001
 4.7154148642e-001	 3.4428583512e+000	 1.1899640238e-001
 4.3954719687e-001	 3.4470890998e+000	 1.3525654402e-001
 4.0761639013e-001	 3.4510105590e+000	 1.5444928566e-001
 3.7575303165e-001	 3.4546251112e+000	 1.7692028794e-001
 3.4396101711e-001	 3.4579351959e+000	 2.0301551656e-001
 3.1224417169e-001	 3.4609433074e+000	 2.3307829687e-001
 6.3687068343e-001	 3.4415687894e+000	 1.5941051011e-001
 6.0438883109e-001	 3.4474213756e+000	 6.4357423943e-002
 5.7194992458e-001	 3.4529513874e+000	 7.7567879710e-002
 5.3955829594e-001	 3.4581609051e+000	 9.0990905962e-002
 5.0721821157e-001	 3.4630520767e+000	 1.0505107615e-001
 4.7493387121e-001	 3.4676271163e+000	 1.2018564737e-001
 4.4270940692e-001	 3.4718883019e+000	 1.3684101542e-001
 4.1054888215e-001	 3.4758379731e+000	 1.5546927811e-001
 3.7845629087e-001	 3.4794785293e+000	 1.7652491257e-001
 3.4643555681e-001	 3.4828124275e+000	 2.0046157159e-001
 3.1449053264e-001	 3.4858421801e+000	 2.2772900363e-001
 2.9202692318e-001	 3.2368534530e+000	 2.8109958889e-001
 2.6243749943e-001	 3.2393867566e+000	 2.9855946634e-001
 2.3292533249e-001	 3.2416424524e+000	 3.2140413806e-001
 2.0349379852e-001	 3.2436230166e+000	 3.4902803284e-001
 1.7414620565e-001	 3.2453309691e+000	 3.8083111186e-001
 1.4488579349e-001	 3.2467688718e+000	 4.1621741322e-001
 1.1571573288e-001	 3.2479393266e+000	 4.5459367610e-001
 8.6639125561e-002	 3.2488449735e+000	 4.9536804549e-001
 5.7659003953e-002	 3.2494884889e+000	 5.3794885860e-001
 2.8778330992e-002	 3.2498725833e+000	 5.8174351309e-001
 0.0000000000e+000	 3.2500000000e+000	 6.2615741769e-001
 2.9427328412e-001	 3.2617523257e+000	 2.7820839186e-001
 2.6445624942e-001	 3.2643051163e+000	 2.8668449506e-001
 2.3471706581e-001	 3.2665781636e+000	 3.0015933383e-001
 2.0505913543e-001	 3.2685739629e+000	 3.1814532514e-001
 1.7548579184e-001	 3.2702950535e+000	 3.4015831796e-001
 1.4600029959e-001	 3.2717440170e+000	 3.6571603265e-001
 1.1660585390e-001	 3.2729234752e+000	 3.9433658628e-001
 8.7305580372e-002	 3.2738360887e+000	 4.2553710487e-001
 5.8102534752e-002	 3.2744845542e+000	 4.5883242345e-001
 2.8999702769e-002	 3.2748716032e+000	 4.9373387437e-001
 0.0000000000e+000	 3.2750000000e+000	 5.2974816409e-001
 2.9651964507e-001	 3.2866511984e+000	 2.7424065731e-001
 2.6647499942e-001	 3.2892234759e+000	 2.7507715664e-001
 2.3650879913e-001	 3.2915138748e+000	 2.8052350195e-001
 2.0662447234e-001	 3.2935249092e+000	 2.9021046079e-001
 1.7682537804e-001	 3.2952591379e+000	 3.0377012554e-001
 1.4711480569e-001	 3.2967191621e+000	 3.2083424678e-001
 1.1749597492e-001	 3.2979076239e+000	 3.4103265884e-001
 8.7972035183e-002	 3.2988272039e+000	 3.6399179869e-001
 5.8546065551e-002	 3.2994806195e+000	 3.8933331893e-001
 2.9221074545e-002	 3.2998706230e+000	 4.1667279543e-001
 0.0000000000e+000	 3.3000000000e+000	 4.4561852959e-001
 2.9876600601e-001	 3.3115500711e+000	 2.6939321073e-001
 2.6849374941e-001	 3.3141418356e+000	 2.6385282419e-001
 2.3830053246e-001	 3.3164495860e+000	 2.6253065374e-001
 2.0818980925e-001	 3.3184758555e+000	 2.6517621712e-001
 1.7816496423e-001	 3.3202232222e+000	 2.7153824230e-001
 1.4822931180e-001	 3.3216943073e+000	 2.8136289386e-001
 1.1838609594e-001	 3.3228917726e+000	 2.9439209788e-001
 8.8638489994e-002	 3.3238183191e+000	 3.1036196662e-001
 5.8989596350e-002	 3.3244766848e+000	 3.2900132371e-001
 2.9442446322e-002	 3.3248696429e+000	 3.5003033023e-001
 0.0000000000e+000	 3.3250000000e+000	 3.7315921185e-001
 3.0101236695e-001	 3.3364489438e+000	 2.6386470106e-001
 2.7051249940e-001	 3.3390601953e+000	 2.5313034692e-001
 2.4009226578e-001	 3.3413852971e+000	 2.4621992729e-001
 2.0975514616e-001	 3.3434268017e+000	 2.4300214627e-001
 1.7950455043e-001	 3.3451873066e+000	 2.4334279555e-001
 1.4934381790e-001	 3.3466694525e+000	 2.4710287272e-001
 1.1927621697e-001	 3.3478759212e+000	 2.5413680468e-001
 8.9304944806e-002	 3.3488094342e+000	 2.6429077717e-001
 5.9433127149e-002	 3.3494727501e+000	 2.7740117132e-001
 2.9663818098e-002	 3.3498686628e+000	 2.9329310752e-001
 0.0000000000e+000	 3.3500000000e+000	 3.1177909666e-001
 3.0325872790e-001	 3.3613478166e+000	 2.5785553316e-001
 2.7253124940e-001	 3.3639785549e+000	 2.4303192140e-001
 2.4188399911e-001	 3.3663210083e+000	 2.3163539756e-001
 2.1132048307e-001	 3.3683777480e+000	 2.2365432427e-001
 1.8084413662e-001	 3.3701513910e+000	 2.1907202038e-001
 1.5045832400e-001	 3.3716445976e+000	 2.1786477023e-001
 1.2016633799e-001	 3.3728600699e+000	 2.1999994453e-001
 8.9971399617e-002	 3.3738005494e+000	 2.2543423396e-001
 5.9876657948e-002	 3.3744688154e+000	 2.3411199625e-001
 2.9885189875e-002	 3.3748676827e+000	 2.4596371699e-001
 0.0000000000e+000	 3.3750000000e+000	 2.6090458432e-001
 3.0550508885e-001	 3.3862466893e+000	 2.5156780327e-001
 2.7454999939e-001	 3.3888969146e+000	 2.3368296852e-001
 2.4367573243e-001	 3.3912567195e+000	 2.1882589490e-001
 2.1288581998e-001	 3.3933286943e+000	 2.0710511119e-001
 1.8218372282e-001	 3.3951154754e+000	 1.9862196161e-001
 1.5157283010e-001	 3.3966197428e+000	 1.9346850505e-001
 1.2105645901e-001	 3.3978442186e+000	 1.9172553253e-001
 9.0637854428e-002	 3.3987916646e+000	 1.9346070389e-001
 6.0320188747e-002	 3.3994648807e+000	 1.9872680454e-001
 3.0106561652e-002	 3.3998667025e+000	 2.0756012248e-001
 0.0000000000e+000	 3.4000000000e+000	 2.1997894568e-001
 3.0775144979e-001	 3.4111455620e+000	 2.4520523727e-001
 2.7656874939e-001	 3.4138152743e+000	 2.2521201576e-001
 2.4546746576e-001	 3.4161924307e+000	 2.0784483147e-001
 2.1445115689e-001	 3.4182796406e+000	 1.9333292178e-001
 1.8352330902e-001	 3.4200795598e+000	 1.8189618870e-001
 1.5268733621e-001	 3.4215948880e+000	 1.7374298710e-001
 1.2194658003e-001	 3.4228283672e+000	 1.6906803767e-001
 9.1304309239e-002	 3.4237827798e+000	 1.6805046588e-001
 6.0763719546e-002	 3.4244609460e+000	 1.7085196745e-001
 3.0327933428e-002	 3.4248657224e+000	 1.7761510084e-001
 0.0000000000e+000	 3.4250000000e+000	 1.8846170647e-001
 3.0999781074e-001	 3.4360444347e+000	 2.3897313161e-001
 2.7858749938e-001	 3.4387336339e+000	 2.1775058468e-001
 2.4725919909e-001	 3.4411281418e+000	 1.9875003527e-001
 2.1601649380e-001	 3.4432305869e+000	 1.8232200611e-001
 1.8486289521e-001	 3.4450436441e+000	 1.6880552318e-001
 1.5380184231e-001	 3.4465700331e+000	 1.5852579177e-001
 1.2283670105e-001	 3.4478125159e+000	 1.5179200408e-001
 9.1970764051e-002	 3.4487738950e+000	 1.4889527933e-001
 6.1207250346e-002	 3.4494570113e+000	 1.5010673729e-001
 3.0549305205e-002	 3.4498647423e+000	 1.5567570522e-001
 0.0000000000e+000	 3.4500000000e+000	 1.6582805834e-001
 3.1224417169e-001	 3.4609433074e+000	 2.3307829687e-001
 2.8060624938e-001	 3.4636519936e+000	 2.1143308321e-001
 2.4905093241e-001	 3.4660638530e+000	 1.9160359125e-001
 2.1758183071e-001	 3.4681815332e+000	 1.7406223966e-001
 1.8620248141e-001	 3.4700077285e+000	 1.5926777773e-001
 1.5491634841e-001	 3.4715451783e+000	 1.4766284822e-001
 1.2372682207e-001	 3.4727966646e+000	 1.3967168853e-001
 9.2637218862e-002	 3.4737650101e+000	 1.3569797111e-001
 6.1650781145e-002	 3.4744530766e+000	 1.3612278403e-001
 3.0770676981e-002	 3.4748637621e+000	 1.4130275162e-001
 0.0000000000e+000	 3.4750000000e+000	 1.5156829535e-001
 3.1449053264e-001	 3.4858421801e+000	 2.2772900363e-001
 2.8262499937e-001	 3.4885703533e+000	 2.0639670254e-001
 2.5084266574e-001	 3.4909995642e+000	 1.8647168931e-001
 2.1914716763e-001	 3.4931324794e+000	 1.6854892244e-001
 1.8754206761e-001	 3.4949718129e+000	 1.5320750655e-001
 1.5603085452e-001	 3.4965203235e+000	 1.4100814103e-001
 1.2461694309e-001	 3.4977808132e+000	 1.3249071364e-001
 9.3303673673e-002	 3.4987561253e+000	 1.2817204032e-001
 6.2094311944e-002	 3.4994491419e+000	 1.2854375181e-001
 3.0992048758e-002	 3.4998627820e+000	 1.3407032724e-001
 0.0000000000e+000	 3.5000000000e+000	 1.4518727458e-001
 3.5000000000e+000	 0.0000000000e+000	 1.1103041347e+000
 3.4998627820e+000	 3.0992048758e-002	 1.1120087669e+000
 3.4994491419e+000	 6.2094311944e-002	 1.1127234564e+000
 3.4987561253e+000	 9.3303673673e-002	 1.1115615743e+000
 3.4977808132e+000	 1.2461694309e-001	 1.1077335210e+000
 3.4965203235e+000	 1.5603085452e-001	 1.1005506142e+000
 3.4949718129e+000	 1.8754206761e-001	 1.0894288755e+000
 3.4931324794e+000	 2.1914716763e-001	 1.0738927014e+000
 3.4909995642e+000	 2.5084266574e-001	 1.0535784082e+000
 3.4885703533e+000	 2.8262499937e-001	 1.0282376375e+000
 3.4858421801e+000	 3.1449053264e-001	 9.9774061029e-001
 3.5250000000e+000	 0.0000000000e+000	 1.0795820745e+000
 3.5248618019e+000	 3.1213420535e-002	 1.0799050720e+000
 3.5244452072e+000	 6.2537842743e-002	 1.0795781300e+000
 3.5237472405e+000	 9.3970128485e-002	 1.0777279524e+000
 3.5227649619e+000	 1.2550706412e-001	 1.0735802756e+000
 3.5214954686e+000	 1.5714536062e-001	 1.0664638025e+000
 3.5199358973e+000	 1.8888165380e-001	 1.0558140318e+000
 3.5180834257e+000	 2.2071250454e-001	 1.0411769686e+000
 3.5159352753e+000	 2.5263439907e-001	 1.0222127053e+000
 3.5134887129e+000	 2.8464374937e-001	 9.9869885941e-001
 3.5107410529e+000	 3.1673689358e-001	 9.7053385574e-001
 3.5500000000e+000	 0.0000000000e+000	 1.0495233022e+000
 3.5498608218e+000	 3.1434792311e-002	 1.0491596654e+000
 3.5494412725e+000	 6.2981373542e-002	 1.0484093316e+000
 3.5487383557e+000	 9.4636583296e-002	 1.0464114717e+000
 3.5477491106e+000	 1.2639718514e-001	 1.0424063563e+000
 3.5464706138e+000	 1.5825986672e-001	 1.0357393370e+000
 3.5448999816e+000	 1.9022124000e-001	 1.0258647214e+000
 3.5430343720e+000	 2.2227784145e-001	 1.0123495251e+000
 3.5408709865e+000	 2.5442613239e-001	 9.9487709103e-001
 3.5384070726e+000	 2.8666249936e-001	 9.7325056128e-001
 3.5356399256e+000	 3.1898325453e-001	 9.4739618982e-001
 3.5750000000e+000	 0.0000000000e+000	 1.0201507214e+000
 3.5748598416e+000	 3.1656164088e-002	 1.0197814961e+000
 3.5744373378e+000	 6.3424904341e-002	 1.0192121235e+000
 3.5737294709e+000	 9.5303038108e-002	 1.0175933838e+000
 3.5727332592e+000	 1.2728730616e-001	 1.0141792869e+000
 3.5714457590e+000	 1.5937437283e-001	 1.0083311054e+000
 3.5698640660e+000	 1.9156082620e-001	 9.9952129570e-001
 3.5679853183e+000	 2.2384317836e-001	 9.8733729483e-001
 3.5658066977e+000	 2.5621786572e-001	 9.7148517954e-001
 3.5633254323e+000	 2.8868124936e-001	 9.5179317487e-001
 3.5605387983e+000	 3.2122961548e-001	 9.2821499902e-001
 3.6000000000e+000	 0.0000000000e+000	 9.9148659965e-001
 3.5998588615e+000	 3.1877535864e-002	 9.9177913208e-001
 3.5994334031e+000	 6.3868435141e-002	 9.9198142605e-001
 3.5987205860e+000	 9.5969492919e-002	 9.9125501972e-001
 3.5977174079e+000	 1.2817742718e-001	 9.8886687574e-001
 3.5964209041e+000	 1.6048887893e-001	 9.8419346696e-001
 3.5948281504e+000	 1.9290041239e-001	 9.7672474724e-001
 3.5929362646e+000	 2.2540851527e-001	 9.6606799424e-001
 3.5907424089e+000	 2.5800959905e-001	 9.5195151097e-001
 3.5882437919e+000	 2.9069999936e-001	 9.3422817290e-001
 3.5854376710e+000	 3.2347597643e-001	 9.1287880711e-001
 3.6250000000e+000	 0.0000000000e+000	 9.6355259010e-001
 3.6248578814e+000	 3.2098907641e-002	 9.6516077391e-001
 3.6244294683e+000	 6.4311965940e-002	 9.6671202247e-001
 3.6237117012e+000	 9.6635947731e-002	 9.6737778776e-001
 3.6227015566e+000	 1.2906754820e-001	 9.6643720557e-001
 3.6213960493e+000	 1.6160338503e-001	 9.6328123631e-001
 3.6197922348e+000	 1.9423999859e-001	 9.5741668757e-001
 3.6178872109e+000	 2.2697385218e-001	 9.4847010524e-001
 3.6156781200e+000	 2.5980133237e-001	 9.3619151965e-001
 3.6131621516e+000	 2.9271874935e-001	 9.2045803319e-001
 3.6103365437e+000	 3.2572233738e-001	 9.0127723590e-001
 3.6500000000e+000	 0.0000000000e+000	 9.3636975273e-001
 3.6498569012e+000	 3.2320279418e-002	 9.3993426691e-001
 3.6494255336e+000	 6.4755496739e-002	 9.4339856340e-001
 3.6487028164e+000	 9.7302402542e-002	 9.4594317046e-001
 3.6476857052e+000	 1.2995766922e-001	 9.4685862445e-001
 3.6463711945e+000	 1.6271789114e-001	 9.4554966786e-001
 3.6447563192e+000	 1.9557958479e-001	 9.4153932608e-001
 3.6428381571e+000	 2.2853918909e-001	 9.3447284888e-001
 3.6406138312e+000	 2.6159306570e-001	 9.2412150337e-001
 3.6380805113e+000	 2.9473749935e-001	 9.1038620423e-001
 3.6352354164e+000	 3.2796869832e-001	 8.9330096763e-001
 3.6750000000e+000	 0.0000000000e+000	 9.0995857444e-001
 3.6748559211e+000	 3.2541651194e-002	 9.1610711339e-001
 3.6744215989e+000	 6.5199027538e-002	 9.2203557152e-001
 3.6736939316e+000	 9.7968857353e-002	 9.2693272224e-001
 3.6726698539e+000	 1.3084779024e-001	 9.3009973656e-001
 3.6713463396e+000	 1.6383239724e-001	 9.3095444082e-001
 3.6697204035e+000	 1.9691917098e-001	 9.2903544962e-001
 3.6677891034e+000	 2.3010452601e-001	 9.2400616020e-001
 3.6655495424e+000	 2.6338479903e-001	 9.1565859408e-001
 3.6629988709e+000	 2.9675624934e-001	 9.0391707215e-001
 3.6601342892e+000	 3.3021505927e-001	 8.8884170892e-001
 3.7000000000e+000	 0.0000000000e+000	 8.8433898843e-001
 3.6998549410e+000	 3.2763022971e-002	 8.9368648425e-001
 3.6994176642e+000	 6.5642558337e-002	 9.0261744588e-001
 3.6986850468e+000	 9.8635312165e-002	 9.1032806691e-001
 3.6976540026e+000	 1.3173791127e-001	 9.1612939365e-001
 3.6963214848e+000	 1.6494690334e-001	 9.1945164483e-001
 3.6946844879e+000	 1.9825875718e-001	 9.1984840306e-001
 3.6927400497e+000	 2.3166986292e-001	 9.1700066412e-001
 3.6904852536e+000	 2.6517653235e-001	 9.1072072967e-001
 3.6879172306e+000	 2.9877499934e-001	 9.0095592910e-001
 3.6850331619e+000	 3.3246142022e-001	 8.8779215616e-001
 3.7250000000e+000	 0.0000000000e+000	 8.5953039278e-001
 3.7248539609e+000	 3.2984394747e-002	 8.7267923007e-001
 3.7244137295e+000	 6.6086089136e-002	 8.8513846602e-001
 3.7236761619e+000	 9.9301766976e-002	 8.9611089536e-001
 3.7226381512e+000	 1.3262803229e-001	 9.0491668665e-001
 3.7212966300e+000	 1.6606140945e-001	 9.1099776622e-001
 3.7196485723e+000	 1.9959834338e-001	 9.1392207048e-001
 3.7176909960e+000	 2.3323519983e-001	 9.1338765232e-001
 3.7154209647e+000	 2.6696826568e-001	 9.0922662696e-001
 3.7128355903e+000	 3.0079374934e-001	 9.0140894277e-001
 3.7099320346e+000	 3.3470778117e-001	 8.9004596228e-001
 3.7500000000e+000	 0.0000000000e+000	 8.3555166829e-001
 3.7498529807e+000	 3.3205766524e-002	 8.5309189178e-001
 3.7494097948e+000	 6.6529619936e-002	 8.6959279596e-001
 3.7486672771e+000	 9.9968221788e-002	 8.8426296334e-001
 3.7476222999e+000	 1.3351815331e-001	 8.9643093775e-001
 3.7462717751e+000	 1.6717591555e-001	 9.0554967478e-001
 3.7446126567e+000	 2.0093792957e-001	 9.1120085727e-001
 3.7426419423e+000	 2.3480053674e-001	 9.1309906095e-001
 3.7403566759e+000	 2.6875999901e-001	 9.1109575569e-001
 3.7377539499e+000	 3.0281249933e-001	 9.0518312727e-001
 3.7348309073e+000	 3.3695414212e-001	 8.9549770489e-001
 3.4858421801e+000	 3.1449053264e-001	 9.9774061029e-001
 3.4828124275e+000	 3.4643555681e-001	 9.8187610624e-001
 3.4794785293e+000	 3.7845629087e-001	 9.6480635805e-001
 3.4758379731e+000	 4.1054888215e-001	 9.4676085538e-001
 3.4718883019e+000	 4.4270940692e-001	 9.2809523461e-001
 3.4676271163e+000	 4.7493387121e-001	 9.0929352317e-001
 3.4630520767e+000	 5.0721821157e-001	 8.9097016119e-001
 3.4581609051e+000	 5.3955829594e-001	 8.7387178906e-001
 3.4529513874e+000	 5.7194992458e-001	 8.5887878928e-001
 3.4474213756e+000	 6.0438883109e-001	 8.4700657180e-001
 3.4415687894e+000	 6.3687068343e-001	 8.1667969986e-001
 3.5107410529e+000	 3.1673689358e-001	 9.7053385574e-001
 3.5076896591e+000	 3.4891009650e-001	 9.5606278892e-001
 3.5043319474e+000	 3.8115955010e-001	 9.4044506291e-001
 3.5006653872e+000	 4.1348137416e-001	 9.2394413290e-001
 3.4966875041e+000	 4.4587161697e-001	 9.0695230152e-001
 3.4923958815e+000	 4.7832625601e-001	 8.8999297763e-001
 3.4877881630e+000	 5.1084119880e-001	 8.7372270704e-001
 3.4828620544e+000	 5.4341228377e-001	 8.5893296324e-001
 3.4776153259e+000	 5.7603528119e-001	 8.4655168666e-001
 3.4720458140e+000	 6.0870589417e-001	 8.3764456107e-001
 3.4661514237e+000	 6.4141975974e-001	 8.0238437405e-001
 3.5356399256e+000	 3.1898325453e-001	 9.4739618982e-001
 3.5325668907e+000	 3.5138463619e-001	 9.3431838671e-001
 3.5291853654e+000	 3.8386280932e-001	 9.2007767900e-001
 3.5254928013e+000	 4.1641386618e-001	 9.0497138252e-001
 3.5214867062e+000	 4.4903382702e-001	 8.8942844115e-001
 3.5171646466e+000	 4.8171864080e-001	 8.7401170167e-001
 3.5125242492e+000	 5.1446418603e-001	 8.5941995480e-001
 3.5075632037e+000	 5.4726627160e-001	 8.4648973058e-001
 3.5022792644e+000	 5.8012063779e-001	 8.3619683606e-001
 3.4966702524e+000	 6.1302295724e-001	 8.2965762401e-001
 3.4907340579e+000	 6.4596883605e-001	 7.8935874317e-001
 3.5605387983e+000	 3.2122961548e-001	 9.2821499902e-001
 3.5574441224e+000	 3.5385917588e-001	 9.1651522118e-001
 3.5540387835e+000	 3.8656606854e-001	 9.0356146428e-001
 3.5503202154e+000	 4.1934635820e-001	 8.8968481015e-001
 3.5462859084e+000	 4.5219603707e-001	 8.7535082970e-001
 3.5419334117e+000	 4.8511102560e-001	 8.6116187516e-001
 3.5372603355e+000	 5.1808717325e-001	 8.4785913305e-001
 3.5322643530e+000	 5.5112025943e-001	 8.3632442530e-001
 3.5269432028e+000	 5.8420599440e-001	 8.2758174675e-001
 3.5212946908e+000	 6.1734002033e-001	 8.2279852710e-001
 3.5153166921e+000	 6.5051791236e-001	 7.7756282591e-001
 3.5854376710e+000	 3.2347597643e-001	 9.1287880711e-001
 3.5823213540e+000	 3.5633371558e-001	 9.0252688876e-001
 3.5788922016e+000	 3.8926932776e-001	 8.9075507435e-001
 3.5751476295e+000	 4.2227885021e-001	 8.7792812725e-001
 3.5710851106e+000	 4.5535824712e-001	 8.6454824159e-001
 3.5667021768e+000	 4.8850341040e-001	 8.5125735363e-001
 3.5619964217e+000	 5.2171016048e-001	 8.3883920787e-001
 3.5569655023e+000	 5.5497424726e-001	 8.2822116536e-001
 3.5516071413e+000	 5.8829135100e-001	 8.2047574207e-001
 3.5459191292e+000	 6.2165708341e-001	 8.1682186527e-001
 3.5398993263e+000	 6.5506698867e-001	 7.6695846762e-001
 3.6103365437e+000	 3.2572233738e-001	 9.0127723590e-001
 3.6071985856e+000	 3.5880825527e-001	 8.9222821672e-001
 3.6037456196e+000	 3.9197258699e-001	 8.8151851428e-001
 3.5999750436e+000	 4.2521134223e-001	 8.6954649883e-001
 3.5958843127e+000	 4.5852045717e-001	 8.5685099435e-001
 3.5914709419e+000	 4.9189579519e-001	 8.4411361041e-001
 3.5867325080e+000	 5.2533314771e-001	 8.3216082292e-001
 3.5816666517e+000	 5.5882823509e-001	 8.2196579090e-001
 3.5762710798e+000	 5.9237670761e-001	 8.1464989690e-001
 3.5705435676e+000	 6.2597414649e-001	 8.0981730288e-001
 3.5644819605e+000	 6.5961606499e-001	 7.5750927739e-001
 3.6352354164e+000	 3.2796869832e-001	 8.9330096763e-001
 3.6320758172e+000	 3.6128279496e-001	 8.8549522107e-001
 3.6285990377e+000	 3.9467584621e-001	 8.7571309237e-001
 3.6248024577e+000	 4.2814383425e-001	 8.6438649375e-001
 3.6206835149e+000	 4.6168266723e-001	 8.5209089577e-001
 3.6162397070e+000	 4.9528817999e-001	 8.3954768125e-001
 3.6114685943e+000	 5.2895613494e-001	 8.2762624199e-001
 3.6063678010e+000	 5.6268222292e-001	 8.1734580529e-001
 3.6009350183e+000	 5.9646206422e-001	 8.0987697768e-001
 3.5951680060e+000	 6.3029120957e-001	 7.9792240885e-001
 3.5890645947e+000	 6.6416514130e-001	 7.4918056765e-001
 3.6601342892e+000	 3.3021505927e-001	 8.8884170892e-001
 3.6569530489e+000	 3.6375733466e-001	 8.8220506611e-001
 3.6534524558e+000	 3.9737910543e-001	 8.7320137582e-001
 3.6496298718e+000	 4.3107632627e-001	 8.6229603689e-001
 3.6454827170e+000	 4.6484487728e-001	 8.5010119322e-001
 3.6410084722e+000	 4.9868056479e-001	 8.3737811121e-001
 3.6362046805e+000	 5.3257912217e-001	 8.2503929389e-001
 3.6310689503e+000	 5.6653621075e-001	 8.1415031857e-001
 3.6255989568e+000	 6.0054742082e-001	 8.0593138485e-001
 3.6197924444e+000	 6.3460827265e-001	 7.8704262483e-001
 3.6136472289e+000	 6.6871421761e-001	 7.4193929619e-001
 3.6850331619e+000	 3.3246142022e-001	 8.8779215616e-001
 3.6818302805e+000	 3.6623187435e-001	 8.8223602562e-001
 3.6783058738e+000	 4.0008236465e-001	 8.7384714822e-001
 3.6744572859e+000	 4.3400881828e-001	 8.6312436341e-001
 3.6702819192e+000	 4.6800708733e-001	 8.5071652500e-001
 3.6657772373e+000	 5.0207294958e-001	 8.3742490360e-001
 3.6609407668e+000	 5.3620210939e-001	 8.2420531961e-001
 3.6557700996e+000	 5.7039019858e-001	 8.1216999312e-001
 3.6502628952e+000	 6.0463277743e-001	 8.0258909767e-001
 3.6444168828e+000	 6.3892533573e-001	 7.7714563676e-001
 3.6382298631e+000	 6.7326329392e-001	 7.3575401059e-001
 3.7099320346e+000	 3.3470778117e-001	 8.9004596228e-001
 3.7067075121e+000	 3.6870641404e-001	 8.8546744566e-001
 3.7031592919e+000	 4.0278562387e-001	 8.7751536871e-001
 3.6992847000e+000	 4.3694131030e-001	 8.6672197474e-001
 3.6950811213e+000	 4.7116929738e-001	 8.5377287368e-001
 3.6905460024e+000	 5.0546533438e-001	 8.3950947113e-001
 3.6856768530e+000	 5.3982509662e-001	 8.2493112152e-001
 3.6804712489e+000	 5.7424418641e-001	 8.1119699164e-001
 3.6749268337e+000	 6.0871813404e-001	 7.9962762122e-001
 3.6690413212e+000	 6.4324239882e-001	 7.6820066853e-001
 3.6628124973e+000	 6.7781237024e-001	 7.3059479489e-001
 3.7348309073e+000	 3.3695414212e-001	 8.9549770489e-001
 3.7315847437e+000	 3.7118095373e-001	 8.9177970880e-001
 3.7280127100e+000	 4.0548888310e-001	 8.8407213282e-001
 3.7241121140e+000	 4.3987380232e-001	 8.7294059637e-001
 3.7198803235e+000	 4.7433150743e-001	 8.5910752128e-001
 3.7153147675e+000	 5.0885771918e-001	 8.4345458886e-001
 3.7104129393e+000	 5.4344808385e-001	 8.2702491469e-001
 3.7051723983e+000	 5.7809817425e-001	 8.1102492706e-001
 3.6995907722e+000	 6.1280349065e-001	 7.9682593556e-001
 3.6936657595e+000	 6.4755946190e-001	 7.6017843065e-001
 3.6873951316e+000	 6.8236144655e-001	 7.2643321836e-001
 3.4415687894e+000	 6.3687068343e-001	 8.1667969986e-001
 3.4353916189e+000	 6.6939108513e-001	 7.8782398464e-001
 3.4288879258e+000	 7.0194557643e-001	 7.5876539909e-001
 3.4220558462e+000	 7.3452963556e-001	 7.2956494034e-001
 3.4148935921e+000	 7.6713868010e-001	 7.0029596635e-001
 3.4073994536e+000	 7.9976806841e-001	 6.7104447466e-001
 3.3995718009e+000	 8.3241310102e-001	 6.4190935974e-001
 3.3914090857e+000	 8.6506902227e-001	 6.1300264776e-001
 3.3829098440e+000	 8.9773102186e-001	 5.8444970741e-001
 3.3740726970e+000	 9.3039423656e-001	 5.5638943541e-001
 3.3648963537e+000	 9.6305375194e-001	 5.2897441560e-001
 3.4661514237e+000	 6.4141975974e-001	 8.0238437405e-001
 3.4599301304e+000	 6.7417245002e-001	 7.7561267884e-001
 3.4533799824e+000	 7.0695947340e-001	 7.4833520571e-001
 3.4464991022e+000	 7.3977627581e-001	 7.2060741178e-001
 3.4392856892e+000	 7.7261824210e-001	 6.9249755363e-001
 3.4317380212e+000	 8.0548069746e-001	 6.6408698189e-001
 3.4238544566e+000	 8.3835890888e-001	 6.3547041411e-001
 3.4156334363e+000	 8.7124808671e-001	 6.0675618445e-001
 3.4070734857e+000	 9.0414338630e-001	 5.7806646885e-001
 3.3981732162e+000	 9.3703990968e-001	 5.4953748432e-001
 3.3889313276e+000	 9.6993270731e-001	 5.2131966113e-001
 3.4907340579e+000	 6.4596883605e-001	 7.8935874317e-001
 3.4844686420e+000	 6.7895381492e-001	 7.6465188673e-001
 3.4778720390e+000	 7.1197337037e-001	 7.3913342439e-001
 3.4709423583e+000	 7.4502291606e-001	 7.1285327183e-001
 3.4636777863e+000	 7.7809780410e-001	 6.8587458891e-001
 3.4560765887e+000	 8.1119332652e-001	 6.5827409039e-001
 3.4481371123e+000	 8.4430471674e-001	 6.3014233436e-001
 3.4398577869e+000	 8.7742715115e-001	 6.0158398705e-001
 3.4312371274e+000	 9.1055575074e-001	 5.7271806243e-001
 3.4222737355e+000	 9.4368558279e-001	 5.4367813546e-001
 3.4129663016e+000	 9.7681166268e-001	 5.1461252738e-001
 3.5153166921e+000	 6.5051791236e-001	 7.7756282591e-001
 3.5090071536e+000	 6.8373517981e-001	 7.5490416385e-001
 3.5023640956e+000	 7.1698726735e-001	 7.3112504492e-001
 3.4953856143e+000	 7.5026955631e-001	 7.0626984004e-001
 3.4880698834e+000	 7.8357736610e-001	 6.8039661534e-001
 3.4804151562e+000	 8.1690595558e-001	 6.5357745903e-001
 3.4724197680e+000	 8.5025052460e-001	 6.2589878566e-001
 3.4640821375e+000	 8.8360621559e-001	 5.9746161605e-001
 3.4554007692e+000	 9.1696811518e-001	 5.6838183161e-001
 3.4463742548e+000	 9.5033125591e-001	 5.3879040149e-001
 3.4370012755e+000	 9.8369061805e-001	 5.0883358124e-001
 3.5398993263e+000	 6.5506698867e-001	 7.6695846762e-001
 3.5335456651e+000	 6.8851654471e-001	 7.4633384278e-001
 3.5268561522e+000	 7.2200116432e-001	 7.2427678564e-001
 3.5198288704e+000	 7.5551619657e-001	 7.0082611735e-001
 3.5124619805e+000	 7.8905692810e-001	 6.7603481153e-001
 3.5047537237e+000	 8.2261858464e-001	 6.4997033758e-001
 3.4967024237e+000	 8.5619633247e-001	 6.2271498081e-001
 3.4883064882e+000	 8.8978528004e-001	 5.9436613775e-001
 3.4795644109e+000	 9.2338047962e-001	 5.6503658516e-001
 3.4704747740e+000	 9.5697692902e-001	 5.3485472138e-001
 3.4610362495e+000	 9.9056957342e-001	 5.0396477830e-001
 3.5644819605e+000	 6.5961606499e-001	 7.5750927739e-001
 3.5580841767e+000	 6.9329790960e-001	 7.3890697184e-001
 3.5513482089e+000	 7.2701506130e-001	 7.1855703389e-001
 3.5442721264e+000	 7.6076283682e-001	 6.9649272812e-001
 3.5368540775e+000	 7.9453649010e-001	 6.7276193521e-001
 3.5290922913e+000	 8.2833121370e-001	 6.4742751187e-001
 3.5209850795e+000	 8.6214214033e-001	 6.2056762696e-001
 3.5125308388e+000	 8.9596434448e-001	 5.9227607231e-001
 3.5037280527e+000	 9.2979284406e-001	 5.6266254668e-001
 3.4945752933e+000	 9.6362260214e-001	 5.3185291120e-001
 3.4850712234e+000	 9.9744852879e-001	 4.9998941503e-001
 3.5890645947e+000	 6.6416514130e-001	 7.4918056765e-001
 3.5826226883e+000	 6.9807927450e-001	 7.3259125638e-001
 3.5758402655e+000	 7.3202895827e-001	 7.1393578885e-001
 3.5687153825e+000	 7.6600947708e-001	 6.9324186454e-001
 3.5612461746e+000	 8.0001605210e-001	 6.7055226913e-001
 3.5534308588e+000	 8.3404384276e-001	 6.4592525116e-001
 3.5452677352e+000	 8.6808794820e-001	 6.1943487433e-001
 3.5367551894e+000	 9.0214340892e-001	 5.9117134400e-001
 3.5278916944e+000	 9.3620520850e-001	 5.6124130611e-001
 3.5186758126e+000	 9.7026827526e-001	 5.2976811703e-001
 3.5091061974e+000	 1.0043274842e+000	 4.9689208283e-001
 3.6136472289e+000	 6.6871421761e-001	 7.4193929619e-001
 3.6071611998e+000	 7.0286063939e-001	 7.2735600239e-001
 3.6003323221e+000	 7.3704285525e-001	 7.1038460669e-001
 3.5931586385e+000	 7.7125611733e-001	 6.9104723329e-001
 3.5856382717e+000	 8.0549561411e-001	 6.6938156918e-001
 3.5777694263e+000	 8.3975647182e-001	 6.4544125768e-001
 3.5695503909e+000	 8.7403375606e-001	 6.1929626720e-001
 3.5609795400e+000	 9.0832247337e-001	 5.9103323338e-001
 3.5520553362e+000	 9.4261757294e-001	 5.6075577326e-001
 3.5427763318e+000	 9.7691394838e-001	 5.2858476963e-001
 3.5331411713e+000	 1.0112064395e+000	 4.9465862399e-001
 3.6382298631e+000	 6.7326329392e-001	 7.3575401059e-001
 3.6316997114e+000	 7.0764200429e-001	 7.2317206239e-001
 3.6248243787e+000	 7.4205675223e-001	 7.0787654798e-001
 3.6176018945e+000	 7.7650275759e-001	 6.8988400438e-001
 3.6100303688e+000	 8.1097517611e-001	 6.6922701461e-001
 3.6021079939e+000	 8.4546910088e-001	 6.4595461827e-001
 3.5938330466e+000	 8.7997956393e-001	 6.2013269678e-001
 3.5852038906e+000	 9.1450153782e-001	 5.9184433153e-001
 3.5762189779e+000	 9.4902993738e-001	 5.6119013327e-001
 3.5668768511e+000	 9.8355962149e-001	 5.2828854112e-001
 3.5571761453e+000	 1.0180853949e+000	 4.9327608942e-001
 3.6628124973e+000	 6.7781237024e-001	 7.3059479489e-001
 3.6562382230e+000	 7.1242336919e-001	 7.2001178360e-001
 3.6493164353e+000	 7.4707064920e-001	 7.0638612720e-001
 3.6420451506e+000	 7.8174939785e-001	 6.8972876204e-001
 3.6344224659e+000	 8.1645473811e-001	 6.7006716032e-001
 3.6264465614e+000	 8.5118172995e-001	 6.4744575785e-001
 3.6181157023e+000	 8.8592537179e-001	 6.2192635604e-001
 3.6094282412e+000	 9.2068060226e-001	 5.9358849605e-001
 3.6003826196e+000	 9.5544230183e-001	 5.6252980373e-001
 3.5909773704e+000	 9.9020529461e-001	 5.2886630327e-001
 3.5812111192e+000	 1.0249643503e+000	 4.9273269812e-001
 3.6873951316e+000	 6.8236144655e-001	 7.2643321836e-001
 3.6807767345e+000	 7.1720473409e-001	 7.1784895809e-001
 3.6738084919e+000	 7.5208454618e-001	 7.0588926430e-001
 3.6664884066e+000	 7.8699603810e-001	 6.9055945760e-001
 3.6588145630e+000	 8.2193430012e-001	 6.7188189093e-001
 3.6507851289e+000	 8.5689435901e-001	 6.4989639486e-001
 3.6423983581e+000	 8.9187117966e-001	 6.2466069626e-001
 3.6336525918e+000	 9.2685966671e-001	 5.9625080887e-001
 3.6245462614e+000	 9.6185466627e-001	 5.6476139366e-001
 3.6150778896e+000	 9.9685096773e-001	 5.3030608752e-001
 3.6052460932e+000	 1.0318433056e+000	 4.9301779821e-001
 3.3648963537e+000	 9.6305375194e-001	 5.2897441560e-001
 3.3553796121e+000	 9.9570460419e-001	 5.0527085690e-001
 3.3455213614e+000	 1.0283417820e+000	 4.8230475428e-001
 3.3353205834e+000	 1.0609602284e+000	 4.6027807487e-001
 3.3247763542e+000	 1.0935548431e+000	 4.3940722468e-001
 3.3138878460e+000	 1.1261204840e+000	 4.1992305618e-001
 3.3026543284e+000	 1.1586519699e+000	 4.0207084227e-001
 3.2910751701e+000	 1.1911440823e+000	 3.8611021565e-001
 3.2791498404e+000	 1.2235915677e+000	 3.7231507273e-001
 3.2668779101e+000	 1.2559891402e+000	 3.5801973781e-001
 3.2542590537e+000	 1.2883314835e+000	 3.3360528951e-001
 3.3889313276e+000	 9.6993270731e-001	 5.2131966113e-001
 3.3793466093e+000	 1.0028167799e+000	 4.9686342283e-001
 3.3694179425e+000	 1.0356870804e+000	 4.7301775416e-001
 3.3591443018e+000	 1.0685385158e+000	 4.4998893557e-001
 3.3485247567e+000	 1.1013659491e+000	 4.2799813533e-001
 3.3375584734e+000	 1.1341642017e+000	 4.0728141951e-001
 3.3262447164e+000	 1.1669280554e+000	 3.8808972746e-001
 3.3145828499e+000	 1.1996522543e+000	 3.7068881180e-001
 3.3025723392e+000	 1.2323315075e+000	 3.5535914205e-001
 3.2902127523e+000	 1.2649604912e+000	 3.3533841749e-001
 3.2775037612e+000	 1.2975338512e+000	 3.0990513760e-001
 3.4129663016e+000	 9.7681166268e-001	 5.1461252738e-001
 3.4033136065e+000	 1.0099289557e+000	 4.8943948449e-001
 3.3933145237e+000	 1.0430323789e+000	 4.6474476373e-001
 3.3829680203e+000	 1.0761168031e+000	 4.4073896940e-001
 3.3722731592e+000	 1.1091770551e+000	 4.1764805083e-001
 3.3612291009e+000	 1.1422079195e+000	 3.9571331491e-001
 3.3498351045e+000	 1.1752041409e+000	 3.7519140311e-001
 3.3380905297e+000	 1.2081604263e+000	 3.5635423225e-001
 3.3259948381e+000	 1.2410714472e+000	 3.3948889785e-001
 3.3135475946e+000	 1.2739318422e+000	 3.1410598379e-001
 3.3007484688e+000	 1.3067362190e+000	 2.8765926970e-001
 3.4370012755e+000	 9.8369061805e-001	 5.0883358124e-001
 3.4272806038e+000	 1.0170411314e+000	 4.8297929383e-001
 3.4172111048e+000	 1.0503776773e+000	 4.5746565984e-001
 3.4067917387e+000	 1.0836950905e+000	 4.3250761807e-001
 3.3960215617e+000	 1.1169881611e+000	 4.0833591798e-001
 3.3848997284e+000	 1.1502516372e+000	 3.8519713475e-001
 3.3734254925e+000	 1.1834802264e+000	 3.6335364812e-001
 3.3615982095e+000	 1.2166685983e+000	 3.4308358381e-001
 3.3494173369e+000	 1.2498113870e+000	 3.2468071679e-001
 3.3368824368e+000	 1.2829031932e+000	 2.9428080585e-001
 3.3239931763e+000	 1.3159385867e+000	 2.6682532460e-001
 3.4610362495e+000	 9.9056957342e-001	 5.0396477830e-001
 3.4512476010e+000	 1.0241533072e+000	 4.7746450419e-001
 3.4411076860e+000	 1.0577229757e+000	 4.5116173326e-001
 3.4306154572e+000	 1.0912733778e+000	 4.2527574968e-001
 3.4197699643e+000	 1.1247992672e+000	 4.0004212232e-001
 3.4085703558e+000	 1.1582953550e+000	 3.7571272252e-001
 3.3970158806e+000	 1.1917563119e+000	 3.5255570470e-001
 3.3851058893e+000	 1.2251767703e+000	 3.3085544869e-001
 3.3728398358e+000	 1.2585513268e+000	 3.0730392223e-001
 3.3602172790e+000	 1.2918745442e+000	 2.7582275209e-001
 3.3472378838e+000	 1.3251409544e+000	 2.4736245221e-001
 3.4850712234e+000	 9.9744852879e-001	 4.9998941503e-001
 3.4752145982e+000	 1.0312654829e+000	 4.7287812192e-001
 3.4650042671e+000	 1.0650682742e+000	 4.4581563990e-001
 3.4544391756e+000	 1.0988516651e+000	 4.1902560953e-001
 3.4435183668e+000	 1.1326103732e+000	 3.9274843858e-001
 3.4322409833e+000	 1.1663390727e+000	 3.6724132269e-001
 3.4206062687e+000	 1.2000323974e+000	 3.4277822783e-001
 3.4086135690e+000	 1.2336849423e+000	 3.1964983359e-001
 3.3962623346e+000	 1.2672912665e+000	 2.9116673752e-001
 3.3835521212e+000	 1.3008458952e+000	 2.5869313852e-001
 3.3704825914e+000	 1.3343433222e+000	 2.2923126134e-001
 3.5091061974e+000	 1.0043274842e+000	 4.9689208283e-001
 3.4991815955e+000	 1.0383776586e+000	 4.6920446008e-001
 3.4889008483e+000	 1.0724135726e+000	 4.4141135408e-001
 3.4782628941e+000	 1.1064299525e+000	 4.1374077292e-001
 3.4672667693e+000	 1.1404214792e+000	 3.8643798305e-001
 3.4559116108e+000	 1.1743827904e+000	 3.5976553282e-001
 3.4441966567e+000	 1.2083084829e+000	 3.3400323698e-001
 3.4321212488e+000	 1.2421931143e+000	 3.0944812098e-001
 3.4196848335e+000	 1.2760312063e+000	 2.7631553406e-001
 3.4068869634e+000	 1.3098172462e+000	 2.4285467916e-001
 3.3937272989e+000	 1.3435456899e+000	 2.1239376984e-001
 3.5331411713e+000	 1.0112064395e+000	 4.9465862399e-001
 3.5231485927e+000	 1.0454898344e+000	 4.6642909398e-001
 3.5127974294e+000	 1.0797588711e+000	 4.3793412367e-001
 3.5020866125e+000	 1.1140082398e+000	 4.0940609997e-001
 3.4910151719e+000	 1.1482325852e+000	 3.8109516797e-001
 3.4795822382e+000	 1.1824265082e+000	 3.5326925747e-001
 3.4677870448e+000	 1.2165845684e+000	 3.2621406960e-001
 3.4556289286e+000	 1.2507012864e+000	 2.9996026499e-001
 3.4431073324e+000	 1.2847711461e+000	 2.6271503436e-001
 3.4302218056e+000	 1.3187885972e+000	 2.2827143849e-001
 3.4169720064e+000	 1.3527480577e+000	 1.9681335660e-001
 3.5571761453e+000	 1.0180853949e+000	 4.9327608942e-001
 3.5471155899e+000	 1.0526020101e+000	 4.6453881854e-001
 3.5366940106e+000	 1.0871041695e+000	 4.3537042705e-001
 3.5259103310e+000	 1.1215865272e+000	 4.0600769215e-001
 3.5147635744e+000	 1.1560436912e+000	 3.7670565774e-001
 3.5032528657e+000	 1.1904702259e+000	 3.4773766409e-001
 3.4913774329e+000	 1.2248606539e+000	 3.1939533668e-001
 3.4791366084e+000	 1.2592094584e+000	 2.8853337828e-001
 3.4665298312e+000	 1.2935110859e+000	 2.5033125541e-001
 3.4535566479e+000	 1.3277599482e+000	 2.1490878582e-001
 3.4402167139e+000	 1.3619504254e+000	 1.8245471560e-001
 3.5812111192e+000	 1.0249643503e+000	 4.9273269812e-001
 3.5710825871e+000	 1.0597141859e+000	 4.6352160736e-001
 3.5605905918e+000	 1.0944494679e+000	 4.3370793186e-001
 3.5497340494e+000	 1.1291648145e+000	 4.0353285068e-001
 3.5385119769e+000	 1.1638547973e+000	 3.7325632691e-001
 3.5269234932e+000	 1.1985139437e+000	 3.4315714063e-001
 3.5149678209e+000	 1.2331367394e+000	 3.1353287993e-001
 3.5026442882e+000	 1.2677176304e+000	 2.7828449861e-001
 3.4899523301e+000	 1.3022510256e+000	 2.3913146523e-001
 3.4768914901e+000	 1.3367312992e+000	 2.0273335154e-001
 3.4634614215e+000	 1.3711527931e+000	 1.6928381178e-001
 3.6052460932e+000	 1.0318433056e+000	 4.9301779821e-001
 3.5950495844e+000	 1.0668263616e+000	 4.6336657344e-001
 3.5844871729e+000	 1.1017947664e+000	 4.3293545531e-001
 3.5735577679e+000	 1.1367431019e+000	 4.0197003650e-001
 3.5622603795e+000	 1.1716659033e+000	 3.7073521985e-001
 3.5505941207e+000	 1.2065576614e+000	 3.3951525483e-001
 3.5385582090e+000	 1.2414128249e+000	 3.0861373085e-001
 3.5261519680e+000	 1.2762258024e+000	 2.6918270299e-001
 3.5133748290e+000	 1.3109909654e+000	 2.2908414120e-001
 3.5002263323e+000	 1.3457026502e+000	 1.9171298503e-001
 3.4867061290e+000	 1.3803551609e+000	 1.5726783868e-001
 3.2542590537e+000	 1.2883314835e+000	 3.3360528951e-001
 3.2412930498e+000	 1.3206132534e+000	 2.9763049761e-001
 3.2279797829e+000	 1.3528290804e+000	 2.5702151472e-001
 3.2143192443e+000	 1.3849735723e+000	 2.1204377875e-001
 3.2003115330e+000	 1.4170413162e+000	 1.6297569013e-001
 3.1859568571e+000	 1.4490268819e+000	 1.1010839307e-001
 3.1712555346e+000	 1.4809248240e+000	 5.3745528215e-002
 3.1562079939e+000	 1.5127296849e+000	-5.7970434483e-003
 3.1408147750e+000	 1.5444359972e+000	-6.8191545162e-002
 3.1250765300e+000	 1.5760382868e+000	-1.3309861751e-001
 3.1089940239e+000	 1.6075310757e+000	-1.2334445595e-001
 3.2775037612e+000	 1.2975338512e+000	 3.0990513760e-001
 3.2644451431e+000	 1.3300462052e+000	 2.7623410883e-001
 3.2510367814e+000	 1.3624921453e+000	 2.3855737453e-001
 3.2372786675e+000	 1.3948662406e+000	 1.9712736835e-001
 3.2231709011e+000	 1.4271630399e+000	 1.5220893758e-001
 3.2087136918e+000	 1.4593770739e+000	 1.0407912933e-001
 3.1939073598e+000	 1.4915028585e+000	 5.3026948521e-002
 3.1787523367e+000	 1.5235348969e+000	-6.4691216383e-004
 3.1632491662e+000	 1.5554676828e+000	-5.6630370327e-002
 3.1473985053e+000	 1.5872957031e+000	-1.1460027982e-001
 3.1312011241e+000	 1.6190134405e+000	-1.7422278435e-001
 3.3007484688e+000	 1.3067362190e+000	 2.8765926970e-001
 3.2875972363e+000	 1.3394791570e+000	 2.5577997059e-001
 3.2740937798e+000	 1.3721552102e+000	 2.2051128729e-001
 3.2602380906e+000	 1.4047589090e+000	 1.8209288008e-001
 3.2460302692e+000	 1.4372847636e+000	 1.4077628610e-001
 3.2314705265e+000	 1.4697272659e+000	 9.6824710168e-002
 3.2165591851e+000	 1.5020808929e+000	 5.0512788130e-002
 3.2012966795e+000	 1.5343401089e+000	 2.1263226200e-003
 3.1856835575e+000	 1.5664993685e+000	-4.8038008598e-002
 3.1697204805e+000	 1.5985531195e+000	-9.9672971641e-002
 3.1534082243e+000	 1.6304958054e+000	-1.5246112262e-001
 3.3239931763e+000	 1.3159385867e+000	 2.6682532460e-001
 3.3107493295e+000	 1.3489121088e+000	 2.3623576810e-001
 3.2971507783e+000	 1.3818182750e+000	 2.0286116289e-001
 3.2831975138e+000	 1.4146515774e+000	 1.6692862375e-001
 3.2688896373e+000	 1.4474064873e+000	 1.2867661735e-001
 3.2542273612e+000	 1.4800774579e+000	 8.8354757763e-002
 3.2392110103e+000	 1.5126589274e+000	 4.6223574914e-002
 3.2238410223e+000	 1.5451453210e+000	 2.5542560691e-003
 3.2081179487e+000	 1.5775310542e+000	-4.2371639606e-002
 3.1920424557e+000	 1.6098105358e+000	-8.8262493282e-002
 3.1756153244e+000	 1.6419781702e+000	-1.3481696528e-001
 3.3472378838e+000	 1.3251409544e+000	 2.4736245221e-001
 3.3339014227e+000	 1.3583450606e+000	 2.1757040919e-001
 3.3202077768e+000	 1.3914813399e+000	 1.8558583962e-001
 3.3061569370e+000	 1.4245442458e+000	 1.5162353758e-001
 3.2917490054e+000	 1.4575282109e+000	 1.1590913591e-001
 3.2769841959e+000	 1.4904276499e+000	 7.8678906168e-002
 3.2618628356e+000	 1.5232369618e+000	 4.0179532198e-002
 3.2463853651e+000	 1.5559505330e+000	 6.6785711783e-004
 3.2305523400e+000	 1.5885627399e+000	-3.9589396033e-002
 3.2143644309e+000	 1.6210679521e+000	-8.0315929946e-002
 3.1978224246e+000	 1.6534605350e+000	-1.2122620476e-001
 3.3704825914e+000	 1.3343433222e+000	 2.2923126134e-001
 3.3570535159e+000	 1.3677780124e+000	 1.9975398215e-001
 3.3432647752e+000	 1.4011444047e+000	 1.6866505213e-001
 3.3291163602e+000	 1.4344369141e+000	 1.3616716660e-001
 3.3146083735e+000	 1.4676499346e+000	 1.0247335811e-001
 3.2997410306e+000	 1.5007778420e+000	 6.7806800891e-002
 3.2845146608e+000	 1.5338149963e+000	 3.2400589256e-002
 3.2689297079e+000	 1.5667557450e+000	-3.5025099367e-003
 3.2529867312e+000	 1.5995944256e+000	-3.9650330755e-002
 3.2366864061e+000	 1.6323253685e+000	-7.5781607433e-002
 3.2200295248e+000	 1.6649428998e+000	-1.1162629917e-001
 3.3937272989e+000	 1.3435456899e+000	 2.1239376984e-001
 3.3802056091e+000	 1.3772109643e+000	 1.8275771531e-001
 3.3663217737e+000	 1.4108074696e+000	 1.5207940076e-001
 3.3520757833e+000	 1.4443295825e+000	 1.2054964181e-001
 3.3374677416e+000	 1.4777716583e+000	 8.8369101392e-002
 3.3224978653e+000	 1.5111280340e+000	 5.5748098500e-002
 3.3071664861e+000	 1.5443930308e+000	 2.2906391382e-002
 3.2914740508e+000	 1.5775609571e+000	-9.9270647280e-003
 3.2754211225e+000	 1.6106261113e+000	-4.2514385326e-002
 3.2590083813e+000	 1.6435827848e+000	-7.4609049645e-002
 3.2422366249e+000	 1.6764252647e+000	-1.0595621875e-001
 3.4169720064e+000	 1.3527480577e+000	 1.9681335660e-001
 3.4033577023e+000	 1.3866439161e+000	 1.6655393827e-001
 3.3893787721e+000	 1.4204705345e+000	 1.3581032207e-001
 3.3750352065e+000	 1.4542222509e+000	 1.0476166027e-001
 3.3603271097e+000	 1.4878933820e+000	 7.3596474024e-002
 3.3452547000e+000	 1.5214782260e+000	 4.2512466253e-002
 3.3298183113e+000	 1.5549710652e+000	 1.1716309552e-002
 3.3140183936e+000	 1.5883661691e+000	-1.8576590958e-002
 3.2978555137e+000	 1.6216577970e+000	-4.8142359750e-002
 3.2813303565e+000	 1.6548402011e+000	-7.6748937839e-002
 3.2644437251e+000	 1.6879076295e+000	-1.0415639437e-001
 3.4402167139e+000	 1.3619504254e+000	 1.8245471560e-001
 3.4265097956e+000	 1.3960768679e+000	 1.5111604468e-001
 3.4124357706e+000	 1.4301335993e+000	 1.1984006059e-001
 3.3979946297e+000	 1.4641149192e+000	 8.8794465991e-002
 3.3831864778e+000	 1.4980151057e+000	 5.8155865305e-002
 3.3680115347e+000	 1.5318284180e+000	 2.8109581731e-002
 3.3524701366e+000	 1.5655490997e+000	-1.1505503140e-003
 3.3365627364e+000	 1.5991713811e+000	-2.9422417343e-002
 3.3202899050e+000	 1.6326894827e+000	-5.6495883480e-002
 3.3036523318e+000	 1.6660976175e+000	-8.2153071527e-002
 3.2866508253e+000	 1.6993899943e+000	-1.0616866822e-001
 3.4634614215e+000	 1.3711527931e+000	 1.6928381178e-001
 3.4496618888e+000	 1.4055098197e+000	 1.3641845655e-001
 3.4354927690e+000	 1.4397966642e+000	 1.0415164174e-001
 3.4209540529e+000	 1.4740075876e+000	 7.2639831559e-002
 3.4060458459e+000	 1.5081368294e+000	 4.2047936125e-002
 3.3907683694e+000	 1.5421786100e+000	 1.2549132497e-002
 3.3751219618e+000	 1.5761271341e+000	-1.5675338451e-002
 3.3591070792e+000	 1.6099765932e+000	-4.2436399321e-002
 3.3427242962e+000	 1.6437211684e+000	-6.7537387587e-002
 3.3259743070e+000	 1.6773550338e+000	-9.0774330949e-002
 3.3088579254e+000	 1.7108723591e+000	-1.1193624645e-001
 3.4867061290e+000	 1.3803551609e+000	 1.5726783868e-001
 3.4728139820e+000	 1.4149427715e+000	 1.2243658995e-001
 3.4585497675e+000	 1.4494597290e+000	 8.8728845764e-002
 3.4439134760e+000	 1.4839002560e+000	 5.6290040528e-002
 3.4289052139e+000	 1.5182585531e+000	 2.5273609912e-002
 3.4135252041e+000	 1.5525288020e+000	-4.1591842398e-003
 3.3977737871e+000	 1.5867051686e+000	-3.1839452714e-002
 3.3816514220e+000	 1.6207818052e+000	-5.7590901496e-002
 3.3651586875e+000	 1.6547528541e+000	-8.1230078033e-002
 3.3482962822e+000	 1.6886124501e+000	-1.0256664105e-001
 3.3310650256e+000	 1.7223547240e+000	-1.2140365371e-001
 3.1089940239e+000	 1.6075310757e+000	-1.2334445595e-001
 3.0925681348e+000	 1.6389088846e+000	-1.4480050646e-001
 3.0757998544e+000	 1.6701662359e+000	-1.6725385927e-001
 3.0586902889e+000	 1.7012976567e+000	-1.9067743745e-001
 3.0412406585e+000	 1.7322976814e+000	-2.1504373312e-001
 3.0234522981e+000	 1.7631608551e+000	-2.4032481098e-001
 3.0053266573e+000	 1.7938817362e+000	-2.6649231164e-001
 2.9868653000e+000	 1.8244548993e+000	-2.9351745511e-001
 2.9680699052e+000	 1.8548749386e+000	-3.2137104424e-001
 2.9489422659e+000	 1.8851364706e+000	-3.6166534265e-001
 2.9294842893e+000	 1.9152341368e+000	-4.2671141901e-001
 3.1312011241e+000	 1.6190134405e+000	-1.7422278435e-001
 3.1146579071e+000	 1.6506153766e+000	-2.1580991122e-001
 3.0977698534e+000	 1.6820959948e+000	-2.2855233887e-001
 3.0805380767e+000	 1.7134497828e+000	-2.4206500562e-001
 3.0629638061e+000	 1.7446712363e+000	-2.5631974774e-001
 3.0450483860e+000	 1.7757548612e+000	-2.7128816104e-001
 3.0267932762e+000	 1.8066951771e+000	-2.8694160695e-001
 3.0082000522e+000	 1.8374867200e+000	-3.0325121826e-001
 2.9892704045e+000	 1.8681240453e+000	-3.2018790471e-001
 2.9700061392e+000	 1.8986017311e+000	-3.6487546249e-001
 2.9504091771e+000	 1.9289143807e+000	-4.1934376647e-001
 3.1534082243e+000	 1.6304958054e+000	-1.5246112262e-001
 3.1367476795e+000	 1.6623218687e+000	-2.3531979901e-001
 3.1197398523e+000	 1.6940257536e+000	-2.9302532397e-001
 3.1023858645e+000	 1.7256019089e+000	-2.9655616214e-001
 3.0846869536e+000	 1.7570447912e+000	-3.0063077601e-001
 3.0666444738e+000	 1.7883488673e+000	-3.0522034440e-001
 3.0482598952e+000	 1.8195086181e+000	-3.1029600026e-001
 3.0295348043e+000	 1.8505185407e+000	-3.1582883878e-001
 3.0104709038e+000	 1.8813731520e+000	-3.2893531576e-001
 2.9910700125e+000	 1.9120669916e+000	-3.7089959721e-001
 2.9713340648e+000	 1.9425946245e+000	-4.1480329683e-001
 3.1756153244e+000	 1.6419781702e+000	-1.3481696528e-001
 3.1588374519e+000	 1.6740283607e+000	-2.1052153114e-001
 3.1417098513e+000	 1.7059555124e+000	-2.8486920958e-001
 3.1242336522e+000	 1.7377540350e+000	-3.5409370610e-001
 3.1064101012e+000	 1.7694183460e+000	-3.4792044441e-001
 3.0882405617e+000	 1.8009428734e+000	-3.4206575762e-001
 3.0697265142e+000	 1.8323220591e+000	-3.3650060048e-001
 3.0508695565e+000	 1.8635503614e+000	-3.3119607969e-001
 3.0316714032e+000	 1.8946222587e+000	-3.4816686285e-001
 3.0121338859e+000	 1.9255322521e+000	-3.7971979013e-001
 2.9922589526e+000	 1.9562748683e+000	-4.1307379229e-001
 3.1978224246e+000	 1.6534605350e+000	-1.2122620476e-001
 3.1809272243e+000	 1.6857348527e+000	-1.8976422869e-001
 3.1636798503e+000	 1.7178852712e+000	-2.5678466413e-001
 3.1460814400e+000	 1.7499061612e+000	-3.2190115233e-001
 3.1281332488e+000	 1.7817919009e+000	-3.8472020848e-001
 3.1098366495e+000	 1.8135368796e+000	-3.8177028369e-001
 3.0911931332e+000	 1.8451355001e+000	-3.6550198057e-001
 3.0722043086e+000	 1.8765821821e+000	-3.5102198028e-001
 3.0528719025e+000	 1.9078713654e+000	-3.7016447810e-001
 3.0331977592e+000	 1.9389975126e+000	-3.9131949122e-001
 3.0131838404e+000	 1.9699551122e+000	-4.1414042582e-001
 3.2200295248e+000	 1.6649428998e+000	-1.1162629917e-001
 3.2030169967e+000	 1.6974413448e+000	-1.7298699265e-001
 3.1856498492e+000	 1.7298150301e+000	-2.3267330820e-001
 3.1679292278e+000	 1.7620582873e+000	-2.9029001572e-001
 3.1498563963e+000	 1.7941654558e+000	-3.4543471538e-001
 3.1314327373e+000	 1.8261308857e+000	-3.9769838985e-001
 3.1126597521e+000	 1.8579489410e+000	-3.9724812700e-001
 3.0935390607e+000	 1.8896140028e+000	-3.8602791601e-001
 3.0740724018e+000	 1.9211204721e+000	-3.9491120623e-001
 3.0542616325e+000	 1.9524627731e+000	-4.0568350856e-001
 3.0341087282e+000	 1.9836353560e+000	-4.1798971322e-001
 3.2422366249e+000	 1.6764252647e+000	-1.0595621875e-001
 3.2251067691e+000	 1.7091478368e+000	-1.6013040805e-001
 3.2076198482e+000	 1.7417447889e+000	-2.1247731583e-001
 3.1897770156e+000	 1.7742104134e+000	-2.6259276657e-001
 3.1715795439e+000	 1.8065390106e+000	-3.1006536635e-001
 3.1530288252e+000	 1.8387248918e+000	-3.5447706891e-001
 3.1341263711e+000	 1.8707623820e+000	-3.9540376546e-001
 3.1148738129e+000	 1.9026458236e+000	-4.2375359518e-001
 3.0952729011e+000	 1.9343695788e+000	-4.2239141985e-001
 3.0753255058e+000	 1.9659280336e+000	-4.2279796185e-001
 3.0550336159e+000	 1.9973155998e+000	-4.2460946712e-001
 3.2644437251e+000	 1.6879076295e+000	-1.0415639437e-001
 3.2471965415e+000	 1.7208543288e+000	-1.5113649343e-001
 3.2295898471e+000	 1.7536745477e+000	-1.9614026880e-001
 3.2116248033e+000	 1.7863625395e+000	-2.3875452400e-001
 3.1933026914e+000	 1.8189125655e+000	-2.7855879043e-001
 3.1746249130e+000	 1.8513188979e+000	-3.1512590737e-001
 3.1555929901e+000	 1.8835758230e+000	-3.5703588867e-001
 3.1362085650e+000	 1.9156776443e+000	-4.2141661101e-001
 3.1164734004e+000	 1.9476186855e+000	-4.5259077437e-001
 3.0963893791e+000	 1.9793932941e+000	-4.4265023781e-001
 3.0759585037e+000	 2.0109958437e+000	-4.3398875287e-001
 3.2866508253e+000	 1.6993899943e+000	-1.0616866822e-001
 3.2692863139e+000	 1.7325608209e+000	-1.4594865245e-001
 3.2515598461e+000	 1.7656043065e+000	-1.8360710913e-001
 3.2334725911e+000	 1.7985146656e+000	-2.1872174378e-001
 3.2150258390e+000	 1.8312861203e+000	-2.5086293110e-001
 3.1962210009e+000	 1.8639129040e+000	-2.7959430887e-001
 3.1770596091e+000	 1.8963892639e+000	-3.2697305684e-001
 3.1575433171e+000	 1.9287094650e+000	-3.8402176875e-001
 3.1376738998e+000	 1.9608677923e+000	-4.3913581273e-001
 3.1174532525e+000	 1.9928585546e+000	-4.6522894734e-001
 3.0968833915e+000	 2.0246760875e+000	-4.4611784625e-001
 3.3088579254e+000	 1.7108723591e+000	-1.1193624645e-001
 3.2913760863e+000	 1.7442673129e+000	-1.4451162740e-001
 3.2735298451e+000	 1.7775340654e+000	-1.7482409339e-001
 3.2553203789e+000	 1.8106667917e+000	-2.0244217350e-001
 3.2367489865e+000	 1.8436596752e+000	-2.2692700218e-001
 3.2178170887e+000	 1.8765069101e+000	-2.4934895227e-001
 3.1985262280e+000	 1.9092027049e+000	-3.0069485687e-001
 3.1788780693e+000	 1.9417412857e+000	-3.5041944963e-001
 3.1588743991e+000	 1.9741168990e+000	-3.9806608767e-001
 3.1385171258e+000	 2.0063238151e+000	-4.4317090323e-001
 3.1178082793e+000	 2.0383563313e+000	-4.6098819280e-001
 3.3310650256e+000	 1.7223547240e+000	-1.2140365371e-001
 3.3134658586e+000	 1.7559738049e+000	-1.4677145456e-001
 3.2954998440e+000	 1.7894638242e+000	-1.6973874889e-001
 3.2771681667e+000	 1.8228189179e+000	-1.8986480946e-001
 3.2584721341e+000	 1.8560332301e+000	-2.0670144547e-001
 3.2394131765e+000	 1.8891009162e+000	-2.3396784767e-001
 3.2199928470e+000	 1.9220161459e+000	-2.7812920932e-001
 3.2002128214e+000	 1.9547731064e+000	-3.2053858169e-001
 3.1800748984e+000	 1.9873660057e+000	-3.6073098230e-001
 3.1595809991e+000	 2.0197890756e+000	-3.9823413889e-001
 3.1387331671e+000	 2.0520365752e+000	-4.3256911431e-001
 2.9294842893e+000	 1.9152341368e+000	-4.2671141901e-001
 2.9096979964e+000	 1.9451626075e+000	-4.7116910853e-001
 2.8895855216e+000	 1.9749165840e+000	-5.1229883543e-001
 2.8691491118e+000	 2.0044908018e+000	-5.5006714518e-001
 2.8483911262e+000	 2.0338800339e+000	-5.8444255263e-001
 2.8273140354e+000	 2.0630790933e+000	-6.1539589352e-001
 2.8059204205e+000	 2.0920828363e+000	-6.4290067692e-001
 2.7842129721e+000	 2.1208861652e+000	-6.6693343766e-001
 2.7621944897e+000	 2.1494840313e+000	-6.8747408746e-001
 2.7398678801e+000	 2.1778714378e+000	-7.0450626381e-001
 2.7172361565e+000	 2.2060434424e+000	-7.1801767533e-001
 2.9504091771e+000	 1.9289143807e+000	-4.1934376647e-001
 2.9304815535e+000	 1.9590566262e+000	-4.6029685388e-001
 2.9102254181e+000	 1.9890231310e+000	-4.9896315620e-001
 2.8896430340e+000	 2.0188085932e+000	-5.3528727202e-001
 2.8687367771e+000	 2.0484077484e+000	-5.6921468556e-001
 2.8475091357e+000	 2.0778153725e+000	-6.0069214288e-001
 2.8259627092e+000	 2.1070262851e+000	-6.2966803073e-001
 2.8041002076e+000	 2.1360353521e+000	-6.5609275684e-001
 2.7819244504e+000	 2.1648374887e+000	-6.7991913051e-001
 2.7594383650e+000	 2.1934276623e+000	-7.0110274236e-001
 2.7366449862e+000	 2.2218008955e+000	-7.1960234204e-001
 2.9713340648e+000	 1.9425946245e+000	-4.1480329683e-001
 2.9512651106e+000	 1.9729506448e+000	-4.5187345666e-001
 2.9308653147e+000	 2.0031296780e+000	-4.8768377565e-001
 2.9101369562e+000	 2.0331263847e+000	-5.2215692064e-001
 2.8890824280e+000	 2.0629354629e+000	-5.5521536930e-001
 2.8677042359e+000	 2.0925516518e+000	-5.8678181115e-001
 2.8460049979e+000	 2.1219697340e+000	-6.1677955294e-001
 2.8239874432e+000	 2.1511845390e+000	-6.4513292694e-001
 2.8016544110e+000	 2.1801909460e+000	-6.7176770115e-001
 2.7790088499e+000	 2.2089838869e+000	-6.9661149001e-001
 2.7560538159e+000	 2.2375583487e+000	-7.1959416447e-001
 2.9922589526e+000	 1.9562748683e+000	-4.1307379229e-001
 2.9720486678e+000	 1.9868446634e+000	-4.4589265698e-001
 2.9515052113e+000	 2.0172362251e+000	-4.7846469175e-001
 2.9306308784e+000	 2.0474441761e+000	-5.1069064193e-001
 2.9094280789e+000	 2.0774631775e+000	-5.4246999754e-001
 2.8878993362e+000	 2.1072879310e+000	-5.7370141936e-001
 2.8660472866e+000	 2.1369131828e+000	-6.0428317094e-001
 2.8438746787e+000	 2.1663337259e+000	-6.3411355504e-001
 2.8213843716e+000	 2.1955444034e+000	-6.6309135352e-001
 2.7985793347e+000	 2.2245401114e+000	-6.9111626915e-001
 2.7754626456e+000	 2.2533158019e+000	-7.1808936824e-001
 3.0131838404e+000	 1.9699551122e+000	-4.1414042582e-001
 2.9928322249e+000	 2.0007386820e+000	-4.4234934156e-001
 2.9721451079e+000	 2.0313427721e+000	-4.7131079650e-001
 2.9511248007e+000	 2.0617619676e+000	-5.0090361987e-001
 2.9297737298e+000	 2.0919908920e+000	-5.3100432795e-001
 2.9080944364e+000	 2.1220242103e+000	-5.6148757537e-001
 2.8860895753e+000	 2.1518566316e+000	-5.9222661380e-001
 2.8637619142e+000	 2.1814829128e+000	-6.2309375683e-001
 2.8411143323e+000	 2.2108978608e+000	-6.5396084954e-001
 2.8181498196e+000	 2.2400963360e+000	-6.8469974159e-001
 2.7948714753e+000	 2.2690732550e+000	-7.1518276245e-001
 3.0341087282e+000	 1.9836353560e+000	-4.1798971322e-001
 3.0136157820e+000	 2.0146327007e+000	-4.4123950417e-001
 2.9927850045e+000	 2.0454493191e+000	-4.6622784507e-001
 2.9716187229e+000	 2.0760797590e+000	-4.9281164974e-001
 2.9501193807e+000	 2.1065186065e+000	-5.2084446970e-001
 2.9282895367e+000	 2.1367604895e+000	-5.5017697084e-001
 2.9061318640e+000	 2.1668000805e+000	-5.8065741907e-001
 2.8836491497e+000	 2.1966320997e+000	-6.1213217354e-001
 2.8608442929e+000	 2.2262513181e+000	-6.4444618626e-001
 2.8377203044e+000	 2.2556525605e+000	-6.7744350647e-001
 2.8142803050e+000	 2.2848307082e+000	-7.1096778862e-001
 3.0550336159e+000	 1.9973155998e+000	-4.2460946712e-001
 3.0343993391e+000	 2.0285267193e+000	-4.4256020771e-001
 3.0134249010e+000	 2.0595558661e+000	-4.6322242625e-001
 2.9921126451e+000	 2.0903975504e+000	-4.8643111716e-001
 2.9704650316e+000	 2.1210463210e+000	-5.1201687136e-001
 2.9484846369e+000	 2.1514967687e+000	-5.3980637844e-001
 2.9261741528e+000	 2.1817435293e+000	-5.6962293933e-001
 2.9035363852e+000	 2.2117812866e+000	-6.0128698819e-001
 2.8805742536e+000	 2.2416047755e+000	-6.3461662206e-001
 2.8572907893e+000	 2.2712087851e+000	-6.6942813669e-001
 2.8336891347e+000	 2.3005881613e+000	-7.0553656741e-001
 3.0759585037e+000	 2.0109958437e+000	-4.3398875287e-001
 3.0551828962e+000	 2.0424207379e+000	-4.4630954788e-001
 3.0340647976e+000	 2.0736624132e+000	-4.6230193409e-001
 3.0126065673e+000	 2.1047153419e+000	-4.8177897803e-001
 2.9908106825e+000	 2.1355740356e+000	-5.0454830942e-001
 2.9686797371e+000	 2.1662330480e+000	-5.3041264900e-001
 2.9462164415e+000	 2.1966869781e+000	-5.5917034849e-001
 2.9234236207e+000	 2.2269304735e+000	-5.9061594118e-001
 2.9003042142e+000	 2.2569582329e+000	-6.2454070174e-001
 2.8768612741e+000	 2.2867650096e+000	-6.6073321381e-001
 2.8530979643e+000	 2.3163456145e+000	-6.9897994363e-001
 3.0968833915e+000	 2.0246760875e+000	-4.4611784625e-001
 3.0759664533e+000	 2.0563147565e+000	-4.5248661826e-001
 3.0547046942e+000	 2.0877689602e+000	-4.6347454071e-001
 3.0331004896e+000	 2.1190331333e+000	-4.7887273925e-001
 3.0111563334e+000	 2.1501017501e+000	-4.9846587715e-001
 2.9888748374e+000	 2.1809693272e+000	-5.2203270895e-001
 2.9662587302e+000	 2.2116304270e+000	-5.4934664786e-001
 2.9433108562e+000	 2.2420796604e+000	-5.8017634523e-001
 2.9200341748e+000	 2.2723116903e+000	-6.1428628069e-001
 2.8964317590e+000	 2.3023212342e+000	-6.5143736150e-001
 2.8725067940e+000	 2.3321030677e+000	-6.9138752930e-001
 3.1178082793e+000	 2.0383563313e+000	-4.6098819280e-001
 3.0967500104e+000	 2.0702087752e+000	-4.6109147683e-001
 3.0753445908e+000	 2.1018755072e+000	-4.6674917018e-001
 3.0535944118e+000	 2.1333509248e+000	-4.7773044024e-001
 3.0315019843e+000	 2.1646294646e+000	-4.9379697399e-001
 3.0090699376e+000	 2.1957056065e+000	-5.1470355772e-001
 2.9863010189e+000	 2.2265738758e+000	-5.4019867189e-001
 2.9631980917e+000	 2.2572288473e+000	-5.7002509974e-001
 2.9397641355e+000	 2.2876651476e+000	-6.0392054794e-001
 2.9160022438e+000	 2.3178774588e+000	-6.4161827774e-001
 2.8919156237e+000	 2.3478605208e+000	-6.8284774505e-001
 3.1387331671e+000	 2.0520365752e+000	-4.3256911431e-001
 3.1175335675e+000	 2.0841027938e+000	-4.7212511383e-001
 3.0959844873e+000	 2.1159820543e+000	-4.7213547344e-001
 3.0740883340e+000	 2.1476687162e+000	-4.7837063516e-001
 3.0518476352e+000	 2.1791571792e+000	-4.9056929539e-001
 3.0292650379e+000	 2.2104418857e+000	-5.0846226535e-001
 3.0063433076e+000	 2.2415173246e+000	-5.3177309376e-001
 2.9830853273e+000	 2.2723780342e+000	-5.6021870460e-001
 2.9594940961e+000	 2.3030186050e+000	-5.9351004844e-001
 2.9355727287e+000	 2.3334336833e+000	-6.3135276566e-001
 2.9113244534e+000	 2.3636179740e+000	-6.7344785979e-001
 2.7172361565e+000	 2.2060434424e+000	-7.1801767533e-001
 2.6943024371e+000	 2.2339951605e+000	-7.3861954283e-001
 2.6710699438e+000	 2.2617217679e+000	-7.5907454567e-001
 2.6475420007e+000	 2.2892185031e+000	-7.7908737438e-001
 2.6237220324e+000	 2.3164806705e+000	-7.9836409006e-001
 2.5996135628e+000	 2.3435036429e+000	-8.1661274575e-001
 2.5752202129e+000	 2.3702828639e+000	-8.3354400364e-001
 2.5505456993e+000	 2.3968138509e+000	-8.4887174644e-001
 2.5255938321e+000	 2.4230921970e+000	-8.6231368143e-001
 2.5003685132e+000	 2.4491135740e+000	-8.7359193563e-001
 2.4748737342e+000	 2.4748737342e+000	-8.3467054710e-001
 2.7366449862e+000	 2.2218008955e+000	-7.1960234204e-001
 2.7135474545e+000	 2.2499522688e+000	-7.3896294205e-001
 2.6901490148e+000	 2.2778769234e+000	-7.5726196337e-001
 2.6664530150e+000	 2.3055700638e+000	-7.7420812821e-001
 2.6424629041e+000	 2.3330269610e+000	-7.8951244590e-001
 2.6181822311e+000	 2.3602429546e+000	-8.0288883826e-001
 2.5936146430e+000	 2.3872134558e+000	-8.1405475949e-001
 2.5687638828e+000	 2.4139339499e+000	-8.2273180891e-001
 2.5436337880e+000	 2.4403999984e+000	-8.2864633504e-001
 2.5182282883e+000	 2.4666072423e+000	-8.3153002947e-001
 2.4925514037e+000	 2.4925514037e+000	-8.1736048397e-001
 2.7560538159e+000	 2.2375583487e+000	-7.1959416447e-001
 2.7327924719e+000	 2.2659093771e+000	-7.3801432632e-001
 2.7092280859e+000	 2.2940320788e+000	-7.5446885199e-001
 2.6853640292e+000	 2.3219216245e+000	-7.6867023204e-001
 2.6612037757e+000	 2.3495732515e+000	-7.8033415451e-001
 2.6367508994e+000	 2.3769822663e+000	-7.8918013458e-001
 2.6120090731e+000	 2.4041440477e+000	-7.9493213748e-001
 2.5869820664e+000	 2.4310540488e+000	-7.9731919299e-001
 2.5616737440e+000	 2.4577077999e+000	-7.9607599993e-001
 2.5360880634e+000	 2.4841009107e+000	-7.9094351908e-001
 2.5102290732e+000	 2.5102290732e+000	-8.0127305395e-001
 2.7754626456e+000	 2.2533158019e+000	-7.1808936824e-001
 2.7520374893e+000	 2.2818664854e+000	-7.3586543627e-001
 2.7283071569e+000	 2.3101872343e+000	-7.5078219874e-001
 2.7042750435e+000	 2.3382731853e+000	-7.6255565228e-001
 2.6799446474e+000	 2.3661195420e+000	-7.7090589527e-001
 2.6553195677e+000	 2.3937215781e+000	-7.7555776220e-001
 2.6304035032e+000	 2.4210746396e+000	-7.7624144993e-001
 2.6052002500e+000	 2.4481741477e+000	-7.7269313431e-001
 2.5797136999e+000	 2.4750156013e+000	-7.6465557542e-001
 2.5539478385e+000	 2.5015945791e+000	-7.5494193232e-001
 2.5279067427e+000	 2.5279067427e+000	-7.8841862446e-001
 2.7948714753e+000	 2.2690732550e+000	-7.1518276245e-001
 2.7712825068e+000	 2.2978235937e+000	-7.3260675050e-001
 2.7473862279e+000	 2.3263423898e+000	-7.4628789026e-001
 2.7231860578e+000	 2.3546247460e+000	-7.5594542308e-001
 2.6986855190e+000	 2.3826658325e+000	-7.6130359047e-001
 2.6738882360e+000	 2.4104608898e+000	-7.6209227347e-001
 2.6487979333e+000	 2.4380052315e+000	-7.5804762265e-001
 2.6234184335e+000	 2.4652942467e+000	-7.4891267717e-001
 2.5977536559e+000	 2.4923234027e+000	-7.3443797114e-001
 2.5718076136e+000	 2.5190882475e+000	-7.5152215995e-001
 2.5455844123e+000	 2.5455844123e+000	-7.7842966017e-001
 2.8142803050e+000	 2.2848307082e+000	-7.1096778862e-001
 2.7905275242e+000	 2.3137807020e+000	-7.2832752910e-001
 2.7664652989e+000	 2.3424975453e+000	-7.4107075053e-001
 2.7420970721e+000	 2.3709763067e+000	-7.4891967849e-001
 2.7174263907e+000	 2.3992121230e+000	-7.5160243143e-001
 2.6924569043e+000	 2.4272002015e+000	-7.4885366542e-001
 2.6671923634e+000	 2.4549358234e+000	-7.4041520822e-001
 2.6416366171e+000	 2.4824143456e+000	-7.2603668110e-001
 2.6157936118e+000	 2.5096312041e+000	-7.2414195936e-001
 2.5896673887e+000	 2.5365819159e+000	-7.5049109097e-001
 2.5632620818e+000	 2.5632620818e+000	-7.7121787315e-001
 2.8336891347e+000	 2.3005881613e+000	-7.0553656741e-001
 2.8097725416e+000	 2.3297378103e+000	-7.2311585540e-001
 2.7855443700e+000	 2.3586527008e+000	-7.3521457729e-001
 2.7610080864e+000	 2.3873278675e+000	-7.4155768324e-001
 2.7361672624e+000	 2.4157584135e+000	-7.4187690350e-001
 2.7110255726e+000	 2.4439395133e+000	-7.3591139877e-001
 2.6855867935e+000	 2.4718664152e+000	-7.2340839877e-001
 2.6598548007e+000	 2.4995344445e+000	-7.0412382720e-001
 2.6338335677e+000	 2.5269390055e+000	-7.3050625694e-001
 2.6075271638e+000	 2.5540755843e+000	-7.5176696199e-001
 2.5809397513e+000	 2.5809397513e+000	-7.6669537909e-001
 2.8530979643e+000	 2.3163456145e+000	-6.9897994363e-001
 2.8290175590e+000	 2.3456949186e+000	-7.1705867593e-001
 2.8046234410e+000	 2.3748078563e+000	-7.2880217690e-001
 2.7799191007e+000	 2.4036794282e+000	-7.3393786239e-001
 2.7549081340e+000	 2.4323047040e+000	-7.3220081013e-001
 2.7295942409e+000	 2.4606788250e+000	-7.2333441619e-001
 2.7039812235e+000	 2.4887970071e+000	-7.0709103827e-001
 2.6780729842e+000	 2.5166545435e+000	-7.1547287311e-001
 2.6518735237e+000	 2.5442468069e+000	-7.3873144207e-001
 2.6253869389e+000	 2.5715692527e+000	-7.5526820638e-001
 2.5986174209e+000	 2.5986174209e+000	-7.6477468357e-001
 2.8725067940e+000	 2.3321030677e+000	-6.9138752930e-001
 2.8482625764e+000	 2.3616520268e+000	-7.1024183890e-001
 2.8237025120e+000	 2.3909630117e+000	-7.2191539789e-001
 2.7988301150e+000	 2.4200309889e+000	-7.2613782960e-001
 2.7736490057e+000	 2.4488509945e+000	-7.2264729584e-001
 2.7481629093e+000	 2.4774181367e+000	-7.1119115977e-001
 2.7223756536e+000	 2.5057275990e+000	-7.0245805624e-001
 2.6962911678e+000	 2.5337746424e+000	-7.2915541397e-001
 2.6699134796e+000	 2.5615546083e+000	-7.4874172274e-001
 2.6432467140e+000	 2.5890629210e+000	-7.6091344764e-001
 2.6162950904e+000	 2.6162950904e+000	-7.6536866886e-001
 2.8919156237e+000	 2.3478605208e+000	-6.8284774505e-001
 2.8675075938e+000	 2.3776091351e+000	-7.0275013102e-001
 2.8427815831e+000	 2.4071181672e+000	-7.1463516306e-001
 2.8177411293e+000	 2.4363825497e+000	-7.1823441443e-001
 2.7923898773e+000	 2.4653972850e+000	-7.1328886840e-001
 2.7667315776e+000	 2.4941574485e+000	-6.9954958785e-001
 2.7407700837e+000	 2.5226581909e+000	-7.2015247816e-001
 2.7145093514e+000	 2.5508947413e+000	-7.4420571229e-001
 2.6879534356e+000	 2.5788624097e+000	-7.6046131563e-001
 2.6611064891e+000	 2.6065565894e+000	-7.6862149299e-001
 2.6339727599e+000	 2.6339727599e+000	-7.6839058134e-001
 2.9113244534e+000	 2.3636179740e+000	-6.7344785979e-001
 2.8867526112e+000	 2.3935662434e+000	-6.9466731288e-001
 2.8618606541e+000	 2.4232733227e+000	-7.0704150037e-001
 2.8366521436e+000	 2.4527341104e+000	-7.1030368846e-001
 2.8111307490e+000	 2.4819435755e+000	-7.0419741998e-001
 2.7853002459e+000	 2.5108967602e+000	-7.0890829013e-001
 2.7591645138e+000	 2.5395887828e+000	-7.3881959569e-001
 2.7327275349e+000	 2.5680148403e+000	-7.6055308560e-001
 2.7059933915e+000	 2.5961702111e+000	-7.7381444585e-001
 2.6789662642e+000	 2.6240502578e+000	-7.7831132727e-001
 2.6516504295e+000	 2.6516504295e+000	-7.7375401929e-001
 2.4748737342e+000	 2.4748737342e+000	-8.3467054710e-001
 2.4491135740e+000	 2.5003685132e+000	-8.1548499950e-001
 2.4230921970e+000	 2.5255938321e+000	-8.4019728619e-001
 2.3968138509e+000	 2.5505456993e+000	-8.6189064874e-001
 2.3702828639e+000	 2.5752202129e+000	-8.8026707087e-001
 2.3435036429e+000	 2.5996135628e+000	-8.9504125151e-001
 2.3164806705e+000	 2.6237220324e+000	-9.0594111765e-001
 2.2892185031e+000	 2.6475420007e+000	-9.1270830156e-001
 2.2617217679e+000	 2.6710699438e+000	-9.1509858146e-001
 2.2339951605e+000	 2.6943024371e+000	-9.1288228453e-001
 2.2060434424e+000	 2.7172361565e+000	-9.0584465170e-001
 2.4925514037e+000	 2.4925514037e+000	-8.1736048397e-001
 2.4666072423e+000	 2.5182282883e+000	-8.2293842013e-001
 2.4403999984e+000	 2.5436337880e+000	-8.4060662142e-001
 2.4139339499e+000	 2.5687638828e+000	-8.5601977626e-001
 2.3872134558e+000	 2.5936146430e+000	-8.6888590721e-001
 2.3602429546e+000	 2.6181822311e+000	-8.7892528885e-001
 2.3330269610e+000	 2.6424629041e+000	-8.8587096049e-001
 2.3055700638e+000	 2.6664530150e+000	-8.8946920350e-001
 2.2778769234e+000	 2.6901490148e+000	-8.8947998229e-001
 2.2499522688e+000	 2.7135474545e+000	-8.8567734789e-001
 2.2218008955e+000	 2.7366449862e+000	-8.7784980348e-001
 2.5102290732e+000	 2.5102290732e+000	-8.0127305395e-001
 2.4841009107e+000	 2.5360880634e+000	-8.3177261334e-001
 2.4577077999e+000	 2.5616737440e+000	-8.4270981650e-001
 2.4310540488e+000	 2.5869820664e+000	-8.5213918392e-001
 2.4041440477e+000	 2.6120090731e+000	-8.5977453187e-001
 2.3769822663e+000	 2.6367508994e+000	-8.6534148124e-001
 2.3495732515e+000	 2.6612037757e+000	-8.6857797037e-001
 2.3219216245e+000	 2.6853640292e+000	-8.6923473279e-001
 2.2940320788e+000	 2.7092280859e+000	-8.6707573870e-001
 2.2659093771e+000	 2.7327924719e+000	-8.6187859930e-001
 2.2375583487e+000	 2.7560538159e+000	-8.5343493323e-001
 2.5279067427e+000	 2.5279067427e+000	-7.8841862446e-001
 2.5015945791e+000	 2.5539478385e+000	-8.3942259555e-001
 2.4750156013e+000	 2.5797136999e+000	-8.4661156556e-001
 2.4481741477e+000	 2.6052002500e+000	-8.5034860128e-001
 2.4210746396e+000	 2.6304035032e+000	-8.5302788712e-001
 2.3937215781e+000	 2.6553195677e+000	-8.5438016237e-001
 2.3661195420e+000	 2.6799446474e+000	-8.5414805258e-001
 2.3382731853e+000	 2.7042750435e+000	-8.5208654777e-001
 2.3101872343e+000	 2.7283071569e+000	-8.4796344474e-001
 2.2818664854e+000	 2.7520374893e+000	-8.4155975233e-001
 2.2533158019e+000	 2.7754626456e+000	-8.3267005891e-001
 2.5455844123e+000	 2.5455844123e+000	-7.7842966017e-001
 2.5190882475e+000	 2.5718076136e+000	-8.2283755936e-001
 2.4923234027e+000	 2.5977536559e+000	-8.5241733117e-001
 2.4652942467e+000	 2.6234184335e+000	-8.5074868387e-001
 2.4380052315e+000	 2.6487979333e+000	-8.4874199171e-001
 2.4104608898e+000	 2.6738882360e+000	-8.4613288600e-001
 2.3826658325e+000	 2.6986855190e+000	-8.4266846888e-001
 2.3546247460e+000	 2.7231860578e+000	-8.3810779247e-001
 2.3263423898e+000	 2.7473862279e+000	-8.3222230217e-001
 2.2978235937e+000	 2.7712825068e+000	-8.2479624301e-001
 2.2690732550e+000	 2.7948714753e+000	-8.1562702836e-001
 2.5632620818e+000	 2.5632620818e+000	-7.7121787315e-001
 2.5365819159e+000	 2.5896673887e+000	-8.0935055734e-001
 2.5096312041e+000	 2.6157936118e+000	-8.4548213162e-001
 2.4824143456e+000	 2.6416366171e+000	-8.5344098126e-001
 2.4549358234e+000	 2.6671923634e+000	-8.4701390385e-001
 2.4272002015e+000	 2.6924569043e+000	-8.4069238383e-001
 2.3992121230e+000	 2.7174263907e+000	-8.3422779065e-001
 2.3709763067e+000	 2.7420970721e+000	-8.2738304536e-001
 2.3424975453e+000	 2.7664652989e+000	-8.1993306502e-001
 2.3137807020e+000	 2.7905275242e+000	-8.1166517044e-001
 2.2848307082e+000	 2.8142803050e+000	-8.0237945626e-001
 2.5809397513e+000	 2.5809397513e+000	-7.6669537909e-001
 2.5540755843e+000	 2.6075271638e+000	-7.9886905320e-001
 2.5269390055e+000	 2.6338335677e+000	-8.2981359812e-001
 2.4995344445e+000	 2.6598548007e+000	-8.5852790647e-001
 2.4718664152e+000	 2.6855867935e+000	-8.4794168551e-001
 2.4439395133e+000	 2.7110255726e+000	-8.3815252515e-001
 2.4157584135e+000	 2.7361672624e+000	-8.2891585410e-001
 2.3873278675e+000	 2.7610080864e+000	-8.1999827022e-001
 2.3586527008e+000	 2.7855443700e+000	-8.1117798640e-001
 2.3297378103e+000	 2.8097725416e+000	-8.0224523982e-001
 2.3005881613e+000	 2.8336891347e+000	-7.9300266357e-001
 2.5986174209e+000	 2.5986174209e+000	-7.6477468357e-001
 2.5715692527e+000	 2.6253869389e+000	-7.9130105479e-001
 2.5442468069e+000	 2.6518735237e+000	-8.1736160795e-001
 2.5166545435e+000	 2.6780729842e+000	-8.4262776315e-001
 2.4887970071e+000	 2.7039812235e+000	-8.5162436834e-001
 2.4606788250e+000	 2.7295942409e+000	-8.3860827822e-001
 2.4323047040e+000	 2.7549081340e+000	-8.2682371722e-001
 2.4036794282e+000	 2.7799191007e+000	-8.1604076902e-001
 2.3748078563e+000	 2.8046234410e+000	-8.0604076755e-001
 2.3456949186e+000	 2.8290175590e+000	-7.9661670785e-001
 2.3163456145e+000	 2.8530979643e+000	-7.8757361952e-001
 2.6162950904e+000	 2.6162950904e+000	-7.6536866886e-001
 2.5890629210e+000	 2.6432467140e+000	-7.8655509566e-001
 2.5615546083e+000	 2.6699134796e+000	-8.0803059753e-001
 2.5337746424e+000	 2.6962911678e+000	-8.2946952175e-001
 2.5057275990e+000	 2.7223756536e+000	-8.5054233861e-001
 2.4774181367e+000	 2.7481629093e+000	-8.4215567306e-001
 2.4488509945e+000	 2.7736490057e+000	-8.2804361850e-001
 2.4200309889e+000	 2.7988301150e+000	-8.1559913675e-001
 2.3909630117e+000	 2.8237025120e+000	-8.0460650888e-001
 2.3616520268e+000	 2.8482625764e+000	-7.9486133027e-001
 2.3321030677e+000	 2.8725067940e+000	-7.8617088593e-001
 2.6339727599e+000	 2.6339727599e+000	-7.6839058134e-001
 2.6065565894e+000	 2.6611064891e+000	-7.8454021747e-001
 2.5788624097e+000	 2.6879534356e+000	-8.0172564964e-001
 2.5508947413e+000	 2.7145093514e+000	-8.1962386591e-001
 2.5226581909e+000	 2.7407700837e+000	-8.3790710467e-001
 2.4941574485e+000	 2.7667315776e+000	-8.4889176588e-001
 2.4653972850e+000	 2.7923898773e+000	-8.3266893732e-001
 2.4363825497e+000	 2.8177411293e+000	-8.1876321795e-001
 2.4071181672e+000	 2.8427815831e+000	-8.0696166305e-001
 2.3776091351e+000	 2.8675075938e+000	-7.9706231161e-001
 2.3478605208e+000	 2.8919156237e+000	-7.8887456375e-001
 2.6516504295e+000	 2.6516504295e+000	-7.7375401929e-001
 2.6240502578e+000	 2.6789662642e+000	-7.8516595303e-001
 2.5961702111e+000	 2.7059933915e+000	-7.9835247186e-001
 2.5680148403e+000	 2.7327275349e+000	-8.1299291911e-001
 2.5395887828e+000	 2.7591645138e+000	-8.2876101869e-001
 2.5108967602e+000	 2.7853002459e+000	-8.4532563805e-001
 2.4819435755e+000	 2.8111307490e+000	-8.4079415595e-001
 2.4527341104e+000	 2.8366521436e+000	-8.2562406516e-001
 2.4232733227e+000	 2.8618606541e+000	-8.1319398987e-001
 2.3935662434e+000	 2.8867526112e+000	-8.0330425684e-001
 2.3636179740e+000	 2.9113244534e+000	-7.9576624176e-001
 2.2060434424e+000	 2.7172361565e+000	-9.0584465170e-001
 2.1778714378e+000	 2.7398678801e+000	-8.9236775509e-001
 2.1494840313e+000	 2.7621944897e+000	-8.7856165767e-001
 2.1208861652e+000	 2.7842129721e+000	-8.6455502235e-001
 2.0920828363e+000	 2.8059204205e+000	-8.5048629122e-001
 2.0630790933e+000	 2.8273140354e+000	-8.3650356800e-001
 2.0338800339e+000	 2.8483911262e+000	-8.2276447002e-001
 2.0044908018e+000	 2.8691491118e+000	-8.0943595019e-001
 1.9749165840e+000	 2.8895855216e+000	-7.9669408952e-001
 1.9451626075e+000	 2.9096979964e+000	-7.8472386080e-001
 1.9152341368e+000	 2.9294842893e+000	-7.7371886429e-001
 2.2218008955e+000	 2.7366449862e+000	-8.7784980348e-001
 2.1934276623e+000	 2.7594383650e+000	-8.7015659240e-001
 2.1648374887e+000	 2.7819244504e+000	-8.6139195499e-001
 2.1360353521e+000	 2.8041002076e+000	-8.5165292461e-001
 2.1070262851e+000	 2.8259627092e+000	-8.4104746190e-001
 2.0778153725e+000	 2.8475091357e+000	-8.2969436572e-001
 2.0484077484e+000	 2.8687367771e+000	-8.1772315136e-001
 2.0188085932e+000	 2.8896430340e+000	-8.0527389674e-001
 1.9890231310e+000	 2.9102254181e+000	-7.9249705685e-001
 1.9590566262e+000	 2.9304815535e+000	-7.7955324726e-001
 1.9289143807e+000	 2.9504091771e+000	-7.6661299733e-001
 2.2375583487e+000	 2.7560538159e+000	-8.5343493323e-001
 2.2089838869e+000	 2.7790088499e+000	-8.5082627254e-001
 2.1801909460e+000	 2.8016544110e+000	-8.4640771236e-001
 2.1511845390e+000	 2.8239874432e+000	-8.4024491961e-001
 2.1219697340e+000	 2.8460049979e+000	-8.3241563854e-001
 2.0925516518e+000	 2.8677042359e+000	-8.2300962979e-001
 2.0629354629e+000	 2.8890824280e+000	-8.1212857479e-001
 2.0331263847e+000	 2.9101369562e+000	-7.9988594582e-001
 2.0031296780e+000	 2.9308653147e+000	-7.8640684219e-001
 1.9729506448e+000	 2.9512651106e+000	-7.7182779329e-001
 1.9425946245e+000	 2.9713340648e+000	-7.5629652918e-001
 2.2533158019e+000	 2.7754626456e+000	-8.3267005891e-001
 2.2245401114e+000	 2.7985793347e+000	-8.3446123552e-001
 2.1955444034e+000	 2.8213843716e+000	-8.3370751626e-001
 2.1663337259e+000	 2.8438746787e+000	-8.3044345800e-001
 2.1369131828e+000	 2.8660472866e+000	-8.2471684710e-001
 2.1072879310e+000	 2.8878993362e+000	-8.1658866647e-001
 2.0774631775e+000	 2.9094280789e+000	-8.0613302583e-001
 2.0474441761e+000	 2.9306308784e+000	-7.9343705541e-001
 2.0172362251e+000	 2.9515052113e+000	-7.7860076370e-001
 1.9868446634e+000	 2.9720486678e+000	-7.6173685979e-001
 1.9562748683e+000	 2.9922589526e+000	-7.4297054098e-001
 2.2690732550e+000	 2.7948714753e+000	-8.1562702836e-001
 2.2400963360e+000	 2.8181498196e+000	-8.2114735328e-001
 2.2108978608e+000	 2.8411143323e+000	-8.2339099253e-001
 2.1814829128e+000	 2.8637619142e+000	-8.2236164283e-001
 2.1518566316e+000	 2.8860895753e+000	-8.1807738488e-001
 2.1220242103e+000	 2.9080944364e+000	-8.1057067822e-001
 2.0919908920e+000	 2.9297737298e+000	-7.9988831717e-001
 2.0617619676e+000	 2.9511248007e+000	-7.8609134797e-001
 2.0313427721e+000	 2.9721451079e+000	-7.6925494784e-001
 2.0007386820e+000	 2.9928322249e+000	-7.4946826630e-001
 1.9699551122e+000	 3.0131838404e+000	-7.2683422967e-001
 2.2848307082e+000	 2.8142803050e+000	-8.0237945626e-001
 2.2556525605e+000	 2.8377203044e+000	-8.1097188026e-001
 2.2262513181e+000	 2.8608442929e+000	-8.1555877054e-001
 2.1966320997e+000	 2.8836491497e+000	-8.1611320713e-001
 2.1668000805e+000	 2.9061318640e+000	-8.1262381113e-001
 2.1367604895e+000	 2.9282895367e+000	-8.0509476724e-001
 2.1065186065e+000	 2.9501193807e+000	-7.9354580501e-001
 2.0760797590e+000	 2.9716187229e+000	-7.7801213933e-001
 2.0454493191e+000	 2.9927850045e+000	-7.5854437044e-001
 2.0146327007e+000	 3.0136157820e+000	-7.3520834419e-001
 1.9836353560e+000	 3.0341087282e+000	-7.0808497299e-001
 2.3005881613e+000	 2.8336891347e+000	-7.9300266357e-001
 2.2712087851e+000	 2.8572907893e+000	-8.0402340609e-001
 2.2416047755e+000	 2.8805742536e+000	-8.1031244877e-001
 2.2117812866e+000	 2.9035363852e+000	-8.1181249224e-001
 2.1817435293e+000	 2.9261741528e+000	-8.0848293812e-001
 2.1514967687e+000	 2.9484846369e+000	-8.0029993896e-001
 2.1210463210e+000	 2.9704650316e+000	-7.8725640470e-001
 2.0903975504e+000	 2.9921126451e+000	-7.6936196622e-001
 2.0595558661e+000	 3.0134249010e+000	-7.4664289612e-001
 2.0285267193e+000	 3.0343993391e+000	-7.1914198760e-001
 1.9973155998e+000	 3.0550336159e+000	-6.8691839174e-001
 2.3163456145e+000	 2.8530979643e+000	-7.8757361952e-001
 2.2867650096e+000	 2.8768612741e+000	-8.0039181017e-001
 2.2569582329e+000	 2.9003042142e+000	-8.0775456191e-001
 2.2269304735e+000	 2.9234236207e+000	-8.0957442720e-001
 2.1966869781e+000	 2.9462164415e+000	-8.0578182248e-001
 2.1662330480e+000	 2.9686797371e+000	-7.9632510528e-001
 2.1355740356e+000	 2.9908106825e+000	-7.8117060572e-001
 2.1047153419e+000	 3.0126065673e+000	-7.6030261285e-001
 2.0736624132e+000	 3.0340647976e+000	-7.3372331608e-001
 2.0424207379e+000	 3.0551828962e+000	-7.0145270235e-001
 2.0109958437e+000	 3.0759585037e+000	-6.6352840957e-001
 2.3321030677e+000	 2.8725067940e+000	-7.8617088593e-001
 2.3023212342e+000	 2.8964317590e+000	-8.0016821809e-001
 2.2723116903e+000	 2.9200341748e+000	-8.0798854919e-001
 2.2420796604e+000	 2.9433108562e+000	-8.0951450886e-001
 2.2116304270e+000	 2.9662587302e+000	-8.0464775699e-001
 2.1809693272e+000	 2.9888748374e+000	-7.9330908777e-001
 2.1501017501e+000	 3.0111563334e+000	-7.7543848605e-001
 2.1190331333e+000	 3.0331004896e+000	-7.5099513628e-001
 2.0877689602e+000	 3.0547046942e+000	-7.1995738436e-001
 2.0563147565e+000	 3.0759664533e+000	-6.8232265282e-001
 2.0246760875e+000	 3.0968833915e+000	-6.3810731030e-001
 2.3478605208e+000	 2.8919156237e+000	-7.8887456375e-001
 2.3178774588e+000	 2.9160022438e+000	-8.0344495981e-001
 2.2876651476e+000	 2.9397641355e+000	-8.1111872403e-001
 2.2572288473e+000	 2.9631980917e+000	-8.1174878284e-001
 2.2265738758e+000	 2.9863010189e+000	-8.0520826264e-001
 2.1957056065e+000	 3.0090699376e+000	-7.9139062067e-001
 2.1646294646e+000	 3.0315019843e+000	-7.7020972601e-001
 2.1333509248e+000	 3.0535944118e+000	-7.4159989087e-001
 2.1018755072e+000	 3.0753445908e+000	-7.0551585263e-001
 2.0702087752e+000	 3.0967500104e+000	-6.6193270700e-001
 2.0383563313e+000	 3.1178082793e+000	-6.1084579298e-001
 2.3636179740e+000	 2.9113244534e+000	-7.9576624176e-001
 2.3334336833e+000	 2.9355727287e+000	-8.1031552952e-001
 2.3030186050e+000	 2.9594940961e+000	-8.1725024492e-001
 2.2723780342e+000	 2.9830853273e+000	-8.1639382521e-001
 2.2415173246e+000	 3.0063433076e+000	-8.0759108102e-001
 2.2104418857e+000	 3.0292650379e+000	-7.9070835384e-001
 2.1791571792e+000	 3.0518476352e+000	-7.6563362150e-001
 2.1476687162e+000	 3.0740883340e+000	-7.3227655163e-001
 2.1159820543e+000	 3.0959844873e+000	-6.9056850366e-001
 2.0841027938e+000	 3.1175335675e+000	-6.4046247963e-001
 2.0520365752e+000	 3.1387331671e+000	-6.4664886522e-001
 1.9152341368e+000	 2.9294842893e+000	-7.7371886429e-001
 1.8851364706e+000	 2.9489422659e+000	-8.3302686286e-001
 1.8548749386e+000	 2.9680699052e+000	-8.3274750533e-001
 1.8244548993e+000	 2.9868653000e+000	-8.0310388924e-001
 1.7938817362e+000	 3.0053266573e+000	-7.7259151806e-001
 1.7631608551e+000	 3.0234522981e+000	-7.4132752590e-001
 1.7322976814e+000	 3.0412406585e+000	-7.0942256396e-001
 1.7012976567e+000	 3.0586902889e+000	-6.7698042753e-001
 1.6701662359e+000	 3.0757998544e+000	-6.4409770362e-001
 1.6389088846e+000	 3.0925681348e+000	-6.1086343991e-001
 1.6075310757e+000	 3.1089940239e+000	-5.7735883600e-001
 1.9289143807e+000	 2.9504091771e+000	-7.6661299733e-001
 1.8986017311e+000	 2.9700061392e+000	-8.1342563681e-001
 1.8681240453e+000	 2.9892704045e+000	-8.3733434935e-001
 1.8374867200e+000	 3.0082000522e+000	-7.9676377868e-001
 1.8066951771e+000	 3.0267932762e+000	-7.5531263998e-001
 1.7757548612e+000	 3.0450483860e+000	-7.1310302226e-001
 1.7446712363e+000	 3.0629638061e+000	-6.7025043816e-001
 1.7134497828e+000	 3.0805380767e+000	-6.2686344037e-001
 1.6820959948e+000	 3.0977698534e+000	-5.8304325915e-001
 1.6506153766e+000	 3.1146579071e+000	-5.3888346164e-001
 1.6190134405e+000	 3.1312011241e+000	-5.2741086709e-001
 1.9425946245e+000	 2.9713340648e+000	-7.5629652918e-001
 1.9120669916e+000	 2.9910700125e+000	-7.9043088890e-001
 1.8813731520e+000	 3.0104709038e+000	-8.1936368565e-001
 1.8505185407e+000	 3.0295348043e+000	-7.8362585913e-001
 1.8195086181e+000	 3.0482598952e+000	-7.3106579888e-001
 1.7883488673e+000	 3.0666444738e+000	-6.7774455471e-001
 1.7570447912e+000	 3.0846869536e+000	-6.2378270957e-001
 1.7256019089e+000	 3.1023858645e+000	-5.6929377684e-001
 1.6940257536e+000	 3.1197398523e+000	-5.1438382747e-001
 1.6623218687e+000	 3.1367476795e+000	-5.2122657687e-001
 1.6304958054e+000	 3.1534082243e+000	-5.5559540409e-001
 1.9562748683e+000	 2.9922589526e+000	-7.4297054098e-001
 1.9255322521e+000	 3.0121338859e+000	-7.6424530308e-001
 1.8946222587e+000	 3.0316714032e+000	-7.8002250238e-001
 1.8635503614e+000	 3.0508695565e+000	-7.6379070878e-001
 1.8323220591e+000	 3.0697265142e+000	-6.9995245810e-001
 1.8009428734e+000	 3.0882405617e+000	-6.3535444514e-001
 1.7694183460e+000	 3.1064101012e+000	-5.7012253276e-001
 1.7377540350e+000	 3.1242336522e+000	-5.0437539908e-001
 1.7059555124e+000	 3.1417098513e+000	-5.2601583851e-001
 1.6740283607e+000	 3.1588374519e+000	-5.5188927143e-001
 1.6419781702e+000	 3.1756153244e+000	-5.7767003365e-001
 1.9699551122e+000	 3.0131838404e+000	-7.2683422967e-001
 1.9389975126e+000	 3.0331977592e+000	-7.3506961510e-001
 1.9078713654e+000	 3.0528719025e+000	-7.3750726834e-001
 1.8765821821e+000	 3.0722043086e+000	-7.3392423039e-001
 1.8451355001e+000	 3.0911931332e+000	-6.6207194675e-001
 1.8135368796e+000	 3.1098366495e+000	-5.8603282126e-001
 1.7817919009e+000	 3.1281332488e+000	-5.2547045308e-001
 1.7499061612e+000	 3.1460814400e+000	-5.4228069894e-001
 1.7178852712e+000	 3.1636798503e+000	-5.5953393062e-001
 1.6857348527e+000	 3.1809272243e+000	-5.7685594682e-001
 1.6534605350e+000	 3.1978224246e+000	-5.9388760953e-001
 1.9836353560e+000	 3.0341087282e+000	-7.0808497299e-001
 1.9524627731e+000	 3.0542616325e+000	-7.0310267967e-001
 1.9211204721e+000	 3.0740724018e+000	-6.9201820347e-001
 1.8896140028e+000	 3.0935390607e+000	-6.7460601564e-001
 1.8579489410e+000	 3.1126597521e+000	-6.1752153333e-001
 1.8261308857e+000	 3.1314327373e+000	-5.6265905519e-001
 1.7941654558e+000	 3.1498563963e+000	-5.7052220692e-001
 1.7620582873e+000	 3.1679292278e+000	-5.7902132663e-001
 1.7298150301e+000	 3.1856498492e+000	-5.8776497319e-001
 1.6974413448e+000	 3.2030169967e+000	-5.9637743142e-001
 1.6649428998e+000	 3.2200295248e+000	-6.0449859391e-001
 1.9973155998e+000	 3.0550336159e+000	-6.8691839174e-001
 1.9659280336e+000	 3.0753255058e+000	-6.6854153494e-001
 1.9343695788e+000	 3.0952729011e+000	-6.4375365234e-001
 1.9026458236e+000	 3.1148738129e+000	-6.1232673555e-001
 1.8707623820e+000	 3.1341263711e+000	-6.1248496991e-001
 1.8387248918e+000	 3.1530288252e+000	-6.1124067004e-001
 1.8065390106e+000	 3.1715795439e+000	-6.1084180481e-001
 1.7742104134e+000	 3.1897770156e+000	-6.1087864156e-001
 1.7417447889e+000	 3.2076198482e+000	-6.1095782656e-001
 1.7091478368e+000	 3.2251067691e+000	-6.1070229453e-001
 1.6764252647e+000	 3.2422366249e+000	-6.0975113924e-001
 2.0109958437e+000	 3.0759585037e+000	-6.6352840957e-001
 1.9793932941e+000	 3.0963893791e+000	-6.3158146419e-001
 1.9476186855e+000	 3.1164734004e+000	-5.9291014790e-001
 1.9156776443e+000	 3.1362085650e+000	-6.0322739348e-001
 1.8835758230e+000	 3.1555929901e+000	-6.5055696855e-001
 1.8513188979e+000	 3.1746249130e+000	-6.5548439989e-001
 1.8189125655e+000	 3.1933026914e+000	-6.4667627760e-001
 1.7863625395e+000	 3.2116248033e+000	-6.3809958676e-001
 1.7536745477e+000	 3.2295898471e+000	-6.2935921877e-001
 1.7208543288e+000	 3.2471965415e+000	-6.2007692320e-001
 1.6879076295e+000	 3.2644437251e+000	-6.0989116688e-001
 2.0246760875e+000	 3.0968833915e+000	-6.3810731030e-001
 1.9928585546e+000	 3.1174532525e+000	-5.9241605522e-001
 1.9608677923e+000	 3.1376738998e+000	-6.0197413298e-001
 1.9287094650e+000	 3.1575433171e+000	-6.4345423929e-001
 1.8963892639e+000	 3.1770596091e+000	-6.8020892819e-001
 1.8639129040e+000	 3.1962210009e+000	-6.9563532558e-001
 1.8312861203e+000	 3.2150258390e+000	-6.7827069532e-001
 1.7985146656e+000	 3.2334725911e+000	-6.6092909423e-001
 1.7656043065e+000	 3.2515598461e+000	-6.4321381757e-001
 1.7325608209e+000	 3.2692863139e+000	-6.2474559595e-001
 1.6993899943e+000	 3.2866508253e+000	-6.0516244239e-001
 2.0383563313e+000	 3.1178082793e+000	-6.1084579298e-001
 2.0063238151e+000	 3.1385171258e+000	-6.1641666274e-001
 1.9741168990e+000	 3.1588743991e+000	-6.5184174995e-001
 1.9417412857e+000	 3.1788780693e+000	-6.8287784545e-001
 1.9092027049e+000	 3.1985262280e+000	-7.0905593773e-001
 1.8765069101e+000	 3.2178170887e+000	-7.2991296786e-001
 1.8436596752e+000	 3.2367489865e+000	-7.0586823308e-001
 1.8106667917e+000	 3.2553203789e+000	-6.7961015244e-001
 1.7775340654e+000	 3.2735298451e+000	-6.5276429961e-001
 1.7442673129e+000	 3.2913760863e+000	-6.2495055352e-001
 1.7108723591e+000	 3.3088579254e+000	-5.9580664796e-001
 2.0520365752e+000	 3.1387331671e+000	-6.4664886522e-001
 2.0197890756e+000	 3.1595809991e+000	-6.7576296374e-001
 1.9873660057e+000	 3.1800748984e+000	-7.0085862062e-001
 1.9547731064e+000	 3.2002128214e+000	-7.2144902530e-001
 1.9220161459e+000	 3.2199928470e+000	-7.3705247495e-001
 1.8891009162e+000	 3.2394131765e+000	-7.4719330433e-001
 1.8560332301e+000	 3.2584721341e+000	-7.2971023413e-001
 1.8228189179e+000	 3.2771681667e+000	-6.9438387114e-001
 1.7894638242e+000	 3.2954998440e+000	-6.5825141675e-001
 1.7559738049e+000	 3.3134658586e+000	-6.2093206685e-001
 1.7223547240e+000	 3.3310650256e+000	-5.8206345177e-001
 1.6075310757e+000	 3.1089940239e+000	-5.7735883600e-001
 1.5760382868e+000	 3.1250765300e+000	-4.9469140133e-001
 1.5444359972e+000	 3.1408147750e+000	-4.9587725371e-001
 1.5127296849e+000	 3.1562079939e+000	-4.9603939474e-001
 1.4809248240e+000	 3.1712555346e+000	-4.9481199467e-001
 1.4490268819e+000	 3.1859568571e+000	-4.9184249492e-001
 1.4170413162e+000	 3.2003115330e+000	-4.8679142807e-001
 1.3849735723e+000	 3.2143192443e+000	-4.7933221287e-001
 1.3528290804e+000	 3.2279797829e+000	-4.6915092575e-001
 1.3206132534e+000	 3.2412930498e+000	-4.5594605040e-001
 1.2883314835e+000	 3.2542590537e+000	-4.3942820711e-001
 1.6190134405e+000	 3.1312011241e+000	-5.2741086709e-001
 1.5872957031e+000	 3.1473985053e+000	-5.1998926608e-001
 1.5554676828e+000	 3.1632491662e+000	-5.1258239431e-001
 1.5235348969e+000	 3.1787523367e+000	-5.0485118959e-001
 1.4915028585e+000	 3.1939073598e+000	-4.9646926849e-001
 1.4593770739e+000	 3.2087136918e+000	-4.8712273215e-001
 1.4271630399e+000	 3.2231709011e+000	-4.7650994668e-001
 1.3948662406e+000	 3.2372786675e+000	-4.6434129999e-001
 1.3624921453e+000	 3.2510367814e+000	-4.5033893638e-001
 1.3300462052e+000	 3.2644451431e+000	-4.3423647078e-001
 1.2975338512e+000	 3.2775037612e+000	-4.1577868412e-001
 1.6304958054e+000	 3.1534082243e+000	-5.5559540409e-001
 1.5985531195e+000	 3.1697204805e+000	-5.3981073385e-001
 1.5664993685e+000	 3.1856835575e+000	-5.2468401095e-001
 1.5343401089e+000	 3.2012966795e+000	-5.0991613564e-001
 1.5020808929e+000	 3.2165591851e+000	-4.9521995794e-001
 1.4697272659e+000	 3.2314705265e+000	-4.8032004242e-001
 1.4372847636e+000	 3.2460302692e+000	-4.6495240899e-001
 1.4047589090e+000	 3.2602380906e+000	-4.4886425121e-001
 1.3721552102e+000	 3.2740937798e+000	-4.3181363388e-001
 1.3394791570e+000	 3.2875972363e+000	-4.1356917163e-001
 1.3067362190e+000	 3.3007484688e+000	-3.9390969021e-001
 1.6419781702e+000	 3.1756153244e+000	-5.7767003365e-001
 1.6098105358e+000	 3.1920424557e+000	-5.5438867796e-001
 1.5775310542e+000	 3.2081179487e+000	-5.3239267506e-001
 1.5451453210e+000	 3.2238410223e+000	-5.1142266817e-001
 1.5126589274e+000	 3.2392110103e+000	-4.9123053787e-001
 1.4800774579e+000	 3.2542273612e+000	-4.7157912585e-001
 1.4474064873e+000	 3.2688896373e+000	-4.5224193570e-001
 1.4146515774e+000	 3.2831975138e+000	-4.3300281271e-001
 1.3818182750e+000	 3.2971507783e+000	-4.1365560414e-001
 1.3489121088e+000	 3.3107493295e+000	-3.9400380203e-001
 1.3159385867e+000	 3.3239931763e+000	-3.7386017000e-001
 1.6534605350e+000	 3.1978224246e+000	-5.9388760953e-001
 1.6210679521e+000	 3.2143644309e+000	-5.6395405470e-001
 1.5885627399e+000	 3.2305523400e+000	-5.3591759438e-001
 1.5559505330e+000	 3.2463853651e+000	-5.0955840525e-001
 1.5232369618e+000	 3.2618628356e+000	-4.8466720543e-001
 1.4904276499e+000	 3.2769841959e+000	-4.6104493698e-001
 1.4575282109e+000	 3.2917490054e+000	-4.3850242665e-001
 1.4245442458e+000	 3.3061569370e+000	-4.1686002683e-001
 1.3914813399e+000	 3.3202077768e+000	-3.9594723841e-001
 1.3583450606e+000	 3.3339014227e+000	-3.7560231747e-001
 1.3251409544e+000	 3.3472378838e+000	-3.5567186746e-001
 1.6649428998e+000	 3.2200295248e+000	-6.0449859391e-001
 1.6323253685e+000	 3.2366864061e+000	-5.6873596941e-001
 1.5995944256e+000	 3.2529867312e+000	-5.3546665999e-001
 1.5667557450e+000	 3.2689297079e+000	-5.0451017597e-001
 1.5338149963e+000	 3.2845146608e+000	-4.7569588960e-001
 1.5007778420e+000	 3.2997410306e+000	-4.4886267605e-001
 1.4676499346e+000	 3.3146083735e+000	-4.2385853396e-001
 1.4344369141e+000	 3.3291163602e+000	-4.0054018740e-001
 1.4011444047e+000	 3.3432647752e+000	-3.7877267101e-001
 1.3677780124e+000	 3.3570535159e+000	-3.5842890037e-001
 1.3343433222e+000	 3.3704825914e+000	-3.3938922932e-001
 1.6764252647e+000	 3.2422366249e+000	-6.0975113924e-001
 1.6435827848e+000	 3.2590083813e+000	-5.6896173990e-001
 1.6106261113e+000	 3.2754211225e+000	-5.3124649140e-001
 1.5775609571e+000	 3.2914740508e+000	-4.9646404746e-001
 1.5443930308e+000	 3.3071664861e+000	-4.6448226041e-001
 1.5111280340e+000	 3.3224978653e+000	-4.3517778054e-001
 1.4777716583e+000	 3.3374677416e+000	-4.0843563628e-001
 1.4443295825e+000	 3.3520757833e+000	-3.8414879687e-001
 1.4108074696e+000	 3.3663217737e+000	-3.6221771965e-001
 1.3772109643e+000	 3.3802056091e+000	-3.4254988381e-001
 1.3435456899e+000	 3.3937272989e+000	-3.2505931260e-001
 1.6879076295e+000	 3.2644437251e+000	-6.0989116688e-001
 1.6548402011e+000	 3.2813303565e+000	-5.6485695725e-001
 1.6216577970e+000	 3.2978555137e+000	-5.2346247981e-001
 1.5883661691e+000	 3.3140183936e+000	-4.8560535077e-001
 1.5549710652e+000	 3.3298183113e+000	-4.5119173770e-001
 1.5214782260e+000	 3.3452547000e+000	-4.2013591713e-001
 1.4878933820e+000	 3.3603271097e+000	-3.9235981404e-001
 1.4542222509e+000	 3.3750352065e+000	-3.6779252518e-001
 1.4204705345e+000	 3.3893787721e+000	-3.4636982815e-001
 1.3866439161e+000	 3.4033577023e+000	-3.2803367835e-001
 1.3527480577e+000	 3.4169720064e+000	-3.1273169573e-001
 1.6993899943e+000	 3.2866508253e+000	-6.0516244239e-001
 1.6660976175e+000	 3.3036523318e+000	-5.5664554411e-001
 1.6326894827e+000	 3.3202899050e+000	-5.1231882958e-001
 1.5991713811e+000	 3.3365627364e+000	-4.7211870576e-001
 1.5655490997e+000	 3.3524701366e+000	-4.3598949963e-001
 1.5318284180e+000	 3.3680115347e+000	-4.0388297393e-001
 1.4980151057e+000	 3.3831864778e+000	-3.7575782579e-001
 1.4641149192e+000	 3.3979946297e+000	-3.5157917036e-001
 1.4301335993e+000	 3.4124357706e+000	-3.3131801155e-001
 1.3960768679e+000	 3.4265097956e+000	-3.1495070186e-001
 1.3619504254e+000	 3.4402167139e+000	-3.0245839344e-001
 1.7108723591e+000	 3.3088579254e+000	-5.9580664796e-001
 1.6773550338e+000	 3.3259743070e+000	-5.4454981071e-001
 1.6437211684e+000	 3.3427242962e+000	-4.9801859811e-001
 1.6099765932e+000	 3.3591070792e+000	-4.5618804497e-001
 1.5761271341e+000	 3.3751219618e+000	-4.1904049076e-001
 1.5421786100e+000	 3.3907683694e+000	-3.8656505309e-001
 1.5081368294e+000	 3.4060458459e+000	-3.5875708540e-001
 1.4740075876e+000	 3.4209540529e+000	-3.3561762063e-001
 1.4397966642e+000	 3.4354927690e+000	-3.1715280333e-001
 1.4055098197e+000	 3.4496618888e+000	-3.0337331217e-001
 1.3711527931e+000	 3.4634614215e+000	-2.9429377495e-001
 1.7223547240e+000	 3.3310650256e+000	-5.8206345177e-001
 1.6886124501e+000	 3.3482962822e+000	-5.2879050863e-001
 1.6547528541e+000	 3.3651586875e+000	-4.8076373400e-001
 1.6207818052e+000	 3.3816514220e+000	-4.3799663653e-001
 1.5867051686e+000	 3.3977737871e+000	-4.0050942981e-001
 1.5525288020e+000	 3.4135252041e+000	-3.6832846363e-001
 1.5182585531e+000	 3.4289052139e+000	-3.4148564025e-001
 1.4839002560e+000	 3.4439134760e+000	-3.2001781809e-001
 1.4494597290e+000	 3.4585497675e+000	-3.0396620484e-001
 1.4149427715e+000	 3.4728139820e+000	-2.9337574239e-001
 1.3803551609e+000	 3.4867061290e+000	-2.8829448554e-001
 1.2883314835e+000	 3.2542590537e+000	-4.3942820711e-001
 1.2559891402e+000	 3.2668779101e+000	-4.2150285151e-001
 1.2235915677e+000	 3.2791498404e+000	-3.8512041746e-001
 1.1911440823e+000	 3.2910751701e+000	-3.4649896627e-001
 1.1586519699e+000	 3.3026543284e+000	-3.0934763843e-001
 1.1261204840e+000	 3.3138878460e+000	-2.7361575946e-001
 1.0935548431e+000	 3.3247763542e+000	-2.3925966008e-001
 1.0609602284e+000	 3.3353205834e+000	-2.0624142058e-001
 1.0283417820e+000	 3.3455213614e+000	-1.7452762987e-001
 9.9570460419e-001	 3.3553796121e+000	-1.4408816293e-001
 9.6305375194e-001	 3.3648963537e+000	-1.1489498010e-001
 1.2975338512e+000	 3.2775037612e+000	-4.1577868412e-001
 1.2649604912e+000	 3.2902127523e+000	-4.0032406137e-001
 1.2323315075e+000	 3.3025723392e+000	-3.7207564564e-001
 1.1996522543e+000	 3.3145828499e+000	-3.3674104942e-001
 1.1669280554e+000	 3.3262447164e+000	-3.0257275307e-001
 1.1341642017e+000	 3.3375584734e+000	-2.6954183866e-001
 1.1013659491e+000	 3.3485247567e+000	-2.3762681135e-001
 1.0685385158e+000	 3.3591443018e+000	-2.0681228685e-001
 1.0356870804e+000	 3.3694179425e+000	-1.7708769412e-001
 1.0028167799e+000	 3.3793466093e+000	-1.4844599697e-001
 9.6993270731e-001	 3.3889313276e+000	-1.2088243824e-001
 1.3067362190e+000	 3.3007484688e+000	-3.9390969021e-001
 1.2739318422e+000	 3.3135475946e+000	-3.8088676453e-001
 1.2410714472e+000	 3.3259948381e+000	-3.5936195629e-001
 1.2081604263e+000	 3.3380905297e+000	-3.2706287625e-001
 1.1752041409e+000	 3.3498351045e+000	-2.9562670690e-001
 1.1422079195e+000	 3.3612291009e+000	-2.6504677821e-001
 1.1091770551e+000	 3.3722731592e+000	-2.3532426122e-001
 1.0761168031e+000	 3.3829680203e+000	-2.0646679776e-001
 1.0430323789e+000	 3.3933145237e+000	-1.7848714576e-001
 1.0099289557e+000	 3.4033136065e+000	-1.5140184428e-001
 9.7681166268e-001	 3.4129663016e+000	-1.2522990170e-001
 1.3159385867e+000	 3.3239931763e+000	-3.7386017000e-001
 1.2829031932e+000	 3.3368824368e+000	-3.6322538306e-001
 1.2498113870e+000	 3.3494173369e+000	-3.4721418855e-001
 1.2166685983e+000	 3.3615982095e+000	-3.1768927488e-001
 1.1834802264e+000	 3.3734254925e+000	-2.8872407049e-001
 1.1502516372e+000	 3.3848997284e+000	-2.6033465355e-001
 1.1169881611e+000	 3.3960215617e+000	-2.3254536142e-001
 1.0836950905e+000	 3.4067917387e+000	-2.0538736174e-001
 1.0503776773e+000	 3.4172111048e+000	-1.7889723953e-001
 1.0170411314e+000	 3.4272806038e+000	-1.5311560468e-001
 9.8369061805e-001	 3.4370012755e+000	-1.2808572341e-001
 1.3251409544e+000	 3.3472378838e+000	-3.5567186746e-001
 1.2918745442e+000	 3.3602172790e+000	-3.4737718002e-001
 1.2585513268e+000	 3.3728398358e+000	-3.3341550647e-001
 1.2251767703e+000	 3.3851058893e+000	-3.0884800860e-001
 1.1917563119e+000	 3.3970158806e+000	-2.8208240201e-001
 1.1582953550e+000	 3.4085703558e+000	-2.5561258357e-001
 1.1247992672e+000	 3.4197699643e+000	-2.2948656639e-001
 1.0912733778e+000	 3.4306154572e+000	-2.0375955261e-001
 1.0577229757e+000	 3.4411076860e+000	-1.7849246155e-001
 1.0241533072e+000	 3.4512476010e+000	-1.5375047867e-001
 9.9056957342e-001	 3.4610362495e+000	-1.2960162948e-001
 1.3343433222e+000	 3.3704825914e+000	-3.3938922932e-001
 1.3008458952e+000	 3.3835521212e+000	-3.3338216156e-001
 1.2672912665e+000	 3.3962623346e+000	-3.2135654276e-001
 1.2336849423e+000	 3.4086135690e+000	-3.0076967468e-001
 1.2000323974e+000	 3.4206062687e+000	-2.7592214414e-001
 1.1663390727e+000	 3.4322409833e+000	-2.5109062565e-001
 1.1326103732e+000	 3.4435183668e+000	-2.2634732630e-001
 1.0988516651e+000	 3.4544391756e+000	-2.0177200047e-001
 1.0650682742e+000	 3.4650042671e+000	-1.7745041793e-001
 1.0312654829e+000	 3.4752145982e+000	-1.5347285360e-001
 9.9744852879e-001	 3.4850712234e+000	-1.2993260285e-001
 1.3435456899e+000	 3.3937272989e+000	-3.2505931260e-001
 1.3098172462e+000	 3.4068869634e+000	-3.2128298289e-001
 1.2760312063e+000	 3.4196848335e+000	-3.1113916535e-001
 1.2421931143e+000	 3.4321212488e+000	-2.9368760729e-001
 1.2083084829e+000	 3.4441966567e+000	-2.7046652538e-001
 1.1743827904e+000	 3.4559116108e+000	-2.4698167503e-001
 1.1404214792e+000	 3.4672667693e+000	-2.2332998449e-001
 1.1064299525e+000	 3.4782628941e+000	-1.9961628697e-001
 1.0724135726e+000	 3.4889008483e+000	-1.7595172793e-001
 1.0383776586e+000	 3.4991815955e+000	-1.5245219457e-001
 1.0043274842e+000	 3.5091061974e+000	-1.2923677179e-001
 1.3527480577e+000	 3.4169720064e+000	-3.1273169573e-001
 1.3187885972e+000	 3.4302218056e+000	-3.1112485826e-001
 1.2847711461e+000	 3.4431073324e+000	-3.0280404946e-001
 1.2507012864e+000	 3.4556289286e+000	-2.8777315225e-001
 1.2165845684e+000	 3.4677870448e+000	-2.6594146519e-001
 1.1824265082e+000	 3.4795822382e+000	-2.4350136829e-001
 1.1482325852e+000	 3.4910151719e+000	-2.2063967903e-001
 1.1140082398e+000	 3.5020866125e+000	-1.9748684497e-001
 1.0797588711e+000	 3.5127974294e+000	-1.7417992141e-001
 1.0454898344e+000	 3.5231485927e+000	-1.5086093968e-001
 1.0112064395e+000	 3.5331411713e+000	-1.2767530292e-001
 1.3619504254e+000	 3.4402167139e+000	-3.0245839344e-001
 1.3277599482e+000	 3.4535566479e+000	-3.0295547447e-001
 1.2935110859e+000	 3.4665298312e+000	-2.9639438230e-001
 1.2592094584e+000	 3.4791366084e+000	-2.8279000070e-001
 1.2248606539e+000	 3.4913774329e+000	-2.6257548316e-001
 1.1904702259e+000	 3.5032528657e+000	-2.4086799071e-001
 1.1560436912e+000	 3.5147635744e+000	-2.1848424831e-001
 1.1215865272e+000	 3.5259103310e+000	-1.9558086222e-001
 1.0871041695e+000	 3.5366940106e+000	-1.7232134056e-001
 1.0526020101e+000	 3.5471155899e+000	-1.4887439965e-001
 1.0180853949e+000	 3.5571761453e+000	-1.2541229853e-001
 1.3711527931e+000	 3.4634614215e+000	-2.9429377495e-001
 1.3367312992e+000	 3.4768914901e+000	-2.9682490788e-001
 1.3022510256e+000	 3.4899523301e+000	-2.9195577875e-001
 1.2677176304e+000	 3.5026442882e+000	-2.7971242730e-001
 1.2331367394e+000	 3.5149678209e+000	-2.6059961173e-001
 1.1985139437e+000	 3.5269234932e+000	-2.3930238744e-001
 1.1638547973e+000	 3.5385119769e+000	-2.1707414045e-001
 1.1291648145e+000	 3.5497340494e+000	-1.9409818885e-001
 1.0944494679e+000	 3.5605905918e+000	-1.7056504550e-001
 1.0597141859e+000	 3.5710825871e+000	-1.4667066140e-001
 1.0249643503e+000	 3.5812111192e+000	-1.2261469809e-001
 1.3803551609e+000	 3.4867061290e+000	-2.8829448554e-001
 1.3457026502e+000	 3.5002263323e+000	-2.9278554480e-001
 1.3109909654e+000	 3.5133748290e+000	-2.8953620046e-001
 1.2762258024e+000	 3.5261519680e+000	-2.7858380731e-001
 1.2414128249e+000	 3.5385582090e+000	-2.6024731242e-001
 1.2065576614e+000	 3.5505941207e+000	-2.3902787809e-001
 1.1716659033e+000	 3.5622603795e+000	-2.1662232626e-001
 1.1367431019e+000	 3.5735577679e+000	-1.9324124869e-001
 1.1017947664e+000	 3.5844871729e+000	-1.6910272369e-001
 1.0668263616e+000	 3.5950495844e+000	-1.4443049550e-001
 1.0318433056e+000	 3.6052460932e+000	-1.1945218367e-001
 9.6305375194e-001	 3.3648963537e+000	-1.1489498010e-001
 9.3039423656e-001	 3.3740726970e+000	-8.4355948666e-002
 8.9773102186e-001	 3.3829098440e+000	-5.4567004483e-002
 8.6506902227e-001	 3.3914090857e+000	-2.5512027447e-002
 8.3241310102e-001	 3.3995718009e+000	 2.8273696342e-003
 7.9976806841e-001	 3.4073994536e+000	 3.0472900992e-002
 7.6713868010e-001	 3.4148935921e+000	 5.7450628561e-002
 7.3452963556e-001	 3.4220558462e+000	 8.3791941154e-002
 7.0194557643e-001	 3.4288879258e+000	 1.0953449012e-001
 6.6939108513e-001	 3.4353916189e+000	 1.3472307964e-001
 6.3687068343e-001	 3.4415687894e+000	 1.5941051011e-001
 9.6993270731e-001	 3.3889313276e+000	-1.2088243824e-001
 9.3703990968e-001	 3.3981732162e+000	-9.1937553706e-002
 9.0414338630e-001	 3.4070734857e+000	-6.3368451337e-002
 8.7124808671e-001	 3.4156334363e+000	-3.5186441573e-002
 8.3835890888e-001	 3.4238544566e+000	-7.4007161878e-003
 8.0548069746e-001	 3.4317380212e+000	 1.9982768398e-002
 7.7261824210e-001	 3.4392856892e+000	 4.6962367275e-002
 7.3977627581e-001	 3.4464991022e+000	 7.3541780335e-002
 7.0695947340e-001	 3.4533799824e+000	 9.9731040605e-002
 6.7417245002e-001	 3.4599301304e+000	 1.2554745571e-001
 6.4141975974e-001	 3.4661514237e+000	 1.5101650076e-001
 9.7681166268e-001	 3.4129663016e+000	-1.2522990170e-001
 9.4368558279e-001	 3.4222737355e+000	-9.7688149343e-002
 9.1055575074e-001	 3.4312371274e+000	-7.0155652470e-002
 8.7742715115e-001	 3.4398577869e+000	-4.2671573534e-002
 8.4430471674e-001	 3.4481371123e+000	-1.5273096792e-002
 8.1119332652e-001	 3.4560765887e+000	 1.2005745788e-002
 7.7809780410e-001	 3.4636777863e+000	 3.9135206801e-002
 7.4502291606e-001	 3.4709423583e+000	 6.6090911422e-002
 7.1197337037e-001	 3.4778720390e+000	 9.2854898992e-002
 6.7895381492e-001	 3.4844686420e+000	 1.1941661617e-001
 6.4596883605e-001	 3.4907340579e+000	 1.4577385992e-001
 9.8369061805e-001	 3.4370012755e+000	-1.2808572341e-001
 9.5033125591e-001	 3.4463742548e+000	-1.0174345369e-001
 9.1696811518e-001	 3.4554007692e+000	-7.5051445174e-002
 8.8360621559e-001	 3.4640821375e+000	-4.8077144074e-002
 8.5025052460e-001	 3.4724197680e+000	-2.0886150950e-002
 8.1690595558e-001	 3.4804151562e+000	 6.4590114645e-003
 7.8357736610e-001	 3.4880698834e+000	 3.3900087289e-002
 7.5026955631e-001	 3.4953856143e+000	 6.1384230864e-002
 7.1698726735e-001	 3.5023640956e+000	 8.8865102173e-002
 6.8373517981e-001	 3.5090071536e+000	 1.1630391225e-001
 6.5051791236e-001	 3.5153166921e+000	 1.4367041676e-001
 9.9056957342e-001	 3.4610362495e+000	-1.2960162948e-001
 9.5697692902e-001	 3.4704747740e+000	-1.0424265883e-001
 9.2338047962e-001	 3.4795644109e+000	-7.8182246643e-002
 8.8978528004e-001	 3.4883064882e+000	-5.1516564807e-002
 8.5619633247e-001	 3.4967024237e+000	-2.4340064222e-002
 8.2261858464e-001	 3.5047537237e+000	 3.2558161563e-003
 7.8905692810e-001	 3.5124619805e+000	 3.1183895757e-002
 7.5551619657e-001	 3.5198288704e+000	 5.9362451737e-002
 7.2200116432e-001	 3.5268561522e+000	 8.7716368842e-002
 6.8851654471e-001	 3.5335456651e+000	 1.1617823764e-001
 6.5506698867e-001	 3.5398993263e+000	 1.4468939921e-001
 9.9744852879e-001	 3.4850712234e+000	-1.2993260285e-001
 9.6362260214e-001	 3.4945752933e+000	-1.0532831104e-001
 9.2979284406e-001	 3.5037280527e+000	-7.9677930531e-002
 8.9596434448e-001	 3.5125308388e+000	-5.3106810945e-002
 8.6214214033e-001	 3.5209850795e+000	-2.5738697690e-002
 8.2833121370e-001	 3.5290922913e+000	 2.3056184514e-003
 7.9453649010e-001	 3.5368540775e+000	 3.0909605854e-002
 7.6076283682e-001	 3.5442721264e+000	 5.9962248001e-002
 7.2701506130e-001	 3.5513482089e+000	 8.9359248399e-002
 6.9329790960e-001	 3.5580841767e+000	 1.1900418221e-001
 6.5961606499e-001	 3.5644819605e+000	 1.4880959264e-001
 1.0043274842e+000	 3.5091061974e+000	-1.2923677179e-001
 9.7026827526e-001	 3.5186758126e+000	-1.0514619590e-001
 9.3620520850e-001	 3.5278916944e+000	-7.9671708574e-002
 9.0214340892e-001	 3.5367551894e+000	-5.2968299255e-002
 8.6808794820e-001	 3.5452677352e+000	-2.5189462083e-002
 8.3404384276e-001	 3.5534308588e+000	 3.5142146646e-003
 8.0001605210e-001	 3.5612461746e+000	 3.2996411878e-002
 7.6600947708e-001	 3.5687153825e+000	 6.3116392824e-002
 7.3202895827e-001	 3.5758402655e+000	 9.3740263733e-002
 6.9807927450e-001	 3.5826226883e+000	 1.2474217943e-001
 6.6416514130e-001	 3.5890645947e+000	 1.5600549196e-001
 1.0112064395e+000	 3.5331411713e+000	-1.2767530292e-001
 9.7691394838e-001	 3.5427763318e+000	-1.0384522812e-001
 9.4261757294e-001	 3.5520553362e+000	-7.8300017056e-002
 9.0832247337e-001	 3.5609795400e+000	-5.1224771005e-002
 8.7403375606e-001	 3.5695503909e+000	-2.2803197043e-002
 8.3975647182e-001	 3.5777694263e+000	 6.7838634052e-003
 8.0549561411e-001	 3.5856382717e+000	 3.7359857328e-002
 7.7125611733e-001	 3.5931586385e+000	 6.8753891261e-002
 7.3704285525e-001	 3.6003323221e+000	 1.0080204818e-001
 7.0286063939e-001	 3.6071611998e+000	 1.3334864772e-001
 6.6871421761e-001	 3.6136472289e+000	 1.6624744761e-001
 1.0180853949e+000	 3.5571761453e+000	-1.2541229853e-001
 9.8355962149e-001	 3.5668768511e+000	-1.0157734583e-001
 9.4902993738e-001	 3.5762189779e+000	-7.5702407867e-002
 9.1450153782e-001	 3.5852038906e+000	-4.8003179644e-002
 8.7997956393e-001	 3.5938330466e+000	-1.8694055280e-002
 8.4546910088e-001	 3.6021079939e+000	 1.2013405093e-002
 8.1097517611e-001	 3.6100303688e+000	 4.3911958240e-002
 7.7650275759e-001	 3.6176018945e+000	 7.6800107559e-002
 7.4205675223e-001	 3.6248243787e+000	 1.1048347692e-001
 7.0764200429e-001	 3.6316997114e+000	 1.4477612608e-001
 6.7326329392e-001	 3.6382298631e+000	 1.7950180555e-001
 1.0249643503e+000	 3.5812111192e+000	-1.2261469809e-001
 9.9020529461e-001	 3.5909773704e+000	-9.8497409138e-002
 9.5544230183e-001	 3.6003826196e+000	-7.2021443955e-002
 9.2068060226e-001	 3.6094282412e+000	-4.3433583015e-002
 8.8592537179e-001	 3.6181157023e+000	-1.2979391396e-002
 8.5118172995e-001	 3.6264465614e+000	 1.9098376665e-002
 8.1645473811e-001	 3.6344224659e+000	 5.2561321560e-002
 7.8174939785e-001	 3.6420451506e+000	 8.7176887327e-002
 7.4707064920e-001	 3.6493164353e+000	 1.2271979309e-001
 7.1242336919e-001	 3.6562382230e+000	 1.5897340431e-001
 6.7781237024e-001	 3.6628124973e+000	 1.9573104163e-001
 1.0318433056e+000	 3.6052460932e+000	-1.1945218367e-001
 9.9685096773e-001	 3.6150778896e+000	-9.4763102687e-002
 9.6185466627e-001	 3.6245462614e+000	-6.7402598957e-002
 9.2685966671e-001	 3.6336525918e+000	-3.7649039872e-002
 8.9187117966e-001	 3.6423983581e+000	-5.7796551578e-003
 8.5689435901e-001	 3.6507851289e+000	 2.7931121689e-002
 8.2193430012e-001	 3.6588145630e+000	 6.3213258777e-002
 7.8699603810e-001	 3.6664884066e+000	 9.9802674829e-002
 7.5208454618e-001	 3.6738084919e+000	 1.3744272887e-001
 7.1720473409e-001	 3.6807767345e+000	 1.7588564796e-001
 6.8236144655e-001	 3.6873951316e+000	 2.1489389060e-001
 6.3687068343e-001	 3.4415687894e+000	 1.5941051011e-001
 6.0438883109e-001	 3.4474213756e+000	 6.4357423943e-002
 5.7194992458e-001	 3.4529513874e+000	 7.7567879710e-002
 5.3955829594e-001	 3.4581609051e+000	 9.0990905962e-002
 5.0721821157e-001	 3.4630520767e+000	 1.0505107615e-001
 4.7493387121e-001	 3.4676271163e+000	 1.2018564737e-001
 4.4270940692e-001	 3.4718883019e+000	 1.3684101542e-001
 4.1054888215e-001	 3.4758379731e+000	 1.5546927811e-001
 3.7845629087e-001	 3.4794785293e+000	 1.7652491257e-001
 3.4643555681e-001	 3.4828124275e+000	 2.0046157159e-001
 3.1449053264e-001	 3.4858421801e+000	 2.2772900363e-001
 6.4141975974e-001	 3.4661514237e+000	 1.5101650076e-001
 6.0870589417e-001	 3.4720458140e+000	 2.4462544560e-002
 5.7603528119e-001	 3.4776153259e+000	 4.6107731823e-002
 5.4341228377e-001	 3.4828620544e+000	 6.6581648623e-002
 5.1084119880e-001	 3.4877881630e+000	 8.6410994273e-002
 4.7832625601e-001	 3.4923958815e+000	 1.0613480512e-001
 4.4587161697e-001	 3.4966875041e+000	 1.2630075731e-001
 4.1348137416e-001	 3.5006653872e+000	 1.4746158273e-001
 3.8115955010e-001	 3.5043319474e+000	 1.7017160399e-001
 3.4891009650e-001	 3.5076896591e+000	 1.9498339367e-001
 3.1673689358e-001	 3.5107410529e+000	 2.2244456262e-001
 6.4596883605e-001	 3.4907340579e+000	 1.4577385992e-001
 6.1302295724e-001	 3.4966702524e+000	-1.1334409967e-002
 5.8012063779e-001	 3.5022792644e+000	 1.8538215129e-002
 5.4726627160e-001	 3.5075632037e+000	 4.5848147175e-002
 5.1446418603e-001	 3.5125242492e+000	 7.1225313755e-002
 4.8171864080e-001	 3.5171646466e+000	 9.5311627213e-002
 4.4903382702e-001	 3.5214867062e+000	 1.1875713330e-001
 4.1641386618e-001	 3.5254928013e+000	 1.4221627797e-001
 3.8386280932e-001	 3.5291853654e+000	 1.6634429831e-001
 3.5138463619e-001	 3.5325668907e+000	 1.9179374313e-001
 3.1898325453e-001	 3.5356399256e+000	 2.1921112795e-001
 6.5051791236e-001	 3.5153166921e+000	 1.4367041676e-001
 6.1734002033e-001	 3.5212946908e+000	-4.2399758282e-002
 5.8420599440e-001	 3.5269432028e+000	-4.5555573718e-003
 5.5112025943e-001	 3.5322643530e+000	 2.9326685866e-002
 5.1808717325e-001	 3.5372603355e+000	 5.9981258649e-002
 4.8511102560e-001	 3.5419334117e+000	 8.8154074792e-002
 4.5219603707e-001	 3.5462859084e+000	 1.1459866736e-001
 4.1934635820e-001	 3.5503202154e+000	 1.4007230454e-001
 3.8656606854e-001	 3.5540387835e+000	 1.6533223483e-001
 3.5385917588e-001	 3.5574441224e+000	 1.9113206721e-001
 3.2122961548e-001	 3.5605387983e+000	 2.1821829132e-001
 6.5506698867e-001	 3.5398993263e+000	 1.4468939921e-001
 6.2165708341e-001	 3.5459191292e+000	-6.8103783903e-002
 5.8829135100e-001	 3.5516071413e+000	-2.2591797403e-002
 5.5497424726e-001	 3.5569655023e+000	 1.7550867853e-002
 5.2171016048e-001	 3.5619964217e+000	 5.3164018752e-002
 4.8850341040e-001	 3.5667021768e+000	 8.5098724475e-002
 4.5535824712e-001	 3.5710851106e+000	 1.1421315131e-001
 4.2227885021e-001	 3.5751476295e+000	 1.4136852573e-001
 3.8926932776e-001	 3.5788922016e+000	 1.6742523212e-001
 3.5633371558e-001	 3.5823213540e+000	 1.9323905090e-001
 3.2347597643e-001	 3.5854376710e+000	 2.1965754218e-001
 6.5961606499e-001	 3.5644819605e+000	 1.4880959264e-001
 6.2597414649e-001	 3.5705435676e+000	-7.9578285412e-002
 5.9237670761e-001	 3.5762710798e+000	-3.4991926773e-002
 5.5882823509e-001	 3.5816666517e+000	 1.1051707657e-002
 5.2533314771e-001	 3.5867325080e+000	 5.1256819750e-002
 4.9189579519e-001	 3.5914709419e+000	 8.6580816114e-002
 4.5852045717e-001	 3.5958843127e+000	 1.1798767004e-001
 4.2521134223e-001	 3.5999750436e+000	 1.4644372999e-001
 3.9197258699e-001	 3.6037456196e+000	 1.7291366805e-001
 3.5880825527e-001	 3.6071985856e+000	 1.9835657431e-001
 3.2572233738e-001	 3.6103365437e+000	 2.2372220233e-001
 6.6416514130e-001	 3.5890645947e+000	 1.5600549196e-001
 6.3029120957e-001	 3.5951680060e+000	-5.7576391269e-002
 5.9646206422e-001	 3.6009350183e+000	-4.1180467436e-002
 5.6268222292e-001	 3.6063678010e+000	 1.0357719813e-002
 5.2895613494e-001	 3.6114685943e+000	 5.4740990490e-002
 4.9528817999e-001	 3.6162397070e+000	 9.3034298567e-002
 4.6168266723e-001	 3.6206835149e+000	 1.2630862577e-001
 4.2814383425e-001	 3.6248024577e+000	 1.5563663358e-001
 3.9467584621e-001	 3.6285990377e+000	 1.8208846066e-001
 3.6128279496e-001	 3.6320758172e+000	 2.0672767169e-001
 3.2796869832e-001	 3.6352354164e+000	 2.3060736313e-001
 6.6871421761e-001	 3.6136472289e+000	 1.6624744761e-001
 6.3460827265e-001	 3.6197924444e+000	-3.1148983915e-002
 6.0054742082e-001	 3.6255989568e+000	-4.0584936045e-002
 5.6653621075e-001	 3.6310689503e+000	 1.5995003903e-002
 5.3257912217e-001	 3.6362046805e+000	 6.4096027493e-002
 4.9868056479e-001	 3.6410084722e+000	 1.0489187362e-001
 4.6484487728e-001	 3.6454827170e+000	 1.3956176122e-001
 4.3107632627e-001	 3.6496298718e+000	 1.6928588296e-001
 3.9737910543e-001	 3.6534524558e+000	 1.9524104971e-001
 3.6375733466e-001	 3.6569530489e+000	 2.1859649223e-001
 3.3021505927e-001	 3.6601342892e+000	 2.4050982533e-001
 6.7326329392e-001	 3.6382298631e+000	 1.7950180555e-001
 6.3892533573e-001	 3.6444168828e+000	-3.4035233329e-004
 6.0463277743e-001	 3.6502628952e+000	-3.2635742784e-002
 5.7039019858e-001	 3.6557700996e+000	 2.8487326142e-002
 5.3620210939e-001	 3.6609407668e+000	 7.9799656858e-002
 5.0207294958e-001	 3.6657772373e+000	 1.2258503810e-001
 4.6800708733e-001	 3.6702819192e+000	 1.5813218193e-001
 4.3400881828e-001	 3.6744572859e+000	 1.8773005718e-001
 4.0008236465e-001	 3.6783058738e+000	 2.1266337915e-001
 3.6623187435e-001	 3.6818302805e+000	 2.3420826232e-001
 3.3246142022e-001	 3.6850331619e+000	 2.5362804133e-001
 6.7781237024e-001	 3.6628124973e+000	 1.9573104163e-001
 6.4324239882e-001	 3.6690413212e+000	 3.4801879636e-002
 6.0871813404e-001	 3.6749268337e+000	-1.6766094264e-002
 5.7424418641e-001	 3.6804712489e+000	 4.8356197683e-002
 5.3982509662e-001	 3.6856768530e+000	 1.0232789368e-001
 5.0546533438e-001	 3.6905460024e+000	 1.4654412432e-001
 4.7116929738e-001	 3.6950811213e+000	 1.8240437763e-001
 4.3694131030e-001	 3.6992847000e+000	 2.1130767013e-001
 4.0278562387e-001	 3.7031592919e+000	 2.3464788013e-001
 3.6870641404e-001	 3.7067075121e+000	 2.5380924948e-001
 3.3470778117e-001	 3.7099320346e+000	 2.7016205973e-001
 6.8236144655e-001	 3.6873951316e+000	 2.1489389060e-001
 6.4755946190e-001	 3.6936657595e+000	 7.4226864458e-002
 6.1280349065e-001	 3.6995907722e+000	 7.5880996870e-003
 5.7809817425e-001	 3.7051723983e+000	 7.6120949779e-002
 5.4344808385e-001	 3.7104129393e+000	 1.3215509905e-001
 5.0885771918e-001	 3.7153147675e+000	 1.7719833893e-001
 4.7433150743e-001	 3.7198803235e+000	 2.1276224273e-001
 4.3987380232e-001	 3.7241121140e+000	 2.4035717273e-001
 4.0548888310e-001	 3.7280127100e+000	 2.6148745479e-001
 3.7118095373e-001	 3.7315847437e+000	 2.7764672760e-001
 3.3695414212e-001	 3.7348309073e+000	 2.9031347214e-001
 3.1449053264e-001	 3.4858421801e+000	 2.2772900363e-001
 2.8262499937e-001	 3.4885703533e+000	 2.0639670254e-001
 2.5084266574e-001	 3.4909995642e+000	 1.8647168931e-001
 2.1914716763e-001	 3.4931324794e+000	 1.6854892244e-001
 1.8754206761e-001	 3.4949718129e+000	 1.5320750655e-001
 1.5603085452e-001	 3.4965203235e+000	 1.4100814103e-001
 1.2461694309e-001	 3.4977808132e+000	 1.3249071364e-001
 9.3303673673e-002	 3.4987561253e+000	 1.2817204032e-001
 6.2094311944e-002	 3.4994491419e+000	 1.2854375181e-001
 3.0992048758e-002	 3.4998627820e+000	 1.3407032724e-001
 0.0000000000e+000	 3.5000000000e+000	 1.4518727458e-001
 3.1673689358e-001	 3.5107410529e+000	 2.2244456262e-001
 2.8464374937e-001	 3.5134887129e+000	 2.0466030723e-001
 2.5263439907e-001	 3.5159352753e+000	 1.8815895032e-001
 2.2071250454e-001	 3.5180834257e+000	 1.7361317294e-001
 1.8888165380e-001	 3.5199358973e+000	 1.6167830331e-001
 1.5714536062e-001	 3.5214954686e+000	 1.5298967593e-001
 1.2550706412e-001	 3.5227649619e+000	 1.4816014124e-001
 9.3970128485e-002	 3.5237472405e+000	 1.4777772670e-001
 6.2537842743e-002	 3.5244452072e+000	 1.5240345009e-001
 3.1213420535e-002	 3.5248618019e+000	 1.6256928528e-001
 0.0000000000e+000	 3.5250000000e+000	 1.7877627998e-001
 3.1898325453e-001	 3.5356399256e+000	 2.1921112795e-001
 2.8666249936e-001	 3.5384070726e+000	 2.0437569809e-001
 2.5442613239e-001	 3.5408709865e+000	 1.9069660451e-001
 2.2227784145e-001	 3.5430343720e+000	 1.7892542621e-001
 1.9022124000e-001	 3.5448999816e+000	 1.6979486993e-001
 1.5825986672e-001	 3.5464706138e+000	 1.6401603848e-001
 1.2639718514e-001	 3.5477491106e+000	 1.6227585509e-001
 9.4636583296e-002	 3.5487383557e+000	 1.6523464459e-001
 6.2981373542e-002	 3.5494412725e+000	 1.7352387244e-001
 3.1434792311e-002	 3.5498608218e+000	 1.8774404137e-001
 0.0000000000e+000	 3.5500000000e+000	 2.0846274570e-001
 3.2122961548e-001	 3.5605387983e+000	 2.1821829132e-001
 2.8868124936e-001	 3.5633254323e+000	 2.0569018330e-001
 2.5621786572e-001	 3.5658066977e+000	 1.9418975368e-001
 2.2384317836e-001	 3.5679853183e+000	 1.8454867692e-001
 1.9156082620e-001	 3.5698640660e+000	 1.7757821493e-001
 1.5937437283e-001	 3.5714457590e+000	 1.7406639330e-001
 1.2728730616e-001	 3.5727332592e+000	 1.7477533897e-001
 9.5303038108e-002	 3.5737294709e+000	 1.8043878050e-001
 6.3424904341e-002	 3.5744373378e+000	 1.9175971141e-001
 3.1656164088e-002	 3.5748598416e+000	 2.0940821694e-001
 0.0000000000e+000	 3.5750000000e+000	 2.3401946382e-001
 3.2347597643e-001	 3.5854376710e+000	 2.1965754218e-001
 2.9069999936e-001	 3.5882437919e+000	 2.0875341867e-001
 2.5800959905e-001	 3.5907424089e+000	 1.9874629563e-001
 2.2540851527e-001	 3.5929362646e+000	 1.9054916248e-001
 1.9290041239e-001	 3.5948281504e+000	 1.8505303451e-001
 1.6048887893e-001	 3.5964209041e+000	 1.8312403565e-001
 1.2817742718e-001	 3.5977174079e+000	 1.8560064827e-001
 9.5969492919e-002	 3.5987205860e+000	 1.9329113111e-001
 6.3868435141e-002	 3.5994334031e+000	 2.0697110602e-001
 3.1877535864e-002	 3.5998588615e+000	 2.2738131366e-001
 0.0000000000e+000	 3.6000000000e+000	 2.5522553772e-001
 3.2572233738e-001	 3.6103365437e+000	 2.2372220233e-001
 2.9271874935e-001	 3.6131621516e+000	 2.1371732670e-001
 2.5980133237e-001	 3.6156781200e+000	 2.0447682777e-001
 2.2697385218e-001	 3.6178872109e+000	 1.9699625120e-001
 1.9423999859e-001	 3.6197922348e+000	 1.9224758535e-001
 1.6160338503e-001	 3.6213960493e+000	 1.9117624906e-001
 1.2906754820e-001	 3.6227015566e+000	 1.9469825229e-001
 9.6635947731e-002	 3.6237117012e+000	 2.0369753060e-001
 6.4311965940e-002	 3.6244294683e+000	 2.1902345402e-001
 3.2098907641e-002	 3.6248578814e+000	 2.4148851068e-001
 0.0000000000e+000	 3.6250000000e+000	 2.7186616449e-001
 3.2796869832e-001	 3.6352354164e+000	 2.3060736313e-001
 2.9473749935e-001	 3.6380805113e+000	 2.2073601892e-001
 2.6159306570e-001	 3.6406138312e+000	 2.1149455460e-001
 2.2853918909e-001	 3.6428381571e+000	 2.0396233512e-001
 1.9557958479e-001	 3.6447563192e+000	 1.9919356275e-001
 1.6271789114e-001	 3.6463711945e+000	 1.9821416869e-001
 1.2995766922e-001	 3.6476857052e+000	 2.0201888311e-001
 9.7302402542e-002	 3.6487028164e+000	 2.1156848492e-001
 6.4755496739e-002	 3.6494255336e+000	 2.2778723172e-001
 3.2320279418e-002	 3.6498569012e+000	 2.5156047017e-001
 0.0000000000e+000	 3.6500000000e+000	 2.8373242625e-001
 3.3021505927e-001	 3.6601342892e+000	 2.4050982533e-001
 2.9675624934e-001	 3.6629988709e+000	 2.2996572144e-001
 2.6338479903e-001	 3.6655495424e+000	 2.1991519911e-001
 2.3010452601e-001	 3.6677891034e+000	 2.1152272709e-001
 1.9691917098e-001	 3.6697204035e+000	 2.0592598362e-001
 1.6383239724e-001	 3.6713463396e+000	 2.0423265035e-001
 1.3084779024e-001	 3.6726698539e+000	 2.0751739055e-001
 9.7968857353e-002	 3.6736939316e+000	 2.1681901290e-001
 6.5199027538e-002	 3.6744215989e+000	 2.3313782128e-001
 3.2541651194e-002	 3.6748559211e+000	 2.5743315087e-001
 0.0000000000e+000	 3.6750000000e+000	 2.9062108995e-001
 3.3246142022e-001	 3.6850331619e+000	 2.5362804133e-001
 2.9877499934e-001	 3.6879172306e+000	 2.4156470354e-001
 2.6517653235e-001	 3.6904852536e+000	 2.2985691767e-001
 2.3166986292e-001	 3.6927400497e+000	 2.1975556217e-001
 1.9825875718e-001	 3.6946844879e+000	 2.1248307428e-001
 1.6494690334e-001	 3.6963214848e+000	 2.0923014480e-001
 1.3173791127e-001	 3.6976540026e+000	 2.1115260314e-001
 9.8635312165e-002	 3.6986850468e+000	 2.1936849380e-001
 6.5642558337e-002	 3.6994176642e+000	 2.3495534497e-001
 3.2763022971e-002	 3.6998549410e+000	 2.5894762911e-001
 0.0000000000e+000	 3.7000000000e+000	 2.9233441531e-001
 3.3470778117e-001	 3.7099320346e+000	 2.7016205973e-001
 3.0079374934e-001	 3.7128355903e+000	 2.5569320908e-001
 2.6696826568e-001	 3.7154209647e+000	 2.4144021834e-001
 2.3323519983e-001	 3.7176909960e+000	 2.2874170286e-001
 1.9959834338e-001	 3.7196485723e+000	 2.1890616275e-001
 1.6606140945e-001	 3.7212966300e+000	 2.1320857710e-001
 1.3262803229e-001	 3.7226381512e+000	 2.1288719451e-001
 9.9301766976e-002	 3.7236761619e+000	 2.1914052100e-001
 6.6086089136e-002	 3.7244137295e+000	 2.3312450612e-001
 3.2984394747e-002	 3.7248539609e+000	 2.5594992708e-001
 0.0000000000e+000	 3.7250000000e+000	 2.8867997052e-001
 3.3695414212e-001	 3.7348309073e+000	 2.9031347214e-001
 3.0281249933e-001	 3.7377539499e+000	 2.7251339069e-001
 2.6875999901e-001	 3.7403566759e+000	 2.5478788254e-001
 2.3480053674e-001	 3.7426419423e+000	 2.3856464823e-001
 2.0093792957e-001	 3.7446126567e+000	 2.2523957537e-001
 1.6717591555e-001	 3.7462717751e+000	 2.1617323083e-001
 1.3351815331e-001	 3.7476222999e+000	 2.1268755530e-001
 9.9968221788e-002	 3.7486672771e+000	 2.1606276148e-001
 6.6529619936e-002	 3.7494097948e+000	 2.2753443640e-001
 3.3205766524e-002	 3.7498529807e+000	 2.4829084801e-001
 0.0000000000e+000	 3.7500000000e+000	 2.7947045531e-001
 3.7500000000e+000	 0.0000000000e+000	 8.3555166829e-001
 3.7498529807e+000	 3.3205766524e-002	 8.5309189178e-001
 3.7494097948e+000	 6.6529619936e-002	 8.6959279596e-001
 3.7486672771e+000	 9.9968221788e-002	 8.8426296334e-001
 3.7476222999e+000	 1.3351815331e-001	 8.9643093775e-001
 3.7462717751e+000	 1.6717591555e-001	 9.0554967478e-001
 3.7446126567e+000	 2.0093792957e-001	 9.1120085727e-001
 3.7426419423e+000	 2.3480053674e-001	 9.1309906095e-001
 3.7403566759e+000	 2.6875999901e-001	 9.1109575569e-001
 3.7377539499e+000	 3.0281249933e-001	 9.0518312727e-001
 3.7348309073e+000	 3.3695414212e-001	 8.9549770489e-001
 3.7750000000e+000	 0.0000000000e+000	 8.3286252639e-001
 3.7748520006e+000	 3.3427138301e-002	 8.4710133865e-001
 3.7744058601e+000	 6.6973150735e-002	 8.5431990012e-001
 3.7736583923e+000	 1.0063467660e-001	 8.5547814830e-001
 3.7726064486e+000	 1.3440827433e-001	 8.5148204908e-001
 3.7712469203e+000	 1.6829042165e-001	 8.4318103981e-001
 3.7695767410e+000	 2.0227751577e-001	 8.3136553077e-001
 3.7675928885e+000	 2.3636587365e-001	 8.1676447258e-001
 3.7652923871e+000	 2.7055173233e-001	 8.0004299704e-001
 3.7626723096e+000	 3.0483124933e-001	 7.8180013924e-001
 3.7597297800e+000	 3.3920050307e-001	 7.6256664841e-001
 3.8000000000e+000	 0.0000000000e+000	 8.3030765945e-001
 3.7998510205e+000	 3.3648510077e-002	 8.4454820541e-001
 3.7994019254e+000	 6.7416681534e-002	 8.5200146351e-001
 3.7986495075e+000	 1.0130113141e-001	 8.5362291562e-001
 3.7975905972e+000	 1.3529839535e-001	 8.5031248948e-001
 3.7962220655e+000	 1.6940492775e-001	 8.4291196471e-001
 3.7945408254e+000	 2.0361710197e-001	 8.3220243926e-001
 3.7925438348e+000	 2.3793121056e-001	 8.1890186414e-001
 3.7902280982e+000	 2.7234346566e-001	 8.0366265399e-001
 3.7875906693e+000	 3.0684999932e-001	 7.8706938141e-001
 3.7846286527e+000	 3.4144686401e-001	 7.6963656288e-001
 3.8250000000e+000	 0.0000000000e+000	 8.2781284950e-001
 3.8248500403e+000	 3.3869881854e-002	 8.4164959975e-001
 3.8243979907e+000	 6.7860212333e-002	 8.4896265307e-001
 3.8236406227e+000	 1.0196758622e-001	 8.5070333735e-001
 3.8225747459e+000	 1.3618851637e-001	 8.4776581248e-001
 3.8211972106e+000	 1.7051943386e-001	 8.4098443827e-001
 3.8195049098e+000	 2.0495668816e-001	 8.3113120504e-001
 3.8174947811e+000	 2.3949654747e-001	 8.1891323463e-001
 3.8151638094e+000	 2.7413519899e-001	 8.0497035985e-001
 3.8125090289e+000	 3.0886874932e-001	 7.8987279022e-001
 3.8095275254e+000	 3.4369322496e-001	 7.7411887209e-001
 3.8500000000e+000	 0.0000000000e+000	 8.2530580631e-001
 3.8498490602e+000	 3.4091253630e-002	 8.3834315469e-001
 3.8493940560e+000	 6.8303743132e-002	 8.4515117785e-001
 3.8486317379e+000	 1.0263404103e-001	 8.4667734806e-001
 3.8475588946e+000	 1.3707863739e-001	 8.4381032409e-001
 3.8461723558e+000	 1.7163393996e-001	 8.3737728010e-001
 3.8444689942e+000	 2.0629627436e-001	 8.2814129933e-001
 3.8424457274e+000	 2.4106188438e-001	 8.1679884059e-001
 3.8400995206e+000	 2.7592693231e-001	 8.0397728556e-001
 3.8374273886e+000	 3.1088749931e-001	 7.9023257517e-001
 3.8344263981e+000	 3.4593958591e-001	 7.7604694302e-001
 3.8750000000e+000	 0.0000000000e+000	 8.2271610519e-001
 3.8748480801e+000	 3.4312625407e-002	 8.3456821930e-001
 3.8743901213e+000	 6.8747273931e-002	 8.4051631651e-001
 3.8736228530e+000	 1.0330049584e-001	 8.4150430861e-001
 3.8725430432e+000	 1.3796875842e-001	 8.3841561657e-001
 3.8711475010e+000	 1.7274844606e-001	 8.3207045933e-001
 3.8694330785e+000	 2.0763586056e-001	 8.2322320964e-001
 3.8673966737e+000	 2.4262722129e-001	 8.1255982508e-001
 3.8650352318e+000	 2.7771866564e-001	 8.0069536240e-001
 3.8623457483e+000	 3.1290624931e-001	 7.8817158356e-001
 3.8593252709e+000	 3.4818594685e-001	 7.7545466171e-001
 3.9000000000e+000	 0.0000000000e+000	 8.1997512724e-001
 3.8998471000e+000	 3.4533997183e-002	 8.3026580370e-001
 3.8993861866e+000	 6.9190804730e-002	 8.3500886696e-001
 3.8986139682e+000	 1.0396695066e-001	 8.3514496045e-001
 3.8975271919e+000	 1.3885887944e-001	 8.3155252723e-001
 3.8961226461e+000	 1.7386295217e-001	 8.2504505780e-001
 3.8943971629e+000	 2.0897544675e-001	 8.1636840712e-001
 3.8923476199e+000	 2.4419255820e-001	 8.0619818920e-001
 3.8899709429e+000	 2.7951039896e-001	 7.9513725755e-001
 3.8872641079e+000	 3.1492499930e-001	 7.8371328004e-001
 3.8842241436e+000	 3.5043230780e-001	 7.7237641667e-001
 3.9250000000e+000	 0.0000000000e+000	 8.1701600179e-001
 3.9248461198e+000	 3.4755368960e-002	 8.2537852611e-001
 3.9243822519e+000	 6.9634335529e-002	 8.2858109803e-001
 3.9236050834e+000	 1.0463340547e-001	 8.2756138164e-001
 3.9225113406e+000	 1.3974900046e-001	 8.2319309874e-001
 3.9210977913e+000	 1.7497745827e-001	 8.1628323463e-001
 3.9193612473e+000	 2.1031503295e-001	 8.0756931533e-001
 3.9172985662e+000	 2.4575789511e-001	 7.9771676482e-001
 3.9149066541e+000	 2.8130213229e-001	 7.8731635069e-001
 3.9121824676e+000	 3.1694374929e-001	 7.7688172698e-001
 3.9091230163e+000	 3.5267866874e-001	 7.6684708283e-001
 3.9500000000e+000	 0.0000000000e+000	 8.1377355110e-001
 3.9498451397e+000	 3.4976740737e-002	 8.1985056203e-001
 3.9493783172e+000	 7.0077866328e-002	 8.2118670290e-001
 3.9485961986e+000	 1.0529986028e-001	 8.1871694456e-001
 3.9474954892e+000	 1.4063912148e-001	 8.1331054101e-001
 3.9460729365e+000	 1.7609196437e-001	 8.0576819209e-001
 3.9443253317e+000	 2.1165461914e-001	 7.9681928003e-001
 3.9422495125e+000	 2.4732323202e-001	 7.8711918826e-001
 3.9398423653e+000	 2.8309386561e-001	 7.7724671147e-001
 3.9371008273e+000	 3.1896249929e-001	 7.6770156554e-001
 3.9340218890e+000	 3.5492502969e-001	 7.5890200618e-001
 3.9750000000e+000	 0.0000000000e+000	 8.1018423712e-001
 3.9748441596e+000	 3.5198112513e-002	 8.1362759521e-001
 3.9743743825e+000	 7.0521397127e-002	 8.1278075428e-001
 3.9735873138e+000	 1.0596631509e-001	 8.0857627520e-001
 3.9724796379e+000	 1.4152924250e-001	 8.0187919447e-001
 3.9710480817e+000	 1.7720647047e-001	 7.9348414285e-001
 3.9692894161e+000	 2.1299420534e-001	 7.8411254018e-001
 3.9672004588e+000	 2.4888856893e-001	 7.7440987497e-001
 3.9647780764e+000	 2.8488559894e-001	 7.6494307779e-001
 3.9620191869e+000	 3.2098124928e-001	 7.5619799746e-001
 3.9589207617e+000	 3.5717139063e-001	 7.4857698895e-001
 4.0000000000e+000	 0.0000000000e+000	 8.0618611027e-001
 3.9998431794e+000	 3.5419484290e-002	 8.0665677058e-001
 3.9993704478e+000	 7.0964927926e-002	 8.0331966136e-001
 3.9985784289e+000	 1.0663276990e-001	 7.9710521401e-001
 3.9974637866e+000	 1.4241936352e-001	 7.8887449475e-001
 3.9960232268e+000	 1.7832097657e-001	 7.7941627835e-001
 3.9942535004e+000	 2.1433379153e-001	 7.6944420010e-001
 3.9921514051e+000	 2.5045390584e-001	 7.5959399524e-001
 3.9897137876e+000	 2.8667733226e-001	 7.5042083490e-001
 3.9869375466e+000	 3.2299999927e-001	 7.4239676754e-001
 3.9838196344e+000	 3.5941775158e-001	 7.3590827532e-001
 3.7348309073e+000	 3.3695414212e-001	 8.9549770489e-001
 3.7315847437e+000	 3.7118095373e-001	 8.9177970880e-001
 3.7280127100e+000	 4.0548888310e-001	 8.8407213282e-001
 3.7241121140e+000	 4.3987380232e-001	 8.7294059637e-001
 3.7198803235e+000	 4.7433150743e-001	 8.5910752128e-001
 3.7153147675e+000	 5.0885771918e-001	 8.4345458886e-001
 3.7104129393e+000	 5.4344808385e-001	 8.2702491469e-001
 3.7051723983e+000	 5.7809817425e-001	 8.1102492706e-001
 3.6995907722e+000	 6.1280349065e-001	 7.9682593556e-001
 3.6936657595e+000	 6.4755946190e-001	 7.6017843065e-001
 3.6873951316e+000	 6.8236144655e-001	 7.2643321836e-001
 3.7597297800e+000	 3.3920050307e-001	 7.6256664841e-001
 3.7564619753e+000	 3.7365549343e-001	 7.5167732274e-001
 3.7528661280e+000	 4.0819214232e-001	 7.3923052327e-001
 3.7489395281e+000	 4.4280629434e-001	 7.3200330712e-001
 3.7446795256e+000	 4.7749371748e-001	 7.3894581783e-001
 3.7400835326e+000	 5.1225010397e-001	 7.4070538801e-001
 3.7351490256e+000	 5.4707107108e-001	 7.3832957343e-001
 3.7298735476e+000	 5.8195216208e-001	 7.3303459043e-001
 3.7242547107e+000	 6.1688884725e-001	 7.2620696655e-001
 3.7182901979e+000	 6.5187652498e-001	 6.9302053379e-001
 3.7119777658e+000	 6.8691052287e-001	 6.6797680530e-001
 3.7846286527e+000	 3.4144686401e-001	 7.6963656288e-001
 3.7813392070e+000	 3.7613003312e-001	 7.6012073796e-001
 3.7777195461e+000	 4.1089540154e-001	 7.4868812095e-001
 3.7737669422e+000	 4.4573878635e-001	 7.3560018260e-001
 3.7694787278e+000	 4.8065592754e-001	 7.2104143754e-001
 3.7648522977e+000	 5.1564248877e-001	 7.0511785108e-001
 3.7598851118e+000	 5.5069405831e-001	 6.8785538398e-001
 3.7545746969e+000	 5.8580614991e-001	 6.6919868261e-001
 3.7489186492e+000	 6.2097420386e-001	 6.5254754073e-001
 3.7429146363e+000	 6.5619358806e-001	 6.2385726565e-001
 3.7365604000e+000	 6.9145959918e-001	 6.0751879349e-001
 3.8095275254e+000	 3.4369322496e-001	 7.7411887209e-001
 3.8062164386e+000	 3.7860457281e-001	 7.6590776299e-001
 3.8025729642e+000	 4.1359866076e-001	 7.5545889040e-001
 3.7985943563e+000	 4.4867127837e-001	 7.4300854036e-001
 3.7942779299e+000	 4.8381813759e-001	 7.2871450550e-001
 3.7896210628e+000	 5.1903487357e-001	 7.1265449260e-001
 3.7846211981e+000	 5.5431704553e-001	 6.9482467168e-001
 3.7792758462e+000	 5.8966013774e-001	 6.7513837416e-001
 3.7735825876e+000	 6.2505956047e-001	 6.5337022805e-001
 3.7675390747e+000	 6.6051065114e-001	 6.0650269675e-001
 3.7611430342e+000	 6.9600867549e-001	 5.7678732256e-001
 3.8344263981e+000	 3.4593958591e-001	 7.7604694302e-001
 3.8310936702e+000	 3.8107911250e-001	 7.6908262958e-001
 3.8274263822e+000	 4.1630191998e-001	 7.5959791454e-001
 3.8234217704e+000	 4.5160377038e-001	 7.4780389044e-001
 3.8190771321e+000	 4.8698034763e-001	 7.3383157639e-001
 3.8143898280e+000	 5.2242725836e-001	 7.1773032583e-001
 3.8093572843e+000	 5.5794003276e-001	 6.9946637940e-001
 3.8039769955e+000	 5.9351412557e-001	 6.7892157031e-001
 3.7982465261e+000	 6.2914491707e-001	 6.5270752761e-001
 3.7921635131e+000	 6.6482771422e-001	 6.0991046260e-001
 3.7857256684e+000	 7.0055775180e-001	 5.8309761125e-001
 3.8593252709e+000	 3.4818594685e-001	 7.7545466171e-001
 3.8559709018e+000	 3.8355365219e-001	 7.6968998415e-001
 3.8522798003e+000	 4.1900517920e-001	 7.6116059369e-001
 3.8482491845e+000	 4.5453626240e-001	 7.5005237360e-001
 3.8438763342e+000	 4.9014255768e-001	 7.3646951085e-001
 3.8391585931e+000	 5.2581964315e-001	 7.2043290340e-001
 3.8340933706e+000	 5.6156301998e-001	 7.0187871610e-001
 3.8286781449e+000	 5.9736811339e-001	 6.8065709297e-001
 3.8229104646e+000	 6.3323027367e-001	 6.5136842726e-001
 3.8167879515e+000	 6.6914477730e-001	 6.1252720135e-001
 3.8103083026e+000	 7.0510682811e-001	 5.8851773356e-001
 3.8842241436e+000	 3.5043230780e-001	 7.7237641667e-001
 3.8808481335e+000	 3.8602819188e-001	 7.6777487451e-001
 3.8771332183e+000	 4.2170843842e-001	 7.6020263534e-001
 3.8730765986e+000	 4.5746875441e-001	 7.4982035055e-001
 3.8686755364e+000	 4.9330476773e-001	 7.3670530928e-001
 3.8639273582e+000	 5.2921202794e-001	 7.2084984455e-001
 3.8588294569e+000	 5.6518600721e-001	 7.0215989159e-001
 3.8533792942e+000	 6.0122210122e-001	 6.8045370641e-001
 3.8475744031e+000	 6.3731563028e-001	 6.4935790018e-001
 3.8414123899e+000	 6.7346184038e-001	 6.1435964473e-001
 3.8348909368e+000	 7.0965590442e-001	 5.9305589663e-001
 3.9091230163e+000	 3.5267866874e-001	 7.6684708283e-001
 3.9057253651e+000	 3.8850273157e-001	 7.6338273709e-001
 3.9019866364e+000	 4.2441169764e-001	 7.5678004436e-001
 3.8979040127e+000	 4.6040124642e-001	 7.4717439488e-001
 3.8934747386e+000	 4.9646697778e-001	 7.3461610731e-001
 3.8886961233e+000	 5.3260441274e-001	 7.1906883304e-001
 3.8835655431e+000	 5.6880899443e-001	 7.0040811644e-001
 3.8780804435e+000	 6.0507608904e-001	 6.7842011905e-001
 3.8722383416e+000	 6.4140098688e-001	 6.4668081433e-001
 3.8660368283e+000	 6.7777890346e-001	 6.1541437703e-001
 3.8594735710e+000	 7.1420498073e-001	 5.9672012542e-001
 3.9340218890e+000	 3.5492502969e-001	 7.5890200618e-001
 3.9306025967e+000	 3.9097727126e-001	 7.5655938463e-001
 3.9268400545e+000	 4.2711495685e-001	 7.5094911366e-001
 3.9227314268e+000	 4.6333373843e-001	 7.4218128640e-001
 3.9182739407e+000	 4.9962918782e-001	 7.3027917155e-001
 3.9134648884e+000	 5.3599679753e-001	 7.1517761512e-001
 3.9083016294e+000	 5.7243198165e-001	 6.9672160200e-001
 3.9027815928e+000	 6.0893007687e-001	 6.7466498525e-001
 3.8969022800e+000	 6.4548634348e-001	 6.4334193570e-001
 3.8906612667e+000	 6.8209596653e-001	 6.1569783984e-001
 3.8840562052e+000	 7.1875405704e-001	 5.9951826847e-001
 3.9589207617e+000	 3.5717139063e-001	 7.4857698895e-001
 3.9554798283e+000	 3.9345181095e-001	 7.4735099436e-001
 3.9516934725e+000	 4.2981821607e-001	 7.4276641505e-001
 3.9475588409e+000	 4.6626623045e-001	 7.3490800461e-001
 3.9430731429e+000	 5.0279139787e-001	 7.2377189547e-001
 3.9382336535e+000	 5.3938918232e-001	 7.0926399755e-001
 3.9330377156e+000	 5.7605496887e-001	 6.9119856036e-001
 3.9274827422e+000	 6.1278406469e-001	 6.6929690699e-001
 3.9215662185e+000	 6.4957170008e-001	 6.3934593158e-001
 3.9152857051e+000	 6.8641302961e-001	 6.1521633645e-001
 3.9086388394e+000	 7.2330313334e-001	 6.0145800341e-001
 3.9838196344e+000	 3.5941775158e-001	 7.3590827532e-001
 3.9803570600e+000	 3.9592635063e-001	 7.3580409660e-001
 3.9765468906e+000	 4.3252147529e-001	 7.3228879059e-001
 3.9723862550e+000	 4.6919872246e-001	 7.2542172245e-001
 3.9678723450e+000	 5.0595360791e-001	 7.1517179546e-001
 3.9630024187e+000	 5.4278156711e-001	 7.0141584570e-001
 3.9577738019e+000	 5.7967795609e-001	 6.8393720433e-001
 3.9521838915e+000	 6.1663805252e-001	 6.6242443555e-001
 3.9462301570e+000	 6.5365705668e-001	 6.3469737362e-001
 3.9399101435e+000	 6.9073009268e-001	 6.1397603625e-001
 3.9332214737e+000	 7.2785220965e-001	 6.0254684237e-001
 3.6873951316e+000	 6.8236144655e-001	 7.2643321836e-001
 3.6807767345e+000	 7.1720473409e-001	 7.1784895809e-001
 3.6738084919e+000	 7.5208454618e-001	 7.0588926430e-001
 3.6664884066e+000	 7.8699603810e-001	 6.9055945760e-001
 3.6588145630e+000	 8.2193430012e-001	 6.7188189093e-001
 3.6507851289e+000	 8.5689435901e-001	 6.4989639486e-001
 3.6423983581e+000	 8.9187117966e-001	 6.2466069626e-001
 3.6336525918e+000	 9.2685966671e-001	 5.9625080887e-001
 3.6245462614e+000	 9.6185466627e-001	 5.6476139366e-001
 3.6150778896e+000	 9.9685096773e-001	 5.3030608752e-001
 3.6052460932e+000	 1.0318433056e+000	 4.9301779821e-001
 3.7119777658e+000	 6.8691052287e-001	 6.6797680530e-001
 3.7053152461e+000	 7.2198609898e-001	 6.6479428125e-001
 3.6983005485e+000	 7.5709844316e-001	 6.5791984865e-001
 3.6909316627e+000	 7.9224267836e-001	 6.4736039058e-001
 3.6832066601e+000	 8.2741386212e-001	 6.3314041669e-001
 3.6751236964e+000	 8.6260698807e-001	 6.1530252006e-001
 3.6666810138e+000	 8.9781698753e-001	 5.9390780698e-001
 3.6578769425e+000	 9.3303873116e-001	 5.6903629746e-001
 3.6487099031e+000	 9.6826703071e-001	 5.4078729493e-001
 3.6391784089e+000	 1.0034966409e+000	 5.0927972310e-001
 3.6292810672e+000	 1.0387222610e+000	 4.7465242828e-001
 3.7365604000e+000	 6.9145959918e-001	 6.0751879349e-001
 3.7298537576e+000	 7.2676746388e-001	 6.0992428996e-001
 3.7227926051e+000	 7.6211234014e-001	 6.0831745877e-001
 3.7153749187e+000	 7.9748931862e-001	 6.0270665055e-001
 3.7075987571e+000	 8.3289342413e-001	 5.9311844253e-001
 3.6994622640e+000	 8.6831961714e-001	 5.7959810741e-001
 3.6909636695e+000	 9.0376279540e-001	 5.6221005423e-001
 3.6821012931e+000	 9.3921779561e-001	 5.4103823925e-001
 3.6728735449e+000	 9.7467939516e-001	 5.1618654504e-001
 3.6632789282e+000	 1.0101423140e+000	 4.8777912579e-001
 3.6533160411e+000	 1.0456012164e+000	 4.5596071715e-001
 3.7611430342e+000	 6.9600867549e-001	 5.7678732256e-001
 3.7543922692e+000	 7.3154882878e-001	 5.6482391410e-001
 3.7472846618e+000	 7.6712623712e-001	 5.5711259437e-001
 3.7398181748e+000	 8.0273595887e-001	 5.5662709289e-001
 3.7319908542e+000	 8.3837298613e-001	 5.5184308838e-001
 3.7238008315e+000	 8.7403224620e-001	 5.4280845032e-001
 3.7152463252e+000	 9.0970860326e-001	 5.2959081413e-001
 3.7063256437e+000	 9.4539686005e-001	 5.1227800258e-001
 3.6970371866e+000	 9.8109175960e-001	 4.9097841446e-001
 3.6873794474e+000	 1.0167879871e+000	 4.6582137861e-001
 3.6773510151e+000	 1.0524801718e+000	 4.3695747142e-001
 3.7857256684e+000	 7.0055775180e-001	 5.8309761125e-001
 3.7789307808e+000	 7.3633019367e-001	 5.7150847861e-001
 3.7717767184e+000	 7.7214013409e-001	 5.5749847819e-001
 3.7642614308e+000	 8.0798259913e-001	 5.4112189786e-001
 3.7563829513e+000	 8.4385254813e-001	 5.2243223769e-001
 3.7481393990e+000	 8.7974487526e-001	 5.0495893671e-001
 3.7395289810e+000	 9.1565441113e-001	 4.9607361879e-001
 3.7305499943e+000	 9.5157592450e-001	 4.8277717399e-001
 3.7212008284e+000	 9.8750412404e-001	 4.6518245485e-001
 3.7114799667e+000	 1.0234336602e+000	 4.4342390948e-001
 3.7013859890e+000	 1.0593591271e+000	 4.1765790693e-001
 3.8103083026e+000	 7.0510682811e-001	 5.8851773356e-001
 3.8034692923e+000	 7.4111155856e-001	 5.7738147627e-001
 3.7962687750e+000	 7.7715403107e-001	 5.6373645262e-001
 3.7887046868e+000	 8.1322923938e-001	 5.4764125210e-001
 3.7807750484e+000	 8.4933211013e-001	 5.2915378469e-001
 3.7724779665e+000	 8.8545750432e-001	 5.0833120511e-001
 3.7638116367e+000	 9.2160021899e-001	 4.8522983876e-001
 3.7547743449e+000	 9.5775498894e-001	 4.5990510967e-001
 3.7453644701e+000	 9.9391648849e-001	 4.3881848997e-001
 3.7355804860e+000	 1.0300793333e+000	 4.2060448000e-001
 3.7254209630e+000	 1.0662380825e+000	 3.9807763552e-001
 3.8348909368e+000	 7.0965590442e-001	 5.9305589663e-001
 3.8280078039e+000	 7.4589292346e-001	 5.8244918642e-001
 3.8207608316e+000	 7.8216792804e-001	 5.6924782629e-001
 3.8131479429e+000	 8.1847587964e-001	 5.5351468111e-001
 3.8051671455e+000	 8.5481167213e-001	 5.3531204265e-001
 3.7968165341e+000	 8.9117013338e-001	 5.1470155154e-001
 3.7880942924e+000	 9.2754602686e-001	 4.9174412101e-001
 3.7789986955e+000	 9.6393405339e-001	 4.6649986243e-001
 3.7695281119e+000	 1.0003288529e+000	 4.3902801275e-001
 3.7596810052e+000	 1.0367250065e+000	 4.0938686430e-001
 3.7494559369e+000	 1.0731170379e+000	 3.7823265238e-001
 3.8594735710e+000	 7.1420498073e-001	 5.9672012542e-001
 3.8525463155e+000	 7.5067428835e-001	 5.8671775831e-001
 3.8452528882e+000	 7.8718182501e-001	 5.7403684910e-001
 3.8375911989e+000	 8.2372251989e-001	 5.5874451247e-001
 3.8295592426e+000	 8.6029123413e-001	 5.4090739425e-001
 3.8211551016e+000	 8.9688276244e-001	 5.2059159135e-001
 3.8123769481e+000	 9.3349183472e-001	 4.9786257316e-001
 3.8032230461e+000	 9.7011311783e-001	 4.7278510463e-001
 3.7936917536e+000	 1.0067412174e+000	 4.4542317128e-001
 3.7837815245e+000	 1.0433706796e+000	 4.1583990622e-001
 3.7734909109e+000	 1.0799959932e+000	 3.8409751950e-001
 3.8840562052e+000	 7.1875405704e-001	 5.9951826847e-001
 3.8770848270e+000	 7.5545565324e-001	 5.9019321516e-001
 3.8697449448e+000	 7.9219572198e-001	 5.7810769616e-001
 3.8620344550e+000	 8.2896916014e-001	 5.6333305080e-001
 3.8539513397e+000	 8.6577079613e-001	 5.4594025186e-001
 3.8454936691e+000	 9.0259539150e-001	 5.2599982340e-001
 3.8366596038e+000	 9.3943764258e-001	 5.0358175981e-001
 3.8274473967e+000	 9.7629218228e-001	 4.7875544652e-001
 3.8178553953e+000	 1.0131535818e+000	 4.5158958245e-001
 3.8078820438e+000	 1.0500163527e+000	 4.2215210438e-001
 3.7975258849e+000	 1.0868749486e+000	 3.9051011348e-001
 3.9086388394e+000	 7.2330313334e-001	 6.0145800341e-001
 3.9016233386e+000	 7.6023701813e-001	 5.9288145816e-001
 3.8942370014e+000	 7.9720961895e-001	 5.8146447009e-001
 3.8864777110e+000	 8.3421580039e-001	 5.6728257851e-001
 3.8783434368e+000	 8.7125035813e-001	 5.5041105658e-001
 3.8698322366e+000	 9.0830802055e-001	 5.3092482688e-001
 3.8609422596e+000	 9.4538345045e-001	 5.0889837823e-001
 3.8516717474e+000	 9.8247124672e-001	 4.8440568395e-001
 3.8420190371e+000	 1.0195659463e+000	 4.5752012178e-001
 3.8319825630e+000	 1.0566620258e+000	 4.2831439561e-001
 3.8215608588e+000	 1.0937539040e+000	 3.9686045921e-001
 3.9332214737e+000	 7.2785220965e-001	 6.0254684237e-001
 3.9261618501e+000	 7.6501838302e-001	 5.9478827027e-001
 3.9187290581e+000	 8.0222351592e-001	 5.8411120326e-001
 3.9109209671e+000	 8.3946244064e-001	 5.7059535650e-001
 3.9027355338e+000	 8.7672992013e-001	 5.5432027738e-001
 3.8941708042e+000	 9.1402064961e-001	 5.3536525889e-001
 3.8852249153e+000	 9.5132925831e-001	 5.1380925422e-001
 3.8758960980e+000	 9.8865031116e-001	 4.8973079256e-001
 3.8661826788e+000	 1.0259783107e+000	 4.6320789645e-001
 3.8560830823e+000	 1.0633076989e+000	 4.3431800091e-001
 3.8455958328e+000	 1.1006328594e+000	 4.0313787434e-001
 3.6052460932e+000	 1.0318433056e+000	 4.9301779821e-001
 3.5950495844e+000	 1.0668263616e+000	 4.6336657344e-001
 3.5844871729e+000	 1.1017947664e+000	 4.3293545531e-001
 3.5735577679e+000	 1.1367431019e+000	 4.0197003650e-001
 3.5622603795e+000	 1.1716659033e+000	 3.7073521985e-001
 3.5505941207e+000	 1.2065576614e+000	 3.3951525483e-001
 3.5385582090e+000	 1.2414128249e+000	 3.0861373085e-001
 3.5261519680e+000	 1.2762258024e+000	 2.6918270299e-001
 3.5133748290e+000	 1.3109909654e+000	 2.2908414120e-001
 3.5002263323e+000	 1.3457026502e+000	 1.9171298503e-001
 3.4867061290e+000	 1.3803551609e+000	 1.5726783868e-001
 3.6292810672e+000	 1.0387222610e+000	 4.7465242828e-001
 3.6190165816e+000	 1.0739385374e+000	 4.4831722223e-001
 3.6083837541e+000	 1.1091400648e+000	 4.2091851025e-001
 3.5973814863e+000	 1.1443213892e+000	 3.9270265593e-001
 3.5860087820e+000	 1.1794770093e+000	 3.6393590793e-001
 3.5742647481e+000	 1.2146013792e+000	 3.3490444391e-001
 3.5621485970e+000	 1.2496889104e+000	 3.0591437043e-001
 3.5496596478e+000	 1.2847339744e+000	 2.6555286430e-001
 3.5367973278e+000	 1.3197309052e+000	 2.2745825375e-001
 3.5235611745e+000	 1.3546740012e+000	 1.9193572122e-001
 3.5099508365e+000	 1.3895575286e+000	 1.5918557180e-001
 3.6533160411e+000	 1.0456012164e+000	 4.5596071715e-001
 3.6429835788e+000	 1.0810507131e+000	 4.3291939526e-001
 3.6322803352e+000	 1.1164853633e+000	 4.0852608562e-001
 3.6212052048e+000	 1.1518996766e+000	 3.8302796652e-001
 3.6097571845e+000	 1.1872881153e+000	 3.5669268493e-001
 3.5979353756e+000	 1.2226450969e+000	 3.2980840800e-001
 3.5857389851e+000	 1.2579649959e+000	 2.9986645159e-001
 3.5731673276e+000	 1.2932421464e+000	 2.6151141178e-001
 3.5602198267e+000	 1.3284708449e+000	 2.2537791648e-001
 3.5468960167e+000	 1.3636453522e+000	 1.9165964575e-001
 3.5331955441e+000	 1.3987598963e+000	 1.6055867732e-001
 3.6773510151e+000	 1.0524801718e+000	 4.3695747142e-001
 3.6669505761e+000	 1.0881628888e+000	 4.1718877867e-001
 3.6561769164e+000	 1.1238306617e+000	 3.9577466478e-001
 3.6450289232e+000	 1.1594779639e+000	 3.7296316604e-001
 3.6335055871e+000	 1.1950992213e+000	 3.4902337982e-001
 3.6216060031e+000	 1.2306888146e+000	 3.2424552368e-001
 3.6093293732e+000	 1.2662410814e+000	 2.9333667040e-001
 3.5966750074e+000	 1.3017503184e+000	 2.5706020658e-001
 3.5836423255e+000	 1.3372107847e+000	 2.2284534080e-001
 3.5702308590e+000	 1.3726167032e+000	 1.9088726592e-001
 3.5564402516e+000	 1.4079622641e+000	 1.6138990405e-001
 3.7013859890e+000	 1.0593591271e+000	 4.1765790693e-001
 3.6909175733e+000	 1.0952750646e+000	 4.0114144859e-001
 3.6800734975e+000	 1.1311759602e+000	 3.8268110238e-001
 3.6688526417e+000	 1.1670562512e+000	 3.6252580538e-001
 3.6572539896e+000	 1.2029103274e+000	 3.4094615699e-001
 3.6452766306e+000	 1.2387325324e+000	 3.1823448582e-001
 3.6329197612e+000	 1.2745171669e+000	 2.8643973321e-001
 3.6201826871e+000	 1.3102584905e+000	 2.5220139557e-001
 3.6070648244e+000	 1.3459507245e+000	 2.1986300841e-001
 3.5935657012e+000	 1.3815880542e+000	 1.8962134454e-001
 3.5796849591e+000	 1.4171646318e+000	 1.6168224207e-001
 3.7254209630e+000	 1.0662380825e+000	 3.9807763552e-001
 3.7148845705e+000	 1.1023872403e+000	 3.8479385857e-001
 3.7039700787e+000	 1.1385212586e+000	 3.6926261235e-001
 3.6926763602e+000	 1.1746345386e+000	 3.5173377708e-001
 3.6810023921e+000	 1.2107214334e+000	 3.3247950543e-001
 3.6689472580e+000	 1.2467762501e+000	 3.1179429733e-001
 3.6565101493e+000	 1.2827932524e+000	 2.7917769040e-001
 3.6436903669e+000	 1.3187666625e+000	 2.4693740216e-001
 3.6304873233e+000	 1.3546906642e+000	 2.1643366264e-001
 3.6169005434e+000	 1.3905594052e+000	 1.8786489166e-001
 3.6029296666e+000	 1.4263669996e+000	 1.6143891490e-001
 3.7494559369e+000	 1.0731170379e+000	 3.7823265238e-001
 3.7388515678e+000	 1.1094994161e+000	 3.6816282747e-001
 3.7278666598e+000	 1.1458665570e+000	 3.5553675643e-001
 3.7165000786e+000	 1.1822128259e+000	 3.4060530444e-001
 3.7047507947e+000	 1.2185325394e+000	 3.2364222831e-001
 3.6926178855e+000	 1.2548199679e+000	 3.0321592825e-001
 3.6801005373e+000	 1.2910693379e+000	 2.7155287499e-001
 3.6671980467e+000	 1.3272748345e+000	 2.4127091738e-001
 3.6539098221e+000	 1.3634306040e+000	 2.1256030000e-001
 3.6402353856e+000	 1.3995307562e+000	 1.8562115663e-001
 3.6261743742e+000	 1.4355693673e+000	 1.6066337210e-001
 3.7734909109e+000	 1.0799959932e+000	 3.8409751950e-001
 3.7628185650e+000	 1.1166115918e+000	 3.6375705465e-001
 3.7517632410e+000	 1.1532118555e+000	 3.4302678889e-001
 3.7403237971e+000	 1.1897911133e+000	 3.2915893094e-001
 3.7284991972e+000	 1.2263436454e+000	 3.1445343299e-001
 3.7162885130e+000	 1.2628636856e+000	 2.9314349170e-001
 3.7036909254e+000	 1.2993454234e+000	 2.6356789366e-001
 3.6907057265e+000	 1.3357830065e+000	 2.3520489141e-001
 3.6773323210e+000	 1.3721705438e+000	 2.0824616216e-001
 3.6635702278e+000	 1.4085021072e+000	 1.8289362054e-001
 3.6494190817e+000	 1.4447717350e+000	 1.5935928197e-001
 3.7975258849e+000	 1.0868749486e+000	 3.9051011348e-001
 3.7867855622e+000	 1.1237237676e+000	 3.7007186524e-001
 3.7756598221e+000	 1.1605571539e+000	 3.4919596914e-001
 3.7641475155e+000	 1.1973694006e+000	 3.2794471723e-001
 3.7522475997e+000	 1.2341547515e+000	 3.0637778652e-001
 3.7399591404e+000	 1.2709074034e+000	 2.8275083432e-001
 3.7272813135e+000	 1.3076215089e+000	 2.5522561804e-001
 3.7142134063e+000	 1.3442911785e+000	 2.2874252535e-001
 3.7007548198e+000	 1.3809104835e+000	 2.0349472819e-001
 3.6869050700e+000	 1.4174734582e+000	 1.7968598879e-001
 3.6726637892e+000	 1.4539741028e+000	 1.5753052471e-001
 3.8215608588e+000	 1.0937539040e+000	 3.9686045921e-001
 3.8107525595e+000	 1.1308359433e+000	 3.7626931361e-001
 3.7995564033e+000	 1.1679024524e+000	 3.5519405146e-001
 3.7879712340e+000	 1.2049476880e+000	 3.3369542752e-001
 3.7759960022e+000	 1.2419658575e+000	 3.1183156624e-001
 3.7636297679e+000	 1.2789511211e+000	 2.7953712009e-001
 3.7508717015e+000	 1.3158975944e+000	 2.4692691790e-001
 3.7377210861e+000	 1.3527993506e+000	 2.2188726334e-001
 3.7241773187e+000	 1.3896504233e+000	 1.9830970705e-001
 3.7102399122e+000	 1.4264448092e+000	 1.7600218412e-001
 3.6959084967e+000	 1.4631764705e+000	 1.5518118571e-001
 3.8455958328e+000	 1.1006328594e+000	 4.0313787434e-001
 3.8347195567e+000	 1.1379481191e+000	 3.8233950546e-001
 3.8234529844e+000	 1.1752477508e+000	 3.6101191802e-001
 3.8117949524e+000	 1.2125259753e+000	 3.3921434616e-001
 3.7997444048e+000	 1.2497769635e+000	 3.1700337725e-001
 3.7873003954e+000	 1.2869948389e+000	 2.8152794547e-001
 3.7744620896e+000	 1.3241736799e+000	 2.4861859610e-001
 3.7612287659e+000	 1.3613075226e+000	 2.1868466588e-001
 3.7475998176e+000	 1.3983903631e+000	 1.9269503047e-001
 3.7335747544e+000	 1.4354161602e+000	 1.7184633980e-001
 3.7191532043e+000	 1.4723788383e+000	 1.5231554916e-001
 3.4867061290e+000	 1.3803551609e+000	 1.5726783868e-001
 3.4728139820e+000	 1.4149427715e+000	 1.2243658995e-001
 3.4585497675e+000	 1.4494597290e+000	 8.8728845764e-002
 3.4439134760e+000	 1.4839002560e+000	 5.6290040528e-002
 3.4289052139e+000	 1.5182585531e+000	 2.5273609912e-002
 3.4135252041e+000	 1.5525288020e+000	-4.1591842398e-003
 3.3977737871e+000	 1.5867051686e+000	-3.1839452714e-002
 3.3816514220e+000	 1.6207818052e+000	-5.7590901496e-002
 3.3651586875e+000	 1.6547528541e+000	-8.1230078033e-002
 3.3482962822e+000	 1.6886124501e+000	-1.0256664105e-001
 3.3310650256e+000	 1.7223547240e+000	-1.2140365371e-001
 3.5099508365e+000	 1.3895575286e+000	 1.5918557180e-001
 3.4959660752e+000	 1.4243757233e+000	 1.2450965611e-001
 3.4816067659e+000	 1.4591227939e+000	 9.0729955069e-002
 3.4668728992e+000	 1.4937929244e+000	 5.8002415014e-002
 3.4517645820e+000	 1.5283802767e+000	 2.6491473867e-002
 3.4362820388e+000	 1.5628789940e+000	-3.6301213373e-003
 3.4204256123e+000	 1.5972832030e+000	-3.2181521638e-002
 3.4041957648e+000	 1.6315870172e+000	-5.8974008049e-002
 3.3875930787e+000	 1.6657845398e+000	-8.3811248121e-002
 3.3706182574e+000	 1.6998698665e+000	-1.0648957701e-001
 3.3532721258e+000	 1.7338370888e+000	-1.2679830284e-001
 3.5331955441e+000	 1.3987598963e+000	 1.6055867732e-001
 3.5191181684e+000	 1.4338086751e+000	 1.2617618890e-001
 3.5046637644e+000	 1.4687858588e+000	 9.2462723829e-002
 3.4898323224e+000	 1.5036855927e+000	 5.9584748755e-002
 3.4746239501e+000	 1.5385020004e+000	 2.7717714954e-002
 3.4590388735e+000	 1.5732291861e+000	-2.9541315626e-003
 3.4430774376e+000	 1.6078612375e+000	-3.2237965631e-002
 3.4267401076e+000	 1.6423922293e+000	-5.9932624209e-002
 3.4100274700e+000	 1.6768162255e+000	-8.5828873263e-002
 3.3929402326e+000	 1.7111272828e+000	-1.0970970014e-001
 3.3754792260e+000	 1.7453194536e+000	-1.3135063119e-001
 3.5564402516e+000	 1.4079622641e+000	 1.6138990405e-001
 3.5422702616e+000	 1.4432416269e+000	 1.2743549109e-001
 3.5277207628e+000	 1.4784489236e+000	 9.3922926996e-002
 3.5127917456e+000	 1.5135782611e+000	 6.1029208675e-002
 3.4974833182e+000	 1.5486237241e+000	 2.8940813526e-002
 3.4817957082e+000	 1.5835793781e+000	-2.1464979338e-003
 3.4657292628e+000	 1.6184392720e+000	-3.2027906066e-002
 3.4492844505e+000	 1.6531974413e+000	-6.0489782781e-002
 3.4324618612e+000	 1.6878479112e+000	-8.7309968797e-002
 3.4152622078e+000	 1.7223846991e+000	-1.1225807736e-001
 3.3976863261e+000	 1.7568018184e+000	-1.3509582415e-001
 3.5796849591e+000	 1.4171646318e+000	 1.6168224207e-001
 3.5654223549e+000	 1.4526745787e+000	 1.2828718748e-001
 3.5507777613e+000	 1.4881119885e+000	 9.5106743597e-002
 3.5357511687e+000	 1.5234709295e+000	 6.2328449151e-002
 3.5203426863e+000	 1.5587454478e+000	 3.0149822035e-002
 3.5045525429e+000	 1.5939295701e+000	-1.2218454861e-003
 3.4883810881e+000	 1.6290173064e+000	-3.1569719237e-002
 3.4718287933e+000	 1.6640026533e+000	-6.0667683225e-002
 3.4548962525e+000	 1.6988795969e+000	-8.8280627312e-002
 3.4375841830e+000	 1.7336421155e+000	-1.1416476231e-001
 3.4198934263e+000	 1.7682841833e+000	-1.3806796229e-001
 3.6029296666e+000	 1.4263669996e+000	 1.6143891490e-001
 3.5885744481e+000	 1.4621075305e+000	 1.2873121443e-001
 3.5738347597e+000	 1.4977750533e+000	 9.6010743701e-002
 3.5587105919e+000	 1.5333635979e+000	 6.3475596284e-002
 3.5432020544e+000	 1.5688671715e+000	 3.1334346576e-002
 3.5273093776e+000	 1.6042797621e+000	-1.9416249698e-004
 3.5110329133e+000	 1.6395953409e+000	-3.0881060401e-002
 3.4943731361e+000	 1.6748078654e+000	-6.0487718547e-002
 3.4773306437e+000	 1.7099112826e+000	-8.8766048419e-002
 3.4599061583e+000	 1.7448995318e+000	-1.1545882811e-001
 3.4421005265e+000	 1.7797665481e+000	-1.4030005701e-001
 3.6261743742e+000	 1.4355693673e+000	 1.6066337210e-001
 3.6117265413e+000	 1.4715404823e+000	 1.2876780997e-001
 3.5968917582e+000	 1.5074381182e+000	 9.6631875878e-002
 3.5816700151e+000	 1.5432562662e+000	 6.4464232785e-002
 3.5660614225e+000	 1.5789888952e+000	 3.2484529141e-002
 3.5500662123e+000	 1.6146299541e+000	 9.2317910447e-004
 3.5336847386e+000	 1.6501733753e+000	-2.9978886880e-002
 3.5169174789e+000	 1.6856130774e+000	-5.9970501137e-002
 3.4997650350e+000	 1.7209429682e+000	-8.8790567369e-002
 3.4822281335e+000	 1.7561569481e+000	-1.1616839868e-001
 3.4643076266e+000	 1.7912489129e+000	-1.4182408476e-001
 3.6494190817e+000	 1.4447717350e+000	 1.5935928197e-001
 3.6348786345e+000	 1.4809734342e+000	 1.2839750411e-001
 3.6199487566e+000	 1.5171011831e+000	 9.6967455155e-002
 3.6046294383e+000	 1.5531489346e+000	 6.5288383426e-002
 3.5889207906e+000	 1.5891106189e+000	 3.3591030550e-002
 3.5728230470e+000	 1.6249801461e+000	 2.1174041091e-003
 3.5563365638e+000	 1.6607514098e+000	-2.8879480298e-002
 3.5394618217e+000	 1.6964182894e+000	-5.9135887636e-002
 3.5221994262e+000	 1.7319746539e+000	-8.8377682583e-002
 3.5045501087e+000	 1.7674143645e+000	-1.1632067908e-001
 3.4865147268e+000	 1.8027312778e+000	-1.4267102005e-001
 3.6726637892e+000	 1.4539741028e+000	 1.5753052471e-001
 3.6580307277e+000	 1.4904063860e+000	 1.2762110968e-001
 3.6430057551e+000	 1.5267642479e+000	 9.7015151410e-002
 3.6275888614e+000	 1.5630416030e+000	 6.5942501057e-002
 3.6117801587e+000	 1.5992323426e+000	 3.4645014039e-002
 3.5955798816e+000	 1.6353303381e+000	 3.3763151438e-003
 3.5789883890e+000	 1.6713294442e+000	-2.7598467955e-002
 3.5620061645e+000	 1.7072235015e+000	-5.8003002852e-002
 3.5446338175e+000	 1.7430063396e+000	-8.7550082132e-002
 3.5268720839e+000	 1.7786717808e+000	-1.1594198451e-001
 3.5087218270e+000	 1.8142136426e+000	-1.4287086713e-001
 3.6959084967e+000	 1.4631764705e+000	 1.5518118571e-001
 3.6811828209e+000	 1.4998393378e+000	 1.2643971337e-001
 3.6660627535e+000	 1.5364273128e+000	 9.6772978221e-002
 3.6505482846e+000	 1.5729342714e+000	 6.6421453142e-002
 3.6346395268e+000	 1.6093540662e+000	 3.5638129452e-002
 3.6183367163e+000	 1.6456805302e+000	 4.6882745008e-003
 3.6016402143e+000	 1.6819074787e+000	-2.6150843409e-002
 3.5845505073e+000	 1.7180287135e+000	-5.6590262770e-002
 3.5670682087e+000	 1.7540380253e+000	-8.6329669221e-002
 3.5491940591e+000	 1.7899291972e+000	-1.1505776833e-001
 3.5309289271e+000	 1.8256960074e+000	-1.4245269051e-001
 3.7191532043e+000	 1.4723788383e+000	 1.5231554916e-001
 3.7043349141e+000	 1.5092722896e+000	 1.2485466718e-001
 3.6891197520e+000	 1.5460903777e+000	 9.6239282120e-002
 3.6735077078e+000	 1.5828269397e+000	 6.6720508802e-002
 3.6574988949e+000	 1.6194757899e+000	 3.6562498043e-002
 3.6410935510e+000	 1.6560307222e+000	 6.0421866481e-003
 3.6242920395e+000	 1.6924855132e+000	-2.4550986275e-002
 3.6070948501e+000	 1.7288339256e+000	-5.4915396703e-002
 3.5895026000e+000	 1.7650697110e+000	-8.4737586716e-002
 3.5715160343e+000	 1.8011866135e+000	-1.1369264897e-001
 3.5531360273e+000	 1.8371783722e+000	-1.4144464432e-001
 3.3310650256e+000	 1.7223547240e+000	-1.2140365371e-001
 3.3134658586e+000	 1.7559738049e+000	-1.4677145456e-001
 3.2954998440e+000	 1.7894638242e+000	-1.6973874889e-001
 3.2771681667e+000	 1.8228189179e+000	-1.8986480946e-001
 3.2584721341e+000	 1.8560332301e+000	-2.0670144547e-001
 3.2394131765e+000	 1.8891009162e+000	-2.3396784767e-001
 3.2199928470e+000	 1.9220161459e+000	-2.7812920932e-001
 3.2002128214e+000	 1.9547731064e+000	-3.2053858169e-001
 3.1800748984e+000	 1.9873660057e+000	-3.6073098230e-001
 3.1595809991e+000	 2.0197890756e+000	-3.9823413889e-001
 3.1387331671e+000	 2.0520365752e+000	-4.3256911431e-001
 3.3532721258e+000	 1.7338370888e+000	-1.2679830284e-001
 3.3355556310e+000	 1.7676802970e+000	-1.4895353257e-001
 3.3174698430e+000	 1.8013935830e+000	-1.6834714846e-001
 3.2990159544e+000	 1.8349710440e+000	-1.8455046135e-001
 3.2801952817e+000	 1.8684067849e+000	-1.9712760090e-001
 3.2610092644e+000	 1.9016949223e+000	-2.3242950196e-001
 3.2414594660e+000	 1.9348295869e+000	-2.7248914296e-001
 3.2215475736e+000	 1.9678049271e+000	-3.1055339003e-001
 3.2012753977e+000	 2.0006151124e+000	-3.4617180060e-001
 3.1806448724e+000	 2.0332543361e+000	-3.7888682241e-001
 3.1596580548e+000	 2.0657168190e+000	-4.0823440814e-001
 3.3754792260e+000	 1.7453194536e+000	-1.3135063119e-001
 3.3576454034e+000	 1.7793867890e+000	-1.5077849985e-001
 3.3394398419e+000	 1.8133233418e+000	-1.6709040090e-001
 3.3208637422e+000	 1.8471231701e+000	-1.7986938619e-001
 3.3019184292e+000	 1.8807803398e+000	-1.9420897413e-001
 3.2826053522e+000	 1.9142889284e+000	-2.3247539204e-001
 3.2629260850e+000	 1.9476430278e+000	-2.6893790321e-001
 3.2428823257e+000	 1.9808367478e+000	-3.0316781959e-001
 3.2224758970e+000	 2.0138642191e+000	-3.3472893638e-001
 3.2017087458e+000	 2.0467195966e+000	-3.6317811114e-001
 3.1805829426e+000	 2.0793970629e+000	-3.8806586856e-001
 3.3976863261e+000	 1.7568018184e+000	-1.3509582415e-001
 3.3797351758e+000	 1.7910932810e+000	-1.5227347034e-001
 3.3614098409e+000	 1.8252531007e+000	-1.6598747277e-001
 3.3427115300e+000	 1.8592752962e+000	-1.7583233014e-001
 3.3236415768e+000	 1.8931538947e+000	-1.9866474922e-001
 3.3042014401e+000	 1.9268829345e+000	-2.3407464912e-001
 3.2843927040e+000	 1.9604564688e+000	-2.6743582938e-001
 3.2642170778e+000	 1.9938685685e+000	-2.9833336728e-001
 3.2436763964e+000	 2.0271133258e+000	-3.2634499703e-001
 3.2227726191e+000	 2.0601848571e+000	-3.5104167934e-001
 3.2015078304e+000	 2.0930773067e+000	-3.7198819658e-001
 3.4198934263e+000	 1.7682841833e+000	-1.3806796229e-001
 3.4018249482e+000	 1.8027997731e+000	-1.5346467884e-001
 3.3833798398e+000	 1.8371828595e+000	-1.6505667986e-001
 3.3645593178e+000	 1.8714274223e+000	-1.7244961933e-001
 3.3453647243e+000	 1.9055274495e+000	-2.0416221859e-001
 3.3257975279e+000	 1.9394769406e+000	-2.3719645313e-001
 3.3058593229e+000	 1.9732699098e+000	-2.6794354724e-001
 3.2855518300e+000	 2.0069003892e+000	-2.9600205630e-001
 3.2648768957e+000	 2.0403624325e+000	-3.2096335810e-001
 3.2438364924e+000	 2.0736501176e+000	-3.4241221316e-001
 3.2224327182e+000	 2.1067575505e+000	-3.5992735058e-001
 3.4421005265e+000	 1.7797665481e+000	-1.4030005701e-001
 3.4239147206e+000	 1.8145062651e+000	-1.5437750940e-001
 3.4053498388e+000	 1.8491126183e+000	-1.6431570809e-001
 3.3864071056e+000	 1.8835795485e+000	-1.7740922333e-001
 3.3670878719e+000	 1.9179010044e+000	-2.1067888387e-001
 3.3473936158e+000	 1.9520709467e+000	-2.4181003113e-001
 3.3273259419e+000	 1.9860833507e+000	-2.7042195978e-001
 3.3068865821e+000	 2.0199322099e+000	-2.9612641918e-001
 3.2860773950e+000	 2.0536115392e+000	-3.1852813850e-001
 3.2649003657e+000	 2.0871153781e+000	-3.3722537802e-001
 3.2433576059e+000	 2.1204377944e+000	-3.5181050582e-001
 3.4643076266e+000	 1.7912489129e+000	-1.4182408476e-001
 3.4460044930e+000	 1.8262127571e+000	-1.5503652256e-001
 3.4273198378e+000	 1.8610423772e+000	-1.6378163374e-001
 3.4082548933e+000	 1.8957316746e+000	-1.8612243610e-001
 3.3888110195e+000	 1.9302745593e+000	-2.1819207167e-001
 3.3689897036e+000	 1.9646649528e+000	-2.4788465586e-001
 3.3487925609e+000	 1.9988967917e+000	-2.7483223832e-001
 3.3282213343e+000	 2.0329640306e+000	-2.9865948144e-001
 3.3072778943e+000	 2.0668606459e+000	-3.1898417670e-001
 3.2859642391e+000	 2.1005806386e+000	-3.3541778716e-001
 3.2642824937e+000	 2.1341180382e+000	-3.4756601538e-001
 3.4865147268e+000	 1.8027312778e+000	-1.4267102005e-001
 3.4680942654e+000	 1.8379192492e+000	-1.5546548158e-001
 3.4492898367e+000	 1.8729721360e+000	-1.6347094285e-001
 3.4301026811e+000	 1.9078838007e+000	-1.9535916401e-001
 3.4105341670e+000	 1.9426481142e+000	-2.2667893922e-001
 3.3905857914e+000	 1.9772589590e+000	-2.5538964421e-001
 3.3702591799e+000	 2.0117102327e+000	-2.8113581397e-001
 3.3495560864e+000	 2.0459958514e+000	-3.0355474592e-001
 3.3284783936e+000	 2.0801097526e+000	-3.2227700777e-001
 3.3070281124e+000	 2.1140458991e+000	-3.3692697150e-001
 3.2852073815e+000	 2.1477982820e+000	-3.4712337268e-001
 3.5087218270e+000	 1.8142136426e+000	-1.4287086713e-001
 3.4901840378e+000	 1.8496257412e+000	-1.5568737769e-001
 3.4712598357e+000	 1.8849018948e+000	-1.7159255628e-001
 3.4519504689e+000	 1.9200359268e+000	-2.0510398730e-001
 3.4322573146e+000	 1.9550216690e+000	-2.3611647969e-001
 3.4121818793e+000	 1.9898529651e+000	-2.6429435588e-001
 3.3917257989e+000	 2.0245236737e+000	-2.8929436941e-001
 3.3708908386e+000	 2.0590276721e+000	-3.1076617765e-001
 3.3496788930e+000	 2.0933588593e+000	-3.2835284140e-001
 3.3280919857e+000	 2.1275111596e+000	-3.4169135060e-001
 3.3061322693e+000	 2.1614785259e+000	-3.5041317539e-001
 3.5309289271e+000	 1.8256960074e+000	-1.4245269051e-001
 3.5122738102e+000	 1.8613322332e+000	-1.5572445433e-001
 3.4932298346e+000	 1.8968316537e+000	-1.8147086094e-001
 3.4737982567e+000	 1.9321880529e+000	-2.1534112891e-001
 3.4539804622e+000	 1.9673952239e+000	-2.4648152734e-001
 3.4337779671e+000	 2.0024469712e+000	-2.7456819201e-001
 3.4131924178e+000	 2.0373371146e+000	-2.9926983097e-001
 3.3922255907e+000	 2.0720594928e+000	-3.2024818930e-001
 3.3708793923e+000	 2.1066079660e+000	-3.3715854060e-001
 3.3491558591e+000	 2.1409764201e+000	-3.4965020471e-001
 3.3270571571e+000	 2.1751587697e+000	-3.5736709070e-001
 3.5531360273e+000	 1.8371783722e+000	-1.4144464432e-001
 3.5343635826e+000	 1.8730387253e+000	-1.5559823055e-001
 3.5151998336e+000	 1.9087614125e+000	-1.9140400717e-001
 3.4956460444e+000	 1.9443401791e+000	-2.2605446573e-001
 3.4757036097e+000	 1.9797687788e+000	-2.5775076254e-001
 3.4553740550e+000	 2.0150409773e+000	-2.8618059387e-001
 3.4346590368e+000	 2.0501505556e+000	-3.1102436104e-001
 3.4135603429e+000	 2.0850913135e+000	-3.3195562725e-001
 3.3920798916e+000	 2.1198570727e+000	-3.4864160138e-001
 3.3702197324e+000	 2.1544416806e+000	-3.6074364784e-001
 3.3479820449e+000	 2.1888390135e+000	-3.6791782188e-001
 3.1387331671e+000	 2.0520365752e+000	-4.3256911431e-001
 3.1175335675e+000	 2.0841027938e+000	-4.7212511383e-001
 3.0959844873e+000	 2.1159820543e+000	-4.7213547344e-001
 3.0740883340e+000	 2.1476687162e+000	-4.7837063516e-001
 3.0518476352e+000	 2.1791571792e+000	-4.9056929539e-001
 3.0292650379e+000	 2.2104418857e+000	-5.0846226535e-001
 3.0063433076e+000	 2.2415173246e+000	-5.3177309376e-001
 2.9830853273e+000	 2.2723780342e+000	-5.6021870460e-001
 2.9594940961e+000	 2.3030186050e+000	-5.9351004844e-001
 2.9355727287e+000	 2.3334336833e+000	-6.3135276566e-001
 2.9113244534e+000	 2.3636179740e+000	-6.7344785979e-001
 3.1596580548e+000	 2.0657168190e+000	-4.0823440814e-001
 3.1383171247e+000	 2.0979968124e+000	-4.6952439238e-001
 3.1166243839e+000	 2.1300886013e+000	-5.0697274887e-001
 3.0945822562e+000	 2.1619865077e+000	-5.0771859752e-001
 3.0721932861e+000	 2.1936848937e+000	-5.1412305319e-001
 3.0494601381e+000	 2.2251781649e+000	-5.2589621338e-001
 3.0263855963e+000	 2.2564607735e+000	-5.4274111169e-001
 3.0029725628e+000	 2.2875272211e+000	-5.6435438677e-001
 2.9792240568e+000	 2.3183720624e+000	-5.9042696487e-001
 2.9551432136e+000	 2.3489899079e+000	-6.2064475403e-001
 2.9307332831e+000	 2.3793754271e+000	-6.5468934820e-001
 3.1805829426e+000	 2.0793970629e+000	-3.8806586856e-001
 3.1591006818e+000	 2.1118908310e+000	-4.4679645218e-001
 3.1372642805e+000	 2.1441951483e+000	-5.0716499036e-001
 3.1150761784e+000	 2.1763042991e+000	-5.3969802269e-001
 3.0925389370e+000	 2.2082126082e+000	-5.4011081530e-001
 3.0696552384e+000	 2.2399144442e+000	-5.4557068216e-001
 3.0464278850e+000	 2.2714042223e+000	-5.5576010427e-001
 3.0228597983e+000	 2.3026764080e+000	-5.7035539501e-001
 2.9989540174e+000	 2.3337255197e+000	-5.8902741398e-001
 2.9747136984e+000	 2.3645461324e+000	-6.1144229235e-001
 2.9501421128e+000	 2.3951328803e+000	-6.3726216791e-001
 3.2015078304e+000	 2.0930773067e+000	-3.7198819658e-001
 3.1798842389e+000	 2.1257848497e+000	-4.2795021383e-001
 3.1579041771e+000	 2.1583016954e+000	-4.8526188943e-001
 3.1355701007e+000	 2.1906220906e+000	-5.4352847279e-001
 3.1128845879e+000	 2.2227403228e+000	-5.6854274426e-001
 3.0898503386e+000	 2.2546507234e+000	-5.6750179633e-001
 3.0664701738e+000	 2.2863476711e+000	-5.7085206279e-001
 3.0427470338e+000	 2.3178255949e+000	-5.7824948784e-001
 3.0186839780e+000	 2.3490789771e+000	-5.8934481820e-001
 2.9942841833e+000	 2.3801023570e+000	-6.0378435980e-001
 2.9695509425e+000	 2.4108903335e+000	-6.2121074390e-001
 3.2224327182e+000	 2.1067575505e+000	-3.5992735058e-001
 3.2006677960e+000	 2.1396788683e+000	-4.1291714572e-001
 3.1785440737e+000	 2.1724082424e+000	-4.6697366813e-001
 3.1560640229e+000	 2.2049398820e+000	-5.2168172015e-001
 3.1332302388e+000	 2.2372680373e+000	-5.7661717893e-001
 3.1100454389e+000	 2.2693870027e+000	-5.9170629148e-001
 3.0865124625e+000	 2.3012911200e+000	-5.8803946671e-001
 3.0626342693e+000	 2.3329747818e+000	-5.8806479151e-001
 3.0384139387e+000	 2.3644324345e+000	-5.9141284964e-001
 3.0138546681e+000	 2.3956585816e+000	-5.9771006961e-001
 2.9889597722e+000	 2.4266477866e+000	-6.0657952210e-001
 3.2433576059e+000	 2.1204377944e+000	-3.5181050582e-001
 3.2214513531e+000	 2.1535728869e+000	-4.0162980400e-001
 3.1991839703e+000	 2.1865147894e+000	-4.5223821774e-001
 3.1765579451e+000	 2.2192576734e+000	-5.0320011081e-001
 3.1535758897e+000	 2.2517957518e+000	-5.5407094261e-001
 3.1302405392e+000	 2.2841232819e+000	-6.0439793812e-001
 3.1065547512e+000	 2.3162345688e+000	-6.0734526797e-001
 3.0825215048e+000	 2.3481239687e+000	-5.9982978815e-001
 3.0581438993e+000	 2.3797858918e+000	-5.9526542202e-001
 3.0334251530e+000	 2.4112148061e+000	-5.9325866477e-001
 3.0083686019e+000	 2.4424052398e+000	-5.9341296874e-001
 3.2642824937e+000	 2.1341180382e+000	-3.4756601538e-001
 3.2422349102e+000	 2.1674669055e+000	-3.9402179767e-001
 3.2198238668e+000	 2.2006213364e+000	-4.4099435929e-001
 3.1970518674e+000	 2.2335754649e+000	-4.8802763068e-001
 3.1739215406e+000	 2.2663234664e+000	-5.3465665314e-001
 3.1504356394e+000	 2.2988595611e+000	-5.8040827586e-001
 3.1265970399e+000	 2.3311780176e+000	-6.2480187919e-001
 3.1024087403e+000	 2.3632731556e+000	-6.1357330438e-001
 3.0778738600e+000	 2.3951393492e+000	-6.0093668296e-001
 3.0529956378e+000	 2.4267710307e+000	-5.9046951386e-001
 3.0277774315e+000	 2.4581626929e+000	-5.8175556966e-001
 3.2852073815e+000	 2.1477982820e+000	-3.4712337268e-001
 3.2630184674e+000	 2.1813609242e+000	-3.9002775509e-001
 3.2404637634e+000	 2.2147278835e+000	-4.3318181396e-001
 3.2175457896e+000	 2.2478932563e+000	-4.7610904851e-001
 3.1942671915e+000	 2.2808511809e+000	-5.1832407837e-001
 3.1706307397e+000	 2.3135958404e+000	-5.5933336785e-001
 3.1466393286e+000	 2.3461214665e+000	-5.9863597666e-001
 3.1222959759e+000	 2.3784223425e+000	-6.2932450031e-001
 3.0976038206e+000	 2.4104928066e+000	-6.0846100652e-001
 3.0725661227e+000	 2.4423272552e+000	-5.8938210703e-001
 3.0471862612e+000	 2.4739201461e+000	-5.7165182974e-001
 3.3061322693e+000	 2.1614785259e+000	-3.5041317539e-001
 3.2838020245e+000	 2.1952549428e+000	-3.8958329169e-001
 3.2611036600e+000	 2.2288344305e+000	-4.2874117464e-001
 3.2380397118e+000	 2.2622110478e+000	-4.6738989113e-001
 3.2146128424e+000	 2.2953788954e+000	-5.0502363248e-001
 3.1908258399e+000	 2.3283321196e+000	-5.4112846589e-001
 3.1666816174e+000	 2.3610649153e+000	-5.7518311275e-001
 3.1421832114e+000	 2.3935715294e+000	-6.0665975229e-001
 3.1173337812e+000	 2.4258462639e+000	-6.1787298601e-001
 3.0921366076e+000	 2.4578834798e+000	-5.9003605216e-001
 3.0665950909e+000	 2.4896775993e+000	-5.6314627227e-001
 3.3270571571e+000	 2.1751587697e+000	-3.5736709070e-001
 3.3045855816e+000	 2.2091489614e+000	-3.9262497895e-001
 3.2817435566e+000	 2.2429409775e+000	-4.2761387845e-001
 3.2585336340e+000	 2.2765288392e+000	-4.6181641960e-001
 3.2349584933e+000	 2.3099066099e+000	-4.9470635566e-001
 3.2110209402e+000	 2.3430683989e+000	-5.2574934145e-001
 3.1867239061e+000	 2.3760083641e+000	-5.5440373926e-001
 3.1620704469e+000	 2.4087207162e+000	-5.8012145046e-001
 3.1370637419e+000	 2.4411997213e+000	-6.0234877120e-001
 3.1117070924e+000	 2.4734397043e+000	-5.9247107120e-001
 3.0860039206e+000	 2.5054350524e+000	-5.6419469655e-001
 3.3479820449e+000	 2.1888390135e+000	-3.6791782188e-001
 3.3253691387e+000	 2.2230429801e+000	-3.9909031454e-001
 3.3023834532e+000	 2.2570475246e+000	-4.2974218042e-001
 3.2790275563e+000	 2.2908466307e+000	-4.5933560628e-001
 3.2553041442e+000	 2.3244343245e+000	-4.8732389458e-001
 3.2312160404e+000	 2.3578046781e+000	-5.1315226944e-001
 3.2067661948e+000	 2.3909518130e+000	-5.3625871026e-001
 3.1819576824e+000	 2.4238699031e+000	-5.5607481141e-001
 3.1567937025e+000	 2.4565531787e+000	-5.7202666614e-001
 3.1312775773e+000	 2.4889959289e+000	-5.8353577315e-001
 3.1054127503e+000	 2.5211925056e+000	-5.8119046205e-001
 2.9113244534e+000	 2.3636179740e+000	-6.7344785979e-001
 2.8867526112e+000	 2.3935662434e+000	-6.9466731288e-001
 2.8618606541e+000	 2.4232733227e+000	-7.0704150037e-001
 2.8366521436e+000	 2.4527341104e+000	-7.1030368846e-001
 2.8111307490e+000	 2.4819435755e+000	-7.0419741998e-001
 2.7853002459e+000	 2.5108967602e+000	-7.0890829013e-001
 2.7591645138e+000	 2.5395887828e+000	-7.3881959569e-001
 2.7327275349e+000	 2.5680148403e+000	-7.6055308560e-001
 2.7059933915e+000	 2.5961702111e+000	-7.7381444585e-001
 2.6789662642e+000	 2.6240502578e+000	-7.7831132727e-001
 2.6516504295e+000	 2.6516504295e+000	-7.7375401929e-001
 2.9307332831e+000	 2.3793754271e+000	-6.5468934820e-001
 2.9059976286e+000	 2.4095233517e+000	-6.6902461988e-001
 2.8809397251e+000	 2.4394284782e+000	-6.7524732698e-001
 2.8555631579e+000	 2.4690856712e+000	-6.7308890069e-001
 2.8298716207e+000	 2.4984898660e+000	-6.6229042293e-001
 2.8038689142e+000	 2.5276360719e+000	-6.9437729811e-001
 2.7775589439e+000	 2.5565193747e+000	-7.2220193352e-001
 2.7509457185e+000	 2.5851349392e+000	-7.4270246315e-001
 2.7240333475e+000	 2.6134780125e+000	-7.5557855852e-001
 2.6968260392e+000	 2.6415439262e+000	-7.6053088956e-001
 2.6693280990e+000	 2.6693280990e+000	-7.5726181225e-001
 2.9501421128e+000	 2.3951328803e+000	-6.3726216791e-001
 2.9252426460e+000	 2.4254804600e+000	-6.4486273647e-001
 2.9000187961e+000	 2.4555836337e+000	-6.4507160471e-001
 2.8744741721e+000	 2.4854372319e+000	-6.3761814940e-001
 2.8486124923e+000	 2.5150361565e+000	-6.4963891496e-001
 2.8224375825e+000	 2.5443753837e+000	-6.8163914053e-001
 2.7959533740e+000	 2.5734499666e+000	-7.0746713347e-001
 2.7691639021e+000	 2.6022550381e+000	-7.2681702623e-001
 2.7420733034e+000	 2.6307858139e+000	-7.3938229686e-001
 2.7146858143e+000	 2.6590375946e+000	-7.4485645722e-001
 2.6870057685e+000	 2.6870057685e+000	-7.4293375486e-001
 2.9695509425e+000	 2.4108903335e+000	-6.2121074390e-001
 2.9444876634e+000	 2.4414375683e+000	-6.2222514459e-001
 2.9190978672e+000	 2.4717387892e+000	-6.1655705812e-001
 2.8933851864e+000	 2.5017887926e+000	-6.0708866973e-001
 2.8673533640e+000	 2.5315824470e+000	-6.4135747151e-001
 2.8410062508e+000	 2.5611146954e+000	-6.7060694252e-001
 2.8143478041e+000	 2.5903805584e+000	-6.9452813203e-001
 2.7873820856e+000	 2.6193751371e+000	-7.1280977493e-001
 2.7601132593e+000	 2.6480936153e+000	-7.2513897595e-001
 2.7325455894e+000	 2.6765312630e+000	-7.3120191084e-001
 2.7046834380e+000	 2.7046834380e+000	-7.3068454258e-001
 2.9889597722e+000	 2.4266477866e+000	-6.0657952210e-001
 2.9637326808e+000	 2.4573946766e+000	-6.0115539959e-001
 2.9381769382e+000	 2.4878939447e+000	-5.8974653235e-001
 2.9122962007e+000	 2.5181403534e+000	-6.0382541772e-001
 2.8860942356e+000	 2.5481287375e+000	-6.3459864335e-001
 2.8595749191e+000	 2.5778540071e+000	-6.6119405934e-001
 2.8327422342e+000	 2.6073111503e+000	-6.8329812161e-001
 2.8056002692e+000	 2.6364952360e+000	-7.0059398563e-001
 2.7781532153e+000	 2.6654014167e+000	-7.1276220226e-001
 2.7504053645e+000	 2.6940249314e+000	-7.1948143200e-001
 2.7223611076e+000	 2.7223611076e+000	-7.2042917602e-001
 3.0083686019e+000	 2.4424052398e+000	-5.9341296874e-001
 2.9829776982e+000	 2.4733517849e+000	-5.8169712783e-001
 2.9572560092e+000	 2.5040491002e+000	-5.7148571792e-001
 2.9312072150e+000	 2.5344919141e+000	-6.0189582183e-001
 2.9048351073e+000	 2.5646750280e+000	-6.2927638856e-001
 2.8781435874e+000	 2.5945933189e+000	-6.5331406893e-001
 2.8511366643e+000	 2.6242417422e+000	-6.7369054226e-001
 2.8238184528e+000	 2.6536153349e+000	-6.9008320216e-001
 2.7961931712e+000	 2.6827092181e+000	-7.0216586418e-001
 2.7682651396e+000	 2.7115185997e+000	-7.0960949352e-001
 2.7400387771e+000	 2.7400387771e+000	-7.1208295112e-001
 3.0277774315e+000	 2.4581626929e+000	-5.8175556966e-001
 3.0022227156e+000	 2.4893088932e+000	-5.6389402443e-001
 2.9763350802e+000	 2.5202042556e+000	-5.7492736990e-001
 2.9501182293e+000	 2.5508434748e+000	-6.0121461512e-001
 2.9235759790e+000	 2.5812213185e+000	-6.2530485154e-001
 2.8967122557e+000	 2.6113326306e+000	-6.4688076477e-001
 2.8695310944e+000	 2.6411723341e+000	-6.6561907379e-001
 2.8420366363e+000	 2.6707354339e+000	-6.8119122720e-001
 2.8142331272e+000	 2.7000170196e+000	-6.9326412302e-001
 2.7861249147e+000	 2.7290122681e+000	-7.0150085015e-001
 2.7577164466e+000	 2.7577164466e+000	-7.0556144963e-001
 3.0471862612e+000	 2.4739201461e+000	-5.7165182974e-001
 3.0214677330e+000	 2.5052660015e+000	-5.5609587166e-001
 2.9954141513e+000	 2.5363594111e+000	-5.7942457539e-001
 2.9690292436e+000	 2.5671950356e+000	-6.0169667791e-001
 2.9423168506e+000	 2.5977676090e+000	-6.2259835712e-001
 2.9152809240e+000	 2.6280719423e+000	-6.4180814903e-001
 2.8879255245e+000	 2.6581029260e+000	-6.5899762804e-001
 2.8602548199e+000	 2.6878555328e+000	-6.7383211401e-001
 2.8322730831e+000	 2.7173248210e+000	-6.8597140435e-001
 2.8039846898e+000	 2.7465059365e+000	-6.9507052956e-001
 2.7753941161e+000	 2.7753941161e+000	-7.0078053009e-001
 3.0665950909e+000	 2.4896775993e+000	-5.6314627227e-001
 3.0407127505e+000	 2.5212231098e+000	-5.6629678522e-001
 3.0144932223e+000	 2.5525145666e+000	-5.8489310925e-001
 2.9879402579e+000	 2.5835465963e+000	-6.0325703316e-001
 2.9610577223e+000	 2.6143138995e+000	-6.2107140482e-001
 2.9338495923e+000	 2.6448112541e+000	-6.3801042594e-001
 2.9063199545e+000	 2.6750335179e+000	-6.5374034164e-001
 2.8784730034e+000	 2.7049756317e+000	-6.6792015853e-001
 2.8503130390e+000	 2.7346326224e+000	-6.8020238955e-001
 2.8218444649e+000	 2.7639996049e+000	-6.9023382374e-001
 2.7930717857e+000	 2.7930717857e+000	-6.9765631899e-001
 3.0860039206e+000	 2.5054350524e+000	-5.6419469655e-001
 3.0599577679e+000	 2.5371802180e+000	-5.7727335096e-001
 3.0335722933e+000	 2.5686697221e+000	-5.9124884889e-001
 3.0068512722e+000	 2.5998981570e+000	-6.0581084194e-001
 2.9797985939e+000	 2.6308601900e+000	-6.2063866337e-001
 2.9524182606e+000	 2.6615505658e+000	-6.3540199548e-001
 2.9247143846e+000	 2.6919641097e+000	-6.4976156887e-001
 2.8966911870e+000	 2.7220957307e+000	-6.6336989176e-001
 2.8683529950e+000	 2.7519404238e+000	-6.7587200786e-001
 2.8397042400e+000	 2.7814932733e+000	-6.8690628066e-001
 2.8107494552e+000	 2.8107494552e+000	-6.9610520240e-001
 3.1054127503e+000	 2.5211925056e+000	-5.8119046205e-001
 3.0792027853e+000	 2.5531373263e+000	-5.8894244724e-001
 3.0526513643e+000	 2.5848248776e+000	-5.9840777104e-001
 3.0257622864e+000	 2.6162497178e+000	-6.0927339917e-001
 2.9985394656e+000	 2.6474064805e+000	-6.2121496541e-001
 2.9709869289e+000	 2.6782898775e+000	-6.3389744723e-001
 2.9431088147e+000	 2.7088947016e+000	-6.4697587488e-001
 2.9149093706e+000	 2.7392158296e+000	-6.6009607238e-001
 2.8863929509e+000	 2.7692482252e+000	-6.7289542857e-001
 2.8575640151e+000	 2.7989869417e+000	-6.8500369629e-001
 2.8284271247e+000	 2.8284271247e+000	-6.9604381782e-001
 2.6516504295e+000	 2.6516504295e+000	-7.7375401929e-001
 2.6240502578e+000	 2.6789662642e+000	-7.8516595303e-001
 2.5961702111e+000	 2.7059933915e+000	-7.9835247186e-001
 2.5680148403e+000	 2.7327275349e+000	-8.1299291911e-001
 2.5395887828e+000	 2.7591645138e+000	-8.2876101869e-001
 2.5108967602e+000	 2.7853002459e+000	-8.4532563805e-001
 2.4819435755e+000	 2.8111307490e+000	-8.4079415595e-001
 2.4527341104e+000	 2.8366521436e+000	-8.2562406516e-001
 2.4232733227e+000	 2.8618606541e+000	-8.1319398987e-001
 2.3935662434e+000	 2.8867526112e+000	-8.0330425684e-001
 2.3636179740e+000	 2.9113244534e+000	-7.9576624176e-001
 2.6693280990e+000	 2.6693280990e+000	-7.5726181225e-001
 2.6415439262e+000	 2.6968260392e+000	-7.6958510876e-001
 2.6134780125e+000	 2.7240333475e+000	-7.8323350421e-001
 2.5851349392e+000	 2.7509457185e+000	-7.9786857357e-001
 2.5565193747e+000	 2.7775589439e+000	-8.1314657077e-001
 2.5276360719e+000	 2.8038689142e+000	-8.2871921833e-001
 2.4984898660e+000	 2.8298716207e+000	-8.4243929982e-001
 2.4690856712e+000	 2.8555631579e+000	-8.2419480701e-001
 2.4394284782e+000	 2.8809397251e+000	-8.0802806947e-001
 2.4095233517e+000	 2.9059976286e+000	-7.9372894713e-001
 2.3793754271e+000	 2.9307332831e+000	-7.8109930598e-001
 2.6870057685e+000	 2.6870057685e+000	-7.4293375486e-001
 2.6590375946e+000	 2.7146858143e+000	-7.5604765197e-001
 2.6307858139e+000	 2.7420733034e+000	-7.7004518332e-001
 2.6022550381e+000	 2.7691639021e+000	-7.8457005897e-001
 2.5734499666e+000	 2.7959533740e+000	-7.9926095882e-001
 2.5443753837e+000	 2.8224375825e+000	-8.1375234926e-001
 2.5150361565e+000	 2.8486124923e+000	-8.2767531334e-001
 2.4854372319e+000	 2.8744741721e+000	-8.2408893994e-001
 2.4555836337e+000	 2.9000187961e+000	-8.0405952623e-001
 2.4254804600e+000	 2.9252426460e+000	-7.8522522741e-001
 2.3951328803e+000	 2.9501421128e+000	-7.6737837527e-001
 2.7046834380e+000	 2.7046834380e+000	-7.3068454258e-001
 2.6765312630e+000	 2.7325455894e+000	-7.4447268409e-001
 2.6480936153e+000	 2.7601132593e+000	-7.5871093761e-001
 2.6193751371e+000	 2.7873820856e+000	-7.7302504870e-001
 2.5903805584e+000	 2.8143478041e+000	-7.8703601621e-001
 2.5611146954e+000	 2.8410062508e+000	-8.0036093613e-001
 2.5315824470e+000	 2.8673533640e+000	-8.1261385881e-001
 2.5017887926e+000	 2.8933851864e+000	-8.2340665732e-001
 2.4717387892e+000	 2.9190978672e+000	-8.0143584860e-001
 2.4414375683e+000	 2.9444876634e+000	-7.7794325268e-001
 2.4108903335e+000	 2.9695509425e+000	-7.5475606579e-001
 2.7223611076e+000	 2.7223611076e+000	-7.2042917602e-001
 2.6940249314e+000	 2.7504053645e+000	-7.3477952364e-001
 2.6654014167e+000	 2.7781532153e+000	-7.4915432760e-001
 2.6364952360e+000	 2.8056002692e+000	-7.6316126631e-001
 2.6073111503e+000	 2.8327422342e+000	-7.7640354758e-001
 2.5778540071e+000	 2.8595749191e+000	-7.8848077987e-001
 2.5481287375e+000	 2.8860942356e+000	-7.9898985676e-001
 2.5181403534e+000	 2.9122962007e+000	-8.0752585218e-001
 2.4878939447e+000	 2.9381769382e+000	-8.0030421291e-001
 2.4573946766e+000	 2.9637326808e+000	-7.7203280311e-001
 2.4266477866e+000	 2.9889597722e+000	-7.4338455940e-001
 2.7400387771e+000	 2.7400387771e+000	-7.1208295112e-001
 2.7115185997e+000	 2.7682651396e+000	-7.2688769924e-001
 2.6827092181e+000	 2.7961931712e+000	-7.4129904161e-001
 2.6536153349e+000	 2.8238184528e+000	-7.5490648388e-001
 2.6242417422e+000	 2.8511366643e+000	-7.6729532985e-001
 2.5945933189e+000	 2.8781435874e+000	-7.7804758042e-001
 2.5646750280e+000	 2.9048351073e+000	-7.8674284546e-001
 2.5344919141e+000	 2.9312072150e+000	-7.9295926631e-001
 2.5040491002e+000	 2.9572560092e+000	-7.9627444644e-001
 2.4733517849e+000	 2.9829776982e+000	-7.6764329605e-001
 2.4424052398e+000	 3.0083686019e+000	-7.3341561762e-001
 2.7577164466e+000	 2.7577164466e+000	-7.0556144963e-001
 2.7290122681e+000	 2.7861249147e+000	-7.2071694288e-001
 2.7000170196e+000	 2.8142331272e+000	-7.3506889169e-001
 2.6707354339e+000	 2.8420366363e+000	-7.4818852044e-001
 2.6411723341e+000	 2.8695310944e+000	-7.5964311306e-001
 2.6113326306e+000	 2.8967122557e+000	-7.6899693994e-001
 2.5812213185e+000	 2.9235759790e+000	-7.7581219753e-001
 2.5508434748e+000	 2.9501182293e+000	-7.7964995832e-001
 2.5202042556e+000	 2.9763350802e+000	-7.8007112853e-001
 2.4893088932e+000	 3.0022227156e+000	-7.6492379772e-001
 2.4581626929e+000	 3.0277774315e+000	-7.2500059514e-001
 2.7753941161e+000	 2.7753941161e+000	-7.0078053009e-001
 2.7465059365e+000	 2.8039846898e+000	-7.1618718343e-001
 2.7173248210e+000	 2.8322730831e+000	-7.3038780967e-001
 2.6878555328e+000	 2.8602548199e+000	-7.4293524049e-001
 2.6581029260e+000	 2.8879255245e+000	-7.5337862122e-001
 2.6280719423e+000	 2.9152809240e+000	-7.6126436597e-001
 2.5977676090e+000	 2.9423168506e+000	-7.6613712524e-001
 2.5671950356e+000	 2.9690292436e+000	-7.6754076361e-001
 2.5363594111e+000	 2.9954141513e+000	-7.6501934486e-001
 2.5052660015e+000	 3.0214677330e+000	-7.5811812216e-001
 2.4739201461e+000	 3.0471862612e+000	-7.1829045277e-001
 2.7930717857e+000	 2.7930717857e+000	-6.9765631899e-001
 2.7639996049e+000	 2.8218444649e+000	-7.1321854041e-001
 2.7346326224e+000	 2.8503130390e+000	-7.2717984338e-001
 2.7049756317e+000	 2.8784730034e+000	-7.3907455258e-001
 2.6750335179e+000	 2.9063199545e+000	-7.4843355315e-001
 2.6448112541e+000	 2.9338495923e+000	-7.5478527438e-001
 2.6143138995e+000	 2.9610577223e+000	-7.5765668552e-001
 2.5835465963e+000	 2.9879402579e+000	-7.5657430146e-001
 2.5525145666e+000	 3.0144932223e+000	-7.5106519562e-001
 2.5212231098e+000	 3.0407127505e+000	-7.4065801735e-001
 2.4896775993e+000	 3.0665950909e+000	-7.1343576988e-001
 2.8107494552e+000	 2.8107494552e+000	-6.9610520240e-001
 2.7814932733e+000	 2.8397042400e+000	-7.1173131800e-001
 2.7519404238e+000	 2.8683529950e+000	-7.2536915300e-001
 2.7220957307e+000	 2.8966911870e+000	-7.3653440788e-001
 2.6919641097e+000	 2.9247143846e+000	-7.4473958329e-001
 2.6615505658e+000	 2.9524182606e+000	-7.4949499231e-001
 2.6308601900e+000	 2.9797985939e+000	-7.5030978488e-001
 2.5998981570e+000	 3.0068512722e+000	-7.4669298179e-001
 2.5686697221e+000	 3.0335722933e+000	-7.3815451548e-001
 2.5371802180e+000	 3.0599577679e+000	-7.2420627509e-001
 2.5054350524e+000	 3.0860039206e+000	-7.0436315304e-001
 2.8284271247e+000	 2.8284271247e+000	-6.9604381782e-001
 2.7989869417e+000	 2.8575640151e+000	-7.1164599929e-001
 2.7692482252e+000	 2.8863929509e+000	-7.2488000752e-001
 2.7392158296e+000	 2.9149093706e+000	-7.3524279891e-001
 2.7088947016e+000	 2.9431088147e+000	-7.4222836242e-001
 2.6782898775e+000	 2.9709869289e+000	-7.4532876086e-001
 2.6474064805e+000	 2.9985394656e+000	-7.4403518413e-001
 2.6162497178e+000	 3.0257622864e+000	-7.3783901174e-001
 2.5848248776e+000	 3.0526513643e+000	-7.2623288193e-001
 2.5531373263e+000	 3.0792027853e+000	-7.0871176463e-001
 2.5211925056e+000	 3.1054127503e+000	-6.8477403550e-001
 2.3636179740e+000	 2.9113244534e+000	-7.9576624176e-001
 2.3334336833e+000	 2.9355727287e+000	-8.1031552952e-001
 2.3030186050e+000	 2.9594940961e+000	-8.1725024492e-001
 2.2723780342e+000	 2.9830853273e+000	-8.1639382521e-001
 2.2415173246e+000	 3.0063433076e+000	-8.0759108102e-001
 2.2104418857e+000	 3.0292650379e+000	-7.9070835384e-001
 2.1791571792e+000	 3.0518476352e+000	-7.6563362150e-001
 2.1476687162e+000	 3.0740883340e+000	-7.3227655163e-001
 2.1159820543e+000	 3.0959844873e+000	-6.9056850366e-001
 2.0841027938e+000	 3.1175335675e+000	-6.4046247963e-001
 2.0520365752e+000	 3.1387331671e+000	-6.4664886522e-001
 2.3793754271e+000	 2.9307332831e+000	-7.8109930598e-001
 2.3489899079e+000	 2.9551432136e+000	-7.8908124608e-001
 2.3183720624e+000	 2.9792240568e+000	-7.8932681697e-001
 2.2875272211e+000	 3.0029725628e+000	-7.8164417164e-001
 2.2564607735e+000	 3.0263855963e+000	-7.6586335097e-001
 2.2251781649e+000	 3.0494601381e+000	-7.4183645698e-001
 2.1936848937e+000	 3.0721932861e+000	-7.0943777259e-001
 2.1619865077e+000	 3.0945822562e+000	-6.6856382827e-001
 2.1300886013e+000	 3.1166243839e+000	-6.1913341585e-001
 2.0979968124e+000	 3.1383171247e+000	-6.2216388419e-001
 2.0657168190e+000	 3.1596580548e+000	-6.5815633974e-001
 2.3951328803e+000	 2.9501421128e+000	-7.6737837527e-001
 2.3645461324e+000	 2.9747136984e+000	-7.6852269710e-001
 2.3337255197e+000	 2.9989540174e+000	-7.6180149355e-001
 2.3026764080e+000	 3.0228597983e+000	-7.4700771220e-001
 2.2714042223e+000	 3.0464278850e+000	-7.2395671321e-001
 2.2399144442e+000	 3.0696552384e+000	-6.9248645794e-001
 2.2082126082e+000	 3.0925389370e+000	-6.5245764315e-001
 2.1763042991e+000	 3.1150761784e+000	-6.0375378060e-001
 2.1441951483e+000	 3.1372642805e+000	-6.0078319736e-001
 2.1118908310e+000	 3.1591006818e+000	-6.3647076153e-001
 2.0793970629e+000	 3.1805829426e+000	-6.6790435011e-001
 2.4108903335e+000	 2.9695509425e+000	-7.5475606579e-001
 2.3801023570e+000	 2.9942841833e+000	-7.4879759362e-001
 2.3490789771e+000	 3.0186839780e+000	-7.3483702012e-001
 2.3178255949e+000	 3.0427470338e+000	-7.1265216368e-001
 2.2863476711e+000	 3.0664701738e+000	-6.8204378993e-001
 2.2546507234e+000	 3.0898503386e+000	-6.4283581595e-001
 2.2227403228e+000	 3.1128845879e+000	-5.9487545857e-001
 2.1906220906e+000	 3.1355701007e+000	-5.8333226707e-001
 2.1583016954e+000	 3.1579041771e+000	-6.1820703421e-001
 2.1257848497e+000	 3.1798842389e+000	-6.4913757131e-001
 2.0930773067e+000	 3.2015078304e+000	-6.7584415846e-001
 2.4266477866e+000	 2.9889597722e+000	-7.4338455940e-001
 2.3956585816e+000	 3.0138546681e+000	-7.3006308246e-001
 2.3644324345e+000	 3.0384139387e+000	-7.0859544759e-001
 2.3329747818e+000	 3.0626342693e+000	-6.7874441742e-001
 2.3012911200e+000	 3.0865124625e+000	-6.4029624677e-001
 2.2693870027e+000	 3.1100454389e+000	-5.9306090221e-001
 2.2372680373e+000	 3.1332302388e+000	-5.7070983898e-001
 2.2049398820e+000	 3.1560640229e+000	-6.0419894240e-001
 2.1724082424e+000	 3.1785440737e+000	-6.3409832627e-001
 2.1396788683e+000	 3.2006677960e+000	-6.6010720028e-001
 2.1067575505e+000	 3.2224327182e+000	-6.8192527928e-001
 2.4424052398e+000	 3.0083686019e+000	-7.3341561762e-001
 2.4112148061e+000	 3.0334251530e+000	-7.1247576440e-001
 2.3797858918e+000	 3.0581438993e+000	-6.8323815462e-001
 2.3481239687e+000	 3.0825215048e+000	-6.4545056598e-001
 2.3162345688e+000	 3.1065547512e+000	-5.9888482361e-001
 2.2841232819e+000	 3.1302405392e+000	-5.6388848358e-001
 2.2517957518e+000	 3.1535758897e+000	-5.9535460146e-001
 2.2192576734e+000	 3.1765579451e+000	-6.2362938369e-001
 2.1865147894e+000	 3.1991839703e+000	-6.4839194519e-001
 2.1535728869e+000	 3.2214513531e+000	-6.6932097162e-001
 2.1204377944e+000	 3.2433576059e+000	-6.8609553579e-001
 2.4581626929e+000	 3.0277774315e+000	-7.2500059514e-001
 2.4267710307e+000	 3.0529956378e+000	-6.9619171173e-001
 2.3951393492e+000	 3.0778738600e+000	-6.5892586924e-001
 2.3632731556e+000	 3.1024087403e+000	-6.1293592873e-001
 2.3311780176e+000	 3.1265970399e+000	-5.6391492984e-001
 2.2988595611e+000	 3.1504356394e+000	-5.9265696035e-001
 2.2663234664e+000	 3.1739215406e+000	-6.1864888351e-001
 2.2335754649e+000	 3.1970518674e+000	-6.4155079750e-001
 2.2006213364e+000	 3.2198238668e+000	-6.6102137285e-001
 2.1674669055e+000	 3.2422349102e+000	-6.7671869514e-001
 2.1341180382e+000	 3.2642824937e+000	-6.8830111416e-001
 2.4739201461e+000	 3.0471862612e+000	-7.1829045277e-001
 2.4423272552e+000	 3.0725661227e+000	-6.8136648504e-001
 2.4104928066e+000	 3.0976038206e+000	-6.3581868955e-001
 2.3784223425e+000	 3.1222959759e+000	-5.8136507648e-001
 2.3461214665e+000	 3.1466393286e+000	-5.9716409451e-001
 2.3135958404e+000	 3.1706307397e+000	-6.2015080087e-001
 2.2808511809e+000	 3.1942671915e+000	-6.4051256673e-001
 2.2478932563e+000	 3.2175457896e+000	-6.5788916459e-001
 2.2147278835e+000	 3.2404637634e+000	-6.7191874568e-001
 2.1813609242e+000	 3.2630184674e+000	-6.8223871543e-001
 2.1477982820e+000	 3.2852073815e+000	-6.8848661563e-001
 2.4896775993e+000	 3.0665950909e+000	-7.1343576988e-001
 2.4578834798e+000	 3.0921366076e+000	-6.6815514943e-001
 2.4258462639e+000	 3.1173337812e+000	-6.1407610364e-001
 2.3935715294e+000	 3.1421832114e+000	-6.1000928567e-001
 2.3610649153e+000	 3.1666816174e+000	-6.2920519814e-001
 2.3283321196e+000	 3.1908258399e+000	-6.4628289248e-001
 2.2953788954e+000	 3.2146128424e+000	-6.6086446152e-001
 2.2622110478e+000	 3.2380397118e+000	-6.7256927872e-001
 2.2288344305e+000	 3.2611036600e+000	-6.8101489720e-001
 2.1952549428e+000	 3.2838020245e+000	-6.8581795823e-001
 2.1614785259e+000	 3.3061322693e+000	-6.8659510666e-001
 2.5054350524e+000	 3.0860039206e+000	-7.0436315304e-001
 2.4734397043e+000	 3.1117070924e+000	-6.5671229006e-001
 2.4411997213e+000	 3.1370637419e+000	-6.3240088582e-001
 2.4087207162e+000	 3.1620704469e+000	-6.4695826198e-001
 2.3760083641e+000	 3.1867239061e+000	-6.5994445553e-001
 2.3430683989e+000	 3.2110209402e+000	-6.7096519707e-001
 2.3099066099e+000	 3.2349584933e+000	-6.7962234080e-001
 2.2765288392e+000	 3.2585336340e+000	-6.8551478399e-001
 2.2429409775e+000	 3.2817435566e+000	-6.8823939901e-001
 2.2091489614e+000	 3.3045855816e+000	-6.8739197507e-001
 2.1751587697e+000	 3.3270571571e+000	-6.8256816724e-001
 2.5211925056e+000	 3.1054127503e+000	-6.8477403550e-001
 2.4889959289e+000	 3.1312775773e+000	-6.6562196339e-001
 2.4565531787e+000	 3.1567937025e+000	-6.7463212266e-001
 2.4238699031e+000	 3.1819576824e+000	-6.8265697177e-001
 2.3909518130e+000	 3.2067661948e+000	-6.8928729322e-001
 2.3578046781e+000	 3.2312160404e+000	-6.9410877996e-001
 2.3244343245e+000	 3.2553041442e+000	-6.9670297241e-001
 2.2908466307e+000	 3.2790275563e+000	-6.9664821077e-001
 2.2570475246e+000	 3.3023834532e+000	-6.9352060021e-001
 2.2230429801e+000	 3.3253691387e+000	-6.8689498620e-001
 2.1888390135e+000	 3.3479820449e+000	-6.7634593727e-001
 2.0520365752e+000	 3.1387331671e+000	-6.4664886522e-001
 2.0197890756e+000	 3.1595809991e+000	-6.7576296374e-001
 1.9873660057e+000	 3.1800748984e+000	-7.0085862062e-001
 1.9547731064e+000	 3.2002128214e+000	-7.2144902530e-001
 1.9220161459e+000	 3.2199928470e+000	-7.3705247495e-001
 1.8891009162e+000	 3.2394131765e+000	-7.4719330433e-001
 1.8560332301e+000	 3.2584721341e+000	-7.2971023413e-001
 1.8228189179e+000	 3.2771681667e+000	-6.9438387114e-001
 1.7894638242e+000	 3.2954998440e+000	-6.5825141675e-001
 1.7559738049e+000	 3.3134658586e+000	-6.2093206685e-001
 1.7223547240e+000	 3.3310650256e+000	-5.8206345177e-001
 2.0657168190e+000	 3.1596580548e+000	-6.5815633974e-001
 2.0332543361e+000	 3.1806448724e+000	-6.7790370211e-001
 2.0006151124e+000	 3.2012753977e+000	-6.9425573017e-001
 1.9678049271e+000	 3.2215475736e+000	-7.0675107645e-001
 1.9348295869e+000	 3.2414594660e+000	-7.1493257858e-001
 1.9016949223e+000	 3.2610092644e+000	-7.1834818093e-001
 1.8684067849e+000	 3.2801952817e+000	-7.0965149601e-001
 1.8349710440e+000	 3.2990159544e+000	-6.7086123868e-001
 1.8013935830e+000	 3.3174698430e+000	-6.3197980203e-001
 1.7676802970e+000	 3.3355556310e+000	-5.9265791555e-001
 1.7338370888e+000	 3.3532721258e+000	-5.5256418323e-001
 2.0793970629e+000	 3.1805829426e+000	-6.6790435011e-001
 2.0467195966e+000	 3.2017087458e+000	-6.7915302323e-001
 2.0138642191e+000	 3.2224758970e+000	-6.8762305671e-001
 1.9808367478e+000	 3.2428823257e+000	-6.9287803449e-001
 1.9476430278e+000	 3.2629260850e+000	-6.9448480786e-001
 1.9142889284e+000	 3.2826053522e+000	-6.9201440944e-001
 1.8807803398e+000	 3.3019184292e+000	-6.8504295862e-001
 1.8471231701e+000	 3.3208637422e+000	-6.4897070044e-001
 1.8133233418e+000	 3.3394398419e+000	-6.0797354066e-001
 1.7793867890e+000	 3.3576454034e+000	-5.6726528329e-001
 1.7453194536e+000	 3.3754792260e+000	-5.2654538078e-001
 2.0930773067e+000	 3.2015078304e+000	-6.7584415846e-001
 2.0601848571e+000	 3.2227726191e+000	-6.7944860141e-001
 2.0271133258e+000	 3.2436763964e+000	-6.8088490895e-001
 1.9938685685e+000	 3.2642170778e+000	-6.7974106931e-001
 1.9604564688e+000	 3.2843927040e+000	-6.7560742506e-001
 1.9268829345e+000	 3.3042014401e+000	-6.6807757991e-001
 1.8931538947e+000	 3.3236415768e+000	-6.5674929860e-001
 1.8592752962e+000	 3.3427115300e+000	-6.2884882672e-001
 1.8252531007e+000	 3.3614098409e+000	-5.8635322313e-001
 1.7910932810e+000	 3.3797351758e+000	-5.4485891122e-001
 1.7568018184e+000	 3.3976863261e+000	-5.0409607399e-001
 2.1067575505e+000	 3.2224327182e+000	-6.8192527928e-001
 2.0736501176e+000	 3.2438364924e+000	-6.7872676105e-001
 2.0403624325e+000	 3.2648768957e+000	-6.7396463882e-001
 2.0069003892e+000	 3.2855518300e+000	-6.6725078243e-001
 1.9732699098e+000	 3.3058593229e+000	-6.5819850749e-001
 1.9394769406e+000	 3.3257975279e+000	-6.4642347579e-001
 1.9055274495e+000	 3.3453647243e+000	-6.3154458995e-001
 1.8714274223e+000	 3.3645593178e+000	-6.1063312198e-001
 1.8371828595e+000	 3.3833798398e+000	-5.6724073625e-001
 1.8027997731e+000	 3.4018249482e+000	-5.2554519323e-001
 1.7682841833e+000	 3.4198934263e+000	-4.8530729574e-001
 2.1204377944e+000	 3.2433576059e+000	-6.8609553579e-001
 2.0871153781e+000	 3.2649003657e+000	-6.7692252018e-001
 2.0536115392e+000	 3.2860773950e+000	-6.6678467233e-001
 2.0199322099e+000	 3.3068865821e+000	-6.5531722524e-001
 1.9860833507e+000	 3.3273259419e+000	-6.4215595347e-001
 1.9520709467e+000	 3.3473936158e+000	-6.2693806764e-001
 1.9179010044e+000	 3.3670878719e+000	-6.0930310457e-001
 1.8835795485e+000	 3.3864071056e+000	-5.8889381090e-001
 1.8491126183e+000	 3.4053498388e+000	-5.5075922132e-001
 1.8145062651e+000	 3.4239147206e+000	-5.0943212262e-001
 1.7797665481e+000	 3.4421005265e+000	-4.7027201766e-001
 2.1341180382e+000	 3.2642824937e+000	-6.8830111416e-001
 2.1005806386e+000	 3.2859642391e+000	-6.7396963234e-001
 2.0668606459e+000	 3.3072778943e+000	-6.5926653927e-001
 2.0329640306e+000	 3.3282213343e+000	-6.4384991674e-001
 1.9988967917e+000	 3.3487925609e+000	-6.2737748805e-001
 1.9646649528e+000	 3.3689897036e+000	-6.0950750717e-001
 1.9302745593e+000	 3.3888110195e+000	-5.8989964501e-001
 1.8957316746e+000	 3.4082548933e+000	-5.6821587037e-001
 1.8610423772e+000	 3.4273198378e+000	-5.3703303390e-001
 1.8262127571e+000	 3.4460044930e+000	-4.9662924088e-001
 1.7912489129e+000	 3.4643076266e+000	-4.5908508794e-001
 2.1477982820e+000	 3.2852073815e+000	-6.8848661563e-001
 2.1140458991e+000	 3.3070281124e+000	-6.6980062683e-001
 2.0801097526e+000	 3.3284783936e+000	-6.5133090171e-001
 2.0459958514e+000	 3.3495560864e+000	-6.3275786041e-001
 2.0117102327e+000	 3.3702591799e+000	-6.1376066850e-001
 1.9772589590e+000	 3.3905857914e+000	-5.9401812148e-001
 1.9426481142e+000	 3.4105341670e+000	-5.7320952756e-001
 1.9078838007e+000	 3.4301026811e+000	-5.5101558670e-001
 1.8729721360e+000	 3.4492898367e+000	-5.2618770517e-001
 1.8379192492e+000	 3.4680942654e+000	-4.8724758834e-001
 1.8027312778e+000	 3.4865147268e+000	-4.5184317160e-001
 2.1614785259e+000	 3.3061322693e+000	-6.8659510666e-001
 2.1275111596e+000	 3.3280919857e+000	-6.6434684748e-001
 2.0933588593e+000	 3.3496788930e+000	-6.4289758151e-001
 2.0590276721e+000	 3.3708908386e+000	-6.2194956057e-001
 2.0245236737e+000	 3.3917257989e+000	-6.0120288970e-001
 1.9898529651e+000	 3.4121818793e+000	-5.8035640746e-001
 1.9550216690e+000	 3.4322573146e+000	-5.5910856596e-001
 1.9200359268e+000	 3.4519504689e+000	-5.3715830840e-001
 1.8849018948e+000	 3.4712598357e+000	-5.1420594135e-001
 1.8496257412e+000	 3.4901840378e+000	-4.8139965675e-001
 1.8142136426e+000	 3.5087218270e+000	-4.4864469299e-001
 2.1751587697e+000	 3.3270571571e+000	-6.8256816724e-001
 2.1409764201e+000	 3.3491558591e+000	-6.5753848991e-001
 2.1066079660e+000	 3.3708793923e+000	-6.3388558670e-001
 2.0720594928e+000	 3.3922255907e+000	-6.1133303807e-001
 2.0373371146e+000	 3.4131924178e+000	-5.8960138917e-001
 2.0024469712e+000	 3.4337779671e+000	-5.6840902650e-001
 1.9673952239e+000	 3.4539804622e+000	-5.4747305579e-001
 1.9321880529e+000	 3.4737982567e+000	-5.2651017854e-001
 1.8968316537e+000	 3.4932298346e+000	-5.0523756478e-001
 1.8613322332e+000	 3.5122738102e+000	-4.7919934368e-001
 1.8256960074e+000	 3.5309289271e+000	-4.4958978045e-001
 2.1888390135e+000	 3.3479820449e+000	-6.7634593727e-001
 2.1544416806e+000	 3.3702197324e+000	-6.4930463741e-001
 2.1198570727e+000	 3.3920798916e+000	-6.2421313692e-001
 2.0850913135e+000	 3.4135603429e+000	-6.0081584538e-001
 2.0501505556e+000	 3.4346590368e+000	-5.7885325201e-001
 2.0150409773e+000	 3.4553740550e+000	-5.5806279933e-001
 1.9797687788e+000	 3.4757036097e+000	-5.3817975939e-001
 1.9443401791e+000	 3.4956460444e+000	-5.1893810995e-001
 1.9087614125e+000	 3.5151998336e+000	-5.0007140817e-001
 1.8730387253e+000	 3.5343635826e+000	-4.8076190852e-001
 1.8371783722e+000	 3.5531360273e+000	-4.5478021306e-001
 1.7223547240e+000	 3.3310650256e+000	-5.8206345177e-001
 1.6886124501e+000	 3.3482962822e+000	-5.2879050863e-001
 1.6547528541e+000	 3.3651586875e+000	-4.8076373400e-001
 1.6207818052e+000	 3.3816514220e+000	-4.3799663653e-001
 1.5867051686e+000	 3.3977737871e+000	-4.0050942981e-001
 1.5525288020e+000	 3.4135252041e+000	-3.6832846363e-001
 1.5182585531e+000	 3.4289052139e+000	-3.4148564025e-001
 1.4839002560e+000	 3.4439134760e+000	-3.2001781809e-001
 1.4494597290e+000	 3.4585497675e+000	-3.0396620484e-001
 1.4149427715e+000	 3.4728139820e+000	-2.9337574239e-001
 1.3803551609e+000	 3.4867061290e+000	-2.8829448554e-001
 1.7338370888e+000	 3.3532721258e+000	-5.5256418323e-001
 1.6998698665e+000	 3.3706182574e+000	-5.0563420223e-001
 1.6657845398e+000	 3.3875930787e+000	-4.6341137385e-001
 1.6315870172e+000	 3.4041957648e+000	-4.2589484999e-001
 1.5972832030e+000	 3.4204256123e+000	-3.9309149375e-001
 1.5628789940e+000	 3.4362820388e+000	-3.6501530257e-001
 1.5283802767e+000	 3.4517645820e+000	-3.4168681496e-001
 1.4937929244e+000	 3.4668728992e+000	-3.2313250319e-001
 1.4591227939e+000	 3.4816067659e+000	-3.0938415400e-001
 1.4243757233e+000	 3.4959660752e+000	-3.0047823984e-001
 1.3895575286e+000	 3.5099508365e+000	-2.9645528266e-001
 1.7453194536e+000	 3.3754792260e+000	-5.2654538078e-001
 1.7111272828e+000	 3.3929402326e+000	-4.8540562715e-001
 1.6768162255e+000	 3.4100274700e+000	-4.4843618847e-001
 1.6423922293e+000	 3.4267401076e+000	-4.1562220342e-001
 1.6078612375e+000	 3.4430774376e+000	-3.8695752919e-001
 1.5732291861e+000	 3.4590388735e+000	-3.6244415601e-001
 1.5385020004e+000	 3.4746239501e+000	-3.4209160393e-001
 1.5036855927e+000	 3.4898323224e+000	-3.2591630392e-001
 1.4687858588e+000	 3.5046637644e+000	-3.1394096585e-001
 1.4338086751e+000	 3.5191181684e+000	-3.0619393548e-001
 1.3987598963e+000	 3.5331955441e+000	-3.0270854291e-001
 1.7568018184e+000	 3.3976863261e+000	-5.0409607399e-001
 1.7223846991e+000	 3.4152622078e+000	-4.6820048862e-001
 1.6878479112e+000	 3.4324618612e+000	-4.3594032669e-001
 1.6531974413e+000	 3.4492844505e+000	-4.0728705601e-001
 1.6184392720e+000	 3.4657292628e+000	-3.8222187145e-001
 1.5835793781e+000	 3.4817957082e+000	-3.6073510042e-001
 1.5486237241e+000	 3.4974833182e+000	-3.4282558914e-001
 1.5135782611e+000	 3.5127917456e+000	-3.2850007179e-001
 1.4784489236e+000	 3.5277207628e+000	-3.1777252516e-001
 1.4432416269e+000	 3.5422702616e+000	-3.1066351104e-001
 1.4079622641e+000	 3.5564402516e+000	-3.0719950877e-001
 1.7682841833e+000	 3.4198934263e+000	-4.8530729574e-001
 1.7336421155e+000	 3.4375841830e+000	-4.5411626213e-001
 1.6988795969e+000	 3.4548962525e+000	-4.2602747836e-001
 1.6640026533e+000	 3.4718287933e+000	-4.0099908272e-001
 1.6290173064e+000	 3.4883810881e+000	-3.7899995042e-001
 1.5939295701e+000	 3.5045525429e+000	-3.6000908975e-001
 1.5587454478e+000	 3.5203426863e+000	-3.4401501722e-001
 1.5234709295e+000	 3.5357511687e+000	-3.3101511435e-001
 1.4881119885e+000	 3.5507777613e+000	-3.2101496851e-001
 1.4526745787e+000	 3.5654223549e+000	-3.1402770019e-001
 1.4171646318e+000	 3.5796849591e+000	-3.1007327927e-001
 1.7797665481e+000	 3.4421005265e+000	-4.7027201766e-001
 1.7448995318e+000	 3.4599061583e+000	-4.4325213630e-001
 1.7099112826e+000	 3.4773306437e+000	-4.1880282470e-001
 1.6748078654e+000	 3.4943731361e+000	-3.9686923185e-001
 1.6395953409e+000	 3.5110329133e+000	-3.7740825529e-001
 1.6042797621e+000	 3.5273093776e+000	-3.6038792716e-001
 1.5688671715e+000	 3.5432020544e+000	-3.4578677799e-001
 1.5333635979e+000	 3.5587105919e+000	-3.3359318047e-001
 1.4977750533e+000	 3.5738347597e+000	-3.2380467611e-001
 1.4621075305e+000	 3.5885744481e+000	-3.1642728686e-001
 1.4263669996e+000	 3.6029296666e+000	-3.1147481465e-001
 1.7912489129e+000	 3.4643076266e+000	-4.5908508794e-001
 1.7561569481e+000	 3.4822281335e+000	-4.3570895801e-001
 1.7209429682e+000	 3.4997650350e+000	-4.1437299041e-001
 1.6856130774e+000	 3.5169174789e+000	-3.9500968424e-001
 1.6501733753e+000	 3.5336847386e+000	-3.7756430053e-001
 1.6146299541e+000	 3.5500662123e+000	-3.6199423778e-001
 1.5789888952e+000	 3.5660614225e+000	-3.4826838381e-001
 1.5432562662e+000	 3.5816700151e+000	-3.3636644617e-001
 1.5074381182e+000	 3.5968917582e+000	-3.2627826399e-001
 1.4715404823e+000	 3.6117265413e+000	-3.1800310361e-001
 1.4355693673e+000	 3.6261743742e+000	-3.1154894079e-001
 1.8027312778e+000	 3.4865147268e+000	-4.5184317160e-001
 1.7674143645e+000	 3.5045501087e+000	-4.3158917957e-001
 1.7319746539e+000	 3.5221994262e+000	-4.1284599778e-001
 1.6964182894e+000	 3.5394618217e+000	-3.9553381402e-001
 1.6607514098e+000	 3.5563365638e+000	-3.7958659330e-001
 1.6249801461e+000	 3.5728230470e+000	-3.6495144253e-001
 1.5891106189e+000	 3.5889207906e+000	-3.5158794980e-001
 1.5531489346e+000	 3.6046294383e+000	-3.3946750104e-001
 1.5171011831e+000	 3.6199487566e+000	-3.2857257654e-001
 1.4809734342e+000	 3.6348786345e+000	-3.1889603010e-001
 1.4447717350e+000	 3.6494190817e+000	-3.1044035351e-001
 1.8142136426e+000	 3.5087218270e+000	-4.4864469299e-001
 1.7786717808e+000	 3.5268720839e+000	-4.3099680790e-001
 1.7430063396e+000	 3.5446338175e+000	-4.1433122241e-001
 1.7072235015e+000	 3.5620061645e+000	-3.9855615080e-001
 1.6713294442e+000	 3.5789883890e+000	-3.8359460203e-001
 1.6353303381e+000	 3.5955798816e+000	-3.6938373296e-001
 1.5992323426e+000	 3.6117801587e+000	-3.5587417476e-001
 1.5630416030e+000	 3.6275888614e+000	-3.4302933515e-001
 1.5267642479e+000	 3.6430057551e+000	-3.3082467922e-001
 1.4904063860e+000	 3.6580307277e+000	-3.1924699161e-001
 1.4539741028e+000	 3.6726637892e+000	-3.0829362264e-001
 1.8256960074e+000	 3.5309289271e+000	-4.4958978045e-001
 1.7899291972e+000	 3.5491940591e+000	-4.3403735566e-001
 1.7540380253e+000	 3.5670682087e+000	-4.1893935069e-001
 1.7180287135e+000	 3.5845505073e+000	-4.0419234340e-001
 1.6819074787e+000	 3.6016402143e+000	-3.8970872613e-001
 1.6456805302e+000	 3.6183367163e+000	-3.7541604698e-001
 1.6093540662e+000	 3.6346395268e+000	-3.6125632276e-001
 1.5729342714e+000	 3.6505482846e+000	-3.4718532643e-001
 1.5364273128e+000	 3.6660627535e+000	-3.3317185167e-001
 1.4998393378e+000	 3.6811828209e+000	-3.1919695756e-001
 1.4631764705e+000	 3.6959084967e+000	-3.0525319605e-001
 1.8371783722e+000	 3.5531360273e+000	-4.5478021306e-001
 1.8011866135e+000	 3.5715160343e+000	-4.4081779422e-001
 1.7650697110e+000	 3.5895026000e+000	-4.2678233881e-001
 1.7288339256e+000	 3.6070948501e+000	-4.1255912483e-001
 1.6924855132e+000	 3.6242920395e+000	-3.9805026698e-001
 1.6560307222e+000	 3.6410935510e+000	-3.8317404558e-001
 1.6194757899e+000	 3.6574988949e+000	-3.6786420557e-001
 1.5828269397e+000	 3.6735077078e+000	-3.5206922861e-001
 1.5460903777e+000	 3.6891197520e+000	-3.3575158097e-001
 1.5092722896e+000	 3.7043349141e+000	-3.1888694020e-001
 1.4723788383e+000	 3.7191532043e+000	-3.0146340341e-001
 1.3803551609e+000	 3.4867061290e+000	-2.8829448554e-001
 1.3457026502e+000	 3.5002263323e+000	-2.9278554480e-001
 1.3109909654e+000	 3.5133748290e+000	-2.8953620046e-001
 1.2762258024e+000	 3.5261519680e+000	-2.7858380731e-001
 1.2414128249e+000	 3.5385582090e+000	-2.6024731242e-001
 1.2065576614e+000	 3.5505941207e+000	-2.3902787809e-001
 1.1716659033e+000	 3.5622603795e+000	-2.1662232626e-001
 1.1367431019e+000	 3.5735577679e+000	-1.9324124869e-001
 1.1017947664e+000	 3.5844871729e+000	-1.6910272369e-001
 1.0668263616e+000	 3.5950495844e+000	-1.4443049550e-001
 1.0318433056e+000	 3.6052460932e+000	-1.1945218367e-001
 1.3895575286e+000	 3.5099508365e+000	-2.9645528266e-001
 1.3546740012e+000	 3.5235611745e+000	-2.9944732996e-001
 1.3197309052e+000	 3.5367973278e+000	-2.9506146126e-001
 1.2847339744e+000	 3.5496596478e+000	-2.8333825943e-001
 1.2496889104e+000	 3.5621485970e+000	-2.6433946498e-001
 1.2146013792e+000	 3.5742647481e+000	-2.4222629860e-001
 1.1794770093e+000	 3.5860087820e+000	-2.1933592523e-001
 1.1443213892e+000	 3.5973814863e+000	-1.9589638187e-001
 1.1091400648e+000	 3.6083837541e+000	-1.7214299096e-001
 1.0739385374e+000	 3.6190165816e+000	-1.4831649388e-001
 1.0387222610e+000	 3.6292810672e+000	-1.2466121547e-001
 1.3987598963e+000	 3.5331955441e+000	-3.0270854291e-001
 1.3636453522e+000	 3.5468960167e+000	-3.0403475451e-001
 1.3284708449e+000	 3.5602198267e+000	-2.9833735235e-001
 1.2932421464e+000	 3.5731673276e+000	-2.8566041866e-001
 1.2579649959e+000	 3.5857389851e+000	-2.6606066350e-001
 1.2226450969e+000	 3.5979353756e+000	-2.4245844845e-001
 1.1872881153e+000	 3.6097571845e+000	-2.1859765931e-001
 1.1518996766e+000	 3.6212052048e+000	-1.9460466627e-001
 1.1164853633e+000	 3.6322803352e+000	-1.7073274119e-001
 1.0810507131e+000	 3.6429835788e+000	-1.4724032981e-001
 1.0456012164e+000	 3.6533160411e+000	-1.2438917043e-001
 1.4079622641e+000	 3.5564402516e+000	-3.0719950877e-001
 1.3726167032e+000	 3.5702308590e+000	-3.0669054957e-001
 1.3372107847e+000	 3.5836423255e+000	-2.9950412841e-001
 1.3017503184e+000	 3.5966750074e+000	-2.8568809995e-001
 1.2662410814e+000	 3.6093293732e+000	-2.6530285090e-001
 1.2306888146e+000	 3.6216060031e+000	-2.4004696655e-001
 1.1950992213e+000	 3.6335055871e+000	-2.1472254671e-001
 1.1594779639e+000	 3.6450289232e+000	-1.8967349015e-001
 1.1238306617e+000	 3.6561769164e+000	-1.6517172960e-001
 1.0881628888e+000	 3.6669505761e+000	-1.4149412860e-001
 1.0524801718e+000	 3.6773510151e+000	-1.1892055314e-001
 1.4171646318e+000	 3.5796849591e+000	-3.1007327927e-001
 1.3815880542e+000	 3.5935657012e+000	-3.0755728957e-001
 1.3459507245e+000	 3.6070648244e+000	-2.9870187174e-001
 1.3102584905e+000	 3.6201826871e+000	-2.8355892781e-001
 1.2745171669e+000	 3.6329197612e+000	-2.6219280146e-001
 1.2387325324e+000	 3.6452766306e+000	-2.3531425804e-001
 1.2029103274e+000	 3.6572539896e+000	-2.0802534673e-001
 1.1670562512e+000	 3.6688526417e+000	-1.8140995542e-001
 1.1311759602e+000	 3.6800734975e+000	-1.5575939533e-001
 1.0952750646e+000	 3.6909175733e+000	-1.3136966744e-001
 1.0593591271e+000	 3.7013859890e+000	-1.0853948587e-001
 1.4263669996e+000	 3.6029296666e+000	-3.1147481465e-001
 1.3905594052e+000	 3.6169005434e+000	-3.0677739734e-001
 1.3546906642e+000	 3.6304873233e+000	-2.9607049786e-001
 1.3187666625e+000	 3.6436903669e+000	-2.7941034239e-001
 1.2827932524e+000	 3.6565101493e+000	-2.5686551387e-001
 1.2467762501e+000	 3.6689472580e+000	-2.2858250184e-001
 1.2107214334e+000	 3.6810023921e+000	-1.9882056813e-001
 1.1746345386e+000	 3.6926763602e+000	-1.7012088682e-001
 1.1385212586e+000	 3.7039700787e+000	-1.4279487160e-001
 1.1023872403e+000	 3.7148845705e+000	-1.1715838670e-001
 1.0662380825e+000	 3.7254209630e+000	-9.3529720987e-002
 1.4355693673e+000	 3.6261743742e+000	-3.1154894079e-001
 1.3995307562e+000	 3.6402353856e+000	-3.0449314890e-001
 1.3634306040e+000	 3.6539098221e+000	-2.9174976078e-001
 1.3272748345e+000	 3.6671980467e+000	-2.7337960548e-001
 1.2910693379e+000	 3.6801005373e+000	-2.4945578922e-001
 1.2548199679e+000	 3.6926178855e+000	-2.2006281687e-001
 1.2185325394e+000	 3.7047507947e+000	-1.8742247711e-001
 1.1822128259e+000	 3.7165000786e+000	-1.5611284086e-001
 1.1458665570e+000	 3.7278666598e+000	-1.2657699552e-001
 1.1094994161e+000	 3.7388515678e+000	-9.9151400676e-002
 1.0731170379e+000	 3.7494559369e+000	-7.4174652749e-002
 1.4447717350e+000	 3.6494190817e+000	-3.1044035351e-001
 1.4085021072e+000	 3.6635702278e+000	-3.0084667818e-001
 1.3721705438e+000	 3.6773323210e+000	-2.8587925822e-001
 1.3357830065e+000	 3.6907057265e+000	-2.6560380610e-001
 1.2993454234e+000	 3.7036909254e+000	-2.4009823731e-001
 1.2628636856e+000	 3.7162885130e+000	-2.0945177506e-001
 1.2263436454e+000	 3.7284991972e+000	-1.7414510509e-001
 1.1897911133e+000	 3.7403237971e+000	-1.3969211434e-001
 1.1532118555e+000	 3.7517632410e+000	-1.0941507479e-001
 1.1166115918e+000	 3.7628185650e+000	-9.1491074757e-002
 1.0799959932e+000	 3.7734909109e+000	-7.4175903180e-002
 1.4539741028e+000	 3.6726637892e+000	-3.0829362264e-001
 1.4174734582e+000	 3.6869050700e+000	-2.9597998152e-001
 1.3809104835e+000	 3.7007548198e+000	-2.7859843651e-001
 1.3442911785e+000	 3.7142134063e+000	-2.5621986603e-001
 1.3076215089e+000	 3.7272813135e+000	-2.2892728271e-001
 1.2709074034e+000	 3.7399591404e+000	-1.9681492087e-001
 1.2341547515e+000	 3.7522475997e+000	-1.6210484837e-001
 1.1973694006e+000	 3.7641475155e+000	-1.3884744110e-001
 1.1605571539e+000	 3.7756598221e+000	-1.1713278985e-001
 1.1237237676e+000	 3.7867855622e+000	-9.6550067719e-002
 1.0868749486e+000	 3.7975258849e+000	-7.6719177010e-002
 1.4631764705e+000	 3.6959084967e+000	-3.0525319605e-001
 1.4264448092e+000	 3.7102399122e+000	-2.9003492198e-001
 1.3896504233e+000	 3.7241773187e+000	-2.7004659537e-001
 1.3527993506e+000	 3.7377210861e+000	-2.4536454503e-001
 1.3158975944e+000	 3.7508717015e+000	-2.1714669829e-001
 1.2789511211e+000	 3.7636297679e+000	-1.9952430402e-001
 1.2419658575e+000	 3.7759960022e+000	-1.7692771141e-001
 1.2049476880e+000	 3.7879712340e+000	-1.5084329489e-001
 1.1679024524e+000	 3.7995564033e+000	-1.2648359898e-001
 1.1308359433e+000	 3.8107525595e+000	-1.0341363237e-001
 1.0937539040e+000	 3.8215608588e+000	-8.1229678109e-002
 1.4723788383e+000	 3.7191532043e+000	-3.0146340341e-001
 1.4354161602e+000	 3.7335747544e+000	-2.8315323350e-001
 1.3983903631e+000	 3.7475998176e+000	-2.6036289248e-001
 1.3613075226e+000	 3.7612287659e+000	-2.4675531613e-001
 1.3241736799e+000	 3.7744620896e+000	-2.3250777274e-001
 1.2869948389e+000	 3.7873003954e+000	-2.1463370668e-001
 1.2497769635e+000	 3.7997444048e+000	-1.9288988439e-001
 1.2125259753e+000	 3.8117949524e+000	-1.6417242733e-001
 1.1752477508e+000	 3.8234529844e+000	-1.3735362133e-001
 1.1379481191e+000	 3.8347195567e+000	-1.1197392435e-001
 1.1006328594e+000	 3.8455958328e+000	-8.7605628307e-002
 1.0318433056e+000	 3.6052460932e+000	-1.1945218367e-001
 9.9685096773e-001	 3.6150778896e+000	-9.4763102687e-002
 9.6185466627e-001	 3.6245462614e+000	-6.7402598957e-002
 9.2685966671e-001	 3.6336525918e+000	-3.7649039872e-002
 8.9187117966e-001	 3.6423983581e+000	-5.7796551578e-003
 8.5689435901e-001	 3.6507851289e+000	 2.7931121689e-002
 8.2193430012e-001	 3.6588145630e+000	 6.3213258777e-002
 7.8699603810e-001	 3.6664884066e+000	 9.9802674829e-002
 7.5208454618e-001	 3.6738084919e+000	 1.3744272887e-001
 7.1720473409e-001	 3.6807767345e+000	 1.7588564796e-001
 6.8236144655e-001	 3.6873951316e+000	 2.1489389060e-001
 1.0387222610e+000	 3.6292810672e+000	-1.2466121547e-001
 1.0034966409e+000	 3.6391784089e+000	-1.0255131213e-001
 9.6826703071e-001	 3.6487099031e+000	-7.8527072373e-002
 9.3303873116e-001	 3.6578769425e+000	-5.2883843159e-002
 8.9781698753e-001	 3.6666810138e+000	-2.5915141450e-002
 8.6260698807e-001	 3.6751236964e+000	 2.0890391705e-003
 8.2741386212e-001	 3.6832066601e+000	 3.0843866822e-002
 7.9224267836e-001	 3.6909316627e+000	 6.0071251326e-002
 7.5709844316e-001	 3.6983005485e+000	 8.9501362905e-002
 7.2198609898e-001	 3.7053152461e+000	 1.1887408690e-001
 6.8691052287e-001	 3.7119777658e+000	 1.4794041209e-001
 1.0456012164e+000	 3.6533160411e+000	-1.2438917043e-001
 1.0101423140e+000	 3.6632789282e+000	-1.0441343953e-001
 9.7467939516e-001	 3.6728735449e+000	-8.3271134058e-002
 9.3921779561e-001	 3.6821012931e+000	-6.1275278575e-002
 9.0376279540e-001	 3.6909636695e+000	-3.8736374117e-002
 8.6831961714e-001	 3.6994622640e+000	-1.5960668924e-002
 8.3289342413e-001	 3.7075987571e+000	 6.7515138139e-003
 7.9748931862e-001	 3.7153749187e+000	 2.9107387920e-002
 7.6211234014e-001	 3.7227926051e+000	 5.0823252881e-002
 7.2676746388e-001	 3.7298537576e+000	 7.1625976457e-002
 6.9145959918e-001	 3.7365604000e+000	 9.1254408804e-002
 1.0524801718e+000	 3.6773510151e+000	-1.1892055314e-001
 1.0167879871e+000	 3.6873794474e+000	-1.0062480618e-001
 9.8109175960e-001	 3.6970371866e+000	-8.1901011344e-002
 9.4539686005e-001	 3.7063256437e+000	-6.3080574918e-002
 9.0970860326e-001	 3.7152463252e+000	-4.4491684781e-002
 8.7403224620e-001	 3.7238008315e+000	-2.6457544236e-002
 8.3837298613e-001	 3.7319908542e+000	-9.2946648067e-003
 8.0273595887e-001	 3.7398181748e+000	 6.6887786651e-003
 7.6712623712e-001	 3.7472846618e+000	 2.1194527564e-002
 7.3154882878e-001	 3.7543922692e+000	 4.2526097617e-002
 6.9600867549e-001	 3.7611430342e+000	 7.0870057678e-002
 1.0593591271e+000	 3.7013859890e+000	-1.0853948587e-001
 1.0234336602e+000	 3.7114799667e+000	-9.1460355691e-002
 9.8750412404e-001	 3.7212008284e+000	-7.4682554588e-002
 9.5157592450e-001	 3.7305499943e+000	-5.8556580807e-002
 9.1565441113e-001	 3.7395289810e+000	-4.3429017832e-002
 8.7974487526e-001	 3.7481393990e+000	-2.9640730296e-002
 8.4385254813e-001	 3.7563829513e+000	-1.3096801265e-002
 8.0798259913e-001	 3.7642614308e+000	 6.8402870315e-003
 7.7214013409e-001	 3.7717767184e+000	 2.9382354921e-002
 7.3633019367e-001	 3.7789307808e+000	 5.4480744089e-002
 7.0055775180e-001	 3.7857256684e+000	 8.2054569311e-002
 1.0662380825e+000	 3.7254209630e+000	-9.3529720987e-002
 1.0300793333e+000	 3.7355804860e+000	-7.7194666191e-002
 9.9391648849e-001	 3.7453644701e+000	-6.1881249333e-002
 9.5775498894e-001	 3.7547743449e+000	-4.9142430339e-002
 9.2160021899e-001	 3.7638116367e+000	-3.6270235229e-002
 8.8545750432e-001	 3.7724779665e+000	-2.1145726569e-002
 8.4933211013e-001	 3.7807750484e+000	-3.7025890853e-003
 8.1322923938e-001	 3.7887046868e+000	 1.6092703154e-002
 7.7715403107e-001	 3.7962687750e+000	 3.8240823739e-002
 7.4111155856e-001	 3.8034692923e+000	 6.2709609111e-002
 7.0510682811e-001	 3.8103083026e+000	 8.9434150318e-002
 1.0731170379e+000	 3.7494559369e+000	-7.4174652749e-002
 1.0367250065e+000	 3.7596810052e+000	-6.5328380000e-002
 1.0003288529e+000	 3.7695281119e+000	-5.5445022005e-002
 9.6393405339e-001	 3.7789986955e+000	-4.3868279613e-002
 9.2754602686e-001	 3.7880942924e+000	-3.0447701629e-002
 8.9117013338e-001	 3.7968165341e+000	-1.5065684889e-002
 8.5481167213e-001	 3.8051671455e+000	 2.3622763591e-003
 8.1847587964e-001	 3.8131479429e+000	 2.1887423698e-002
 7.8216792804e-001	 3.8207608316e+000	 4.3527649184e-002
 7.4589292346e-001	 3.8280078039e+000	 6.7267489930e-002
 7.0965590442e-001	 3.8348909368e+000	 9.3058201024e-002
 1.0799959932e+000	 3.7734909109e+000	-7.4175903180e-002
 1.0433706796e+000	 3.7837815245e+000	-6.4482624161e-002
 1.0067412174e+000	 3.7936917536e+000	-5.3614269187e-002
 9.7011311783e-001	 3.8032230461e+000	-4.1368091354e-002
 9.3349183472e-001	 3.8123769481e+000	-2.7574273379e-002
 8.9688276244e-001	 3.8211551016e+000	-1.2096288460e-002
 8.6029123413e-001	 3.8295592426e+000	 5.1688242720e-003
 8.2372251989e-001	 3.8375911989e+000	 2.4290268724e-002
 7.8718182501e-001	 3.8452528882e+000	 4.5303384001e-002
 7.5067428835e-001	 3.8525463155e+000	 6.8209618306e-002
 7.1420498073e-001	 3.8594735710e+000	 9.2976582956e-002
 1.0868749486e+000	 3.7975258849e+000	-7.6719177010e-002
 1.0500163527e+000	 3.8078820438e+000	-6.5924511611e-002
 1.0131535818e+000	 3.8178553953e+000	-5.4277492617e-002
 9.7629218228e-001	 3.8274473967e+000	-4.1555270086e-002
 9.3943764258e-001	 3.8366596038e+000	-2.7568355771e-002
 9.0259539150e-001	 3.8454936691e+000	-1.2161012054e-002
 8.6577079613e-001	 3.8539513397e+000	 4.7884463560e-003
 8.2896916014e-001	 3.8620344550e+000	 2.3367436964e-002
 7.9219572198e-001	 3.8697449448e+000	 4.3628979043e-002
 7.5545565324e-001	 3.8770848270e+000	 6.5591646762e-002
 7.1875405704e-001	 3.8840562052e+000	 8.9239604247e-002
 1.0937539040e+000	 3.8215608588e+000	-8.1229678109e-002
 1.0566620258e+000	 3.8319825630e+000	-6.9557349177e-002
 1.0195659463e+000	 3.8420190371e+000	-5.7342848833e-002
 9.8247124672e-001	 3.8516717474e+000	-4.4342896960e-002
 9.4538345045e-001	 3.8609422596e+000	-3.0348024726e-002
 9.0830802055e-001	 3.8698322366e+000	-1.5182991820e-002
 8.7125035813e-001	 3.8783434368e+000	 1.2928854130e-003
 8.3421580039e-001	 3.8864777110e+000	 1.9185493915e-002
 7.9720961895e-001	 3.8942370014e+000	 3.8565770748e-002
 7.6023701813e-001	 3.9016233386e+000	 5.9469635351e-002
 7.2330313334e-001	 3.9086388394e+000	 8.1898005592e-002
 1.1006328594e+000	 3.8455958328e+000	-8.7605628307e-002
 1.0633076989e+000	 3.8560830823e+000	-7.5284132488e-002
 1.0259783107e+000	 3.8661826788e+000	-6.2718183746e-002
 9.8865031116e-001	 3.8758960980e+000	-4.9643739866e-002
 9.5132925831e-001	 3.8852249153e+000	-3.5831037089e-002
 9.1402064961e-001	 3.8941708042e+000	-2.1085035862e-002
 8.7672992013e-001	 3.9027355338e+000	-5.2457756273e-003
 8.3946244064e-001	 3.9109209671e+000	 1.1811360379e-002
 8.0222351592e-001	 3.9187290581e+000	 3.0175469092e-002
 7.6501838302e-001	 3.9261618501e+000	 4.9900038924e-002
 7.2785220965e-001	 3.9332214737e+000	 7.1002946731e-002
 6.8236144655e-001	 3.6873951316e+000	 2.1489389060e-001
 6.4755946190e-001	 3.6936657595e+000	 7.4226864458e-002
 6.1280349065e-001	 3.6995907722e+000	 7.5880996870e-003
 5.7809817425e-001	 3.7051723983e+000	 7.6120949779e-002
 5.4344808385e-001	 3.7104129393e+000	 1.3215509905e-001
 5.0885771918e-001	 3.7153147675e+000	 1.7719833893e-001
 4.7433150743e-001	 3.7198803235e+000	 2.1276224273e-001
 4.3987380232e-001	 3.7241121140e+000	 2.4035717273e-001
 4.0548888310e-001	 3.7280127100e+000	 2.6148745479e-001
 3.7118095373e-001	 3.7315847437e+000	 2.7764672760e-001
 3.3695414212e-001	 3.7348309073e+000	 2.9031347214e-001
 6.8691052287e-001	 3.7119777658e+000	 1.4794041209e-001
 6.5187652498e-001	 3.7182901979e+000	 1.5228233215e-002
 6.1688884725e-001	 3.7242547107e+000	-7.4949466555e-002
 5.8195216208e-001	 3.7298735476e+000	-1.6630113071e-002
 5.4707107108e-001	 3.7351490256e+000	 2.8061516374e-002
 5.1225010397e-001	 3.7400835326e+000	 6.0681585084e-002
 4.7749371748e-001	 3.7446795256e+000	 8.2790563437e-002
 4.4280629434e-001	 3.7489395281e+000	 9.5948108982e-002
 4.0819214232e-001	 3.7528661280e+000	 1.2128865293e-001
 3.7365549343e-001	 3.7564619753e+000	 1.4942228255e-001
 3.3920050307e-001	 3.7597297800e+000	 1.7482911431e-001
 6.9145959918e-001	 3.7365604000e+000	 9.1254408804e-002
 6.5619358806e-001	 3.7429146363e+000	-3.3823174601e-002
 6.2097420386e-001	 3.7489186492e+000	-1.4375653190e-001
 5.8580614991e-001	 3.7545746969e+000	-7.9562719749e-002
 5.5069405831e-001	 3.7598851118e+000	-2.2093047077e-002
 5.1564248877e-001	 3.7648522977e+000	 2.6294865622e-002
 4.8065592754e-001	 3.7694787278e+000	 6.6988992247e-002
 4.4573878635e-001	 3.7737669422e+000	 1.0130092958e-001
 4.1089540154e-001	 3.7777195461e+000	 1.3046858893e-001
 3.7613003312e-001	 3.7813392070e+000	 1.5565891588e-001
 3.4144686401e-001	 3.7846286527e+000	 1.7797063011e-001
 6.9600867549e-001	 3.7611430342e+000	 7.0870057678e-002
 6.6051065114e-001	 3.7675390747e+000	-2.4347727436e-002
 6.2505956047e-001	 3.7735825876e+000	-1.2183664759e-001
 5.8966013774e-001	 3.7792758462e+000	-5.7195141741e-002
 5.5431704553e-001	 3.7846211981e+000	-2.6930491827e-003
 5.1903487357e-001	 3.7896210628e+000	 4.2810917042e-002
 4.8381813759e-001	 3.7942779299e+000	 8.0662793446e-002
 4.4867127837e-001	 3.7985943563e+000	 1.1213187577e-001
 4.1359866076e-001	 3.8025729642e+000	 1.3841350519e-001
 3.7860457281e-001	 3.8062164386e+000	 1.6063188087e-001
 3.4369322496e-001	 3.8095275254e+000	 1.7984289044e-001
 7.0055775180e-001	 3.7857256684e+000	 8.2054569311e-002
 6.6482771422e-001	 3.7921635131e+000	 2.1923754391e-003
 6.2914491707e-001	 3.7982465261e+000	-8.0034647503e-002
 5.9351412557e-001	 3.8039769955e+000	-3.5787785151e-002
 5.5794003276e-001	 3.8093572843e+000	 1.5620321266e-002
 5.2242725836e-001	 3.8143898280e+000	 5.8140634607e-002
 4.8698034763e-001	 3.8190771321e+000	 9.3076558540e-002
 4.5160377038e-001	 3.8234217704e+000	 1.2165437300e-001
 4.1630191998e-001	 3.8274263822e+000	 1.4502611659e-001
 3.8107911250e-001	 3.8310936702e+000	 1.6427249357e-001
 3.4593958591e-001	 3.8344263981e+000	 1.8040579668e-001
 7.0510682811e-001	 3.8103083026e+000	 8.9434150318e-002
 6.6914477730e-001	 3.8167879515e+000	 2.4083388374e-002
 6.3323027367e-001	 3.8229104646e+000	-4.3710577816e-002
 5.9736811339e-001	 3.8286781449e+000	-1.5581283204e-002
 5.6156301998e-001	 3.8340933706e+000	 3.2634522769e-002
 5.2581964315e-001	 3.8391585931e+000	 7.2099631555e-002
 4.9014255768e-001	 3.8438763342e+000	 1.0407410340e-001
 4.5453626240e-001	 3.8482491845e+000	 1.2974047261e-001
 4.1900517920e-001	 3.8522798003e+000	 1.5020672790e-001
 3.8355365219e-001	 3.8559709018e+000	 1.6650931535e-001
 3.4818594685e-001	 3.8593252709e+000	 1.7961615525e-001
 7.0965590442e-001	 3.8348909368e+000	 9.3058201024e-002
 6.7346184038e-001	 3.8414123899e+000	 4.1384267058e-002
 6.3731563028e-001	 3.8475744031e+000	-1.2795974380e-002
 6.0122210122e-001	 3.8533792942e+000	 3.1831260803e-003
 5.6518600721e-001	 3.8588294569e+000	 4.8136055745e-002
 5.2921202794e-001	 3.8639273582e+000	 8.4502213491e-002
 4.9330476773e-001	 3.8686755364e+000	 1.1349759054e-001
 4.5746875441e-001	 3.8730765986e+000	 1.3626023086e-001
 4.2170843842e-001	 3.8771332183e+000	 1.5385331108e-001
 3.8602819188e-001	 3.8808481335e+000	 1.6726824115e-001
 3.5043230780e-001	 3.8842241436e+000	 1.7742777683e-001
 7.1420498073e-001	 3.8594735710e+000	 9.2976582956e-002
 6.7777890346e-001	 3.8660368283e+000	 5.4154076144e-002
 6.4140098688e-001	 3.8722383416e+000	 1.2777386970e-002
 6.0507608904e-001	 3.8780804435e+000	 2.0263619148e-002
 5.6880899443e-001	 3.8835655431e+000	 6.1910493039e-002
 5.3260441274e-001	 3.8886961233e+000	 9.5161420029e-002
 4.9646697778e-001	 3.8934747386e+000	 1.2118758179e-001
 4.6040124642e-001	 3.8979040127e+000	 1.4108177242e-001
 4.2441169764e-001	 3.9019866364e+000	 1.5586157955e-001
 3.8850273157e-001	 3.9057253651e+000	 1.6647258444e-001
 3.5267866874e-001	 3.9091230163e+000	 1.7379157175e-001
 7.1875405704e-001	 3.8840562052e+000	 8.9239604247e-002
 6.8209596653e-001	 3.8906612667e+000	 6.2451985800e-002
 6.4548634348e-001	 3.8969022800e+000	 3.3077498006e-002
 6.0893007687e-001	 3.9027815928e+000	 3.5417805438e-002
 5.7243198165e-001	 3.9083016294e+000	 7.3742509278e-002
 5.3599679753e-001	 3.9134648884e+000	 1.0388906485e-001
 4.9962918782e-001	 3.9182739407e+000	 1.2698308897e-001
 4.6333373843e-001	 3.9227314268e+000	 1.4407135154e-001
 4.2711495685e-001	 3.9268400545e+000	 1.5612505969e-001
 3.9097727126e-001	 3.9306025967e+000	 1.6404315890e-001
 3.5492502969e-001	 3.9340218890e+000	 1.6865564176e-001
 7.2330313334e-001	 3.9086388394e+000	 8.1898005592e-002
 6.8641302961e-001	 3.9152857051e+000	 6.6337268393e-002
 6.4957170008e-001	 3.9215662185e+000	 4.8172125417e-002
 6.1278406469e-001	 3.9274827422e+000	 4.8402745217e-002
 5.7605496887e-001	 3.9330377156e+000	 8.3415909119e-002
 5.3938918232e-001	 3.9382336535e+000	 1.1049577427e-001
 5.0279139787e-001	 3.9430731429e+000	 1.3072162257e-001
 4.6626623045e-001	 3.9475588409e+000	 1.4509341082e-001
 4.2981821607e-001	 3.9516934725e+000	 1.5453515957e-001
 3.9345181095e-001	 3.9554798283e+000	 1.5989835702e-001
 3.5717139063e-001	 3.9589207617e+000	 1.6196536841e-001
 7.2785220965e-001	 3.9332214737e+000	 7.1002946731e-002
 6.9073009268e-001	 3.9399101435e+000	 6.5869295291e-002
 6.5365705668e-001	 3.9462301570e+000	 5.8128817842e-002
 6.1663805252e-001	 3.9521838915e+000	 5.8974966738e-002
 5.7967795609e-001	 3.9577738019e+000	 9.0713654432e-002
 5.4278156711e-001	 3.9630024187e+000	 1.1479102433e-001
 5.0595360791e-001	 3.9678723450e+000	 1.3223923873e-001
 4.6919872246e-001	 3.9723862550e+000	 1.4401063787e-001
 4.3252147529e-001	 3.9765468906e+000	 1.5098123520e-001
 3.9592635063e-001	 3.9803570600e+000	 1.5395422577e-001
 3.5941775158e-001	 3.9838196344e+000	 1.5366349796e-001
 3.3695414212e-001	 3.7348309073e+000	 2.9031347214e-001
 3.0281249933e-001	 3.7377539499e+000	 2.7251339069e-001
 2.6875999901e-001	 3.7403566759e+000	 2.5478788254e-001
 2.3480053674e-001	 3.7426419423e+000	 2.3856464823e-001
 2.0093792957e-001	 3.7446126567e+000	 2.2523957537e-001
 1.6717591555e-001	 3.7462717751e+000	 2.1617323083e-001
 1.3351815331e-001	 3.7476222999e+000	 2.1268755530e-001
 9.9968221788e-002	 3.7486672771e+000	 2.1606276148e-001
 6.6529619936e-002	 3.7494097948e+000	 2.2753443640e-001
 3.3205766524e-002	 3.7498529807e+000	 2.4829084801e-001
 0.0000000000e+000	 3.7500000000e+000	 2.7947045531e-001
 3.3920050307e-001	 3.7597297800e+000	 1.7482911431e-001
 3.0483124933e-001	 3.7626723096e+000	 1.7112045631e-001
 2.7055173233e-001	 3.7652923871e+000	 1.6776831236e-001
 2.3636587365e-001	 3.7675928885e+000	 1.6575602226e-001
 2.0227751577e-001	 3.7695767410e+000	 1.6600825815e-001
 1.6829042165e-001	 3.7712469203e+000	 1.6939366977e-001
 1.3440827433e-001	 3.7726064486e+000	 1.7672751075e-001
 1.0063467660e-001	 3.7736583923e+000	 1.8877423993e-001
 6.6973150735e-002	 3.7744058601e+000	 2.0625009218e-001
 3.3427138301e-002	 3.7748520006e+000	 2.2982561359e-001
 0.0000000000e+000	 3.7750000000e+000	 2.6012815607e-001
 3.4144686401e-001	 3.7846286527e+000	 1.7797063011e-001
 3.0684999932e-001	 3.7875906693e+000	 1.7233563694e-001
 2.7234346566e-001	 3.7902280982e+000	 1.6713870978e-001
 2.3793121056e-001	 3.7925438348e+000	 1.6333266876e-001
 2.0361710197e-001	 3.7945408254e+000	 1.6181142526e-001
 1.6940492775e-001	 3.7962220655e+000	 1.6341270573e-001
 1.3529839535e-001	 3.7975905972e+000	 1.6892075433e-001
 1.0130113141e-001	 3.7986495075e+000	 1.7906900847e-001
 6.7416681534e-002	 3.7994019254e+000	 1.9454274146e-001
 3.3648510077e-002	 3.7998510205e+000	 2.1598166704e-001
 0.0000000000e+000	 3.8000000000e+000	 2.4398250103e-001
 3.4369322496e-001	 3.8095275254e+000	 1.7984289044e-001
 3.0886874932e-001	 3.8125090289e+000	 1.7268389669e-001
 2.7413519899e-001	 3.8151638094e+000	 1.6606061537e-001
 2.3949654747e-001	 3.8174947811e+000	 1.6089447159e-001
 2.0495668816e-001	 3.8195049098e+000	 1.5804773663e-001
 1.7051943386e-001	 3.8211972106e+000	 1.5832633181e-001
 1.3618851637e-001	 3.8225747459e+000	 1.6248260897e-001
 1.0196758622e-001	 3.8236406227e+000	 1.7121810148e-001
 6.7860212333e-002	 3.8243979907e+000	 1.8518624004e-001
 3.3869881854e-002	 3.8248500403e+000	 2.0499502802e-001
 0.0000000000e+000	 3.8250000000e+000	 2.3120967110e-001
 3.4593958591e-001	 3.8344263981e+000	 1.8040579668e-001
 3.1088749931e-001	 3.8374273886e+000	 1.7214617967e-001
 2.7592693231e-001	 3.8400995206e+000	 1.6453607696e-001
 2.4106188438e-001	 3.8424457274e+000	 1.5846463078e-001
 2.0629627436e-001	 3.8444689942e+000	 1.5476158067e-001
 1.7163393996e-001	 3.8461723558e+000	 1.5420014882e-001
 1.3707863739e-001	 3.8475588946e+000	 1.5749989976e-001
 1.0263404103e-001	 3.8486317379e+000	 1.6532956825e-001
 6.8303743132e-002	 3.8493940560e+000	 1.7830984967e-001
 3.4091253630e-002	 3.8498490602e+000	 1.9701614723e-001
 0.0000000000e+000	 3.8500000000e+000	 2.2198127110e-001
 3.4818594685e-001	 3.8593252709e+000	 1.7961615525e-001
 3.1290624931e-001	 3.8623457483e+000	 1.7070019312e-001
 2.7771866564e-001	 3.8650352318e+000	 1.6256376536e-001
 2.4262722129e-001	 3.8673966737e+000	 1.5606283107e-001
 2.0763586056e-001	 3.8694330785e+000	 1.5199369415e-001
 1.7274844606e-001	 3.8711475010e+000	 1.5109597145e-001
 1.3796875842e-001	 3.8725430432e+000	 1.5405553315e-001
 1.0330049584e-001	 3.8736228530e+000	 1.6150740900e-001
 6.8747273931e-002	 3.8743901213e+000	 1.7403865447e-001
 3.4312625407e-002	 3.8748480801e+000	 1.9219117130e-001
 0.0000000000e+000	 3.8750000000e+000	 2.1646447733e-001
 3.5043230780e-001	 3.8842241436e+000	 1.7742777683e-001
 3.1492499930e-001	 3.8872641079e+000	 1.6832051115e-001
 2.7951039896e-001	 3.8899709429e+000	 1.6013908262e-001
 2.4419255820e-001	 3.8923476199e+000	 1.5370535465e-001
 2.0897544675e-001	 3.8943971629e+000	 1.4978127927e-001
 1.7386295217e-001	 3.8961226461e+000	 1.4907194966e-001
 1.3885887944e-001	 3.8975271919e+000	 1.5222862263e-001
 1.0396695066e-001	 3.8986139682e+000	 1.5985170458e-001
 6.9190804730e-002	 3.8993861866e+000	 1.7249369481e-001
 3.4533997183e-002	 3.8998471000e+000	 1.9066208072e-001
 0.0000000000e+000	 3.9000000000e+000	 2.1482217952e-001
 3.5267866874e-001	 3.9091230163e+000	 1.7379157175e-001
 3.1694374929e-001	 3.9121824676e+000	 1.6497867451e-001
 2.8130213229e-001	 3.9149066541e+000	 1.5725426614e-001
 2.4575789511e-001	 3.9172985662e+000	 1.5140518946e-001
 2.1031503295e-001	 3.9193612473e+000	 1.4815811619e-001
 1.7497745827e-001	 3.9210977913e+000	 1.4818268538e-001
 1.3974900046e-001	 3.9225113406e+000	 1.5209460949e-001
 1.0463340547e-001	 3.9236050834e+000	 1.6045874136e-001
 6.9634335529e-002	 3.9243822519e+000	 1.7379209615e-001
 3.4755368960e-002	 3.9248461198e+000	 1.9256682248e-001
 0.0000000000e+000	 3.9250000000e+000	 2.1721311732e-001
 3.5492502969e-001	 3.9340218890e+000	 1.6865564176e-001
 3.1896249929e-001	 3.9371008273e+000	 1.6064328660e-001
 2.8309386561e-001	 3.9398423653e+000	 1.5389848882e-001
 2.4732323202e-001	 3.9422495125e+000	 1.4917213346e-001
 2.1165461914e-001	 3.9443253317e+000	 1.4715467132e-001
 1.7609196437e-001	 3.9460729365e+000	 1.4847934481e-001
 1.4063912148e-001	 3.9474954892e+000	 1.5372537902e-001
 1.0529986028e-001	 3.9485961986e+000	 1.6342113125e-001
 7.0077866328e-002	 3.9493783172e+000	 1.7804719288e-001
 3.4976740737e-002	 3.9498451397e+000	 1.9803943778e-001
 0.0000000000e+000	 3.9500000000e+000	 2.2379201169e-001
 3.5717139063e-001	 3.9589207617e+000	 1.6196536841e-001
 3.2098124928e-001	 3.9620191869e+000	 1.5528010580e-001
 2.8488559894e-001	 3.9647780764e+000	 1.5005795540e-001
 2.4888856893e-001	 3.9672004588e+000	 1.4701289496e-001
 2.1299420534e-001	 3.9692894161e+000	 1.4679820157e-001
 1.7720647047e-001	 3.9710480817e+000	 1.5000976643e-001
 1.4152924250e-001	 3.9724796379e+000	 1.5718937235e-001
 1.0596631509e-001	 3.9735873138e+000	 1.6882792728e-001
 7.0521397127e-002	 3.9743743825e+000	 1.8536864755e-001
 3.5198112513e-002	 3.9748441596e+000	 2.0721018479e-001
 0.0000000000e+000	 3.9750000000e+000	 2.3470969121e-001
 3.5941775158e-001	 3.9838196344e+000	 1.5366349796e-001
 3.2299999927e-001	 3.9869375466e+000	 1.4885213444e-001
 2.8667733226e-001	 3.9897137876e+000	 1.4571599524e-001
 2.5045390584e-001	 3.9921514051e+000	 1.4493118913e-001
 2.1433379153e-001	 3.9942535004e+000	 1.4711285460e-001
 1.7832097657e-001	 3.9960232268e+000	 1.5281856500e-001
 1.4241936352e-001	 3.9974637866e+000	 1.6255169406e-001
 1.0663276990e-001	 3.9985784289e+000	 1.7676473484e-001
 7.0964927926e-002	 3.9993704478e+000	 1.9586256563e-001
 3.5419484290e-002	 3.9998431794e+000	 2.2020565692e-001
 0.0000000000e+000	 4.0000000000e+000	 2.5011321376e-001
 4.0000000000e+000	 0.0000000000e+000	 8.0618611027e-001
 3.9998431794e+000	 3.5419484290e-002	 8.0665677058e-001
 3.9993704478e+000	 7.0964927926e-002	 8.0331966136e-001
 3.9985784289e+000	 1.0663276990e-001	 7.9710521401e-001
 3.9974637866e+000	 1.4241936352e-001	 7.8887449475e-001
 3.9960232268e+000	 1.7832097657e-001	 7.7941627835e-001
 3.9942535004e+000	 2.1433379153e-001	 7.6944420010e-001
 3.9921514051e+000	 2.5045390584e-001	 7.5959399524e-001
 3.9897137876e+000	 2.8667733226e-001	 7.5042083490e-001
 3.9869375466e+000	 3.2299999927e-001	 7.4239676754e-001
 3.9838196344e+000	 3.5941775158e-001	 7.3590827532e-001
 4.0250000000e+000	 0.0000000000e+000	 7.7377549390e-001
 4.0248421993e+000	 3.5640856066e-002	 7.7802616083e-001
 4.0243665131e+000	 7.1408458726e-002	 7.7819637950e-001
 4.0235695441e+000	 1.0729922471e-001	 7.7520234228e-001
 4.0224479352e+000	 1.4330948454e-001	 7.6988942458e-001
 4.0209983720e+000	 1.7943548268e-001	 7.6302923377e-001
 4.0192175848e+000	 2.1567337773e-001	 7.5531673880e-001
 4.0171023514e+000	 2.5201924275e-001	 7.4736748979e-001
 4.0146494988e+000	 2.8846906558e-001	 7.3971493686e-001
 4.0118559063e+000	 3.2501874926e-001	 7.3280785736e-001
 4.0087185072e+000	 3.6166411252e-001	 7.2700790101e-001
 4.0500000000e+000	 0.0000000000e+000	 7.4166589994e-001
 4.0498412192e+000	 3.5862227843e-002	 7.4928955873e-001
 4.0493625784e+000	 7.1851989525e-002	 7.5260205740e-001
 4.0485606593e+000	 1.0796567952e-001	 7.5250576043e-001
 4.0474320839e+000	 1.4419960556e-001	 7.4983072675e-001
 4.0459735172e+000	 1.8054998878e-001	 7.4533173254e-001
 4.0441816692e+000	 2.1701296393e-001	 7.3968537738e-001
 4.0420532976e+000	 2.5358457966e-001	 7.3348728290e-001
 4.0395852100e+000	 2.9026079891e-001	 7.2724939339e-001
 4.0367742659e+000	 3.2703749926e-001	 7.2139738780e-001
 4.0336173799e+000	 3.6391047346e-001	 7.1626821254e-001
 4.0750000000e+000	 0.0000000000e+000	 7.0978459471e-001
 4.0748402391e+000	 3.6083599620e-002	 7.2038454533e-001
 4.0743586437e+000	 7.2295520325e-002	 7.2648458643e-001
 4.0735517745e+000	 1.0863213434e-001	 7.2897366078e-001
 4.0724162326e+000	 1.4508972659e-001	 7.2866687977e-001
 4.0709486623e+000	 1.8166449488e-001	 7.2630251915e-001
 4.0691457536e+000	 2.1835255012e-001	 7.2253910041e-001
 4.0670042439e+000	 2.5514991657e-001	 7.1795256739e-001
 4.0645209211e+000	 2.9205253223e-001	 7.1303356762e-001
 4.0616926256e+000	 3.2905624925e-001	 7.0818484793e-001
 4.0585162526e+000	 3.6615683441e-001	 7.0371877411e-001
 4.1000000000e+000	 0.0000000000e+000	 6.7806061851e-001
 4.0998392589e+000	 3.6304971397e-002	 6.9125032476e-001
 4.0993547090e+000	 7.2739051125e-002	 6.9979333699e-001
 4.0985428897e+000	 1.0929858915e-001	 7.0456557736e-001
 4.0974003812e+000	 1.4597984761e-001	 7.0636757363e-001
 4.0959238075e+000	 1.8277900099e-001	 7.0592142642e-001
 4.0941098380e+000	 2.1969213632e-001	 7.0386786486e-001
 4.0919551902e+000	 2.5671525349e-001	 7.0076339989e-001
 4.0894566323e+000	 2.9384426556e-001	 6.9707758532e-001
 4.0866109853e+000	 3.3107499925e-001	 6.9319039602e-001
 4.0834151253e+000	 3.6840319536e-001	 6.8938973329e-001
 4.1250000000e+000	 0.0000000000e+000	 6.4642473187e-001
 4.1248382788e+000	 3.6526343175e-002	 6.6182767514e-001
 4.1243507743e+000	 7.3182581926e-002	 6.7247911365e-001
 4.1235340048e+000	 1.0996504396e-001	 6.7924234531e-001
 4.1223845299e+000	 1.4686996863e-001	 6.8290367304e-001
 4.1208989527e+000	 1.8389350709e-001	 6.8416934247e-001
 4.1190739223e+000	 2.2103172252e-001	 6.8366257056e-001
 4.1169061365e+000	 2.5828059040e-001	 6.8192067461e-001
 4.1143923435e+000	 2.9563599889e-001	 6.7939231186e-001
 4.1115293449e+000	 3.3309374924e-001	 6.7643483919e-001
 4.1083139980e+000	 3.7064955631e-001	 6.7331180330e-001
 4.1500000000e+000	 0.0000000000e+000	 6.1480936375e-001
 4.1498372987e+000	 3.6747714952e-002	 6.3205890110e-001
 4.1493468396e+000	 7.3626112727e-002	 6.4449411197e-001
 4.1485251200e+000	 1.1063149878e-001	 6.5296606166e-001
 4.1473686786e+000	 1.4776008966e-001	 6.5824718211e-001
 4.1458740978e+000	 1.8500801320e-001	 6.6102817895e-001
 4.1440380067e+000	 2.2237130872e-001	 6.6191503185e-001
 4.1418570828e+000	 2.5984592731e-001	 6.6142609816e-001
 4.1393280547e+000	 2.9742773222e-001	 6.5998932986e-001
 4.1364477046e+000	 3.3511249924e-001	 6.5793961391e-001
 4.1332128707e+000	 3.7289591725e-001	 6.5551624601e-001
 4.1750000000e+000	 0.0000000000e+000	 5.8314856157e-001
 4.1748363185e+000	 3.6969086730e-002	 6.0188778812e-001
 4.1743429049e+000	 7.4069643528e-002	 6.1579187687e-001
 4.1735162352e+000	 1.1129795359e-001	 6.2570004752e-001
 4.1723528272e+000	 1.4865021068e-001	 6.3237121018e-001
 4.1708492430e+000	 1.8612251931e-001	 6.3648084039e-001
 4.1690020911e+000	 2.2371089492e-001	 6.3861795019e-001
 4.1668080290e+000	 2.6141126423e-001	 6.3928216517e-001
 4.1642637658e+000	 2.9921946555e-001	 6.3888091779e-001
 4.1613660643e+000	 3.3713124924e-001	 6.3772676713e-001
 4.1581117435e+000	 3.7514227820e-001	 6.3603485546e-001
 4.2000000000e+000	 0.0000000000e+000	 5.5137794305e-001
 4.1998353384e+000	 3.7190458508e-002	 5.7125955845e-001
 4.1993389702e+000	 7.4513174330e-002	 5.8632726243e-001
 4.1985073504e+000	 1.1196440840e-001	 5.9740881171e-001
 4.1973369759e+000	 1.4954033171e-001	 6.0524993894e-001
 4.1958243882e+000	 1.8723702541e-001	 6.1051119464e-001
 4.1939661755e+000	 2.2505048112e-001	 6.1376488773e-001
 4.1917589753e+000	 2.6297660114e-001	 6.1549213491e-001
 4.1891994770e+000	 3.0101119888e-001	 6.1608002919e-001
 4.1862844239e+000	 3.3914999924e-001	 6.1581893814e-001
 4.1830106162e+000	 3.7738863915e-001	 6.1489994207e-001
 4.2250000000e+000	 0.0000000000e+000	 5.1943464976e-001
 4.2248343583e+000	 3.7411830286e-002	 5.4012082855e-001
 4.2243350355e+000	 7.4956705132e-002	 5.5605639319e-001
 4.2234984656e+000	 1.1263086322e-001	 5.6805801558e-001
 4.2223211246e+000	 1.5043045273e-001	 5.7685859074e-001
 4.2207995333e+000	 1.8835153152e-001	 5.8310404441e-001
 4.2189302598e+000	 2.2639006732e-001	 5.8735024189e-001
 4.2167099216e+000	 2.6454193806e-001	 5.9006000859e-001
 4.2141351882e+000	 3.0280293221e-001	 5.9160027275e-001
 4.2112027836e+000	 3.4116874924e-001	 5.9223934101e-001
 4.2079094889e+000	 3.7963500011e-001	 5.9214431736e-001
 4.2500000000e+000	 0.0000000000e+000	 4.8725730228e-001
 4.2498333782e+000	 3.7633202065e-002	 5.0841956818e-001
 4.2493311008e+000	 7.5400235934e-002	 5.2493662678e-001
 4.2484895807e+000	 1.1329731804e-001	 5.3761443912e-001
 4.2473052732e+000	 1.5132057376e-001	 5.4717339793e-001
 4.2457746785e+000	 1.8946603763e-001	 5.5424509972e-001
 4.2438943442e+000	 2.2772965353e-001	 5.5936922074e-001
 4.2416608679e+000	 2.6610727498e-001	 5.6299050759e-001
 4.2390708994e+000	 3.0459466554e-001	 5.6545589300e-001
 4.2361211433e+000	 3.4318749924e-001	 5.6701174773e-001
 4.2328083616e+000	 3.8188136106e-001	 5.6780127917e-001
 3.9838196344e+000	 3.5941775158e-001	 7.3590827532e-001
 3.9803570600e+000	 3.9592635063e-001	 7.3580409660e-001
 3.9765468906e+000	 4.3252147529e-001	 7.3228879059e-001
 3.9723862550e+000	 4.6919872246e-001	 7.2542172245e-001
 3.9678723450e+000	 5.0595360791e-001	 7.1517179546e-001
 3.9630024187e+000	 5.4278156711e-001	 7.0141584570e-001
 3.9577738019e+000	 5.7967795609e-001	 6.8393720433e-001
 3.9521838915e+000	 6.1663805252e-001	 6.6242443555e-001
 3.9462301570e+000	 6.5365705668e-001	 6.3469737362e-001
 3.9399101435e+000	 6.9073009268e-001	 6.1397603625e-001
 3.9332214737e+000	 7.2785220965e-001	 6.0254684237e-001
 4.0087185072e+000	 3.6166411252e-001	 7.2700790101e-001
 4.0052342916e+000	 3.9840089032e-001	 7.2712380771e-001
 4.0014003087e+000	 4.3522473450e-001	 7.2375401841e-001
 3.9972136691e+000	 4.7213121447e-001	 7.1692928398e-001
 3.9926715472e+000	 5.0911581796e-001	 7.0658800055e-001
 3.9877711838e+000	 5.4617395190e-001	 6.9257460274e-001
 3.9825098882e+000	 5.8330094331e-001	 6.7463812835e-001
 3.9768850408e+000	 6.2049204034e-001	 6.5243096300e-001
 3.9708940955e+000	 6.5774241328e-001	 6.2626860999e-001
 3.9645345819e+000	 6.9504715575e-001	 6.0736112644e-001
 3.9578041079e+000	 7.3240128595e-001	 5.9659470243e-001
 4.0336173799e+000	 3.6391047346e-001	 7.1626821254e-001
 4.0301115232e+000	 4.0087543001e-001	 7.1656361889e-001
 4.0262537268e+000	 4.3792799372e-001	 7.1333777051e-001
 4.0220410832e+000	 4.7506370648e-001	 7.0659277401e-001
 4.0174707494e+000	 5.1227802800e-001	 6.9623644403e-001
 4.0125399489e+000	 5.4956633669e-001	 6.8208069424e-001
 4.0072459744e+000	 5.8692393053e-001	 6.6384010391e-001
 4.0015861901e+000	 6.2434602816e-001	 6.4113066860e-001
 3.9955580340e+000	 6.6182776988e-001	 6.1711519153e-001
 3.9891590203e+000	 6.9936421883e-001	 5.9985759193e-001
 3.9823867421e+000	 7.3695036226e-001	 5.8960442476e-001
 4.0585162526e+000	 3.6615683441e-001	 7.0371877411e-001
 4.0549887548e+000	 4.0334996970e-001	 7.0416434637e-001
 4.0511071448e+000	 4.4063125294e-001	 7.0109214760e-001
 4.0468684973e+000	 4.7799619849e-001	 6.9447560346e-001
 4.0422699515e+000	 5.1544023805e-001	 6.8419186574e-001
 4.0373087140e+000	 5.5295872148e-001	 6.7002020043e-001
 4.0319820607e+000	 5.9054691776e-001	 6.5164055556e-001
 4.0262873394e+000	 6.2820001599e-001	 6.2870041260e-001
 4.0202219725e+000	 6.6591312648e-001	 6.0724291059e-001
 4.0137834587e+000	 7.0368128190e-001	 5.9147383413e-001
 4.0069693763e+000	 7.4149943857e-001	 5.8158676889e-001
 4.0834151253e+000	 3.6840319536e-001	 6.8938973329e-001
 4.0798659865e+000	 4.0582450939e-001	 6.8996728161e-001
 4.0759605629e+000	 4.4333451216e-001	 6.8706962309e-001
 4.0716959114e+000	 4.8092869050e-001	 6.8064145906e-001
 4.0670691537e+000	 5.1860244810e-001	 6.7052919015e-001
 4.0620774791e+000	 5.5635110627e-001	 6.5647930083e-001
 4.0567181470e+000	 5.9416990498e-001	 6.3813692778e-001
 4.0509884888e+000	 6.3205400381e-001	 6.1569143979e-001
 4.0448859109e+000	 6.6999848308e-001	 5.9665743875e-001
 4.0384078971e+000	 7.0799834498e-001	 5.8221807258e-001
 4.0315520105e+000	 7.4604851487e-001	 5.7255225765e-001
 4.1083139980e+000	 3.7064955631e-001	 6.7331180330e-001
 4.1047432181e+000	 4.0829904908e-001	 6.7401417693e-001
 4.1008139810e+000	 4.4603777138e-001	 6.7132303176e-001
 4.0965233255e+000	 4.8386118252e-001	 6.6515429491e-001
 4.0918683558e+000	 5.2176465814e-001	 6.5532352076e-001
 4.0868462442e+000	 5.5974349106e-001	 6.4154427127e-001
 4.0814542332e+000	 5.9779289220e-001	 6.2342668433e-001
 4.0756896381e+000	 6.3590799164e-001	 6.0214470010e-001
 4.0695498494e+000	 6.7408383968e-001	 5.8536433053e-001
 4.0630323355e+000	 7.1231540806e-001	 5.7209835052e-001
 4.0561346447e+000	 7.5059759118e-001	 5.6251118440e-001
 4.1332128707e+000	 3.7289591725e-001	 6.5551624601e-001
 4.1296204497e+000	 4.1077358877e-001	 6.5634723156e-001
 4.1256673990e+000	 4.4874103060e-001	 6.5390555891e-001
 4.1213507395e+000	 4.8679367453e-001	 6.4807832451e-001
 4.1166675580e+000	 5.2492686819e-001	 6.3865013470e-001
 4.1116150094e+000	 5.6313587586e-001	 6.2530148095e-001
 4.1061903195e+000	 6.0141587943e-001	 6.0760730770e-001
 4.1003907874e+000	 6.3976197947e-001	 5.8806297364e-001
 4.0942137879e+000	 6.7816919628e-001	 5.7336902688e-001
 4.0876567739e+000	 7.1663247114e-001	 5.6112254013e-001
 4.0807172789e+000	 7.5514666749e-001	 5.5147361988e-001
 4.1581117435e+000	 3.7514227820e-001	 6.3603485546e-001
 4.1544976813e+000	 4.1324812847e-001	 6.3700907834e-001
 4.1505208171e+000	 4.5144428982e-001	 6.3487072983e-001
 4.1461781536e+000	 4.8972616655e-001	 6.2947801297e-001
 4.1414667601e+000	 5.2808907824e-001	 6.2058447753e-001
 4.1363837745e+000	 5.6652826065e-001	 6.0783738968e-001
 4.1309264058e+000	 6.0503886665e-001	 5.9077629855e-001
 4.1250919367e+000	 6.4361596729e-001	 5.7344899176e-001
 4.1188777264e+000	 6.8225455289e-001	 5.6067685858e-001
 4.1122812123e+000	 7.2094953422e-001	 5.4929834774e-001
 4.1052999131e+000	 7.5969574380e-001	 5.3944941896e-001
 4.1830106162e+000	 3.7738863915e-001	 6.1489994207e-001
 4.1793749130e+000	 4.1572266816e-001	 6.1604277075e-001
 4.1753742352e+000	 4.5414754904e-001	 6.1427239971e-001
 4.1710055677e+000	 4.9265865857e-001	 6.0941806948e-001
 4.1662659623e+000	 5.3125128829e-001	 6.0120215825e-001
 4.1611525396e+000	 5.6992064545e-001	 5.8923854518e-001
 4.1556624920e+000	 6.0866185388e-001	 5.7303117516e-001
 4.1497930861e+000	 6.4746995512e-001	 5.5830543845e-001
 4.1435416649e+000	 6.8633990949e-001	 5.4729304953e-001
 4.1369056507e+000	 7.2526659730e-001	 5.3663331869e-001
 4.1298825474e+000	 7.6424482012e-001	 5.2644822696e-001
 4.2079094889e+000	 3.7963500011e-001	 5.9214431736e-001
 4.2042521446e+000	 4.1819720786e-001	 5.9349177051e-001
 4.2002276532e+000	 4.5685080827e-001	 5.9216474387e-001
 4.1958329818e+000	 4.9559115059e-001	 5.8796344016e-001
 4.1910651645e+000	 5.3441349835e-001	 5.8057894442e-001
 4.1859213047e+000	 5.7331303024e-001	 5.6959158045e-001
 4.1803985783e+000	 6.1228484111e-001	 5.5446947291e-001
 4.1744942354e+000	 6.5132394295e-001	 5.4263495181e-001
 4.1682056034e+000	 6.9042526610e-001	 5.3322271993e-001
 4.1615300891e+000	 7.2958366038e-001	 5.2313484213e-001
 4.1544651816e+000	 7.6879389643e-001	 5.1247948595e-001
 4.2328083616e+000	 3.8188136106e-001	 5.6780127917e-001
 4.2291293762e+000	 4.2067174755e-001	 5.6939993554e-001
 4.2250810713e+000	 4.5955406749e-001	 5.6860224833e-001
 4.2206603959e+000	 4.9852364261e-001	 5.6517930101e-001
 4.2158643666e+000	 5.3757570840e-001	 5.5879075757e-001
 4.2106900698e+000	 5.7670541504e-001	 5.4898321128e-001
 4.2051346646e+000	 6.1590782834e-001	 5.3518874378e-001
 4.1991953847e+000	 6.5517793079e-001	 5.2644012534e-001
 4.1928695419e+000	 6.9451062271e-001	 5.1847088929e-001
 4.1861545275e+000	 7.3390072346e-001	 5.0881015560e-001
 4.1790478158e+000	 7.7334297274e-001	 4.9755244066e-001
 3.9332214737e+000	 7.2785220965e-001	 6.0254684237e-001
 3.9261618501e+000	 7.6501838302e-001	 5.9478827027e-001
 3.9187290581e+000	 8.0222351592e-001	 5.8411120326e-001
 3.9109209671e+000	 8.3946244064e-001	 5.7059535650e-001
 3.9027355338e+000	 8.7672992013e-001	 5.5432027738e-001
 3.8941708042e+000	 9.1402064961e-001	 5.3536525889e-001
 3.8852249153e+000	 9.5132925831e-001	 5.1380925422e-001
 3.8758960980e+000	 9.8865031116e-001	 4.8973079256e-001
 3.8661826788e+000	 1.0259783107e+000	 4.6320789645e-001
 3.8560830823e+000	 1.0633076989e+000	 4.3431800091e-001
 3.8455958328e+000	 1.1006328594e+000	 4.0313787434e-001
 3.9578041079e+000	 7.3240128595e-001	 5.9659470243e-001
 3.9507003617e+000	 7.6979974791e-001	 5.8825312901e-001
 3.9432211147e+000	 8.0723741289e-001	 5.7723816845e-001
 3.9353642231e+000	 8.4470908089e-001	 5.6363285727e-001
 3.9271276309e+000	 8.8220948212e-001	 5.4751985483e-001
 3.9185093717e+000	 9.1973327867e-001	 5.2898134978e-001
 3.9095075710e+000	 9.5727506617e-001	 5.0809896794e-001
 3.9001204486e+000	 9.9482937561e-001	 4.8495368160e-001
 3.8903463206e+000	 1.0323906751e+000	 4.5962572056e-001
 3.8801836015e+000	 1.0699533720e+000	 4.3219448511e-001
 3.8696308067e+000	 1.1075118147e+000	 4.0273846114e-001
 3.9823867421e+000	 7.3695036226e-001	 5.8960442476e-001
 3.9752388733e+000	 7.7458111280e-001	 5.8066445053e-001
 3.9677131713e+000	 8.1225130986e-001	 5.6929378321e-001
 3.9598074792e+000	 8.4995572114e-001	 5.5557875625e-001
 3.9515197280e+000	 8.8768904412e-001	 5.3960511705e-001
 3.9428479392e+000	 9.2544590773e-001	 5.2145792661e-001
 3.9337902267e+000	 9.6322087403e-001	 5.0122146071e-001
 3.9243447992e+000	 1.0010084400e+000	 4.7897911274e-001
 3.9145099623e+000	 1.0388030396e+000	 4.5481329845e-001
 3.9042841208e+000	 1.0765990452e+000	 4.2880536287e-001
 3.8936657807e+000	 1.1143907701e+000	 4.0103548951e-001
 4.0069693763e+000	 7.4149943857e-001	 5.8158676889e-001
 3.9997773848e+000	 7.7936247769e-001	 5.7203289931e-001
 3.9922052279e+000	 8.1726520684e-001	 5.6028867665e-001
 3.9842507352e+000	 8.5520236139e-001	 5.4644370729e-001
 3.9759118251e+000	 8.9316860612e-001	 5.3058680318e-001
 3.9671865068e+000	 9.3115853678e-001	 5.1280587475e-001
 3.9580728824e+000	 9.6916668190e-001	 4.9318782544e-001
 3.9485691498e+000	 1.0071875045e+000	 4.7181844806e-001
 3.9386736040e+000	 1.0452154040e+000	 4.4878232331e-001
 3.9283846401e+000	 1.0832447183e+000	 4.2416272063e-001
 3.9177007546e+000	 1.1212697255e+000	 3.9804150161e-001
 4.0315520105e+000	 7.4604851487e-001	 5.7255225765e-001
 4.0243158964e+000	 7.8414384258e-001	 5.6236890830e-001
 4.0166972845e+000	 8.2227910381e-001	 5.5023325019e-001
 4.0086939913e+000	 8.6044900165e-001	 5.3623813904e-001
 4.0003039222e+000	 8.9864816812e-001	 5.2047542831e-001
 3.9915250743e+000	 9.3687116584e-001	 5.0303585535e-001
 3.9823555382e+000	 9.7511248976e-001	 4.8400892928e-001
 3.9727935004e+000	 1.0133665689e+000	 4.6348282099e-001
 3.9628372458e+000	 1.0516277685e+000	 4.4154425537e-001
 3.9524851593e+000	 1.0898903914e+000	 4.1827840623e-001
 3.9417357286e+000	 1.1281486808e+000	 3.9376879389e-001
 4.0561346447e+000	 7.5059759118e-001	 5.6251118440e-001
 4.0488544080e+000	 7.8892520747e-001	 5.5168268595e-001
 4.0411893411e+000	 8.2729300078e-001	 5.3913768445e-001
 4.0331372473e+000	 8.6569564190e-001	 5.2497226182e-001
 4.0246960193e+000	 9.0412773012e-001	 5.0928129037e-001
 4.0158636418e+000	 9.4258379490e-001	 4.9215831221e-001
 4.0066381939e+000	 9.8105829763e-001	 4.7369542053e-001
 3.9970178510e+000	 1.0195456334e+000	 4.5398314324e-001
 3.9870008875e+000	 1.0580401329e+000	 4.3311032900e-001
 3.9765856786e+000	 1.0965360645e+000	 4.1116403613e-001
 3.9657707025e+000	 1.1350276362e+000	 3.8822942453e-001
 4.0807172789e+000	 7.5514666749e-001	 5.5147361988e-001
 4.0733929195e+000	 7.9370657237e-001	 5.3998422298e-001
 4.0656813977e+000	 8.3230689776e-001	 5.2701194592e-001
 4.0575805033e+000	 8.7094228215e-001	 5.1265607415e-001
 4.0490881164e+000	 9.0960729212e-001	 4.9701447657e-001
 4.0402022093e+000	 9.4829642396e-001	 4.8018347824e-001
 4.0309208496e+000	 9.8700410549e-001	 4.6225773517e-001
 4.0212422016e+000	 1.0257246978e+000	 4.4333011150e-001
 4.0111645293e+000	 1.0644524973e+000	 4.2349155948e-001
 4.0006861979e+000	 1.1031817376e+000	 4.0283100235e-001
 3.9898056765e+000	 1.1419065916e+000	 3.8143522064e-001
 4.1052999131e+000	 7.5969574380e-001	 5.3944941896e-001
 4.0979314311e+000	 7.9848793726e-001	 5.2728329887e-001
 4.0901734544e+000	 8.3732079473e-001	 5.1386579338e-001
 4.0820237594e+000	 8.7618892241e-001	 4.9929936914e-001
 4.0734802135e+000	 9.1508685412e-001	 4.8368486976e-001
 4.0645407769e+000	 9.5400905303e-001	 4.6712138186e-001
 4.0552035053e+000	 9.9294991336e-001	 4.4970610324e-001
 4.0454665523e+000	 1.0319037623e+000	 4.3153421386e-001
 4.0353281710e+000	 1.0708648618e+000	 4.1269874958e-001
 4.0247867171e+000	 1.1098274108e+000	 3.9329047924e-001
 4.0138406504e+000	 1.1487855470e+000	 3.7339778516e-001
 4.1298825474e+000	 7.6424482012e-001	 5.2644822696e-001
 4.1224699427e+000	 8.0326930216e-001	 5.1358948817e-001
 4.1146655110e+000	 8.4233469171e-001	 4.9970878405e-001
 4.1064670154e+000	 8.8143556267e-001	 4.8491174055e-001
 4.0978723105e+000	 9.2056641613e-001	 4.6930215453e-001
 4.0888793444e+000	 9.5972168209e-001	 4.5298185301e-001
 4.0794861610e+000	 9.9889572122e-001	 4.3605055499e-001
 4.0696909029e+000	 1.0380828267e+000	 4.1860573601e-001
 4.0594918128e+000	 1.0772772262e+000	 4.0074249590e-001
 4.0488872364e+000	 1.1164730839e+000	 3.8255342989e-001
 4.0378756244e+000	 1.1556645023e+000	 3.6412850354e-001
 4.1544651816e+000	 7.6879389643e-001	 5.1247948595e-001
 4.1470084542e+000	 8.0805066705e-001	 4.9891216656e-001
 4.1391575676e+000	 8.4734858869e-001	 4.8455027956e-001
 4.1309102715e+000	 8.8668220292e-001	 4.6950258875e-001
 4.1222644076e+000	 9.2604597813e-001	 4.5387582302e-001
 4.1132179119e+000	 9.6543431115e-001	 4.3777452909e-001
 4.1037688168e+000	 1.0048415291e+000	 4.2130092675e-001
 4.0939152535e+000	 1.0442618912e+000	 4.0455476726e-001
 4.0836554545e+000	 1.0836895907e+000	 3.8763319493e-001
 4.0729877557e+000	 1.1231187570e+000	 3.7063061245e-001
 4.0619105984e+000	 1.1625434577e+000	 3.5363855017e-001
 4.1790478158e+000	 7.7334297274e-001	 4.9755244066e-001
 4.1715469658e+000	 8.1283203195e-001	 4.8326051670e-001
 4.1636496242e+000	 8.5236248567e-001	 4.6839945176e-001
 4.1553535275e+000	 8.9192884318e-001	 4.5308112634e-001
 4.1466565047e+000	 9.3152554013e-001	 4.3741518063e-001
 4.1375564794e+000	 9.7114694021e-001	 4.2150886056e-001
 4.1280514725e+000	 1.0107873370e+000	 4.0546686669e-001
 4.1181396041e+000	 1.0504409556e+000	 3.8939120629e-001
 4.1078190963e+000	 1.0901019551e+000	 3.7338104896e-001
 4.0970882749e+000	 1.1297644301e+000	 3.5753258610e-001
 4.0859455723e+000	 1.1694224131e+000	 3.4193889460e-001
 3.8455958328e+000	 1.1006328594e+000	 4.0313787434e-001
 3.8347195567e+000	 1.1379481191e+000	 3.8233950546e-001
 3.8234529844e+000	 1.1752477508e+000	 3.6101191802e-001
 3.8117949524e+000	 1.2125259753e+000	 3.3921434616e-001
 3.7997444048e+000	 1.2497769635e+000	 3.1700337725e-001
 3.7873003954e+000	 1.2869948389e+000	 2.8152794547e-001
 3.7744620896e+000	 1.3241736799e+000	 2.4861859610e-001
 3.7612287659e+000	 1.3613075226e+000	 2.1868466588e-001
 3.7475998176e+000	 1.3983903631e+000	 1.9269503047e-001
 3.7335747544e+000	 1.4354161602e+000	 1.7184633980e-001
 3.7191532043e+000	 1.4723788383e+000	 1.5231554916e-001
 3.8696308067e+000	 1.1075118147e+000	 4.0273846114e-001
 3.8586865539e+000	 1.1450602948e+000	 3.8320726590e-001
 3.8473495656e+000	 1.1825930493e+000	 3.6284025482e-001
 3.8356186709e+000	 1.2201042627e+000	 3.4170071264e-001
 3.8234928073e+000	 1.2575880695e+000	 3.1694096666e-001
 3.8109710228e+000	 1.2950385566e+000	 2.8167045158e-001
 3.7980524776e+000	 1.3324497654e+000	 2.4865602925e-001
 3.7847364456e+000	 1.3698156946e+000	 2.1823185667e-001
 3.7710223164e+000	 1.4071303029e+000	 1.9074472276e-001
 3.7569095967e+000	 1.4443875112e+000	 1.6655375232e-001
 3.7423979118e+000	 1.4815812060e+000	 1.4652756415e-001
 3.8936657807e+000	 1.1143907701e+000	 4.0103548951e-001
 3.8826535511e+000	 1.1521724706e+000	 3.8288066336e-001
 3.8712461467e+000	 1.1899383477e+000	 3.6358826630e-001
 3.8594423893e+000	 1.2276825500e+000	 3.4322560263e-001
 3.8472412098e+000	 1.2653991756e+000	 3.1599878643e-001
 3.8346416503e+000	 1.3030822743e+000	 2.8111882614e-001
 3.8216428657e+000	 1.3407258509e+000	 2.4810008750e-001
 3.8082441254e+000	 1.3783238666e+000	 2.1728769154e-001
 3.7944448153e+000	 1.4158702426e+000	 1.8904008096e-001
 3.7802444389e+000	 1.4533588622e+000	 1.6372872000e-001
 3.7656426193e+000	 1.4907835738e+000	 1.4173775821e-001
 3.9177007546e+000	 1.1212697255e+000	 3.9804150161e-001
 3.9066205484e+000	 1.1592846463e+000	 3.8137000199e-001
 3.8951427279e+000	 1.1972836462e+000	 3.6326394380e-001
 3.8832661078e+000	 1.2352608374e+000	 3.4379462028e-001
 3.8709896123e+000	 1.2732102816e+000	 3.1426783641e-001
 3.8583122778e+000	 1.3111259921e+000	 2.7987482268e-001
 3.8452332537e+000	 1.3490019364e+000	 2.4694927693e-001
 3.8317518052e+000	 1.3868320386e+000	 2.1584732190e-001
 3.8178673141e+000	 1.4246101824e+000	 1.8693909446e-001
 3.8035792811e+000	 1.4623302133e+000	 1.6060844124e-001
 3.7888873268e+000	 1.4999859415e+000	 1.3725257701e-001
 3.9417357286e+000	 1.1281486808e+000	 3.9376879389e-001
 3.9305875456e+000	 1.1663968220e+000	 3.7868539895e-001
 3.9190393090e+000	 1.2046289446e+000	 3.6187515240e-001
 3.9070898262e+000	 1.2428391247e+000	 3.4341330604e-001
 3.8947380149e+000	 1.2810213876e+000	 3.1175301009e-001
 3.8819829053e+000	 1.3191697098e+000	 2.7794026197e-001
 3.8688236418e+000	 1.3572780219e+000	 2.4520223916e-001
 3.8552594850e+000	 1.3953402107e+000	 2.1390610491e-001
 3.8412898130e+000	 1.4333501222e+000	 1.8443373183e-001
 3.8269141233e+000	 1.4713015643e+000	 1.5718139328e-001
 3.8121320343e+000	 1.5091883092e+000	 1.3255941623e-001
 3.9657707025e+000	 1.1350276362e+000	 3.8822942453e-001
 3.9545545428e+000	 1.1735089978e+000	 3.7483679011e-001
 3.9429358902e+000	 1.2119742430e+000	 3.5942963468e-001
 3.9309135447e+000	 1.2504174121e+000	 3.4192169961e-001
 3.9184864174e+000	 1.2888324936e+000	 3.0845920172e-001
 3.9056535327e+000	 1.3272134276e+000	 2.7531703002e-001
 3.8924140299e+000	 1.3655541074e+000	 2.4285774727e-001
 3.8787671648e+000	 1.4038483827e+000	 2.1145959719e-001
 3.8647123118e+000	 1.4420900620e+000	 1.8151623097e-001
 3.8502489655e+000	 1.4802729153e+000	 1.5343639429e-001
 3.8353767419e+000	 1.5183906770e+000	 1.2764357473e-001
 3.9898056765e+000	 1.1419065916e+000	 3.8143522064e-001
 3.9785215400e+000	 1.1806211735e+000	 3.6983393551e-001
 3.9668324714e+000	 1.2193195415e+000	 3.5593501448e-001
 3.9547372631e+000	 1.2579956994e+000	 3.3669441260e-001
 3.9422348199e+000	 1.2966435997e+000	 3.0439130638e-001
 3.9293241602e+000	 1.3352571453e+000	 2.7200707605e-001
 3.9160044179e+000	 1.3738301929e+000	 2.3991470180e-001
 3.9022748446e+000	 1.4123565547e+000	 2.0850354887e-001
 3.8881348107e+000	 1.4508300017e+000	 1.7817909099e-001
 3.8735838077e+000	 1.4892442663e+000	 1.4936259308e-001
 3.8586214494e+000	 1.5275930447e+000	 1.2249075315e-001
 4.0138406504e+000	 1.1487855470e+000	 3.7339778516e-001
 4.0024885373e+000	 1.1877333493e+000	 3.6368642459e-001
 3.9907290525e+000	 1.2266648399e+000	 3.5139880038e-001
 3.9785609816e+000	 1.2655739868e+000	 3.3061411792e-001
 3.9659832225e+000	 1.3044547057e+000	 2.9955421986e-001
 3.9529947877e+000	 1.3433008631e+000	 2.6801241066e-001
 3.9395948060e+000	 1.3821062784e+000	 2.3637212699e-001
 3.9257825243e+000	 1.4208647267e+000	 2.0503389774e-001
 3.9115573096e+000	 1.4595699415e+000	 1.7441506436e-001
 3.8969186499e+000	 1.4982156173e+000	 1.4494945924e-001
 3.8818661569e+000	 1.5367954125e+000	 1.1708704191e-001
 4.0378756244e+000	 1.1556645023e+000	 3.6412850354e-001
 4.0264555345e+000	 1.1948455250e+000	 3.5640368131e-001
 4.0146256337e+000	 1.2340101384e+000	 3.4582838920e-001
 4.0023847000e+000	 1.2731522741e+000	 3.2368843807e-001
 3.9897316250e+000	 1.3122658117e+000	 2.9395283872e-001
 3.9766654151e+000	 1.3513445808e+000	 2.6333510398e-001
 3.9631851940e+000	 1.3903823639e+000	 2.3222916704e-001
 3.9492902041e+000	 1.4293728987e+000	 2.0104676369e-001
 3.9349798084e+000	 1.4683098813e+000	 1.7021714945e-001
 3.9202534922e+000	 1.5071869683e+000	 1.4018677356e-001
 3.9051108645e+000	 1.5459977802e+000	 1.1141890962e-001
 4.0619105984e+000	 1.1625434577e+000	 3.5363855017e-001
 4.0504225317e+000	 1.2019577008e+000	 3.4799496902e-001
 4.0385222148e+000	 1.2413554368e+000	 3.3923106927e-001
 4.0262084185e+000	 1.2807305615e+000	 3.1592494086e-001
 4.0134800275e+000	 1.3200769177e+000	 2.8759206022e-001
 4.0003360426e+000	 1.3593882986e+000	 2.5797728388e-001
 3.9867755821e+000	 1.3986584494e+000	 2.2748508262e-001
 3.9727978839e+000	 1.4378810707e+000	 1.9653844334e-001
 3.9584023073e+000	 1.4770498210e+000	 1.6557858314e-001
 3.9435883344e+000	 1.5161583193e+000	 1.3506461883e-001
 3.9283555720e+000	 1.5552001479e+000	 1.0547319185e-001
 4.0859455723e+000	 1.1694224131e+000	 3.4193889460e-001
 4.0743895290e+000	 1.2090698765e+000	 3.3846939517e-001
 4.0624187960e+000	 1.2487007353e+000	 3.3161402361e-001
 4.0500321369e+000	 1.2883088488e+000	 3.0733114099e-001
 4.0372284301e+000	 1.3278880237e+000	 2.8047678232e-001
 4.0240066701e+000	 1.3674320163e+000	 2.5194113434e-001
 4.0103659702e+000	 1.4069345349e+000	 2.2213924737e-001
 3.9963055637e+000	 1.4463892427e+000	 1.9150540481e-001
 3.9818248061e+000	 1.4857897608e+000	 1.6049283392e-001
 3.9669231766e+000	 1.5251296703e+000	 1.2957337096e-001
 3.9516002795e+000	 1.5644025157e+000	 9.9237080366e-002
 3.7191532043e+000	 1.4723788383e+000	 1.5231554916e-001
 3.7043349141e+000	 1.5092722896e+000	 1.2485466718e-001
 3.6891197520e+000	 1.5460903777e+000	 9.6239282120e-002
 3.6735077078e+000	 1.5828269397e+000	 6.6720508802e-002
 3.6574988949e+000	 1.6194757899e+000	 3.6562498043e-002
 3.6410935510e+000	 1.6560307222e+000	 6.0421866481e-003
 3.6242920395e+000	 1.6924855132e+000	-2.4550986275e-002
 3.6070948501e+000	 1.7288339256e+000	-5.4915396703e-002
 3.5895026000e+000	 1.7650697110e+000	-8.4737586716e-002
 3.5715160343e+000	 1.8011866135e+000	-1.1369264897e-001
 3.5531360273e+000	 1.8371783722e+000	-1.4144464432e-001
 3.7423979118e+000	 1.4815812060e+000	 1.4652756415e-001
 3.7274870073e+000	 1.5187052414e+000	 1.1980211881e-001
 3.7121767504e+000	 1.5557534425e+000	 9.2137487423e-002
 3.6964671309e+000	 1.5927196081e+000	 6.3791296589e-002
 3.6803582629e+000	 1.6295975136e+000	 3.5034270750e-002
 3.6638503857e+000	 1.6663809142e+000	 6.1499734127e-003
 3.6469438648e+000	 1.7030635476e+000	-2.2565485770e-002
 3.6296391930e+000	 1.7396391376e+000	-5.0803778079e-002
 3.6119369912e+000	 1.7761013967e+000	-7.8244716857e-002
 3.5938380095e+000	 1.8124440298e+000	-1.0455665253e-001
 3.5753431275e+000	 1.8486607371e+000	-1.2939690118e-001
 3.7656426193e+000	 1.4907835738e+000	 1.4173775821e-001
 3.7506391005e+000	 1.5281381932e+000	 1.1474984040e-001
 3.7352337488e+000	 1.5654165074e+000	 8.8026230371e-002
 3.7194265541e+000	 1.6026122765e+000	 6.0811523742e-002
 3.7032176310e+000	 1.6397192373e+000	 3.3408137951e-002
 3.6866072204e+000	 1.6767311062e+000	 6.1063306684e-003
 3.6695956900e+000	 1.7136415821e+000	-2.0791043233e-002
 3.6521835358e+000	 1.7504443496e+000	-4.6968868462e-002
 3.6343713825e+000	 1.7871330824e+000	-7.2100140611e-002
 3.6161599847e+000	 1.8237014462e+000	-9.5846371772e-002
 3.5975502277e+000	 1.8601431019e+000	-1.1785803015e-001
 3.7888873268e+000	 1.4999859415e+000	 1.3725257701e-001
 3.7737911937e+000	 1.5375711450e+000	 1.0868751097e-001
 3.7582907473e+000	 1.5750795722e+000	 8.2685222224e-002
 3.7423859773e+000	 1.6125049449e+000	 5.7775058050e-002
 3.7260769991e+000	 1.6498409610e+000	 3.1677821034e-002
 3.7093640551e+000	 1.6870812982e+000	 5.9048703200e-003
 3.6922475153e+000	 1.7242196165e+000	-1.9234118537e-002
 3.6747278786e+000	 1.7612495617e+000	-4.3417161024e-002
 3.6568057737e+000	 1.7981647681e+000	-6.6310345190e-002
 3.6384819600e+000	 1.8349588625e+000	-8.7568247915e-002
 3.6197573278e+000	 1.8716254667e+000	-1.0683438563e-001
 3.8121320343e+000	 1.5091883092e+000	 1.3255941623e-001
 3.7969432870e+000	 1.5470040968e+000	 1.0234656348e-001
 3.7813477457e+000	 1.5847426371e+000	 7.4931739930e-002
 3.7653454004e+000	 1.6223976132e+000	 5.0742664533e-002
 3.7489363672e+000	 1.6599626847e+000	 2.9837450767e-002
 3.7321208898e+000	 1.6974314902e+000	 5.5396051848e-003
 3.7148993405e+000	 1.7347976510e+000	-1.7900780729e-002
 3.6972722214e+000	 1.7720547737e+000	-4.0154769817e-002
 3.6792401650e+000	 1.8091964538e+000	-6.0881452010e-002
 3.6608039352e+000	 1.8462162788e+000	-7.9728371325e-002
 3.6419644280e+000	 1.8831078316e+000	-1.0175723845e-001
 3.8353767419e+000	 1.5183906770e+000	 1.2764357473e-001
 3.8200953802e+000	 1.5564370487e+000	 9.5711782288e-002
 3.8044047442e+000	 1.5944057020e+000	 6.6807402324e-002
 3.7883048236e+000	 1.6322902816e+000	 4.1367894848e-002
 3.7717957353e+000	 1.6700844084e+000	 1.9843444475e-002
 3.7548777245e+000	 1.7077816822e+000	 2.6964357196e-003
 3.7375511658e+000	 1.7453756855e+000	-1.6796719874e-002
 3.7198165642e+000	 1.7828599857e+000	-3.7187441256e-002
 3.7016745562e+000	 1.8202281395e+000	-5.5819227775e-002
 3.6831259104e+000	 1.8574736952e+000	-7.2332492158e-002
 3.6641715282e+000	 1.8945901964e+000	-9.9214081218e-002
 3.8586214494e+000	 1.5275930447e+000	 1.2249075315e-001
 3.8432474734e+000	 1.5658700005e+000	 8.8768351592e-002
 3.8274617426e+000	 1.6040687668e+000	 5.8296909848e-002
 3.8112642468e+000	 1.6421829500e+000	 3.1523723431e-002
 3.7946551034e+000	 1.6802061321e+000	 8.9089042244e-003
 3.7776345592e+000	 1.7181318743e+000	-9.0751573619e-003
 3.7602029910e+000	 1.7559537199e+000	-2.1944369214e-002
 3.7423609070e+000	 1.7936651978e+000	-3.4520565198e-002
 3.7241089475e+000	 1.8312598252e+000	-5.1129095165e-002
 3.7054478856e+000	 1.8687311115e+000	-6.5386030609e-002
 3.6863786283e+000	 1.9060725612e+000	-9.6888318237e-002
 3.8818661569e+000	 1.5367954125e+000	 1.1708704191e-001
 3.8663995666e+000	 1.5753029523e+000	 8.1501843490e-002
 3.8505187411e+000	 1.6137318317e+000	 4.9385347494e-002
 3.8342236700e+000	 1.6520756183e+000	 2.1194780375e-002
 3.8175144715e+000	 1.6903278558e+000	-2.5997160561e-003
 3.8003913939e+000	 1.7284820663e+000	-2.1515635674e-002
 3.7828548162e+000	 1.7665317544e+000	-3.5058698654e-002
 3.7649052498e+000	 1.8044704098e+000	-4.2723481128e-002
 3.7465433387e+000	 1.8422915109e+000	-4.6816143134e-002
 3.7277698608e+000	 1.8799885278e+000	-6.1780634632e-002
 3.7085857285e+000	 1.9175549260e+000	-9.4762056501e-002
 3.9051108645e+000	 1.5459977802e+000	 1.1141890962e-001
 3.8895516598e+000	 1.5847359041e+000	 7.3898206415e-002
 3.8735757395e+000	 1.6233948965e+000	 4.0058173352e-002
 3.8571830931e+000	 1.6619682867e+000	 1.0366064218e-002
 3.8403738396e+000	 1.7004495794e+000	-1.4697845609e-002
 3.8231482286e+000	 1.7388322583e+000	-3.4640823488e-002
 3.8055066415e+000	 1.7771097888e+000	-4.8958283997e-002
 3.7874495926e+000	 1.8152756218e+000	-5.7134433029e-002
 3.7689777300e+000	 1.8533231966e+000	-5.8642950863e-002
 3.7500918360e+000	 1.8912459442e+000	-6.2101692227e-002
 3.7307928287e+000	 1.9290372909e+000	-9.2817107125e-002
 3.9283555720e+000	 1.5552001479e+000	 1.0547319185e-001
 3.9127037530e+000	 1.5941688559e+000	 6.5943754008e-002
 3.8966327380e+000	 1.6330579614e+000	 3.0301207577e-002
 3.8801425163e+000	 1.6718609551e+000	-9.7706895026e-004
 3.8632332077e+000	 1.7105713031e+000	-2.7400562022e-002
 3.8459050633e+000	 1.7491824503e+000	-4.8466200698e-002
 3.8281584667e+000	 1.7876878233e+000	-6.3658975089e-002
 3.8099939354e+000	 1.8260808339e+000	-7.2452594984e-002
 3.7914121212e+000	 1.8643548823e+000	-7.4310188032e-002
 3.7724138112e+000	 1.9025033605e+000	-8.3714696289e-002
 3.7529999288e+000	 1.9405196557e+000	-9.4194401545e-002
 3.9516002795e+000	 1.5644025157e+000	 9.9237080366e-002
 3.9358558462e+000	 1.6036018077e+000	 5.7625154372e-002
 3.9196897364e+000	 1.6427210263e+000	 2.0100621739e-002
 3.9031019395e+000	 1.6817536235e+000	-1.2848916009e-002
 3.8860925758e+000	 1.7206930268e+000	-4.0722601567e-002
 3.8686618980e+000	 1.7595326423e+000	-6.3006912946e-002
 3.8508102920e+000	 1.7982658577e+000	-7.9176295932e-002
 3.8325382783e+000	 1.8368860459e+000	-8.8693837364e-002
 3.8138465125e+000	 1.8753865680e+000	-9.1199457018e-002
 3.7947357865e+000	 1.9137607768e+000	-1.0605728743e-001
 3.7752070290e+000	 1.9520020205e+000	-1.1628846139e-001
 3.5531360273e+000	 1.8371783722e+000	-1.4144464432e-001
 3.5343635826e+000	 1.8730387253e+000	-1.5559823055e-001
 3.5151998336e+000	 1.9087614125e+000	-1.9140400717e-001
 3.4956460444e+000	 1.9443401791e+000	-2.2605446573e-001
 3.4757036097e+000	 1.9797687788e+000	-2.5775076254e-001
 3.4553740550e+000	 2.0150409773e+000	-2.8618059387e-001
 3.4346590368e+000	 2.0501505556e+000	-3.1102436104e-001
 3.4135603429e+000	 2.0850913135e+000	-3.3195562725e-001
 3.3920798916e+000	 2.1198570727e+000	-3.4864160138e-001
 3.3702197324e+000	 2.1544416806e+000	-3.6074364784e-001
 3.3479820449e+000	 2.1888390135e+000	-3.6791782188e-001
 3.5753431275e+000	 1.8486607371e+000	-1.2939690118e-001
 3.5564533549e+000	 1.8847452173e+000	-1.4891485916e-001
 3.5371698326e+000	 1.9206911713e+000	-1.8502081806e-001
 3.5174938322e+000	 1.9564923052e+000	-2.1888666905e-001
 3.4974267573e+000	 1.9921423336e+000	-2.5020714045e-001
 3.4769701428e+000	 2.0276349834e+000	-2.7866867068e-001
 3.4561256558e+000	 2.0629639966e+000	-3.0394983694e-001
 3.4348950950e+000	 2.0981231342e+000	-3.2572181236e-001
 3.4132803910e+000	 2.1331061794e+000	-3.4364885108e-001
 3.3912836057e+000	 2.1679069412e+000	-3.5738880036e-001
 3.3689069327e+000	 2.2025192574e+000	-3.6659363919e-001
 3.5975502277e+000	 1.8601431019e+000	-1.1785803015e-001
 3.5785431273e+000	 1.8964517093e+000	-1.4412472227e-001
 3.5591398315e+000	 1.9326209301e+000	-1.7914844024e-001
 3.5393416200e+000	 1.9686444313e+000	-2.1234008373e-001
 3.5191499048e+000	 2.0045158885e+000	-2.4339355275e-001
 3.4985662307e+000	 2.0402289895e+000	-2.7199388914e-001
 3.4775922748e+000	 2.0757774376e+000	-2.9781770469e-001
 3.4562298472e+000	 2.1111549549e+000	-3.2053363867e-001
 3.4344808903e+000	 2.1463552861e+000	-3.3980284432e-001
 3.4123474791e+000	 2.1813722017e+000	-3.5527950351e-001
 3.3898318204e+000	 2.2161995012e+000	-3.6661136874e-001
 3.6197573278e+000	 1.8716254667e+000	-1.0683438563e-001
 3.6006328997e+000	 1.9081582014e+000	-1.3971557644e-001
 3.5811098305e+000	 1.9445506890e+000	-1.7376763980e-001
 3.5611894078e+000	 1.9807965574e+000	-2.0639433044e-001
 3.5408730524e+000	 2.0168894434e+000	-2.3728858470e-001
 3.5201623185e+000	 2.0528229956e+000	-2.6613390961e-001
 3.4990588938e+000	 2.0885908786e+000	-2.9260481055e-001
 3.4775645993e+000	 2.1241867756e+000	-3.1636724940e-001
 3.4556813896e+000	 2.1596043928e+000	-3.3707913261e-001
 3.4334113524e+000	 2.1948374622e+000	-3.5439082845e-001
 3.4107567082e+000	 2.2298797451e+000	-3.6794571274e-001
 3.6419644280e+000	 1.8831078316e+000	-1.0175723845e-001
 3.6227226721e+000	 1.9198646934e+000	-1.3566914650e-001
 3.6030798295e+000	 1.9564804478e+000	-1.6885892296e-001
 3.5830371956e+000	 1.9929486836e+000	-2.0102880443e-001
 3.5625962000e+000	 2.0292629983e+000	-2.3187062871e-001
 3.5417584064e+000	 2.0654170017e+000	-2.6106623017e-001
 3.5205255128e+000	 2.1014043195e+000	-2.8828786717e-001
 3.4988993514e+000	 2.1372185963e+000	-3.1319868090e-001
 3.4768818889e+000	 2.1728534996e+000	-3.3545318525e-001
 3.4544752257e+000	 2.2083027227e+000	-3.5469778685e-001
 3.4316815960e+000	 2.2435599889e+000	-3.7057133460e-001
 3.6641715282e+000	 1.8945901964e+000	-9.9214081218e-002
 3.6448124445e+000	 1.9315711854e+000	-1.3196687015e-001
 3.6250498284e+000	 1.9684102066e+000	-1.6440254402e-001
 3.6048849833e+000	 2.0051008097e+000	-1.9622268241e-001
 3.5843193475e+000	 2.0416365531e+000	-2.2711789015e-001
 3.5633544942e+000	 2.0780110078e+000	-2.5676819155e-001
 3.5419921317e+000	 2.1142177605e+000	-2.8484345760e-001
 3.5202341036e+000	 2.1502504171e+000	-3.1100386580e-001
 3.4980823883e+000	 2.1861026063e+000	-3.3490039184e-001
 3.4755390991e+000	 2.2217679832e+000	-3.5617533268e-001
 3.4526064838e+000	 2.2572402327e+000	-3.7446286007e-001
 3.6863786283e+000	 1.9060725612e+000	-9.6888318237e-002
 3.6669022169e+000	 1.9432776775e+000	-1.2858990658e-001
 3.6470198274e+000	 1.9803399655e+000	-1.6037851289e-001
 3.6267327711e+000	 2.0172529358e+000	-1.9195492906e-001
 3.6060424951e+000	 2.0540101080e+000	-2.2300839298e-001
 3.5849505821e+000	 2.0906050139e+000	-2.5321698183e-001
 3.5634587507e+000	 2.1270312015e+000	-2.8224803926e-001
 3.5415688557e+000	 2.1632822378e+000	-3.0975863619e-001
 3.5192828876e+000	 2.1993517130e+000	-3.3539606465e-001
 3.4966029724e+000	 2.2352332437e+000	-3.5879836395e-001
 3.4735313716e+000	 2.2709204766e+000	-3.7959487844e-001
 3.7085857285e+000	 1.9175549260e+000	-9.4762056501e-002
 3.6889919893e+000	 1.9549841695e+000	-1.2551914481e-001
 3.6689898263e+000	 1.9922697243e+000	-1.5676660247e-001
 3.6485805589e+000	 2.0294050619e+000	-1.8820430343e-001
 3.6277656426e+000	 2.0663836629e+000	-2.1951998520e-001
 3.6065466699e+000	 2.1031990201e+000	-2.5038964109e-001
 3.5849253697e+000	 2.1398446424e+000	-2.8047794766e-001
 3.5629036079e+000	 2.1763140585e+000	-3.0943872661e-001
 3.5404833869e+000	 2.2126008197e+000	-3.3691544095e-001
 3.5176668457e+000	 2.2486985042e+000	-3.6254172440e-001
 3.4944562593e+000	 2.2846007204e+000	-3.8594194357e-001
 3.7307928287e+000	 1.9290372909e+000	-9.2817107125e-002
 3.7110817617e+000	 1.9666906615e+000	-1.2273521175e-001
 3.6909598253e+000	 2.0041994831e+000	-1.5354635562e-001
 3.6704283467e+000	 2.0415571880e+000	-1.8494936507e-001
 3.6494887902e+000	 2.0787572177e+000	-2.1663034406e-001
 3.6281427577e+000	 2.1157930262e+000	-2.4826306574e-001
 3.6063919887e+000	 2.1526580834e+000	-2.7950940002e-001
 3.5842383600e+000	 2.1893458792e+000	-3.1001977697e-001
 3.5616838862e+000	 2.2258499264e+000	-3.3943368526e-001
 3.5387307190e+000	 2.2621637647e+000	-3.6738020509e-001
 3.5153811471e+000	 2.2982809642e+000	-3.9347857497e-001
 3.7529999288e+000	 1.9405196557e+000	-9.4194401545e-002
 3.7331715341e+000	 1.9783971536e+000	-1.2021847996e-001
 3.7129298243e+000	 2.0161292419e+000	-1.5069709205e-001
 3.6922761344e+000	 2.0537093142e+000	-1.8216847987e-001
 3.6712119378e+000	 2.0911307726e+000	-2.1431698116e-001
 3.6497388456e+000	 2.1283870323e+000	-2.4681401278e-001
 3.6278586077e+000	 2.1654715244e+000	-2.7931849881e-001
 3.6055731122e+000	 2.2023776999e+000	-3.1147733533e-001
 3.5828843855e+000	 2.2390990331e+000	-3.4292589146e-001
 3.5597945924e+000	 2.2756290252e+000	-3.7328854600e-001
 3.5363060349e+000	 2.3119612081e+000	-4.0217925882e-001
 3.7752070290e+000	 1.9520020205e+000	-1.1628846139e-001
 3.7552613065e+000	 1.9901036456e+000	-1.2403601668e-001
 3.7348998232e+000	 2.0280590008e+000	-1.4819791483e-001
 3.7141239222e+000	 2.0658614403e+000	-1.7983982583e-001
 3.6929350853e+000	 2.1035043275e+000	-2.1255724726e-001
 3.6713349334e+000	 2.1409810384e+000	-2.4601910396e-001
 3.6493252266e+000	 2.1782849654e+000	-2.7988123509e-001
 3.6269078643e+000	 2.2154095206e+000	-3.1378686059e-001
 3.6040848849e+000	 2.2523481398e+000	-3.4736708492e-001
 3.5808584657e+000	 2.2890942857e+000	-3.8024143748e-001
 3.5572309227e+000	 2.3256414519e+000	-4.1201844895e-001
 3.3479820449e+000	 2.1888390135e+000	-3.6791782188e-001
 3.3253691387e+000	 2.2230429801e+000	-3.9909031454e-001
 3.3023834532e+000	 2.2570475246e+000	-4.2974218042e-001
 3.2790275563e+000	 2.2908466307e+000	-4.5933560628e-001
 3.2553041442e+000	 2.3244343245e+000	-4.8732389458e-001
 3.2312160404e+000	 2.3578046781e+000	-5.1315226944e-001
 3.2067661948e+000	 2.3909518130e+000	-5.3625871026e-001
 3.1819576824e+000	 2.4238699031e+000	-5.5607481141e-001
 3.1567937025e+000	 2.4565531787e+000	-5.7202666614e-001
 3.1312775773e+000	 2.4889959289e+000	-5.8353577315e-001
 3.1054127503e+000	 2.5211925056e+000	-5.8119046205e-001
 3.3689069327e+000	 2.2025192574e+000	-3.6659363919e-001
 3.3461526958e+000	 2.2369369987e+000	-3.9608359462e-001
 3.3230233498e+000	 2.2711540716e+000	-4.2451960076e-001
 3.2995214785e+000	 2.3051644221e+000	-4.5135833542e-001
 3.2756497951e+000	 2.3389620390e+000	-4.7604791289e-001
 3.2514111407e+000	 2.3725409573e+000	-4.9802870292e-001
 3.2268084835e+000	 2.4058952618e+000	-5.1673417709e-001
 3.2018449179e+000	 2.4390190900e+000	-5.3159178120e-001
 3.1765236632e+000	 2.4719066360e+000	-5.4202383161e-001
 3.1508480621e+000	 2.5045521534e+000	-5.5344476059e-001
 3.1248215800e+000	 2.5369499587e+000	-5.9794436298e-001
 3.3898318204e+000	 2.2161995012e+000	-3.6661136874e-001
 3.3669362530e+000	 2.2508310173e+000	-3.9456568220e-001
 3.3436632464e+000	 2.2852606186e+000	-4.2094128979e-001
 3.3200154007e+000	 2.3194822135e+000	-4.4518920811e-001
 3.2959954460e+000	 2.3534897535e+000	-4.6675220269e-001
 3.2716062409e+000	 2.3872772366e+000	-4.8506562004e-001
 3.2468507722e+000	 2.4208387106e+000	-4.9955824713e-001
 3.2217321534e+000	 2.4541682769e+000	-5.0965319647e-001
 3.1962536238e+000	 2.4872600934e+000	-5.1476881532e-001
 3.1704185470e+000	 2.5201083780e+000	-5.4002559113e-001
 3.1442304097e+000	 2.5527074119e+000	-5.7839558141e-001
 3.4107567082e+000	 2.2298797451e+000	-3.6794571274e-001
 3.3877198101e+000	 2.2647250359e+000	-3.9451004399e-001
 3.3643031429e+000	 2.2993671657e+000	-4.1897938157e-001
 3.3405093230e+000	 2.3338000050e+000	-4.4079892838e-001
 3.3163410969e+000	 2.3680174680e+000	-4.5940594028e-001
 3.2918013412e+000	 2.4020135158e+000	-4.7423057156e-001
 3.2668930610e+000	 2.4357821594e+000	-4.8469674750e-001
 3.2416193890e+000	 2.4693174638e+000	-4.9022306264e-001
 3.2159835844e+000	 2.5026135508e+000	-4.9331265123e-001
 3.1899890318e+000	 2.5356646025e+000	-5.2831632733e-001
 3.1636392394e+000	 2.5684648651e+000	-5.6037629876e-001
 3.4316815960e+000	 2.2435599889e+000	-3.7057133460e-001
 3.4085033672e+000	 2.2786190546e+000	-3.9589015039e-001
 3.3849430395e+000	 2.3134737127e+000	-4.1860605943e-001
 3.3610032452e+000	 2.3481177964e+000	-4.3815829804e-001
 3.3366867478e+000	 2.3825451826e+000	-4.5397845133e-001
 3.3119964414e+000	 2.4167497950e+000	-4.6549131208e-001
 3.2869353497e+000	 2.4507256083e+000	-4.7211576672e-001
 3.2615066245e+000	 2.4844666507e+000	-4.7326570690e-001
 3.2357135451e+000	 2.5179670081e+000	-4.8890546302e-001
 3.2095595167e+000	 2.5512208271e+000	-5.1827872176e-001
 3.1830480690e+000	 2.5842223182e+000	-5.4419845892e-001
 3.4526064838e+000	 2.2572402327e+000	-3.7446286007e-001
 3.4292869243e+000	 2.2925130732e+000	-3.9867947539e-001
 3.4055829361e+000	 2.3275802597e+000	-4.1979355440e-001
 3.3814971674e+000	 2.3624355879e+000	-4.3723821372e-001
 3.3570323987e+000	 2.3970728971e+000	-4.5043920628e-001
 3.3321915417e+000	 2.4314860743e+000	-4.5881579386e-001
 3.3069776384e+000	 2.4656690571e+000	-4.6178164670e-001
 3.2813938600e+000	 2.4996158376e+000	-4.5874576850e-001
 3.2554435057e+000	 2.5333204655e+000	-4.8597160529e-001
 3.2291300016e+000	 2.5667770517e+000	-5.0987496472e-001
 3.2024568987e+000	 2.5999797714e+000	-5.2982155224e-001
 3.4735313716e+000	 2.2709204766e+000	-3.7959487844e-001
 3.4500704814e+000	 2.3064070918e+000	-4.0285149644e-001
 3.4262228327e+000	 2.3416868067e+000	-4.2251414383e-001
 3.4019910896e+000	 2.3767533793e+000	-4.3800966400e-001
 3.3773780496e+000	 2.4116006116e+000	-4.4875781601e-001
 3.3523866420e+000	 2.4462223535e+000	-4.5417216090e-001
 3.3270199271e+000	 2.4806125059e+000	-4.5366097516e-001
 3.3012810955e+000	 2.5147650245e+000	-4.6165564285e-001
 3.2751734664e+000	 2.5486739229e+000	-4.8447623004e-001
 3.2487004864e+000	 2.5823332762e+000	-5.0306767108e-001
 3.2218657284e+000	 2.6157372245e+000	-5.1720555869e-001
 3.4944562593e+000	 2.2846007204e+000	-3.8594194357e-001
 3.4708540386e+000	 2.3203011104e+000	-4.0837969439e-001
 3.4468627293e+000	 2.3557933538e+000	-4.2674014995e-001
 3.4224850119e+000	 2.3910711707e+000	-4.4044372664e-001
 3.3977237005e+000	 2.4261283262e+000	-4.4890402762e-001
 3.3725817422e+000	 2.4609586328e+000	-4.5152874319e-001
 3.3470622158e+000	 2.4955559548e+000	-4.4772057827e-001
 3.3211683310e+000	 2.5299142114e+000	-4.6622556427e-001
 3.2949034270e+000	 2.5640273802e+000	-4.8438484066e-001
 3.2682709713e+000	 2.5978895008e+000	-4.9781986752e-001
 3.2412745581e+000	 2.6314946777e+000	-5.0631093311e-001
 3.5153811471e+000	 2.2982809642e+000	-3.9347857497e-001
 3.4916375957e+000	 2.3341951291e+000	-4.1523755332e-001
 3.4675026259e+000	 2.3698999008e+000	-4.3244393861e-001
 3.4429789341e+000	 2.4053889622e+000	-4.4451156599e-001
 3.4180693514e+000	 2.4406560407e+000	-4.5084772040e-001
 3.3927768425e+000	 2.4756949120e+000	-4.5085405115e-001
 3.3671045045e+000	 2.5104994036e+000	-4.5337734759e-001
 3.3410555665e+000	 2.5450633983e+000	-4.7201858125e-001
 3.3146333876e+000	 2.5793808376e+000	-4.8566328149e-001
 3.2878414561e+000	 2.6134457253e+000	-4.9409498033e-001
 3.2606833878e+000	 2.6472521309e+000	-4.9709859116e-001
 3.5363060349e+000	 2.3119612081e+000	-4.0217925882e-001
 3.5124211528e+000	 2.3480891477e+000	-4.2339856053e-001
 3.4881425224e+000	 2.3840064478e+000	-4.3959791791e-001
 3.4634728563e+000	 2.4197067536e+000	-4.5018443035e-001
 3.4384150023e+000	 2.4551837552e+000	-4.5455890191e-001
 3.4129719427e+000	 2.4904311912e+000	-4.5211677031e-001
 3.3871467933e+000	 2.5254428524e+000	-4.6424539523e-001
 3.3609428020e+000	 2.5602125852e+000	-4.7900313903e-001
 3.3343633483e+000	 2.5947342950e+000	-4.8827772770e-001
 3.3074119410e+000	 2.6290019499e+000	-4.9185682357e-001
 3.2800922175e+000	 2.6630095840e+000	-4.8952989561e-001
 3.5572309227e+000	 2.3256414519e+000	-4.1201844895e-001
 3.5332047099e+000	 2.3619831663e+000	-4.3283620636e-001
 3.5087824190e+000	 2.3981129948e+000	-4.4817453700e-001
 3.4839667785e+000	 2.4340245451e+000	-4.5743364955e-001
 3.4587606532e+000	 2.4697114697e+000	-4.6000770420e-001
 3.4331670430e+000	 2.5051674705e+000	-4.5937413413e-001
 3.4071890820e+000	 2.5403863013e+000	-4.7613768531e-001
 3.3808300376e+000	 2.5753617721e+000	-4.8714795117e-001
 3.3540933089e+000	 2.6100877523e+000	-4.9219467558e-001
 3.3269824258e+000	 2.6445581744e+000	-4.9106958763e-001
 3.2995010472e+000	 2.6787670372e+000	-4.8356664326e-001
 3.1054127503e+000	 2.5211925056e+000	-5.8119046205e-001
 3.0792027853e+000	 2.5531373263e+000	-5.8894244724e-001
 3.0526513643e+000	 2.5848248776e+000	-5.9840777104e-001
 3.0257622864e+000	 2.6162497178e+000	-6.0927339917e-001
 2.9985394656e+000	 2.6474064805e+000	-6.2121496541e-001
 2.9709869289e+000	 2.6782898775e+000	-6.3389744723e-001
 2.9431088147e+000	 2.7088947016e+000	-6.4697587488e-001
 2.9149093706e+000	 2.7392158296e+000	-6.6009607238e-001
 2.8863929509e+000	 2.7692482252e+000	-6.7289542857e-001
 2.8575640151e+000	 2.7989869417e+000	-6.8500369629e-001
 2.8284271247e+000	 2.8284271247e+000	-6.9604381782e-001
 3.1248215800e+000	 2.5369499587e+000	-5.9794436298e-001
 3.0984478027e+000	 2.5690944346e+000	-6.0060524410e-001
 3.0717304354e+000	 2.6009800331e+000	-6.0565580148e-001
 3.0446733007e+000	 2.6326012785e+000	-6.1276719857e-001
 3.0172803372e+000	 2.6639527710e+000	-6.2159836964e-001
 2.9895555972e+000	 2.6950291893e+000	-6.3179671786e-001
 2.9615032448e+000	 2.7258252935e+000	-6.4299884855e-001
 2.9331275541e+000	 2.7563359285e+000	-6.5483133581e-001
 2.9044329069e+000	 2.7865560266e+000	-6.6691152062e-001
 2.8754237902e+000	 2.8164806100e+000	-6.7884833868e-001
 2.8461047943e+000	 2.8461047943e+000	-6.9024317563e-001
 3.1442304097e+000	 2.5527074119e+000	-5.7839558141e-001
 3.1176928201e+000	 2.5850515429e+000	-6.1367372628e-001
 3.0908095064e+000	 2.6171351885e+000	-6.1417379153e-001
 3.0635843150e+000	 2.6489528392e+000	-6.1739243790e-001
 3.0360212089e+000	 2.6804990615e+000	-6.2297183397e-001
 3.0081242655e+000	 2.7117685010e+000	-6.3054174049e-001
 2.9798976749e+000	 2.7427558854e+000	-6.3972026789e-001
 2.9513457377e+000	 2.7734560275e+000	-6.5011466869e-001
 2.9224728628e+000	 2.8038638280e+000	-6.6132216296e-001
 2.8932835653e+000	 2.8339742784e+000	-6.7293079481e-001
 2.8637824638e+000	 2.8637824638e+000	-6.8452031779e-001
 3.1636392394e+000	 2.5684648651e+000	-5.6037629876e-001
 3.1369378375e+000	 2.6010086512e+000	-6.0602192389e-001
 3.1098885774e+000	 2.6332903440e+000	-6.2386631926e-001
 3.0824953293e+000	 2.6653044000e+000	-6.2305757968e-001
 3.0547620806e+000	 2.6970453520e+000	-6.2524787608e-001
 3.0266929338e+000	 2.7285078127e+000	-6.3004925602e-001
 2.9982921050e+000	 2.7596864773e+000	-6.3706126233e-001
 2.9695639212e+000	 2.7905761264e+000	-6.4587175147e-001
 2.9405128187e+000	 2.8211716294e+000	-6.5605774649e-001
 2.9111433403e+000	 2.8514679468e+000	-6.6718632242e-001
 2.8814601333e+000	 2.8814601333e+000	-6.7881552195e-001
 3.1830480690e+000	 2.5842223182e+000	-5.4419845892e-001
 3.1561828549e+000	 2.6169657595e+000	-5.8650643913e-001
 3.1289676484e+000	 2.6494454995e+000	-6.2779396604e-001
 3.1014063436e+000	 2.6816559607e+000	-6.2967138039e-001
 3.0735029522e+000	 2.7135916425e+000	-6.2833922602e-001
 3.0452616021e+000	 2.7452471245e+000	-6.3023613322e-001
 3.0166865351e+000	 2.7766170692e+000	-6.3494300179e-001
 2.9877821048e+000	 2.8076962253e+000	-6.4202821482e-001
 2.9585527747e+000	 2.8384794308e+000	-6.5104851927e-001
 2.9290031154e+000	 2.8689616152e+000	-6.6154994047e-001
 2.8991378028e+000	 2.8991378028e+000	-6.7306872838e-001
 3.2024568987e+000	 2.5999797714e+000	-5.2982155224e-001
 3.1754278723e+000	 2.6329228678e+000	-5.6866095786e-001
 3.1480467195e+000	 2.6656006550e+000	-6.0697928084e-001
 3.1203173579e+000	 2.6980075215e+000	-6.3714288150e-001
 3.0922438239e+000	 2.7301379330e+000	-6.3215881980e-001
 3.0638302704e+000	 2.7619864362e+000	-6.3101936488e-001
 3.0350809652e+000	 2.7935476611e+000	-6.3328669545e-001
 3.0060002884e+000	 2.8248163243e+000	-6.3850964111e-001
 2.9765927306e+000	 2.8557872322e+000	-6.4622459074e-001
 2.9468628905e+000	 2.8864552836e+000	-6.5595643640e-001
 2.9168154724e+000	 2.9168154724e+000	-6.6721955017e-001
 3.2218657284e+000	 2.6157372245e+000	-5.1720555869e-001
 3.1946728897e+000	 2.6488799761e+000	-5.5244823147e-001
 3.1671257905e+000	 2.6817558105e+000	-5.8766336851e-001
 3.1392283722e+000	 2.7143590822e+000	-6.2273717286e-001
 3.1109846955e+000	 2.7466842236e+000	-6.3661979317e-001
 3.0823989387e+000	 2.7787257480e+000	-6.3231606406e-001
 3.0534753953e+000	 2.8104782529e+000	-6.3201359055e-001
 3.0242184719e+000	 2.8419364232e+000	-6.3524156585e-001
 2.9946326866e+000	 2.8730950336e+000	-6.4151593598e-001
 2.9647226656e+000	 2.9039489520e+000	-6.5034037304e-001
 2.9344931419e+000	 2.9344931419e+000	-6.6120728306e-001
 3.2412745581e+000	 2.6314946777e+000	-5.0631093311e-001
 3.2139179071e+000	 2.6648370844e+000	-5.3783142009e-001
 3.1862048615e+000	 2.6979109660e+000	-5.6981221936e-001
 3.1581393865e+000	 2.7307106429e+000	-6.0213072087e-001
 3.1297255672e+000	 2.7632305141e+000	-6.3466114913e-001
 3.1009676070e+000	 2.7954650597e+000	-6.3404346050e-001
 3.0718698253e+000	 2.8274088448e+000	-6.3104497125e-001
 3.0424366555e+000	 2.8590565222e+000	-6.3214947918e-001
 3.0126726425e+000	 2.8904028350e+000	-6.3685239969e-001
 2.9825824407e+000	 2.9214426203e+000	-6.4463609538e-001
 2.9521708114e+000	 2.9521708114e+000	-6.5497091499e-001
 3.2606833878e+000	 2.6472521309e+000	-4.9709859116e-001
 3.2331629245e+000	 2.6807941927e+000	-5.2477408046e-001
 3.2052839325e+000	 2.7140661215e+000	-5.5339215344e-001
 3.1770504007e+000	 2.7470622037e+000	-5.8282142972e-001
 3.1484664388e+000	 2.7797768046e+000	-6.1292680767e-001
 3.1195362753e+000	 2.8122043714e+000	-6.3611889715e-001
 3.0902642554e+000	 2.8443394367e+000	-6.3030215758e-001
 3.0606548391e+000	 2.8761766211e+000	-6.2915882711e-001
 3.0307125985e+000	 2.9077106364e+000	-6.3216370007e-001
 3.0004422158e+000	 2.9389362887e+000	-6.3877773707e-001
 2.9698484810e+000	 2.9698484810e+000	-6.4844913520e-001
 3.2800922175e+000	 2.6630095840e+000	-4.8952989561e-001
 3.2524079419e+000	 2.6967513009e+000	-5.1324015421e-001
 3.2243630036e+000	 2.7302212769e+000	-5.3836981077e-001
 3.1959614150e+000	 2.7634137644e+000	-5.6477875620e-001
 3.1672073105e+000	 2.7963230951e+000	-5.9232260699e-001
 3.1381049436e+000	 2.8289436832e+000	-6.2085287880e-001
 3.1086586855e+000	 2.8612700286e+000	-6.2970650431e-001
 3.0788730226e+000	 2.8932967200e+000	-6.2619501290e-001
 3.0487525544e+000	 2.9250184379e+000	-6.2737943260e-001
 3.0183019909e+000	 2.9564299571e+000	-6.3269922661e-001
 2.9875261505e+000	 2.9875261505e+000	-6.4158034314e-001
 3.2995010472e+000	 2.6787670372e+000	-4.8356664326e-001
 3.2716529593e+000	 2.7127084092e+000	-5.0319395650e-001
 3.2434420746e+000	 2.7463764324e+000	-5.2471214194e-001
 3.2148724293e+000	 2.7797653252e+000	-5.4797240218e-001
 3.1859481822e+000	 2.8128693856e+000	-5.7282111483e-001
 3.1566736119e+000	 2.8456829949e+000	-5.9910001536e-001
 3.1270531156e+000	 2.8782006205e+000	-6.2664639144e-001
 3.0970912062e+000	 2.9104168190e+000	-6.2318339830e-001
 3.0667925103e+000	 2.9423262393e+000	-6.2242907358e-001
 3.0361617660e+000	 2.9739236255e+000	-6.2633429344e-001
 3.0052038200e+000	 3.0052038200e+000	-6.3430265693e-001
 2.8284271247e+000	 2.8284271247e+000	-6.9604381782e-001
 2.7989869417e+000	 2.8575640151e+000	-7.1164599929e-001
 2.7692482252e+000	 2.8863929509e+000	-7.2488000752e-001
 2.7392158296e+000	 2.9149093706e+000	-7.3524279891e-001
 2.7088947016e+000	 2.9431088147e+000	-7.4222836242e-001
 2.6782898775e+000	 2.9709869289e+000	-7.4532876086e-001
 2.6474064805e+000	 2.9985394656e+000	-7.4403518413e-001
 2.6162497178e+000	 3.0257622864e+000	-7.3783901174e-001
 2.5848248776e+000	 3.0526513643e+000	-7.2623288193e-001
 2.5531373263e+000	 3.0792027853e+000	-7.0871176463e-001
 2.5211925056e+000	 3.1054127503e+000	-6.8477403550e-001
 2.8461047943e+000	 2.8461047943e+000	-6.9024317563e-001
 2.8164806100e+000	 2.8754237902e+000	-7.0420135702e-001
 2.7865560266e+000	 2.9044329069e+000	-7.1535832765e-001
 2.7563359285e+000	 2.9331275541e+000	-7.2319824254e-001
 2.7258252935e+000	 2.9615032448e+000	-7.2720255255e-001
 2.6950291893e+000	 2.9895555972e+000	-7.2685106850e-001
 2.6639527710e+000	 3.0172803372e+000	-7.2162303705e-001
 2.6326012785e+000	 3.0446733007e+000	-7.1099822563e-001
 2.6009800331e+000	 3.0717304354e+000	-6.9445801361e-001
 2.5690944346e+000	 3.0984478027e+000	-6.7148648701e-001
 2.5369499587e+000	 3.1248215800e+000	-6.4157153381e-001
 2.8637824638e+000	 2.8637824638e+000	-6.8452031779e-001
 2.8339742784e+000	 2.8932835653e+000	-6.9686451445e-001
 2.8038638280e+000	 2.9224728628e+000	-7.0598232876e-001
 2.7734560275e+000	 2.9513457377e+000	-7.1134493527e-001
 2.7427558854e+000	 2.9798976749e+000	-7.1242106027e-001
 2.7117685010e+000	 3.0081242655e+000	-7.0867806900e-001
 2.6804990615e+000	 3.0360212089e+000	-6.9958306456e-001
 2.6489528392e+000	 3.0635843150e+000	-6.8460399548e-001
 2.6171351885e+000	 3.0908095064e+000	-6.6321076940e-001
 2.5850515429e+000	 3.1176928201e+000	-6.3487636979e-001
 2.5527074119e+000	 3.1442304097e+000	-6.4893814678e-001
 2.8814601333e+000	 2.8814601333e+000	-6.7881552195e-001
 2.8514679468e+000	 2.9111433403e+000	-6.8957735917e-001
 2.8211716294e+000	 2.9405128187e+000	-6.9669544637e-001
 2.7905761264e+000	 2.9695639212e+000	-6.9962779690e-001
 2.7596864773e+000	 2.9982921050e+000	-6.9783022431e-001
 2.7285078127e+000	 3.0266929338e+000	-6.9075745305e-001
 2.6970453520e+000	 3.0547620806e+000	-6.7786424061e-001
 2.6653044000e+000	 3.0824953293e+000	-6.5860650828e-001
 2.6332903440e+000	 3.1098885774e+000	-6.3244247747e-001
 2.6010086512e+000	 3.1369378375e+000	-6.2679798348e-001
 2.5684648651e+000	 3.1636392394e+000	-6.5445952048e-001
 2.8991378028e+000	 2.8991378028e+000	-6.7306872838e-001
 2.8689616152e+000	 2.9290031154e+000	-6.8228142682e-001
 2.8384794308e+000	 2.9585527747e+000	-6.8744075202e-001
 2.8076962253e+000	 2.9877821048e+000	-6.8799137367e-001
 2.7766170692e+000	 3.0166865351e+000	-6.8337600269e-001
 2.7452471245e+000	 3.0452616021e+000	-6.7303652585e-001
 2.7135916425e+000	 3.0735029522e+000	-6.5641515143e-001
 2.6816559607e+000	 3.1014063436e+000	-6.3295556344e-001
 2.6494454995e+000	 3.1289676484e+000	-6.1045279211e-001
 2.6169657595e+000	 3.1561828549e+000	-6.3405951953e-001
 2.5842223182e+000	 3.1830480690e+000	-6.5769390909e-001
 2.9168154724e+000	 2.9168154724e+000	-6.6721955017e-001
 2.8864552836e+000	 2.9468628905e+000	-6.7491791184e-001
 2.8557872322e+000	 2.9765927306e+000	-6.7816096437e-001
 2.8248163243e+000	 3.0060002884e+000	-6.7637984956e-001
 2.7935476611e+000	 3.0350809652e+000	-6.6900398424e-001
 2.7619864362e+000	 3.0638302704e+000	-6.5546221887e-001
 2.7301379330e+000	 3.0922438239e+000	-6.3518400728e-001
 2.6980075215e+000	 3.1203173579e+000	-6.0760058460e-001
 2.6656006550e+000	 3.1480467195e+000	-6.1902067752e-001
 2.6329228678e+000	 3.1754278723e+000	-6.3903013801e-001
 2.5999797714e+000	 3.2024568987e+000	-6.5867577487e-001
 2.9344931419e+000	 2.9344931419e+000	-6.6120728306e-001
 2.9039489520e+000	 2.9647226656e+000	-6.6742767770e-001
 2.8730950336e+000	 2.9946326866e+000	-6.6879845975e-001
 2.8419364232e+000	 3.0242184719e+000	-6.6473705726e-001
 2.8104782529e+000	 3.0534753953e+000	-6.5465939971e-001
 2.7787257480e+000	 3.0823989387e+000	-6.3798110105e-001
 2.7466842236e+000	 3.1109846955e+000	-6.1411865378e-001
 2.7143590822e+000	 3.1392283722e+000	-6.0826149150e-001
 2.6817558105e+000	 3.1671257905e+000	-6.2529868747e-001
 2.6488799761e+000	 3.1946728897e+000	-6.4174427286e-001
 2.6157372245e+000	 3.2218657284e+000	-6.5743922987e-001
 2.9521708114e+000	 2.9521708114e+000	-6.5497091499e-001
 2.9214426203e+000	 2.9825824407e+000	-6.5975126683e-001
 2.8904028350e+000	 3.0126726425e+000	-6.5929528246e-001
 2.8590565222e+000	 3.0424366555e+000	-6.5300648861e-001
 2.8274088448e+000	 3.0718698253e+000	-6.4028713250e-001
 2.7954650597e+000	 3.1009676070e+000	-6.2053938970e-001
 2.7632305141e+000	 3.1297255672e+000	-6.0073215324e-001
 2.7307106429e+000	 3.1581393865e+000	-6.1543257255e-001
 2.6979109660e+000	 3.1862048615e+000	-6.2932112286e-001
 2.6648370844e+000	 3.2139179071e+000	-6.4223601145e-001
 2.6314946777e+000	 3.2412745581e+000	-6.5401804641e-001
 2.9698484810e+000	 2.9698484810e+000	-6.4844913520e-001
 2.9389362887e+000	 3.0004422158e+000	-6.5182891015e-001
 2.9077106364e+000	 3.0307125985e+000	-6.4959315465e-001
 2.8761766211e+000	 3.0606548391e+000	-6.4113130481e-001
 2.8443394367e+000	 3.0902642554e+000	-6.2583172902e-001
 2.8122043714e+000	 3.1195362753e+000	-6.0308296092e-001
 2.7797768046e+000	 3.1484664388e+000	-6.0839642824e-001
 2.7470622037e+000	 3.1770504007e+000	-6.2035357588e-001
 2.7140661215e+000	 3.2052839325e+000	-6.3112194388e-001
 2.6807941927e+000	 3.2331629245e+000	-6.4053910493e-001
 2.6472521309e+000	 3.2606833878e+000	-6.4844566725e-001
 2.9875261505e+000	 2.9875261505e+000	-6.4158034314e-001
 2.9564299571e+000	 3.0183019909e+000	-6.4360053634e-001
 2.9250184379e+000	 3.0487525544e+000	-6.3963348583e-001
 2.8932967200e+000	 3.0788730226e+000	-6.2905434614e-001
 2.8612700286e+000	 3.1086586855e+000	-6.1123740860e-001
 2.8289436832e+000	 3.1381049436e+000	-6.0318776089e-001
 2.7963230951e+000	 3.1672073105e+000	-6.1382043822e-001
 2.7634137644e+000	 3.1959614150e+000	-6.2305823824e-001
 2.7302212769e+000	 3.2243630036e+000	-6.3073478006e-001
 2.6967513009e+000	 3.2524079419e+000	-6.3668697814e-001
 2.6630095840e+000	 3.2800922175e+000	-6.4075521527e-001
 3.0052038200e+000	 3.0052038200e+000	-6.3430265693e-001
 2.9739236255e+000	 3.0361617660e+000	-6.3500578065e-001
 2.9423262393e+000	 3.0667925103e+000	-6.2935738207e-001
 2.9104168190e+000	 3.0970912062e+000	-6.1671814148e-001
 2.8782006205e+000	 3.1270531156e+000	-5.9883818961e-001
 2.8456829949e+000	 3.1566736119e+000	-6.0873333255e-001
 2.8128693856e+000	 3.1859481822e+000	-6.1703760625e-001
 2.7797653252e+000	 3.2148724293e+000	-6.2357997328e-001
 2.7463764324e+000	 3.2434420746e+000	-6.2819294004e-001
 2.7127084092e+000	 3.2716529593e+000	-6.3071273927e-001
 2.6787670372e+000	 3.2995010472e+000	-6.3097950293e-001
 2.5211925056e+000	 3.1054127503e+000	-6.8477403550e-001
 2.4889959289e+000	 3.1312775773e+000	-6.6562196339e-001
 2.4565531787e+000	 3.1567937025e+000	-6.7463212266e-001
 2.4238699031e+000	 3.1819576824e+000	-6.8265697177e-001
 2.3909518130e+000	 3.2067661948e+000	-6.8928729322e-001
 2.3578046781e+000	 3.2312160404e+000	-6.9410877996e-001
 2.3244343245e+000	 3.2553041442e+000	-6.9670297241e-001
 2.2908466307e+000	 3.2790275563e+000	-6.9664821077e-001
 2.2570475246e+000	 3.3023834532e+000	-6.9352060021e-001
 2.2230429801e+000	 3.3253691387e+000	-6.8689498620e-001
 2.1888390135e+000	 3.3479820449e+000	-6.7634593727e-001
 2.5369499587e+000	 3.1248215800e+000	-6.4157153381e-001
 2.5045521534e+000	 3.1508480621e+000	-6.8215822709e-001
 2.4719066360e+000	 3.1765236632e+000	-6.8874699212e-001
 2.4390190900e+000	 3.2018449179e+000	-6.8967855769e-001
 2.4058952618e+000	 3.2268084835e+000	-6.8994928588e-001
 2.3725409573e+000	 3.2514111407e+000	-6.8914355995e-001
 2.3389620390e+000	 3.2756497951e+000	-6.8684071323e-001
 2.3051644221e+000	 3.2995214785e+000	-6.8261599827e-001
 2.2711540716e+000	 3.3230233498e+000	-6.7604157009e-001
 2.2369369987e+000	 3.3461526958e+000	-6.6668748094e-001
 2.2025192574e+000	 3.3689069327e+000	-6.5412268368e-001
 2.5527074119e+000	 3.1442304097e+000	-6.4893814678e-001
 2.5201083780e+000	 3.1704185470e+000	-6.8395309850e-001
 2.4872600934e+000	 3.1962536238e+000	-7.0223042419e-001
 2.4541682769e+000	 3.2217321534e+000	-6.9632324071e-001
 2.4208387106e+000	 3.2468507722e+000	-6.9048614063e-001
 2.3872772366e+000	 3.2716062409e+000	-6.8430195095e-001
 2.3534897535e+000	 3.2959954460e+000	-6.7734755033e-001
 2.3194822135e+000	 3.3200154007e+000	-6.6919485537e-001
 2.2852606186e+000	 3.3436632464e+000	-6.5941182232e-001
 2.2508310173e+000	 3.3669362530e+000	-6.4756346163e-001
 2.2161995012e+000	 3.3898318204e+000	-6.3321286233e-001
 2.5684648651e+000	 3.1636392394e+000	-6.5445952048e-001
 2.5356646025e+000	 3.1899890318e+000	-6.8364150074e-001
 2.5026135508e+000	 3.2159835844e+000	-7.1177593487e-001
 2.4693174638e+000	 3.2416193890e+000	-7.0246916279e-001
 2.4357821594e+000	 3.2668930610e+000	-6.9077414183e-001
 2.4020135158e+000	 3.2918013412e+000	-6.7945857536e-001
 2.3680174680e+000	 3.3163410969e+000	-6.6809663927e-001
 2.3338000050e+000	 3.3405093230e+000	-6.5625666524e-001
 2.2993671657e+000	 3.3643031429e+000	-6.4350216135e-001
 2.2647250359e+000	 3.3877198101e+000	-6.2939284673e-001
 2.2298797451e+000	 3.4107567082e+000	-6.1348569735e-001
 2.5842223182e+000	 3.1830480690e+000	-6.5769390909e-001
 2.5512208271e+000	 3.2095595167e+000	-6.8125467912e-001
 2.5179670081e+000	 3.2357135451e+000	-7.0435559498e-001
 2.4844666507e+000	 3.2615066245e+000	-7.0799434851e-001
 2.4507256083e+000	 3.2869353497e+000	-6.9068953488e-001
 2.4167497950e+000	 3.3119964414e+000	-6.7448809163e-001
 2.3825451826e+000	 3.3366867478e+000	-6.5896124327e-001
 2.3481177964e+000	 3.3610032452e+000	-6.4367348693e-001
 2.3134737127e+000	 3.3849430395e+000	-6.2818363229e-001
 2.2786190546e+000	 3.4085033672e+000	-6.1204585667e-001
 2.2435599889e+000	 3.4316815960e+000	-5.9481077271e-001
 2.5999797714e+000	 3.2024568987e+000	-6.5867577487e-001
 2.5667770517e+000	 3.2291300016e+000	-6.7682360350e-001
 2.5333204655e+000	 3.2554435057e+000	-6.9509202360e-001
 2.4996158376e+000	 3.2813938600e+000	-7.1277670865e-001
 2.4656690571e+000	 3.3069776384e+000	-6.9010852735e-001
 2.4314860743e+000	 3.3321915417e+000	-6.6926519315e-001
 2.3970728971e+000	 3.3570323987e+000	-6.4981472995e-001
 2.3624355879e+000	 3.3814971674e+000	-6.3131755005e-001
 2.3275802597e+000	 3.4055829361e+000	-6.1332751362e-001
 2.2925130732e+000	 3.4292869243e+000	-5.9539300477e-001
 2.2572402327e+000	 3.4526064838e+000	-5.7705802134e-001
 2.6157372245e+000	 3.2218657284e+000	-6.5743922987e-001
 2.5823332762e+000	 3.2487004864e+000	-6.7037897652e-001
 2.5486739229e+000	 3.2751734664e+000	-6.8401262727e-001
 2.5147650245e+000	 3.3012810955e+000	-6.9811700942e-001
 2.4806125059e+000	 3.3270199271e+000	-6.8890729015e-001
 2.4462223535e+000	 3.3523866420e+000	-6.6366460718e-001
 2.4116006116e+000	 3.3773780496e+000	-6.4053056820e-001
 2.3767533793e+000	 3.4019910896e+000	-6.1906124962e-001
 2.3416868067e+000	 3.4262228327e+000	-5.9880531017e-001
 2.3064070918e+000	 3.4500704814e+000	-5.7930508832e-001
 2.2709204766e+000	 3.4735313716e+000	-5.6009771459e-001
 2.6314946777e+000	 3.2412745581e+000	-6.5401804641e-001
 2.5978895008e+000	 3.2682709713e+000	-6.6195124169e-001
 2.5640273802e+000	 3.2949034270e+000	-6.7114463091e-001
 2.5299142114e+000	 3.3211683310e+000	-6.8138177431e-001
 2.4955559548e+000	 3.3470622158e+000	-6.8696195861e-001
 2.4609586328e+000	 3.3725817422e+000	-6.5756109386e-001
 2.4261283262e+000	 3.3977237005e+000	-6.3098232513e-001
 2.3910711707e+000	 3.4224850119e+000	-6.0677714114e-001
 2.3557933538e+000	 3.4468627293e+000	-5.8448874637e-001
 2.3203011104e+000	 3.4708540386e+000	-5.6365318019e-001
 2.2846007204e+000	 3.4944562593e+000	-5.4380045210e-001
 2.6472521309e+000	 3.2606833878e+000	-6.4844566725e-001
 2.6134457253e+000	 3.2878414561e+000	-6.5157059100e-001
 2.5793808376e+000	 3.3146333876e+000	-6.5651508323e-001
 2.5450633983e+000	 3.3410555665e+000	-6.6306935681e-001
 2.5104994036e+000	 3.3671045045e+000	-6.7102420815e-001
 2.4756949120e+000	 3.3927768425e+000	-6.5082944524e-001
 2.4406560407e+000	 3.4180693514e+000	-6.2104366316e-001
 2.4053889622e+000	 3.4429789341e+000	-5.9433793578e-001
 2.3698999008e+000	 3.4675026259e+000	-5.7024975964e-001
 2.3341951291e+000	 3.4916375957e+000	-5.4830862054e-001
 2.2982809642e+000	 3.5153811471e+000	-5.2803715206e-001
 2.6630095840e+000	 3.2800922175e+000	-6.4075521527e-001
 2.6290019499e+000	 3.3074119410e+000	-6.3926697244e-001
 2.5947342950e+000	 3.3343633483e+000	-6.4015086192e-001
 2.5602125852e+000	 3.3609428020e+000	-6.4320367022e-001
 2.5254428524e+000	 3.3871467933e+000	-6.4822226712e-001
 2.4904311912e+000	 3.4129719427e+000	-6.4334448429e-001
 2.4551837552e+000	 3.4384150023e+000	-6.1058833717e-001
 2.4197067536e+000	 3.4634728563e+000	-5.8161649582e-001
 2.3840064478e+000	 3.4881425224e+000	-5.5596049418e-001
 2.3480891477e+000	 3.5124211528e+000	-5.3314300893e-001
 2.3119612081e+000	 3.5363060349e+000	-5.1267904177e-001
 2.6787670372e+000	 3.2995010472e+000	-6.3097950293e-001
 2.6445581744e+000	 3.3269824258e+000	-6.2507009717e-001
 2.6100877523e+000	 3.3540933089e+000	-6.2207867869e-001
 2.5753617721e+000	 3.3808300376e+000	-6.2180852994e-001
 2.5403863013e+000	 3.4071890820e+000	-6.2406252176e-001
 2.5051674705e+000	 3.4331670430e+000	-6.2864331367e-001
 2.4697114697e+000	 3.4587606532e+000	-5.9949019182e-001
 2.4340245451e+000	 3.4839667785e+000	-5.6848583016e-001
 2.3981129948e+000	 3.5087824190e+000	-5.4149329481e-001
 2.3619831663e+000	 3.5332047099e+000	-5.1802819674e-001
 2.3256414519e+000	 3.5572309227e+000	-4.9759764851e-001
 2.1888390135e+000	 3.3479820449e+000	-6.7634593727e-001
 2.1544416806e+000	 3.3702197324e+000	-6.4930463741e-001
 2.1198570727e+000	 3.3920798916e+000	-6.2421313692e-001
 2.0850913135e+000	 3.4135603429e+000	-6.0081584538e-001
 2.0501505556e+000	 3.4346590368e+000	-5.7885325201e-001
 2.0150409773e+000	 3.4553740550e+000	-5.5806279933e-001
 1.9797687788e+000	 3.4757036097e+000	-5.3817975939e-001
 1.9443401791e+000	 3.4956460444e+000	-5.1893810995e-001
 1.9087614125e+000	 3.5151998336e+000	-5.0007140817e-001
 1.8730387253e+000	 3.5343635826e+000	-4.8076190852e-001
 1.8371783722e+000	 3.5531360273e+000	-4.5478021306e-001
 2.2025192574e+000	 3.3689069327e+000	-6.5412268368e-001
 2.1679069412e+000	 3.3912836057e+000	-6.2913415150e-001
 2.1331061794e+000	 3.4132803910e+000	-6.0609621083e-001
 2.0981231342e+000	 3.4348950950e+000	-5.8473412695e-001
 2.0629639966e+000	 3.4561256558e+000	-5.6476923486e-001
 2.0276349834e+000	 3.4769701428e+000	-5.4591984400e-001
 1.9921423336e+000	 3.4974267573e+000	-5.2790214552e-001
 1.9564923052e+000	 3.5174938322e+000	-5.1043111913e-001
 1.9206911713e+000	 3.5371698326e+000	-4.9322143725e-001
 1.8847452173e+000	 3.5564533549e+000	-4.7598836372e-001
 1.8486607371e+000	 3.5753431275e+000	-4.5353715797e-001
 2.2161995012e+000	 3.3898318204e+000	-6.3321286233e-001
 2.1813722017e+000	 3.4123474791e+000	-6.1021238609e-001
 2.1463552861e+000	 3.4344808903e+000	-5.8916738981e-001
 2.1111549549e+000	 3.4562298472e+000	-5.6978385250e-001
 2.0757774376e+000	 3.4775922748e+000	-5.5176380857e-001
 2.0402289895e+000	 3.4985662307e+000	-5.3480628416e-001
 2.0045158885e+000	 3.5191499048e+000	-5.1860823561e-001
 1.9686444313e+000	 3.5393416200e+000	-5.0286548743e-001
 1.9326209301e+000	 3.5591398315e+000	-4.8727366714e-001
 1.8964517093e+000	 3.5785431273e+000	-4.7152913447e-001
 1.8601431019e+000	 3.5975502277e+000	-4.5266891187e-001
 2.2298797451e+000	 3.4107567082e+000	-6.1348569735e-001
 2.1948374622e+000	 3.4334113524e+000	-5.9241340167e-001
 2.1596043928e+000	 3.4556813896e+000	-5.7330559706e-001
 2.1241867756e+000	 3.4775645993e+000	-5.5584883081e-001
 2.0885908786e+000	 3.4990588938e+000	-5.3972568709e-001
 2.0528229956e+000	 3.5201623185e+000	-5.2461575509e-001
 2.0168894434e+000	 3.5408730524e+000	-5.1019659908e-001
 1.9807965574e+000	 3.5611894078e+000	-4.9614472780e-001
 1.9445506890e+000	 3.5811098305e+000	-4.8213656042e-001
 1.9081582014e+000	 3.6006328997e+000	-4.6784938641e-001
 1.8716254667e+000	 3.6197573278e+000	-4.5235697676e-001
 2.2435599889e+000	 3.4316815960e+000	-5.9481077271e-001
 2.2083027227e+000	 3.4544752257e+000	-5.7561154272e-001
 2.1728534996e+000	 3.4768818889e+000	-5.5838996427e-001
 2.1372185963e+000	 3.4988993514e+000	-5.4281300423e-001
 2.1014043195e+000	 3.5205255128e+000	-5.2854364353e-001
 2.0654170017e+000	 3.5417584064e+000	-5.1524187741e-001
 2.0292629983e+000	 3.5625962000e+000	-5.0256571745e-001
 1.9929486836e+000	 3.5830371956e+000	-4.9017219274e-001
 1.9564804478e+000	 3.6030798295e+000	-4.7771834722e-001
 1.9198646934e+000	 3.6227226721e+000	-4.6486223072e-001
 1.8831078316e+000	 3.6419644280e+000	-4.5126388067e-001
 2.2572402327e+000	 3.4526064838e+000	-5.7705802134e-001
 2.2217679832e+000	 3.4755390991e+000	-5.5968142906e-001
 2.1861026063e+000	 3.4980823883e+000	-5.4429982536e-001
 2.1502504171e+000	 3.5202341036e+000	-5.3056044469e-001
 2.1142177605e+000	 3.5419921317e+000	-5.1810650844e-001
 2.0780110078e+000	 3.5633544942e+000	-5.0657825757e-001
 2.0416365531e+000	 3.5843193475e+000	-4.9561398706e-001
 2.0051008097e+000	 3.6048849833e+000	-4.8485107910e-001
 1.9684102066e+000	 3.6250498284e+000	-4.7392703230e-001
 1.9315711854e+000	 3.6448124445e+000	-4.6248048404e-001
 1.8945901964e+000	 3.6641715282e+000	-4.5015222332e-001
 2.2709204766e+000	 3.4735313716e+000	-5.6009771459e-001
 2.2352332437e+000	 3.4966029724e+000	-5.4449794754e-001
 2.1993517130e+000	 3.5192828876e+000	-5.3091471034e-001
 2.1632822378e+000	 3.5415688557e+000	-5.1897534975e-001
 2.1270312015e+000	 3.5634587507e+000	-5.0830316800e-001
 2.0906050139e+000	 3.5849505821e+000	-4.9851848822e-001
 2.0540101080e+000	 3.6060424951e+000	-4.8923972157e-001
 2.0172529358e+000	 3.6267327711e+000	-4.8008443283e-001
 1.9803399655e+000	 3.6470198274e+000	-4.7067040179e-001
 1.9432776775e+000	 3.6669022169e+000	-4.6061667743e-001
 1.9060725612e+000	 3.6863786283e+000	-4.4954462201e-001
 2.2846007204e+000	 3.4944562593e+000	-5.4380045210e-001
 2.2486985042e+000	 3.5176668457e+000	-5.2993624411e-001
 2.2126008197e+000	 3.5404833869e+000	-5.1811433949e-001
 2.1763140585e+000	 3.5629036079e+000	-5.0794203886e-001
 2.1398446424e+000	 3.5849253697e+000	-4.9902256243e-001
 2.1031990201e+000	 3.6065466699e+000	-4.9095614869e-001
 2.0663836629e+000	 3.6277656426e+000	-4.8334115448e-001
 2.0294050619e+000	 3.6485805589e+000	-4.7577515341e-001
 1.9922697243e+000	 3.6689898263e+000	-4.6785602978e-001
 1.9549841695e+000	 3.6889919893e+000	-4.5918306483e-001
 1.9175549260e+000	 3.7085857285e+000	-4.4935801266e-001
 2.2982809642e+000	 3.5153811471e+000	-5.2803715206e-001
 2.2621637647e+000	 3.5387307190e+000	-5.1587171604e-001
 2.2258499264e+000	 3.5616838862e+000	-5.0577861767e-001
 2.1893458792e+000	 3.5842383600e+000	-4.9734494971e-001
 2.1526580834e+000	 3.6063919887e+000	-4.9015368434e-001
 2.1157930262e+000	 3.6281427577e+000	-4.8378480533e-001
 2.0787572177e+000	 3.6494887902e+000	-4.7781644149e-001
 2.0415571880e+000	 3.6704283467e+000	-4.7182599830e-001
 2.0041994831e+000	 3.6909598253e+000	-4.6539128458e-001
 1.9666906615e+000	 3.7110817617e+000	-4.5809163140e-001
 1.9290372909e+000	 3.7307928287e+000	-4.4950899994e-001
 2.3119612081e+000	 3.5363060349e+000	-5.1267904177e-001
 2.2756290252e+000	 3.5597945924e+000	-5.0218000454e-001
 2.2390990331e+000	 3.5828843855e+000	-4.9378762885e-001
 2.2023776999e+000	 3.6055731122e+000	-4.8706863475e-001
 2.1654715244e+000	 3.6278586077e+000	-4.8158557717e-001
 2.1283870323e+000	 3.6497388456e+000	-4.7689801191e-001
 2.0911307726e+000	 3.6712119378e+000	-4.7256366284e-001
 2.0537093142e+000	 3.6922761344e+000	-4.6813958708e-001
 2.0161292419e+000	 3.7129298243e+000	-4.6318333488e-001
 1.9783971536e+000	 3.7331715341e+000	-4.5725410141e-001
 1.9405196557e+000	 3.7529999288e+000	-4.4824760424e-001
 2.3256414519e+000	 3.5572309227e+000	-4.9759764851e-001
 2.2890942857e+000	 3.5808584657e+000	-4.8873698754e-001
 2.2523481398e+000	 3.6040848849e+000	-4.8202163085e-001
 2.2154095206e+000	 3.6269078643e+000	-4.7699775783e-001
 2.1782849654e+000	 3.6493252266e+000	-4.7320733374e-001
 2.1409810384e+000	 3.6713349334e+000	-4.7018931000e-001
 2.1035043275e+000	 3.6929350853e+000	-4.6748082548e-001
 2.0658614403e+000	 3.7141239222e+000	-4.6461840553e-001
 2.0280590008e+000	 3.7348998232e+000	-4.6113915555e-001
 1.9901036456e+000	 3.7552613065e+000	-4.5260146892e-001
 1.9520020205e+000	 3.7752070290e+000	-4.3487870608e-001
 1.8371783722e+000	 3.5531360273e+000	-4.5478021306e-001
 1.8011866135e+000	 3.5715160343e+000	-4.4081779422e-001
 1.7650697110e+000	 3.5895026000e+000	-4.2678233881e-001
 1.7288339256e+000	 3.6070948501e+000	-4.1255912483e-001
 1.6924855132e+000	 3.6242920395e+000	-3.9805026698e-001
 1.6560307222e+000	 3.6410935510e+000	-3.8317404558e-001
 1.6194757899e+000	 3.6574988949e+000	-3.6786420557e-001
 1.5828269397e+000	 3.6735077078e+000	-3.5206922861e-001
 1.5460903777e+000	 3.6891197520e+000	-3.3575158097e-001
 1.5092722896e+000	 3.7043349141e+000	-3.1888694020e-001
 1.4723788383e+000	 3.7191532043e+000	-3.0146340341e-001
 1.8486607371e+000	 3.5753431275e+000	-4.5353715797e-001
 1.8124440298e+000	 3.5938380095e+000	-4.3784225612e-001
 1.7761013967e+000	 3.6119369912e+000	-4.2180602673e-001
 1.7396391376e+000	 3.6296391930e+000	-4.0532892631e-001
 1.7030635476e+000	 3.6469438648e+000	-3.8832871997e-001
 1.6663809142e+000	 3.6638503857e+000	-3.7073977750e-001
 1.6295975136e+000	 3.6803582629e+000	-3.5251233893e-001
 1.5927196081e+000	 3.6964671309e+000	-3.3361175278e-001
 1.5557534425e+000	 3.7121767504e+000	-3.1401768986e-001
 1.5187052414e+000	 3.7274870073e+000	-2.9372333545e-001
 1.4815812060e+000	 3.7423979118e+000	-2.7273456312e-001
 1.8601431019e+000	 3.5975502277e+000	-4.5266891187e-001
 1.8237014462e+000	 3.6161599847e+000	-4.3529668691e-001
 1.7871330824e+000	 3.6343713825e+000	-4.1731012073e-001
 1.7504443496e+000	 3.6521835358e+000	-3.9862495556e-001
 1.7136415821e+000	 3.6695956900e+000	-3.7917472187e-001
 1.6767311062e+000	 3.6866072204e+000	-3.5891000113e-001
 1.6397192373e+000	 3.7032176310e+000	-3.3779765763e-001
 1.6026122765e+000	 3.7194265541e+000	-3.1582004253e-001
 1.5654165074e+000	 3.7352337488e+000	-2.9297417312e-001
 1.5281381932e+000	 3.7506391005e+000	-2.6987246438e-001
 1.4907835738e+000	 3.7656426193e+000	-2.6083328748e-001
 1.8716254667e+000	 3.6197573278e+000	-4.5235697676e-001
 1.8349588625e+000	 3.6384819600e+000	-4.3335710247e-001
 1.7981647681e+000	 3.6568057737e+000	-4.1346503939e-001
 1.7612495617e+000	 3.6747278786e+000	-3.9261192650e-001
 1.7242196165e+000	 3.6922475153e+000	-3.7074717842e-001
 1.6870812982e+000	 3.7093640551e+000	-3.4783771445e-001
 1.6498409610e+000	 3.7260769991e+000	-3.2386715632e-001
 1.6125049449e+000	 3.7423859773e+000	-2.9883499765e-001
 1.5750795722e+000	 3.7582907473e+000	-2.7968590685e-001
 1.5375711450e+000	 3.7737911937e+000	-2.6792397357e-001
 1.4999859415e+000	 3.7888873268e+000	-2.5764773629e-001
 1.8831078316e+000	 3.6419644280e+000	-4.5126388067e-001
 1.8462162788e+000	 3.6608039352e+000	-4.3219922221e-001
 1.8091964538e+000	 3.6792401650e+000	-4.1044098325e-001
 1.7720547737e+000	 3.6972722214e+000	-3.8745441412e-001
 1.7347976510e+000	 3.7148993405e+000	-3.6320493614e-001
 1.6974314902e+000	 3.7321208898e+000	-3.3767593652e-001
 1.6599626847e+000	 3.7489363672e+000	-3.1086793154e-001
 1.6223976132e+000	 3.7653454004e+000	-2.9368293661e-001
 1.5847426371e+000	 3.7813477457e+000	-2.7924356080e-001
 1.5470040968e+000	 3.7969432870e+000	-2.6657105371e-001
 1.5091883092e+000	 3.8121320343e+000	-2.5532607642e-001
 1.8945901964e+000	 3.6641715282e+000	-4.5015222332e-001
 1.8574736952e+000	 3.6831259104e+000	-4.3199847801e-001
 1.8202281395e+000	 3.7016745562e+000	-4.0840794143e-001
 1.7828599857e+000	 3.7198165642e+000	-3.8331685865e-001
 1.7453756855e+000	 3.7375511658e+000	-3.5670678408e-001
 1.7077816822e+000	 3.7548777245e+000	-3.3068967298e-001
 1.6700844084e+000	 3.7717957353e+000	-3.1118808256e-001
 1.6322902816e+000	 3.7883048236e+000	-2.9410346158e-001
 1.5944057020e+000	 3.8044047442e+000	-2.7907745657e-001
 1.5564370487e+000	 3.8200953802e+000	-2.6576070188e-001
 1.5183906770e+000	 3.8353767419e+000	-2.5381345385e-001
 1.9060725612e+000	 3.6863786283e+000	-4.4954462201e-001
 1.8687311115e+000	 3.7054478856e+000	-4.3293002292e-001
 1.8312598252e+000	 3.7241089475e+000	-4.0753569798e-001
 1.7936651978e+000	 3.7423609070e+000	-3.8036356964e-001
 1.7559537199e+000	 3.7602029910e+000	-3.5398938102e-001
 1.7181318743e+000	 3.7776345592e+000	-3.3154786675e-001
 1.6802061321e+000	 3.7946551034e+000	-3.1183571585e-001
 1.6421829500e+000	 3.8112642468e+000	-2.9448509876e-001
 1.6040687668e+000	 3.8274617426e+000	-2.7913667044e-001
 1.5658700005e+000	 3.8432474734e+000	-2.6544024153e-001
 1.5275930447e+000	 3.8586214494e+000	-2.5305541857e-001
 1.9175549260e+000	 3.7085857285e+000	-4.4935801266e-001
 1.8799885278e+000	 3.7277698608e+000	-4.3424558468e-001
 1.8422915109e+000	 3.7465433387e+000	-4.0799383801e-001
 1.8044704098e+000	 3.7649052498e+000	-3.7952401647e-001
 1.7665317544e+000	 3.7828548162e+000	-3.5413287334e-001
 1.7284820663e+000	 3.8003913939e+000	-3.3179508792e-001
 1.6903278558e+000	 3.8175144715e+000	-3.1213348340e-001
 1.6520756183e+000	 3.8342236700e+000	-2.9477882345e-001
 1.6137318317e+000	 3.8505187411e+000	-2.7937052032e-001
 1.5753029523e+000	 3.8663995666e+000	-2.6555731277e-001
 1.5367954125e+000	 3.8818661569e+000	-2.5299791251e-001
 1.9290372909e+000	 3.7307928287e+000	-4.4950899994e-001
 1.8912459442e+000	 3.7500918360e+000	-4.3520296212e-001
 1.8533231966e+000	 3.7689777300e+000	-4.0670788118e-001
 1.8152756218e+000	 3.7874495926e+000	-3.7833980639e-001
 1.7771097888e+000	 3.8055066415e+000	-3.5336115748e-001
 1.7388322583e+000	 3.8231482286e+000	-3.3138558332e-001
 1.7004495794e+000	 3.8403738396e+000	-3.1203408744e-001
 1.6619682867e+000	 3.8571830931e+000	-2.9493577304e-001
 1.6233948965e+000	 3.8735757395e+000	-2.7972855862e-001
 1.5847359041e+000	 3.8895516598e+000	-2.6605986290e-001
 1.5459977802e+000	 3.9051108645e+000	-2.5358725787e-001
 1.9405196557e+000	 3.7529999288e+000	-4.4824760424e-001
 1.9025033605e+000	 3.7724138112e+000	-4.2770602379e-001
 1.8643548823e+000	 3.7914121212e+000	-4.0359352921e-001
 1.8260808339e+000	 3.8099939354e+000	-3.7594039750e-001
 1.7876878233e+000	 3.8281584667e+000	-3.5162995373e-001
 1.7491824503e+000	 3.8459050633e+000	-3.3027361785e-001
 1.7105713031e+000	 3.8632332077e+000	-3.1149031768e-001
 1.6718609551e+000	 3.8801425163e+000	-2.9490724226e-001
 1.6330579614e+000	 3.8966327380e+000	-2.8016056526e-001
 1.5941688559e+000	 3.9127037530e+000	-2.6689613732e-001
 1.5552001479e+000	 3.9283555720e+000	-2.5477014585e-001
 1.9520020205e+000	 3.7752070290e+000	-4.3487870608e-001
 1.9137607768e+000	 3.7947357865e+000	-4.1765204895e-001
 1.8753865680e+000	 3.8138465125e+000	-3.9887872469e-001
 1.8368860459e+000	 3.8325382783e+000	-3.7228282978e-001
 1.7982658577e+000	 3.8508102920e+000	-3.4889493294e-001
 1.7595326423e+000	 3.8686618980e+000	-3.2841347391e-001
 1.7206930268e+000	 3.8860925758e+000	-3.1045504873e-001
 1.6817536235e+000	 3.9031019395e+000	-2.9464467850e-001
 1.6427210263e+000	 3.9196897364e+000	-2.8061654104e-001
 1.6036018077e+000	 3.9358558462e+000	-2.6801467079e-001
 1.5644025157e+000	 3.9516002795e+000	-2.5649362582e-001
 1.4723788383e+000	 3.7191532043e+000	-3.0146340341e-001
 1.4354161602e+000	 3.7335747544e+000	-2.8315323350e-001
 1.3983903631e+000	 3.7475998176e+000	-2.6036289248e-001
 1.3613075226e+000	 3.7612287659e+000	-2.4675531613e-001
 1.3241736799e+000	 3.7744620896e+000	-2.3250777274e-001
 1.2869948389e+000	 3.7873003954e+000	-2.1463370668e-001
 1.2497769635e+000	 3.7997444048e+000	-1.9288988439e-001
 1.2125259753e+000	 3.8117949524e+000	-1.6417242733e-001
 1.1752477508e+000	 3.8234529844e+000	-1.3735362133e-001
 1.1379481191e+000	 3.8347195567e+000	-1.1197392435e-001
 1.1006328594e+000	 3.8455958328e+000	-8.7605628307e-002
 1.4815812060e+000	 3.7423979118e+000	-2.7273456312e-001
 1.4443875112e+000	 3.7569095967e+000	-2.5913946518e-001
 1.4071303029e+000	 3.7710223164e+000	-2.5082838271e-001
 1.3698156946e+000	 3.7847364456e+000	-2.3974035562e-001
 1.3324497654e+000	 3.7980524776e+000	-2.2562478753e-001
 1.2950385566e+000	 3.8109710228e+000	-2.0824525254e-001
 1.2575880695e+000	 3.8234928073e+000	-1.8737982965e-001
 1.2201042627e+000	 3.8356186709e+000	-1.5872990736e-001
 1.1825930493e+000	 3.8473495656e+000	-1.3053691539e-001
 1.1450602948e+000	 3.8586865539e+000	-1.0397903297e-001
 1.1075118147e+000	 3.8696308067e+000	-7.8599905500e-002
 1.4907835738e+000	 3.7656426193e+000	-2.6083328748e-001
 1.4533588622e+000	 3.7802444389e+000	-2.5397474220e-001
 1.4158702426e+000	 3.7944448153e+000	-2.4500747269e-001
 1.3783238666e+000	 3.8082441254e+000	-2.3365142812e-001
 1.3407258509e+000	 3.8216428657e+000	-2.1964034400e-001
 1.3030822743e+000	 3.8346416503e+000	-2.0272213357e-001
 1.2653991756e+000	 3.8472412098e+000	-1.8265924372e-001
 1.2276825500e+000	 3.8594423893e+000	-1.5501906528e-001
 1.1899383477e+000	 3.8712461467e+000	-1.2556912982e-001
 1.1521724706e+000	 3.8826535511e+000	-9.7941567106e-002
 1.1143907701e+000	 3.8936657807e+000	-7.1651031933e-002
 1.4999859415e+000	 3.7888873268e+000	-2.5764773629e-001
 1.4623302133e+000	 3.8035792811e+000	-2.4972161484e-001
 1.4246101824e+000	 3.8178673141e+000	-2.4008515444e-001
 1.3868320386e+000	 3.8317518052e+000	-2.2844257525e-001
 1.3490019364e+000	 3.8452332537e+000	-2.1451187451e-001
 1.3111259921e+000	 3.8583122778e+000	-1.9802524020e-001
 1.2732102816e+000	 3.8709896123e+000	-1.7872942840e-001
 1.2352608374e+000	 3.8832661078e+000	-1.5290759574e-001
 1.1972836462e+000	 3.8951427279e+000	-1.2232537577e-001
 1.1592846463e+000	 3.9066205484e+000	-9.3744091047e-002
 1.1212697255e+000	 3.9177007546e+000	-6.6649055905e-002
 1.5091883092e+000	 3.8121320343e+000	-2.5532607642e-001
 1.4713015643e+000	 3.8269141233e+000	-2.4632794124e-001
 1.4333501222e+000	 3.8412898130e+000	-2.3601248806e-001
 1.3953402107e+000	 3.8552594850e+000	-2.2406812963e-001
 1.3572780219e+000	 3.8688236418e+000	-2.1019705221e-001
 1.3191697098e+000	 3.8819829053e+000	-1.9411565144e-001
 1.2810213876e+000	 3.8947380149e+000	-1.7555493135e-001
 1.2428391247e+000	 3.9070898262e+000	-1.5226327187e-001
 1.2046289446e+000	 3.9190393090e+000	-1.2068078512e-001
 1.1663968220e+000	 3.9305875456e+000	-9.1269130198e-002
 1.1281486808e+000	 3.9417357286e+000	-6.3483925444e-002
 1.5183906770e+000	 3.8353767419e+000	-2.5381345385e-001
 1.4802729153e+000	 3.8502489655e+000	-2.4374195329e-001
 1.4420900620e+000	 3.8647123118e+000	-2.3274086256e-001
 1.4038483827e+000	 3.8787671648e+000	-2.2048270605e-001
 1.3655541074e+000	 3.8924140299e+000	-2.0665378372e-001
 1.3272134276e+000	 3.9056535327e+000	-1.9095462920e-001
 1.2888324936e+000	 3.9184864174e+000	-1.7310043061e-001
 1.2504174121e+000	 3.9309135447e+000	-1.5282141354e-001
 1.2119742430e+000	 3.9429358902e+000	-1.2051050984e-001
 1.1735089978e+000	 3.9545545428e+000	-9.0399172247e-002
 1.1350276362e+000	 3.9657707025e+000	-6.2045491343e-002
 1.5275930447e+000	 3.8586214494e+000	-2.5305541857e-001
 1.4892442663e+000	 3.8735838077e+000	-2.4191224538e-001
 1.4508300017e+000	 3.8881348107e+000	-2.3022198600e-001
 1.4123565547e+000	 3.9022748446e+000	-2.1764119300e-001
 1.3738301929e+000	 3.9160044179e+000	-2.0384020210e-001
 1.3352571453e+000	 3.9293241602e+000	-1.8850361277e-001
 1.2966435997e+000	 3.9422348199e+000	-1.7133073075e-001
 1.2579956994e+000	 3.9547372631e+000	-1.5203597227e-001
 1.2193195415e+000	 3.9668324714e+000	-1.2168972140e-001
 1.1806211735e+000	 3.9785215400e+000	-9.1016668308e-002
 1.1419065916e+000	 3.9898056765e+000	-6.2223510094e-002
 1.5367954125e+000	 3.8818661569e+000	-2.5299791251e-001
 1.4982156173e+000	 3.8969186499e+000	-2.4078776356e-001
 1.4595699415e+000	 3.9115573096e+000	-2.2840787596e-001
 1.4208647267e+000	 3.9257825243e+000	-2.1549874443e-001
 1.3821062784e+000	 3.9395948060e+000	-2.0171466008e-001
 1.3433008631e+000	 3.9529947877e+000	-1.8672421348e-001
 1.3044547057e+000	 3.9659832225e+000	-1.7021075907e-001
 1.2655739868e+000	 3.9785609816e+000	-1.5187284056e-001
 1.2266648399e+000	 3.9907290525e+000	-1.2409361017e-001
 1.1877333493e+000	 4.0024885373e+000	-9.3004034012e-002
 1.1487855470e+000	 4.0138406504e+000	-6.3907646706e-002
 1.5459977802e+000	 3.9051108645e+000	-2.5358725787e-001
 1.5071869683e+000	 3.9202534922e+000	-2.4031779504e-001
 1.4683098813e+000	 3.9349798084e+000	-2.2725085025e-001
 1.4293728987e+000	 3.9492902041e+000	-2.1401077188e-001
 1.3903823639e+000	 3.9631851940e+000	-2.0023572352e-001
 1.3513445808e+000	 3.9766654151e+000	-1.8557820964e-001
 1.3122658117e+000	 3.9897316250e+000	-1.6970556191e-001
 1.2731522741e+000	 4.0023847000e+000	-1.5230038595e-001
 1.2340101384e+000	 4.0146256337e+000	-1.2759738488e-001
 1.1948455250e+000	 4.0264555345e+000	-9.6243650567e-002
 1.1556645023e+000	 4.0378756244e+000	-6.6987477429e-002
 1.5552001479e+000	 3.9283555720e+000	-2.5477014585e-001
 1.5161583193e+000	 3.9435883344e+000	-2.4045195813e-001
 1.4770498210e+000	 3.9584023073e+000	-2.2670351811e-001
 1.4378810707e+000	 3.9727978839e+000	-2.1313293686e-001
 1.3986584494e+000	 3.9867755821e+000	-1.9936216511e-001
 1.3593882986e+000	 4.0003360426e+000	-1.8502754153e-001
 1.3200769177e+000	 4.0134800275e+000	-1.6978030116e-001
 1.2807305615e+000	 4.0262084185e+000	-1.5328704347e-001
 1.2413554368e+000	 4.0385222148e+000	-1.3207627204e-001
 1.2019577008e+000	 4.0504225317e+000	-1.0061786577e-001
 1.1625434577e+000	 4.0619105984e+000	-7.1352492383e-002
 1.5644025157e+000	 3.9516002795e+000	-2.5649362582e-001
 1.5251296703e+000	 3.9669231766e+000	-2.4114019249e-001
 1.4857897608e+000	 3.9818248061e+000	-2.2671877158e-001
 1.4463892427e+000	 3.9963055637e+000	-2.1282114348e-001
 1.4069345349e+000	 4.0103659702e+000	-1.9905295825e-001
 1.3674320163e+000	 4.0240066701e+000	-1.8503430669e-001
 1.3278880237e+000	 4.0372284301e+000	-1.7040025085e-001
 1.2883088488e+000	 4.0500321369e+000	-1.5480131359e-001
 1.2487007353e+000	 4.0624187960e+000	-1.3740551547e-001
 1.2090698765e+000	 4.0743895290e+000	-1.0600899500e-001
 1.1694224131e+000	 4.0859455723e+000	-7.6892098088e-002
 1.1006328594e+000	 3.8455958328e+000	-8.7605628307e-002
 1.0633076989e+000	 3.8560830823e+000	-7.5284132488e-002
 1.0259783107e+000	 3.8661826788e+000	-6.2718183746e-002
 9.8865031116e-001	 3.8758960980e+000	-4.9643739866e-002
 9.5132925831e-001	 3.8852249153e+000	-3.5831037089e-002
 9.1402064961e-001	 3.8941708042e+000	-2.1085035862e-002
 8.7672992013e-001	 3.9027355338e+000	-5.2457756273e-003
 8.3946244064e-001	 3.9109209671e+000	 1.1811360379e-002
 8.0222351592e-001	 3.9187290581e+000	 3.0175469092e-002
 7.6501838302e-001	 3.9261618501e+000	 4.9900038924e-002
 7.2785220965e-001	 3.9332214737e+000	 7.1002946731e-002
 1.1075118147e+000	 3.8696308067e+000	-7.8599905500e-002
 1.0699533720e+000	 3.8801836015e+000	-6.6727226629e-002
 1.0323906751e+000	 3.8903463206e+000	-5.4921311927e-002
 9.9482937561e-001	 3.9001204486e+000	-4.2877111815e-002
 9.5727506617e-001	 3.9095075710e+000	-3.0324637545e-002
 9.1973327867e-001	 3.9185093717e+000	-1.7029449958e-002
 8.8220948212e-001	 3.9271276309e+000	-2.7930547103e-003
 8.4470908089e-001	 3.9353642231e+000	 1.2546795093e-002
 8.0723741289e-001	 3.9432211147e+000	 2.9115887632e-002
 7.6979974791e-001	 3.9507003617e+000	 4.7003431042e-002
 7.3240128595e-001	 3.9578041079e+000	 6.6262020356e-002
 1.1143907701e+000	 3.8936657807e+000	-7.1651031933e-002
 1.0765990452e+000	 3.9042841208e+000	-6.0033155043e-002
 1.0388030396e+000	 3.9145099623e+000	-4.8781707576e-002
 1.0010084400e+000	 3.9243447992e+000	-3.7550470249e-002
 9.6322087403e-001	 3.9337902267e+000	-2.6029081953e-002
 9.2544590773e-001	 3.9428479392e+000	-1.3943571667e-002
 8.8768904412e-001	 3.9515197280e+000	-1.0567942145e-003
 8.4995572114e-001	 3.9598074792e+000	 1.2831229182e-002
 8.1225130986e-001	 3.9677131713e+000	 2.7883064353e-002
 7.7458111280e-001	 3.9752388733e+000	 4.4223710206e-002
 7.3695036226e-001	 3.9823867421e+000	 6.1940535647e-002
 1.1212697255e+000	 3.9177007546e+000	-6.6649055905e-002
 1.0832447183e+000	 3.9283846401e+000	-5.5104702742e-002
 1.0452154040e+000	 3.9386736040e+000	-4.4214945659e-002
 1.0071875045e+000	 3.9485691498e+000	-3.3592225321e-002
 9.6916668190e-001	 3.9580728824e+000	-2.2885652995e-002
 9.3115853678e-001	 3.9671865068e+000	-1.1781585752e-002
 8.9316860612e-001	 3.9759118251e+000	-4.1028778808e-006
 8.5520236139e-001	 3.9842507352e+000	 1.2684615575e-002
 8.1726520684e-001	 3.9922052279e+000	 2.6484006904e-002
 7.7936247769e-001	 3.9997773848e+000	 4.1554939102e-002
 7.4149943857e-001	 4.0069693763e+000	 5.8019617773e-002
 1.1281486808e+000	 3.9417357286e+000	-6.3483925444e-002
 1.0898903914e+000	 3.9524851593e+000	-5.1844363861e-002
 1.0516277685e+000	 3.9628372458e+000	-4.1136117151e-002
 1.0133665689e+000	 3.9727935004e+000	-3.0930107682e-002
 9.7511248976e-001	 3.9823555382e+000	-2.0834756035e-002
 9.3687116584e-001	 3.9915250743e+000	-1.0496599651e-002
 8.9864816812e-001	 4.0003039222e+000	 3.9918999213e-004
 8.6044900165e-001	 4.0086939913e+000	 1.2128390733e-002
 8.2227910381e-001	 4.0166972845e+000	 2.4927412451e-002
 7.8414384258e-001	 4.0243158964e+000	 3.8993077715e-002
 7.4604851487e-001	 4.0315520105e+000	 5.4482498672e-002
 1.1350276362e+000	 3.9657707025e+000	-6.2045491343e-002
 1.0965360645e+000	 3.9765856786e+000	-5.0154350473e-002
 1.0580401329e+000	 3.9870008875e+000	-3.9459843710e-002
 1.0195456334e+000	 3.9970178510e+000	-2.9491189076e-002
 9.8105829763e-001	 4.0066381939e+000	-1.9815945713e-002
 9.4258379490e-001	 4.0158636418e+000	-1.0040676123e-002
 9.0412773012e-001	 4.0246960193e+000	 1.8849574781e-004
 8.6569564190e-001	 4.0331372473e+000	 1.1185429688e-002
 8.2729300078e-001	 4.0411893411e+000	 2.3223616485e-002
 7.8892520747e-001	 4.0488544080e+000	 3.6535925832e-002
 7.5059759118e-001	 4.0561346447e+000	 5.1314453201e-002
 1.1419065916e+000	 3.9898056765e+000	-6.2223510094e-002
 1.1031817376e+000	 4.0006861979e+000	-4.9936601081e-002
 1.0644524973e+000	 4.0111645293e+000	-3.9100291806e-002
 1.0257246978e+000	 4.0212422016e+000	-2.9201902183e-002
 9.8700410549e-001	 4.0309208496e+000	-1.9767951560e-002
 9.4829642396e-001	 4.0402022093e+000	-1.0364864716e-002
 9.0960729212e-001	 4.0490881164e+000	-5.9957096798e-004
 8.7094228215e-001	 4.0575805033e+000	 9.8800027194e-003
 8.3230689776e-001	 4.0656813977e+000	 2.1384543470e-002
 7.9370657237e-001	 4.0733929195e+000	 3.4183067629e-002
 7.5514666749e-001	 4.0807172789e+000	 4.8502737606e-002
 1.1487855470e+000	 4.0138406504e+000	-6.3907646706e-002
 1.1098274108e+000	 4.0247867171e+000	-5.1092788816e-002
 1.0708648618e+000	 4.0353281710e+000	-3.9971186351e-002
 1.0319037623e+000	 4.0454665523e+000	-2.9988059752e-002
 9.9294991336e-001	 4.0552035053e+000	-2.0628702712e-002
 9.5400905303e-001	 4.0645407769e+000	-1.1419232101e-002
 9.1508685412e-001	 4.0734802135e+000	-1.9272282485e-003
 8.7618892241e-001	 4.0820237594e+000	 8.2377335728e-003
 8.3732079473e-001	 4.0901734544e+000	 1.9423659270e-002
 7.9848793726e-001	 4.0979314311e+000	 3.1935818247e-002
 7.5969574380e-001	 4.1052999131e+000	 4.6036530199e-002
 1.1556645023e+000	 4.0378756244e+000	-6.6987477429e-002
 1.1164730839e+000	 4.0488872364e+000	-5.3524329325e-002
 1.0772772262e+000	 4.0594918128e+000	-4.1985823844e-002
 1.0380828267e+000	 4.0696909029e+000	-3.1774873056e-002
 9.9889572122e-001	 4.0794861610e+000	-2.2335351721e-002
 9.5972168209e-001	 4.0888793444e+000	-1.3152891327e-002
 9.2056641613e-001	 4.0978723105e+000	-3.7555616632e-003
 8.8143556267e-001	 4.1064670154e+000	 6.2855591836e-003
 8.4233469171e-001	 4.1146655110e+000	 1.7355925276e-002
 8.0326930216e-001	 4.1224699427e+000	 2.9797172270e-002
 7.6424482012e-001	 4.1298825474e+000	 4.3906874152e-002
 1.1625434577e+000	 4.0619105984e+000	-7.1352492383e-002
 1.1231187570e+000	 4.0729877557e+000	-5.7132388401e-002
 1.0836895907e+000	 4.0836554545e+000	-4.5057085043e-002
 1.0442618912e+000	 4.0939152535e+000	-3.4486969680e-002
 1.0048415291e+000	 4.1037688168e+000	-2.4824297541e-002
 9.6543431115e-001	 4.1132179119e+000	-1.5514030030e-002
 9.2604597813e-001	 4.1222644076e+000	-6.0445577640e-003
 8.8668220292e-001	 4.1309102715e+000	 4.0516908228e-003
 8.4734858869e-001	 4.1391575676e+000	 1.5197754157e-002
 8.0805066705e-001	 4.1470084542e+000	 2.7771754045e-002
 7.6879389643e-001	 4.1544651816e+000	 4.2106622325e-002
 1.1694224131e+000	 4.0859455723e+000	-7.6892098088e-002
 1.1297644301e+000	 4.0970882749e+000	-6.1817889320e-002
 1.0901019551e+000	 4.1078190963e+000	-4.9097447193e-002
 1.0504409556e+000	 4.1181396041e+000	-3.8048410696e-002
 1.0107873370e+000	 4.1280514725e+000	-2.8031207683e-002
 9.7114694021e-001	 4.1375564794e+000	-1.8449937655e-002
 9.3152554013e-001	 4.1466565047e+000	-8.7531364099e-003
 8.9192884318e-001	 4.1553535275e+000	 1.5655766174e-003
 8.5236248567e-001	 4.1636496242e+000	 1.2966967177e-002
 8.1283203195e-001	 4.1715469658e+000	 2.5865769741e-002
 7.7334297274e-001	 4.1790478158e+000	 4.0630384041e-002
 7.2785220965e-001	 3.9332214737e+000	 7.1002946731e-002
 6.9073009268e-001	 3.9399101435e+000	 6.5869295291e-002
 6.5365705668e-001	 3.9462301570e+000	 5.8128817842e-002
 6.1663805252e-001	 3.9521838915e+000	 5.8974966738e-002
 5.7967795609e-001	 3.9577738019e+000	 9.0713654432e-002
 5.4278156711e-001	 3.9630024187e+000	 1.1479102433e-001
 5.0595360791e-001	 3.9678723450e+000	 1.3223923873e-001
 4.6919872246e-001	 3.9723862550e+000	 1.4401063787e-001
 4.3252147529e-001	 3.9765468906e+000	 1.5098123520e-001
 3.9592635063e-001	 3.9803570600e+000	 1.5395422577e-001
 3.5941775158e-001	 3.9838196344e+000	 1.5366349796e-001
 7.3240128595e-001	 3.9578041079e+000	 6.6262020356e-002
 6.9504715575e-001	 3.9645345819e+000	 7.0181243609e-002
 6.5774241328e-001	 3.9708940955e+000	 7.1662828174e-002
 6.2049204034e-001	 3.9768850408e+000	 7.5258180889e-002
 5.8330094331e-001	 3.9825098882e+000	 1.0364009820e-001
 5.4617395190e-001	 3.9877711838e+000	 1.2478387528e-001
 5.0911581796e-001	 3.9926715472e+000	 1.3966312238e-001
 4.7213121447e-001	 3.9972136691e+000	 1.4917123190e-001
 4.3522473450e-001	 4.0014003087e+000	 1.5412498918e-001
 3.9840089032e-001	 4.0052342916e+000	 1.5526819410e-001
 3.6166411252e-001	 4.0087185072e+000	 1.5327528358e-001
 7.3695036226e-001	 3.9823867421e+000	 6.1940535647e-002
 6.9936421883e-001	 3.9891590203e+000	 7.3904968871e-002
 6.6182776988e-001	 3.9955580340e+000	 8.3615400765e-002
 6.2434602816e-001	 4.0015861901e+000	 9.1837743285e-002
 5.8692393053e-001	 4.0072459744e+000	 1.1672702750e-001
 5.4956633669e-001	 4.0125399489e+000	 1.3482833310e-001
 5.1227802800e-001	 4.0174707494e+000	 1.4705599837e-001
 4.7506370648e-001	 4.0220410832e+000	 1.5424372810e-001
 4.3792799372e-001	 4.0262537268e+000	 1.5714832159e-001
 4.0087543001e-001	 4.0301115232e+000	 1.5645340919e-001
 3.6391047346e-001	 4.0336173799e+000	 1.5277318714e-001
 7.4149943857e-001	 4.0069693763e+000	 5.8019617773e-002
 7.0368128190e-001	 4.0137834587e+000	 7.7033017071e-002
 6.6591312648e-001	 4.0202219725e+000	 9.3990487644e-002
 6.2820001599e-001	 4.0262873394e+000	 1.0925662601e-001
 5.9054691776e-001	 4.0319820607e+000	 1.2970031787e-001
 5.5295872148e-001	 4.0373087140e+000	 1.4468006603e-001
 5.1544023805e-001	 4.0422699515e+000	 1.5420340724e-001
 4.7799619849e-001	 4.0468684973e+000	 1.5904360289e-001
 4.4063125294e-001	 4.0511071448e+000	 1.5989669244e-001
 4.0334996970e-001	 4.0549887548e+000	 1.5738534652e-001
 3.6615683441e-001	 4.0585162526e+000	 1.5206271594e-001
 7.4604851487e-001	 4.0315520105e+000	 5.4482498672e-002
 7.0799834498e-001	 4.0384078971e+000	 7.9559658263e-002
 6.6999848308e-001	 4.0448859109e+000	 1.0279338456e-001
 6.3205400381e-001	 4.0509884888e+000	 1.2452521899e-001
 5.9416990498e-001	 4.0567181470e+000	 1.4228643553e-001
 5.5635110627e-001	 4.0620774791e+000	 1.5409496056e-001
 5.1860244810e-001	 4.0670691537e+000	 1.6089073820e-001
 4.8092869050e-001	 4.0716959114e+000	 1.6338581481e-001
 4.4333451216e-001	 4.0759605629e+000	 1.6221468037e-001
 4.0582450939e-001	 4.0798659865e+000	 1.5793824003e-001
 3.6840319536e-001	 4.0834151253e+000	 1.5104777883e-001
 7.5059759118e-001	 4.0561346447e+000	 5.1314453201e-002
 7.1231540806e-001	 4.0630323355e+000	 8.1480834319e-002
 6.7408383968e-001	 4.0695498494e+000	 1.1003069027e-001
 6.3590799164e-001	 4.0756896381e+000	 1.3728303206e-001
 5.9779289220e-001	 4.0814542332e+000	 1.5421241946e-001
 5.5974349106e-001	 4.0868462442e+000	 1.6282911478e-001
 5.2176465814e-001	 4.0918683558e+000	 1.6690323369e-001
 4.8386118252e-001	 4.0965233255e+000	 1.6708482013e-001
 4.4603777138e-001	 4.1008139810e+000	 1.6394600938e-001
 4.0829904908e-001	 4.1047432181e+000	 1.5798511971e-001
 3.7064955631e-001	 4.1083139980e+000	 1.4963073468e-001
 7.5514666749e-001	 4.0807172789e+000	 4.8502737606e-002
 7.1663247114e-001	 4.0876567739e+000	 8.2794108572e-002
 6.7816919628e-001	 4.0942137879e+000	 1.1571026730e-001
 6.3976197947e-001	 4.1003907874e+000	 1.4754821645e-001
 6.0141587943e-001	 4.1061903195e+000	 1.6520586416e-001
 5.6313587586e-001	 4.1116150094e+000	 1.7063883200e-001
 5.2492686819e-001	 4.1166675580e+000	 1.7202599382e-001
 4.8679367453e-001	 4.1213507395e+000	 1.6995458808e-001
 4.4874103060e-001	 4.1256673990e+000	 1.6493357456e-001
 4.1077358877e-001	 4.1296204497e+000	 1.5739784788e-001
 3.7289591725e-001	 4.1332128707e+000	 1.4771243909e-001
 7.5969574380e-001	 4.1052999131e+000	 4.6036530199e-002
 7.2094953422e-001	 4.1122812123e+000	 8.3498617269e-002
 6.8225455289e-001	 4.1188777264e+000	 1.1984120406e-001
 6.4361596729e-001	 4.1250919367e+000	 1.5533980460e-001
 6.0503886665e-001	 4.1309264058e+000	 1.7499490305e-001
 5.6652826065e-001	 4.1363837745e+000	 1.7728061464e-001
 5.2808907824e-001	 4.1414667601e+000	 1.7604398063e-001
 4.8972616655e-001	 4.1461781536e+000	 1.7180861537e-001
 4.5144428982e-001	 4.1505208171e+000	 1.6501946694e-001
 4.1324812847e-001	 4.1544976813e+000	 1.5604715416e-001
 3.7514227820e-001	 4.1581117435e+000	 1.4519228935e-001
 7.6424482012e-001	 4.1298825474e+000	 4.3906874152e-002
 7.2526659730e-001	 4.1369056507e+000	 8.3595022758e-002
 6.8633990949e-001	 4.1435416649e+000	 1.2243377843e-001
 6.4746995512e-001	 4.1497930861e+000	 1.6067768391e-001
 6.0866185388e-001	 4.1556624920e+000	 1.8330819238e-001
 5.6992064545e-001	 4.1611525396e+000	 1.8251115830e-001
 5.3125128829e-001	 4.1662659623e+000	 1.7874202217e-001
 4.9265865857e-001	 4.1710055677e+000	 1.7245994027e-001
 4.5414754904e-001	 4.1753742352e+000	 1.6404499736e-001
 4.1572266816e-001	 4.1793749130e+000	 1.5380266915e-001
 3.7738863915e-001	 4.1830106162e+000	 1.4196826786e-001
 7.6879389643e-001	 4.1544651816e+000	 4.2106622325e-002
 7.2958366038e-001	 4.1615300891e+000	 8.3085468339e-002
 6.9042526610e-001	 4.1682056034e+000	 1.2349942253e-001
 6.5132394295e-001	 4.1744942354e+000	 1.6358257151e-001
 6.1228484111e-001	 4.1803985783e+000	 1.8987489579e-001
 5.7331303024e-001	 4.1859213047e+000	 1.8608734601e-001
 5.3441349835e-001	 4.1910651645e+000	 1.7990481651e-001
 4.9559115059e-001	 4.1958329818e+000	 1.7172115617e-001
 4.5685080827e-001	 4.2002276532e+000	 1.6185071962e-001
 4.1819720786e-001	 4.2042521446e+000	 1.5053295698e-001
 3.7963500011e-001	 4.2079094889e+000	 1.3793698401e-001
 7.7334297274e-001	 4.1790478158e+000	 4.0630384041e-002
 7.3390072346e-001	 4.1861545275e+000	 8.1973534704e-002
 6.9451062271e-001	 4.1928695419e+000	 1.2305068876e-001
 6.5517793079e-001	 4.1991953847e+000	 1.6407598976e-001
 6.1590782834e-001	 4.2051346646e+000	 1.9442466937e-001
 5.7670541504e-001	 4.2106900698e+000	 1.8776624275e-001
 5.3757570840e-001	 4.2158643666e+000	 1.7931693554e-001
 4.9852364261e-001	 4.2206603959e+000	 1.6940442468e-001
 4.5955406749e-001	 4.2250810713e+000	 1.5827645270e-001
 4.2067174755e-001	 4.2291293762e+000	 1.4610554667e-001
 3.8188136106e-001	 4.2328083616e+000	 1.3299371455e-001
 3.5941775158e-001	 3.9838196344e+000	 1.5366349796e-001
 3.2299999927e-001	 3.9869375466e+000	 1.4885213444e-001
 2.8667733226e-001	 3.9897137876e+000	 1.4571599524e-001
 2.5045390584e-001	 3.9921514051e+000	 1.4493118913e-001
 2.1433379153e-001	 3.9942535004e+000	 1.4711285460e-001
 1.7832097657e-001	 3.9960232268e+000	 1.5281856500e-001
 1.4241936352e-001	 3.9974637866e+000	 1.6255169406e-001
 1.0663276990e-001	 3.9985784289e+000	 1.7676473484e-001
 7.0964927926e-002	 3.9993704478e+000	 1.9586256563e-001
 3.5419484290e-002	 3.9998431794e+000	 2.2020565692e-001
 0.0000000000e+000	 4.0000000000e+000	 2.5011321376e-001
 3.6166411252e-001	 4.0087185072e+000	 1.5327528358e-001
 3.2501874926e-001	 4.0118559063e+000	 1.5074072822e-001
 2.8846906558e-001	 4.0146494988e+000	 1.4978161040e-001
 2.5201924275e-001	 4.0171023514e+000	 1.5099114291e-001
 2.1567337773e-001	 4.0192175848e+000	 1.5490249171e-001
 1.7943548268e-001	 4.0209983720e+000	 1.6199228617e-001
 1.4330948454e-001	 4.0224479352e+000	 1.7268408538e-001
 1.0729922471e-001	 4.0235695441e+000	 1.8735179365e-001
 7.1408458726e-002	 4.0243665131e+000	 2.0632301852e-001
 3.5640856066e-002	 4.0248421993e+000	 2.2988236542e-001
 0.0000000000e+000	 4.0250000000e+000	 2.5827466324e-001
 3.6391047346e-001	 4.0336173799e+000	 1.5277318714e-001
 3.2703749926e-001	 4.0367742659e+000	 1.5191534111e-001
 2.9026079891e-001	 4.0395852100e+000	 1.5255794975e-001
 2.5358457966e-001	 4.0420532976e+000	 1.5521072004e-001
 2.1701296393e-001	 4.0441816692e+000	 1.6032422209e-001
 1.8054998878e-001	 4.0459735172e+000	 1.6829350588e-001
 1.4419960556e-001	 4.0474320839e+000	 1.7946166987e-001
 1.0796567952e-001	 4.0485606593e+000	 1.9412337438e-001
 7.1851989525e-002	 4.0493625784e+000	 2.1252829318e-001
 3.5862227843e-002	 4.0498412192e+000	 2.3488449715e-001
 0.0000000000e+000	 4.0500000000e+000	 2.6136176438e-001
 3.6615683441e-001	 4.0585162526e+000	 1.5206271594e-001
 3.2905624925e-001	 4.0616926256e+000	 1.5232324377e-001
 2.9205253223e-001	 4.0645209211e+000	 1.5403397358e-001
 2.5514991657e-001	 4.0670042439e+000	 1.5762047769e-001
 2.1835255012e-001	 4.0691457536e+000	 1.6345008822e-001
 1.8166449488e-001	 4.0709486623e+000	 1.7183562190e-001
 1.4508972659e-001	 4.0724162326e+000	 1.8303905233e-001
 1.0863213434e-001	 4.0735517745e+000	 1.9727512282e-001
 7.2295520325e-002	 4.0743586437e+000	 2.1471489284e-001
 3.6083599620e-002	 4.0748402391e+000	 2.3548921206e-001
 0.0000000000e+000	 4.0750000000e+000	 2.5969211633e-001
 3.6840319536e-001	 4.0834151253e+000	 1.5104777883e-001
 3.3107499925e-001	 4.0866109853e+000	 1.5190946889e-001
 2.9384426556e-001	 4.0894566323e+000	 1.5419576971e-001
 2.5671525349e-001	 4.0919551902e+000	 1.5824747122e-001
 2.1969213632e-001	 4.0941098380e+000	 1.6434800685e-001
 1.8277900099e-001	 4.0959238075e+000	 1.7272728786e-001
 1.4597984761e-001	 4.0974003812e+000	 1.8356548085e-001
 1.0929858915e-001	 4.0985428897e+000	 1.9699672138e-001
 7.2739051125e-002	 4.0993547090e+000	 2.1311275672e-001
 3.6304971397e-002	 4.0998392589e+000	 2.3196651174e-001
 0.0000000000e+000	 4.1000000000e+000	 2.5357557192e-001
 3.7064955631e-001	 4.1083139980e+000	 1.4963073468e-001
 3.3309374924e-001	 4.1115293449e+000	 1.5061687902e-001
 2.9563599889e-001	 4.1143923435e+000	 1.5302664055e-001
 2.5828059040e-001	 4.1169061365e+000	 1.5711536034e-001
 2.2103172252e-001	 4.1190739223e+000	 1.6308189402e-001
 1.8389350709e-001	 4.1208989527e+000	 1.7107255707e-001
 1.4686996863e-001	 4.1223845299e+000	 1.8118500913e-001
 1.0996504396e-001	 4.1235340048e+000	 1.9347206974e-001
 7.3182581926e-002	 4.1243507743e+000	 2.0794545897e-001
 3.6526343175e-002	 4.1248382788e+000	 2.2457945632e-001
 0.0000000000e+000	 4.1250000000e+000	 2.4331447238e-001
 3.7289591725e-001	 4.1332128707e+000	 1.4771243909e-001
 3.3511249924e-001	 4.1364477046e+000	 1.4838623199e-001
 2.9742773222e-001	 4.1393280547e+000	 1.5050718697e-001
 2.5984592731e-001	 4.1418570828e+000	 1.5424451135e-001
 2.2237130872e-001	 4.1440380067e+000	 1.5971178556e-001
 1.8500801320e-001	 4.1458740978e+000	 1.6697102110e-001
 1.4776008966e-001	 4.1473686786e+000	 1.7603665295e-001
 1.1063149878e-001	 4.1485251200e+000	 1.8687945911e-001
 7.3626112727e-002	 4.1493468396e+000	 1.9943040033e-001
 3.6747714952e-002	 4.1498372987e+000	 2.1358437359e-001
 0.0000000000e+000	 4.1500000000e+000	 2.2920387362e-001
 3.7514227820e-001	 4.1581117435e+000	 1.4519228935e-001
 3.3713124924e-001	 4.1613660643e+000	 1.4515624384e-001
 2.9921946555e-001	 4.1642637658e+000	 1.4661538921e-001
 2.6141126423e-001	 4.1668080290e+000	 1.4965209574e-001
 2.2371089492e-001	 4.1690020911e+000	 1.5429395328e-001
 1.8612251931e-001	 4.1708492430e+000	 1.6051794329e-001
 1.4865021068e-001	 4.1723528272e+000	 1.6825454099e-001
 1.1129795359e-001	 4.1735162352e+000	 1.7739174006e-001
 7.4069643528e-002	 4.1743429049e+000	 1.8777899299e-001
 3.6969086730e-002	 4.1748363185e+000	 1.9923106053e-001
 0.0000000000e+000	 4.1750000000e+000	 2.1153176435e-001
 3.7738863915e-001	 4.1830106162e+000	 1.4196826786e-001
 3.3914999924e-001	 4.1862844239e+000	 1.4086364967e-001
 3.0101119888e-001	 4.1891994770e+000	 1.4132668487e-001
 2.6297660114e-001	 4.1917589753e+000	 1.4335218532e-001
 2.2505048112e-001	 4.1939661755e+000	 1.4688101699e-001
 1.8723702541e-001	 4.1958243882e+000	 1.5180438765e-001
 1.4954033171e-001	 4.1973369759e+000	 1.5796806030e-001
 1.1196440840e-001	 4.1985073504e+000	 1.6517648451e-001
 7.4513174330e-002	 4.1993389702e+000	 1.7319683885e-001
 3.7190458508e-002	 4.1998353384e+000	 1.8176297766e-001
 0.0000000000e+000	 4.2000000000e+000	 1.9057927639e-001
 3.7963500011e-001	 4.2079094889e+000	 1.3793698401e-001
 3.4116874924e-001	 4.2112027836e+000	 1.3544326218e-001
 3.0280293221e-001	 4.2141351882e+000	 1.3461404413e-001
 2.6454193806e-001	 4.2167099216e+000	 1.3535584389e-001
 2.2639006732e-001	 4.2189302598e+000	 1.3752205252e-001
 1.8835153152e-001	 4.2207995333e+000	 1.4091734304e-001
 1.5043045273e-001	 4.2223211246e+000	 1.4530199656e-001
 1.1263086322e-001	 4.2234984656e+000	 1.5039614187e-001
 7.4956705132e-002	 4.2243350355e+000	 1.5588390137e-001
 3.7411830286e-002	 4.2248343583e+000	 1.6141743660e-001
 0.0000000000e+000	 4.2250000000e+000	 1.6662088758e-001
 3.8188136106e-001	 4.2328083616e+000	 1.3299371455e-001
 3.4318749924e-001	 4.2361211433e+000	 1.2882802827e-001
 3.0459466554e-001	 4.2390708994e+000	 1.2644804232e-001
 2.6610727498e-001	 4.2416608679e+000	 1.2567121572e-001
 2.2772965353e-001	 4.2438943442e+000	 1.2626269602e-001
 1.8946603763e-001	 4.2457746785e+000	 1.2793984306e-001
 1.5132057376e-001	 4.2473052732e+000	 1.3037666943e-001
 1.1329731804e-001	 4.2484895807e+000	 1.3320818972e-001
 7.5400235934e-002	 4.2493311008e+000	 1.3603467143e-001
 3.7633202065e-002	 4.2498333782e+000	 1.3842578080e-001
 0.0000000000e+000	 4.2500000000e+000	 1.3992461742e-001
 4.2500000000e+000	 0.0000000000e+000	 4.8725730228e-001
 4.2498333782e+000	 3.7633202065e-002	 5.0841956818e-001
 4.2493311008e+000	 7.5400235934e-002	 5.2493662678e-001
 4.2484895807e+000	 1.1329731804e-001	 5.3761443912e-001
 4.2473052732e+000	 1.5132057376e-001	 5.4717339793e-001
 4.2457746785e+000	 1.8946603763e-001	 5.5424509972e-001
 4.2438943442e+000	 2.2772965353e-001	 5.5936922074e-001
 4.2416608679e+000	 2.6610727498e-001	 5.6299050759e-001
 4.2390708994e+000	 3.0459466554e-001	 5.6545589300e-001
 4.2361211433e+000	 3.4318749924e-001	 5.6701174773e-001
 4.2328083616e+000	 3.8188136106e-001	 5.6780127917e-001
 4.2750000000e+000	 0.0000000000e+000	 5.8854138853e-001
 4.2748323980e+000	 3.7854573843e-002	 6.0029549203e-001
 4.2743271661e+000	 7.5843766737e-002	 6.0791012363e-001
 4.2734806959e+000	 1.1396377285e-001	 6.1218816597e-001
 4.2722894219e+000	 1.5221069479e-001	 6.1384492118e-001
 4.2707498237e+000	 1.9058054374e-001	 6.1350483539e-001
 4.2688584286e+000	 2.2906923973e-001	 6.1169832978e-001
 4.2666118142e+000	 2.6767261190e-001	 6.0885874917e-001
 4.2640066105e+000	 3.0638639888e-001	 6.0531943884e-001
 4.2610395029e+000	 3.4520624924e-001	 6.0131096064e-001
 4.2577072343e+000	 3.8412772201e-001	 5.9695845943e-001
 4.3000000000e+000	 0.0000000000e+000	 6.8873023569e-001
 4.2998314179e+000	 3.8075945621e-002	 6.9082131414e-001
 4.2993232314e+000	 7.6287297539e-002	 6.8931626787e-001
 4.2984718111e+000	 1.1463022767e-001	 6.8501519776e-001
 4.2972735706e+000	 1.5310081581e-001	 6.7862857428e-001
 4.2957249688e+000	 1.9169504985e-001	 6.7077391329e-001
 4.2938225130e+000	 2.3040882593e-001	 6.6197256118e-001
 4.2915627605e+000	 2.6923794881e-001	 6.5264660029e-001
 4.2889423217e+000	 3.0817813221e-001	 6.4311588579e-001
 4.2859578626e+000	 3.4722499924e-001	 6.3359522511e-001
 4.2826061070e+000	 3.8637408296e-001	 6.2419171110e-001
 4.3250000000e+000	 0.0000000000e+000	 7.8777952697e-001
 4.3248304378e+000	 3.8297317399e-002	 7.7996075248e-001
 4.3243192967e+000	 7.6730828340e-002	 7.6912694653e-001
 4.3234629263e+000	 1.1529668248e-001	 7.5607572206e-001
 4.3222577192e+000	 1.5399093684e-001	 7.4151297377e-001
 4.3207001140e+000	 1.9280955596e-001	 7.2604950418e-001
 4.3187865974e+000	 2.3174841213e-001	 7.1019776161e-001
 4.3165137067e+000	 2.7080328573e-001	 6.9436870148e-001
 4.3138780329e+000	 3.0996986554e-001	 6.7886878219e-001
 4.3108762223e+000	 3.4924374924e-001	 6.6389710686e-001
 4.3075049798e+000	 3.8862044392e-001	 6.4954272240e-001
 4.3500000000e+000	 0.0000000000e+000	 8.8564596432e-001
 4.3498294576e+000	 3.8518689177e-002	 8.6767845407e-001
 4.3493153620e+000	 7.7174359142e-002	 8.4731488904e-001
 4.3484540415e+000	 1.1596313730e-001	 8.2535068539e-001
 4.3472418679e+000	 1.5488105786e-001	 8.0248741508e-001
 4.3456752592e+000	 1.9392406206e-001	 7.7932938096e-001
 4.3437506817e+000	 2.3308799833e-001	 7.5638030658e-001
 4.3414646530e+000	 2.7236862265e-001	 7.3404015229e-001
 4.3388137440e+000	 3.1176159887e-001	 7.1260206908e-001
 4.3357945819e+000	 3.5126249924e-001	 6.9224950170e-001
 4.3324038525e+000	 3.9086680487e-001	 6.7305345266e-001
 4.3750000000e+000	 0.0000000000e+000	 9.8228723940e-001
 4.3748284775e+000	 3.8740060954e-002	 9.5393996835e-001
 4.3743114273e+000	 7.7617889943e-002	 9.2385364311e-001
 4.3734451567e+000	 1.1662959211e-001	 8.9282177160e-001
 4.3722260166e+000	 1.5577117889e-001	 8.6154185315e-001
 4.3706504043e+000	 1.9503856817e-001	 8.3061190150e-001
 4.3687147661e+000	 2.3442758453e-001	 8.0052708534e-001
 4.3664155993e+000	 2.7393395956e-001	 7.7167649817e-001
 4.3637494552e+000	 3.1355333220e-001	 7.4434006905e-001
 4.3607129416e+000	 3.5328124924e-001	 7.1868562611e-001
 4.3573027252e+000	 3.9311316582e-001	 6.9476612457e-001
 4.4000000000e+000	 0.0000000000e+000	 8.6543120367e-001
 4.3998274974e+000	 3.8961432732e-002	 8.4844228433e-001
 4.3993074926e+000	 7.8061420743e-002	 8.3111616438e-001
 4.3984362718e+000	 1.1729604692e-001	 8.1354357982e-001
 4.3972101652e+000	 1.5666129991e-001	 7.9582885937e-001
 4.3956255495e+000	 1.9615307428e-001	 7.7809024245e-001
 4.3936788505e+000	 2.3576717073e-001	 7.6046018031e-001
 4.3913665456e+000	 2.7549929647e-001	 7.4308561910e-001
 4.3886851664e+000	 3.1534506553e-001	 7.2612826330e-001
 4.3856313013e+000	 3.5529999924e-001	 7.0976481859e-001
 4.3822015979e+000	 3.9535952677e-001	 6.9418721236e-001
 4.4250000000e+000	 0.0000000000e+000	 7.5080688914e-001
 4.4248265173e+000	 3.9182804509e-002	 7.4361310819e-001
 4.4243035579e+000	 7.8504951544e-002	 7.3534578055e-001
 4.4234273870e+000	 1.1796250174e-001	 7.2607964190e-001
 4.4221943139e+000	 1.5755142094e-001	 7.1590352429e-001
 4.4206006947e+000	 1.9726758038e-001	 7.0492070199e-001
 4.4186429349e+000	 2.3710675693e-001	 6.9324922043e-001
 4.4163174919e+000	 2.7706463339e-001	 6.8102220705e-001
 4.4136208776e+000	 3.1713679886e-001	 6.6838816237e-001
 4.4105496609e+000	 3.5731874924e-001	 6.5551123023e-001
 4.4071004706e+000	 3.9760588772e-001	 6.4257144558e-001
 4.4500000000e+000	 0.0000000000e+000	 6.3837479154e-001
 4.4498255371e+000	 3.9404176286e-002	 6.4074278282e-001
 4.4492996232e+000	 7.8948482344e-002	 6.4130491118e-001
 4.4484185022e+000	 1.1862895655e-001	 6.4012005373e-001
 4.4471784626e+000	 1.5844154196e-001	 6.3726169006e-001
 4.4455758398e+000	 1.9838208649e-001	 6.3281827597e-001
 4.4436070192e+000	 2.3844634313e-001	 6.2689360021e-001
 4.4412684381e+000	 2.7862997030e-001	 6.1960712294e-001
 4.4385565887e+000	 3.1892853219e-001	 6.1109429453e-001
 4.4354680206e+000	 3.5933749924e-001	 6.0150685304e-001
 4.4319993433e+000	 3.9985224867e-001	 5.9101309920e-001
 4.4750000000e+000	 0.0000000000e+000	 5.2809628938e-001
 4.4748245570e+000	 3.9625548063e-002	 5.3979588938e-001
 4.4742956885e+000	 7.9392013143e-002	 5.4896119232e-001
 4.4734096174e+000	 1.1929541136e-001	 5.5563535580e-001
 4.4721626112e+000	 1.5933166298e-001	 5.5987664853e-001
 4.4705509850e+000	 1.9949659259e-001	 5.6175885193e-001
 4.4685711036e+000	 2.3978592933e-001	 5.6137164460e-001
 4.4662193844e+000	 2.8019530721e-001	 5.5882096848e-001
 4.4634922999e+000	 3.2072026552e-001	 5.5422937511e-001
 4.4603863803e+000	 3.6135624923e-001	 5.4773635048e-001
 4.4568982160e+000	 4.0209860962e-001	 5.3949861708e-001
 4.5000000000e+000	 0.0000000000e+000	 4.1993361942e-001
 4.4998235769e+000	 3.9846919840e-002	 4.4073779163e-001
 4.4992917538e+000	 7.9835543943e-002	 4.5828296968e-001
 4.4984007326e+000	 1.1996186617e-001	 4.7259672800e-001
 4.4971467599e+000	 1.6022178400e-001	 4.8372226347e-001
 4.4955261302e+000	 2.0061109869e-001	 4.9171882465e-001
 4.4935351880e+000	 2.4112551553e-001	 4.9666212408e-001
 4.4911703307e+000	 2.8176064413e-001	 4.9864473205e-001
 4.4884280111e+000	 3.2251199884e-001	 4.9777645027e-001
 4.4853047399e+000	 3.6337499923e-001	 4.9418466408e-001
 4.4817970888e+000	 4.0434497057e-001	 4.8801467146e-001
 4.2328083616e+000	 3.8188136106e-001	 5.6780127917e-001
 4.2291293762e+000	 4.2067174755e-001	 5.6939993554e-001
 4.2250810713e+000	 4.5955406749e-001	 5.6860224833e-001
 4.2206603959e+000	 4.9852364261e-001	 5.6517930101e-001
 4.2158643666e+000	 5.3757570840e-001	 5.5879075757e-001
 4.2106900698e+000	 5.7670541504e-001	 5.4898321128e-001
 4.2051346646e+000	 6.1590782834e-001	 5.3518874378e-001
 4.1991953847e+000	 6.5517793079e-001	 5.2644012534e-001
 4.1928695419e+000	 6.9451062271e-001	 5.1847088929e-001
 4.1861545275e+000	 7.3390072346e-001	 5.0881015560e-001
 4.1790478158e+000	 7.7334297274e-001	 4.9755244066e-001
 4.2577072343e+000	 3.8412772201e-001	 5.9695845943e-001
 4.2540066078e+000	 4.2314628725e-001	 5.9327761510e-001
 4.2499344894e+000	 4.6225732672e-001	 5.8794407292e-001
 4.2454878100e+000	 5.0145613463e-001	 5.8071283293e-001
 4.2406635688e+000	 5.4073791845e-001	 5.7122498860e-001
 4.2354588350e+000	 5.8009779984e-001	 5.5900605186e-001
 4.2298707508e+000	 6.1953081557e-001	 5.4346449297e-001
 4.2238965340e+000	 6.5903191862e-001	 5.3506366268e-001
 4.2175334803e+000	 6.9859597932e-001	 5.2604722150e-001
 4.2107789659e+000	 7.3821778655e-001	 5.1485011063e-001
 4.2036304500e+000	 7.7789204906e-001	 5.0156517979e-001
 4.2826061070e+000	 3.8637408296e-001	 6.2419171110e-001
 4.2788838395e+000	 4.2562082694e-001	 6.1548964035e-001
 4.2747879074e+000	 4.6496058594e-001	 6.0591345799e-001
 4.2703152241e+000	 5.0438862665e-001	 5.9520186742e-001
 4.2654627709e+000	 5.4390012851e-001	 5.8297713220e-001
 4.2602276001e+000	 5.8349018464e-001	 5.6874337689e-001
 4.2546068371e+000	 6.2315380280e-001	 5.5188510705e-001
 4.2485976834e+000	 6.6288590645e-001	 5.4399796602e-001
 4.2421974188e+000	 7.0268133592e-001	 5.3393782795e-001
 4.2354034043e+000	 7.4253484963e-001	 5.2121445830e-001
 4.2282130842e+000	 7.8244112537e-001	 5.0591908562e-001
 4.3075049798e+000	 3.8862044392e-001	 6.4954272240e-001
 4.3037610711e+000	 4.2809536664e-001	 6.3608469535e-001
 4.2996413255e+000	 4.6766384517e-001	 6.2256624479e-001
 4.2951426382e+000	 5.0732111866e-001	 6.0870956038e-001
 4.2902619731e+000	 5.4706233856e-001	 5.9411781235e-001
 4.2849963652e+000	 5.8688256944e-001	 5.7827342736e-001
 4.2793429233e+000	 6.2677679003e-001	 5.6110244819e-001
 4.2732988327e+000	 6.6673989428e-001	 5.5323110885e-001
 4.2668613573e+000	 7.0676669253e-001	 5.4213034468e-001
 4.2600278427e+000	 7.4685191271e-001	 5.2789029808e-001
 4.2527957184e+000	 7.8699020168e-001	 5.1060062135e-001
 4.3324038525e+000	 3.9086680487e-001	 6.7305345266e-001
 4.3286383027e+000	 4.3056990634e-001	 6.5511173122e-001
 4.3244947436e+000	 4.7036710439e-001	 6.3795853981e-001
 4.3199700523e+000	 5.1025361068e-001	 6.2129933352e-001
 4.3150611753e+000	 5.5022454861e-001	 6.0471792164e-001
 4.3097651303e+000	 5.9027495423e-001	 5.8767471806e-001
 4.3040790096e+000	 6.3039977725e-001	 5.7119300790e-001
 4.2979999820e+000	 6.7059388211e-001	 5.6275145598e-001
 4.2915252958e+000	 7.1085204914e-001	 5.5061271129e-001
 4.2846522811e+000	 7.5116897579e-001	 5.3486504781e-001
 4.2773783526e+000	 7.9153927800e-001	 5.1559658561e-001
 4.3573027252e+000	 3.9311316582e-001	 6.9476612457e-001
 4.3535155343e+000	 4.3304444603e-001	 6.7261995850e-001
 4.3493481616e+000	 4.7307036361e-001	 6.5214670726e-001
 4.3447974664e+000	 5.1318610270e-001	 6.3303486674e-001
 4.3398603774e+000	 5.5338675867e-001	 6.1484861360e-001
 4.3345338954e+000	 5.9366733903e-001	 5.9702602976e-001
 4.3288150959e+000	 6.3402276448e-001	 5.8156346042e-001
 4.3227011313e+000	 6.7444786994e-001	 5.7254765513e-001
 4.3161892343e+000	 7.1493740575e-001	 5.5937316232e-001
 4.3092767195e+000	 7.5548603887e-001	 5.4212643449e-001
 4.3019609868e+000	 7.9608835431e-001	 5.2089410297e-001
 4.3822015979e+000	 3.9535952677e-001	 6.9418721236e-001
 4.3783927660e+000	 4.3551898573e-001	 6.7978660640e-001
 4.3742015797e+000	 4.7577362284e-001	 6.6518736173e-001
 4.3696248805e+000	 5.1611859472e-001	 6.4398009081e-001
 4.3646595796e+000	 5.5654896872e-001	 6.2458129535e-001
 4.3593026605e+000	 5.9705972383e-001	 6.0640640167e-001
 4.3535511821e+000	 6.3764575171e-001	 5.9220303866e-001
 4.3474022807e+000	 6.7830185777e-001	 5.8260862893e-001
 4.3408531727e+000	 7.1902276235e-001	 5.6840021880e-001
 4.3339011579e+000	 7.5980310196e-001	 5.4966248558e-001
 4.3265436210e+000	 8.0063743062e-001	 5.2648061459e-001
 4.4071004706e+000	 3.9760588772e-001	 6.4257144558e-001
 4.4032699976e+000	 4.3799352542e-001	 6.3014746386e-001
 4.3990549978e+000	 4.7847688206e-001	 6.1894444938e-001
 4.3944522946e+000	 5.1905108674e-001	 6.0920319533e-001
 4.3894587817e+000	 5.5971117877e-001	 6.0118061440e-001
 4.3840714257e+000	 6.0045210862e-001	 5.9514983264e-001
 4.3782872684e+000	 6.4126873894e-001	 5.9533905452e-001
 4.3721034300e+000	 6.8215584560e-001	 5.9292356715e-001
 4.3655171112e+000	 7.2310811896e-001	 5.7768268022e-001
 4.3585255963e+000	 7.6412016504e-001	 5.5746152048e-001
 4.3511262553e+000	 8.0518650693e-001	 5.3234386931e-001
 4.4319993433e+000	 3.9985224867e-001	 5.9101309920e-001
 4.4281472292e+000	 4.4046806511e-001	 5.8049513950e-001
 4.4239084158e+000	 4.8118014128e-001	 5.7067231481e-001
 4.4192797087e+000	 5.2198357876e-001	 5.6178417509e-001
 4.4142579839e+000	 5.6287338882e-001	 5.5408702968e-001
 4.4088401908e+000	 6.0384449342e-001	 5.4785405536e-001
 4.4030233546e+000	 6.4489172617e-001	 5.4764821363e-001
 4.3968045793e+000	 6.8600983343e-001	 5.4985637788e-001
 4.3901810497e+000	 7.2719347556e-001	 5.4864862169e-001
 4.3831500347e+000	 7.6843722812e-001	 5.4416969090e-001
 4.3757088895e+000	 8.0973558324e-001	 5.3656128635e-001
 4.4568982160e+000	 4.0209860962e-001	 5.3949861708e-001
 4.4530244608e+000	 4.4294260481e-001	 5.3081574688e-001
 4.4487618339e+000	 4.8388340051e-001	 5.2230417890e-001
 4.4441071228e+000	 5.2491607077e-001	 5.1420230488e-001
 4.4390571860e+000	 5.6603559887e-001	 5.0676591861e-001
 4.4336089559e+000	 6.0723687822e-001	 5.0026833810e-001
 4.4277594409e+000	 6.4851471339e-001	 4.9944628510e-001
 4.4215057286e+000	 6.8986382126e-001	 4.9921148523e-001
 4.4148449882e+000	 7.3127883217e-001	 4.9518868276e-001
 4.4077744731e+000	 7.7275429120e-001	 4.8752015849e-001
 4.4002915237e+000	 8.1428465955e-001	 4.7634535195e-001
 4.4817970888e+000	 4.0434497057e-001	 4.8801467146e-001
 4.4779016925e+000	 4.4541714450e-001	 4.8109562455e-001
 4.4736152520e+000	 4.8658665973e-001	 4.7382593394e-001
 4.4689345369e+000	 5.2784856279e-001	 4.6644291755e-001
 4.4638563882e+000	 5.6919780892e-001	 4.5920194070e-001
 4.4583777210e+000	 6.1062926301e-001	 4.5237655258e-001
 4.4524955272e+000	 6.5213770062e-001	 4.5073322532e-001
 4.4462068779e+000	 6.9371780909e-001	 4.4806979642e-001
 4.4395089267e+000	 7.3536418877e-001	 4.4125314920e-001
 4.4323989115e+000	 7.7707135428e-001	 4.3042310281e-001
 4.4248741579e+000	 8.1883373586e-001	 4.1571683359e-001
 4.1790478158e+000	 7.7334297274e-001	 4.9755244066e-001
 4.1715469658e+000	 8.1283203195e-001	 4.8326051670e-001
 4.1636496242e+000	 8.5236248567e-001	 4.6839945176e-001
 4.1553535275e+000	 8.9192884318e-001	 4.5308112634e-001
 4.1466565047e+000	 9.3152554013e-001	 4.3741518063e-001
 4.1375564794e+000	 9.7114694021e-001	 4.2150886056e-001
 4.1280514725e+000	 1.0107873370e+000	 4.0546686669e-001
 4.1181396041e+000	 1.0504409556e+000	 3.8939120629e-001
 4.1078190963e+000	 1.0901019551e+000	 3.7338104896e-001
 4.0970882749e+000	 1.1297644301e+000	 3.5753258610e-001
 4.0859455723e+000	 1.1694224131e+000	 3.4193889460e-001
 4.2036304500e+000	 7.7789204906e-001	 5.0156517979e-001
 4.1960854774e+000	 8.1761339685e-001	 4.8536835524e-001
 4.1881416808e+000	 8.5737638264e-001	 4.6875629447e-001
 4.1797967836e+000	 8.9717548344e-001	 4.5184075828e-001
 4.1710486018e+000	 9.3700510214e-001	 4.3473107766e-001
 4.1618950470e+000	 9.7685956928e-001	 4.1753399691e-001
 4.1523341282e+000	 1.0167331448e+000	 4.0035351979e-001
 4.1423639547e+000	 1.0566200201e+000	 3.8329075917e-001
 4.1319827380e+000	 1.0965143196e+000	 3.6644379031e-001
 4.1211887942e+000	 1.1364101032e+000	 3.4990750847e-001
 4.1099805463e+000	 1.1763013684e+000	 3.3377349082e-001
 4.2282130842e+000	 7.8244112537e-001	 5.0591908562e-001
 4.2206239889e+000	 8.2239476175e-001	 4.8774063365e-001
 4.2126337374e+000	 8.6239027962e-001	 4.6929977477e-001
 4.2042400396e+000	 9.0242212370e-001	 4.5070816161e-001
 4.1954406989e+000	 9.4248466414e-001	 4.3207482775e-001
 4.1862336145e+000	 9.8257219834e-001	 4.1350602783e-001
 4.1766167839e+000	 1.0226789527e+000	 3.9510508102e-001
 4.1665883053e+000	 1.0627990845e+000	 3.7697221811e-001
 4.1561463797e+000	 1.1029266840e+000	 3.5920443268e-001
 4.1452893135e+000	 1.1430557764e+000	 3.4189533661e-001
 4.1340155202e+000	 1.1831803238e+000	 3.2513502040e-001
 4.2527957184e+000	 7.8699020168e-001	 5.1060062135e-001
 4.2451625005e+000	 8.2717612664e-001	 4.9036481590e-001
 4.2371257940e+000	 8.6740417660e-001	 4.7001839172e-001
 4.2286832957e+000	 9.0766876395e-001	 4.4967290466e-001
 4.2198327960e+000	 9.4796422615e-001	 4.2943710240e-001
 4.2105721820e+000	 9.8828482740e-001	 4.0941676164e-001
 4.2008994397e+000	 1.0286247606e+000	 3.8971452884e-001
 4.1908126559e+000	 1.0689781490e+000	 3.7042976483e-001
 4.1803100215e+000	 1.1093390485e+000	 3.5165839374e-001
 4.1693898327e+000	 1.1497014495e+000	 3.3349275654e-001
 4.1580504942e+000	 1.1900592792e+000	 3.1602146961e-001
 4.2773783526e+000	 7.9153927800e-001	 5.1559658561e-001
 4.2697010121e+000	 8.3195749154e-001	 4.9322868106e-001
 4.2616178507e+000	 8.7241807358e-001	 4.7090093854e-001
 4.2531265517e+000	 9.1291540421e-001	 4.4872482824e-001
 4.2442248931e+000	 9.5344378815e-001	 4.2680882328e-001
 4.2349107496e+000	 9.9399745647e-001	 4.0525823387e-001
 4.2251820954e+000	 1.0345705684e+000	 3.8417504541e-001
 4.2150370066e+000	 1.0751572134e+000	 3.6365776052e-001
 4.2044736632e+000	 1.1157514129e+000	 3.4380124579e-001
 4.1934903520e+000	 1.1563471226e+000	 3.2469658337e-001
 4.1820854681e+000	 1.1969382346e+000	 3.0643092777e-001
 4.3019609868e+000	 7.9608835431e-001	 5.2089410297e-001
 4.2942395236e+000	 8.3673885643e-001	 4.9632031436e-001
 4.2861099073e+000	 8.7743197055e-001	 4.7193649416e-001
 4.2775698078e+000	 9.1816204446e-001	 4.4785403787e-001
 4.2686169902e+000	 9.5892335015e-001	 4.2418115511e-001
 4.2592493171e+000	 9.9971008553e-001	 4.0102270085e-001
 4.2494647511e+000	 1.0405163763e+000	 3.7848001072e-001
 4.2392613572e+000	 1.0813362778e+000	 3.5665074065e-001
 4.2286373050e+000	 1.1221637773e+000	 3.3562871130e-001
 4.2175908713e+000	 1.1629927957e+000	 3.1550375767e-001
 4.2061204421e+000	 1.2038171899e+000	 2.9636158429e-001
 4.3265436210e+000	 8.0063743062e-001	 5.2648061459e-001
 4.3187780352e+000	 8.4152022133e-001	 4.9962809843e-001
 4.3106019639e+000	 8.8244586753e-001	 4.7311441513e-001
 4.3020130638e+000	 9.2340868472e-001	 4.4705089625e-001
 4.2930090873e+000	 9.6440291215e-001	 4.2154549876e-001
 4.2835878846e+000	 1.0054227146e+000	 3.9670263336e-001
 4.2737474068e+000	 1.0464621842e+000	 3.7262299702e-001
 4.2634857078e+000	 1.0875153423e+000	 3.4940341011e-001
 4.2528009467e+000	 1.1285761418e+000	 3.2713665864e-001
 4.2416913905e+000	 1.1696384688e+000	 3.0591134188e-001
 4.2301554161e+000	 1.2106961453e+000	 2.8581172581e-001
 4.3511262553e+000	 8.0518650693e-001	 5.3234386931e-001
 4.3433165468e+000	 8.4630158622e-001	 5.0314070494e-001
 4.3350940205e+000	 8.8745976450e-001	 4.7442432778e-001
 4.3264563199e+000	 9.2865532497e-001	 4.4630601599e-001
 4.3174011843e+000	 9.6988247415e-001	 4.1889348456e-001
 4.3079264521e+000	 1.0111353436e+000	 3.9229071064e-001
 4.2980300625e+000	 1.0524079920e+000	 3.6659776332e-001
 4.2877100584e+000	 1.0936944067e+000	 3.4191063834e-001
 4.2769645885e+000	 1.1349885062e+000	 3.1832109800e-001
 4.2657919098e+000	 1.1762841420e+000	 2.9591651686e-001
 4.2541903900e+000	 1.2175751007e+000	 2.7477973348e-001
 4.3757088895e+000	 8.0973558324e-001	 5.3656128635e-001
 4.3678550583e+000	 8.5108295112e-001	 5.0684708648e-001
 4.3595860771e+000	 8.9247366148e-001	 4.7585612063e-001
 4.3508995759e+000	 9.3390196523e-001	 4.4561025261e-001
 4.3417932814e+000	 9.7536203615e-001	 4.1621696587e-001
 4.3322650197e+000	 1.0168479727e+000	 3.8777981447e-001
 4.3223127183e+000	 1.0583537999e+000	 3.6039825022e-001
 4.3119344090e+000	 1.0998734712e+000	 3.3416745476e-001
 4.3011282302e+000	 1.1414008707e+000	 3.0917817738e-001
 4.2898924291e+000	 1.1829298151e+000	 2.8551657860e-001
 4.2782253640e+000	 1.2244540561e+000	 2.6326408031e-001
 4.4002915237e+000	 8.1428465955e-001	 4.7634535195e-001
 4.3923935699e+000	 8.5586431601e-001	 4.6233481555e-001
 4.3840781337e+000	 8.9748755845e-001	 4.5148484077e-001
 4.3753428319e+000	 9.3914860548e-001	 4.4395206594e-001
 4.3661853785e+000	 9.8084159815e-001	 4.1350801282e-001
 4.3566035872e+000	 1.0225606018e+000	 3.8316302358e-001
 4.3465953740e+000	 1.0642996077e+000	 3.5401857475e-001
 4.3361587596e+000	 1.1060525356e+000	 3.2616904428e-001
 4.3252918719e+000	 1.1478132351e+000	 2.9970417871e-001
 4.3139929483e+000	 1.1895754882e+000	 2.7470893495e-001
 4.3022603379e+000	 1.2313330114e+000	 2.5126332858e-001
 4.4248741579e+000	 8.1883373586e-001	 4.1571683359e-001
 4.4169320814e+000	 8.6064568090e-001	 3.9757485320e-001
 4.4085701903e+000	 9.0250145542e-001	 3.8280092835e-001
 4.3997860880e+000	 9.4439524573e-001	 3.7155035103e-001
 4.3905774756e+000	 9.8632116015e-001	 3.6396992511e-001
 4.3809421547e+000	 1.0282732308e+000	 3.6019783134e-001
 4.3708780297e+000	 1.0702454156e+000	 3.4745302558e-001
 4.3603831102e+000	 1.1122316001e+000	 3.1791074298e-001
 4.3494555137e+000	 1.1542255995e+000	 2.8989551422e-001
 4.3380934676e+000	 1.1962211613e+000	 2.6349110256e-001
 4.3262953119e+000	 1.2382119668e+000	 2.3877612735e-001
 4.0859455723e+000	 1.1694224131e+000	 3.4193889460e-001
 4.0743895290e+000	 1.2090698765e+000	 3.3846939517e-001
 4.0624187960e+000	 1.2487007353e+000	 3.3161402361e-001
 4.0500321369e+000	 1.2883088488e+000	 3.0733114099e-001
 4.0372284301e+000	 1.3278880237e+000	 2.8047678232e-001
 4.0240066701e+000	 1.3674320163e+000	 2.5194113434e-001
 4.0103659702e+000	 1.4069345349e+000	 2.2213924737e-001
 3.9963055637e+000	 1.4463892427e+000	 1.9150540481e-001
 3.9818248061e+000	 1.4857897608e+000	 1.6049283392e-001
 3.9669231766e+000	 1.5251296703e+000	 1.2957337096e-001
 3.9516002795e+000	 1.5644025157e+000	 9.9237080366e-002
 4.1099805463e+000	 1.1763013684e+000	 3.3377349082e-001
 4.0983565262e+000	 1.2161820523e+000	 3.3081973189e-001
 4.0863153771e+000	 1.2560460337e+000	 3.2262539463e-001
 4.0738558554e+000	 1.2958871362e+000	 2.9936799361e-001
 4.0609768326e+000	 1.3356991298e+000	 2.7426211602e-001
 4.0476772976e+000	 1.3754757340e+000	 2.4770094214e-001
 4.0339563582e+000	 1.4152106204e+000	 2.2009709776e-001
 4.0198132435e+000	 1.4548974148e+000	 1.9188240962e-001
 4.0052473050e+000	 1.4945297006e+000	 1.6350761555e-001
 3.9902580188e+000	 1.5341010213e+000	 1.3544202861e-001
 3.9748449870e+000	 1.5736048834e+000	 1.0817315504e-001
 4.1340155202e+000	 1.1831803238e+000	 3.2513502040e-001
 4.1223235234e+000	 1.2232942280e+000	 3.2247390933e-001
 4.1102119583e+000	 1.2633913321e+000	 3.1233830380e-001
 4.0976795738e+000	 1.3034654235e+000	 2.9034247447e-001
 4.0847252351e+000	 1.3435102358e+000	 2.6671843353e-001
 4.0713479250e+000	 1.3835194518e+000	 2.4185709892e-001
 4.0575467463e+000	 1.4234867059e+000	 2.1616881187e-001
 4.0433209233e+000	 1.4634055868e+000	 1.9008309191e-001
 4.0286698039e+000	 1.5032696403e+000	 1.6404834626e-001
 4.0135928610e+000	 1.5430723723e+000	 1.3853153299e-001
 3.9980896946e+000	 1.5828072511e+000	 1.1401777763e-001
 4.1580504942e+000	 1.1900592792e+000	 3.1602146961e-001
 4.1462905207e+000	 1.2304064038e+000	 3.1343360670e-001
 4.1341085394e+000	 1.2707366306e+000	 3.0125567533e-001
 4.1215032923e+000	 1.3110437108e+000	 2.8026623037e-001
 4.1084736377e+000	 1.3513213418e+000	 2.5786076740e-001
 4.0950185525e+000	 1.3915631695e+000	 2.3442807181e-001
 4.0811371344e+000	 1.4317627914e+000	 2.1037633954e-001
 4.0668286031e+000	 1.4719137588e+000	 1.8613293156e-001
 4.0520923027e+000	 1.5120095801e+000	 1.6214408256e-001
 4.0369277032e+000	 1.5520437233e+000	 1.3887456296e-001
 4.0213344021e+000	 1.5920096189e+000	 1.1680729430e-001
 4.1820854681e+000	 1.1969382346e+000	 3.0643092777e-001
 4.1702575179e+000	 1.2375185795e+000	 3.0370052524e-001
 4.1580051206e+000	 1.2780819290e+000	 2.8938575902e-001
 4.1453270108e+000	 1.3186219982e+000	 2.6915076247e-001
 4.1322220402e+000	 1.3591324478e+000	 2.4770391785e-001
 4.1186891800e+000	 1.3996068873e+000	 2.2543200713e-001
 4.1047275224e+000	 1.4400388769e+000	 2.0274121944e-001
 4.0903362829e+000	 1.4804219308e+000	 1.8005690517e-001
 4.0755148016e+000	 1.5207495199e+000	 1.5782328372e-001
 4.0602625455e+000	 1.5610150743e+000	 1.3650310456e-001
 4.0445791096e+000	 1.6012119866e+000	 1.1657726103e-001
 4.2061204421e+000	 1.2038171899e+000	 2.9636158429e-001
 4.1942245151e+000	 1.2446307552e+000	 2.9327638763e-001
 4.1819017017e+000	 1.2854272275e+000	 2.7673674556e-001
 4.1691507292e+000	 1.3262002855e+000	 2.5700743044e-001
 4.1559704427e+000	 1.3669435539e+000	 2.3626245943e-001
 4.1423598075e+000	 1.4076506050e+000	 2.1488673949e-001
 4.1283179105e+000	 1.4483149624e+000	 1.9328459081e-001
 4.1138439627e+000	 1.4889301028e+000	 1.7187950038e-001
 4.0989373005e+000	 1.5294894596e+000	 1.5111382891e-001
 4.0835973877e+000	 1.5699864253e+000	 1.3144847074e-001
 4.0678238172e+000	 1.6104143544e+000	 1.1336246620e-001
 4.2301554161e+000	 1.2106961453e+000	 2.8581172581e-001
 4.2181915124e+000	 1.2517429310e+000	 2.8159515223e-001
 4.2057982829e+000	 1.2927725259e+000	 2.6331676820e-001
 4.1929744477e+000	 1.3337785729e+000	 2.4384745648e-001
 4.1797188453e+000	 1.3747546599e+000	 2.2355074742e-001
 4.1660304349e+000	 1.4156943227e+000	 2.0280980073e-001
 4.1519082985e+000	 1.4565910479e+000	 1.8202720482e-001
 4.1373516424e+000	 1.4974382748e+000	 1.6162472981e-001
 4.1223597993e+000	 1.5382293994e+000	 1.4204303360e-001
 4.1069322299e+000	 1.5789577763e+000	 1.2374132057e-001
 4.0910685247e+000	 1.6196167221e+000	 1.0719695240e-001
 4.2541903900e+000	 1.2175751007e+000	 2.7477973348e-001
 4.2421585096e+000	 1.2588551067e+000	 2.6757696433e-001
 4.2296948641e+000	 1.3001178244e+000	 2.4913390438e-001
 4.2167981661e+000	 1.3413568602e+000	 2.2968192920e-001
 4.2034672478e+000	 1.3825657659e+000	 2.0958292401e-001
 4.1897010624e+000	 1.4237380405e+000	 1.8921842840e-001
 4.1754986866e+000	 1.4648671334e+000	 1.6898943552e-001
 4.1608593222e+000	 1.5059464469e+000	 1.4931614447e-001
 4.1457822982e+000	 1.5469693392e+000	 1.3063766555e-001
 4.1302670721e+000	 1.5879291273e+000	 1.1341167766e-001
 4.1143132322e+000	 1.6288190898e+000	 9.8114037500e-002
 4.2782253640e+000	 1.2244540561e+000	 2.6326408031e-001
 4.2661255068e+000	 1.2659672825e+000	 2.5303567681e-001
 4.2535914452e+000	 1.3074631228e+000	 2.3419617730e-001
 4.2406218846e+000	 1.3489351476e+000	 2.1452180741e-001
 4.2272156503e+000	 1.3903768719e+000	 1.9437292432e-001
 4.2133716899e+000	 1.4317817582e+000	 1.7412957407e-001
 4.1990890747e+000	 1.4731432189e+000	 1.5419129041e-001
 4.1843670020e+000	 1.5144546189e+000	 1.3497684669e-001
 4.1692047970e+000	 1.5557092789e+000	 1.1692396015e-001
 4.1536019143e+000	 1.5969004783e+000	 1.0048894800e-001
 4.1375579397e+000	 1.6380214576e+000	 8.6146335016e-002
 4.3022603379e+000	 1.2313330114e+000	 2.5126332858e-001
 4.2900925040e+000	 1.2730794582e+000	 2.3797643771e-001
 4.2774880264e+000	 1.3148084213e+000	 2.1851155746e-001
 4.2644456030e+000	 1.3565134349e+000	 1.9837792367e-001
 4.2509640528e+000	 1.3981879779e+000	 1.7793448216e-001
 4.2370423173e+000	 1.4398254760e+000	 1.5755991130e-001
 4.2226794627e+000	 1.4814193044e+000	 1.3765242075e-001
 4.2078746818e+000	 1.5229627909e+000	 1.1862950271e-001
 4.1926272959e+000	 1.5644492187e+000	 1.0092763530e-001
 4.1769367565e+000	 1.6058718293e+000	 8.5001937255e-002
 4.1608026473e+000	 1.6472238253e+000	 7.1325773763e-002
 4.3262953119e+000	 1.2382119668e+000	 2.3877612735e-001
 4.3140595013e+000	 1.2801916340e+000	 2.2240441369e-001
 4.3013846075e+000	 1.3221537197e+000	 2.0208796405e-001
 4.2882693215e+000	 1.3640917223e+000	 1.8126098788e-001
 4.2747124554e+000	 1.4059990840e+000	 1.6028113562e-001
 4.2607129448e+000	 1.4478691937e+000	 1.3952584336e-001
 4.2462698508e+000	 1.4896953899e+000	 1.1939213136e-001
 4.2313823616e+000	 1.5314709629e+000	 1.0029635475e-001
 4.2160497947e+000	 1.5731891585e+000	 8.2673905827e-002
 4.2002715988e+000	 1.6148431803e+000	 6.6978867409e-002
 4.1840473548e+000	 1.6564261930e+000	 5.3683616888e-002
 3.9516002795e+000	 1.5644025157e+000	 9.9237080366e-002
 3.9358558462e+000	 1.6036018077e+000	 5.7625154372e-002
 3.9196897364e+000	 1.6427210263e+000	 2.0100621739e-002
 3.9031019395e+000	 1.6817536235e+000	-1.2848916009e-002
 3.8860925758e+000	 1.7206930268e+000	-4.0722601567e-002
 3.8686618980e+000	 1.7595326423e+000	-6.3006912946e-002
 3.8508102920e+000	 1.7982658577e+000	-7.9176295932e-002
 3.8325382783e+000	 1.8368860459e+000	-8.8693837364e-002
 3.8138465125e+000	 1.8753865680e+000	-9.1199457018e-002
 3.7947357865e+000	 1.9137607768e+000	-1.0605728743e-001
 3.7752070290e+000	 1.9520020205e+000	-1.1628846139e-001
 3.9748449870e+000	 1.5736048834e+000	 1.0817315504e-001
 3.9590079395e+000	 1.6130347595e+000	 6.8380300090e-002
 3.9427467349e+000	 1.6523840911e+000	 3.2170811750e-002
 3.9260613627e+000	 1.6916462918e+000	 5.1182748182e-005
 3.9089519439e+000	 1.7308147505e+000	-2.7457982385e-002
 3.8914187326e+000	 1.7698828343e+000	-4.9822572429e-002
 3.8734621172e+000	 1.8088438922e+000	-6.6495617536e-002
 3.8550826211e+000	 1.8476912579e+000	-7.6917979680e-002
 3.8362809037e+000	 1.8864182537e+000	-8.5867118529e-002
 3.8170577617e+000	 1.9250181932e+000	-1.0220107335e-001
 3.7974141292e+000	 1.9634843853e+000	-1.1414786443e-001
 3.9980896946e+000	 1.5828072511e+000	 1.1401777763e-001
 3.9821600327e+000	 1.6224677113e+000	 7.6218392146e-002
 3.9658037333e+000	 1.6620471560e+000	 4.1500870298e-002
 3.9490207858e+000	 1.7015389602e+000	 1.0390628435e-002
 3.9318113120e+000	 1.7409364742e+000	-1.6571947659e-002
 3.9141755673e+000	 1.7802330263e+000	-3.8832121954e-002
 3.8961139425e+000	 1.8194219267e+000	-5.5821471915e-002
 3.8776269639e+000	 1.8584964700e+000	-6.6958596218e-002
 3.8587152950e+000	 1.8974499394e+000	-8.1770370599e-002
 3.8393797369e+000	 1.9362756095e+000	-9.9284269124e-002
 3.8196212294e+000	 1.9749667502e+000	-1.1264512362e-001
 4.0213344021e+000	 1.5920096189e+000	 1.1680729430e-001
 4.0053121259e+000	 1.6319006631e+000	 8.1170926685e-002
 3.9888607318e+000	 1.6717102208e+000	 4.8117324836e-002
 3.9719802090e+000	 1.7114316286e+000	 1.8190863237e-002
 3.9546706801e+000	 1.7510581979e+000	-8.0482548195e-003
 3.9369324020e+000	 1.7905832183e+000	-3.0024630583e-002
 3.9187657677e+000	 1.8299999611e+000	-4.7148349346e-002
 3.9001713067e+000	 1.8693016820e+000	-5.8815705509e-002
 3.8811496862e+000	 1.9084816251e+000	-7.8882880573e-002
 3.8617017121e+000	 1.9475330258e+000	-9.7284579002e-002
 3.8418283295e+000	 1.9864491150e+000	-1.1176205727e-001
 4.0445791096e+000	 1.6012119866e+000	 1.1657726103e-001
 4.0284642191e+000	 1.6413336149e+000	 8.3268707494e-002
 4.0119177302e+000	 1.6813732857e+000	 5.2046110354e-002
 3.9949396322e+000	 1.7213242970e+000	 2.3472838830e-002
 3.9775300482e+000	 1.7611799216e+000	-1.8710478333e-003
 3.9596892367e+000	 1.8009334104e+000	-2.3389447961e-002
 3.9414175930e+000	 1.8405779956e+000	-4.0470912783e-002
 3.9227156495e+000	 1.8801068940e+000	-5.4454451690e-002
 3.9035840775e+000	 1.9195133107e+000	-7.7178266973e-002
 3.8840236873e+000	 1.9587904422e+000	-9.6179544890e-002
 3.8640354297e+000	 1.9979314798e+000	-1.1148020610e-001
 4.0678238172e+000	 1.6104143544e+000	 1.1336246620e-001
 4.0516163123e+000	 1.6507665667e+000	 8.2541865776e-002
 4.0349747287e+000	 1.6910363506e+000	 5.3312586303e-002
 4.0178990554e+000	 1.7312169653e+000	 2.6257030393e-002
 4.0003894163e+000	 1.7713016452e+000	 1.9751538393e-003
 3.9824460714e+000	 1.8112836024e+000	-1.8916196291e-002
 3.9640694182e+000	 1.8511560300e+000	-3.5783992915e-002
 3.9452599923e+000	 1.8909121061e+000	-5.3817934197e-002
 3.9260184687e+000	 1.9305449964e+000	-7.6630100895e-002
 3.9063456625e+000	 1.9700478585e+000	-9.5946551004e-002
 3.8862425299e+000	 2.0094138446e+000	-1.1178084113e-001
 4.0910685247e+000	 1.6196167221e+000	 1.0719695240e-001
 4.0747684055e+000	 1.6601995186e+000	 7.9019879262e-002
 4.0580317271e+000	 1.7006994154e+000	 5.1941552950e-002
 4.0408584785e+000	 1.7411096337e+000	 2.6563450146e-002
 4.0232487843e+000	 1.7814233689e+000	 3.5054659123e-003
 4.0052029061e+000	 1.8216337944e+000	-1.6594762597e-002
 3.9867212435e+000	 1.8617340645e+000	-3.3082583409e-002
 3.9678043352e+000	 1.9017173181e+000	-5.4586814433e-002
 3.9484528600e+000	 1.9415766821e+000	-7.7211907355e-002
 3.9286676378e+000	 1.9813052748e+000	-9.6562828351e-002
 3.9084496300e+000	 2.0208962095e+000	-1.1264497137e-001
 4.1143132322e+000	 1.6288190898e+000	 9.8114037500e-002
 4.0979204987e+000	 1.6696324704e+000	 7.2731590671e-002
 4.0810887256e+000	 1.7103624803e+000	 4.7957267173e-002
 4.0638179017e+000	 1.7510023021e+000	 2.4411660426e-002
 4.0461081524e+000	 1.7915450926e+000	 2.7346495799e-003
 4.0279597408e+000	 1.8319839864e+000	-1.6415291242e-002
 4.0093730687e+000	 1.8723120989e+000	-3.2361836298e-002
 3.9903486780e+000	 1.9125225301e+000	-5.6731041878e-002
 3.9708872512e+000	 1.9526083678e+000	-7.8897166590e-002
 3.9509896130e+000	 1.9925626912e+000	-9.8005459054e-002
 3.9306567302e+000	 2.0323785743e+000	-1.1405335119e-001
 4.1375579397e+000	 1.6380214576e+000	 8.6146335016e-002
 4.1210725920e+000	 1.6790654222e+000	 6.3705225544e-002
 4.1041457241e+000	 1.7200255451e+000	 4.1383457721e-002
 4.0867773249e+000	 1.7608949704e+000	 1.9820786328e-002
 4.0689675205e+000	 1.8016668163e+000	-3.2287852526e-004
 4.0507165755e+000	 1.8423341784e+000	-1.8368176695e-002
 4.0320248940e+000	 1.8828901334e+000	-3.5953428321e-002
 4.0128930208e+000	 1.9233277422e+000	-6.0220622048e-002
 3.9933216425e+000	 1.9636400535e+000	-8.1659315317e-002
 3.9733115882e+000	 2.0038201075e+000	-1.0025138054e-001
 3.9528638304e+000	 2.0438609391e+000	-1.1598648751e-001
 4.1608026473e+000	 1.6472238253e+000	 7.1325773763e-002
 4.1442246852e+000	 1.6884983740e+000	 5.1968409487e-002
 4.1272027225e+000	 1.7296886100e+000	 3.2243339972e-002
 4.1097367481e+000	 1.7707876388e+000	 1.2809527914e-002
 4.0918268886e+000	 1.8117885400e+000	-5.6530367073e-003
 4.0734734102e+000	 1.8526843704e+000	-2.2444056551e-002
 4.0546767192e+000	 1.8934681678e+000	-4.1964434060e-002
 4.0354373636e+000	 1.9341329542e+000	-6.5025614926e-002
 4.0157560337e+000	 1.9746717392e+000	-8.5471747950e-002
 3.9956335634e+000	 2.0150775238e+000	-1.0327738956e-001
 3.9750709306e+000	 2.0553433039e+000	-1.1842464667e-001
 4.1840473548e+000	 1.6564261930e+000	 5.3683616888e-002
 4.1673767784e+000	 1.6979313258e+000	 3.7548184834e-002
 4.1502597210e+000	 1.7393516748e+000	 2.0559630187e-002
 4.1326961712e+000	 1.7806803072e+000	 3.3961720225e-003
 4.1146862567e+000	 1.8219102636e+000	-1.3242068903e-002
 4.0962302449e+000	 1.8630345624e+000	-2.8633804774e-002
 4.0773285445e+000	 1.9040462023e+000	-4.9517659448e-002
 4.0579817064e+000	 1.9449381662e+000	-7.1116133450e-002
 4.0381904250e+000	 1.9857034249e+000	-9.0307817772e-002
 4.0179555386e+000	 2.0263349401e+000	-1.0706014613e-001
 3.9972780307e+000	 2.0668256687e+000	-1.2134786116e-001
 3.7752070290e+000	 1.9520020205e+000	-1.1628846139e-001
 3.7552613065e+000	 1.9901036456e+000	-1.2403601668e-001
 3.7348998232e+000	 2.0280590008e+000	-1.4819791483e-001
 3.7141239222e+000	 2.0658614403e+000	-1.7983982583e-001
 3.6929350853e+000	 2.1035043275e+000	-2.1255724726e-001
 3.6713349334e+000	 2.1409810384e+000	-2.4601910396e-001
 3.6493252266e+000	 2.1782849654e+000	-2.7988123509e-001
 3.6269078643e+000	 2.2154095206e+000	-3.1378686059e-001
 3.6040848849e+000	 2.2523481398e+000	-3.4736708492e-001
 3.5808584657e+000	 2.2890942857e+000	-3.8024143748e-001
 3.5572309227e+000	 2.3256414519e+000	-4.1201844895e-001
 3.7974141292e+000	 1.9634843853e+000	-1.1414786443e-001
 3.7773510788e+000	 2.0018101376e+000	-1.2509528058e-001
 3.7568698222e+000	 2.0399887596e+000	-1.3361637291e-001
 3.7359717100e+000	 2.0780135664e+000	-1.5839214207e-001
 3.7146582329e+000	 2.1158778823e+000	-1.9285353658e-001
 3.6929310213e+000	 2.1535750445e+000	-2.2807421303e-001
 3.6707918456e+000	 2.1910984063e+000	-2.6369845046e-001
 3.6482426164e+000	 2.2284413413e+000	-2.9935761247e-001
 3.6252853842e+000	 2.2655972465e+000	-3.3467066490e-001
 3.6019223390e+000	 2.3025595462e+000	-3.6924473099e-001
 3.5781558105e+000	 2.3393216957e+000	-4.0267568321e-001
 3.8196212294e+000	 1.9749667502e+000	-1.1264512362e-001
 3.7994408512e+000	 2.0135166297e+000	-1.2670944576e-001
 3.7788398211e+000	 2.0519185184e+000	-1.3819678769e-001
 3.7578194978e+000	 2.0901656925e+000	-1.4727188483e-001
 3.7363813804e+000	 2.1282514372e+000	-1.7304374044e-001
 3.7145271091e+000	 2.1661690506e+000	-2.0999780488e-001
 3.6922584646e+000	 2.2039118473e+000	-2.4736211911e-001
 3.6695773686e+000	 2.2414731620e+000	-2.8475612154e-001
 3.6464858835e+000	 2.2788463532e+000	-3.2178656513e-001
 3.6229862123e+000	 2.3160248067e+000	-3.5804808734e-001
 3.5990806982e+000	 2.3530019396e+000	-3.9312381756e-001
 3.8418283295e+000	 1.9864491150e+000	-1.1176205727e-001
 3.8215306236e+000	 2.0252231217e+000	-1.2886064059e-001
 3.8008098201e+000	 2.0638482773e+000	-1.4323135631e-001
 3.7796672856e+000	 2.1023178186e+000	-1.5503992953e-001
 3.7581045280e+000	 2.1406249920e+000	-1.6446003998e-001
 3.7361231969e+000	 2.1787630567e+000	-1.9177892516e-001
 3.7137250836e+000	 2.2167252883e+000	-2.3086281028e-001
 3.6909121207e+000	 2.2545049827e+000	-2.6997449987e-001
 3.6676863828e+000	 2.2920954599e+000	-3.0870845850e-001
 3.6440500857e+000	 2.3294900672e+000	-3.4664675701e-001
 3.6200055860e+000	 2.3666821834e+000	-3.8335969559e-001
 3.8640354297e+000	 1.9979314798e+000	-1.1148020610e-001
 3.8436203960e+000	 2.0369296137e+000	-1.3153068803e-001
 3.8227798190e+000	 2.0757780361e+000	-1.4870217743e-001
 3.8015150733e+000	 2.1144699447e+000	-1.6316152516e-001
 3.7798276756e+000	 2.1529985469e+000	-1.7508368960e-001
 3.7577192848e+000	 2.1913570628e+000	-1.8465126254e-001
 3.7351917025e+000	 2.2295387292e+000	-2.1419065178e-001
 3.7122468729e+000	 2.2675368034e+000	-2.5500439161e-001
 3.6888868821e+000	 2.3053445666e+000	-2.9542952383e-001
 3.6651139590e+000	 2.3429553277e+000	-3.3503547053e-001
 3.6409304738e+000	 2.3803624272e+000	-3.7337961531e-001
 3.8862425299e+000	 2.0094138446e+000	-1.1178084113e-001
 3.8657101684e+000	 2.0486361058e+000	-1.3470111430e-001
 3.8447498180e+000	 2.0877077949e+000	-1.5459102616e-001
 3.8233628611e+000	 2.1266220709e+000	-1.7161868979e-001
 3.8015508231e+000	 2.1653721018e+000	-1.8596048002e-001
 3.7793153726e+000	 2.2039510689e+000	-1.9780055240e-001
 3.7566583215e+000	 2.2423521702e+000	-2.0733034225e-001
 3.7335816250e+000	 2.2805686241e+000	-2.3983698644e-001
 3.7100873815e+000	 2.3185936733e+000	-2.8194245997e-001
 3.6861778323e+000	 2.3564205882e+000	-3.2320845329e-001
 3.6618553616e+000	 2.3940426711e+000	-3.6317934475e-001
 3.9084496300e+000	 2.0208962095e+000	-1.1264497137e-001
 3.8877999408e+000	 2.0603425978e+000	-1.3835315735e-001
 3.8667198170e+000	 2.0996375537e+000	-1.6087936324e-001
 3.8452106489e+000	 2.1387741970e+000	-1.8039310124e-001
 3.8232739707e+000	 2.1777456566e+000	-1.9707230087e-001
 3.8009114605e+000	 2.2165450750e+000	-2.1110282080e-001
 3.7781249405e+000	 2.2551656112e+000	-2.2267794044e-001
 3.7549163771e+000	 2.2936004448e+000	-2.3199783264e-001
 3.7312878808e+000	 2.3318427800e+000	-2.6823949949e-001
 3.7072417056e+000	 2.3698858487e+000	-3.1115943994e-001
 3.6827802494e+000	 2.4077229149e+000	-3.5275413701e-001
 3.9306567302e+000	 2.0323785743e+000	-1.1405335119e-001
 3.9098897132e+000	 2.0720490898e+000	-1.4246777497e-001
 3.8886898159e+000	 2.1115673126e+000	-1.6754834391e-001
 3.8670584367e+000	 2.1509263231e+000	-1.8946610670e-001
 3.8449971182e+000	 2.1901192115e+000	-2.0840068623e-001
 3.8225075483e+000	 2.2291390811e+000	-2.2453978409e-001
 3.7995915595e+000	 2.2679790521e+000	-2.3807866450e-001
 3.7762511293e+000	 2.3066322655e+000	-2.4921961905e-001
 3.7524883801e+000	 2.3450918867e+000	-2.5817141343e-001
 3.7283055790e+000	 2.3833511092e+000	-2.9888168823e-001
 3.7037051371e+000	 2.4214031587e+000	-3.4209874479e-001
 3.9528638304e+000	 2.0438609391e+000	-1.1598648751e-001
 3.9319794856e+000	 2.0837555818e+000	-1.4702565271e-001
 3.9106598149e+000	 2.1234970714e+000	-1.7457882653e-001
 3.8889062245e+000	 2.1630784492e+000	-1.9881873200e-001
 3.8667202658e+000	 2.2024927664e+000	-2.1992682455e-001
 3.8441036362e+000	 2.2417330872e+000	-2.3809278896e-001
 3.8210581785e+000	 2.2807924931e+000	-2.5351401547e-001
 3.7975858814e+000	 2.3196640863e+000	-2.6639505632e-001
 3.7736888794e+000	 2.3583409934e+000	-2.7694706395e-001
 3.7493694523e+000	 2.3968163697e+000	-2.8636799238e-001
 3.7246300249e+000	 2.4350834026e+000	-3.3120743448e-001
 3.9750709306e+000	 2.0553433039e+000	-1.1842464667e-001
 3.9540692580e+000	 2.0954620739e+000	-1.5200721140e-001
 3.9326298139e+000	 2.1354268302e+000	-1.8195138084e-001
 3.9107540122e+000	 2.1752305753e+000	-2.0843169062e-001
 3.8884434134e+000	 2.2148663212e+000	-2.3163156834e-001
 3.8656997240e+000	 2.2543270933e+000	-2.5174282278e-001
 3.8425247975e+000	 2.2936059341e+000	-2.6896511190e-001
 3.8189206336e+000	 2.3326959070e+000	-2.8350539097e-001
 3.7948893788e+000	 2.3715901001e+000	-2.9557734213e-001
 3.7704333256e+000	 2.4102816302e+000	-3.0540078683e-001
 3.7455549127e+000	 2.4487636464e+000	-3.2007399973e-001
 3.9972780307e+000	 2.0668256687e+000	-1.2134786116e-001
 3.9761590304e+000	 2.1071685659e+000	-1.5739261462e-001
 3.9545998128e+000	 2.1473565890e+000	-1.8964629597e-001
 3.9326018000e+000	 2.1873827014e+000	-2.1828539229e-001
 3.9101665609e+000	 2.2272398761e+000	-2.4349544348e-001
 3.8872958119e+000	 2.2669210994e+000	-2.6547052357e-001
 3.8639914164e+000	 2.3064193751e+000	-2.8441270047e-001
 3.8402553857e+000	 2.3457277277e+000	-3.0053147541e-001
 3.8160898781e+000	 2.3848392068e+000	-3.1404320363e-001
 3.7914971990e+000	 2.4237468907e+000	-3.2517049758e-001
 3.7664798005e+000	 2.4624438902e+000	-3.3414161428e-001
 3.5572309227e+000	 2.3256414519e+000	-4.1201844895e-001
 3.5332047099e+000	 2.3619831663e+000	-4.3283620636e-001
 3.5087824190e+000	 2.3981129948e+000	-4.4817453700e-001
 3.4839667785e+000	 2.4340245451e+000	-4.5743364955e-001
 3.4587606532e+000	 2.4697114697e+000	-4.6000770420e-001
 3.4331670430e+000	 2.5051674705e+000	-4.5937413413e-001
 3.4071890820e+000	 2.5403863013e+000	-4.7613768531e-001
 3.3808300376e+000	 2.5753617721e+000	-4.8714795117e-001
 3.3540933089e+000	 2.6100877523e+000	-4.9219467558e-001
 3.3269824258e+000	 2.6445581744e+000	-4.9106958763e-001
 3.2995010472e+000	 2.6787670372e+000	-4.8356664326e-001
 3.5781558105e+000	 2.3393216957e+000	-4.0267568321e-001
 3.5539882670e+000	 2.3758771849e+000	-4.2212194469e-001
 3.5294223156e+000	 2.4122195419e+000	-4.3626503964e-001
 3.5044607008e+000	 2.4483423365e+000	-4.4450689199e-001
 3.4791063041e+000	 2.4842391843e+000	-4.4624304356e-001
 3.4533621432e+000	 2.5199037497e+000	-4.5593101033e-001
 3.4272313707e+000	 2.5553297501e+000	-4.7167326028e-001
 3.4007172731e+000	 2.5905109590e+000	-4.8185031174e-001
 3.3738232696e+000	 2.6254412097e+000	-4.8626127858e-001
 3.3465529107e+000	 2.6601143990e+000	-4.8470705009e-001
 3.3189098769e+000	 2.6945244904e+000	-4.7699052206e-001
 3.5990806982e+000	 2.3530019396e+000	-3.9312381756e-001
 3.5747718241e+000	 2.3897712035e+000	-4.1146747763e-001
 3.5500622122e+000	 2.4263260889e+000	-4.2468455003e-001
 3.5249546230e+000	 2.4626601279e+000	-4.3217843677e-001
 3.4994519550e+000	 2.4987668988e+000	-4.3334582056e-001
 3.4735572435e+000	 2.5346400289e+000	-4.5262036054e-001
 3.4472736594e+000	 2.5702731989e+000	-4.6756189756e-001
 3.4206045086e+000	 2.6056601459e+000	-4.7712467924e-001
 3.3935532302e+000	 2.6407946671e+000	-4.8111707398e-001
 3.3661233956e+000	 2.6756706236e+000	-4.7934901562e-001
 3.3383187065e+000	 2.7102819435e+000	-4.7163222412e-001
 3.6200055860e+000	 2.3666821834e+000	-3.8335969559e-001
 3.5955553812e+000	 2.4036652222e+000	-4.0086648636e-001
 3.5707021087e+000	 2.4404326359e+000	-4.1342364466e-001
 3.5454485452e+000	 2.4769779194e+000	-4.2043581447e-001
 3.5197976059e+000	 2.5132946133e+000	-4.3005969599e-001
 3.4937523437e+000	 2.5493763082e+000	-4.4942782697e-001
 3.4673159481e+000	 2.5852166478e+000	-4.6378569338e-001
 3.4404917441e+000	 2.6208093328e+000	-4.7294965524e-001
 3.4132831908e+000	 2.6561481244e+000	-4.7673722176e-001
 3.3856938804e+000	 2.6912268481e+000	-4.7496725740e-001
 3.3577275362e+000	 2.7260393967e+000	-4.6746019228e-001
 3.6409304738e+000	 2.3803624272e+000	-3.7337961531e-001
 3.6163389384e+000	 2.4175592408e+000	-3.9031219081e-001
 3.5913420053e+000	 2.4545391829e+000	-4.0247252247e-001
 3.5659424674e+000	 2.4912957108e+000	-4.0926626103e-001
 3.5401432568e+000	 2.5278223278e+000	-4.2751496352e-001
 3.5139474440e+000	 2.5641125874e+000	-4.4633892055e-001
 3.4873582368e+000	 2.6001600966e+000	-4.6032669312e-001
 3.4603789796e+000	 2.6359585197e+000	-4.6930386996e-001
 3.4330131515e+000	 2.6715015818e+000	-4.7309698909e-001
 3.4052643653e+000	 2.7067830727e+000	-4.7153373338e-001
 3.3771363659e+000	 2.7417968498e+000	-4.6444313067e-001
 3.6618553616e+000	 2.3940426711e+000	-3.6317934475e-001
 3.6371224955e+000	 2.4314532594e+000	-3.7979736288e-001
 3.6119819019e+000	 2.4686457300e+000	-3.9182101561e-001
 3.5864363897e+000	 2.5056135023e+000	-4.0185868988e-001
 3.5604889077e+000	 2.5423500424e+000	-4.2484766989e-001
 3.5341425442e+000	 2.5788488667e+000	-4.4333902473e-001
 3.5074005255e+000	 2.6151035454e+000	-4.5716689274e-001
 3.4802662151e+000	 2.6511077066e+000	-4.6616598143e-001
 3.4527431121e+000	 2.6868550392e+000	-4.7017174728e-001
 3.4248348501e+000	 2.7223392972e+000	-4.6902058094e-001
 3.3965451956e+000	 2.7575543030e+000	-4.6254999720e-001
 3.6827802494e+000	 2.4077229149e+000	-3.5275413701e-001
 3.6579060526e+000	 2.4453472780e+000	-3.6931433919e-001
 3.6326217985e+000	 2.4827522770e+000	-3.8145859985e-001
 3.6069303119e+000	 2.5199312937e+000	-3.9934400395e-001
 3.5808345586e+000	 2.5568777569e+000	-4.2204643323e-001
 3.5543376445e+000	 2.5935851459e+000	-4.4041339902e-001
 3.5274428143e+000	 2.6300469942e+000	-4.5428824020e-001
 3.5001534506e+000	 2.6662568934e+000	-4.6351467470e-001
 3.4724730728e+000	 2.7022084965e+000	-4.6793696879e-001
 3.4444053350e+000	 2.7378955218e+000	-4.6740011184e-001
 3.4159540253e+000	 2.7733117562e+000	-4.6174999636e-001
 3.7037051371e+000	 2.4214031587e+000	-3.4209874479e-001
 3.6786896097e+000	 2.4592412967e+000	-3.5885503329e-001
 3.6532616951e+000	 2.4968588240e+000	-3.7137440472e-001
 3.6274242341e+000	 2.5342490851e+000	-3.9647768595e-001
 3.6011802095e+000	 2.5714054714e+000	-4.1909967669e-001
 3.5745327447e+000	 2.6083214251e+000	-4.3754718258e-001
 3.5474851030e+000	 2.6449904431e+000	-4.5167263683e-001
 3.5200406862e+000	 2.6814060803e+000	-4.6132866113e-001
 3.4922030334e+000	 2.7175619539e+000	-4.6636822439e-001
 3.4639758198e+000	 2.7534517463e+000	-4.6664480726e-001
 3.4353628550e+000	 2.7890692093e+000	-4.6201257228e-001
 3.7246300249e+000	 2.4350834026e+000	-3.3120743448e-001
 3.6994731668e+000	 2.4731353153e+000	-3.4841094765e-001
 3.6739015917e+000	 2.5109653711e+000	-3.6663060281e-001
 3.6479181564e+000	 2.5485668766e+000	-3.9325122497e-001
 3.6215258604e+000	 2.5859331860e+000	-4.1599563398e-001
 3.5947278450e+000	 2.6230577044e+000	-4.3472539752e-001
 3.5675273917e+000	 2.6599338919e+000	-4.4930193859e-001
 3.5399279217e+000	 2.6965552672e+000	-4.5958667756e-001
 3.5119329941e+000	 2.7329154113e+000	-4.6544118038e-001
 3.4835463047e+000	 2.7690079709e+000	-4.6672731307e-001
 3.4547716847e+000	 2.8048266625e+000	-4.6330740196e-001
 3.7455549127e+000	 2.4487636464e+000	-3.2007399973e-001
 3.7202567240e+000	 2.4870293339e+000	-3.3797318507e-001
 3.6945414883e+000	 2.5250719181e+000	-3.6286281711e-001
 3.6684120786e+000	 2.5628846680e+000	-3.8965585478e-001
 3.6418715113e+000	 2.6004609005e+000	-4.1272235463e-001
 3.6149229452e+000	 2.6377939836e+000	-4.3193295223e-001
 3.5875696804e+000	 2.6748773408e+000	-4.4715795743e-001
 3.5598151572e+000	 2.7117044541e+000	-4.5826748568e-001
 3.5316629547e+000	 2.7482688687e+000	-4.6513159598e-001
 3.5031167896e+000	 2.7845641955e+000	-4.6762043522e-001
 3.4741805144e+000	 2.8205841157e+000	-4.6560438879e-001
 3.7664798005e+000	 2.4624438902e+000	-3.3414161428e-001
 3.7410402811e+000	 2.5009233526e+000	-3.2789859390e-001
 3.7151813848e+000	 2.5391784651e+000	-3.5851959722e-001
 3.6889060008e+000	 2.5772024595e+000	-3.8568256093e-001
 3.6622171622e+000	 2.6149886150e+000	-4.0926770911e-001
 3.6351180455e+000	 2.6525302629e+000	-4.2915464451e-001
 3.6076119692e+000	 2.6898207896e+000	-4.4522246240e-001
 3.5797023927e+000	 2.7268536410e+000	-4.5734987129e-001
 3.5513929153e+000	 2.7636223260e+000	-4.6541532065e-001
 3.5226872744e+000	 2.8001204200e+000	-4.6929713527e-001
 3.4935893441e+000	 2.8363415688e+000	-4.6887365624e-001
 3.2995010472e+000	 2.6787670372e+000	-4.8356664326e-001
 3.2716529593e+000	 2.7127084092e+000	-5.0319395650e-001
 3.2434420746e+000	 2.7463764324e+000	-5.2471214194e-001
 3.2148724293e+000	 2.7797653252e+000	-5.4797240218e-001
 3.1859481822e+000	 2.8128693856e+000	-5.7282111483e-001
 3.1566736119e+000	 2.8456829949e+000	-5.9910001536e-001
 3.1270531156e+000	 2.8782006205e+000	-6.2664639144e-001
 3.0970912062e+000	 2.9104168190e+000	-6.2318339830e-001
 3.0667925103e+000	 2.9423262393e+000	-6.2242907358e-001
 3.0361617660e+000	 2.9739236255e+000	-6.2633429344e-001
 3.0052038200e+000	 3.0052038200e+000	-6.3430265693e-001
 3.3189098769e+000	 2.6945244904e+000	-4.7699052206e-001
 3.2908979767e+000	 2.7286655175e+000	-4.9710615887e-001
 3.2625211456e+000	 2.7625315879e+000	-5.1872014668e-001
 3.2337834436e+000	 2.7961168859e+000	-5.4167330093e-001
 3.2046890538e+000	 2.8294156761e+000	-5.6580188833e-001
 3.1752422802e+000	 2.8624223067e+000	-5.9093782182e-001
 3.1454475457e+000	 2.8951312124e+000	-6.1690886678e-001
 3.1153093898e+000	 2.9275369179e+000	-6.3260834312e-001
 3.0848324663e+000	 2.9596340407e+000	-6.2846858577e-001
 3.0540215411e+000	 2.9914172939e+000	-6.2865707692e-001
 3.0228814896e+000	 3.0228814896e+000	-6.3255901818e-001
 3.3383187065e+000	 2.7102819435e+000	-4.7163222412e-001
 3.3101429941e+000	 2.7446226258e+000	-4.9211428702e-001
 3.2816002166e+000	 2.7786867434e+000	-5.1370700187e-001
 3.2526944579e+000	 2.8124684466e+000	-5.3624084825e-001
 3.2234299255e+000	 2.8459619666e+000	-5.5954202926e-001
 3.1938109485e+000	 2.8791616184e+000	-5.8343267868e-001
 3.1638419758e+000	 2.9120618043e+000	-6.0773107898e-001
 3.1335275733e+000	 2.9446570169e+000	-6.3225188993e-001
 3.1028724222e+000	 2.9769418421e+000	-6.3409427023e-001
 3.0718813162e+000	 3.0089109623e+000	-6.3052442587e-001
 3.0405591591e+000	 3.0405591591e+000	-6.3032632402e-001
 3.3577275362e+000	 2.7260393967e+000	-4.6746019228e-001
 3.3293880115e+000	 2.7605797341e+000	-4.8818928807e-001
 3.3006792877e+000	 2.7948418989e+000	-5.0964609646e-001
 3.2716054722e+000	 2.8288200074e+000	-5.3165081109e-001
 3.2421707971e+000	 2.8625082571e+000	-5.5401961754e-001
 3.2123796169e+000	 2.8959009301e+000	-5.7656491251e-001
 3.1822364059e+000	 2.9289923962e+000	-5.9909553366e-001
 3.1517457569e+000	 2.9617771158e+000	-6.2141699976e-001
 3.1209123782e+000	 2.9942496435e+000	-6.3923711045e-001
 3.0897410913e+000	 3.0264046307e+000	-6.3187012908e-001
 3.0582368286e+000	 3.0582368286e+000	-6.2754112669e-001
 3.3771363659e+000	 2.7417968498e+000	-4.6444313067e-001
 3.3486330290e+000	 2.7765368424e+000	-4.8530231306e-001
 3.3197583587e+000	 2.8109970544e+000	-5.0651096766e-001
 3.2905164865e+000	 2.8451715681e+000	-5.2787905080e-001
 3.2609116688e+000	 2.8790545476e+000	-5.4921277532e-001
 3.2309482852e+000	 2.9126402419e+000	-5.7031484171e-001
 3.2006308360e+000	 2.9459229881e+000	-5.9098467973e-001
 3.1699639405e+000	 2.9788972147e+000	-6.1101870009e-001
 3.1389523341e+000	 3.0115574449e+000	-6.3021055564e-001
 3.1076008664e+000	 3.0438982991e+000	-6.3262778408e-001
 3.0759144982e+000	 3.0759144982e+000	-6.2413974607e-001
 3.3965451956e+000	 2.7575543030e+000	-4.6254999720e-001
 3.3678780464e+000	 2.7924939507e+000	-4.8342471113e-001
 3.3388374297e+000	 2.8271522099e+000	-5.0427529671e-001
 3.3094275008e+000	 2.8615231289e+000	-5.2490152038e-001
 3.2796525405e+000	 2.8956008381e+000	-5.4509966575e-001
 3.2495169535e+000	 2.9293795536e+000	-5.6466277675e-001
 3.2190252661e+000	 2.9628535800e+000	-5.8338091100e-001
 3.1881821241e+000	 2.9960173137e+000	-6.0104140293e-001
 3.1569922901e+000	 3.0288652463e+000	-6.1742913626e-001
 3.1254606415e+000	 3.0613919675e+000	-6.3232682518e-001
 3.0935921677e+000	 3.0935921677e+000	-6.2005827629e-001
 3.4159540253e+000	 2.7733117562e+000	-4.6174999636e-001
 3.3871230638e+000	 2.8084510590e+000	-4.8252802386e-001
 3.3579165007e+000	 2.8433073654e+000	-5.0291290482e-001
 3.3283385151e+000	 2.8778746896e+000	-5.2269426190e-001
 3.2983934121e+000	 2.9121471286e+000	-5.4165849182e-001
 3.2680856218e+000	 2.9461188654e+000	-5.5958902042e-001
 3.2374196962e+000	 2.9797841718e+000	-5.7626656775e-001
 3.2064003076e+000	 3.0131374126e+000	-5.9146942268e-001
 3.1750322460e+000	 3.0461730477e+000	-6.0497372651e-001
 3.1433204166e+000	 3.0788856359e+000	-6.1655376510e-001
 3.1112698372e+000	 3.1112698372e+000	-6.1523259217e-001
 3.4353628550e+000	 2.7890692093e+000	-4.6201257228e-001
 3.4063680812e+000	 2.8244081673e+000	-4.8258397989e-001
 3.3769955718e+000	 2.8594625209e+000	-5.0239774918e-001
 3.3472495294e+000	 2.8942262503e+000	-5.2123340398e-001
 3.3171342838e+000	 2.9286934191e+000	-5.3886749523e-001
 3.2866542901e+000	 2.9628581771e+000	-5.5507386800e-001
 3.2558141263e+000	 2.9967147637e+000	-5.6962393825e-001
 3.2246184912e+000	 3.0302575116e+000	-5.8228697884e-001
 3.1930722020e+000	 3.0634808491e+000	-5.9283041437e-001
 3.1611801917e+000	 3.0963793042e+000	-6.0102012417e-001
 3.1289475068e+000	 3.1289475068e+000	-6.0846397766e-001
 3.4547716847e+000	 2.8048266625e+000	-4.6330740196e-001
 3.4256130986e+000	 2.8403652756e+000	-4.8356448960e-001
 3.3960746428e+000	 2.8756176763e+000	-5.0270391918e-001
 3.3661605437e+000	 2.9105778111e+000	-5.2049515937e-001
 3.3358751555e+000	 2.9452397096e+000	-5.3670495533e-001
 3.3052229584e+000	 2.9795974888e+000	-5.5109760753e-001
 3.2742085564e+000	 3.0136453556e+000	-5.6343526019e-001
 3.2428366748e+000	 3.0473776105e+000	-5.7347819872e-001
 3.2111121579e+000	 3.0807886506e+000	-5.8098515564e-001
 3.1790399668e+000	 3.1138729726e+000	-5.8571362451e-001
 3.1466251763e+000	 3.1466251763e+000	-5.9684170150e-001
 3.4741805144e+000	 2.8205841157e+000	-4.6560438879e-001
 3.4448581160e+000	 2.8563223839e+000	-4.8544164010e-001
 3.4151537138e+000	 2.8917728318e+000	-5.0380563266e-001
 3.3850715580e+000	 2.9269293718e+000	-5.2045582256e-001
 3.3546160271e+000	 2.9617860002e+000	-5.3514918801e-001
 3.3237916267e+000	 2.9963368006e+000	-5.4764051995e-001
 3.2926029865e+000	 3.0305759475e+000	-5.5768272214e-001
 3.2610548583e+000	 3.0644977094e+000	-5.6502711999e-001
 3.2291521139e+000	 3.0980964520e+000	-5.6942377759e-001
 3.1968997419e+000	 3.1313666410e+000	-5.7274241970e-001
 3.1643028458e+000	 3.1643028458e+000	-5.8429217698e-001
 3.4935893441e+000	 2.8363415688e+000	-4.6887365624e-001
 3.4641031334e+000	 2.8722794922e+000	-4.8818769026e-001
 3.4342327849e+000	 2.9079279873e+000	-5.0567723239e-001
 3.4039825722e+000	 2.9432809326e+000	-5.2109176757e-001
 3.3733568988e+000	 2.9783322907e+000	-5.3417854475e-001
 3.3423602950e+000	 3.0130761123e+000	-5.4468287935e-001
 3.3109974166e+000	 3.0475065394e+000	-5.5234846488e-001
 3.2792730419e+000	 3.0816178084e+000	-5.5691769317e-001
 3.2471920698e+000	 3.1154042534e+000	-5.5813198255e-001
 3.2147595170e+000	 3.1488603094e+000	-5.6300758700e-001
 3.1819805154e+000	 3.1819805154e+000	-5.7084194286e-001
 3.0052038200e+000	 3.0052038200e+000	-6.3430265693e-001
 2.9739236255e+000	 3.0361617660e+000	-6.3500578065e-001
 2.9423262393e+000	 3.0667925103e+000	-6.2935738207e-001
 2.9104168190e+000	 3.0970912062e+000	-6.1671814148e-001
 2.8782006205e+000	 3.1270531156e+000	-5.9883818961e-001
 2.8456829949e+000	 3.1566736119e+000	-6.0873333255e-001
 2.8128693856e+000	 3.1859481822e+000	-6.1703760625e-001
 2.7797653252e+000	 3.2148724293e+000	-6.2357997328e-001
 2.7463764324e+000	 3.2434420746e+000	-6.2819294004e-001
 2.7127084092e+000	 3.2716529593e+000	-6.3071273927e-001
 2.6787670372e+000	 3.2995010472e+000	-6.3097950293e-001
 3.0228814896e+000	 3.0228814896e+000	-6.3255901818e-001
 2.9914172939e+000	 3.0540215411e+000	-6.2890183684e-001
 2.9596340407e+000	 3.0848324663e+000	-6.1928540837e-001
 2.9275369179e+000	 3.1153093898e+000	-6.0305976892e-001
 2.8951312124e+000	 3.1454475457e+000	-6.0230438231e-001
 2.8624223067e+000	 3.1752422802e+000	-6.1018259715e-001
 2.8294156761e+000	 3.2046890538e+000	-6.1686962361e-001
 2.7961168859e+000	 3.2337834436e+000	-6.2219396122e-001
 2.7625315879e+000	 3.2625211456e+000	-6.2598734874e-001
 2.7286655175e+000	 3.2908979767e+000	-6.2808494846e-001
 2.6945244904e+000	 3.3189098769e+000	-6.2832552122e-001
 3.0405591591e+000	 3.0405591591e+000	-6.3032632402e-001
 3.0089109623e+000	 3.0718813162e+000	-6.2243206416e-001
 2.9769418421e+000	 3.1028724222e+000	-6.0896948926e-001
 2.9446570169e+000	 3.1335275733e+000	-5.9735643460e-001
 2.9120618043e+000	 3.1638419758e+000	-6.0389740066e-001
 2.8791616184e+000	 3.1938109485e+000	-6.0981700512e-001
 2.8459619666e+000	 3.2234299255e+000	-6.1494051251e-001
 2.8124684466e+000	 3.2526944579e+000	-6.1909593104e-001
 2.7786867434e+000	 3.2816002166e+000	-6.2211420737e-001
 2.7446226258e+000	 3.3101429941e+000	-6.2382941283e-001
 2.7102819435e+000	 3.3383187065e+000	-6.2407892044e-001
 3.0582368286e+000	 3.0582368286e+000	-6.2754112669e-001
 3.0264046307e+000	 3.0897410913e+000	-6.1553315016e-001
 2.9942496435e+000	 3.1209123782e+000	-5.9834655773e-001
 2.9617771158e+000	 3.1517457569e+000	-5.9939493027e-001
 2.9289923962e+000	 3.1822364059e+000	-6.0364424726e-001
 2.8959009301e+000	 3.2123796169e+000	-6.0766298787e-001
 2.8625082571e+000	 3.2421707971e+000	-6.1127619558e-001
 2.8288200074e+000	 3.2716054722e+000	-6.1431135909e-001
 2.7948418989e+000	 3.3006792877e+000	-6.1659860872e-001
 2.7605797341e+000	 3.3293880115e+000	-6.1797090432e-001
 2.7260393967e+000	 3.3577275362e+000	-6.1826421450e-001
 3.0759144982e+000	 3.0759144982e+000	-6.2413974607e-001
 3.0438982991e+000	 3.1076008664e+000	-6.0814157029e-001
 3.0115574449e+000	 3.1389523341e+000	-5.9786610873e-001
 2.9788972147e+000	 3.1699639405e+000	-5.9955247184e-001
 2.9459229881e+000	 3.2006308360e+000	-6.0157176333e-001
 2.9126402419e+000	 3.2309482852e+000	-6.0374682898e-001
 2.8790545476e+000	 3.2609116688e+000	-6.0590245945e-001
 2.8451715681e+000	 3.2905164865e+000	-6.0786559597e-001
 2.8109970544e+000	 3.3197583587e+000	-6.0946552828e-001
 2.7765368424e+000	 3.3486330290e+000	-6.1053408439e-001
 2.7417968498e+000	 3.3771363659e+000	-6.1090581192e-001
 3.0935921677e+000	 3.0935921677e+000	-6.2005827629e-001
 3.0613919675e+000	 3.1254606415e+000	-6.0047904578e-001
 3.0288652463e+000	 3.1569922901e+000	-5.9872095624e-001
 2.9960173137e+000	 3.1881821241e+000	-5.9785634707e-001
 2.9628535800e+000	 3.2190252661e+000	-5.9770663329e-001
 2.9293795536e+000	 3.2495169535e+000	-5.9809466843e-001
 2.8956008381e+000	 3.2796525405e+000	-5.9884495872e-001
 2.8615231289e+000	 3.3094275008e+000	-5.9978387010e-001
 2.8271522099e+000	 3.3388374297e+000	-6.0073982762e-001
 2.7924939507e+000	 3.3678780464e+000	-6.0154350715e-001
 2.7575543030e+000	 3.3965451956e+000	-6.0202801881e-001
 3.1112698372e+000	 3.1112698372e+000	-6.1523259217e-001
 3.0788856359e+000	 3.1433204166e+000	-6.0230631248e-001
 3.0461730477e+000	 3.1750322460e+000	-5.9768454385e-001
 3.0131374126e+000	 3.2064003076e+000	-5.9433367706e-001
 2.9797841718e+000	 3.2374196962e+000	-5.9207538925e-001
 2.9461188654e+000	 3.2680856218e+000	-5.9073250665e-001
 2.9121471286e+000	 3.2983934121e+000	-5.9012921965e-001
 2.8778746896e+000	 3.3283385151e+000	-5.9009129116e-001
 2.8433073654e+000	 3.3579165007e+000	-5.9044625760e-001
 2.8084510590e+000	 3.3871230638e+000	-5.9102362245e-001
 2.7733117562e+000	 3.4159540253e+000	-5.9165504184e-001
 3.1289475068e+000	 3.1289475068e+000	-6.0846397766e-001
 3.0963793042e+000	 3.1611801917e+000	-6.0220163551e-001
 3.0634808491e+000	 3.1930722020e+000	-5.9478446120e-001
 3.0302575116e+000	 3.2246184912e+000	-5.8901142085e-001
 2.9967147637e+000	 3.2558141263e+000	-5.8470441529e-001
 2.9628581771e+000	 3.2866542901e+000	-5.8168620849e-001
 2.9286934191e+000	 3.3171342838e+000	-5.7978064379e-001
 2.8942262503e+000	 3.3472495294e+000	-5.7881285350e-001
 2.8594625209e+000	 3.3769955718e+000	-5.7860946152e-001
 2.8244081673e+000	 3.4063680812e+000	-5.7899877877e-001
 2.7890692093e+000	 3.4353628550e+000	-5.7981099097e-001
 3.1466251763e+000	 3.1466251763e+000	-5.9684170150e-001
 3.1138729726e+000	 3.1790399668e+000	-6.0019310133e-001
 3.0807886506e+000	 3.2111121579e+000	-5.9004812538e-001
 3.0473776105e+000	 3.2428366748e+000	-5.8191638008e-001
 3.0136453556e+000	 3.2742085564e+000	-5.7561995161e-001
 2.9795974888e+000	 3.3052229584e+000	-5.7098150702e-001
 2.9452397096e+000	 3.3358751555e+000	-5.6782451150e-001
 2.9105778111e+000	 3.3661605437e+000	-5.6597343932e-001
 2.8756176763e+000	 3.3960746428e+000	-5.6525397810e-001
 2.8403652756e+000	 3.4256130986e+000	-5.6549322611e-001
 2.8048266625e+000	 3.4547716847e+000	-5.6651988225e-001
 3.1643028458e+000	 3.1643028458e+000	-5.8429217698e-001
 3.1313666410e+000	 3.1968997419e+000	-5.9224470122e-001
 3.0980964520e+000	 3.2291521139e+000	-5.8350278579e-001
 3.0644977094e+000	 3.2610548583e+000	-5.7307520330e-001
 3.0305759475e+000	 3.2926029865e+000	-5.6484809856e-001
 2.9963368006e+000	 3.3237916267e+000	-5.5864400721e-001
 2.9617860002e+000	 3.3546160271e+000	-5.5428598533e-001
 2.9269293718e+000	 3.3850715580e+000	-5.5159782186e-001
 2.8917728318e+000	 3.4151537138e+000	-5.5040424446e-001
 2.8563223839e+000	 3.4448581160e+000	-5.5053111873e-001
 2.8205841157e+000	 3.4741805144e+000	-5.5180564038e-001
 3.1819805154e+000	 3.1819805154e+000	-5.7084194286e-001
 3.1488603094e+000	 3.2147595170e+000	-5.7600766547e-001
 3.1154042534e+000	 3.2471920698e+000	-5.7517552874e-001
 3.0816178084e+000	 3.2792730419e+000	-5.6251439026e-001
 3.0475065394e+000	 3.3109974166e+000	-5.5241482055e-001
 3.0130761123e+000	 3.3423602950e+000	-5.4469918948e-001
 2.9783322907e+000	 3.3733568988e+000	-5.3919011330e-001
 2.9432809326e+000	 3.4039825722e+000	-5.3571066840e-001
 2.9079279873e+000	 3.4342327849e+000	-5.3408459889e-001
 2.8722794922e+000	 3.4641031334e+000	-5.3413651778e-001
 2.8363415688e+000	 3.4935893441e+000	-5.3569210129e-001
 2.6787670372e+000	 3.2995010472e+000	-6.3097950293e-001
 2.6445581744e+000	 3.3269824258e+000	-6.2507009717e-001
 2.6100877523e+000	 3.3540933089e+000	-6.2207867869e-001
 2.5753617721e+000	 3.3808300376e+000	-6.2180852994e-001
 2.5403863013e+000	 3.4071890820e+000	-6.2406252176e-001
 2.5051674705e+000	 3.4331670430e+000	-6.2864331367e-001
 2.4697114697e+000	 3.4587606532e+000	-5.9949019182e-001
 2.4340245451e+000	 3.4839667785e+000	-5.6848583016e-001
 2.3981129948e+000	 3.5087824190e+000	-5.4149329481e-001
 2.3619831663e+000	 3.5332047099e+000	-5.1802819674e-001
 2.3256414519e+000	 3.5572309227e+000	-4.9759764851e-001
 2.6945244904e+000	 3.3189098769e+000	-6.2832552122e-001
 2.6601143990e+000	 3.3465529107e+000	-6.2197712031e-001
 2.6254412097e+000	 3.3738232696e+000	-6.1853475982e-001
 2.5905109590e+000	 3.4007172731e+000	-6.1780325402e-001
 2.5553297501e+000	 3.4272313707e+000	-6.1958706913e-001
 2.5199037497e+000	 3.4533621432e+000	-6.2369052137e-001
 2.4842391843e+000	 3.4791063041e+000	-6.1119947438e-001
 2.4483423365e+000	 3.5044607008e+000	-5.7881921807e-001
 2.4122195419e+000	 3.5294223156e+000	-5.5057244726e-001
 2.3758771849e+000	 3.5539882670e+000	-5.2596589434e-001
 2.3393216957e+000	 3.5781558105e+000	-5.0449752262e-001
 2.7102819435e+000	 3.3383187065e+000	-6.2407892044e-001
 2.6756706236e+000	 3.3661233956e+000	-6.1737324480e-001
 2.6407946671e+000	 3.3935532302e+000	-6.1356164804e-001
 2.6056601459e+000	 3.4206045086e+000	-6.1245043586e-001
 2.5702731989e+000	 3.4472736594e+000	-6.1384563043e-001
 2.5346400289e+000	 3.4735572435e+000	-6.1755316625e-001
 2.4987668988e+000	 3.4994519550e+000	-6.2191414785e-001
 2.4626601279e+000	 3.5249546230e+000	-5.8832521745e-001
 2.4263260889e+000	 3.5500622122e+000	-5.5899610825e-001
 2.3897712035e+000	 3.5747718241e+000	-5.3342442441e-001
 2.3530019396e+000	 3.5990806982e+000	-5.1109872521e-001
 2.7260393967e+000	 3.3577275362e+000	-6.1826421450e-001
 2.6912268481e+000	 3.3856938804e+000	-6.1128189994e-001
 2.6561481244e+000	 3.4132831908e+000	-6.0718166957e-001
 2.6208093328e+000	 3.4404917441e+000	-6.0577128065e-001
 2.5852166478e+000	 3.4673159481e+000	-6.0685827243e-001
 2.5493763082e+000	 3.4937523437e+000	-6.1025015989e-001
 2.5132946133e+000	 3.5197976059e+000	-6.1575462219e-001
 2.4769779194e+000	 3.5454485452e+000	-5.9688010639e-001
 2.4404326359e+000	 3.5707021087e+000	-5.6664105421e-001
 2.4036652222e+000	 3.5955553812e+000	-5.4028110880e-001
 2.3666821834e+000	 3.6200055860e+000	-5.1727916936e-001
 2.7417968498e+000	 3.3771363659e+000	-6.1090581192e-001
 2.7067830727e+000	 3.4052643653e+000	-6.0372643346e-001
 2.6715015818e+000	 3.4330131515e+000	-5.9941709308e-001
 2.6359585197e+000	 3.4603789796e+000	-5.9778696020e-001
 2.6001600966e+000	 3.4873582368e+000	-5.9864505288e-001
 2.5641125874e+000	 3.5139474440e+000	-6.0180042933e-001
 2.5278223278e+000	 3.5401432568e+000	-6.0706237411e-001
 2.4912957108e+000	 3.5659424674e+000	-6.0436022775e-001
 2.4545391829e+000	 3.5913420053e+000	-5.7338415112e-001
 2.4175592408e+000	 3.6163389384e+000	-5.4641338383e-001
 2.3803624272e+000	 3.6409304738e+000	-5.2291690755e-001
 2.7575543030e+000	 3.3965451956e+000	-6.0202801881e-001
 2.7223392972e+000	 3.4248348501e+000	-5.9473011391e-001
 2.6868550392e+000	 3.4527431121e+000	-5.9029013135e-001
 2.6511077066e+000	 3.4802662151e+000	-5.8851861393e-001
 2.6151035454e+000	 3.5074005255e+000	-5.8922602077e-001
 2.5788488667e+000	 3.5341425442e+000	-5.9222291663e-001
 2.5423500424e+000	 3.5604889077e+000	-5.9732015587e-001
 2.5056135023e+000	 3.5864363897e+000	-6.0432906065e-001
 2.4686457300e+000	 3.6119819019e+000	-5.7910235196e-001
 2.4314532594e+000	 3.6371224955e+000	-5.5169879699e-001
 2.3940426711e+000	 3.6618553616e+000	-5.2789012770e-001
 2.7733117562e+000	 3.4159540253e+000	-5.9165504184e-001
 2.7378955218e+000	 3.4444053350e+000	-5.8431613285e-001
 2.7022084965e+000	 3.4724730728e+000	-5.7982294286e-001
 2.6662568934e+000	 3.5001534506e+000	-5.7798734980e-001
 2.6300469942e+000	 3.5274428143e+000	-5.7862121658e-001
 2.5935851459e+000	 3.5543376445e+000	-5.8153657841e-001
 2.5568777569e+000	 3.5808345586e+000	-5.8654582443e-001
 2.5199312937e+000	 3.6069303119e+000	-5.9346187354e-001
 2.4827522770e+000	 3.6326217985e+000	-5.8367269424e-001
 2.4453472780e+000	 3.6579060526e+000	-5.5601500378e-001
 2.4077229149e+000	 3.6827802494e+000	-5.3207714933e-001
 2.7890692093e+000	 3.4353628550e+000	-5.7981099097e-001
 2.7534517463e+000	 3.4639758198e+000	-5.7250760703e-001
 2.7175619539e+000	 3.4922030334e+000	-5.6803763333e-001
 2.6814060803e+000	 3.5200406862e+000	-5.6621424515e-001
 2.6449904431e+000	 3.5474851030e+000	-5.6685067251e-001
 2.6083214251e+000	 3.5745327447e+000	-5.6976038546e-001
 2.5714054714e+000	 3.6011802095e+000	-5.7475727348e-001
 2.5342490851e+000	 3.6274242341e+000	-5.8165581887e-001
 2.4968588240e+000	 3.6532616951e+000	-5.8697229759e-001
 2.4592412967e+000	 3.6786896097e+000	-5.5923976470e-001
 2.4214031587e+000	 3.7037051371e+000	-5.3535641982e-001
 2.8048266625e+000	 3.4547716847e+000	-5.6651988225e-001
 2.7690079709e+000	 3.4835463047e+000	-5.5932758053e-001
 2.7329154113e+000	 3.5119329941e+000	-5.5495625721e-001
 2.6965552672e+000	 3.5399279217e+000	-5.5322034761e-001
 2.6599338919e+000	 3.5675273917e+000	-5.5393441272e-001
 2.6230577044e+000	 3.5947278450e+000	-5.5691332235e-001
 2.5859331860e+000	 3.6215258604e+000	-5.6197243239e-001
 2.5485668766e+000	 3.6479181564e+000	-5.6892775578e-001
 2.5109653711e+000	 3.6739015917e+000	-5.7759612723e-001
 2.4731353153e+000	 3.6994731668e+000	-5.6125094223e-001
 2.4350834026e+000	 3.7246300249e+000	-5.3760651083e-001
 2.8205841157e+000	 3.4741805144e+000	-5.5180564038e-001
 2.7845641955e+000	 3.5031167896e+000	-5.4479902675e-001
 2.7482688687e+000	 3.5316629547e+000	-5.4060081907e-001
 2.7117044541e+000	 3.5598151572e+000	-5.3902667593e-001
 2.6748773408e+000	 3.5875696804e+000	-5.3989245356e-001
 2.6377939836e+000	 3.6149229452e+000	-5.4301438704e-001
 2.6004609005e+000	 3.6418715113e+000	-5.4820926523e-001
 2.5628846680e+000	 3.6684120786e+000	-5.5529459952e-001
 2.5250719181e+000	 3.6945414883e+000	-5.6408878595e-001
 2.4870293339e+000	 3.7202567240e+000	-5.6192649805e-001
 2.4487636464e+000	 3.7455549127e+000	-5.3870611486e-001
 2.8363415688e+000	 3.4935893441e+000	-5.3569210129e-001
 2.8001204200e+000	 3.5226872744e+000	-5.2894485041e-001
 2.7636223260e+000	 3.5513929153e+000	-5.2499327503e-001
 2.7268536410e+000	 3.5797023927e+000	-5.2365422072e-001
 2.6898207896e+000	 3.6076119692e+000	-5.2474480378e-001
 2.6525302629e+000	 3.6351180455e+000	-5.2808259047e-001
 2.6149886150e+000	 3.6622171622e+000	-5.3348576979e-001
 2.5772024595e+000	 3.6889060008e+000	-5.4077331989e-001
 2.5391784651e+000	 3.7151813848e+000	-5.4976516762e-001
 2.5009233526e+000	 3.7410402811e+000	-5.6028234147e-001
 2.4624438902e+000	 3.7664798005e+000	-5.1137469921e-001
 2.3256414519e+000	 3.5572309227e+000	-4.9759764851e-001
 2.2890942857e+000	 3.5808584657e+000	-4.8873698754e-001
 2.2523481398e+000	 3.6040848849e+000	-4.8202163085e-001
 2.2154095206e+000	 3.6269078643e+000	-4.7699775783e-001
 2.1782849654e+000	 3.6493252266e+000	-4.7320733374e-001
 2.1409810384e+000	 3.6713349334e+000	-4.7018931000e-001
 2.1035043275e+000	 3.6929350853e+000	-4.6748082548e-001
 2.0658614403e+000	 3.7141239222e+000	-4.6461840553e-001
 2.0280590008e+000	 3.7348998232e+000	-4.6113915555e-001
 1.9901036456e+000	 3.7552613065e+000	-4.5260146892e-001
 1.9520020205e+000	 3.7752070290e+000	-4.3487870608e-001
 2.3393216957e+000	 3.5781558105e+000	-5.0449752262e-001
 2.3025595462e+000	 3.6019223390e+000	-4.9582897515e-001
 2.2655972465e+000	 3.6252853842e+000	-4.8937027330e-001
 2.2284413413e+000	 3.6482426164e+000	-4.8466141133e-001
 2.1910984063e+000	 3.6707918456e+000	-4.8123798326e-001
 2.1535750445e+000	 3.6929310213e+000	-4.7863240374e-001
 2.1158778823e+000	 3.7146582329e+000	-4.7637513009e-001
 2.0780135664e+000	 3.7359717100e+000	-4.7399588226e-001
 2.0399887596e+000	 3.7568698222e+000	-4.6458185542e-001
 2.0018101376e+000	 3.7773510788e+000	-4.4471688455e-001
 1.9634843853e+000	 3.7974141292e+000	-4.2914343183e-001
 2.3530019396e+000	 3.5990806982e+000	-5.1109872521e-001
 2.3160248067e+000	 3.6229862123e+000	-5.0286937997e-001
 2.2788463532e+000	 3.6464858835e+000	-4.9691823549e-001
 2.2414731620e+000	 3.6695773686e+000	-4.9277880310e-001
 2.2039118473e+000	 3.6922584646e+000	-4.8998000448e-001
 2.1661690506e+000	 3.7145271091e+000	-4.8804741351e-001
 2.1282514372e+000	 3.7363813804e+000	-4.8650449963e-001
 2.0901656925e+000	 3.7578194978e+000	-4.7627908764e-001
 2.0519185184e+000	 3.7788398211e+000	-4.5413572299e-001
 2.0135166297e+000	 3.7994408512e+000	-4.3641098788e-001
 1.9749667502e+000	 3.8196212294e+000	-4.2310700306e-001
 2.3666821834e+000	 3.6200055860e+000	-5.1727916936e-001
 2.3294900672e+000	 3.6440500857e+000	-5.0973566372e-001
 2.2920954599e+000	 3.6676863828e+000	-5.0454256794e-001
 2.2545049827e+000	 3.6909121207e+000	-5.0122661172e-001
 2.2167252883e+000	 3.7137250836e+000	-4.9930974228e-001
 2.1787630567e+000	 3.7361231969e+000	-4.9831038780e-001
 2.1406249920e+000	 3.7581045280e+000	-4.8769366133e-001
 2.1023178186e+000	 3.7796672856e+000	-4.6316817102e-001
 2.0638482773e+000	 3.8008098201e+000	-4.4316200659e-001
 2.0252231217e+000	 3.8215306236e+000	-4.2769422895e-001
 1.9864491150e+000	 3.8418283295e+000	-4.1677677949e-001
 2.3803624272e+000	 3.6409304738e+000	-5.2291690755e-001
 2.3429553277e+000	 3.6651139590e+000	-5.1630547759e-001
 2.3053445666e+000	 3.6888868821e+000	-5.1212056081e-001
 2.2675368034e+000	 3.7122468729e+000	-5.0988180560e-001
 2.2295387292e+000	 3.7351917025e+000	-5.0910388169e-001
 2.1913570628e+000	 3.7577192848e+000	-4.9879358991e-001
 2.1529985469e+000	 3.7798276756e+000	-4.7181532353e-001
 2.1144699447e+000	 3.8015150733e+000	-4.4943037055e-001
 2.0757780361e+000	 3.8227798190e+000	-4.3167478517e-001
 2.0369296137e+000	 3.8436203960e+000	-4.1857764972e-001
 1.9979314798e+000	 3.8640354297e+000	-4.1016076299e-001
 2.3940426711e+000	 3.6618553616e+000	-5.2789012770e-001
 2.3564205882e+000	 3.6861778323e+000	-5.2245665679e-001
 2.3185936733e+000	 3.7100873815e+000	-5.1952973696e-001
 2.2805686241e+000	 3.7335816250e+000	-5.1862163469e-001
 2.2423521702e+000	 3.7566583215e+000	-5.0951330103e-001
 2.2039510689e+000	 3.7793153726e+000	-4.8004524535e-001
 2.1653721018e+000	 3.8015508231e+000	-4.5521755604e-001
 2.1266220709e+000	 3.8233628611e+000	-4.3508327443e-001
 2.0877077949e+000	 3.8447498180e+000	-4.1968866384e-001
 2.0486361058e+000	 3.8657101684e+000	-4.0907286713e-001
 2.0094138446e+000	 3.8862425299e+000	-4.0326757924e-001
 2.4077229149e+000	 3.6827802494e+000	-5.3207714933e-001
 2.3698858487e+000	 3.7072417056e+000	-5.2806721533e-001
 2.3318427800e+000	 3.7312878808e+000	-5.2664784541e-001
 2.2936004448e+000	 3.7549163771e+000	-5.1975261130e-001
 2.2551656112e+000	 3.7781249405e+000	-4.8779187061e-001
 2.2165450750e+000	 3.8009114605e+000	-4.6049145935e-001
 2.1777456566e+000	 3.8232739707e+000	-4.3792133921e-001
 2.1387741970e+000	 3.8452106489e+000	-4.2014493449e-001
 2.0996375537e+000	 3.8667198170e+000	-4.0721875890e-001
 2.0603425978e+000	 3.8877999408e+000	-3.9919205681e-001
 2.0208962095e+000	 3.9084496300e+000	-3.9610645999e-001
 2.4214031587e+000	 3.7037051371e+000	-5.3535641982e-001
 2.3833511092e+000	 3.7283055790e+000	-5.3301534099e-001
 2.3450918867e+000	 3.7524883801e+000	-5.2937578342e-001
 2.3066322655e+000	 3.7762511293e+000	-4.9495398161e-001
 2.2679790521e+000	 3.7995915595e+000	-4.6518529924e-001
 2.2291390811e+000	 3.8225075483e+000	-4.4015648999e-001
 2.1901192115e+000	 3.8449971182e+000	-4.1994805778e-001
 2.1509263231e+000	 3.8670584367e+000	-4.0463385315e-001
 2.1115673126e+000	 3.8886898159e+000	-3.9428068337e-001
 2.0720490898e+000	 3.9098897132e+000	-3.8894793725e-001
 2.0323785743e+000	 3.9306567302e+000	-3.8868722594e-001
 2.4350834026e+000	 3.7246300249e+000	-5.3760651083e-001
 2.3968163697e+000	 3.7493694523e+000	-5.3717939041e-001
 2.3583409934e+000	 3.7736888794e+000	-5.0139427107e-001
 2.3196640863e+000	 3.7975858814e+000	-4.6919659982e-001
 2.2807924931e+000	 3.8210581785e+000	-4.4172101066e-001
 2.2417330872e+000	 3.8441036362e+000	-4.1906494344e-001
 2.2024927664e+000	 3.8667202658e+000	-4.0131948947e-001
 2.1630784492e+000	 3.8889062245e+000	-3.8856897073e-001
 2.1234970714e+000	 3.9106598149e+000	-3.8089053307e-001
 2.0837555818e+000	 3.9319794856e+000	-3.7835375459e-001
 2.0438609391e+000	 3.9528638304e+000	-3.8102027024e-001
 2.4487636464e+000	 3.7455549127e+000	-5.3870611486e-001
 2.4102816302e+000	 3.7704333256e+000	-5.0693849204e-001
 2.3715901001e+000	 3.7948893788e+000	-4.7238625817e-001
 2.3326959070e+000	 3.8189206336e+000	-4.4251094565e-001
 2.2936059341e+000	 3.8425247975e+000	-4.1742672337e-001
 2.2543270933e+000	 3.8656997240e+000	-3.9724176424e-001
 2.2148663212e+000	 3.8884434134e+000	-3.8205779402e-001
 2.1752305753e+000	 3.9107540122e+000	-3.7196965319e-001
 2.1354268302e+000	 3.9326298139e+000	-3.6706487314e-001
 2.0954620739e+000	 3.9540692580e+000	-3.6742326788e-001
 2.0553433039e+000	 3.9750709306e+000	-3.7311654242e-001
 2.4624438902e+000	 3.7664798005e+000	-5.1137469921e-001
 2.4237468907e+000	 3.7914971990e+000	-4.7457770073e-001
 2.3848392068e+000	 3.8160898781e+000	-4.4238517292e-001
 2.3457277277e+000	 3.8402553857e+000	-4.1492774298e-001
 2.3064193751e+000	 3.8639914164e+000	-3.9233044238e-001
 2.2669210994e+000	 3.8872958119e+000	-3.7471222588e-001
 2.2272398761e+000	 3.9101665609e+000	-3.6218550259e-001
 2.1873827014e+000	 3.9326018000e+000	-3.5485568039e-001
 2.1473565890e+000	 3.9545998128e+000	-3.5282072497e-001
 2.1071685659e+000	 3.9761590304e+000	-3.5617073479e-001
 2.0668256687e+000	 3.9972780307e+000	-3.6498753302e-001
 1.9520020205e+000	 3.7752070290e+000	-4.3487870608e-001
 1.9137607768e+000	 3.7947357865e+000	-4.1765204895e-001
 1.8753865680e+000	 3.8138465125e+000	-3.9887872469e-001
 1.8368860459e+000	 3.8325382783e+000	-3.7228282978e-001
 1.7982658577e+000	 3.8508102920e+000	-3.4889493294e-001
 1.7595326423e+000	 3.8686618980e+000	-3.2841347391e-001
 1.7206930268e+000	 3.8860925758e+000	-3.1045504873e-001
 1.6817536235e+000	 3.9031019395e+000	-2.9464467850e-001
 1.6427210263e+000	 3.9196897364e+000	-2.8061654104e-001
 1.6036018077e+000	 3.9358558462e+000	-2.6801467079e-001
 1.5644025157e+000	 3.9516002795e+000	-2.5649362582e-001
 1.9634843853e+000	 3.7974141292e+000	-4.2914343183e-001
 1.9250181932e+000	 3.8170577617e+000	-4.1436299767e-001
 1.8864182537e+000	 3.8362809037e+000	-3.9807515439e-001
 1.8476912579e+000	 3.8550826211e+000	-3.7476172820e-001
 1.8088438922e+000	 3.8734621172e+000	-3.5166293252e-001
 1.7698828343e+000	 3.8914187326e+000	-3.3140820809e-001
 1.7308147505e+000	 3.9089519439e+000	-3.1358325062e-001
 1.6916462918e+000	 3.9260613627e+000	-2.9778269185e-001
 1.6523840911e+000	 3.9427467349e+000	-2.8361086434e-001
 1.6130347595e+000	 3.9590079395e+000	-2.7068253326e-001
 1.5736048834e+000	 3.9748449870e+000	-2.5862359386e-001
 1.9749667502e+000	 3.8196212294e+000	-4.2310700306e-001
 1.9362756095e+000	 3.8393797369e+000	-4.1035972664e-001
 1.8974499394e+000	 3.8587152950e+000	-3.9614672777e-001
 1.8584964700e+000	 3.8776269639e+000	-3.7654726996e-001
 1.8194219267e+000	 3.8961139425e+000	-3.5343906310e-001
 1.7802330263e+000	 3.9141755673e+000	-3.3311500943e-001
 1.7409364742e+000	 3.9318113120e+000	-3.1512989249e-001
 1.7015389602e+000	 3.9490207858e+000	-2.9904794223e-001
 1.6620471560e+000	 3.9658037333e+000	-2.8444363312e-001
 1.6224677113e+000	 3.9821600327e+000	-2.7090244796e-001
 1.5828072511e+000	 3.9980896946e+000	-2.5802160599e-001
 1.9864491150e+000	 3.8418283295e+000	-4.1677677949e-001
 1.9475330258e+000	 3.8617017121e+000	-4.0565575750e-001
 1.9084816251e+000	 3.8811496862e+000	-3.9311309436e-001
 1.8693016820e+000	 3.9001713067e+000	-3.7758487736e-001
 1.8299999611e+000	 3.9187657677e+000	-3.5417710873e-001
 1.7905832183e+000	 3.9369324020e+000	-3.3349598515e-001
 1.7510581979e+000	 3.9546706801e+000	-3.1506536174e-001
 1.7114316286e+000	 3.9719802090e+000	-2.9841904992e-001
 1.6717102208e+000	 3.9888607318e+000	-2.8310164905e-001
 1.6319006631e+000	 4.0053121259e+000	-2.6866934230e-001
 1.5920096189e+000	 4.0213344021e+000	-2.5469065553e-001
 1.9979314798e+000	 3.8640354297e+000	-4.1016076299e-001
 1.9587904422e+000	 3.8840236873e+000	-4.0026509146e-001
 1.9195133107e+000	 3.9035840775e+000	-3.8899422138e-001
 1.8801068940e+000	 3.9227156495e+000	-3.7629761600e-001
 1.8405779956e+000	 3.9414175930e+000	-3.5383084974e-001
 1.8009334104e+000	 3.9596892367e+000	-3.3251307932e-001
 1.7611799216e+000	 3.9775300482e+000	-3.1335972416e-001
 1.7213242970e+000	 3.9949396322e+000	-2.9587415623e-001
 1.6813732857e+000	 4.0119177302e+000	-2.7957107850e-001
 1.6413336149e+000	 4.0284642191e+000	-2.6397735318e-001
 1.6012119866e+000	 4.0445791096e+000	-2.4863279141e-001
 2.0094138446e+000	 3.8862425299e+000	-4.0326757924e-001
 1.9700478585e+000	 3.9063456625e+000	-3.9420219560e-001
 1.9305449964e+000	 3.9260184687e+000	-3.8381038466e-001
 1.8909121061e+000	 3.9452599923e+000	-3.7202461854e-001
 1.8511560300e+000	 3.9640694182e+000	-3.5235406278e-001
 1.8112836024e+000	 3.9824460714e+000	-3.3012807749e-001
 1.7713016452e+000	 4.0003894163e+000	-3.0998273316e-001
 1.7312169653e+000	 4.0178990554e+000	-2.9139093712e-001
 1.6910363506e+000	 4.0349747287e+000	-2.7383747068e-001
 1.6507665667e+000	 4.0516163123e+000	-2.5681984966e-001
 1.6104143544e+000	 4.0678238172e+000	-2.3984914520e-001
 2.0208962095e+000	 3.9084496300e+000	-3.9610645999e-001
 1.9813052748e+000	 3.9286676378e+000	-3.8748198963e-001
 1.9415766821e+000	 3.9484528600e+000	-3.7758215986e-001
 1.9017173181e+000	 3.9678043352e+000	-3.6632270978e-001
 1.8617340645e+000	 3.9867212435e+000	-3.4970052100e-001
 1.8216337944e+000	 4.0052029061e+000	-3.2630261125e-001
 1.7814233689e+000	 4.0232487843e+000	-3.0490383859e-001
 1.7411096337e+000	 4.0408584785e+000	-2.8494661650e-001
 1.7006994154e+000	 4.0580317271e+000	-2.6588577519e-001
 1.6601995186e+000	 4.0747684055e+000	-2.4718945474e-001
 1.6196167221e+000	 4.0910685247e+000	-2.2833995711e-001
 2.0323785743e+000	 3.9306567302e+000	-3.8868722594e-001
 1.9925626912e+000	 3.9509896130e+000	-3.8011983312e-001
 1.9526083678e+000	 3.9708872512e+000	-3.7033041402e-001
 1.9125225301e+000	 3.9903486780e+000	-3.5921823097e-001
 1.8723120989e+000	 4.0093730687e+000	-3.4582399408e-001
 1.8319839864e+000	 4.0279597408e+000	-3.2099816253e-001
 1.7915450926e+000	 4.0461081524e+000	-2.9809219538e-001
 1.7510023021e+000	 4.0638179017e+000	-2.7651797892e-001
 1.7103624803e+000	 4.0810887256e+000	-2.5570035891e-001
 1.6696324704e+000	 4.0979204987e+000	-2.3507806645e-001
 1.6288190898e+000	 4.1143132322e+000	-2.1410460121e-001
 2.0438609391e+000	 3.9528638304e+000	-3.8102027024e-001
 2.0038201075e+000	 3.9733115882e+000	-3.7213151313e-001
 1.9636400535e+000	 3.9933216425e+000	-3.6207629735e-001
 1.9233277422e+000	 4.0128930208e+000	-3.5073766293e-001
 1.8828901334e+000	 4.0320248940e+000	-3.3799707442e-001
 1.8423341784e+000	 4.0507165755e+000	-3.1417606783e-001
 1.8016668163e+000	 4.0689675205e+000	-2.8951667176e-001
 1.7608949704e+000	 4.0867773249e+000	-2.6608138195e-001
 1.7200255451e+000	 4.1041457241e+000	-2.4326502245e-001
 1.6790654222e+000	 4.1210725920e+000	-2.2047687818e-001
 1.6380214576e+000	 4.1375579397e+000	-1.9714160974e-001
 2.0553433039e+000	 3.9750709306e+000	-3.7311654242e-001
 2.0150775238e+000	 3.9956335634e+000	-3.6353323228e-001
 1.9746717392e+000	 4.0157560337e+000	-3.5284123537e-001
 1.9341329542e+000	 4.0354373636e+000	-3.4090762212e-001
 1.8934681678e+000	 4.0546767192e+000	-3.2759804340e-001
 1.8526843704e+000	 4.0734734102e+000	-3.0579752229e-001
 1.8117885400e+000	 4.0918268886e+000	-2.7914585732e-001
 1.7707876388e+000	 4.1097367481e+000	-2.5361276814e-001
 1.7296886100e+000	 4.1272027225e+000	-2.2856301588e-001
 1.6884983740e+000	 4.1442246852e+000	-2.0337639841e-001
 1.6472238253e+000	 4.1608026473e+000	-1.7744869666e-001
 2.0668256687e+000	 3.9972780307e+000	-3.6498753302e-001
 2.0263349401e+000	 4.0179555386e+000	-3.5434159719e-001
 1.9857034249e+000	 4.0381904250e+000	-3.4264692119e-001
 1.9449381662e+000	 4.0579817064e+000	-3.2975485689e-001
 1.9040462023e+000	 4.0773285445e+000	-3.1551548882e-001
 1.8630345624e+000	 4.0962302449e+000	-2.9582358358e-001
 1.8219102636e+000	 4.1146862567e+000	-2.6694807071e-001
 1.7806803072e+000	 4.1326961712e+000	-2.3908767647e-001
 1.7393516748e+000	 4.1502597210e+000	-2.1157705410e-001
 1.6979313258e+000	 4.1673767784e+000	-1.8376646970e-001
 1.6564261930e+000	 4.1840473548e+000	-1.5502278032e-001
 1.5644025157e+000	 3.9516002795e+000	-2.5649362582e-001
 1.5251296703e+000	 3.9669231766e+000	-2.4114019249e-001
 1.4857897608e+000	 3.9818248061e+000	-2.2671877158e-001
 1.4463892427e+000	 3.9963055637e+000	-2.1282114348e-001
 1.4069345349e+000	 4.0103659702e+000	-1.9905295825e-001
 1.3674320163e+000	 4.0240066701e+000	-1.8503430669e-001
 1.3278880237e+000	 4.0372284301e+000	-1.7040025085e-001
 1.2883088488e+000	 4.0500321369e+000	-1.5480131359e-001
 1.2487007353e+000	 4.0624187960e+000	-1.3740551547e-001
 1.2090698765e+000	 4.0743895290e+000	-1.0600899500e-001
 1.1694224131e+000	 4.0859455723e+000	-7.6892098088e-002
 1.5736048834e+000	 3.9748449870e+000	-2.5862359386e-001
 1.5341010213e+000	 3.9902580188e+000	-2.4112948223e-001
 1.4945297006e+000	 4.0052473050e+000	-2.2490256566e-001
 1.4548974148e+000	 4.0198132435e+000	-2.0952906587e-001
 1.4152106204e+000	 4.0339563582e+000	-1.9460895596e-001
 1.3754757340e+000	 4.0476772976e+000	-1.7975654601e-001
 1.3356991298e+000	 4.0609768326e+000	-1.6460102776e-001
 1.2958871362e+000	 4.0738558554e+000	-1.4878697790e-001
 1.2560460337e+000	 4.0863153771e+000	-1.3197481965e-001
 1.2161820523e+000	 4.0983565262e+000	-1.0221600822e-001
 1.1763013684e+000	 4.1099805463e+000	-7.2468243193e-002
 1.5828072511e+000	 3.9980896946e+000	-2.5802160599e-001
 1.5430723723e+000	 4.0135928610e+000	-2.3861548758e-001
 1.5032696403e+000	 4.0286698039e+000	-2.2080616218e-001
 1.4634055868e+000	 4.0433209233e+000	-2.0417410622e-001
 1.4234867059e+000	 4.0575467463e+000	-1.8831343621e-001
 1.3835194518e+000	 4.0713479250e+000	-1.7283250897e-001
 1.3435102358e+000	 4.0847252351e+000	-1.5735448066e-001
 1.3034654235e+000	 4.0976795738e+000	-1.4151782401e-001
 1.2633913321e+000	 4.1102119583e+000	-1.2497680345e-001
 1.2232942280e+000	 4.1223235234e+000	-9.7888599506e-002
 1.1831803238e+000	 4.1340155202e+000	-6.7881482822e-002
 1.5920096189e+000	 4.0213344021e+000	-2.5469065553e-001
 1.5520437233e+000	 4.0369277032e+000	-2.3360035476e-001
 1.5120095801e+000	 4.0520923027e+000	-2.1443093034e-001
 1.4719137588e+000	 4.0668286031e+000	-1.9675692597e-001
 1.4317627914e+000	 4.0811371344e+000	-1.8016642105e-001
 1.3915631695e+000	 4.0950185525e+000	-1.6426164580e-001
 1.3513213418e+000	 4.1084736377e+000	-1.4865955465e-001
 1.3110437108e+000	 4.1215032923e+000	-1.3299235765e-001
 1.2707366306e+000	 4.1341085394e+000	-1.1690800917e-001
 1.2304064038e+000	 4.1462905207e+000	-9.2931811126e-002
 1.1900592792e+000	 4.1580504942e+000	-6.3040340811e-002
 1.6012119866e+000	 4.0445791096e+000	-2.4863279141e-001
 1.5610150743e+000	 4.0602625455e+000	-2.2608533642e-001
 1.5207495199e+000	 4.0755148016e+000	-2.0577739475e-001
 1.4804219308e+000	 4.0903362829e+000	-1.8727738909e-001
 1.4400388769e+000	 4.1047275224e+000	-1.7016718044e-001
 1.3996068873e+000	 4.1186891800e+000	-1.5404269810e-001
 1.3591324478e+000	 4.1322220402e+000	-1.3851452780e-001
 1.3186219982e+000	 4.1453270108e+000	-1.2320845721e-001
 1.2780819290e+000	 4.1580051206e+000	-1.0776597855e-001
 1.2375185795e+000	 4.1702575179e+000	-8.7250131964e-002
 1.1969382346e+000	 4.1820854681e+000	-5.7852821764e-002
 1.6104143544e+000	 4.0678238172e+000	-2.3984914520e-001
 1.5699864253e+000	 4.0835973877e+000	-2.1607081717e-001
 1.5294894596e+000	 4.0989373005e+000	-1.9484525954e-001
 1.4889301028e+000	 4.1138439627e+000	-1.7573458491e-001
 1.4483149624e+000	 4.1283179105e+000	-1.5831425364e-001
 1.4076506050e+000	 4.1423598075e+000	-1.4217371902e-001
 1.3669435539e+000	 4.1559704427e+000	-1.2691703013e-001
 1.3262002855e+000	 4.1691507292e+000	-1.1216339173e-001
 1.2854272275e+000	 4.1819017017e+000	-9.7547680760e-002
 1.2446307552e+000	 4.1942245151e+000	-8.0747513321e-002
 1.2038171899e+000	 4.2061204421e+000	-5.2226425883e-002
 1.6196167221e+000	 4.0910685247e+000	-2.2833995711e-001
 1.5789577763e+000	 4.1069322299e+000	-2.0355633822e-001
 1.5382293994e+000	 4.1223597993e+000	-1.8163343169e-001
 1.4974382748e+000	 4.1373516424e+000	-1.6212685008e-001
 1.4565910479e+000	 4.1519082985e+000	-1.4460547004e-001
 1.4156943227e+000	 4.1660304349e+000	-1.2865209285e-001
 1.3747546599e+000	 4.1797188453e+000	-1.1386406210e-001
 1.3337785729e+000	 4.1929744477e+000	-9.9853838154e-002
 1.2927725259e+000	 4.2057982829e+000	-8.6249528668e-002
 1.2517429310e+000	 4.2181915124e+000	-7.2695374994e-002
 1.2106961453e+000	 4.2301554161e+000	-4.6068163304e-002
 1.6288190898e+000	 4.1143132322e+000	-2.1410460121e-001
 1.5879291273e+000	 4.1302670721e+000	-1.8854062123e-001
 1.5469693392e+000	 4.1457822982e+000	-1.6614004355e-001
 1.5059464469e+000	 4.1608593222e+000	-1.4645178987e-001
 1.4648671334e+000	 4.1754986866e+000	-1.2903796922e-001
 1.4237380405e+000	 4.1897010624e+000	-1.1347455391e-001
 1.3825657659e+000	 4.2034672478e+000	-9.9352012356e-002
 1.3413568602e+000	 4.2167981661e+000	-8.6275898092e-002
 1.3001178244e+000	 4.2296948641e+000	-7.3867394540e-002
 1.2588551067e+000	 4.2421585096e+000	-6.1763815084e-002
 1.2175751007e+000	 4.2541903900e+000	-3.9284567937e-002
 1.6380214576e+000	 4.1375579397e+000	-1.9714160974e-001
 1.5969004783e+000	 4.1536019143e+000	-1.7102159133e-001
 1.5557092789e+000	 4.1692047970e+000	-1.4836247457e-001
 1.5144546189e+000	 4.1843670020e+000	-1.2870629869e-001
 1.4731432189e+000	 4.1990890747e+000	-1.1160822026e-001
 1.4317817582e+000	 4.2133716899e+000	-9.6637204812e-002
 1.3903768719e+000	 4.2272156503e+000	-8.3376674919e-002
 1.3489351476e+000	 4.2406218846e+000	-7.1425113968e-002
 1.3074631228e+000	 4.2535914452e+000	-6.0396625236e-002
 1.2659672825e+000	 4.2661255068e+000	-4.9921445796e-002
 1.2244540561e+000	 4.2782253640e+000	-3.1781710842e-002
 1.6472238253e+000	 4.1608026473e+000	-1.7744869666e-001
 1.6058718293e+000	 4.1769367565e+000	-1.5099639933e-001
 1.5644492187e+000	 4.1926272959e+000	-1.2829737237e-001
 1.5229627909e+000	 4.2078746818e+000	-1.0888657996e-001
 1.4814193044e+000	 4.2226794627e+000	-9.2312040519e-002
 1.4398254760e+000	 4.2370423173e+000	-7.8135534083e-002
 1.3981879779e+000	 4.2509640528e+000	-6.5933265800e-002
 1.3565134349e+000	 4.2644456030e+000	-5.5296484638e-002
 1.3148084213e+000	 4.2774880264e+000	-4.5832056885e-002
 1.2730794582e+000	 4.2900925040e+000	-3.7162993994e-002
 1.2313330114e+000	 4.3022603379e+000	-2.3465213164e-002
 1.6564261930e+000	 4.1840473548e+000	-1.5502278032e-001
 1.6148431803e+000	 4.2002715988e+000	-1.2846144328e-001
 1.5731891585e+000	 4.2160497947e+000	-1.0594067303e-001
 1.5314709629e+000	 4.2313823616e+000	-8.6988165316e-002
 1.4896953899e+000	 4.2462698508e+000	-7.1144613745e-002
 1.4478691937e+000	 4.2607129448e+000	-5.7964433249e-002
 1.4059990840e+000	 4.2747124554e+000	-4.7016439055e-002
 1.3640917223e+000	 4.2882693215e+000	-3.7884480494e-002
 1.3221537197e+000	 4.3013846075e+000	-3.0168029068e-002
 1.2801916340e+000	 4.3140595013e+000	-2.3482720345e-002
 1.2382119668e+000	 4.3262953119e+000	-1.4240258621e-002
 1.1694224131e+000	 4.0859455723e+000	-7.6892098088e-002
 1.1297644301e+000	 4.0970882749e+000	-6.1817889320e-002
 1.0901019551e+000	 4.1078190963e+000	-4.9097447193e-002
 1.0504409556e+000	 4.1181396041e+000	-3.8048410696e-002
 1.0107873370e+000	 4.1280514725e+000	-2.8031207683e-002
 9.7114694021e-001	 4.1375564794e+000	-1.8449937655e-002
 9.3152554013e-001	 4.1466565047e+000	-8.7531364099e-003
 8.9192884318e-001	 4.1553535275e+000	 1.5655766174e-003
 8.5236248567e-001	 4.1636496242e+000	 1.2966967177e-002
 8.1283203195e-001	 4.1715469658e+000	 2.5865769741e-002
 7.7334297274e-001	 4.1790478158e+000	 4.0630384041e-002
 1.1763013684e+000	 4.1099805463e+000	-7.2468243193e-002
 1.1364101032e+000	 4.1211887942e+000	-5.5881881047e-002
 1.0965143196e+000	 4.1319827380e+000	-4.2051178798e-002
 1.0566200201e+000	 4.1423639547e+000	-3.0282117475e-002
 1.0167331448e+000	 4.1523341282e+000	-1.9923712116e-002
 9.7685956928e-001	 4.1618950470e+000	-1.0368920837e-002
 9.3700510214e-001	 4.1710486018e+000	-1.0554341116e-003
 8.9717548344e-001	 4.1797967836e+000	 8.5336549262e-003
 8.5737638264e-001	 4.1881416808e+000	 1.8869298022e-002
 8.1761339685e-001	 4.1960854774e+000	 3.0376055738e-002
 7.7789204906e-001	 4.2036304500e+000	 4.3431776070e-002
 1.1831803238e+000	 4.1340155202e+000	-6.7881482822e-002
 1.1430557764e+000	 4.1452893135e+000	-5.0394131633e-002
 1.1029266840e+000	 4.1561463797e+000	-3.6049034500e-002
 1.0627990845e+000	 4.1665883053e+000	-2.4140016212e-002
 1.0226789527e+000	 4.1766167839e+000	-1.4004202501e-002
 9.8257219834e-001	 4.1862336145e+000	-5.0229557212e-003
 9.4248466414e-001	 4.1954406989e+000	 3.3773109599e-003
 9.0242212370e-001	 4.2042400396e+000	 1.1724440065e-002
 8.6239027962e-001	 4.2126337374e+000	 2.0499955869e-002
 8.2239476175e-001	 4.2206239889e+000	 3.0138608580e-002
 7.8244112537e-001	 4.2282130842e+000	 4.1028034920e-002
 1.1900592792e+000	 4.1580504942e+000	-6.3040340811e-002
 1.1497014495e+000	 4.1693898327e+000	-4.5262340758e-002
 1.1093390485e+000	 4.1803100215e+000	-3.0997993536e-002
 1.0689781490e+000	 4.1908126559e+000	-1.9528466812e-002
 1.0286247606e+000	 4.2008994397e+000	-1.0178517932e-002
 9.8828482740e-001	 4.2105721820e+000	-2.3174565411e-003
 9.4796422615e-001	 4.2198327960e+000	 4.6400160454e-003
 9.0766876395e-001	 4.2286832957e+000	 1.1233089902e-002
 8.6740417660e-001	 4.2371257940e+000	 1.7954250881e-002
 8.2717612664e-001	 4.2451625005e+000	 2.5248804884e-002
 7.8699020168e-001	 4.2527957184e+000	 3.3514520285e-002
 1.1969382346e+000	 4.1820854681e+000	-5.7852821764e-002
 1.1563471226e+000	 4.1934903520e+000	-4.0393820964e-002
 1.1157514129e+000	 4.2044736632e+000	-2.6804776575e-002
 1.0751572134e+000	 4.2150370066e+000	-1.6353695633e-002
 1.0345705684e+000	 4.2251820954e+000	-8.3524854087e-003
 9.9399745647e-001	 4.2349107496e+000	-2.1579432828e-003
 9.5344378815e-001	 4.2442248931e+000	 2.8273784010e-003
 9.1291540421e-001	 4.2531265517e+000	 7.1544317232e-003
 8.7241807358e-001	 4.2616178507e+000	 1.1327055697e-002
 8.3195749154e-001	 4.2697010121e+000	 1.5801480468e-002
 7.9153927800e-001	 4.2773783526e+000	 2.0985951462e-002
 1.2038171899e+000	 4.2061204421e+000	-5.2226425883e-002
 1.1629927957e+000	 4.2175908713e+000	-3.5695508711e-002
 1.1221637773e+000	 4.2286373050e+000	-2.3375853104e-002
 1.0813362778e+000	 4.2392613572e+000	-1.4521799305e-002
 1.0405163763e+000	 4.2494647511e+000	-8.4319201750e-003
 9.9971008553e-001	 4.2592493171e+000	-4.4500386634e-003
 9.5892335015e-001	 4.2686169902e+000	-1.9661184167e-003
 9.1816204446e-001	 4.2775698078e+000	-4.1702831918e-004
 8.7743197055e-001	 4.2861099073e+000	 7.1281793478e-004
 8.3673885643e-001	 4.2942395236e+000	 1.8909458032e-003
 7.9608835431e-001	 4.3019609868e+000	 3.5364256499e-003
 1.2106961453e+000	 4.2301554161e+000	-4.6068163304e-002
 1.1696384688e+000	 4.2416913905e+000	-3.1073975065e-002
 1.1285761418e+000	 4.2528009467e+000	-2.0617448564e-002
 1.0875153423e+000	 4.2634857078e+000	-1.3938748408e-002
 1.0464621842e+000	 4.2737474068e+000	-1.0322626058e-002
 1.0054227146e+000	 4.2835878846e+000	-9.0994652127e-003
 9.6440291215e-001	 4.2930090873e+000	-9.6461984793e-003
 9.2340868472e-001	 4.3020130638e+000	-1.1387096085e-002
 8.8244586753e-001	 4.3106019639e+000	-1.3794427736e-002
 8.4152022133e-001	 4.3187780352e+000	-1.6388999061e-002
 8.0063743062e-001	 4.3265436210e+000	-1.8740564377e-002
 1.2175751007e+000	 4.2541903900e+000	-3.9284567937e-002
 1.1762841420e+000	 4.2657919098e+000	-2.6435436015e-002
 1.1349885062e+000	 4.2769645885e+000	-1.8435551243e-002
 1.0936944067e+000	 4.2877100584e+000	-1.4510391042e-002
 1.0524079920e+000	 4.2980300625e+000	-1.3930395788e-002
 1.0111353436e+000	 4.3079264521e+000	-1.6012042453e-002
 9.6988247415e-001	 4.3174011843e+000	-2.0118787622e-002
 9.2865532497e-001	 4.3264563199e+000	-2.5661880631e-002
 8.8745976450e-001	 4.3350940205e+000	-3.2101047927e-002
 8.4630158622e-001	 4.3433165468e+000	-3.8945050079e-002
 8.0518650693e-001	 4.3511262553e+000	-4.5752113197e-002
 1.2244540561e+000	 4.2782253640e+000	-3.1781710842e-002
 1.1829298151e+000	 4.2898924291e+000	-2.1685762453e-002
 1.1414008707e+000	 4.3011282302e+000	-1.6735918939e-002
 1.0998734712e+000	 4.3119344090e+000	-1.6142456260e-002
 1.0583537999e+000	 4.3223127183e+000	-1.9161011312e-002
 1.0168479727e+000	 4.3322650197e+000	-2.5093684176e-002
 9.7536203615e-001	 4.3417932814e+000	-3.3290007775e-002
 9.3390196523e-001	 4.3508995759e+000	-4.3147785696e-002
 8.9247366148e-001	 4.3595860771e+000	-5.4113799261e-002
 8.5108295112e-001	 4.3678550583e+000	-6.5684385276e-002
 8.0973558324e-001	 4.3757088895e+000	-7.4173796695e-002
 1.2313330114e+000	 4.3022603379e+000	-2.3465213164e-002
 1.1895754882e+000	 4.3139929483e+000	-1.6730489810e-002
 1.1478132351e+000	 4.3252918719e+000	-1.5424085401e-002
 1.1060525356e+000	 4.3361587596e+000	-1.8740557396e-002
 1.0642996077e+000	 4.3465953740e+000	-2.5920244092e-002
 1.0225606018e+000	 4.3566035872e+000	-3.6250395806e-002
 9.8084159815e-001	 4.3661853785e+000	-4.9066171487e-002
 9.3914860548e-001	 4.3753428319e+000	-6.2056399590e-002
 8.9748755845e-001	 4.3840781337e+000	-3.5601816553e-002
 8.5586431601e-001	 4.3923935699e+000	-1.3727863644e-002
 8.1428465955e-001	 4.4002915237e+000	 3.6692716698e-003
 1.2382119668e+000	 4.3262953119e+000	-1.4240258621e-002
 1.1962211613e+000	 4.3380934676e+000	-1.1474827375e-002
 1.1542255995e+000	 4.3494555137e+000	-1.4405366544e-002
 1.1122316001e+000	 4.3603831102e+000	-2.2210195280e-002
 1.0702454156e+000	 4.3708780297e+000	-3.4113855399e-002
 1.0282732308e+000	 4.3809421547e+000	-1.9113533152e-002
 9.8632116015e-001	 4.3905774756e+000	 1.1449122489e-002
 9.4439524573e-001	 4.3997860880e+000	 3.6618173082e-002
 9.0250145542e-001	 4.4085701903e+000	 5.6501272854e-002
 8.6064568090e-001	 4.4169320814e+000	 7.1201180992e-002
 8.1883373586e-001	 4.4248741579e+000	 8.0815984622e-002
 7.7334297274e-001	 4.1790478158e+000	 4.0630384041e-002
 7.3390072346e-001	 4.1861545275e+000	 8.1973534704e-002
 6.9451062271e-001	 4.1928695419e+000	 1.2305068876e-001
 6.5517793079e-001	 4.1991953847e+000	 1.6407598976e-001
 6.1590782834e-001	 4.2051346646e+000	 1.9442466937e-001
 5.7670541504e-001	 4.2106900698e+000	 1.8776624275e-001
 5.3757570840e-001	 4.2158643666e+000	 1.7931693554e-001
 4.9852364261e-001	 4.2206603959e+000	 1.6940442468e-001
 4.5955406749e-001	 4.2250810713e+000	 1.5827645270e-001
 4.2067174755e-001	 4.2291293762e+000	 1.4610554667e-001
 3.8188136106e-001	 4.2328083616e+000	 1.3299371455e-001
 7.7789204906e-001	 4.2036304500e+000	 4.3431776070e-002
 7.3821778655e-001	 4.2107789659e+000	 8.2360708329e-002
 6.9859597932e-001	 4.2175334803e+000	 1.2158470421e-001
 6.5903191862e-001	 4.2238965340e+000	 1.6131937408e-001
 6.1953081557e-001	 4.2298707508e+000	 1.9477134850e-001
 5.8009779984e-001	 4.2354588350e+000	 1.8464189864e-001
 5.4073791845e-001	 4.2406635688e+000	 1.7368024150e-001
 5.0145613463e-001	 4.2454878100e+000	 1.6216530557e-001
 4.6225732672e-001	 4.2499344894e+000	 1.5029496755e-001
 4.2314628725e-001	 4.2540066078e+000	 1.3819089953e-001
 3.8412772201e-001	 4.2577072343e+000	 1.2590339177e-001
 7.8244112537e-001	 4.2282130842e+000	 4.1028034920e-002
 7.4253484963e-001	 4.2354034043e+000	 7.7141012938e-002
 7.0268133592e-001	 4.2421974188e+000	 1.1411929285e-001
 6.6288590645e-001	 4.2485976834e+000	 1.5218030207e-001
 6.2315380280e-001	 4.2546068371e+000	 1.8903697146e-001
 5.8349018464e-001	 4.2602276001e+000	 1.7609587127e-001
 5.4390012851e-001	 4.2654627709e+000	 1.6330259031e-001
 5.0438862665e-001	 4.2703152241e+000	 1.5088627619e-001
 4.6496058594e-001	 4.2747879074e+000	 1.3899389548e-001
 4.2562082694e-001	 4.2788838395e+000	 1.2769521099e-001
 3.8637408296e-001	 4.2826061070e+000	 1.1698773274e-001
 7.8699020168e-001	 4.2527957184e+000	 3.3514520285e-002
 7.4685191271e-001	 4.2600278427e+000	 6.6409074170e-002
 7.0676669253e-001	 4.2668613573e+000	 1.0074844274e-001
 6.6673989428e-001	 4.2732988327e+000	 1.3675222169e-001
 6.2677679003e-001	 4.2793429233e+000	 1.7459302181e-001
 5.8688256944e-001	 4.2849963652e+000	 1.6193844048e-001
 5.4706233856e-001	 4.2902619731e+000	 1.4801257374e-001
 5.0732111866e-001	 4.2951426382e+000	 1.3541443355e-001
 4.6766384517e-001	 4.2996413255e+000	 1.2423901950e-001
 4.2809536664e-001	 4.3037610711e+000	 1.1450311821e-001
 3.8862044392e-001	 4.3075049798e+000	 1.0615038445e-001
 7.9153927800e-001	 4.2773783526e+000	 2.0985951462e-002
 7.5116897579e-001	 4.2846522811e+000	 5.0258795983e-002
 7.1085204914e-001	 4.2915252958e+000	 8.1565338653e-002
 6.7059388211e-001	 4.2979999820e+000	 1.1512769572e-001
 6.3039977725e-001	 4.3040790096e+000	 1.5111989619e-001
 5.9027495423e-001	 4.3097651303e+000	 1.4197883637e-001
 5.5022454861e-001	 4.3150611753e+000	 1.2763765122e-001
 5.1025361068e-001	 4.3199700523e+000	 1.1559565960e-001
 4.7036710439e-001	 4.3244947436e+000	 1.0589482470e-001
 4.3056990634e-001	 4.3286383027e+000	 9.8497877582e-002
 3.9086680487e-001	 4.3324038525e+000	 9.3293530125e-002
 7.9608835431e-001	 4.3019609868e+000	 3.5364256499e-003
 7.5548603887e-001	 4.3092767195e+000	 2.8783381271e-002
 7.1493740575e-001	 4.3161892343e+000	 5.6662385020e-002
 6.7444786994e-001	 4.3227011313e+000	 8.7398426993e-002
 6.3402276448e-001	 4.3288150959e+000	 1.2116728882e-001
 5.9366733903e-001	 4.3345338954e+000	 1.1602526926e-001
 5.5338675867e-001	 4.3398603774e+000	 1.0200418222e-001
 5.1318610270e-001	 4.3447974664e+000	 9.1274655968e-002
 4.7307036361e-001	 4.3493481616e+000	 8.3824535400e-002
 4.3304444603e-001	 4.3535155343e+000	 7.9561404096e-002
 3.9311316582e-001	 4.3573027252e+000	 7.8317931024e-002
 8.0063743062e-001	 4.3265436210e+000	-1.8740564377e-002
 7.5980310196e-001	 4.3339011579e+000	 2.0753517846e-003
 7.1902276235e-001	 4.3408531727e+000	 2.6131228091e-002
 6.7830185777e-001	 4.3474022807e+000	 5.3655282886e-002
 6.3764575171e-001	 4.3535511821e+000	 8.4825385796e-002
 5.9705972383e-001	 4.3593026605e+000	 8.3884958707e-002
 5.5654896872e-001	 4.3646595796e+000	 7.0937457486e-002
 5.1611859472e-001	 4.3696248805e+000	 6.2294977458e-002
 4.7577362284e-001	 4.3742015797e+000	 5.7890150891e-002
 4.3551898573e-001	 4.3783927660e+000	 6.5285439231e-002
 3.9535952677e-001	 4.3822015979e+000	 7.4989684972e-002
 8.0518650693e-001	 4.3511262553e+000	-4.5752113197e-002
 7.6412016504e-001	 4.3585255963e+000	-2.9773432629e-002
 7.2310811896e-001	 4.3655171112e+000	-9.9372226432e-003
 6.8215584560e-001	 4.3721034300e+000	 1.3988318883e-002
 6.4126873894e-001	 4.3782872684e+000	 5.4495707973e-002
 6.0045210862e-001	 4.3840714257e+000	 7.7172450360e-002
 5.5971117877e-001	 4.3894587817e+000	 8.1072988864e-002
 5.1905108674e-001	 4.3944522946e+000	 8.5721732566e-002
 4.7847688206e-001	 4.3990549978e+000	 9.0976898158e-002
 4.3799352542e-001	 4.4032699976e+000	 9.6694316268e-002
 3.9760588772e-001	 4.4071004706e+000	 1.0272731816e-001
 8.0973558324e-001	 4.3757088895e+000	-7.4173796695e-002
 7.6843722812e-001	 4.3831500347e+000	-3.0721593454e-002
 7.2719347556e-001	 4.3901810497e+000	 1.2954232725e-002
 6.8600983343e-001	 4.3968045793e+000	 5.6880953039e-002
 6.4489172617e-001	 4.4030233546e+000	 1.0107894212e-001
 6.0384449342e-001	 4.4088401908e+000	 1.2201755593e-001
 5.6287338882e-001	 4.4142579839e+000	 1.2164101572e-001
 5.2198357876e-001	 4.4192797087e+000	 1.2210983861e-001
 4.8118014128e-001	 4.4239084158e+000	 1.2327696193e-001
 4.4046806511e-001	 4.4281472292e+000	 1.2499289209e-001
 3.9985224867e-001	 4.4319993433e+000	 1.2710559227e-001
 8.1428465955e-001	 4.4002915237e+000	 3.6692716698e-003
 7.7275429120e-001	 4.4077744731e+000	 3.8770595241e-002
 7.3127883217e-001	 4.4148449882e+000	 7.4251843216e-002
 6.8986382126e-001	 4.4215057286e+000	 1.1013002678e-001
 6.4851471339e-001	 4.4277594409e+000	 1.4641520833e-001
 6.0723687822e-001	 4.4336089559e+000	 1.6482167532e-001
 5.6603559887e-001	 4.4390571860e+000	 1.5991709732e-001
 5.2491607077e-001	 4.4441071228e+000	 1.5595562301e-001
 4.8388340051e-001	 4.4487618339e+000	 1.5278508985e-001
 4.4294260481e-001	 4.4530244608e+000	 1.5025085540e-001
 4.0209860962e-001	 4.4568982160e+000	 1.4819568591e-001
 8.1883373586e-001	 4.4248741579e+000	 8.0815984622e-002
 7.7707135428e-001	 4.4323989115e+000	 1.0743241445e-001
 7.3536418877e-001	 4.4395089267e+000	 1.3458594793e-001
 6.9371780909e-001	 4.4462068779e+000	 1.6228335056e-001
 6.5213770062e-001	 4.4524955272e+000	 1.9052438481e-001
 6.1062926301e-001	 4.4583777210e+000	 2.0564779587e-001
 5.6919780892e-001	 4.4638563882e+000	 1.9596558380e-001
 5.2784856279e-001	 4.4689345369e+000	 1.8732481331e-001
 4.8658665973e-001	 4.4736152520e+000	 1.7956840131e-001
 4.4541714450e-001	 4.4779016925e+000	 1.7253673165e-001
 4.0434497057e-001	 4.4817970888e+000	 1.6606754455e-001
 3.8188136106e-001	 4.2328083616e+000	 1.3299371455e-001
 3.4318749924e-001	 4.2361211433e+000	 1.2882802827e-001
 3.0459466554e-001	 4.2390708994e+000	 1.2644804232e-001
 2.6610727498e-001	 4.2416608679e+000	 1.2567121572e-001
 2.2772965353e-001	 4.2438943442e+000	 1.2626269602e-001
 1.8946603763e-001	 4.2457746785e+000	 1.2793984306e-001
 1.5132057376e-001	 4.2473052732e+000	 1.3037666943e-001
 1.1329731804e-001	 4.2484895807e+000	 1.3320818972e-001
 7.5400235934e-002	 4.2493311008e+000	 1.3603467143e-001
 3.7633202065e-002	 4.2498333782e+000	 1.3842578080e-001
 0.0000000000e+000	 4.2500000000e+000	 1.3992461742e-001
 3.8412772201e-001	 4.2577072343e+000	 1.2590339177e-001
 3.4520624924e-001	 4.2610395029e+000	 1.2161417201e-001
 3.0638639888e-001	 4.2640066105e+000	 1.1960475629e-001
 2.6767261190e-001	 4.2666118142e+000	 1.1964855904e-001
 2.2906923973e-001	 4.2688584286e+000	 1.2146623591e-001
 1.9058054374e-001	 4.2707498237e+000	 1.2473031433e-001
 1.5221069479e-001	 4.2722894219e+000	 1.2906973803e-001
 1.1396377285e-001	 4.2734806959e+000	 1.3407431745e-001
 7.5843766737e-002	 4.2743271661e+000	 1.3929907884e-001
 3.7854573843e-002	 4.2748323980e+000	 1.4426850513e-001
 0.0000000000e+000	 4.2750000000e+000	 1.4848066238e-001
 3.8637408296e-001	 4.2826061070e+000	 1.1698773274e-001
 3.4722499924e-001	 4.2859578626e+000	 1.1353523989e-001
 3.0817813221e-001	 4.2889423217e+000	 1.1287296923e-001
 2.6923794881e-001	 4.2915627605e+000	 1.1472912738e-001
 2.3040882593e-001	 4.2938225130e+000	 1.1877871433e-001
 1.9169504985e-001	 4.2957249688e+000	 1.2464826247e-001
 1.5310081581e-001	 4.2972735706e+000	 1.3192048676e-001
 1.1463022767e-001	 4.2984718111e+000	 1.4013883797e-001
 7.6287297539e-002	 4.2993232314e+000	 1.4881195142e-001
 3.8075945621e-002	 4.2998314179e+000	 1.5741798442e-001
 0.0000000000e+000	 4.3000000000e+000	 1.6540883598e-001
 3.8862044392e-001	 4.3075049798e+000	 1.0615038445e-001
 3.4924374924e-001	 4.3108762223e+000	 1.0451076370e-001
 3.0996986554e-001	 4.3138780329e+000	 1.0618820584e-001
 2.7080328573e-001	 4.3165137067e+000	 1.1086453556e-001
 2.3174841213e-001	 4.3187865974e+000	 1.1816792258e-001
 1.9280955596e-001	 4.3207001140e+000	 1.2767773080e-001
 1.5399093684e-001	 4.3222577192e+000	 1.3892927580e-001
 1.1529668248e-001	 4.3234629263e+000	 1.5141848251e-001
 7.6730828340e-002	 4.3243192967e+000	 1.6460643513e-001
 3.8297317399e-002	 4.3248304378e+000	 1.7792381263e-001
 0.0000000000e+000	 4.3250000000e+000	 1.9077520313e-001
 3.9086680487e-001	 4.3324038525e+000	 9.3293530125e-002
 3.5126249924e-001	 4.3357945819e+000	 9.4458803567e-002
 3.1176159887e-001	 4.3388137440e+000	 9.9484511821e-002
 2.7236862265e-001	 4.3414646530e+000	 1.0800491263e-001
 2.3308799833e-001	 4.3437506817e+000	 1.1960015992e-001
 1.9392406206e-001	 4.3456752592e+000	 1.3380126483e-001
 1.5488105786e-001	 4.3472418679e+000	 1.5009496232e-001
 1.1596313730e-001	 4.3484540415e+000	 1.6792847460e-001
 7.7174359142e-002	 4.3493153620e+000	 1.8671416406e-001
 3.8518689177e-002	 4.3498294576e+000	 2.0583406816e-001
 0.0000000000e+000	 4.3500000000e+000	 2.2464431002e-001
 3.9311316582e-001	 4.3573027252e+000	 7.8317931024e-002
 3.5328124924e-001	 4.3607129416e+000	 8.3295990017e-002
 3.1355333220e-001	 4.3637494552e+000	 9.2694496179e-002
 2.7393395956e-001	 4.3664155993e+000	 1.0609894431e-001
 2.3442758453e-001	 4.3687147661e+000	 1.2304027617e-001
 1.9503856817e-001	 4.3706504043e+000	 1.4299995514e-001
 1.5577117889e-001	 4.3722260166e+000	 1.6541494342e-001
 1.1662959211e-001	 4.3734451567e+000	 1.8968257314e-001
 7.7617889943e-002	 4.3743114273e+000	 2.1516530358e-001
 3.8740060954e-002	 4.3748284775e+000	 2.4119535713e-001
 0.0000000000e+000	 4.3750000000e+000	 2.6707922748e-001
 3.9535952677e-001	 4.3822015979e+000	 7.4989684972e-002
 3.5529999924e-001	 4.3856313013e+000	 8.7482046592e-002
 3.1534506553e-001	 4.3886851664e+000	 1.0170734107e-001
 2.7549929647e-001	 4.3913665456e+000	 1.1747163409e-001
 2.3576717073e-001	 4.3936788505e+000	 1.3457770509e-001
 1.9615307428e-001	 4.3956255495e+000	 1.5282506660e-001
 1.5666129991e-001	 4.3972101652e+000	 1.7200999803e-001
 1.1729604692e-001	 4.3984362718e+000	 1.9192559353e-001
 7.8061420743e-002	 4.3993074926e+000	 2.1236182334e-001
 3.8961432732e-002	 4.3998274974e+000	 2.3310560827e-001
 0.0000000000e+000	 4.4000000000e+000	 2.5394090680e-001
 3.9760588772e-001	 4.4071004706e+000	 1.0272731816e-001
 3.5731874924e-001	 4.4105496609e+000	 1.1105329709e-001
 3.1713679886e-001	 4.4136208776e+000	 1.2103071051e-001
 2.7706463339e-001	 4.4163174919e+000	 1.3246900129e-001
 2.3710675693e-001	 4.4186429349e+000	 1.4517422987e-001
 1.9726758038e-001	 4.4206006947e+000	 1.5894908891e-001
 1.5755142094e-001	 4.4221943139e+000	 1.7359293268e-001
 1.1796250174e-001	 4.4234273870e+000	 1.8890182102e-001
 7.8504951544e-002	 4.4243035579e+000	 2.0466857722e-001
 3.9182804509e-002	 4.4248265173e+000	 2.2068285937e-001
 0.0000000000e+000	 4.4250000000e+000	 2.3673124478e-001
 3.9985224867e-001	 4.4319993433e+000	 1.2710559227e-001
 3.5933749924e-001	 4.4354680206e+000	 1.3118733300e-001
 3.1892853219e-001	 4.4385565887e+000	 1.3684160393e-001
 2.7862997030e-001	 4.4412684381e+000	 1.4388130494e-001
 2.3844634313e-001	 4.4436070192e+000	 1.5211585334e-001
 1.9838208649e-001	 4.4455758398e+000	 1.6135119365e-001
 1.5844154196e-001	 4.4471784626e+000	 1.7138982269e-001
 1.1862895655e-001	 4.4484185022e+000	 1.8203082961e-001
 7.8948482344e-002	 4.4492996232e+000	 1.9306995019e-001
 3.9404176286e-002	 4.4498255371e+000	 2.0429963522e-001
 0.0000000000e+000	 4.4500000000e+000	 2.1550913208e-001
 4.0209860962e-001	 4.4568982160e+000	 1.4819568591e-001
 3.6135624923e-001	 4.4603863803e+000	 1.4795398841e-001
 3.2072026552e-001	 4.4634922999e+000	 1.4920850474e-001
 2.8019530721e-001	 4.4662193844e+000	 1.5177567268e-001
 2.3978592933e-001	 4.4685711036e+000	 1.5546834320e-001
 1.9949659259e-001	 4.4705509850e+000	 1.6009578544e-001
 1.5933166298e-001	 4.4721626112e+000	 1.6546370743e-001
 1.1929541136e-001	 4.4734096174e+000	 1.7137429212e-001
 7.9392013143e-002	 4.4742956885e+000	 1.7762624822e-001
 3.9625548063e-002	 4.4748245570e+000	 1.8401487544e-001
 0.0000000000e+000	 4.4750000000e+000	 1.9033214338e-001
 4.0434497057e-001	 4.4817970888e+000	 1.6606754455e-001
 3.6337499923e-001	 4.4853047399e+000	 1.6142185765e-001
 3.2251199884e-001	 4.4884280111e+000	 1.5819865044e-001
 2.8176064413e-001	 4.4911703307e+000	 1.5621798048e-001
 2.4112551553e-001	 4.4935351880e+000	 1.5529621022e-001
 2.0061109869e-001	 4.4955261302e+000	 1.5524600715e-001
 1.6022178400e-001	 4.4971467599e+000	 1.5587636008e-001
 1.1996186617e-001	 4.4984007326e+000	 1.5699261125e-001
 7.9835543943e-002	 4.4992917538e+000	 1.5839650359e-001
 3.9846919840e-002	 4.4998235769e+000	 1.5988624287e-001
 0.0000000000e+000	 4.5000000000e+000	 1.6125657392e-001
 4.5000000000e+000	 0.0000000000e+000	 4.1993361942e-001
 4.4998235769e+000	 3.9846919840e-002	 4.4073779163e-001
 4.4992917538e+000	 7.9835543943e-002	 4.5828296968e-001
 4.4984007326e+000	 1.1996186617e-001	 4.7259672800e-001
 4.4971467599e+000	 1.6022178400e-001	 4.8372226347e-001
 4.4955261302e+000	 2.0061109869e-001	 4.9171882465e-001
 4.4935351880e+000	 2.4112551553e-001	 4.9666212408e-001
 4.4911703307e+000	 2.8176064413e-001	 4.9864473205e-001
 4.4884280111e+000	 3.2251199884e-001	 4.9777645027e-001
 4.4853047399e+000	 3.6337499923e-001	 4.9418466408e-001
 4.4817970888e+000	 4.0434497057e-001	 4.8801467146e-001
 4.5250000000e+000	 0.0000000000e+000	 4.3535151581e-001
 4.5248225967e+000	 4.0068291616e-002	 4.5401377758e-001
 4.5242878191e+000	 8.0279074742e-002	 4.6957603869e-001
 4.5233918477e+000	 1.2062832098e-001	 4.8207335338e-001
 4.5221309085e+000	 1.6111190503e-001	 4.9155660749e-001
 4.5205012753e+000	 2.0172560480e-001	 4.9809294708e-001
 4.5184992724e+000	 2.4246510172e-001	 5.0176618952e-001
 4.5161212770e+000	 2.8332598104e-001	 5.0267721573e-001
 4.5133637222e+000	 3.2430373217e-001	 5.0094434187e-001
 4.5102230996e+000	 3.6539374923e-001	 4.9670366900e-001
 4.5066959615e+000	 4.0659133152e-001	 4.9010940914e-001
 4.5500000000e+000	 0.0000000000e+000	 4.5000100544e-001
 4.5498216166e+000	 4.0289663393e-002	 4.6658442081e-001
 4.5492838844e+000	 8.0722605541e-002	 4.8022070681e-001
 4.5483829629e+000	 1.2129477580e-001	 4.9095232096e-001
 4.5471150572e+000	 1.6200202605e-001	 4.9883776607e-001
 4.5454764205e+000	 2.0284011090e-001	 5.0395201833e-001
 4.5434633567e+000	 2.4380468792e-001	 5.0638693748e-001
 4.5410722233e+000	 2.8489131795e-001	 5.0625165765e-001
 4.5382994334e+000	 3.2609546550e-001	 5.0367295718e-001
 4.5351414592e+000	 3.6741249922e-001	 4.9879560596e-001
 4.5315948342e+000	 4.0883769246e-001	 4.9178268869e-001
 4.5750000000e+000	 0.0000000000e+000	 4.6389284583e-001
 4.5748206365e+000	 4.0511035169e-002	 4.7845873440e-001
 4.5742799497e+000	 8.1166136340e-002	 4.9022426215e-001
 4.5733740781e+000	 1.2196123061e-001	 4.9923921428e-001
 4.5720992059e+000	 1.6289214707e-001	 5.0556963950e-001
 4.5704515657e+000	 2.0395461700e-001	 5.0929827776e-001
 4.5684274411e+000	 2.4514427412e-001	 5.1052496967e-001
 4.5660231695e+000	 2.8645665486e-001	 5.0936704611e-001
 4.5632351446e+000	 3.2788719882e-001	 5.0595969639e-001
 4.5600598189e+000	 3.6943124922e-001	 5.0045631337e-001
 4.5564937069e+000	 4.1108405341e-001	 4.9302881407e-001
 4.6000000000e+000	 0.0000000000e+000	 4.7703756064e-001
 4.5998196564e+000	 4.0732406946e-002	 4.8964553111e-001
 4.5992760150e+000	 8.1609667139e-002	 4.9959382505e-001
 4.5983651933e+000	 1.2262768542e-001	 5.0693948059e-001
 4.5970833545e+000	 1.6378226809e-001	 5.1175602218e-001
 4.5954267108e+000	 2.0506912311e-001	 5.1413388811e-001
 4.5933915255e+000	 2.4648386031e-001	 5.1418083932e-001
 4.5909741158e+000	 2.8802199177e-001	 5.1202234800e-001
 4.5881708558e+000	 3.2967893215e-001	 5.0780196413e-001
 4.5849781786e+000	 3.7144999921e-001	 5.0168165873e-001
 4.5813925796e+000	 4.1333041436e-001	 4.9384214181e-001
 4.6250000000e+000	 0.0000000000e+000	 4.8944544595e-001
 4.6248186762e+000	 4.0953778723e-002	 5.0015342885e-001
 4.6242720803e+000	 8.2053197938e-002	 5.0833635261e-001
 4.6233563085e+000	 1.2329414023e-001	 5.1405843451e-001
 4.6220675032e+000	 1.6467238911e-001	 5.1740060546e-001
 4.6204018560e+000	 2.0618362921e-001	 5.1846093758e-001
 4.6183556099e+000	 2.4782344651e-001	 5.1735505257e-001
 4.6159250621e+000	 2.8958732868e-001	 5.1421650934e-001
 4.6131065669e+000	 3.3147066547e-001	 5.0919716934e-001
 4.6098965382e+000	 3.7346874920e-001	 5.0246753784e-001
 4.6062914523e+000	 4.1557677530e-001	 4.9421707958e-001
 4.6500000000e+000	 0.0000000000e+000	 5.0112657647e-001
 4.6498176961e+000	 4.1175150499e-002	 5.0999085586e-001
 4.6492681456e+000	 8.2496728737e-002	 5.1645864308e-001
 4.6483474236e+000	 1.2396059504e-001	 5.2060126159e-001
 4.6470516519e+000	 1.6556251013e-001	 5.2250698041e-001
 4.6453770012e+000	 2.0729813531e-001	 5.2228144184e-001
 4.6433196943e+000	 2.4916303270e-001	 5.2004806963e-001
 4.6408760084e+000	 2.9115266559e-001	 5.1594845589e-001
 4.6380422781e+000	 3.3326239880e-001	 5.1014272516e-001
 4.6348148979e+000	 3.7548749920e-001	 5.0280987408e-001
 4.6311903250e+000	 4.1782313625e-001	 4.9414808478e-001
 4.6750000000e+000	 0.0000000000e+000	 5.1209081137e-001
 4.6748167160e+000	 4.1396522276e-002	 5.1916605578e-001
 4.6742642109e+000	 8.2940259537e-002	 5.2396734010e-001
 4.6733385388e+000	 1.2462704985e-001	 5.2657302180e-001
 4.6720358005e+000	 1.6645263115e-001	 5.2707864050e-001
 4.6703521463e+000	 2.0841264141e-001	 5.2559734594e-001
 4.6682837786e+000	 2.5050261890e-001	 5.2226030612e-001
 4.6658269547e+000	 2.9271800250e-001	 5.1721709366e-001
 4.6629779893e+000	 3.3505413212e-001	 5.1063604882e-001
 4.6597332576e+000	 3.7750624919e-001	 5.0270461762e-001
 4.6560891977e+000	 4.2006949719e-001	 4.9362966324e-001
 4.7000000000e+000	 0.0000000000e+000	 5.2234780008e-001
 4.6998157358e+000	 4.1617894052e-002	 5.2768709262e-001
 4.6992602762e+000	 8.3383790336e-002	 5.3086893680e-001
 4.6983296540e+000	 1.2529350466e-001	 5.3197865284e-001
 4.6970199492e+000	 1.6734275217e-001	 5.3111898420e-001
 4.6953272915e+000	 2.0952714752e-001	 5.2841052620e-001
 4.6932478630e+000	 2.5184220510e-001	 5.2399213418e-001
 4.6907779010e+000	 2.9428333941e-001	 5.1802130945e-001
 4.6879137004e+000	 3.3684586545e-001	 5.1067456150e-001
 4.6846516172e+000	 3.7952499918e-001	 5.0214774474e-001
 4.6809880705e+000	 4.2231585814e-001	 4.9265636796e-001
 4.7250000000e+000	 0.0000000000e+000	 5.3190698779e-001
 4.7248147557e+000	 4.1839265829e-002	 5.3556185545e-001
 4.7242563415e+000	 8.3827321135e-002	 5.3716977983e-001
 4.7233207692e+000	 1.2595995947e-001	 5.3682297336e-001
 4.7220040979e+000	 1.6823287319e-001	 5.3463131749e-001
 4.7203024367e+000	 2.1064165362e-001	 5.3072279206e-001
 4.7182119474e+000	 2.5318179129e-001	 5.2524388365e-001
 4.7157288472e+000	 2.9584867632e-001	 5.1835997135e-001
 4.7128494116e+000	 3.3863759877e-001	 5.1025568830e-001
 4.7095699769e+000	 3.8154374918e-001	 5.0113525713e-001
 4.7058869432e+000	 4.2456221908e-001	 4.9122279780e-001
 4.7500000000e+000	 0.0000000000e+000	 5.4077762084e-001
 4.7498137756e+000	 4.2060637605e-002	 5.4279806303e-001
 4.7492524068e+000	 8.4270851934e-002	 5.4287607317e-001
 4.7483118844e+000	 1.2662641428e-001	 5.4111068613e-001
 4.7469882465e+000	 1.6912299422e-001	 5.3761885632e-001
 4.7452775818e+000	 2.1175615972e-001	 5.3253588780e-001
 4.7431760318e+000	 2.5452137749e-001	 5.2601584317e-001
 4.7406797935e+000	 2.9741401323e-001	 5.1823192925e-001
 4.7377851228e+000	 3.4042933210e-001	 5.0937685805e-001
 4.7344883366e+000	 3.8356249917e-001	 4.9966318124e-001
 4.7307858159e+000	 4.2680858003e-001	 4.8932359632e-001
 4.4817970888e+000	 4.0434497057e-001	 4.8801467146e-001
 4.4779016925e+000	 4.4541714450e-001	 4.8109562455e-001
 4.4736152520e+000	 4.8658665973e-001	 4.7382593394e-001
 4.4689345369e+000	 5.2784856279e-001	 4.6644291755e-001
 4.4638563882e+000	 5.6919780892e-001	 4.5920194070e-001
 4.4583777210e+000	 6.1062926301e-001	 4.5237655258e-001
 4.4524955272e+000	 6.5213770062e-001	 4.5073322532e-001
 4.4462068779e+000	 6.9371780909e-001	 4.4806979642e-001
 4.4395089267e+000	 7.3536418877e-001	 4.4125314920e-001
 4.4323989115e+000	 7.7707135428e-001	 4.3042310281e-001
 4.4248741579e+000	 8.1883373586e-001	 4.1571683359e-001
 4.5066959615e+000	 4.0659133152e-001	 4.9010940914e-001
 4.5027789241e+000	 4.4789168419e-001	 4.8331670916e-001
 4.4984686700e+000	 4.8928991895e-001	 4.7626135711e-001
 4.4937619509e+000	 5.3078105481e-001	 4.6918509417e-001
 4.4886555903e+000	 5.7236001898e-001	 4.6234792328e-001
 4.4831464861e+000	 6.1402164781e-001	 4.5602824543e-001
 4.4772316134e+000	 6.5576068785e-001	 4.5489932905e-001
 4.4709080272e+000	 6.9757179692e-001	 4.5197743191e-001
 4.4641728651e+000	 7.3944954538e-001	 4.4517774325e-001
 4.4570233499e+000	 7.8138841736e-001	 4.3464022224e-001
 4.4494567921e+000	 8.2338281217e-001	 4.2050186220e-001
 4.5315948342e+000	 4.0883769246e-001	 4.9178268869e-001
 4.5276561557e+000	 4.5036622388e-001	 4.8503614606e-001
 4.5233220881e+000	 4.9199317817e-001	 4.7810972127e-001
 4.5185893650e+000	 5.3371354682e-001	 4.7124960001e-001
 4.5134547925e+000	 5.7552222903e-001	 4.6472045002e-001
 4.5079152512e+000	 6.1741403260e-001	 4.5880555725e-001
 4.5019676997e+000	 6.5938367507e-001	 4.5797489806e-001
 4.4956091766e+000	 7.0142578475e-001	 4.5475927327e-001
 4.4888368036e+000	 7.4353490198e-001	 4.4794079224e-001
 4.4816477883e+000	 7.8570548043e-001	 4.3765951313e-001
 4.4740394263e+000	 8.2793188848e-001	 4.2405220355e-001
 4.5564937069e+000	 4.1108405341e-001	 4.9302881407e-001
 4.5525333873e+000	 4.5284076358e-001	 4.8624803099e-001
 4.5481755061e+000	 4.9469643739e-001	 4.7936491982e-001
 4.5434167791e+000	 5.3664603884e-001	 4.7263013232e-001
 4.5382539946e+000	 5.7868443908e-001	 4.6631302859e-001
 4.5326840163e+000	 6.2080641740e-001	 4.6070181311e-001
 4.5267037859e+000	 6.6300666230e-001	 4.5997006958e-001
 4.5203103259e+000	 7.0527977258e-001	 4.5642672163e-001
 4.5135007421e+000	 7.4762025859e-001	 4.4955500951e-001
 4.5062722267e+000	 7.9002254351e-001	 4.3949504895e-001
 4.4986220605e+000	 8.3248096479e-001	 4.2638333876e-001
 4.5813925796e+000	 4.1333041436e-001	 4.9384214181e-001
 4.5774106189e+000	 4.5531530327e-001	 4.8694650628e-001
 4.5730289242e+000	 4.9739969661e-001	 4.8002088598e-001
 4.5682441932e+000	 5.3957853085e-001	 4.7332042071e-001
 4.5630531968e+000	 5.8184664912e-001	 4.6711919076e-001
 4.5574527815e+000	 6.2419880219e-001	 4.6171035319e-001
 4.5514398722e+000	 6.6662964952e-001	 4.6089498622e-001
 4.5450114752e+000	 7.0913376041e-001	 4.5699117302e-001
 4.5381646806e+000	 7.5170561519e-001	 4.5003309203e-001
 4.5308966650e+000	 7.9433960659e-001	 4.4016087477e-001
 4.5232046947e+000	 8.3703004110e-001	 4.2751070772e-001
 4.6062914523e+000	 4.1557677530e-001	 4.9421707958e-001
 4.6022878506e+000	 4.5778984296e-001	 4.8712575955e-001
 4.5978823423e+000	 5.0010295583e-001	 4.8007159173e-001
 4.5930716073e+000	 5.4251102287e-001	 4.7331422622e-001
 4.5878523989e+000	 5.8500885917e-001	 4.6713249180e-001
 4.5822215466e+000	 6.2759118699e-001	 4.6213075890e-001
 4.5761759585e+000	 6.7025263675e-001	 4.6075979584e-001
 4.5697126245e+000	 7.1298774823e-001	 4.5646401847e-001
 4.5628286191e+000	 7.5579097179e-001	 4.4938772084e-001
 4.5555211034e+000	 7.9865666967e-001	 4.3967100803e-001
 4.5477873289e+000	 8.4157911741e-001	 4.2744971023e-001
 4.6311903250e+000	 4.1782313625e-001	 4.9414808478e-001
 4.6271650822e+000	 4.6026438265e-001	 4.8678002249e-001
 4.6227357603e+000	 5.0280621505e-001	 4.7951104674e-001
 4.6178990214e+000	 5.4544351488e-001	 4.7260534055e-001
 4.6126516011e+000	 5.8817106922e-001	 4.6634650979e-001
 4.6069903117e+000	 6.3098357178e-001	 4.6164103016e-001
 4.6009120447e+000	 6.7387562397e-001	 4.5957465139e-001
 4.5944137738e+000	 7.1684173606e-001	 4.5485664420e-001
 4.5874925575e+000	 7.5987632840e-001	 4.4763156148e-001
 4.5801455418e+000	 8.0297373275e-001	 4.3803943926e-001
 4.5723699631e+000	 8.4612819372e-001	 4.2621570710e-001
 4.6560891977e+000	 4.2006949719e-001	 4.9362966324e-001
 4.6520423138e+000	 4.6273892234e-001	 4.8590356970e-001
 4.6475891784e+000	 5.0550947427e-001	 4.7833329740e-001
 4.6427264355e+000	 5.4837600689e-001	 4.7118758518e-001
 4.6374508033e+000	 5.9133327927e-001	 4.6475484501e-001
 4.6317590768e+000	 6.3437595657e-001	 4.6014033104e-001
 4.6256481310e+000	 6.7749861120e-001	 4.5734971080e-001
 4.6191149232e+000	 7.2069572389e-001	 4.5218043171e-001
 4.6121564960e+000	 7.6396168500e-001	 4.4477726436e-001
 4.6047699802e+000	 8.0729079583e-001	 4.3528013281e-001
 4.5969525973e+000	 8.5067727003e-001	 4.2382402114e-001
 4.6809880705e+000	 4.2231585814e-001	 4.9265636796e-001
 4.6769195454e+000	 4.6521346202e-001	 4.8449071755e-001
 4.6724425965e+000	 5.0821273349e-001	 4.7653242578e-001
 4.6675538496e+000	 5.5130849891e-001	 4.6905481062e-001
 4.6622500054e+000	 5.9449548931e-001	 4.6235111940e-001
 4.6565278419e+000	 6.3776834136e-001	 4.5763765518e-001
 4.6503842172e+000	 6.8112159842e-001	 4.5409513682e-001
 4.6438160725e+000	 7.2454971171e-001	 4.4844675791e-001
 4.6368204345e+000	 7.6804704160e-001	 4.4083746526e-001
 4.6293944186e+000	 8.1160785890e-001	 4.3140702756e-001
 4.6215352316e+000	 8.5522634634e-001	 4.2028993823e-001
 4.7058869432e+000	 4.2456221908e-001	 4.9122279780e-001
 4.7017967771e+000	 4.6768800171e-001	 4.8253582306e-001
 4.6972960145e+000	 5.1091599270e-001	 4.7410254877e-001
 4.6923812637e+000	 5.5424099092e-001	 4.6620089560e-001
 4.6870492076e+000	 5.9765769936e-001	 4.5912897594e-001
 4.6812966070e+000	 6.4116072615e-001	 4.5414200942e-001
 4.6751203035e+000	 6.8474458564e-001	 4.4982109692e-001
 4.6685172218e+000	 7.2840369954e-001	 4.4366699524e-001
 4.6614843730e+000	 7.7213239820e-001	 4.3582478560e-001
 4.6540188570e+000	 8.1592492198e-001	 4.2643403759e-001
 4.6461178658e+000	 8.5977542265e-001	 4.1562870826e-001
 4.7307858159e+000	 4.2680858003e-001	 4.8932359632e-001
 4.7266740087e+000	 4.7016254140e-001	 4.8003328284e-001
 4.7221494326e+000	 5.1361925192e-001	 4.7103781709e-001
 4.7172086778e+000	 5.5717348293e-001	 4.6261974638e-001
 4.7118484097e+000	 6.0081990940e-001	 4.5508207812e-001
 4.7060653722e+000	 6.4455311094e-001	 4.4966241349e-001
 4.6998563898e+000	 6.8836757286e-001	 4.4453776314e-001
 4.6932183711e+000	 7.3225768736e-001	 4.3785251179e-001
 4.6861483115e+000	 7.7621775480e-001	 4.2975183293e-001
 4.6786432954e+000	 8.2024198506e-001	 4.2037505281e-001
 4.6707005000e+000	 8.6432449896e-001	 4.0985554608e-001
 4.4248741579e+000	 8.1883373586e-001	 4.1571683359e-001
 4.4169320814e+000	 8.6064568090e-001	 3.9757485320e-001
 4.4085701903e+000	 9.0250145542e-001	 3.8280092835e-001
 4.3997860880e+000	 9.4439524573e-001	 3.7155035103e-001
 4.3905774756e+000	 9.8632116015e-001	 3.6396992511e-001
 4.3809421547e+000	 1.0282732308e+000	 3.6019783134e-001
 4.3708780297e+000	 1.0702454156e+000	 3.4745302558e-001
 4.3603831102e+000	 1.1122316001e+000	 3.1791074298e-001
 4.3494555137e+000	 1.1542255995e+000	 2.8989551422e-001
 4.3380934676e+000	 1.1962211613e+000	 2.6349110256e-001
 4.3262953119e+000	 1.2382119668e+000	 2.3877612735e-001
 4.4494567921e+000	 8.2338281217e-001	 4.2050186220e-001
 4.4414705930e+000	 8.6542704580e-001	 4.0230852822e-001
 4.4330622469e+000	 9.0751535240e-001	 3.8693864812e-001
 4.4242293440e+000	 9.4964188598e-001	 3.7454739503e-001
 4.4149695727e+000	 9.9180072215e-001	 3.6528184615e-001
 4.4052807222e+000	 1.0339858599e+000	 3.5928085827e-001
 4.3951606854e+000	 1.0761912235e+000	 3.5667496074e-001
 4.3846074608e+000	 1.1184106645e+000	 3.5758626608e-001
 4.3736191554e+000	 1.1606379640e+000	 3.5762526829e-001
 4.3621939868e+000	 1.2028668344e+000	 3.2791892820e-001
 4.3503302858e+000	 1.2450909222e+000	 2.9931903049e-001
 4.4740394263e+000	 8.2793188848e-001	 4.2405220355e-001
 4.4660091046e+000	 8.7020841069e-001	 4.0592368711e-001
 4.4575543036e+000	 9.1252924937e-001	 3.9008279748e-001
 4.4486726001e+000	 9.5488852624e-001	 3.7668455499e-001
 4.4393616698e+000	 9.9728028415e-001	 3.6587626941e-001
 4.4296192898e+000	 1.0396984889e+000	 3.5779742603e-001
 4.4194433411e+000	 1.0821370313e+000	 3.5257958899e-001
 4.4088318115e+000	 1.1245897290e+000	 3.5034632221e-001
 4.3977827972e+000	 1.1670503284e+000	 3.5121312843e-001
 4.3862945061e+000	 1.2095125075e+000	 3.5528740661e-001
 4.3743652598e+000	 1.2519698775e+000	 3.6006333337e-001
 4.4986220605e+000	 8.3248096479e-001	 4.2638333876e-001
 4.4905476161e+000	 8.7498977558e-001	 4.0843474680e-001
 4.4820463602e+000	 9.1754314634e-001	 3.9224662093e-001
 4.4731158561e+000	 9.6013516649e-001	 3.7797379401e-001
 4.4637537669e+000	 1.0027598461e+000	 3.6576376693e-001
 4.4539578573e+000	 1.0454111180e+000	 3.5575660520e-001
 4.4437259969e+000	 1.0880828392e+000	 3.4808485271e-001
 4.4330561621e+000	 1.1307687934e+000	 3.4287346288e-001
 4.4219464389e+000	 1.1734626929e+000	 3.4023974785e-001
 4.4103950254e+000	 1.2161581807e+000	 3.4029334581e-001
 4.3984002337e+000	 1.2588488329e+000	 3.4119988073e-001
 4.5232046947e+000	 8.3703004110e-001	 4.2751070772e-001
 4.5150861277e+000	 8.7977114048e-001	 4.0985612418e-001
 4.5065384168e+000	 9.2255704332e-001	 3.9344340678e-001
 4.4975591122e+000	 9.6538180674e-001	 3.7842716540e-001
 4.4881458639e+000	 1.0082394081e+000	 3.6495504988e-001
 4.4782964248e+000	 1.0511237471e+000	 3.5316765709e-001
 4.4680086526e+000	 1.0940286471e+000	 3.4319845495e-001
 4.4572805127e+000	 1.1369478578e+000	 3.3517372394e-001
 4.4461100807e+000	 1.1798750573e+000	 3.2921251632e-001
 4.4344955446e+000	 1.2228038538e+000	 3.2542663348e-001
 4.4224352077e+000	 1.2657277883e+000	 3.2070505638e-001
 4.5477873289e+000	 8.4157911741e-001	 4.2744971023e-001
 4.5396246393e+000	 8.8455250537e-001	 4.1020223616e-001
 4.5310304734e+000	 9.2757094029e-001	 3.9368648589e-001
 4.5220023682e+000	 9.7062844700e-001	 3.7805681016e-001
 4.5125379610e+000	 1.0137189701e+000	 3.6346096485e-001
 4.5026349923e+000	 1.0568363761e+000	 3.5004002860e-001
 4.4922913083e+000	 1.0999744549e+000	 3.3792833708e-001
 4.4815048633e+000	 1.1431269223e+000	 3.2725343479e-001
 4.4702737224e+000	 1.1862874218e+000	 3.1813604435e-001
 4.4585960639e+000	 1.2294495269e+000	 3.1069005383e-001
 4.4464701816e+000	 1.2726067437e+000	 3.0071721845e-001
 4.5723699631e+000	 8.4612819372e-001	 4.2621570710e-001
 4.5641631508e+000	 8.8933387026e-001	 4.0948749961e-001
 4.5555225300e+000	 9.3258483726e-001	 3.9298923061e-001
 4.5464456242e+000	 9.7587508725e-001	 3.7687495465e-001
 4.5369300581e+000	 1.0191985321e+000	 3.6129249015e-001
 4.5269735599e+000	 1.0625490052e+000	 3.4638334720e-001
 4.5165739640e+000	 1.1059202628e+000	 3.3228267236e-001
 4.5057292139e+000	 1.1493059867e+000	 3.1911921051e-001
 4.4944373641e+000	 1.1926997862e+000	 3.0701528435e-001
 4.4826965832e+000	 1.2360952000e+000	 2.9608679164e-001
 4.4705051556e+000	 1.2794856990e+000	 2.8123017275e-001
 4.5969525973e+000	 8.5067727003e-001	 4.2382402114e-001
 4.5887016624e+000	 8.9411523516e-001	 4.0772633142e-001
 4.5800145866e+000	 9.3759873424e-001	 3.9136505359e-001
 4.5708888803e+000	 9.8112172750e-001	 3.7489390836e-001
 4.5613221552e+000	 1.0246780942e+000	 3.5846073230e-001
 4.5513121274e+000	 1.0682616342e+000	 3.4220741615e-001
 4.5408566198e+000	 1.1118660707e+000	 3.2626985974e-001
 4.5299535645e+000	 1.1554850512e+000	 3.1077794420e-001
 4.5186010059e+000	 1.1991121506e+000	 2.9585552147e-001
 4.5067971024e+000	 1.2427408731e+000	 2.8162042154e-001
 4.4945401296e+000	 1.2863646544e+000	 2.6223817450e-001
 4.6215352316e+000	 8.5522634634e-001	 4.2028993823e-001
 4.6132401739e+000	 8.9889660005e-001	 4.0493314846e-001
 4.6045066432e+000	 9.4261263121e-001	 3.8882740678e-001
 4.5953321363e+000	 9.8636836776e-001	 3.7212606159e-001
 4.5857142523e+000	 1.0301576562e+000	 3.5497692267e-001
 4.5756506949e+000	 1.0739742633e+000	 3.3752220976e-001
 4.5651392755e+000	 1.1178118785e+000	 3.1989851788e-001
 4.5541779151e+000	 1.1616641156e+000	 3.0223679961e-001
 4.5427646476e+000	 1.2055245151e+000	 2.8466236478e-001
 4.5308976217e+000	 1.2493865463e+000	 2.6729489768e-001
 4.5185751035e+000	 1.2932436098e+000	 2.4373591630e-001
 4.6461178658e+000	 8.5977542265e-001	 4.1562870826e-001
 4.6377786855e+000	 9.0367796494e-001	 4.0112236757e-001
 4.6289986998e+000	 9.4762652819e-001	 3.8538978034e-001
 4.6197753924e+000	 9.9161500801e-001	 3.6858388343e-001
 4.6101063494e+000	 1.0356372182e+000	 3.5085241411e-001
 4.5999892625e+000	 1.0796868924e+000	 3.3233786895e-001
 4.5894219312e+000	 1.1237576864e+000	 3.1317747932e-001
 4.5784022658e+000	 1.1678431801e+000	 2.9350320395e-001
 4.5669282894e+000	 1.2119368795e+000	 2.7344173868e-001
 4.5549981410e+000	 1.2560322194e+000	 2.5237873862e-001
 4.5426100775e+000	 1.3001225651e+000	 2.2571851659e-001
 4.6707005000e+000	 8.6432449896e-001	 4.0985554608e-001
 4.6623171971e+000	 9.0845932984e-001	 3.9630840561e-001
 4.6534907565e+000	 9.5264042516e-001	 3.8106570164e-001
 4.6442186484e+000	 9.9686164827e-001	 3.6427991959e-001
 4.6344984465e+000	 1.0411167802e+000	 3.4609867781e-001
 4.6243278300e+000	 1.0853995214e+000	 3.2666469677e-001
 4.6137045869e+000	 1.1297034943e+000	 3.0611578485e-001
 4.6026266164e+000	 1.1740222445e+000	 2.8458484099e-001
 4.5910919311e+000	 1.2183492440e+000	 2.6219987461e-001
 4.5790986602e+000	 1.2626778925e+000	 2.3767909423e-001
 4.5666450514e+000	 1.3070015205e+000	 2.0818150845e-001
 4.3262953119e+000	 1.2382119668e+000	 2.3877612735e-001
 4.3140595013e+000	 1.2801916340e+000	 2.2240441369e-001
 4.3013846075e+000	 1.3221537197e+000	 2.0208796405e-001
 4.2882693215e+000	 1.3640917223e+000	 1.8126098788e-001
 4.2747124554e+000	 1.4059990840e+000	 1.6028113562e-001
 4.2607129448e+000	 1.4478691937e+000	 1.3952584336e-001
 4.2462698508e+000	 1.4896953899e+000	 1.1939213136e-001
 4.2313823616e+000	 1.5314709629e+000	 1.0029635475e-001
 4.2160497947e+000	 1.5731891585e+000	 8.2673905827e-002
 4.2002715988e+000	 1.6148431803e+000	 6.6978867409e-002
 4.1840473548e+000	 1.6564261930e+000	 5.3683616888e-002
 4.3503302858e+000	 1.2450909222e+000	 2.9931903049e-001
 4.3380264985e+000	 1.2873038097e+000	 2.7676246010e-001
 4.3252811887e+000	 1.3294990181e+000	 2.5199181313e-001
 4.3120930399e+000	 1.3716700096e+000	 2.2657021892e-001
 4.2984608579e+000	 1.4138101900e+000	 2.0086271847e-001
 4.2843835723e+000	 1.4559129115e+000	 1.7525458947e-001
 4.2698602388e+000	 1.4979714754e+000	 1.5015114187e-001
 4.2548900414e+000	 1.5399791349e+000	 1.2597746479e-001
 4.2394722936e+000	 1.5819290983e+000	 1.0317812415e-001
 4.2236064410e+000	 1.6238145313e+000	 8.2216810239e-002
 4.2072920623e+000	 1.6656285608e+000	 6.3575935126e-002
 4.3743652598e+000	 1.2519698775e+000	 3.6006333337e-001
 4.3619934957e+000	 1.2944159855e+000	 3.3195390979e-001
 4.3491777698e+000	 1.3368443166e+000	 3.0269745089e-001
 4.3359167584e+000	 1.3792482970e+000	 2.7264559332e-001
 4.3222092604e+000	 1.4216212960e+000	 2.4217082623e-001
 4.3080541997e+000	 1.4639566292e+000	 2.1166633284e-001
 4.2934506269e+000	 1.5062475609e+000	 1.8154578320e-001
 4.2783977212e+000	 1.5484873069e+000	 1.5224307733e-001
 4.2628947925e+000	 1.5906690380e+000	 1.2421203801e-001
 4.2469412832e+000	 1.6327858823e+000	 9.7926052708e-002
 4.2305367698e+000	 1.6748309285e+000	 7.3877664214e-002
 4.3984002337e+000	 1.2588488329e+000	 3.4119988073e-001
 4.3859604930e+000	 1.3015281612e+000	 3.5036607775e-001
 4.3730743510e+000	 1.3441896150e+000	 3.5418764989e-001
 4.3597404768e+000	 1.3868265843e+000	 3.1946930671e-001
 4.3459576629e+000	 1.4294324020e+000	 2.8418704947e-001
 4.3317248272e+000	 1.4720003470e+000	 2.4874203138e-001
 4.3170410149e+000	 1.5145236464e+000	 2.1355635356e-001
 4.3019054009e+000	 1.5569954790e+000	 1.7907280430e-001
 4.2863172913e+000	 1.5994089778e+000	 1.4575454716e-001
 4.2702761254e+000	 1.6417572333e+000	 1.1408475711e-001
 4.2537814774e+000	 1.6840332963e+000	 8.4566204379e-002
 4.4224352077e+000	 1.2657277883e+000	 3.2070505638e-001
 4.4099274902e+000	 1.3086403370e+000	 3.2478171849e-001
 4.3969709321e+000	 1.3515349135e+000	 3.3034423180e-001
 4.3835641953e+000	 1.3944048717e+000	 3.3724083427e-001
 4.3697060655e+000	 1.4372435081e+000	 3.2689348607e-001
 4.3553954547e+000	 1.4800440647e+000	 2.8646315506e-001
 4.3406314030e+000	 1.5227997319e+000	 2.4616366779e-001
 4.3254130807e+000	 1.5655036510e+000	 2.0644677882e-001
 4.3097397902e+000	 1.6081489176e+000	 1.6778507699e-001
 4.2936109676e+000	 1.6507285843e+000	 1.3067161570e-001
 4.2770261849e+000	 1.6932356640e+000	 9.5619490056e-002
 4.4464701816e+000	 1.2726067437e+000	 3.0071721845e-001
 4.4338944874e+000	 1.3157525127e+000	 2.9973907960e-001
 4.4208675133e+000	 1.3588802119e+000	 3.0041715030e-001
 4.4073879137e+000	 1.4019831590e+000	 3.0259634221e-001
 4.3934544680e+000	 1.4450546141e+000	 3.0610240630e-001
 4.3790660822e+000	 1.4880877825e+000	 3.1074209055e-001
 4.3642217911e+000	 1.5310758174e+000	 2.7934904341e-001
 4.3489207605e+000	 1.5740118230e+000	 2.3434564111e-001
 4.3331622890e+000	 1.6168888573e+000	 1.9028356427e-001
 4.3169458098e+000	 1.6596999353e+000	 1.4766583637e-001
 4.3002708924e+000	 1.7024380317e+000	 1.0701597544e-001
 4.4705051556e+000	 1.2794856990e+000	 2.8123017275e-001
 4.4578614846e+000	 1.3228646884e+000	 2.7523266014e-001
 4.4447640944e+000	 1.3662255104e+000	 2.7106432177e-001
 4.4312116322e+000	 1.4095614464e+000	 2.6856664797e-001
 4.4172028705e+000	 1.4528657201e+000	 2.6756157581e-001
 4.4027367096e+000	 1.4961315002e+000	 2.6785165001e-001
 4.3878121791e+000	 1.5393519029e+000	 2.6922023029e-001
 4.3724284403e+000	 1.5825199950e+000	 2.6275052482e-001
 4.3565847879e+000	 1.6256287971e+000	 2.1323044345e-001
 4.3402806520e+000	 1.6686712863e+000	 1.6504712877e-001
 4.3235155999e+000	 1.7116403995e+000	 1.1873462054e-001
 4.4945401296e+000	 1.2863646544e+000	 2.6223817450e-001
 4.4818284819e+000	 1.3299768642e+000	 2.5125741314e-001
 4.4686606756e+000	 1.3735708088e+000	 2.4228142212e-001
 4.4550353506e+000	 1.4171397337e+000	 2.3514817473e-001
 4.4409512731e+000	 1.4606768261e+000	 2.2967569323e-001
 4.4264073371e+000	 1.5041752179e+000	 2.2566221300e-001
 4.4114025672e+000	 1.5476279884e+000	 2.2288639406e-001
 4.3959361201e+000	 1.5910281670e+000	 2.2110758050e-001
 4.3800072868e+000	 1.6343687369e+000	 2.2006610799e-001
 4.3636154943e+000	 1.6776426373e+000	 1.8279569094e-001
 4.3467603075e+000	 1.7208427672e+000	 1.3075487760e-001
 4.5185751035e+000	 1.2932436098e+000	 2.4373591630e-001
 4.5057954791e+000	 1.3370890399e+000	 2.2780873357e-001
 4.4925572567e+000	 1.3809161073e+000	 2.1406457367e-001
 4.4788590691e+000	 1.4247180211e+000	 2.0233779645e-001
 4.4646996756e+000	 1.4684879322e+000	 1.9244240775e-001
 4.4500779646e+000	 1.5122189357e+000	 1.8417222686e-001
 4.4349929552e+000	 1.5559040739e+000	 1.7730110226e-001
 4.4194437999e+000	 1.5995363390e+000	 1.7158317606e-001
 4.4034297856e+000	 1.6431086766e+000	 1.6675319753e-001
 4.3869503365e+000	 1.6866139883e+000	 1.6252688583e-001
 4.3700050150e+000	 1.7300451349e+000	 1.4305667808e-001
 4.5426100775e+000	 1.3001225651e+000	 2.2571851659e-001
 4.5297624763e+000	 1.3442012157e+000	 2.0488244663e-001
 4.5164538379e+000	 1.3882614057e+000	 1.8641033328e-001
 4.5026827875e+000	 1.4322963084e+000	 1.7013282590e-001
 4.4884480781e+000	 1.4762990382e+000	 1.5585981159e-001
 4.4737485920e+000	 1.5202626534e+000	 1.4338058607e-001
 4.4585833433e+000	 1.5641801594e+000	 1.3246407364e-001
 4.4429514797e+000	 1.6080445111e+000	 1.2285909686e-001
 4.4268522845e+000	 1.6518486164e+000	 1.1429469611e-001
 4.4102851787e+000	 1.6955853393e+000	 1.0648049925e-001
 4.3932497225e+000	 1.7392475027e+000	 9.9107141408e-002
 4.5666450514e+000	 1.3070015205e+000	 2.0818150845e-001
 4.5537294736e+000	 1.3513133914e+000	 1.8247479645e-001
 4.5403504190e+000	 1.3956067041e+000	 1.5931568095e-001
 4.5265065060e+000	 1.4398745957e+000	 1.3853100312e-001
 4.5121964807e+000	 1.4841101442e+000	 1.1992642832e-001
 4.4974192195e+000	 1.5283063712e+000	 1.0328662044e-001
 4.4821737314e+000	 1.5724562449e+000	 8.8375466245e-002
 4.4664591594e+000	 1.6165526831e+000	 7.4936350320e-002
 4.4502747833e+000	 1.6605885562e+000	 6.2692480807e-002
 4.4336200209e+000	 1.7045566903e+000	 5.1347266164e-002
 4.4164944300e+000	 1.7484498704e+000	 4.0584742933e-002
 4.1840473548e+000	 1.6564261930e+000	 5.3683616888e-002
 4.1673767784e+000	 1.6979313258e+000	 3.7548184834e-002
 4.1502597210e+000	 1.7393516748e+000	 2.0559630187e-002
 4.1326961712e+000	 1.7806803072e+000	 3.3961720225e-003
 4.1146862567e+000	 1.8219102636e+000	-1.3242068903e-002
 4.0962302449e+000	 1.8630345624e+000	-2.8633804774e-002
 4.0773285445e+000	 1.9040462023e+000	-4.9517659448e-002
 4.0579817064e+000	 1.9449381662e+000	-7.1116133450e-002
 4.0381904250e+000	 1.9857034249e+000	-9.0307817772e-002
 4.0179555386e+000	 2.0263349401e+000	-1.0706014613e-001
 3.9972780307e+000	 2.0668256687e+000	-1.2134786116e-001
 4.2072920623e+000	 1.6656285608e+000	 6.3575935126e-002
 4.1905288716e+000	 1.7073642776e+000	 4.5338153484e-002
 4.1733167194e+000	 1.7490147397e+000	 2.6741259888e-002
 4.1556555944e+000	 1.7905729755e+000	 8.4567939387e-003
 4.1375456248e+000	 1.8320319873e+000	-8.8221114680e-003
 4.1189870796e+000	 1.8733847544e+000	-2.4381466351e-002
 4.0999803697e+000	 1.9146242367e+000	-4.6873592355e-002
 4.0805260492e+000	 1.9557433782e+000	-6.6759956296e-002
 4.0606248162e+000	 1.9967351106e+000	-8.3638165198e-002
 4.0402775138e+000	 2.0375923565e+000	-9.7501588692e-002
 4.0194851309e+000	 2.0783080336e+000	-1.0835174941e-001
 4.2305367698e+000	 1.6748309285e+000	 7.3877664214e-002
 4.2136809648e+000	 1.7167972294e+000	 5.3081968608e-002
 4.1963737179e+000	 1.7586778046e+000	 3.2411040520e-002
 4.1786150176e+000	 1.8004656439e+000	 1.2529994087e-002
 4.1604049929e+000	 1.8421537110e+000	-5.8747601317e-003
 4.1417439143e+000	 1.8837349464e+000	-2.4028456535e-002
 4.1226321950e+000	 1.9252022712e+000	-4.6218088010e-002
 4.1030703921e+000	 1.9665485903e+000	-6.4793403328e-002
 4.0830592075e+000	 2.0077667963e+000	-7.9764346295e-002
 4.0625994891e+000	 2.0488497728e+000	-9.1150161027e-002
 4.0416922311e+000	 2.0897903984e+000	-9.8979085749e-002
 4.2537814774e+000	 1.6840332963e+000	 8.4566204379e-002
 4.2368330580e+000	 1.7262301812e+000	 6.0762642602e-002
 4.2194307163e+000	 1.7683408694e+000	 3.7557685815e-002
 4.2015744408e+000	 1.8103583123e+000	 1.5610275216e-002
 4.1832643610e+000	 1.8522754347e+000	-4.3996369823e-003
 4.1645007490e+000	 1.8940851384e+000	-2.5622103981e-002
 4.1452840202e+000	 1.9357803056e+000	-4.7510104647e-002
 4.1256147349e+000	 1.9773538023e+000	-6.5167660391e-002
 4.1054935987e+000	 2.0187984819e+000	-7.8629669613e-002
 4.0849214643e+000	 2.0601071891e+000	-8.7941193140e-002
 4.0638993313e+000	 2.1012727632e+000	-9.3157124125e-002
 4.2770261849e+000	 1.6932356640e+000	 9.5619490056e-002
 4.2599851512e+000	 1.7356631330e+000	 6.8363587126e-002
 4.2424877148e+000	 1.7780039343e+000	 4.2170171277e-002
 4.2245338639e+000	 1.8202509806e+000	 1.7692261861e-002
 4.2061237291e+000	 1.8623971584e+000	-4.3963847536e-003
 4.1872575837e+000	 1.9044353304e+000	-2.8741869094e-002
 4.1679358455e+000	 1.9463583401e+000	-5.0708913151e-002
 4.1481590777e+000	 1.9881590143e+000	-6.7834375442e-002
 4.1279279900e+000	 2.0298301676e+000	-8.0178057509e-002
 4.1072434395e+000	 2.0713646055e+000	-8.7810782706e-002
 4.0861064314e+000	 2.1127551280e+000	-9.0814042149e-002
 4.3002708924e+000	 1.7024380317e+000	 1.0701597544e-001
 4.2831372445e+000	 1.7450960848e+000	 7.5868602308e-002
 4.2655447132e+000	 1.7876669991e+000	 4.6237727109e-002
 4.2474932871e+000	 1.8301436490e+000	 1.8770697053e-002
 4.2289830972e+000	 1.8725188821e+000	-5.8646662670e-003
 4.2100144184e+000	 1.9147855224e+000	-3.3354700514e-002
 4.1905876707e+000	 1.9569363745e+000	-5.5774088604e-002
 4.1707034205e+000	 1.9989642264e+000	-7.2745646059e-002
 4.1503623812e+000	 2.0408618533e+000	-8.4354029551e-002
 4.1295654147e+000	 2.0826220218e+000	-9.0695774324e-002
 4.1083135316e+000	 2.1242374928e+000	-9.1878916115e-002
 4.3235155999e+000	 1.7116403995e+000	 1.1873462054e-001
 4.3062893377e+000	 1.7545290366e+000	 8.3261866304e-002
 4.2886017116e+000	 1.7973300640e+000	 4.9749831364e-002
 4.2704527103e+000	 1.8400363174e+000	 1.8840439134e-002
 4.2518424653e+000	 1.8826406057e+000	-1.0044249184e-002
 4.2327712531e+000	 1.9251357145e+000	-3.9427703557e-002
 4.2132394960e+000	 1.9675144090e+000	-6.2665502111e-002
 4.1932477633e+000	 2.0097694384e+000	-7.9854007357e-002
 4.1727967725e+000	 2.0518935390e+000	-9.1102686473e-002
 4.1518873899e+000	 2.0938794381e+000	-9.6533739441e-002
 4.1305206318e+000	 2.1357198577e+000	-9.6281696851e-002
 4.3467603075e+000	 1.7208427672e+000	 1.3075487760e-001
 4.3294414309e+000	 1.7639619884e+000	 9.0527925189e-002
 4.3116587101e+000	 1.8069931288e+000	 5.2696203318e-002
 4.2934121334e+000	 1.8499289858e+000	 1.7896458672e-002
 4.2747018334e+000	 1.8927623294e+000	-1.5746632386e-002
 4.2555280878e+000	 1.9354859065e+000	-4.6928136023e-002
 4.2358913212e+000	 1.9780924434e+000	-7.1343312884e-002
 4.2157921061e+000	 2.0205746504e+000	-8.9112420283e-002
 4.1952311637e+000	 2.0629252247e+000	-1.0036969463e-001
 4.1742093651e+000	 2.1051368545e+000	-1.0526295691e-001
 4.1527277319e+000	 2.1472022225e+000	-1.0395318633e-001
 4.3700050150e+000	 1.7300451349e+000	 1.4305667808e-001
 4.3525935241e+000	 1.7733949402e+000	 9.7651683173e-002
 4.3347157085e+000	 1.8166561937e+000	 5.5066797058e-002
 4.3163715566e+000	 1.8598216541e+000	 1.5933835478e-002
 4.2975612015e+000	 1.9028840531e+000	-2.2496474601e-002
 4.2782849225e+000	 1.9458360985e+000	-5.5823404143e-002
 4.2585431465e+000	 1.9886704779e+000	-8.1767960576e-002
 4.2383364489e+000	 2.0313798625e+000	-1.0047426030e-001
 4.2176655550e+000	 2.0739569104e+000	-1.1210127095e-001
 4.1965313403e+000	 2.1163942708e+000	-1.1682239419e-001
 4.1749348321e+000	 2.1586845873e+000	-1.1482501504e-001
 4.3932497225e+000	 1.7392475027e+000	 9.9107141408e-002
 4.3757456173e+000	 1.7828278921e+000	 1.0239618613e-001
 4.3577727070e+000	 1.8263192586e+000	 5.6851795263e-002
 4.3393309798e+000	 1.8697143225e+000	 1.2947755716e-002
 4.3204205696e+000	 1.9130057768e+000	-3.0268065853e-002
 4.3010417572e+000	 1.9561862905e+000	-6.6081058654e-002
 4.2811949717e+000	 1.9992485124e+000	-9.3900157868e-002
 4.2608807917e+000	 2.0421850745e+000	-1.1389330641e-001
 4.2400999462e+000	 2.0849885961e+000	-1.2624416840e-001
 4.2188533156e+000	 2.1276516871e+000	-1.3115168912e-001
 4.1971419323e+000	 2.1701669521e+000	-1.2882962004e-001
 4.4164944300e+000	 1.7484498704e+000	 4.0584742933e-002
 4.3988977105e+000	 1.7922608439e+000	 4.0638217569e-002
 4.3808297054e+000	 1.8359823234e+000	 4.1560755443e-002
 4.3622904030e+000	 1.8796069909e+000	 8.3730738236e-003
 4.3432799376e+000	 1.9231275005e+000	-3.9035713720e-002
 4.3237985918e+000	 1.9665364825e+000	-7.7668790991e-002
 4.3038467969e+000	 2.0098265468e+000	-1.0770088328e-001
 4.2834251345e+000	 2.0529902865e+000	-1.2932373054e-001
 4.2625343375e+000	 2.0960202818e+000	-1.4274566181e-001
 4.2411752908e+000	 2.1389091034e+000	-1.4819113226e-001
 4.2193490324e+000	 2.1816493170e+000	-1.4590022380e-001
 3.9972780307e+000	 2.0668256687e+000	-1.2134786116e-001
 3.9761590304e+000	 2.1071685659e+000	-1.5739261462e-001
 3.9545998128e+000	 2.1473565890e+000	-1.8964629597e-001
 3.9326018000e+000	 2.1873827014e+000	-2.1828539229e-001
 3.9101665609e+000	 2.2272398761e+000	-2.4349544348e-001
 3.8872958119e+000	 2.2669210994e+000	-2.6547052357e-001
 3.8639914164e+000	 2.3064193751e+000	-2.8441270047e-001
 3.8402553857e+000	 2.3457277277e+000	-3.0053147541e-001
 3.8160898781e+000	 2.3848392068e+000	-3.1404320363e-001
 3.7914971990e+000	 2.4237468907e+000	-3.2517049758e-001
 3.7664798005e+000	 2.4624438902e+000	-3.3414161428e-001
 4.0194851309e+000	 2.0783080336e+000	-1.0835174941e-001
 3.9982488028e+000	 2.1188750579e+000	-1.4390800871e-001
 3.9765698118e+000	 2.1592863478e+000	-1.7613425515e-001
 3.9544495878e+000	 2.1995348275e+000	-2.0519288858e-001
 3.9318897085e+000	 2.2396134310e+000	-2.3125484011e-001
 3.9088918997e+000	 2.2795151055e+000	-2.5449905662e-001
 3.8854580354e+000	 2.3192328160e+000	-2.7511196453e-001
 3.8615901379e+000	 2.3587595484e+000	-2.9328691384e-001
 3.8372903774e+000	 2.3980883135e+000	-3.0922360407e-001
 3.8125610723e+000	 2.4372121512e+000	-3.2312749349e-001
 3.7874046883e+000	 2.4761241341e+000	-3.3520919311e-001
 4.0416922311e+000	 2.0897903984e+000	-9.8979085749e-002
 4.0203385752e+000	 2.1305815500e+000	-1.3363017036e-001
 3.9985398108e+000	 2.1712161067e+000	-1.6540532185e-001
 3.9762973756e+000	 2.2116869537e+000	-1.9445312229e-001
 3.9536128561e+000	 2.2519869858e+000	-2.2093016976e-001
 3.9304879876e+000	 2.2921091116e+000	-2.4500056596e-001
 3.9069246544e+000	 2.3320462570e+000	-2.6683538353e-001
 3.8829248900e+000	 2.3717913691e+000	-2.8661211448e-001
 3.8584908768e+000	 2.4113374202e+000	-3.0451410108e-001
 3.8336249456e+000	 2.4506774117e+000	-3.2072995071e-001
 3.8083295761e+000	 2.4898043779e+000	-3.3545293619e-001
 4.0638993313e+000	 2.1012727632e+000	-9.3157124125e-002
 4.0424283476e+000	 2.1422880420e+000	-1.2649192076e-001
 4.0205098097e+000	 2.1831458655e+000	-1.5739798928e-001
 3.9981451634e+000	 2.2238390798e+000	-1.8601036176e-001
 3.9753360036e+000	 2.2643605407e+000	-2.1247157742e-001
 3.9520840754e+000	 2.3047031177e+000	-2.3693117292e-001
 3.9283912734e+000	 2.3448596980e+000	-2.5954515306e-001
 3.9042596422e+000	 2.3848231898e+000	-2.8047544320e-001
 3.8796913761e+000	 2.4245865269e+000	-2.9988932480e-001
 3.8546888190e+000	 2.4641426722e+000	-3.1795885561e-001
 3.8292544638e+000	 2.5034846217e+000	-3.3595606791e-001
 4.0861064314e+000	 2.1127551280e+000	-9.0814042149e-002
 4.0645181200e+000	 2.1539945340e+000	-1.2242686417e-001
 4.0424798087e+000	 2.1950756243e+000	-1.5205139084e-001
 4.0199929511e+000	 2.2359912059e+000	-1.7980937053e-001
 3.9970591512e+000	 2.2767340956e+000	-2.0582955612e-001
 3.9736801633e+000	 2.3172971239e+000	-2.3024719769e-001
 3.9498578924e+000	 2.3576731389e+000	-2.5320351634e-001
 3.9255943943e+000	 2.3978550105e+000	-2.7484516028e-001
 3.9008918754e+000	 2.4378356336e+000	-2.9532364474e-001
 3.8757526923e+000	 2.4776079327e+000	-3.1479477711e-001
 3.8501793516e+000	 2.5171648656e+000	-3.3840970569e-001
 4.1083135316e+000	 2.1242374928e+000	-9.1878916115e-002
 4.0866078923e+000	 2.1657010260e+000	-1.2136936672e-001
 4.0644498076e+000	 2.2070053831e+000	-1.4930528285e-001
 4.0418407389e+000	 2.2481433320e+000	-1.7579539396e-001
 4.0187822988e+000	 2.2891076504e+000	-2.0095493751e-001
 3.9952762511e+000	 2.3298911300e+000	-2.2490515386e-001
 3.9713245114e+000	 2.3704865799e+000	-2.4777276285e-001
 3.9469291465e+000	 2.4108868312e+000	-2.6968942329e-001
 3.9220923747e+000	 2.4510847403e+000	-2.9079117685e-001
 3.8968165656e+000	 2.4910731932e+000	-3.1121787797e-001
 3.8711042394e+000	 2.5308451094e+000	-3.3938423052e-001
 4.1305206318e+000	 2.1357198577e+000	-9.6281696851e-002
 4.1086976647e+000	 2.1774075181e+000	-1.2325453595e-001
 4.0864198066e+000	 2.2189351420e+000	-1.4910002780e-001
 4.0636885267e+000	 2.2602954581e+000	-1.7391414625e-001
 4.0405054463e+000	 2.3014812053e+000	-1.9779888277e-001
 4.0168723389e+000	 2.3424851361e+000	-2.2086174330e-001
 3.9927911303e+000	 2.3833000209e+000	-2.4321522718e-001
 3.9682638986e+000	 2.4239186519e+000	-2.6497628984e-001
 3.9432928740e+000	 2.4643338470e+000	-2.8626579034e-001
 3.9178804389e+000	 2.5045384537e+000	-3.0831417291e-001
 3.8920291272e+000	 2.5445253532e+000	-3.3890727437e-001
 4.1527277319e+000	 2.1472022225e+000	-1.0395318633e-001
 4.1307874371e+000	 2.1891140101e+000	-1.2801820100e-001
 4.1083898056e+000	 2.2308649008e+000	-1.5137657812e-001
 4.0855363145e+000	 2.2724475842e+000	-1.7411179790e-001
 4.0622285939e+000	 2.3138547601e+000	-1.9631287381e-001
 4.0384684268e+000	 2.3550791422e+000	-2.1807385106e-001
 4.0142577493e+000	 2.3961134619e+000	-2.3949328776e-001
 3.9895986507e+000	 2.4369504726e+000	-2.6067372026e-001
 3.9644933734e+000	 2.4775829537e+000	-2.8172111425e-001
 3.9389443123e+000	 2.5180037142e+000	-3.0676859389e-001
 3.9129540150e+000	 2.5582055971e+000	-3.3700593838e-001
 4.1749348321e+000	 2.1586845873e+000	-1.1482501504e-001
 4.1528772095e+000	 2.2008205021e+000	-1.3559689339e-001
 4.1303598045e+000	 2.2427946596e+000	-1.5607646053e-001
 4.1073841022e+000	 2.2845997104e+000	-1.7633496361e-001
 4.0839517414e+000	 2.3262283150e+000	-1.9644870470e-001
 4.0600645146e+000	 2.3676731483e+000	-2.1649854057e-001
 4.0357243683e+000	 2.4089269028e+000	-2.3656936570e-001
 4.0109334029e+000	 2.4499822933e+000	-2.5674958019e-001
 3.9856938727e+000	 2.4908320604e+000	-2.7713054386e-001
 3.9600081856e+000	 2.5314689747e+000	-3.0423594858e-001
 3.9338789027e+000	 2.5718858409e+000	-3.3370680699e-001
 4.1971419323e+000	 2.1701669521e+000	-1.2882962004e-001
 4.1749669819e+000	 2.2125269942e+000	-1.4592782846e-001
 4.1523298035e+000	 2.2547244184e+000	-1.6314176081e-001
 4.1292318900e+000	 2.2967518365e+000	-1.8053069051e-001
 4.1056748890e+000	 2.3386018699e+000	-1.9815847346e-001
 4.0816606025e+000	 2.3802671544e+000	-2.1609304883e-001
 4.0571909873e+000	 2.4217403438e+000	-2.3440592369e-001
 4.0322681550e+000	 2.4630141140e+000	-2.5317164307e-001
 4.0068943720e+000	 2.5040811671e+000	-2.7321906070e-001
 3.9810720589e+000	 2.5449342352e+000	-3.0073627209e-001
 3.9548037905e+000	 2.5855660847e+000	-3.2903596157e-001
 4.2193490324e+000	 2.1816493170e+000	-1.4590022380e-001
 4.1970567543e+000	 2.2242334862e+000	-1.5894888737e-001
 4.1742998024e+000	 2.2666541773e+000	-1.7251510911e-001
 4.1510796778e+000	 2.3089039626e+000	-1.8664644678e-001
 4.1273980366e+000	 2.3509754247e+000	-2.0139457403e-001
 4.1032566903e+000	 2.3928611605e+000	-2.1681478193e-001
 4.0786576062e+000	 2.4345537848e+000	-2.3296546488e-001
 4.0536029072e+000	 2.4760459347e+000	-2.4990759258e-001
 4.0280948713e+000	 2.5173302738e+000	-2.7060570743e-001
 4.0021359322e+000	 2.5583994957e+000	-2.9628924458e-001
 3.9757286783e+000	 2.5992463286e+000	-3.2301899368e-001
 3.7664798005e+000	 2.4624438902e+000	-3.3414161428e-001
 3.7410402811e+000	 2.5009233526e+000	-3.2789859390e-001
 3.7151813848e+000	 2.5391784651e+000	-3.5851959722e-001
 3.6889060008e+000	 2.5772024595e+000	-3.8568256093e-001
 3.6622171622e+000	 2.6149886150e+000	-4.0926770911e-001
 3.6351180455e+000	 2.6525302629e+000	-4.2915464451e-001
 3.6076119692e+000	 2.6898207896e+000	-4.4522246240e-001
 3.5797023927e+000	 2.7268536410e+000	-4.5734987129e-001
 3.5513929153e+000	 2.7636223260e+000	-4.6541532065e-001
 3.5226872744e+000	 2.8001204200e+000	-4.6929713527e-001
 3.4935893441e+000	 2.8363415688e+000	-4.6887365624e-001
 3.7874046883e+000	 2.4761241341e+000	-3.3520919311e-001
 3.7618238382e+000	 2.5148173712e+000	-3.2328214516e-001
 3.7358212814e+000	 2.5532850122e+000	-3.3848058691e-001
 3.7093999231e+000	 2.5915202509e+000	-3.6811614485e-001
 3.6825628131e+000	 2.6295163296e+000	-3.9411460828e-001
 3.6553131458e+000	 2.6672665421e+000	-4.1635947051e-001
 3.6276542579e+000	 2.7047642384e+000	-4.3473370611e-001
 3.5995896282e+000	 2.7420028279e+000	-4.4911988714e-001
 3.5711228760e+000	 2.7789757834e+000	-4.5940030637e-001
 3.5422577593e+000	 2.8156766446e+000	-4.6545710733e-001
 3.5129981738e+000	 2.8520990220e+000	-4.6717242106e-001
 3.8083295761e+000	 2.4898043779e+000	-3.3545293619e-001
 3.7826073953e+000	 2.5287113898e+000	-3.3083786942e-001
 3.7564611780e+000	 2.5673915592e+000	-3.2684184895e-001
 3.7298938453e+000	 2.6058380424e+000	-3.4946289800e-001
 3.7029084640e+000	 2.6440440441e+000	-3.7799341244e-001
 3.6755082460e+000	 2.6820028213e+000	-4.0271610224e-001
 3.6476965466e+000	 2.7197076873e+000	-4.2351776144e-001
 3.6194768638e+000	 2.7571520148e+000	-4.4028476388e-001
 3.5908528366e+000	 2.7943292408e+000	-4.5290318202e-001
 3.5618282442e+000	 2.8312328691e+000	-4.6125891268e-001
 3.5324070035e+000	 2.8678564751e+000	-4.6523780961e-001
 3.8292544638e+000	 2.5034846217e+000	-3.3595606791e-001
 3.8033909524e+000	 2.5426054084e+000	-3.3694990303e-001
 3.7771010746e+000	 2.5814981062e+000	-3.3498318292e-001
 3.7503877675e+000	 2.6201558338e+000	-3.3028671760e-001
 3.7232541150e+000	 2.6585717586e+000	-3.6090397492e-001
 3.6957033463e+000	 2.6967391006e+000	-3.8822265659e-001
 3.6677388353e+000	 2.7346511361e+000	-4.1157101505e-001
 3.6393640993e+000	 2.7723012017e+000	-4.3083916496e-001
 3.6105827973e+000	 2.8096826981e+000	-4.4591689563e-001
 3.5813987290e+000	 2.8467890937e+000	-4.5669379253e-001
 3.5518158332e+000	 2.8836139283e+000	-4.6305936572e-001
 3.8501793516e+000	 2.5171648656e+000	-3.3840970569e-001
 3.8241745096e+000	 2.5564994271e+000	-3.4164500455e-001
 3.7977409712e+000	 2.5956046532e+000	-3.4179740414e-001
 3.7708816897e+000	 2.6344736253e+000	-3.3910768002e-001
 3.7435997659e+000	 2.6730994731e+000	-3.4284571730e-001
 3.7158984465e+000	 2.7114753798e+000	-3.7287685513e-001
 3.6877811240e+000	 2.7495945849e+000	-3.9888949482e-001
 3.6592513348e+000	 2.7874503886e+000	-4.2077743170e-001
 3.6303127579e+000	 2.8250361555e+000	-4.3843410989e-001
 3.6009692139e+000	 2.8623453183e+000	-4.5175273961e-001
 3.5712246628e+000	 2.8993713815e+000	-4.6062642155e-001
 3.8711042394e+000	 2.5308451094e+000	-3.3938423052e-001
 3.8449580667e+000	 2.5703934457e+000	-3.4494940689e-001
 3.8183808678e+000	 2.6097112003e+000	-3.4730878453e-001
 3.7913756120e+000	 2.6487914167e+000	-3.4671312898e-001
 3.7639454168e+000	 2.6876271877e+000	-3.4342173280e-001
 3.7360935468e+000	 2.7262116591e+000	-3.5667603479e-001
 3.7078234128e+000	 2.7645380338e+000	-3.8546887960e-001
 3.6791385703e+000	 2.8025995755e+000	-4.1009359207e-001
 3.6500427186e+000	 2.8403896129e+000	-4.3044720984e-001
 3.6205396987e+000	 2.8779015428e+000	-4.4642650479e-001
 3.5906334925e+000	 2.9151288346e+000	-4.5792810334e-001
 3.8920291272e+000	 2.5445253532e+000	-3.3890727437e-001
 3.8657416238e+000	 2.5842874643e+000	-3.4688883143e-001
 3.8390207644e+000	 2.6238177473e+000	-3.5154111860e-001
 3.8118695342e+000	 2.6631092081e+000	-3.5312491703e-001
 3.7842910677e+000	 2.7021549022e+000	-3.5190975113e-001
 3.7562886470e+000	 2.7409479383e+000	-3.4817338737e-001
 3.7278657015e+000	 2.7794814826e+000	-3.7130450854e-001
 3.6990258058e+000	 2.8177487624e+000	-3.9878136905e-001
 3.6697726792e+000	 2.8557430702e+000	-4.2194831040e-001
 3.6401101836e+000	 2.8934577674e+000	-4.4070560370e-001
 3.6100423222e+000	 2.9308862878e+000	-4.5495333691e-001
 3.9129540150e+000	 2.5582055971e+000	-3.3700593838e-001
 3.8865251809e+000	 2.5981814829e+000	-3.4748850172e-001
 3.8596606609e+000	 2.6379242943e+000	-3.5451773619e-001
 3.8323634564e+000	 2.6774269996e+000	-3.5836446540e-001
 3.8046367186e+000	 2.7166826167e+000	-3.5930847386e-001
 3.7764837473e+000	 2.7556842175e+000	-3.5763799162e-001
 3.7479079902e+000	 2.7944249314e+000	-3.5639139020e-001
 3.7189130413e+000	 2.8328979493e+000	-3.8683418886e-001
 3.6895026398e+000	 2.8710965276e+000	-4.1292926351e-001
 3.6596806685e+000	 2.9090139919e+000	-4.3458032290e-001
 3.6294511519e+000	 2.9466437410e+000	-4.5169085307e-001
 3.9338789027e+000	 2.5718858409e+000	-3.3370680699e-001
 3.9073087380e+000	 2.6120755016e+000	-3.4677315672e-001
 3.8803005575e+000	 2.6520308414e+000	-3.5626151481e-001
 3.8528573787e+000	 2.6917447910e+000	-3.6245277540e-001
 3.8249823695e+000	 2.7312103313e+000	-3.6563701262e-001
 3.7966788475e+000	 2.7704204968e+000	-3.6611295090e-001
 3.7679502789e+000	 2.8093683802e+000	-3.6418741341e-001
 3.7388002768e+000	 2.8480471362e+000	-3.7424518876e-001
 3.7092326005e+000	 2.8864499850e+000	-4.0338166520e-001
 3.6792511533e+000	 2.9245702165e+000	-4.2804072607e-001
 3.6488599816e+000	 2.9624011941e+000	-4.4812919273e-001
 3.9548037905e+000	 2.5855660847e+000	-3.2903596157e-001
 3.9280922951e+000	 2.6259695202e+000	-3.4476706362e-001
 3.9009404541e+000	 2.6661373884e+000	-3.5679489165e-001
 3.8733513009e+000	 2.7060625825e+000	-3.6541043963e-001
 3.8453280204e+000	 2.7457380458e+000	-3.7091410198e-001
 3.8168739478e+000	 2.7851567760e+000	-3.7361512961e-001
 3.7879925676e+000	 2.8243118291e+000	-3.7383106352e-001
 3.7586875124e+000	 2.8631963231e+000	-3.7188714715e-001
 3.7289625611e+000	 2.9018034423e+000	-3.9329686231e-001
 3.6988216382e+000	 2.9401264410e+000	-4.2107665984e-001
 3.6682688113e+000	 2.9781586473e+000	-4.4425671200e-001
 3.9757286783e+000	 2.5992463286e+000	-3.2301899368e-001
 3.9488758523e+000	 2.6398635388e+000	-3.4149403023e-001
 3.9215803507e+000	 2.6802439354e+000	-3.5613987515e-001
 3.8938452231e+000	 2.7203803739e+000	-3.6725765265e-001
 3.8656736713e+000	 2.7602657603e+000	-3.7515810939e-001
 3.8370690480e+000	 2.7998930552e+000	-3.8016105603e-001
 3.8080348563e+000	 2.8392552779e+000	-3.8259478600e-001
 3.7785747479e+000	 2.8783455100e+000	-3.8279547244e-001
 3.7486925218e+000	 2.9171568997e+000	-3.8266595906e-001
 3.7183921230e+000	 2.9556826656e+000	-4.1367775955e-001
 3.6876776410e+000	 2.9939161004e+000	-4.4006158703e-001
 3.4935893441e+000	 2.8363415688e+000	-4.6887365624e-001
 3.4641031334e+000	 2.8722794922e+000	-4.8818769026e-001
 3.4342327849e+000	 2.9079279873e+000	-5.0567723239e-001
 3.4039825722e+000	 2.9432809326e+000	-5.2109176757e-001
 3.3733568988e+000	 2.9783322907e+000	-5.3417854475e-001
 3.3423602950e+000	 3.0130761123e+000	-5.4468287935e-001
 3.3109974166e+000	 3.0475065394e+000	-5.5234846488e-001
 3.2792730419e+000	 3.0816178084e+000	-5.5691769317e-001
 3.2471920698e+000	 3.1154042534e+000	-5.5813198255e-001
 3.2147595170e+000	 3.1488603094e+000	-5.6300758700e-001
 3.1819805154e+000	 3.1819805154e+000	-5.7084194286e-001
 3.5129981738e+000	 2.8520990220e+000	-4.6717242106e-001
 3.4833481508e+000	 2.8882366005e+000	-4.8631439073e-001
 3.4533118559e+000	 2.9240831428e+000	-5.0346192886e-001
 3.4228935865e+000	 2.9596324933e+000	-5.1836577042e-001
 3.3920977704e+000	 2.9948785812e+000	-5.3077449054e-001
 3.3609289633e+000	 3.0298154240e+000	-5.4043480637e-001
 3.3293918467e+000	 3.0644371313e+000	-5.4709188817e-001
 3.2974912255e+000	 3.0987379073e+000	-5.5048967891e-001
 3.2652320257e+000	 3.1327120548e+000	-5.5202659377e-001
 3.2326192921e+000	 3.1663539778e+000	-5.5795431431e-001
 3.1996581849e+000	 3.1996581849e+000	-5.6439720670e-001
 3.5324070035e+000	 2.8678564751e+000	-4.6523780961e-001
 3.5025931682e+000	 2.9041937088e+000	-4.8429917946e-001
 3.4723909269e+000	 2.9402382983e+000	-5.0119839672e-001
 3.4418046008e+000	 2.9759840540e+000	-5.1568739204e-001
 3.4108386421e+000	 3.0114248717e+000	-5.2751600987e-001
 3.3794976316e+000	 3.0465547358e+000	-5.3643230983e-001
 3.3477862768e+000	 3.0813677232e+000	-5.4218287728e-001
 3.3157094090e+000	 3.1158580062e+000	-5.4451314249e-001
 3.2832719817e+000	 3.1500198562e+000	-5.4791466179e-001
 3.2504790672e+000	 3.1838476462e+000	-5.5264915067e-001
 3.2173358544e+000	 3.2173358544e+000	-5.5776166316e-001
 3.5518158332e+000	 2.8836139283e+000	-4.6305936572e-001
 3.5218381856e+000	 2.9201508170e+000	-4.8213047210e-001
 3.4914699980e+000	 2.9563934538e+000	-4.9887390965e-001
 3.4607156151e+000	 2.9923356148e+000	-5.1304275075e-001
 3.4295795138e+000	 3.0279711622e+000	-5.2438805278e-001
 3.3980662999e+000	 3.0632940475e+000	-5.3265915903e-001
 3.3661807068e+000	 3.0982983150e+000	-5.3760400886e-001
 3.3339275926e+000	 3.1329781052e+000	-5.3986364848e-001
 3.3013119376e+000	 3.1673276576e+000	-5.4350942786e-001
 3.2683388423e+000	 3.2013413146e+000	-5.4710936534e-001
 3.2350135239e+000	 3.2350135239e+000	-5.5095051854e-001
 3.5712246628e+000	 2.8993713815e+000	-4.6062642155e-001
 3.5410832031e+000	 2.9361079253e+000	-4.7979649741e-001
 3.5105490690e+000	 2.9725486093e+000	-4.9647557971e-001
 3.4796266294e+000	 3.0086871755e+000	-5.1041782906e-001
 3.4483203854e+000	 3.0445174527e+000	-5.2137545985e-001
 3.4166349682e+000	 3.0800333592e+000	-5.2909904073e-001
 3.3845751369e+000	 3.1152289069e+000	-5.3333780436e-001
 3.3521457762e+000	 3.1500982041e+000	-5.3611236037e-001
 3.3193518936e+000	 3.1846354590e+000	-5.3883019390e-001
 3.2861986174e+000	 3.2188349829e+000	-5.4135225744e-001
 3.2526911935e+000	 3.2526911935e+000	-5.4397903828e-001
 3.5906334925e+000	 2.9151288346e+000	-4.5792810334e-001
 3.5603282205e+000	 2.9520650336e+000	-4.7728530229e-001
 3.5296281400e+000	 2.9887037647e+000	-4.9399036169e-001
 3.4985376437e+000	 3.0250387362e+000	-5.0779847738e-001
 3.4670612571e+000	 3.0610637432e+000	-5.1846296523e-001
 3.4352036365e+000	 3.0967726710e+000	-5.2573556137e-001
 3.4029695670e+000	 3.1321594988e+000	-5.2955152367e-001
 3.3703639597e+000	 3.1672183030e+000	-5.3205185091e-001
 3.3373918495e+000	 3.2019432604e+000	-5.3389626282e-001
 3.3040583925e+000	 3.2363286513e+000	-5.3539515514e-001
 3.2703688630e+000	 3.2703688630e+000	-5.3686254532e-001
 3.6100423222e+000	 2.9308862878e+000	-4.5495333691e-001
 3.5795732379e+000	 2.9680221419e+000	-4.7458475666e-001
 3.5487072110e+000	 3.0048589202e+000	-4.9140505738e-001
 3.5174486580e+000	 3.0413902970e+000	-5.0517041752e-001
 3.4858021287e+000	 3.0776100337e+000	-5.1563519942e-001
 3.4537723048e+000	 3.1135119827e+000	-5.2255224921e-001
 3.4213639971e+000	 3.1490900907e+000	-5.2586081080e-001
 3.3885821433e+000	 3.1843384020e+000	-5.2770333983e-001
 3.3554318055e+000	 3.2192510618e+000	-5.2872693852e-001
 3.3219181675e+000	 3.2538223197e+000	-5.2925541486e-001
 3.2880465325e+000	 3.2880465325e+000	-5.2961641856e-001
 3.6294511519e+000	 2.9466437410e+000	-4.5169085307e-001
 3.5988182553e+000	 2.9839792502e+000	-4.7168255817e-001
 3.5677862821e+000	 3.0210140757e+000	-4.8870631959e-001
 3.5363596723e+000	 3.0577418577e+000	-5.0251924619e-001
 3.5045430004e+000	 3.0941563242e+000	-5.1287669210e-001
 3.4723409732e+000	 3.1302512944e+000	-5.1930284128e-001
 3.4397584272e+000	 3.1660206826e+000	-5.2185258502e-001
 3.4068003269e+000	 3.2014585009e+000	-5.2308802169e-001
 3.3734717614e+000	 3.2365588632e+000	-5.2334152586e-001
 3.3397779426e+000	 3.2713159881e+000	-5.2295042051e-001
 3.3057242021e+000	 3.3057242021e+000	-5.2225609136e-001
 3.6488599816e+000	 2.9624011941e+000	-4.4812919273e-001
 3.6180632727e+000	 2.9999363585e+000	-4.6856623685e-001
 3.5868653531e+000	 3.0371692312e+000	-4.8588065621e-001
 3.5552706866e+000	 3.0740934184e+000	-4.9983043827e-001
 3.5232838721e+000	 3.1107026147e+000	-5.1017187478e-001
 3.4909096415e+000	 3.1469906062e+000	-5.1538192694e-001
 3.4581528573e+000	 3.1829512745e+000	-5.1754984828e-001
 3.4250185104e+000	 3.2185785998e+000	-5.1822706654e-001
 3.3915117174e+000	 3.2538666646e+000	-5.1775933064e-001
 3.3576377177e+000	 3.2888096565e+000	-5.1649758281e-001
 3.3234018716e+000	 3.3234018716e+000	-5.1479705013e-001
 3.6682688113e+000	 2.9781586473e+000	-4.4425671200e-001
 3.6373082901e+000	 3.0158934668e+000	-4.6522315948e-001
 3.6059444241e+000	 3.0533243867e+000	-4.8291443394e-001
 3.5741817009e+000	 3.0904449792e+000	-4.9708935007e-001
 3.5420247437e+000	 3.1272489052e+000	-5.0728878348e-001
 3.5094783098e+000	 3.1637299179e+000	-5.1114223295e-001
 3.4765472874e+000	 3.1998818664e+000	-5.1297555436e-001
 3.4432366940e+000	 3.2356986988e+000	-5.1314162061e-001
 3.4095516733e+000	 3.2711744660e+000	-5.1199965953e-001
 3.3754974928e+000	 3.3063033249e+000	-5.0991433851e-001
 3.3410795411e+000	 3.3410795411e+000	-5.0725483287e-001
 3.6876776410e+000	 2.9939161004e+000	-4.4006158703e-001
 3.6565533075e+000	 3.0318505751e+000	-4.6164053392e-001
 3.6250234951e+000	 3.0694795422e+000	-4.7979388208e-001
 3.5930927152e+000	 3.1067965399e+000	-4.9428122245e-001
 3.5607656154e+000	 3.1437951957e+000	-5.0285403966e-001
 3.5280469781e+000	 3.1804692296e+000	-5.0660841691e-001
 3.4949417175e+000	 3.2168124582e+000	-5.0815261009e-001
 3.4614548776e+000	 3.2528187977e+000	-5.0785280687e-001
 3.4275916292e+000	 3.2884822674e+000	-5.0608182013e-001
 3.3933572679e+000	 3.3237969933e+000	-5.0321814976e-001
 3.3587572107e+000	 3.3587572106e+000	-4.9964502785e-001
 3.1819805154e+000	 3.1819805154e+000	-5.7084194286e-001
 3.1488603094e+000	 3.2147595170e+000	-5.7600766547e-001
 3.1154042534e+000	 3.2471920698e+000	-5.7517552874e-001
 3.0816178084e+000	 3.2792730419e+000	-5.6251439026e-001
 3.0475065394e+000	 3.3109974166e+000	-5.5241482055e-001
 3.0130761123e+000	 3.3423602950e+000	-5.4469918948e-001
 2.9783322907e+000	 3.3733568988e+000	-5.3919011330e-001
 2.9432809326e+000	 3.4039825722e+000	-5.3571066840e-001
 2.9079279873e+000	 3.4342327849e+000	-5.3408459889e-001
 2.8722794922e+000	 3.4641031334e+000	-5.3413651778e-001
 2.8363415688e+000	 3.4935893441e+000	-5.3569210129e-001
 3.1996581849e+000	 3.1996581849e+000	-5.6439720670e-001
 3.1663539778e+000	 3.2326192921e+000	-5.6913102802e-001
 3.1327120548e+000	 3.2652320257e+000	-5.7333885810e-001
 3.0987379073e+000	 3.2974912255e+000	-5.6454780246e-001
 3.0644371313e+000	 3.3293918467e+000	-5.5436367628e-001
 3.0298154240e+000	 3.3609289633e+000	-5.4670738021e-001
 2.9948785812e+000	 3.3920977704e+000	-5.4139528996e-001
 2.9596324933e+000	 3.4228935865e+000	-5.3824419298e-001
 2.9240831428e+000	 3.4533118559e+000	-5.3707150316e-001
 2.8882366005e+000	 3.4833481508e+000	-5.3769546903e-001
 2.8520990220e+000	 3.5129981738e+000	-5.3993537502e-001
 3.2173358544e+000	 3.2173358544e+000	-5.5776166316e-001
 3.1838476462e+000	 3.2504790672e+000	-5.6197843978e-001
 3.1500198562e+000	 3.2832719817e+000	-5.6577698069e-001
 3.1158580062e+000	 3.3157094090e+000	-5.6525978676e-001
 3.0813677232e+000	 3.3477862768e+000	-5.5494899099e-001
 3.0465547358e+000	 3.3794976316e+000	-5.4730830337e-001
 3.0114248717e+000	 3.4108386421e+000	-5.4214787352e-001
 2.9759840540e+000	 3.4418046008e+000	-5.3927821634e-001
 2.9402382983e+000	 3.4723909269e+000	-5.3851043380e-001
 2.9041937088e+000	 3.5025931682e+000	-5.3965643012e-001
 2.8678564751e+000	 3.5324070035e+000	-5.4252912002e-001
 3.2350135239e+000	 3.2350135239e+000	-5.5095051854e-001
 3.2013413146e+000	 3.2683388423e+000	-5.5456541929e-001
 3.1673276576e+000	 3.3013119376e+000	-5.5786797342e-001
 3.1329781052e+000	 3.3339275926e+000	-5.6118769508e-001
 3.0982983150e+000	 3.3661807068e+000	-5.5419230474e-001
 3.0632940475e+000	 3.3980662999e+000	-5.4652463596e-001
 3.0279711622e+000	 3.4295795138e+000	-5.4147168548e-001
 2.9923356148e+000	 3.4607156151e+000	-5.3883771148e-001
 2.9563934538e+000	 3.4914699980e+000	-5.3842752169e-001
 2.9201508170e+000	 3.5218381856e+000	-5.4004669562e-001
 2.8836139283e+000	 3.5518158332e+000	-5.4350179967e-001
 3.2526911935e+000	 3.2526911935e+000	-5.4397903828e-001
 3.2188349829e+000	 3.2861986174e+000	-5.4690752161e-001
 3.1846354590e+000	 3.3193518936e+000	-5.4962769264e-001
 3.1500982041e+000	 3.3521457762e+000	-5.5247455742e-001
 3.1152289069e+000	 3.3845751369e+000	-5.5211512370e-001
 3.0800333592e+000	 3.4166349682e+000	-5.4437899679e-001
 3.0445174527e+000	 3.4483203854e+000	-5.3939046448e-001
 3.0086871755e+000	 3.4796266294e+000	-5.3694754343e-001
 2.9725486093e+000	 3.5105490690e+000	-5.3684876425e-001
 2.9361079253e+000	 3.5410832031e+000	-5.3889340073e-001
 2.8993713815e+000	 3.5712246628e+000	-5.4288169184e-001
 3.2703688630e+000	 3.2703688630e+000	-5.3686254532e-001
 3.2363286513e+000	 3.3040583925e+000	-5.3902033735e-001
 3.2019432604e+000	 3.3373918495e+000	-5.4107200783e-001
 3.1672183030e+000	 3.3703639597e+000	-5.4335822592e-001
 3.1321594988e+000	 3.4029695670e+000	-5.4622056345e-001
 3.0967726710e+000	 3.4352036365e+000	-5.4089394809e-001
 3.0610637432e+000	 3.4670612571e+000	-5.3592786851e-001
 3.0250387362e+000	 3.4985376437e+000	-5.3363247212e-001
 2.9887037647e+000	 3.5296281400e+000	-5.3380002901e-001
 2.9520650336e+000	 3.5603282205e+000	-5.3622352564e-001
 2.9151288346e+000	 3.5906334925e+000	-5.4069689389e-001
 3.2880465325e+000	 3.2880465325e+000	-5.2961641856e-001
 3.2538223197e+000	 3.3219181675e+000	-5.3091949169e-001
 3.2192510618e+000	 3.3554318055e+000	-5.3221680124e-001
 3.1843384020e+000	 3.3885821433e+000	-5.3385485127e-001
 3.1490900907e+000	 3.4213639971e+000	-5.3618098636e-001
 3.1135119827e+000	 3.4537723048e+000	-5.3609199697e-001
 3.0776100337e+000	 3.4858021287e+000	-5.3110747703e-001
 3.0413902970e+000	 3.5174486580e+000	-5.2891715525e-001
 3.0048589202e+000	 3.5487072110e+000	-5.2930705712e-001
 2.9680221419e+000	 3.5795732379e+000	-5.3206389972e-001
 2.9308862878e+000	 3.6100423222e+000	-5.3697532752e-001
 3.3057242021e+000	 3.3057242021e+000	-5.2225609136e-001
 3.2713159881e+000	 3.3397779426e+000	-5.2262064347e-001
 3.2365588632e+000	 3.3734717614e+000	-5.2307796757e-001
 3.2014585009e+000	 3.4068003269e+000	-5.2398057496e-001
 3.1660206826e+000	 3.4397584272e+000	-5.2568175691e-001
 3.1302512944e+000	 3.4723409732e+000	-5.2853465369e-001
 3.0941563242e+000	 3.5045430004e+000	-5.2495279316e-001
 3.0577418577e+000	 3.5363596723e+000	-5.2282615097e-001
 3.0210140757e+000	 3.5677862821e+000	-5.2339546674e-001
 2.9839792502e+000	 3.5988182553e+000	-5.2644120546e-001
 2.9466437410e+000	 3.6294511519e+000	-5.3174474345e-001
 3.3234018716e+000	 3.3234018716e+000	-5.1479705013e-001
 3.2888096565e+000	 3.3576377177e+000	-5.1413948430e-001
 3.2538666646e+000	 3.3915117174e+000	-5.1367141360e-001
 3.2185785998e+000	 3.4250185104e+000	-5.1375152954e-001
 3.1829512745e+000	 3.4581528573e+000	-5.1473924455e-001
 3.1469906062e+000	 3.4909096415e+000	-5.1699374569e-001
 3.1107026147e+000	 3.5232838721e+000	-5.1748724564e-001
 3.0740934184e+000	 3.5552706866e+000	-5.1538392058e-001
 3.0371692312e+000	 3.5868653531e+000	-5.1609075628e-001
 2.9999363585e+000	 3.6180632727e+000	-5.1938198248e-001
 2.9624011941e+000	 3.6488599816e+000	-5.2503272600e-001
 3.3410795411e+000	 3.3410795411e+000	-5.0725483287e-001
 3.3063033249e+000	 3.3754974928e+000	-5.0549173769e-001
 3.2711744660e+000	 3.4095516733e+000	-5.0401305791e-001
 3.2356986988e+000	 3.4432366940e+000	-5.0318383885e-001
 3.1998818664e+000	 3.4765472874e+000	-5.0336978917e-001
 3.1637299179e+000	 3.5094783098e+000	-5.0493631909e-001
 3.1272489052e+000	 3.5420247437e+000	-5.0824757769e-001
 3.0904449792e+000	 3.5741817009e+000	-5.0661483103e-001
 3.0533243867e+000	 3.6059444241e+000	-5.0741830760e-001
 3.0158934668e+000	 3.6373082901e+000	-5.1091263125e-001
 2.9781586473e+000	 3.6682688113e+000	-5.1686669748e-001
 3.3587572107e+000	 3.3587572106e+000	-4.9964502785e-001
 3.3237969933e+000	 3.3933572679e+000	-4.9669315819e-001
 3.2884822674e+000	 3.4275916292e+000	-4.9411883056e-001
 3.2528187977e+000	 3.4614548776e+000	-4.9229361823e-001
 3.2168124582e+000	 3.4949417175e+000	-4.9158970184e-001
 3.1804692296e+000	 3.5280469781e+000	-4.9237889174e-001
 3.1437951957e+000	 3.5607656154e+000	-4.9503164942e-001
 3.1067965399e+000	 3.5930927152e+000	-4.9654315749e-001
 3.0694795422e+000	 3.6250234951e+000	-4.9740338905e-001
 3.0318505751e+000	 3.6565533075e+000	-5.0105941676e-001
 2.9939161004e+000	 3.6876776410e+000	-5.0727392243e-001
 2.8363415688e+000	 3.4935893441e+000	-5.3569210129e-001
 2.8001204200e+000	 3.5226872744e+000	-5.2894485041e-001
 2.7636223260e+000	 3.5513929153e+000	-5.2499327503e-001
 2.7268536410e+000	 3.5797023927e+000	-5.2365422072e-001
 2.6898207896e+000	 3.6076119692e+000	-5.2474480378e-001
 2.6525302629e+000	 3.6351180455e+000	-5.2808259047e-001
 2.6149886150e+000	 3.6622171622e+000	-5.3348576979e-001
 2.5772024595e+000	 3.6889060008e+000	-5.4077331989e-001
 2.5391784651e+000	 3.7151813848e+000	-5.4976516762e-001
 2.5009233526e+000	 3.7410402811e+000	-5.6028234147e-001
 2.4624438902e+000	 3.7664798005e+000	-5.1137469921e-001
 2.8520990220e+000	 3.5129981738e+000	-5.3993537502e-001
 2.8156766446e+000	 3.5422577593e+000	-5.3394720897e-001
 2.7789757834e+000	 3.5711228760e+000	-5.3081657562e-001
 2.7420028279e+000	 3.5995896282e+000	-5.3037298234e-001
 2.7047642384e+000	 3.6276542579e+000	-5.3244615382e-001
 2.6672665421e+000	 3.6553131458e+000	-5.3686619771e-001
 2.6295163296e+000	 3.6825628131e+000	-5.4346376393e-001
 2.5915202509e+000	 3.7093999231e+000	-5.5207019757e-001
 2.5532850122e+000	 3.7358212814e+000	-5.6251768524e-001
 2.5148173712e+000	 3.7618238382e+000	-5.5529138709e-001
 2.4761241341e+000	 3.7874046883e+000	-5.0627401391e-001
 2.8678564751e+000	 3.5324070035e+000	-5.4252912002e-001
 2.8312328691e+000	 3.5618282442e+000	-5.3757429089e-001
 2.7943292408e+000	 3.5908528366e+000	-5.3553766966e-001
 2.7571520148e+000	 3.6194768638e+000	-5.3626129541e-001
 2.7197076873e+000	 3.6476965466e+000	-5.3958737328e-001
 2.6820028213e+000	 3.6755082460e+000	-5.4535842662e-001
 2.6440440441e+000	 3.7029084640e+000	-5.5341744284e-001
 2.6058380424e+000	 3.7298938453e+000	-5.6360801306e-001
 2.5673915592e+000	 3.7564611780e+000	-5.6533462957e-001
 2.5287113898e+000	 3.7826073953e+000	-5.3673761540e-001
 2.4898043779e+000	 3.8083295761e+000	-5.0173751583e-001
 2.8836139283e+000	 3.5518158332e+000	-5.4350179967e-001
 2.8467890937e+000	 3.5813987290e+000	-5.3985036762e-001
 2.8096826981e+000	 3.6105827973e+000	-5.3917663593e-001
 2.7723012017e+000	 3.6393640993e+000	-5.4133504730e-001
 2.7346511361e+000	 3.6677388353e+000	-5.4618016140e-001
 2.6967391006e+000	 3.6957033463e+000	-5.5356679354e-001
 2.6585717586e+000	 3.7232541150e+000	-5.6335014727e-001
 2.6201558338e+000	 3.7503877675e+000	-5.7476984692e-001
 2.5814981062e+000	 3.7771010746e+000	-5.4604163608e-001
 2.5426054084e+000	 3.8033909524e+000	-5.1936346608e-001
 2.5034846217e+000	 3.8292544638e+000	-4.9497843110e-001
 2.8993713815e+000	 3.5712246628e+000	-5.4288169184e-001
 2.8623453183e+000	 3.6009692139e+000	-5.4079961521e-001
 2.8250361555e+000	 3.6303127579e+000	-5.4175354767e-001
 2.7874503886e+000	 3.6592513348e+000	-5.4561020946e-001
 2.7495945849e+000	 3.6877811240e+000	-5.5223639079e-001
 2.7114753798e+000	 3.7158984465e+000	-5.6149907717e-001
 2.6730994731e+000	 3.7435997659e+000	-5.7326556884e-001
 2.6344736253e+000	 3.7708816897e+000	-5.5447758029e-001
 2.5956046532e+000	 3.7977409712e+000	-5.2770047778e-001
 2.5564994271e+000	 3.8241745096e+000	-5.0315902001e-001
 2.5171648656e+000	 3.8501793516e+000	-4.8111619188e-001
 2.9151288346e+000	 3.5906334925e+000	-5.4069689389e-001
 2.8779015428e+000	 3.6205396987e+000	-5.4044611685e-001
 2.8403896129e+000	 3.6500427186e+000	-5.4328847273e-001
 2.8025995755e+000	 3.6791385703e+000	-5.4910283514e-001
 2.7645380338e+000	 3.7078234128e+000	-5.5776810274e-001
 2.7262116591e+000	 3.7360935468e+000	-5.6916331144e-001
 2.6876271877e+000	 3.7639454168e+000	-5.6165987374e-001
 2.6487914167e+000	 3.7913756120e+000	-5.3491815717e-001
 2.6097112003e+000	 3.8183808678e+000	-5.1030638234e-001
 2.5703934457e+000	 3.8449580667e+000	-4.8811495535e-001
 2.5308451094e+000	 3.8711042394e+000	-4.6862675998e-001
 2.9308862878e+000	 3.6100423222e+000	-5.3697532752e-001
 2.8934577674e+000	 3.6401101836e+000	-5.3881386536e-001
 2.8557430702e+000	 3.6697726792e+000	-5.4380147369e-001
 2.8177487624e+000	 3.6990258058e+000	-5.5182905717e-001
 2.7794814826e+000	 3.7278657015e+000	-5.6278750272e-001
 2.7409479383e+000	 3.7562886470e+000	-5.6712818852e-001
 2.7021549022e+000	 3.7842910677e+000	-5.4062206659e-001
 2.6631092081e+000	 3.8118695342e+000	-5.1609179307e-001
 2.6238177473e+000	 3.8390207644e+000	-4.9385507611e-001
 2.5842874643e+000	 3.8657416238e+000	-4.7422253140e-001
 2.5445253532e+000	 3.8920291272e+000	-4.5749695250e-001
 2.9466437410e+000	 3.6294511519e+000	-5.3174474345e-001
 2.9090139919e+000	 3.6596806685e+000	-5.3592676566e-001
 2.8710965276e+000	 3.6895026398e+000	-5.4331260805e-001
 2.8328979493e+000	 3.7189130413e+000	-5.5380508585e-001
 2.7944249314e+000	 3.7479079902e+000	-5.6730695592e-001
 2.7556842175e+000	 3.7764837473e+000	-5.4434248220e-001
 2.7166826167e+000	 3.8046367186e+000	-5.2011174636e-001
 2.6774269996e+000	 3.8323634564e+000	-4.9799910805e-001
 2.6379242943e+000	 3.8596606609e+000	-4.7834277077e-001
 2.5981814829e+000	 3.8865251809e+000	-4.6147357316e-001
 2.5582055971e+000	 3.9129540150e+000	-4.4771423198e-001
 2.9624011941e+000	 3.6488599816e+000	-5.2503272600e-001
 2.9245702165e+000	 3.6792511533e+000	-5.3180863705e-001
 2.8864499850e+000	 3.7092326005e+000	-5.4184192829e-001
 2.8480471362e+000	 3.7388002768e+000	-5.5504720689e-001
 2.8093683802e+000	 3.7679502789e+000	-5.4553348388e-001
 2.7704204968e+000	 3.7966788475e+000	-5.2188691375e-001
 2.7312103313e+000	 3.8249823695e+000	-5.0013427532e-001
 2.6917447910e+000	 3.8528573787e+000	-4.8064111601e-001
 2.6520308414e+000	 3.8803005575e+000	-4.6376615046e-001
 2.6120755016e+000	 3.9073087380e+000	-4.4986045620e-001
 2.5718858409e+000	 3.9338789027e+000	-4.3926668925e-001
 2.9781586473e+000	 3.6682688113e+000	-5.1686669748e-001
 2.9401264410e+000	 3.6988216382e+000	-5.2648321550e-001
 2.9018034423e+000	 3.7289625611e+000	-5.3940948209e-001
 2.8631963231e+000	 3.7586875124e+000	-5.4357218980e-001
 2.8243118291e+000	 3.7879925676e+000	-5.2086124364e-001
 2.7851567760e+000	 3.8168739478e+000	-4.9977143888e-001
 2.7457380458e+000	 3.8453280204e+000	-4.8069532214e-001
 2.7060625825e+000	 3.8733513009e+000	-4.6401921421e-001
 2.6661373884e+000	 3.9009404541e+000	-4.5012235923e-001
 2.6259695202e+000	 3.9280922951e+000	-4.3937609217e-001
 2.5855660847e+000	 3.9548037905e+000	-4.3214302680e-001
 2.9939161004e+000	 3.6876776410e+000	-5.0727392243e-001
 2.9556826656e+000	 3.7183921230e+000	-5.1997415584e-001
 2.9171568997e+000	 3.7486925218e+000	-5.3603531238e-001
 2.8783455100e+000	 3.7785747479e+000	-5.1640120704e-001
 2.8392552779e+000	 3.8080348563e+000	-4.9634420593e-001
 2.7998930552e+000	 3.8370690480e+000	-4.7800623639e-001
 2.7602657603e+000	 3.8656736713e+000	-4.6180085386e-001
 2.7203803739e+000	 3.8938452231e+000	-4.4813517322e-001
 2.6802439354e+000	 3.9215803507e+000	-4.3740898900e-001
 2.6398635388e+000	 3.9488758523e+000	-4.3001391462e-001
 2.5992463286e+000	 3.9757286783e+000	-4.2633254266e-001
 2.4624438902e+000	 3.7664798005e+000	-5.1137469921e-001
 2.4237468907e+000	 3.7914971990e+000	-4.7457770073e-001
 2.3848392068e+000	 3.8160898781e+000	-4.4238517292e-001
 2.3457277277e+000	 3.8402553857e+000	-4.1492774298e-001
 2.3064193751e+000	 3.8639914164e+000	-3.9233044238e-001
 2.2669210994e+000	 3.8872958119e+000	-3.7471222588e-001
 2.2272398761e+000	 3.9101665609e+000	-3.6218550259e-001
 2.1873827014e+000	 3.9326018000e+000	-3.5485568039e-001
 2.1473565890e+000	 3.9545998128e+000	-3.5282072497e-001
 2.1071685659e+000	 3.9761590304e+000	-3.5617073479e-001
 2.0668256687e+000	 3.9972780307e+000	-3.6498753302e-001
 2.4761241341e+000	 3.7874046883e+000	-5.0627401391e-001
 2.4372121512e+000	 3.8125610723e+000	-4.7289818341e-001
 2.3980883135e+000	 3.8372903774e+000	-4.4384509682e-001
 2.3587595484e+000	 3.8615901379e+000	-4.1922124329e-001
 2.3192328160e+000	 3.8854580354e+000	-3.9912804669e-001
 2.2795151055e+000	 3.9088918997e+000	-3.8366139814e-001
 2.2396134310e+000	 3.9318897085e+000	-3.7291119976e-001
 2.1995348275e+000	 3.9544495878e+000	-3.6696092090e-001
 2.1592863478e+000	 3.9765698118e+000	-3.6588716810e-001
 2.1188750579e+000	 3.9982488028e+000	-3.6975927015e-001
 2.0783080336e+000	 4.0194851309e+000	-3.7863887930e-001
 2.4898043779e+000	 3.8083295761e+000	-5.0173751583e-001
 2.4506774117e+000	 3.8336249456e+000	-4.7123695844e-001
 2.4113374202e+000	 3.8584908768e+000	-4.4478180783e-001
 2.3717913691e+000	 3.8829248900e+000	-4.2245474966e-001
 2.3320462570e+000	 3.9069246544e+000	-4.0433393059e-001
 2.2921091116e+000	 3.9304879876e+000	-3.9049250409e-001
 2.2519869858e+000	 3.9536128561e+000	-3.8099818639e-001
 2.2116869537e+000	 3.9762973756e+000	-3.7591282423e-001
 2.1712161067e+000	 3.9985398108e+000	-3.7529197547e-001
 2.1305815500e+000	 4.0203385752e+000	-3.7918450387e-001
 2.0897903984e+000	 4.0416922311e+000	-3.8763218925e-001
 2.5034846217e+000	 3.8292544638e+000	-4.9497843110e-001
 2.4641426722e+000	 3.8546888190e+000	-4.6961364056e-001
 2.4245865269e+000	 3.8796913761e+000	-4.4522270991e-001
 2.3848231898e+000	 3.9042596422e+000	-4.2466336080e-001
 2.3448596980e+000	 3.9283912734e+000	-4.0799079041e-001
 2.3047031177e+000	 3.9520840754e+000	-3.9525573776e-001
 2.2643605407e+000	 3.9753360036e+000	-3.8650405173e-001
 2.2238390798e+000	 3.9981451634e+000	-3.8177626987e-001
 2.1831458655e+000	 4.0205098097e+000	-3.8110720937e-001
 2.1422880420e+000	 4.0424283476e+000	-3.8452557123e-001
 2.1012727632e+000	 4.0638993313e+000	-3.9205355910e-001
 2.5171648656e+000	 3.8501793516e+000	-4.8111619188e-001
 2.4776079327e+000	 3.8757526923e+000	-4.6804835589e-001
 2.4378356336e+000	 3.9008918754e+000	-4.4519553101e-001
 2.3978550105e+000	 3.9255943943e+000	-4.2588231390e-001
 2.3576731389e+000	 3.9498578924e+000	-4.1014127719e-001
 2.3172971239e+000	 3.9736801633e+000	-3.9800106611e-001
 2.2767340956e+000	 3.9970591512e+000	-3.8948597817e-001
 2.2359912059e+000	 4.0199929511e+000	-3.8461555275e-001
 2.1950756243e+000	 4.0424798087e+000	-3.8340417197e-001
 2.1539945340e+000	 4.0645181200e+000	-3.8586067409e-001
 2.1127551280e+000	 4.0861064314e+000	-3.9198798061e-001
 2.5308451094e+000	 3.8711042394e+000	-4.6862675998e-001
 2.4910731932e+000	 3.8968165656e+000	-4.6656172813e-001
 2.4510847403e+000	 3.9220923747e+000	-4.4472831440e-001
 2.4108868312e+000	 3.9469291465e+000	-4.2614698083e-001
 2.3704865799e+000	 3.9713245114e+000	-4.1082799788e-001
 2.3298911300e+000	 3.9952762511e+000	-3.9877823514e-001
 2.2891076504e+000	 4.0187822988e+000	-3.9000075225e-001
 2.2481433320e+000	 4.0418407389e+000	-3.8449439901e-001
 2.2070053831e+000	 4.0644498076e+000	-3.8225342587e-001
 2.1657010260e+000	 4.0866078923e+000	-3.8326710612e-001
 2.1242374928e+000	 4.1083135316e+000	-3.8751937103e-001
 2.5445253532e+000	 3.8920291272e+000	-4.5749695250e-001
 2.5045384537e+000	 3.9178804389e+000	-4.6207634290e-001
 2.4643338470e+000	 3.9432928740e+000	-4.4384941011e-001
 2.4239186519e+000	 3.9682638986e+000	-4.2549286455e-001
 2.3833000209e+000	 3.9927911303e+000	-4.1009351658e-001
 2.3424851361e+000	 4.0168723389e+000	-3.9763677583e-001
 2.3014812053e+000	 4.0405054463e+000	-3.8810477523e-001
 2.2602954581e+000	 4.0636885267e+000	-3.8147598132e-001
 2.2189351420e+000	 4.0864198066e+000	-3.7772481399e-001
 2.1774075181e+000	 4.1086976647e+000	-3.7682127722e-001
 2.1357198577e+000	 4.1305206318e+000	-3.7873060191e-001
 2.5582055971e+000	 3.9129540150e+000	-4.4771423198e-001
 2.5180037142e+000	 3.9389443123e+000	-4.5209332056e-001
 2.4775829537e+000	 3.9644933734e+000	-4.4258746677e-001
 2.4369504726e+000	 3.9895986507e+000	-4.2395559557e-001
 2.3961134619e+000	 4.0142577493e+000	-4.0798035565e-001
 2.3550791422e+000	 4.0384684268e+000	-3.9462600991e-001
 2.3138547601e+000	 4.0622285939e+000	-3.8385407348e-001
 2.2724475842e+000	 4.0855363145e+000	-3.7562293367e-001
 2.2308649008e+000	 4.1083898056e+000	-3.6988747881e-001
 2.1891140101e+000	 4.1307874371e+000	-3.6659873715e-001
 2.1472022225e+000	 4.1527277319e+000	-3.6570352707e-001
 2.5718858409e+000	 3.9338789027e+000	-4.3926668925e-001
 2.5314689747e+000	 3.9600081856e+000	-4.4294415441e-001
 2.4908320604e+000	 3.9856938727e+000	-4.4097142366e-001
 2.4499822933e+000	 4.0109334029e+000	-4.2157092862e-001
 2.4089269028e+000	 4.0357243683e+000	-4.0453099681e-001
 2.3676731483e+000	 4.0600645146e+000	-3.8979505543e-001
 2.3262283150e+000	 4.0839517414e+000	-3.7730430837e-001
 2.2845997104e+000	 4.1073841022e+000	-3.6699736567e-001
 2.2427946596e+000	 4.1303598045e+000	-3.5880988100e-001
 2.2008205021e+000	 4.1528772095e+000	-3.5267419841e-001
 2.1586845873e+000	 4.1749348321e+000	-3.4851900970e-001
 2.5855660847e+000	 3.9548037905e+000	-4.3214302680e-001
 2.5449342352e+000	 3.9810720589e+000	-4.3462447241e-001
 2.5040811671e+000	 4.0068943720e+000	-4.3669231185e-001
 2.4630141140e+000	 4.0322681550e+000	-4.1837473929e-001
 2.4217403438e+000	 4.0571909873e+000	-3.9978788225e-001
 2.3802671544e+000	 4.0816606025e+000	-3.8319283210e-001
 2.3386018699e+000	 4.1056748890e+000	-3.6851078599e-001
 2.2967518365e+000	 4.1292318900e+000	-3.5566087648e-001
 2.2547244184e+000	 4.1523298035e+000	-3.4455981744e-001
 2.2125269942e+000	 4.1749669819e+000	-3.3512155838e-001
 2.1701669521e+000	 4.1971419323e+000	-3.2725694852e-001
 2.5992463286e+000	 3.9757286783e+000	-4.2633254266e-001
 2.5583994957e+000	 4.0021359322e+000	-4.2713033729e-001
 2.5173302738e+000	 4.0280948713e+000	-4.2727872014e-001
 2.4760459347e+000	 4.0536029072e+000	-4.1440302092e-001
 2.4345537848e+000	 4.0786576062e+000	-3.9379341563e-001
 2.3928611605e+000	 4.1032566903e+000	-3.7486806658e-001
 2.3509754247e+000	 4.1273980366e+000	-3.5752846645e-001
 2.3089039626e+000	 4.1510796778e+000	-3.4167456817e-001
 2.2666541773e+000	 4.1742998024e+000	-3.2720443872e-001
 2.2242334862e+000	 4.1970567543e+000	-3.1401392077e-001
 2.1816493170e+000	 4.2193490324e+000	-3.0199630323e-001
 2.0668256687e+000	 3.9972780307e+000	-3.6498753302e-001
 2.0263349401e+000	 4.0179555386e+000	-3.5434159719e-001
 1.9857034249e+000	 4.0381904250e+000	-3.4264692119e-001
 1.9449381662e+000	 4.0579817064e+000	-3.2975485689e-001
 1.9040462023e+000	 4.0773285445e+000	-3.1551548882e-001
 1.8630345624e+000	 4.0962302449e+000	-2.9582358358e-001
 1.8219102636e+000	 4.1146862567e+000	-2.6694807071e-001
 1.7806803072e+000	 4.1326961712e+000	-2.3908767647e-001
 1.7393516748e+000	 4.1502597210e+000	-2.1157705410e-001
 1.6979313258e+000	 4.1673767784e+000	-1.8376646970e-001
 1.6564261930e+000	 4.1840473548e+000	-1.5502278032e-001
 2.0783080336e+000	 4.0194851309e+000	-3.7863887930e-001
 2.0375923565e+000	 4.0402775138e+000	-3.6420155192e-001
 1.9967351106e+000	 4.0606248162e+000	-3.4946024354e-001
 1.9557433782e+000	 4.0805260492e+000	-3.3429916920e-001
 1.9146242367e+000	 4.0999803697e+000	-3.1860023050e-001
 1.8733847544e+000	 4.1189870796e+000	-3.0168439956e-001
 1.8320319873e+000	 4.1375456248e+000	-2.7187945200e-001
 1.7905729755e+000	 4.1556555944e+000	-2.4390023945e-001
 1.7490147397e+000	 4.1733167194e+000	-2.1709328586e-001
 1.7073642776e+000	 4.1905288716e+000	-1.9081995444e-001
 1.6656285608e+000	 4.2072920623e+000	-1.6445743278e-001
 2.0897903984e+000	 4.0416922311e+000	-3.8763218925e-001
 2.0488497728e+000	 4.0625994891e+000	-3.6998051557e-001
 2.0077667963e+000	 4.0830592075e+000	-3.5276201769e-001
 1.9665485903e+000	 4.1030703921e+000	-3.3589364308e-001
 1.9252022712e+000	 4.1226321950e+000	-3.1928898524e-001
 1.8837349464e+000	 4.1417439143e+000	-3.0285803104e-001
 1.8421537110e+000	 4.1604049929e+000	-2.7592087966e-001
 1.8004656439e+000	 4.1786150176e+000	-2.4847887321e-001
 1.7586778046e+000	 4.1963737179e+000	-2.2302170620e-001
 1.7167972294e+000	 4.2136809648e+000	-1.9892146664e-001
 1.6748309285e+000	 4.2305367698e+000	-1.7556531140e-001
 2.1012727632e+000	 4.0638993313e+000	-3.9205355910e-001
 2.0601071891e+000	 4.0849214643e+000	-3.7175397927e-001
 2.0187984819e+000	 4.1054935987e+000	-3.5261726109e-001
 1.9773538023e+000	 4.1256147349e+000	-3.3459295840e-001
 1.9357803056e+000	 4.1452840202e+000	-3.1762623596e-001
 1.8940851384e+000	 4.1645007490e+000	-3.0165758909e-001
 1.8522754347e+000	 4.1832643610e+000	-2.7902349097e-001
 1.8103583123e+000	 4.2015744408e+000	-2.5276727264e-001
 1.7683408694e+000	 4.2194307163e+000	-2.2929871997e-001
 1.7262301812e+000	 4.2368330580e+000	-2.0800027523e-001
 1.6840332963e+000	 4.2537814774e+000	-1.8826870480e-001
 2.1127551280e+000	 4.0861064314e+000	-3.9198798061e-001
 2.0713646055e+000	 4.1072434395e+000	-3.6959654052e-001
 2.0298301676e+000	 4.1279279900e+000	-3.4909030538e-001
 1.9881590143e+000	 4.1481590777e+000	-3.3045131398e-001
 1.9463583401e+000	 4.1679358455e+000	-3.1365618624e-001
 1.9044353304e+000	 4.1872575837e+000	-2.9867581508e-001
 1.8623971584e+000	 4.2061237291e+000	-2.8113853758e-001
 1.8202509806e+000	 4.2245338639e+000	-2.5670943889e-001
 1.7780039343e+000	 4.2424877148e+000	-2.3586122687e-001
 1.7356631330e+000	 4.2599851512e+000	-2.1798632903e-001
 1.6932356640e+000	 4.2770261849e+000	-2.0249076302e-001
 2.1242374928e+000	 4.1083135316e+000	-3.8751937103e-001
 2.0826220218e+000	 4.1295654147e+000	-3.6358192730e-001
 2.0408618533e+000	 4.1503623812e+000	-3.4224481487e-001
 1.9989642264e+000	 4.1707034205e+000	-3.2352244059e-001
 1.9569363745e+000	 4.1905876707e+000	-3.0742276781e-001
 1.9147855224e+000	 4.2100144184e+000	-2.9394698053e-001
 1.8725188821e+000	 4.2289830972e+000	-2.8221738244e-001
 1.8301436490e+000	 4.2474932871e+000	-2.6024967112e-001
 1.7876669991e+000	 4.2655447132e+000	-2.4264660799e-001
 1.7450960848e+000	 4.2831372445e+000	-2.2881023832e-001
 1.7024380317e+000	 4.3002708924e+000	-2.1815547419e-001
 2.1357198577e+000	 4.1305206318e+000	-3.7873060191e-001
 2.0938794381e+000	 4.1518873899e+000	-3.5378302149e-001
 2.0518935390e+000	 4.1727967725e+000	-3.3214380453e-001
 2.0097694384e+000	 4.1932477633e+000	-3.1385961350e-001
 1.9675144090e+000	 4.2132394960e+000	-2.9896964788e-001
 1.9251357145e+000	 4.2327712531e+000	-2.8750528042e-001
 1.8826406057e+000	 4.2518424653e+000	-2.7948971442e-001
 1.8400363174e+000	 4.2704527103e+000	-2.6333255848e-001
 1.7973300640e+000	 4.2886017116e+000	-2.4959271293e-001
 1.7545290366e+000	 4.3062893377e+000	-2.4040325710e-001
 1.7116403995e+000	 4.3235155999e+000	-2.3518764206e-001
 2.1472022225e+000	 4.1527277319e+000	-3.6570352707e-001
 2.1051368545e+000	 4.1742093651e+000	-3.4027188143e-001
 2.0629252247e+000	 4.1952311637e+000	-3.1884965731e-001
 2.0205746504e+000	 4.2157921061e+000	-3.0151566474e-001
 1.9780924434e+000	 4.2358913212e+000	-2.8834023624e-001
 1.9354859065e+000	 4.2555280878e+000	-2.7938483519e-001
 1.8927623294e+000	 4.2747018334e+000	-2.7470168696e-001
 1.8499289858e+000	 4.2934121334e+000	-2.6590297237e-001
 1.8069931288e+000	 4.3116587101e+000	-2.5663784724e-001
 1.7639619884e+000	 4.3294414309e+000	-2.5269726586e-001
 1.7208427672e+000	 4.3467603075e+000	-2.5351286414e-001
 2.1586845873e+000	 4.1749348321e+000	-3.4851900970e-001
 2.1163942708e+000	 4.1965313403e+000	-3.2311976389e-001
 2.0739569104e+000	 4.2176655550e+000	-3.0242414095e-001
 2.0313798625e+000	 4.2383364489e+000	-2.8654299478e-001
 1.9886704779e+000	 4.2585431465e+000	-2.7557769206e-001
 1.9458360985e+000	 4.2782849225e+000	-2.6961969273e-001
 1.9028840531e+000	 4.2975612015e+000	-2.6875015493e-001
 1.8598216541e+000	 4.3163715566e+000	-2.6790605892e-001
 1.8166561937e+000	 4.3347157085e+000	-2.6372076032e-001
 1.7733949402e+000	 4.3525935241e+000	-2.6562475494e-001
 1.7300451349e+000	 4.3700050150e+000	-2.7305751061e-001
 2.1701669521e+000	 4.1971419323e+000	-3.2725694852e-001
 2.1276516871e+000	 4.2188533156e+000	-3.0239714522e-001
 2.0849885961e+000	 4.2400999462e+000	-2.8292842431e-001
 2.0421850745e+000	 4.2608807917e+000	-2.6899358403e-001
 1.9992485124e+000	 4.2811949717e+000	-2.6072493055e-001
 1.9561862905e+000	 4.3010417572e+000	-2.5824383030e-001
 1.9130057768e+000	 4.3204205696e+000	-2.6166028882e-001
 1.8697143225e+000	 4.3393309798e+000	-2.6928723172e-001
 1.8263192586e+000	 4.3577727070e+000	-2.7078063365e-001
 1.7828278921e+000	 4.3757456173e+000	-2.7647258892e-001
 1.7392475027e+000	 4.3932497225e+000	-2.2601018654e-001
 2.1816493170e+000	 4.2193490324e+000	-3.0199630323e-001
 2.1389091034e+000	 4.2411752908e+000	-2.7817374192e-001
 2.0960202818e+000	 4.2625343375e+000	-2.6042309304e-001
 2.0529902865e+000	 4.2834251345e+000	-2.4891900388e-001
 2.0098265468e+000	 4.3038467969e+000	-2.4382462937e-001
 1.9665364825e+000	 4.3237985918e+000	-2.4529115640e-001
 1.9231275005e+000	 4.3432799376e+000	-2.5345735636e-001
 1.8796069909e+000	 4.3622904030e+000	-2.6844916664e-001
 1.8359823234e+000	 4.3808297054e+000	-2.5821159125e-001
 1.7922608439e+000	 4.3988977105e+000	-2.0890217502e-001
 1.7484498704e+000	 4.4164944300e+000	-1.6243162134e-001
 1.6564261930e+000	 4.1840473548e+000	-1.5502278032e-001
 1.6148431803e+000	 4.2002715988e+000	-1.2846144328e-001
 1.5731891585e+000	 4.2160497947e+000	-1.0594067303e-001
 1.5314709629e+000	 4.2313823616e+000	-8.6988165316e-002
 1.4896953899e+000	 4.2462698508e+000	-7.1144613745e-002
 1.4478691937e+000	 4.2607129448e+000	-5.7964433249e-002
 1.4059990840e+000	 4.2747124554e+000	-4.7016439055e-002
 1.3640917223e+000	 4.2882693215e+000	-3.7884480494e-002
 1.3221537197e+000	 4.3013846075e+000	-3.0168029068e-002
 1.2801916340e+000	 4.3140595013e+000	-2.3482720345e-002
 1.2382119668e+000	 4.3262953119e+000	-1.4240258621e-002
 1.6656285608e+000	 4.2072920623e+000	-1.6445743278e-001
 1.6238145313e+000	 4.2236064410e+000	-1.4354391930e-001
 1.5819290983e+000	 4.2394722936e+000	-1.2694708139e-001
 1.5399791349e+000	 4.2548900414e+000	-1.1418775245e-001
 1.4979714754e+000	 4.2698602388e+000	-1.0479974522e-001
 1.4559129115e+000	 4.2843835723e+000	-9.8330589731e-002
 1.4138101900e+000	 4.2984608579e+000	-9.4342226176e-002
 1.3716700096e+000	 4.3120930399e+000	-9.2411652162e-002
 1.3294990181e+000	 4.3252811887e+000	-9.2131523711e-002
 1.2873038097e+000	 4.3380264985e+000	-9.3110709545e-002
 1.2450909222e+000	 4.3503302858e+000	-9.3750436904e-002
 1.6748309285e+000	 4.2305367698e+000	-1.7556531140e-001
 1.6327858823e+000	 4.2469412832e+000	-1.6054756244e-001
 1.5906690380e+000	 4.2628947925e+000	-1.5011835911e-001
 1.5484873069e+000	 4.2783977212e+000	-1.4379146086e-001
 1.5062475609e+000	 4.2934506269e+000	-1.4109359457e-001
 1.4639566292e+000	 4.3080541997e+000	-1.4156520701e-001
 1.4216212960e+000	 4.3222092604e+000	-1.4476117189e-001
 1.3792482970e+000	 4.3359167584e+000	-1.5025145070e-001
 1.3368443166e+000	 4.3491777698e+000	-1.5762170678e-001
 1.2944159855e+000	 4.3619934957e+000	-1.6647387215e-001
 1.2519698775e+000	 4.3743652598e+000	-1.7642666678e-001
 1.6840332963e+000	 4.2537814774e+000	-1.8826870480e-001
 1.6417572333e+000	 4.2702761254e+000	-1.7939384250e-001
 1.5994089778e+000	 4.2863172913e+000	-1.7537519930e-001
 1.5569954790e+000	 4.3019054009e+000	-1.7571924857e-001
 1.5145236464e+000	 4.3170410149e+000	-1.7994542560e-001
 1.4720003470e+000	 4.3317248272e+000	-1.8758689494e-001
 1.4294324020e+000	 4.3459576629e+000	-1.9819127170e-001
 1.3868265843e+000	 4.3597404768e+000	-2.1132129617e-001
 1.3441896150e+000	 4.3730743510e+000	-2.2655546114e-001
 1.3015281612e+000	 4.3859604930e+000	-1.8969208789e-001
 1.2588488329e+000	 4.3984002337e+000	-1.4477056427e-001
 1.6932356640e+000	 4.2770261849e+000	-2.0249076302e-001
 1.6507285843e+000	 4.2936109676e+000	-2.0000513806e-001
 1.6081489176e+000	 4.3097397902e+000	-2.0263925021e-001
 1.5655036510e+000	 4.3254130807e+000	-2.0989207388e-001
 1.5227997319e+000	 4.3406314030e+000	-2.2127554646e-001
 1.4800440647e+000	 4.3553954547e+000	-2.3631535062e-001
 1.4372435081e+000	 4.3697060655e+000	-2.5455165005e-001
 1.3944048717e+000	 4.3835641953e+000	-2.3522554143e-001
 1.3515349135e+000	 4.3969709321e+000	-1.9313998736e-001
 1.3086403370e+000	 4.4099274902e+000	-1.5259505633e-001
 1.2657277883e+000	 4.4224352077e+000	-1.1355553498e-001
 1.7024380317e+000	 4.3002708924e+000	-2.1815547419e-001
 1.6596999353e+000	 4.3169458098e+000	-2.2230471197e-001
 1.6168888573e+000	 4.3331622890e+000	-2.3183308938e-001
 1.5740118230e+000	 4.3489207605e+000	-2.4623186839e-001
 1.5310758174e+000	 4.3642217911e+000	-2.6500528146e-001
 1.4880877825e+000	 4.3790660822e+000	-2.6948102729e-001
 1.4450546141e+000	 4.3934544680e+000	-2.2902329428e-001
 1.4019831590e+000	 4.4073879137e+000	-1.9047321249e-001
 1.3588802119e+000	 4.4208675133e+000	-1.5379222350e-001
 1.3157525127e+000	 4.4338944874e+000	-1.1894397381e-001
 1.2726067437e+000	 4.4464701816e+000	-8.5894355906e-002
 1.7116403995e+000	 4.3235155999e+000	-2.3518764206e-001
 1.6686712863e+000	 4.3402806520e+000	-2.4621668759e-001
 1.6256287971e+000	 4.3565847879e+000	-2.6288019873e-001
 1.5825199950e+000	 4.3724284403e+000	-2.8466151082e-001
 1.5393519029e+000	 4.3878121791e+000	-2.5546277997e-001
 1.4961315002e+000	 4.4027367096e+000	-2.1771857916e-001
 1.4528657201e+000	 4.4172028705e+000	-1.8220660999e-001
 1.4095614464e+000	 4.4312116322e+000	-1.4888789061e-001
 1.3662255104e+000	 4.4447640944e+000	-1.1772537206e-001
 1.3228646884e+000	 4.4578614846e+000	-8.8683988957e-002
 1.2794856990e+000	 4.4705051556e+000	-6.1730702973e-002
 1.7208427672e+000	 4.3467603075e+000	-2.5351286414e-001
 1.6776426373e+000	 4.3636154943e+000	-2.7166602575e-001
 1.6343687369e+000	 4.3800072868e+000	-2.7540932421e-001
 1.5910281670e+000	 4.3959361201e+000	-2.3730664037e-001
 1.5476279884e+000	 4.4114025672e+000	-2.0179598841e-001
 1.5041752179e+000	 4.4264073371e+000	-1.6883683519e-001
 1.4606768261e+000	 4.4409512731e+000	-1.3839023311e-001
 1.4171397337e+000	 4.4550353506e+000	-1.1041888718e-001
 1.3735708088e+000	 4.4686606756e+000	-8.4887214994e-002
 1.3299768642e+000	 4.4818284819e+000	-6.1761399605e-002
 1.2863646544e+000	 4.4945401296e+000	-4.1009435349e-002
 1.7300451349e+000	 4.3700050150e+000	-2.7305751061e-001
 1.6866139883e+000	 4.3869503365e+000	-2.5211343000e-001
 1.6431086766e+000	 4.4034297856e+000	-2.1546483781e-001
 1.5995363390e+000	 4.4194437999e+000	-1.8172089373e-001
 1.5559040739e+000	 4.4349929552e+000	-1.5084185700e-001
 1.5122189357e+000	 4.4500779646e+000	-1.2278927560e-001
 1.4684879322e+000	 4.4646996756e+000	-9.7526062124e-002
 1.4247180211e+000	 4.4788590691e+000	-7.5016562632e-002
 1.3809161073e+000	 4.4925572567e+000	-5.5226618639e-002
 1.3370890399e+000	 4.5057954791e+000	-3.8123622172e-002
 1.2932436098e+000	 4.5185751035e+000	-2.3676563970e-002
 1.7392475027e+000	 4.3932497225e+000	-2.2601018654e-001
 1.6955853393e+000	 4.4102851787e+000	-1.9036938355e-001
 1.6518486164e+000	 4.4268522845e+000	-1.5793897250e-001
 1.6080445111e+000	 4.4429514797e+000	-1.2868047633e-001
 1.5641801594e+000	 4.4585833433e+000	-1.0255640308e-001
 1.5202626534e+000	 4.4737485920e+000	-7.9530330078e-002
 1.4762990382e+000	 4.4884480781e+000	-5.9566981421e-002
 1.4322963084e+000	 4.5026827875e+000	-4.2632298703e-002
 1.3882614057e+000	 4.5164538379e+000	-2.8693504996e-002
 1.3442012157e+000	 4.5297624763e+000	-1.7719162095e-002
 1.3001225651e+000	 4.5426100775e+000	-9.6792210780e-003
 1.7484498704e+000	 4.4164944300e+000	-1.6243162134e-001
 1.7045566903e+000	 4.4336200209e+000	-1.3087574910e-001
 1.6605885562e+000	 4.4502747833e+000	-1.0279185892e-001
 1.6165526831e+000	 4.4664591594e+000	-7.8143885798e-002
 1.5724562449e+000	 4.4821737314e+000	-5.6896532017e-002
 1.5283063712e+000	 4.4974192195e+000	-3.9015352772e-002
 1.4841101442e+000	 4.5121964807e+000	-2.4466835318e-002
 1.4398745957e+000	 4.5265065060e+000	-1.3218471543e-002
 1.3956067041e+000	 4.5403504190e+000	-5.2388239630e-003
 1.3513133914e+000	 4.5537294736e+000	-4.9758516353e-004
 1.3070015205e+000	 4.5666450514e+000	 1.0343692924e-003
 1.2382119668e+000	 4.3262953119e+000	-1.4240258621e-002
 1.1962211613e+000	 4.3380934676e+000	-1.1474827375e-002
 1.1542255995e+000	 4.3494555137e+000	-1.4405366544e-002
 1.1122316001e+000	 4.3603831102e+000	-2.2210195280e-002
 1.0702454156e+000	 4.3708780297e+000	-3.4113855399e-002
 1.0282732308e+000	 4.3809421547e+000	-1.9113533152e-002
 9.8632116015e-001	 4.3905774756e+000	 1.1449122489e-002
 9.4439524573e-001	 4.3997860880e+000	 3.6618173082e-002
 9.0250145542e-001	 4.4085701903e+000	 5.6501272854e-002
 8.6064568090e-001	 4.4169320814e+000	 7.1201180992e-002
 8.1883373586e-001	 4.4248741579e+000	 8.0815984622e-002
 1.2450909222e+000	 4.3503302858e+000	-9.3750436904e-002
 1.2028668344e+000	 4.3621939868e+000	-1.0016310155e-001
 1.1606379640e+000	 4.3736191554e+000	-1.1140131464e-001
 1.1184106645e+000	 4.3846074608e+000	-7.7243961576e-002
 1.0761912235e+000	 4.3951606854e+000	-4.1167443866e-002
 1.0339858599e+000	 4.4052807222e+000	-1.0087883202e-002
 9.9180072215e-001	 4.4149695727e+000	 1.6125004632e-002
 9.4964188598e-001	 4.4242293440e+000	 3.7595283870e-002
 9.0751535240e-001	 4.4330622469e+000	 5.4441018252e-002
 8.6542704580e-001	 4.4414705930e+000	 6.6774498338e-002
 8.2338281217e-001	 4.4494567921e+000	 7.4702475654e-002
 1.2519698775e+000	 4.3743652598e+000	-1.7642666678e-001
 1.2095125075e+000	 4.3862945061e+000	-1.3513874176e-001
 1.1670503284e+000	 4.3977827972e+000	-9.5091228934e-002
 1.1245897290e+000	 4.4088318115e+000	-5.9725400189e-002
 1.0821370313e+000	 4.4194433411e+000	-2.8884039220e-002
 1.0396984889e+000	 4.4296192898e+000	-2.4174712645e-003
 9.9728028415e-001	 4.4393616698e+000	 1.9816644963e-002
 9.5488852624e-001	 4.4486726001e+000	 3.7953536272e-002
 9.1252924937e-001	 4.4575543036e+000	 5.2121543859e-002
 8.7020841069e-001	 4.4660091046e+000	 6.2442360971e-002
 8.2793188848e-001	 4.4740394263e+000	 6.9031278326e-002
 1.2588488329e+000	 4.3984002337e+000	-1.4477056427e-001
 1.2161581807e+000	 4.4103950254e+000	-1.0820218824e-001
 1.1734626929e+000	 4.4219464389e+000	-7.4207586239e-002
 1.1307687934e+000	 4.4330561621e+000	-4.4304247451e-002
 1.0880828392e+000	 4.4437259969e+000	-1.8321228898e-002
 1.0454111180e+000	 4.4539578573e+000	 3.9039634927e-003
 1.0027598461e+000	 4.4637537669e+000	 2.2525590387e-002
 9.6013516649e-001	 4.4731158561e+000	 3.7689906529e-002
 9.1754314634e-001	 4.4820463602e+000	 4.9535399095e-002
 8.7498977558e-001	 4.4905476161e+000	 5.8193035820e-002
 8.3248096479e-001	 4.4986220605e+000	 6.3786521787e-002
 1.2657277883e+000	 4.4224352077e+000	-1.1355553498e-001
 1.2228038538e+000	 4.4344955446e+000	-8.4106316070e-002
 1.1798750573e+000	 4.4461100807e+000	-5.5782990295e-002
 1.1369478578e+000	 4.4572805127e+000	-3.0965282648e-002
 1.0940286471e+000	 4.4680086526e+000	-9.4686659499e-003
 1.0511237471e+000	 4.4782964248e+000	 8.8820334200e-003
 1.0082394081e+000	 4.4881458639e+000	 2.4252858574e-002
 9.6538180674e-001	 4.4975591122e+000	 3.6800958204e-002
 9.2255704332e-001	 4.5065384168e+000	 4.6674834548e-002
 8.7977114048e-001	 4.5150861277e+000	 5.4014602078e-002
 8.3703004110e-001	 4.5232046947e+000	 5.8952255779e-002
 1.2726067437e+000	 4.4464701816e+000	-8.5894355906e-002
 1.2294495269e+000	 4.4585960639e+000	-6.2826863714e-002
 1.1862874218e+000	 4.4702737224e+000	-3.9798202776e-002
 1.1431269223e+000	 4.4815048633e+000	-1.9694155817e-002
 1.0999744549e+000	 4.4922913083e+000	-2.3167529990e-003
 1.0568363761e+000	 4.5026349923e+000	 1.2521719911e-002
 1.0137189701e+000	 4.5125379610e+000	 2.4998952262e-002
 9.7062844700e-001	 4.5220023682e+000	 3.5282853338e-002
 9.2757094029e-001	 4.5310304734e+000	 4.3531810041e-002
 8.8455250537e-001	 4.5396246393e+000	 4.9894956271e-002
 8.4157911741e-001	 4.5477873289e+000	 5.4512452787e-002
 1.2794856990e+000	 4.4705051556e+000	-6.1730702973e-002
 1.2360952000e+000	 4.4826965832e+000	-4.4340660177e-002
 1.1926997862e+000	 4.4944373641e+000	-2.6234953084e-002
 1.1493059867e+000	 4.5057292139e+000	-1.0477364342e-002
 1.1059202628e+000	 4.5165739640e+000	 3.1433779066e-003
 1.0625490052e+000	 4.5269735599e+000	 1.4827390362e-002
 1.0191985321e+000	 4.5369300581e+000	 2.4763873103e-002
 9.7587508725e-001	 4.5464456242e+000	 3.3131363241e-002
 9.3258483726e-001	 4.5555225300e+000	 4.0098002459e-002
 8.8933387026e-001	 4.5641631508e+000	 4.5821817176e-002
 8.4612819372e-001	 4.5723699631e+000	 5.0451010114e-002
 1.2863646544e+000	 4.4945401296e+000	-4.1009435349e-002
 1.2427408731e+000	 4.5067971024e+000	-2.8625595844e-002
 1.1991121506e+000	 4.5186010059e+000	-1.5075912475e-002
 1.1554850512e+000	 4.5299535645e+000	-3.3022302923e-003
 1.1118660707e+000	 4.5408566198e+000	 6.9198847988e-003
 1.0682616342e+000	 4.5513121274e+000	 1.5802814595e-002
 1.0246780942e+000	 4.5613221552e+000	 2.3547135057e-002
 9.8112172750e-001	 4.5708888803e+000	 3.0341878944e-002
 9.3759873424e-001	 4.5800145866e+000	 3.6364813306e-002
 8.9411523516e-001	 4.5887016624e+000	 4.1782730565e-002
 8.5067727003e-001	 4.5969525973e+000	 4.6751751890e-002
 1.2932436098e+000	 4.5185751035e+000	-2.3676563970e-002
 1.2493865463e+000	 4.5308976217e+000	-1.5660594252e-002
 1.2055245151e+000	 4.5427646476e+000	-6.3046690090e-003
 1.1616641156e+000	 4.5541779151e+000	 1.8431215038e-003
 1.1178118785e+000	 4.5651392755e+000	 9.0202346692e-003
 1.0739742633e+000	 4.5756506949e+000	 1.5451180741e-002
 1.0301576562e+000	 4.5857142523e+000	 2.1347777365e-002
 9.8636836776e-001	 4.5953321363e+000	 2.6909421307e-002
 9.4261263121e-001	 4.6045066432e+000	 3.2323376032e-002
 8.9889660005e-001	 4.6132401739e+000	 3.7765073811e-002
 8.5522634634e-001	 4.6215352316e+000	 4.3398431020e-002
 1.3001225651e+000	 4.5426100775e+000	-9.6792210780e-003
 1.2560322194e+000	 4.5549981410e+000	-5.2377323572e-003
 1.2119368795e+000	 4.5669282894e+000	 9.4296706610e-005
 1.1678431801e+000	 4.5784022658e+000	 4.9697847015e-003
 1.1237576864e+000	 4.5894219312e+000	 9.4512217514e-003
 1.0796868924e+000	 4.5999892625e+000	 1.3775110638e-002
 1.0356372182e+000	 4.6101063494e+000	 1.8164377107e-002
 9.9161500801e-001	 4.6197753924e+000	 2.2828650816e-002
 9.4762652819e-001	 4.6289986998e+000	 2.7964563125e-002
 9.0367796494e-001	 4.6377786855e+000	 3.3756060344e-002
 8.5977542265e-001	 4.6461178658e+000	 4.0374731069e-002
 1.3070015205e+000	 4.5666450514e+000	 1.0343692924e-003
 1.2626778925e+000	 4.5790986602e+000	 2.2499112035e-003
 1.2183492440e+000	 4.5910919311e+000	 4.1356350019e-003
 1.1740222445e+000	 4.6026266164e+000	 6.0880920035e-003
 1.1297034943e+000	 4.6137045869e+000	 8.2189852249e-003
 1.0853995214e+000	 4.6243278300e+000	 1.0776674728e-002
 1.0411167802e+000	 4.6344984465e+000	 1.3995061362e-002
 9.9686164827e-001	 4.6442186484e+000	 1.8093877065e-002
 9.5264042516e-001	 4.6534907565e+000	 2.3278992978e-002
 9.0845932984e-001	 4.6623171971e+000	 2.9742743961e-002
 8.6432449896e-001	 4.6707005000e+000	 3.7664268084e-002
 8.1883373586e-001	 4.4248741579e+000	 8.0815984622e-002
 7.7707135428e-001	 4.4323989115e+000	 1.0743241445e-001
 7.3536418877e-001	 4.4395089267e+000	 1.3458594793e-001
 6.9371780909e-001	 4.4462068779e+000	 1.6228335056e-001
 6.5213770062e-001	 4.4524955272e+000	 1.9052438481e-001
 6.1062926301e-001	 4.4583777210e+000	 2.0564779587e-001
 5.6919780892e-001	 4.4638563882e+000	 1.9596558380e-001
 5.2784856279e-001	 4.4689345369e+000	 1.8732481331e-001
 4.8658665973e-001	 4.4736152520e+000	 1.7956840131e-001
 4.4541714450e-001	 4.4779016925e+000	 1.7253673165e-001
 4.0434497057e-001	 4.4817970888e+000	 1.6606754455e-001
 8.2338281217e-001	 4.4494567921e+000	 7.4702475654e-002
 7.8138841736e-001	 4.4570233499e+000	 9.9390620127e-002
 7.3944954538e-001	 4.4641728651e+000	 1.2459922459e-001
 6.9757179692e-001	 4.4709080272e+000	 1.5033737444e-001
 6.5576068785e-001	 4.4772316134e+000	 1.7660701288e-001
 6.1402164781e-001	 4.4831464861e+000	 1.9380237618e-001
 5.7236001898e-001	 4.4886555903e+000	 1.8503204890e-001
 5.3078105481e-001	 4.4937619509e+000	 1.7728921583e-001
 4.8928991895e-001	 4.4984686700e+000	 1.7042408718e-001
 4.4789168419e-001	 4.5027789241e+000	 1.6428414973e-001
 4.0659133152e-001	 4.5066959615e+000	 1.5871404805e-001
 8.2793188848e-001	 4.4740394263e+000	 6.9031278326e-002
 7.8570548043e-001	 4.4816477883e+000	 9.1911169889e-002
 7.4353490198e-001	 4.4888368036e+000	 1.1529710138e-001
 7.0142578475e-001	 4.4956091766e+000	 1.3920037551e-001
 6.5938367507e-001	 4.5019676997e+000	 1.6362501244e-001
 6.1741403260e-001	 4.5079152512e+000	 1.8247841530e-001
 5.7552222903e-001	 4.5134547925e+000	 1.7462472352e-001
 5.3371354682e-001	 4.5185893650e+000	 1.6778593952e-001
 4.9199317817e-001	 4.5233220881e+000	 1.6181963798e-001
 4.5036622388e-001	 4.5276561557e+000	 1.5658047692e-001
 4.0883769246e-001	 4.5315948342e+000	 1.5192007053e-001
 8.3248096479e-001	 4.4986220605e+000	 6.3786521787e-002
 7.9002254351e-001	 4.5062722267e+000	 8.4977833103e-002
 7.4762025859e-001	 4.5135007421e+000	 1.0666299436e-001
 7.0527977258e-001	 4.5203103259e+000	 1.2885542287e-001
 6.6300666230e-001	 4.5267037859e+000	 1.5156111191e-001
 6.2080641740e-001	 4.5326840163e+000	 1.7169743940e-001
 5.7868443908e-001	 4.5382539946e+000	 1.6476217100e-001
 5.3664603884e-001	 4.5434167791e+000	 1.5883058710e-001
 4.9469643739e-001	 4.5481755061e+000	 1.5376769967e-001
 4.5284076358e-001	 4.5525333873e+000	 1.4943540787e-001
 4.1108405341e-001	 4.5564937069e+000	 1.4569236241e-001
 8.3703004110e-001	 4.5232046947e+000	 5.8952255779e-002
 7.9433960659e-001	 4.5308966650e+000	 7.8574326304e-002
 7.5170561519e-001	 4.5381646806e+000	 9.8680293536e-002
 7.0913376041e-001	 4.5450114752e+000	 1.1928558656e-001
 6.6662964952e-001	 4.5514398722e+000	 1.4039806782e-001
 6.2419880219e-001	 4.5574527815e+000	 1.6148103011e-001
 5.8184664912e-001	 4.5630531968e+000	 1.5546303761e-001
 5.3957853085e-001	 4.5682441932e+000	 1.5043887186e-001
 4.9739969661e-001	 4.5730289242e+000	 1.4628105657e-001
 4.5531530327e-001	 4.5774106189e+000	 1.4285880352e-001
 4.1333041436e-001	 4.5813925796e+000	 1.4003786836e-001
 8.4157911741e-001	 4.5477873289e+000	 5.4512452787e-002
 7.9865666967e-001	 4.5555211034e+000	 7.2684314617e-002
 7.5579097179e-001	 4.5628286191e+000	 9.1332363544e-002
 7.1298774823e-001	 4.5697126245e+000	 1.1047393751e-001
 6.7025263675e-001	 4.5761759585e+000	 1.3011866402e-001
 6.2759118699e-001	 4.5822215466e+000	 1.5026886723e-001
 5.8500885917e-001	 4.5878523989e+000	 1.4674605031e-001
 5.4251102287e-001	 4.5930716073e+000	 1.4262661467e-001
 5.0010295583e-001	 4.5978823423e+000	 1.3937262761e-001
 4.5778984296e-001	 4.6022878506e+000	 1.3686068653e-001
 4.1557677530e-001	 4.6062914523e+000	 1.3496372209e-001
 8.4612819372e-001	 4.5723699631e+000	 5.0451010114e-002
 8.0297373275e-001	 4.5801455418e+000	 6.7291413143e-002
 7.5987632840e-001	 4.5874925575e+000	 8.4602544369e-002
 7.1684173606e-001	 4.5944137738e+000	 1.0240354754e-001
 6.7387562397e-001	 4.6009120447e+000	 1.2070571095e-001
 6.3098357178e-001	 4.6069903117e+000	 1.3951288026e-001
 5.8817106922e-001	 4.6126516011e+000	 1.3863001455e-001
 5.4544351488e-001	 4.6178990214e+000	 1.3540974110e-001
 5.0280621505e-001	 4.6227357603e+000	 1.3305546268e-001
 4.6026438265e-001	 4.6271650822e+000	 1.3145123701e-001
 4.1782313625e-001	 4.6311903250e+000	 1.3047724125e-001
 8.5067727003e-001	 4.5969525973e+000	 4.6751751890e-002
 8.0729079583e-001	 4.6047699802e+000	 6.2379188294e-002
 7.6396168500e-001	 4.6121564960e+000	 7.8474151981e-002
 7.2069572389e-001	 4.6191149232e+000	 9.5057489305e-002
 6.7749861120e-001	 4.6256481310e+000	 1.1214204495e-001
 6.3437595657e-001	 4.6317590768e+000	 1.2973308065e-001
 5.9133327927e-001	 4.6374508033e+000	 1.3113381221e-001
 5.4837600689e-001	 4.6427264355e+000	 1.2880427859e-001
 5.0550947427e-001	 4.6475891784e+000	 1.2734273920e-001
 4.6273892234e-001	 4.6520423138e+000	 1.2664078826e-001
 4.2006949719e-001	 4.6560891977e+000	 1.2658592248e-001
 8.5522634634e-001	 4.6215352316e+000	 4.3398431020e-002
 8.1160785890e-001	 4.6293944186e+000	 5.7931159089e-002
 7.6804704160e-001	 4.6368204345e+000	 7.2930478977e-002
 7.2454971171e-001	 4.6438160725e+000	 8.8418836288e-002
 6.8112159842e-001	 4.6503842172e+000	 1.0441052754e-001
 6.3776834136e-001	 4.6565278419e+000	 1.2091212492e-001
 5.9449548931e-001	 4.6622500054e+000	 1.2427639955e-001
 5.5130849891e-001	 4.6675538496e+000	 1.2282635378e-001
 5.0821273349e-001	 4.6724425965e+000	 1.2224775868e-001
 4.6521346202e-001	 4.6769195454e+000	 1.2243982270e-001
 4.2231585814e-001	 4.6809880705e+000	 1.2329743670e-001
 8.5977542265e-001	 4.6461178658e+000	 4.0374731069e-002
 8.1592492198e-001	 4.6540188570e+000	 5.3930798409e-002
 7.7213239820e-001	 4.6614843730e+000	 6.7954795204e-002
 7.2840369954e-001	 4.6685172218e+000	 8.2470662787e-002
 6.8474458564e-001	 4.6751203035e+000	 9.7494044769e-002
 6.4116072615e-001	 4.6812966070e+000	 1.1303271802e-001
 5.9765769936e-001	 4.6870492076e+000	 1.1807680525e-001
 5.5424099092e-001	 4.6923812637e+000	 1.1749218986e-001
 5.1091599270e-001	 4.6972960145e+000	 1.1778394342e-001
 4.6768800171e-001	 4.7017967771e+000	 1.1885896794e-001
 4.2456221908e-001	 4.7058869432e+000	 1.2061962449e-001
 8.6432449896e-001	 4.6707005000e+000	 3.7664268084e-002
 8.2024198506e-001	 4.6786432954e+000	 5.0361534208e-002
 7.7621775480e-001	 4.6861483115e+000	 6.3530348353e-002
 7.3225768736e-001	 4.6932183711e+000	 7.7196043884e-002
 6.8836757286e-001	 4.6998563898e+000	 9.1375506584e-002
 6.4455311094e-001	 4.7060653722e+000	 1.0607761200e-001
 6.0081990940e-001	 4.7118484097e+000	 1.1255412849e-001
 5.5717348293e-001	 4.7172086778e+000	 1.1281810401e-001
 5.1361925192e-001	 4.7221494326e+000	 1.1396483340e-001
 4.7016254140e-001	 4.7266740087e+000	 1.1590899296e-001
 4.2680858003e-001	 4.7307858159e+000	 1.1856049157e-001
 4.0434497057e-001	 4.4817970888e+000	 1.6606754455e-001
 3.6337499923e-001	 4.4853047399e+000	 1.6142185765e-001
 3.2251199884e-001	 4.4884280111e+000	 1.5819865044e-001
 2.8176064413e-001	 4.4911703307e+000	 1.5621798048e-001
 2.4112551553e-001	 4.4935351880e+000	 1.5529621022e-001
 2.0061109869e-001	 4.4955261302e+000	 1.5524600715e-001
 1.6022178400e-001	 4.4971467599e+000	 1.5587636008e-001
 1.1996186617e-001	 4.4984007326e+000	 1.5699261125e-001
 7.9835543943e-002	 4.4992917538e+000	 1.5839650359e-001
 3.9846919840e-002	 4.4998235769e+000	 1.5988624287e-001
 0.0000000000e+000	 4.5000000000e+000	 1.6125657392e-001
 4.0659133152e-001	 4.5066959615e+000	 1.5871404805e-001
 3.6539374923e-001	 4.5102230996e+000	 1.5503155339e-001
 3.2430373217e-001	 4.5133637222e+000	 1.5278329458e-001
 2.8332598104e-001	 4.5161212770e+000	 1.5179252951e-001
 2.4246510172e-001	 4.5184992724e+000	 1.5187866287e-001
 2.0172560480e-001	 4.5205012753e+000	 1.5285724249e-001
 1.6111190503e-001	 4.5221309085e+000	 1.5453997221e-001
 1.2062832098e-001	 4.5233918477e+000	 1.5673474109e-001
 8.0279074742e-002	 4.5242878191e+000	 1.5924566824e-001
 4.0068291616e-002	 4.5248225967e+000	 1.6187316295e-001
 0.0000000000e+000	 4.5250000000e+000	 1.6441399942e-001
 4.0883769246e-001	 4.5315948342e+000	 1.5192007053e-001
 3.6741249922e-001	 4.5351414592e+000	 1.4914264305e-001
 3.2609546550e-001	 4.5382994334e+000	 1.4781321341e-001
 2.8489131795e-001	 4.5410722233e+000	 1.4775831986e-001
 2.4380468792e-001	 4.5434633567e+000	 1.4880048568e-001
 2.0284011090e-001	 4.5454764205e+000	 1.5075821160e-001
 1.6200202605e-001	 4.5471150572e+000	 1.5344598525e-001
 1.2129477580e-001	 4.5483829629e+000	 1.5667430743e-001
 8.0722605541e-002	 4.5492838844e+000	 1.6024973449e-001
 4.0289663393e-002	 4.5498216166e+000	 1.6397493649e-001
 0.0000000000e+000	 4.5500000000e+000	 1.6764877035e-001
 4.1108405341e-001	 4.5564937069e+000	 1.4569236241e-001
 3.6943124922e-001	 4.5600598189e+000	 1.4376009487e-001
 3.2788719882e-001	 4.5632351446e+000	 1.4329159784e-001
 2.8645665486e-001	 4.5660231695e+000	 1.4411677105e-001
 2.4514427412e-001	 4.5684274411e+000	 1.4606133378e-001
 2.0395461700e-001	 4.5704515657e+000	 1.4894681321e-001
 1.6289214707e-001	 4.5720992059e+000	 1.5259055051e-001
 1.2196123061e-001	 4.5733740781e+000	 1.5680572411e-001
 8.1166136340e-002	 4.5742799497e+000	 1.6140138963e-001
 4.0511035169e-002	 4.5748206365e+000	 1.6618253599e-001
 0.0000000000e+000	 4.5750000000e+000	 1.7095015707e-001
 4.1333041436e-001	 4.5813925796e+000	 1.4003786836e-001
 3.7144999921e-001	 4.5849781786e+000	 1.3888907439e-001
 3.2967893215e-001	 4.5881708558e+000	 1.3922183931e-001
 2.8802199177e-001	 4.5909741158e+000	 1.4086950659e-001
 2.4648386031e-001	 4.5933915255e+000	 1.4366106988e-001
 2.0506912311e-001	 4.5954267108e+000	 1.4742115744e-001
 1.6378226809e-001	 4.5970833545e+000	 1.5197003472e-001
 1.2262768542e-001	 4.5983651933e+000	 1.5712362460e-001
 8.1609667139e-002	 4.5992760150e+000	 1.6269354492e-001
 4.0732406946e-002	 4.5998196564e+000	 1.6848716248e-001
 0.0000000000e+000	 4.6000000000e+000	 1.7430766321e-001
 4.1557677530e-001	 4.6062914523e+000	 1.3496372209e-001
 3.7346874920e-001	 4.6098965382e+000	 1.3453493911e-001
 3.3147066547e-001	 4.6131065669e+000	 1.3560752441e-001
 2.8958732868e-001	 4.6159250621e+000	 1.3801834844e-001
 2.4782344651e-001	 4.6183556099e+000	 1.4159975871e-001
 2.0618362921e-001	 4.6204018560e+000	 1.4617956017e-001
 1.6467238911e-001	 4.6220675032e+000	 1.5158101422e-001
 1.2329414023e-001	 4.6233563085e+000	 1.5762285605e-001
 8.2053197938e-002	 4.6242720803e+000	 1.6411932954e-001
 4.0953778723e-002	 4.6248186762e+000	 1.7088023933e-001
 0.0000000000e+000	 4.6250000000e+000	 1.7771101936e-001
 4.1782313625e-001	 4.6311903250e+000	 1.3047724125e-001
 3.7548749920e-001	 4.6348148979e+000	 1.3070323337e-001
 3.3326239880e-001	 4.6380422781e+000	 1.3245242959e-001
 2.9115266559e-001	 4.6408760084e+000	 1.3556531170e-001
 2.4916303270e-001	 4.6433196943e+000	 1.3987766156e-001
 2.0729813531e-001	 4.6453770012e+000	 1.4522053741e-001
 1.6556251013e-001	 4.6470516519e+000	 1.5142026933e-001
 1.2396059504e-001	 4.6483474236e+000	 1.5829847355e-001
 8.2496728738e-002	 4.6492681456e+000	 1.6567208480e-001
 4.1175150499e-002	 4.6498176961e+000	 1.7335340632e-001
 0.0000000000e+000	 4.6500000000e+000	 1.8115017692e-001
 4.2006949719e-001	 4.6560891977e+000	 1.2658592248e-001
 3.7750624919e-001	 4.6597332576e+000	 1.2739968331e-001
 3.3505413212e-001	 4.6629779893e+000	 1.2976051611e-001
 2.9271800250e-001	 4.6658269547e+000	 1.3351259944e-001
 2.5050261890e-001	 4.6682837786e+000	 1.3849523103e-001
 2.0841264141e-001	 4.6703521463e+000	 1.4454280003e-001
 1.6645263115e-001	 4.6720358005e+000	 1.5148477890e-001
 1.2462704985e-001	 4.6733385388e+000	 1.5914573458e-001
 8.2940259537e-002	 4.6742642109e+000	 1.6734535835e-001
 4.1396522276e-002	 4.6748167160e+000	 1.7589851381e-001
 0.0000000000e+000	 4.6750000000e+000	 1.8461530227e-001
 4.2231585814e-001	 4.6809880705e+000	 1.2329743670e-001
 3.7952499918e-001	 4.6846516172e+000	 1.2463019205e-001
 3.3684586545e-001	 4.6879137004e+000	 1.2753592513e-001
 2.9428333941e-001	 4.6907779010e+000	 1.3186259769e-001
 2.5184220510e-001	 4.6932478630e+000	 1.3745310593e-001
 2.0952714752e-001	 4.6953272915e+000	 1.4414524855e-001
 1.6734275217e-001	 4.6970199492e+000	 1.5177171499e-001
 1.2529350466e-001	 4.6983296540e+000	 1.6016009360e-001
 8.3383790336e-002	 4.6992602762e+000	 1.6913289881e-001
 4.1617894052e-002	 4.6998157358e+000	 1.7850761714e-001
 0.0000000000e+000	 4.7000000000e+000	 1.8809677099e-001
 4.2456221908e-001	 4.7058869432e+000	 1.2061962449e-001
 3.8154374918e-001	 4.7095699769e+000	 1.2240083502e-001
 3.3863759877e-001	 4.7128494116e+000	 1.2578297290e-001
 2.9584867632e-001	 4.7157288472e+000	 1.3061787060e-001
 2.5318179129e-001	 4.7182119474e+000	 1.3675210639e-001
 2.1064165362e-001	 4.7203024367e+000	 1.4402696810e-001
 1.6823287319e-001	 4.7220040979e+000	 1.5227843783e-001
 1.2595995947e-001	 4.7233207692e+000	 1.6133719687e-001
 8.3827321135e-002	 4.7242563415e+000	 1.7102865039e-001
 4.1839265829e-002	 4.7248147557e+000	 1.8117297126e-001
 0.0000000000e+000	 4.7250000000e+000	 1.9158516236e-001
 4.2680858003e-001	 4.7307858159e+000	 1.1856049157e-001
 3.8356249917e-001	 4.7344883366e+000	 1.2071785541e-001
 3.4042933210e-001	 4.7377851228e+000	 1.2450614622e-001
 2.9741401323e-001	 4.7406797935e+000	 1.2978115579e-001
 2.5452137749e-001	 4.7431760318e+000	 1.3639322904e-001
 2.1175615972e-001	 4.7452775818e+000	 1.4418722360e-001
 1.6912299422e-001	 4.7469882465e+000	 1.5300249079e-001
 1.2662641428e-001	 4.7483118844e+000	 1.6267287739e-001
 8.4270851934e-002	 4.7492524068e+000	 1.7302674773e-001
 4.2060637605e-002	 4.7498137756e+000	 1.8388702541e-001
 0.0000000000e+000	 4.7500000000e+000	 1.9507125401e-001
 4.7500000000e+000	 0.0000000000e+000	 5.4077762084e-001
 4.7498137756e+000	 4.2060637605e-002	 5.4279806303e-001
 4.7492524068e+000	 8.4270851934e-002	 5.4287607317e-001
 4.7483118844e+000	 1.2662641428e-001	 5.4111068613e-001
 4.7469882465e+000	 1.6912299422e-001	 5.3761885632e-001
 4.7452775818e+000	 2.1175615972e-001	 5.3253588780e-001
 4.7431760318e+000	 2.5452137749e-001	 5.2601584317e-001
 4.7406797935e+000	 2.9741401323e-001	 5.1823192925e-001
 4.7377851228e+000	 3.4042933210e-001	 5.0937685805e-001
 4.7344883366e+000	 3.8356249917e-001	 4.9966318124e-001
 4.7307858159e+000	 4.2680858003e-001	 4.8932359632e-001
 4.7750000000e+000	 0.0000000000e+000	 5.2953865270e-001
 4.7748127955e+000	 4.2282009382e-002	 5.3175871045e-001
 4.7742484721e+000	 8.4714382733e-002	 5.3212823983e-001
 4.7733029995e+000	 1.2729286910e-001	 5.3074796339e-001
 4.7719723952e+000	 1.7001311524e-001	 5.2773668839e-001
 4.7702527270e+000	 2.1287066582e-001	 5.2323174071e-001
 4.7681401161e+000	 2.5586096368e-001	 5.1738937709e-001
 4.7656307398e+000	 2.9897935014e-001	 5.1038517392e-001
 4.7627208340e+000	 3.4222106542e-001	 5.0241439109e-001
 4.7594066962e+000	 3.8558124916e-001	 4.9369230879e-001
 4.7556846886e+000	 4.2905494097e-001	 4.8445453593e-001
 4.8000000000e+000	 0.0000000000e+000	 5.1854662219e-001
 4.7998118153e+000	 4.2503381158e-002	 5.2090990884e-001
 4.7992445374e+000	 8.5157913532e-002	 5.2150850456e-001
 4.7982941147e+000	 1.2795932391e-001	 5.2044478932e-001
 4.7969565439e+000	 1.7090323626e-001	 5.1783939836e-001
 4.7952278722e+000	 2.1398517192e-001	 5.1383166000e-001
 4.7931042005e+000	 2.5720054988e-001	 5.0858001140e-001
 4.7905816861e+000	 3.0054468705e-001	 5.0226239070e-001
 4.7876565451e+000	 3.4401279874e-001	 4.9507660372e-001
 4.7843250559e+000	 3.8759999915e-001	 4.8724066348e-001
 4.7805835613e+000	 4.3130130191e-001	 4.7899310069e-001
 4.8250000000e+000	 0.0000000000e+000	 5.0779594690e-001
 4.8248108352e+000	 4.2724752935e-002	 5.1024623683e-001
 4.8242406027e+000	 8.5601444331e-002	 5.1101161888e-001
 4.8232852299e+000	 1.2862577872e-001	 5.1019610025e-001
 4.8219406925e+000	 1.7179335728e-001	 5.0792211942e-001
 4.8202030174e+000	 2.1509967803e-001	 5.0433098790e-001
 4.8180682849e+000	 2.5854013607e-001	 4.9958330975e-001
 4.8155326324e+000	 3.0211002396e-001	 4.9385937715e-001
 4.8125922563e+000	 3.4580453207e-001	 4.8735954017e-001
 4.8092434156e+000	 3.8961874915e-001	 4.8030454902e-001
 4.8054824340e+000	 4.3354766286e-001	 4.7293586693e-001
 4.8500000000e+000	 0.0000000000e+000	 4.9728115948e-001
 4.8498098551e+000	 4.2946124712e-002	 4.9976238073e-001
 4.8492366680e+000	 8.6044975130e-002	 5.0063243367e-001
 4.8482763451e+000	 1.2929223353e-001	 4.9999692276e-001
 4.8469248412e+000	 1.7268347830e-001	 4.9798006506e-001
 4.8451781625e+000	 2.1621418413e-001	 4.9472513618e-001
 4.8430323693e+000	 2.5987972227e-001	 4.9039489371e-001
 4.8404835786e+000	 3.0367536087e-001	 4.8517197633e-001
 4.8375279675e+000	 3.4759626540e-001	 4.7925927682e-001
 4.8341617752e+000	 3.9163749914e-001	 4.7288028717e-001
 4.8303813068e+000	 4.3579402381e-001	 4.6627941398e-001
 4.8750000000e+000	 0.0000000000e+000	 4.8699690476e-001
 4.8748088749e+000	 4.3167496488e-002	 4.8945313171e-001
 4.8742327333e+000	 8.6488505929e-002	 4.9036589665e-001
 4.8732674603e+000	 1.2995868834e-001	 4.8984237137e-001
 4.8719089899e+000	 1.7357359932e-001	 4.8800852703e-001
 4.8701533077e+000	 2.1732869023e-001	 4.8500958439e-001
 4.8679964537e+000	 2.6121930847e-001	 4.8101044132e-001
 4.8654345249e+000	 3.0524069778e-001	 4.7619607561e-001
 4.8624636787e+000	 3.4938799872e-001	 4.7077192138e-001
 4.8590801349e+000	 3.9365624914e-001	 4.6496421719e-001
 4.8552801795e+000	 4.3804038475e-001	 4.5902032405e-001
 4.9000000000e+000	 0.0000000000e+000	 4.7693793685e-001
 4.8998078948e+000	 4.3388868265e-002	 4.7931338313e-001
 4.8992287986e+000	 8.6932036728e-002	 4.8020704984e-001
 4.8982585754e+000	 1.3062514315e-001	 4.7972764629e-001
 4.8968931385e+000	 1.7446372034e-001	 4.7800287333e-001
 4.8951284529e+000	 2.1844319634e-001	 4.7517987808e-001
 4.8929605380e+000	 2.6255889466e-001	 4.7142568557e-001
 4.8903854712e+000	 3.0680603469e-001	 4.6692760551e-001
 4.8873993898e+000	 3.5117973205e-001	 4.6189361212e-001
 4.8839984946e+000	 3.9567499914e-001	 4.5655269546e-001
 4.8801790522e+000	 4.4028674570e-001	 4.5115518223e-001
 4.9250000000e+000	 0.0000000000e+000	 4.6709911637e-001
 4.9248069147e+000	 4.3610240041e-002	 4.6933812800e-001
 4.9242248639e+000	 8.7375567527e-002	 4.7015102724e-001
 4.9232496906e+000	 1.3129159796e-001	 4.6964803125e-001
 4.9218772872e+000	 1.7535384136e-001	 4.6795854631e-001
 4.9201035980e+000	 2.1955770244e-001	 4.6523162717e-001
 4.9179246224e+000	 2.6389848086e-001	 4.6163641312e-001
 4.9153364175e+000	 3.0837137160e-001	 4.5736253864e-001
 4.9123351010e+000	 3.5297146538e-001	 4.5262051705e-001
 4.9089168542e+000	 3.9769374913e-001	 4.4764209503e-001
 4.9050779249e+000	 4.4253310665e-001	 4.4268057635e-001
 4.9500000000e+000	 0.0000000000e+000	 4.5747540776e-001
 4.9498059346e+000	 4.3831611818e-002	 4.5952245639e-001
 4.9492209292e+000	 8.7819098327e-002	 4.6019305245e-001
 4.9482408058e+000	 1.3195805278e-001	 4.5959889139e-001
 4.9468614359e+000	 1.7624396239e-001	 4.5787106073e-001
 4.9450787432e+000	 2.2067220854e-001	 4.5516050433e-001
 4.9428887068e+000	 2.6523806706e-001	 4.5163846284e-001
 4.9402873638e+000	 3.0993670852e-001	 4.4749688864e-001
 4.9372708122e+000	 3.5476319871e-001	 4.4294883322e-001
 4.9338352139e+000	 3.9971249913e-001	 4.3822880517e-001
 4.9299767976e+000	 4.4477946760e-001	 4.3359309694e-001
 4.9750000000e+000	 0.0000000000e+000	 4.4806187670e-001
 4.9748049544e+000	 4.4052983595e-002	 4.4986155303e-001
 4.9742169945e+000	 8.8262629126e-002	 4.5032843646e-001
 4.9732319210e+000	 1.3262450759e-001	 4.4957567121e-001
 4.9718455845e+000	 1.7713408341e-001	 4.4773600201e-001
 4.9700538884e+000	 2.2178671465e-001	 4.4496224334e-001
 4.9678527912e+000	 2.6657765326e-001	 4.4142772455e-001
 4.9652383101e+000	 3.1150204543e-001	 4.3732670911e-001
 4.9622065233e+000	 3.5655493203e-001	 4.3287478594e-001
 4.9587535736e+000	 4.0173124913e-001	 4.2830923099e-001
 4.9548756703e+000	 4.4702582855e-001	 4.2388933717e-001
 5.0000000000e+000	 0.0000000000e+000	 4.3885368754e-001
 4.9998039743e+000	 4.4274355371e-002	 4.4035069495e-001
 4.9992130598e+000	 8.8706159925e-002	 4.4055257545e-001
 4.9982230362e+000	 1.3329096240e-001	 4.3957389261e-001
 4.9968297332e+000	 1.7802420443e-001	 4.3754902442e-001
 4.9950290335e+000	 2.2290122075e-001	 4.3463263764e-001
 4.9928168755e+000	 2.6791723945e-001	 4.3100013775e-001
 4.9901892563e+000	 3.1306738234e-001	 4.2684809265e-001
 4.9871422345e+000	 3.5834666536e-001	 4.2239462810e-001
 4.9836719332e+000	 4.0374999913e-001	 4.1787979304e-001
 4.9797745430e+000	 4.4927218951e-001	 4.1356589277e-001
 4.7307858159e+000	 4.2680858003e-001	 4.8932359632e-001
 4.7266740087e+000	 4.7016254140e-001	 4.8003328284e-001
 4.7221494326e+000	 5.1361925192e-001	 4.7103781709e-001
 4.7172086778e+000	 5.5717348293e-001	 4.6261974638e-001
 4.7118484097e+000	 6.0081990940e-001	 4.5508207812e-001
 4.7060653722e+000	 6.4455311094e-001	 4.4966241349e-001
 4.6998563898e+000	 6.8836757286e-001	 4.4453776314e-001
 4.6932183711e+000	 7.3225768736e-001	 4.3785251179e-001
 4.6861483115e+000	 7.7621775480e-001	 4.2975183293e-001
 4.6786432954e+000	 8.2024198506e-001	 4.2037505281e-001
 4.6707005000e+000	 8.6432449896e-001	 4.0985554608e-001
 4.7556846886e+000	 4.2905494097e-001	 4.8445453593e-001
 4.7515512403e+000	 4.7263708109e-001	 4.7593950627e-001
 4.7470028507e+000	 5.1632251113e-001	 4.6754710670e-001
 4.7420360919e+000	 5.6010597494e-001	 4.5956273821e-001
 4.7366476119e+000	 6.0398211945e-001	 4.5229268555e-001
 4.7308341373e+000	 6.4794549573e-001	 4.4691449949e-001
 4.7245924760e+000	 6.9199056008e-001	 4.4136548987e-001
 4.7179195205e+000	 7.3611167519e-001	 4.3431280943e-001
 4.7108122499e+000	 7.8030311141e-001	 4.2590067691e-001
 4.7032677338e+000	 8.2455904814e-001	 4.1626729857e-001
 4.6952831342e+000	 8.6887357527e-001	 4.0554476447e-001
 4.7805835613e+000	 4.3130130191e-001	 4.7899310069e-001
 4.7764284720e+000	 4.7511162077e-001	 4.7117736329e-001
 4.7718562687e+000	 5.1902577035e-001	 4.6330906631e-001
 4.7668635060e+000	 5.6303846695e-001	 4.5567650736e-001
 4.7614468140e+000	 6.0714432950e-001	 4.4858929657e-001
 4.7556029024e+000	 6.5133788053e-001	 4.4313961012e-001
 4.7493285623e+000	 6.9561354731e-001	 4.3716099433e-001
 4.7426206698e+000	 7.3996566301e-001	 4.2973794412e-001
 4.7354761884e+000	 7.8438846801e-001	 4.2101369370e-001
 4.7278921722e+000	 8.2887611122e-001	 4.1112529631e-001
 4.7198657684e+000	 8.7342265158e-001	 4.0020352123e-001
 4.8054824340e+000	 4.3354766286e-001	 4.7293586693e-001
 4.8013057036e+000	 4.7758616046e-001	 4.6574306723e-001
 4.7967096868e+000	 5.2172902957e-001	 4.5831951101e-001
 4.7916909201e+000	 5.6597095897e-001	 4.5095643545e-001
 4.7862460162e+000	 6.1030653954e-001	 4.4396682415e-001
 4.7803716675e+000	 6.5473026532e-001	 4.3834775150e-001
 4.7740646486e+000	 6.9923653453e-001	 4.3193513445e-001
 4.7673218191e+000	 7.4381965084e-001	 4.2413963169e-001
 4.7601401269e+000	 7.8847382461e-001	 4.1510346251e-001
 4.7525166106e+000	 8.3319317430e-001	 4.0496249356e-001
 4.7444484026e+000	 8.7797172789e-001	 3.9384613656e-001
 4.8303813068e+000	 4.3579402381e-001	 4.6627941398e-001
 4.8261829352e+000	 4.8006070016e-001	 4.5963283194e-001
 4.8215631049e+000	 5.2443228879e-001	 4.5257425407e-001
 4.8165183342e+000	 5.6890345098e-001	 4.4539790004e-001
 4.8110452184e+000	 6.1346874959e-001	 4.3842017512e-001
 4.8051404326e+000	 6.5812265011e-001	 4.3254892171e-001
 4.7988007348e+000	 7.0285952176e-001	 4.2569875839e-001
 4.7920229684e+000	 7.4767363867e-001	 4.1752957661e-001
 4.7848040654e+000	 7.9255918122e-001	 4.0818254980e-001
 4.7771410490e+000	 8.3751023738e-001	 3.9779232384e-001
 4.7690310368e+000	 8.8252080420e-001	 3.8648691548e-001
 4.8552801795e+000	 4.3804038475e-001	 4.5902032405e-001
 4.8510601668e+000	 4.8253523985e-001	 4.5284287175e-001
 4.8464165229e+000	 5.2713554801e-001	 4.4606910692e-001
 4.8413457483e+000	 5.7183594300e-001	 4.3899627476e-001
 4.8358444205e+000	 6.1663095964e-001	 4.3194425040e-001
 4.8299091977e+000	 6.6151503491e-001	 4.2575311104e-001
 4.8235368211e+000	 7.0648250899e-001	 4.1846270483e-001
 4.8167241177e+000	 7.5152762650e-001	 4.0991947231e-001
 4.8094680039e+000	 7.9664453783e-001	 4.0026350958e-001
 4.8017654874e+000	 8.4182730046e-001	 3.8962820699e-001
 4.7936136710e+000	 8.8706988052e-001	 3.7814014829e-001
 4.8801790522e+000	 4.4028674570e-001	 4.5115518223e-001
 4.8759373984e+000	 4.8500977954e-001	 4.4536940146e-001
 4.8712699410e+000	 5.2983880724e-001	 4.3879987927e-001
 4.8661731623e+000	 5.7476843502e-001	 4.3174692936e-001
 4.8606436227e+000	 6.1979316970e-001	 4.2453394508e-001
 4.8546779629e+000	 6.6490741971e-001	 4.1797030219e-001
 4.8482729073e+000	 7.1010549622e-001	 4.1023780317e-001
 4.8414252671e+000	 7.5538161434e-001	 4.0132100146e-001
 4.8341319423e+000	 8.0072989444e-001	 3.9135888374e-001
 4.8263899258e+000	 8.4614436354e-001	 3.8048354949e-001
 4.8181963052e+000	 8.9161895683e-001	 3.6882011090e-001
 4.9050779249e+000	 4.4253310665e-001	 4.4268057635e-001
 4.9008146301e+000	 4.8748431924e-001	 4.3720863635e-001
 4.8961233591e+000	 5.3254206646e-001	 4.3076237909e-001
 4.8910005764e+000	 5.7770092704e-001	 4.2364522988e-001
 4.8854428248e+000	 6.2295537975e-001	 4.1618414862e-001
 4.8794467280e+000	 6.6829980451e-001	 4.0921047045e-001
 4.8730089936e+000	 7.1372848345e-001	 4.0103487380e-001
 4.8661264164e+000	 7.5923560217e-001	 3.9174583623e-001
 4.8587958808e+000	 8.0481525105e-001	 3.8148120235e-001
 4.8510143642e+000	 8.5046142663e-001	 3.7037174488e-001
 4.8427789394e+000	 8.9616803315e-001	 3.5854106520e-001
 4.9299767976e+000	 4.4477946760e-001	 4.3359309694e-001
 4.9256918617e+000	 4.8995885893e-001	 4.2835679210e-001
 4.9209767771e+000	 5.3524532569e-001	 4.2195241267e-001
 4.9158279905e+000	 5.8063341906e-001	 4.1468653867e-001
 4.9102420270e+000	 6.2611758981e-001	 4.0691839341e-001
 4.9042154931e+000	 6.7169218931e-001	 3.9948358388e-001
 4.8977450799e+000	 7.1735147068e-001	 3.9086472833e-001
 4.8908275657e+000	 7.6308959000e-001	 3.8120563856e-001
 4.8834598193e+000	 8.0890060766e-001	 3.7064298398e-001
 4.8756388026e+000	 8.5477848971e-001	 3.5930617401e-001
 4.8673615736e+000	 9.0071710947e-001	 3.4731725943e-001
 4.9548756703e+000	 4.4702582855e-001	 4.2388933717e-001
 4.9505690933e+000	 4.9243339863e-001	 4.1881008487e-001
 4.9458301952e+000	 5.3794858491e-001	 4.1236578471e-001
 4.9406554046e+000	 5.8356591108e-001	 4.0486621452e-001
 4.9350412291e+000	 6.2927979986e-001	 3.9675356713e-001
 4.9289842582e+000	 6.7508457411e-001	 3.8879960351e-001
 4.9224811661e+000	 7.2097445791e-001	 3.7973816977e-001
 4.9155287150e+000	 7.6694357784e-001	 3.6971206044e-001
 4.9081237578e+000	 8.1298596427e-001	 3.5885673595e-001
 4.9002632410e+000	 8.5909555280e-001	 3.4730020537e-001
 4.8919442078e+000	 9.0526618578e-001	 3.3516292851e-001
 4.9797745430e+000	 4.4927218951e-001	 4.1356589277e-001
 4.9754463249e+000	 4.9490793833e-001	 4.0856473123e-001
 4.9706836133e+000	 5.4065184414e-001	 4.0199829828e-001
 4.9654828187e+000	 5.8649840310e-001	 3.9417961276e-001
 4.9598404313e+000	 6.3244200992e-001	 3.8564246995e-001
 4.9537530233e+000	 6.7847695892e-001	 3.7716848350e-001
 4.9472172524e+000	 7.2459744515e-001	 3.6766599279e-001
 4.9402298643e+000	 7.7079756568e-001	 3.5727674412e-001
 4.9327876962e+000	 8.1707132088e-001	 3.4613495466e-001
 4.9248876794e+000	 8.6341261589e-001	 3.3436719547e-001
 4.9165268420e+000	 9.0981526210e-001	 3.2209229438e-001
 4.6707005000e+000	 8.6432449896e-001	 4.0985554608e-001
 4.6623171971e+000	 9.0845932984e-001	 3.9630840561e-001
 4.6534907565e+000	 9.5264042516e-001	 3.8106570164e-001
 4.6442186484e+000	 9.9686164827e-001	 3.6427991959e-001
 4.6344984465e+000	 1.0411167802e+000	 3.4609867781e-001
 4.6243278300e+000	 1.0853995214e+000	 3.2666469677e-001
 4.6137045869e+000	 1.1297034943e+000	 3.0611578485e-001
 4.6026266164e+000	 1.1740222445e+000	 2.8458484099e-001
 4.5910919311e+000	 1.2183492440e+000	 2.6219987461e-001
 4.5790986602e+000	 1.2626778925e+000	 2.3767909423e-001
 4.5666450514e+000	 1.3070015205e+000	 2.0818150845e-001
 4.6952831342e+000	 8.6887357527e-001	 4.0554476447e-001
 4.6868557086e+000	 9.1324069473e-001	 3.9269260323e-001
 4.6779828131e+000	 9.5765432214e-001	 3.7835126378e-001
 4.6686619045e+000	 1.0021082885e+000	 3.6266541392e-001
 4.6588905436e+000	 1.0465963422e+000	 3.4577446067e-001
 4.6486663975e+000	 1.0911121505e+000	 3.2781252379e-001
 4.6379872426e+000	 1.1356493021e+000	 3.0890842675e-001
 4.6268509670e+000	 1.1802013090e+000	 2.8918570539e-001
 4.6152555729e+000	 1.2247616084e+000	 2.6876263444e-001
 4.6031991795e+000	 1.2693235656e+000	 2.4581926173e-001
 4.5906800254e+000	 1.3138804759e+000	 2.1897796692e-001
 4.7198657684e+000	 8.7342265158e-001	 4.0020352123e-001
 4.7113942202e+000	 9.1802205963e-001	 3.8791097443e-001
 4.7024748697e+000	 9.6266821912e-001	 3.7433572830e-001
 4.6931051605e+000	 1.0073549288e+000	 3.5961462984e-001
 4.6832826406e+000	 1.0520759042e+000	 3.4387887009e-001
 4.6730049650e+000	 1.0968247796e+000	 3.2725396211e-001
 4.6622698984e+000	 1.1415951100e+000	 3.0985973718e-001
 4.6510753176e+000	 1.1863803734e+000	 2.9181035937e-001
 4.6394192146e+000	 1.2311739729e+000	 2.7321435883e-001
 4.6272996988e+000	 1.2759692387e+000	 2.5184720799e-001
 4.6147149993e+000	 1.3207594313e+000	 2.2753081495e-001
 4.7444484026e+000	 8.7797172789e-001	 3.9384613656e-001
 4.7359327318e+000	 9.2280342452e-001	 3.8198091239e-001
 4.7269669263e+000	 9.6768211609e-001	 3.6903959601e-001
 4.7175484166e+000	 1.0126015690e+000	 3.5515120908e-001
 4.7076747377e+000	 1.0575554662e+000	 3.4043872067e-001
 4.6973435326e+000	 1.1025374086e+000	 3.2501902977e-001
 4.6865525541e+000	 1.1475409179e+000	 3.0900296667e-001
 4.6752996682e+000	 1.1925594379e+000	 2.9249531355e-001
 4.6635828564e+000	 1.2375863373e+000	 2.7559484453e-001
 4.6514002180e+000	 1.2826149119e+000	 2.5579855527e-001
 4.6387499733e+000	 1.3276383866e+000	 2.3387898754e-001
 4.7690310368e+000	 8.8252080420e-001	 3.8648691548e-001
 4.7604712433e+000	 9.2758478942e-001	 3.7491974890e-001
 4.7514589829e+000	 9.7269601307e-001	 3.6248325962e-001
 4.7419916726e+000	 1.0178482093e+000	 3.4929863809e-001
 4.7320668348e+000	 1.0630350282e+000	 3.3548062411e-001
 4.7216821001e+000	 1.1082500377e+000	 3.2113749380e-001
 4.7108352098e+000	 1.1534867257e+000	 3.0637106624e-001
 4.6995240188e+000	 1.1987385023e+000	 2.9127673013e-001
 4.6877464981e+000	 1.2439987017e+000	 2.7594349062e-001
 4.6755007373e+000	 1.2892605850e+000	 2.5770847845e-001
 4.6627849472e+000	 1.3345173420e+000	 2.3806092233e-001
 4.7936136710e+000	 8.8706988052e-001	 3.7814014829e-001
 4.7850097549e+000	 9.3236615432e-001	 3.6674475598e-001
 4.7759510395e+000	 9.7770991005e-001	 3.5468700651e-001
 4.7664349286e+000	 1.0230948496e+000	 3.4208025203e-001
 4.7564589319e+000	 1.0685145902e+000	 3.2903099438e-001
 4.7460206676e+000	 1.1139626667e+000	 3.1563887664e-001
 4.7351178655e+000	 1.1594325336e+000	 3.0199669507e-001
 4.7237483694e+000	 1.2049175668e+000	 2.8819043184e-001
 4.7119101398e+000	 1.2504110662e+000	 2.7427784947e-001
 4.6996012565e+000	 1.2959062581e+000	 2.5761171656e-001
 4.6868199212e+000	 1.3413962974e+000	 2.4011457235e-001
 4.8181963052e+000	 8.9161895683e-001	 3.6882011090e-001
 4.8095482664e+000	 9.3714751922e-001	 3.5747314734e-001
 4.8004430961e+000	 9.8272380703e-001	 3.4567102145e-001
 4.7908781847e+000	 1.0283414898e+000	 3.3351923862e-001
 4.7808510290e+000	 1.0739941522e+000	 3.2111605276e-001
 4.7703592351e+000	 1.1196752958e+000	 3.0855246241e-001
 4.7594005212e+000	 1.1653783415e+000	 2.9591222800e-001
 4.7479727200e+000	 1.2110966312e+000	 2.8327191062e-001
 4.7360737816e+000	 1.2568234306e+000	 2.7039798856e-001
 4.7237017758e+000	 1.3025519312e+000	 2.5554258387e-001
 4.7108548951e+000	 1.3482752527e+000	 2.4007741841e-001
 4.8427789394e+000	 8.9616803315e-001	 3.5854106520e-001
 4.8340867780e+000	 9.4192888412e-001	 3.4712207992e-001
 4.8249351527e+000	 9.8773770401e-001	 3.3545538915e-001
 4.8153214407e+000	 1.0335881301e+000	 3.2363864186e-001
 4.8052431260e+000	 1.0794737142e+000	 3.1176183276e-001
 4.7946978026e+000	 1.1253879249e+000	 2.9990730298e-001
 4.7836831769e+000	 1.1713241493e+000	 2.8814976266e-001
 4.7721970706e+000	 1.2172756957e+000	 2.7655633596e-001
 4.7602374233e+000	 1.2632357951e+000	 2.6469718746e-001
 4.7478022951e+000	 1.3091976043e+000	 2.5153498065e-001
 4.7348898691e+000	 1.3551542081e+000	 2.3798648108e-001
 4.8673615736e+000	 9.0071710947e-001	 3.4731725943e-001
 4.8586252895e+000	 9.4671024902e-001	 3.3570865527e-001
 4.8494272093e+000	 9.9275160099e-001	 3.2406009681e-001
 4.8397646967e+000	 1.0388347703e+000	 3.1246136569e-001
 4.8296352231e+000	 1.0849532762e+000	 3.0099418484e-001
 4.8190363702e+000	 1.1311005539e+000	 2.8973222376e-001
 4.8079658326e+000	 1.1772699572e+000	 2.7874112657e-001
 4.7964214212e+000	 1.2234547601e+000	 2.6807856310e-001
 4.7844010650e+000	 1.2696481595e+000	 2.5720590625e-001
 4.7719028143e+000	 1.3158432775e+000	 2.4562240367e-001
 4.7589248430e+000	 1.3620331635e+000	 2.3387833226e-001
 4.8919442078e+000	 9.0526618578e-001	 3.3516292851e-001
 4.8831638011e+000	 9.5149161392e-001	 3.2324992100e-001
 4.8739192659e+000	 9.9776549797e-001	 3.1150503661e-001
 4.8642079528e+000	 1.0440814106e+000	 3.0001017751e-001
 4.8540273202e+000	 1.0904328382e+000	 2.8883878100e-001
 4.8433749377e+000	 1.1368131830e+000	 2.7805582946e-001
 4.8322484884e+000	 1.1832157651e+000	 2.6771788383e-001
 4.8206457718e+000	 1.2296338246e+000	 2.5787314091e-001
 4.8085647068e+000	 1.2760605240e+000	 2.4795425532e-001
 4.7960033336e+000	 1.3224889506e+000	 2.3783795631e-001
 4.7829598170e+000	 1.3689121189e+000	 2.2778910654e-001
 4.9165268420e+000	 9.0981526210e-001	 3.2209229438e-001
 4.9077023127e+000	 9.5627297882e-001	 3.0976287205e-001
 4.8984113225e+000	 1.0027793950e+000	 2.9781000802e-001
 4.8886512088e+000	 1.0493280509e+000	 2.8630771158e-001
 4.8784194173e+000	 1.0959124002e+000	 2.7532111928e-001
 4.8677135052e+000	 1.1425258121e+000	 2.6490650959e-001
 4.8565311441e+000	 1.1891615729e+000	 2.5511134179e-001
 4.8448701224e+000	 1.2358128890e+000	 2.4597431953e-001
 4.8327283485e+000	 1.2824728884e+000	 2.3697200405e-001
 4.8201038528e+000	 1.3291346237e+000	 2.2821435840e-001
 4.8069947909e+000	 1.3757910742e+000	 2.1975451206e-001
 4.5666450514e+000	 1.3070015205e+000	 2.0818150845e-001
 4.5537294736e+000	 1.3513133914e+000	 1.8247479645e-001
 4.5403504190e+000	 1.3956067041e+000	 1.5931568095e-001
 4.5265065060e+000	 1.4398745957e+000	 1.3853100312e-001
 4.5121964807e+000	 1.4841101442e+000	 1.1992642832e-001
 4.4974192195e+000	 1.5283063712e+000	 1.0328662044e-001
 4.4821737314e+000	 1.5724562449e+000	 8.8375466245e-002
 4.4664591594e+000	 1.6165526831e+000	 7.4936350320e-002
 4.4502747833e+000	 1.6605885562e+000	 6.2692480807e-002
 4.4336200209e+000	 1.7045566903e+000	 5.1347266164e-002
 4.4164944300e+000	 1.7484498704e+000	 4.0584742933e-002
 4.5906800254e+000	 1.3138804759e+000	 2.1897796692e-001
 4.5776964708e+000	 1.3584255672e+000	 1.9400951018e-001
 4.5642470002e+000	 1.4029520026e+000	 1.7121645300e-001
 4.5503302244e+000	 1.4474528831e+000	 1.5042702338e-001
 4.5359448832e+000	 1.4919212502e+000	 1.3144842263e-001
 4.5210898470e+000	 1.5363500889e+000	 1.1406700586e-001
 4.5057641194e+000	 1.5807323304e+000	 9.8048512903e-002
 4.4899668392e+000	 1.6250608551e+000	 8.3138349928e-002
 4.4736972822e+000	 1.6693284959e+000	 6.9061922111e-002
 4.4569548631e+000	 1.7135280413e+000	 5.5525017508e-002
 4.4397391376e+000	 1.7576522382e+000	 4.2214242106e-002
 4.6147149993e+000	 1.3207594313e+000	 2.2753081495e-001
 4.6016634680e+000	 1.3655377429e+000	 2.0351929168e-001
 4.5881435813e+000	 1.4102973010e+000	 1.8131961322e-001
 4.5741539429e+000	 1.4550311704e+000	 1.6076125788e-001
 4.5596932857e+000	 1.4997323562e+000	 1.4165281693e-001
 4.5447604745e+000	 1.5443938066e+000	 1.2378218155e-001
 4.5293545075e+000	 1.5890084159e+000	 1.0691678024e-001
 4.5134745190e+000	 1.6335690271e+000	 9.0803867245e-002
 4.4971197811e+000	 1.6780684357e+000	 7.5170862293e-002
 4.4802897053e+000	 1.7224993923e+000	 5.9725741656e-002
 4.4629838451e+000	 1.7668546059e+000	 4.4157480648e-002
 4.6387499733e+000	 1.3276383866e+000	 2.3387898754e-001
 4.6256304653e+000	 1.3726499187e+000	 2.1104101679e-001
 4.6120401625e+000	 1.4176425995e+000	 1.8965991150e-001
 4.5979776614e+000	 1.4626094578e+000	 1.6956626356e-001
 4.5834416883e+000	 1.5075434623e+000	 1.5056990826e-001
 4.5684311019e+000	 1.5524375244e+000	 1.3246011758e-001
 4.5529448956e+000	 1.5972845014e+000	 1.1500584430e-001
 4.5369821988e+000	 1.6420771991e+000	 9.7956017270e-002
 4.5205422799e+000	 1.6868083755e+000	 8.1039888313e-002
 4.5036245475e+000	 1.7314707433e+000	 6.3967430617e-002
 4.4862285526e+000	 1.7760569736e+000	 4.6429788811e-002
 4.6627849472e+000	 1.3345173420e+000	 2.3806092233e-001
 4.6495974625e+000	 1.3797620944e+000	 2.1661112523e-001
 4.6359367437e+000	 1.4249878979e+000	 1.9627172461e-001
 4.6218013798e+000	 1.4701877451e+000	 1.7687428914e-001
 4.6071900908e+000	 1.5153545683e+000	 1.5822975207e-001
 4.5921017294e+000	 1.5604812421e+000	 1.4012861089e-001
 4.5765352836e+000	 1.6055605868e+000	 1.2234117821e-001
 4.5604898786e+000	 1.6505853711e+000	 1.0461788404e-001
 4.5439647788e+000	 1.6955483152e+000	 8.6689629853e-002
 4.5269593898e+000	 1.7404420943e+000	 6.8268194499e-002
 4.5094732602e+000	 1.7852593414e+000	 4.9046691997e-002
 4.6868199212e+000	 1.3413962974e+000	 2.4011457235e-001
 4.6735644597e+000	 1.3868742701e+000	 2.2026563179e-001
 4.6598333248e+000	 1.4323331963e+000	 2.0118906584e-001
 4.6456250983e+000	 1.4777660325e+000	 1.8271728306e-001
 4.6309384933e+000	 1.5231656743e+000	 1.6466216847e-001
 4.6157723569e+000	 1.5685249599e+000	 1.4681528975e-001
 4.6001256717e+000	 1.6138366723e+000	 1.2894815487e-001
 4.5839975584e+000	 1.6590935431e+000	 1.1081252145e-001
 4.5673872776e+000	 1.7042882550e+000	 9.2140758218e-002
 4.5502942320e+000	 1.7494134453e+000	 7.2646258481e-002
 4.5327179677e+000	 1.7944617091e+000	 5.2023905765e-002
 4.7108548951e+000	 1.3482752527e+000	 2.4007741841e-001
 4.6975314569e+000	 1.3939864459e+000	 2.2204013714e-001
 4.6837299060e+000	 1.4396784948e+000	 2.0444559421e-001
 4.6694488167e+000	 1.4853443198e+000	 1.8712690107e-001
 4.6546868958e+000	 1.5309767803e+000	 1.6989674822e-001
 4.6394429843e+000	 1.5765686776e+000	 1.5254761807e-001
 4.6237160597e+000	 1.6221127578e+000	 1.3485204942e-001
 4.6075052382e+000	 1.6676017152e+000	 1.1656295398e-001
 4.5908097765e+000	 1.7130281948e+000	 9.7413985278e-002
 4.5736290742e+000	 1.7583847963e+000	 7.7119959876e-002
 4.5559626752e+000	 1.8036640769e+000	 5.5377330972e-002
 4.7348898691e+000	 1.3551542081e+000	 2.3798648108e-001
 4.7214984542e+000	 1.4010986216e+000	 2.2196983835e-001
 4.7076264871e+000	 1.4470237932e+000	 2.0607462352e-001
 4.6932725352e+000	 1.4929226072e+000	 1.9013451370e-001
 4.6784352984e+000	 1.5387878863e+000	 1.7396285851e-001
 4.6631136118e+000	 1.5846123954e+000	 1.5735289955e-001
 4.6473064478e+000	 1.6303888433e+000	 1.4007804180e-001
 4.6310129180e+000	 1.6761098872e+000	 1.2189217748e-001
 4.6142322754e+000	 1.7217681346e+000	 1.0253006244e-001
 4.5969639164e+000	 1.7673561473e+000	 8.1707745286e-002
 4.5792073827e+000	 1.8128664446e+000	 5.9123049075e-002
 4.7589248430e+000	 1.3620331635e+000	 2.3387833226e-001
 4.7454654514e+000	 1.4082107974e+000	 2.2008953910e-001
 4.7315230682e+000	 1.4543690917e+000	 2.0610913102e-001
 4.7170962536e+000	 1.5005008945e+000	 1.9177121349e-001
 4.7021837009e+000	 1.5465989924e+000	 1.7688964869e-001
 4.6867842393e+000	 1.5926561131e+000	 1.6125828174e-001
 4.6708968359e+000	 1.6386649288e+000	 1.4465121912e-001
 4.6545205977e+000	 1.6846180592e+000	 1.2682315986e-001
 4.6376547742e+000	 1.7305080743e+000	 1.0750977964e-001
 4.6202987586e+000	 1.7763274983e+000	 8.6428167843e-002
 4.6024520903e+000	 1.8220688123e+000	 6.3277317568e-002
 4.7829598170e+000	 1.3689121189e+000	 2.2778910654e-001
 4.7694324486e+000	 1.4153229731e+000	 2.1643365953e-001
 4.7554196494e+000	 1.4617143901e+000	 2.0458176589e-001
 4.7409199721e+000	 1.5080791818e+000	 1.9206782190e-001
 4.7259321034e+000	 1.5544100984e+000	 1.7870605564e-001
 4.7104548668e+000	 1.6006998308e+000	 1.6429075996e-001
 4.6944872239e+000	 1.6469410143e+000	 1.4859657799e-001
 4.6780282775e+000	 1.6931262312e+000	 1.3137884184e-001
 4.6610772731e+000	 1.7392480141e+000	 1.1237396438e-001
 4.6436336008e+000	 1.7852988493e+000	 9.1299884531e-002
 4.6256967978e+000	 1.8312711801e+000	 6.7856565558e-002
 4.8069947909e+000	 1.3757910742e+000	 2.1975451206e-001
 4.7933994458e+000	 1.4224351489e+000	 2.1103624588e-001
 4.7793162305e+000	 1.4690596886e+000	 2.0152485744e-001
 4.7647436905e+000	 1.5156574692e+000	 1.9105489615e-001
 4.7496805060e+000	 1.5622212044e+000	 1.7944080917e-001
 4.7341254942e+000	 1.6087435486e+000	 1.6647718110e-001
 4.7180776120e+000	 1.6552170998e+000	 1.5193902681e-001
 4.7015359573e+000	 1.7016344032e+000	 1.3558213757e-001
 4.6844997719e+000	 1.7479879539e+000	 1.1714348081e-001
 4.6669684431e+000	 1.7942702003e+000	 9.6341653591e-002
 4.6489415053e+000	 1.8404735478e+000	 7.2877389478e-002
 4.4164944300e+000	 1.7484498704e+000	 4.0584742933e-002
 4.3988977105e+000	 1.7922608439e+000	 4.0638217569e-002
 4.3808297054e+000	 1.8359823234e+000	 4.1560755443e-002
 4.3622904030e+000	 1.8796069909e+000	 8.3730738236e-003
 4.3432799376e+000	 1.9231275005e+000	-3.9035713720e-002
 4.3237985918e+000	 1.9665364825e+000	-7.7668790991e-002
 4.3038467969e+000	 2.0098265468e+000	-1.0770088328e-001
 4.2834251345e+000	 2.0529902865e+000	-1.2932373054e-001
 4.2625343375e+000	 2.0960202818e+000	-1.4274566181e-001
 4.2411752908e+000	 2.1389091034e+000	-1.4819113226e-001
 4.2193490324e+000	 2.1816493170e+000	-1.4590022380e-001
 4.4397391376e+000	 1.7576522382e+000	 4.2214242106e-002
 4.4220498037e+000	 1.8016937957e+000	 3.8954943499e-002
 4.4038867039e+000	 1.8456453883e+000	 3.6318657755e-002
 4.3852498261e+000	 1.8894996592e+000	 3.2422727667e-002
 4.3661393057e+000	 1.9332492242e+000	 6.1020597844e-003
 4.3465554265e+000	 1.9768866745e+000	-3.8804017522e-002
 4.3264986222e+000	 2.0204045813e+000	-7.5280117379e-002
 4.3059694774e+000	 2.0637954986e+000	-1.0351679956e-001
 4.2849687287e+000	 2.1070519675e+000	-1.2372109150e-001
 4.2634972660e+000	 2.1501665198e+000	-1.3611601750e-001
 4.2415561326e+000	 2.1931316818e+000	-1.4094009141e-001
 4.4629838451e+000	 1.7668546059e+000	 4.4157480648e-002
 4.4452018969e+000	 1.8111267475e+000	 3.7757057918e-002
 4.4269437023e+000	 1.8553084531e+000	 3.1739084588e-002
 4.4082092493e+000	 1.8993923276e+000	 2.3630463579e-002
 4.3889986738e+000	 1.9433709479e+000	 1.6780789059e-002
 4.3693122612e+000	 1.9872368665e+000	 4.3262979200e-004
 4.3491504474e+000	 2.0309826157e+000	-4.2323865340e-002
 4.3285138202e+000	 2.0746007106e+000	-7.7006011597e-002
 4.3074031200e+000	 2.1180836532e+000	-1.0381969172e-001
 4.2858192412e+000	 2.1614239361e+000	-1.2298666102e-001
 4.2637632328e+000	 2.2046140466e+000	-1.3474403188e-001
 4.4862285526e+000	 1.7760569736e+000	 4.6429788811e-002
 4.4683539901e+000	 1.8205596993e+000	 3.7059124321e-002
 4.4500007008e+000	 1.8649715180e+000	 2.7835787625e-002
 4.4311686725e+000	 1.9092849960e+000	 1.6007767986e-002
 4.4118580419e+000	 1.9534926715e+000	 6.5979086724e-003
 4.3920690959e+000	 1.9975870585e+000	 6.6036654827e-004
 4.3718022727e+000	 2.0415606502e+000	-8.8269204658e-003
 4.3510581630e+000	 2.0854059226e+000	-4.9787455622e-002
 4.3298375112e+000	 2.1291153389e+000	-8.3038898740e-002
 4.3081412164e+000	 2.1726813525e+000	-1.0880189816e-001
 4.2859703329e+000	 2.2160964114e+000	-1.2731233162e-001
 4.5094732602e+000	 1.7852593414e+000	 4.9046691997e-002
 4.4915060834e+000	 1.8299926511e+000	 3.6875939624e-002
 4.4730576992e+000	 1.8746345829e+000	 2.4622791424e-002
 4.4541280956e+000	 1.9191776644e+000	 9.5365617556e-003
 4.4347174100e+000	 1.9636143952e+000	-2.3089768205e-003
 4.4148259306e+000	 2.0079372506e+000	-1.0961570387e-002
 4.3944540979e+000	 2.0521386846e+000	-1.6510036204e-002
 4.3736025058e+000	 2.0962111347e+000	-2.1856733061e-002
 4.3522719025e+000	 2.1401470246e+000	-6.1375614933e-002
 4.3304631916e+000	 2.1839387688e+000	-9.3559982987e-002
 4.3081774331e+000	 2.2275787763e+000	-1.1864464726e-001
 4.5327179677e+000	 1.7944617091e+000	 5.2023905765e-002
 4.5146581766e+000	 1.8394256029e+000	 3.7222528181e-002
 4.4961146977e+000	 1.8842976477e+000	 2.1353314353e-002
 4.4770875188e+000	 1.9290703327e+000	 4.1990712206e-003
 4.4575767781e+000	 1.9737361189e+000	-9.9595911694e-003
 4.4375827653e+000	 2.0182874426e+000	-2.1200872399e-002
 4.4171059232e+000	 2.0627167191e+000	-2.9608170284e-002
 4.3961468486e+000	 2.1070163467e+000	-3.5270046962e-002
 4.3747062937e+000	 2.1511787103e+000	-3.8826222510e-002
 4.3527851668e+000	 2.1951961851e+000	-7.7258603175e-002
 4.3303845333e+000	 2.2390611411e+000	-1.0874002180e-001
 4.5559626752e+000	 1.8036640769e+000	 5.5377330972e-002
 4.5378102698e+000	 1.8488585547e+000	 3.8114135977e-002
 4.5191716961e+000	 1.8939607126e+000	 1.9047646947e-002
 4.5000469420e+000	 1.9389630011e+000	-2.2179611918e-005
 4.4804361462e+000	 1.9838578426e+000	-1.6373320766e-002
 4.4603396000e+000	 2.0286376346e+000	-3.0078885249e-002
 4.4397577484e+000	 2.0732947536e+000	-4.1216893921e-002
 4.4186911914e+000	 2.1178215587e+000	-4.9870247587e-002
 4.3971406850e+000	 2.1622103960e+000	-5.6126685503e-002
 4.3751071420e+000	 2.2064536015e+000	-6.0078734492e-002
 4.3525916335e+000	 2.2505435059e+000	-9.7596900255e-002
 4.5792073827e+000	 1.8128664446e+000	 5.9123049075e-002
 4.5609623630e+000	 1.8582915065e+000	 3.9566225009e-002
 4.5422286946e+000	 1.9036237774e+000	 1.7726010381e-002
 4.5230063652e+000	 1.9488556695e+000	-3.1443766170e-003
 4.5032955143e+000	 1.9939795663e+000	-2.1569223206e-002
 4.4830964347e+000	 2.0389878266e+000	-3.7616586158e-002
 4.4624095737e+000	 2.0838727880e+000	-5.1359151286e-002
 4.4412355342e+000	 2.1286267708e+000	-6.2874202988e-002
 4.4195750762e+000	 2.1732420817e+000	-7.2243584828e-002
 4.3974291173e+000	 2.2177110178e+000	-7.9553651073e-002
 4.3747987336e+000	 2.2620258708e+000	-8.5213144840e-002
 4.6024520903e+000	 1.8220688123e+000	 6.3277317568e-002
 4.5841144562e+000	 1.8677244584e+000	 4.1594467829e-002
 4.5652856930e+000	 1.9132868423e+000	 1.7373288190e-002
 4.5459657884e+000	 1.9587483379e+000	-5.1844228774e-003
 4.5261548824e+000	 2.0041012900e+000	-2.5566035594e-002
 4.5058532694e+000	 2.0493380186e+000	-4.3834593115e-002
 4.4850613989e+000	 2.0944508225e+000	-6.0057487547e-002
 4.4637798771e+000	 2.1394319828e+000	-7.4306431210e-002
 4.4420094675e+000	 2.1842737674e+000	-8.6657419280e-002
 4.4197510925e+000	 2.2289684341e+000	-9.7190683741e-002
 4.3970058338e+000	 2.2735082356e+000	-1.0599063857e-001
 4.6256967978e+000	 1.8312711801e+000	 6.7856565558e-002
 4.6072665494e+000	 1.8771574102e+000	 4.4072443038e-002
 4.5883426915e+000	 1.9229499072e+000	 1.7974603869e-002
 4.5689252115e+000	 1.9686410063e+000	-6.1589457893e-003
 4.5490142505e+000	 2.0142230137e+000	-2.8382182593e-002
 4.5286101041e+000	 2.0596882107e+000	-4.8753173901e-002
 4.5077132242e+000	 2.1050288570e+000	-6.7334058897e-002
 4.4863242199e+000	 2.1502371949e+000	-8.4191021562e-002
 4.4644438587e+000	 2.1953054531e+000	-9.9394255371e-002
 4.4420730677e+000	 2.2402258505e+000	-1.1301791965e-001
 4.4192129340e+000	 2.2849906004e+000	-1.2514008750e-001
 4.6489415053e+000	 1.8404735478e+000	 7.2877389478e-002
 4.6304186427e+000	 1.8865903620e+000	 4.6812385968e-002
 4.6113996900e+000	 1.9326129720e+000	 1.9515314871e-002
 4.5918846347e+000	 1.9785336746e+000	-6.0843039540e-003
 4.5718736186e+000	 2.0243447374e+000	-3.0035784237e-002
 4.5513669388e+000	 2.0700384027e+000	-5.2392254847e-002
 4.5303650494e+000	 2.1156068914e+000	-7.3210642279e-002
 4.5088685627e+000	 2.1610424069e+000	-9.2551645338e-002
 4.4868782500e+000	 2.2063371388e+000	-1.1047970188e-001
 4.4643950429e+000	 2.2514832668e+000	-1.2706294756e-001
 4.4414200342e+000	 2.2964729653e+000	-1.4237316647e-001
 4.2193490324e+000	 2.1816493170e+000	-1.4590022380e-001
 4.1970567543e+000	 2.2242334862e+000	-1.5894888737e-001
 4.1742998024e+000	 2.2666541773e+000	-1.7251510911e-001
 4.1510796778e+000	 2.3089039626e+000	-1.8664644678e-001
 4.1273980366e+000	 2.3509754247e+000	-2.0139457403e-001
 4.1032566903e+000	 2.3928611605e+000	-2.1681478193e-001
 4.0786576062e+000	 2.4345537848e+000	-2.3296546488e-001
 4.0536029072e+000	 2.4760459347e+000	-2.4990759258e-001
 4.0280948713e+000	 2.5173302738e+000	-2.7060570743e-001
 4.0021359322e+000	 2.5583994957e+000	-2.9628924458e-001
 3.9757286783e+000	 2.5992463286e+000	-3.2301899368e-001
 4.2415561326e+000	 2.1931316818e+000	-1.4094009141e-001
 4.2191465267e+000	 2.2359399782e+000	-1.5663798914e-001
 4.1962698014e+000	 2.2785839361e+000	-1.7205215044e-001
 4.1729274656e+000	 2.3210560887e+000	-1.8725520686e-001
 4.1491211841e+000	 2.3633489796e+000	-2.0232484643e-001
 4.1248527781e+000	 2.4054551666e+000	-2.1734328856e-001
 4.1001242252e+000	 2.4473672257e+000	-2.3239674198e-001
 4.0749376593e+000	 2.4890777554e+000	-2.4757484706e-001
 4.0492953706e+000	 2.5305793805e+000	-2.6760792914e-001
 4.0231998056e+000	 2.5718647562e+000	-2.8966362589e-001
 3.9966535661e+000	 2.6129265724e+000	-3.1215663173e-001
 4.2637632328e+000	 2.2046140466e+000	-1.3474403188e-001
 4.2412362991e+000	 2.2476464703e+000	-1.5343198356e-001
 4.2182398003e+000	 2.2905136949e+000	-1.7104183942e-001
 4.1947752533e+000	 2.3332082148e+000	-1.8767128263e-001
 4.1708443317e+000	 2.3757225345e+000	-2.0342398913e-001
 4.1464488660e+000	 2.4180491727e+000	-2.1840907600e-001
 4.1215908442e+000	 2.4601806667e+000	-2.3274053120e-001
 4.0962724114e+000	 2.5021095762e+000	-2.4682293882e-001
 4.0704958700e+000	 2.5438284872e+000	-2.6592086988e-001
 4.0442636789e+000	 2.5853300167e+000	-2.8476987983e-001
 4.0175784539e+000	 2.6266068162e+000	-3.0345236100e-001
 4.2859703329e+000	 2.2160964114e+000	-1.2731233162e-001
 4.2633260715e+000	 2.2593529623e+000	-1.4932447459e-001
 4.2402097993e+000	 2.3024434537e+000	-1.6947098100e-001
 4.2166230411e+000	 2.3453603409e+000	-1.8787456657e-001
 4.1925674792e+000	 2.3880960893e+000	-2.0466487210e-001
 4.1680449538e+000	 2.4306431788e+000	-2.1997788504e-001
 4.1430574632e+000	 2.4729941077e+000	-2.3395534094e-001
 4.1176071636e+000	 2.5151413969e+000	-2.4859684918e-001
 4.0916963693e+000	 2.5570775939e+000	-2.6552916031e-001
 4.0653275522e+000	 2.5987952773e+000	-2.8158562616e-001
 4.0385033416e+000	 2.6402870601e+000	-2.9687668287e-001
 4.3081774331e+000	 2.2275787763e+000	-1.1864464726e-001
 4.2854158438e+000	 2.2710594543e+000	-1.4430855568e-001
 4.2621797983e+000	 2.3143732126e+000	-1.6732599122e-001
 4.2384708289e+000	 2.3575124671e+000	-1.8784468636e-001
 4.2142906268e+000	 2.4004696442e+000	-2.0602022688e-001
 4.1896410417e+000	 2.4432371849e+000	-2.2201544669e-001
 4.1645240822e+000	 2.4858075487e+000	-2.3599980077e-001
 4.1389419157e+000	 2.5281732176e+000	-2.5124882076e-001
 4.1128968686e+000	 2.5703267006e+000	-2.6641782066e-001
 4.0863914255e+000	 2.6122605378e+000	-2.8008901152e-001
 4.0594282294e+000	 2.6539673039e+000	-2.9240076500e-001
 4.3303845333e+000	 2.2390611411e+000	-1.0874002180e-001
 4.3075056162e+000	 2.2827659464e+000	-1.3837682276e-001
 4.2841497972e+000	 2.3263029714e+000	-1.6459290720e-001
 4.2603186167e+000	 2.3696645932e+000	-1.8756101157e-001
 4.2360137743e+000	 2.4128431991e+000	-2.0746265009e-001
 4.2112371295e+000	 2.4558311910e+000	-2.2448748245e-001
 4.1859907011e+000	 2.4986209896e+000	-2.3883265833e-001
 4.1602766679e+000	 2.5412050383e+000	-2.5477088648e-001
 4.1340973679e+000	 2.5835758073e+000	-2.6857225075e-001
 4.1074552989e+000	 2.6257257983e+000	-2.8025869596e-001
 4.0803531172e+000	 2.6676475477e+000	-2.8999642422e-001
 4.3525916335e+000	 2.2505435059e+000	-9.7596900255e-002
 4.3295953886e+000	 2.2944724384e+000	-1.3152138702e-001
 4.3061197962e+000	 2.3382327302e+000	-1.6125739675e-001
 4.2821664045e+000	 2.3818167193e+000	-1.8700266031e-001
 4.2577369219e+000	 2.4252167539e+000	-2.0896460687e-001
 4.2328332174e+000	 2.4684251971e+000	-2.2735970455e-001
 4.2074573201e+000	 2.5114344306e+000	-2.4342103760e-001
 4.1816114200e+000	 2.5542368590e+000	-2.5915532074e-001
 4.1552978673e+000	 2.5968249141e+000	-2.7197822026e-001
 4.1285191722e+000	 2.6391910588e+000	-2.8207383981e-001
 4.1012780050e+000	 2.6813277916e+000	-2.8963611001e-001
 4.3747987336e+000	 2.2620258708e+000	-8.5213144840e-002
 4.3516851610e+000	 2.3061789304e+000	-1.2373388713e-001
 4.3280897951e+000	 2.3501624891e+000	-1.5730476784e-001
 4.3040141922e+000	 2.3939688454e+000	-1.8614850560e-001
 4.2794600695e+000	 2.4375903088e+000	-2.1049843424e-001
 4.2544293052e+000	 2.4810192032e+000	-2.3059781618e-001
 4.2289239391e+000	 2.5242478716e+000	-2.4862154050e-001
 4.2029461722e+000	 2.5672686797e+000	-2.6439463326e-001
 4.1764983666e+000	 2.6100740208e+000	-2.7662185936e-001
 4.1495830455e+000	 2.6526563193e+000	-2.8551409101e-001
 4.1222028927e+000	 2.6950080354e+000	-2.9129288839e-001
 4.3970058338e+000	 2.2735082356e+000	-1.0599063857e-001
 4.3737749334e+000	 2.3178854225e+000	-1.1500550126e-001
 4.3500597941e+000	 2.3620922479e+000	-1.5271997759e-001
 4.3258619800e+000	 2.4061209716e+000	-1.8497718152e-001
 4.3011832170e+000	 2.4499638637e+000	-2.1203634432e-001
 4.2760253930e+000	 2.4936132094e+000	-2.3416751170e-001
 4.2503905581e+000	 2.5370613125e+000	-2.5429776617e-001
 4.2242809243e+000	 2.5803005004e+000	-2.7048156313e-001
 4.1976988659e+000	 2.6233231275e+000	-2.8248964965e-001
 4.1706469189e+000	 2.6661215798e+000	-2.9055957278e-001
 4.1431277805e+000	 2.7086882792e+000	-2.9494042639e-001
 4.4192129340e+000	 2.2849906004e+000	-1.2514008750e-001
 4.3958647058e+000	 2.3295919145e+000	-1.3528840540e-001
 4.3720297931e+000	 2.3740220067e+000	-1.4748764116e-001
 4.3477097678e+000	 2.4182730977e+000	-1.8346708928e-001
 4.3229063646e+000	 2.4623374186e+000	-2.1355042747e-001
 4.2976214809e+000	 2.5062072155e+000	-2.3843607359e-001
 4.2718571771e+000	 2.5498747535e+000	-2.6044871399e-001
 4.2456156764e+000	 2.5933323211e+000	-2.7740907305e-001
 4.2188993652e+000	 2.6365722342e+000	-2.8956841526e-001
 4.1917107922e+000	 2.6795868403e+000	-2.9719087168e-001
 4.1640526683e+000	 2.7223685231e+000	-3.0055297693e-001
 4.4414200342e+000	 2.2964729653e+000	-1.4237316647e-001
 4.4179544782e+000	 2.3412984066e+000	-1.5576032305e-001
 4.3939997920e+000	 2.3859517656e+000	-1.6659460217e-001
 4.3695575556e+000	 2.4304252238e+000	-1.8159640299e-001
 4.3446295122e+000	 2.4747109734e+000	-2.1501265535e-001
 4.3192175687e+000	 2.5188012216e+000	-2.4327786435e-001
 4.2933237960e+000	 2.5626881945e+000	-2.6707348724e-001
 4.2669504286e+000	 2.6063641418e+000	-2.8517034378e-001
 4.2400998645e+000	 2.6498213409e+000	-2.9784531434e-001
 4.2127746655e+000	 2.6930521008e+000	-3.0538902603e-001
 4.1849775561e+000	 2.7360487669e+000	-3.0810536420e-001
 3.9757286783e+000	 2.5992463286e+000	-3.2301899368e-001
 3.9488758523e+000	 2.6398635388e+000	-3.4149403023e-001
 3.9215803507e+000	 2.6802439354e+000	-3.5613987515e-001
 3.8938452231e+000	 2.7203803739e+000	-3.6725765265e-001
 3.8656736713e+000	 2.7602657603e+000	-3.7515810939e-001
 3.8370690480e+000	 2.7998930552e+000	-3.8016105603e-001
 3.8080348563e+000	 2.8392552779e+000	-3.8259478600e-001
 3.7785747479e+000	 2.8783455100e+000	-3.8279547244e-001
 3.7486925218e+000	 2.9171568997e+000	-3.8266595906e-001
 3.7183921230e+000	 2.9556826656e+000	-4.1367775955e-001
 3.6876776410e+000	 2.9939161004e+000	-4.4006158703e-001
 3.9966535661e+000	 2.6129265724e+000	-3.1215663173e-001
 3.9696594094e+000	 2.6537575574e+000	-3.3046726243e-001
 3.9422202473e+000	 2.6943504824e+000	-3.4548788055e-001
 3.9143391453e+000	 2.7346981653e+000	-3.5750482202e-001
 3.8860193222e+000	 2.7747934748e+000	-3.6681354116e-001
 3.8572641483e+000	 2.8146293345e+000	-3.7371806097e-001
 3.8280771451e+000	 2.8541987267e+000	-3.7853040093e-001
 3.7984619834e+000	 2.8934946969e+000	-3.8156998389e-001
 3.7684224824e+000	 2.9325103571e+000	-3.8316302314e-001
 3.7379626079e+000	 2.9712388901e+000	-3.9721958674e-001
 3.7070864707e+000	 3.0096735536e+000	-4.2896764143e-001
 4.0175784539e+000	 2.6266068162e+000	-3.0345236100e-001
 3.9904429665e+000	 2.6676515760e+000	-3.2123294167e-001
 3.9628601438e+000	 2.7084570295e+000	-3.3625525710e-001
 3.9348330675e+000	 2.7490159568e+000	-3.4879108096e-001
 3.9063649731e+000	 2.7893211894e+000	-3.5912080789e-001
 3.8774592485e+000	 2.8293656137e+000	-3.6753291212e-001
 3.8481194338e+000	 2.8691421756e+000	-3.7432338426e-001
 3.8183492189e+000	 2.9086438838e+000	-3.7979514771e-001
 3.7881524430e+000	 2.9478638144e+000	-3.8425745589e-001
 3.7575330927e+000	 2.9867951147e+000	-3.8802527171e-001
 3.7264953004e+000	 3.0254310067e+000	-4.1628762552e-001
 4.0385033416e+000	 2.6402870601e+000	-2.9687668287e-001
 4.0112265236e+000	 2.6815455947e+000	-3.1376673257e-001
 3.9835000404e+000	 2.7225635765e+000	-3.2842292261e-001
 3.9553269898e+000	 2.7633337482e+000	-3.4110268859e-001
 3.9267106240e+000	 2.8038489039e+000	-3.5207159617e-001
 3.8976543488e+000	 2.8441018930e+000	-3.6160280777e-001
 3.8681617225e+000	 2.8840856244e+000	-3.6997652810e-001
 3.8382364544e+000	 2.9237930707e+000	-3.7747942991e-001
 3.8078824037e+000	 2.9632172718e+000	-3.8440406104e-001
 3.7771035776e+000	 3.0023513392e+000	-3.9104823439e-001
 3.7459041300e+000	 3.0411884599e+000	-4.0202846627e-001
 4.0594282294e+000	 2.6539673039e+000	-2.9240076500e-001
 4.0320100807e+000	 2.6954396133e+000	-3.0804485196e-001
 4.0041399370e+000	 2.7366701235e+000	-3.2197223103e-001
 3.9758209120e+000	 2.7776515397e+000	-3.3442622214e-001
 3.9470562748e+000	 2.8183766184e+000	-3.4565779074e-001
 3.9178494490e+000	 2.8588381722e+000	-3.5592502246e-001
 3.8882040112e+000	 2.8990290732e+000	-3.6549257717e-001
 3.8581236899e+000	 2.9389422576e+000	-3.7463112365e-001
 3.8276123643e+000	 2.9785707292e+000	-3.8361675640e-001
 3.7966740624e+000	 3.0179075638e+000	-3.9273039571e-001
 3.7653129597e+000	 3.0569459131e+000	-4.0225717255e-001
 4.0803531172e+000	 2.6676475477e+000	-2.8999642422e-001
 4.0527936378e+000	 2.7093336319e+000	-3.0404405474e-001
 4.0247798336e+000	 2.7507766705e+000	-3.1688496132e-001
 3.9963148342e+000	 2.7919693311e+000	-3.2874856877e-001
 3.9674019257e+000	 2.8329043329e+000	-3.3987146937e-001
 3.9380445493e+000	 2.8735744514e+000	-3.5049690510e-001
 3.9082462999e+000	 2.9139725220e+000	-3.6087423001e-001
 3.8780109254e+000	 2.9540914445e+000	-3.7125835371e-001
 3.8473423250e+000	 2.9939241865e+000	-3.8190916751e-001
 3.8162445473e+000	 3.0334637884e+000	-3.9309095441e-001
 3.7847217894e+000	 3.0727033662e+000	-4.0507178448e-001
 4.1012780050e+000	 2.6813277916e+000	-2.8963611001e-001
 4.0735771949e+000	 2.7232276505e+000	-3.0174162017e-001
 4.0454197301e+000	 2.7648832176e+000	-3.1314330655e-001
 4.0168087564e+000	 2.8062871225e+000	-3.2405691772e-001
 3.9877475766e+000	 2.8474320475e+000	-3.3470489798e-001
 3.9582396495e+000	 2.8883107307e+000	-3.4531587699e-001
 3.9282885886e+000	 2.9289159709e+000	-3.5612414017e-001
 3.8978981609e+000	 2.9692406314e+000	-3.6736908078e-001
 3.8670722856e+000	 3.0092776439e+000	-3.7929463508e-001
 3.8358150322e+000	 3.0490200129e+000	-3.9214870210e-001
 3.8041306191e+000	 3.0884608194e+000	-4.0618254910e-001
 4.1222028927e+000	 2.6950080354e+000	-2.9129288839e-001
 4.0943607521e+000	 2.7371216692e+000	-3.0111533853e-001
 4.0660596267e+000	 2.7789897646e+000	-3.1072986340e-001
 4.0373026787e+000	 2.8206049140e+000	-3.2033875258e-001
 4.0080932275e+000	 2.8619597620e+000	-3.3015052582e-001
 3.9784347498e+000	 2.9030470099e+000	-3.4037943004e-001
 3.9483308773e+000	 2.9438594197e+000	-3.5124491736e-001
 3.9177853965e+000	 2.9843898182e+000	-3.6297110559e-001
 3.8868022462e+000	 3.0246311013e+000	-3.7578622223e-001
 3.8553855170e+000	 3.0645762375e+000	-3.8992203360e-001
 3.8235394488e+000	 3.1042182725e+000	-4.0561326027e-001
 4.1431277805e+000	 2.7086882792e+000	-2.9494042639e-001
 4.1151443092e+000	 2.7510156878e+000	-3.0214349821e-001
 4.0866995233e+000	 2.7930963116e+000	-3.0962762200e-001
 4.0577966009e+000	 2.8349227054e+000	-3.1758184388e-001
 4.0284388784e+000	 2.8764874765e+000	-3.2620098090e-001
 3.9986298500e+000	 2.9177832891e+000	-3.3568512497e-001
 3.9683731661e+000	 2.9588028685e+000	-3.4623912853e-001
 3.9376726320e+000	 2.9995390051e+000	-3.5807207301e-001
 3.9065322069e+000	 3.0399845586e+000	-3.7139672150e-001
 3.8749560019e+000	 3.0801324620e+000	-3.8642895698e-001
 3.8429482785e+000	 3.1199757257e+000	-4.0338720744e-001
 4.1640526683e+000	 2.7223685231e+000	-3.0055297693e-001
 4.1359278663e+000	 2.7649097064e+000	-3.0480487322e-001
 4.1073394199e+000	 2.8072028587e+000	-3.0981995599e-001
 4.0782905231e+000	 2.8492404969e+000	-3.1577424190e-001
 4.0487845293e+000	 2.8910151910e+000	-3.2284906542e-001
 4.0188249503e+000	 2.9325195684e+000	-3.3123058959e-001
 3.9884154548e+000	 2.9737463174e+000	-3.4110929896e-001
 3.9575598675e+000	 3.0146881920e+000	-3.5267947590e-001
 3.9262621675e+000	 3.0553380160e+000	-3.6613866163e-001
 3.8945264867e+000	 3.0956886866e+000	-3.8168710326e-001
 3.8623571082e+000	 3.1357331788e+000	-3.9809394207e-001
 4.1849775561e+000	 2.7360487669e+000	-3.0810536420e-001
 4.1567114234e+000	 2.7788037250e+000	-3.0907871106e-001
 4.1279793165e+000	 2.8213094057e+000	-3.1129061300e-001
 4.0987844453e+000	 2.8635582883e+000	-3.1490426965e-001
 4.0691301802e+000	 2.9055429056e+000	-3.2008775147e-001
 4.0390200505e+000	 2.9472558476e+000	-3.2701351709e-001
 4.0084577435e+000	 2.9886897662e+000	-3.3585791331e-001
 3.9774471030e+000	 3.0298373789e+000	-3.4680065898e-001
 3.9459921281e+000	 3.0706914733e+000	-3.6002431418e-001
 3.9140969716e+000	 3.1112449111e+000	-3.7571373583e-001
 3.8817659379e+000	 3.1514906320e+000	-3.9056981821e-001
 3.6876776410e+000	 2.9939161004e+000	-4.4006158703e-001
 3.6565533075e+000	 3.0318505751e+000	-4.6164053392e-001
 3.6250234951e+000	 3.0694795422e+000	-4.7979388208e-001
 3.5930927152e+000	 3.1067965399e+000	-4.9428122245e-001
 3.5607656154e+000	 3.1437951957e+000	-5.0285403966e-001
 3.5280469781e+000	 3.1804692296e+000	-5.0660841691e-001
 3.4949417175e+000	 3.2168124582e+000	-5.0815261009e-001
 3.4614548776e+000	 3.2528187977e+000	-5.0785280687e-001
 3.4275916292e+000	 3.2884822674e+000	-5.0608182013e-001
 3.3933572679e+000	 3.3237969933e+000	-5.0321814976e-001
 3.3587572107e+000	 3.3587572106e+000	-4.9964502785e-001
 3.7070864707e+000	 3.0096735536e+000	-4.2896764143e-001
 3.6757983249e+000	 3.0478076834e+000	-4.5366401019e-001
 3.6441025662e+000	 3.0856346977e+000	-4.7453330611e-001
 3.6120037295e+000	 3.1231481007e+000	-4.9133977980e-001
 3.5795064871e+000	 3.1603414862e+000	-4.9972961788e-001
 3.5466156464e+000	 3.1972085414e+000	-5.0486367383e-001
 3.5133361476e+000	 3.2337430501e+000	-5.0736114469e-001
 3.4796730611e+000	 3.2699388967e+000	-5.0760649716e-001
 3.4456315852e+000	 3.3057900689e+000	-5.0599131434e-001
 3.4112170430e+000	 3.3412906616e+000	-5.0291332933e-001
 3.3764348802e+000	 3.3764348802e+000	-4.9877544134e-001
 3.7264953004e+000	 3.0254310067e+000	-4.1628762552e-001
 3.6950433423e+000	 3.0637647916e+000	-4.4425517961e-001
 3.6631816372e+000	 3.1017898531e+000	-4.6799872782e-001
 3.6309147437e+000	 3.1394996614e+000	-4.8528968747e-001
 3.5982473587e+000	 3.1768877767e+000	-4.9538319541e-001
 3.5651843147e+000	 3.2139478531e+000	-5.0202142018e-001
 3.5317305777e+000	 3.2506736420e+000	-5.0559859429e-001
 3.4978912447e+000	 3.2870589956e+000	-5.0651753199e-001
 3.4636715411e+000	 3.3230978703e+000	-5.0518865521e-001
 3.4290768181e+000	 3.3587843300e+000	-5.0202899869e-001
 3.3941125497e+000	 3.3941125497e+000	-4.9746119699e-001
 3.7459041300e+000	 3.0411884599e+000	-4.0202846627e-001
 3.7142883597e+000	 3.0797218999e+000	-4.3341893314e-001
 3.6822607082e+000	 3.1179450086e+000	-4.6019295530e-001
 3.6498257580e+000	 3.1558512221e+000	-4.7769567071e-001
 3.6169882304e+000	 3.1934340672e+000	-4.8985540855e-001
 3.5837529830e+000	 3.2306871648e+000	-4.9811936508e-001
 3.5501250078e+000	 3.2676042339e+000	-5.0289967178e-001
 3.5161094283e+000	 3.3041790945e+000	-5.0461756103e-001
 3.4817114971e+000	 3.3404056717e+000	-5.0370236426e-001
 3.4469365932e+000	 3.3762779984e+000	-5.0059048855e-001
 3.4117902192e+000	 3.4117902192e+000	-4.9572437417e-001
 3.7653129597e+000	 3.0569459131e+000	-4.0225717255e-001
 3.7335333771e+000	 3.0956790082e+000	-4.2115964477e-001
 3.7013397793e+000	 3.1341001641e+000	-4.4974663089e-001
 3.6687367723e+000	 3.1722027829e+000	-4.6884358614e-001
 3.6357291020e+000	 3.2099803577e+000	-4.8318651034e-001
 3.6023216513e+000	 3.2474264766e+000	-4.9319488125e-001
 3.5685194379e+000	 3.2845348258e+000	-4.9929880163e-001
 3.5343276118e+000	 3.3212991935e+000	-5.0193799460e-001
 3.4997514530e+000	 3.3577134731e+000	-5.0156077389e-001
 3.4647963683e+000	 3.3937716668e+000	-4.9862299169e-001
 3.4294678888e+000	 3.4294678888e+000	-4.9358696662e-001
 3.7847217894e+000	 3.0727033662e+000	-4.0507178448e-001
 3.7527783945e+000	 3.1116361165e+000	-4.1018340184e-001
 3.7204188503e+000	 3.1502553196e+000	-4.3692713392e-001
 3.6876477866e+000	 3.1885543436e+000	-4.5877607917e-001
 3.6544699737e+000	 3.2265266482e+000	-4.7541638035e-001
 3.6208903196e+000	 3.2641657883e+000	-4.8728501365e-001
 3.5869138680e+000	 3.3014654177e+000	-4.9483012732e-001
 3.5525457954e+000	 3.3384192924e+000	-4.9851000987e-001
 3.5177914090e+000	 3.3750212745e+000	-4.9879203222e-001
 3.4826561434e+000	 3.4112653352e+000	-4.9615156655e-001
 3.4471455583e+000	 3.4471455583e+000	-4.9107088460e-001
 3.8041306191e+000	 3.0884608194e+000	-4.0618254910e-001
 3.7720234120e+000	 3.1275932248e+000	-4.1332578881e-001
 3.7394979213e+000	 3.1664104751e+000	-4.2282449843e-001
 3.7065588009e+000	 3.2049059043e+000	-4.4753538783e-001
 3.6732108454e+000	 3.2430729387e+000	-4.6658453422e-001
 3.6394589879e+000	 3.2809051000e+000	-4.8042648779e-001
 3.6053082981e+000	 3.3183960095e+000	-4.8952751847e-001
 3.5707639790e+000	 3.3555393913e+000	-4.9436455679e-001
 3.5358313649e+000	 3.3923290759e+000	-4.9542410777e-001
 3.5005159185e+000	 3.4287590036e+000	-4.9320114061e-001
 3.4648232278e+000	 3.4648232278e+000	-4.8819795707e-001
 3.8235394488e+000	 3.1042182725e+000	-4.0561326027e-001
 3.7912684294e+000	 3.1435503331e+000	-4.1295896321e-001
 3.7585769923e+000	 3.1825656306e+000	-4.1509281184e-001
 3.7254698152e+000	 3.2212574651e+000	-4.3516335313e-001
 3.6919517170e+000	 3.2596192292e+000	-4.5673013291e-001
 3.6580276562e+000	 3.2976444118e+000	-4.7265571789e-001
 3.6237027281e+000	 3.3353266014e+000	-4.8342457781e-001
 3.5889821625e+000	 3.3726594903e+000	-4.8953236384e-001
 3.5538713209e+000	 3.4096368773e+000	-4.9148479405e-001
 3.5183756936e+000	 3.4462526720e+000	-4.8979651373e-001
 3.4825008974e+000	 3.4825008974e+000	-4.8498993369e-001
 3.8429482785e+000	 3.1199757257e+000	-4.0338720744e-001
 3.8105134468e+000	 3.1595074414e+000	-4.1107725663e-001
 3.7776560634e+000	 3.1987207860e+000	-4.1532402328e-001
 3.7443808295e+000	 3.2376090258e+000	-4.2170142910e-001
 3.7106925887e+000	 3.2761655197e+000	-4.4589199163e-001
 3.6765963245e+000	 3.3143837235e+000	-4.6400881472e-001
 3.6420971582e+000	 3.3522571933e+000	-4.7655464792e-001
 3.6072003461e+000	 3.3897795892e+000	-4.8404394365e-001
 3.5719112768e+000	 3.4269446787e+000	-4.8700171396e-001
 3.5362354687e+000	 3.4637463403e+000	-4.8596236139e-001
 3.5001785669e+000	 3.5001785669e+000	-4.8146848691e-001
 3.8623571082e+000	 3.1357331788e+000	-3.9809394207e-001
 3.8297584642e+000	 3.1754645497e+000	-4.0771045875e-001
 3.7967351344e+000	 3.2148759415e+000	-4.1417021816e-001
 3.7632918438e+000	 3.2539605865e+000	-4.1784258507e-001
 3.7294334603e+000	 3.2927118102e+000	-4.3410858855e-001
 3.6951649928e+000	 3.3311230352e+000	-4.5452159321e-001
 3.6604915883e+000	 3.3691877852e+000	-4.6895081778e-001
 3.6254185297e+000	 3.4068996881e+000	-4.7792959841e-001
 3.5899512327e+000	 3.4442524801e+000	-4.8200232410e-001
 3.5540952438e+000	 3.4812400087e+000	-4.8172323779e-001
 3.5178562364e+000	 3.5178562364e+000	-4.7765521382e-001
 3.8817659379e+000	 3.1514906320e+000	-3.9056981821e-001
 3.8490034816e+000	 3.1914216579e+000	-4.0288791599e-001
 3.8158142054e+000	 3.2310310970e+000	-4.1165849486e-001
 3.7822028581e+000	 3.2703121473e+000	-4.1726498988e-001
 3.7481743320e+000	 3.3092581007e+000	-4.2141807322e-001
 3.7137336611e+000	 3.3478623470e+000	-4.4422957989e-001
 3.6788860184e+000	 3.3861183771e+000	-4.6064592906e-001
 3.6436367132e+000	 3.4240197871e+000	-4.7121942512e-001
 3.6079911887e+000	 3.4615602815e+000	-4.7651391889e-001
 3.5719550189e+000	 3.4987336771e+000	-4.7710357888e-001
 3.5355339060e+000	 3.5355339059e+000	-4.7357163809e-001
 3.3587572107e+000	 3.3587572106e+000	-4.9964502785e-001
 3.3237969933e+000	 3.3933572679e+000	-4.9669315819e-001
 3.2884822674e+000	 3.4275916292e+000	-4.9411883056e-001
 3.2528187977e+000	 3.4614548776e+000	-4.9229361823e-001
 3.2168124582e+000	 3.4949417175e+000	-4.9158970184e-001
 3.1804692296e+000	 3.5280469781e+000	-4.9237889174e-001
 3.1437951957e+000	 3.5607656154e+000	-4.9503164942e-001
 3.1067965399e+000	 3.5930927152e+000	-4.9654315749e-001
 3.0694795422e+000	 3.6250234951e+000	-4.9740338905e-001
 3.0318505751e+000	 3.6565533075e+000	-5.0105941676e-001
 2.9939161004e+000	 3.6876776410e+000	-5.0727392243e-001
 3.3764348802e+000	 3.3764348802e+000	-4.9877544134e-001
 3.3412906616e+000	 3.4112170430e+000	-4.9487864045e-001
 3.3057900689e+000	 3.4456315852e+000	-4.9154074592e-001
 3.2699388967e+000	 3.4796730611e+000	-4.8915645177e-001
 3.2337430501e+000	 3.5133361476e+000	-4.8812089267e-001
 3.1972085414e+000	 3.5466156464e+000	-4.8882863265e-001
 3.1603414862e+000	 3.5795064871e+000	-4.9167265326e-001
 3.1231481007e+000	 3.6120037295e+000	-4.9673464863e-001
 3.0856346977e+000	 3.6441025662e+000	-4.9891006233e-001
 3.0478076834e+000	 3.6757983249e+000	-5.0418670501e-001
 3.0096735536e+000	 3.7070864707e+000	-5.1233633596e-001
 3.3941125497e+000	 3.3941125497e+000	-4.9746119699e-001
 3.3587843300e+000	 3.4290768181e+000	-4.9280412450e-001
 3.3230978703e+000	 3.4636715411e+000	-4.8888455566e-001
 3.2870589956e+000	 3.4978912447e+000	-4.8612035229e-001
 3.2506736420e+000	 3.5317305777e+000	-4.8492965246e-001
 3.2139478531e+000	 3.5651843147e+000	-4.8572982540e-001
 3.1768877767e+000	 3.5982473587e+000	-4.8893642619e-001
 3.1394996614e+000	 3.6309147437e+000	-4.9496215292e-001
 3.1017898531e+000	 3.6631816372e+000	-5.0082223664e-001
 3.0637647916e+000	 3.6950433423e+000	-5.0793618990e-001
 3.0254310067e+000	 3.7264953004e+000	-5.1823416727e-001
 3.4117902192e+000	 3.4117902192e+000	-4.9572437417e-001
 3.3762779984e+000	 3.4469365932e+000	-4.9048764133e-001
 3.3404056717e+000	 3.4817114971e+000	-4.8616426591e-001
 3.3041790945e+000	 3.5161094283e+000	-4.8319532721e-001
 3.2676042339e+000	 3.5501250078e+000	-4.8202201868e-001
 3.2306871648e+000	 3.5837529830e+000	-4.8308456888e-001
 3.1934340672e+000	 3.6169882304e+000	-4.8682116248e-001
 3.1558512221e+000	 3.6498257580e+000	-4.9366686411e-001
 3.1179450086e+000	 3.6822607082e+000	-5.0313846720e-001
 3.0797218999e+000	 3.7142883597e+000	-5.1230337898e-001
 3.0411884599e+000	 3.7459041300e+000	-5.2495990925e-001
 3.4294678888e+000	 3.4294678888e+000	-4.9358696662e-001
 3.3937716668e+000	 3.4647963683e+000	-4.8794720480e-001
 3.3577134731e+000	 3.4997514530e+000	-4.8339393348e-001
 3.3212991935e+000	 3.5343276118e+000	-4.8039150176e-001
 3.2845348258e+000	 3.5685194379e+000	-4.7940421302e-001
 3.2474264766e+000	 3.6023216513e+000	-4.8089521185e-001
 3.2099803577e+000	 3.6357291020e+000	-4.8532537113e-001
 3.1722027829e+000	 3.6687367723e+000	-4.9315218244e-001
 3.1341001641e+000	 3.7013397793e+000	-5.0482865238e-001
 3.0956790082e+000	 3.7335333771e+000	-5.1728428412e-001
 3.0569459131e+000	 3.7653129597e+000	-5.1525350669e-001
 3.4471455583e+000	 3.4471455583e+000	-4.9107088460e-001
 3.4112653352e+000	 3.4826561434e+000	-4.8520081202e-001
 3.3750212745e+000	 3.5177914090e+000	-4.8058766454e-001
 3.3384192924e+000	 3.5525457954e+000	-4.7771911593e-001
 3.3014654177e+000	 3.5869138680e+000	-4.7708263665e-001
 3.2641657883e+000	 3.6208903196e+000	-4.7916434653e-001
 3.2265266482e+000	 3.6544699737e+000	-4.8444786783e-001
 3.1885543436e+000	 3.6876477866e+000	-4.9341318191e-001
 3.1502553196e+000	 3.7204188503e+000	-5.0653549232e-001
 3.1116361165e+000	 3.7527783945e+000	-5.1999236251e-001
 3.0727033662e+000	 3.7847217894e+000	-5.0247456957e-001
 3.4648232278e+000	 3.4648232278e+000	-4.8819795707e-001
 3.4287590036e+000	 3.5005159185e+000	-4.8226644383e-001
 3.3923290759e+000	 3.5358313649e+000	-4.7775961339e-001
 3.3555393913e+000	 3.5707639790e+000	-4.7518852159e-001
 3.3183960095e+000	 3.6053082981e+000	-4.7506386566e-001
 3.2809051000e+000	 3.6394589879e+000	-4.7789480239e-001
 3.2430729387e+000	 3.6732108454e+000	-4.8418776707e-001
 3.2049059043e+000	 3.7065588009e+000	-4.9444529620e-001
 3.1664104751e+000	 3.7394979213e+000	-5.0916485714e-001
 3.1275932248e+000	 3.7720234120e+000	-5.0648144047e-001
 3.0884608194e+000	 3.8041306191e+000	-4.9132172613e-001
 3.4825008974e+000	 3.4825008974e+000	-4.8498993369e-001
 3.4462526720e+000	 3.5183756936e+000	-4.7916206516e-001
 3.4096368773e+000	 3.5538713209e+000	-4.7492398118e-001
 3.3726594903e+000	 3.5889821625e+000	-4.7281017961e-001
 3.3353266014e+000	 3.6237027281e+000	-4.7335464659e-001
 3.2976444118e+000	 3.6580276562e+000	-4.7708964013e-001
 3.2596192292e+000	 3.6919517170e+000	-4.8454447461e-001
 3.2212574651e+000	 3.7254698152e+000	-4.9624430950e-001
 3.1825656306e+000	 3.7585769923e+000	-5.0480246373e-001
 3.1435503331e+000	 3.7912684294e+000	-4.9348803207e-001
 3.1042182725e+000	 3.8235394488e+000	-4.8179375834e-001
 3.5001785669e+000	 3.5001785669e+000	-4.8146848691e-001
 3.4637463403e+000	 3.5362354687e+000	-4.7590562548e-001
 3.4269446787e+000	 3.5719112768e+000	-4.7209501480e-001
 3.3897795892e+000	 3.6072003461e+000	-4.7059465713e-001
 3.3522571933e+000	 3.6420971582e+000	-4.7196189217e-001
 3.3143837235e+000	 3.6765963245e+000	-4.7675214582e-001
 3.2761655197e+000	 3.7106925887e+000	-4.8551768012e-001
 3.2376090258e+000	 3.7443808295e+000	-4.9880634766e-001
 3.1987207860e+000	 3.7776560634e+000	-4.9226712660e-001
 3.1595074414e+000	 3.8105134468e+000	-4.8238745239e-001
 3.1199757257e+000	 3.8429482785e+000	-4.7388995845e-001
 3.5178562364e+000	 3.5178562364e+000	-4.7765521382e-001
 3.4812400087e+000	 3.5540952438e+000	-4.7251505917e-001
 3.4442524801e+000	 3.5899512327e+000	-4.6928700569e-001
 3.4068996881e+000	 3.6254185297e+000	-4.6855262489e-001
 3.3691877852e+000	 3.6604915883e+000	-4.7089267712e-001
 3.3311230352e+000	 3.6951649928e+000	-4.7688582527e-001
 3.2927118102e+000	 3.7294334603e+000	-4.8710734999e-001
 3.2539605865e+000	 3.7632918438e+000	-4.9135272175e-001
 3.2148759415e+000	 3.7967351344e+000	-4.8144321926e-001
 3.1754645497e+000	 3.8297584642e+000	-4.7314766006e-001
 3.1357331788e+000	 3.8623571082e+000	-4.6691787855e-001
 3.5355339060e+000	 3.5355339059e+000	-4.7357163809e-001
 3.4987336771e+000	 3.5719550189e+000	-4.6900828590e-001
 3.4615602815e+000	 3.6079911887e+000	-4.6651428872e-001
 3.4240197871e+000	 3.6436367132e+000	-4.6669485462e-001
 3.3861183771e+000	 3.6788860184e+000	-4.7015423409e-001
 3.3478623470e+000	 3.7137336611e+000	-4.7749439853e-001
 3.3092581007e+000	 3.7481743320e+000	-4.8931372051e-001
 3.2703121473e+000	 3.7822028581e+000	-4.8076143961e-001
 3.2310310970e+000	 3.8158142054e+000	-4.7230226240e-001
 3.1914216579e+000	 3.8490034816e+000	-4.6573704608e-001
 3.1514906320e+000	 3.8817659379e+000	-4.6153676395e-001
 2.9939161004e+000	 3.6876776410e+000	-5.0727392243e-001
 2.9556826656e+000	 3.7183921230e+000	-5.1997415584e-001
 2.9171568997e+000	 3.7486925218e+000	-5.3603531238e-001
 2.8783455100e+000	 3.7785747479e+000	-5.1640120704e-001
 2.8392552779e+000	 3.8080348563e+000	-4.9634420593e-001
 2.7998930552e+000	 3.8370690480e+000	-4.7800623639e-001
 2.7602657603e+000	 3.8656736713e+000	-4.6180085386e-001
 2.7203803739e+000	 3.8938452231e+000	-4.4813517322e-001
 2.6802439354e+000	 3.9215803507e+000	-4.3740898900e-001
 2.6398635388e+000	 3.9488758523e+000	-4.3001391462e-001
 2.5992463286e+000	 3.9757286783e+000	-4.2633254266e-001
 3.0096735536e+000	 3.7070864707e+000	-5.1233633596e-001
 2.9712388901e+000	 3.7379626079e+000	-5.2960292995e-001
 2.9325103571e+000	 3.7684224824e+000	-5.2609623217e-001
 2.8934946969e+000	 3.7984619834e+000	-5.0823002269e-001
 2.8541987267e+000	 3.8280771451e+000	-4.9141523393e-001
 2.8146293345e+000	 3.8572641483e+000	-4.7605069554e-001
 2.7747934748e+000	 3.8860193222e+000	-4.6253003575e-001
 2.7346981653e+000	 3.9143391453e+000	-4.5124079616e-001
 2.6943504824e+000	 3.9422202473e+000	-4.4256356294e-001
 2.6537575574e+000	 3.9696594094e+000	-4.3687111639e-001
 2.6129265724e+000	 3.9966535661e+000	-4.3452760115e-001
 3.0254310067e+000	 3.7264953004e+000	-5.1823416727e-001
 2.9867951147e+000	 3.7575330927e+000	-5.3035868464e-001
 2.9478638144e+000	 3.7881524430e+000	-5.1505725415e-001
 2.9086438838e+000	 3.8183492189e+000	-5.0017882851e-001
 2.8691421756e+000	 3.8481194338e+000	-4.8610628726e-001
 2.8293656137e+000	 3.8774592485e+000	-4.7321853560e-001
 2.7893211894e+000	 3.9063649731e+000	-4.6188961654e-001
 2.7490159568e+000	 3.9348330675e+000	-4.5248783676e-001
 2.7084570295e+000	 3.9628601438e+000	-4.4537490825e-001
 2.6676515760e+000	 3.9904429665e+000	-4.4090510793e-001
 2.6266068162e+000	 4.0175784539e+000	-4.3942445734e-001
 3.0411884599e+000	 3.7459041300e+000	-5.2495990925e-001
 3.0023513392e+000	 3.7771035776e+000	-5.1723856245e-001
 2.9632172718e+000	 3.8078824037e+000	-5.0465140775e-001
 2.9237930707e+000	 3.8382364544e+000	-4.9226454989e-001
 2.8840856244e+000	 3.8681617225e+000	-4.8044096195e-001
 2.8441018930e+000	 3.8976543488e+000	-4.6953996754e-001
 2.8038489039e+000	 3.9267106240e+000	-4.5991636405e-001
 2.7633337482e+000	 3.9553269898e+000	-4.5191955915e-001
 2.7225635765e+000	 3.9835000404e+000	-4.4589272251e-001
 2.6815455947e+000	 4.0112265236e+000	-4.4217195508e-001
 2.6402870601e+000	 4.0385033416e+000	-4.4108547798e-001
 3.0569459131e+000	 3.7653129597e+000	-5.1525350669e-001
 3.0179075638e+000	 3.7966740624e+000	-5.0525420194e-001
 2.9785707292e+000	 3.8276123643e+000	-4.9488915141e-001
 2.9389422576e+000	 3.8581236899e+000	-4.8450421606e-001
 2.8990290732e+000	 3.8882040112e+000	-4.7444280581e-001
 2.8588381722e+000	 3.9178494490e+000	-4.6504500314e-001
 2.8183766184e+000	 3.9470562748e+000	-4.5664669707e-001
 2.7776515397e+000	 3.9758209120e+000	-4.4957872981e-001
 2.7366701235e+000	 4.0041399370e+000	-4.4416605830e-001
 2.6954396133e+000	 4.0320100807e+000	-4.4072693273e-001
 2.6539673039e+000	 4.0594282294e+000	-4.3957209421e-001
 3.0727033662e+000	 3.7847217894e+000	-5.0247456957e-001
 3.0334637884e+000	 3.8162445473e+000	-4.9440984133e-001
 2.9939241865e+000	 3.8473423250e+000	-4.8578119386e-001
 2.9540914445e+000	 3.8780109254e+000	-4.7691495742e-001
 2.9139725220e+000	 3.9082462999e+000	-4.6813531969e-001
 2.8735744514e+000	 3.9380445493e+000	-4.5976346014e-001
 2.8329043329e+000	 3.9674019257e+000	-4.5211669431e-001
 2.7919693311e+000	 3.9963148342e+000	-4.4550763034e-001
 2.7507766705e+000	 4.0247798336e+000	-4.4024333977e-001
 2.7093336319e+000	 4.0527936378e+000	-4.3662454506e-001
 2.6676475477e+000	 4.0803531172e+000	-4.3494482565e-001
 3.0884608194e+000	 3.8041306191e+000	-4.9132172613e-001
 3.0490200129e+000	 3.8358150322e+000	-4.8471010902e-001
 3.0092776439e+000	 3.8670722856e+000	-4.7733848778e-001
 2.9692406314e+000	 3.8978981609e+000	-4.6951400297e-001
 2.9289159709e+000	 3.9282885886e+000	-4.6154195865e-001
 2.8883107307e+000	 3.9582396495e+000	-4.5372496711e-001
 2.8474320475e+000	 3.9877475766e+000	-4.4636210313e-001
 2.8062871225e+000	 4.0168087564e+000	-4.3974806984e-001
 2.7648832176e+000	 4.0454197301e+000	-4.3417237866e-001
 2.7232276505e+000	 4.0735771949e+000	-4.2991854522e-001
 2.6813277916e+000	 4.1012780050e+000	-4.2726330355e-001
 3.1042182725e+000	 3.8235394488e+000	-4.8179375834e-001
 3.0645762375e+000	 3.8553855170e+000	-4.7616001356e-001
 3.0246311013e+000	 3.8868022462e+000	-4.6957222354e-001
 2.9843898182e+000	 3.9177853965e+000	-4.6231867781e-001
 2.9438594197e+000	 3.9483308773e+000	-4.5468613316e-001
 2.9030470099e+000	 3.9784347498e+000	-4.4695896835e-001
 2.8619597620e+000	 4.0080932275e+000	-4.3941834788e-001
 2.8206049140e+000	 4.0373026787e+000	-4.3234139693e-001
 2.7789897646e+000	 4.0660596267e+000	-4.2600038987e-001
 2.7371216692e+000	 4.0943607521e+000	-4.2066195440e-001
 2.6950080354e+000	 4.1222028927e+000	-4.1658629341e-001
 3.1199757257e+000	 3.8429482785e+000	-4.7388995845e-001
 3.0801324620e+000	 3.8749560019e+000	-4.6876493415e-001
 3.0399845586e+000	 3.9065322069e+000	-4.6249382324e-001
 2.9995390051e+000	 3.9376726320e+000	-4.5534640069e-001
 2.9588028685e+000	 3.9683731661e+000	-4.4759121020e-001
 2.9177832891e+000	 3.9986298500e+000	-4.3949472847e-001
 2.8764874765e+000	 4.0284388784e+000	-4.3132053812e-001
 2.8349227054e+000	 4.0577966009e+000	-4.2332851130e-001
 2.7930963116e+000	 4.0866995233e+000	-4.1577400647e-001
 2.7510156878e+000	 4.1151443092e+000	-4.0890708028e-001
 2.7086882792e+000	 4.1431277805e+000	-4.0297171681e-001
 3.1357331788e+000	 3.8623571082e+000	-4.6691787855e-001
 3.0956886866e+000	 3.8945264867e+000	-4.6253061129e-001
 3.0553380160e+000	 3.9262621675e+000	-4.5611493489e-001
 3.0146881920e+000	 3.9575598675e+000	-4.4861468170e-001
 2.9737463174e+000	 3.9884154548e+000	-4.4028051436e-001
 2.9325195684e+000	 4.0188249503e+000	-4.3136133693e-001
 2.8910151910e+000	 4.0487845293e+000	-4.2210347648e-001
 2.8492404969e+000	 4.0782905231e+000	-4.1274987509e-001
 2.8072028587e+000	 4.1073394199e+000	-4.0353929440e-001
 2.7649097064e+000	 4.1359278663e+000	-3.9470553501e-001
 2.7223685231e+000	 4.1640526683e+000	-3.8647667262e-001
 3.1514906320e+000	 3.8817659379e+000	-4.6153676395e-001
 3.1112449111e+000	 3.9140969716e+000	-4.5746313773e-001
 3.0706914733e+000	 3.9459921281e+000	-4.5044742673e-001
 3.0298373789e+000	 3.9774471030e+000	-4.4214111993e-001
 2.9886897662e+000	 4.0084577435e+000	-4.3277732890e-001
 2.9472558476e+000	 4.0390200505e+000	-4.2258771241e-001
 2.9055429056e+000	 4.0691301802e+000	-4.1180166636e-001
 2.8635582883e+000	 4.0987844453e+000	-4.0064552373e-001
 2.8213094057e+000	 4.1279793165e+000	-3.8934176658e-001
 2.7788037250e+000	 4.1567114234e+000	-3.7810825254e-001
 2.7360487669e+000	 4.1849775561e+000	-3.6715745757e-001
 2.5992463286e+000	 3.9757286783e+000	-4.2633254266e-001
 2.5583994957e+000	 4.0021359322e+000	-4.2713033729e-001
 2.5173302738e+000	 4.0280948713e+000	-4.2727872014e-001
 2.4760459347e+000	 4.0536029072e+000	-4.1440302092e-001
 2.4345537848e+000	 4.0786576062e+000	-3.9379341563e-001
 2.3928611605e+000	 4.1032566903e+000	-3.7486806658e-001
 2.3509754247e+000	 4.1273980366e+000	-3.5752846645e-001
 2.3089039626e+000	 4.1510796778e+000	-3.4167456817e-001
 2.2666541773e+000	 4.1742998024e+000	-3.2720443872e-001
 2.2242334862e+000	 4.1970567543e+000	-3.1401392077e-001
 2.1816493170e+000	 4.2193490324e+000	-3.0199630323e-001
 2.6129265724e+000	 3.9966535661e+000	-4.3452760115e-001
 2.5718647562e+000	 4.0231998056e+000	-4.3161186320e-001
 2.5305793805e+000	 4.0492953706e+000	-4.2837952734e-001
 2.4890777554e+000	 4.0749376593e+000	-4.1950272526e-001
 2.4473672257e+000	 4.1001242252e+000	-3.9673351747e-001
 2.4054551666e+000	 4.1248527781e+000	-3.7609754453e-001
 2.3633489796e+000	 4.1491211841e+000	-3.5753736327e-001
 2.3210560887e+000	 4.1729274656e+000	-3.4099327280e-001
 2.2785839361e+000	 4.1962698014e+000	-3.2640292474e-001
 2.2359399782e+000	 4.2191465267e+000	-3.1370094268e-001
 2.1931316818e+000	 4.2415561326e+000	-3.0281855207e-001
 2.6266068162e+000	 4.0175784539e+000	-4.3942445734e-001
 2.5853300167e+000	 4.0442636789e+000	-4.3341643353e-001
 2.5438284872e+000	 4.0704958700e+000	-4.2742166833e-001
 2.5021095762e+000	 4.0962724114e+000	-4.2157142783e-001
 2.4601806667e+000	 4.1215908442e+000	-3.9824964349e-001
 2.4180491727e+000	 4.1464488660e+000	-3.7650568973e-001
 2.3757225345e+000	 4.1708443317e+000	-3.5732261067e-001
 2.3332082148e+000	 4.1947752533e+000	-3.4068089245e-001
 2.2905136949e+000	 4.2182398003e+000	-3.2655761675e-001
 2.2476464703e+000	 4.2412362991e+000	-3.1492603797e-001
 2.2046140466e+000	 4.2637632328e+000	-3.0575517260e-001
 2.6402870601e+000	 4.0385033416e+000	-4.4108547798e-001
 2.5987952773e+000	 4.0653275522e+000	-4.3259568883e-001
 2.5570775939e+000	 4.0916963693e+000	-4.2444611910e-001
 2.5151413969e+000	 4.1176071636e+000	-4.1681214141e-001
 2.4729941077e+000	 4.1430574632e+000	-3.9838808753e-001
 2.4306431788e+000	 4.1680449538e+000	-3.7612817695e-001
 2.3880960893e+000	 4.1925674792e+000	-3.5690933081e-001
 2.3453603409e+000	 4.2166230411e+000	-3.4075206838e-001
 2.3024434537e+000	 4.2402097993e+000	-3.2767275186e-001
 2.2593529623e+000	 4.2633260715e+000	-3.1768312148e-001
 2.2160964114e+000	 4.2859703329e+000	-3.1078984413e-001
 2.6539673039e+000	 4.0594282294e+000	-4.3957209421e-001
 2.6122605378e+000	 4.0863914255e+000	-4.2920054061e-001
 2.5703267006e+000	 4.1128968686e+000	-4.1949333189e-001
 2.5281732176e+000	 4.1389419157e+000	-4.1066978467e-001
 2.4858075487e+000	 4.1645240822e+000	-3.9719502632e-001
 2.4432371849e+000	 4.1896410417e+000	-3.7500076493e-001
 2.4004696442e+000	 4.2142906268e+000	-3.5632292939e-001
 2.3575124671e+000	 4.2384708289e+000	-3.4122192322e-001
 2.3143732126e+000	 4.2621797983e+000	-3.2975324472e-001
 2.2710594543e+000	 4.2854158438e+000	-3.2196697984e-001
 2.2275787763e+000	 4.3081774331e+000	-3.1790731020e-001
 2.6676475477e+000	 4.0803531172e+000	-4.3494482565e-001
 2.6257257983e+000	 4.1074552989e+000	-4.2328119002e-001
 2.5835758073e+000	 4.1340973679e+000	-4.1260324865e-001
 2.5412050383e+000	 4.1602766679e+000	-4.0317410477e-001
 2.4986209896e+000	 4.1859907011e+000	-3.9471652247e-001
 2.4558311910e+000	 4.2112371295e+000	-3.7315929428e-001
 2.4128431991e+000	 4.2360137743e+000	-3.5558908834e-001
 2.3696645932e+000	 4.2603186167e+000	-3.4210604866e-001
 2.3263029714e+000	 4.2841497972e+000	-3.3280467011e-001
 2.2827659464e+000	 4.3075056162e+000	-3.2777324917e-001
 2.2390611411e+000	 4.3303845333e+000	-3.2709335126e-001
 2.6813277916e+000	 4.1012780050e+000	-4.2726330355e-001
 2.6391910588e+000	 4.1285191722e+000	-4.1488714597e-001
 2.5968249141e+000	 4.1552978673e+000	-4.0381531403e-001
 2.5542368590e+000	 4.1816114200e+000	-3.9435454527e-001
 2.5114344306e+000	 4.2074573201e+000	-3.8680226233e-001
 2.4684251971e+000	 4.2328332174e+000	-3.7063968531e-001
 2.4252167539e+000	 4.2577369219e+000	-3.5473375883e-001
 2.3818167193e+000	 4.2821664045e+000	-3.4342049350e-001
 2.3382327302e+000	 4.3061197962e+000	-3.3683324615e-001
 2.2944724384e+000	 4.3295953886e+000	-3.3509839339e-001
 2.2505435059e+000	 4.3525916335e+000	-3.3833475820e-001
 2.6950080354e+000	 4.1222028927e+000	-4.1658629341e-001
 2.6526563193e+000	 4.1495830455e+000	-4.0406724274e-001
 2.6100740208e+000	 4.1764983666e+000	-3.9316848802e-001
 2.5672686797e+000	 4.2029461722e+000	-3.8424025388e-001
 2.5242478716e+000	 4.2289239391e+000	-3.7762274267e-001
 2.4810192032e+000	 4.2544293052e+000	-3.6747793609e-001
 2.4375903088e+000	 4.2794600695e+000	-3.5378315437e-001
 2.3939688454e+000	 4.3040141922e+000	-3.4518175201e-001
 2.3501624891e+000	 4.3280897951e+000	-3.4184581793e-001
 2.3061789304e+000	 4.3516851610e+000	-3.4393968319e-001
 2.2620258708e+000	 4.3747987336e+000	-3.5161930677e-001
 2.7086882792e+000	 4.1431277805e+000	-4.0297171681e-001
 2.6661215798e+000	 4.1706469189e+000	-3.9086965697e-001
 2.6233231275e+000	 4.1976988659e+000	-3.8070125816e-001
 2.5803005004e+000	 4.2242809243e+000	-3.7286008985e-001
 2.5370613125e+000	 4.2503905581e+000	-3.6772899351e-001
 2.4936132094e+000	 4.2760253930e+000	-3.6371012041e-001
 2.4499638637e+000	 4.3011832170e+000	-3.5276374425e-001
 2.4061209716e+000	 4.3258619800e+000	-3.4740675271e-001
 2.3620922479e+000	 4.3500597941e+000	-3.4784984172e-001
 2.3178854225e+000	 4.3737749334e+000	-3.5429517569e-001
 2.2735082356e+000	 4.3970058338e+000	-3.2635934819e-001
 2.7223685231e+000	 4.1640526683e+000	-3.8647667262e-001
 2.6795868403e+000	 4.1917107922e+000	-3.7534192419e-001
 2.6365722342e+000	 4.2188993652e+000	-3.6645165146e-001
 2.5933323211e+000	 4.2456156764e+000	-3.6024263131e-001
 2.5498747535e+000	 4.2718571771e+000	-3.5714020855e-001
 2.5062072155e+000	 4.2976214809e+000	-3.5755742774e-001
 2.4623374186e+000	 4.3229063646e+000	-3.5170224706e-001
 2.4182730977e+000	 4.3477097678e+000	-3.5011284745e-001
 2.3740220067e+000	 4.3720297931e+000	-3.5485336955e-001
 2.3295919145e+000	 4.3958647058e+000	-3.3099427050e-001
 2.2849906004e+000	 4.4192129340e+000	-3.0380211243e-001
 2.7360487669e+000	 4.1849775561e+000	-3.6715745757e-001
 2.6930521008e+000	 4.2127746655e+000	-3.5753095488e-001
 2.6498213409e+000	 4.2400998645e+000	-3.5045724587e-001
 2.6063641418e+000	 4.2669504286e+000	-3.4641618224e-001
 2.5626881945e+000	 4.2933237960e+000	-3.4587548103e-001
 2.5188012216e+000	 4.3192175687e+000	-3.4928980941e-001
 2.4747109734e+000	 4.3446295122e+000	-3.5062562450e-001
 2.4304252238e+000	 4.3695575556e+000	-3.5331780083e-001
 2.3859517656e+000	 4.3939997920e+000	-3.3370725059e-001
 2.3412984066e+000	 4.4179544782e+000	-3.0811035576e-001
 2.2964729653e+000	 4.4414200342e+000	-2.8428599855e-001
 2.1816493170e+000	 4.2193490324e+000	-3.0199630323e-001
 2.1389091034e+000	 4.2411752908e+000	-2.7817374192e-001
 2.0960202818e+000	 4.2625343375e+000	-2.6042309304e-001
 2.0529902865e+000	 4.2834251345e+000	-2.4891900388e-001
 2.0098265468e+000	 4.3038467969e+000	-2.4382462937e-001
 1.9665364825e+000	 4.3237985918e+000	-2.4529115640e-001
 1.9231275005e+000	 4.3432799376e+000	-2.5345735636e-001
 1.8796069909e+000	 4.3622904030e+000	-2.6844916664e-001
 1.8359823234e+000	 4.3808297054e+000	-2.5821159125e-001
 1.7922608439e+000	 4.3988977105e+000	-2.0890217502e-001
 1.7484498704e+000	 4.4164944300e+000	-1.6243162134e-001
 2.1931316818e+000	 4.2415561326e+000	-3.0281855207e-001
 2.1501665198e+000	 4.2634972660e+000	-2.8571495838e-001
 2.1070519675e+000	 4.2849687287e+000	-2.7494524190e-001
 2.0637954986e+000	 4.3059694774e+000	-2.7067437039e-001
 2.0204045813e+000	 4.3264986222e+000	-2.7305570562e-001
 1.9768866745e+000	 4.3465554265e+000	-2.8223053110e-001
 1.9332492242e+000	 4.3661393057e+000	-2.9832760823e-001
 1.8894996592e+000	 4.3852498261e+000	-2.8922187614e-001
 1.8456453883e+000	 4.4038867039e+000	-2.4630940944e-001
 1.8016937957e+000	 4.4220498037e+000	-2.0148939379e-001
 1.7576522382e+000	 4.4397391376e+000	-1.5953434531e-001
 2.2046140466e+000	 4.2637632328e+000	-3.0575517260e-001
 2.1614239361e+000	 4.2858192412e+000	-2.9511506633e-001
 2.1180836532e+000	 4.3074031200e+000	-2.9107082305e-001
 2.0746007106e+000	 4.3285138202e+000	-2.9377794800e-001
 2.0309826157e+000	 4.3491504474e+000	-3.0338022469e-001
 1.9872368665e+000	 4.3693122612e+000	-3.2000924578e-001
 1.9433709479e+000	 4.3889986738e+000	-3.0262932730e-001
 1.8993923276e+000	 4.4082092493e+000	-2.7135750944e-001
 1.8553084531e+000	 4.4269437023e+000	-2.3582049717e-001
 1.8111267475e+000	 4.4452018969e+000	-1.9527193651e-001
 1.7668546059e+000	 4.4629838451e+000	-1.5761429024e-001
 2.2160964114e+000	 4.2859703329e+000	-3.1078984413e-001
 2.1726813525e+000	 4.3081412164e+000	-3.0636044169e-001
 2.1291153389e+000	 4.3298375112e+000	-3.0878891425e-001
 2.0854059226e+000	 4.3510581630e+000	-3.1822152078e-001
 2.0415606502e+000	 4.3718022727e+000	-3.3479268065e-001
 1.9975870585e+000	 4.3920690959e+000	-3.1184536924e-001
 1.9534926715e+000	 4.4118580419e+000	-2.8255926785e-001
 1.9092849960e+000	 4.4311686725e+000	-2.5520400319e-001
 1.8649715180e+000	 4.4500007008e+000	-2.2671950198e-001
 1.8205596993e+000	 4.4683539901e+000	-1.9022825416e-001
 1.7760569736e+000	 4.4862285526e+000	-1.5665370276e-001
 2.2275787763e+000	 4.3081774331e+000	-3.1790731020e-001
 2.1839387688e+000	 4.3304631916e+000	-3.1943845023e-001
 2.1401470246e+000	 4.3522719025e+000	-3.2808950853e-001
 2.0962111347e+000	 4.3736025058e+000	-3.4399771332e-001
 2.0521386846e+000	 4.3944540979e+000	-3.1772499404e-001
 2.0079372506e+000	 4.4148259306e+000	-2.9007676880e-001
 1.9636143952e+000	 4.4347174100e+000	-2.6440975476e-001
 1.9191776644e+000	 4.4541280956e+000	-2.4074218541e-001
 1.8746345829e+000	 4.4730576992e+000	-2.1898153729e-001
 1.8299926511e+000	 4.4915060834e+000	-1.8633718864e-001
 1.7852593414e+000	 4.5094732602e+000	-1.5663514560e-001
 2.2390611411e+000	 4.3303845333e+000	-3.2709335126e-001
 2.1951961851e+000	 4.3527851668e+000	-3.3433742218e-001
 2.1511787103e+000	 4.3747062937e+000	-3.4896349073e-001
 2.1070163467e+000	 4.3961468486e+000	-3.2116271284e-001
 2.0627167191e+000	 4.4171059232e+000	-2.9476782731e-001
 2.0182874426e+000	 4.4375827653e+000	-2.7043171294e-001
 1.9737361189e+000	 4.4575767781e+000	-2.4815875213e-001
 1.9290703327e+000	 4.4770875188e+000	-2.2795341106e-001
 1.8842976477e+000	 4.4961146977e+000	-2.0982019753e-001
 1.8394256029e+000	 4.5146581766e+000	-1.8357796273e-001
 1.7944617091e+000	 4.5327179677e+000	-1.5754148943e-001
 2.2505435059e+000	 4.3525916335e+000	-3.3833475820e-001
 2.2064536015e+000	 4.3751071420e+000	-3.5082861896e-001
 2.1622103960e+000	 4.3971406850e+000	-3.2309243332e-001
 2.1178215587e+000	 4.4186911914e+000	-2.9752972424e-001
 2.0732947536e+000	 4.4397577484e+000	-2.7413059980e-001
 2.0286376346e+000	 4.4603396000e+000	-2.5288542768e-001
 1.9838578426e+000	 4.4804361462e+000	-2.3378480878e-001
 1.9389630011e+000	 4.5000469420e+000	-2.1681954862e-001
 1.8939607126e+000	 4.5191716961e+000	-2.0198062677e-001
 1.8488585547e+000	 4.5378102698e+000	-1.8193017038e-001
 1.8036640769e+000	 4.5559626752e+000	-1.5935590501e-001
 2.2620258708e+000	 4.3747987336e+000	-3.5161930677e-001
 2.2177110178e+000	 4.3974291173e+000	-3.2448727874e-001
 2.1732420817e+000	 4.4195750762e+000	-2.9929907670e-001
 2.1286267708e+000	 4.4412355342e+000	-2.7640654873e-001
 2.0838727880e+000	 4.4624095737e+000	-2.5578592165e-001
 2.0389878266e+000	 4.4830964347e+000	-2.3741377830e-001
 1.9939795663e+000	 4.5032955143e+000	-2.2126704343e-001
 1.9488556695e+000	 4.5230063652e+000	-2.0732296705e-001
 1.9036237774e+000	 4.5422286946e+000	-1.9555910537e-001
 1.8582915065e+000	 4.5609623630e+000	-1.8137376728e-001
 1.8128664446e+000	 4.5792073827e+000	-1.6206185562e-001
 2.2735082356e+000	 4.3970058338e+000	-3.2635934819e-001
 2.2289684341e+000	 4.4197510925e+000	-3.0105165024e-001
 2.1842737674e+000	 4.4420094675e+000	-2.7819896794e-001
 2.1394319828e+000	 4.4637798771e+000	-2.5776329927e-001
 2.0944508225e+000	 4.4850613989e+000	-2.3970709370e-001
 2.0493380186e+000	 4.5058532694e+000	-2.2399325320e-001
 2.0041012900e+000	 4.5261548824e+000	-2.1058513028e-001
 1.9587483379e+000	 4.5459657884e+000	-1.9944652313e-001
 1.9132868423e+000	 4.5652856930e+000	-1.9054166812e-001
 1.8677244584e+000	 4.5841144562e+000	-1.8188906176e-001
 1.8220688123e+000	 4.6024520903e+000	-1.6564308960e-001
 2.2849906004e+000	 4.4192129340e+000	-3.0380211243e-001
 2.2402258505e+000	 4.4420730677e+000	-2.8048634597e-001
 2.1953054531e+000	 4.4644438587e+000	-2.5975983814e-001
 2.1502371949e+000	 4.4863242199e+000	-2.4157082799e-001
 2.1050288570e+000	 4.5077132242e+000	-2.2586809016e-001
 2.0596882107e+000	 4.5286101041e+000	-2.1260094827e-001
 2.0142230137e+000	 4.5490142505e+000	-2.0171928506e-001
 1.9686410063e+000	 4.5689252115e+000	-1.9317354925e-001
 1.9229499072e+000	 4.5883426915e+000	-1.8691475944e-001
 1.8771574102e+000	 4.6072665494e+000	-1.8289450504e-001
 1.8312711801e+000	 4.6256967978e+000	-1.7008363323e-001
 2.2964729653e+000	 4.4414200342e+000	-2.8428599855e-001
 2.2514832668e+000	 4.4643950429e+000	-2.6275682707e-001
 2.2063371388e+000	 4.4868782500e+000	-2.4395020311e-001
 2.1610424069e+000	 4.5088685627e+000	-2.2780070771e-001
 2.1156068914e+000	 4.5303650494e+000	-2.1424354176e-001
 2.0700384027e+000	 4.5513669388e+000	-2.0321455167e-001
 2.0243447374e+000	 4.5718736186e+000	-1.9465025151e-001
 1.9785336746e+000	 4.5918846347e+000	-1.8848784149e-001
 1.9326129720e+000	 4.6113996900e+000	-1.8466522318e-001
 1.8865903620e+000	 4.6304186427e+000	-1.8312101137e-001
 1.8404735478e+000	 4.6489415053e+000	-1.7536778381e-001
 1.7484498704e+000	 4.4164944300e+000	-1.6243162134e-001
 1.7045566903e+000	 4.4336200209e+000	-1.3087574910e-001
 1.6605885562e+000	 4.4502747833e+000	-1.0279185892e-001
 1.6165526831e+000	 4.4664591594e+000	-7.8143885798e-002
 1.5724562449e+000	 4.4821737314e+000	-5.6896532017e-002
 1.5283063712e+000	 4.4974192195e+000	-3.9015352772e-002
 1.4841101442e+000	 4.5121964807e+000	-2.4466835318e-002
 1.4398745957e+000	 4.5265065060e+000	-1.3218471543e-002
 1.3956067041e+000	 4.5403504190e+000	-5.2388239630e-003
 1.3513133914e+000	 4.5537294736e+000	-4.9758516353e-004
 1.3070015205e+000	 4.5666450514e+000	 1.0343692924e-003
 1.7576522382e+000	 4.4397391376e+000	-1.5953434531e-001
 1.7135280413e+000	 4.4569548631e+000	-1.3167511732e-001
 1.6693284959e+000	 4.4736972822e+000	-1.0690568826e-001
 1.6250608551e+000	 4.4899668392e+000	-8.5170639883e-002
 1.5807323304e+000	 4.5057641194e+000	-6.6415969511e-002
 1.5363500889e+000	 4.5210898470e+000	-5.0589186223e-002
 1.4919212502e+000	 4.5359448832e+000	-3.7639399495e-002
 1.4474528831e+000	 4.5503302244e+000	-2.7517400181e-002
 1.4029520026e+000	 4.5642470002e+000	-2.0175733889e-002
 1.3584255672e+000	 4.5776964708e+000	-1.5568766740e-002
 1.3138804759e+000	 4.5906800254e+000	-1.3652743564e-002
 1.7668546059e+000	 4.4629838451e+000	-1.5761429024e-001
 1.7224993923e+000	 4.4802897053e+000	-1.3311234603e-001
 1.6780684357e+000	 4.4971197811e+000	-1.1132219153e-001
 1.6335690271e+000	 4.5134745190e+000	-9.2169157257e-002
 1.5890084159e+000	 4.5293545075e+000	-7.5580634524e-002
 1.5443938066e+000	 4.5447604745e+000	-6.1486182140e-002
 1.4997323562e+000	 4.5596932857e+000	-4.9817624492e-002
 1.4550311704e+000	 4.5741539429e+000	-4.0509140930e-002
 1.4102973010e+000	 4.5881435813e+000	-3.3497346487e-002
 1.3655377429e+000	 4.6016634680e+000	-2.8721363940e-002
 1.3207594313e+000	 4.6147149993e+000	-2.6122887284e-002
 1.7760569736e+000	 4.4862285526e+000	-1.5665370276e-001
 1.7314707433e+000	 4.5036245475e+000	-1.3517535161e-001
 1.6868083755e+000	 4.5205422799e+000	-1.1603487860e-001
 1.6420771991e+000	 4.5369821988e+000	-9.9138462927e-002
 1.5972845014e+000	 4.5529448956e+000	-8.4394986817e-002
 1.5524375244e+000	 4.5684311019e+000	-7.1716152665e-002
 1.5075434623e+000	 4.5834416883e+000	-6.1016590562e-002
 1.4626094578e+000	 4.5979776614e+000	-5.2213956048e-002
 1.4176425995e+000	 4.6120401625e+000	-4.5229018156e-002
 1.3726499187e+000	 4.6256304653e+000	-3.9985737763e-002
 1.3276383866e+000	 4.6387499733e+000	-3.6411336317e-002
 1.7852593414e+000	 4.5094732602e+000	-1.5663514560e-001
 1.7404420943e+000	 4.5269593898e+000	-1.3785225293e-001
 1.6955483152e+000	 4.5439647788e+000	-1.2103734973e-001
 1.6505853711e+000	 4.5604898786e+000	-1.0607756176e-001
 1.6055605868e+000	 4.5765352836e+000	-9.2863357026e-002
 1.5604812421e+000	 4.5921017294e+000	-8.1288673441e-002
 1.5153545683e+000	 4.6071900908e+000	-7.1251035720e-002
 1.4701877451e+000	 4.6218013798e+000	-6.2651661493e-002
 1.4249878979e+000	 4.6359367437e+000	-5.5395556649e-002
 1.3797620944e+000	 4.6495974625e+000	-4.9391599957e-002
 1.3345173420e+000	 4.6627849472e+000	-4.4552617033e-002
 1.7944617091e+000	 4.5327179677e+000	-1.5754148943e-001
 1.7494134453e+000	 4.5502942320e+000	-1.4113136612e-001
 1.7042882550e+000	 4.5673872776e+000	-1.2632329328e-001
 1.6590935431e+000	 4.5839975584e+000	-1.1298543899e-001
 1.6138366723e+000	 4.6001256717e+000	-1.0098994997e-001
 1.5685249599e+000	 4.6157723569e+000	-9.0213089668e-002
 1.5231656743e+000	 4.6309384933e+000	-8.0535364513e-002
 1.4777660325e+000	 4.6456250983e+000	-7.1841638367e-002
 1.4323331963e+000	 4.6598333248e+000	-6.4021235139e-002
 1.3868742701e+000	 4.6735644597e+000	-5.6968029666e-002
 1.3413962974e+000	 4.6868199212e+000	-5.0580526900e-002
 1.8036640769e+000	 4.5559626752e+000	-1.5935590501e-001
 1.7583847963e+000	 4.5736290742e+000	-1.4500119964e-001
 1.7130281948e+000	 4.5908097765e+000	-1.3188648348e-001
 1.6676017152e+000	 4.6075052382e+000	-1.1986106075e-001
 1.6221127578e+000	 4.6237160597e+000	-1.0877884787e-001
 1.5765686776e+000	 4.6394429843e+000	-9.8498521989e-002
 1.5309767803e+000	 4.6546868958e+000	-8.8883656535e-002
 1.4853443198e+000	 4.6694488167e+000	-7.9802844011e-002
 1.4396784948e+000	 4.6837299060e+000	-7.1129805858e-002
 1.3939864459e+000	 4.6975314569e+000	-6.2743489565e-002
 1.3482752527e+000	 4.7108548951e+000	-5.4528153079e-002
 1.8128664446e+000	 4.5792073827e+000	-1.6206185562e-001
 1.7673561473e+000	 4.5969639164e+000	-1.4945044928e-001
 1.7217681346e+000	 4.6142322754e+000	-1.3772077819e-001
 1.6761098872e+000	 4.6310129180e+000	-1.2670337451e-001
 1.6303888433e+000	 4.6473064478e+000	-1.1623401346e-001
 1.5846123954e+000	 4.6631136118e+000	-1.0615387218e-001
 1.5387878863e+000	 4.6784352984e+000	-9.6309674666e-002
 1.4929226072e+000	 4.6932725352e+000	-8.6553822759e-002
 1.4470237932e+000	 4.7076264871e+000	-7.6744513316e-002
 1.4010986216e+000	 4.7214984542e+000	-6.6745841512e-002
 1.3551542081e+000	 4.7348898691e+000	-5.6427890454e-002
 1.8220688123e+000	 4.6024520903e+000	-1.6564308960e-001
 1.7763274983e+000	 4.6202987586e+000	-1.5446799352e-001
 1.7305080743e+000	 4.6376547742e+000	-1.4382011684e-001
 1.6846180592e+000	 4.6545205977e+000	-1.3351130958e-001
 1.6386649288e+000	 4.6708968359e+000	-1.2335929297e-001
 1.5926561131e+000	 4.6867842393e+000	-1.1318782870e-001
 1.5465989924e+000	 4.7021837009e+000	-1.0282687308e-001
 1.5005008945e+000	 4.7170962536e+000	-9.2112716368e-002
 1.4543690917e+000	 4.7315230682e+000	-8.0888107125e-002
 1.4082107974e+000	 4.7454654514e+000	-6.9002361715e-002
 1.3620331635e+000	 4.7589248430e+000	-5.6311459112e-002
 1.8312711801e+000	 4.6256967978e+000	-1.7008363323e-001
 1.7852988493e+000	 4.6436336008e+000	-1.6004288890e-001
 1.7392480141e+000	 4.6610772731e+000	-1.5017851838e-001
 1.6931262312e+000	 4.6780282775e+000	-1.4028377757e-001
 1.6469410143e+000	 4.6944872239e+000	-1.3015841912e-001
 1.6006998308e+000	 4.7104548668e+000	-1.1960887200e-001
 1.5544100984e+000	 4.7259321034e+000	-1.0844840498e-001
 1.5080791818e+000	 4.7409199721e+000	-9.6497274132e-002
 1.4617143901e+000	 4.7554196494e+000	-8.3582854435e-002
 1.4153229731e+000	 4.7694324486e+000	-6.9539755450e-002
 1.3689121189e+000	 4.7829598170e+000	-5.4209921300e-002
 1.8404735478e+000	 4.6489415053e+000	-1.7536778381e-001
 1.7942702003e+000	 4.6669684431e+000	-1.6616436556e-001
 1.7479879539e+000	 4.6844997719e+000	-1.5679007926e-001
 1.7016344032e+000	 4.7015359573e+000	-1.4701967281e-001
 1.6552170998e+000	 4.7180776120e+000	-1.3663501390e-001
 1.6087435486e+000	 4.7341254942e+000	-1.2542527980e-001
 1.5622212044e+000	 4.7496805060e+000	-1.1318713015e-001
 1.5156574692e+000	 4.7647436905e+000	-9.9724862694e-002
 1.4690596886e+000	 4.7793162305e+000	-8.4850551989e-002
 1.4224351489e+000	 4.7933994458e+000	-6.8384171333e-002
 1.3757910742e+000	 4.8069947909e+000	-5.0153697867e-002
 1.3070015205e+000	 4.5666450514e+000	 1.0343692924e-003
 1.2626778925e+000	 4.5790986602e+000	 2.2499112035e-003
 1.2183492440e+000	 4.5910919311e+000	 4.1356350019e-003
 1.1740222445e+000	 4.6026266164e+000	 6.0880920035e-003
 1.1297034943e+000	 4.6137045869e+000	 8.2189852249e-003
 1.0853995214e+000	 4.6243278300e+000	 1.0776674728e-002
 1.0411167802e+000	 4.6344984465e+000	 1.3995061362e-002
 9.9686164827e-001	 4.6442186484e+000	 1.8093877065e-002
 9.5264042516e-001	 4.6534907565e+000	 2.3278992978e-002
 9.0845932984e-001	 4.6623171971e+000	 2.9742743961e-002
 8.6432449896e-001	 4.6707005000e+000	 3.7664268084e-002
 1.3138804759e+000	 4.5906800254e+000	-1.3652743564e-002
 1.2693235656e+000	 4.6031991795e+000	-8.8328351388e-003
 1.2247616084e+000	 4.6152555729e+000	-3.9255905478e-003
 1.1802013090e+000	 4.6268509670e+000	 6.7563373976e-004
 1.1356493021e+000	 4.6379872426e+000	 5.3265820815e-003
 1.0911121505e+000	 4.6486663975e+000	 1.0254775900e-002
 1.0465963422e+000	 4.6588905436e+000	 1.5673582104e-002
 1.0021082885e+000	 4.6686619045e+000	 2.1782522160e-002
 9.5765432214e-001	 4.6779828131e+000	 2.8767598308e-002
 9.1324069473e-001	 4.6868557086e+000	 3.6801635489e-002
 8.6887357527e-001	 4.6952831342e+000	 4.6044637510e-002
 1.3207594313e+000	 4.6147149993e+000	-2.6122887284e-002
 1.2759692387e+000	 4.6272996988e+000	-1.8123991038e-002
 1.2311739729e+000	 4.6394192146e+000	-1.0371844835e-002
 1.1863803734e+000	 4.6510753176e+000	-3.4942148105e-003
 1.1415951100e+000	 4.6622698984e+000	 3.3101389840e-003
 1.0968247796e+000	 4.6730049650e+000	 1.0247988049e-002
 1.0520759042e+000	 4.6832826406e+000	 1.7512247626e-002
 1.0073549288e+000	 4.6931051605e+000	 2.5282304626e-002
 9.6266821912e-001	 4.7024748697e+000	 3.3724362046e-002
 9.1802205963e-001	 4.7113942202e+000	 4.2991798394e-002
 8.7342265158e-001	 4.7198657684e+000	 5.3225540660e-002
 1.3276383866e+000	 4.6387499733e+000	-3.6411336317e-002
 1.2826149119e+000	 4.6514002180e+000	-2.5652478901e-002
 1.2375863373e+000	 4.6635828564e+000	-1.5252284941e-002
 1.1925594379e+000	 4.6752996682e+000	-6.4635329234e-003
 1.1475409179e+000	 4.6865525541e+000	 2.1346229043e-003
 1.1025374086e+000	 4.6973435326e+000	 1.0728289982e-002
 1.0575554662e+000	 4.7076747377e+000	 1.9490011343e-002
 1.0126015690e+000	 4.7175484166e+000	 2.8579112495e-002
 9.6768211609e-001	 4.7269669263e+000	 3.8142064129e-002
 9.2280342452e-001	 4.7359327318e+000	 4.8312859150e-002
 8.7797172789e-001	 4.7444484026e+000	 5.9213402554e-002
 1.3345173420e+000	 4.6627849472e+000	-4.4552617033e-002
 1.2892605850e+000	 4.6755007373e+000	-3.1446606395e-002
 1.2439987017e+000	 4.6877464981e+000	-1.8615585550e-002
 1.1987385023e+000	 4.6995240188e+000	-8.2740487884e-003
 1.1534867257e+000	 4.7108352098e+000	 1.7652216842e-003
 1.1082500377e+000	 4.7216821001e+000	 1.1667752294e-002
 1.0630350282e+000	 4.7320668348e+000	 2.1585790559e-002
 1.0178482093e+000	 4.7419916726e+000	 3.1658671015e-002
 9.7269601307e-001	 4.7514589829e+000	 4.2013196310e-002
 9.2758478942e-001	 4.7604712433e+000	 5.2764031951e-002
 8.8252080420e-001	 4.7690310368e+000	 6.4014113192e-002
 1.3413962974e+000	 4.6868199212e+000	-5.0580526900e-002
 1.2959062581e+000	 4.6996012565e+000	-3.5534082206e-002
 1.2504110662e+000	 4.7119101398e+000	-2.0538853581e-002
 1.2049175668e+000	 4.7237483694e+000	-8.9671485105e-003
 1.1594325336e+000	 4.7351178655e+000	 2.1673383720e-003
 1.1139626667e+000	 4.7460206676e+000	 1.3038535016e-002
 1.0685145902e+000	 4.7564589319e+000	 2.3778467396e-002
 1.0230948496e+000	 4.7664349286e+000	 3.4506546825e-002
 9.7770991005e-001	 4.7759510395e+000	 4.5329969545e-002
 9.3236615432e-001	 4.7850097549e+000	 5.6344129283e-002
 8.8706988052e-001	 4.7936136710e+000	 6.7633041272e-002
 1.3482752527e+000	 4.7108548951e+000	-5.4528153079e-002
 1.3025519312e+000	 4.7237017758e+000	-3.7942031324e-002
 1.2568234306e+000	 4.7360737816e+000	-2.1532342770e-002
 1.2110966312e+000	 4.7479727200e+000	-8.5838848368e-003
 1.1653783415e+000	 4.7594005212e+000	 3.3065857328e-003
 1.1196752958e+000	 4.7703592351e+000	 1.4812885335e-002
 1.0739941522e+000	 4.7808510290e+000	 2.6046889690e-002
 1.0283414898e+000	 4.7908781847e+000	 3.7108152006e-002
 9.8272380703e-001	 4.8004430961e+000	 4.8084321159e-002
 9.3714751922e-001	 4.8095482664e+000	 5.9051572174e-002
 8.9161895683e-001	 4.8181963052e+000	 7.0075047487e-002
 1.3551542081e+000	 4.7348898691e+000	-5.6427890454e-002
 1.3091976043e+000	 4.7478022951e+000	-3.8697009852e-002
 1.2632357951e+000	 4.7602374233e+000	-2.1264223046e-002
 1.2172756957e+000	 4.7721970706e+000	-7.1649856177e-003
 1.1713241493e+000	 4.7836831769e+000	 5.1487809256e-003
 1.1253879249e+000	 4.7946978026e+000	 1.6963135379e-002
 1.0794737142e+000	 4.8052431260e+000	 2.8369871862e-002
 1.0335881301e+000	 4.8153214407e+000	 3.9448747998e-002
 9.8773770401e-001	 4.8249351527e+000	 5.0267921788e-002
 9.4192888412e-001	 4.8340867780e+000	 6.0884400128e-002
 8.9616803315e-001	 4.8427789394e+000	 7.1344497423e-002
 1.3620331635e+000	 4.7589248430e+000	-5.6311459112e-002
 1.3158432775e+000	 4.7719028143e+000	-3.7825019378e-002
 1.2696481595e+000	 4.7844010650e+000	-1.9754815643e-002
 1.2234547601e+000	 4.7964214212e+000	-4.7508620108e-003
 1.1772699572e+000	 4.8079658326e+000	 7.6599403415e-003
 1.1311005539e+000	 4.8190363702e+000	 1.9461700074e-002
 1.0849532762e+000	 4.8296352231e+000	 3.0726195761e-002
 1.0388347703e+000	 4.8397646967e+000	 4.1513449407e-002
 9.9275160099e-001	 4.8494272093e+000	 5.1872182116e-002
 9.4671024902e-001	 4.8586252895e+000	 6.1840280760e-002
 9.0071710947e-001	 4.8673615736e+000	 7.1445274055e-002
 1.3689121189e+000	 4.7829598170e+000	-5.4209921300e-002
 1.3224889506e+000	 4.7960033336e+000	-3.5351520903e-002
 1.2760605240e+000	 4.8085647068e+000	-1.7024017592e-002
 1.2296338246e+000	 4.8206457718e+000	-1.3816164387e-003
 1.1832157651e+000	 4.8322484884e+000	 1.0806274599e-002
 1.1368131830e+000	 4.8433749377e+000	 2.2281075063e-002
 1.0904328382e+000	 4.8540273202e+000	 3.3094611484e-002
 1.0440814106e+000	 4.8642079528e+000	 4.3287227693e-002
 9.9776549797e-001	 4.8739192659e+000	 5.2888259405e-002
 9.5149161392e-001	 4.8831638011e+000	 6.1916519138e-002
 9.0526618578e-001	 4.8919442078e+000	 7.0380789880e-002
 1.3757910742e+000	 4.8069947909e+000	-5.0153697867e-002
 1.3291346237e+000	 4.8201038528e+000	-3.1301448356e-002
 1.2824728884e+000	 4.8327283485e+000	-1.3091312329e-002
 1.2358128890e+000	 4.8448701224e+000	 2.9029496934e-003
 1.1891615729e+000	 4.8565311441e+000	 1.4554183686e-002
 1.1425258121e+000	 4.8677135052e+000	 2.5393834688e-002
 1.0959124002e+000	 4.8784194173e+000	 3.5453838166e-002
 1.0493280509e+000	 4.8886512088e+000	 4.4754914751e-002
 1.0027793950e+000	 4.8984113225e+000	 5.3307063832e-002
 9.5627297882e-001	 4.9077023127e+000	 6.1110066850e-002
 9.0981526210e-001	 4.9165268420e+000	 6.8153998673e-002
 8.6432449896e-001	 4.6707005000e+000	 3.7664268084e-002
 8.2024198506e-001	 4.6786432954e+000	 5.0361534208e-002
 7.7621775480e-001	 4.6861483115e+000	 6.3530348353e-002
 7.3225768736e-001	 4.6932183711e+000	 7.7196043884e-002
 6.8836757286e-001	 4.6998563898e+000	 9.1375506584e-002
 6.4455311094e-001	 4.7060653722e+000	 1.0607761200e-001
 6.0081990940e-001	 4.7118484097e+000	 1.1255412849e-001
 5.5717348293e-001	 4.7172086778e+000	 1.1281810401e-001
 5.1361925192e-001	 4.7221494326e+000	 1.1396483340e-001
 4.7016254140e-001	 4.7266740087e+000	 1.1590899296e-001
 4.2680858003e-001	 4.7307858159e+000	 1.1856049157e-001
 8.6887357527e-001	 4.6952831342e+000	 4.6044637510e-002
 8.2455904814e-001	 4.7032677338e+000	 5.7572539502e-002
 7.8030311141e-001	 4.7108122499e+000	 6.9549468559e-002
 7.3611167519e-001	 4.7179195205e+000	 8.2002995794e-002
 6.9199056008e-001	 4.7245924760e+000	 9.4952088146e-002
 6.4794549573e-001	 4.7308341373e+000	 1.0840755162e-001
 6.0398211945e-001	 4.7366476119e+000	 1.1554452317e-001
 5.6010597494e-001	 4.7420360919e+000	 1.1605278863e-001
 5.1632251113e-001	 4.7470028507e+000	 1.1742883854e-001
 4.7263708109e-001	 4.7515512403e+000	 1.1959611336e-001
 4.2905494097e-001	 4.7556846886e+000	 1.2247304730e-001
 8.7342265158e-001	 4.7198657684e+000	 5.3225540660e-002
 8.2887611122e-001	 4.7278921722e+000	 6.3714004099e-002
 7.8438846801e-001	 4.7354761884e+000	 7.4631271962e-002
 7.3996566301e-001	 4.7426206698e+000	 8.6007043948e-002
 6.9561354731e-001	 4.7493285623e+000	 9.7862257818e-002
 6.5133788053e-001	 4.7556029024e+000	 1.1020953869e-001
 6.0714432950e-001	 4.7614468140e+000	 1.1784467672e-001
 5.6303846695e-001	 4.7668635060e+000	 1.1858720616e-001
 5.1902577035e-001	 4.7718562687e+000	 1.2018399893e-001
 4.7511162077e-001	 4.7764284720e+000	 1.2256733884e-001
 4.3130130191e-001	 4.7805835613e+000	 1.2566426146e-001
 8.7797172789e-001	 4.7444484026e+000	 5.9213402554e-002
 8.3319317430e-001	 4.7525166106e+000	 6.8792036842e-002
 7.8847382461e-001	 4.7601401269e+000	 7.8781559546e-002
 7.4381965084e-001	 4.7673218191e+000	 8.9213689665e-002
 6.9923653453e-001	 4.7740646486e+000	 1.0011122531e-001
 6.5473026532e-001	 4.7803716675e+000	 1.1148849923e-001
 6.1030653954e-001	 4.7862460162e+000	 1.1949573712e-001
 5.6597095897e-001	 4.7916909201e+000	 1.2045959815e-001
 5.2172902957e-001	 4.7967096868e+000	 1.2226565519e-001
 4.7758616046e-001	 4.8013057036e+000	 1.2485511617e-001
 4.3354766286e-001	 4.8054824340e+000	 1.2816369560e-001
 8.8252080420e-001	 4.7690310368e+000	 6.4014113192e-002
 8.3751023738e-001	 4.7771410490e+000	 7.2812235850e-002
 7.9255918122e-001	 4.7848040654e+000	 8.2005646038e-002
 7.4767363867e-001	 4.7920229684e+000	 9.1627972620e-002
 7.0285952176e-001	 4.7988007348e+000	 1.0170376344e-001
 6.5812265011e-001	 4.8051404326e+000	 1.1224894722e-001
 6.1346874959e-001	 4.8110452184e+000	 1.2053846530e-001
 5.6890345098e-001	 4.8165183342e+000	 1.2170784425e-001
 5.2443228879e-001	 4.8215631049e+000	 1.2370881124e-001
 4.8006070016e-001	 4.8261829352e+000	 1.2649158073e-001
 4.3579402381e-001	 4.8303813068e+000	 1.3000062520e-001
 8.8706988052e-001	 4.7936136710e+000	 6.7633041272e-002
 8.4182730046e-001	 4.8017654874e+000	 7.5779701621e-002
 7.9664453783e-001	 4.8094680039e+000	 8.4308372374e-002
 7.5152762650e-001	 4.8167241177e+000	 9.3254482683e-002
 7.0648250899e-001	 4.8235368211e+000	 1.0264421933e-001
 6.6151503491e-001	 4.8299091977e+000	 1.1249499521e-001
 6.1663095964e-001	 4.8358444205e+000	 1.2101324514e-001
 5.7183594300e-001	 4.8413457483e+000	 1.2236947147e-001
 5.2713554801e-001	 4.8464165229e+000	 1.2454814294e-001
 4.8253523985e-001	 4.8510601668e+000	 1.2750856443e-001
 4.3804038475e-001	 4.8552801795e+000	 1.3120404697e-001
 8.9161895683e-001	 4.8181963052e+000	 7.0075047487e-002
 8.4614436354e-001	 4.8263899258e+000	 7.7699049720e-002
 8.0072989444e-001	 4.8341319423e+000	 8.5694117790e-002
 7.5538161434e-001	 4.8414252671e+000	 9.4097371390e-002
 7.1010549622e-001	 4.8482729073e+000	 1.0293652529e-001
 6.6490741971e-001	 4.8546779629e+000	 1.1223036453e-001
 6.1979316970e-001	 4.8606436227e+000	 1.2096009304e-001
 5.7476843502e-001	 4.8661731623e+000	 1.2248166318e-001
 5.2983880724e-001	 4.8712699410e+000	 1.2481800642e-001
 4.8500977954e-001	 4.8759373984e+000	 1.2793760346e-001
 4.4028674570e-001	 4.8801790522e+000	 1.3180268602e-001
 8.9616803315e-001	 4.8427789394e+000	 7.1344497423e-002
 8.5046142663e-001	 4.8510143642e+000	 7.8574423094e-002
 8.0481525105e-001	 4.8587958808e+000	 8.6166811537e-002
 7.5923560217e-001	 4.8661264164e+000	 9.4160363073e-002
 7.1372848345e-001	 4.8730089936e+000	 1.0258420931e-001
 6.6829980451e-001	 4.8794467280e+000	 1.1145839527e-001
 6.2295537975e-001	 4.8854428248e+000	 1.2041866722e-001
 5.7770092704e-001	 4.8910005764e+000	 1.2208126784e-001
 5.3254206646e-001	 4.8961233591e+000	 1.2455244622e-001
 4.8748431924e-001	 4.9008146301e+000	 1.2780994585e-001
 4.4253310665e-001	 4.9050779249e+000	 1.3182500270e-001
 9.0071710947e-001	 4.8673615736e+000	 7.1445274055e-002
 8.5477848971e-001	 4.8756388026e+000	 7.8409503998e-002
 8.0890060766e-001	 4.8834598193e+000	 8.5729944245e-002
 7.6308959000e-001	 4.8908275657e+000	 9.3446765642e-002
 7.1735147068e-001	 4.8977450799e+000	 1.0159040531e-001
 6.7169218931e-001	 4.9042154931e+000	 1.1018205582e-001
 6.2611758981e-001	 4.9102420270e+000	 1.1923415687e-001
 5.8063341906e-001	 4.9158279905e+000	 1.2120480746e-001
 5.3524532569e-001	 4.9209767771e+000	 1.2378520314e-001
 4.8995885893e-001	 4.9256918617e+000	 1.2715655867e-001
 4.4477946760e-001	 4.9299767976e+000	 1.3129919933e-001
 9.0526618578e-001	 4.8919442078e+000	 7.0380789880e-002
 8.5909555280e-001	 4.9002632410e+000	 7.7207525580e-002
 8.1298596427e-001	 4.9081237578e+000	 8.4386578945e-002
 7.6694357784e-001	 4.9155287150e+000	 9.1959481055e-002
 7.2097445791e-001	 4.9224811661e+000	 9.9957863000e-002
 6.7508457411e-001	 4.9289842582e+000	 1.0840395231e-001
 6.2927979986e-001	 4.9350412291e+000	 1.1731107193e-001
 5.8356591108e-001	 4.9406554046e+000	 1.1988848581e-001
 5.3794858491e-001	 4.9458301952e+000	 1.2254972192e-001
 4.9243339863e-001	 4.9505690933e+000	 1.2600813515e-001
 4.4702582855e-001	 4.9548756703e+000	 1.3025322665e-001
 9.0981526210e-001	 4.9165268420e+000	 6.8153998673e-002
 8.6341261589e-001	 4.9248876794e+000	 7.4971283100e-002
 8.1707132088e-001	 4.9327876962e+000	 8.2139361757e-002
 7.7079756568e-001	 4.9402298643e+000	 8.9701015459e-002
 7.2459744515e-001	 4.9472172524e+000	 9.7688957519e-002
 6.7847695892e-001	 4.9537530233e+000	 1.0612633759e-001
 6.3244200992e-001	 4.9598404313e+000	 1.1502724812e-001
 5.8649840310e-001	 4.9654828187e+000	 1.1816819632e-001
 5.4065184414e-001	 4.9706836133e+000	 1.2087915858e-001
 4.9490793833e-001	 4.9754463249e+000	 1.2439510149e-001
 4.4927218951e-001	 4.9797745430e+000	 1.2871479011e-001
 4.2680858003e-001	 4.7307858159e+000	 1.1856049157e-001
 3.8356249917e-001	 4.7344883366e+000	 1.2071785541e-001
 3.4042933210e-001	 4.7377851228e+000	 1.2450614622e-001
 2.9741401323e-001	 4.7406797935e+000	 1.2978115579e-001
 2.5452137749e-001	 4.7431760318e+000	 1.3639322904e-001
 2.1175615972e-001	 4.7452775818e+000	 1.4418722360e-001
 1.6912299422e-001	 4.7469882465e+000	 1.5300249079e-001
 1.2662641428e-001	 4.7483118844e+000	 1.6267287739e-001
 8.4270851934e-002	 4.7492524068e+000	 1.7302674773e-001
 4.2060637605e-002	 4.7498137756e+000	 1.8388702541e-001
 0.0000000000e+000	 4.7500000000e+000	 1.9507125401e-001
 4.2905494097e-001	 4.7556846886e+000	 1.2247304730e-001
 3.8558124916e-001	 4.7594066962e+000	 1.2426845404e-001
 3.4222106542e-001	 4.7627208340e+000	 1.2751325160e-001
 2.9897935014e-001	 4.7656307398e+000	 1.3208039820e-001
 2.5586096368e-001	 4.7681401161e+000	 1.3783710823e-001
 2.1287066582e-001	 4.7702527270e+000	 1.4464479781e-001
 1.7001311524e-001	 4.7719723952e+000	 1.5235905266e-001
 1.2729286910e-001	 4.7733029995e+000	 1.6082961772e-001
 8.4714382733e-002	 4.7742484721e+000	 1.6990040799e-001
 4.2282009382e-002	 4.7748127955e+000	 1.7940953992e-001
 0.0000000000e+000	 4.7750000000e+000	 1.8918938270e-001
 4.3130130191e-001	 4.7805835613e+000	 1.2566426146e-001
 3.8759999915e-001	 4.7843250559e+000	 1.2724816344e-001
 3.4401279874e-001	 4.7876565451e+000	 1.3010328010e-001
 3.0054468705e-001	 4.7905816861e+000	 1.3411972535e-001
 2.5720054988e-001	 4.7931042005e+000	 1.3918156924e-001
 2.1398517192e-001	 4.7952278722e+000	 1.4516676947e-001
 1.7090323626e-001	 4.7969565439e+000	 1.5194712623e-001
 1.2795932391e-001	 4.7982941147e+000	 1.5938825962e-001
 8.5157913532e-002	 4.7992445374e+000	 1.6734960938e-001
 4.2503381158e-002	 4.7998118153e+000	 1.7568445586e-001
 0.0000000000e+000	 4.8000000000e+000	 1.8423996202e-001
 4.3354766286e-001	 4.8054824340e+000	 1.2816369560e-001
 3.8961874915e-001	 4.8092434156e+000	 1.2968127276e-001
 3.4580453207e-001	 4.8125922563e+000	 1.3229523497e-001
 3.0211002396e-001	 4.8155326324e+000	 1.3591284370e-001
 2.5854013607e-001	 4.8180682849e+000	 1.4043501339e-001
 2.1509967803e-001	 4.8202030174e+000	 1.4575622898e-001
 1.7179335728e-001	 4.8219406925e+000	 1.5176448766e-001
 1.2862577872e-001	 4.8232852299e+000	 1.5834126421e-001
 8.5601444331e-002	 4.8242406027e+000	 1.6536149947e-001
 4.2724752935e-002	 4.8248108352e+000	 1.7269361119e-001
 0.0000000000e+000	 4.8250000000e+000	 1.8019952649e-001
 4.3579402381e-001	 4.8303813068e+000	 1.3000062520e-001
 3.9163749914e-001	 4.8341617752e+000	 1.3159185995e-001
 3.4759626540e-001	 4.8375279675e+000	 1.3410798365e-001
 3.0367536087e-001	 4.8404835786e+000	 1.3747339981e-001
 2.5987972227e-001	 4.8430323693e+000	 1.4160585856e-001
 2.1621418413e-001	 4.8451781625e+000	 1.4641636022e-001
 1.7268347830e-001	 4.8469248412e+000	 1.5180908397e-001
 1.2929223353e-001	 4.8482763451e+000	 1.5768134114e-001
 8.6044975130e-002	 4.8492366680e+000	 1.6392355253e-001
 4.2946124712e-002	 4.8498098551e+000	 1.7041924895e-001
 0.0000000000e+000	 4.8500000000e+000	 1.7704509446e-001
 4.3804038475e-001	 4.8552801795e+000	 1.3120404697e-001
 3.9365624914e-001	 4.8590801349e+000	 1.3300379711e-001
 3.4938799872e-001	 4.8624636787e+000	 1.3556026124e-001
 3.0524069778e-001	 4.8654345249e+000	 1.3881498192e-001
 2.6121930847e-001	 4.8679964537e+000	 1.4270253879e-001
 2.1732869023e-001	 4.8701533077e+000	 1.4715043814e-001
 1.7357359932e-001	 4.8719089899e+000	 1.5207902860e-001
 1.2995868834e-001	 4.8732674603e+000	 1.5740144230e-001
 8.6488505929e-002	 4.8742327333e+000	 1.6302356110e-001
 4.3167496488e-002	 4.8748088749e+000	 1.6884400691e-001
 0.0000000000e+000	 4.8750000000e+000	 1.7475415570e-001
 4.4028674570e-001	 4.8801790522e+000	 1.3180268602e-001
 3.9567499914e-001	 4.8839984946e+000	 1.3394075580e-001
 3.5117973205e-001	 4.8873993898e+000	 1.3667067389e-001
 3.0680603469e-001	 4.8903854712e+000	 1.3995112142e-001
 2.6255889466e-001	 4.8929605380e+000	 1.4373350385e-001
 2.1844319634e-001	 4.8951284529e+000	 1.4796182648e-001
 1.7446372034e-001	 4.8968931385e+000	 1.5257259719e-001
 1.3062514315e-001	 4.8982585754e+000	 1.5749475555e-001
 8.6932036728e-002	 4.8992287986e+000	 1.6264962787e-001
 4.3388868265e-002	 4.8998078948e+000	 1.6795090748e-001
 0.0000000000e+000	 4.9000000000e+000	 1.7330465936e-001
 4.4253310665e-001	 4.9050779249e+000	 1.3182500270e-001
 3.9769374913e-001	 4.9089168542e+000	 1.3442621208e-001
 3.5297146538e-001	 4.9123351010e+000	 1.3745770202e-001
 3.0837137160e-001	 4.9153364175e+000	 1.4089529429e-001
 2.6389848086e-001	 4.9179246224e+000	 1.4470721884e-001
 2.1955770244e-001	 4.9201035980e+000	 1.4885397548e-001
 1.7535384136e-001	 4.9218772872e+000	 1.5328822349e-001
 1.3129159796e-001	 4.9232496906e+000	 1.5795469879e-001
 8.7375567527e-002	 4.9242248639e+000	 1.6279015787e-001
 4.3610240041e-002	 4.9248069147e+000	 1.6772334793e-001
 0.0000000000e+000	 4.9250000000e+000	 1.7267500233e-001
 4.4477946760e-001	 4.9299767976e+000	 1.3129919933e-001
 3.9971249913e-001	 4.9338352139e+000	 1.3448345149e-001
 3.5476319871e-001	 4.9372708122e+000	 1.3793970359e-001
 3.0993670852e-001	 4.9402873638e+000	 1.4166092248e-001
 2.6523806706e-001	 4.9428887068e+000	 1.4563216382e-001
 2.2067220854e-001	 4.9450787432e+000	 1.4983041969e-001
 1.7624396239e-001	 4.9468614359e+000	 1.5422449530e-001
 1.3195805278e-001	 4.9482408058e+000	 1.5877491412e-001
 8.7819098327e-002	 4.9492209292e+000	 1.6343385075e-001
 4.3831611818e-002	 4.9498059346e+000	 1.6814509096e-001
 0.0000000000e+000	 4.9500000000e+000	 1.7284401792e-001
 4.4702582855e-001	 4.9548756703e+000	 1.3025322665e-001
 4.0173124913e-001	 4.9587535736e+000	 1.3413557381e-001
 3.5655493203e-001	 4.9622065233e+000	 1.3813491708e-001
 3.1150204543e-001	 4.9652383101e+000	 1.4226137533e-001
 2.6657765326e-001	 4.9678527912e+000	 1.4651683342e-001
 2.2178671465e-001	 4.9700538884e+000	 1.5089477588e-001
 1.7713408341e-001	 4.9718455845e+000	 1.5538015066e-001
 1.3262450759e-001	 4.9732319210e+000	 1.5994926223e-001
 8.8262629126e-002	 4.9742169945e+000	 1.6456969345e-001
 4.4052983595e-002	 4.9748049544e+000	 1.6920025547e-001
 0.0000000000e+000	 4.9750000000e+000	 1.7379096492e-001
 4.4927218951e-001	 4.9797745430e+000	 1.2871479011e-001
 4.0374999913e-001	 4.9836719332e+000	 1.3340549769e-001
 3.5834666536e-001	 4.9871422345e+000	 1.3806146454e-001
 3.1306738234e-001	 4.9901892563e+000	 1.4270997082e-001
 2.6791723945e-001	 4.9928168755e+000	 1.4736973647e-001
 2.2290122075e-001	 4.9950290335e+000	 1.5205074097e-001
 1.7802420443e-001	 4.9968297332e+000	 1.5675407407e-001
 1.3329096240e-001	 4.9982230362e+000	 1.6147181693e-001
 8.8706159925e-002	 4.9992130598e+000	 1.6618695296e-001
 4.4274355371e-002	 4.9998039743e+000	 1.7087330772e-001
 0.0000000000e+000	 5.0000000000e+000	 1.7549551692e-001
